# vtk DataFile Version 2.0
Generated volume Mesh
ASCII
DATASET UNSTRUCTURED_GRID
POINTS 65 float
0.040000 0.010000 0.000000
0.040000 -0.010000 0.000000
0.040000 -0.005000 0.000000
0.040000 -0.000000 0.000000
0.040000 0.005000 0.000000
0.000000 -0.010000 0.000000
0.000000 0.010000 0.000000
0.000000 0.005000 0.000000
0.000000 0.000000 0.000000
0.000000 -0.005000 0.000000
0.003333 -0.010000 0.000000
0.006667 -0.010000 0.000000
0.010000 -0.010000 0.000000
0.013333 -0.010000 0.000000
0.016667 -0.010000 0.000000
0.020000 -0.010000 0.000000
0.023333 -0.010000 0.000000
0.026667 -0.010000 0.000000
0.030000 -0.010000 0.000000
0.033333 -0.010000 0.000000
0.036667 -0.010000 0.000000
0.036667 0.010000 0.000000
0.033333 0.010000 0.000000
0.030000 0.010000 0.000000
0.026667 0.010000 0.000000
0.023333 0.010000 0.000000
0.020000 0.010000 0.000000
0.016667 0.010000 0.000000
0.013333 0.010000 0.000000
0.010000 0.010000 0.000000
0.006667 0.010000 0.000000
0.003333 0.010000 0.000000
0.003333 0.005000 0.000000
0.006667 0.005000 0.000000
0.010000 0.005000 0.000000
0.013333 0.005000 0.000000
0.016667 0.005000 0.000000
0.020000 0.005000 0.000000
0.023333 0.005000 0.000000
0.026667 0.005000 0.000000
0.030000 0.005000 0.000000
0.033333 0.005000 0.000000
0.036667 0.005000 0.000000
0.003333 0.000000 0.000000
0.006667 0.000000 0.000000
0.010000 0.000000 0.000000
0.013333 0.000000 0.000000
0.016667 0.000000 0.000000
0.020000 -0.000000 0.000000
0.023333 -0.000000 0.000000
0.026667 -0.000000 0.000000
0.030000 -0.000000 0.000000
0.033333 -0.000000 0.000000
0.036667 -0.000000 0.000000
0.003333 -0.005000 0.000000
0.006667 -0.005000 0.000000
0.010000 -0.005000 0.000000
0.013333 -0.005000 0.000000
0.016667 -0.005000 0.000000
0.020000 -0.005000 0.000000
0.023333 -0.005000 0.000000
0.026667 -0.005000 0.000000
0.030000 -0.005000 0.000000
0.033333 -0.005000 0.000000
0.036667 -0.005000 0.000000
CELLS 48 240
4 6 7 32 31
4 31 32 33 30
4 30 33 34 29
4 29 34 35 28
4 28 35 36 27
4 27 36 37 26
4 26 37 38 25
4 25 38 39 24
4 24 39 40 23
4 23 40 41 22
4 22 41 42 21
4 21 42 4 0
4 7 8 43 32
4 32 43 44 33
4 33 44 45 34
4 34 45 46 35
4 35 46 47 36
4 36 47 48 37
4 37 48 49 38
4 38 49 50 39
4 39 50 51 40
4 40 51 52 41
4 41 52 53 42
4 42 53 3 4
4 8 9 54 43
4 43 54 55 44
4 44 55 56 45
4 45 56 57 46
4 46 57 58 47
4 47 58 59 48
4 48 59 60 49
4 49 60 61 50
4 50 61 62 51
4 51 62 63 52
4 52 63 64 53
4 53 64 2 3
4 9 5 10 54
4 54 10 11 55
4 55 11 12 56
4 56 12 13 57
4 57 13 14 58
4 58 14 15 59
4 59 15 16 60
4 60 16 17 61
4 61 17 18 62
4 62 18 19 63
4 63 19 20 64
4 64 20 1 2
CELL_TYPES 48
9
9
9
9
9
9
9
9
9
9
9
9
9
9
9
9
9
9
9
9
9
9
9
9
9
9
9
9
9
9
9
9
9
9
9
9
9
9
9
9
9
9
9
9
9
9
9
9
POINT_DATA 65
SCALARS u1 float
LOOKUP_TABLE default
0.000000
0.000000
0.000000
0.000000
0.000000
0.000836
-0.000836
-0.000414
-0.000000
0.000414
0.000834
0.000824
0.000797
0.000756
0.000703
0.000638
0.000561
0.000472
0.000372
0.000260
0.000136
-0.000136
-0.000260
-0.000372
-0.000472
-0.000561
-0.000638
-0.000703
-0.000756
-0.000797
-0.000824
-0.000834
-0.000416
-0.000402
-0.000384
-0.000362
-0.000335
-0.000303
-0.000264
-0.000219
-0.000169
-0.000112
-0.000050
-0.000000
-0.000000
-0.000000
-0.000000
-0.000000
-0.000000
-0.000000
-0.000000
0.000000
0.000000
0.000000
0.000416
0.000402
0.000384
0.000362
0.000335
0.000303
0.000264
0.000219
0.000169
0.000112
0.000050
SCALARS u2 float
LOOKUP_TABLE default
0.000000
0.000000
0.000000
0.000000
0.000000
-0.002648
-0.002648
-0.002657
-0.002727
-0.002657
-0.002360
-0.002060
-0.001759
-0.001470
-0.001196
-0.000943
-0.000714
-0.000512
-0.000341
-0.000205
-0.000105
-0.000105
-0.000205
-0.000341
-0.000512
-0.000714
-0.000943
-0.001196
-0.001470
-0.001759
-0.002060
-0.002360
-0.002361
-0.002047
-0.001741
-0.001447
-0.001168
-0.000909
-0.000673
-0.000466
-0.000290
-0.000149
-0.000045
-0.002356
-0.002041
-0.001734
-0.001439
-0.001158
-0.000897
-0.000660
-0.000450
-0.000272
-0.000130
-0.000034
-0.002361
-0.002047
-0.001741
-0.001447
-0.001168
-0.000909
-0.000673
-0.000466
-0.000290
-0.000149
-0.000045
SCALARS strain_1 float
LOOKUP_TABLE default
-0.000001
0.000004
0.000005
0.000007
0.000008
0.000010
0.000012
0.000013
0.000015
0.000017
0.000018
0.000015
-0.000000
-0.000000
-0.000000
-0.000000
-0.000000
0.000000
-0.000000
0.000000
0.000000
0.000000
0.000000
-0.000000
0.000001
-0.000004
-0.000005
-0.000007
-0.000008
-0.000010
-0.000012
-0.000013
-0.000015
-0.000017
-0.000018
-0.000015
-0.000001
-0.000003
-0.000008
-0.000012
-0.000016
-0.000020
-0.000023
-0.000027
-0.000030
-0.000033
-0.000037
-0.000041
SCALARS strain_2 float
LOOKUP_TABLE default
0.000002
0.000000
-0.000003
-0.000004
-0.000005
-0.000006
-0.000007
-0.000008
-0.000009
-0.000010
-0.000011
-0.000012
0.000014
-0.000001
-0.000001
-0.000001
-0.000002
-0.000002
-0.000002
-0.000003
-0.000003
-0.000003
-0.000004
-0.000002
-0.000014
0.000001
0.000001
0.000001
0.000002
0.000002
0.000002
0.000003
0.000003
0.000003
0.000004
0.000002
-0.000002
-0.000000
0.000003
0.000004
0.000005
0.000006
0.000007
0.000008
0.000009
0.000010
0.000011
0.000012
SCALARS strain_3 float
LOOKUP_TABLE default
0.000002
0.000005
0.000004
0.000003
0.000002
0.000002
0.000002
0.000001
0.000001
0.000001
0.000001
-0.000002
0.000014
0.000006
0.000006
0.000006
0.000006
0.000006
0.000005
0.000005
0.000005
0.000005
0.000003
0.000000
0.000003
0.000006
0.000006
0.000006
0.000006
0.000005
0.000005
0.000005
0.000004
0.000004
0.000004
0.000002
0.000001
0.000003
0.000003
0.000002
0.000002
0.000001
0.000001
0.000001
0.000000
0.000000
0.000000
0.000007
SCALARS stress_1 float
LOOKUP_TABLE default
270755.875825
6095207.179110
5602912.207977
6715659.003032
8212314.186295
9888099.885853
11618527.588743
13389151.986975
15227106.805064
17111457.231568
18261232.176134
13438654.366430
8106075.575981
-661911.484336
-669106.935766
-801125.418890
-922961.674561
-1111995.240627
-1323629.903431
-1545871.520950
-1779684.866694
-2014019.528780
-2235207.171066
-1264353.987781
-7261571.809281
-5238789.909875
-6436667.981998
-7965181.600921
-9957693.526661
-12081915.711410
-14254525.519728
-16463734.825804
-18733426.245590
-21055327.928367
-22499196.679055
-19052253.167393
-1906263.564991
-4239110.267574
-9470441.077176
-14385113.474337
-18789507.078890
-22997455.412615
-27134423.925536
-31226121.039070
-35241664.615767
-39049883.562278
-43476883.913568
-48212481.174336
SCALARS stress_2 float
LOOKUP_TABLE default
2240342.313498
2982718.857523
-461347.548559
-1027856.649707
-1562991.091450
-2059025.889271
-2562779.289430
-3062657.452783
-3542676.716353
-4014880.663765
-4503608.446397
-7341439.154851
18914176.343956
-1544460.130116
-1561249.516786
-1869292.644076
-2153577.240642
-2594655.561463
-3088469.774672
-3607033.548885
-4152598.022292
-4699378.900488
-5215483.399154
-2950159.304820
-18552246.158232
-984411.895975
-1484082.590828
-1887696.078699
-2509560.702738
-3059877.703695
-3587882.549539
-4111369.171152
-4638735.311545
-5187484.295433
-5384975.393755
-5756958.047398
-2941274.180282
-2187248.752581
-1196164.823955
-2259052.409425
-2970091.576806
-3559269.336483
-4086890.569196
-4581757.855258
-5034990.916805
-5387302.049396
-6303099.441076
-7561629.477109
SCALARS stress_3 float
LOOKUP_TABLE default
1707802.827750
4173458.399264
2786213.998818
2237773.913952
1882002.726298
1621161.057172
1384099.756308
1149626.175346
912292.595358
615631.134270
542207.343025
-1403372.091448
11061725.943184
4293375.684476
4508749.846344
4566873.605978
4487153.147246
4306785.444563
4096436.343928
3885323.199194
3681470.995553
3466614.237214
2416713.637769
85628.221446
2292861.996472
4286181.671850
4376718.160051
4445025.165463
4298157.380334
4095129.616176
3874172.500023
3651556.606767
3447112.897659
3245404.473953
3387372.689246
1350108.657270
786956.885531
2476429.310394
2238373.907818
1620019.140325
1244660.143558
967278.900723
723207.141684
484209.311273
240339.481692
100298.152563
137507.168304
5475268.561361
