# vtk DataFile Version 2.0
Generated volume Mesh
ASCII
DATASET UNSTRUCTURED_GRID
POINTS 65 float
0.000000 -0.010000 0.000000
0.060000 -0.010000 0.000000
0.060000 0.010000 0.000000
0.000000 0.010000 0.000000
0.005000 -0.010000 0.000000
0.010000 -0.010000 0.000000
0.015000 -0.010000 0.000000
0.020000 -0.010000 0.000000
0.025000 -0.010000 0.000000
0.030000 -0.010000 0.000000
0.035000 -0.010000 0.000000
0.040000 -0.010000 0.000000
0.045000 -0.010000 0.000000
0.050000 -0.010000 0.000000
0.055000 -0.010000 0.000000
0.060000 -0.005000 0.000000
0.060000 -0.000000 0.000000
0.060000 0.005000 0.000000
0.055000 0.010000 0.000000
0.050000 0.010000 0.000000
0.045000 0.010000 0.000000
0.040000 0.010000 0.000000
0.035000 0.010000 0.000000
0.030000 0.010000 0.000000
0.025000 0.010000 0.000000
0.020000 0.010000 0.000000
0.015000 0.010000 0.000000
0.010000 0.010000 0.000000
0.005000 0.010000 0.000000
0.000000 0.005000 0.000000
0.000000 0.000000 0.000000
0.000000 -0.005000 0.000000
0.005000 -0.005000 0.000000
0.005000 0.000000 0.000000
0.005000 0.005000 0.000000
0.010000 -0.005000 0.000000
0.010000 0.000000 0.000000
0.010000 0.005000 0.000000
0.015000 -0.005000 0.000000
0.015000 0.000000 0.000000
0.015000 0.005000 0.000000
0.020000 -0.005000 0.000000
0.020000 0.000000 0.000000
0.020000 0.005000 0.000000
0.025000 -0.005000 0.000000
0.025000 0.000000 0.000000
0.025000 0.005000 0.000000
0.030000 -0.005000 0.000000
0.030000 0.000000 0.000000
0.030000 0.005000 0.000000
0.035000 -0.005000 0.000000
0.035000 -0.000000 0.000000
0.035000 0.005000 0.000000
0.040000 -0.005000 0.000000
0.040000 -0.000000 0.000000
0.040000 0.005000 0.000000
0.045000 -0.005000 0.000000
0.045000 -0.000000 0.000000
0.045000 0.005000 0.000000
0.050000 -0.005000 0.000000
0.050000 -0.000000 0.000000
0.050000 0.005000 0.000000
0.055000 -0.005000 0.000000
0.055000 -0.000000 0.000000
0.055000 0.005000 0.000000
CELLS 48 240
4 0 4 32 31
4 31 32 33 30
4 30 33 34 29
4 29 34 28 3
4 4 5 35 32
4 32 35 36 33
4 33 36 37 34
4 34 37 27 28
4 5 6 38 35
4 35 38 39 36
4 36 39 40 37
4 37 40 26 27
4 6 7 41 38
4 38 41 42 39
4 39 42 43 40
4 40 43 25 26
4 7 8 44 41
4 41 44 45 42
4 42 45 46 43
4 43 46 24 25
4 8 9 47 44
4 44 47 48 45
4 45 48 49 46
4 46 49 23 24
4 9 10 50 47
4 47 50 51 48
4 48 51 52 49
4 49 52 22 23
4 10 11 53 50
4 50 53 54 51
4 51 54 55 52
4 52 55 21 22
4 11 12 56 53
4 53 56 57 54
4 54 57 58 55
4 55 58 20 21
4 12 13 59 56
4 56 59 60 57
4 57 60 61 58
4 58 61 19 20
4 13 14 62 59
4 59 62 63 60
4 60 63 64 61
4 61 64 18 19
4 14 1 15 62
4 62 15 16 63
4 63 16 17 64
4 64 17 2 18
CELL_TYPES 48
9
9
9
9
9
9
9
9
9
9
9
9
9
9
9
9
9
9
9
9
9
9
9
9
9
9
9
9
9
9
9
9
9
9
9
9
9
9
9
9
9
9
9
9
9
9
9
9
POINT_DATA 65
SCALARS u1 float
LOOKUP_TABLE default
0.001873
0.000009
-0.000012
-0.001873
0.001865
0.001832
0.001766
0.001674
0.001556
0.001411
0.001239
0.001042
0.000818
0.000569
0.000296
0.000000
-0.000000
0.000007
-0.000296
-0.000569
-0.000818
-0.001042
-0.001239
-0.001411
-0.001556
-0.001674
-0.001766
-0.001832
-0.001865
-0.000929
0.000000
0.000929
0.000927
0.000000
-0.000927
0.000901
0.000000
-0.000901
0.000867
0.000000
-0.000867
0.000821
0.000000
-0.000821
0.000762
0.000000
-0.000762
0.000689
0.000000
-0.000689
0.000604
0.000000
-0.000604
0.000505
0.000000
-0.000505
0.000393
0.000000
-0.000393
0.000266
0.000000
-0.000266
0.000123
0.000000
-0.000123
SCALARS u2 float
LOOKUP_TABLE default
-0.008105
0.000003
0.000025
-0.008105
-0.007146
-0.006179
-0.005233
-0.004328
-0.003475
-0.002689
-0.001981
-0.001366
-0.000856
-0.000465
-0.000207
-0.000001
0.000000
0.000003
-0.000207
-0.000465
-0.000856
-0.001366
-0.001981
-0.002689
-0.003475
-0.004328
-0.005233
-0.006179
-0.007146
-0.008114
-0.008170
-0.008114
-0.007141
-0.007130
-0.007141
-0.006160
-0.006154
-0.006160
-0.005207
-0.005199
-0.005207
-0.004294
-0.004282
-0.004294
-0.003433
-0.003419
-0.003433
-0.002638
-0.002621
-0.002638
-0.001922
-0.001902
-0.001922
-0.001298
-0.001276
-0.001298
-0.000780
-0.000754
-0.000780
-0.000381
-0.000350
-0.000381
-0.000107
-0.000082
-0.000107
SCALARS strain_1 float
LOOKUP_TABLE default
-0.000002
-0.000000
-0.000000
0.000000
-0.000007
-0.000005
0.000000
0.000005
-0.000013
-0.000007
0.000000
0.000007
-0.000018
-0.000009
0.000000
0.000009
-0.000024
-0.000012
0.000000
0.000012
-0.000029
-0.000014
-0.000000
0.000014
-0.000034
-0.000017
-0.000000
0.000017
-0.000040
-0.000020
-0.000000
0.000020
-0.000045
-0.000022
-0.000000
0.000022
-0.000050
-0.000025
-0.000000
0.000025
-0.000055
-0.000029
-0.000000
0.000029
-0.000057
-0.000025
-0.000000
0.000026
SCALARS strain_2 float
LOOKUP_TABLE default
0.000001
0.000002
-0.000002
-0.000001
0.000004
0.000001
-0.000001
-0.000004
0.000005
0.000002
-0.000002
-0.000005
0.000007
0.000002
-0.000002
-0.000007
0.000008
0.000003
-0.000003
-0.000008
0.000010
0.000003
-0.000003
-0.000010
0.000012
0.000004
-0.000004
-0.000012
0.000014
0.000005
-0.000005
-0.000014
0.000015
0.000005
-0.000005
-0.000015
0.000017
0.000006
-0.000006
-0.000017
0.000020
0.000005
-0.000005
-0.000020
-0.000001
0.000000
0.000001
0.000004
SCALARS strain_3 float
LOOKUP_TABLE default
0.000002
0.000005
0.000011
0.000004
0.000004
0.000008
0.000007
0.000005
0.000005
0.000009
0.000009
0.000005
0.000005
0.000009
0.000010
0.000006
0.000006
0.000010
0.000010
0.000007
0.000007
0.000011
0.000011
0.000007
0.000007
0.000011
0.000012
0.000008
0.000008
0.000012
0.000012
0.000009
0.000008
0.000013
0.000013
0.000009
0.000009
0.000013
0.000014
0.000010
0.000009
0.000015
0.000014
0.000010
0.000020
0.000011
0.000009
0.000009
SCALARS stress_1 float
LOOKUP_TABLE default
-1573248.486544
781323.567917
-1281122.411611
-136264.274602
-6732545.962187
-6266397.695198
-705576.466240
4816028.150113
-14699467.808050
-8122405.946705
-1010522.068732
6206813.284792
-20902609.268526
-11136487.173222
-1299869.548658
8522843.369585
-27046365.707281
-14332048.854511
-1629264.434535
11075256.863907
-33158500.373200
-17555949.371169
-1954723.099691
13646585.936369
-39276491.669510
-20778594.951187
-2279263.010687
16215225.599493
-45396358.066581
-23993586.159306
-2613061.738024
18792375.153110
-51463355.990587
-27258462.599467
-2928102.708576
21338729.816606
-57318912.097075
-30513229.035630
-3578548.565785
24382630.533653
-62045747.025693
-35583717.252980
-2901893.534732
26965559.921419
-77458240.214326
-33014966.542359
307771.841688
37684534.195083
SCALARS stress_2 float
LOOKUP_TABLE default
537299.445374
2775086.122652
-2989285.627091
-1269947.771583
1221186.990157
-1341643.838434
-1646345.087897
-2042551.766757
-726220.049835
-1556227.179573
-2357884.827043
-2913489.031562
-1503949.967851
-2296838.219650
-3033028.946869
-3801663.988838
-2284525.445710
-3038945.824246
-3801617.013916
-4560235.487164
-3041097.237102
-3800696.207281
-4561020.565944
-5321151.807251
-3799196.691935
-4563658.768252
-5318280.358265
-6084203.052361
-4571252.991935
-5305705.043469
-6097144.055385
-6830453.970979
-5202704.012286
-6104859.764390
-6832239.653339
-7707850.062275
-6071634.579206
-6260815.175680
-8349946.653493
-8043914.662258
-4648080.408563
-9722748.280361
-6771084.914371
-10386285.493267
-33888496.575417
-13994757.483151
791414.557097
21081100.080631
SCALARS stress_3 float
LOOKUP_TABLE default
1613095.217260
3570556.913838
8698233.179963
2749346.576039
2838061.942725
6116943.642365
5733246.345452
3851317.204747
3598780.694043
6560788.228024
6764085.296351
4112226.506924
3998291.032563
7121287.307982
7314185.627932
4656556.780329
4508750.712183
7619044.558590
7838641.149174
5157112.760745
5013280.995517
8126878.018842
8343850.462278
5665301.068417
5520558.643408
8633525.733903
8849885.674566
6172922.528663
6028623.716884
9137748.600644
9360281.085536
6676383.971444
6499123.284358
9667226.640483
9877253.954185
7188165.115836
6844053.455847
10227464.423186
10661094.994660
7418261.173398
6570933.066145
11560383.710219
11109280.356183
7778202.265163
15433029.624914
8166887.096897
6879752.636106
7025742.182292
