# vtk DataFile Version 2.0
Generated volume Mesh
ASCII
DATASET UNSTRUCTURED_GRID
POINTS 1240 float
-0.212153 -0.150304 0.000000
-0.206421 -0.141033 0.000000
-0.215099 -0.146056 0.000000
-0.209122 -0.154492 0.000000
-0.217961 -0.141751 0.000000
-0.206009 -0.158620 0.000000
-0.220736 -0.137389 0.000000
-0.202815 -0.162684 0.000000
-0.223424 -0.132973 0.000000
-0.226023 -0.128505 0.000000
-0.199540 -0.166684 0.000000
-0.228534 -0.123985 0.000000
-0.196187 -0.170619 0.000000
-0.230953 -0.119417 0.000000
-0.192756 -0.174486 0.000000
-0.233282 -0.114802 0.000000
-0.189249 -0.178283 0.000000
-0.235519 -0.110141 0.000000
-0.185666 -0.182011 0.000000
-0.237662 -0.105436 0.000000
-0.182011 -0.185666 0.000000
-0.239711 -0.100690 0.000000
-0.178283 -0.189249 0.000000
-0.241666 -0.095904 0.000000
-0.174486 -0.192756 0.000000
-0.243525 -0.091081 0.000000
-0.170619 -0.196187 0.000000
-0.245288 -0.086221 0.000000
-0.166684 -0.199540 0.000000
-0.246953 -0.081327 0.000000
-0.162684 -0.202815 0.000000
-0.248521 -0.076401 0.000000
-0.158620 -0.206009 0.000000
-0.249991 -0.071445 0.000000
-0.154492 -0.209122 0.000000
-0.251363 -0.066459 0.000000
-0.150304 -0.212153 0.000000
-0.252634 -0.061448 0.000000
-0.146056 -0.215099 0.000000
-0.253806 -0.056412 0.000000
-0.141751 -0.217961 0.000000
-0.137389 -0.220736 0.000000
-0.254878 -0.051354 0.000000
-0.132973 -0.223424 0.000000
-0.255849 -0.046275 0.000000
-0.128505 -0.226023 0.000000
-0.256718 -0.041179 0.000000
-0.123985 -0.228534 0.000000
-0.257486 -0.036067 0.000000
-0.119417 -0.230953 0.000000
-0.258152 -0.030940 0.000000
-0.114802 -0.233282 0.000000
-0.258717 -0.025802 0.000000
-0.110141 -0.235519 0.000000
-0.259178 -0.020654 0.000000
-0.105436 -0.237662 0.000000
-0.259538 -0.015498 0.000000
-0.100690 -0.239711 0.000000
-0.259794 -0.010336 0.000000
-0.095904 -0.241666 0.000000
-0.259949 -0.005169 0.000000
-0.091081 -0.243525 0.000000
-0.260000 0.000000 0.000000
-0.259949 0.005169 0.000000
-0.086221 -0.245288 0.000000
-0.259794 0.010336 0.000000
-0.081327 -0.246953 0.000000
-0.259538 0.015498 0.000000
-0.076401 -0.248521 0.000000
-0.259178 0.020654 0.000000
-0.071445 -0.249991 0.000000
-0.258717 0.025802 0.000000
-0.066459 -0.251363 0.000000
-0.258152 0.030940 0.000000
-0.061448 -0.252634 0.000000
-0.257486 0.036067 0.000000
-0.056412 -0.253806 0.000000
-0.256718 0.041179 0.000000
-0.051354 -0.254878 0.000000
-0.255849 0.046275 0.000000
-0.046275 -0.255849 0.000000
-0.254878 0.051354 0.000000
-0.041179 -0.256718 0.000000
-0.253806 0.056412 0.000000
-0.036067 -0.257486 0.000000
-0.252634 0.061448 0.000000
-0.030940 -0.258152 0.000000
-0.251363 0.066459 0.000000
-0.025802 -0.258717 0.000000
-0.249991 0.071445 0.000000
-0.020654 -0.259178 0.000000
-0.248521 0.076401 0.000000
-0.015498 -0.259538 0.000000
-0.010336 -0.259794 0.000000
-0.246953 0.081327 0.000000
-0.005169 -0.259949 0.000000
-0.245288 0.086221 0.000000
0.000000 -0.260000 0.000000
-0.243525 0.091081 0.000000
0.005169 -0.259949 0.000000
-0.241666 0.095904 0.000000
0.010336 -0.259794 0.000000
-0.239711 0.100690 0.000000
0.015498 -0.259538 0.000000
-0.237662 0.105436 0.000000
0.020654 -0.259178 0.000000
-0.235519 0.110141 0.000000
0.025802 -0.258717 0.000000
-0.233282 0.114802 0.000000
0.030940 -0.258152 0.000000
-0.230953 0.119417 0.000000
0.036067 -0.257486 0.000000
-0.228534 0.123985 0.000000
0.041179 -0.256718 0.000000
-0.226023 0.128505 0.000000
-0.223424 0.132973 0.000000
0.046275 -0.255849 0.000000
-0.220736 0.137389 0.000000
0.051354 -0.254878 0.000000
-0.217961 0.141751 0.000000
0.056412 -0.253806 0.000000
-0.215099 0.146056 0.000000
0.061448 -0.252634 0.000000
-0.212153 0.150304 0.000000
0.066459 -0.251363 0.000000
-0.209122 0.154492 0.000000
0.071445 -0.249991 0.000000
-0.206009 0.158620 0.000000
0.076401 -0.248521 0.000000
-0.202815 0.162684 0.000000
0.081327 -0.246953 0.000000
-0.199540 0.166684 0.000000
0.086221 -0.245288 0.000000
-0.196187 0.170619 0.000000
0.091081 -0.243525 0.000000
-0.192756 0.174486 0.000000
0.095904 -0.241666 0.000000
-0.189249 0.178283 0.000000
0.100690 -0.239711 0.000000
-0.185666 0.182011 0.000000
0.105436 -0.237662 0.000000
-0.182011 0.185666 0.000000
0.110141 -0.235519 0.000000
-0.178283 0.189249 0.000000
0.114802 -0.233282 0.000000
-0.174486 0.192756 0.000000
0.119417 -0.230953 0.000000
0.123985 -0.228534 0.000000
-0.170619 0.196187 0.000000
0.128505 -0.226023 0.000000
-0.166684 0.199540 0.000000
0.132973 -0.223424 0.000000
-0.162684 0.202815 0.000000
0.137389 -0.220736 0.000000
-0.158620 0.206009 0.000000
0.141751 -0.217961 0.000000
-0.154492 0.209122 0.000000
0.146056 -0.215099 0.000000
-0.150304 0.212153 0.000000
0.150304 -0.212153 0.000000
-0.146056 0.215099 0.000000
0.154492 -0.209122 0.000000
-0.141751 0.217961 0.000000
0.158620 -0.206009 0.000000
-0.137389 0.220736 0.000000
0.162684 -0.202815 0.000000
-0.132973 0.223424 0.000000
-0.128505 0.226023 0.000000
0.166684 -0.199540 0.000000
-0.123985 0.228534 0.000000
0.170619 -0.196187 0.000000
-0.119417 0.230953 0.000000
0.174486 -0.192756 0.000000
-0.114802 0.233282 0.000000
0.178283 -0.189249 0.000000
-0.110141 0.235519 0.000000
0.182011 -0.185666 0.000000
-0.105436 0.237662 0.000000
0.185666 -0.182011 0.000000
-0.100690 0.239711 0.000000
0.189249 -0.178283 0.000000
-0.095904 0.241666 0.000000
0.192756 -0.174486 0.000000
-0.091081 0.243525 0.000000
0.196187 -0.170619 0.000000
-0.086221 0.245288 0.000000
0.199540 -0.166684 0.000000
-0.081327 0.246953 0.000000
0.202815 -0.162684 0.000000
-0.076401 0.248521 0.000000
0.206009 -0.158620 0.000000
-0.071445 0.249991 0.000000
0.209122 -0.154492 0.000000
-0.066459 0.251363 0.000000
0.212153 -0.150304 0.000000
-0.061448 0.252634 0.000000
0.215099 -0.146056 0.000000
-0.056412 0.253806 0.000000
0.217961 -0.141751 0.000000
0.220736 -0.137389 0.000000
-0.051354 0.254878 0.000000
0.223424 -0.132973 0.000000
-0.046275 0.255849 0.000000
0.226023 -0.128505 0.000000
-0.041179 0.256718 0.000000
0.228534 -0.123985 0.000000
-0.036067 0.257486 0.000000
0.230953 -0.119417 0.000000
-0.030940 0.258152 0.000000
0.233282 -0.114802 0.000000
-0.025802 0.258717 0.000000
0.235519 -0.110141 0.000000
-0.020654 0.259178 0.000000
0.237662 -0.105436 0.000000
-0.015498 0.259538 0.000000
0.239711 -0.100690 0.000000
-0.010336 0.259794 0.000000
0.241666 -0.095904 0.000000
-0.005169 0.259949 0.000000
0.243525 -0.091081 0.000000
0.000000 0.260000 0.000000
0.245288 -0.086221 0.000000
0.005169 0.259949 0.000000
0.246953 -0.081327 0.000000
0.010336 0.259794 0.000000
0.248521 -0.076401 0.000000
0.015498 0.259538 0.000000
0.249991 -0.071445 0.000000
0.020654 0.259178 0.000000
0.251363 -0.066459 0.000000
0.025802 0.258717 0.000000
0.252634 -0.061448 0.000000
0.030940 0.258152 0.000000
0.253806 -0.056412 0.000000
0.036067 0.257486 0.000000
0.254878 -0.051354 0.000000
0.041179 0.256718 0.000000
0.255849 -0.046275 0.000000
0.046275 0.255849 0.000000
0.256718 -0.041179 0.000000
0.051354 0.254878 0.000000
0.257486 -0.036067 0.000000
0.056412 0.253806 0.000000
0.258152 -0.030940 0.000000
0.061448 0.252634 0.000000
0.258717 -0.025802 0.000000
0.066459 0.251363 0.000000
0.259178 -0.020654 0.000000
0.071445 0.249991 0.000000
0.259538 -0.015498 0.000000
0.076401 0.248521 0.000000
0.259794 -0.010336 0.000000
0.081327 0.246953 0.000000
0.259949 -0.005169 0.000000
0.086221 0.245288 0.000000
0.260000 0.000000 0.000000
0.091081 0.243525 0.000000
0.259949 0.005169 0.000000
0.095904 0.241666 0.000000
0.259794 0.010336 0.000000
0.100690 0.239711 0.000000
0.259538 0.015498 0.000000
0.105436 0.237662 0.000000
0.259178 0.020654 0.000000
0.110141 0.235519 0.000000
0.258717 0.025802 0.000000
0.114802 0.233282 0.000000
0.258152 0.030940 0.000000
0.119417 0.230953 0.000000
0.257486 0.036067 0.000000
0.123985 0.228534 0.000000
0.256718 0.041179 0.000000
0.128505 0.226023 0.000000
0.255849 0.046275 0.000000
0.132973 0.223424 0.000000
0.254878 0.051354 0.000000
0.137389 0.220736 0.000000
0.253806 0.056412 0.000000
0.141751 0.217961 0.000000
0.252634 0.061448 0.000000
0.146056 0.215099 0.000000
0.251363 0.066459 0.000000
0.150304 0.212153 0.000000
0.249991 0.071445 0.000000
0.154492 0.209122 0.000000
0.248521 0.076401 0.000000
0.158620 0.206009 0.000000
0.246953 0.081327 0.000000
0.162684 0.202815 0.000000
0.245288 0.086221 0.000000
0.166684 0.199540 0.000000
0.243525 0.091081 0.000000
0.170619 0.196187 0.000000
0.241666 0.095904 0.000000
0.174486 0.192756 0.000000
0.239711 0.100690 0.000000
0.178283 0.189249 0.000000
0.237662 0.105436 0.000000
0.182011 0.185666 0.000000
0.235519 0.110141 0.000000
0.185666 0.182011 0.000000
0.233282 0.114802 0.000000
0.189249 0.178283 0.000000
0.230953 0.119417 0.000000
0.192756 0.174486 0.000000
0.228534 0.123985 0.000000
0.196187 0.170619 0.000000
0.226023 0.128505 0.000000
0.199540 0.166684 0.000000
0.223424 0.132973 0.000000
0.202815 0.162684 0.000000
0.220736 0.137389 0.000000
0.206009 0.158620 0.000000
0.217961 0.141751 0.000000
0.209122 0.154492 0.000000
0.215099 0.146056 0.000000
0.212153 0.150304 0.000000
-0.203462 -0.145269 0.000000
-0.209292 -0.136737 0.000000
-0.200416 -0.149443 0.000000
-0.212073 -0.132382 0.000000
-0.197285 -0.153553 0.000000
-0.214764 -0.127971 0.000000
-0.194070 -0.157598 0.000000
-0.217362 -0.123505 0.000000
-0.190771 -0.161575 0.000000
-0.219868 -0.118987 0.000000
-0.187391 -0.165483 0.000000
-0.222281 -0.114417 0.000000
-0.183931 -0.169320 0.000000
-0.224598 -0.109799 0.000000
-0.180392 -0.173086 0.000000
-0.226819 -0.105134 0.000000
-0.176777 -0.176777 0.000000
-0.228943 -0.100424 0.000000
-0.173086 -0.180392 0.000000
-0.230970 -0.095671 0.000000
-0.169320 -0.183931 0.000000
-0.232898 -0.090877 0.000000
-0.165483 -0.187391 0.000000
-0.234726 -0.086044 0.000000
-0.161575 -0.190771 0.000000
-0.236454 -0.081175 0.000000
-0.157598 -0.194070 0.000000
-0.238081 -0.076271 0.000000
-0.153553 -0.197285 0.000000
-0.239607 -0.071334 0.000000
-0.149443 -0.200416 0.000000
-0.241030 -0.066366 0.000000
-0.145269 -0.203462 0.000000
-0.242350 -0.061370 0.000000
-0.141033 -0.206421 0.000000
-0.243567 -0.056347 0.000000
-0.136737 -0.209292 0.000000
-0.244680 -0.051301 0.000000
-0.132382 -0.212073 0.000000
-0.245688 -0.046232 0.000000
-0.127971 -0.214764 0.000000
-0.246591 -0.041144 0.000000
-0.123505 -0.217362 0.000000
-0.247389 -0.036039 0.000000
-0.118987 -0.219868 0.000000
-0.248081 -0.030919 0.000000
-0.114417 -0.222281 0.000000
-0.248667 -0.025786 0.000000
-0.109799 -0.224598 0.000000
-0.249146 -0.020642 0.000000
-0.105134 -0.226819 0.000000
-0.249520 -0.015489 0.000000
-0.100424 -0.228943 0.000000
-0.249786 -0.010330 0.000000
-0.095671 -0.230970 0.000000
-0.249947 -0.005166 0.000000
-0.090877 -0.232898 0.000000
-0.250000 0.000000 0.000000
-0.086044 -0.234726 0.000000
-0.249947 0.005166 0.000000
-0.081175 -0.236454 0.000000
-0.249786 0.010330 0.000000
-0.076271 -0.238081 0.000000
-0.249520 0.015489 0.000000
-0.071334 -0.239607 0.000000
-0.249146 0.020642 0.000000
-0.066366 -0.241030 0.000000
-0.248667 0.025786 0.000000
-0.061370 -0.242350 0.000000
-0.248081 0.030919 0.000000
-0.056347 -0.243567 0.000000
-0.247389 0.036039 0.000000
-0.051301 -0.244680 0.000000
-0.246591 0.041144 0.000000
-0.046232 -0.245688 0.000000
-0.245688 0.046232 0.000000
-0.041144 -0.246591 0.000000
-0.244680 0.051301 0.000000
-0.036039 -0.247389 0.000000
-0.243567 0.056347 0.000000
-0.030919 -0.248081 0.000000
-0.242350 0.061370 0.000000
-0.025786 -0.248667 0.000000
-0.241030 0.066366 0.000000
-0.020642 -0.249146 0.000000
-0.239607 0.071334 0.000000
-0.015489 -0.249520 0.000000
-0.238081 0.076271 0.000000
-0.010330 -0.249786 0.000000
-0.236454 0.081175 0.000000
-0.005166 -0.249947 0.000000
-0.234726 0.086044 0.000000
-0.000000 -0.250000 0.000000
-0.232898 0.090877 0.000000
0.005166 -0.249947 0.000000
-0.230970 0.095671 0.000000
0.010330 -0.249786 0.000000
-0.228943 0.100424 0.000000
0.015489 -0.249520 0.000000
-0.226819 0.105134 0.000000
0.020642 -0.249146 0.000000
-0.224598 0.109799 0.000000
0.025786 -0.248667 0.000000
-0.222281 0.114417 0.000000
0.030919 -0.248081 0.000000
-0.219868 0.118987 0.000000
0.036039 -0.247389 0.000000
-0.217362 0.123505 0.000000
0.041144 -0.246591 0.000000
-0.214764 0.127971 0.000000
0.046232 -0.245688 0.000000
-0.212073 0.132382 0.000000
0.051301 -0.244680 0.000000
-0.209292 0.136737 0.000000
0.056347 -0.243567 0.000000
-0.206421 0.141033 0.000000
0.061370 -0.242350 0.000000
-0.203462 0.145269 0.000000
0.066366 -0.241030 0.000000
-0.200416 0.149443 0.000000
0.071334 -0.239607 0.000000
-0.197285 0.153553 0.000000
0.076271 -0.238081 0.000000
-0.194070 0.157598 0.000000
0.081175 -0.236454 0.000000
-0.190771 0.161575 0.000000
0.086044 -0.234726 0.000000
-0.187391 0.165483 0.000000
0.090877 -0.232898 0.000000
-0.183931 0.169320 0.000000
0.095671 -0.230970 0.000000
-0.180392 0.173086 0.000000
0.100424 -0.228943 0.000000
-0.176777 0.176777 0.000000
0.105134 -0.226819 0.000000
-0.173086 0.180392 0.000000
0.109799 -0.224598 0.000000
-0.169320 0.183931 0.000000
0.114417 -0.222281 0.000000
-0.165483 0.187391 0.000000
0.118987 -0.219868 0.000000
-0.161575 0.190771 0.000000
0.123505 -0.217362 0.000000
-0.157598 0.194070 0.000000
0.127971 -0.214764 0.000000
-0.153553 0.197285 0.000000
0.132382 -0.212073 0.000000
-0.149443 0.200416 0.000000
0.136737 -0.209292 0.000000
-0.145269 0.203462 0.000000
0.141033 -0.206421 0.000000
-0.141033 0.206421 0.000000
0.145269 -0.203462 0.000000
-0.136737 0.209292 0.000000
0.149443 -0.200416 0.000000
-0.132382 0.212073 0.000000
0.153553 -0.197285 0.000000
-0.127971 0.214764 0.000000
0.157598 -0.194070 0.000000
-0.123505 0.217362 0.000000
0.161575 -0.190771 0.000000
-0.118987 0.219868 0.000000
0.165483 -0.187391 0.000000
-0.114417 0.222281 0.000000
0.169320 -0.183931 0.000000
-0.109799 0.224598 0.000000
0.173086 -0.180392 0.000000
-0.105134 0.226819 0.000000
0.176777 -0.176777 0.000000
-0.100424 0.228943 0.000000
0.180392 -0.173086 0.000000
-0.095671 0.230970 0.000000
0.183931 -0.169320 0.000000
-0.090877 0.232898 0.000000
0.187391 -0.165483 0.000000
-0.086044 0.234726 0.000000
0.190771 -0.161575 0.000000
-0.081175 0.236454 0.000000
0.194070 -0.157598 0.000000
-0.076271 0.238081 0.000000
0.197285 -0.153553 0.000000
-0.071334 0.239607 0.000000
0.200416 -0.149443 0.000000
-0.066366 0.241030 0.000000
0.203462 -0.145269 0.000000
-0.061370 0.242350 0.000000
0.206421 -0.141033 0.000000
-0.056347 0.243567 0.000000
0.209292 -0.136737 0.000000
-0.051301 0.244680 0.000000
0.212073 -0.132382 0.000000
-0.046232 0.245688 0.000000
0.214764 -0.127971 0.000000
-0.041144 0.246591 0.000000
0.217362 -0.123505 0.000000
-0.036039 0.247389 0.000000
0.219868 -0.118987 0.000000
-0.030919 0.248081 0.000000
0.222281 -0.114417 0.000000
-0.025786 0.248667 0.000000
0.224598 -0.109799 0.000000
-0.020642 0.249146 0.000000
0.226819 -0.105134 0.000000
-0.015489 0.249520 0.000000
0.228943 -0.100424 0.000000
-0.010330 0.249786 0.000000
0.230970 -0.095671 0.000000
-0.005166 0.249947 0.000000
0.232898 -0.090877 0.000000
0.000000 0.250000 0.000000
0.234726 -0.086044 0.000000
0.005166 0.249947 0.000000
0.236454 -0.081175 0.000000
0.010330 0.249786 0.000000
0.238081 -0.076271 0.000000
0.015489 0.249520 0.000000
0.239607 -0.071334 0.000000
0.020642 0.249146 0.000000
0.241030 -0.066366 0.000000
0.025786 0.248667 0.000000
0.242350 -0.061370 0.000000
0.030919 0.248081 0.000000
0.243567 -0.056347 0.000000
0.036039 0.247389 0.000000
0.244680 -0.051301 0.000000
0.041144 0.246591 0.000000
0.245688 -0.046232 0.000000
0.046232 0.245688 0.000000
0.246591 -0.041144 0.000000
0.051301 0.244680 0.000000
0.247389 -0.036039 0.000000
0.056347 0.243567 0.000000
0.248081 -0.030919 0.000000
0.061370 0.242350 0.000000
0.248667 -0.025786 0.000000
0.066366 0.241030 0.000000
0.249146 -0.020642 0.000000
0.071334 0.239607 0.000000
0.249520 -0.015489 0.000000
0.076271 0.238081 0.000000
0.249786 -0.010330 0.000000
0.081175 0.236454 0.000000
0.249947 -0.005166 0.000000
0.086044 0.234726 0.000000
0.250000 -0.000000 0.000000
0.090877 0.232898 0.000000
0.249947 0.005166 0.000000
0.095671 0.230970 0.000000
0.249786 0.010330 0.000000
0.100424 0.228943 0.000000
0.249520 0.015489 0.000000
0.105134 0.226819 0.000000
0.249146 0.020642 0.000000
0.109799 0.224598 0.000000
0.248667 0.025786 0.000000
0.114417 0.222281 0.000000
0.248081 0.030919 0.000000
0.118987 0.219868 0.000000
0.247389 0.036039 0.000000
0.123505 0.217362 0.000000
0.246591 0.041144 0.000000
0.127971 0.214764 0.000000
0.245688 0.046232 0.000000
0.132382 0.212073 0.000000
0.244680 0.051301 0.000000
0.136737 0.209292 0.000000
0.243567 0.056347 0.000000
0.141033 0.206421 0.000000
0.242350 0.061370 0.000000
0.145269 0.203462 0.000000
0.241030 0.066366 0.000000
0.149443 0.200416 0.000000
0.239607 0.071334 0.000000
0.153553 0.197285 0.000000
0.238081 0.076271 0.000000
0.157598 0.194070 0.000000
0.236454 0.081175 0.000000
0.161575 0.190771 0.000000
0.234726 0.086044 0.000000
0.165483 0.187391 0.000000
0.232898 0.090877 0.000000
0.169320 0.183931 0.000000
0.230970 0.095671 0.000000
0.173086 0.180392 0.000000
0.228943 0.100424 0.000000
0.176777 0.176777 0.000000
0.226819 0.105134 0.000000
0.180392 0.173086 0.000000
0.224598 0.109799 0.000000
0.183931 0.169320 0.000000
0.222281 0.114417 0.000000
0.187391 0.165483 0.000000
0.219868 0.118987 0.000000
0.190771 0.161575 0.000000
0.217362 0.123505 0.000000
0.194070 0.157598 0.000000
0.214764 0.127971 0.000000
0.197285 0.153553 0.000000
0.212073 0.132382 0.000000
0.200416 0.149443 0.000000
0.209292 0.136737 0.000000
0.206421 0.141033 0.000000
0.203462 0.145269 0.000000
-0.211239 -0.145764 0.000000
-0.207348 -0.145506 0.000000
-0.208235 -0.149997 0.000000
-0.210271 -0.141224 0.000000
-0.214114 -0.141448 0.000000
-0.204348 -0.149730 0.000000
-0.205202 -0.154186 0.000000
-0.213130 -0.136835 0.000000
-0.216922 -0.137075 0.000000
-0.201224 -0.153860 0.000000
-0.202031 -0.158271 0.000000
-0.215878 -0.132424 0.000000
-0.219710 -0.132611 0.000000
-0.198030 -0.157923 0.000000
-0.198804 -0.162319 0.000000
-0.218605 -0.127699 0.000000
-0.222365 -0.128140 0.000000
-0.224875 -0.124872 0.000000
-0.194761 -0.161929 0.000000
-0.195479 -0.166293 0.000000
-0.221918 -0.123192 0.000000
-0.226380 -0.121036 0.000000
-0.191411 -0.165867 0.000000
-0.192076 -0.170180 0.000000
-0.223993 -0.118092 0.000000
-0.228835 -0.116386 0.000000
-0.187988 -0.169741 0.000000
-0.188629 -0.174050 0.000000
-0.226621 -0.113165 0.000000
-0.231077 -0.111640 0.000000
-0.184488 -0.173541 0.000000
-0.185072 -0.177780 0.000000
-0.228918 -0.108399 0.000000
-0.233287 -0.106944 0.000000
-0.180913 -0.177266 0.000000
-0.181487 -0.181485 0.000000
-0.231106 -0.103709 0.000000
-0.235397 -0.102211 0.000000
-0.177263 -0.180925 0.000000
-0.177757 -0.185116 0.000000
-0.233157 -0.098942 0.000000
-0.237414 -0.097442 0.000000
-0.173562 -0.184499 0.000000
-0.173989 -0.188666 0.000000
-0.235110 -0.094195 0.000000
-0.239353 -0.092615 0.000000
-0.169783 -0.188037 0.000000
-0.170176 -0.192088 0.000000
-0.237036 -0.089400 0.000000
-0.241145 -0.087789 0.000000
-0.165867 -0.191421 0.000000
-0.166261 -0.195470 0.000000
-0.238795 -0.084500 0.000000
-0.242869 -0.082916 0.000000
-0.161926 -0.194766 0.000000
-0.162296 -0.198817 0.000000
-0.240480 -0.079619 0.000000
-0.244533 -0.078015 0.000000
-0.157923 -0.198067 0.000000
-0.158264 -0.202046 0.000000
-0.242098 -0.074704 0.000000
-0.246013 -0.073093 0.000000
-0.153833 -0.201229 0.000000
-0.154141 -0.205206 0.000000
-0.243529 -0.069697 0.000000
-0.247451 -0.068123 0.000000
-0.149674 -0.204349 0.000000
-0.149938 -0.208289 0.000000
-0.244899 -0.064716 0.000000
-0.248766 -0.063116 0.000000
-0.145447 -0.207383 0.000000
-0.145696 -0.211247 0.000000
-0.246147 -0.059719 0.000000
-0.249987 -0.058081 0.000000
-0.141114 -0.210324 0.000000
-0.141350 -0.214172 0.000000
-0.247314 -0.054684 0.000000
-0.251085 -0.053025 0.000000
-0.136554 -0.213213 0.000000
-0.136933 -0.217186 0.000000
-0.133850 -0.219680 0.000000
-0.248378 -0.049626 0.000000
-0.252118 -0.047967 0.000000
-0.132090 -0.216717 0.000000
-0.130020 -0.221252 0.000000
-0.249339 -0.044548 0.000000
-0.253006 -0.042863 0.000000
-0.126984 -0.218897 0.000000
-0.125536 -0.223876 0.000000
-0.250196 -0.039452 0.000000
-0.253814 -0.037756 0.000000
-0.122403 -0.221788 0.000000
-0.120909 -0.226359 0.000000
-0.250948 -0.034339 0.000000
-0.254531 -0.032639 0.000000
-0.117810 -0.224233 0.000000
-0.116302 -0.228773 0.000000
-0.251590 -0.029207 0.000000
-0.255162 -0.027498 0.000000
-0.113063 -0.226648 0.000000
-0.111626 -0.231076 0.000000
-0.252152 -0.024064 0.000000
-0.255682 -0.022349 0.000000
-0.108405 -0.228923 0.000000
-0.106956 -0.233292 0.000000
-0.252595 -0.018895 0.000000
-0.256048 -0.017181 0.000000
-0.103699 -0.231093 0.000000
-0.102209 -0.235408 0.000000
-0.252917 -0.013716 0.000000
-0.256371 -0.011977 0.000000
-0.098950 -0.233168 0.000000
-0.097430 -0.237419 0.000000
-0.253145 -0.008502 0.000000
-0.256525 -0.006784 0.000000
-0.094186 -0.235148 0.000000
-0.092626 -0.239323 0.000000
-0.253246 -0.003274 0.000000
-0.256590 -0.001533 0.000000
-0.089365 -0.237021 0.000000
-0.087789 -0.241137 0.000000
-0.256677 0.003861 0.000000
-0.253142 0.002166 0.000000
-0.257115 0.007822 0.000000
-0.084514 -0.238796 0.000000
-0.082921 -0.242867 0.000000
-0.253720 0.007776 0.000000
-0.256519 0.011763 0.000000
-0.079606 -0.240458 0.000000
-0.078018 -0.244489 0.000000
-0.252852 0.013320 0.000000
-0.256068 0.016920 0.000000
-0.074694 -0.242036 0.000000
-0.073082 -0.246010 0.000000
-0.252611 0.018669 0.000000
-0.255656 0.022234 0.000000
-0.069735 -0.243513 0.000000
-0.068114 -0.247458 0.000000
-0.252141 0.023990 0.000000
-0.255162 0.027444 0.000000
-0.064743 -0.244887 0.000000
-0.063092 -0.248749 0.000000
-0.251604 0.029164 0.000000
-0.254573 0.032595 0.000000
-0.059717 -0.246147 0.000000
-0.058069 -0.249993 0.000000
-0.250974 0.034287 0.000000
-0.253840 0.037734 0.000000
-0.054678 -0.247313 0.000000
-0.053013 -0.251111 0.000000
-0.250231 0.039411 0.000000
-0.253024 0.042842 0.000000
-0.049616 -0.248377 0.000000
-0.047935 -0.252120 0.000000
-0.249361 0.044517 0.000000
-0.252111 0.047933 0.000000
-0.044539 -0.249350 0.000000
-0.042840 -0.253023 0.000000
-0.248407 0.049594 0.000000
-0.251110 0.053004 0.000000
-0.039431 -0.250212 0.000000
-0.037704 -0.253860 0.000000
-0.247324 0.054669 0.000000
-0.249985 0.058059 0.000000
-0.034308 -0.250972 0.000000
-0.032585 -0.254550 0.000000
-0.246143 0.059708 0.000000
-0.248743 0.063082 0.000000
-0.029143 -0.251616 0.000000
-0.027438 -0.255160 0.000000
-0.244868 0.064718 0.000000
-0.247429 0.068085 0.000000
-0.023984 -0.252155 0.000000
-0.022275 -0.255652 0.000000
-0.243509 0.069698 0.000000
-0.245994 0.073043 0.000000
-0.018760 -0.252599 0.000000
-0.017016 -0.256101 0.000000
-0.242036 0.074652 0.000000
-0.244469 0.077981 0.000000
-0.013287 -0.252844 0.000000
-0.011794 -0.256461 0.000000
-0.007824 -0.257115 0.000000
-0.240463 0.079574 0.000000
-0.242849 0.082888 0.000000
-0.007799 -0.253734 0.000000
-0.003878 -0.256704 0.000000
-0.238789 0.084463 0.000000
-0.241130 0.087762 0.000000
-0.002313 -0.253282 0.000000
0.001488 -0.256626 0.000000
-0.237016 0.089317 0.000000
-0.239316 0.092601 0.000000
0.003275 -0.253251 0.000000
0.006791 -0.256518 0.000000
-0.235145 0.094134 0.000000
-0.237412 0.097406 0.000000
0.008519 -0.253134 0.000000
0.011961 -0.256352 0.000000
-0.233173 0.098919 0.000000
-0.235426 0.102191 0.000000
0.013685 -0.252913 0.000000
0.017142 -0.256059 0.000000
-0.231127 0.103687 0.000000
-0.233295 0.106912 0.000000
0.018872 -0.252578 0.000000
0.022325 -0.255665 0.000000
-0.228942 0.108390 0.000000
-0.231092 0.111624 0.000000
0.024038 -0.252148 0.000000
0.027480 -0.255157 0.000000
-0.226657 0.113049 0.000000
-0.228780 0.116278 0.000000
0.029190 -0.251600 0.000000
0.032621 -0.254550 0.000000
-0.224272 0.117709 0.000000
-0.226385 0.120864 0.000000
0.034318 -0.250961 0.000000
0.037740 -0.253831 0.000000
-0.221796 0.122264 0.000000
-0.223999 0.125456 0.000000
0.039411 -0.250224 0.000000
0.042847 -0.253042 0.000000
-0.218901 0.126938 0.000000
-0.221364 0.129767 0.000000
-0.219680 0.133847 0.000000
0.044518 -0.249355 0.000000
0.047933 -0.252121 0.000000
-0.216712 0.132054 0.000000
-0.217004 0.137072 0.000000
0.049586 -0.248413 0.000000
0.052994 -0.251107 0.000000
-0.213232 0.136466 0.000000
-0.214223 0.141523 0.000000
0.054657 -0.247336 0.000000
0.058052 -0.250005 0.000000
-0.210309 0.141140 0.000000
-0.211239 0.145727 0.000000
0.059678 -0.246219 0.000000
0.063074 -0.248801 0.000000
-0.207382 0.145398 0.000000
-0.208266 0.149943 0.000000
0.064707 -0.244891 0.000000
0.068065 -0.247437 0.000000
-0.204377 0.149636 0.000000
-0.205190 0.154130 0.000000
0.069691 -0.243505 0.000000
0.073032 -0.246030 0.000000
-0.201236 0.153821 0.000000
-0.202041 0.158266 0.000000
0.074644 -0.242033 0.000000
0.077971 -0.244510 0.000000
-0.198078 0.157909 0.000000
-0.198801 0.162297 0.000000
0.079563 -0.240462 0.000000
0.082879 -0.242869 0.000000
-0.194813 0.161942 0.000000
-0.195518 0.166295 0.000000
0.084448 -0.238801 0.000000
0.087756 -0.241183 0.000000
-0.191439 0.165882 0.000000
-0.192093 0.170171 0.000000
0.089300 -0.237046 0.000000
0.092599 -0.239343 0.000000
-0.188003 0.169744 0.000000
-0.188653 0.173995 0.000000
0.094143 -0.235202 0.000000
0.097411 -0.237436 0.000000
-0.184499 0.173533 0.000000
-0.185108 0.177774 0.000000
0.098956 -0.233189 0.000000
0.102214 -0.235430 0.000000
-0.180925 0.177258 0.000000
-0.181476 0.181471 0.000000
0.103685 -0.231103 0.000000
0.106930 -0.233289 0.000000
-0.177298 0.180905 0.000000
-0.177799 0.185107 0.000000
0.108419 -0.228930 0.000000
0.111656 -0.231091 0.000000
-0.173586 0.184506 0.000000
-0.174021 0.188619 0.000000
0.113144 -0.226627 0.000000
0.116347 -0.228895 0.000000
-0.169775 0.188019 0.000000
-0.170198 0.192078 0.000000
0.118125 -0.224048 0.000000
0.120958 -0.226462 0.000000
0.124847 -0.224898 0.000000
-0.165874 0.191414 0.000000
-0.166269 0.195460 0.000000
0.123118 -0.221704 0.000000
0.128317 -0.222427 0.000000
-0.161942 0.194765 0.000000
-0.162298 0.198777 0.000000
0.127741 -0.218738 0.000000
0.132718 -0.219773 0.000000
-0.157941 0.198061 0.000000
-0.158267 0.202017 0.000000
0.132458 -0.215906 0.000000
0.137099 -0.216943 0.000000
-0.153841 0.201233 0.000000
-0.154157 0.205176 0.000000
0.136835 -0.213143 0.000000
0.141446 -0.214140 0.000000
-0.149697 0.204336 0.000000
-0.149986 0.208241 0.000000
0.141204 -0.210307 0.000000
0.145766 -0.211267 0.000000
-0.145494 0.207364 0.000000
-0.145771 0.211274 0.000000
0.145482 -0.207382 0.000000
0.149974 -0.208247 0.000000
-0.141205 0.210328 0.000000
-0.141442 0.214144 0.000000
0.149675 -0.204345 0.000000
0.154126 -0.205199 0.000000
-0.136819 0.213112 0.000000
-0.137086 0.216926 0.000000
0.153844 -0.201265 0.000000
0.158238 -0.202080 0.000000
-0.132440 0.215878 0.000000
-0.132694 0.219723 0.000000
0.157910 -0.198046 0.000000
0.162291 -0.198796 0.000000
-0.127703 0.218560 0.000000
-0.128168 0.222340 0.000000
-0.124872 0.224869 0.000000
0.161934 -0.194783 0.000000
0.166261 -0.195477 0.000000
-0.123151 0.221907 0.000000
-0.120918 0.226405 0.000000
0.165879 -0.191440 0.000000
0.170170 -0.192099 0.000000
-0.117906 0.223946 0.000000
-0.116364 0.228838 0.000000
0.169751 -0.188007 0.000000
0.173993 -0.188654 0.000000
-0.113240 0.226633 0.000000
-0.111662 0.231084 0.000000
0.173542 -0.184492 0.000000
0.177760 -0.185096 0.000000
-0.108422 0.228922 0.000000
-0.106961 0.233288 0.000000
0.177261 -0.180914 0.000000
0.181485 -0.181471 0.000000
-0.103737 0.231113 0.000000
-0.102262 0.235399 0.000000
0.180916 -0.177255 0.000000
0.185091 -0.177759 0.000000
-0.098948 0.233164 0.000000
-0.097431 0.237399 0.000000
0.184491 -0.173524 0.000000
0.188622 -0.173999 0.000000
-0.094143 0.235127 0.000000
-0.092613 0.239321 0.000000
0.187992 -0.169728 0.000000
0.192102 -0.170181 0.000000
-0.089317 0.237012 0.000000
-0.087764 0.241132 0.000000
0.191418 -0.165860 0.000000
0.195491 -0.166265 0.000000
-0.084463 0.238789 0.000000
-0.082889 0.242851 0.000000
0.194761 -0.161927 0.000000
0.198782 -0.162297 0.000000
-0.079574 0.240463 0.000000
-0.077984 0.244481 0.000000
0.198034 -0.157937 0.000000
0.202051 -0.158287 0.000000
-0.074655 0.242028 0.000000
-0.073067 0.246024 0.000000
0.201260 -0.153870 0.000000
0.205213 -0.154172 0.000000
-0.069704 0.243501 0.000000
-0.068084 0.247440 0.000000
0.204378 -0.149650 0.000000
0.208273 -0.149949 0.000000
-0.064720 0.244869 0.000000
-0.063076 0.248748 0.000000
0.207393 -0.145398 0.000000
0.211241 -0.145689 0.000000
-0.059719 0.246146 0.000000
-0.058059 0.249953 0.000000
0.210313 -0.141108 0.000000
0.214198 -0.141341 0.000000
-0.054684 0.247314 0.000000
-0.053013 0.251069 0.000000
0.213186 -0.136480 0.000000
0.217027 -0.137061 0.000000
0.219675 -0.133904 0.000000
-0.049626 0.248378 0.000000
-0.047946 0.252085 0.000000
0.216699 -0.132106 0.000000
0.221261 -0.130034 0.000000
-0.044548 0.249339 0.000000
-0.042859 0.253000 0.000000
0.218972 -0.126947 0.000000
0.223829 -0.125513 0.000000
-0.039452 0.250196 0.000000
-0.037755 0.253811 0.000000
0.221761 -0.122278 0.000000
0.226348 -0.120860 0.000000
-0.034339 0.250948 0.000000
-0.032636 0.254520 0.000000
0.224241 -0.117692 0.000000
0.228771 -0.116275 0.000000
-0.029212 0.251597 0.000000
-0.027501 0.255124 0.000000
0.226657 -0.113049 0.000000
0.231079 -0.111599 0.000000
-0.024064 0.252125 0.000000
-0.022349 0.255632 0.000000
0.228947 -0.108402 0.000000
0.233301 -0.106928 0.000000
-0.018895 0.252587 0.000000
-0.017177 0.256059 0.000000
0.231124 -0.103682 0.000000
0.235410 -0.102221 0.000000
-0.013722 0.252906 0.000000
-0.011984 0.256358 0.000000
0.233165 -0.098925 0.000000
0.237410 -0.097418 0.000000
-0.008503 0.253124 0.000000
-0.006797 0.256513 0.000000
0.235127 -0.094138 0.000000
0.239324 -0.092617 0.000000
-0.003298 0.253224 0.000000
-0.001537 0.256626 0.000000
0.236998 -0.089320 0.000000
0.241141 -0.087778 0.000000
0.002151 0.253099 0.000000
0.003665 0.256640 0.000000
0.007850 0.257154 0.000000
0.238771 -0.084467 0.000000
0.242860 -0.082904 0.000000
0.007797 0.253617 0.000000
0.011936 0.256414 0.000000
0.240446 -0.079578 0.000000
0.244481 -0.077996 0.000000
0.013338 0.252784 0.000000
0.017146 0.256139 0.000000
0.242028 -0.074654 0.000000
0.246037 -0.073052 0.000000
0.018795 0.252575 0.000000
0.022298 0.255656 0.000000
0.243509 -0.069698 0.000000
0.247448 -0.068073 0.000000
0.023967 0.252157 0.000000
0.027442 0.255166 0.000000
0.244876 -0.064709 0.000000
0.248758 -0.063061 0.000000
0.029162 0.251616 0.000000
0.032604 0.254548 0.000000
0.246144 -0.059697 0.000000
0.249992 -0.058030 0.000000
0.034292 0.250979 0.000000
0.037736 0.253859 0.000000
0.247309 -0.054662 0.000000
0.251104 -0.052986 0.000000
0.039431 0.250218 0.000000
0.042858 0.253073 0.000000
0.248369 -0.049609 0.000000
0.252103 -0.047938 0.000000
0.044531 0.249396 0.000000
0.047946 0.252110 0.000000
0.249327 -0.044538 0.000000
0.253015 -0.042853 0.000000
0.049638 0.248392 0.000000
0.053019 0.251075 0.000000
0.250196 -0.039452 0.000000
0.253860 -0.037736 0.000000
0.054696 0.247309 0.000000
0.058069 0.249954 0.000000
0.251003 -0.034313 0.000000
0.254598 -0.032621 0.000000
0.059722 0.246136 0.000000
0.063114 0.248759 0.000000
0.251639 -0.029149 0.000000
0.255178 -0.027455 0.000000
0.064734 0.244874 0.000000
0.068093 0.247429 0.000000
0.252168 -0.023976 0.000000
0.255662 -0.022304 0.000000
0.069737 0.243542 0.000000
0.073050 0.246037 0.000000
0.252584 -0.018806 0.000000
0.256143 -0.017147 0.000000
0.074663 0.242036 0.000000
0.077996 0.244480 0.000000
0.252817 -0.013347 0.000000
0.256442 -0.011927 0.000000
0.257154 -0.007852 0.000000
0.079584 0.240452 0.000000
0.082921 0.242866 0.000000
0.253690 -0.007780 0.000000
0.256642 -0.003691 0.000000
0.084471 0.238773 0.000000
0.087778 0.241141 0.000000
0.253096 -0.002165 0.000000
0.256647 0.001559 0.000000
0.089321 0.236998 0.000000
0.092617 0.239324 0.000000
0.253243 0.003287 0.000000
0.256520 0.006794 0.000000
0.094136 0.235126 0.000000
0.097418 0.237410 0.000000
0.253129 0.008465 0.000000
0.256359 0.011971 0.000000
0.098915 0.233157 0.000000
0.102180 0.235399 0.000000
0.252942 0.013681 0.000000
0.256098 0.017161 0.000000
0.103663 0.231094 0.000000
0.106917 0.233294 0.000000
0.252587 0.018892 0.000000
0.255640 0.022345 0.000000
0.108396 0.228944 0.000000
0.111598 0.231082 0.000000
0.252126 0.024061 0.000000
0.255131 0.027498 0.000000
0.113048 0.226663 0.000000
0.116271 0.228781 0.000000
0.251586 0.029205 0.000000
0.254568 0.032637 0.000000
0.117706 0.224256 0.000000
0.120852 0.226357 0.000000
0.250942 0.034329 0.000000
0.253839 0.037736 0.000000
0.122248 0.221776 0.000000
0.125477 0.223846 0.000000
0.250188 0.039438 0.000000
0.253035 0.042843 0.000000
0.126912 0.218965 0.000000
0.130002 0.221279 0.000000
0.249333 0.044533 0.000000
0.252125 0.047929 0.000000
0.132108 0.216694 0.000000
0.133891 0.219601 0.000000
0.248369 0.049612 0.000000
0.251087 0.053006 0.000000
0.136550 0.213160 0.000000
0.137046 0.217019 0.000000
0.247301 0.054671 0.000000
0.249968 0.058053 0.000000
0.141152 0.210287 0.000000
0.141372 0.214174 0.000000
0.246134 0.059706 0.000000
0.248748 0.063076 0.000000
0.145482 0.207387 0.000000
0.145725 0.211231 0.000000
0.244867 0.064717 0.000000
0.247418 0.068075 0.000000
0.149697 0.204345 0.000000
0.149984 0.208266 0.000000
0.243509 0.069698 0.000000
0.246029 0.073052 0.000000
0.153835 0.201247 0.000000
0.154130 0.205204 0.000000
0.242036 0.074652 0.000000
0.244477 0.077982 0.000000
0.157903 0.198039 0.000000
0.158242 0.202054 0.000000
0.240463 0.079574 0.000000
0.242860 0.082888 0.000000
0.161909 0.194770 0.000000
0.162280 0.198807 0.000000
0.238789 0.084463 0.000000
0.241157 0.087764 0.000000
0.165849 0.191427 0.000000
0.166250 0.195508 0.000000
0.237021 0.089328 0.000000
0.239376 0.092639 0.000000
0.169721 0.188004 0.000000
0.170154 0.192121 0.000000
0.235172 0.094182 0.000000
0.237425 0.097450 0.000000
0.173527 0.184503 0.000000
0.173991 0.188648 0.000000
0.233173 0.098964 0.000000
0.235397 0.102209 0.000000
0.177263 0.180930 0.000000
0.177779 0.185108 0.000000
0.231102 0.103711 0.000000
0.233283 0.106944 0.000000
0.180917 0.177274 0.000000
0.181479 0.181481 0.000000
0.228922 0.108427 0.000000
0.231077 0.111631 0.000000
0.184496 0.173546 0.000000
0.185088 0.177792 0.000000
0.226606 0.113135 0.000000
0.228845 0.116324 0.000000
0.187993 0.169732 0.000000
0.188640 0.174022 0.000000
0.223969 0.118039 0.000000
0.226404 0.120897 0.000000
0.191413 0.165855 0.000000
0.192089 0.170164 0.000000
0.221863 0.123176 0.000000
0.224891 0.124847 0.000000
0.194756 0.161915 0.000000
0.195477 0.166261 0.000000
0.218540 0.127743 0.000000
0.222360 0.128216 0.000000
0.198020 0.157909 0.000000
0.198786 0.162290 0.000000
0.215874 0.132431 0.000000
0.219701 0.132630 0.000000
0.201205 0.153841 0.000000
0.202014 0.158253 0.000000
0.213147 0.136837 0.000000
0.216928 0.137078 0.000000
0.204316 0.149710 0.000000
0.210278 0.141207 0.000000
0.207360 0.145490 0.000000
0.205171 0.154172 0.000000
0.214149 0.141432 0.000000
0.208240 0.149993 0.000000
0.211214 0.145747 0.000000
CELLS 1860 7440
3 620 2 0
3 0 622 620
3 621 620 622
3 622 625 621
3 317 621 625
3 625 319 317
3 319 625 629
3 629 321 319
3 321 629 633
3 633 323 321
3 323 633 638
3 638 325 323
3 325 638 642
3 642 327 325
3 327 642 646
3 646 329 327
3 329 646 650
3 650 331 329
3 331 650 654
3 654 333 331
3 333 654 658
3 658 335 333
3 335 658 662
3 662 337 335
3 337 662 666
3 666 339 337
3 339 666 670
3 670 341 339
3 341 670 674
3 674 343 341
3 343 674 678
3 678 345 343
3 345 678 682
3 682 347 345
3 347 682 686
3 686 349 347
3 349 686 690
3 690 351 349
3 351 690 694
3 694 353 351
3 353 694 698
3 698 355 353
3 355 698 703
3 703 357 355
3 357 703 707
3 707 359 357
3 359 707 711
3 711 361 359
3 361 711 715
3 715 363 361
3 363 715 719
3 719 365 363
3 365 719 723
3 723 367 365
3 367 723 727
3 727 369 367
3 369 727 731
3 731 371 369
3 371 731 735
3 735 373 371
3 373 735 739
3 739 375 373
3 375 739 744
3 744 377 375
3 377 744 748
3 748 379 377
3 379 748 752
3 752 381 379
3 381 752 756
3 756 383 381
3 383 756 760
3 760 385 383
3 385 760 764
3 764 387 385
3 387 764 768
3 768 389 387
3 389 768 772
3 772 391 389
3 391 772 776
3 776 393 391
3 393 776 780
3 780 395 393
3 395 780 784
3 784 397 395
3 397 784 788
3 788 399 397
3 399 788 792
3 792 401 399
3 401 792 796
3 796 403 401
3 403 796 800
3 800 405 403
3 405 800 805
3 805 407 405
3 407 805 809
3 809 409 407
3 409 809 813
3 813 411 409
3 411 813 817
3 817 413 411
3 413 817 821
3 821 415 413
3 415 821 825
3 825 417 415
3 417 825 829
3 829 419 417
3 419 829 833
3 833 421 419
3 421 833 837
3 837 423 421
3 423 837 841
3 841 425 423
3 425 841 846
3 846 427 425
3 427 846 850
3 850 429 427
3 429 850 854
3 854 431 429
3 431 854 858
3 858 433 431
3 433 858 862
3 862 435 433
3 435 862 866
3 866 437 435
3 437 866 870
3 870 439 437
3 439 870 874
3 874 441 439
3 441 874 878
3 878 443 441
3 443 878 882
3 882 445 443
3 445 882 886
3 886 447 445
3 447 886 890
3 890 449 447
3 449 890 894
3 894 451 449
3 451 894 898
3 898 453 451
3 453 898 902
3 902 455 453
3 455 902 906
3 906 457 455
3 457 906 911
3 911 459 457
3 459 911 915
3 915 461 459
3 461 915 919
3 919 463 461
3 463 919 923
3 923 465 463
3 465 923 927
3 927 467 465
3 467 927 931
3 931 469 467
3 469 931 935
3 935 471 469
3 471 935 939
3 939 473 471
3 473 939 943
3 943 475 473
3 475 943 948
3 948 477 475
3 477 948 952
3 952 479 477
3 479 952 956
3 956 481 479
3 481 956 960
3 960 483 481
3 483 960 964
3 964 485 483
3 485 964 968
3 968 487 485
3 487 968 972
3 972 489 487
3 489 972 976
3 976 491 489
3 491 976 980
3 980 493 491
3 493 980 984
3 984 495 493
3 495 984 988
3 988 497 495
3 497 988 992
3 992 499 497
3 499 992 996
3 996 501 499
3 501 996 1000
3 1000 503 501
3 503 1000 1004
3 1004 505 503
3 505 1004 1008
3 1008 507 505
3 507 1008 1013
3 1013 509 507
3 509 1013 1017
3 1017 511 509
3 511 1017 1021
3 1021 513 511
3 513 1021 1025
3 1025 515 513
3 515 1025 1029
3 1029 517 515
3 517 1029 1033
3 1033 519 517
3 519 1033 1037
3 1037 521 519
3 521 1037 1041
3 1041 523 521
3 523 1041 1045
3 1045 525 523
3 525 1045 1049
3 1049 527 525
3 527 1049 1054
3 1054 529 527
3 529 1054 1058
3 1058 531 529
3 531 1058 1062
3 1062 533 531
3 533 1062 1066
3 1066 535 533
3 535 1066 1070
3 1070 537 535
3 537 1070 1074
3 1074 539 537
3 539 1074 1078
3 1078 541 539
3 541 1078 1082
3 1082 543 541
3 543 1082 1086
3 1086 545 543
3 545 1086 1090
3 1090 547 545
3 547 1090 1094
3 1094 549 547
3 549 1094 1098
3 1098 551 549
3 551 1098 1102
3 1102 553 551
3 553 1102 1106
3 1106 555 553
3 555 1106 1110
3 1110 557 555
3 557 1110 1115
3 1115 559 557
3 559 1115 1119
3 1119 561 559
3 561 1119 1123
3 1123 563 561
3 563 1123 1127
3 1127 565 563
3 565 1127 1131
3 1131 567 565
3 567 1131 1135
3 1135 569 567
3 569 1135 1139
3 1139 571 569
3 571 1139 1143
3 1143 573 571
3 573 1143 1147
3 1147 575 573
3 575 1147 1151
3 1151 577 575
3 577 1151 1155
3 1155 579 577
3 579 1155 1159
3 1159 581 579
3 581 1159 1163
3 1163 583 581
3 583 1163 1167
3 1167 585 583
3 585 1167 1171
3 1171 587 585
3 587 1171 1175
3 1175 589 587
3 589 1175 1179
3 1179 591 589
3 591 1179 1183
3 1183 593 591
3 593 1183 1187
3 1187 595 593
3 595 1187 1191
3 1191 597 595
3 597 1191 1195
3 1195 599 597
3 599 1195 1199
3 1199 601 599
3 601 1199 1203
3 1203 603 601
3 603 1203 1207
3 1207 605 603
3 605 1207 1211
3 1211 607 605
3 607 1211 1215
3 1215 609 607
3 609 1215 1219
3 1219 611 609
3 611 1219 1223
3 1223 613 611
3 613 1223 1227
3 1227 615 613
3 615 1227 1231
3 1231 617 615
3 617 1231 1234
3 1234 618 617
3 618 1234 1235
3 1235 619 618
3 619 1235 1233
3 1233 616 619
3 616 1233 1229
3 1229 614 616
3 614 1229 1225
3 1225 612 614
3 612 1225 1221
3 1221 610 612
3 610 1221 1217
3 1217 608 610
3 608 1217 1213
3 1213 606 608
3 606 1213 1209
3 1209 604 606
3 604 1209 1205
3 1205 602 604
3 602 1205 1201
3 1201 600 602
3 600 1201 1197
3 1197 598 600
3 598 1197 1193
3 1193 596 598
3 596 1193 1189
3 1189 594 596
3 594 1189 1185
3 1185 592 594
3 592 1185 1181
3 1181 590 592
3 590 1181 1177
3 1177 588 590
3 588 1177 1173
3 1173 586 588
3 586 1173 1169
3 1169 584 586
3 584 1169 1165
3 1165 582 584
3 582 1165 1161
3 1161 580 582
3 580 1161 1157
3 1157 578 580
3 578 1157 1153
3 1153 576 578
3 576 1153 1149
3 1149 574 576
3 574 1149 1145
3 1145 572 574
3 572 1145 1141
3 1141 570 572
3 570 1141 1137
3 1137 568 570
3 568 1137 1133
3 1133 566 568
3 566 1133 1129
3 1129 564 566
3 564 1129 1125
3 1125 562 564
3 562 1125 1121
3 1121 560 562
3 560 1121 1117
3 1117 558 560
3 558 1117 1113
3 1113 556 558
3 556 1113 1108
3 1108 554 556
3 554 1108 1104
3 1104 552 554
3 552 1104 1100
3 1100 550 552
3 550 1100 1096
3 1096 548 550
3 548 1096 1092
3 1092 546 548
3 546 1092 1088
3 1088 544 546
3 544 1088 1084
3 1084 542 544
3 542 1084 1080
3 1080 540 542
3 540 1080 1076
3 1076 538 540
3 538 1076 1072
3 1072 536 538
3 536 1072 1068
3 1068 534 536
3 534 1068 1064
3 1064 532 534
3 532 1064 1060
3 1060 530 532
3 530 1060 1056
3 1056 528 530
3 528 1056 1051
3 1051 526 528
3 526 1051 1047
3 1047 524 526
3 524 1047 1043
3 1043 522 524
3 522 1043 1039
3 1039 520 522
3 520 1039 1035
3 1035 518 520
3 518 1035 1031
3 1031 516 518
3 516 1031 1027
3 1027 514 516
3 514 1027 1023
3 1023 512 514
3 512 1023 1019
3 1019 510 512
3 510 1019 1015
3 1015 508 510
3 508 1015 1011
3 1011 506 508
3 506 1011 1006
3 1006 504 506
3 504 1006 1002
3 1002 502 504
3 502 1002 998
3 998 500 502
3 500 998 994
3 994 498 500
3 498 994 990
3 990 496 498
3 496 990 986
3 986 494 496
3 494 986 982
3 982 492 494
3 492 982 978
3 978 490 492
3 490 978 974
3 974 488 490
3 488 974 970
3 970 486 488
3 486 970 966
3 966 484 486
3 484 966 962
3 962 482 484
3 482 962 958
3 958 480 482
3 480 958 954
3 954 478 480
3 478 954 950
3 950 476 478
3 476 950 945
3 945 474 476
3 474 945 941
3 941 472 474
3 472 941 937
3 937 470 472
3 470 937 933
3 933 468 470
3 468 933 929
3 929 466 468
3 466 929 925
3 925 464 466
3 464 925 921
3 921 462 464
3 462 921 917
3 917 460 462
3 460 917 913
3 913 458 460
3 458 913 909
3 909 456 458
3 456 909 904
3 904 454 456
3 454 904 900
3 900 452 454
3 452 900 896
3 896 450 452
3 450 896 892
3 892 448 450
3 448 892 888
3 888 446 448
3 446 888 884
3 884 444 446
3 444 884 880
3 880 442 444
3 442 880 876
3 876 440 442
3 440 876 872
3 872 438 440
3 438 872 868
3 868 436 438
3 436 868 864
3 864 434 436
3 434 864 860
3 860 432 434
3 432 860 856
3 856 430 432
3 430 856 852
3 852 428 430
3 428 852 848
3 848 426 428
3 426 848 843
3 843 424 426
3 424 843 839
3 839 422 424
3 422 839 835
3 835 420 422
3 420 835 831
3 831 418 420
3 418 831 827
3 827 416 418
3 416 827 823
3 823 414 416
3 414 823 819
3 819 412 414
3 412 819 815
3 815 410 412
3 410 815 811
3 811 408 410
3 408 811 807
3 807 406 408
3 406 807 803
3 803 404 406
3 404 803 798
3 798 402 404
3 402 798 794
3 794 400 402
3 400 794 790
3 790 398 400
3 398 790 786
3 786 396 398
3 396 786 782
3 782 394 396
3 394 782 778
3 778 392 394
3 392 778 774
3 774 390 392
3 390 774 770
3 770 388 390
3 388 770 766
3 766 386 388
3 386 766 762
3 762 384 386
3 384 762 758
3 758 382 384
3 382 758 754
3 754 380 382
3 380 754 750
3 750 378 380
3 378 750 746
3 746 376 378
3 376 746 742
3 742 374 376
3 374 742 737
3 737 372 374
3 372 737 733
3 733 370 372
3 370 733 729
3 729 368 370
3 368 729 725
3 725 366 368
3 366 725 721
3 721 364 366
3 364 721 717
3 717 362 364
3 362 717 713
3 713 360 362
3 360 713 709
3 709 358 360
3 358 709 705
3 705 356 358
3 356 705 701
3 701 354 356
3 354 701 696
3 696 352 354
3 352 696 692
3 692 350 352
3 350 692 688
3 688 348 350
3 348 688 684
3 684 346 348
3 346 684 680
3 680 344 346
3 344 680 676
3 676 342 344
3 342 676 672
3 672 340 342
3 340 672 668
3 668 338 340
3 338 668 664
3 664 336 338
3 336 664 660
3 660 334 336
3 334 660 656
3 656 332 334
3 332 656 652
3 652 330 332
3 330 652 648
3 648 328 330
3 328 648 644
3 644 326 328
3 326 644 640
3 640 324 326
3 324 640 635
3 635 322 324
3 322 635 631
3 631 320 322
3 320 631 627
3 627 318 320
3 318 627 623
3 623 1 318
3 1 623 621
3 624 623 627
3 627 628 624
3 4 624 628
3 628 6 4
3 6 628 632
3 632 8 6
3 8 632 636
3 636 9 8
3 9 636 637
3 637 11 9
3 11 637 641
3 641 13 11
3 13 641 645
3 645 15 13
3 15 645 649
3 649 17 15
3 17 649 653
3 653 19 17
3 19 653 657
3 657 21 19
3 21 657 661
3 661 23 21
3 23 661 665
3 665 25 23
3 25 665 669
3 669 27 25
3 27 669 673
3 673 29 27
3 29 673 677
3 677 31 29
3 31 677 681
3 681 33 31
3 33 681 685
3 685 35 33
3 35 685 689
3 689 37 35
3 37 689 693
3 693 39 37
3 39 693 697
3 697 42 39
3 42 697 702
3 702 44 42
3 44 702 706
3 706 46 44
3 46 706 710
3 710 48 46
3 48 710 714
3 714 50 48
3 50 714 718
3 718 52 50
3 52 718 722
3 722 54 52
3 54 722 726
3 726 56 54
3 56 726 730
3 730 58 56
3 58 730 734
3 734 60 58
3 60 734 738
3 738 62 60
3 62 738 741
3 741 63 62
3 63 741 743
3 743 65 63
3 65 743 747
3 747 67 65
3 67 747 751
3 751 69 67
3 69 751 755
3 755 71 69
3 71 755 759
3 759 73 71
3 73 759 763
3 763 75 73
3 75 763 767
3 767 77 75
3 77 767 771
3 771 79 77
3 79 771 775
3 775 81 79
3 81 775 779
3 779 83 81
3 83 779 783
3 783 85 83
3 85 783 787
3 787 87 85
3 87 787 791
3 791 89 87
3 89 791 795
3 795 91 89
3 91 795 799
3 799 94 91
3 94 799 804
3 804 96 94
3 96 804 808
3 808 98 96
3 98 808 812
3 812 100 98
3 100 812 816
3 816 102 100
3 102 816 820
3 820 104 102
3 104 820 824
3 824 106 104
3 106 824 828
3 828 108 106
3 108 828 832
3 832 110 108
3 110 832 836
3 836 112 110
3 112 836 840
3 840 114 112
3 114 840 844
3 844 115 114
3 115 844 845
3 845 117 115
3 117 845 849
3 849 119 117
3 119 849 853
3 853 121 119
3 121 853 857
3 857 123 121
3 123 857 861
3 861 125 123
3 125 861 865
3 865 127 125
3 127 865 869
3 869 129 127
3 129 869 873
3 873 131 129
3 131 873 877
3 877 133 131
3 133 877 881
3 881 135 133
3 135 881 885
3 885 137 135
3 137 885 889
3 889 139 137
3 139 889 893
3 893 141 139
3 141 893 897
3 897 143 141
3 143 897 901
3 901 145 143
3 145 901 905
3 905 148 145
3 148 905 910
3 910 150 148
3 150 910 914
3 914 152 150
3 152 914 918
3 918 154 152
3 154 918 922
3 922 156 154
3 156 922 926
3 926 158 156
3 158 926 930
3 930 160 158
3 160 930 934
3 934 162 160
3 162 934 938
3 938 164 162
3 164 938 942
3 942 166 164
3 166 942 946
3 946 167 166
3 167 946 947
3 947 169 167
3 169 947 951
3 951 171 169
3 171 951 955
3 955 173 171
3 173 955 959
3 959 175 173
3 175 959 963
3 963 177 175
3 177 963 967
3 967 179 177
3 179 967 971
3 971 181 179
3 181 971 975
3 975 183 181
3 183 975 979
3 979 185 183
3 185 979 983
3 983 187 185
3 187 983 987
3 987 189 187
3 189 987 991
3 991 191 189
3 191 991 995
3 995 193 191
3 193 995 999
3 999 195 193
3 195 999 1003
3 1003 197 195
3 197 1003 1007
3 1007 200 197
3 200 1007 1012
3 1012 202 200
3 202 1012 1016
3 1016 204 202
3 204 1016 1020
3 1020 206 204
3 206 1020 1024
3 1024 208 206
3 208 1024 1028
3 1028 210 208
3 210 1028 1032
3 1032 212 210
3 212 1032 1036
3 1036 214 212
3 214 1036 1040
3 1040 216 214
3 216 1040 1044
3 1044 218 216
3 218 1044 1048
3 1048 220 218
3 220 1048 1052
3 1052 222 220
3 222 1052 1053
3 1053 224 222
3 224 1053 1057
3 1057 226 224
3 226 1057 1061
3 1061 228 226
3 228 1061 1065
3 1065 230 228
3 230 1065 1069
3 1069 232 230
3 232 1069 1073
3 1073 234 232
3 234 1073 1077
3 1077 236 234
3 236 1077 1081
3 1081 238 236
3 238 1081 1085
3 1085 240 238
3 240 1085 1089
3 1089 242 240
3 242 1089 1093
3 1093 244 242
3 244 1093 1097
3 1097 246 244
3 246 1097 1101
3 1101 248 246
3 248 1101 1105
3 1105 250 248
3 250 1105 1109
3 1109 252 250
3 252 1109 1114
3 1114 254 252
3 254 1114 1118
3 1118 256 254
3 256 1118 1122
3 1122 258 256
3 258 1122 1126
3 1126 260 258
3 260 1126 1130
3 1130 262 260
3 262 1130 1134
3 1134 264 262
3 264 1134 1138
3 1138 266 264
3 266 1138 1142
3 1142 268 266
3 268 1142 1146
3 1146 270 268
3 270 1146 1150
3 1150 272 270
3 272 1150 1154
3 1154 274 272
3 274 1154 1158
3 1158 276 274
3 276 1158 1162
3 1162 278 276
3 278 1162 1166
3 1166 280 278
3 280 1166 1170
3 1170 282 280
3 282 1170 1174
3 1174 284 282
3 284 1174 1178
3 1178 286 284
3 286 1178 1182
3 1182 288 286
3 288 1182 1186
3 1186 290 288
3 290 1186 1190
3 1190 292 290
3 292 1190 1194
3 1194 294 292
3 294 1194 1198
3 1198 296 294
3 296 1198 1202
3 1202 298 296
3 298 1202 1206
3 1206 300 298
3 300 1206 1210
3 1210 302 300
3 302 1210 1214
3 1214 304 302
3 304 1214 1218
3 1218 306 304
3 306 1218 1222
3 1222 308 306
3 308 1222 1226
3 1226 310 308
3 310 1226 1230
3 1230 312 310
3 312 1230 1236
3 1236 314 312
3 314 1236 1238
3 1238 316 314
3 316 1238 1239
3 1239 315 316
3 315 1239 1237
3 1237 313 315
3 313 1237 1232
3 1232 311 313
3 311 1232 1228
3 1228 309 311
3 309 1228 1224
3 1224 307 309
3 307 1224 1220
3 1220 305 307
3 305 1220 1216
3 1216 303 305
3 303 1216 1212
3 1212 301 303
3 301 1212 1208
3 1208 299 301
3 299 1208 1204
3 1204 297 299
3 297 1204 1200
3 1200 295 297
3 295 1200 1196
3 1196 293 295
3 293 1196 1192
3 1192 291 293
3 291 1192 1188
3 1188 289 291
3 289 1188 1184
3 1184 287 289
3 287 1184 1180
3 1180 285 287
3 285 1180 1176
3 1176 283 285
3 283 1176 1172
3 1172 281 283
3 281 1172 1168
3 1168 279 281
3 279 1168 1164
3 1164 277 279
3 277 1164 1160
3 1160 275 277
3 275 1160 1156
3 1156 273 275
3 273 1156 1152
3 1152 271 273
3 271 1152 1148
3 1148 269 271
3 269 1148 1144
3 1144 267 269
3 267 1144 1140
3 1140 265 267
3 265 1140 1136
3 1136 263 265
3 263 1136 1132
3 1132 261 263
3 261 1132 1128
3 1128 259 261
3 259 1128 1124
3 1124 257 259
3 257 1124 1120
3 1120 255 257
3 255 1120 1116
3 1116 253 255
3 253 1116 1112
3 1112 251 253
3 251 1112 1111
3 1111 249 251
3 249 1111 1107
3 1107 247 249
3 247 1107 1103
3 1103 245 247
3 245 1103 1099
3 1099 243 245
3 243 1099 1095
3 1095 241 243
3 241 1095 1091
3 1091 239 241
3 239 1091 1087
3 1087 237 239
3 237 1087 1083
3 1083 235 237
3 235 1083 1079
3 1079 233 235
3 233 1079 1075
3 1075 231 233
3 231 1075 1071
3 1071 229 231
3 229 1071 1067
3 1067 227 229
3 227 1067 1063
3 1063 225 227
3 225 1063 1059
3 1059 223 225
3 223 1059 1055
3 1055 221 223
3 221 1055 1050
3 1050 219 221
3 219 1050 1046
3 1046 217 219
3 217 1046 1042
3 1042 215 217
3 215 1042 1038
3 1038 213 215
3 213 1038 1034
3 1034 211 213
3 211 1034 1030
3 1030 209 211
3 209 1030 1026
3 1026 207 209
3 207 1026 1022
3 1022 205 207
3 205 1022 1018
3 1018 203 205
3 203 1018 1014
3 1014 201 203
3 201 1014 1010
3 1010 199 201
3 199 1010 1009
3 1009 198 199
3 198 1009 1005
3 1005 196 198
3 196 1005 1001
3 1001 194 196
3 194 1001 997
3 997 192 194
3 192 997 993
3 993 190 192
3 190 993 989
3 989 188 190
3 188 989 985
3 985 186 188
3 186 985 981
3 981 184 186
3 184 981 977
3 977 182 184
3 182 977 973
3 973 180 182
3 180 973 969
3 969 178 180
3 178 969 965
3 965 176 178
3 176 965 961
3 961 174 176
3 174 961 957
3 957 172 174
3 172 957 953
3 953 170 172
3 170 953 949
3 949 168 170
3 168 949 944
3 944 165 168
3 165 944 940
3 940 163 165
3 163 940 936
3 936 161 163
3 161 936 932
3 932 159 161
3 159 932 928
3 928 157 159
3 157 928 924
3 924 155 157
3 155 924 920
3 920 153 155
3 153 920 916
3 916 151 153
3 151 916 912
3 912 149 151
3 149 912 908
3 908 147 149
3 147 908 907
3 907 146 147
3 146 907 903
3 903 144 146
3 144 903 899
3 899 142 144
3 142 899 895
3 895 140 142
3 140 895 891
3 891 138 140
3 138 891 887
3 887 136 138
3 136 887 883
3 883 134 136
3 134 883 879
3 879 132 134
3 132 879 875
3 875 130 132
3 130 875 871
3 871 128 130
3 128 871 867
3 867 126 128
3 126 867 863
3 863 124 126
3 124 863 859
3 859 122 124
3 122 859 855
3 855 120 122
3 120 855 851
3 851 118 120
3 118 851 847
3 847 116 118
3 116 847 842
3 842 113 116
3 113 842 838
3 838 111 113
3 111 838 834
3 834 109 111
3 109 834 830
3 830 107 109
3 107 830 826
3 826 105 107
3 105 826 822
3 822 103 105
3 103 822 818
3 818 101 103
3 101 818 814
3 814 99 101
3 99 814 810
3 810 97 99
3 97 810 806
3 806 95 97
3 95 806 802
3 802 93 95
3 93 802 801
3 801 92 93
3 92 801 797
3 797 90 92
3 90 797 793
3 793 88 90
3 88 793 789
3 789 86 88
3 86 789 785
3 785 84 86
3 84 785 781
3 781 82 84
3 82 781 777
3 777 80 82
3 80 777 773
3 773 78 80
3 78 773 769
3 769 76 78
3 76 769 765
3 765 74 76
3 74 765 761
3 761 72 74
3 72 761 757
3 757 70 72
3 70 757 753
3 753 68 70
3 68 753 749
3 749 66 68
3 66 749 745
3 745 64 66
3 64 745 740
3 740 61 64
3 61 740 736
3 736 59 61
3 59 736 732
3 732 57 59
3 57 732 728
3 728 55 57
3 55 728 724
3 724 53 55
3 53 724 720
3 720 51 53
3 51 720 716
3 716 49 51
3 49 716 712
3 712 47 49
3 47 712 708
3 708 45 47
3 45 708 704
3 704 43 45
3 43 704 700
3 700 41 43
3 41 700 699
3 699 40 41
3 40 699 695
3 695 38 40
3 38 695 691
3 691 36 38
3 36 691 687
3 687 34 36
3 34 687 683
3 683 32 34
3 32 683 679
3 679 30 32
3 30 679 675
3 675 28 30
3 28 675 671
3 671 26 28
3 26 671 667
3 667 24 26
3 24 667 663
3 663 22 24
3 22 663 659
3 659 20 22
3 20 659 655
3 655 18 20
3 18 655 651
3 651 16 18
3 16 651 647
3 647 14 16
3 14 647 643
3 643 12 14
3 12 643 639
3 639 10 12
3 10 639 634
3 634 7 10
3 7 634 630
3 630 5 7
3 5 630 626
3 626 3 5
3 3 626 622
3 629 626 630
3 633 630 634
3 638 634 639
3 642 639 643
3 646 643 647
3 650 647 651
3 654 651 655
3 658 655 659
3 662 659 663
3 666 663 667
3 670 667 671
3 674 671 675
3 678 675 679
3 682 679 683
3 686 683 687
3 690 687 691
3 694 691 695
3 698 695 699
3 700 703 699
3 700 704 703
3 707 704 708
3 711 708 712
3 715 712 716
3 719 716 720
3 723 720 724
3 727 724 728
3 731 728 732
3 735 732 736
3 739 736 740
3 744 740 745
3 748 745 749
3 752 749 753
3 756 753 757
3 760 757 761
3 764 761 765
3 768 765 769
3 772 769 773
3 776 773 777
3 780 777 781
3 784 781 785
3 788 785 789
3 792 789 793
3 796 793 797
3 800 797 801
3 802 805 801
3 802 806 805
3 809 806 810
3 813 810 814
3 817 814 818
3 821 818 822
3 825 822 826
3 829 826 830
3 833 830 834
3 837 834 838
3 841 838 842
3 846 842 847
3 850 847 851
3 854 851 855
3 858 855 859
3 862 859 863
3 866 863 867
3 870 867 871
3 874 871 875
3 878 875 879
3 882 879 883
3 886 883 887
3 890 887 891
3 894 891 895
3 898 895 899
3 902 899 903
3 906 903 907
3 908 911 907
3 908 912 911
3 915 912 916
3 919 916 920
3 923 920 924
3 927 924 928
3 931 928 932
3 935 932 936
3 939 936 940
3 943 940 944
3 948 944 949
3 952 949 953
3 956 953 957
3 960 957 961
3 964 961 965
3 968 965 969
3 972 969 973
3 976 973 977
3 980 977 981
3 984 981 985
3 988 985 989
3 992 989 993
3 996 993 997
3 1000 997 1001
3 1004 1001 1005
3 1008 1005 1009
3 1010 1013 1009
3 1010 1014 1013
3 1017 1014 1018
3 1021 1018 1022
3 1025 1022 1026
3 1029 1026 1030
3 1033 1030 1034
3 1037 1034 1038
3 1041 1038 1042
3 1045 1042 1046
3 1049 1046 1050
3 1054 1050 1055
3 1058 1055 1059
3 1062 1059 1063
3 1066 1063 1067
3 1070 1067 1071
3 1074 1071 1075
3 1078 1075 1079
3 1082 1079 1083
3 1086 1083 1087
3 1090 1087 1091
3 1094 1091 1095
3 1098 1095 1099
3 1102 1099 1103
3 1106 1103 1107
3 1110 1107 1111
3 1112 1115 1111
3 1112 1116 1115
3 1119 1116 1120
3 1123 1120 1124
3 1127 1124 1128
3 1131 1128 1132
3 1135 1132 1136
3 1139 1136 1140
3 1143 1140 1144
3 1147 1144 1148
3 1151 1148 1152
3 1155 1152 1156
3 1159 1156 1160
3 1163 1160 1164
3 1167 1164 1168
3 1171 1168 1172
3 1175 1172 1176
3 1179 1176 1180
3 1183 1180 1184
3 1187 1184 1188
3 1191 1188 1192
3 1195 1192 1196
3 1199 1196 1200
3 1203 1200 1204
3 1207 1204 1208
3 1211 1208 1212
3 1215 1212 1216
3 1220 1219 1216
3 1220 1224 1219
3 1223 1224 1228
3 1227 1228 1232
3 1231 1232 1237
3 1234 1237 1239
3 1235 1239 1238
3 1233 1238 1236
3 1229 1236 1230
3 1225 1230 1226
3 1221 1226 1222
3 1217 1222 1218
3 1213 1218 1214
3 1209 1214 1210
3 1205 1210 1206
3 1201 1206 1202
3 1197 1202 1198
3 1193 1198 1194
3 1189 1194 1190
3 1185 1190 1186
3 1181 1186 1182
3 1177 1182 1178
3 1173 1178 1174
3 1169 1174 1170
3 1165 1170 1166
3 1161 1166 1162
3 1158 1157 1162
3 1158 1154 1157
3 1153 1154 1150
3 1149 1150 1146
3 1145 1146 1142
3 1141 1142 1138
3 1137 1138 1134
3 1133 1134 1130
3 1129 1130 1126
3 1125 1126 1122
3 1121 1122 1118
3 1117 1118 1114
3 1113 1114 1109
3 1108 1109 1105
3 1104 1105 1101
3 1100 1101 1097
3 1096 1097 1093
3 1092 1093 1089
3 1088 1089 1085
3 1084 1085 1081
3 1080 1081 1077
3 1076 1077 1073
3 1072 1073 1069
3 1068 1069 1065
3 1064 1065 1061
3 1060 1061 1057
3 1053 1056 1057
3 1053 1052 1056
3 1051 1052 1048
3 1047 1048 1044
3 1043 1044 1040
3 1039 1040 1036
3 1035 1036 1032
3 1031 1032 1028
3 1027 1028 1024
3 1023 1024 1020
3 1019 1020 1016
3 1015 1016 1012
3 1011 1012 1007
3 1006 1007 1003
3 1002 1003 999
3 998 999 995
3 994 995 991
3 990 991 987
3 986 987 983
3 982 983 979
3 978 979 975
3 974 975 971
3 970 971 967
3 966 967 963
3 962 963 959
3 958 959 955
3 954 955 951
3 947 950 951
3 947 946 950
3 945 946 942
3 941 942 938
3 937 938 934
3 933 934 930
3 929 930 926
3 925 926 922
3 921 922 918
3 917 918 914
3 913 914 910
3 909 910 905
3 904 905 901
3 900 901 897
3 896 897 893
3 892 893 889
3 888 889 885
3 884 885 881
3 880 881 877
3 876 877 873
3 872 873 869
3 868 869 865
3 864 865 861
3 860 861 857
3 856 857 853
3 852 853 849
3 845 848 849
3 845 844 848
3 844 840 843
3 839 840 836
3 835 836 832
3 831 832 828
3 827 828 824
3 823 824 820
3 819 820 816
3 815 816 812
3 811 812 808
3 807 808 804
3 803 804 799
3 798 799 795
3 794 795 791
3 790 791 787
3 786 787 783
3 782 783 779
3 778 779 775
3 774 775 771
3 770 771 767
3 766 767 763
3 762 763 759
3 758 759 755
3 754 755 751
3 750 751 747
3 743 746 747
3 743 741 746
3 742 741 738
3 737 738 734
3 733 734 730
3 729 730 726
3 725 726 722
3 721 722 718
3 717 718 714
3 713 714 710
3 709 710 706
3 705 706 702
3 701 702 697
3 696 697 693
3 692 693 689
3 688 689 685
3 684 685 681
3 680 681 677
3 676 677 673
3 672 673 669
3 668 669 665
3 664 665 661
3 660 661 657
3 656 657 653
3 652 653 649
3 648 649 645
3 644 645 641
3 637 640 641
3 637 636 640
3 635 636 632
3 631 632 628
3 624 4 2
3 623 624 620
3 628 627 631
3 632 631 635
3 636 635 640
3 641 640 644
3 645 644 648
3 649 648 652
3 653 652 656
3 657 656 660
3 661 660 664
3 665 664 668
3 669 668 672
3 673 672 676
3 677 676 680
3 681 680 684
3 685 684 688
3 689 688 692
3 693 692 696
3 697 696 701
3 702 701 705
3 706 705 709
3 710 709 713
3 714 713 717
3 718 717 721
3 722 721 725
3 726 725 729
3 730 729 733
3 734 733 737
3 738 737 742
3 741 742 746
3 747 746 750
3 751 750 754
3 755 754 758
3 759 758 762
3 763 762 766
3 767 766 770
3 771 770 774
3 775 774 778
3 779 778 782
3 783 782 786
3 787 786 790
3 791 790 794
3 795 794 798
3 799 798 803
3 804 803 807
3 808 807 811
3 812 811 815
3 816 815 819
3 820 819 823
3 824 823 827
3 828 827 831
3 832 831 835
3 836 835 839
3 840 839 843
3 844 843 848
3 849 848 852
3 853 852 856
3 857 856 860
3 861 860 864
3 865 864 868
3 869 868 872
3 873 872 876
3 877 876 880
3 881 880 884
3 885 884 888
3 889 888 892
3 893 892 896
3 897 896 900
3 901 900 904
3 905 904 909
3 910 909 913
3 914 913 917
3 918 917 921
3 922 921 925
3 926 925 929
3 930 929 933
3 934 933 937
3 938 937 941
3 942 941 945
3 946 945 950
3 951 950 954
3 955 954 958
3 959 958 962
3 963 962 966
3 967 966 970
3 971 970 974
3 975 974 978
3 979 978 982
3 983 982 986
3 987 986 990
3 991 990 994
3 995 994 998
3 999 998 1002
3 1003 1002 1006
3 1007 1006 1011
3 1012 1011 1015
3 1016 1015 1019
3 1020 1019 1023
3 1024 1023 1027
3 1028 1027 1031
3 1032 1031 1035
3 1036 1035 1039
3 1040 1039 1043
3 1044 1043 1047
3 1048 1047 1051
3 1052 1051 1056
3 1057 1056 1060
3 1061 1060 1064
3 1065 1064 1068
3 1069 1068 1072
3 1073 1072 1076
3 1077 1076 1080
3 1081 1080 1084
3 1085 1084 1088
3 1089 1088 1092
3 1093 1092 1096
3 1097 1096 1100
3 1101 1100 1104
3 1105 1104 1108
3 1109 1108 1113
3 1114 1113 1117
3 1118 1117 1121
3 1122 1121 1125
3 1126 1125 1129
3 1130 1129 1133
3 1134 1133 1137
3 1138 1137 1141
3 1142 1141 1145
3 1146 1145 1149
3 1150 1149 1153
3 1154 1153 1157
3 1162 1157 1161
3 1166 1161 1165
3 1170 1165 1169
3 1174 1169 1173
3 1178 1173 1177
3 1182 1177 1181
3 1186 1181 1185
3 1190 1185 1189
3 1194 1189 1193
3 1198 1193 1197
3 1202 1197 1201
3 1206 1201 1205
3 1210 1205 1209
3 1214 1209 1213
3 1218 1213 1217
3 1222 1217 1221
3 1226 1221 1225
3 1230 1225 1229
3 1236 1229 1233
3 1238 1233 1235
3 1239 1235 1234
3 1237 1234 1231
3 1232 1231 1227
3 1228 1227 1223
3 1224 1223 1219
3 1216 1219 1215
3 1212 1215 1211
3 1208 1211 1207
3 1204 1207 1203
3 1200 1203 1199
3 1196 1199 1195
3 1192 1195 1191
3 1188 1191 1187
3 1184 1187 1183
3 1180 1183 1179
3 1176 1179 1175
3 1172 1175 1171
3 1168 1171 1167
3 1164 1167 1163
3 1160 1163 1159
3 1156 1159 1155
3 1152 1155 1151
3 1148 1151 1147
3 1144 1147 1143
3 1140 1143 1139
3 1136 1139 1135
3 1132 1135 1131
3 1128 1131 1127
3 1124 1127 1123
3 1120 1123 1119
3 1116 1119 1115
3 1111 1115 1110
3 1107 1110 1106
3 1103 1106 1102
3 1099 1102 1098
3 1095 1098 1094
3 1091 1094 1090
3 1087 1090 1086
3 1083 1086 1082
3 1079 1082 1078
3 1075 1078 1074
3 1071 1074 1070
3 1067 1070 1066
3 1063 1066 1062
3 1059 1062 1058
3 1055 1058 1054
3 1050 1054 1049
3 1046 1049 1045
3 1042 1045 1041
3 1038 1041 1037
3 1034 1037 1033
3 1030 1033 1029
3 1026 1029 1025
3 1022 1025 1021
3 1018 1021 1017
3 1014 1017 1013
3 1009 1013 1008
3 1005 1008 1004
3 1001 1004 1000
3 997 1000 996
3 993 996 992
3 989 992 988
3 985 988 984
3 981 984 980
3 977 980 976
3 973 976 972
3 969 972 968
3 965 968 964
3 961 964 960
3 957 960 956
3 953 956 952
3 949 952 948
3 944 948 943
3 940 943 939
3 936 939 935
3 932 935 931
3 928 931 927
3 924 927 923
3 920 923 919
3 916 919 915
3 912 915 911
3 907 911 906
3 903 906 902
3 899 902 898
3 895 898 894
3 891 894 890
3 887 890 886
3 883 886 882
3 879 882 878
3 875 878 874
3 871 874 870
3 867 870 866
3 863 866 862
3 859 862 858
3 855 858 854
3 851 854 850
3 847 850 846
3 842 846 841
3 838 841 837
3 834 837 833
3 830 833 829
3 826 829 825
3 822 825 821
3 818 821 817
3 814 817 813
3 810 813 809
3 806 809 805
3 801 805 800
3 797 800 796
3 793 796 792
3 789 792 788
3 785 788 784
3 781 784 780
3 777 780 776
3 773 776 772
3 769 772 768
3 765 768 764
3 761 764 760
3 757 760 756
3 753 756 752
3 749 752 748
3 745 748 744
3 740 744 739
3 736 739 735
3 732 735 731
3 728 731 727
3 724 727 723
3 720 723 719
3 716 719 715
3 712 715 711
3 708 711 707
3 704 707 703
3 699 703 698
3 695 698 694
3 691 694 690
3 687 690 686
3 683 686 682
3 679 682 678
3 675 678 674
3 671 674 670
3 667 670 666
3 663 666 662
3 659 662 658
3 655 658 654
3 651 654 650
3 647 650 646
3 643 646 642
3 639 642 638
3 634 638 633
3 630 633 629
3 626 629 625
3 621 317 1
3 625 622 626
3 620 621 623
3 622 0 3
3 2 620 624
CELL_TYPES 1860
5
5
5
5
5
5
5
5
5
5
5
5
5
5
5
5
5
5
5
5
5
5
5
5
5
5
5
5
5
5
5
5
5
5
5
5
5
5
5
5
5
5
5
5
5
5
5
5
5
5
5
5
5
5
5
5
5
5
5
5
5
5
5
5
5
5
5
5
5
5
5
5
5
5
5
5
5
5
5
5
5
5
5
5
5
5
5
5
5
5
5
5
5
5
5
5
5
5
5
5
5
5
5
5
5
5
5
5
5
5
5
5
5
5
5
5
5
5
5
5
5
5
5
5
5
5
5
5
5
5
5
5
5
5
5
5
5
5
5
5
5
5
5
5
5
5
5
5
5
5
5
5
5
5
5
5
5
5
5
5
5
5
5
5
5
5
5
5
5
5
5
5
5
5
5
5
5
5
5
5
5
5
5
5
5
5
5
5
5
5
5
5
5
5
5
5
5
5
5
5
5
5
5
5
5
5
5
5
5
5
5
5
5
5
5
5
5
5
5
5
5
5
5
5
5
5
5
5
5
5
5
5
5
5
5
5
5
5
5
5
5
5
5
5
5
5
5
5
5
5
5
5
5
5
5
5
5
5
5
5
5
5
5
5
5
5
5
5
5
5
5
5
5
5
5
5
5
5
5
5
5
5
5
5
5
5
5
5
5
5
5
5
5
5
5
5
5
5
5
5
5
5
5
5
5
5
5
5
5
5
5
5
5
5
5
5
5
5
5
5
5
5
5
5
5
5
5
5
5
5
5
5
5
5
5
5
5
5
5
5
5
5
5
5
5
5
5
5
5
5
5
5
5
5
5
5
5
5
5
5
5
5
5
5
5
5
5
5
5
5
5
5
5
5
5
5
5
5
5
5
5
5
5
5
5
5
5
5
5
5
5
5
5
5
5
5
5
5
5
5
5
5
5
5
5
5
5
5
5
5
5
5
5
5
5
5
5
5
5
5
5
5
5
5
5
5
5
5
5
5
5
5
5
5
5
5
5
5
5
5
5
5
5
5
5
5
5
5
5
5
5
5
5
5
5
5
5
5
5
5
5
5
5
5
5
5
5
5
5
5
5
5
5
5
5
5
5
5
5
5
5
5
5
5
5
5
5
5
5
5
5
5
5
5
5
5
5
5
5
5
5
5
5
5
5
5
5
5
5
5
5
5
5
5
5
5
5
5
5
5
5
5
5
5
5
5
5
5
5
5
5
5
5
5
5
5
5
5
5
5
5
5
5
5
5
5
5
5
5
5
5
5
5
5
5
5
5
5
5
5
5
5
5
5
5
5
5
5
5
5
5
5
5
5
5
5
5
5
5
5
5
5
5
5
5
5
5
5
5
5
5
5
5
5
5
5
5
5
5
5
5
5
5
5
5
5
5
5
5
5
5
5
5
5
5
5
5
5
5
5
5
5
5
5
5
5
5
5
5
5
5
5
5
5
5
5
5
5
5
5
5
5
5
5
5
5
5
5
5
5
5
5
5
5
5
5
5
5
5
5
5
5
5
5
5
5
5
5
5
5
5
5
5
5
5
5
5
5
5
5
5
5
5
5
5
5
5
5
5
5
5
5
5
5
5
5
5
5
5
5
5
5
5
5
5
5
5
5
5
5
5
5
5
5
5
5
5
5
5
5
5
5
5
5
5
5
5
5
5
5
5
5
5
5
5
5
5
5
5
5
5
5
5
5
5
5
5
5
5
5
5
5
5
5
5
5
5
5
5
5
5
5
5
5
5
5
5
5
5
5
5
5
5
5
5
5
5
5
5
5
5
5
5
5
5
5
5
5
5
5
5
5
5
5
5
5
5
5
5
5
5
5
5
5
5
5
5
5
5
5
5
5
5
5
5
5
5
5
5
5
5
5
5
5
5
5
5
5
5
5
5
5
5
5
5
5
5
5
5
5
5
5
5
5
5
5
5
5
5
5
5
5
5
5
5
5
5
5
5
5
5
5
5
5
5
5
5
5
5
5
5
5
5
5
5
5
5
5
5
5
5
5
5
5
5
5
5
5
5
5
5
5
5
5
5
5
5
5
5
5
5
5
5
5
5
5
5
5
5
5
5
5
5
5
5
5
5
5
5
5
5
5
5
5
5
5
5
5
5
5
5
5
5
5
5
5
5
5
5
5
5
5
5
5
5
5
5
5
5
5
5
5
5
5
5
5
5
5
5
5
5
5
5
5
5
5
5
5
5
5
5
5
5
5
5
5
5
5
5
5
5
5
5
5
5
5
5
5
5
5
5
5
5
5
5
5
5
5
5
5
5
5
5
5
5
5
5
5
5
5
5
5
5
5
5
5
5
5
5
5
5
5
5
5
5
5
5
5
5
5
5
5
5
5
5
5
5
5
5
5
5
5
5
5
5
5
5
5
5
5
5
5
5
5
5
5
5
5
5
5
5
5
5
5
5
5
5
5
5
5
5
5
5
5
5
5
5
5
5
5
5
5
5
5
5
5
5
5
5
5
5
5
5
5
5
5
5
5
5
5
5
5
5
5
5
5
5
5
5
5
5
5
5
5
5
5
5
5
5
5
5
5
5
5
5
5
5
5
5
5
5
5
5
5
5
5
5
5
5
5
5
5
5
5
5
5
5
5
5
5
5
5
5
5
5
5
5
5
5
5
5
5
5
5
5
5
5
5
5
5
5
5
5
5
5
5
5
5
5
5
5
5
5
5
5
5
5
5
5
5
5
5
5
5
5
5
5
5
5
5
5
5
5
5
5
5
5
5
5
5
5
5
5
5
5
5
5
5
5
5
5
5
5
5
5
5
5
5
5
5
5
5
5
5
5
5
5
5
5
5
5
5
5
5
5
5
5
5
5
5
5
5
5
5
5
5
5
5
5
5
5
5
5
5
5
5
5
5
5
5
5
5
5
5
5
5
5
5
5
5
5
5
5
5
5
5
5
5
5
5
5
5
5
5
5
5
5
5
5
5
5
5
5
5
5
5
5
5
5
5
5
5
5
5
5
5
5
5
5
5
5
5
5
5
5
5
5
5
5
5
5
5
5
5
5
5
5
5
5
5
5
5
5
5
5
5
5
5
5
5
5
5
5
5
5
5
5
5
5
5
5
5
5
5
5
5
5
5
5
5
5
5
5
5
5
5
5
5
5
5
5
5
5
5
5
5
5
5
5
5
5
5
5
5
5
5
5
5
5
5
5
5
5
5
5
5
5
5
5
5
5
5
5
5
5
5
5
5
5
5
5
5
5
5
5
5
5
5
5
5
5
5
5
5
5
5
5
5
5
5
5
5
5
5
5
5
5
5
5
5
5
5
5
5
5
5
5
5
5
5
5
5
5
5
5
5
5
5
5
5
5
5
5
5
5
5
5
5
5
5
5
5
5
5
5
5
5
5
5
5
5
5
5
5
5
5
5
5
5
5
5
5
5
5
5
5
5
5
5
5
5
5
5
5
5
5
5
5
5
5
5
5
5
5
5
5
5
5
5
5
5
5
5
5
5
5
5
5
5
5
5
5
5
5
5
5
5
5
5
5
5
5
5
5
5
5
5
5
5
5
5
5
5
5
5
5
5
5
5
5
5
5
5
5
5
5
5
5
5
5
5
5
5
5
5
5
5
5
5
5
5
5
5
5
5
5
5
5
5
5
5
5
5
5
5
5
5
5
5
5
5
5
5
5
5
5
5
5
5
5
5
5
5
5
5
5
5
5
5
5
5
5
5
5
5
5
5
5
5
5
5
5
5
5
5
5
5
5
5
5
5
5
5
5
5
5
5
5
5
5
5
5
5
5
5
5
5
5
5
5
5
5
5
5
5
5
5
5
5
5
5
5
5
5
5
5
5
5
5
5
5
5
5
5
5
5
5
5
5
5
5
5
5
5
5
5
5
5
5
5
5
5
5
5
5
5
5
5
5
5
5
5
5
5
5
5
5
5
5
5
5
5
5
5
5
5
5
5
5
5
5
5
5
5
5
5
5
5
5
5
5
5
5
5
5
5
5
5
5
5
5
5
5
5
5
5
5
5
5
5
5
5
5
5
5
5
5
5
5
5
5
5
5
5
5
5
5
5
5
5
5
5
5
5
5
5
5
5
5
5
5
5
5
5
5
5
5
5
5
5
5
5
5
5
5
5
5
5
5
5
5
5
5
5
5
5
5
5
5
5
5
5
5
5
5
5
5
5
5
5
5
5
5
5
5
5
5
5
5
5
5
5
5
5
5
5
5
5
5
5
POINT_DATA 1240
SCALARS u1 float
LOOKUP_TABLE default
-2e-08
-1e-08
-2e-08
-2e-08
-1e-08
-2e-08
-1e-08
-3e-08
-1e-08
-1e-08
-3e-08
-1e-08
-3e-08
-1e-08
-3e-08
-1e-08
-3e-08
-1e-08
-3e-08
-2e-08
-3e-08
-2e-08
-3e-08
-2e-08
-2e-08
-2e-08
-2e-08
-2e-08
-2e-08
-3e-08
-2e-08
-3e-08
-1e-08
-4e-08
-1e-08
-4e-08
-8e-09
-5e-08
-6e-09
-5e-08
-5e-09
-4e-09
-6e-08
-3e-09
-6e-08
-2e-09
-7e-08
-2e-09
-7e-08
-2e-09
-8e-08
-2e-09
-8e-08
-2e-09
-8e-08
-2e-09
-9e-08
-2e-09
-9e-08
-2e-09
-9e-08
-3e-09
-9e-08
-9e-08
-3e-09
-9e-08
-4e-09
-9e-08
-5e-09
-8e-08
-6e-09
-8e-08
-7e-09
-8e-08
-8e-09
-7e-08
-8e-09
-7e-08
-9e-09
-6e-08
-9e-09
-6e-08
-9e-09
-5e-08
-8e-09
-5e-08
-8e-09
-4e-08
-7e-09
-4e-08
-5e-09
-3e-08
-4e-09
-3e-09
-3e-08
-2e-09
-2e-08
5e-12
-2e-08
2e-09
-2e-08
3e-09
-2e-08
4e-09
-2e-08
6e-09
-2e-08
7e-09
-1e-08
8e-09
-1e-08
8e-09
-1e-08
9e-09
-1e-08
-1e-08
9e-09
-1e-08
9e-09
-1e-08
8e-09
-2e-08
8e-09
-2e-08
7e-09
-2e-08
6e-09
-2e-08
5e-09
-3e-08
4e-09
-3e-08
3e-09
-3e-08
3e-09
-3e-08
2e-09
-3e-08
2e-09
-3e-08
2e-09
-3e-08
2e-09
-3e-08
2e-09
-2e-08
2e-09
2e-09
-2e-08
2e-09
-2e-08
3e-09
-2e-08
4e-09
-1e-08
5e-09
-1e-08
6e-09
-8e-09
8e-09
-6e-09
1e-08
-5e-09
1e-08
-4e-09
2e-08
-3e-09
-2e-09
2e-08
-2e-09
2e-08
-2e-09
2e-08
-2e-09
3e-08
-2e-09
3e-08
-2e-09
3e-08
-2e-09
3e-08
-2e-09
3e-08
-3e-09
3e-08
-3e-09
3e-08
-4e-09
3e-08
-5e-09
2e-08
-6e-09
2e-08
-7e-09
2e-08
-8e-09
2e-08
-8e-09
1e-08
1e-08
-9e-09
1e-08
-9e-09
1e-08
-9e-09
1e-08
-8e-09
1e-08
-8e-09
1e-08
-7e-09
1e-08
-6e-09
2e-08
-4e-09
2e-08
-3e-09
2e-08
-2e-09
2e-08
-3e-12
2e-08
2e-09
3e-08
3e-09
3e-08
4e-09
4e-08
5e-09
4e-08
7e-09
5e-08
8e-09
5e-08
8e-09
6e-08
9e-09
6e-08
9e-09
7e-08
9e-09
7e-08
8e-09
8e-08
8e-09
8e-08
7e-09
8e-08
6e-09
9e-08
5e-09
9e-08
4e-09
9e-08
3e-09
9e-08
3e-09
9e-08
2e-09
9e-08
2e-09
9e-08
2e-09
8e-08
2e-09
8e-08
2e-09
8e-08
2e-09
7e-08
2e-09
7e-08
2e-09
6e-08
3e-09
6e-08
4e-09
5e-08
5e-09
5e-08
6e-09
4e-08
8e-09
4e-08
1e-08
3e-08
1e-08
3e-08
2e-08
2e-08
2e-08
2e-08
2e-08
2e-08
2e-08
2e-08
3e-08
2e-08
3e-08
1e-08
3e-08
1e-08
3e-08
1e-08
3e-08
1e-08
3e-08
1e-08
3e-08
1e-08
3e-08
1e-08
2e-08
1e-08
2e-08
2e-08
2e-08
-2e-08
-1e-08
-2e-08
-1e-08
-2e-08
-1e-08
-2e-08
-1e-08
-2e-08
-1e-08
-3e-08
-1e-08
-3e-08
-2e-08
-3e-08
-2e-08
-3e-08
-2e-08
-3e-08
-2e-08
-3e-08
-2e-08
-3e-08
-3e-08
-2e-08
-3e-08
-2e-08
-3e-08
-2e-08
-4e-08
-2e-08
-4e-08
-1e-08
-5e-08
-1e-08
-5e-08
-9e-09
-6e-08
-6e-09
-6e-08
-5e-09
-7e-08
-3e-09
-7e-08
-2e-09
-8e-08
-1e-09
-8e-08
-6e-10
-9e-08
-9e-11
-9e-08
4e-10
-9e-08
9e-10
-9e-08
1e-09
-9e-08
2e-09
-9e-08
2e-09
-9e-08
2e-09
-9e-08
2e-09
-9e-08
2e-09
-8e-08
2e-09
-8e-08
2e-09
-7e-08
2e-09
-7e-08
1e-09
-6e-08
8e-10
-6e-08
4e-10
-5e-08
9e-11
-5e-08
-1e-10
-4e-08
-2e-10
-4e-08
-2e-10
-3e-08
-1e-10
-3e-08
-2e-11
-3e-08
7e-12
-2e-08
5e-11
-2e-08
1e-10
-2e-08
2e-10
-2e-08
2e-10
-2e-08
2e-10
-1e-08
-6e-11
-1e-08
-4e-10
-1e-08
-8e-10
-1e-08
-1e-09
-1e-08
-2e-09
-1e-08
-2e-09
-1e-08
-2e-09
-2e-08
-2e-09
-2e-08
-2e-09
-2e-08
-2e-09
-2e-08
-2e-09
-2e-08
-2e-09
-3e-08
-1e-09
-3e-08
-8e-10
-3e-08
-4e-10
-3e-08
1e-10
-3e-08
7e-10
-3e-08
1e-09
-3e-08
2e-09
-2e-08
3e-09
-2e-08
5e-09
-2e-08
6e-09
-2e-08
9e-09
-1e-08
1e-08
-1e-08
1e-08
-9e-09
2e-08
-6e-09
2e-08
-5e-09
2e-08
-3e-09
2e-08
-2e-09
3e-08
-1e-09
3e-08
-7e-10
3e-08
-1e-10
3e-08
4e-10
3e-08
8e-10
3e-08
1e-09
3e-08
2e-09
2e-08
2e-09
2e-08
2e-09
2e-08
2e-09
2e-08
2e-09
2e-08
2e-09
1e-08
2e-09
1e-08
2e-09
1e-08
1e-09
1e-08
8e-10
1e-08
4e-10
1e-08
6e-11
1e-08
-2e-10
2e-08
-2e-10
2e-08
-2e-10
2e-08
-1e-10
2e-08
-5e-11
2e-08
5e-13
3e-08
2e-11
3e-08
1e-10
3e-08
2e-10
4e-08
2e-10
4e-08
1e-10
5e-08
-9e-11
5e-08
-4e-10
6e-08
-8e-10
6e-08
-1e-09
7e-08
-2e-09
7e-08
-2e-09
8e-08
-2e-09
8e-08
-2e-09
9e-08
-2e-09
9e-08
-2e-09
9e-08
-2e-09
9e-08
-2e-09
9e-08
-1e-09
9e-08
-9e-10
9e-08
-4e-10
9e-08
9e-11
9e-08
6e-10
8e-08
1e-09
8e-08
2e-09
7e-08
3e-09
7e-08
5e-09
6e-08
6e-09
6e-08
9e-09
5e-08
1e-08
5e-08
1e-08
4e-08
2e-08
4e-08
2e-08
3e-08
2e-08
3e-08
2e-08
3e-08
3e-08
2e-08
3e-08
2e-08
3e-08
2e-08
3e-08
2e-08
3e-08
2e-08
3e-08
1e-08
3e-08
1e-08
2e-08
1e-08
2e-08
1e-08
2e-08
1e-08
2e-08
1e-08
1e-08
2e-08
-2e-08
-2e-08
-2e-08
-1e-08
-1e-08
-2e-08
-2e-08
-1e-08
-1e-08
-2e-08
-2e-08
-1e-08
-1e-08
-2e-08
-3e-08
-1e-08
-1e-08
-1e-08
-3e-08
-3e-08
-1e-08
-1e-08
-3e-08
-3e-08
-1e-08
-1e-08
-3e-08
-3e-08
-1e-08
-1e-08
-3e-08
-3e-08
-2e-08
-2e-08
-3e-08
-3e-08
-2e-08
-2e-08
-3e-08
-3e-08
-2e-08
-2e-08
-3e-08
-3e-08
-2e-08
-2e-08
-3e-08
-2e-08
-2e-08
-2e-08
-2e-08
-2e-08
-3e-08
-3e-08
-2e-08
-2e-08
-3e-08
-3e-08
-2e-08
-2e-08
-3e-08
-3e-08
-2e-08
-1e-08
-4e-08
-4e-08
-1e-08
-1e-08
-4e-08
-4e-08
-1e-08
-8e-09
-5e-08
-5e-08
-9e-09
-6e-09
-5e-08
-6e-08
-6e-09
-5e-09
-4e-09
-6e-08
-6e-08
-5e-09
-3e-09
-6e-08
-7e-08
-3e-09
-2e-09
-7e-08
-7e-08
-2e-09
-2e-09
-8e-08
-8e-08
-2e-09
-2e-09
-8e-08
-8e-08
-1e-09
-1e-09
-8e-08
-8e-08
-8e-10
-1e-09
-9e-08
-9e-08
-4e-10
-1e-09
-9e-08
-9e-08
-1e-10
-1e-09
-9e-08
-9e-08
4e-11
-1e-09
-9e-08
-9e-08
2e-10
-1e-09
-9e-08
-9e-08
-9e-08
2e-10
-2e-09
-9e-08
-9e-08
1e-10
-2e-09
-9e-08
-9e-08
-8e-11
-3e-09
-9e-08
-8e-08
-4e-10
-3e-09
-8e-08
-8e-08
-8e-10
-4e-09
-8e-08
-8e-08
-1e-09
-5e-09
-8e-08
-7e-08
-2e-09
-5e-09
-7e-08
-7e-08
-2e-09
-6e-09
-6e-08
-6e-08
-2e-09
-6e-09
-6e-08
-6e-08
-3e-09
-6e-09
-5e-08
-5e-08
-3e-09
-5e-09
-5e-08
-4e-08
-2e-09
-5e-09
-4e-08
-4e-08
-2e-09
-4e-09
-4e-08
-3e-08
-2e-09
-3e-09
-3e-08
-3e-08
-1e-09
-2e-09
-2e-09
-3e-08
-3e-08
-1e-09
-8e-10
-3e-08
-2e-08
-3e-10
3e-10
-2e-08
-2e-08
4e-10
1e-09
-2e-08
-2e-08
9e-10
2e-09
-2e-08
-2e-08
1e-09
3e-09
-2e-08
-2e-08
2e-09
4e-09
-2e-08
-1e-08
2e-09
5e-09
-1e-08
-1e-08
2e-09
5e-09
-1e-08
-1e-08
3e-09
6e-09
-1e-08
-1e-08
3e-09
6e-09
-1e-08
-1e-08
-1e-08
2e-09
6e-09
-1e-08
-1e-08
2e-09
5e-09
-1e-08
-1e-08
2e-09
5e-09
-1e-08
-2e-08
1e-09
4e-09
-2e-08
-2e-08
8e-10
4e-09
-2e-08
-2e-08
4e-10
3e-09
-2e-08
-2e-08
1e-10
2e-09
-2e-08
-3e-08
-1e-10
2e-09
-3e-08
-3e-08
-2e-10
1e-09
-3e-08
-3e-08
-2e-10
1e-09
-3e-08
-3e-08
-2e-13
1e-09
-3e-08
-3e-08
2e-10
1e-09
-3e-08
-3e-08
4e-10
1e-09
-3e-08
-3e-08
8e-10
1e-09
-3e-08
-3e-08
1e-09
2e-09
-3e-08
-2e-08
2e-09
2e-09
2e-09
-2e-08
-2e-08
2e-09
3e-09
-2e-08
-2e-08
3e-09
4e-09
-2e-08
-2e-08
5e-09
5e-09
-2e-08
-1e-08
7e-09
7e-09
-1e-08
-1e-08
9e-09
8e-09
-1e-08
-8e-09
1e-08
1e-08
-9e-09
-7e-09
1e-08
1e-08
-7e-09
-5e-09
2e-08
2e-08
-5e-09
-4e-09
2e-08
2e-08
-4e-09
-3e-09
-2e-09
2e-08
2e-08
-2e-09
-2e-09
2e-08
2e-08
-2e-09
-2e-09
3e-08
3e-08
-1e-09
-1e-09
3e-08
3e-08
-8e-10
-1e-09
3e-08
3e-08
-4e-10
-1e-09
3e-08
3e-08
-2e-10
-1e-09
3e-08
3e-08
3e-11
-1e-09
3e-08
3e-08
2e-10
-1e-09
3e-08
3e-08
2e-10
-2e-09
3e-08
3e-08
1e-10
-2e-09
2e-08
2e-08
-9e-11
-3e-09
2e-08
2e-08
-4e-10
-4e-09
2e-08
2e-08
-8e-10
-4e-09
2e-08
2e-08
-1e-09
-5e-09
1e-08
1e-08
-2e-09
-5e-09
1e-08
1e-08
1e-08
-2e-09
-6e-09
1e-08
1e-08
-2e-09
-6e-09
1e-08
1e-08
-3e-09
-6e-09
1e-08
1e-08
-3e-09
-5e-09
1e-08
1e-08
-2e-09
-5e-09
1e-08
1e-08
-2e-09
-4e-09
2e-08
2e-08
-2e-09
-3e-09
2e-08
2e-08
-1e-09
-2e-09
2e-08
2e-08
-9e-10
-1e-09
2e-08
2e-08
-4e-10
-3e-10
2e-08
2e-08
2e-10
8e-10
2e-09
3e-08
3e-08
9e-10
2e-09
3e-08
3e-08
1e-09
3e-09
3e-08
3e-08
2e-09
4e-09
4e-08
4e-08
2e-09
5e-09
4e-08
4e-08
2e-09
5e-09
5e-08
5e-08
3e-09
6e-09
5e-08
6e-08
3e-09
6e-09
6e-08
6e-08
2e-09
6e-09
6e-08
7e-08
2e-09
5e-09
7e-08
7e-08
2e-09
5e-09
8e-08
8e-08
1e-09
4e-09
8e-08
8e-08
8e-10
3e-09
8e-08
8e-08
4e-10
3e-09
9e-08
9e-08
8e-11
2e-09
9e-08
9e-08
9e-08
-1e-10
2e-09
9e-08
9e-08
-2e-10
1e-09
9e-08
9e-08
-2e-10
1e-09
9e-08
9e-08
-6e-11
1e-09
9e-08
9e-08
1e-10
1e-09
9e-08
9e-08
4e-10
1e-09
9e-08
8e-08
8e-10
1e-09
8e-08
8e-08
1e-09
2e-09
8e-08
8e-08
2e-09
2e-09
8e-08
7e-08
2e-09
2e-09
7e-08
7e-08
3e-09
3e-09
6e-08
6e-08
5e-09
4e-09
6e-08
6e-08
6e-09
5e-09
5e-08
5e-08
9e-09
6e-09
5e-08
4e-08
1e-08
8e-09
4e-08
4e-08
1e-08
1e-08
4e-08
3e-08
2e-08
1e-08
3e-08
3e-08
2e-08
2e-08
3e-08
3e-08
2e-08
2e-08
3e-08
2e-08
2e-08
2e-08
2e-08
2e-08
3e-08
2e-08
2e-08
2e-08
3e-08
3e-08
2e-08
2e-08
3e-08
3e-08
2e-08
2e-08
3e-08
3e-08
2e-08
1e-08
3e-08
3e-08
1e-08
1e-08
3e-08
3e-08
1e-08
1e-08
3e-08
3e-08
1e-08
1e-08
3e-08
3e-08
1e-08
1e-08
2e-08
3e-08
1e-08
1e-08
2e-08
2e-08
1e-08
1e-08
2e-08
1e-08
2e-08
2e-08
1e-08
2e-08
2e-08
SCALARS u2 float
LOOKUP_TABLE default
-8e-09
-1e-08
-6e-09
-1e-08
-5e-09
-1e-08
-4e-09
-2e-08
-3e-09
-2e-09
-2e-08
-2e-09
-2e-08
-2e-09
-2e-08
-2e-09
-3e-08
-2e-09
-3e-08
-2e-09
-3e-08
-2e-09
-3e-08
-2e-09
-3e-08
-3e-09
-3e-08
-3e-09
-3e-08
-4e-09
-3e-08
-5e-09
-2e-08
-6e-09
-2e-08
-7e-09
-2e-08
-8e-09
-2e-08
-8e-09
-1e-08
-1e-08
-9e-09
-1e-08
-9e-09
-1e-08
-9e-09
-1e-08
-8e-09
-1e-08
-8e-09
-1e-08
-7e-09
-1e-08
-5e-09
-2e-08
-4e-09
-2e-08
-3e-09
-2e-08
-2e-09
-2e-08
2e-11
2e-09
-2e-08
3e-09
-3e-08
4e-09
-3e-08
6e-09
-4e-08
7e-09
-4e-08
8e-09
-5e-08
8e-09
-5e-08
9e-09
-6e-08
9e-09
-6e-08
9e-09
-7e-08
8e-09
-7e-08
8e-09
-8e-08
7e-09
-8e-08
6e-09
-8e-08
5e-09
-9e-08
-9e-08
4e-09
-9e-08
3e-09
-9e-08
3e-09
-9e-08
2e-09
-9e-08
2e-09
-9e-08
2e-09
-8e-08
2e-09
-8e-08
2e-09
-8e-08
2e-09
-7e-08
2e-09
-7e-08
2e-09
3e-09
-6e-08
4e-09
-6e-08
5e-09
-5e-08
6e-09
-5e-08
8e-09
-4e-08
1e-08
-4e-08
1e-08
-3e-08
2e-08
-3e-08
2e-08
-2e-08
2e-08
-2e-08
2e-08
-2e-08
3e-08
-2e-08
3e-08
-2e-08
3e-08
-1e-08
3e-08
-1e-08
3e-08
-1e-08
-1e-08
3e-08
-1e-08
3e-08
-1e-08
3e-08
-1e-08
2e-08
-1e-08
2e-08
-2e-08
2e-08
-2e-08
2e-08
-2e-08
1e-08
-2e-08
1e-08
-3e-08
1e-08
1e-08
-3e-08
1e-08
-3e-08
1e-08
-3e-08
1e-08
-3e-08
1e-08
-3e-08
2e-08
-3e-08
2e-08
-3e-08
2e-08
-2e-08
2e-08
-2e-08
2e-08
-2e-08
3e-08
-2e-08
3e-08
-1e-08
4e-08
-1e-08
4e-08
-8e-09
5e-08
-6e-09
5e-08
-5e-09
-4e-09
6e-08
-3e-09
6e-08
-2e-09
7e-08
-2e-09
7e-08
-2e-09
8e-08
-2e-09
8e-08
-2e-09
8e-08
-2e-09
9e-08
-2e-09
9e-08
-2e-09
9e-08
-3e-09
9e-08
-3e-09
9e-08
-4e-09
9e-08
-5e-09
9e-08
-6e-09
8e-08
-7e-09
8e-08
-8e-09
8e-08
-8e-09
7e-08
-9e-09
7e-08
-9e-09
6e-08
-9e-09
6e-08
-8e-09
5e-08
-8e-09
5e-08
-7e-09
4e-08
-6e-09
4e-08
-4e-09
3e-08
-3e-09
3e-08
-2e-09
2e-08
-2e-11
2e-08
2e-09
2e-08
3e-09
2e-08
4e-09
2e-08
5e-09
1e-08
7e-09
1e-08
8e-09
1e-08
8e-09
1e-08
9e-09
1e-08
9e-09
1e-08
9e-09
1e-08
8e-09
1e-08
8e-09
2e-08
7e-09
2e-08
6e-09
2e-08
5e-09
2e-08
4e-09
3e-08
3e-09
3e-08
3e-09
3e-08
2e-09
3e-08
2e-09
3e-08
2e-09
3e-08
2e-09
3e-08
2e-09
3e-08
2e-09
2e-08
2e-09
2e-08
2e-09
2e-08
3e-09
2e-08
4e-09
1e-08
5e-09
1e-08
6e-09
8e-09
-1e-08
-9e-09
-2e-08
-6e-09
-2e-08
-5e-09
-2e-08
-3e-09
-2e-08
-2e-09
-3e-08
-1e-09
-3e-08
-6e-10
-3e-08
-8e-11
-3e-08
4e-10
-3e-08
9e-10
-3e-08
1e-09
-3e-08
2e-09
-2e-08
2e-09
-2e-08
2e-09
-2e-08
2e-09
-2e-08
2e-09
-2e-08
2e-09
-1e-08
2e-09
-1e-08
2e-09
-1e-08
1e-09
-1e-08
8e-10
-1e-08
4e-10
-1e-08
9e-11
-1e-08
-1e-10
-2e-08
-2e-10
-2e-08
-2e-10
-2e-08
-9e-11
-2e-08
-2e-11
-2e-08
3e-11
-3e-08
5e-11
-3e-08
1e-10
-3e-08
2e-10
-4e-08
2e-10
-4e-08
2e-10
-5e-08
-6e-11
-5e-08
-4e-10
-6e-08
-8e-10
-6e-08
-1e-09
-7e-08
-2e-09
-7e-08
-2e-09
-8e-08
-2e-09
-8e-08
-2e-09
-9e-08
-2e-09
-9e-08
-2e-09
-9e-08
-2e-09
-9e-08
-2e-09
-9e-08
-1e-09
-9e-08
-8e-10
-9e-08
-4e-10
-9e-08
1e-10
-9e-08
7e-10
-8e-08
1e-09
-8e-08
2e-09
-7e-08
3e-09
-7e-08
5e-09
-6e-08
6e-09
-6e-08
9e-09
-5e-08
1e-08
-5e-08
1e-08
-4e-08
2e-08
-4e-08
2e-08
-3e-08
2e-08
-3e-08
2e-08
-3e-08
3e-08
-2e-08
3e-08
-2e-08
3e-08
-2e-08
3e-08
-2e-08
3e-08
-2e-08
3e-08
-1e-08
3e-08
-1e-08
2e-08
-1e-08
2e-08
-1e-08
2e-08
-1e-08
2e-08
-1e-08
2e-08
-1e-08
1e-08
-2e-08
1e-08
-2e-08
1e-08
-2e-08
1e-08
-2e-08
1e-08
-2e-08
1e-08
-3e-08
1e-08
-3e-08
2e-08
-3e-08
2e-08
-3e-08
2e-08
-3e-08
2e-08
-3e-08
2e-08
-3e-08
3e-08
-2e-08
3e-08
-2e-08
3e-08
-2e-08
4e-08
-2e-08
4e-08
-1e-08
5e-08
-1e-08
5e-08
-9e-09
6e-08
-6e-09
6e-08
-5e-09
7e-08
-3e-09
7e-08
-2e-09
8e-08
-1e-09
8e-08
-7e-10
9e-08
-1e-10
9e-08
4e-10
9e-08
8e-10
9e-08
1e-09
9e-08
2e-09
9e-08
2e-09
9e-08
2e-09
9e-08
2e-09
9e-08
2e-09
8e-08
2e-09
8e-08
2e-09
7e-08
2e-09
7e-08
1e-09
6e-08
8e-10
6e-08
4e-10
5e-08
7e-11
5e-08
-1e-10
4e-08
-2e-10
4e-08
-2e-10
3e-08
-1e-10
3e-08
-4e-11
3e-08
-2e-11
2e-08
3e-11
2e-08
1e-10
2e-08
2e-10
2e-08
2e-10
2e-08
1e-10
1e-08
-8e-11
1e-08
-4e-10
1e-08
-8e-10
1e-08
-1e-09
1e-08
-2e-09
1e-08
-2e-09
1e-08
-2e-09
2e-08
-2e-09
2e-08
-2e-09
2e-08
-2e-09
2e-08
-2e-09
2e-08
-2e-09
3e-08
-1e-09
3e-08
-9e-10
3e-08
-4e-10
3e-08
9e-11
3e-08
6e-10
3e-08
1e-09
3e-08
2e-09
2e-08
3e-09
2e-08
5e-09
2e-08
6e-09
2e-08
9e-09
1e-08
1e-08
-8e-09
-1e-08
-1e-08
-9e-09
-6e-09
-1e-08
-1e-08
-7e-09
-5e-09
-2e-08
-2e-08
-5e-09
-4e-09
-2e-08
-2e-08
-3e-09
-3e-09
-2e-09
-2e-08
-2e-08
-2e-09
-2e-09
-2e-08
-2e-08
-2e-09
-2e-09
-3e-08
-3e-08
-1e-09
-1e-09
-3e-08
-3e-08
-8e-10
-1e-09
-3e-08
-3e-08
-4e-10
-1e-09
-3e-08
-3e-08
-1e-10
-1e-09
-3e-08
-3e-08
6e-11
-1e-09
-3e-08
-3e-08
2e-10
-1e-09
-3e-08
-3e-08
2e-10
-2e-09
-3e-08
-3e-08
1e-10
-2e-09
-2e-08
-2e-08
-1e-10
-3e-09
-2e-08
-2e-08
-4e-10
-3e-09
-2e-08
-2e-08
-8e-10
-4e-09
-2e-08
-2e-08
-1e-09
-5e-09
-1e-08
-1e-08
-2e-09
-5e-09
-1e-08
-1e-08
-1e-08
-2e-09
-6e-09
-1e-08
-1e-08
-2e-09
-6e-09
-1e-08
-1e-08
-2e-09
-6e-09
-1e-08
-1e-08
-3e-09
-5e-09
-1e-08
-1e-08
-2e-09
-5e-09
-1e-08
-1e-08
-2e-09
-4e-09
-2e-08
-2e-08
-2e-09
-3e-09
-2e-08
-2e-08
-1e-09
-2e-09
-2e-08
-2e-08
-9e-10
-1e-09
-2e-08
-2e-08
-3e-10
-3e-10
-2e-08
-2e-08
8e-10
3e-10
2e-09
-3e-08
-3e-08
1e-09
2e-09
-3e-08
-3e-08
1e-09
3e-09
-3e-08
-3e-08
2e-09
4e-09
-4e-08
-4e-08
2e-09
5e-09
-4e-08
-4e-08
2e-09
5e-09
-5e-08
-5e-08
3e-09
6e-09
-5e-08
-6e-08
3e-09
6e-09
-6e-08
-6e-08
2e-09
6e-09
-6e-08
-7e-08
2e-09
5e-09
-7e-08
-7e-08
2e-09
5e-09
-8e-08
-8e-08
1e-09
4e-09
-8e-08
-8e-08
8e-10
3e-09
-8e-08
-8e-08
4e-10
3e-09
-9e-08
-9e-08
1e-10
2e-09
-9e-08
-9e-08
-9e-08
-1e-10
2e-09
-9e-08
-9e-08
-2e-10
1e-09
-9e-08
-9e-08
-2e-10
1e-09
-9e-08
-9e-08
-2e-11
1e-09
-9e-08
-9e-08
2e-10
1e-09
-9e-08
-9e-08
4e-10
1e-09
-9e-08
-8e-08
8e-10
1e-09
-8e-08
-8e-08
1e-09
2e-09
-8e-08
-8e-08
2e-09
2e-09
-8e-08
-7e-08
2e-09
2e-09
-7e-08
-7e-08
3e-09
3e-09
4e-09
-6e-08
-6e-08
5e-09
5e-09
-6e-08
-6e-08
6e-09
6e-09
-5e-08
-5e-08
9e-09
8e-09
-5e-08
-4e-08
1e-08
1e-08
-4e-08
-4e-08
1e-08
1e-08
-4e-08
-3e-08
2e-08
2e-08
-3e-08
-3e-08
2e-08
2e-08
-3e-08
-3e-08
2e-08
2e-08
-3e-08
-2e-08
2e-08
2e-08
-2e-08
-2e-08
3e-08
3e-08
-2e-08
-2e-08
3e-08
3e-08
-2e-08
-2e-08
3e-08
3e-08
-2e-08
-2e-08
3e-08
3e-08
-2e-08
-1e-08
3e-08
3e-08
-1e-08
-1e-08
3e-08
3e-08
-1e-08
-1e-08
-1e-08
3e-08
3e-08
-1e-08
-1e-08
3e-08
3e-08
-1e-08
-1e-08
2e-08
2e-08
-1e-08
-1e-08
2e-08
2e-08
-1e-08
-1e-08
2e-08
2e-08
-1e-08
-2e-08
2e-08
2e-08
-2e-08
-2e-08
1e-08
1e-08
-2e-08
-2e-08
1e-08
1e-08
-2e-08
-2e-08
1e-08
1e-08
-2e-08
-3e-08
1e-08
1e-08
1e-08
-3e-08
-3e-08
1e-08
1e-08
-3e-08
-3e-08
1e-08
1e-08
-3e-08
-3e-08
1e-08
1e-08
-3e-08
-3e-08
2e-08
2e-08
-3e-08
-3e-08
2e-08
2e-08
-3e-08
-3e-08
2e-08
2e-08
-3e-08
-3e-08
2e-08
2e-08
-3e-08
-2e-08
2e-08
2e-08
-2e-08
-2e-08
3e-08
3e-08
-2e-08
-2e-08
3e-08
3e-08
-2e-08
-2e-08
3e-08
3e-08
-2e-08
-1e-08
4e-08
4e-08
-1e-08
-1e-08
4e-08
4e-08
-1e-08
-8e-09
5e-08
5e-08
-9e-09
-6e-09
5e-08
6e-08
-6e-09
-5e-09
-4e-09
6e-08
6e-08
-5e-09
-3e-09
6e-08
7e-08
-3e-09
-2e-09
7e-08
7e-08
-2e-09
-2e-09
8e-08
8e-08
-2e-09
-2e-09
8e-08
8e-08
-1e-09
-1e-09
8e-08
8e-08
-8e-10
-1e-09
9e-08
9e-08
-4e-10
-1e-09
9e-08
9e-08
-2e-10
-1e-09
9e-08
9e-08
4e-11
-1e-09
9e-08
9e-08
2e-10
-1e-09
9e-08
9e-08
9e-08
2e-10
-2e-09
9e-08
9e-08
1e-10
-2e-09
9e-08
9e-08
-9e-11
-3e-09
9e-08
8e-08
-4e-10
-4e-09
8e-08
8e-08
-8e-10
-4e-09
8e-08
8e-08
-1e-09
-5e-09
8e-08
7e-08
-2e-09
-5e-09
7e-08
7e-08
-2e-09
-6e-09
6e-08
6e-08
-2e-09
-6e-09
6e-08
6e-08
-3e-09
-6e-09
5e-08
5e-08
-3e-09
-5e-09
5e-08
4e-08
-2e-09
-5e-09
4e-08
4e-08
-2e-09
-4e-09
4e-08
3e-08
-2e-09
-3e-09
3e-08
3e-08
-1e-09
-2e-09
-2e-09
3e-08
3e-08
-1e-09
-8e-10
3e-08
2e-08
-2e-10
3e-10
2e-08
2e-08
4e-10
1e-09
2e-08
2e-08
9e-10
2e-09
2e-08
2e-08
1e-09
3e-09
2e-08
2e-08
2e-09
4e-09
2e-08
1e-08
2e-09
5e-09
1e-08
1e-08
2e-09
5e-09
1e-08
1e-08
3e-09
6e-09
1e-08
1e-08
2e-09
6e-09
1e-08
1e-08
2e-09
6e-09
1e-08
1e-08
2e-09
5e-09
1e-08
1e-08
2e-09
5e-09
1e-08
1e-08
1e-09
4e-09
2e-08
2e-08
8e-10
3e-09
2e-08
2e-08
4e-10
3e-09
2e-08
2e-08
8e-11
2e-09
2e-08
2e-08
-1e-10
2e-09
3e-08
3e-08
-2e-10
1e-09
3e-08
3e-08
-2e-10
1e-09
3e-08
3e-08
-3e-11
1e-09
3e-08
3e-08
2e-10
1e-09
3e-08
3e-08
4e-10
1e-09
3e-08
3e-08
8e-10
1e-09
3e-08
3e-08
1e-09
2e-09
3e-08
3e-08
2e-09
2e-09
2e-08
2e-08
2e-09
2e-09
2e-08
2e-08
3e-09
3e-09
2e-08
2e-08
5e-09
4e-09
2e-08
2e-08
7e-09
5e-09
1e-08
9e-09
1e-08
1e-08
6e-09
1e-08
8e-09
SCALARS strain_1 float
LOOKUP_TABLE default
-0.000000
-0.000000
-0.000000
-0.000000
-0.000000
0.000000
-0.000000
-0.000000
-0.000000
-0.000000
-0.000000
-0.000000
-0.000000
-0.000000
0.000000
0.000000
0.000000
-0.000000
0.000000
-0.000000
0.000000
0.000000
0.000000
0.000000
0.000000
0.000000
0.000000
0.000000
0.000000
0.000000
0.000000
0.000000
0.000000
0.000000
0.000000
0.000000
0.000000
0.000000
0.000000
0.000000
0.000000
0.000000
0.000000
0.000000
0.000000
0.000000
0.000000
0.000000
0.000000
0.000000
0.000000
0.000000
0.000000
0.000000
0.000000
0.000000
0.000000
0.000000
0.000000
0.000000
0.000000
0.000000
0.000000
0.000000
0.000000
0.000000
0.000000
0.000000
0.000000
0.000000
0.000000
0.000000
0.000000
0.000000
0.000000
0.000000
0.000000
0.000000
0.000000
0.000000
0.000000
0.000000
0.000000
0.000000
0.000000
0.000000
0.000000
0.000000
0.000000
0.000000
0.000000
0.000000
0.000000
0.000000
0.000000
0.000000
0.000000
0.000000
0.000000
0.000000
0.000000
0.000000
0.000000
0.000000
0.000000
0.000000
0.000000
0.000000
0.000000
0.000000
0.000000
0.000000
0.000000
0.000000
0.000000
0.000000
0.000000
0.000000
0.000000
0.000000
0.000000
0.000000
0.000000
0.000000
0.000000
0.000000
0.000000
0.000000
0.000000
0.000000
0.000000
0.000000
0.000000
0.000000
0.000000
0.000000
0.000000
0.000000
0.000000
0.000000
0.000000
0.000000
0.000000
0.000000
0.000000
0.000000
0.000000
0.000000
0.000000
0.000000
0.000000
0.000000
0.000000
0.000000
0.000000
0.000000
0.000000
0.000000
0.000000
0.000000
0.000000
0.000000
0.000000
0.000000
0.000000
0.000000
0.000000
0.000000
0.000000
0.000000
0.000000
0.000000
0.000000
-0.000000
0.000000
-0.000000
0.000000
0.000000
0.000000
-0.000000
-0.000000
-0.000000
-0.000000
-0.000000
-0.000000
-0.000000
-0.000000
0.000000
-0.000000
0.000000
-0.000000
-0.000000
-0.000000
-0.000000
-0.000000
-0.000000
0.000000
-0.000000
-0.000000
-0.000000
-0.000000
-0.000000
-0.000000
-0.000000
-0.000000
-0.000000
-0.000000
-0.000000
-0.000000
-0.000000
-0.000000
-0.000000
-0.000000
-0.000000
-0.000000
-0.000000
-0.000000
-0.000000
-0.000000
-0.000000
-0.000000
-0.000000
-0.000000
-0.000000
-0.000000
-0.000000
-0.000000
-0.000000
-0.000000
-0.000000
-0.000000
-0.000000
-0.000000
-0.000000
-0.000000
-0.000000
-0.000000
-0.000000
-0.000000
-0.000000
-0.000000
-0.000000
-0.000000
-0.000000
-0.000000
-0.000000
-0.000000
0.000000
-0.000000
-0.000000
-0.000000
-0.000000
-0.000000
-0.000000
-0.000000
-0.000000
-0.000000
-0.000000
-0.000000
-0.000000
-0.000000
-0.000000
-0.000000
-0.000000
-0.000000
-0.000000
-0.000000
-0.000000
-0.000000
-0.000000
-0.000000
-0.000000
-0.000000
-0.000000
-0.000000
-0.000000
-0.000000
-0.000000
-0.000000
-0.000000
-0.000000
-0.000000
-0.000000
-0.000000
-0.000000
-0.000000
-0.000000
-0.000000
-0.000000
-0.000000
-0.000000
-0.000000
-0.000000
-0.000000
-0.000000
-0.000000
-0.000000
-0.000000
-0.000000
-0.000000
-0.000000
-0.000000
-0.000000
-0.000000
-0.000000
-0.000000
-0.000000
0.000000
-0.000000
0.000000
-0.000000
-0.000000
-0.000000
-0.000000
-0.000000
-0.000000
-0.000000
-0.000000
0.000000
0.000000
0.000000
-0.000000
0.000000
-0.000000
0.000000
0.000000
0.000000
0.000000
0.000000
0.000000
0.000000
0.000000
0.000000
0.000000
0.000000
0.000000
0.000000
0.000000
0.000000
0.000000
0.000000
0.000000
0.000000
0.000000
0.000000
0.000000
0.000000
0.000000
0.000000
0.000000
0.000000
0.000000
0.000000
0.000000
0.000000
0.000000
0.000000
0.000000
0.000000
0.000000
0.000000
0.000000
0.000000
0.000000
0.000000
0.000000
0.000000
0.000000
0.000000
0.000000
0.000000
0.000000
0.000000
0.000000
0.000000
0.000000
0.000000
0.000000
0.000000
0.000000
0.000000
0.000000
0.000000
0.000000
0.000000
0.000000
0.000000
0.000000
0.000000
0.000000
0.000000
0.000000
0.000000
0.000000
0.000000
0.000000
0.000000
0.000000
0.000000
0.000000
0.000000
0.000000
0.000000
0.000000
0.000000
0.000000
0.000000
0.000000
0.000000
0.000000
0.000000
0.000000
0.000000
0.000000
0.000000
0.000000
0.000000
0.000000
0.000000
0.000000
0.000000
0.000000
0.000000
0.000000
0.000000
0.000000
0.000000
0.000000
0.000000
0.000000
0.000000
0.000000
0.000000
0.000000
0.000000
0.000000
0.000000
0.000000
0.000000
0.000000
0.000000
0.000000
0.000000
0.000000
0.000000
0.000000
0.000000
0.000000
0.000000
0.000000
0.000000
0.000000
0.000000
0.000000
0.000000
0.000000
0.000000
0.000000
0.000000
0.000000
0.000000
0.000000
0.000000
0.000000
0.000000
0.000000
0.000000
0.000000
0.000000
0.000000
0.000000
0.000000
0.000000
0.000000
0.000000
0.000000
0.000000
-0.000000
0.000000
-0.000000
0.000000
0.000000
0.000000
-0.000000
-0.000000
-0.000000
-0.000000
-0.000000
-0.000000
-0.000000
-0.000000
0.000000
-0.000000
0.000000
-0.000000
-0.000000
-0.000000
-0.000000
-0.000000
-0.000000
0.000000
-0.000000
-0.000000
-0.000000
-0.000000
-0.000000
-0.000000
-0.000000
-0.000000
-0.000000
-0.000000
-0.000000
-0.000000
-0.000000
-0.000000
-0.000000
-0.000000
-0.000000
-0.000000
-0.000000
-0.000000
-0.000000
-0.000000
-0.000000
-0.000000
-0.000000
-0.000000
-0.000000
-0.000000
-0.000000
-0.000000
-0.000000
-0.000000
-0.000000
-0.000000
-0.000000
-0.000000
-0.000000
-0.000000
-0.000000
-0.000000
-0.000000
-0.000000
-0.000000
-0.000000
-0.000000
-0.000000
-0.000000
-0.000000
-0.000000
-0.000000
-0.000000
-0.000000
-0.000000
-0.000000
-0.000000
-0.000000
-0.000000
-0.000000
-0.000000
-0.000000
-0.000000
-0.000000
-0.000000
-0.000000
-0.000000
-0.000000
-0.000000
-0.000000
-0.000000
-0.000000
-0.000000
-0.000000
-0.000000
-0.000000
-0.000000
-0.000000
-0.000000
-0.000000
-0.000000
-0.000000
-0.000000
-0.000000
-0.000000
-0.000000
-0.000000
-0.000000
-0.000000
-0.000000
-0.000000
-0.000000
-0.000000
-0.000000
-0.000000
-0.000000
-0.000000
-0.000000
-0.000000
-0.000000
-0.000000
-0.000000
-0.000000
-0.000000
-0.000000
-0.000000
-0.000000
-0.000000
-0.000000
-0.000000
0.000000
-0.000000
-0.000000
-0.000000
-0.000000
-0.000000
0.000000
-0.000000
0.000000
-0.000000
0.000000
0.000000
-0.000000
0.000000
-0.000000
-0.000000
-0.000000
-0.000000
-0.000000
-0.000000
-0.000000
-0.000000
-0.000000
-0.000000
-0.000000
-0.000000
-0.000000
-0.000000
-0.000000
-0.000000
-0.000000
-0.000000
-0.000000
-0.000000
-0.000000
-0.000000
-0.000000
-0.000000
-0.000000
-0.000000
-0.000000
-0.000000
-0.000000
-0.000000
-0.000000
-0.000000
-0.000000
-0.000000
-0.000000
-0.000000
-0.000000
-0.000000
-0.000000
-0.000000
-0.000000
-0.000000
-0.000000
-0.000000
-0.000000
-0.000000
-0.000000
-0.000000
-0.000000
-0.000000
-0.000000
-0.000000
-0.000000
-0.000000
-0.000000
-0.000000
-0.000000
-0.000000
-0.000000
-0.000000
-0.000000
-0.000000
-0.000000
-0.000000
-0.000000
-0.000000
-0.000000
-0.000000
-0.000000
-0.000000
-0.000000
-0.000000
-0.000000
-0.000000
-0.000000
-0.000000
-0.000000
-0.000000
-0.000000
-0.000000
-0.000000
-0.000000
-0.000000
-0.000000
-0.000000
-0.000000
-0.000000
-0.000000
-0.000000
-0.000000
-0.000000
-0.000000
-0.000000
-0.000000
-0.000000
-0.000000
-0.000000
0.000000
-0.000000
0.000000
-0.000000
0.000000
-0.000000
0.000000
0.000000
-0.000000
-0.000000
-0.000000
-0.000000
-0.000000
-0.000000
-0.000000
-0.000000
-0.000000
-0.000000
-0.000000
0.000000
0.000000
0.000000
0.000000
0.000000
0.000000
0.000000
0.000000
0.000000
0.000000
0.000000
0.000000
0.000000
0.000000
0.000000
0.000000
0.000000
0.000000
0.000000
0.000000
0.000000
0.000000
0.000000
0.000000
0.000000
0.000000
0.000000
0.000000
0.000000
0.000000
0.000000
0.000000
0.000000
0.000000
0.000000
0.000000
0.000000
0.000000
0.000000
0.000000
0.000000
0.000000
0.000000
0.000000
0.000000
0.000000
0.000000
0.000000
0.000000
0.000000
0.000000
0.000000
0.000000
0.000000
0.000000
0.000000
0.000000
0.000000
0.000000
0.000000
0.000000
0.000000
0.000000
0.000000
0.000000
0.000000
0.000000
0.000000
0.000000
0.000000
0.000000
0.000000
0.000000
0.000000
0.000000
0.000000
0.000000
0.000000
0.000000
0.000000
0.000000
0.000000
0.000000
0.000000
0.000000
0.000000
0.000000
0.000000
0.000000
0.000000
0.000000
0.000000
0.000000
0.000000
0.000000
0.000000
0.000000
0.000000
0.000000
0.000000
0.000000
0.000000
0.000000
0.000000
0.000000
0.000000
0.000000
0.000000
0.000000
0.000000
0.000000
0.000000
0.000000
0.000000
0.000000
0.000000
0.000000
0.000000
0.000000
0.000000
0.000000
0.000000
0.000000
0.000000
0.000000
0.000000
0.000000
0.000000
0.000000
0.000000
0.000000
0.000000
0.000000
0.000000
0.000000
0.000000
0.000000
0.000000
0.000000
0.000000
0.000000
0.000000
0.000000
0.000000
0.000000
0.000000
0.000000
0.000000
0.000000
0.000000
0.000000
0.000000
0.000000
0.000000
0.000000
0.000000
0.000000
0.000000
0.000000
0.000000
0.000000
0.000000
0.000000
0.000000
0.000000
0.000000
0.000000
0.000000
0.000000
0.000000
0.000000
0.000000
0.000000
0.000000
0.000000
0.000000
0.000000
0.000000
0.000000
0.000000
0.000000
-0.000000
-0.000000
-0.000000
-0.000000
-0.000000
-0.000000
-0.000000
-0.000000
-0.000000
-0.000000
-0.000000
0.000000
-0.000000
0.000000
-0.000000
0.000000
0.000000
-0.000000
0.000000
-0.000000
-0.000000
-0.000000
-0.000000
-0.000000
-0.000000
-0.000000
-0.000000
-0.000000
-0.000000
-0.000000
-0.000000
-0.000000
-0.000000
-0.000000
-0.000000
-0.000000
-0.000000
-0.000000
-0.000000
-0.000000
-0.000000
-0.000000
-0.000000
-0.000000
-0.000000
-0.000000
-0.000000
-0.000000
-0.000000
-0.000000
-0.000000
-0.000000
-0.000000
-0.000000
-0.000000
-0.000000
-0.000000
-0.000000
-0.000000
-0.000000
-0.000000
-0.000000
-0.000000
-0.000000
-0.000000
-0.000000
-0.000000
-0.000000
-0.000000
-0.000000
-0.000000
-0.000000
-0.000000
-0.000000
-0.000000
-0.000000
-0.000000
-0.000000
-0.000000
-0.000000
-0.000000
-0.000000
-0.000000
-0.000000
-0.000000
-0.000000
-0.000000
-0.000000
-0.000000
-0.000000
-0.000000
-0.000000
-0.000000
-0.000000
-0.000000
-0.000000
-0.000000
-0.000000
-0.000000
-0.000000
-0.000000
-0.000000
-0.000000
-0.000000
-0.000000
-0.000000
-0.000000
-0.000000
-0.000000
-0.000000
-0.000000
-0.000000
-0.000000
-0.000000
-0.000000
-0.000000
0.000000
-0.000000
0.000000
-0.000000
0.000000
-0.000000
0.000000
0.000000
-0.000000
0.000000
-0.000000
-0.000000
-0.000000
-0.000000
-0.000000
-0.000000
-0.000000
-0.000000
-0.000000
0.000000
0.000000
0.000000
0.000000
0.000000
0.000000
0.000000
0.000000
0.000000
0.000000
0.000000
0.000000
0.000000
0.000000
0.000000
0.000000
0.000000
0.000000
0.000000
0.000000
0.000000
0.000000
0.000000
0.000000
0.000000
0.000000
0.000000
0.000000
0.000000
0.000000
0.000000
0.000000
0.000000
0.000000
0.000000
0.000000
0.000000
0.000000
0.000000
0.000000
0.000000
0.000000
0.000000
0.000000
0.000000
0.000000
0.000000
0.000000
0.000000
0.000000
0.000000
0.000000
0.000000
0.000000
0.000000
0.000000
0.000000
0.000000
0.000000
0.000000
0.000000
0.000000
0.000000
0.000000
0.000000
0.000000
0.000000
0.000000
0.000000
0.000000
0.000000
0.000000
0.000000
0.000000
0.000000
0.000000
0.000000
0.000000
0.000000
0.000000
0.000000
0.000000
0.000000
0.000000
0.000000
0.000000
0.000000
0.000000
0.000000
0.000000
0.000000
0.000000
0.000000
0.000000
0.000000
0.000000
0.000000
0.000000
0.000000
0.000000
0.000000
0.000000
0.000000
0.000000
0.000000
0.000000
0.000000
0.000000
0.000000
0.000000
0.000000
0.000000
0.000000
0.000000
0.000000
0.000000
0.000000
0.000000
0.000000
0.000000
0.000000
0.000000
0.000000
0.000000
0.000000
0.000000
0.000000
0.000000
0.000000
0.000000
0.000000
0.000000
0.000000
0.000000
0.000000
0.000000
0.000000
0.000000
0.000000
0.000000
0.000000
0.000000
0.000000
0.000000
0.000000
0.000000
0.000000
0.000000
0.000000
0.000000
0.000000
0.000000
0.000000
0.000000
0.000000
0.000000
0.000000
0.000000
0.000000
0.000000
0.000000
0.000000
0.000000
0.000000
0.000000
0.000000
0.000000
0.000000
0.000000
0.000000
0.000000
0.000000
0.000000
0.000000
0.000000
0.000000
0.000000
0.000000
0.000000
0.000000
0.000000
-0.000000
-0.000000
-0.000000
-0.000000
SCALARS strain_2 float
LOOKUP_TABLE default
0.000000
0.000000
0.000000
0.000000
0.000000
0.000000
0.000000
0.000000
0.000000
0.000000
0.000000
0.000000
0.000000
0.000000
0.000000
0.000000
0.000000
0.000000
0.000000
0.000000
0.000000
-0.000000
0.000000
-0.000000
0.000000
0.000000
0.000000
-0.000000
-0.000000
-0.000000
-0.000000
-0.000000
-0.000000
-0.000000
-0.000000
0.000000
-0.000000
0.000000
-0.000000
-0.000000
-0.000000
-0.000000
-0.000000
-0.000000
0.000000
-0.000000
-0.000000
-0.000000
-0.000000
-0.000000
-0.000000
-0.000000
-0.000000
-0.000000
-0.000000
-0.000000
-0.000000
-0.000000
-0.000000
-0.000000
-0.000000
-0.000000
-0.000000
-0.000000
-0.000000
-0.000000
-0.000000
-0.000000
-0.000000
-0.000000
-0.000000
-0.000000
-0.000000
-0.000000
-0.000000
-0.000000
-0.000000
-0.000000
-0.000000
-0.000000
-0.000000
-0.000000
-0.000000
-0.000000
-0.000000
-0.000000
-0.000000
-0.000000
-0.000000
-0.000000
-0.000000
-0.000000
-0.000000
-0.000000
-0.000000
-0.000000
-0.000000
-0.000000
-0.000000
-0.000000
-0.000000
-0.000000
-0.000000
-0.000000
-0.000000
-0.000000
-0.000000
-0.000000
-0.000000
-0.000000
-0.000000
-0.000000
-0.000000
-0.000000
-0.000000
-0.000000
-0.000000
-0.000000
-0.000000
-0.000000
-0.000000
-0.000000
-0.000000
-0.000000
-0.000000
-0.000000
-0.000000
-0.000000
-0.000000
-0.000000
-0.000000
-0.000000
-0.000000
-0.000000
-0.000000
-0.000000
-0.000000
-0.000000
-0.000000
-0.000000
-0.000000
-0.000000
-0.000000
-0.000000
-0.000000
-0.000000
-0.000000
-0.000000
-0.000000
-0.000000
-0.000000
-0.000000
-0.000000
-0.000000
-0.000000
0.000000
-0.000000
0.000000
-0.000000
-0.000000
-0.000000
-0.000000
-0.000000
-0.000000
-0.000000
-0.000000
0.000000
0.000000
0.000000
-0.000000
0.000000
-0.000000
0.000000
0.000000
0.000000
0.000000
0.000000
0.000000
0.000000
0.000000
0.000000
0.000000
0.000000
0.000000
0.000000
0.000000
0.000000
0.000000
0.000000
0.000000
0.000000
0.000000
0.000000
0.000000
0.000000
0.000000
0.000000
0.000000
0.000000
0.000000
0.000000
0.000000
0.000000
0.000000
0.000000
0.000000
0.000000
0.000000
0.000000
0.000000
0.000000
0.000000
0.000000
0.000000
0.000000
0.000000
0.000000
0.000000
0.000000
0.000000
0.000000
0.000000
0.000000
0.000000
0.000000
0.000000
0.000000
0.000000
0.000000
0.000000
0.000000
0.000000
0.000000
0.000000
0.000000
0.000000
0.000000
0.000000
0.000000
0.000000
0.000000
0.000000
0.000000
0.000000
0.000000
0.000000
0.000000
0.000000
0.000000
0.000000
0.000000
0.000000
0.000000
0.000000
0.000000
0.000000
0.000000
0.000000
0.000000
0.000000
0.000000
0.000000
0.000000
0.000000
0.000000
0.000000
0.000000
0.000000
0.000000
0.000000
0.000000
0.000000
0.000000
0.000000
0.000000
0.000000
0.000000
0.000000
0.000000
0.000000
0.000000
0.000000
0.000000
0.000000
0.000000
0.000000
0.000000
0.000000
0.000000
0.000000
0.000000
0.000000
0.000000
0.000000
0.000000
0.000000
0.000000
0.000000
0.000000
0.000000
0.000000
0.000000
0.000000
0.000000
0.000000
0.000000
0.000000
0.000000
0.000000
0.000000
0.000000
0.000000
0.000000
0.000000
0.000000
0.000000
0.000000
0.000000
0.000000
0.000000
0.000000
0.000000
0.000000
0.000000
0.000000
-0.000000
0.000000
-0.000000
0.000000
0.000000
0.000000
-0.000000
-0.000000
-0.000000
-0.000000
-0.000000
-0.000000
-0.000000
-0.000000
0.000000
-0.000000
0.000000
-0.000000
-0.000000
-0.000000
-0.000000
-0.000000
-0.000000
0.000000
-0.000000
-0.000000
-0.000000
-0.000000
-0.000000
-0.000000
-0.000000
-0.000000
-0.000000
-0.000000
-0.000000
-0.000000
-0.000000
-0.000000
-0.000000
-0.000000
-0.000000
-0.000000
-0.000000
-0.000000
-0.000000
-0.000000
-0.000000
-0.000000
-0.000000
-0.000000
-0.000000
-0.000000
-0.000000
-0.000000
-0.000000
-0.000000
-0.000000
-0.000000
-0.000000
-0.000000
-0.000000
-0.000000
-0.000000
-0.000000
-0.000000
-0.000000
-0.000000
-0.000000
-0.000000
-0.000000
-0.000000
-0.000000
-0.000000
-0.000000
0.000000
-0.000000
-0.000000
-0.000000
-0.000000
-0.000000
-0.000000
-0.000000
-0.000000
-0.000000
-0.000000
-0.000000
-0.000000
-0.000000
-0.000000
-0.000000
-0.000000
-0.000000
-0.000000
-0.000000
-0.000000
-0.000000
-0.000000
-0.000000
-0.000000
-0.000000
-0.000000
-0.000000
-0.000000
-0.000000
-0.000000
-0.000000
-0.000000
-0.000000
-0.000000
-0.000000
-0.000000
-0.000000
-0.000000
-0.000000
-0.000000
-0.000000
-0.000000
-0.000000
-0.000000
-0.000000
-0.000000
-0.000000
-0.000000
-0.000000
-0.000000
-0.000000
-0.000000
-0.000000
-0.000000
-0.000000
-0.000000
-0.000000
-0.000000
-0.000000
0.000000
-0.000000
0.000000
-0.000000
-0.000000
-0.000000
-0.000000
-0.000000
-0.000000
-0.000000
-0.000000
0.000000
0.000000
0.000000
-0.000000
0.000000
-0.000000
0.000000
0.000000
0.000000
0.000000
0.000000
0.000000
0.000000
0.000000
0.000000
0.000000
0.000000
0.000000
0.000000
0.000000
0.000000
0.000000
0.000000
0.000000
0.000000
0.000000
0.000000
0.000000
0.000000
0.000000
0.000000
0.000000
0.000000
0.000000
0.000000
0.000000
0.000000
0.000000
0.000000
0.000000
0.000000
0.000000
0.000000
0.000000
0.000000
0.000000
0.000000
0.000000
0.000000
0.000000
0.000000
0.000000
0.000000
0.000000
0.000000
0.000000
0.000000
0.000000
0.000000
0.000000
0.000000
0.000000
0.000000
0.000000
0.000000
0.000000
0.000000
0.000000
0.000000
0.000000
0.000000
0.000000
0.000000
0.000000
0.000000
0.000000
0.000000
0.000000
0.000000
0.000000
0.000000
0.000000
0.000000
0.000000
0.000000
0.000000
0.000000
0.000000
0.000000
0.000000
0.000000
0.000000
0.000000
0.000000
0.000000
0.000000
0.000000
0.000000
0.000000
0.000000
0.000000
0.000000
0.000000
0.000000
0.000000
0.000000
0.000000
0.000000
0.000000
0.000000
0.000000
0.000000
0.000000
0.000000
0.000000
0.000000
0.000000
0.000000
0.000000
0.000000
0.000000
0.000000
0.000000
0.000000
0.000000
0.000000
0.000000
0.000000
0.000000
0.000000
0.000000
0.000000
0.000000
0.000000
0.000000
0.000000
0.000000
0.000000
0.000000
0.000000
0.000000
0.000000
0.000000
0.000000
0.000000
0.000000
0.000000
0.000000
0.000000
0.000000
0.000000
0.000000
0.000000
0.000000
0.000000
0.000000
0.000000
0.000000
0.000000
0.000000
0.000000
0.000000
0.000000
0.000000
0.000000
0.000000
0.000000
0.000000
0.000000
0.000000
0.000000
0.000000
0.000000
0.000000
0.000000
0.000000
0.000000
0.000000
0.000000
0.000000
0.000000
0.000000
0.000000
0.000000
0.000000
0.000000
0.000000
0.000000
0.000000
0.000000
0.000000
0.000000
0.000000
0.000000
0.000000
0.000000
0.000000
0.000000
0.000000
0.000000
0.000000
0.000000
0.000000
0.000000
0.000000
0.000000
0.000000
0.000000
0.000000
0.000000
0.000000
0.000000
0.000000
0.000000
0.000000
0.000000
0.000000
0.000000
0.000000
0.000000
0.000000
0.000000
0.000000
0.000000
0.000000
0.000000
0.000000
0.000000
0.000000
0.000000
0.000000
0.000000
0.000000
0.000000
0.000000
0.000000
0.000000
0.000000
0.000000
0.000000
0.000000
0.000000
0.000000
0.000000
0.000000
0.000000
0.000000
0.000000
0.000000
0.000000
0.000000
0.000000
0.000000
0.000000
0.000000
0.000000
0.000000
0.000000
0.000000
0.000000
0.000000
0.000000
0.000000
0.000000
0.000000
0.000000
0.000000
0.000000
0.000000
0.000000
0.000000
0.000000
0.000000
0.000000
0.000000
0.000000
0.000000
0.000000
0.000000
0.000000
0.000000
0.000000
0.000000
0.000000
0.000000
0.000000
0.000000
0.000000
0.000000
0.000000
0.000000
0.000000
-0.000000
-0.000000
-0.000000
-0.000000
-0.000000
-0.000000
-0.000000
-0.000000
-0.000000
-0.000000
-0.000000
0.000000
-0.000000
0.000000
-0.000000
0.000000
0.000000
-0.000000
0.000000
-0.000000
-0.000000
-0.000000
-0.000000
-0.000000
-0.000000
-0.000000
-0.000000
-0.000000
-0.000000
-0.000000
-0.000000
-0.000000
-0.000000
-0.000000
-0.000000
-0.000000
-0.000000
-0.000000
-0.000000
-0.000000
-0.000000
-0.000000
-0.000000
-0.000000
-0.000000
-0.000000
-0.000000
-0.000000
-0.000000
-0.000000
-0.000000
-0.000000
-0.000000
-0.000000
-0.000000
-0.000000
-0.000000
-0.000000
-0.000000
-0.000000
-0.000000
-0.000000
-0.000000
-0.000000
-0.000000
-0.000000
-0.000000
-0.000000
-0.000000
-0.000000
-0.000000
-0.000000
-0.000000
-0.000000
-0.000000
-0.000000
-0.000000
-0.000000
-0.000000
-0.000000
-0.000000
-0.000000
-0.000000
-0.000000
-0.000000
-0.000000
-0.000000
-0.000000
-0.000000
-0.000000
-0.000000
-0.000000
-0.000000
-0.000000
-0.000000
-0.000000
-0.000000
-0.000000
-0.000000
-0.000000
-0.000000
-0.000000
-0.000000
-0.000000
-0.000000
-0.000000
-0.000000
-0.000000
-0.000000
-0.000000
-0.000000
-0.000000
-0.000000
-0.000000
-0.000000
-0.000000
0.000000
-0.000000
0.000000
-0.000000
0.000000
-0.000000
0.000000
0.000000
-0.000000
0.000000
-0.000000
-0.000000
-0.000000
-0.000000
-0.000000
-0.000000
-0.000000
-0.000000
-0.000000
0.000000
0.000000
0.000000
0.000000
0.000000
0.000000
0.000000
0.000000
0.000000
0.000000
0.000000
0.000000
0.000000
0.000000
0.000000
0.000000
0.000000
0.000000
0.000000
0.000000
0.000000
0.000000
0.000000
0.000000
0.000000
0.000000
0.000000
0.000000
0.000000
0.000000
0.000000
0.000000
0.000000
0.000000
0.000000
0.000000
0.000000
0.000000
0.000000
0.000000
0.000000
0.000000
0.000000
0.000000
0.000000
0.000000
0.000000
0.000000
0.000000
0.000000
0.000000
0.000000
0.000000
0.000000
0.000000
0.000000
0.000000
0.000000
0.000000
0.000000
0.000000
0.000000
0.000000
0.000000
0.000000
0.000000
0.000000
0.000000
0.000000
0.000000
0.000000
0.000000
0.000000
0.000000
0.000000
0.000000
0.000000
0.000000
0.000000
0.000000
0.000000
0.000000
0.000000
0.000000
0.000000
0.000000
0.000000
0.000000
0.000000
0.000000
0.000000
0.000000
0.000000
0.000000
0.000000
0.000000
0.000000
0.000000
0.000000
0.000000
0.000000
0.000000
0.000000
0.000000
0.000000
0.000000
0.000000
0.000000
0.000000
0.000000
0.000000
0.000000
0.000000
0.000000
0.000000
0.000000
0.000000
0.000000
0.000000
0.000000
0.000000
0.000000
0.000000
0.000000
0.000000
0.000000
0.000000
0.000000
0.000000
0.000000
0.000000
0.000000
0.000000
0.000000
0.000000
0.000000
0.000000
0.000000
0.000000
0.000000
0.000000
0.000000
0.000000
0.000000
0.000000
0.000000
0.000000
0.000000
0.000000
0.000000
0.000000
0.000000
0.000000
0.000000
0.000000
0.000000
0.000000
0.000000
0.000000
0.000000
0.000000
0.000000
0.000000
0.000000
0.000000
0.000000
0.000000
0.000000
0.000000
0.000000
0.000000
0.000000
0.000000
0.000000
0.000000
0.000000
0.000000
0.000000
0.000000
0.000000
0.000000
-0.000000
-0.000000
-0.000000
-0.000000
-0.000000
-0.000000
-0.000000
-0.000000
-0.000000
-0.000000
-0.000000
0.000000
-0.000000
0.000000
-0.000000
0.000000
0.000000
-0.000000
0.000000
-0.000000
-0.000000
-0.000000
-0.000000
-0.000000
-0.000000
-0.000000
-0.000000
-0.000000
-0.000000
-0.000000
-0.000000
-0.000000
-0.000000
-0.000000
-0.000000
-0.000000
-0.000000
-0.000000
-0.000000
-0.000000
-0.000000
-0.000000
-0.000000
-0.000000
-0.000000
-0.000000
-0.000000
-0.000000
-0.000000
-0.000000
-0.000000
-0.000000
-0.000000
-0.000000
-0.000000
-0.000000
-0.000000
-0.000000
-0.000000
-0.000000
-0.000000
-0.000000
-0.000000
-0.000000
-0.000000
-0.000000
-0.000000
-0.000000
-0.000000
-0.000000
-0.000000
-0.000000
-0.000000
-0.000000
-0.000000
-0.000000
-0.000000
-0.000000
-0.000000
-0.000000
-0.000000
-0.000000
-0.000000
-0.000000
-0.000000
-0.000000
-0.000000
-0.000000
-0.000000
-0.000000
-0.000000
-0.000000
-0.000000
-0.000000
-0.000000
-0.000000
-0.000000
-0.000000
-0.000000
-0.000000
-0.000000
-0.000000
-0.000000
-0.000000
-0.000000
-0.000000
-0.000000
-0.000000
-0.000000
-0.000000
-0.000000
-0.000000
-0.000000
-0.000000
-0.000000
-0.000000
0.000000
-0.000000
0.000000
-0.000000
0.000000
-0.000000
0.000000
0.000000
-0.000000
0.000000
-0.000000
-0.000000
-0.000000
-0.000000
-0.000000
-0.000000
-0.000000
-0.000000
-0.000000
0.000000
0.000000
0.000000
0.000000
0.000000
0.000000
0.000000
0.000000
0.000000
0.000000
0.000000
0.000000
0.000000
0.000000
0.000000
0.000000
0.000000
0.000000
0.000000
0.000000
0.000000
0.000000
0.000000
0.000000
0.000000
0.000000
0.000000
SCALARS strain_3 float
LOOKUP_TABLE default
-0.000000
-0.000000
-0.000000
-0.000000
-0.000000
-0.000000
-0.000000
-0.000000
-0.000000
-0.000000
-0.000000
-0.000000
-0.000000
-0.000000
-0.000000
-0.000000
-0.000000
-0.000000
-0.000000
-0.000000
-0.000000
-0.000000
-0.000000
-0.000000
-0.000000
-0.000000
-0.000000
-0.000000
-0.000000
-0.000000
-0.000000
-0.000000
-0.000000
-0.000000
-0.000000
-0.000000
-0.000000
-0.000000
-0.000000
-0.000000
-0.000000
-0.000000
-0.000000
-0.000000
-0.000000
-0.000000
-0.000000
-0.000000
-0.000000
-0.000000
-0.000000
-0.000000
-0.000000
-0.000000
-0.000000
-0.000000
-0.000000
-0.000000
-0.000000
-0.000000
-0.000000
-0.000000
-0.000000
-0.000000
-0.000000
-0.000000
-0.000000
-0.000000
-0.000000
-0.000000
-0.000000
-0.000000
-0.000000
-0.000000
-0.000000
-0.000000
-0.000000
-0.000000
-0.000000
-0.000000
-0.000000
-0.000000
-0.000000
-0.000000
-0.000000
-0.000000
-0.000000
0.000000
-0.000000
0.000000
-0.000000
-0.000000
-0.000000
-0.000000
-0.000000
-0.000000
0.000000
-0.000000
0.000000
0.000000
0.000000
-0.000000
0.000000
-0.000000
0.000000
-0.000000
0.000000
0.000000
0.000000
0.000000
0.000000
0.000000
0.000000
0.000000
0.000000
0.000000
0.000000
0.000000
0.000000
0.000000
0.000000
0.000000
0.000000
0.000000
0.000000
0.000000
0.000000
0.000000
0.000000
0.000000
0.000000
0.000000
0.000000
0.000000
0.000000
0.000000
0.000000
0.000000
0.000000
0.000000
0.000000
0.000000
0.000000
0.000000
0.000000
0.000000
0.000000
0.000000
0.000000
0.000000
0.000000
0.000000
0.000000
0.000000
0.000000
0.000000
0.000000
0.000000
0.000000
0.000000
0.000000
0.000000
0.000000
0.000000
0.000000
0.000000
0.000000
0.000000
0.000000
0.000000
0.000000
0.000000
0.000000
0.000000
0.000000
0.000000
0.000000
0.000000
0.000000
0.000000
0.000000
0.000000
0.000000
0.000000
0.000000
0.000000
0.000000
0.000000
0.000000
0.000000
0.000000
0.000000
0.000000
0.000000
0.000000
0.000000
0.000000
0.000000
0.000000
0.000000
0.000000
0.000000
0.000000
0.000000
0.000000
0.000000
0.000000
0.000000
0.000000
0.000000
0.000000
0.000000
0.000000
0.000000
0.000000
0.000000
0.000000
0.000000
0.000000
0.000000
0.000000
0.000000
0.000000
0.000000
0.000000
0.000000
0.000000
0.000000
0.000000
0.000000
0.000000
0.000000
0.000000
0.000000
0.000000
0.000000
0.000000
0.000000
0.000000
-0.000000
0.000000
-0.000000
0.000000
0.000000
0.000000
0.000000
-0.000000
0.000000
-0.000000
0.000000
-0.000000
-0.000000
-0.000000
0.000000
-0.000000
0.000000
-0.000000
0.000000
-0.000000
-0.000000
-0.000000
-0.000000
-0.000000
-0.000000
-0.000000
-0.000000
-0.000000
-0.000000
-0.000000
-0.000000
-0.000000
-0.000000
-0.000000
-0.000000
-0.000000
-0.000000
-0.000000
-0.000000
-0.000000
-0.000000
-0.000000
-0.000000
-0.000000
-0.000000
-0.000000
-0.000000
-0.000000
-0.000000
-0.000000
-0.000000
-0.000000
-0.000000
-0.000000
-0.000000
-0.000000
-0.000000
-0.000000
-0.000000
-0.000000
-0.000000
-0.000000
-0.000000
-0.000000
-0.000000
-0.000000
-0.000000
-0.000000
-0.000000
-0.000000
-0.000000
-0.000000
-0.000000
-0.000000
-0.000000
-0.000000
-0.000000
-0.000000
-0.000000
-0.000000
-0.000000
-0.000000
-0.000000
-0.000000
-0.000000
-0.000000
-0.000000
-0.000000
-0.000000
-0.000000
-0.000000
-0.000000
-0.000000
-0.000000
-0.000000
-0.000000
-0.000000
-0.000000
-0.000000
-0.000000
-0.000000
-0.000000
-0.000000
-0.000000
-0.000000
-0.000000
-0.000000
-0.000000
-0.000000
-0.000000
-0.000000
-0.000000
-0.000000
-0.000000
-0.000000
-0.000000
-0.000000
-0.000000
-0.000000
-0.000000
-0.000000
-0.000000
-0.000000
-0.000000
-0.000000
-0.000000
-0.000000
-0.000000
-0.000000
-0.000000
-0.000000
-0.000000
-0.000000
-0.000000
-0.000000
-0.000000
-0.000000
-0.000000
-0.000000
-0.000000
-0.000000
-0.000000
-0.000000
-0.000000
-0.000000
-0.000000
-0.000000
-0.000000
-0.000000
-0.000000
-0.000000
-0.000000
0.000000
-0.000000
0.000000
-0.000000
-0.000000
-0.000000
-0.000000
0.000000
-0.000000
0.000000
-0.000000
0.000000
0.000000
0.000000
-0.000000
0.000000
-0.000000
0.000000
-0.000000
0.000000
0.000000
0.000000
0.000000
0.000000
0.000000
0.000000
0.000000
0.000000
0.000000
0.000000
0.000000
0.000000
0.000000
0.000000
0.000000
0.000000
0.000000
0.000000
0.000000
0.000000
0.000000
0.000000
0.000000
0.000000
0.000000
0.000000
0.000000
0.000000
0.000000
0.000000
0.000000
0.000000
0.000000
0.000000
0.000000
0.000000
0.000000
0.000000
0.000000
0.000000
0.000000
0.000000
0.000000
0.000000
0.000000
0.000000
0.000000
0.000000
0.000000
0.000000
0.000000
0.000000
0.000000
0.000000
0.000000
0.000000
0.000000
0.000000
0.000000
0.000000
0.000000
0.000000
0.000000
0.000000
0.000000
0.000000
0.000000
0.000000
0.000000
0.000000
0.000000
0.000000
0.000000
0.000000
0.000000
0.000000
0.000000
0.000000
0.000000
0.000000
0.000000
0.000000
0.000000
0.000000
0.000000
0.000000
0.000000
0.000000
0.000000
0.000000
0.000000
0.000000
0.000000
0.000000
0.000000
0.000000
0.000000
0.000000
0.000000
0.000000
0.000000
0.000000
0.000000
0.000000
0.000000
0.000000
0.000000
0.000000
0.000000
0.000000
0.000000
0.000000
0.000000
0.000000
0.000000
0.000000
0.000000
0.000000
0.000000
0.000000
0.000000
0.000000
0.000000
0.000000
0.000000
0.000000
0.000000
0.000000
0.000000
0.000000
0.000000
0.000000
-0.000000
0.000000
0.000000
0.000000
0.000000
0.000000
0.000000
-0.000000
0.000000
-0.000000
0.000000
-0.000000
-0.000000
-0.000000
0.000000
-0.000000
0.000000
-0.000000
0.000000
-0.000000
-0.000000
-0.000000
-0.000000
-0.000000
-0.000000
-0.000000
-0.000000
-0.000000
-0.000000
-0.000000
-0.000000
-0.000000
-0.000000
-0.000000
-0.000000
-0.000000
-0.000000
-0.000000
-0.000000
-0.000000
-0.000000
-0.000000
-0.000000
-0.000000
-0.000000
-0.000000
-0.000000
-0.000000
-0.000000
-0.000000
-0.000000
-0.000000
-0.000000
-0.000000
-0.000000
-0.000000
-0.000000
-0.000000
-0.000000
-0.000000
-0.000000
-0.000000
-0.000000
-0.000000
-0.000000
-0.000000
-0.000000
-0.000000
-0.000000
-0.000000
-0.000000
-0.000000
-0.000000
-0.000000
-0.000000
-0.000000
-0.000000
-0.000000
-0.000000
-0.000000
-0.000000
-0.000000
-0.000000
-0.000000
-0.000000
-0.000000
-0.000000
-0.000000
-0.000000
-0.000000
-0.000000
-0.000000
-0.000000
-0.000000
-0.000000
-0.000000
-0.000000
-0.000000
-0.000000
-0.000000
-0.000000
-0.000000
-0.000000
-0.000000
-0.000000
-0.000000
-0.000000
-0.000000
-0.000000
-0.000000
-0.000000
-0.000000
-0.000000
-0.000000
-0.000000
-0.000000
-0.000000
-0.000000
-0.000000
-0.000000
-0.000000
-0.000000
-0.000000
-0.000000
-0.000000
-0.000000
0.000000
-0.000000
0.000000
-0.000000
0.000000
0.000000
0.000000
0.000000
0.000000
0.000000
0.000000
0.000000
0.000000
0.000000
0.000000
0.000000
0.000000
0.000000
0.000000
0.000000
0.000000
0.000000
0.000000
0.000000
0.000000
0.000000
0.000000
0.000000
0.000000
0.000000
0.000000
0.000000
0.000000
0.000000
0.000000
0.000000
0.000000
0.000000
0.000000
0.000000
0.000000
0.000000
0.000000
0.000000
0.000000
0.000000
0.000000
0.000000
0.000000
0.000000
0.000000
0.000000
0.000000
0.000000
0.000000
0.000000
0.000000
0.000000
0.000000
0.000000
0.000000
0.000000
0.000000
0.000000
0.000000
0.000000
0.000000
0.000000
0.000000
0.000000
0.000000
0.000000
0.000000
0.000000
0.000000
0.000000
0.000000
0.000000
0.000000
0.000000
0.000000
0.000000
0.000000
0.000000
0.000000
0.000000
0.000000
0.000000
0.000000
0.000000
0.000000
0.000000
0.000000
0.000000
0.000000
0.000000
0.000000
0.000000
0.000000
0.000000
0.000000
0.000000
0.000000
0.000000
0.000000
0.000000
0.000000
0.000000
0.000000
0.000000
0.000000
0.000000
0.000000
0.000000
0.000000
0.000000
0.000000
0.000000
0.000000
0.000000
0.000000
0.000000
0.000000
0.000000
0.000000
0.000000
0.000000
0.000000
0.000000
0.000000
0.000000
0.000000
0.000000
0.000000
0.000000
0.000000
0.000000
0.000000
0.000000
0.000000
0.000000
0.000000
0.000000
0.000000
0.000000
0.000000
0.000000
0.000000
0.000000
0.000000
0.000000
0.000000
0.000000
0.000000
0.000000
0.000000
0.000000
0.000000
-0.000000
0.000000
-0.000000
0.000000
-0.000000
-0.000000
-0.000000
-0.000000
-0.000000
-0.000000
-0.000000
-0.000000
-0.000000
-0.000000
-0.000000
-0.000000
-0.000000
-0.000000
-0.000000
-0.000000
-0.000000
-0.000000
-0.000000
-0.000000
-0.000000
-0.000000
-0.000000
-0.000000
-0.000000
-0.000000
-0.000000
-0.000000
-0.000000
-0.000000
-0.000000
-0.000000
-0.000000
-0.000000
-0.000000
-0.000000
-0.000000
-0.000000
-0.000000
-0.000000
-0.000000
-0.000000
-0.000000
-0.000000
-0.000000
-0.000000
-0.000000
-0.000000
-0.000000
-0.000000
-0.000000
-0.000000
-0.000000
-0.000000
-0.000000
-0.000000
-0.000000
-0.000000
-0.000000
-0.000000
-0.000000
-0.000000
-0.000000
-0.000000
-0.000000
-0.000000
-0.000000
-0.000000
-0.000000
-0.000000
-0.000000
-0.000000
-0.000000
-0.000000
-0.000000
-0.000000
-0.000000
-0.000000
-0.000000
-0.000000
-0.000000
-0.000000
-0.000000
-0.000000
-0.000000
-0.000000
-0.000000
-0.000000
-0.000000
-0.000000
-0.000000
-0.000000
-0.000000
-0.000000
-0.000000
-0.000000
-0.000000
-0.000000
-0.000000
-0.000000
-0.000000
-0.000000
-0.000000
-0.000000
-0.000000
-0.000000
-0.000000
-0.000000
-0.000000
-0.000000
-0.000000
-0.000000
-0.000000
-0.000000
-0.000000
-0.000000
-0.000000
-0.000000
-0.000000
-0.000000
-0.000000
-0.000000
-0.000000
-0.000000
-0.000000
-0.000000
-0.000000
-0.000000
-0.000000
-0.000000
-0.000000
-0.000000
-0.000000
-0.000000
-0.000000
-0.000000
-0.000000
-0.000000
-0.000000
-0.000000
-0.000000
-0.000000
-0.000000
-0.000000
-0.000000
-0.000000
-0.000000
-0.000000
-0.000000
-0.000000
-0.000000
-0.000000
-0.000000
-0.000000
0.000000
-0.000000
0.000000
-0.000000
0.000000
0.000000
0.000000
0.000000
0.000000
0.000000
0.000000
0.000000
0.000000
0.000000
0.000000
0.000000
0.000000
0.000000
0.000000
0.000000
0.000000
0.000000
0.000000
0.000000
0.000000
0.000000
0.000000
0.000000
0.000000
0.000000
0.000000
0.000000
0.000000
0.000000
0.000000
0.000000
0.000000
0.000000
0.000000
0.000000
0.000000
0.000000
0.000000
0.000000
0.000000
0.000000
0.000000
0.000000
0.000000
0.000000
0.000000
0.000000
0.000000
0.000000
0.000000
0.000000
0.000000
0.000000
0.000000
0.000000
0.000000
0.000000
0.000000
0.000000
0.000000
0.000000
0.000000
0.000000
0.000000
0.000000
0.000000
0.000000
0.000000
0.000000
0.000000
0.000000
0.000000
0.000000
0.000000
0.000000
0.000000
0.000000
0.000000
0.000000
0.000000
0.000000
0.000000
0.000000
0.000000
0.000000
0.000000
0.000000
0.000000
0.000000
0.000000
0.000000
0.000000
0.000000
0.000000
0.000000
0.000000
0.000000
0.000000
0.000000
0.000000
0.000000
0.000000
0.000000
0.000000
0.000000
0.000000
0.000000
0.000000
0.000000
0.000000
0.000000
0.000000
0.000000
0.000000
0.000000
0.000000
0.000000
0.000000
0.000000
0.000000
0.000000
0.000000
0.000000
0.000000
0.000000
0.000000
0.000000
0.000000
0.000000
0.000000
0.000000
0.000000
0.000000
0.000000
0.000000
0.000000
0.000000
0.000000
0.000000
0.000000
0.000000
0.000000
0.000000
0.000000
0.000000
0.000000
0.000000
0.000000
0.000000
0.000000
0.000000
0.000000
0.000000
-0.000000
0.000000
-0.000000
0.000000
-0.000000
-0.000000
-0.000000
-0.000000
-0.000000
-0.000000
-0.000000
-0.000000
-0.000000
-0.000000
-0.000000
-0.000000
-0.000000
-0.000000
-0.000000
-0.000000
-0.000000
-0.000000
-0.000000
-0.000000
-0.000000
-0.000000
-0.000000
-0.000000
-0.000000
-0.000000
-0.000000
-0.000000
-0.000000
-0.000000
-0.000000
-0.000000
-0.000000
-0.000000
-0.000000
-0.000000
-0.000000
-0.000000
-0.000000
-0.000000
-0.000000
-0.000000
-0.000000
-0.000000
-0.000000
-0.000000
-0.000000
-0.000000
-0.000000
-0.000000
-0.000000
-0.000000
-0.000000
-0.000000
-0.000000
-0.000000
-0.000000
-0.000000
-0.000000
-0.000000
-0.000000
-0.000000
-0.000000
-0.000000
-0.000000
-0.000000
-0.000000
-0.000000
-0.000000
-0.000000
-0.000000
-0.000000
-0.000000
-0.000000
-0.000000
-0.000000
-0.000000
-0.000000
-0.000000
-0.000000
-0.000000
-0.000000
-0.000000
-0.000000
-0.000000
-0.000000
-0.000000
-0.000000
-0.000000
-0.000000
-0.000000
-0.000000
-0.000000
SCALARS stress_1 float
LOOKUP_TABLE default
3822.791995
7595.619096
7143.744679
9694.636966
11272.464125
13921.898214
10479.597419
11467.600444
9480.010771
7167.115783
6646.306478
3286.762121
4838.896705
3320.055507
7378.790745
3926.862559
9149.546223
1631.769995
7007.023142
-146.510059
6224.692327
2141.943240
9776.938069
5533.014144
12791.044988
6401.546600
12435.989228
7957.784510
13154.833417
13884.735785
18416.662470
21073.537412
23276.611748
26750.588413
25904.010718
31581.693208
28260.071264
35550.503589
30153.409846
38606.040810
31692.436126
41545.900838
32351.803292
42250.336760
30541.382508
43349.110585
31569.653788
41737.919900
30007.200411
38263.532931
28639.308826
35263.997208
28530.375283
36676.077467
30818.819540
39944.545851
32725.128327
41121.139577
33197.522115
43425.392428
34934.720864
47796.941459
37159.987351
50772.005146
38148.791089
52269.691660
38604.410276
52157.258643
38411.385448
50418.661884
37554.139695
46996.557627
36101.286112
41959.484588
33958.168354
34789.301876
31086.724150
27939.226595
29118.515661
23070.475122
27667.204691
17147.692235
25189.528962
11053.799733
23476.843498
8759.143483
23764.317300
9625.849214
24354.637214
9999.660516
24100.232251
7690.462007
24418.268654
5854.103770
23151.384271
1329.086187
20960.965435
2027.987228
22076.108377
5339.077191
23648.076338
8409.501637
24312.743558
9809.488576
24420.594253
9573.326193
23727.510229
8733.937394
23456.019566
11017.744391
25183.423258
17132.341334
27683.261941
23065.227752
29109.428060
27947.083994
31066.006088
34808.253079
33799.765809
41948.228074
36017.996237
47040.470621
37609.725777
50470.274000
38439.137634
52195.317246
38620.541053
52294.969740
38167.744659
50856.048937
37089.717079
47865.253864
34855.588566
43456.452938
33137.694973
41146.523704
32659.630582
39992.429818
30825.275073
36683.621252
28596.421167
35201.148174
28951.231315
37953.324870
29962.149346
40738.526459
31997.778940
42184.372419
32802.356828
41571.528623
32516.003543
40846.748824
31535.582711
38715.084975
30062.927983
35640.836202
28245.860218
31632.461272
25905.396517
26772.015991
23243.166442
21085.103260
18473.909740
13869.146967
13246.085689
7942.914862
12273.085542
6403.912103
12697.385637
5566.447104
9695.389490
2215.570624
6143.567778
-92.076434
6942.807432
1696.324756
9082.360037
3962.862073
7369.713148
3336.518303
4836.791771
3288.128723
6650.676019
7153.253008
9473.398083
11441.165323
10658.661328
13794.609964
11589.315517
15373.602779
12188.343043
16213.618562
13209.304905
15615.059253
12132.611345
14739.176591
14081.040404
13611.424428
13200.241210
12348.140627
11934.677590
10827.210693
7745.858418
7674.759894
3035.753765
5335.924511
4686.775886
5822.439012
7311.627628
5835.353595
3881.408396
3973.065440
3334.462207
3765.442090
6190.356642
4473.031418
6029.497750
4166.497200
5794.019302
3841.027204
5385.017626
3512.956022
4843.666383
3206.689621
4166.024920
2958.616066
3543.922082
2200.202154
-596.374351
787.761653
-1655.095544
1055.900980
978.603136
1511.423417
-2772.503228
-289.113244
-6770.157669
-1034.805137
-4194.340904
482.098035
-1268.565297
1580.050119
-2069.305747
2048.084904
-1717.880655
1362.790396
-5370.831922
586.960436
-9325.596970
-254.042537
-4676.357793
1069.961660
-1306.448835
1441.183846
-1273.286262
1395.389884
-1157.380064
414.004959
-4171.049581
-1042.871844
-6831.625366
-232.796974
-2847.384515
1534.402242
949.165463
1068.089103
-1655.943511
782.880485
-592.426541
2198.136936
3551.575330
2950.984665
4177.162559
3206.723995
4843.848269
3526.333132
5376.803039
3866.403104
5765.361500
4205.816029
5989.772518
4504.423867
6148.388612
3811.038499
3278.745220
4055.171716
3780.132559
5882.833939
7249.792060
5825.841035
4681.826701
5323.050490
3075.249214
7692.599052
7990.203942
11515.044240
12046.019405
13095.167837
11345.717414
14742.849800
12499.418692
16301.053708
12092.118440
16641.050669
12053.090992
16521.489782
11792.420695
15569.857583
11312.218177
13920.023128
10551.349617
11470.835333
9512.988309
7185.347724
6628.491818
3313.299944
4788.657524
3336.612708
7337.968644
3939.483765
9124.019098
1623.423213
7059.483210
-165.116685
6266.190610
2201.405407
9805.283091
5562.676900
12708.358089
6402.780796
12200.401593
7952.089344
13131.476911
13866.920160
18394.126714
21084.655257
23224.031328
26779.441505
25891.630123
31593.769024
28222.974495
35522.974928
30114.929087
38495.096846
31821.937126
41483.192533
32577.969731
42176.232993
30561.739252
43425.221316
31444.044204
42005.243914
30018.560629
38377.718824
28593.440689
35270.811376
28517.753312
36669.954776
30814.328632
39958.901559
32751.717571
41110.215849
33280.720887
43421.501095
35045.910827
47792.614061
37297.948558
50805.755627
38251.872332
52268.991145
38670.215503
52210.774452
38349.178271
50385.683289
37514.129319
47029.936284
36107.086569
41953.469180
34005.442138
34773.139413
31118.246923
27928.253024
29157.469974
23084.186479
27735.207671
17135.199584
25208.113444
11024.663029
23515.394645
8783.051189
23730.249917
9621.350994
24277.343470
10084.588734
23914.126686
7906.250423
23830.336905
5949.538926
21906.193425
1317.057164
20285.423660
2111.040114
21879.409548
5363.716908
23563.405962
8448.848017
24346.939871
9836.344044
24348.410954
9534.209923
23687.778855
8750.714722
23413.096551
11028.693820
25124.031270
17152.306713
27650.062528
23074.622358
29106.283788
27944.468877
31092.268533
34784.691543
33981.167347
41944.824904
36147.989481
47017.378081
37640.821749
50430.758639
38449.556515
52181.911604
38643.031228
52268.636166
38202.703768
50820.060242
37237.833842
47811.467523
35014.610916
43441.116435
33260.591838
41091.805195
32699.180035
39897.363281
30793.897386
36693.230298
28628.700083
35069.369669
29166.523459
38350.312818
29627.716759
40518.504634
32817.895304
42160.915432
33060.810813
41458.837208
32668.376259
40748.741460
31496.476557
38673.442335
30084.100814
35608.910702
28250.567165
31616.398373
25901.919946
26773.823939
23277.233704
21086.109787
18419.367367
13893.071463
13126.735777
7968.237972
12365.544074
6415.736541
12840.233780
5570.026916
9777.796097
2219.400252
6179.775213
-178.321444
7020.658349
1651.657631
9184.761405
3922.353607
7472.043649
3281.416752
4951.148900
3258.063562
6676.425848
7126.961719
9546.702296
11407.853208
10695.124394
13779.930268
11595.303386
15382.912989
12115.389339
16275.706434
13161.923862
15546.631528
12279.150693
14685.963794
14216.671213
13524.044986
13196.425243
12247.854470
11837.159310
10886.189521
7745.793445
7705.523264
3047.687383
5340.248833
4677.330530
5829.856024
7305.238058
5830.472114
3859.477799
3987.093654
3302.238571
3791.810047
6148.135390
4505.248811
5987.292931
4203.649909
5764.143399
3864.551362
5377.208865
3525.224814
4841.805412
3212.667323
4167.281211
2955.525352
3542.966994
2204.357095
-579.638498
785.982420
-1633.722006
1061.303770
967.565315
1515.054009
-2839.051885
-253.789878
-6847.752214
-989.823782
-4281.703039
583.641513
-1500.611127
1697.136671
-1919.275086
1874.787561
-1610.923894
1312.739570
-5207.961970
281.627490
-9159.077582
-217.573426
-4704.137186
1015.311030
-1243.466411
1403.378343
-1229.531134
1356.841516
-1110.376382
346.517109
-4106.798652
-1056.410202
-6808.645395
-258.103963
-2810.031278
1510.657491
979.122881
1043.286858
-1625.781667
775.145504
-572.001080
2213.158297
3543.506819
2993.076032
4129.431186
3279.667489
4792.795594
3586.639047
5313.461557
4024.621926
5550.791542
4324.311705
5860.226819
4564.881183
6054.359035
3869.229773
3168.445578
4041.375886
3815.267070
5843.345420
7307.025912
5822.967105
4681.163494
5340.321100
3115.163030
7764.580342
7963.058739
11698.413217
11884.898429
13194.455123
11219.247550
14607.804614
12518.640274
16252.012513
12117.858198
16654.905437
12090.360303
16558.499281
11734.422613
11181.328109
6927.561942
7245.791715
2183.183468
7499.305907
2085.329837
8142.035734
3012.322008
8398.843644
5007.403973
5065.608489
6870.790108
5798.199726
5557.255388
5759.158592
3977.546261
4819.257738
3626.659992
3811.135900
3464.768847
3245.684794
2620.665752
2463.898633
2092.550820
1565.694493
2346.634306
996.716779
2768.630645
807.286614
2946.405289
841.600838
3047.519942
1068.632858
3142.799988
1383.991228
3137.258620
1934.208633
2576.227566
2508.770207
1462.773898
2759.870447
726.452526
2734.376017
490.206877
2801.768860
-549.409262
2883.985562
-2057.941342
2561.319972
-2235.006222
1955.919897
-1448.265091
1540.909424
-1077.415373
1511.610796
-1428.603640
1668.255593
-2338.073648
1699.389618
-3268.700105
1409.310142
-2515.896413
211.262560
-2030.676496
1187.183617
-1764.991301
1223.313730
-1021.461414
1399.304090
-1311.361149
1862.581093
-2134.090715
2579.165654
-2083.809738
2957.187860
-605.610401
2832.918862
465.905553
2732.669209
731.744994
2766.597897
1443.407607
2537.153190
2542.903664
2013.896339
3063.403851
1502.191231
3044.983340
1214.667070
2936.339030
1025.096551
2789.847826
952.041573
2650.172402
1073.490684
2282.644949
1624.977703
2022.254132
2526.666524
2559.003521
3227.419275
3456.669197
3812.939772
3629.091661
4822.377944
3936.215931
5969.100113
5395.379741
6152.969695
6580.065219
5251.254646
6334.718881
5050.376868
5535.752050
3941.495774
3956.579589
7261.731154
2960.215592
7026.923233
3091.346038
7242.320216
3976.184088
7682.601767
5489.365857
8336.970746
7903.944592
9427.266348
10959.727526
11548.851026
14702.758943
15026.629397
18917.865044
17854.094021
22732.907029
19339.215732
25523.460500
20941.613248
27665.406269
23506.880991
29986.519035
25641.436135
31715.629209
25861.508899
31957.821359
25862.742776
31421.464299
26736.477616
30762.140142
27125.255871
29196.446039
25663.567364
25696.458875
23267.292041
21122.734472
21080.181227
16899.015709
19172.812926
13529.749801
17939.416458
11007.967632
17260.557828
9339.163255
16566.079191
8683.469877
16853.336743
9412.398992
16616.275557
9067.951329
19329.863834
12484.107785
21872.923007
15883.706951
24351.749370
18420.569567
25858.247083
18523.676439
25317.794295
17493.963810
25341.928220
16401.691135
25703.061451
14609.509974
24798.545628
12263.878810
23709.089980
10427.542184
23224.024113
9999.210159
23266.665226
11063.742704
23951.206220
13730.765090
25348.126333
17936.164539
27309.831841
23792.849415
30323.515257
30719.047505
33714.012161
37413.896728
35904.781824
43404.601059
38160.874983
49313.611257
41348.907313
54501.577625
43109.926575
57010.746433
42814.903993
57063.624953
42583.003226
57143.333466
42997.294029
58824.085922
43956.531002
61847.339188
45882.698186
64459.066157
46102.223230
63948.053159
46520.231150
62814.322523
46458.910882
58028.500946
43309.456058
57015.559194
42991.703456
56966.181087
42999.544225
56952.057086
43328.549937
54441.466470
41541.327355
49268.631022
38367.709499
43388.201017
36091.728031
37379.364821
33758.717466
30712.615652
30318.545602
23808.247996
27277.562694
17906.451190
25346.839170
13736.411274
23930.842152
11084.793416
23222.973637
10028.893837
23185.014735
10394.641086
23648.020419
12258.535767
24759.580566
14613.931505
25678.931612
16389.705297
25352.988442
17556.722488
25327.467745
18525.625131
25869.476182
18371.526012
24538.063302
15740.501504
21898.865283
11741.969125
20307.585656
8348.457604
20231.890530
7101.154030
19064.457913
6507.739840
15730.794690
9604.909676
16790.018219
11135.732626
17866.575809
13543.272652
19341.602965
16892.275918
21037.640340
21141.678691
23232.132243
25697.619572
25656.804572
29177.914675
27174.990029
30722.925867
26870.448931
31315.008577
25959.825985
31879.431754
25912.278146
31668.477041
25628.971037
29991.530490
23570.997107
27598.042509
21019.495949
25452.107238
19431.324959
22780.684655
17793.338796
18963.572295
14845.922736
14712.123378
11506.289968
10962.631665
9404.198193
7917.801765
8324.423667
5513.105310
7614.429336
3843.071522
7276.249233
2626.232340
7270.612889
2191.875775
7482.432754
2180.707555
8061.728288
3175.792109
8120.667248
5009.326448
5060.365749
6754.886873
5962.388105
5475.408814
5826.903724
3964.731827
4829.145995
3628.654987
3815.088502
3469.498295
3245.490905
2648.131462
2437.616782
2141.359796
1476.234548
2336.290771
1009.117456
2682.131196
921.822236
2821.175813
974.251394
2998.284112
1143.921539
3026.837434
1524.890930
3059.026662
2021.075032
2535.628161
2551.875850
1436.399744
2772.309244
717.261833
2746.590134
456.250216
2839.174236
-580.293477
2937.268094
-2088.957102
2588.101630
-2153.936188
1851.392132
-1411.207061
1521.532702
-1122.314190
1536.136621
-1383.417681
1622.416138
-2424.857407
1768.082472
-3298.594070
1513.667994
-2899.468681
904.382189
-2310.188754
1546.207247
-1993.419361
1709.963469
-1391.855010
1536.566459
-1467.100410
1897.448084
-2191.471181
2686.033447
-2178.128166
3009.324165
-652.408581
2851.087482
442.669285
2723.066066
740.163096
2767.842526
1441.499069
2557.623045
2524.851514
2019.413305
3061.854985
1474.784696
3067.486589
1102.894767
3031.255272
931.640984
2860.855186
895.525407
2705.351852
1025.169309
2325.404409
1592.106873
2052.412101
2517.919695
2579.322165
3214.953901
3473.486116
3814.810954
3625.845357
4862.619599
3915.444497
5991.332573
5370.225143
6250.565627
6545.191079
5459.740429
6368.888339
4769.550074
5675.945002
3941.462235
3835.617457
7352.513610
2854.514040
7650.282563
2713.823265
7406.204731
3789.252611
7665.490785
5436.339036
8310.333068
7914.201537
9441.847007
10975.793943
11529.864832
14702.022397
14884.849740
18969.168831
17867.164281
22751.594155
19312.617302
25475.610516
20829.949250
27720.290490
23491.366609
30038.213235
25539.686371
31670.826716
25911.721172
31912.451797
25907.139584
31384.890948
26790.788174
30762.696110
27153.064691
29183.931387
25654.034454
25689.513925
23235.185901
21132.642640
21072.534760
16903.750394
19193.518045
13522.178896
17946.161395
11004.911305
17122.881176
9366.885377
16252.649536
8762.940819
16318.341126
9336.575858
16425.182817
9353.586380
19387.293610
12558.510939
21596.018474
15985.723398
24347.728792
18498.508146
25816.106353
18583.135281
25261.520124
17543.333770
25253.472145
16431.249857
25560.002140
14673.748877
24602.124675
12287.080689
23566.967784
10497.607583
23103.093859
10030.132270
23197.548552
11133.713305
23953.847174
13769.649252
25273.506950
17920.328623
27204.902586
23807.658338
30315.622035
30732.614918
33768.049056
37408.657182
36008.504014
43393.974158
38274.443449
49280.327874
41504.357526
54476.405493
43280.158805
56982.642814
42995.930373
57068.094624
42620.325639
57103.082790
42958.871513
58833.817807
43940.984278
61902.093391
45862.828963
64377.188037
46456.413125
63951.082218
46172.579457
63087.783150
46232.858937
58116.601919
43426.579631
56903.488862
42854.376520
57017.361950
42934.820989
56987.745160
43268.756728
54452.074318
41544.618357
49277.370356
38349.965578
43373.289863
35975.936305
37411.889551
33752.205857
30725.629799
30311.339795
23789.064503
27277.978035
17962.454069
25284.143868
13697.560038
23914.546137
11099.536917
23250.255513
9982.007525
23171.509177
10402.789828
23627.457852
12251.813604
24769.494537
14615.341786
25663.702961
16388.300104
25316.500659
17541.167066
25302.300274
18503.862540
25875.090863
18366.683634
24525.803249
15759.717835
21855.958804
11739.171812
20192.659254
8239.031100
20288.037023
7166.096893
18958.271863
6538.869787
15296.957162
9921.095314
16271.553143
11168.058031
17896.518734
13560.767767
19324.945961
16949.080546
21019.191048
21131.989074
23236.976640
25683.346554
25670.693356
29169.254625
27178.486164
30760.620061
26755.161429
31411.610673
25898.091685
31881.500316
25963.331989
31604.634075
25635.239517
30008.533578
23579.161506
27613.353642
20950.677889
25378.331255
19531.444365
22719.728438
17865.916872
18887.213924
14984.868806
14676.892705
11610.718053
10971.421957
9430.728098
7922.095244
8315.221055
SCALARS stress_2 float
LOOKUP_TABLE default
13506.366587
19305.691215
23260.188399
27550.514811
28210.343770
31599.246773
25869.417347
26795.507402
23211.174061
21094.806998
18381.713343
13888.988785
13086.880557
7997.318888
12135.037472
6445.706143
12688.914028
5604.663385
9700.498867
2228.898980
6218.233047
-136.789320
7169.792384
1574.801986
9360.386112
3869.312064
7445.716398
3233.903339
4836.936466
3269.712421
6659.358946
7163.435986
9530.435024
11428.621127
10620.450569
13848.278789
11443.648492
15460.832550
12115.922066
16234.769397
12904.296059
15869.415426
12110.256985
14719.146737
14130.437247
13728.420350
12948.387306
12487.800548
11767.938683
10982.296996
7810.276141
7697.146261
3059.388309
5336.909172
4698.424557
5815.143604
7281.988804
5859.612654
3789.793650
4043.987354
3226.514475
3850.021572
6036.074645
4591.788623
5938.216878
4250.770966
5696.761182
3928.189791
5323.391548
3574.393713
4798.757046
3257.937359
4153.890152
2972.526032
3546.830193
2211.915823
-580.568770
780.352611
-1627.283594
1050.878584
970.864387
1504.284691
-2822.459462
-230.630017
-6878.766032
-956.866440
-4234.429650
517.426322
-1346.312641
1625.473972
-2057.938279
1958.272440
-1516.445989
1049.165005
-4820.194633
22.586565
-9045.827762
-131.980668
-4733.930445
1001.941330
-1207.782513
1458.804609
-1306.234575
1419.323858
-1176.351965
403.487745
-4156.597050
-1044.313747
-6807.825190
-278.643202
-2801.362507
1509.115904
962.130726
1063.822262
-1638.545693
793.954316
-585.993566
2243.693990
3489.416118
3019.932464
4112.278779
3216.890455
4827.530898
3509.316127
5390.972142
3854.388155
5781.613317
4203.233989
5998.111524
4521.022348
6128.756443
3834.181510
3266.928345
4031.149191
3787.845917
5893.242166
7233.680581
5825.440225
4706.565082
5344.133503
3088.796078
7722.508594
7937.061630
11616.056981
11842.682000
13236.212438
11466.086356
14784.625697
12237.505061
16340.811549
11931.541090
16691.322505
12030.397659
16504.136416
11743.314060
15555.719046
11321.597349
13862.024634
10605.662477
11431.870642
9495.932609
7153.214608
6650.991500
3248.366466
4892.711881
3282.494928
7475.937757
3921.039322
9211.204434
1646.082223
7039.942520
-111.158186
6173.818809
2232.426591
9689.238697
5583.428167
12641.506140
6435.059854
12156.622942
7967.902809
13095.084054
13879.191088
18373.258439
21103.780019
23223.531534
26741.850113
25899.876032
31565.246158
28253.282018
35576.900565
30186.057203
38511.697965
31829.844151
41640.109725
32531.641751
42210.854662
30551.466102
43372.875513
31404.979639
41938.519900
30081.883802
38391.321767
28635.625564
35272.758449
28525.735280
36690.284359
30777.434944
39946.825763
32680.827649
41109.319046
33261.671655
43425.145615
35039.855858
47787.742673
37302.142496
50796.879511
38285.180031
52257.569455
38713.960350
52169.844438
38447.447808
50430.356687
37612.635678
47020.966418
36126.829075
41959.893614
33966.434136
34790.760466
31079.851798
27940.358264
29087.826266
23054.499390
27643.849932
17119.305908
25216.701852
11063.974490
23657.391946
8759.295299
23857.337653
9589.823241
24360.576435
10020.964298
24053.791310
7830.883948
24119.558542
6028.311756
22017.834781
1200.765545
20429.244082
2125.478936
21961.705152
5296.032134
23658.783316
8477.898065
24412.395539
9834.836337
24339.682337
9541.939516
23633.711107
8738.467259
23387.078975
11035.034602
25071.825459
17154.232299
27621.153374
23081.404463
29084.959599
27947.858336
31089.288240
34788.494103
33997.210098
41953.044043
36151.062412
47018.251745
37629.977312
50436.988339
38406.117663
52183.132743
38635.280766
52279.325172
38193.240979
50834.379674
37202.345874
47815.075608
34892.095699
43399.166111
33171.950044
41127.529070
32702.096277
39946.238208
30830.446117
36659.289474
28646.468745
35176.224747
29111.180405
38125.692605
29645.634479
40546.952900
32835.732915
42075.597997
33131.280928
41543.556816
32519.669241
40732.617576
31617.092046
38656.130139
30137.951507
35598.515264
28267.241889
31586.788514
25889.139103
26770.679529
23198.321726
21081.206920
18347.121493
13881.065752
13069.239876
7984.148123
12154.437528
6436.632816
12717.714745
5599.530028
9758.984086
2230.030690
6211.198884
-130.043454
6997.706393
1677.316415
9086.360971
3970.375999
7340.463148
3350.763018
4789.462993
3320.695571
6628.658229
7183.026247
9508.102597
11446.526248
10566.976361
13885.375974
11337.651754
15529.416420
12038.160226
16363.223184
13005.739115
15827.149828
12139.773640
14710.080311
14196.737830
13525.135190
13225.197553
12308.202724
11869.157526
10873.449106
7742.443772
7683.684556
3046.787424
5333.661658
4734.006291
5796.925430
7351.400003
5805.920466
3883.973255
3967.245880
3329.433358
3766.417461
6176.325080
4480.954629
6002.589990
4194.543523
5748.499630
3882.196443
5258.357347
3617.923803
4800.775115
3244.373566
4167.583858
2976.894551
3548.889966
2201.837895
-550.397698
764.338654
-1579.081736
1027.574088
991.298582
1506.669525
-2835.421641
-247.839177
-6820.721985
-1014.412724
-4270.754483
562.264720
-1320.794944
1638.775235
-2150.600620
2155.154849
-1838.738896
1530.257509
-5543.115153
624.081667
-9337.029136
-194.591297
-4725.510835
1073.382806
-1297.964809
1434.403744
-1248.070206
1383.682863
-1152.915344
402.547172
-4157.110416
-1080.714428
-6780.531175
-262.083282
-2809.377309
1510.822267
978.680958
1043.299468
-1625.895295
774.640425
-571.805090
2207.835487
3543.960364
2966.642695
4155.566896
3205.681602
4845.178966
3520.763883
5389.403698
3854.634912
5773.017679
4204.239427
5988.156000
4498.912000
6150.836463
3778.994289
3320.329434
3978.178184
3881.110563
5851.055934
7294.277583
5838.014946
4649.937080
5346.805536
3116.809722
7796.569567
7829.933050
11270.360216
12298.278907
13039.976845
11381.475769
14609.659243
12578.757467
16271.972908
12102.855599
16676.171713
12143.893665
16470.982879
11740.310349
15586.001820
11300.163462
13890.620908
10563.562681
11430.943791
9513.112393
7141.253594
6670.229600
3246.905177
4883.618651
3231.723800
7454.091669
3834.372357
9316.589358
1531.731046
7299.743005
-273.698189
6381.129686
2181.967447
9783.121134
5540.690432
12710.406315
6392.928502
12240.000509
7954.271019
13280.980074
13850.172710
18576.649180
21052.516585
23305.525907
26736.102984
25926.721920
31585.770568
28285.199194
35610.480365
30226.486079
38415.745334
31684.581506
41629.164929
32387.854481
42221.310851
30598.666137
43318.436922
31609.082025
41952.931268
30030.118211
38383.970248
28566.986438
35292.873593
28507.171536
36712.118938
30782.670638
39948.577914
32664.358623
41133.170565
33227.811157
43451.413314
34983.246386
47820.174064
37218.816695
50825.393048
38193.183815
52276.015240
38627.485071
52186.576490
38433.383844
50440.888231
37604.483198
47020.667833
36150.127185
41949.987016
33975.521655
34779.852509
31092.373273
27938.325004
29123.636471
23059.194548
27690.713590
17145.453826
25201.005766
11029.981148
23494.366026
8777.523799
23696.920909
9674.668100
24293.472284
9942.990243
24114.120811
7749.736383
24433.758015
5957.288956
22288.273778
1216.098876
20609.272385
2047.522953
22062.631401
5361.371959
23679.481111
8421.885874
24382.668672
9804.710811
24493.465516
9566.059938
23723.051434
8717.089939
23394.213693
11030.270740
25117.995031
17151.308035
27648.776425
23075.652676
29112.258662
27947.148411
31091.135836
34789.449549
33963.022294
41964.953903
36039.045217
47035.298658
37465.413336
50504.722612
38196.009803
52118.776551
38396.398874
52307.522737
38096.365535
50847.386847
37154.310369
47727.881392
34943.626419
43451.393081
33243.122507
41111.733531
32729.812197
39918.318160
30817.317995
36696.839493
28613.018474
35174.790422
28978.992448
38117.116740
29418.576456
40592.430167
32606.246377
42300.912456
33081.159942
41542.093567
32579.503086
40715.028850
31632.017950
38613.107428
30130.735913
28725.716603
21629.829034
17325.288295
9325.023428
16743.869393
8778.362012
16833.815046
9356.610025
16582.314741
8987.357290
19433.175876
12360.467369
21757.137361
15901.254593
24382.611411
18447.310608
25869.038725
18529.506858
25311.449700
17544.197883
25319.306001
16390.909785
25608.418173
14620.915744
24686.973874
12281.753093
23600.360795
10453.052972
23027.193727
9969.809898
23128.987200
11130.509694
23919.731731
13721.886803
25262.981490
17937.936607
27242.730660
23806.610779
30285.960745
30736.094204
33742.080660
37426.401018
35921.740060
43396.525076
38184.563193
49295.367986
41413.968442
54470.389271
43272.330173
56987.803766
43074.571812
57086.239380
42644.089335
57064.997913
43047.769041
58830.386970
44013.246393
61902.302073
45675.571440
64448.011784
46308.223766
63896.186787
46226.600279
63086.484405
46189.673772
58279.157007
43612.268588
56790.011236
42734.754781
56995.344435
42950.617707
56986.244271
43309.102759
54478.489729
41593.475415
49272.696992
38298.768051
43379.935587
35971.354751
37408.451103
33746.316246
30716.512378
30325.566143
23777.196173
27302.232366
17922.308815
25379.346604
13687.408286
24047.236429
11087.148034
23374.540102
9985.481657
23287.499812
10413.720667
23731.814016
12256.266640
24816.662521
14626.701005
25704.906906
16414.719571
25331.403579
17541.773103
25266.197482
18552.606404
25849.737638
18370.742304
24517.556721
15820.905875
21812.639925
11920.618419
20018.819381
8401.168188
20030.420846
7624.873436
18478.640623
6811.993872
15262.746998
9787.806978
16781.090214
10984.535521
17467.868162
13563.885920
19269.418193
16937.609309
21045.132640
21128.174558
23260.540504
25674.382515
25664.800413
29137.018742
27216.019802
30727.207433
26937.117413
31378.854330
25901.582165
31886.580165
25927.953486
31673.479767
25610.629635
29964.856028
23542.332939
27632.376495
21074.488552
25434.025570
19429.356210
22705.752752
17897.518964
18925.068133
14866.776729
14694.260286
11527.801975
10956.836868
9416.951893
7919.594004
8331.303764
5577.662681
7594.097818
3848.855991
7161.852196
2679.335588
7247.717830
2267.439307
7404.523868
2286.697953
7823.092087
3094.880175
8277.406290
5086.215631
5040.941974
6743.693086
5937.057207
5519.908301
5788.164538
3999.126944
4807.207395
3624.550425
3809.381639
3491.916089
3188.242798
2587.057013
2510.215840
2040.299107
1601.815382
2294.202936
1064.920681
2669.300328
938.010894
2822.925177
977.282409
3021.042009
1107.520462
3067.980291
1475.866803
3062.200588
2022.280178
2539.076676
2552.103764
1459.179456
2754.914678
753.979497
2706.336135
504.058040
2789.466182
-528.026710
2865.305880
-1997.763448
2486.069989
-2132.119847
1828.372224
-1360.949129
1464.245149
-1076.007683
1496.220713
-1391.962765
1638.043803
-2413.061949
1735.456444
-3169.140454
1380.869710
-2959.928325
966.296205
-2251.940168
1499.797680
-2010.474786
1671.532963
-1336.701734
1502.088080
-1431.585170
1832.843535
-2119.606814
2546.536195
-2075.664115
2957.919502
-610.655640
2910.448020
389.024833
2767.181763
705.089124
2761.232428
1443.602527
2540.483665
2554.684719
1958.282898
3112.195821
1477.301612
3052.733940
1130.428233
3017.742043
928.851544
2861.673242
853.896403
2737.457615
1026.083846
2322.677085
1594.432149
2054.304157
2521.280929
2573.308740
3270.815959
3433.910751
3822.708588
3618.567945
4856.432111
3912.492852
5983.540305
5365.417406
6247.388576
6539.033704
5490.761726
6337.552585
4793.917975
5647.366039
4145.536004
3814.699515
7514.631812
2760.291515
7549.850252
2786.691731
7322.618531
3835.316749
7604.753685
5487.803864
8328.944945
7904.754915
9400.293548
10990.230007
11491.560203
14742.482149
14837.383024
19007.747780
17787.218691
22815.809698
19321.035319
25505.253528
20965.202734
27655.463878
23561.872620
29980.860565
25563.431722
31733.650600
25913.344806
31929.677018
25869.568237
31353.808444
26773.696618
30767.536783
27136.662741
29195.567588
25661.750634
25702.986598
23270.577629
21114.820296
21103.012356
16880.675826
19389.328306
13506.616264
17988.397478
10993.608098
17269.130052
9312.268681
16728.916829
8759.746825
16760.297300
9256.070664
16516.130855
9145.782471
19379.219163
12521.552329
21839.587149
15918.387324
24425.367756
18450.461799
25867.980347
18533.438079
25316.861072
17551.911686
25293.911242
16387.559048
25493.364324
14597.313341
24647.137424
12320.602910
23639.293951
10459.367264
23219.593250
10021.246502
23260.912562
11066.161116
24002.058025
13746.153963
25388.216229
17916.786636
27314.093493
23784.614925
30333.881661
30711.884888
33778.419693
37397.471640
36005.079089
43383.214885
38296.412006
49271.541399
41560.592583
54520.779396
43223.753796
56966.007248
42889.539905
57027.834090
42732.355519
57157.801650
43092.584074
58776.612864
43983.995621
61830.389685
45992.084814
64512.755946
46162.079583
63867.544797
46617.810104
62830.259187
46448.970152
58033.548483
43459.073062
56980.491809
43030.556445
56941.849555
43069.101145
56920.436341
43455.894790
54470.599180
41735.274480
49254.903060
38348.671370
43368.826760
35956.422339
37413.258413
33745.519690
30722.156434
30338.750748
23792.438117
27293.501856
17953.743572
25319.938977
13748.507859
23913.304205
11092.229558
23209.011722
10013.248689
23201.627248
10421.650370
23662.510641
12254.394503
24763.799689
14616.532154
25679.068105
16409.353160
25326.919162
17521.548756
25294.165304
18516.607490
25863.131529
18368.522819
24543.142224
15732.925644
21923.471139
11733.723762
20325.164889
8299.404229
20270.880060
7129.061749
18937.015731
6557.664454
15323.224475
9587.348853
16757.475437
11169.006903
17791.939271
13585.483020
19361.315601
16936.675085
21054.404454
21112.665277
23220.687354
25694.431579
25663.692934
29194.882352
27150.255555
30739.152949
26837.269486
31393.454954
25912.278596
31983.927830
25794.238138
31708.299986
25514.112914
29969.113861
23537.740525
27683.787714
20854.770352
25539.552753
19327.098342
22785.524410
17822.852398
18956.341328
14848.861914
14711.286631
11502.859468
10998.747520
9406.107795
7898.330918
8345.157054
5550.070352
7613.602072
3852.795796
7194.634995
2743.648363
7219.076906
2426.162739
7331.603900
2433.291745
7520.157953
3471.485274
7762.942059
4830.003947
4983.679814
6940.727265
5753.399219
5529.872394
5746.502257
3999.993744
4779.810259
3640.142762
3801.176990
3500.571546
3186.959000
2607.437638
2476.362311
2088.900155
1543.573923
2367.705669
979.912693
2703.145685
884.500103
2862.052309
931.330584
2988.569164
1161.905693
3051.603067
1485.081911
3099.440947
1951.045275
2559.952925
2526.642423
1438.339259
2771.188531
721.426812
2746.513814
459.970742
2843.161705
-578.792573
2915.474804
-2062.029989
2561.234399
-2175.769048
1897.408866
-1391.018632
1488.667119
-1007.448408
1432.181926
-1352.688430
1592.364082
-2440.218568
1759.648942
-3154.871299
1391.156868
-2570.408417
217.217498
-2021.953372
1165.007602
-1777.255361
1426.322710
-1153.919452
1468.632315
-1390.905690
1824.325581
-2102.021706
2505.912775
-1995.458945
2915.941492
-606.732375
2860.285115
449.268691
2740.129915
725.684398
2766.390616
1444.716023
2521.567720
2560.595644
1984.247243
3092.047850
1401.022261
3133.963855
1089.476121
3035.356553
910.387677
2889.925992
850.003813
2732.126273
1014.209948
2338.668787
1588.657962
2057.810798
2500.084248
2594.315957
3228.176197
3467.388935
3794.437209
3639.155176
4853.075440
3935.653643
5958.723562
5404.933176
6151.677231
6610.289057
5339.711965
6396.525280
4803.543080
5675.993168
4135.712046
3701.191777
7745.492671
2456.701997
7550.239333
2885.507302
7393.035036
3747.751035
7676.143949
5426.406440
8322.105141
7908.825382
9419.039770
10970.809543
11548.986343
14728.352072
14842.625035
18934.428963
17818.572211
22762.458715
19347.697340
25579.329638
20877.448899
27705.861396
23580.425469
29957.359337
25488.331103
31751.529124
25883.821050
32009.882572
25863.661870
31367.475699
26815.778577
30771.217903
27199.757975
29155.178006
25681.695962
25671.764329
23227.778113
21107.218901
21094.905997
SCALARS stress_3 float
LOOKUP_TABLE default
-6083.305066
-13445.169240
-11932.520299
-17647.299229
-17333.451334
-21387.762661
-16547.919182
-17547.507014
-15445.648568
-13051.855160
-15717.982734
-8940.695970
-16374.278279
-5990.552777
-14444.681800
-3885.620112
-12621.685296
-2170.463317
-13645.595286
-1101.460149
-14953.079853
-1140.275594
-13673.257841
-2194.906606
-12664.053948
-3960.633215
-14500.401878
-5990.191548
-16380.138700
-8933.879270
-15717.075159
-13054.997788
-15468.963603
-17553.111650
-16578.874336
-21401.862694
-17350.474691
-24321.623224
-17877.730336
-26296.164542
-18121.773248
-27413.998467
-17718.395317
-26617.045353
-18895.129791
-26444.145753
-18024.330889
-23894.351663
-17629.042641
-22430.726146
-17594.448990
-20202.942208
-17173.029465
-17681.968041
-15065.141886
-16961.886706
-13825.730951
-17762.934353
-14400.015369
-17207.263834
-13688.620818
-16737.944078
-12507.489141
-17411.239850
-12482.998838
-17359.681977
-12166.585224
-16820.242838
-11719.269235
-15786.481950
-11166.101767
-14325.718916
-10542.202740
-12540.688505
-9842.930635
-10952.582136
-9498.718415
-8012.897299
-8176.646180
-5351.171912
-6762.567373
-4812.071631
-6709.599848
-3021.008003
-5712.510148
-227.104019
-3780.216879
619.282022
-2840.303301
37.398957
-2588.058404
-954.309447
-3267.098752
-1934.917008
-69.867182
-1417.536201
1463.428905
-642.862316
3014.567935
240.718321
3102.105863
-49.103382
3077.820534
-161.294348
3011.639996
-677.508869
3897.754846
141.896684
5785.583823
3008.937457
6680.655639
4843.722941
6762.173400
5367.155074
8152.115291
8035.657384
9508.680488
10966.908021
9899.235114
12465.904153
10536.977575
14282.138792
11200.031523
15733.364498
11783.182993
16760.192924
12250.788614
17312.283686
12578.502024
17345.037633
12617.489035
16669.635178
13757.704837
17140.986559
14380.770901
17749.208821
13806.655147
16945.203222
15066.024806
17686.632400
17150.465748
20198.385887
17391.617062
22815.438641
17201.989831
24716.416546
17206.278480
26530.572098
17786.206081
27457.765649
18081.949276
27345.149231
18059.269128
26275.934533
17800.698676
24298.861399
17333.725244
21423.146919
16580.435778
17541.032557
15444.336074
13045.105771
15730.654379
8951.178212
16385.772630
6034.463416
14486.846695
3896.143501
12627.797272
2174.969593
13651.171288
1119.304206
14935.995544
1105.931959
13643.794255
2153.307161
12584.530179
3874.955491
14457.207446
6009.513029
16367.093141
8934.536370
15709.025458
13051.880898
15441.794885
17534.940831
16576.739780
21398.227930
17378.718552
24329.788113
17934.118545
26281.586282
18187.367779
27522.989139
17748.457391
26613.562307
18814.703956
26284.185251
18233.320460
23903.236488
17736.309077
22343.708583
17641.012686
20175.737508
17159.211654
17658.443715
15059.411805
16933.863177
13879.798482
17769.984058
14465.377333
17205.650650
13759.104651
16727.356401
12590.584088
17382.586658
12533.372857
17334.110479
12224.621469
16770.451387
11761.612242
15735.240639
11214.058970
14294.989431
10554.866284
12517.320287
9846.210395
10944.563134
9490.175696
8006.431461
8158.430545
5348.356863
6778.566489
4784.070172
6779.225137
3057.811523
5727.473140
222.109990
3759.250265
-601.860136
2827.690850
-158.594663
2626.823124
753.248841
3211.394462
1843.739899
-351.552995
1979.035032
-1360.898410
670.178290
-2928.074235
-338.049160
-2981.859001
47.021749
-3113.294257
179.417450
-3078.888016
719.707406
-3934.135384
-120.487360
-5825.119968
-2984.818889
-6707.765062
-4785.314273
-6748.386415
-5347.143732
-8154.673096
-8004.074781
-9486.762367
-10941.338126
-9836.956598
-12525.861686
-10544.711851
-14314.762568
-11222.389721
-15740.503994
-11773.421212
-16769.808048
-12239.516565
-17316.151274
-12537.512689
-17365.635839
-12584.557862
-16717.200169
-13722.785274
-17189.923637
-14386.162517
-17770.852420
-13811.695692
-16955.935785
-15048.550051
-17677.397392
-17151.751481
-20181.163941
-17403.027814
-22983.267001
-17381.189759
-24458.380628
-17188.958879
-26935.508012
-17888.675418
-27444.762017
-18138.970370
-27319.113348
-18061.684830
-26304.097254
-17834.850529
-24322.936041
-17326.327441
-21413.760510
-16573.573429
-17558.625495
-15454.939307
-13048.785043
-15713.434333
-8928.166305
-16364.524026
-5989.536964
-14447.446246
-3873.511682
-12619.043738
-2191.559151
-13671.592484
-1120.094880
-14947.534610
-1136.896549
-13673.014416
-2172.938858
-12600.378148
-3878.350304
-14457.017815
-6005.077319
-16367.838307
-8931.941651
-15712.216761
-13051.286576
-15444.526117
-17551.521741
-16573.471265
-21405.515888
-17328.685482
-24290.313522
-17895.491622
-26306.842048
-18138.744736
-27545.645494
-17727.083053
-26660.059329
-18840.477226
-26266.943589
-18246.113362
-23844.217001
-17748.533961
-22339.665643
-17642.165841
-20181.119078
-17169.013486
-17667.165537
-15094.650873
-16953.416854
-13883.122448
-17764.338432
-14465.473677
-17198.680000
-13756.921608
-16723.720498
-12580.631893
-17383.754632
-12513.953691
-17327.398412
-12200.209992
-16761.776079
-11698.248932
-15752.040593
-11215.603034
-14347.578481
-10539.445650
-12543.053726
-9835.635324
-10957.519513
-9517.307205
-8010.671174
-8197.832728
-5377.665118
-6761.563755
-4801.780964
-6693.104105
-3064.693526
-5714.238235
-175.147334
-3769.274537
585.075375
-2803.751914
156.904668
-2553.703133
-741.161370
-3160.376709
-1792.466253
235.227039
-2057.323353
1419.696205
-697.140468
2955.297034
260.916954
3083.894224
-147.951647
3107.079911
-181.994579
3082.367479
-733.267929
3927.361609
111.839644
5844.487778
2977.356352
6731.203401
4777.851421
6767.728466
5344.343058
8172.925521
8009.588344
9501.941173
10952.512333
9841.035458
12530.417029
10534.431465
14307.251282
11201.074968
15753.247531
11770.091024
16785.727930
12243.496050
17312.766234
12538.912760
17357.702829
12582.346535
16702.775948
13736.267406
17207.548827
14449.859702
17777.555270
13835.741463
16974.560559
15034.078571
17688.890108
17133.537033
20155.595374
17398.623284
22970.061628
17527.176399
24411.474454
17224.536728
26909.062683
17846.213861
27423.563921
18160.916033
27399.780623
18099.641960
26235.283159
17790.137554
24318.164486
17334.146575
21413.203245
16573.382695
17547.845605
15467.824791
13054.435290
15716.429844
8941.068770
16379.077566
5993.857149
14500.683138
3924.518607
12664.479651
2229.232707
13720.560193
1142.652004
14939.462707
1120.863466
13668.737680
2176.167380
12618.259080
3882.321111
14476.045289
6031.793722
16404.224265
8978.588608
15735.893176
13043.935125
15474.394942
17553.921914
16588.273164
21399.524675
17393.631257
24353.376441
17946.422971
26282.741615
18086.684746
27424.421229
17822.968917
26552.675205
18927.275065
26401.645817
18105.356925
23782.141021
17761.709159
22336.926774
17660.503567
20195.034303
17161.098833
17661.783410
15060.074709
16932.945733
13870.213764
17758.074181
14451.002189
17185.011117
13748.795051
16705.193116
12586.429474
17360.254288
12535.457433
17313.072945
12234.788518
16768.091003
11780.593548
15743.914384
11215.197663
14312.445832
10540.867237
12525.115491
9842.920704
10946.627796
9503.835809
8026.719192
8159.759249
5371.185256
6764.747441
4836.174222
6653.504670
3065.816560
5707.754656
164.280145
3790.570468
-657.232734
2797.699042
184.836321
2549.127876
837.225913
3224.558830
1862.404289
-347.403400
1938.381704
-1419.125813
623.108523
-2946.332301
-274.266478
-3102.469374
129.062494
-3101.788595
187.988153
-3075.167678
706.397048
-3967.297032
-120.330338
-5832.051380
-2974.563247
-6730.355323
-4778.577263
-6767.999953
-5345.294359
-8174.599548
-8010.233429
-9502.422238
-10955.394154
-9843.905068
-12546.460593
-10563.445921
-14299.705141
-11217.124045
-15757.393894
-11792.152786
-16769.065457
-12086.007034
-17334.905118
-12439.889550
-17388.784153
-12505.333425
-16739.899417
-13614.148182
-17237.223433
-14425.975730
-17775.483580
-13852.714497
-16959.871394
-15057.065302
-17685.573334
-17155.837228
-20203.171315
-17374.912925
-23008.253256
-17360.404129
-24385.822217
-17183.401160
-26837.668019
-17840.341679
-27448.550041
-18128.829232
-27344.858134
-18072.349125
-26311.917097
-17813.757318
-19347.864284
-10605.629003
-12540.107628
-3228.899643
-12460.366983
-3108.751116
-12646.991452
-4067.541426
-12271.101058
-5453.567459
-10948.937733
-8425.525069
-12245.822396
-9919.354239
-12246.040882
-9836.316575
-11428.276984
-8482.245669
-10437.649310
-7373.987928
-9928.305448
-6434.577800
-9233.282721
-4911.798666
-8195.315669
-3570.588582
-7728.949695
-2976.191638
-7761.402812
-3045.829338
-7751.519306
-3725.948952
-8051.080398
-4700.702150
-8387.412826
-6078.931906
-8809.761830
-7739.352399
-9021.784540
-9064.841007
-8680.052708
-9606.522521
-7934.578550
-9889.642963
-7367.859354
-10135.155713
-6458.102890
-9440.021072
-4578.532204
-7687.415176
-2861.330789
-6127.234031
-2169.400960
-5430.207739
-1744.179744
-5320.888279
-1132.727891
-4828.844048
363.092678
-3348.044646
3176.799483
-1206.753159
5175.358465
2876.199331
774.639965
5271.206008
989.470681
5702.122686
1821.424561
6283.026925
2758.615792
7799.418495
4541.188068
9562.504154
6387.940376
10161.434052
7327.040608
9899.824042
7902.889867
9611.553654
8669.837199
9067.029056
9035.896176
7740.700732
8862.610059
6082.252191
8456.407460
4693.815001
8135.837170
3682.906942
7888.306874
3084.226920
7768.102562
2939.303587
7766.714676
3535.980439
8239.231629
4931.167859
9217.920652
6388.856001
9931.033498
7333.412296
10466.920635
8462.676917
11444.682620
9854.003431
12388.400296
9991.696968
12418.292146
8379.221205
11628.407386
6458.492545
11423.838394
5122.772154
10002.448627
3437.019131
11661.910306
3497.898972
12559.138619
4143.384599
12756.388935
6140.212638
13444.265011
8899.779081
14341.397013
12568.537054
15446.341593
17454.774541
16967.598221
23086.448158
18874.352081
27572.729021
20060.542050
29666.606169
20446.714012
31171.752724
21013.251661
33270.635916
21822.462350
34422.788784
21836.326035
33301.607733
21049.433652
31150.629295
20448.302357
29694.169497
20033.861513
27501.432307
18832.751045
23084.036247
16961.262856
17462.039069
15432.942421
12577.039737
14343.068608
8905.032752
13431.422956
6053.065206
12816.043298
4234.007785
12521.420484
3269.124622
12386.295379
3026.036280
12627.259285
4105.409792
12279.092248
5473.709020
11028.473728
8335.381231
12333.544813
9919.188589
12238.298694
9840.533659
11417.714953
8492.965064
10411.043111
7394.652092
9897.255730
6415.693673
9220.424944
4938.773545
8230.380130
3536.570700
7763.795678
2946.819962
7774.527960
3087.292664
7886.918556
3681.557535
8085.845925
4669.815913
8438.803564
6063.466441
8848.670026
7755.094962
9059.887157
9079.601126
8697.910246
9615.460906
7930.836366
9893.162611
7366.387905
10144.072996
6471.547680
9463.607773
4619.421635
7672.725122
2868.498056
6079.080491
2091.535281
5440.637948
1754.131472
5290.892103
1143.878641
4751.003171
-425.366788
3365.089991
-2937.531359
738.758955
-4996.024148
-2784.971382
-864.305370
-4959.721653
-1522.637190
-5389.867395
-1915.575344
-6117.537821
-2789.459674
-7787.195901
-4519.964113
-9518.254131
-6442.774642
-10185.102898
-7335.518938
-9902.614463
-7885.440608
-9592.908883
-8678.560745
-9068.516031
-9049.325783
-7748.709062
-8814.162947
-6089.864519
-8435.779984
-4701.266690
-8063.783718
-3629.394725
-7891.673069
-3100.749062
-7721.794639
-2968.490823
-7739.816438
-3550.505982
-8226.465771
-4947.512153
-9218.486173
-6409.706202
-9948.104726
-7349.942450
-10463.668408
-8462.028399
-11456.150290
-9852.481613
-12405.897512
-10000.111419
-12505.844390
-8422.963008
-11816.007386
-6620.825429
-11057.953983
-5360.263726
-9796.750618
-3478.522707
-11688.078583
-3481.191203
-12573.270390
-4263.573718
-12861.601535
-6091.897279
-13453.193569
-8871.497296
-14338.715053
-12572.170690
-15439.490334
-17452.131184
-16960.912955
-23084.254649
-18842.380564
-27524.901692
-20050.321263
-29702.070707
-20430.090563
-31161.921579
-21013.213396
-33281.252110
-21837.048733
-34434.344632
-21842.422995
-33262.939513
-21025.105699
-31198.898666
-20432.231244
-29668.529244
-20039.637786
-27511.332883
-18831.825597
-23087.209255
-16959.872648
-17455.310081
-15432.749321
-12574.227016
-14347.999421
-8892.094307
-13455.845741
-6118.908775
-12858.069587
-4218.086397
-12519.733581
-3238.738431
-12436.940548
-3125.032059
-12617.649656
-4020.947241
-12296.252317
-5473.588710
-11039.718433
-8310.134504
-12359.010145
-9914.560831
-12272.655207
-9836.982635
-11424.669180
-8487.351022
-10444.598266
-7379.058442
-9933.904161
-6437.864464
-9213.551481
-4913.202716
-8189.280978
-3500.170567
-7735.168341
-2925.031082
-7755.168788
-3087.079541
-7900.438484
-3644.690422
-8079.575187
-4685.921136
-8470.908712
-6071.547558
-8860.227883
-7745.995763
-9051.282577
-9069.677367
-8671.881204
-9616.751531
-7898.980488
-9902.748923
-7333.824620
-10163.680896
-6422.574478
-9490.345946
-4658.648553
-7683.230891
-2868.944580
-6074.271307
-2041.854224
-5493.615638
-1777.343164
-5312.042878
-1119.047989
-4749.594191
435.236686
-3319.416968
2901.257355
-816.336923
4998.618100
2794.227887
901.308497
4995.975784
1490.695530
5376.930875
1925.426992
6115.817879
2824.243774
7785.604342
4586.302595
9510.246540
6385.782960
10156.440557
7300.681929
9873.454718
7909.612997
9606.757985
8675.558645
9071.895777
9042.916711
7725.184878
8865.882578
6048.097081
8448.716005
4654.457132
8094.238996
3643.019560
7892.163580
3105.961568
7744.551921
2953.067787
7744.225803
3546.730184
8225.612620
4945.811188
9215.781030
6404.075673
9922.511744
7365.450420
10443.089426
8466.733237
11460.862552
9861.658690
12413.729804
10008.806773
12507.725747
8432.314585
11796.503191
6673.474635
10987.383842
5380.443938
9599.104835
3342.835729
11661.616605
3470.809154
12580.123596
4283.901611
12854.967143
6091.609839
13475.879732
8876.582479
14354.216175
12560.347857
15441.811495
17466.211795
16960.469190
23083.706096
18847.316338
27525.779544
20048.543733
29711.085113
20420.652346
31141.567432
20998.778420
33226.546684
21811.197846
34453.109100
21805.993043
33243.024721
20998.329441
31177.272044
20439.998749
29685.948872
20051.042858
27507.892354
18832.584547
23091.673829
16948.876414
17451.347728
15444.301498
12578.007091
14342.701424
8905.350697
13430.178884
6061.844003
12827.880018
4251.319614
12495.541044
3263.372801
12338.145197
3065.170901
12461.423393
3806.625015
12294.343759
5687.565867
10982.072188
8231.551247
12246.928712
9879.451722
12206.452766
9828.383519
11402.549006
8479.973123
10456.872498
7351.529123
9931.186834
6383.419936
9210.422981
4924.676618
8262.272098
3471.672313
7741.333098
2920.104460
7790.395534
3028.709830
7883.806512
3626.230948
8114.073159
4675.748847
8491.218492
6033.392564
8812.304345
7717.868216
9022.456517
9063.845757
8663.045310
9607.388990
7894.510688
9907.706388
7352.317448
10160.995875
6426.566932
9489.636013
4576.108546
7723.169575
2842.950790
6152.935823
2088.660961
5512.725619
1728.298344
5337.494726
1091.795307
4754.896237
-491.925073
3442.964731
-3193.138003
1301.542621
-5212.020292
-2895.866236
-802.046122
-5218.583996
-1212.888810
-5580.474657
-1860.424641
-6182.466170
-2769.249496
-7807.082763
-4514.036001
-9541.048317
-6391.561026
-10231.369355
-7294.862816
-9895.365906
-7903.195250
-9612.636028
-8664.274909
-9063.011399
-9024.516607
-7736.346290
-8842.605264
-6074.285906
-8389.657194
-4686.598547
-8082.860530
-3716.277748
-7817.231910
-3108.439160
-7713.947027
-2969.290806
-7733.275256
-3567.842328
-8210.202948
-4953.711753
-9197.057801
-6404.669463
-9928.465441
-7360.750188
-10446.320431
-8490.280931
-11443.580609
-9866.948393
-12383.737436
-10006.786765
-12438.504895
-8444.012153
-11686.882998
-6637.000570
-11089.013514
-5428.827998
-9656.742466
-3355.978267
-11626.207849
-3353.362191
-12554.870295
-4246.457885
-12881.160121
-6097.730318
-13462.039927
-8864.710813
-14351.744123
-12558.278547
-15442.320092
-17459.387313
-16970.990219
-23102.303888
-18825.265161
-27501.428670
-20032.410208
-29676.320656
-20473.305108
-31177.094756
-21012.553540
-33263.359302
-21819.006563
-34465.338878
-21837.547636
-33207.848860
-21025.051430
-31221.839022
-20443.382841
-29659.062187
-20051.648927
-27535.944320
-18850.355381
-23115.658731
-16979.405599
-17460.125700
-15437.499806
-12564.712983
-14346.076010
