# vtk DataFile Version 2.0
Generated volume Mesh
ASCII
DATASET UNSTRUCTURED_GRID
POINTS 1240 float
-0.212153 -0.150304 0.000000
-0.206421 -0.141033 0.000000
-0.215099 -0.146056 0.000000
-0.209122 -0.154492 0.000000
-0.217961 -0.141751 0.000000
-0.206009 -0.158620 0.000000
-0.220736 -0.137389 0.000000
-0.202815 -0.162684 0.000000
-0.223424 -0.132973 0.000000
-0.226023 -0.128505 0.000000
-0.199540 -0.166684 0.000000
-0.228534 -0.123985 0.000000
-0.196187 -0.170619 0.000000
-0.230953 -0.119417 0.000000
-0.192756 -0.174486 0.000000
-0.233282 -0.114802 0.000000
-0.189249 -0.178283 0.000000
-0.235519 -0.110141 0.000000
-0.185666 -0.182011 0.000000
-0.237662 -0.105436 0.000000
-0.182011 -0.185666 0.000000
-0.239711 -0.100690 0.000000
-0.178283 -0.189249 0.000000
-0.241666 -0.095904 0.000000
-0.174486 -0.192756 0.000000
-0.243525 -0.091081 0.000000
-0.170619 -0.196187 0.000000
-0.245288 -0.086221 0.000000
-0.166684 -0.199540 0.000000
-0.246953 -0.081327 0.000000
-0.162684 -0.202815 0.000000
-0.248521 -0.076401 0.000000
-0.158620 -0.206009 0.000000
-0.249991 -0.071445 0.000000
-0.154492 -0.209122 0.000000
-0.251363 -0.066459 0.000000
-0.150304 -0.212153 0.000000
-0.252634 -0.061448 0.000000
-0.146056 -0.215099 0.000000
-0.253806 -0.056412 0.000000
-0.141751 -0.217961 0.000000
-0.137389 -0.220736 0.000000
-0.254878 -0.051354 0.000000
-0.132973 -0.223424 0.000000
-0.255849 -0.046275 0.000000
-0.128505 -0.226023 0.000000
-0.256718 -0.041179 0.000000
-0.123985 -0.228534 0.000000
-0.257486 -0.036067 0.000000
-0.119417 -0.230953 0.000000
-0.258152 -0.030940 0.000000
-0.114802 -0.233282 0.000000
-0.258717 -0.025802 0.000000
-0.110141 -0.235519 0.000000
-0.259178 -0.020654 0.000000
-0.105436 -0.237662 0.000000
-0.259538 -0.015498 0.000000
-0.100690 -0.239711 0.000000
-0.259794 -0.010336 0.000000
-0.095904 -0.241666 0.000000
-0.259949 -0.005169 0.000000
-0.091081 -0.243525 0.000000
-0.260000 0.000000 0.000000
-0.259949 0.005169 0.000000
-0.086221 -0.245288 0.000000
-0.259794 0.010336 0.000000
-0.081327 -0.246953 0.000000
-0.259538 0.015498 0.000000
-0.076401 -0.248521 0.000000
-0.259178 0.020654 0.000000
-0.071445 -0.249991 0.000000
-0.258717 0.025802 0.000000
-0.066459 -0.251363 0.000000
-0.258152 0.030940 0.000000
-0.061448 -0.252634 0.000000
-0.257486 0.036067 0.000000
-0.056412 -0.253806 0.000000
-0.256718 0.041179 0.000000
-0.051354 -0.254878 0.000000
-0.255849 0.046275 0.000000
-0.046275 -0.255849 0.000000
-0.254878 0.051354 0.000000
-0.041179 -0.256718 0.000000
-0.253806 0.056412 0.000000
-0.036067 -0.257486 0.000000
-0.252634 0.061448 0.000000
-0.030940 -0.258152 0.000000
-0.251363 0.066459 0.000000
-0.025802 -0.258717 0.000000
-0.249991 0.071445 0.000000
-0.020654 -0.259178 0.000000
-0.248521 0.076401 0.000000
-0.015498 -0.259538 0.000000
-0.010336 -0.259794 0.000000
-0.246953 0.081327 0.000000
-0.005169 -0.259949 0.000000
-0.245288 0.086221 0.000000
0.000000 -0.260000 0.000000
-0.243525 0.091081 0.000000
0.005169 -0.259949 0.000000
-0.241666 0.095904 0.000000
0.010336 -0.259794 0.000000
-0.239711 0.100690 0.000000
0.015498 -0.259538 0.000000
-0.237662 0.105436 0.000000
0.020654 -0.259178 0.000000
-0.235519 0.110141 0.000000
0.025802 -0.258717 0.000000
-0.233282 0.114802 0.000000
0.030940 -0.258152 0.000000
-0.230953 0.119417 0.000000
0.036067 -0.257486 0.000000
-0.228534 0.123985 0.000000
0.041179 -0.256718 0.000000
-0.226023 0.128505 0.000000
-0.223424 0.132973 0.000000
0.046275 -0.255849 0.000000
-0.220736 0.137389 0.000000
0.051354 -0.254878 0.000000
-0.217961 0.141751 0.000000
0.056412 -0.253806 0.000000
-0.215099 0.146056 0.000000
0.061448 -0.252634 0.000000
-0.212153 0.150304 0.000000
0.066459 -0.251363 0.000000
-0.209122 0.154492 0.000000
0.071445 -0.249991 0.000000
-0.206009 0.158620 0.000000
0.076401 -0.248521 0.000000
-0.202815 0.162684 0.000000
0.081327 -0.246953 0.000000
-0.199540 0.166684 0.000000
0.086221 -0.245288 0.000000
-0.196187 0.170619 0.000000
0.091081 -0.243525 0.000000
-0.192756 0.174486 0.000000
0.095904 -0.241666 0.000000
-0.189249 0.178283 0.000000
0.100690 -0.239711 0.000000
-0.185666 0.182011 0.000000
0.105436 -0.237662 0.000000
-0.182011 0.185666 0.000000
0.110141 -0.235519 0.000000
-0.178283 0.189249 0.000000
0.114802 -0.233282 0.000000
-0.174486 0.192756 0.000000
0.119417 -0.230953 0.000000
0.123985 -0.228534 0.000000
-0.170619 0.196187 0.000000
0.128505 -0.226023 0.000000
-0.166684 0.199540 0.000000
0.132973 -0.223424 0.000000
-0.162684 0.202815 0.000000
0.137389 -0.220736 0.000000
-0.158620 0.206009 0.000000
0.141751 -0.217961 0.000000
-0.154492 0.209122 0.000000
0.146056 -0.215099 0.000000
-0.150304 0.212153 0.000000
0.150304 -0.212153 0.000000
-0.146056 0.215099 0.000000
0.154492 -0.209122 0.000000
-0.141751 0.217961 0.000000
0.158620 -0.206009 0.000000
-0.137389 0.220736 0.000000
0.162684 -0.202815 0.000000
-0.132973 0.223424 0.000000
-0.128505 0.226023 0.000000
0.166684 -0.199540 0.000000
-0.123985 0.228534 0.000000
0.170619 -0.196187 0.000000
-0.119417 0.230953 0.000000
0.174486 -0.192756 0.000000
-0.114802 0.233282 0.000000
0.178283 -0.189249 0.000000
-0.110141 0.235519 0.000000
0.182011 -0.185666 0.000000
-0.105436 0.237662 0.000000
0.185666 -0.182011 0.000000
-0.100690 0.239711 0.000000
0.189249 -0.178283 0.000000
-0.095904 0.241666 0.000000
0.192756 -0.174486 0.000000
-0.091081 0.243525 0.000000
0.196187 -0.170619 0.000000
-0.086221 0.245288 0.000000
0.199540 -0.166684 0.000000
-0.081327 0.246953 0.000000
0.202815 -0.162684 0.000000
-0.076401 0.248521 0.000000
0.206009 -0.158620 0.000000
-0.071445 0.249991 0.000000
0.209122 -0.154492 0.000000
-0.066459 0.251363 0.000000
0.212153 -0.150304 0.000000
-0.061448 0.252634 0.000000
0.215099 -0.146056 0.000000
-0.056412 0.253806 0.000000
0.217961 -0.141751 0.000000
0.220736 -0.137389 0.000000
-0.051354 0.254878 0.000000
0.223424 -0.132973 0.000000
-0.046275 0.255849 0.000000
0.226023 -0.128505 0.000000
-0.041179 0.256718 0.000000
0.228534 -0.123985 0.000000
-0.036067 0.257486 0.000000
0.230953 -0.119417 0.000000
-0.030940 0.258152 0.000000
0.233282 -0.114802 0.000000
-0.025802 0.258717 0.000000
0.235519 -0.110141 0.000000
-0.020654 0.259178 0.000000
0.237662 -0.105436 0.000000
-0.015498 0.259538 0.000000
0.239711 -0.100690 0.000000
-0.010336 0.259794 0.000000
0.241666 -0.095904 0.000000
-0.005169 0.259949 0.000000
0.243525 -0.091081 0.000000
0.000000 0.260000 0.000000
0.245288 -0.086221 0.000000
0.005169 0.259949 0.000000
0.246953 -0.081327 0.000000
0.010336 0.259794 0.000000
0.248521 -0.076401 0.000000
0.015498 0.259538 0.000000
0.249991 -0.071445 0.000000
0.020654 0.259178 0.000000
0.251363 -0.066459 0.000000
0.025802 0.258717 0.000000
0.252634 -0.061448 0.000000
0.030940 0.258152 0.000000
0.253806 -0.056412 0.000000
0.036067 0.257486 0.000000
0.254878 -0.051354 0.000000
0.041179 0.256718 0.000000
0.255849 -0.046275 0.000000
0.046275 0.255849 0.000000
0.256718 -0.041179 0.000000
0.051354 0.254878 0.000000
0.257486 -0.036067 0.000000
0.056412 0.253806 0.000000
0.258152 -0.030940 0.000000
0.061448 0.252634 0.000000
0.258717 -0.025802 0.000000
0.066459 0.251363 0.000000
0.259178 -0.020654 0.000000
0.071445 0.249991 0.000000
0.259538 -0.015498 0.000000
0.076401 0.248521 0.000000
0.259794 -0.010336 0.000000
0.081327 0.246953 0.000000
0.259949 -0.005169 0.000000
0.086221 0.245288 0.000000
0.260000 0.000000 0.000000
0.091081 0.243525 0.000000
0.259949 0.005169 0.000000
0.095904 0.241666 0.000000
0.259794 0.010336 0.000000
0.100690 0.239711 0.000000
0.259538 0.015498 0.000000
0.105436 0.237662 0.000000
0.259178 0.020654 0.000000
0.110141 0.235519 0.000000
0.258717 0.025802 0.000000
0.114802 0.233282 0.000000
0.258152 0.030940 0.000000
0.119417 0.230953 0.000000
0.257486 0.036067 0.000000
0.123985 0.228534 0.000000
0.256718 0.041179 0.000000
0.128505 0.226023 0.000000
0.255849 0.046275 0.000000
0.132973 0.223424 0.000000
0.254878 0.051354 0.000000
0.137389 0.220736 0.000000
0.253806 0.056412 0.000000
0.141751 0.217961 0.000000
0.252634 0.061448 0.000000
0.146056 0.215099 0.000000
0.251363 0.066459 0.000000
0.150304 0.212153 0.000000
0.249991 0.071445 0.000000
0.154492 0.209122 0.000000
0.248521 0.076401 0.000000
0.158620 0.206009 0.000000
0.246953 0.081327 0.000000
0.162684 0.202815 0.000000
0.245288 0.086221 0.000000
0.166684 0.199540 0.000000
0.243525 0.091081 0.000000
0.170619 0.196187 0.000000
0.241666 0.095904 0.000000
0.174486 0.192756 0.000000
0.239711 0.100690 0.000000
0.178283 0.189249 0.000000
0.237662 0.105436 0.000000
0.182011 0.185666 0.000000
0.235519 0.110141 0.000000
0.185666 0.182011 0.000000
0.233282 0.114802 0.000000
0.189249 0.178283 0.000000
0.230953 0.119417 0.000000
0.192756 0.174486 0.000000
0.228534 0.123985 0.000000
0.196187 0.170619 0.000000
0.226023 0.128505 0.000000
0.199540 0.166684 0.000000
0.223424 0.132973 0.000000
0.202815 0.162684 0.000000
0.220736 0.137389 0.000000
0.206009 0.158620 0.000000
0.217961 0.141751 0.000000
0.209122 0.154492 0.000000
0.215099 0.146056 0.000000
0.212153 0.150304 0.000000
-0.203462 -0.145269 0.000000
-0.209292 -0.136737 0.000000
-0.200416 -0.149443 0.000000
-0.212073 -0.132382 0.000000
-0.197285 -0.153553 0.000000
-0.214764 -0.127971 0.000000
-0.194070 -0.157598 0.000000
-0.217362 -0.123505 0.000000
-0.190771 -0.161575 0.000000
-0.219868 -0.118987 0.000000
-0.187391 -0.165483 0.000000
-0.222281 -0.114417 0.000000
-0.183931 -0.169320 0.000000
-0.224598 -0.109799 0.000000
-0.180392 -0.173086 0.000000
-0.226819 -0.105134 0.000000
-0.176777 -0.176777 0.000000
-0.228943 -0.100424 0.000000
-0.173086 -0.180392 0.000000
-0.230970 -0.095671 0.000000
-0.169320 -0.183931 0.000000
-0.232898 -0.090877 0.000000
-0.165483 -0.187391 0.000000
-0.234726 -0.086044 0.000000
-0.161575 -0.190771 0.000000
-0.236454 -0.081175 0.000000
-0.157598 -0.194070 0.000000
-0.238081 -0.076271 0.000000
-0.153553 -0.197285 0.000000
-0.239607 -0.071334 0.000000
-0.149443 -0.200416 0.000000
-0.241030 -0.066366 0.000000
-0.145269 -0.203462 0.000000
-0.242350 -0.061370 0.000000
-0.141033 -0.206421 0.000000
-0.243567 -0.056347 0.000000
-0.136737 -0.209292 0.000000
-0.244680 -0.051301 0.000000
-0.132382 -0.212073 0.000000
-0.245688 -0.046232 0.000000
-0.127971 -0.214764 0.000000
-0.246591 -0.041144 0.000000
-0.123505 -0.217362 0.000000
-0.247389 -0.036039 0.000000
-0.118987 -0.219868 0.000000
-0.248081 -0.030919 0.000000
-0.114417 -0.222281 0.000000
-0.248667 -0.025786 0.000000
-0.109799 -0.224598 0.000000
-0.249146 -0.020642 0.000000
-0.105134 -0.226819 0.000000
-0.249520 -0.015489 0.000000
-0.100424 -0.228943 0.000000
-0.249786 -0.010330 0.000000
-0.095671 -0.230970 0.000000
-0.249947 -0.005166 0.000000
-0.090877 -0.232898 0.000000
-0.250000 0.000000 0.000000
-0.086044 -0.234726 0.000000
-0.249947 0.005166 0.000000
-0.081175 -0.236454 0.000000
-0.249786 0.010330 0.000000
-0.076271 -0.238081 0.000000
-0.249520 0.015489 0.000000
-0.071334 -0.239607 0.000000
-0.249146 0.020642 0.000000
-0.066366 -0.241030 0.000000
-0.248667 0.025786 0.000000
-0.061370 -0.242350 0.000000
-0.248081 0.030919 0.000000
-0.056347 -0.243567 0.000000
-0.247389 0.036039 0.000000
-0.051301 -0.244680 0.000000
-0.246591 0.041144 0.000000
-0.046232 -0.245688 0.000000
-0.245688 0.046232 0.000000
-0.041144 -0.246591 0.000000
-0.244680 0.051301 0.000000
-0.036039 -0.247389 0.000000
-0.243567 0.056347 0.000000
-0.030919 -0.248081 0.000000
-0.242350 0.061370 0.000000
-0.025786 -0.248667 0.000000
-0.241030 0.066366 0.000000
-0.020642 -0.249146 0.000000
-0.239607 0.071334 0.000000
-0.015489 -0.249520 0.000000
-0.238081 0.076271 0.000000
-0.010330 -0.249786 0.000000
-0.236454 0.081175 0.000000
-0.005166 -0.249947 0.000000
-0.234726 0.086044 0.000000
-0.000000 -0.250000 0.000000
-0.232898 0.090877 0.000000
0.005166 -0.249947 0.000000
-0.230970 0.095671 0.000000
0.010330 -0.249786 0.000000
-0.228943 0.100424 0.000000
0.015489 -0.249520 0.000000
-0.226819 0.105134 0.000000
0.020642 -0.249146 0.000000
-0.224598 0.109799 0.000000
0.025786 -0.248667 0.000000
-0.222281 0.114417 0.000000
0.030919 -0.248081 0.000000
-0.219868 0.118987 0.000000
0.036039 -0.247389 0.000000
-0.217362 0.123505 0.000000
0.041144 -0.246591 0.000000
-0.214764 0.127971 0.000000
0.046232 -0.245688 0.000000
-0.212073 0.132382 0.000000
0.051301 -0.244680 0.000000
-0.209292 0.136737 0.000000
0.056347 -0.243567 0.000000
-0.206421 0.141033 0.000000
0.061370 -0.242350 0.000000
-0.203462 0.145269 0.000000
0.066366 -0.241030 0.000000
-0.200416 0.149443 0.000000
0.071334 -0.239607 0.000000
-0.197285 0.153553 0.000000
0.076271 -0.238081 0.000000
-0.194070 0.157598 0.000000
0.081175 -0.236454 0.000000
-0.190771 0.161575 0.000000
0.086044 -0.234726 0.000000
-0.187391 0.165483 0.000000
0.090877 -0.232898 0.000000
-0.183931 0.169320 0.000000
0.095671 -0.230970 0.000000
-0.180392 0.173086 0.000000
0.100424 -0.228943 0.000000
-0.176777 0.176777 0.000000
0.105134 -0.226819 0.000000
-0.173086 0.180392 0.000000
0.109799 -0.224598 0.000000
-0.169320 0.183931 0.000000
0.114417 -0.222281 0.000000
-0.165483 0.187391 0.000000
0.118987 -0.219868 0.000000
-0.161575 0.190771 0.000000
0.123505 -0.217362 0.000000
-0.157598 0.194070 0.000000
0.127971 -0.214764 0.000000
-0.153553 0.197285 0.000000
0.132382 -0.212073 0.000000
-0.149443 0.200416 0.000000
0.136737 -0.209292 0.000000
-0.145269 0.203462 0.000000
0.141033 -0.206421 0.000000
-0.141033 0.206421 0.000000
0.145269 -0.203462 0.000000
-0.136737 0.209292 0.000000
0.149443 -0.200416 0.000000
-0.132382 0.212073 0.000000
0.153553 -0.197285 0.000000
-0.127971 0.214764 0.000000
0.157598 -0.194070 0.000000
-0.123505 0.217362 0.000000
0.161575 -0.190771 0.000000
-0.118987 0.219868 0.000000
0.165483 -0.187391 0.000000
-0.114417 0.222281 0.000000
0.169320 -0.183931 0.000000
-0.109799 0.224598 0.000000
0.173086 -0.180392 0.000000
-0.105134 0.226819 0.000000
0.176777 -0.176777 0.000000
-0.100424 0.228943 0.000000
0.180392 -0.173086 0.000000
-0.095671 0.230970 0.000000
0.183931 -0.169320 0.000000
-0.090877 0.232898 0.000000
0.187391 -0.165483 0.000000
-0.086044 0.234726 0.000000
0.190771 -0.161575 0.000000
-0.081175 0.236454 0.000000
0.194070 -0.157598 0.000000
-0.076271 0.238081 0.000000
0.197285 -0.153553 0.000000
-0.071334 0.239607 0.000000
0.200416 -0.149443 0.000000
-0.066366 0.241030 0.000000
0.203462 -0.145269 0.000000
-0.061370 0.242350 0.000000
0.206421 -0.141033 0.000000
-0.056347 0.243567 0.000000
0.209292 -0.136737 0.000000
-0.051301 0.244680 0.000000
0.212073 -0.132382 0.000000
-0.046232 0.245688 0.000000
0.214764 -0.127971 0.000000
-0.041144 0.246591 0.000000
0.217362 -0.123505 0.000000
-0.036039 0.247389 0.000000
0.219868 -0.118987 0.000000
-0.030919 0.248081 0.000000
0.222281 -0.114417 0.000000
-0.025786 0.248667 0.000000
0.224598 -0.109799 0.000000
-0.020642 0.249146 0.000000
0.226819 -0.105134 0.000000
-0.015489 0.249520 0.000000
0.228943 -0.100424 0.000000
-0.010330 0.249786 0.000000
0.230970 -0.095671 0.000000
-0.005166 0.249947 0.000000
0.232898 -0.090877 0.000000
0.000000 0.250000 0.000000
0.234726 -0.086044 0.000000
0.005166 0.249947 0.000000
0.236454 -0.081175 0.000000
0.010330 0.249786 0.000000
0.238081 -0.076271 0.000000
0.015489 0.249520 0.000000
0.239607 -0.071334 0.000000
0.020642 0.249146 0.000000
0.241030 -0.066366 0.000000
0.025786 0.248667 0.000000
0.242350 -0.061370 0.000000
0.030919 0.248081 0.000000
0.243567 -0.056347 0.000000
0.036039 0.247389 0.000000
0.244680 -0.051301 0.000000
0.041144 0.246591 0.000000
0.245688 -0.046232 0.000000
0.046232 0.245688 0.000000
0.246591 -0.041144 0.000000
0.051301 0.244680 0.000000
0.247389 -0.036039 0.000000
0.056347 0.243567 0.000000
0.248081 -0.030919 0.000000
0.061370 0.242350 0.000000
0.248667 -0.025786 0.000000
0.066366 0.241030 0.000000
0.249146 -0.020642 0.000000
0.071334 0.239607 0.000000
0.249520 -0.015489 0.000000
0.076271 0.238081 0.000000
0.249786 -0.010330 0.000000
0.081175 0.236454 0.000000
0.249947 -0.005166 0.000000
0.086044 0.234726 0.000000
0.250000 -0.000000 0.000000
0.090877 0.232898 0.000000
0.249947 0.005166 0.000000
0.095671 0.230970 0.000000
0.249786 0.010330 0.000000
0.100424 0.228943 0.000000
0.249520 0.015489 0.000000
0.105134 0.226819 0.000000
0.249146 0.020642 0.000000
0.109799 0.224598 0.000000
0.248667 0.025786 0.000000
0.114417 0.222281 0.000000
0.248081 0.030919 0.000000
0.118987 0.219868 0.000000
0.247389 0.036039 0.000000
0.123505 0.217362 0.000000
0.246591 0.041144 0.000000
0.127971 0.214764 0.000000
0.245688 0.046232 0.000000
0.132382 0.212073 0.000000
0.244680 0.051301 0.000000
0.136737 0.209292 0.000000
0.243567 0.056347 0.000000
0.141033 0.206421 0.000000
0.242350 0.061370 0.000000
0.145269 0.203462 0.000000
0.241030 0.066366 0.000000
0.149443 0.200416 0.000000
0.239607 0.071334 0.000000
0.153553 0.197285 0.000000
0.238081 0.076271 0.000000
0.157598 0.194070 0.000000
0.236454 0.081175 0.000000
0.161575 0.190771 0.000000
0.234726 0.086044 0.000000
0.165483 0.187391 0.000000
0.232898 0.090877 0.000000
0.169320 0.183931 0.000000
0.230970 0.095671 0.000000
0.173086 0.180392 0.000000
0.228943 0.100424 0.000000
0.176777 0.176777 0.000000
0.226819 0.105134 0.000000
0.180392 0.173086 0.000000
0.224598 0.109799 0.000000
0.183931 0.169320 0.000000
0.222281 0.114417 0.000000
0.187391 0.165483 0.000000
0.219868 0.118987 0.000000
0.190771 0.161575 0.000000
0.217362 0.123505 0.000000
0.194070 0.157598 0.000000
0.214764 0.127971 0.000000
0.197285 0.153553 0.000000
0.212073 0.132382 0.000000
0.200416 0.149443 0.000000
0.209292 0.136737 0.000000
0.206421 0.141033 0.000000
0.203462 0.145269 0.000000
-0.211239 -0.145764 0.000000
-0.207348 -0.145506 0.000000
-0.208235 -0.149997 0.000000
-0.210271 -0.141224 0.000000
-0.214114 -0.141448 0.000000
-0.204348 -0.149730 0.000000
-0.205202 -0.154186 0.000000
-0.213130 -0.136835 0.000000
-0.216922 -0.137075 0.000000
-0.201224 -0.153860 0.000000
-0.202031 -0.158271 0.000000
-0.215878 -0.132424 0.000000
-0.219710 -0.132611 0.000000
-0.198030 -0.157923 0.000000
-0.198804 -0.162319 0.000000
-0.218605 -0.127699 0.000000
-0.222365 -0.128140 0.000000
-0.224875 -0.124872 0.000000
-0.194761 -0.161929 0.000000
-0.195479 -0.166293 0.000000
-0.221918 -0.123192 0.000000
-0.226380 -0.121036 0.000000
-0.191411 -0.165867 0.000000
-0.192076 -0.170180 0.000000
-0.223993 -0.118092 0.000000
-0.228835 -0.116386 0.000000
-0.187988 -0.169741 0.000000
-0.188629 -0.174050 0.000000
-0.226621 -0.113165 0.000000
-0.231077 -0.111640 0.000000
-0.184488 -0.173541 0.000000
-0.185072 -0.177780 0.000000
-0.228918 -0.108399 0.000000
-0.233287 -0.106944 0.000000
-0.180913 -0.177266 0.000000
-0.181487 -0.181485 0.000000
-0.231106 -0.103709 0.000000
-0.235397 -0.102211 0.000000
-0.177263 -0.180925 0.000000
-0.177757 -0.185116 0.000000
-0.233157 -0.098942 0.000000
-0.237414 -0.097442 0.000000
-0.173562 -0.184499 0.000000
-0.173989 -0.188666 0.000000
-0.235110 -0.094195 0.000000
-0.239353 -0.092615 0.000000
-0.169783 -0.188037 0.000000
-0.170176 -0.192088 0.000000
-0.237036 -0.089400 0.000000
-0.241145 -0.087789 0.000000
-0.165867 -0.191421 0.000000
-0.166261 -0.195470 0.000000
-0.238795 -0.084500 0.000000
-0.242869 -0.082916 0.000000
-0.161926 -0.194766 0.000000
-0.162296 -0.198817 0.000000
-0.240480 -0.079619 0.000000
-0.244533 -0.078015 0.000000
-0.157923 -0.198067 0.000000
-0.158264 -0.202046 0.000000
-0.242098 -0.074704 0.000000
-0.246013 -0.073093 0.000000
-0.153833 -0.201229 0.000000
-0.154141 -0.205206 0.000000
-0.243529 -0.069697 0.000000
-0.247451 -0.068123 0.000000
-0.149674 -0.204349 0.000000
-0.149938 -0.208289 0.000000
-0.244899 -0.064716 0.000000
-0.248766 -0.063116 0.000000
-0.145447 -0.207383 0.000000
-0.145696 -0.211247 0.000000
-0.246147 -0.059719 0.000000
-0.249987 -0.058081 0.000000
-0.141114 -0.210324 0.000000
-0.141350 -0.214172 0.000000
-0.247314 -0.054684 0.000000
-0.251085 -0.053025 0.000000
-0.136554 -0.213213 0.000000
-0.136933 -0.217186 0.000000
-0.133850 -0.219680 0.000000
-0.248378 -0.049626 0.000000
-0.252118 -0.047967 0.000000
-0.132090 -0.216717 0.000000
-0.130020 -0.221252 0.000000
-0.249339 -0.044548 0.000000
-0.253006 -0.042863 0.000000
-0.126984 -0.218897 0.000000
-0.125536 -0.223876 0.000000
-0.250196 -0.039452 0.000000
-0.253814 -0.037756 0.000000
-0.122403 -0.221788 0.000000
-0.120909 -0.226359 0.000000
-0.250948 -0.034339 0.000000
-0.254531 -0.032639 0.000000
-0.117810 -0.224233 0.000000
-0.116302 -0.228773 0.000000
-0.251590 -0.029207 0.000000
-0.255162 -0.027498 0.000000
-0.113063 -0.226648 0.000000
-0.111626 -0.231076 0.000000
-0.252152 -0.024064 0.000000
-0.255682 -0.022349 0.000000
-0.108405 -0.228923 0.000000
-0.106956 -0.233292 0.000000
-0.252595 -0.018895 0.000000
-0.256048 -0.017181 0.000000
-0.103699 -0.231093 0.000000
-0.102209 -0.235408 0.000000
-0.252917 -0.013716 0.000000
-0.256371 -0.011977 0.000000
-0.098950 -0.233168 0.000000
-0.097430 -0.237419 0.000000
-0.253145 -0.008502 0.000000
-0.256525 -0.006784 0.000000
-0.094186 -0.235148 0.000000
-0.092626 -0.239323 0.000000
-0.253246 -0.003274 0.000000
-0.256590 -0.001533 0.000000
-0.089365 -0.237021 0.000000
-0.087789 -0.241137 0.000000
-0.256677 0.003861 0.000000
-0.253142 0.002166 0.000000
-0.257115 0.007822 0.000000
-0.084514 -0.238796 0.000000
-0.082921 -0.242867 0.000000
-0.253720 0.007776 0.000000
-0.256519 0.011763 0.000000
-0.079606 -0.240458 0.000000
-0.078018 -0.244489 0.000000
-0.252852 0.013320 0.000000
-0.256068 0.016920 0.000000
-0.074694 -0.242036 0.000000
-0.073082 -0.246010 0.000000
-0.252611 0.018669 0.000000
-0.255656 0.022234 0.000000
-0.069735 -0.243513 0.000000
-0.068114 -0.247458 0.000000
-0.252141 0.023990 0.000000
-0.255162 0.027444 0.000000
-0.064743 -0.244887 0.000000
-0.063092 -0.248749 0.000000
-0.251604 0.029164 0.000000
-0.254573 0.032595 0.000000
-0.059717 -0.246147 0.000000
-0.058069 -0.249993 0.000000
-0.250974 0.034287 0.000000
-0.253840 0.037734 0.000000
-0.054678 -0.247313 0.000000
-0.053013 -0.251111 0.000000
-0.250231 0.039411 0.000000
-0.253024 0.042842 0.000000
-0.049616 -0.248377 0.000000
-0.047935 -0.252120 0.000000
-0.249361 0.044517 0.000000
-0.252111 0.047933 0.000000
-0.044539 -0.249350 0.000000
-0.042840 -0.253023 0.000000
-0.248407 0.049594 0.000000
-0.251110 0.053004 0.000000
-0.039431 -0.250212 0.000000
-0.037704 -0.253860 0.000000
-0.247324 0.054669 0.000000
-0.249985 0.058059 0.000000
-0.034308 -0.250972 0.000000
-0.032585 -0.254550 0.000000
-0.246143 0.059708 0.000000
-0.248743 0.063082 0.000000
-0.029143 -0.251616 0.000000
-0.027438 -0.255160 0.000000
-0.244868 0.064718 0.000000
-0.247429 0.068085 0.000000
-0.023984 -0.252155 0.000000
-0.022275 -0.255652 0.000000
-0.243509 0.069698 0.000000
-0.245994 0.073043 0.000000
-0.018760 -0.252599 0.000000
-0.017016 -0.256101 0.000000
-0.242036 0.074652 0.000000
-0.244469 0.077981 0.000000
-0.013287 -0.252844 0.000000
-0.011794 -0.256461 0.000000
-0.007824 -0.257115 0.000000
-0.240463 0.079574 0.000000
-0.242849 0.082888 0.000000
-0.007799 -0.253734 0.000000
-0.003878 -0.256704 0.000000
-0.238789 0.084463 0.000000
-0.241130 0.087762 0.000000
-0.002313 -0.253282 0.000000
0.001488 -0.256626 0.000000
-0.237016 0.089317 0.000000
-0.239316 0.092601 0.000000
0.003275 -0.253251 0.000000
0.006791 -0.256518 0.000000
-0.235145 0.094134 0.000000
-0.237412 0.097406 0.000000
0.008519 -0.253134 0.000000
0.011961 -0.256352 0.000000
-0.233173 0.098919 0.000000
-0.235426 0.102191 0.000000
0.013685 -0.252913 0.000000
0.017142 -0.256059 0.000000
-0.231127 0.103687 0.000000
-0.233295 0.106912 0.000000
0.018872 -0.252578 0.000000
0.022325 -0.255665 0.000000
-0.228942 0.108390 0.000000
-0.231092 0.111624 0.000000
0.024038 -0.252148 0.000000
0.027480 -0.255157 0.000000
-0.226657 0.113049 0.000000
-0.228780 0.116278 0.000000
0.029190 -0.251600 0.000000
0.032621 -0.254550 0.000000
-0.224272 0.117709 0.000000
-0.226385 0.120864 0.000000
0.034318 -0.250961 0.000000
0.037740 -0.253831 0.000000
-0.221796 0.122264 0.000000
-0.223999 0.125456 0.000000
0.039411 -0.250224 0.000000
0.042847 -0.253042 0.000000
-0.218901 0.126938 0.000000
-0.221364 0.129767 0.000000
-0.219680 0.133847 0.000000
0.044518 -0.249355 0.000000
0.047933 -0.252121 0.000000
-0.216712 0.132054 0.000000
-0.217004 0.137072 0.000000
0.049586 -0.248413 0.000000
0.052994 -0.251107 0.000000
-0.213232 0.136466 0.000000
-0.214223 0.141523 0.000000
0.054657 -0.247336 0.000000
0.058052 -0.250005 0.000000
-0.210309 0.141140 0.000000
-0.211239 0.145727 0.000000
0.059678 -0.246219 0.000000
0.063074 -0.248801 0.000000
-0.207382 0.145398 0.000000
-0.208266 0.149943 0.000000
0.064707 -0.244891 0.000000
0.068065 -0.247437 0.000000
-0.204377 0.149636 0.000000
-0.205190 0.154130 0.000000
0.069691 -0.243505 0.000000
0.073032 -0.246030 0.000000
-0.201236 0.153821 0.000000
-0.202041 0.158266 0.000000
0.074644 -0.242033 0.000000
0.077971 -0.244510 0.000000
-0.198078 0.157909 0.000000
-0.198801 0.162297 0.000000
0.079563 -0.240462 0.000000
0.082879 -0.242869 0.000000
-0.194813 0.161942 0.000000
-0.195518 0.166295 0.000000
0.084448 -0.238801 0.000000
0.087756 -0.241183 0.000000
-0.191439 0.165882 0.000000
-0.192093 0.170171 0.000000
0.089300 -0.237046 0.000000
0.092599 -0.239343 0.000000
-0.188003 0.169744 0.000000
-0.188653 0.173995 0.000000
0.094143 -0.235202 0.000000
0.097411 -0.237436 0.000000
-0.184499 0.173533 0.000000
-0.185108 0.177774 0.000000
0.098956 -0.233189 0.000000
0.102214 -0.235430 0.000000
-0.180925 0.177258 0.000000
-0.181476 0.181471 0.000000
0.103685 -0.231103 0.000000
0.106930 -0.233289 0.000000
-0.177298 0.180905 0.000000
-0.177799 0.185107 0.000000
0.108419 -0.228930 0.000000
0.111656 -0.231091 0.000000
-0.173586 0.184506 0.000000
-0.174021 0.188619 0.000000
0.113144 -0.226627 0.000000
0.116347 -0.228895 0.000000
-0.169775 0.188019 0.000000
-0.170198 0.192078 0.000000
0.118125 -0.224048 0.000000
0.120958 -0.226462 0.000000
0.124847 -0.224898 0.000000
-0.165874 0.191414 0.000000
-0.166269 0.195460 0.000000
0.123118 -0.221704 0.000000
0.128317 -0.222427 0.000000
-0.161942 0.194765 0.000000
-0.162298 0.198777 0.000000
0.127741 -0.218738 0.000000
0.132718 -0.219773 0.000000
-0.157941 0.198061 0.000000
-0.158267 0.202017 0.000000
0.132458 -0.215906 0.000000
0.137099 -0.216943 0.000000
-0.153841 0.201233 0.000000
-0.154157 0.205176 0.000000
0.136835 -0.213143 0.000000
0.141446 -0.214140 0.000000
-0.149697 0.204336 0.000000
-0.149986 0.208241 0.000000
0.141204 -0.210307 0.000000
0.145766 -0.211267 0.000000
-0.145494 0.207364 0.000000
-0.145771 0.211274 0.000000
0.145482 -0.207382 0.000000
0.149974 -0.208247 0.000000
-0.141205 0.210328 0.000000
-0.141442 0.214144 0.000000
0.149675 -0.204345 0.000000
0.154126 -0.205199 0.000000
-0.136819 0.213112 0.000000
-0.137086 0.216926 0.000000
0.153844 -0.201265 0.000000
0.158238 -0.202080 0.000000
-0.132440 0.215878 0.000000
-0.132694 0.219723 0.000000
0.157910 -0.198046 0.000000
0.162291 -0.198796 0.000000
-0.127703 0.218560 0.000000
-0.128168 0.222340 0.000000
-0.124872 0.224869 0.000000
0.161934 -0.194783 0.000000
0.166261 -0.195477 0.000000
-0.123151 0.221907 0.000000
-0.120918 0.226405 0.000000
0.165879 -0.191440 0.000000
0.170170 -0.192099 0.000000
-0.117906 0.223946 0.000000
-0.116364 0.228838 0.000000
0.169751 -0.188007 0.000000
0.173993 -0.188654 0.000000
-0.113240 0.226633 0.000000
-0.111662 0.231084 0.000000
0.173542 -0.184492 0.000000
0.177760 -0.185096 0.000000
-0.108422 0.228922 0.000000
-0.106961 0.233288 0.000000
0.177261 -0.180914 0.000000
0.181485 -0.181471 0.000000
-0.103737 0.231113 0.000000
-0.102262 0.235399 0.000000
0.180916 -0.177255 0.000000
0.185091 -0.177759 0.000000
-0.098948 0.233164 0.000000
-0.097431 0.237399 0.000000
0.184491 -0.173524 0.000000
0.188622 -0.173999 0.000000
-0.094143 0.235127 0.000000
-0.092613 0.239321 0.000000
0.187992 -0.169728 0.000000
0.192102 -0.170181 0.000000
-0.089317 0.237012 0.000000
-0.087764 0.241132 0.000000
0.191418 -0.165860 0.000000
0.195491 -0.166265 0.000000
-0.084463 0.238789 0.000000
-0.082889 0.242851 0.000000
0.194761 -0.161927 0.000000
0.198782 -0.162297 0.000000
-0.079574 0.240463 0.000000
-0.077984 0.244481 0.000000
0.198034 -0.157937 0.000000
0.202051 -0.158287 0.000000
-0.074655 0.242028 0.000000
-0.073067 0.246024 0.000000
0.201260 -0.153870 0.000000
0.205213 -0.154172 0.000000
-0.069704 0.243501 0.000000
-0.068084 0.247440 0.000000
0.204378 -0.149650 0.000000
0.208273 -0.149949 0.000000
-0.064720 0.244869 0.000000
-0.063076 0.248748 0.000000
0.207393 -0.145398 0.000000
0.211241 -0.145689 0.000000
-0.059719 0.246146 0.000000
-0.058059 0.249953 0.000000
0.210313 -0.141108 0.000000
0.214198 -0.141341 0.000000
-0.054684 0.247314 0.000000
-0.053013 0.251069 0.000000
0.213186 -0.136480 0.000000
0.217027 -0.137061 0.000000
0.219675 -0.133904 0.000000
-0.049626 0.248378 0.000000
-0.047946 0.252085 0.000000
0.216699 -0.132106 0.000000
0.221261 -0.130034 0.000000
-0.044548 0.249339 0.000000
-0.042859 0.253000 0.000000
0.218972 -0.126947 0.000000
0.223829 -0.125513 0.000000
-0.039452 0.250196 0.000000
-0.037755 0.253811 0.000000
0.221761 -0.122278 0.000000
0.226348 -0.120860 0.000000
-0.034339 0.250948 0.000000
-0.032636 0.254520 0.000000
0.224241 -0.117692 0.000000
0.228771 -0.116275 0.000000
-0.029212 0.251597 0.000000
-0.027501 0.255124 0.000000
0.226657 -0.113049 0.000000
0.231079 -0.111599 0.000000
-0.024064 0.252125 0.000000
-0.022349 0.255632 0.000000
0.228947 -0.108402 0.000000
0.233301 -0.106928 0.000000
-0.018895 0.252587 0.000000
-0.017177 0.256059 0.000000
0.231124 -0.103682 0.000000
0.235410 -0.102221 0.000000
-0.013722 0.252906 0.000000
-0.011984 0.256358 0.000000
0.233165 -0.098925 0.000000
0.237410 -0.097418 0.000000
-0.008503 0.253124 0.000000
-0.006797 0.256513 0.000000
0.235127 -0.094138 0.000000
0.239324 -0.092617 0.000000
-0.003298 0.253224 0.000000
-0.001537 0.256626 0.000000
0.236998 -0.089320 0.000000
0.241141 -0.087778 0.000000
0.002151 0.253099 0.000000
0.003665 0.256640 0.000000
0.007850 0.257154 0.000000
0.238771 -0.084467 0.000000
0.242860 -0.082904 0.000000
0.007797 0.253617 0.000000
0.011936 0.256414 0.000000
0.240446 -0.079578 0.000000
0.244481 -0.077996 0.000000
0.013338 0.252784 0.000000
0.017146 0.256139 0.000000
0.242028 -0.074654 0.000000
0.246037 -0.073052 0.000000
0.018795 0.252575 0.000000
0.022298 0.255656 0.000000
0.243509 -0.069698 0.000000
0.247448 -0.068073 0.000000
0.023967 0.252157 0.000000
0.027442 0.255166 0.000000
0.244876 -0.064709 0.000000
0.248758 -0.063061 0.000000
0.029162 0.251616 0.000000
0.032604 0.254548 0.000000
0.246144 -0.059697 0.000000
0.249992 -0.058030 0.000000
0.034292 0.250979 0.000000
0.037736 0.253859 0.000000
0.247309 -0.054662 0.000000
0.251104 -0.052986 0.000000
0.039431 0.250218 0.000000
0.042858 0.253073 0.000000
0.248369 -0.049609 0.000000
0.252103 -0.047938 0.000000
0.044531 0.249396 0.000000
0.047946 0.252110 0.000000
0.249327 -0.044538 0.000000
0.253015 -0.042853 0.000000
0.049638 0.248392 0.000000
0.053019 0.251075 0.000000
0.250196 -0.039452 0.000000
0.253860 -0.037736 0.000000
0.054696 0.247309 0.000000
0.058069 0.249954 0.000000
0.251003 -0.034313 0.000000
0.254598 -0.032621 0.000000
0.059722 0.246136 0.000000
0.063114 0.248759 0.000000
0.251639 -0.029149 0.000000
0.255178 -0.027455 0.000000
0.064734 0.244874 0.000000
0.068093 0.247429 0.000000
0.252168 -0.023976 0.000000
0.255662 -0.022304 0.000000
0.069737 0.243542 0.000000
0.073050 0.246037 0.000000
0.252584 -0.018806 0.000000
0.256143 -0.017147 0.000000
0.074663 0.242036 0.000000
0.077996 0.244480 0.000000
0.252817 -0.013347 0.000000
0.256442 -0.011927 0.000000
0.257154 -0.007852 0.000000
0.079584 0.240452 0.000000
0.082921 0.242866 0.000000
0.253690 -0.007780 0.000000
0.256642 -0.003691 0.000000
0.084471 0.238773 0.000000
0.087778 0.241141 0.000000
0.253096 -0.002165 0.000000
0.256647 0.001559 0.000000
0.089321 0.236998 0.000000
0.092617 0.239324 0.000000
0.253243 0.003287 0.000000
0.256520 0.006794 0.000000
0.094136 0.235126 0.000000
0.097418 0.237410 0.000000
0.253129 0.008465 0.000000
0.256359 0.011971 0.000000
0.098915 0.233157 0.000000
0.102180 0.235399 0.000000
0.252942 0.013681 0.000000
0.256098 0.017161 0.000000
0.103663 0.231094 0.000000
0.106917 0.233294 0.000000
0.252587 0.018892 0.000000
0.255640 0.022345 0.000000
0.108396 0.228944 0.000000
0.111598 0.231082 0.000000
0.252126 0.024061 0.000000
0.255131 0.027498 0.000000
0.113048 0.226663 0.000000
0.116271 0.228781 0.000000
0.251586 0.029205 0.000000
0.254568 0.032637 0.000000
0.117706 0.224256 0.000000
0.120852 0.226357 0.000000
0.250942 0.034329 0.000000
0.253839 0.037736 0.000000
0.122248 0.221776 0.000000
0.125477 0.223846 0.000000
0.250188 0.039438 0.000000
0.253035 0.042843 0.000000
0.126912 0.218965 0.000000
0.130002 0.221279 0.000000
0.249333 0.044533 0.000000
0.252125 0.047929 0.000000
0.132108 0.216694 0.000000
0.133891 0.219601 0.000000
0.248369 0.049612 0.000000
0.251087 0.053006 0.000000
0.136550 0.213160 0.000000
0.137046 0.217019 0.000000
0.247301 0.054671 0.000000
0.249968 0.058053 0.000000
0.141152 0.210287 0.000000
0.141372 0.214174 0.000000
0.246134 0.059706 0.000000
0.248748 0.063076 0.000000
0.145482 0.207387 0.000000
0.145725 0.211231 0.000000
0.244867 0.064717 0.000000
0.247418 0.068075 0.000000
0.149697 0.204345 0.000000
0.149984 0.208266 0.000000
0.243509 0.069698 0.000000
0.246029 0.073052 0.000000
0.153835 0.201247 0.000000
0.154130 0.205204 0.000000
0.242036 0.074652 0.000000
0.244477 0.077982 0.000000
0.157903 0.198039 0.000000
0.158242 0.202054 0.000000
0.240463 0.079574 0.000000
0.242860 0.082888 0.000000
0.161909 0.194770 0.000000
0.162280 0.198807 0.000000
0.238789 0.084463 0.000000
0.241157 0.087764 0.000000
0.165849 0.191427 0.000000
0.166250 0.195508 0.000000
0.237021 0.089328 0.000000
0.239376 0.092639 0.000000
0.169721 0.188004 0.000000
0.170154 0.192121 0.000000
0.235172 0.094182 0.000000
0.237425 0.097450 0.000000
0.173527 0.184503 0.000000
0.173991 0.188648 0.000000
0.233173 0.098964 0.000000
0.235397 0.102209 0.000000
0.177263 0.180930 0.000000
0.177779 0.185108 0.000000
0.231102 0.103711 0.000000
0.233283 0.106944 0.000000
0.180917 0.177274 0.000000
0.181479 0.181481 0.000000
0.228922 0.108427 0.000000
0.231077 0.111631 0.000000
0.184496 0.173546 0.000000
0.185088 0.177792 0.000000
0.226606 0.113135 0.000000
0.228845 0.116324 0.000000
0.187993 0.169732 0.000000
0.188640 0.174022 0.000000
0.223969 0.118039 0.000000
0.226404 0.120897 0.000000
0.191413 0.165855 0.000000
0.192089 0.170164 0.000000
0.221863 0.123176 0.000000
0.224891 0.124847 0.000000
0.194756 0.161915 0.000000
0.195477 0.166261 0.000000
0.218540 0.127743 0.000000
0.222360 0.128216 0.000000
0.198020 0.157909 0.000000
0.198786 0.162290 0.000000
0.215874 0.132431 0.000000
0.219701 0.132630 0.000000
0.201205 0.153841 0.000000
0.202014 0.158253 0.000000
0.213147 0.136837 0.000000
0.216928 0.137078 0.000000
0.204316 0.149710 0.000000
0.210278 0.141207 0.000000
0.207360 0.145490 0.000000
0.205171 0.154172 0.000000
0.214149 0.141432 0.000000
0.208240 0.149993 0.000000
0.211214 0.145747 0.000000
CELLS 1860 7440
3 620 2 0
3 0 622 620
3 621 620 622
3 622 625 621
3 317 621 625
3 625 319 317
3 319 625 629
3 629 321 319
3 321 629 633
3 633 323 321
3 323 633 638
3 638 325 323
3 325 638 642
3 642 327 325
3 327 642 646
3 646 329 327
3 329 646 650
3 650 331 329
3 331 650 654
3 654 333 331
3 333 654 658
3 658 335 333
3 335 658 662
3 662 337 335
3 337 662 666
3 666 339 337
3 339 666 670
3 670 341 339
3 341 670 674
3 674 343 341
3 343 674 678
3 678 345 343
3 345 678 682
3 682 347 345
3 347 682 686
3 686 349 347
3 349 686 690
3 690 351 349
3 351 690 694
3 694 353 351
3 353 694 698
3 698 355 353
3 355 698 703
3 703 357 355
3 357 703 707
3 707 359 357
3 359 707 711
3 711 361 359
3 361 711 715
3 715 363 361
3 363 715 719
3 719 365 363
3 365 719 723
3 723 367 365
3 367 723 727
3 727 369 367
3 369 727 731
3 731 371 369
3 371 731 735
3 735 373 371
3 373 735 739
3 739 375 373
3 375 739 744
3 744 377 375
3 377 744 748
3 748 379 377
3 379 748 752
3 752 381 379
3 381 752 756
3 756 383 381
3 383 756 760
3 760 385 383
3 385 760 764
3 764 387 385
3 387 764 768
3 768 389 387
3 389 768 772
3 772 391 389
3 391 772 776
3 776 393 391
3 393 776 780
3 780 395 393
3 395 780 784
3 784 397 395
3 397 784 788
3 788 399 397
3 399 788 792
3 792 401 399
3 401 792 796
3 796 403 401
3 403 796 800
3 800 405 403
3 405 800 805
3 805 407 405
3 407 805 809
3 809 409 407
3 409 809 813
3 813 411 409
3 411 813 817
3 817 413 411
3 413 817 821
3 821 415 413
3 415 821 825
3 825 417 415
3 417 825 829
3 829 419 417
3 419 829 833
3 833 421 419
3 421 833 837
3 837 423 421
3 423 837 841
3 841 425 423
3 425 841 846
3 846 427 425
3 427 846 850
3 850 429 427
3 429 850 854
3 854 431 429
3 431 854 858
3 858 433 431
3 433 858 862
3 862 435 433
3 435 862 866
3 866 437 435
3 437 866 870
3 870 439 437
3 439 870 874
3 874 441 439
3 441 874 878
3 878 443 441
3 443 878 882
3 882 445 443
3 445 882 886
3 886 447 445
3 447 886 890
3 890 449 447
3 449 890 894
3 894 451 449
3 451 894 898
3 898 453 451
3 453 898 902
3 902 455 453
3 455 902 906
3 906 457 455
3 457 906 911
3 911 459 457
3 459 911 915
3 915 461 459
3 461 915 919
3 919 463 461
3 463 919 923
3 923 465 463
3 465 923 927
3 927 467 465
3 467 927 931
3 931 469 467
3 469 931 935
3 935 471 469
3 471 935 939
3 939 473 471
3 473 939 943
3 943 475 473
3 475 943 948
3 948 477 475
3 477 948 952
3 952 479 477
3 479 952 956
3 956 481 479
3 481 956 960
3 960 483 481
3 483 960 964
3 964 485 483
3 485 964 968
3 968 487 485
3 487 968 972
3 972 489 487
3 489 972 976
3 976 491 489
3 491 976 980
3 980 493 491
3 493 980 984
3 984 495 493
3 495 984 988
3 988 497 495
3 497 988 992
3 992 499 497
3 499 992 996
3 996 501 499
3 501 996 1000
3 1000 503 501
3 503 1000 1004
3 1004 505 503
3 505 1004 1008
3 1008 507 505
3 507 1008 1013
3 1013 509 507
3 509 1013 1017
3 1017 511 509
3 511 1017 1021
3 1021 513 511
3 513 1021 1025
3 1025 515 513
3 515 1025 1029
3 1029 517 515
3 517 1029 1033
3 1033 519 517
3 519 1033 1037
3 1037 521 519
3 521 1037 1041
3 1041 523 521
3 523 1041 1045
3 1045 525 523
3 525 1045 1049
3 1049 527 525
3 527 1049 1054
3 1054 529 527
3 529 1054 1058
3 1058 531 529
3 531 1058 1062
3 1062 533 531
3 533 1062 1066
3 1066 535 533
3 535 1066 1070
3 1070 537 535
3 537 1070 1074
3 1074 539 537
3 539 1074 1078
3 1078 541 539
3 541 1078 1082
3 1082 543 541
3 543 1082 1086
3 1086 545 543
3 545 1086 1090
3 1090 547 545
3 547 1090 1094
3 1094 549 547
3 549 1094 1098
3 1098 551 549
3 551 1098 1102
3 1102 553 551
3 553 1102 1106
3 1106 555 553
3 555 1106 1110
3 1110 557 555
3 557 1110 1115
3 1115 559 557
3 559 1115 1119
3 1119 561 559
3 561 1119 1123
3 1123 563 561
3 563 1123 1127
3 1127 565 563
3 565 1127 1131
3 1131 567 565
3 567 1131 1135
3 1135 569 567
3 569 1135 1139
3 1139 571 569
3 571 1139 1143
3 1143 573 571
3 573 1143 1147
3 1147 575 573
3 575 1147 1151
3 1151 577 575
3 577 1151 1155
3 1155 579 577
3 579 1155 1159
3 1159 581 579
3 581 1159 1163
3 1163 583 581
3 583 1163 1167
3 1167 585 583
3 585 1167 1171
3 1171 587 585
3 587 1171 1175
3 1175 589 587
3 589 1175 1179
3 1179 591 589
3 591 1179 1183
3 1183 593 591
3 593 1183 1187
3 1187 595 593
3 595 1187 1191
3 1191 597 595
3 597 1191 1195
3 1195 599 597
3 599 1195 1199
3 1199 601 599
3 601 1199 1203
3 1203 603 601
3 603 1203 1207
3 1207 605 603
3 605 1207 1211
3 1211 607 605
3 607 1211 1215
3 1215 609 607
3 609 1215 1219
3 1219 611 609
3 611 1219 1223
3 1223 613 611
3 613 1223 1227
3 1227 615 613
3 615 1227 1231
3 1231 617 615
3 617 1231 1234
3 1234 618 617
3 618 1234 1235
3 1235 619 618
3 619 1235 1233
3 1233 616 619
3 616 1233 1229
3 1229 614 616
3 614 1229 1225
3 1225 612 614
3 612 1225 1221
3 1221 610 612
3 610 1221 1217
3 1217 608 610
3 608 1217 1213
3 1213 606 608
3 606 1213 1209
3 1209 604 606
3 604 1209 1205
3 1205 602 604
3 602 1205 1201
3 1201 600 602
3 600 1201 1197
3 1197 598 600
3 598 1197 1193
3 1193 596 598
3 596 1193 1189
3 1189 594 596
3 594 1189 1185
3 1185 592 594
3 592 1185 1181
3 1181 590 592
3 590 1181 1177
3 1177 588 590
3 588 1177 1173
3 1173 586 588
3 586 1173 1169
3 1169 584 586
3 584 1169 1165
3 1165 582 584
3 582 1165 1161
3 1161 580 582
3 580 1161 1157
3 1157 578 580
3 578 1157 1153
3 1153 576 578
3 576 1153 1149
3 1149 574 576
3 574 1149 1145
3 1145 572 574
3 572 1145 1141
3 1141 570 572
3 570 1141 1137
3 1137 568 570
3 568 1137 1133
3 1133 566 568
3 566 1133 1129
3 1129 564 566
3 564 1129 1125
3 1125 562 564
3 562 1125 1121
3 1121 560 562
3 560 1121 1117
3 1117 558 560
3 558 1117 1113
3 1113 556 558
3 556 1113 1108
3 1108 554 556
3 554 1108 1104
3 1104 552 554
3 552 1104 1100
3 1100 550 552
3 550 1100 1096
3 1096 548 550
3 548 1096 1092
3 1092 546 548
3 546 1092 1088
3 1088 544 546
3 544 1088 1084
3 1084 542 544
3 542 1084 1080
3 1080 540 542
3 540 1080 1076
3 1076 538 540
3 538 1076 1072
3 1072 536 538
3 536 1072 1068
3 1068 534 536
3 534 1068 1064
3 1064 532 534
3 532 1064 1060
3 1060 530 532
3 530 1060 1056
3 1056 528 530
3 528 1056 1051
3 1051 526 528
3 526 1051 1047
3 1047 524 526
3 524 1047 1043
3 1043 522 524
3 522 1043 1039
3 1039 520 522
3 520 1039 1035
3 1035 518 520
3 518 1035 1031
3 1031 516 518
3 516 1031 1027
3 1027 514 516
3 514 1027 1023
3 1023 512 514
3 512 1023 1019
3 1019 510 512
3 510 1019 1015
3 1015 508 510
3 508 1015 1011
3 1011 506 508
3 506 1011 1006
3 1006 504 506
3 504 1006 1002
3 1002 502 504
3 502 1002 998
3 998 500 502
3 500 998 994
3 994 498 500
3 498 994 990
3 990 496 498
3 496 990 986
3 986 494 496
3 494 986 982
3 982 492 494
3 492 982 978
3 978 490 492
3 490 978 974
3 974 488 490
3 488 974 970
3 970 486 488
3 486 970 966
3 966 484 486
3 484 966 962
3 962 482 484
3 482 962 958
3 958 480 482
3 480 958 954
3 954 478 480
3 478 954 950
3 950 476 478
3 476 950 945
3 945 474 476
3 474 945 941
3 941 472 474
3 472 941 937
3 937 470 472
3 470 937 933
3 933 468 470
3 468 933 929
3 929 466 468
3 466 929 925
3 925 464 466
3 464 925 921
3 921 462 464
3 462 921 917
3 917 460 462
3 460 917 913
3 913 458 460
3 458 913 909
3 909 456 458
3 456 909 904
3 904 454 456
3 454 904 900
3 900 452 454
3 452 900 896
3 896 450 452
3 450 896 892
3 892 448 450
3 448 892 888
3 888 446 448
3 446 888 884
3 884 444 446
3 444 884 880
3 880 442 444
3 442 880 876
3 876 440 442
3 440 876 872
3 872 438 440
3 438 872 868
3 868 436 438
3 436 868 864
3 864 434 436
3 434 864 860
3 860 432 434
3 432 860 856
3 856 430 432
3 430 856 852
3 852 428 430
3 428 852 848
3 848 426 428
3 426 848 843
3 843 424 426
3 424 843 839
3 839 422 424
3 422 839 835
3 835 420 422
3 420 835 831
3 831 418 420
3 418 831 827
3 827 416 418
3 416 827 823
3 823 414 416
3 414 823 819
3 819 412 414
3 412 819 815
3 815 410 412
3 410 815 811
3 811 408 410
3 408 811 807
3 807 406 408
3 406 807 803
3 803 404 406
3 404 803 798
3 798 402 404
3 402 798 794
3 794 400 402
3 400 794 790
3 790 398 400
3 398 790 786
3 786 396 398
3 396 786 782
3 782 394 396
3 394 782 778
3 778 392 394
3 392 778 774
3 774 390 392
3 390 774 770
3 770 388 390
3 388 770 766
3 766 386 388
3 386 766 762
3 762 384 386
3 384 762 758
3 758 382 384
3 382 758 754
3 754 380 382
3 380 754 750
3 750 378 380
3 378 750 746
3 746 376 378
3 376 746 742
3 742 374 376
3 374 742 737
3 737 372 374
3 372 737 733
3 733 370 372
3 370 733 729
3 729 368 370
3 368 729 725
3 725 366 368
3 366 725 721
3 721 364 366
3 364 721 717
3 717 362 364
3 362 717 713
3 713 360 362
3 360 713 709
3 709 358 360
3 358 709 705
3 705 356 358
3 356 705 701
3 701 354 356
3 354 701 696
3 696 352 354
3 352 696 692
3 692 350 352
3 350 692 688
3 688 348 350
3 348 688 684
3 684 346 348
3 346 684 680
3 680 344 346
3 344 680 676
3 676 342 344
3 342 676 672
3 672 340 342
3 340 672 668
3 668 338 340
3 338 668 664
3 664 336 338
3 336 664 660
3 660 334 336
3 334 660 656
3 656 332 334
3 332 656 652
3 652 330 332
3 330 652 648
3 648 328 330
3 328 648 644
3 644 326 328
3 326 644 640
3 640 324 326
3 324 640 635
3 635 322 324
3 322 635 631
3 631 320 322
3 320 631 627
3 627 318 320
3 318 627 623
3 623 1 318
3 1 623 621
3 624 623 627
3 627 628 624
3 4 624 628
3 628 6 4
3 6 628 632
3 632 8 6
3 8 632 636
3 636 9 8
3 9 636 637
3 637 11 9
3 11 637 641
3 641 13 11
3 13 641 645
3 645 15 13
3 15 645 649
3 649 17 15
3 17 649 653
3 653 19 17
3 19 653 657
3 657 21 19
3 21 657 661
3 661 23 21
3 23 661 665
3 665 25 23
3 25 665 669
3 669 27 25
3 27 669 673
3 673 29 27
3 29 673 677
3 677 31 29
3 31 677 681
3 681 33 31
3 33 681 685
3 685 35 33
3 35 685 689
3 689 37 35
3 37 689 693
3 693 39 37
3 39 693 697
3 697 42 39
3 42 697 702
3 702 44 42
3 44 702 706
3 706 46 44
3 46 706 710
3 710 48 46
3 48 710 714
3 714 50 48
3 50 714 718
3 718 52 50
3 52 718 722
3 722 54 52
3 54 722 726
3 726 56 54
3 56 726 730
3 730 58 56
3 58 730 734
3 734 60 58
3 60 734 738
3 738 62 60
3 62 738 741
3 741 63 62
3 63 741 743
3 743 65 63
3 65 743 747
3 747 67 65
3 67 747 751
3 751 69 67
3 69 751 755
3 755 71 69
3 71 755 759
3 759 73 71
3 73 759 763
3 763 75 73
3 75 763 767
3 767 77 75
3 77 767 771
3 771 79 77
3 79 771 775
3 775 81 79
3 81 775 779
3 779 83 81
3 83 779 783
3 783 85 83
3 85 783 787
3 787 87 85
3 87 787 791
3 791 89 87
3 89 791 795
3 795 91 89
3 91 795 799
3 799 94 91
3 94 799 804
3 804 96 94
3 96 804 808
3 808 98 96
3 98 808 812
3 812 100 98
3 100 812 816
3 816 102 100
3 102 816 820
3 820 104 102
3 104 820 824
3 824 106 104
3 106 824 828
3 828 108 106
3 108 828 832
3 832 110 108
3 110 832 836
3 836 112 110
3 112 836 840
3 840 114 112
3 114 840 844
3 844 115 114
3 115 844 845
3 845 117 115
3 117 845 849
3 849 119 117
3 119 849 853
3 853 121 119
3 121 853 857
3 857 123 121
3 123 857 861
3 861 125 123
3 125 861 865
3 865 127 125
3 127 865 869
3 869 129 127
3 129 869 873
3 873 131 129
3 131 873 877
3 877 133 131
3 133 877 881
3 881 135 133
3 135 881 885
3 885 137 135
3 137 885 889
3 889 139 137
3 139 889 893
3 893 141 139
3 141 893 897
3 897 143 141
3 143 897 901
3 901 145 143
3 145 901 905
3 905 148 145
3 148 905 910
3 910 150 148
3 150 910 914
3 914 152 150
3 152 914 918
3 918 154 152
3 154 918 922
3 922 156 154
3 156 922 926
3 926 158 156
3 158 926 930
3 930 160 158
3 160 930 934
3 934 162 160
3 162 934 938
3 938 164 162
3 164 938 942
3 942 166 164
3 166 942 946
3 946 167 166
3 167 946 947
3 947 169 167
3 169 947 951
3 951 171 169
3 171 951 955
3 955 173 171
3 173 955 959
3 959 175 173
3 175 959 963
3 963 177 175
3 177 963 967
3 967 179 177
3 179 967 971
3 971 181 179
3 181 971 975
3 975 183 181
3 183 975 979
3 979 185 183
3 185 979 983
3 983 187 185
3 187 983 987
3 987 189 187
3 189 987 991
3 991 191 189
3 191 991 995
3 995 193 191
3 193 995 999
3 999 195 193
3 195 999 1003
3 1003 197 195
3 197 1003 1007
3 1007 200 197
3 200 1007 1012
3 1012 202 200
3 202 1012 1016
3 1016 204 202
3 204 1016 1020
3 1020 206 204
3 206 1020 1024
3 1024 208 206
3 208 1024 1028
3 1028 210 208
3 210 1028 1032
3 1032 212 210
3 212 1032 1036
3 1036 214 212
3 214 1036 1040
3 1040 216 214
3 216 1040 1044
3 1044 218 216
3 218 1044 1048
3 1048 220 218
3 220 1048 1052
3 1052 222 220
3 222 1052 1053
3 1053 224 222
3 224 1053 1057
3 1057 226 224
3 226 1057 1061
3 1061 228 226
3 228 1061 1065
3 1065 230 228
3 230 1065 1069
3 1069 232 230
3 232 1069 1073
3 1073 234 232
3 234 1073 1077
3 1077 236 234
3 236 1077 1081
3 1081 238 236
3 238 1081 1085
3 1085 240 238
3 240 1085 1089
3 1089 242 240
3 242 1089 1093
3 1093 244 242
3 244 1093 1097
3 1097 246 244
3 246 1097 1101
3 1101 248 246
3 248 1101 1105
3 1105 250 248
3 250 1105 1109
3 1109 252 250
3 252 1109 1114
3 1114 254 252
3 254 1114 1118
3 1118 256 254
3 256 1118 1122
3 1122 258 256
3 258 1122 1126
3 1126 260 258
3 260 1126 1130
3 1130 262 260
3 262 1130 1134
3 1134 264 262
3 264 1134 1138
3 1138 266 264
3 266 1138 1142
3 1142 268 266
3 268 1142 1146
3 1146 270 268
3 270 1146 1150
3 1150 272 270
3 272 1150 1154
3 1154 274 272
3 274 1154 1158
3 1158 276 274
3 276 1158 1162
3 1162 278 276
3 278 1162 1166
3 1166 280 278
3 280 1166 1170
3 1170 282 280
3 282 1170 1174
3 1174 284 282
3 284 1174 1178
3 1178 286 284
3 286 1178 1182
3 1182 288 286
3 288 1182 1186
3 1186 290 288
3 290 1186 1190
3 1190 292 290
3 292 1190 1194
3 1194 294 292
3 294 1194 1198
3 1198 296 294
3 296 1198 1202
3 1202 298 296
3 298 1202 1206
3 1206 300 298
3 300 1206 1210
3 1210 302 300
3 302 1210 1214
3 1214 304 302
3 304 1214 1218
3 1218 306 304
3 306 1218 1222
3 1222 308 306
3 308 1222 1226
3 1226 310 308
3 310 1226 1230
3 1230 312 310
3 312 1230 1236
3 1236 314 312
3 314 1236 1238
3 1238 316 314
3 316 1238 1239
3 1239 315 316
3 315 1239 1237
3 1237 313 315
3 313 1237 1232
3 1232 311 313
3 311 1232 1228
3 1228 309 311
3 309 1228 1224
3 1224 307 309
3 307 1224 1220
3 1220 305 307
3 305 1220 1216
3 1216 303 305
3 303 1216 1212
3 1212 301 303
3 301 1212 1208
3 1208 299 301
3 299 1208 1204
3 1204 297 299
3 297 1204 1200
3 1200 295 297
3 295 1200 1196
3 1196 293 295
3 293 1196 1192
3 1192 291 293
3 291 1192 1188
3 1188 289 291
3 289 1188 1184
3 1184 287 289
3 287 1184 1180
3 1180 285 287
3 285 1180 1176
3 1176 283 285
3 283 1176 1172
3 1172 281 283
3 281 1172 1168
3 1168 279 281
3 279 1168 1164
3 1164 277 279
3 277 1164 1160
3 1160 275 277
3 275 1160 1156
3 1156 273 275
3 273 1156 1152
3 1152 271 273
3 271 1152 1148
3 1148 269 271
3 269 1148 1144
3 1144 267 269
3 267 1144 1140
3 1140 265 267
3 265 1140 1136
3 1136 263 265
3 263 1136 1132
3 1132 261 263
3 261 1132 1128
3 1128 259 261
3 259 1128 1124
3 1124 257 259
3 257 1124 1120
3 1120 255 257
3 255 1120 1116
3 1116 253 255
3 253 1116 1112
3 1112 251 253
3 251 1112 1111
3 1111 249 251
3 249 1111 1107
3 1107 247 249
3 247 1107 1103
3 1103 245 247
3 245 1103 1099
3 1099 243 245
3 243 1099 1095
3 1095 241 243
3 241 1095 1091
3 1091 239 241
3 239 1091 1087
3 1087 237 239
3 237 1087 1083
3 1083 235 237
3 235 1083 1079
3 1079 233 235
3 233 1079 1075
3 1075 231 233
3 231 1075 1071
3 1071 229 231
3 229 1071 1067
3 1067 227 229
3 227 1067 1063
3 1063 225 227
3 225 1063 1059
3 1059 223 225
3 223 1059 1055
3 1055 221 223
3 221 1055 1050
3 1050 219 221
3 219 1050 1046
3 1046 217 219
3 217 1046 1042
3 1042 215 217
3 215 1042 1038
3 1038 213 215
3 213 1038 1034
3 1034 211 213
3 211 1034 1030
3 1030 209 211
3 209 1030 1026
3 1026 207 209
3 207 1026 1022
3 1022 205 207
3 205 1022 1018
3 1018 203 205
3 203 1018 1014
3 1014 201 203
3 201 1014 1010
3 1010 199 201
3 199 1010 1009
3 1009 198 199
3 198 1009 1005
3 1005 196 198
3 196 1005 1001
3 1001 194 196
3 194 1001 997
3 997 192 194
3 192 997 993
3 993 190 192
3 190 993 989
3 989 188 190
3 188 989 985
3 985 186 188
3 186 985 981
3 981 184 186
3 184 981 977
3 977 182 184
3 182 977 973
3 973 180 182
3 180 973 969
3 969 178 180
3 178 969 965
3 965 176 178
3 176 965 961
3 961 174 176
3 174 961 957
3 957 172 174
3 172 957 953
3 953 170 172
3 170 953 949
3 949 168 170
3 168 949 944
3 944 165 168
3 165 944 940
3 940 163 165
3 163 940 936
3 936 161 163
3 161 936 932
3 932 159 161
3 159 932 928
3 928 157 159
3 157 928 924
3 924 155 157
3 155 924 920
3 920 153 155
3 153 920 916
3 916 151 153
3 151 916 912
3 912 149 151
3 149 912 908
3 908 147 149
3 147 908 907
3 907 146 147
3 146 907 903
3 903 144 146
3 144 903 899
3 899 142 144
3 142 899 895
3 895 140 142
3 140 895 891
3 891 138 140
3 138 891 887
3 887 136 138
3 136 887 883
3 883 134 136
3 134 883 879
3 879 132 134
3 132 879 875
3 875 130 132
3 130 875 871
3 871 128 130
3 128 871 867
3 867 126 128
3 126 867 863
3 863 124 126
3 124 863 859
3 859 122 124
3 122 859 855
3 855 120 122
3 120 855 851
3 851 118 120
3 118 851 847
3 847 116 118
3 116 847 842
3 842 113 116
3 113 842 838
3 838 111 113
3 111 838 834
3 834 109 111
3 109 834 830
3 830 107 109
3 107 830 826
3 826 105 107
3 105 826 822
3 822 103 105
3 103 822 818
3 818 101 103
3 101 818 814
3 814 99 101
3 99 814 810
3 810 97 99
3 97 810 806
3 806 95 97
3 95 806 802
3 802 93 95
3 93 802 801
3 801 92 93
3 92 801 797
3 797 90 92
3 90 797 793
3 793 88 90
3 88 793 789
3 789 86 88
3 86 789 785
3 785 84 86
3 84 785 781
3 781 82 84
3 82 781 777
3 777 80 82
3 80 777 773
3 773 78 80
3 78 773 769
3 769 76 78
3 76 769 765
3 765 74 76
3 74 765 761
3 761 72 74
3 72 761 757
3 757 70 72
3 70 757 753
3 753 68 70
3 68 753 749
3 749 66 68
3 66 749 745
3 745 64 66
3 64 745 740
3 740 61 64
3 61 740 736
3 736 59 61
3 59 736 732
3 732 57 59
3 57 732 728
3 728 55 57
3 55 728 724
3 724 53 55
3 53 724 720
3 720 51 53
3 51 720 716
3 716 49 51
3 49 716 712
3 712 47 49
3 47 712 708
3 708 45 47
3 45 708 704
3 704 43 45
3 43 704 700
3 700 41 43
3 41 700 699
3 699 40 41
3 40 699 695
3 695 38 40
3 38 695 691
3 691 36 38
3 36 691 687
3 687 34 36
3 34 687 683
3 683 32 34
3 32 683 679
3 679 30 32
3 30 679 675
3 675 28 30
3 28 675 671
3 671 26 28
3 26 671 667
3 667 24 26
3 24 667 663
3 663 22 24
3 22 663 659
3 659 20 22
3 20 659 655
3 655 18 20
3 18 655 651
3 651 16 18
3 16 651 647
3 647 14 16
3 14 647 643
3 643 12 14
3 12 643 639
3 639 10 12
3 10 639 634
3 634 7 10
3 7 634 630
3 630 5 7
3 5 630 626
3 626 3 5
3 3 626 622
3 629 626 630
3 633 630 634
3 638 634 639
3 642 639 643
3 646 643 647
3 650 647 651
3 654 651 655
3 658 655 659
3 662 659 663
3 666 663 667
3 670 667 671
3 674 671 675
3 678 675 679
3 682 679 683
3 686 683 687
3 690 687 691
3 694 691 695
3 698 695 699
3 700 703 699
3 700 704 703
3 707 704 708
3 711 708 712
3 715 712 716
3 719 716 720
3 723 720 724
3 727 724 728
3 731 728 732
3 735 732 736
3 739 736 740
3 744 740 745
3 748 745 749
3 752 749 753
3 756 753 757
3 760 757 761
3 764 761 765
3 768 765 769
3 772 769 773
3 776 773 777
3 780 777 781
3 784 781 785
3 788 785 789
3 792 789 793
3 796 793 797
3 800 797 801
3 802 805 801
3 802 806 805
3 809 806 810
3 813 810 814
3 817 814 818
3 821 818 822
3 825 822 826
3 829 826 830
3 833 830 834
3 837 834 838
3 841 838 842
3 846 842 847
3 850 847 851
3 854 851 855
3 858 855 859
3 862 859 863
3 866 863 867
3 870 867 871
3 874 871 875
3 878 875 879
3 882 879 883
3 886 883 887
3 890 887 891
3 894 891 895
3 898 895 899
3 902 899 903
3 906 903 907
3 908 911 907
3 908 912 911
3 915 912 916
3 919 916 920
3 923 920 924
3 927 924 928
3 931 928 932
3 935 932 936
3 939 936 940
3 943 940 944
3 948 944 949
3 952 949 953
3 956 953 957
3 960 957 961
3 964 961 965
3 968 965 969
3 972 969 973
3 976 973 977
3 980 977 981
3 984 981 985
3 988 985 989
3 992 989 993
3 996 993 997
3 1000 997 1001
3 1004 1001 1005
3 1008 1005 1009
3 1010 1013 1009
3 1010 1014 1013
3 1017 1014 1018
3 1021 1018 1022
3 1025 1022 1026
3 1029 1026 1030
3 1033 1030 1034
3 1037 1034 1038
3 1041 1038 1042
3 1045 1042 1046
3 1049 1046 1050
3 1054 1050 1055
3 1058 1055 1059
3 1062 1059 1063
3 1066 1063 1067
3 1070 1067 1071
3 1074 1071 1075
3 1078 1075 1079
3 1082 1079 1083
3 1086 1083 1087
3 1090 1087 1091
3 1094 1091 1095
3 1098 1095 1099
3 1102 1099 1103
3 1106 1103 1107
3 1110 1107 1111
3 1112 1115 1111
3 1112 1116 1115
3 1119 1116 1120
3 1123 1120 1124
3 1127 1124 1128
3 1131 1128 1132
3 1135 1132 1136
3 1139 1136 1140
3 1143 1140 1144
3 1147 1144 1148
3 1151 1148 1152
3 1155 1152 1156
3 1159 1156 1160
3 1163 1160 1164
3 1167 1164 1168
3 1171 1168 1172
3 1175 1172 1176
3 1179 1176 1180
3 1183 1180 1184
3 1187 1184 1188
3 1191 1188 1192
3 1195 1192 1196
3 1199 1196 1200
3 1203 1200 1204
3 1207 1204 1208
3 1211 1208 1212
3 1215 1212 1216
3 1220 1219 1216
3 1220 1224 1219
3 1223 1224 1228
3 1227 1228 1232
3 1231 1232 1237
3 1234 1237 1239
3 1235 1239 1238
3 1233 1238 1236
3 1229 1236 1230
3 1225 1230 1226
3 1221 1226 1222
3 1217 1222 1218
3 1213 1218 1214
3 1209 1214 1210
3 1205 1210 1206
3 1201 1206 1202
3 1197 1202 1198
3 1193 1198 1194
3 1189 1194 1190
3 1185 1190 1186
3 1181 1186 1182
3 1177 1182 1178
3 1173 1178 1174
3 1169 1174 1170
3 1165 1170 1166
3 1161 1166 1162
3 1158 1157 1162
3 1158 1154 1157
3 1153 1154 1150
3 1149 1150 1146
3 1145 1146 1142
3 1141 1142 1138
3 1137 1138 1134
3 1133 1134 1130
3 1129 1130 1126
3 1125 1126 1122
3 1121 1122 1118
3 1117 1118 1114
3 1113 1114 1109
3 1108 1109 1105
3 1104 1105 1101
3 1100 1101 1097
3 1096 1097 1093
3 1092 1093 1089
3 1088 1089 1085
3 1084 1085 1081
3 1080 1081 1077
3 1076 1077 1073
3 1072 1073 1069
3 1068 1069 1065
3 1064 1065 1061
3 1060 1061 1057
3 1053 1056 1057
3 1053 1052 1056
3 1051 1052 1048
3 1047 1048 1044
3 1043 1044 1040
3 1039 1040 1036
3 1035 1036 1032
3 1031 1032 1028
3 1027 1028 1024
3 1023 1024 1020
3 1019 1020 1016
3 1015 1016 1012
3 1011 1012 1007
3 1006 1007 1003
3 1002 1003 999
3 998 999 995
3 994 995 991
3 990 991 987
3 986 987 983
3 982 983 979
3 978 979 975
3 974 975 971
3 970 971 967
3 966 967 963
3 962 963 959
3 958 959 955
3 954 955 951
3 947 950 951
3 947 946 950
3 945 946 942
3 941 942 938
3 937 938 934
3 933 934 930
3 929 930 926
3 925 926 922
3 921 922 918
3 917 918 914
3 913 914 910
3 909 910 905
3 904 905 901
3 900 901 897
3 896 897 893
3 892 893 889
3 888 889 885
3 884 885 881
3 880 881 877
3 876 877 873
3 872 873 869
3 868 869 865
3 864 865 861
3 860 861 857
3 856 857 853
3 852 853 849
3 845 848 849
3 845 844 848
3 844 840 843
3 839 840 836
3 835 836 832
3 831 832 828
3 827 828 824
3 823 824 820
3 819 820 816
3 815 816 812
3 811 812 808
3 807 808 804
3 803 804 799
3 798 799 795
3 794 795 791
3 790 791 787
3 786 787 783
3 782 783 779
3 778 779 775
3 774 775 771
3 770 771 767
3 766 767 763
3 762 763 759
3 758 759 755
3 754 755 751
3 750 751 747
3 743 746 747
3 743 741 746
3 742 741 738
3 737 738 734
3 733 734 730
3 729 730 726
3 725 726 722
3 721 722 718
3 717 718 714
3 713 714 710
3 709 710 706
3 705 706 702
3 701 702 697
3 696 697 693
3 692 693 689
3 688 689 685
3 684 685 681
3 680 681 677
3 676 677 673
3 672 673 669
3 668 669 665
3 664 665 661
3 660 661 657
3 656 657 653
3 652 653 649
3 648 649 645
3 644 645 641
3 637 640 641
3 637 636 640
3 635 636 632
3 631 632 628
3 624 4 2
3 623 624 620
3 628 627 631
3 632 631 635
3 636 635 640
3 641 640 644
3 645 644 648
3 649 648 652
3 653 652 656
3 657 656 660
3 661 660 664
3 665 664 668
3 669 668 672
3 673 672 676
3 677 676 680
3 681 680 684
3 685 684 688
3 689 688 692
3 693 692 696
3 697 696 701
3 702 701 705
3 706 705 709
3 710 709 713
3 714 713 717
3 718 717 721
3 722 721 725
3 726 725 729
3 730 729 733
3 734 733 737
3 738 737 742
3 741 742 746
3 747 746 750
3 751 750 754
3 755 754 758
3 759 758 762
3 763 762 766
3 767 766 770
3 771 770 774
3 775 774 778
3 779 778 782
3 783 782 786
3 787 786 790
3 791 790 794
3 795 794 798
3 799 798 803
3 804 803 807
3 808 807 811
3 812 811 815
3 816 815 819
3 820 819 823
3 824 823 827
3 828 827 831
3 832 831 835
3 836 835 839
3 840 839 843
3 844 843 848
3 849 848 852
3 853 852 856
3 857 856 860
3 861 860 864
3 865 864 868
3 869 868 872
3 873 872 876
3 877 876 880
3 881 880 884
3 885 884 888
3 889 888 892
3 893 892 896
3 897 896 900
3 901 900 904
3 905 904 909
3 910 909 913
3 914 913 917
3 918 917 921
3 922 921 925
3 926 925 929
3 930 929 933
3 934 933 937
3 938 937 941
3 942 941 945
3 946 945 950
3 951 950 954
3 955 954 958
3 959 958 962
3 963 962 966
3 967 966 970
3 971 970 974
3 975 974 978
3 979 978 982
3 983 982 986
3 987 986 990
3 991 990 994
3 995 994 998
3 999 998 1002
3 1003 1002 1006
3 1007 1006 1011
3 1012 1011 1015
3 1016 1015 1019
3 1020 1019 1023
3 1024 1023 1027
3 1028 1027 1031
3 1032 1031 1035
3 1036 1035 1039
3 1040 1039 1043
3 1044 1043 1047
3 1048 1047 1051
3 1052 1051 1056
3 1057 1056 1060
3 1061 1060 1064
3 1065 1064 1068
3 1069 1068 1072
3 1073 1072 1076
3 1077 1076 1080
3 1081 1080 1084
3 1085 1084 1088
3 1089 1088 1092
3 1093 1092 1096
3 1097 1096 1100
3 1101 1100 1104
3 1105 1104 1108
3 1109 1108 1113
3 1114 1113 1117
3 1118 1117 1121
3 1122 1121 1125
3 1126 1125 1129
3 1130 1129 1133
3 1134 1133 1137
3 1138 1137 1141
3 1142 1141 1145
3 1146 1145 1149
3 1150 1149 1153
3 1154 1153 1157
3 1162 1157 1161
3 1166 1161 1165
3 1170 1165 1169
3 1174 1169 1173
3 1178 1173 1177
3 1182 1177 1181
3 1186 1181 1185
3 1190 1185 1189
3 1194 1189 1193
3 1198 1193 1197
3 1202 1197 1201
3 1206 1201 1205
3 1210 1205 1209
3 1214 1209 1213
3 1218 1213 1217
3 1222 1217 1221
3 1226 1221 1225
3 1230 1225 1229
3 1236 1229 1233
3 1238 1233 1235
3 1239 1235 1234
3 1237 1234 1231
3 1232 1231 1227
3 1228 1227 1223
3 1224 1223 1219
3 1216 1219 1215
3 1212 1215 1211
3 1208 1211 1207
3 1204 1207 1203
3 1200 1203 1199
3 1196 1199 1195
3 1192 1195 1191
3 1188 1191 1187
3 1184 1187 1183
3 1180 1183 1179
3 1176 1179 1175
3 1172 1175 1171
3 1168 1171 1167
3 1164 1167 1163
3 1160 1163 1159
3 1156 1159 1155
3 1152 1155 1151
3 1148 1151 1147
3 1144 1147 1143
3 1140 1143 1139
3 1136 1139 1135
3 1132 1135 1131
3 1128 1131 1127
3 1124 1127 1123
3 1120 1123 1119
3 1116 1119 1115
3 1111 1115 1110
3 1107 1110 1106
3 1103 1106 1102
3 1099 1102 1098
3 1095 1098 1094
3 1091 1094 1090
3 1087 1090 1086
3 1083 1086 1082
3 1079 1082 1078
3 1075 1078 1074
3 1071 1074 1070
3 1067 1070 1066
3 1063 1066 1062
3 1059 1062 1058
3 1055 1058 1054
3 1050 1054 1049
3 1046 1049 1045
3 1042 1045 1041
3 1038 1041 1037
3 1034 1037 1033
3 1030 1033 1029
3 1026 1029 1025
3 1022 1025 1021
3 1018 1021 1017
3 1014 1017 1013
3 1009 1013 1008
3 1005 1008 1004
3 1001 1004 1000
3 997 1000 996
3 993 996 992
3 989 992 988
3 985 988 984
3 981 984 980
3 977 980 976
3 973 976 972
3 969 972 968
3 965 968 964
3 961 964 960
3 957 960 956
3 953 956 952
3 949 952 948
3 944 948 943
3 940 943 939
3 936 939 935
3 932 935 931
3 928 931 927
3 924 927 923
3 920 923 919
3 916 919 915
3 912 915 911
3 907 911 906
3 903 906 902
3 899 902 898
3 895 898 894
3 891 894 890
3 887 890 886
3 883 886 882
3 879 882 878
3 875 878 874
3 871 874 870
3 867 870 866
3 863 866 862
3 859 862 858
3 855 858 854
3 851 854 850
3 847 850 846
3 842 846 841
3 838 841 837
3 834 837 833
3 830 833 829
3 826 829 825
3 822 825 821
3 818 821 817
3 814 817 813
3 810 813 809
3 806 809 805
3 801 805 800
3 797 800 796
3 793 796 792
3 789 792 788
3 785 788 784
3 781 784 780
3 777 780 776
3 773 776 772
3 769 772 768
3 765 768 764
3 761 764 760
3 757 760 756
3 753 756 752
3 749 752 748
3 745 748 744
3 740 744 739
3 736 739 735
3 732 735 731
3 728 731 727
3 724 727 723
3 720 723 719
3 716 719 715
3 712 715 711
3 708 711 707
3 704 707 703
3 699 703 698
3 695 698 694
3 691 694 690
3 687 690 686
3 683 686 682
3 679 682 678
3 675 678 674
3 671 674 670
3 667 670 666
3 663 666 662
3 659 662 658
3 655 658 654
3 651 654 650
3 647 650 646
3 643 646 642
3 639 642 638
3 634 638 633
3 630 633 629
3 626 629 625
3 621 317 1
3 625 622 626
3 620 621 623
3 622 0 3
3 2 620 624
CELL_TYPES 1860
5
5
5
5
5
5
5
5
5
5
5
5
5
5
5
5
5
5
5
5
5
5
5
5
5
5
5
5
5
5
5
5
5
5
5
5
5
5
5
5
5
5
5
5
5
5
5
5
5
5
5
5
5
5
5
5
5
5
5
5
5
5
5
5
5
5
5
5
5
5
5
5
5
5
5
5
5
5
5
5
5
5
5
5
5
5
5
5
5
5
5
5
5
5
5
5
5
5
5
5
5
5
5
5
5
5
5
5
5
5
5
5
5
5
5
5
5
5
5
5
5
5
5
5
5
5
5
5
5
5
5
5
5
5
5
5
5
5
5
5
5
5
5
5
5
5
5
5
5
5
5
5
5
5
5
5
5
5
5
5
5
5
5
5
5
5
5
5
5
5
5
5
5
5
5
5
5
5
5
5
5
5
5
5
5
5
5
5
5
5
5
5
5
5
5
5
5
5
5
5
5
5
5
5
5
5
5
5
5
5
5
5
5
5
5
5
5
5
5
5
5
5
5
5
5
5
5
5
5
5
5
5
5
5
5
5
5
5
5
5
5
5
5
5
5
5
5
5
5
5
5
5
5
5
5
5
5
5
5
5
5
5
5
5
5
5
5
5
5
5
5
5
5
5
5
5
5
5
5
5
5
5
5
5
5
5
5
5
5
5
5
5
5
5
5
5
5
5
5
5
5
5
5
5
5
5
5
5
5
5
5
5
5
5
5
5
5
5
5
5
5
5
5
5
5
5
5
5
5
5
5
5
5
5
5
5
5
5
5
5
5
5
5
5
5
5
5
5
5
5
5
5
5
5
5
5
5
5
5
5
5
5
5
5
5
5
5
5
5
5
5
5
5
5
5
5
5
5
5
5
5
5
5
5
5
5
5
5
5
5
5
5
5
5
5
5
5
5
5
5
5
5
5
5
5
5
5
5
5
5
5
5
5
5
5
5
5
5
5
5
5
5
5
5
5
5
5
5
5
5
5
5
5
5
5
5
5
5
5
5
5
5
5
5
5
5
5
5
5
5
5
5
5
5
5
5
5
5
5
5
5
5
5
5
5
5
5
5
5
5
5
5
5
5
5
5
5
5
5
5
5
5
5
5
5
5
5
5
5
5
5
5
5
5
5
5
5
5
5
5
5
5
5
5
5
5
5
5
5
5
5
5
5
5
5
5
5
5
5
5
5
5
5
5
5
5
5
5
5
5
5
5
5
5
5
5
5
5
5
5
5
5
5
5
5
5
5
5
5
5
5
5
5
5
5
5
5
5
5
5
5
5
5
5
5
5
5
5
5
5
5
5
5
5
5
5
5
5
5
5
5
5
5
5
5
5
5
5
5
5
5
5
5
5
5
5
5
5
5
5
5
5
5
5
5
5
5
5
5
5
5
5
5
5
5
5
5
5
5
5
5
5
5
5
5
5
5
5
5
5
5
5
5
5
5
5
5
5
5
5
5
5
5
5
5
5
5
5
5
5
5
5
5
5
5
5
5
5
5
5
5
5
5
5
5
5
5
5
5
5
5
5
5
5
5
5
5
5
5
5
5
5
5
5
5
5
5
5
5
5
5
5
5
5
5
5
5
5
5
5
5
5
5
5
5
5
5
5
5
5
5
5
5
5
5
5
5
5
5
5
5
5
5
5
5
5
5
5
5
5
5
5
5
5
5
5
5
5
5
5
5
5
5
5
5
5
5
5
5
5
5
5
5
5
5
5
5
5
5
5
5
5
5
5
5
5
5
5
5
5
5
5
5
5
5
5
5
5
5
5
5
5
5
5
5
5
5
5
5
5
5
5
5
5
5
5
5
5
5
5
5
5
5
5
5
5
5
5
5
5
5
5
5
5
5
5
5
5
5
5
5
5
5
5
5
5
5
5
5
5
5
5
5
5
5
5
5
5
5
5
5
5
5
5
5
5
5
5
5
5
5
5
5
5
5
5
5
5
5
5
5
5
5
5
5
5
5
5
5
5
5
5
5
5
5
5
5
5
5
5
5
5
5
5
5
5
5
5
5
5
5
5
5
5
5
5
5
5
5
5
5
5
5
5
5
5
5
5
5
5
5
5
5
5
5
5
5
5
5
5
5
5
5
5
5
5
5
5
5
5
5
5
5
5
5
5
5
5
5
5
5
5
5
5
5
5
5
5
5
5
5
5
5
5
5
5
5
5
5
5
5
5
5
5
5
5
5
5
5
5
5
5
5
5
5
5
5
5
5
5
5
5
5
5
5
5
5
5
5
5
5
5
5
5
5
5
5
5
5
5
5
5
5
5
5
5
5
5
5
5
5
5
5
5
5
5
5
5
5
5
5
5
5
5
5
5
5
5
5
5
5
5
5
5
5
5
5
5
5
5
5
5
5
5
5
5
5
5
5
5
5
5
5
5
5
5
5
5
5
5
5
5
5
5
5
5
5
5
5
5
5
5
5
5
5
5
5
5
5
5
5
5
5
5
5
5
5
5
5
5
5
5
5
5
5
5
5
5
5
5
5
5
5
5
5
5
5
5
5
5
5
5
5
5
5
5
5
5
5
5
5
5
5
5
5
5
5
5
5
5
5
5
5
5
5
5
5
5
5
5
5
5
5
5
5
5
5
5
5
5
5
5
5
5
5
5
5
5
5
5
5
5
5
5
5
5
5
5
5
5
5
5
5
5
5
5
5
5
5
5
5
5
5
5
5
5
5
5
5
5
5
5
5
5
5
5
5
5
5
5
5
5
5
5
5
5
5
5
5
5
5
5
5
5
5
5
5
5
5
5
5
5
5
5
5
5
5
5
5
5
5
5
5
5
5
5
5
5
5
5
5
5
5
5
5
5
5
5
5
5
5
5
5
5
5
5
5
5
5
5
5
5
5
5
5
5
5
5
5
5
5
5
5
5
5
5
5
5
5
5
5
5
5
5
5
5
5
5
5
5
5
5
5
5
5
5
5
5
5
5
5
5
5
5
5
5
5
5
5
5
5
5
5
5
5
5
5
5
5
5
5
5
5
5
5
5
5
5
5
5
5
5
5
5
5
5
5
5
5
5
5
5
5
5
5
5
5
5
5
5
5
5
5
5
5
5
5
5
5
5
5
5
5
5
5
5
5
5
5
5
5
5
5
5
5
5
5
5
5
5
5
5
5
5
5
5
5
5
5
5
5
5
5
5
5
5
5
5
5
5
5
5
5
5
5
5
5
5
5
5
5
5
5
5
5
5
5
5
5
5
5
5
5
5
5
5
5
5
5
5
5
5
5
5
5
5
5
5
5
5
5
5
5
5
5
5
5
5
5
5
5
5
5
5
5
5
5
5
5
5
5
5
5
5
5
5
5
5
5
5
5
5
5
5
5
5
5
5
5
5
5
5
5
5
5
5
5
5
5
5
5
5
5
5
5
5
5
5
5
5
5
5
5
5
5
5
5
5
5
5
5
5
5
5
5
5
5
5
5
5
5
5
5
5
5
5
5
5
5
5
5
5
5
5
5
5
5
5
5
5
5
5
5
5
5
5
5
5
5
5
5
5
5
5
5
5
5
5
5
5
5
5
5
5
5
5
5
5
5
5
5
5
5
5
5
5
5
5
5
5
5
5
5
5
5
5
5
5
5
5
5
5
5
5
5
5
5
5
5
5
5
5
5
5
5
5
5
5
5
5
5
5
5
5
5
5
5
5
5
5
5
5
5
5
5
5
5
5
5
5
5
5
5
5
5
5
5
5
5
5
5
5
5
5
5
5
5
5
5
5
5
5
5
5
5
5
5
5
5
5
5
5
5
5
5
5
5
5
5
5
5
5
5
5
5
5
5
5
5
5
5
5
5
5
5
5
5
5
5
5
5
5
5
5
5
5
5
5
5
5
5
5
5
5
5
5
5
5
5
5
5
5
5
5
5
5
5
5
5
5
5
5
5
5
5
5
5
5
5
5
5
5
5
5
5
5
5
5
5
5
5
5
5
5
5
5
5
5
5
5
5
5
5
5
5
5
5
5
5
5
5
5
5
5
5
5
5
5
5
5
5
5
5
5
5
5
5
5
5
5
5
5
5
5
5
5
5
5
5
5
5
5
5
5
5
5
5
5
5
5
5
5
5
5
5
5
5
5
5
5
5
5
5
5
5
5
5
5
5
5
5
5
5
5
5
5
5
5
5
5
5
5
5
5
5
5
5
5
5
5
5
5
5
5
5
5
5
5
5
5
5
5
5
5
5
5
5
5
5
5
POINT_DATA 1240
SCALARS u1 float
LOOKUP_TABLE default
2e-06
1e-06
2e-06
2e-06
1e-06
2e-06
1e-06
2e-06
9e-07
6e-07
1e-06
2e-07
1e-06
-3e-07
1e-06
-9e-07
1e-06
-1e-06
2e-06
-2e-06
2e-06
-3e-06
2e-06
-3e-06
2e-06
-4e-06
2e-06
-5e-06
2e-06
-5e-06
2e-06
-6e-06
2e-06
-7e-06
2e-06
-8e-06
2e-06
-9e-06
2e-06
-1e-05
2e-06
2e-06
-1e-05
2e-06
-1e-05
2e-06
-1e-05
2e-06
-1e-05
1e-06
-1e-05
1e-06
-1e-05
1e-06
-1e-05
8e-07
-1e-05
6e-07
-2e-05
4e-07
-2e-05
2e-07
-2e-05
-2e-05
3e-08
-2e-05
-2e-07
-1e-05
-4e-07
-1e-05
-6e-07
-1e-05
-7e-07
-1e-05
-9e-07
-1e-05
-1e-06
-1e-05
-1e-06
-1e-05
-1e-06
-1e-05
-1e-06
-1e-05
-1e-06
-9e-06
-9e-07
-8e-06
-8e-07
-7e-06
-7e-07
-6e-06
-5e-07
-4e-07
-5e-06
-2e-07
-5e-06
9e-10
-4e-06
2e-07
-3e-06
4e-07
-3e-06
5e-07
-2e-06
7e-07
-1e-06
8e-07
-9e-07
9e-07
-3e-07
1e-06
1e-07
1e-06
6e-07
9e-07
1e-06
1e-06
1e-06
1e-06
1e-06
2e-06
9e-07
2e-06
7e-07
2e-06
6e-07
2e-06
4e-07
2e-06
2e-07
1e-06
-3e-08
1e-06
-2e-07
1e-06
-4e-07
1e-06
-6e-07
1e-06
-8e-07
2e-06
-1e-06
2e-06
-1e-06
2e-06
-1e-06
-2e-06
2e-06
-2e-06
2e-06
-2e-06
2e-06
-2e-06
2e-06
-2e-06
2e-06
-2e-06
2e-06
-2e-06
2e-06
-2e-06
2e-06
-2e-06
2e-06
-2e-06
2e-06
2e-06
-2e-06
2e-06
-2e-06
1e-06
-2e-06
1e-06
-2e-06
1e-06
-2e-06
8e-07
-1e-06
6e-07
-1e-06
4e-07
-1e-06
2e-07
-1e-06
3e-08
-1e-06
-2e-07
-2e-06
-4e-07
-2e-06
-6e-07
-2e-06
-7e-07
-2e-06
-9e-07
-2e-06
-1e-06
-1e-06
-1e-06
-1e-06
-9e-07
-1e-06
-6e-07
-1e-06
-1e-07
-1e-06
3e-07
-9e-07
9e-07
-8e-07
1e-06
-7e-07
2e-06
-5e-07
3e-06
-4e-07
3e-06
-2e-07
4e-06
-8e-10
5e-06
2e-07
5e-06
4e-07
6e-06
5e-07
7e-06
7e-07
8e-06
8e-07
9e-06
9e-07
1e-05
1e-06
1e-05
1e-06
1e-05
1e-06
1e-05
1e-06
1e-05
1e-06
1e-05
9e-07
1e-05
7e-07
1e-05
6e-07
1e-05
4e-07
2e-05
2e-07
2e-05
-3e-08
2e-05
-2e-07
2e-05
-4e-07
2e-05
-6e-07
1e-05
-8e-07
1e-05
-1e-06
1e-05
-1e-06
1e-05
-1e-06
1e-05
-2e-06
1e-05
-2e-06
1e-05
-2e-06
1e-05
-2e-06
1e-05
-2e-06
9e-06
-2e-06
8e-06
-2e-06
7e-06
-2e-06
6e-06
-2e-06
5e-06
-2e-06
5e-06
-2e-06
4e-06
-2e-06
3e-06
-2e-06
3e-06
-2e-06
2e-06
-2e-06
1e-06
-2e-06
9e-07
-1e-06
3e-07
-1e-06
-2e-07
-1e-06
-6e-07
-1e-06
-9e-07
-2e-06
-1e-06
-2e-06
-1e-06
-2e-06
-2e-06
-2e-06
2e-06
1e-06
2e-06
9e-07
2e-06
5e-07
2e-06
1e-07
2e-06
-4e-07
1e-06
-9e-07
1e-06
-2e-06
1e-06
-2e-06
1e-06
-3e-06
2e-06
-3e-06
2e-06
-4e-06
2e-06
-5e-06
2e-06
-6e-06
2e-06
-6e-06
2e-06
-7e-06
2e-06
-8e-06
2e-06
-9e-06
3e-06
-1e-05
3e-06
-1e-05
3e-06
-1e-05
3e-06
-1e-05
3e-06
-1e-05
2e-06
-1e-05
2e-06
-1e-05
2e-06
-1e-05
2e-06
-1e-05
2e-06
-2e-05
2e-06
-2e-05
2e-06
-2e-05
1e-06
-2e-05
1e-06
-2e-05
1e-06
-1e-05
1e-06
-1e-05
1e-06
-1e-05
8e-07
-1e-05
7e-07
-1e-05
6e-07
-1e-05
5e-07
-1e-05
3e-07
-1e-05
2e-07
-1e-05
2e-07
-9e-06
1e-07
-8e-06
7e-08
-7e-06
4e-08
-6e-06
3e-08
-6e-06
2e-08
-5e-06
1e-09
-4e-06
-1e-08
-3e-06
-2e-08
-3e-06
-4e-08
-2e-06
-6e-08
-2e-06
-1e-07
-1e-06
-2e-07
-4e-07
-2e-07
9e-08
-3e-07
5e-07
-4e-07
9e-07
-6e-07
1e-06
-7e-07
1e-06
-8e-07
2e-06
-1e-06
2e-06
-1e-06
2e-06
-1e-06
2e-06
-1e-06
2e-06
-1e-06
1e-06
-2e-06
1e-06
-2e-06
1e-06
-2e-06
1e-06
-2e-06
2e-06
-2e-06
2e-06
-2e-06
2e-06
-2e-06
2e-06
-3e-06
2e-06
-3e-06
2e-06
-3e-06
2e-06
-3e-06
2e-06
-3e-06
3e-06
-2e-06
3e-06
-2e-06
3e-06
-2e-06
3e-06
-2e-06
3e-06
-2e-06
2e-06
-2e-06
2e-06
-2e-06
2e-06
-2e-06
2e-06
-1e-06
2e-06
-1e-06
2e-06
-1e-06
2e-06
-1e-06
1e-06
-2e-06
1e-06
-2e-06
1e-06
-2e-06
1e-06
-2e-06
1e-06
-2e-06
8e-07
-1e-06
7e-07
-1e-06
6e-07
-9e-07
4e-07
-5e-07
3e-07
-1e-07
2e-07
4e-07
2e-07
9e-07
1e-07
2e-06
6e-08
2e-06
4e-08
3e-06
2e-08
3e-06
1e-08
4e-06
-3e-10
5e-06
-2e-08
6e-06
-3e-08
6e-06
-4e-08
7e-06
-7e-08
8e-06
-1e-07
9e-06
-2e-07
1e-05
-2e-07
1e-05
-3e-07
1e-05
-5e-07
1e-05
-6e-07
1e-05
-7e-07
1e-05
-8e-07
1e-05
-1e-06
1e-05
-1e-06
1e-05
-1e-06
2e-05
-1e-06
2e-05
-1e-06
2e-05
-2e-06
2e-05
-2e-06
2e-05
-2e-06
1e-05
-2e-06
1e-05
-2e-06
1e-05
-2e-06
1e-05
-2e-06
1e-05
-3e-06
1e-05
-3e-06
1e-05
-3e-06
1e-05
-3e-06
1e-05
-3e-06
9e-06
-2e-06
8e-06
-2e-06
7e-06
-2e-06
6e-06
-2e-06
6e-06
-2e-06
5e-06
-2e-06
4e-06
-2e-06
3e-06
-2e-06
3e-06
-1e-06
2e-06
-1e-06
2e-06
-1e-06
9e-07
-1e-06
4e-07
-2e-06
-1e-07
-2e-06
-5e-07
-2e-06
-9e-07
-2e-06
-1e-06
-1e-06
-2e-06
2e-06
2e-06
2e-06
1e-06
1e-06
2e-06
2e-06
1e-06
1e-06
2e-06
2e-06
9e-07
9e-07
2e-06
2e-06
5e-07
5e-07
2e-07
2e-06
1e-06
7e-08
-2e-07
1e-06
1e-06
-5e-07
-7e-07
1e-06
1e-06
-1e-06
-1e-06
1e-06
1e-06
-2e-06
-2e-06
1e-06
2e-06
-2e-06
-2e-06
2e-06
2e-06
-3e-06
-3e-06
2e-06
2e-06
-4e-06
-4e-06
2e-06
2e-06
-4e-06
-4e-06
2e-06
2e-06
-5e-06
-5e-06
2e-06
2e-06
-6e-06
-6e-06
2e-06
2e-06
-7e-06
-7e-06
2e-06
2e-06
-7e-06
-8e-06
2e-06
2e-06
-8e-06
-9e-06
3e-06
3e-06
-9e-06
-9e-06
3e-06
2e-06
-1e-05
-1e-05
3e-06
2e-06
2e-06
-1e-05
-1e-05
2e-06
2e-06
-1e-05
-1e-05
2e-06
2e-06
-1e-05
-1e-05
2e-06
2e-06
-1e-05
-1e-05
2e-06
2e-06
-1e-05
-1e-05
2e-06
2e-06
-1e-05
-1e-05
2e-06
1e-06
-1e-05
-1e-05
2e-06
1e-06
-2e-05
-2e-05
1e-06
1e-06
-2e-05
-2e-05
1e-06
8e-07
-2e-05
-2e-05
1e-06
6e-07
-2e-05
-2e-05
-2e-05
1e-06
4e-07
-2e-05
-2e-05
8e-07
2e-07
-2e-05
-1e-05
7e-07
6e-08
-1e-05
-1e-05
5e-07
-1e-07
-1e-05
-1e-05
4e-07
-3e-07
-1e-05
-1e-05
2e-07
-4e-07
-1e-05
-1e-05
1e-07
-5e-07
-1e-05
-1e-05
-3e-09
-6e-07
-1e-05
-1e-05
-9e-08
-6e-07
-1e-05
-1e-05
-1e-07
-6e-07
-1e-05
-9e-06
-2e-07
-6e-07
-9e-06
-9e-06
-2e-07
-5e-07
-8e-06
-8e-06
-2e-07
-4e-07
-7e-06
-7e-06
-2e-07
-4e-07
-7e-06
-6e-06
-1e-07
-3e-07
-2e-07
-6e-06
-5e-06
-1e-07
-9e-08
-5e-06
-4e-06
-2e-08
4e-08
-4e-06
-4e-06
4e-08
2e-07
-4e-06
-3e-06
9e-08
3e-07
-3e-06
-2e-06
1e-07
4e-07
-2e-06
-2e-06
2e-07
5e-07
-2e-06
-1e-06
2e-07
5e-07
-1e-06
-7e-07
2e-07
6e-07
-5e-07
-2e-07
2e-07
6e-07
-3e-08
3e-07
2e-07
6e-07
4e-07
7e-07
1e-06
9e-08
6e-07
9e-07
1e-06
1e-08
5e-07
1e-06
1e-06
-9e-08
4e-07
1e-06
2e-06
-2e-07
3e-07
2e-06
2e-06
-4e-07
1e-07
2e-06
2e-06
-5e-07
-5e-08
2e-06
2e-06
-6e-07
-2e-07
2e-06
2e-06
-8e-07
-4e-07
2e-06
1e-06
-1e-06
-6e-07
1e-06
1e-06
-1e-06
-8e-07
1e-06
1e-06
-1e-06
-1e-06
1e-06
1e-06
-1e-06
-1e-06
1e-06
2e-06
-2e-06
-1e-06
2e-06
2e-06
-2e-06
-2e-06
2e-06
2e-06
-2e-06
-2e-06
2e-06
2e-06
-2e-06
-2e-06
-2e-06
2e-06
2e-06
-2e-06
-2e-06
2e-06
2e-06
-2e-06
-2e-06
2e-06
2e-06
-3e-06
-2e-06
2e-06
2e-06
-3e-06
-2e-06
2e-06
2e-06
-3e-06
-3e-06
3e-06
3e-06
-3e-06
-2e-06
3e-06
2e-06
-2e-06
-2e-06
3e-06
2e-06
-2e-06
-2e-06
3e-06
2e-06
-2e-06
-2e-06
2e-06
2e-06
2e-06
-2e-06
-2e-06
2e-06
2e-06
-2e-06
-2e-06
2e-06
2e-06
-2e-06
-2e-06
2e-06
2e-06
-2e-06
-2e-06
2e-06
1e-06
-2e-06
-2e-06
2e-06
1e-06
-1e-06
-1e-06
1e-06
1e-06
-1e-06
-1e-06
1e-06
8e-07
-1e-06
-1e-06
1e-06
6e-07
-1e-06
-1e-06
1e-06
4e-07
-2e-06
-2e-06
8e-07
2e-07
-2e-06
-2e-06
6e-07
5e-08
-2e-06
-2e-06
5e-07
-1e-07
-2e-06
-2e-06
4e-07
-3e-07
-2e-06
-2e-06
2e-07
-4e-07
-1e-06
-1e-06
1e-07
-5e-07
-1e-06
-1e-06
-1e-06
-7e-09
-6e-07
-9e-07
-7e-07
-9e-08
-6e-07
-4e-07
-3e-07
-2e-07
-6e-07
3e-08
2e-07
-2e-07
-6e-07
5e-07
7e-07
-2e-07
-5e-07
1e-06
1e-06
-2e-07
-5e-07
2e-06
2e-06
-2e-07
-4e-07
2e-06
2e-06
-1e-07
-3e-07
3e-06
3e-06
-9e-08
-2e-07
4e-06
4e-06
-4e-08
-4e-08
4e-06
4e-06
2e-08
9e-08
2e-07
5e-06
5e-06
9e-08
3e-07
6e-06
6e-06
1e-07
4e-07
7e-06
7e-06
2e-07
4e-07
7e-06
8e-06
2e-07
5e-07
8e-06
9e-06
2e-07
6e-07
9e-06
9e-06
2e-07
6e-07
1e-05
1e-05
2e-07
6e-07
1e-05
1e-05
9e-08
6e-07
1e-05
1e-05
5e-09
5e-07
1e-05
1e-05
-1e-07
4e-07
1e-05
1e-05
-2e-07
3e-07
1e-05
1e-05
-4e-07
1e-07
1e-05
1e-05
-5e-07
-5e-08
1e-05
1e-05
-7e-07
-2e-07
2e-05
2e-05
2e-05
-8e-07
-4e-07
2e-05
2e-05
-1e-06
-6e-07
2e-05
2e-05
-1e-06
-8e-07
2e-05
2e-05
-1e-06
-1e-06
2e-05
2e-05
-1e-06
-1e-06
2e-05
1e-05
-2e-06
-1e-06
1e-05
1e-05
-2e-06
-2e-06
1e-05
1e-05
-2e-06
-2e-06
1e-05
1e-05
-2e-06
-2e-06
1e-05
1e-05
-2e-06
-2e-06
1e-05
1e-05
-2e-06
-2e-06
1e-05
1e-05
-2e-06
-2e-06
1e-05
1e-05
-3e-06
-2e-06
1e-05
9e-06
-3e-06
-2e-06
9e-06
9e-06
-3e-06
-3e-06
8e-06
8e-06
-2e-06
-2e-06
7e-06
7e-06
-2e-06
-2e-06
7e-06
6e-06
-2e-06
-2e-06
6e-06
5e-06
-2e-06
-2e-06
5e-06
4e-06
-2e-06
-2e-06
4e-06
4e-06
-2e-06
-2e-06
4e-06
3e-06
-2e-06
-2e-06
3e-06
2e-06
-2e-06
-2e-06
2e-06
2e-06
-1e-06
-2e-06
2e-06
1e-06
-1e-06
-1e-06
1e-06
7e-07
-1e-06
-1e-06
5e-07
2e-07
-1e-06
-1e-06
-7e-08
-2e-07
-2e-06
-1e-06
-5e-07
-6e-07
-2e-06
-2e-06
-9e-07
-9e-07
-2e-06
-2e-06
-1e-06
-1e-06
-2e-06
-1e-06
-2e-06
-2e-06
-1e-06
-2e-06
-2e-06
SCALARS u2 float
LOOKUP_TABLE default
2e-06
3e-06
2e-06
2e-06
2e-06
2e-06
2e-06
2e-06
2e-06
2e-06
2e-06
2e-06
2e-06
1e-06
2e-06
1e-06
2e-06
1e-06
2e-06
8e-07
2e-06
6e-07
1e-06
4e-07
1e-06
2e-07
1e-06
3e-08
1e-06
-2e-07
2e-06
-4e-07
2e-06
-6e-07
2e-06
-7e-07
2e-06
-9e-07
2e-06
-1e-06
1e-06
1e-06
-1e-06
9e-07
-1e-06
6e-07
-1e-06
2e-07
-1e-06
-3e-07
-9e-07
-9e-07
-8e-07
-1e-06
-7e-07
-2e-06
-5e-07
-3e-06
-4e-07
-3e-06
-2e-07
-4e-06
3e-09
2e-07
-5e-06
4e-07
-5e-06
5e-07
-6e-06
7e-07
-7e-06
8e-07
-8e-06
9e-07
-9e-06
1e-06
-1e-05
1e-06
-1e-05
1e-06
-1e-05
1e-06
-1e-05
1e-06
-1e-05
9e-07
-1e-05
7e-07
-1e-05
6e-07
-1e-05
4e-07
-1e-05
-2e-05
2e-07
-2e-05
-3e-08
-2e-05
-2e-07
-2e-05
-4e-07
-2e-05
-6e-07
-1e-05
-8e-07
-1e-05
-1e-06
-1e-05
-1e-06
-1e-05
-1e-06
-1e-05
-2e-06
-1e-05
-2e-06
-2e-06
-1e-05
-2e-06
-1e-05
-2e-06
-1e-05
-2e-06
-9e-06
-2e-06
-8e-06
-2e-06
-7e-06
-2e-06
-6e-06
-2e-06
-5e-06
-2e-06
-5e-06
-2e-06
-4e-06
-2e-06
-3e-06
-2e-06
-3e-06
-2e-06
-2e-06
-1e-06
-1e-06
-1e-06
-9e-07
-1e-06
-3e-07
1e-07
-1e-06
6e-07
-1e-06
9e-07
-2e-06
1e-06
-2e-06
1e-06
-2e-06
2e-06
-2e-06
2e-06
-2e-06
2e-06
-1e-06
2e-06
-1e-06
2e-06
-9e-07
-6e-07
1e-06
-1e-07
1e-06
3e-07
1e-06
9e-07
1e-06
1e-06
1e-06
2e-06
2e-06
3e-06
2e-06
3e-06
2e-06
4e-06
2e-06
5e-06
2e-06
5e-06
2e-06
6e-06
2e-06
7e-06
2e-06
8e-06
2e-06
9e-06
2e-06
1e-05
2e-06
2e-06
1e-05
2e-06
1e-05
2e-06
1e-05
2e-06
1e-05
1e-06
1e-05
1e-06
1e-05
1e-06
1e-05
8e-07
1e-05
6e-07
2e-05
4e-07
2e-05
2e-07
2e-05
3e-08
2e-05
-2e-07
2e-05
-4e-07
1e-05
-6e-07
1e-05
-7e-07
1e-05
-9e-07
1e-05
-1e-06
1e-05
-1e-06
1e-05
-1e-06
1e-05
-1e-06
1e-05
-1e-06
1e-05
-9e-07
9e-06
-8e-07
8e-06
-7e-07
7e-06
-5e-07
6e-06
-4e-07
5e-06
-2e-07
5e-06
-3e-09
4e-06
2e-07
3e-06
4e-07
3e-06
5e-07
2e-06
7e-07
1e-06
8e-07
9e-07
9e-07
3e-07
1e-06
-2e-07
1e-06
-6e-07
1e-06
-9e-07
1e-06
-1e-06
1e-06
-1e-06
9e-07
-2e-06
7e-07
-2e-06
6e-07
-2e-06
4e-07
-2e-06
2e-07
-2e-06
-3e-08
-1e-06
-2e-07
-1e-06
-4e-07
-1e-06
-6e-07
-1e-06
-8e-07
-2e-06
-1e-06
-2e-06
-1e-06
-2e-06
-1e-06
-2e-06
-2e-06
-2e-06
-2e-06
-2e-06
-2e-06
-2e-06
-2e-06
-2e-06
-2e-06
-2e-06
-2e-06
-2e-06
2e-06
3e-06
2e-06
3e-06
2e-06
3e-06
2e-06
3e-06
2e-06
2e-06
2e-06
2e-06
2e-06
2e-06
2e-06
2e-06
1e-06
2e-06
1e-06
2e-06
1e-06
2e-06
1e-06
1e-06
2e-06
1e-06
2e-06
1e-06
2e-06
1e-06
2e-06
1e-06
2e-06
8e-07
1e-06
7e-07
1e-06
6e-07
9e-07
5e-07
5e-07
3e-07
1e-07
3e-07
-4e-07
2e-07
-9e-07
1e-07
-2e-06
7e-08
-2e-06
4e-08
-3e-06
3e-08
-3e-06
2e-08
-4e-06
4e-09
-5e-06
-1e-08
-6e-06
-2e-08
-6e-06
-4e-08
-7e-06
-6e-08
-8e-06
-1e-07
-9e-06
-2e-07
-1e-05
-2e-07
-1e-05
-3e-07
-1e-05
-4e-07
-1e-05
-6e-07
-1e-05
-7e-07
-1e-05
-8e-07
-1e-05
-1e-06
-1e-05
-1e-06
-1e-05
-1e-06
-2e-05
-1e-06
-2e-05
-1e-06
-2e-05
-2e-06
-2e-05
-2e-06
-2e-05
-2e-06
-1e-05
-2e-06
-1e-05
-2e-06
-1e-05
-2e-06
-1e-05
-2e-06
-1e-05
-3e-06
-1e-05
-3e-06
-1e-05
-3e-06
-1e-05
-3e-06
-1e-05
-3e-06
-9e-06
-2e-06
-8e-06
-2e-06
-7e-06
-2e-06
-6e-06
-2e-06
-6e-06
-2e-06
-5e-06
-2e-06
-4e-06
-2e-06
-3e-06
-2e-06
-3e-06
-1e-06
-2e-06
-1e-06
-2e-06
-1e-06
-9e-07
-1e-06
-4e-07
-2e-06
9e-08
-2e-06
5e-07
-2e-06
9e-07
-2e-06
1e-06
-2e-06
1e-06
-1e-06
2e-06
-1e-06
2e-06
-9e-07
2e-06
-5e-07
2e-06
-1e-07
2e-06
4e-07
1e-06
9e-07
1e-06
2e-06
1e-06
2e-06
1e-06
3e-06
2e-06
3e-06
2e-06
4e-06
2e-06
5e-06
2e-06
6e-06
2e-06
6e-06
2e-06
7e-06
2e-06
8e-06
2e-06
9e-06
3e-06
1e-05
3e-06
1e-05
3e-06
1e-05
3e-06
1e-05
3e-06
1e-05
2e-06
1e-05
2e-06
1e-05
2e-06
1e-05
2e-06
1e-05
2e-06
2e-05
2e-06
2e-05
2e-06
2e-05
1e-06
2e-05
1e-06
2e-05
1e-06
1e-05
1e-06
1e-05
1e-06
1e-05
8e-07
1e-05
7e-07
1e-05
6e-07
1e-05
4e-07
1e-05
3e-07
1e-05
2e-07
1e-05
2e-07
9e-06
1e-07
8e-06
6e-08
7e-06
4e-08
6e-06
2e-08
6e-06
1e-08
5e-06
-3e-09
4e-06
-2e-08
3e-06
-3e-08
3e-06
-4e-08
2e-06
-6e-08
2e-06
-1e-07
9e-07
-2e-07
4e-07
-2e-07
-1e-07
-3e-07
-5e-07
-5e-07
-9e-07
-6e-07
-1e-06
-7e-07
-1e-06
-8e-07
-2e-06
-1e-06
-2e-06
-1e-06
-2e-06
-1e-06
-2e-06
-1e-06
-2e-06
-1e-06
-1e-06
-2e-06
-1e-06
-2e-06
-1e-06
-2e-06
-1e-06
-2e-06
-2e-06
-2e-06
-2e-06
-2e-06
-2e-06
-2e-06
-2e-06
-3e-06
-2e-06
-3e-06
-2e-06
-3e-06
-2e-06
-3e-06
-3e-06
-2e-06
3e-06
3e-06
2e-06
3e-06
2e-06
2e-06
2e-06
3e-06
2e-06
2e-06
2e-06
3e-06
2e-06
2e-06
2e-06
2e-06
2e-06
2e-06
2e-06
2e-06
2e-06
2e-06
2e-06
2e-06
2e-06
2e-06
2e-06
2e-06
2e-06
2e-06
2e-06
2e-06
2e-06
1e-06
2e-06
2e-06
2e-06
1e-06
1e-06
1e-06
1e-06
1e-06
1e-06
1e-06
1e-06
8e-07
1e-06
1e-06
1e-06
6e-07
1e-06
1e-06
1e-06
4e-07
2e-06
2e-06
8e-07
2e-07
2e-06
2e-06
6e-07
6e-08
2e-06
2e-06
5e-07
-1e-07
2e-06
2e-06
4e-07
-3e-07
2e-06
2e-06
2e-07
-4e-07
1e-06
1e-06
1e-07
-5e-07
1e-06
1e-06
1e-06
-3e-09
-6e-07
9e-07
7e-07
-8e-08
-6e-07
4e-07
3e-07
-1e-07
-6e-07
-1e-08
-2e-07
-2e-07
-6e-07
-5e-07
-7e-07
-2e-07
-5e-07
-1e-06
-1e-06
-2e-07
-5e-07
-2e-06
-2e-06
-2e-07
-4e-07
-2e-06
-2e-06
-1e-07
-3e-07
-3e-06
-3e-06
-9e-08
-2e-07
-4e-06
-4e-06
-3e-08
-3e-08
-4e-06
-4e-06
1e-07
3e-08
2e-07
-5e-06
-5e-06
1e-07
3e-07
-6e-06
-6e-06
1e-07
4e-07
-7e-06
-7e-06
2e-07
5e-07
-7e-06
-8e-06
2e-07
5e-07
-8e-06
-9e-06
2e-07
6e-07
-9e-06
-9e-06
2e-07
6e-07
-1e-05
-1e-05
2e-07
6e-07
-1e-05
-1e-05
9e-08
6e-07
-1e-05
-1e-05
1e-08
5e-07
-1e-05
-1e-05
-9e-08
4e-07
-1e-05
-1e-05
-2e-07
3e-07
-1e-05
-1e-05
-4e-07
1e-07
-1e-05
-1e-05
-5e-07
-6e-08
-1e-05
-1e-05
-6e-07
-2e-07
-2e-05
-2e-05
-2e-05
-8e-07
-4e-07
-2e-05
-2e-05
-1e-06
-6e-07
-2e-05
-2e-05
-1e-06
-8e-07
-2e-05
-2e-05
-1e-06
-1e-06
-2e-05
-2e-05
-1e-06
-1e-06
-2e-05
-1e-05
-2e-06
-1e-06
-1e-05
-1e-05
-2e-06
-2e-06
-1e-05
-1e-05
-2e-06
-2e-06
-1e-05
-1e-05
-2e-06
-2e-06
-1e-05
-1e-05
-2e-06
-2e-06
-1e-05
-1e-05
-2e-06
-2e-06
-2e-06
-1e-05
-1e-05
-2e-06
-2e-06
-1e-05
-1e-05
-3e-06
-2e-06
-1e-05
-9e-06
-3e-06
-3e-06
-9e-06
-9e-06
-3e-06
-2e-06
-8e-06
-8e-06
-2e-06
-2e-06
-7e-06
-7e-06
-2e-06
-2e-06
-7e-06
-6e-06
-2e-06
-2e-06
-6e-06
-5e-06
-2e-06
-2e-06
-5e-06
-4e-06
-2e-06
-2e-06
-4e-06
-4e-06
-2e-06
-2e-06
-4e-06
-3e-06
-2e-06
-2e-06
-3e-06
-2e-06
-2e-06
-2e-06
-2e-06
-2e-06
-1e-06
-1e-06
-2e-06
-1e-06
-1e-06
-1e-06
-1e-06
-7e-07
-1e-06
-1e-06
-5e-07
-2e-07
2e-07
-1e-06
-1e-06
6e-08
6e-07
-2e-06
-2e-06
5e-07
9e-07
-2e-06
-2e-06
9e-07
1e-06
-2e-06
-2e-06
1e-06
1e-06
-2e-06
-2e-06
1e-06
2e-06
-2e-06
-2e-06
2e-06
2e-06
-1e-06
-1e-06
2e-06
2e-06
-1e-06
-1e-06
2e-06
2e-06
-9e-07
-9e-07
2e-06
2e-06
-5e-07
-5e-07
-2e-07
2e-06
1e-06
-7e-08
2e-07
1e-06
1e-06
5e-07
7e-07
1e-06
1e-06
1e-06
1e-06
1e-06
1e-06
2e-06
2e-06
1e-06
2e-06
2e-06
2e-06
2e-06
2e-06
3e-06
3e-06
2e-06
2e-06
4e-06
4e-06
2e-06
2e-06
4e-06
4e-06
2e-06
2e-06
5e-06
5e-06
2e-06
2e-06
6e-06
6e-06
2e-06
2e-06
7e-06
7e-06
2e-06
2e-06
7e-06
8e-06
2e-06
2e-06
8e-06
9e-06
3e-06
3e-06
9e-06
9e-06
3e-06
2e-06
1e-05
1e-05
3e-06
2e-06
2e-06
1e-05
1e-05
2e-06
2e-06
1e-05
1e-05
2e-06
2e-06
1e-05
1e-05
2e-06
2e-06
1e-05
1e-05
2e-06
2e-06
1e-05
1e-05
2e-06
2e-06
1e-05
1e-05
2e-06
1e-06
1e-05
1e-05
2e-06
1e-06
2e-05
2e-05
1e-06
1e-06
2e-05
2e-05
1e-06
8e-07
2e-05
2e-05
1e-06
6e-07
2e-05
2e-05
2e-05
1e-06
4e-07
2e-05
2e-05
8e-07
2e-07
2e-05
1e-05
7e-07
5e-08
1e-05
1e-05
5e-07
-1e-07
1e-05
1e-05
4e-07
-3e-07
1e-05
1e-05
2e-07
-4e-07
1e-05
1e-05
1e-07
-5e-07
1e-05
1e-05
-5e-09
-6e-07
1e-05
1e-05
-9e-08
-6e-07
1e-05
1e-05
-2e-07
-6e-07
1e-05
9e-06
-2e-07
-6e-07
9e-06
9e-06
-2e-07
-5e-07
8e-06
8e-06
-2e-07
-5e-07
7e-06
7e-06
-2e-07
-4e-07
7e-06
6e-06
-1e-07
-3e-07
-2e-07
6e-06
5e-06
-1e-07
-9e-08
5e-06
4e-06
-3e-08
3e-08
4e-06
4e-06
3e-08
2e-07
4e-06
3e-06
9e-08
3e-07
3e-06
2e-06
1e-07
4e-07
2e-06
2e-06
2e-07
4e-07
2e-06
1e-06
2e-07
5e-07
1e-06
7e-07
2e-07
6e-07
5e-07
2e-07
2e-07
6e-07
3e-08
-3e-07
1e-07
6e-07
-4e-07
-7e-07
8e-08
6e-07
-9e-07
-1e-06
2e-09
5e-07
-1e-06
-1e-06
-1e-07
4e-07
-1e-06
-1e-06
-2e-07
3e-07
-2e-06
-2e-06
-4e-07
1e-07
-2e-06
-2e-06
-5e-07
-6e-08
-2e-06
-2e-06
-7e-07
-2e-07
-2e-06
-2e-06
-8e-07
-4e-07
-2e-06
-2e-06
-1e-06
-6e-07
-1e-06
-1e-06
-1e-06
-8e-07
-1e-06
-1e-06
-1e-06
-1e-06
-1e-06
-1e-06
-1e-06
-1e-06
-1e-06
-1e-06
-2e-06
-1e-06
-2e-06
-2e-06
-2e-06
-2e-06
-2e-06
-2e-06
-2e-06
-2e-06
-2e-06
-2e-06
-2e-06
-2e-06
-2e-06
-2e-06
-2e-06
-2e-06
-2e-06
-2e-06
-2e-06
-2e-06
-2e-06
-2e-06
-3e-06
-2e-06
-2e-06
-2e-06
-3e-06
-2e-06
-2e-06
-3e-06
-3e-06
-2e-06
-2e-06
-2e-06
-3e-06
SCALARS strain_1 float
LOOKUP_TABLE default
-0.000001
-0.000000
-0.000001
-0.000000
-0.000000
0.000001
0.000000
0.000001
0.000000
0.000000
0.000000
0.000000
0.000000
0.000002
0.000002
0.000002
0.000003
0.000002
0.000002
0.000002
0.000003
0.000004
0.000005
0.000005
0.000006
0.000005
0.000006
0.000006
0.000007
0.000009
0.000009
0.000012
0.000011
0.000013
0.000012
0.000015
0.000013
0.000017
0.000013
0.000018
0.000014
0.000019
0.000014
0.000020
0.000012
0.000020
0.000013
0.000019
0.000012
0.000017
0.000012
0.000016
0.000013
0.000017
0.000014
0.000018
0.000014
0.000018
0.000015
0.000019
0.000016
0.000020
0.000016
0.000021
0.000016
0.000021
0.000016
0.000020
0.000016
0.000019
0.000016
0.000017
0.000015
0.000014
0.000014
0.000011
0.000013
0.000008
0.000013
0.000006
0.000012
0.000003
0.000011
0.000001
0.000011
-0.000000
0.000011
0.000000
0.000011
0.000000
0.000011
-0.000001
0.000011
-0.000001
0.000011
-0.000003
0.000011
-0.000002
0.000011
-0.000001
0.000011
-0.000000
0.000011
0.000000
0.000011
0.000000
0.000011
-0.000000
0.000011
0.000000
0.000011
0.000003
0.000012
0.000006
0.000013
0.000008
0.000014
0.000011
0.000014
0.000014
0.000015
0.000017
0.000016
0.000019
0.000016
0.000020
0.000016
0.000021
0.000016
0.000021
0.000016
0.000020
0.000016
0.000019
0.000015
0.000018
0.000014
0.000018
0.000014
0.000017
0.000013
0.000016
0.000013
0.000017
0.000012
0.000018
0.000014
0.000019
0.000014
0.000019
0.000014
0.000019
0.000014
0.000018
0.000013
0.000017
0.000013
0.000015
0.000012
0.000013
0.000011
0.000012
0.000009
0.000009
0.000007
0.000006
0.000006
0.000005
0.000006
0.000005
0.000005
0.000004
0.000003
0.000002
0.000002
0.000002
0.000003
0.000002
0.000002
0.000002
0.000000
0.000000
0.000000
0.000000
0.000000
0.000001
0.000000
0.000001
0.000000
0.000001
-0.000000
0.000000
0.000000
-0.000001
-0.000001
-0.000002
0.000001
-0.000003
0.000000
-0.000003
-0.000000
-0.000003
-0.000002
-0.000004
-0.000004
-0.000005
-0.000004
-0.000005
-0.000003
-0.000005
-0.000005
-0.000006
-0.000005
-0.000007
-0.000005
-0.000007
-0.000005
-0.000007
-0.000005
-0.000007
-0.000005
-0.000007
-0.000005
-0.000006
-0.000005
-0.000005
-0.000005
-0.000004
-0.000006
-0.000003
-0.000006
-0.000002
-0.000005
-0.000000
-0.000006
-0.000000
-0.000008
-0.000000
-0.000007
0.000000
-0.000005
0.000001
-0.000006
0.000001
-0.000006
0.000001
-0.000007
0.000002
-0.000008
0.000001
-0.000007
0.000001
-0.000005
0.000001
-0.000005
0.000000
-0.000005
0.000000
-0.000007
-0.000000
-0.000008
-0.000000
-0.000006
-0.000000
-0.000005
-0.000002
-0.000006
-0.000003
-0.000006
-0.000004
-0.000005
-0.000005
-0.000005
-0.000006
-0.000005
-0.000007
-0.000005
-0.000007
-0.000005
-0.000007
-0.000005
-0.000007
-0.000005
-0.000007
-0.000005
-0.000006
-0.000005
-0.000005
-0.000003
-0.000005
-0.000004
-0.000005
-0.000004
-0.000004
-0.000002
-0.000002
0.000000
-0.000002
-0.000001
-0.000002
-0.000001
-0.000001
-0.000001
-0.000000
-0.000001
0.000000
-0.000000
0.000001
-0.000000
0.000001
0.000000
0.000001
0.000000
0.000000
0.000000
0.000000
0.000000
0.000002
0.000002
0.000002
0.000003
0.000002
0.000002
0.000002
0.000003
0.000004
0.000005
0.000005
0.000006
0.000005
0.000006
0.000006
0.000007
0.000009
0.000009
0.000012
0.000011
0.000013
0.000012
0.000015
0.000013
0.000017
0.000013
0.000018
0.000014
0.000019
0.000014
0.000020
0.000012
0.000020
0.000013
0.000019
0.000012
0.000018
0.000012
0.000016
0.000013
0.000017
0.000014
0.000018
0.000014
0.000018
0.000015
0.000019
0.000016
0.000020
0.000016
0.000021
0.000016
0.000021
0.000016
0.000020
0.000016
0.000019
0.000016
0.000017
0.000015
0.000014
0.000014
0.000011
0.000013
0.000008
0.000013
0.000006
0.000012
0.000003
0.000011
0.000000
0.000011
-0.000000
0.000011
0.000000
0.000011
0.000001
0.000011
-0.000001
0.000011
-0.000001
0.000011
-0.000003
0.000011
-0.000002
0.000011
-0.000001
0.000011
-0.000000
0.000011
0.000000
0.000011
0.000000
0.000011
-0.000000
0.000011
0.000001
0.000011
0.000003
0.000012
0.000006
0.000013
0.000008
0.000013
0.000011
0.000014
0.000014
0.000015
0.000017
0.000016
0.000019
0.000016
0.000020
0.000016
0.000021
0.000016
0.000021
0.000016
0.000020
0.000016
0.000019
0.000015
0.000018
0.000014
0.000018
0.000014
0.000017
0.000013
0.000016
0.000013
0.000017
0.000012
0.000018
0.000014
0.000019
0.000014
0.000019
0.000014
0.000019
0.000014
0.000018
0.000013
0.000017
0.000013
0.000015
0.000012
0.000013
0.000011
0.000012
0.000009
0.000009
0.000007
0.000006
0.000006
0.000005
0.000006
0.000005
0.000005
0.000004
0.000003
0.000002
0.000002
0.000002
0.000003
0.000002
0.000002
0.000002
0.000000
0.000000
0.000000
0.000000
0.000000
0.000001
0.000000
0.000001
0.000000
0.000001
-0.000000
0.000000
0.000000
-0.000001
-0.000001
-0.000002
0.000001
-0.000003
0.000000
-0.000003
-0.000000
-0.000003
-0.000002
-0.000004
-0.000004
-0.000005
-0.000004
-0.000005
-0.000003
-0.000005
-0.000005
-0.000006
-0.000005
-0.000007
-0.000005
-0.000007
-0.000005
-0.000007
-0.000005
-0.000007
-0.000005
-0.000007
-0.000005
-0.000006
-0.000005
-0.000005
-0.000005
-0.000004
-0.000006
-0.000003
-0.000006
-0.000002
-0.000005
-0.000000
-0.000006
-0.000000
-0.000008
-0.000000
-0.000007
0.000000
-0.000006
0.000001
-0.000006
0.000001
-0.000006
0.000001
-0.000007
0.000002
-0.000008
0.000001
-0.000007
0.000001
-0.000005
0.000001
-0.000005
0.000000
-0.000005
0.000000
-0.000007
-0.000000
-0.000008
-0.000000
-0.000006
-0.000000
-0.000005
-0.000002
-0.000006
-0.000003
-0.000006
-0.000004
-0.000005
-0.000005
-0.000005
-0.000006
-0.000005
-0.000007
-0.000005
-0.000007
-0.000005
-0.000007
-0.000005
-0.000007
-0.000005
-0.000007
-0.000005
-0.000006
-0.000005
-0.000005
-0.000003
-0.000005
-0.000004
-0.000005
-0.000004
-0.000003
-0.000002
-0.000002
-0.000000
-0.000002
-0.000001
-0.000002
-0.000001
-0.000001
-0.000001
-0.000000
-0.000001
0.000000
-0.000000
0.000000
-0.000001
0.000000
-0.000001
0.000001
-0.000001
0.000001
-0.000000
0.000001
0.000001
-0.000002
0.000001
-0.000002
-0.000000
-0.000002
-0.000002
-0.000003
-0.000002
-0.000003
-0.000002
-0.000003
-0.000002
-0.000004
-0.000003
-0.000004
-0.000002
-0.000004
-0.000002
-0.000004
-0.000002
-0.000004
-0.000003
-0.000005
-0.000004
-0.000005
-0.000005
-0.000005
-0.000006
-0.000005
-0.000008
-0.000006
-0.000010
-0.000007
-0.000011
-0.000007
-0.000013
-0.000008
-0.000015
-0.000008
-0.000015
-0.000009
-0.000015
-0.000009
-0.000014
-0.000009
-0.000015
-0.000009
-0.000016
-0.000009
-0.000017
-0.000010
-0.000016
-0.000010
-0.000016
-0.000010
-0.000015
-0.000009
-0.000014
-0.000009
-0.000015
-0.000009
-0.000015
-0.000008
-0.000015
-0.000008
-0.000013
-0.000007
-0.000011
-0.000007
-0.000010
-0.000006
-0.000008
-0.000005
-0.000006
-0.000005
-0.000005
-0.000005
-0.000004
-0.000005
-0.000003
-0.000004
-0.000002
-0.000004
-0.000002
-0.000004
-0.000002
-0.000004
-0.000003
-0.000004
-0.000002
-0.000003
-0.000002
-0.000003
-0.000002
-0.000003
-0.000002
-0.000002
-0.000000
-0.000001
0.000001
-0.000002
0.000002
-0.000002
0.000002
-0.000002
0.000001
0.000001
-0.000000
0.000000
-0.000001
0.000000
-0.000001
0.000000
-0.000001
-0.000000
-0.000001
-0.000000
-0.000001
0.000000
0.000000
0.000001
0.000002
0.000003
0.000003
0.000003
0.000004
0.000004
0.000005
0.000005
0.000006
0.000007
0.000007
0.000007
0.000008
0.000007
0.000008
0.000008
0.000008
0.000009
0.000008
0.000008
0.000007
0.000008
0.000006
0.000007
0.000004
0.000006
0.000003
0.000006
0.000002
0.000006
0.000002
0.000005
0.000002
0.000005
0.000002
0.000005
0.000002
0.000008
0.000003
0.000009
0.000006
0.000010
0.000008
0.000011
0.000008
0.000012
0.000009
0.000012
0.000009
0.000012
0.000009
0.000012
0.000008
0.000012
0.000008
0.000012
0.000008
0.000013
0.000009
0.000013
0.000011
0.000014
0.000013
0.000015
0.000017
0.000016
0.000020
0.000018
0.000024
0.000019
0.000027
0.000020
0.000029
0.000021
0.000032
0.000022
0.000033
0.000022
0.000033
0.000022
0.000032
0.000022
0.000033
0.000023
0.000035
0.000023
0.000036
0.000024
0.000035
0.000024
0.000035
0.000024
0.000033
0.000022
0.000032
0.000022
0.000033
0.000022
0.000033
0.000022
0.000032
0.000022
0.000029
0.000020
0.000027
0.000019
0.000024
0.000018
0.000020
0.000016
0.000017
0.000015
0.000013
0.000014
0.000011
0.000013
0.000009
0.000013
0.000008
0.000012
0.000008
0.000012
0.000008
0.000012
0.000009
0.000012
0.000009
0.000012
0.000009
0.000012
0.000008
0.000011
0.000008
0.000010
0.000006
0.000009
0.000003
0.000008
0.000001
0.000008
0.000000
0.000008
-0.000000
0.000005
0.000002
0.000005
0.000002
0.000006
0.000003
0.000006
0.000004
0.000007
0.000006
0.000008
0.000007
0.000008
0.000008
0.000009
0.000008
0.000008
0.000008
0.000007
0.000008
0.000007
0.000007
0.000007
0.000006
0.000005
0.000005
0.000004
0.000004
0.000003
0.000003
0.000003
0.000002
0.000001
0.000000
0.000000
-0.000001
-0.000000
-0.000001
-0.000000
-0.000001
-0.000000
-0.000001
0.000000
-0.000001
0.000000
-0.000001
0.000001
-0.000001
0.000001
-0.000000
0.000001
0.000001
-0.000002
0.000001
-0.000001
-0.000000
-0.000002
-0.000002
-0.000003
-0.000002
-0.000003
-0.000002
-0.000003
-0.000002
-0.000004
-0.000003
-0.000004
-0.000002
-0.000004
-0.000002
-0.000004
-0.000002
-0.000004
-0.000003
-0.000005
-0.000004
-0.000005
-0.000005
-0.000005
-0.000006
-0.000005
-0.000008
-0.000006
-0.000010
-0.000007
-0.000011
-0.000007
-0.000013
-0.000008
-0.000015
-0.000008
-0.000015
-0.000009
-0.000015
-0.000009
-0.000015
-0.000009
-0.000015
-0.000009
-0.000016
-0.000009
-0.000017
-0.000009
-0.000016
-0.000010
-0.000016
-0.000010
-0.000015
-0.000009
-0.000015
-0.000009
-0.000015
-0.000009
-0.000015
-0.000008
-0.000015
-0.000008
-0.000013
-0.000007
-0.000011
-0.000007
-0.000010
-0.000006
-0.000008
-0.000005
-0.000006
-0.000005
-0.000005
-0.000005
-0.000004
-0.000005
-0.000003
-0.000004
-0.000002
-0.000004
-0.000002
-0.000004
-0.000002
-0.000004
-0.000003
-0.000004
-0.000002
-0.000003
-0.000002
-0.000003
-0.000002
-0.000003
-0.000002
-0.000002
-0.000000
-0.000001
0.000001
-0.000002
0.000002
-0.000002
0.000002
-0.000002
0.000001
0.000001
-0.000000
0.000001
-0.000001
0.000000
-0.000001
0.000000
-0.000001
-0.000000
-0.000001
-0.000000
-0.000001
0.000000
0.000000
0.000001
0.000002
0.000003
0.000003
0.000003
0.000004
0.000004
0.000005
0.000005
0.000006
0.000006
0.000007
0.000007
0.000008
0.000007
0.000008
0.000008
0.000008
0.000009
0.000008
0.000008
0.000007
0.000008
0.000006
0.000007
0.000004
0.000006
0.000003
0.000006
0.000002
0.000005
0.000002
0.000005
0.000002
0.000005
0.000002
0.000005
0.000002
0.000008
0.000003
0.000009
0.000006
0.000010
0.000008
0.000011
0.000008
0.000012
0.000009
0.000012
0.000009
0.000012
0.000009
0.000012
0.000008
0.000012
0.000008
0.000012
0.000008
0.000013
0.000010
0.000013
0.000011
0.000014
0.000013
0.000015
0.000017
0.000016
0.000020
0.000018
0.000024
0.000019
0.000027
0.000020
0.000029
0.000022
0.000032
0.000022
0.000033
0.000022
0.000033
0.000022
0.000032
0.000022
0.000033
0.000023
0.000035
0.000023
0.000036
0.000024
0.000035
0.000024
0.000035
0.000024
0.000033
0.000023
0.000032
0.000022
0.000033
0.000022
0.000033
0.000022
0.000032
0.000022
0.000029
0.000020
0.000026
0.000019
0.000024
0.000018
0.000020
0.000016
0.000017
0.000015
0.000013
0.000014
0.000011
0.000013
0.000009
0.000013
0.000008
0.000012
0.000008
0.000012
0.000008
0.000012
0.000009
0.000012
0.000009
0.000012
0.000009
0.000012
0.000008
0.000011
0.000008
0.000010
0.000006
0.000009
0.000003
0.000008
0.000001
0.000008
0.000000
0.000008
-0.000000
0.000004
0.000002
0.000005
0.000002
0.000006
0.000003
0.000006
0.000004
0.000007
0.000006
0.000008
0.000007
0.000008
0.000008
0.000009
0.000008
0.000008
0.000008
0.000007
0.000008
0.000007
0.000007
0.000007
0.000006
0.000005
0.000005
0.000004
0.000004
0.000003
0.000003
0.000003
0.000002
0.000001
0.000000
0.000000
-0.000001
-0.000000
-0.000001
-0.000000
SCALARS strain_2 float
LOOKUP_TABLE default
0.000003
0.000006
0.000009
0.000012
0.000013
0.000015
0.000012
0.000013
0.000011
0.000012
0.000009
0.000009
0.000007
0.000006
0.000006
0.000005
0.000006
0.000005
0.000005
0.000004
0.000003
0.000002
0.000002
0.000002
0.000003
0.000002
0.000002
0.000002
0.000000
0.000000
0.000000
0.000000
0.000000
0.000001
0.000000
0.000001
0.000000
0.000001
-0.000000
0.000000
0.000000
-0.000001
-0.000001
-0.000002
0.000001
-0.000003
0.000000
-0.000003
-0.000000
-0.000003
-0.000002
-0.000004
-0.000004
-0.000005
-0.000004
-0.000005
-0.000003
-0.000005
-0.000005
-0.000006
-0.000005
-0.000007
-0.000005
-0.000007
-0.000005
-0.000007
-0.000005
-0.000007
-0.000005
-0.000007
-0.000005
-0.000006
-0.000005
-0.000005
-0.000005
-0.000004
-0.000006
-0.000003
-0.000006
-0.000002
-0.000005
-0.000000
-0.000006
-0.000000
-0.000008
-0.000000
-0.000007
0.000000
-0.000005
0.000001
-0.000006
0.000001
-0.000006
0.000001
-0.000007
0.000001
-0.000008
0.000001
-0.000007
0.000001
-0.000005
0.000001
-0.000005
0.000001
-0.000005
0.000000
-0.000007
-0.000000
-0.000008
-0.000000
-0.000006
-0.000000
-0.000005
-0.000002
-0.000006
-0.000003
-0.000006
-0.000004
-0.000005
-0.000005
-0.000005
-0.000006
-0.000005
-0.000007
-0.000005
-0.000007
-0.000005
-0.000007
-0.000005
-0.000007
-0.000005
-0.000007
-0.000005
-0.000006
-0.000005
-0.000005
-0.000003
-0.000005
-0.000004
-0.000005
-0.000004
-0.000004
-0.000002
-0.000002
-0.000000
-0.000002
-0.000001
-0.000002
-0.000001
-0.000000
-0.000001
-0.000000
-0.000001
0.000000
-0.000000
0.000001
-0.000000
0.000001
0.000000
0.000001
0.000000
0.000000
0.000000
0.000000
0.000000
0.000002
0.000002
0.000002
0.000003
0.000002
0.000002
0.000002
0.000003
0.000004
0.000005
0.000005
0.000006
0.000005
0.000006
0.000006
0.000007
0.000009
0.000009
0.000012
0.000011
0.000013
0.000012
0.000015
0.000013
0.000017
0.000013
0.000018
0.000014
0.000019
0.000014
0.000020
0.000012
0.000020
0.000013
0.000019
0.000012
0.000018
0.000012
0.000016
0.000013
0.000017
0.000014
0.000018
0.000014
0.000018
0.000015
0.000019
0.000016
0.000020
0.000016
0.000021
0.000016
0.000021
0.000016
0.000020
0.000016
0.000019
0.000016
0.000017
0.000015
0.000014
0.000014
0.000011
0.000013
0.000008
0.000013
0.000006
0.000012
0.000003
0.000011
0.000001
0.000011
-0.000000
0.000011
0.000000
0.000011
0.000001
0.000011
-0.000001
0.000011
-0.000001
0.000011
-0.000003
0.000011
-0.000002
0.000011
-0.000001
0.000011
0.000000
0.000011
0.000000
0.000011
0.000000
0.000011
-0.000000
0.000011
0.000000
0.000011
0.000003
0.000012
0.000006
0.000013
0.000008
0.000013
0.000011
0.000014
0.000014
0.000015
0.000017
0.000016
0.000019
0.000016
0.000020
0.000016
0.000021
0.000016
0.000021
0.000016
0.000020
0.000016
0.000019
0.000015
0.000018
0.000014
0.000018
0.000014
0.000017
0.000013
0.000016
0.000013
0.000017
0.000012
0.000018
0.000014
0.000019
0.000014
0.000019
0.000014
0.000019
0.000014
0.000018
0.000013
0.000017
0.000013
0.000015
0.000012
0.000013
0.000011
0.000012
0.000009
0.000009
0.000007
0.000006
0.000006
0.000005
0.000006
0.000005
0.000005
0.000004
0.000003
0.000002
0.000002
0.000002
0.000003
0.000002
0.000002
0.000002
0.000000
0.000000
0.000000
0.000000
0.000000
0.000001
0.000000
0.000001
-0.000000
0.000001
-0.000000
0.000000
0.000000
-0.000001
-0.000001
-0.000002
0.000001
-0.000003
0.000000
-0.000003
-0.000000
-0.000003
-0.000002
-0.000004
-0.000004
-0.000005
-0.000004
-0.000005
-0.000003
-0.000005
-0.000005
-0.000006
-0.000005
-0.000007
-0.000005
-0.000007
-0.000005
-0.000007
-0.000005
-0.000007
-0.000005
-0.000007
-0.000005
-0.000006
-0.000005
-0.000005
-0.000005
-0.000004
-0.000006
-0.000003
-0.000006
-0.000002
-0.000005
-0.000000
-0.000006
-0.000000
-0.000008
-0.000000
-0.000007
0.000000
-0.000005
0.000001
-0.000006
0.000001
-0.000006
0.000001
-0.000007
0.000002
-0.000008
0.000001
-0.000007
0.000001
-0.000005
0.000001
-0.000005
0.000000
-0.000005
0.000000
-0.000007
-0.000000
-0.000008
-0.000000
-0.000006
-0.000000
-0.000005
-0.000002
-0.000006
-0.000003
-0.000006
-0.000004
-0.000005
-0.000005
-0.000005
-0.000006
-0.000005
-0.000007
-0.000005
-0.000007
-0.000005
-0.000007
-0.000005
-0.000007
-0.000005
-0.000007
-0.000005
-0.000006
-0.000005
-0.000005
-0.000003
-0.000005
-0.000004
-0.000005
-0.000004
-0.000003
-0.000002
-0.000003
0.000000
-0.000002
-0.000001
-0.000002
-0.000001
-0.000001
-0.000001
-0.000000
-0.000000
0.000000
-0.000000
0.000001
-0.000000
0.000001
0.000000
0.000001
0.000000
0.000000
0.000000
0.000000
0.000000
0.000002
0.000002
0.000002
0.000003
0.000002
0.000003
0.000002
0.000003
0.000004
0.000005
0.000005
0.000006
0.000005
0.000006
0.000006
0.000007
0.000009
0.000009
0.000012
0.000011
0.000013
0.000012
0.000015
0.000013
0.000017
0.000013
0.000018
0.000014
0.000019
0.000014
0.000020
0.000012
0.000020
0.000013
0.000019
0.000012
0.000018
0.000012
0.000016
0.000013
0.000017
0.000014
0.000018
0.000014
0.000018
0.000015
0.000019
0.000016
0.000020
0.000016
0.000021
0.000016
0.000021
0.000016
0.000020
0.000016
0.000019
0.000016
0.000017
0.000015
0.000014
0.000014
0.000011
0.000014
0.000008
0.000013
0.000006
0.000012
0.000003
0.000011
0.000000
0.000011
-0.000000
0.000011
0.000000
0.000011
0.000000
0.000011
-0.000001
0.000011
-0.000001
0.000011
-0.000003
0.000011
-0.000002
0.000011
-0.000001
0.000011
-0.000000
0.000011
0.000000
0.000011
0.000000
0.000011
-0.000000
0.000011
0.000000
0.000011
0.000003
0.000012
0.000006
0.000013
0.000008
0.000013
0.000011
0.000014
0.000014
0.000015
0.000017
0.000016
0.000019
0.000016
0.000020
0.000016
0.000021
0.000016
0.000021
0.000016
0.000020
0.000016
0.000019
0.000015
0.000018
0.000014
0.000018
0.000014
0.000017
0.000013
0.000016
0.000013
0.000017
0.000012
0.000018
0.000014
0.000019
0.000014
0.000019
0.000014
0.000019
0.000014
0.000018
0.000013
0.000012
0.000008
0.000006
0.000002
0.000005
0.000002
0.000005
0.000002
0.000005
0.000002
0.000008
0.000003
0.000009
0.000006
0.000010
0.000008
0.000011
0.000008
0.000012
0.000009
0.000012
0.000009
0.000012
0.000009
0.000012
0.000008
0.000012
0.000008
0.000012
0.000008
0.000013
0.000009
0.000013
0.000011
0.000014
0.000013
0.000015
0.000017
0.000016
0.000020
0.000018
0.000024
0.000019
0.000027
0.000020
0.000029
0.000021
0.000032
0.000022
0.000033
0.000022
0.000033
0.000022
0.000032
0.000022
0.000033
0.000023
0.000035
0.000023
0.000036
0.000024
0.000035
0.000024
0.000035
0.000024
0.000033
0.000023
0.000032
0.000022
0.000033
0.000022
0.000033
0.000022
0.000032
0.000022
0.000029
0.000020
0.000027
0.000019
0.000024
0.000018
0.000020
0.000016
0.000017
0.000015
0.000013
0.000014
0.000011
0.000013
0.000009
0.000013
0.000008
0.000012
0.000008
0.000012
0.000008
0.000012
0.000009
0.000012
0.000009
0.000012
0.000009
0.000012
0.000008
0.000011
0.000008
0.000010
0.000006
0.000009
0.000003
0.000008
0.000001
0.000008
0.000000
0.000007
0.000000
0.000005
0.000002
0.000005
0.000002
0.000005
0.000003
0.000006
0.000004
0.000007
0.000006
0.000008
0.000007
0.000008
0.000008
0.000009
0.000008
0.000008
0.000008
0.000007
0.000008
0.000007
0.000007
0.000007
0.000006
0.000005
0.000005
0.000004
0.000004
0.000003
0.000003
0.000003
0.000002
0.000001
0.000000
0.000000
-0.000001
-0.000000
-0.000001
-0.000000
-0.000001
0.000000
-0.000001
0.000000
-0.000001
0.000000
-0.000001
0.000001
-0.000000
0.000001
-0.000000
0.000001
0.000001
-0.000002
0.000001
-0.000001
-0.000000
-0.000002
-0.000002
-0.000003
-0.000002
-0.000003
-0.000002
-0.000003
-0.000002
-0.000004
-0.000003
-0.000004
-0.000002
-0.000004
-0.000002
-0.000004
-0.000002
-0.000004
-0.000003
-0.000005
-0.000004
-0.000005
-0.000005
-0.000005
-0.000006
-0.000005
-0.000008
-0.000006
-0.000010
-0.000007
-0.000011
-0.000007
-0.000013
-0.000008
-0.000015
-0.000008
-0.000015
-0.000009
-0.000015
-0.000009
-0.000015
-0.000009
-0.000015
-0.000009
-0.000016
-0.000009
-0.000017
-0.000009
-0.000017
-0.000010
-0.000016
-0.000010
-0.000015
-0.000009
-0.000015
-0.000009
-0.000015
-0.000009
-0.000015
-0.000008
-0.000015
-0.000008
-0.000013
-0.000007
-0.000011
-0.000007
-0.000010
-0.000006
-0.000008
-0.000005
-0.000006
-0.000005
-0.000005
-0.000005
-0.000004
-0.000005
-0.000003
-0.000004
-0.000002
-0.000004
-0.000002
-0.000004
-0.000002
-0.000004
-0.000003
-0.000004
-0.000002
-0.000003
-0.000002
-0.000003
-0.000002
-0.000003
-0.000002
-0.000002
-0.000000
-0.000001
0.000001
-0.000002
0.000002
-0.000002
0.000002
-0.000002
0.000001
0.000001
-0.000000
0.000001
-0.000001
0.000000
-0.000001
-0.000000
-0.000001
-0.000000
-0.000001
-0.000000
-0.000001
0.000000
0.000000
0.000001
0.000002
0.000003
0.000003
0.000003
0.000004
0.000004
0.000005
0.000005
0.000006
0.000006
0.000007
0.000007
0.000008
0.000007
0.000008
0.000008
0.000008
0.000009
0.000008
0.000008
0.000007
0.000008
0.000006
0.000007
0.000004
0.000006
0.000003
0.000006
0.000002
0.000006
0.000002
0.000005
0.000002
0.000005
0.000002
0.000005
0.000002
0.000008
0.000003
0.000009
0.000006
0.000010
0.000008
0.000011
0.000008
0.000012
0.000009
0.000012
0.000009
0.000012
0.000009
0.000012
0.000008
0.000012
0.000008
0.000012
0.000008
0.000013
0.000009
0.000013
0.000011
0.000014
0.000013
0.000015
0.000017
0.000016
0.000020
0.000018
0.000024
0.000019
0.000027
0.000020
0.000029
0.000022
0.000032
0.000022
0.000033
0.000022
0.000033
0.000022
0.000032
0.000022
0.000033
0.000023
0.000035
0.000023
0.000036
0.000024
0.000035
0.000024
0.000035
0.000024
0.000033
0.000022
0.000032
0.000022
0.000033
0.000022
0.000033
0.000022
0.000032
0.000022
0.000029
0.000020
0.000027
0.000019
0.000024
0.000018
0.000020
0.000016
0.000017
0.000015
0.000013
0.000014
0.000011
0.000013
0.000009
0.000013
0.000008
0.000012
0.000008
0.000012
0.000008
0.000012
0.000009
0.000012
0.000009
0.000012
0.000009
0.000012
0.000008
0.000011
0.000008
0.000010
0.000006
0.000009
0.000003
0.000008
0.000001
0.000008
0.000000
0.000008
-0.000000
0.000005
0.000002
0.000005
0.000002
0.000006
0.000003
0.000006
0.000004
0.000007
0.000006
0.000008
0.000007
0.000008
0.000008
0.000009
0.000008
0.000008
0.000008
0.000007
0.000008
0.000007
0.000007
0.000006
0.000006
0.000005
0.000005
0.000004
0.000004
0.000003
0.000003
0.000003
0.000002
0.000001
0.000000
0.000000
-0.000001
-0.000000
-0.000001
-0.000000
-0.000001
0.000000
-0.000001
0.000000
-0.000001
0.000000
-0.000001
0.000001
-0.000000
0.000001
0.000000
0.000001
0.000001
-0.000002
0.000001
-0.000002
-0.000000
-0.000002
-0.000002
-0.000003
-0.000002
-0.000003
-0.000002
-0.000003
-0.000002
-0.000004
-0.000003
-0.000004
-0.000002
-0.000004
-0.000002
-0.000004
-0.000002
-0.000004
-0.000003
-0.000005
-0.000004
-0.000005
-0.000005
-0.000005
-0.000006
-0.000005
-0.000008
-0.000006
-0.000010
-0.000007
-0.000011
-0.000007
-0.000013
-0.000008
-0.000015
-0.000008
-0.000015
-0.000009
-0.000015
-0.000009
-0.000014
-0.000009
-0.000015
-0.000009
-0.000016
-0.000009
-0.000017
-0.000010
-0.000016
-0.000010
-0.000016
-0.000010
-0.000015
-0.000009
-0.000014
-0.000009
-0.000015
-0.000009
-0.000015
-0.000008
-0.000015
-0.000008
-0.000013
-0.000007
-0.000011
-0.000007
-0.000010
-0.000006
-0.000008
-0.000005
-0.000006
-0.000005
-0.000005
-0.000005
-0.000004
-0.000005
-0.000003
-0.000004
-0.000002
-0.000004
-0.000002
-0.000004
-0.000002
-0.000004
-0.000003
-0.000004
-0.000002
-0.000003
-0.000002
-0.000003
-0.000002
-0.000003
-0.000002
-0.000002
-0.000000
-0.000001
0.000001
-0.000002
0.000002
-0.000002
0.000002
-0.000002
0.000001
0.000001
-0.000001
0.000001
-0.000001
0.000000
-0.000001
0.000000
-0.000001
-0.000000
-0.000001
-0.000000
-0.000001
0.000000
0.000000
0.000001
0.000002
0.000003
0.000003
0.000003
0.000004
0.000004
0.000005
0.000005
0.000006
0.000006
0.000007
0.000007
0.000008
0.000007
0.000008
0.000008
0.000008
0.000009
0.000008
0.000008
0.000007
0.000008
0.000006
0.000007
SCALARS strain_3 float
LOOKUP_TABLE default
-0.000001
-0.000009
-0.000007
-0.000014
-0.000013
-0.000020
-0.000013
-0.000018
-0.000012
-0.000015
-0.000013
-0.000012
-0.000013
-0.000011
-0.000012
-0.000009
-0.000011
-0.000008
-0.000011
-0.000007
-0.000012
-0.000007
-0.000011
-0.000008
-0.000011
-0.000009
-0.000012
-0.000011
-0.000013
-0.000012
-0.000013
-0.000015
-0.000012
-0.000018
-0.000013
-0.000020
-0.000013
-0.000021
-0.000014
-0.000022
-0.000014
-0.000022
-0.000013
-0.000021
-0.000014
-0.000021
-0.000013
-0.000018
-0.000013
-0.000017
-0.000013
-0.000015
-0.000012
-0.000013
-0.000011
-0.000012
-0.000010
-0.000012
-0.000010
-0.000011
-0.000009
-0.000011
-0.000009
-0.000011
-0.000008
-0.000011
-0.000008
-0.000010
-0.000008
-0.000009
-0.000007
-0.000008
-0.000007
-0.000007
-0.000006
-0.000006
-0.000006
-0.000004
-0.000005
-0.000002
-0.000004
-0.000002
-0.000004
-0.000001
-0.000004
0.000001
-0.000003
0.000001
-0.000002
0.000001
-0.000002
-0.000000
-0.000002
-0.000001
0.000000
-0.000001
0.000001
-0.000001
0.000002
-0.000000
0.000002
-0.000001
0.000002
-0.000001
0.000002
-0.000001
0.000003
-0.000001
0.000004
0.000001
0.000004
0.000002
0.000004
0.000002
0.000005
0.000004
0.000006
0.000006
0.000006
0.000007
0.000007
0.000008
0.000007
0.000009
0.000008
0.000010
0.000008
0.000011
0.000009
0.000011
0.000009
0.000011
0.000009
0.000011
0.000010
0.000012
0.000010
0.000012
0.000011
0.000013
0.000012
0.000015
0.000013
0.000017
0.000013
0.000019
0.000013
0.000021
0.000013
0.000022
0.000014
0.000022
0.000014
0.000022
0.000014
0.000021
0.000013
0.000020
0.000013
0.000018
0.000012
0.000015
0.000013
0.000012
0.000013
0.000011
0.000012
0.000009
0.000011
0.000008
0.000011
0.000007
0.000012
0.000007
0.000011
0.000008
0.000011
0.000009
0.000012
0.000011
0.000013
0.000012
0.000013
0.000015
0.000012
0.000018
0.000013
0.000020
0.000013
0.000021
0.000014
0.000022
0.000014
0.000023
0.000013
0.000021
0.000014
0.000021
0.000014
0.000018
0.000013
0.000017
0.000013
0.000015
0.000012
0.000013
0.000011
0.000012
0.000010
0.000012
0.000010
0.000011
0.000009
0.000011
0.000009
0.000011
0.000009
0.000011
0.000008
0.000010
0.000008
0.000009
0.000007
0.000008
0.000007
0.000007
0.000006
0.000006
0.000006
0.000004
0.000005
0.000002
0.000005
0.000002
0.000005
0.000001
0.000004
-0.000001
0.000002
-0.000001
0.000002
-0.000001
0.000002
0.000000
0.000002
0.000001
-0.000001
0.000001
-0.000001
0.000001
-0.000002
0.000000
-0.000002
0.000001
-0.000002
0.000001
-0.000002
0.000001
-0.000003
0.000001
-0.000004
-0.000001
-0.000004
-0.000002
-0.000004
-0.000002
-0.000005
-0.000004
-0.000006
-0.000006
-0.000006
-0.000007
-0.000007
-0.000008
-0.000007
-0.000009
-0.000008
-0.000010
-0.000008
-0.000011
-0.000009
-0.000011
-0.000009
-0.000011
-0.000009
-0.000011
-0.000010
-0.000012
-0.000010
-0.000012
-0.000011
-0.000013
-0.000012
-0.000015
-0.000013
-0.000017
-0.000013
-0.000019
-0.000013
-0.000021
-0.000013
-0.000022
-0.000014
-0.000022
-0.000014
-0.000022
-0.000014
-0.000021
-0.000013
-0.000020
-0.000013
-0.000018
-0.000012
-0.000015
-0.000013
-0.000012
-0.000013
-0.000011
-0.000012
-0.000009
-0.000011
-0.000008
-0.000011
-0.000007
-0.000012
-0.000007
-0.000011
-0.000008
-0.000011
-0.000009
-0.000012
-0.000011
-0.000013
-0.000012
-0.000013
-0.000015
-0.000012
-0.000018
-0.000013
-0.000020
-0.000013
-0.000021
-0.000014
-0.000022
-0.000014
-0.000023
-0.000013
-0.000021
-0.000014
-0.000021
-0.000014
-0.000018
-0.000013
-0.000017
-0.000013
-0.000015
-0.000012
-0.000013
-0.000011
-0.000012
-0.000010
-0.000012
-0.000010
-0.000011
-0.000009
-0.000011
-0.000009
-0.000011
-0.000008
-0.000011
-0.000008
-0.000010
-0.000008
-0.000009
-0.000007
-0.000008
-0.000007
-0.000007
-0.000006
-0.000006
-0.000006
-0.000004
-0.000005
-0.000002
-0.000004
-0.000002
-0.000004
-0.000001
-0.000004
0.000001
-0.000002
0.000001
-0.000002
0.000001
-0.000002
-0.000000
-0.000002
-0.000001
0.000001
-0.000001
0.000001
-0.000001
0.000002
-0.000000
0.000002
-0.000001
0.000002
-0.000001
0.000002
-0.000001
0.000003
-0.000001
0.000004
0.000001
0.000004
0.000002
0.000004
0.000002
0.000005
0.000004
0.000006
0.000006
0.000006
0.000007
0.000007
0.000008
0.000007
0.000009
0.000008
0.000010
0.000008
0.000011
0.000009
0.000011
0.000009
0.000011
0.000009
0.000011
0.000010
0.000012
0.000010
0.000012
0.000011
0.000013
0.000012
0.000015
0.000013
0.000017
0.000013
0.000019
0.000013
0.000021
0.000013
0.000022
0.000014
0.000022
0.000014
0.000022
0.000014
0.000021
0.000013
0.000020
0.000013
0.000018
0.000012
0.000015
0.000013
0.000012
0.000013
0.000011
0.000012
0.000009
0.000011
0.000008
0.000011
0.000007
0.000012
0.000007
0.000011
0.000008
0.000011
0.000009
0.000012
0.000011
0.000013
0.000012
0.000013
0.000015
0.000012
0.000018
0.000013
0.000020
0.000013
0.000021
0.000014
0.000022
0.000014
0.000022
0.000013
0.000021
0.000014
0.000021
0.000013
0.000018
0.000013
0.000017
0.000013
0.000015
0.000012
0.000013
0.000011
0.000012
0.000010
0.000012
0.000010
0.000011
0.000009
0.000011
0.000009
0.000011
0.000009
0.000011
0.000008
0.000010
0.000008
0.000009
0.000007
0.000008
0.000007
0.000007
0.000006
0.000006
0.000006
0.000004
0.000005
0.000002
0.000004
0.000002
0.000004
0.000001
0.000004
-0.000001
0.000003
-0.000001
0.000002
-0.000001
0.000002
0.000000
0.000002
0.000001
-0.000001
0.000001
-0.000001
0.000001
-0.000002
0.000000
-0.000002
0.000001
-0.000002
0.000001
-0.000002
0.000001
-0.000003
0.000001
-0.000004
-0.000001
-0.000004
-0.000002
-0.000004
-0.000002
-0.000005
-0.000004
-0.000006
-0.000006
-0.000006
-0.000007
-0.000007
-0.000008
-0.000007
-0.000009
-0.000008
-0.000010
-0.000008
-0.000011
-0.000008
-0.000011
-0.000009
-0.000011
-0.000009
-0.000011
-0.000010
-0.000012
-0.000010
-0.000012
-0.000011
-0.000013
-0.000012
-0.000015
-0.000013
-0.000017
-0.000013
-0.000019
-0.000013
-0.000021
-0.000013
-0.000022
-0.000014
-0.000022
-0.000014
-0.000022
-0.000014
-0.000015
-0.000007
-0.000008
0.000000
-0.000008
0.000000
-0.000009
-0.000001
-0.000008
-0.000003
-0.000007
-0.000005
-0.000008
-0.000007
-0.000009
-0.000007
-0.000008
-0.000006
-0.000008
-0.000006
-0.000007
-0.000006
-0.000007
-0.000005
-0.000007
-0.000004
-0.000006
-0.000004
-0.000006
-0.000004
-0.000006
-0.000005
-0.000006
-0.000006
-0.000007
-0.000006
-0.000007
-0.000007
-0.000007
-0.000008
-0.000006
-0.000008
-0.000006
-0.000008
-0.000005
-0.000008
-0.000004
-0.000008
-0.000003
-0.000006
-0.000002
-0.000005
-0.000001
-0.000004
-0.000001
-0.000004
-0.000000
-0.000004
0.000001
-0.000003
0.000003
-0.000001
0.000004
0.000002
0.000000
0.000004
0.000000
0.000005
0.000001
0.000005
0.000002
0.000006
0.000003
0.000008
0.000004
0.000008
0.000005
0.000008
0.000006
0.000008
0.000006
0.000008
0.000007
0.000007
0.000007
0.000006
0.000007
0.000006
0.000006
0.000005
0.000006
0.000004
0.000006
0.000004
0.000006
0.000004
0.000007
0.000005
0.000007
0.000006
0.000007
0.000006
0.000008
0.000006
0.000008
0.000007
0.000009
0.000007
0.000009
0.000005
0.000008
0.000003
0.000008
0.000002
0.000006
0.000000
0.000008
-0.000000
0.000008
-0.000000
0.000008
0.000001
0.000009
0.000002
0.000009
0.000004
0.000010
0.000007
0.000011
0.000011
0.000012
0.000013
0.000012
0.000015
0.000013
0.000015
0.000013
0.000017
0.000013
0.000018
0.000013
0.000017
0.000013
0.000015
0.000013
0.000015
0.000012
0.000013
0.000012
0.000011
0.000011
0.000007
0.000010
0.000004
0.000009
0.000002
0.000009
0.000001
0.000008
-0.000000
0.000008
-0.000000
0.000008
-0.000000
0.000009
0.000001
0.000008
0.000003
0.000007
0.000005
0.000008
0.000007
0.000009
0.000007
0.000008
0.000006
0.000008
0.000006
0.000007
0.000006
0.000007
0.000005
0.000007
0.000004
0.000006
0.000004
0.000006
0.000004
0.000006
0.000005
0.000006
0.000005
0.000007
0.000006
0.000007
0.000007
0.000007
0.000008
0.000006
0.000008
0.000006
0.000008
0.000005
0.000008
0.000004
0.000008
0.000003
0.000006
0.000002
0.000005
0.000001
0.000004
0.000001
0.000004
0.000000
0.000004
-0.000001
0.000003
-0.000002
0.000001
-0.000004
-0.000002
-0.000000
-0.000004
-0.000001
-0.000004
-0.000001
-0.000005
-0.000002
-0.000006
-0.000003
-0.000008
-0.000004
-0.000008
-0.000005
-0.000008
-0.000006
-0.000008
-0.000006
-0.000008
-0.000007
-0.000007
-0.000007
-0.000006
-0.000007
-0.000006
-0.000006
-0.000005
-0.000006
-0.000004
-0.000006
-0.000004
-0.000006
-0.000004
-0.000007
-0.000005
-0.000007
-0.000006
-0.000007
-0.000006
-0.000008
-0.000006
-0.000008
-0.000007
-0.000009
-0.000007
-0.000009
-0.000005
-0.000008
-0.000004
-0.000007
-0.000002
-0.000006
-0.000000
-0.000008
0.000000
-0.000008
0.000000
-0.000008
-0.000001
-0.000009
-0.000002
-0.000009
-0.000004
-0.000010
-0.000007
-0.000011
-0.000011
-0.000012
-0.000013
-0.000012
-0.000015
-0.000013
-0.000015
-0.000013
-0.000017
-0.000013
-0.000018
-0.000013
-0.000017
-0.000013
-0.000016
-0.000013
-0.000015
-0.000012
-0.000013
-0.000012
-0.000011
-0.000011
-0.000007
-0.000010
-0.000004
-0.000009
-0.000002
-0.000009
-0.000001
-0.000008
0.000000
-0.000008
0.000000
-0.000008
0.000000
-0.000009
-0.000001
-0.000008
-0.000003
-0.000007
-0.000005
-0.000009
-0.000007
-0.000009
-0.000007
-0.000008
-0.000006
-0.000008
-0.000006
-0.000007
-0.000006
-0.000007
-0.000005
-0.000007
-0.000004
-0.000006
-0.000004
-0.000006
-0.000004
-0.000006
-0.000005
-0.000006
-0.000006
-0.000007
-0.000006
-0.000007
-0.000007
-0.000007
-0.000008
-0.000006
-0.000008
-0.000006
-0.000008
-0.000005
-0.000008
-0.000004
-0.000008
-0.000003
-0.000006
-0.000002
-0.000005
-0.000001
-0.000004
-0.000001
-0.000004
-0.000000
-0.000004
0.000001
-0.000003
0.000002
-0.000001
0.000004
0.000002
0.000000
0.000004
0.000001
0.000004
0.000001
0.000005
0.000002
0.000006
0.000003
0.000008
0.000004
0.000008
0.000005
0.000008
0.000006
0.000008
0.000006
0.000008
0.000007
0.000008
0.000007
0.000006
0.000007
0.000005
0.000006
0.000005
0.000006
0.000004
0.000006
0.000004
0.000006
0.000004
0.000007
0.000005
0.000007
0.000006
0.000007
0.000006
0.000008
0.000006
0.000008
0.000007
0.000009
0.000007
0.000009
0.000005
0.000008
0.000004
0.000007
0.000002
0.000006
0.000000
0.000008
-0.000000
0.000008
-0.000000
0.000008
0.000001
0.000009
0.000002
0.000009
0.000004
0.000010
0.000007
0.000011
0.000011
0.000012
0.000013
0.000012
0.000015
0.000013
0.000015
0.000013
0.000017
0.000013
0.000018
0.000013
0.000017
0.000013
0.000016
0.000013
0.000015
0.000012
0.000013
0.000012
0.000011
0.000011
0.000007
0.000010
0.000004
0.000009
0.000002
0.000009
0.000001
0.000008
-0.000000
0.000008
-0.000000
0.000008
-0.000000
0.000008
0.000001
0.000008
0.000003
0.000007
0.000005
0.000008
0.000007
0.000009
0.000007
0.000008
0.000006
0.000008
0.000006
0.000007
0.000006
0.000007
0.000005
0.000007
0.000004
0.000006
0.000004
0.000006
0.000004
0.000006
0.000005
0.000006
0.000005
0.000007
0.000006
0.000007
0.000007
0.000007
0.000008
0.000006
0.000008
0.000006
0.000008
0.000005
0.000008
0.000004
0.000008
0.000003
0.000006
0.000002
0.000005
0.000001
0.000004
0.000001
0.000004
0.000000
0.000004
-0.000001
0.000003
-0.000003
0.000001
-0.000004
-0.000002
-0.000000
-0.000004
-0.000000
-0.000005
-0.000001
-0.000005
-0.000002
-0.000006
-0.000003
-0.000008
-0.000004
-0.000008
-0.000005
-0.000008
-0.000006
-0.000008
-0.000006
-0.000008
-0.000007
-0.000007
-0.000007
-0.000006
-0.000007
-0.000006
-0.000006
-0.000005
-0.000006
-0.000004
-0.000006
-0.000004
-0.000006
-0.000004
-0.000007
-0.000005
-0.000007
-0.000006
-0.000007
-0.000006
-0.000008
-0.000006
-0.000008
-0.000007
-0.000009
-0.000007
-0.000009
-0.000005
-0.000008
-0.000004
-0.000007
-0.000002
-0.000006
-0.000000
-0.000008
0.000000
-0.000008
0.000000
-0.000008
-0.000001
-0.000009
-0.000002
-0.000009
-0.000004
-0.000010
-0.000007
-0.000011
-0.000011
-0.000012
-0.000013
-0.000012
-0.000015
-0.000013
-0.000015
-0.000013
-0.000017
-0.000013
-0.000018
-0.000013
-0.000017
-0.000013
-0.000016
-0.000013
-0.000015
-0.000012
-0.000013
-0.000012
-0.000011
-0.000011
-0.000007
-0.000010
-0.000004
-0.000009
SCALARS stress_1 float
LOOKUP_TABLE default
84547.492431
719860.185119
731544.734666
1264776.327648
1438545.317823
2026655.260522
1381856.760885
1832726.439488
1315249.601383
1449931.659934
1063370.391881
1106622.644899
911410.782869
1149882.711758
1191506.741759
1244952.851848
1387430.336145
1046167.803098
1193846.198371
902287.369931
1137634.617648
1173917.610792
1523490.348463
1548867.433458
1847537.509591
1663744.934385
1820213.733625
1843136.108880
1917762.041517
2449540.298319
2450514.362001
3173121.610898
2929746.463648
3732147.022205
3193082.581025
4197412.248819
3415425.065639
4560678.753219
3585983.371744
4820132.385512
3720347.293812
5089686.157063
3744739.477619
5078895.611645
3430298.165892
5142319.174276
3550770.338268
4861736.298588
3323521.420563
4390821.317045
3142814.181300
3966052.788386
3097162.821639
3980813.323952
3290303.904248
4180790.763714
3437568.138657
4174605.579549
3452953.134998
4286925.644175
3590405.626271
4597302.700476
3763936.934485
4752151.794207
3805970.801839
4751134.058156
3794164.802310
4609305.183638
3736426.011103
4333706.750280
3629174.320527
3903383.878552
3448088.269485
3314682.859870
3198325.435870
2536724.673913
2897283.081145
1821500.607998
2704886.642815
1319506.342807
2556970.877745
717933.867075
2306305.858450
128104.777008
2151757.343593
-49647.153211
2213030.221782
103639.130270
2294649.708798
202152.970613
2283108.980613
-20911.223283
2365206.126407
-125866.997490
2269724.348118
-608493.783649
2005931.204656
-516193.530550
2112599.255022
-202313.400287
2261450.287321
75455.318491
2311029.340887
174690.683112
2303566.578063
96479.888339
2206670.547830
-52586.767530
2148244.467368
122956.289369
2306324.925201
715259.166898
2562136.087021
1316613.057945
2711272.650067
1820974.160981
2902717.755571
2534622.551825
3196017.957054
3313064.752967
3447980.702703
3903423.942249
3631455.904345
4336065.327099
3737475.996137
4611945.086970
3794374.431443
4753285.301903
3806634.218997
4758683.793556
3757731.940442
4603091.042473
3583744.192964
4289542.688250
3448009.263023
4176652.367729
3431457.678689
4185204.192057
3291044.896285
3981153.854123
3106986.030833
3956508.602784
3186969.763013
4347662.699595
3318129.421326
4730070.216576
3611897.181239
4981423.526008
3757398.640326
4981493.760820
3770813.178646
4992329.475017
3699540.715741
4835349.246412
3571916.605584
4573817.905325
3413199.854481
4206365.646153
3185257.936529
3737359.408854
2930282.157987
3175811.456052
2452189.876111
2448019.635446
1921369.101582
1842673.547617
1813679.809059
1664821.595522
1844079.078092
1549775.084528
1519645.734524
1177145.356680
1133222.992583
904910.913794
1191053.005373
1049146.919447
1385579.562146
1246027.524419
1190945.007768
1149876.558713
910723.663409
1106571.454026
1061036.394749
1450712.516638
1310218.682786
1828680.518871
1415396.892903
2002562.104796
1490930.040988
2098921.959588
1529359.977654
2121120.120252
1640216.429700
1963348.954381
1462276.714716
1807480.897153
1702295.325102
1637672.547619
1570188.063894
1455695.038479
1391346.426175
1270979.537896
929203.078447
921241.000569
419652.621077
653851.783198
554532.386806
679190.936257
786825.164776
661509.815698
417365.134402
454751.821266
344266.429817
421981.502610
613256.042046
491701.750495
576342.561660
464953.176433
529361.327137
431301.993211
470516.660215
388347.520970
407560.960555
354314.884492
333556.815669
340694.646645
262036.201773
272731.301983
-157300.659314
126318.430878
-260210.401060
151169.046086
7696.332896
207097.235680
-366235.573808
30983.099112
-764889.739017
-50317.600158
-502719.925845
97556.125951
-204501.432075
212199.446432
-307271.673029
281540.567543
-249488.500289
199923.360395
-617183.027622
138217.789577
-1025704.286321
29528.320387
-532125.102048
159688.651671
-197098.115508
192357.263341
-194630.803344
186073.527008
-188861.247714
90053.607229
-499845.712143
-48950.069591
-773699.765876
40080.591582
-377737.145903
211175.278327
2614.064651
153083.563582
-260536.123215
125929.179079
-157339.941514
273226.011808
262222.119588
340369.757935
334098.737859
354105.263881
407555.832959
389278.164444
470007.124421
433018.495613
527541.145494
467779.032983
573649.129248
494140.628886
610165.698276
425690.957505
340604.515335
461183.400296
410065.854443
665482.539169
781914.130740
678842.348048
554519.076474
651476.505654
425017.075703
919817.774433
960903.638498
1355995.304384
1409101.422740
1550462.743521
1333313.741137
1780572.710501
1495534.133282
2021283.153796
1456619.405759
2114502.162403
1474076.555122
2168514.457203
1469515.602505
2130125.541203
1445889.059744
2023006.037241
1397174.623808
1829510.566895
1325652.115060
1449046.844095
1067451.837396
1106847.199759
911161.465738
1149735.970890
1190581.953155
1244978.280269
1387009.691615
1045590.873379
1196146.963602
901001.561779
1139951.618062
1176377.447279
1525315.259890
1549091.573279
1844854.468532
1663776.404524
1811358.910133
1841918.041885
1917480.798095
2447500.531886
2451439.650974
3174318.558924
2932907.446444
3738293.073581
3188616.772503
4198518.736594
3408875.200468
4556229.562422
3579372.940042
4803146.460033
3740334.669075
5080315.889486
3778357.762422
5068482.348650
3433613.909300
5153025.016232
3532898.712574
4897125.852144
3324590.132524
4406169.296148
3136173.265867
3967070.398679
3095114.721739
3980448.478228
3288817.605772
4182795.401706
3439401.279197
4174181.998448
3459549.429742
4286932.859358
3598877.211265
4597278.191606
3774131.561527
4754795.309326
3813411.688974
4751087.001169
3798358.827661
4612298.848409
3733468.712260
4332012.552436
3625718.018575
3905279.269867
3448692.890769
3313600.092166
3200387.336306
2533985.287845
2901524.607855
1819998.567009
2714781.831578
1321887.447992
2576011.696182
714891.985888
2310110.935802
123603.575525
2157675.834147
-46202.091930
2208108.823176
102735.159634
2283739.485507
213678.230221
2256940.687266
8147.926235
2284074.731828
-113927.898000
2105035.217625
-609057.011862
1918478.672507
-502887.178985
2086484.175809
-198785.894703
2249725.864926
80954.267619
2315902.258287
178768.660606
2292615.665577
91032.114901
2200518.834482
-49596.134279
2140817.888312
125051.688960
2294468.253534
718830.670265
2552760.291077
1320066.866112
2702643.528879
1822983.637066
2897762.255931
2536378.919606
3199392.531882
3313698.776390
3450794.367638
3904127.528188
3632701.066149
4334809.765815
3738079.724314
4611332.667978
3795897.510794
4751397.913558
3809565.392650
4755905.485652
3769491.132219
4598748.921040
3596437.096745
4288684.246304
3457756.884035
4172639.118311
3434762.784132
4176187.690493
3288611.872403
3981927.405843
3111150.142995
3939471.987523
3215018.482126
4399408.169789
3273025.604330
4702037.826151
3723503.370286
4977011.996979
3793017.233957
4966469.190285
3793219.774369
4979090.920136
3692555.256400
4829827.501017
3576353.392688
4568118.220909
3415216.698754
4202233.914850
3191117.954201
3736773.374804
2929365.124583
3173407.328741
2449900.458724
2450256.639746
1916021.538743
1844071.483476
1817180.329644
1664573.500660
1849795.192552
1550082.496096
1523330.153619
1177817.452610
1134750.334633
900160.891104
1194272.657073
1047216.530419
1388228.407434
1244837.472534
1193249.451392
1148497.758695
912477.374202
1104470.531054
1065674.751237
1445306.465569
1329583.451494
1823249.027896
1424437.763483
1996610.232571
1491955.490960
2099582.365623
1518301.419256
2130231.373111
1632967.368074
1953870.021885
1481926.188565
1800553.331986
1720189.806263
1625921.208456
1569813.288888
1442199.469574
1378895.891632
1278440.968750
929037.187326
925104.366178
421111.866310
654549.590870
553567.412586
679756.688478
786361.880450
661140.141386
415671.041789
455798.148218
341966.847424
424063.978373
610144.401041
494177.619167
573472.726723
467546.791054
527483.793625
432977.920839
470052.175386
389003.504236
407662.339938
354367.310195
334407.491186
339757.743141
264010.299680
271523.879418
-152779.430092
123473.539335
-254601.479851
149198.423737
7598.542516
206560.620019
-375256.736880
36194.809589
-775140.295732
-42869.651224
-515521.127940
113187.279396
-238548.287511
229136.711939
-285249.388828
257296.856467
-234369.384289
192479.198260
-596110.979920
99492.382715
-1004718.232262
33863.234091
-536031.328412
152001.957653
-188798.181197
187215.549687
-188474.991278
180301.961399
-181825.408084
80122.343965
-490821.943822
-50957.579092
-770657.867102
35828.835466
-372162.243045
206527.164620
8120.638595
147853.284788
-255013.571043
122641.221051
-152277.007723
271566.521138
264801.557575
340672.446292
333831.587954
357435.427815
406006.143754
392845.640425
467112.690551
442698.128204
515587.765536
475052.956112
565565.611688
498229.705263
603604.529607
429085.565079
332776.178576
459706.928604
412437.215173
661965.776990
786815.783055
678751.789895
554243.533011
653376.023903
429391.729516
928836.036936
957447.022271
1379176.343477
1388770.926930
1563799.770017
1316809.103828
1762496.438291
1498081.287661
2014260.065176
1460354.179375
2116529.074754
1479570.120210
2174698.401836
1460718.955385
1393800.062632
732974.084855
747652.533259
11121.677193
802706.760985
45629.600708
901392.464584
203161.043679
940038.232302
486401.202885
492081.316413
764849.114323
624532.914034
647462.567954
644817.458467
485972.993058
545773.802104
463221.649826
492595.426798
453168.487139
446453.513646
355499.108400
350455.506085
295986.168419
273592.373506
318261.240894
226741.417495
362116.947806
246751.697913
379263.661034
281919.631920
365865.173326
270274.704270
339666.804855
271196.651297
330876.008670
353763.944952
276176.763043
431429.715149
145054.525676
412729.074355
40638.302565
372753.376712
17184.449288
398563.803819
-77952.872374
425655.505163
-242507.497491
352594.562194
-280420.333390
255507.929169
-206042.033618
208870.834605
-164353.707413
199387.690223
-194920.524586
208777.412603
-281371.134212
206183.047484
-376716.845980
175416.453849
-305480.928466
29065.582874
-262026.377988
140510.027529
-238965.449767
155492.415028
-152549.571097
187767.841971
-185943.194213
242352.594800
-266596.484017
354965.734130
-245845.142398
436625.329839
-85720.077529
402986.405108
14140.804200
369861.371450
43349.666942
413677.243474
142594.840234
433469.712672
274153.878477
356588.056119
328294.880909
277171.753065
334957.568258
278894.110759
359146.881855
293552.162398
369788.221106
256580.253409
354285.039715
232611.359353
313742.668579
278170.757194
290802.507857
355552.019355
350429.361708
444963.739574
452148.332157
493298.351217
463204.225371
546779.325914
480555.145899
671684.825708
627034.343723
670651.764805
726493.921583
517491.757481
665019.182626
479976.479341
555442.773950
301839.208504
310402.889758
767590.466536
117395.841380
712116.713734
72037.490216
717945.431183
105210.226133
740598.501491
200954.647596
773229.440644
401153.137183
848291.597904
669537.599227
1033905.754922
1004875.479415
1349652.059961
1391995.917414
1617874.250213
1742698.990171
1749315.784340
1988616.202073
1887864.059860
2186654.120943
2151212.704220
2417234.500189
2353370.885475
2568182.217357
2351636.111483
2551690.204571
2339741.273272
2471300.323249
2420361.838035
2390540.441998
2450809.020567
2223935.348058
2298911.870029
1874319.410564
2062026.674481
1429545.896293
1852881.440387
1028773.928357
1668990.630079
724699.445096
1574649.896378
518818.889342
1545316.750929
406426.903055
1498763.127124
410258.173003
1574825.876013
577719.026425
1571871.240672
581399.072169
1932254.119937
1056189.820138
2267807.207287
1528871.646037
2558336.851162
1915063.138804
2753535.235224
2044166.101849
2755500.407569
2083769.716390
2810676.615667
2096783.315356
2889610.742127
2028958.807639
2848274.686012
1925233.137389
2795148.703715
1886337.631519
2816259.835694
1999303.948909
2892203.122648
2239666.214601
3008928.701520
2592517.478737
3181138.325135
3096042.955642
3416879.976306
3776083.880187
3755466.946763
4532640.701089
4110425.143677
5221649.121073
4334246.953277
5835693.395927
4569725.248250
6447039.933812
4892204.714894
6951899.340549
5049995.613233
7145756.187550
4992207.374851
7089907.887846
4950515.561210
7052927.248670
4973900.696614
7185212.243916
5049744.983881
7461523.677973
5237955.483556
7707209.769082
5253068.577496
7634017.866454
5377254.794718
7590259.270392
5383049.627734
7076080.634169
5016666.707039
7035708.257205
5008527.066349
7075699.471366
5019508.795900
7136962.462727
5082459.546313
6941511.316841
4922921.675800
6438388.995286
4606497.534682
5833817.479608
4371129.625346
5215057.311548
4122203.684443
4530271.873191
3757313.455032
3776098.094302
3415263.429662
3095371.328460
3181927.863170
2592790.624088
3007716.450322
2240907.897269
2889736.852523
2001394.955354
2813123.185693
1884096.521647
2790836.464211
1924782.623017
2845528.768657
2029293.863648
2887863.263215
2095553.235269
2812680.798865
2088840.309489
2757288.270309
2043554.343558
2755929.457238
1907949.595715
2581827.943450
1509950.276244
2270164.326302
959860.895505
2061794.524728
489661.486125
2033042.138886
275007.420423
1848384.703101
113511.930215
1384184.046998
443316.133981
1480888.346135
536466.155778
1566081.629459
727221.326340
1696244.726615
1027450.512419
1844905.104627
1435012.196542
2053011.348699
1879912.471469
2292091.827036
2226420.597366
2448536.934612
2390990.218168
2422481.544200
2468174.753068
2342461.133707
2549094.385676
2353011.539023
2566058.259668
2352674.024229
2417637.188925
2155138.002518
2183322.327898
1891817.681907
1984975.320410
1753196.023071
1742740.891803
1616078.824890
1392541.150940
1344513.569199
1003433.935055
1035511.771473
668787.334455
850815.254002
408674.491318
764561.655962
209127.994320
723720.721682
87257.645802
721807.374440
4029.006402
751830.673021
12259.281703
800278.096804
58832.122695
890263.125860
225142.129634
902219.987339
486850.391244
491671.857902
750643.931181
645991.760295
637069.626461
653412.024355
484198.039413
546977.085605
463399.998902
493023.693554
453424.827901
446495.399353
357748.603607
348351.927309
299770.767381
266765.204274
317619.757069
227817.459709
356445.615532
254481.568959
371556.789452
290716.501957
362615.506752
274765.017767
334321.534311
278418.687486
328653.543176
356306.955028
276408.944158
431328.619731
143015.627538
413053.622901
40859.187765
372597.459527
12084.149571
404523.123635
-82204.991248
433460.060685
-247457.011390
356738.560330
-268926.293840
240684.197837
-200543.001162
206023.777987
-170702.275824
202997.393847
-188833.542851
202387.149674
-292695.016247
215050.252815
-381328.042597
187598.308199
-352925.066656
118789.091148
-299343.420341
191597.149219
-271620.040439
227339.208103
-207776.491163
207963.137714
-208571.779473
247084.831255
-274931.884039
371198.256355
-260594.476088
444888.675256
-93009.434409
406145.104287
10104.445790
367862.376831
45493.711329
410524.792143
145146.353207
433138.885983
274453.928070
357550.151569
327850.786904
276405.253426
335655.719387
272848.419093
363998.095843
288088.572441
373849.799892
252617.326653
357979.328586
228949.054538
316779.739790
275637.854708
293052.442937
354833.953479
352156.470289
443721.169534
453835.449562
493241.721425
462882.911623
551601.769144
477766.861103
674843.058249
623972.386220
683430.148047
721892.201819
545069.108280
670495.074750
441068.819621
575616.151590
299588.079277
293667.684458
781619.453790
101982.990703
811576.076311
12774.427849
745463.163240
75630.454689
735949.419096
193400.940503
759184.845225
407030.309065
841532.770185
675905.602841
1033782.379398
1007837.178227
1346064.588743
1393727.336661
1618618.016284
1742247.549911
1748014.538986
1986582.309761
1882683.086040
2189084.880779
2150747.900673
2419276.913133
2348472.301001
2566185.015983
2352805.448301
2550702.559037
2341174.386331
2470623.324917
2421083.081042
2391454.466340
2448175.134833
2225414.828441
2286905.715351
1882296.536444
2053475.453949
1434044.963068
1852690.261598
1029191.835037
1672727.398726
723178.053939
1575962.514066
517865.512344
1525908.227467
410135.070321
1455893.839272
421080.410211
1503379.435364
567962.507125
1546343.045879
619834.080142
1939597.117790
1066809.008213
2232471.354863
1542584.578717
2557317.714386
1924593.320968
2749144.013982
2050285.832088
2751479.400107
2087868.562747
2804227.356063
2099059.735950
2878633.758480
2033986.907202
2834167.947322
1926933.397586
2785132.519325
1891423.107383
2808858.354770
2001444.038433
2888379.308256
2243607.714327
3009992.261139
2593303.073553
3182898.037332
3094020.999542
3422467.547482
3775255.196119
3767140.854801
4529514.257321
4127774.120922
5218031.914677
4355984.304033
5832792.496624
4590152.937172
6440568.811570
4916179.715685
6947780.443314
5075385.343020
7141303.682608
5018941.913340
7090414.191043
4956097.216669
7046937.109939
4968413.924294
7186483.486417
5047463.153489
7469053.731316
5234999.926902
7696871.706943
5302184.106641
7634926.064854
5331385.795663
7626251.388964
5352566.052339
7089290.679915
5030640.433065
7019614.534581
4988477.990560
7083076.800293
5010026.518628
7142173.461697
5073422.937418
6943921.363817
4921903.119498
6441126.217776
4600615.251517
5828777.977546
4350544.465976
5218394.416604
4125563.931778
4530839.403154
3766708.406036
3774788.664533
3422304.839457
3096188.704188
3178688.481917
2590883.220252
3007669.572726
2241922.061052
2890254.610978
1998562.221851
2812393.499251
1884671.710932
2789403.163199
1924353.693720
2846193.749042
2029536.534182
2886411.495952
2095580.679243
2809303.045332
2087568.266108
2754675.705782
2041411.912475
2756279.137272
1907500.873095
2580296.205023
1512525.980647
2264822.154713
959669.973601
2046453.275987
475439.026326
2040913.143460
283699.993751
1833331.118677
117784.436314
1325635.994479
487718.160537
1407842.905039
540615.907023
1571196.805286
729505.442030
1694904.459353
1039851.231831
1841548.226575
1435090.064194
2052791.768972
1876969.159166
2291649.417040
2225344.009519
2446379.874773
2391421.338817
2419908.717953
2471481.573466
2340753.509713
2549530.783777
2354913.772618
2563136.501346
2352949.216712
2418090.318807
2155648.638589
2184389.587969
1888499.814455
1982186.720835
1757587.615488
1741902.191624
1619052.757984
1392353.816448
1348736.063608
1005774.256950
1035822.953042
674435.177147
845489.487508
409770.155462
757002.092433
SCALARS stress_2 float
LOOKUP_TABLE default
721675.008713
1690175.932959
2277715.894756
3118671.742279
3406434.071122
4198490.407450
3187398.034946
3737872.763051
2932766.417914
3174641.912127
2450072.007397
2448355.931350
1914878.707686
1844150.313442
1808480.549762
1665839.107174
1844021.061110
1550953.273561
1520011.216040
1177714.483280
1136592.228339
902332.604907
1200520.542000
1043580.789848
1393080.053061
1242783.162016
1193796.699137
1146691.815712
911361.344318
1106260.646404
1062643.074800
1447308.814090
1325496.460509
1826663.268169
1409836.930148
2010589.580799
1467136.279617
2112642.169686
1518480.945900
2124418.782705
1596528.977152
2000896.073922
1458670.072796
1805145.257718
1709110.162467
1653501.264946
1538033.964250
1473424.935797
1370789.417417
1289471.374492
937285.323305
923526.969434
422523.423275
653918.784885
555822.989215
678028.322678
784660.158837
663270.065371
410635.417797
460101.000288
336857.169047
428062.569004
602222.124852
500265.551760
570634.712577
470452.488194
524030.604987
436520.504149
468092.796017
391182.815143
407073.232413
355900.769549
334745.256387
340189.354981
264162.558092
271993.995647
-154173.340926
123999.750112
-254949.899769
149024.206419
7213.052997
205529.634887
-373263.991975
39373.405881
-780106.159432
-38830.432350
-508512.951277
103216.592806
-215964.154042
218828.295372
-305306.088310
269010.505957
-221639.321488
158284.637284
-545040.988764
63261.280429
-992394.658073
43937.958206
-539819.834641
149931.896746
-183812.425321
194953.809508
-199233.568403
189307.439882
-191407.726175
87781.259219
-497743.760599
-49856.091474
-770109.454174
32378.367037
-369522.449804
206000.189886
6232.539079
149272.008054
-255024.066584
123139.376190
-152788.695402
272192.777000
263410.537977
341586.912141
334160.314317
354020.243385
407345.818063
388151.845138
470714.625364
432363.944209
528423.112023
467680.450535
573983.878141
495657.343317
608541.685245
427676.169600
339530.118998
459422.078290
410636.291265
666467.730350
780344.804703
679087.252904
556773.668317
654306.113790
426505.284251
923385.704647
953596.375499
1367982.206355
1383785.754930
1569636.731447
1348102.382017
1787110.396562
1460204.688767
2026843.559832
1434747.272222
2122116.054879
1470777.549658
2166516.258521
1461580.470811
2129163.016547
1447243.464830
2015645.493829
1406027.746104
1824587.954166
1317077.704879
1448196.845704
1065574.584547
1104802.536327
912613.835650
1148093.697812
1193658.640271
1244770.676951
1388932.214889
1046952.078539
1195105.024653
903720.170857
1134647.905075
1177796.999102
1519579.108771
1549948.923428
1842139.343990
1665368.420382
1809283.735378
1843222.839879
1915388.337955
2449341.586622
2449816.347640
3174798.960702
2929044.564299
3728234.606226
3182086.179380
4197372.727919
3409480.295697
4567016.776037
3590859.538482
4806120.642814
3740375.371640
5103147.237480
3771664.693081
5073026.528747
3432548.338385
5145935.776895
3527694.940872
4888511.337460
3332777.203295
4407855.579249
3141713.201124
3967002.569497
3096415.176513
3982122.485117
3285412.376432
4181300.804622
3432369.641401
4174172.908595
3457750.830319
4287321.653747
3598289.967164
4596966.524270
3774363.743487
4754260.788021
3815570.213857
4750563.483388
3800928.046571
4610403.478048
3738116.380421
4334668.189868
3630956.632725
3904732.595261
3448222.710448
3314992.434350
3196779.958183
2536845.403859
2894188.772240
1822179.374023
2697443.406736
1316682.694854
2549698.192152
714138.663365
2307982.131977
130577.669374
2179388.702470
-49835.981262
2226881.410759
98099.184242
2295879.994663
204792.949547
2276394.054083
-1807.964716
2323860.958916
-103059.278193
2120786.951591
-625298.952829
1937629.745149
-500891.036488
2097496.321988
-207927.643679
2264041.959463
85084.602642
2325132.652520
178583.577783
2291288.238016
92203.056756
2192137.363494
-51219.578080
2137291.343542
126352.171082
2285683.639436
719094.997330
2547096.538097
1321337.491327
2697679.137658
1824027.133044
2892964.419521
2537123.599031
3197192.637952
3314766.279937
3449202.041591
3904882.892330
3631433.426949
4335212.438415
3735467.816444
4611332.194368
3795492.991231
4752047.484371
3808882.868450
4756947.235860
3766711.135793
4599078.328085
3586677.975397
4284975.660556
3450775.808442
4175083.852235
3435451.772428
4180628.266219
3292259.212748
3978245.836291
3113643.625713
3953470.942616
3207697.446919
4370060.713913
3275961.117506
4705357.512318
3725914.136146
4965575.030703
3802896.439417
4978228.753644
3771172.101978
4976593.594783
3712959.739742
4826325.035873
3586091.875298
4566745.856934
3421246.934881
4195043.280640
3198071.992759
3732832.561191
2936808.929453
3170935.786596
2450472.087601
2446374.901256
1914700.749708
1842724.336226
1809370.244763
1665000.921419
1845193.759479
1550474.181260
1522809.534965
1177778.490848
1136710.287042
902662.556443
1193525.877432
1048133.735329
1386037.162317
1245797.488235
1190530.256348
1149689.373707
910684.897454
1106549.992435
1066832.114191
1447881.779196
1322257.448795
1824990.782811
1398586.549908
2018873.545931
1449140.348097
2125162.925091
1506355.158789
2144786.187544
1611471.016923
1994288.185666
1463366.110742
1803475.744238
1717886.224436
1626267.461618
1573316.368376
1450430.349540
1382948.896850
1276796.252735
928636.414520
922456.422192
420766.213998
653842.665999
558898.366854
676739.511845
790335.631234
658720.210622
417447.480608
454132.786921
343872.881100
421974.017889
612273.096733
492205.071554
574653.754776
466781.954068
526829.077011
433439.300091
464542.434224
393612.019446
406511.934526
355527.109814
335164.234687
340221.608747
265860.328492
269875.381813
-147719.960288
119972.209738
-246350.294035
142396.512313
12638.172362
203870.749502
-375205.279683
36947.001333
-771498.808240
-46525.633621
-513925.386358
108968.026196
-212076.044340
220629.838266
-318727.591148
296510.358665
-266302.122592
222485.466347
-639848.415513
143183.451495
-1027098.594289
37439.409772
-538945.275960
160046.670729
-196419.952636
191586.274809
-191139.600537
184312.608424
-188191.288406
88260.317857
-497881.634931
-54319.643490
-766741.502306
35341.155880
-372065.215826
206438.848752
7985.571440
148083.925396
-254996.709556
122548.702513
-152213.614395
271166.772885
264752.875603
339698.874268
334732.012332
353673.526006
407974.332774
388736.368213
470762.628765
432341.885743
527981.678418
467569.387940
573520.182230
493684.026035
610337.998458
423109.660525
343343.780422
455260.624153
417587.981348
662969.842949
785830.444317
680205.787103
551559.474010
653690.429865
429542.000494
932645.342263
941583.194873
1326205.973939
1440625.601736
1543529.210590
1337924.595957
1762729.963051
1506005.083892
2016908.855776
1458392.263402
2120340.413720
1486656.375917
2161374.178269
1461201.670898
2134022.483719
1443632.339890
2020312.916138
1398688.537362
1828588.207177
1320990.635462
1448900.353498
1059759.907781
1105916.204245
911435.266408
1146938.963707
1193478.978603
1241445.150238
1391932.051008
1041374.316001
1206189.417197
894999.299353
1145801.578096
1175510.742013
1524025.086673
1548886.362726
1844741.295635
1664753.782744
1812561.465890
1844582.299042
1922095.687994
2448858.247627
2453970.439113
3173329.262617
2929365.290462
3730358.728386
3195190.728712
4200626.687001
3416095.748556
4571868.193834
3598649.938252
4790890.446025
3718242.966814
5102536.530013
3750179.688637
5075000.036366
3438102.321576
5138366.648523
3555784.126802
4890024.761345
3326387.533061
4407067.636570
3132638.116152
3969663.226632
3094048.419133
3984572.889854
3286171.918410
4181420.908489
3430888.805818
4176144.686127
3455093.559719
4289367.058603
3593971.390440
4599452.099416
3767997.555523
4756315.285936
3808948.840423
4751865.818144
3795092.472371
4611556.481699
3736988.103176
4335397.770011
3630361.447788
3904372.963672
3449947.798339
3313366.983920
3199808.787169
2535111.387375
2902166.827734
1821018.759209
2711527.083897
1316076.599209
2563749.361308
717383.803425
2310003.897447
124554.825934
2155062.046534
-46642.505739
2202711.308152
110875.796828
2285596.351406
194067.669593
2285529.444007
-12677.315227
2367716.265277
-112262.422075
2156864.740430
-623795.104706
1960354.778366
-511872.541950
2111092.020403
-199076.727582
2265711.279119
77248.925888
2320994.424336
174249.387745
2313939.077688
95784.206230
2205635.412823
-54718.361706
2138243.404244
125228.387759
2293399.866459
718620.698235
2552003.694956
1320263.587970
2704495.476417
1823331.201768
2897070.215337
2536554.824953
3199172.932719
3314791.114935
3445524.191822
3905327.258437
3623462.125779
4338832.253828
3722544.781411
4606825.425103
3781368.338484
4753058.177346
3802687.913030
4757278.381507
3763629.400319
4591696.537846
3591524.256379
4288994.084709
3456487.563726
4174043.464248
3437580.792726
4178341.667331
3290701.958989
3982758.302336
3108786.564282
3953171.354972
3190595.069752
4368883.471704
3246434.179470
4711206.171051
3694930.318842
4995601.431660
3795967.870528
4977761.515345
3780105.949937
4974023.196985
3715296.820289
4819897.717670
3584822.937547
3216217.400679
2138815.396941
1554450.395272
404244.491252
1523383.218474
422956.780344
1573019.669606
569579.921012
1567542.360713
570358.950360
1945716.580023
1040153.621705
2253177.302858
1531439.361893
2561932.549527
1918130.559056
2755040.380286
2044474.696436
2755345.854375
2087869.088230
2809565.065396
2095727.617850
2882375.047457
2029810.596239
2840034.716977
1926592.311958
2787481.176521
1888048.110742
2803761.900664
1997732.276952
2882680.531761
2244130.151288
3007604.926451
2592172.419527
3178584.759423
3096033.835836
3418883.517931
3776546.119607
3759622.681046
4531393.009144
4121659.327805
5223276.196164
4341436.578702
5832355.770309
4574634.016154
6443565.403679
4902378.419114
6947149.306199
5073879.888041
7142495.089872
5030268.290101
7093203.471927
4959831.934334
7041472.477704
4980914.178990
7186076.258506
5057435.969112
7468820.841673
5211154.560972
7705147.813137
5281455.346053
7627701.141390
5339167.994963
7625860.608582
5346911.205948
7112777.383779
5054924.486457
7003232.634418
4970925.991890
7079827.112194
5012433.568873
7141566.939095
5079733.381781
6948282.251204
4929225.664381
6440219.251481
4592710.604144
5830438.882104
4348619.310831
5218163.724126
4123533.985398
4530504.077117
3766694.558964
3773928.950428
3421990.466763
3094112.090238
3183129.947484
2589792.545873
3014387.517465
2240865.228976
2897880.852455
1998567.363081
2820009.612164
1885442.174822
2796669.348774
1924665.510116
2849669.338531
2030360.760592
2889802.875092
2097774.620418
2810652.329245
2087526.546186
2752031.534752
2046486.915300
2753446.806205
1908156.706741
2579389.768472
1520317.410762
2258977.244999
983580.908179
2023723.760366
496473.412770
2008927.296916
345386.471000
1770165.175597
156391.418400
1320009.966270
471803.683492
1477253.488383
513519.440838
1505745.290522
728941.509531
1686796.388584
1036404.693226
1848149.933956
1434275.573875
2059404.691581
1876104.276764
2293739.611249
2223712.378899
2449718.559331
2389618.585307
2423134.916231
2470623.923199
2340521.107300
2549428.633946
2353465.131812
2566555.830168
2351842.403964
2416455.855101
2153507.985846
2184719.291234
1894866.614905
1984407.850845
1753109.494610
1739965.758456
1620415.367671
1391310.790067
1345597.204729
1003933.433712
1035133.682977
670387.425449
849145.523830
407300.010712
768217.801363
219109.210455
721398.435439
87659.742932
701314.084619
12311.181918
747840.672202
22913.522002
788975.872054
73845.082062
856485.948192
214498.413763
923405.496200
496692.643978
488937.808998
749087.116121
642484.068122
642693.353479
648423.306951
488254.484058
543995.586291
463184.231556
492085.507251
455819.616287
441037.669623
353002.089210
354136.783891
292117.438943
276384.154253
314541.258000
231970.403557
355447.130749
255648.012770
371671.048068
290828.469916
363834.995702
272852.906118
336325.515375
276040.488759
329648.024509
355628.818734
278728.977707
429371.256829
148471.165865
407618.040345
48689.046997
364254.377348
20397.750880
395850.063000
-74375.590830
422682.279246
-233507.314947
341527.155990
-265446.072389
237277.896744
-193197.029429
197746.787837
-164143.996051
197278.843525
-189995.390326
204656.784494
-290968.384339
211049.430886
-364806.912906
170263.617532
-360508.379624
126608.408096
-291500.656858
185244.630223
-273697.308517
221869.227859
-200095.989944
202954.058882
-203371.373570
237744.816628
-264716.163824
350511.306051
-244820.934246
437431.199961
-87184.074679
418254.525891
-847.091554
376978.671786
38712.550874
410830.478502
143817.332899
429855.634566
277966.164030
353653.313350
330881.586586
275757.670750
335728.097918
273961.063273
363387.737360
287924.411734
374050.576768
249646.893954
360191.410904
228976.693344
316541.841818
275811.883430
293162.245267
355133.339496
351629.563407
448833.380422
450192.425779
494188.319540
462250.671201
550955.789475
477547.351175
673867.998470
623461.092471
683025.447031
721103.045812
549230.983092
666282.149947
444593.023083
571457.314214
328467.712133
290889.095484
804445.199275
88972.076760
795480.272931
24626.879935
730441.882166
84576.990583
722736.430549
203432.151679
771487.785734
400512.604005
849567.420235
668658.882722
1033558.418442
1006028.962109
1343430.737498
1394647.230856
1615203.954812
1744303.327714
1748199.873660
1987675.117965
1889046.484998
2185983.546992
2154223.292983
2416917.915864
2349749.427957
2569184.407360
2353196.295952
2550658.263820
2340149.389798
2469277.859044
2420726.274199
2391329.262601
2450261.449227
2224698.730782
2301173.912923
1875630.583102
2062911.453433
1425756.612928
1855657.111822
1025780.291152
1703824.762685
721025.329342
1582991.585813
515454.066486
1546544.816756
402250.949313
1521286.285822
420428.610174
1563037.635907
556273.463603
1558570.402370
591656.355884
1938414.757153
1061311.324741
2263807.608749
1533439.995456
2567051.994667
1918284.765743
2754845.286278
2044823.767515
2755926.779932
2088520.351374
2807601.037867
2095414.305884
2873455.162549
2027996.222438
2836902.930104
1929754.496461
2790044.030907
1888899.674870
2815694.260755
2000974.494333
2892012.106611
2239928.293910
3011009.687163
2593225.812149
3183952.031430
3094567.138835
3420055.434200
3774667.739647
3761903.504958
4529927.231459
4126855.145399
5218214.844138
4355031.737717
5831185.315885
4593114.100323
6439601.604265
4924810.958224
6954690.788678
5067859.360676
7138275.607708
5003460.196226
7084537.816589
4972018.671186
7055074.958884
4987636.499964
7178506.029196
5053189.080930
7459178.899950
5252437.036783
7714306.678764
5260881.119933
7623360.807451
5390491.730415
7591929.878811
5382288.131124
7076989.918778
5037518.086576
7030749.528613
5014240.790575
7071982.589729
5029899.533290
7131792.379371
5102227.634033
6947583.901624
4951910.182407
6438116.846378
4600715.564518
5828987.460547
4345112.017252
5219663.331315
4120341.834397
4530821.784556
3766879.139348
3774157.438401
3423532.526512
3095532.641936
3181731.420383
2593132.632965
3007647.040381
2241149.362022
2889141.328414
2000320.392401
2814534.700287
1886015.320212
2791841.782103
1924562.013886
2845829.235364
2029596.766172
2887868.508880
2097369.542011
2810099.868640
2085911.750501
2754122.374633
2042586.304265
2755428.460568
1907413.142211
2582548.970088
1508875.849281
2273325.184266
958785.121555
2064017.364027
483364.062950
2037882.724656
279076.230565
1829643.598178
120535.792634
1328051.598900
440348.639335
1476805.421450
540924.267252
1555707.532820
734080.681702
1701077.028554
1039508.532616
1846845.829092
1432346.307411
2044657.024887
1876646.665604
2289236.935173
2225428.195034
2449829.003958
2390744.577178
2421846.810778
2470872.704802
2340922.373870
2553566.646695
2348330.284666
2568308.948152
2347623.446707
2415785.530026
2153143.800456
2187505.792233
1883623.643486
1988957.535147
1748633.023383
1743065.767544
1617074.802801
1393260.272469
1344143.452118
1007104.943127
1032639.809709
666798.296285
849172.201655
399093.233494
775498.305080
213344.511605
725734.051242
88103.498588
707002.567944
21319.436189
743498.744728
44603.422327
778399.537980
93308.326703
814913.387053
264630.220343
853125.709112
463021.507212
481261.309685
774503.959691
618585.364839
643999.379656
642794.107106
488476.737690
541032.154705
464607.104122
491843.208170
455855.564386
441386.776489
354182.932795
351497.709807
295689.534360
272105.701815
319771.703260
225765.808318
357616.905711
252219.777450
373778.102866
288145.176577
361458.801767
276074.958757
334065.737198
277511.974960
327787.359590
355971.416947
273957.898691
433752.321784
142875.664190
413469.164259
40866.639065
372998.959841
12286.253145
405663.423209
-82135.467028
430331.916971
-243055.673449
352508.893157
-272226.429948
247173.182116
-197818.922402
201231.930694
-154212.037979
187874.722691
-184427.727735
197971.152467
-293796.520740
214423.645983
-363096.680678
172848.040667
-312130.032233
29783.811991
-261276.731960
137910.857036
-240944.043197
185585.538373
-172417.400767
197956.340813
-197494.337874
236589.763700
-261967.043285
344105.322214
-233062.674554
429745.314626
-84675.749491
407421.502448
11344.149134
371852.999396
41700.958540
415319.996751
141121.041314
433795.501637
274201.135675
355624.426098
329279.916840
272076.418043
339139.171889
271786.763349
364780.687576
286235.510939
375999.134412
249358.722446
359872.464758
228046.991016
317692.073868
275317.443383
293536.180637
353285.445027
353413.122255
444971.121158
453261.218757
491090.546048
464302.392487
549921.883147
480416.502538
670360.190280
628112.328342
670586.552896
730235.240645
529008.662394
673903.490819
445797.802665
575181.803592
326826.691344
275115.957892
839899.211408
43376.580030
797026.309194
37626.733439
743118.241505
69530.775161
738859.165386
190010.615368
767735.552962
402798.838284
846828.861497
671001.095033
1033810.862662
1006215.435296
1343522.685905
1393482.348652
1617204.947910
1742427.948110
1749375.750943
1990601.230503
1884564.534230
2188639.345992
2155017.890205
2415229.464305
2346424.647923
2570363.336674
2351762.788640
2553882.038881
2339807.788143
2469723.243587
2420594.784609
2390837.553007
2447834.648351
2223157.427757
2295229.470210
1876295.785167
2049097.233313
1428932.279017
1852655.517119
SCALARS stress_3 float
LOOKUP_TABLE default
-86032.261474
-1311944.896100
-1084285.392567
-2181513.913338
-2063865.729919
-3032779.890741
-1999969.609008
-2697250.176993
-1906997.865049
-2286921.966142
-1946623.392514
-1904651.169799
-2022527.165554
-1630654.381354
-1837391.159195
-1429756.536624
-1656999.112975
-1257643.048710
-1761061.856774
-1144430.065464
-1887431.774237
-1146795.144589
-1761729.669438
-1258708.906911
-1658260.248948
-1431531.857917
-1838869.411700
-1631197.719707
-2022580.686730
-1904882.825148
-1945208.982637
-2283817.178523
-1908814.838183
-2698810.424232
-2005595.938778
-3035935.131266
-2066865.913683
-3273246.003886
-2103433.358487
-3409386.089164
-2107984.954830
-3456991.057611
-2035201.932250
-3263261.139219
-2178008.074660
-3189767.119148
-2054016.419715
-2817973.986135
-1997000.586807
-2592260.681461
-1961611.927247
-2285440.074010
-1892615.542697
-1964085.491304
-1655773.239983
-1827726.088582
-1504809.063574
-1847131.859690
-1540154.934181
-1742288.458255
-1452664.762293
-1653246.039368
-1321877.354709
-1675349.665023
-1304983.631716
-1620746.916658
-1255218.365321
-1519686.313382
-1193172.247548
-1387480.815330
-1131658.404811
-1228354.166192
-1066507.385723
-1036847.515886
-991538.818902
-866339.697449
-951716.889389
-574678.666747
-824623.618512
-321483.520377
-689429.154632
-278165.712109
-683581.829967
-106555.893462
-577323.894823
153384.726005
-385756.765810
212294.975046
-296113.982406
124260.207393
-266514.120904
-32657.543123
-363646.436253
-168848.960707
45728.157713
-140565.275048
183678.134060
-126575.077958
342662.815351
-59102.797337
346535.969699
-106130.778439
336611.535572
-142458.079319
321360.986520
-220846.203256
402625.462075
-166000.612538
587415.110565
104148.466381
678624.828452
283596.335543
688290.054053
324021.269055
817824.156753
580510.824672
950959.342184
869039.329397
992759.909137
1037292.314772
1068373.912950
1227074.973177
1133033.160937
1384536.720431
1196483.462152
1515945.164186
1260134.018764
1617353.107565
1311460.996373
1670470.047232
1330080.789836
1647945.389576
1457525.325309
1737121.914707
1538505.430751
1845889.188284
1503381.420428
1826229.918428
1655904.744785
1964419.710961
1889665.329383
2285167.310563
1935210.064450
2643409.657542
1942525.082112
2926484.519349
1946517.278112
3202601.250950
2029131.450131
3382265.614540
2082914.626301
3446850.872381
2099790.150524
3406654.964881
2091683.921592
3269524.739045
2064511.619551
3040315.561193
2005103.316609
2693615.339002
1904862.409825
2285849.960849
1947116.638331
1904817.135834
2022008.429885
1632210.421021
1838079.053815
1429782.528276
1657013.745326
1257818.500172
1761035.938696
1145514.899326
1886828.797361
1144550.115521
1760946.815159
1256917.764160
1655647.911087
1429299.074197
1837649.701290
1631421.121779
2022010.138330
1905025.957952
1946302.104823
2286195.166315
1903989.537400
2692312.073571
2002878.528037
3035379.910423
2070797.931664
3274621.848625
2112216.011979
3407051.738633
2117000.597905
3472368.770740
2039865.163250
3262500.139876
2167172.190128
3167970.693414
2081237.596073
2819078.289727
2010503.116978
2580542.151631
1967809.471744
2282045.461289
1891357.089098
1961477.586807
1655290.007210
1824908.956242
1509647.008599
1847725.335975
1545140.784891
1742080.914381
1457725.197290
1652255.357758
1327750.093996
1673072.485662
1308192.659667
1618625.078459
1258347.731313
1516410.330059
1195096.453914
1384404.836570
1133020.094776
1226868.790944
1066088.158010
1036136.423925
990151.694175
866734.115771
949434.477364
574022.227988
821289.944455
320765.907018
693230.334745
273472.574998
694652.877766
112095.522818
579277.309645
-154171.991801
382568.525225
-209702.108751
294281.266572
-141943.806774
272354.799582
4568.079115
356887.134566
157591.863892
-100394.974951
213891.205126
-169050.419613
131174.777706
-330848.930898
46209.613816
-329746.550399
105835.935982
-341581.112193
145098.158415
-331394.184360
227077.732101
-407893.051237
168967.928182
-593315.494409
-100982.826631
-683919.844779
-274046.957899
-687805.721554
-321035.925378
-821074.678482
-573725.342499
-949726.760990
-865268.018303
-990000.377724
-1035933.494797
-1065676.679221
-1227630.779500
-1133235.610845
-1384699.567277
-1195829.103773
-1516500.895147
-1259428.685783
-1617542.147678
-1308665.125100
-1671956.940615
-1327511.585743
-1651604.359899
-1454992.075229
-1740886.623663
-1538999.568368
-1847790.788466
-1503666.744900
-1827168.414578
-1654167.288388
-1963307.702770
-1889613.554975
-2283059.731624
-1936349.099608
-2665316.682259
-1965318.578470
-2892727.144446
-1945234.835104
-3256641.462549
-2042516.465952
-3380442.787272
-2090434.040710
-3443065.010837
-2100104.518890
-3411239.855180
-2097096.438315
-3273625.524642
-2063362.614900
-3038086.493617
-2005524.425127
-2700086.356640
-1910059.137861
-2287371.263292
-1948293.112468
-1904370.306239
-2022984.748267
-1630609.909147
-1837623.198664
-1429155.636588
-1657019.122415
-1258467.762349
-1762001.468562
-1145375.607113
-1887319.018682
-1146228.904573
-1762059.092260
-1257674.175727
-1656292.281213
-1429457.740789
-1837882.764264
-1631232.469572
-2022537.726660
-1904470.545776
-1947298.962034
-2286838.305339
-1906742.401380
-2696259.904165
-2004865.436278
-3036669.374836
-2063137.847856
-3268071.187008
-2105706.323776
-3411697.080818
-2109958.435594
-3476152.970009
-2036705.737153
-3269064.484078
-2170481.384761
-3165644.284235
-2082956.637436
-2811344.125774
-2012159.881111
-2580000.892183
-1967958.957276
-2282678.222507
-1892439.900917
-1962365.184856
-1658569.802940
-1826833.844906
-1509837.756219
-1847107.551887
-1545119.147320
-1741451.227862
-1457561.011970
-1651974.683695
-1327046.137614
-1673212.199512
-1306991.837582
-1618266.122182
-1257059.814522
-1516226.964040
-1192401.551023
-1385454.552326
-1133433.462837
-1229447.795162
-1066568.485504
-1036860.815918
-992573.692779
-866001.463360
-957138.171125
-573468.717498
-828819.840187
-327156.690960
-687272.215826
-275657.137756
-680640.642973
-112723.682161
-577228.327099
160962.747740
-384275.618467
207165.642966
-290960.137045
141454.841319
-262331.321913
-3225.013410
-350576.296684
-151221.666625
84575.256872
-224291.175994
176185.346759
-134807.000482
334572.168378
-56411.626712
344245.215216
-120133.561745
340789.680147
-145434.177069
331908.862813
-229148.720029
406788.822733
-170442.330825
595825.817383
99515.262694
687419.550169
272286.389133
691151.047280
319538.493500
823943.899289
573345.543792
952532.723114
866097.020020
991818.170234
1036376.894252
1066462.081937
1227546.223787
1132485.698818
1385397.834808
1195554.177856
1517425.641138
1259642.630973
1617329.665421
1308700.907369
1671314.360915
1327292.767950
1650409.474126
1456030.346668
1742304.671777
1543911.472864
1848358.744025
1505615.358514
1828929.585966
1652891.411636
1964680.806963
1887224.544614
2280491.988868
1936058.865841
2663282.185867
1983881.107199
2886436.639364
1950115.948628
3252978.464479
2036673.423073
3377560.008807
2093743.724802
3454791.673129
2105085.441426
3400470.847553
2090127.173685
3273118.808656
2064388.873019
3038235.477696
2004289.680302
2697969.710440
1907731.656079
2283672.302611
1944933.144073
1905014.372513
2021836.009179
1631230.954157
1838737.797635
1430329.274717
1658633.838764
1260018.128955
1763527.765374
1146935.344803
1886976.329695
1145771.895768
1761710.524234
1257895.926763
1656649.372506
1429630.481953
1837913.982565
1632043.097867
2020614.144333
1904593.627193
1946624.386628
2283507.020286
1909108.161753
2699059.303885
2007293.977341
3035033.339725
2073455.408690
3278108.158129
2114321.766731
3407388.138757
2101908.016335
3457844.973201
2050118.593752
3254058.278404
2182223.829535
3183628.503081
2064442.134638
2803039.167344
2013942.563053
2579572.806066
1970367.303501
2284628.146572
1891676.251610
1961871.529313
1655471.063905
1824891.093662
1508860.236927
1846751.848780
1544045.613366
1740540.019576
1456977.512392
1650608.567331
1327616.697664
1671534.794185
1308504.635842
1617368.850313
1259180.614243
1516378.938283
1196188.842447
1385024.388530
1133131.675927
1227681.164201
1066197.780060
1036466.554679
992169.693442
867455.504820
952371.389562
579474.948409
819934.991952
325285.398112
688502.969938
282397.954216
674340.916857
112850.280364
576356.519436
-162494.943115
387347.655990
-217965.686682
289935.637771
-91739.471238
260793.213551
16101.938753
357917.708190
159878.215810
-99933.897326
208373.717575
-176846.711217
124970.406817
-333330.805890
54737.014802
-346514.197280
117584.994647
-339896.692642
146366.470150
-330652.494615
225059.491646
-412652.726670
169239.913136
-594135.094207
-99131.383052
-687239.374088
-272385.169899
-691133.354451
-319783.293973
-824312.351528
-573238.154551
-952355.746845
-866245.824832
-992148.222683
-1037210.987449
-1067474.877695
-1227828.402640
-1134006.119594
-1386417.662209
-1197342.649918
-1516646.861427
-1250806.553422
-1619312.292031
-1302300.700989
-1673783.047304
-1321757.233064
-1653308.478821
-1447222.898094
-1744705.331384
-1542202.898388
-1848275.911781
-1507146.441852
-1827451.425454
-1655053.072742
-1964265.648700
-1889887.553225
-2285903.600788
-1932909.423567
-2668806.954390
-1962885.065930
-2883381.280025
-1944660.445834
-3243506.186547
-2036230.795180
-3380978.195744
-2089119.562092
-3446902.464699
-2101580.795448
-3412552.271224
-2093636.658328
-2320776.887959
-1002803.050205
-1265166.480153
68333.565672
-1280341.569396
5875.293920
-1323902.136947
-178513.377593
-1286834.974413
-394766.333782
-1121110.514466
-800116.038265
-1295016.309677
-1009853.141539
-1317799.706015
-1057413.653640
-1271572.734591
-987327.997594
-1182616.785826
-919030.360335
-1143324.585813
-862544.719158
-1093780.679061
-757616.754017
-1003962.737470
-662842.204849
-969443.453134
-645023.187292
-970399.301762
-679331.357317
-960243.009248
-743746.706445
-984298.801269
-846734.642068
-1018198.379889
-995328.609786
-1041805.212924
-1152315.498532
-1034935.645498
-1251116.422530
-979816.625379
-1280689.834182
-895252.313978
-1295483.207316
-811052.288625
-1287007.402645
-684063.197994
-1164572.015909
-471317.556366
-952083.089873
-285830.318886
-772099.246475
-204750.200831
-676148.046212
-145305.974252
-647489.946885
-72931.622198
-579094.844281
93470.410902
-411984.343524
407969.874514
-182222.993440
629149.743966
314286.230124
23531.527548
642151.004914
38982.042363
716840.788880
154632.947283
795073.115473
271397.107336
969054.254172
466847.355744
1183622.324983
673832.883328
1291790.419217
804431.228801
1297859.396470
888118.674917
1283109.993063
978398.788101
1254293.346020
1032376.588923
1152865.126682
1043273.090694
996148.127643
1021948.910648
847100.580653
989500.524976
742079.810666
969290.144020
682103.503300
971364.154564
642889.679033
972476.763286
660546.208504
1007489.491607
759178.996872
1092721.539172
858925.149913
1143381.657666
915584.330831
1185395.607208
985375.461712
1273532.032183
1060003.577216
1336034.288706
1018485.332937
1316360.780238
794775.525912
1211217.646754
526332.788932
1171990.932480
314050.462009
954986.932698
37347.831199
1169033.952820
-29155.051677
1266970.886713
-50597.683768
1260025.009523
95640.302577
1312900.214705
316042.169018
1384475.005068
636088.401146
1479328.636890
1082909.230137
1616657.137641
1618276.637435
1795465.728583
2039258.501715
1907541.748942
2241459.818157
1941992.935164
2384482.392577
1998938.082782
2593343.229700
2065692.230950
2710707.462241
2066369.174489
2594769.031344
2000787.946997
2383805.340584
1941982.979443
2241819.545485
1908016.768067
2038537.283306
1795203.547502
1618468.689675
1617115.394918
1085838.398247
1478403.417042
636306.767649
1384263.415234
316875.214320
1310271.235683
80557.356011
1267340.305770
-35868.648123
1262307.872634
-62608.949183
1269792.668513
-17546.480386
1320760.863475
183726.943417
1287726.329205
397619.615018
1131367.194243
787862.194183
1306356.310478
1009819.211418
1317106.113289
1058093.525919
1270157.847279
988353.900039
1180086.661510
920755.557408
1140473.322485
860989.238042
1092954.959206
759785.070631
1006782.005310
660562.125977
972224.790175
643312.589306
971718.203130
682143.413041
968967.996659
741847.201672
986276.169755
845981.212105
1020989.476226
996426.053945
1044183.902555
1153770.537635
1035934.706073
1253024.967755
980663.264401
1281366.146453
891639.162434
1295365.337382
809949.853564
1288137.236321
685823.060281
1167973.386642
477144.576988
949781.689286
286615.408236
764934.022468
193281.184570
677588.292139
146633.305921
643242.864311
74273.281346
568746.903380
-101621.881408
414112.783612
-377234.163716
120854.060465
-606806.077339
-302314.276295
-36302.772972
-599022.397227
-115458.581036
-671392.089987
-168225.137501
-771011.639435
-275754.896689
-967174.559991
-463573.010662
-1177184.692688
-683277.939573
-1296019.318858
-807658.710003
-1298941.094759
-884706.067061
-1278191.706794
-977456.656421
-1250658.848632
-1035141.647724
-1152646.274235
-1043039.382837
-996638.259411
-1021048.580848
-847135.487052
-985167.910787
-739086.033738
-968986.374135
-682837.583496
-967924.219615
-644704.549305
-970396.544088
-661501.224695
-1006480.412839
-760412.825378
-1092811.516862
-860630.690868
-1145087.519626
-917109.016509
-1185244.620789
-985528.896546
-1275208.341610
-1059941.847192
-1338322.615742
-1019718.624436
-1327834.802351
-800630.276044
-1236120.708510
-547137.037369
-1122504.621665
-346280.520880
-927710.617279
-43207.593860
-1172919.424467
31861.814101
-1270991.252293
30857.074966
-1276126.613851
-88098.607385
-1312791.168964
-310723.850143
-1383208.065568
-635248.495808
-1477548.949253
-1083527.424574
-1617394.379120
-1617630.461580
-1794744.861982
-2038480.280947
-1907789.071038
-2242571.211972
-1941379.403130
-2384129.352546
-1998957.343949
-2593944.632843
-2066406.547867
-2710906.843514
-2066699.593952
-2593285.971369
-1999456.416853
-2385668.394641
-1941770.960754
-2241231.576369
-1907769.180180
-2038399.300996
-1794928.306587
-1618329.730930
-1617981.226983
-1086703.878976
-1477935.089170
-635132.023359
-1384738.770982
-314420.096737
-1313584.907095
-92030.741218
-1275180.950312
38114.523592
-1262131.947395
67065.451766
-1277063.831264
3715.131871
-1319907.590415
-172279.003495
-1289990.597826
-397634.900313
-1132894.808395
-784789.723055
-1309742.886305
-1009168.738662
-1321225.423145
-1057667.680836
-1271201.536528
-987843.669407
-1183296.929201
-919494.042400
-1143728.906484
-862764.421911
-1092153.242059
-757666.412952
-1003377.847294
-657796.986485
-969929.000360
-641746.506283
-970288.367224
-682122.649280
-969706.371942
-740002.779630
-986162.556500
-846705.597083
-1022655.464642
-996389.163863
-1043838.108004
-1153422.797625
-1033975.615470
-1252354.281784
-975847.918452
-1284226.620633
-887571.058624
-1298633.626248
-805956.545659
-1292093.395211
-679234.748175
-1172632.269877
-483884.455727
-951668.525083
-286999.579003
-764384.110139
-186209.377960
-685348.324764
-150212.682095
-646351.648363
-70908.447312
-568518.109283
102850.292077
-408279.804446
372548.570080
-130919.506246
606988.084876
303609.268034
41526.631461
604163.450814
111140.203945
669685.594886
169778.190564
770863.345787
281035.700370
967022.155013
473830.461181
1176249.117855
674352.132988
1291131.447303
800010.250777
1292990.732611
889115.022432
1281411.184504
978112.172622
1255947.647609
1032021.068376
1154336.125276
1042581.316226
995253.515353
1020956.894283
845087.936187
986486.146373
739687.186133
969013.360580
683184.753041
969564.448486
643668.864051
970716.667118
661260.082938
1006417.084343
760292.225615
1092569.147179
860157.607066
1142704.630274
918357.961538
1183254.249545
985990.933535
1275753.985932
1060913.024911
1339280.752059
1020810.782101
1328060.628482
801822.249933
1233472.470481
554006.537106
1113042.780929
348853.509657
900233.768566
24558.272575
1169185.254743
-33411.068178
1272180.746233
-28023.234073
1275413.588856
88679.479981
1317128.721673
312549.892392
1384820.914818
631148.869445
1475275.651406
1082942.348909
1616097.100868
1619439.001473
1795008.074063
2038978.362990
1907884.717808
2242710.398390
1940891.582351
2383478.446730
1998346.465516
2591390.498703
2065404.082000
2711809.080354
2065219.676292
2592300.713210
1998228.546252
2384703.940003
1941863.223471
2241730.769068
1908071.783203
2038449.124715
1794439.042743
1618273.507145
1617074.324422
1081269.438113
1476861.947142
636939.540809
1384334.482958
317322.014700
1309979.854694
81875.516258
1269461.896041
-33253.069286
1258547.107947
-63870.441687
1263169.310220
-12577.207411
1298014.006046
143349.695789
1289307.198083
425916.011006
1125161.569610
774498.180054
1295092.717490
1004543.540142
1312797.249192
1056537.618304
1268228.890727
986758.658522
1184270.401769
917009.577824
1143049.733727
858384.839339
1091900.259254
758536.882848
1009002.137526
655646.439704
970302.084628
641262.694791
972427.694442
678307.471725
968229.921867
738628.078508
987538.562195
845583.903020
1022283.936136
994628.934242
1040541.022372
1152743.287837
1031866.070053
1254342.334291
976811.375057
1282760.136643
886978.344295
1299519.476103
809427.480169
1291728.321902
679724.272029
1172409.584809
471464.295886
957546.216684
283306.579160
775875.338395
192986.514876
688007.749064
142877.128602
649658.446875
67077.492548
569317.684783
-110104.531520
424501.509272
-410225.299611
194329.713987
-633817.834022
-316622.107778
-27023.987596
-634910.984192
-71085.279735
-699113.502847
-160249.042932
-780438.720192
-272829.679838
-969950.898101
-462416.132036
-1180590.943248
-674713.337620
-1303400.300435
-799114.042806
-1297378.545236
-889002.594241
-1283746.855058
-977829.739114
-1253194.827508
-1032615.531611
-1152309.991175
-1042438.668791
-995257.754261
-1018351.709877
-846384.483456
-986035.528153
-743494.130291
-964628.617816
-683335.214774
-967463.037371
-644737.056624
-969904.740192
-662780.169847
-1005263.398417
-760855.759415
-1090981.651845
-860175.179206
-1143206.165211
-917920.566043
-1183429.239593
-988224.279423
-1273667.874914
-1061337.474526
-1335417.636826
-1020625.385213
-1319186.851285
-803365.223320
-1218931.030895
-549237.103560
-1126702.180022
-355487.762991
-908627.831409
-26148.705413
-1163921.571030
50262.161248
-1269248.959499
33086.519324
-1279021.308485
-89261.739520
-1314748.094395
-310135.943610
-1385366.987821
-632711.169083
-1478356.154028
-1083725.021487
-1616409.961228
-1617521.005040
-1793959.986415
-2038746.327406
-1907556.955019
-2241431.707476
-1942909.116874
-2384472.942962
-1998849.279195
-2593140.265961
-2065706.027603
-2712387.990494
-2066536.107778
-2590806.819128
-1999240.498698
-2386640.184428
-1942147.266253
-2241036.411339
-1907530.564629
-2039413.152850
-1794608.638175
-1618779.085765
-1617436.239674
-1085920.746801
-1475933.657859
-631605.500468
-1381773.132975
