# vtk DataFile Version 2.0
Generated volume Mesh
ASCII
DATASET UNSTRUCTURED_GRID
POINTS 891 float
0.005000 0.100000 0.000000
0.005000 0.000000 0.000000
0.005000 0.001250 0.000000
0.005000 0.002500 0.000000
0.005000 0.003750 0.000000
0.005000 0.005000 0.000000
0.005000 0.006250 0.000000
0.005000 0.007500 0.000000
0.005000 0.008750 0.000000
0.005000 0.010000 0.000000
0.005000 0.011250 0.000000
0.005000 0.012500 0.000000
0.005000 0.013750 0.000000
0.005000 0.015000 0.000000
0.005000 0.016250 0.000000
0.005000 0.017500 0.000000
0.005000 0.018750 0.000000
0.005000 0.020000 0.000000
0.005000 0.021250 0.000000
0.005000 0.022500 0.000000
0.005000 0.023750 0.000000
0.005000 0.025000 0.000000
0.005000 0.026250 0.000000
0.005000 0.027500 0.000000
0.005000 0.028750 0.000000
0.005000 0.030000 0.000000
0.005000 0.031250 0.000000
0.005000 0.032500 0.000000
0.005000 0.033750 0.000000
0.005000 0.035000 0.000000
0.005000 0.036250 0.000000
0.005000 0.037500 0.000000
0.005000 0.038750 0.000000
0.005000 0.040000 0.000000
0.005000 0.041250 0.000000
0.005000 0.042500 0.000000
0.005000 0.043750 0.000000
0.005000 0.045000 0.000000
0.005000 0.046250 0.000000
0.005000 0.047500 0.000000
0.005000 0.048750 0.000000
0.005000 0.050000 0.000000
0.005000 0.051250 0.000000
0.005000 0.052500 0.000000
0.005000 0.053750 0.000000
0.005000 0.055000 0.000000
0.005000 0.056250 0.000000
0.005000 0.057500 0.000000
0.005000 0.058750 0.000000
0.005000 0.060000 0.000000
0.005000 0.061250 0.000000
0.005000 0.062500 0.000000
0.005000 0.063750 0.000000
0.005000 0.065000 0.000000
0.005000 0.066250 0.000000
0.005000 0.067500 0.000000
0.005000 0.068750 0.000000
0.005000 0.070000 0.000000
0.005000 0.071250 0.000000
0.005000 0.072500 0.000000
0.005000 0.073750 0.000000
0.005000 0.075000 0.000000
0.005000 0.076250 0.000000
0.005000 0.077500 0.000000
0.005000 0.078750 0.000000
0.005000 0.080000 0.000000
0.005000 0.081250 0.000000
0.005000 0.082500 0.000000
0.005000 0.083750 0.000000
0.005000 0.085000 0.000000
0.005000 0.086250 0.000000
0.005000 0.087500 0.000000
0.005000 0.088750 0.000000
0.005000 0.090000 0.000000
0.005000 0.091250 0.000000
0.005000 0.092500 0.000000
0.005000 0.093750 0.000000
0.005000 0.095000 0.000000
0.005000 0.096250 0.000000
0.005000 0.097500 0.000000
0.005000 0.098750 0.000000
0.000000 0.000000 0.000000
0.000000 0.100000 0.000000
0.000000 0.098750 0.000000
0.000000 0.097500 0.000000
0.000000 0.096250 0.000000
0.000000 0.095000 0.000000
0.000000 0.093750 0.000000
0.000000 0.092500 0.000000
0.000000 0.091250 0.000000
0.000000 0.090000 0.000000
0.000000 0.088750 0.000000
0.000000 0.087500 0.000000
0.000000 0.086250 0.000000
0.000000 0.085000 0.000000
0.000000 0.083750 0.000000
0.000000 0.082500 0.000000
0.000000 0.081250 0.000000
0.000000 0.080000 0.000000
0.000000 0.078750 0.000000
0.000000 0.077500 0.000000
0.000000 0.076250 0.000000
0.000000 0.075000 0.000000
0.000000 0.073750 0.000000
0.000000 0.072500 0.000000
0.000000 0.071250 0.000000
0.000000 0.070000 0.000000
0.000000 0.068750 0.000000
0.000000 0.067500 0.000000
0.000000 0.066250 0.000000
0.000000 0.065000 0.000000
0.000000 0.063750 0.000000
0.000000 0.062500 0.000000
0.000000 0.061250 0.000000
0.000000 0.060000 0.000000
0.000000 0.058750 0.000000
0.000000 0.057500 0.000000
0.000000 0.056250 0.000000
0.000000 0.055000 0.000000
0.000000 0.053750 0.000000
0.000000 0.052500 0.000000
0.000000 0.051250 0.000000
0.000000 0.050000 0.000000
0.000000 0.048750 0.000000
0.000000 0.047500 0.000000
0.000000 0.046250 0.000000
0.000000 0.045000 0.000000
0.000000 0.043750 0.000000
0.000000 0.042500 0.000000
0.000000 0.041250 0.000000
0.000000 0.040000 0.000000
0.000000 0.038750 0.000000
0.000000 0.037500 0.000000
0.000000 0.036250 0.000000
0.000000 0.035000 0.000000
0.000000 0.033750 0.000000
0.000000 0.032500 0.000000
0.000000 0.031250 0.000000
0.000000 0.030000 0.000000
0.000000 0.028750 0.000000
0.000000 0.027500 0.000000
0.000000 0.026250 0.000000
0.000000 0.025000 0.000000
0.000000 0.023750 0.000000
0.000000 0.022500 0.000000
0.000000 0.021250 0.000000
0.000000 0.020000 0.000000
0.000000 0.018750 0.000000
0.000000 0.017500 0.000000
0.000000 0.016250 0.000000
0.000000 0.015000 0.000000
0.000000 0.013750 0.000000
0.000000 0.012500 0.000000
0.000000 0.011250 0.000000
0.000000 0.010000 0.000000
0.000000 0.008750 0.000000
0.000000 0.007500 0.000000
0.000000 0.006250 0.000000
0.000000 0.005000 0.000000
0.000000 0.003750 0.000000
0.000000 0.002500 0.000000
0.000000 0.001250 0.000000
0.000500 0.000000 0.000000
0.001000 0.000000 0.000000
0.001500 0.000000 0.000000
0.002000 0.000000 0.000000
0.002500 0.000000 0.000000
0.003000 0.000000 0.000000
0.003500 0.000000 0.000000
0.004000 0.000000 0.000000
0.004500 0.000000 0.000000
0.004500 0.100000 0.000000
0.004000 0.100000 0.000000
0.003500 0.100000 0.000000
0.003000 0.100000 0.000000
0.002500 0.100000 0.000000
0.002000 0.100000 0.000000
0.001500 0.100000 0.000000
0.001000 0.100000 0.000000
0.000500 0.100000 0.000000
0.000500 0.098750 0.000000
0.001000 0.098750 0.000000
0.001500 0.098750 0.000000
0.002000 0.098750 0.000000
0.002500 0.098750 0.000000
0.003000 0.098750 0.000000
0.003500 0.098750 0.000000
0.004000 0.098750 0.000000
0.004500 0.098750 0.000000
0.000500 0.097500 0.000000
0.001000 0.097500 0.000000
0.001500 0.097500 0.000000
0.002000 0.097500 0.000000
0.002500 0.097500 0.000000
0.003000 0.097500 0.000000
0.003500 0.097500 0.000000
0.004000 0.097500 0.000000
0.004500 0.097500 0.000000
0.000500 0.096250 0.000000
0.001000 0.096250 0.000000
0.001500 0.096250 0.000000
0.002000 0.096250 0.000000
0.002500 0.096250 0.000000
0.003000 0.096250 0.000000
0.003500 0.096250 0.000000
0.004000 0.096250 0.000000
0.004500 0.096250 0.000000
0.000500 0.095000 0.000000
0.001000 0.095000 0.000000
0.001500 0.095000 0.000000
0.002000 0.095000 0.000000
0.002500 0.095000 0.000000
0.003000 0.095000 0.000000
0.003500 0.095000 0.000000
0.004000 0.095000 0.000000
0.004500 0.095000 0.000000
0.000500 0.093750 0.000000
0.001000 0.093750 0.000000
0.001500 0.093750 0.000000
0.002000 0.093750 0.000000
0.002500 0.093750 0.000000
0.003000 0.093750 0.000000
0.003500 0.093750 0.000000
0.004000 0.093750 0.000000
0.004500 0.093750 0.000000
0.000500 0.092500 0.000000
0.001000 0.092500 0.000000
0.001500 0.092500 0.000000
0.002000 0.092500 0.000000
0.002500 0.092500 0.000000
0.003000 0.092500 0.000000
0.003500 0.092500 0.000000
0.004000 0.092500 0.000000
0.004500 0.092500 0.000000
0.000500 0.091250 0.000000
0.001000 0.091250 0.000000
0.001500 0.091250 0.000000
0.002000 0.091250 0.000000
0.002500 0.091250 0.000000
0.003000 0.091250 0.000000
0.003500 0.091250 0.000000
0.004000 0.091250 0.000000
0.004500 0.091250 0.000000
0.000500 0.090000 0.000000
0.001000 0.090000 0.000000
0.001500 0.090000 0.000000
0.002000 0.090000 0.000000
0.002500 0.090000 0.000000
0.003000 0.090000 0.000000
0.003500 0.090000 0.000000
0.004000 0.090000 0.000000
0.004500 0.090000 0.000000
0.000500 0.088750 0.000000
0.001000 0.088750 0.000000
0.001500 0.088750 0.000000
0.002000 0.088750 0.000000
0.002500 0.088750 0.000000
0.003000 0.088750 0.000000
0.003500 0.088750 0.000000
0.004000 0.088750 0.000000
0.004500 0.088750 0.000000
0.000500 0.087500 0.000000
0.001000 0.087500 0.000000
0.001500 0.087500 0.000000
0.002000 0.087500 0.000000
0.002500 0.087500 0.000000
0.003000 0.087500 0.000000
0.003500 0.087500 0.000000
0.004000 0.087500 0.000000
0.004500 0.087500 0.000000
0.000500 0.086250 0.000000
0.001000 0.086250 0.000000
0.001500 0.086250 0.000000
0.002000 0.086250 0.000000
0.002500 0.086250 0.000000
0.003000 0.086250 0.000000
0.003500 0.086250 0.000000
0.004000 0.086250 0.000000
0.004500 0.086250 0.000000
0.000500 0.085000 0.000000
0.001000 0.085000 0.000000
0.001500 0.085000 0.000000
0.002000 0.085000 0.000000
0.002500 0.085000 0.000000
0.003000 0.085000 0.000000
0.003500 0.085000 0.000000
0.004000 0.085000 0.000000
0.004500 0.085000 0.000000
0.000500 0.083750 0.000000
0.001000 0.083750 0.000000
0.001500 0.083750 0.000000
0.002000 0.083750 0.000000
0.002500 0.083750 0.000000
0.003000 0.083750 0.000000
0.003500 0.083750 0.000000
0.004000 0.083750 0.000000
0.004500 0.083750 0.000000
0.000500 0.082500 0.000000
0.001000 0.082500 0.000000
0.001500 0.082500 0.000000
0.002000 0.082500 0.000000
0.002500 0.082500 0.000000
0.003000 0.082500 0.000000
0.003500 0.082500 0.000000
0.004000 0.082500 0.000000
0.004500 0.082500 0.000000
0.000500 0.081250 0.000000
0.001000 0.081250 0.000000
0.001500 0.081250 0.000000
0.002000 0.081250 0.000000
0.002500 0.081250 0.000000
0.003000 0.081250 0.000000
0.003500 0.081250 0.000000
0.004000 0.081250 0.000000
0.004500 0.081250 0.000000
0.000500 0.080000 0.000000
0.001000 0.080000 0.000000
0.001500 0.080000 0.000000
0.002000 0.080000 0.000000
0.002500 0.080000 0.000000
0.003000 0.080000 0.000000
0.003500 0.080000 0.000000
0.004000 0.080000 0.000000
0.004500 0.080000 0.000000
0.000500 0.078750 0.000000
0.001000 0.078750 0.000000
0.001500 0.078750 0.000000
0.002000 0.078750 0.000000
0.002500 0.078750 0.000000
0.003000 0.078750 0.000000
0.003500 0.078750 0.000000
0.004000 0.078750 0.000000
0.004500 0.078750 0.000000
0.000500 0.077500 0.000000
0.001000 0.077500 0.000000
0.001500 0.077500 0.000000
0.002000 0.077500 0.000000
0.002500 0.077500 0.000000
0.003000 0.077500 0.000000
0.003500 0.077500 0.000000
0.004000 0.077500 0.000000
0.004500 0.077500 0.000000
0.000500 0.076250 0.000000
0.001000 0.076250 0.000000
0.001500 0.076250 0.000000
0.002000 0.076250 0.000000
0.002500 0.076250 0.000000
0.003000 0.076250 0.000000
0.003500 0.076250 0.000000
0.004000 0.076250 0.000000
0.004500 0.076250 0.000000
0.000500 0.075000 0.000000
0.001000 0.075000 0.000000
0.001500 0.075000 0.000000
0.002000 0.075000 0.000000
0.002500 0.075000 0.000000
0.003000 0.075000 0.000000
0.003500 0.075000 0.000000
0.004000 0.075000 0.000000
0.004500 0.075000 0.000000
0.000500 0.073750 0.000000
0.001000 0.073750 0.000000
0.001500 0.073750 0.000000
0.002000 0.073750 0.000000
0.002500 0.073750 0.000000
0.003000 0.073750 0.000000
0.003500 0.073750 0.000000
0.004000 0.073750 0.000000
0.004500 0.073750 0.000000
0.000500 0.072500 0.000000
0.001000 0.072500 0.000000
0.001500 0.072500 0.000000
0.002000 0.072500 0.000000
0.002500 0.072500 0.000000
0.003000 0.072500 0.000000
0.003500 0.072500 0.000000
0.004000 0.072500 0.000000
0.004500 0.072500 0.000000
0.000500 0.071250 0.000000
0.001000 0.071250 0.000000
0.001500 0.071250 0.000000
0.002000 0.071250 0.000000
0.002500 0.071250 0.000000
0.003000 0.071250 0.000000
0.003500 0.071250 0.000000
0.004000 0.071250 0.000000
0.004500 0.071250 0.000000
0.000500 0.070000 0.000000
0.001000 0.070000 0.000000
0.001500 0.070000 0.000000
0.002000 0.070000 0.000000
0.002500 0.070000 0.000000
0.003000 0.070000 0.000000
0.003500 0.070000 0.000000
0.004000 0.070000 0.000000
0.004500 0.070000 0.000000
0.000500 0.068750 0.000000
0.001000 0.068750 0.000000
0.001500 0.068750 0.000000
0.002000 0.068750 0.000000
0.002500 0.068750 0.000000
0.003000 0.068750 0.000000
0.003500 0.068750 0.000000
0.004000 0.068750 0.000000
0.004500 0.068750 0.000000
0.000500 0.067500 0.000000
0.001000 0.067500 0.000000
0.001500 0.067500 0.000000
0.002000 0.067500 0.000000
0.002500 0.067500 0.000000
0.003000 0.067500 0.000000
0.003500 0.067500 0.000000
0.004000 0.067500 0.000000
0.004500 0.067500 0.000000
0.000500 0.066250 0.000000
0.001000 0.066250 0.000000
0.001500 0.066250 0.000000
0.002000 0.066250 0.000000
0.002500 0.066250 0.000000
0.003000 0.066250 0.000000
0.003500 0.066250 0.000000
0.004000 0.066250 0.000000
0.004500 0.066250 0.000000
0.000500 0.065000 0.000000
0.001000 0.065000 0.000000
0.001500 0.065000 0.000000
0.002000 0.065000 0.000000
0.002500 0.065000 0.000000
0.003000 0.065000 0.000000
0.003500 0.065000 0.000000
0.004000 0.065000 0.000000
0.004500 0.065000 0.000000
0.000500 0.063750 0.000000
0.001000 0.063750 0.000000
0.001500 0.063750 0.000000
0.002000 0.063750 0.000000
0.002500 0.063750 0.000000
0.003000 0.063750 0.000000
0.003500 0.063750 0.000000
0.004000 0.063750 0.000000
0.004500 0.063750 0.000000
0.000500 0.062500 0.000000
0.001000 0.062500 0.000000
0.001500 0.062500 0.000000
0.002000 0.062500 0.000000
0.002500 0.062500 0.000000
0.003000 0.062500 0.000000
0.003500 0.062500 0.000000
0.004000 0.062500 0.000000
0.004500 0.062500 0.000000
0.000500 0.061250 0.000000
0.001000 0.061250 0.000000
0.001500 0.061250 0.000000
0.002000 0.061250 0.000000
0.002500 0.061250 0.000000
0.003000 0.061250 0.000000
0.003500 0.061250 0.000000
0.004000 0.061250 0.000000
0.004500 0.061250 0.000000
0.000500 0.060000 0.000000
0.001000 0.060000 0.000000
0.001500 0.060000 0.000000
0.002000 0.060000 0.000000
0.002500 0.060000 0.000000
0.003000 0.060000 0.000000
0.003500 0.060000 0.000000
0.004000 0.060000 0.000000
0.004500 0.060000 0.000000
0.000500 0.058750 0.000000
0.001000 0.058750 0.000000
0.001500 0.058750 0.000000
0.002000 0.058750 0.000000
0.002500 0.058750 0.000000
0.003000 0.058750 0.000000
0.003500 0.058750 0.000000
0.004000 0.058750 0.000000
0.004500 0.058750 0.000000
0.000500 0.057500 0.000000
0.001000 0.057500 0.000000
0.001500 0.057500 0.000000
0.002000 0.057500 0.000000
0.002500 0.057500 0.000000
0.003000 0.057500 0.000000
0.003500 0.057500 0.000000
0.004000 0.057500 0.000000
0.004500 0.057500 0.000000
0.000500 0.056250 0.000000
0.001000 0.056250 0.000000
0.001500 0.056250 0.000000
0.002000 0.056250 0.000000
0.002500 0.056250 0.000000
0.003000 0.056250 0.000000
0.003500 0.056250 0.000000
0.004000 0.056250 0.000000
0.004500 0.056250 0.000000
0.000500 0.055000 0.000000
0.001000 0.055000 0.000000
0.001500 0.055000 0.000000
0.002000 0.055000 0.000000
0.002500 0.055000 0.000000
0.003000 0.055000 0.000000
0.003500 0.055000 0.000000
0.004000 0.055000 0.000000
0.004500 0.055000 0.000000
0.000500 0.053750 0.000000
0.001000 0.053750 0.000000
0.001500 0.053750 0.000000
0.002000 0.053750 0.000000
0.002500 0.053750 0.000000
0.003000 0.053750 0.000000
0.003500 0.053750 0.000000
0.004000 0.053750 0.000000
0.004500 0.053750 0.000000
0.000500 0.052500 0.000000
0.001000 0.052500 0.000000
0.001500 0.052500 0.000000
0.002000 0.052500 0.000000
0.002500 0.052500 0.000000
0.003000 0.052500 0.000000
0.003500 0.052500 0.000000
0.004000 0.052500 0.000000
0.004500 0.052500 0.000000
0.000500 0.051250 0.000000
0.001000 0.051250 0.000000
0.001500 0.051250 0.000000
0.002000 0.051250 0.000000
0.002500 0.051250 0.000000
0.003000 0.051250 0.000000
0.003500 0.051250 0.000000
0.004000 0.051250 0.000000
0.004500 0.051250 0.000000
0.000500 0.050000 0.000000
0.001000 0.050000 0.000000
0.001500 0.050000 0.000000
0.002000 0.050000 0.000000
0.002500 0.050000 0.000000
0.003000 0.050000 0.000000
0.003500 0.050000 0.000000
0.004000 0.050000 0.000000
0.004500 0.050000 0.000000
0.000500 0.048750 0.000000
0.001000 0.048750 0.000000
0.001500 0.048750 0.000000
0.002000 0.048750 0.000000
0.002500 0.048750 0.000000
0.003000 0.048750 0.000000
0.003500 0.048750 0.000000
0.004000 0.048750 0.000000
0.004500 0.048750 0.000000
0.000500 0.047500 0.000000
0.001000 0.047500 0.000000
0.001500 0.047500 0.000000
0.002000 0.047500 0.000000
0.002500 0.047500 0.000000
0.003000 0.047500 0.000000
0.003500 0.047500 0.000000
0.004000 0.047500 0.000000
0.004500 0.047500 0.000000
0.000500 0.046250 0.000000
0.001000 0.046250 0.000000
0.001500 0.046250 0.000000
0.002000 0.046250 0.000000
0.002500 0.046250 0.000000
0.003000 0.046250 0.000000
0.003500 0.046250 0.000000
0.004000 0.046250 0.000000
0.004500 0.046250 0.000000
0.000500 0.045000 0.000000
0.001000 0.045000 0.000000
0.001500 0.045000 0.000000
0.002000 0.045000 0.000000
0.002500 0.045000 0.000000
0.003000 0.045000 0.000000
0.003500 0.045000 0.000000
0.004000 0.045000 0.000000
0.004500 0.045000 0.000000
0.000500 0.043750 0.000000
0.001000 0.043750 0.000000
0.001500 0.043750 0.000000
0.002000 0.043750 0.000000
0.002500 0.043750 0.000000
0.003000 0.043750 0.000000
0.003500 0.043750 0.000000
0.004000 0.043750 0.000000
0.004500 0.043750 0.000000
0.000500 0.042500 0.000000
0.001000 0.042500 0.000000
0.001500 0.042500 0.000000
0.002000 0.042500 0.000000
0.002500 0.042500 0.000000
0.003000 0.042500 0.000000
0.003500 0.042500 0.000000
0.004000 0.042500 0.000000
0.004500 0.042500 0.000000
0.000500 0.041250 0.000000
0.001000 0.041250 0.000000
0.001500 0.041250 0.000000
0.002000 0.041250 0.000000
0.002500 0.041250 0.000000
0.003000 0.041250 0.000000
0.003500 0.041250 0.000000
0.004000 0.041250 0.000000
0.004500 0.041250 0.000000
0.000500 0.040000 0.000000
0.001000 0.040000 0.000000
0.001500 0.040000 0.000000
0.002000 0.040000 0.000000
0.002500 0.040000 0.000000
0.003000 0.040000 0.000000
0.003500 0.040000 0.000000
0.004000 0.040000 0.000000
0.004500 0.040000 0.000000
0.000500 0.038750 0.000000
0.001000 0.038750 0.000000
0.001500 0.038750 0.000000
0.002000 0.038750 0.000000
0.002500 0.038750 0.000000
0.003000 0.038750 0.000000
0.003500 0.038750 0.000000
0.004000 0.038750 0.000000
0.004500 0.038750 0.000000
0.000500 0.037500 0.000000
0.001000 0.037500 0.000000
0.001500 0.037500 0.000000
0.002000 0.037500 0.000000
0.002500 0.037500 0.000000
0.003000 0.037500 0.000000
0.003500 0.037500 0.000000
0.004000 0.037500 0.000000
0.004500 0.037500 0.000000
0.000500 0.036250 0.000000
0.001000 0.036250 0.000000
0.001500 0.036250 0.000000
0.002000 0.036250 0.000000
0.002500 0.036250 0.000000
0.003000 0.036250 0.000000
0.003500 0.036250 0.000000
0.004000 0.036250 0.000000
0.004500 0.036250 0.000000
0.000500 0.035000 0.000000
0.001000 0.035000 0.000000
0.001500 0.035000 0.000000
0.002000 0.035000 0.000000
0.002500 0.035000 0.000000
0.003000 0.035000 0.000000
0.003500 0.035000 0.000000
0.004000 0.035000 0.000000
0.004500 0.035000 0.000000
0.000500 0.033750 0.000000
0.001000 0.033750 0.000000
0.001500 0.033750 0.000000
0.002000 0.033750 0.000000
0.002500 0.033750 0.000000
0.003000 0.033750 0.000000
0.003500 0.033750 0.000000
0.004000 0.033750 0.000000
0.004500 0.033750 0.000000
0.000500 0.032500 0.000000
0.001000 0.032500 0.000000
0.001500 0.032500 0.000000
0.002000 0.032500 0.000000
0.002500 0.032500 0.000000
0.003000 0.032500 0.000000
0.003500 0.032500 0.000000
0.004000 0.032500 0.000000
0.004500 0.032500 0.000000
0.000500 0.031250 0.000000
0.001000 0.031250 0.000000
0.001500 0.031250 0.000000
0.002000 0.031250 0.000000
0.002500 0.031250 0.000000
0.003000 0.031250 0.000000
0.003500 0.031250 0.000000
0.004000 0.031250 0.000000
0.004500 0.031250 0.000000
0.000500 0.030000 0.000000
0.001000 0.030000 0.000000
0.001500 0.030000 0.000000
0.002000 0.030000 0.000000
0.002500 0.030000 0.000000
0.003000 0.030000 0.000000
0.003500 0.030000 0.000000
0.004000 0.030000 0.000000
0.004500 0.030000 0.000000
0.000500 0.028750 0.000000
0.001000 0.028750 0.000000
0.001500 0.028750 0.000000
0.002000 0.028750 0.000000
0.002500 0.028750 0.000000
0.003000 0.028750 0.000000
0.003500 0.028750 0.000000
0.004000 0.028750 0.000000
0.004500 0.028750 0.000000
0.000500 0.027500 0.000000
0.001000 0.027500 0.000000
0.001500 0.027500 0.000000
0.002000 0.027500 0.000000
0.002500 0.027500 0.000000
0.003000 0.027500 0.000000
0.003500 0.027500 0.000000
0.004000 0.027500 0.000000
0.004500 0.027500 0.000000
0.000500 0.026250 0.000000
0.001000 0.026250 0.000000
0.001500 0.026250 0.000000
0.002000 0.026250 0.000000
0.002500 0.026250 0.000000
0.003000 0.026250 0.000000
0.003500 0.026250 0.000000
0.004000 0.026250 0.000000
0.004500 0.026250 0.000000
0.000500 0.025000 0.000000
0.001000 0.025000 0.000000
0.001500 0.025000 0.000000
0.002000 0.025000 0.000000
0.002500 0.025000 0.000000
0.003000 0.025000 0.000000
0.003500 0.025000 0.000000
0.004000 0.025000 0.000000
0.004500 0.025000 0.000000
0.000500 0.023750 0.000000
0.001000 0.023750 0.000000
0.001500 0.023750 0.000000
0.002000 0.023750 0.000000
0.002500 0.023750 0.000000
0.003000 0.023750 0.000000
0.003500 0.023750 0.000000
0.004000 0.023750 0.000000
0.004500 0.023750 0.000000
0.000500 0.022500 0.000000
0.001000 0.022500 0.000000
0.001500 0.022500 0.000000
0.002000 0.022500 0.000000
0.002500 0.022500 0.000000
0.003000 0.022500 0.000000
0.003500 0.022500 0.000000
0.004000 0.022500 0.000000
0.004500 0.022500 0.000000
0.000500 0.021250 0.000000
0.001000 0.021250 0.000000
0.001500 0.021250 0.000000
0.002000 0.021250 0.000000
0.002500 0.021250 0.000000
0.003000 0.021250 0.000000
0.003500 0.021250 0.000000
0.004000 0.021250 0.000000
0.004500 0.021250 0.000000
0.000500 0.020000 0.000000
0.001000 0.020000 0.000000
0.001500 0.020000 0.000000
0.002000 0.020000 0.000000
0.002500 0.020000 0.000000
0.003000 0.020000 0.000000
0.003500 0.020000 0.000000
0.004000 0.020000 0.000000
0.004500 0.020000 0.000000
0.000500 0.018750 0.000000
0.001000 0.018750 0.000000
0.001500 0.018750 0.000000
0.002000 0.018750 0.000000
0.002500 0.018750 0.000000
0.003000 0.018750 0.000000
0.003500 0.018750 0.000000
0.004000 0.018750 0.000000
0.004500 0.018750 0.000000
0.000500 0.017500 0.000000
0.001000 0.017500 0.000000
0.001500 0.017500 0.000000
0.002000 0.017500 0.000000
0.002500 0.017500 0.000000
0.003000 0.017500 0.000000
0.003500 0.017500 0.000000
0.004000 0.017500 0.000000
0.004500 0.017500 0.000000
0.000500 0.016250 0.000000
0.001000 0.016250 0.000000
0.001500 0.016250 0.000000
0.002000 0.016250 0.000000
0.002500 0.016250 0.000000
0.003000 0.016250 0.000000
0.003500 0.016250 0.000000
0.004000 0.016250 0.000000
0.004500 0.016250 0.000000
0.000500 0.015000 0.000000
0.001000 0.015000 0.000000
0.001500 0.015000 0.000000
0.002000 0.015000 0.000000
0.002500 0.015000 0.000000
0.003000 0.015000 0.000000
0.003500 0.015000 0.000000
0.004000 0.015000 0.000000
0.004500 0.015000 0.000000
0.000500 0.013750 0.000000
0.001000 0.013750 0.000000
0.001500 0.013750 0.000000
0.002000 0.013750 0.000000
0.002500 0.013750 0.000000
0.003000 0.013750 0.000000
0.003500 0.013750 0.000000
0.004000 0.013750 0.000000
0.004500 0.013750 0.000000
0.000500 0.012500 0.000000
0.001000 0.012500 0.000000
0.001500 0.012500 0.000000
0.002000 0.012500 0.000000
0.002500 0.012500 0.000000
0.003000 0.012500 0.000000
0.003500 0.012500 0.000000
0.004000 0.012500 0.000000
0.004500 0.012500 0.000000
0.000500 0.011250 0.000000
0.001000 0.011250 0.000000
0.001500 0.011250 0.000000
0.002000 0.011250 0.000000
0.002500 0.011250 0.000000
0.003000 0.011250 0.000000
0.003500 0.011250 0.000000
0.004000 0.011250 0.000000
0.004500 0.011250 0.000000
0.000500 0.010000 0.000000
0.001000 0.010000 0.000000
0.001500 0.010000 0.000000
0.002000 0.010000 0.000000
0.002500 0.010000 0.000000
0.003000 0.010000 0.000000
0.003500 0.010000 0.000000
0.004000 0.010000 0.000000
0.004500 0.010000 0.000000
0.000500 0.008750 0.000000
0.001000 0.008750 0.000000
0.001500 0.008750 0.000000
0.002000 0.008750 0.000000
0.002500 0.008750 0.000000
0.003000 0.008750 0.000000
0.003500 0.008750 0.000000
0.004000 0.008750 0.000000
0.004500 0.008750 0.000000
0.000500 0.007500 0.000000
0.001000 0.007500 0.000000
0.001500 0.007500 0.000000
0.002000 0.007500 0.000000
0.002500 0.007500 0.000000
0.003000 0.007500 0.000000
0.003500 0.007500 0.000000
0.004000 0.007500 0.000000
0.004500 0.007500 0.000000
0.000500 0.006250 0.000000
0.001000 0.006250 0.000000
0.001500 0.006250 0.000000
0.002000 0.006250 0.000000
0.002500 0.006250 0.000000
0.003000 0.006250 0.000000
0.003500 0.006250 0.000000
0.004000 0.006250 0.000000
0.004500 0.006250 0.000000
0.000500 0.005000 0.000000
0.001000 0.005000 0.000000
0.001500 0.005000 0.000000
0.002000 0.005000 0.000000
0.002500 0.005000 0.000000
0.003000 0.005000 0.000000
0.003500 0.005000 0.000000
0.004000 0.005000 0.000000
0.004500 0.005000 0.000000
0.000500 0.003750 0.000000
0.001000 0.003750 0.000000
0.001500 0.003750 0.000000
0.002000 0.003750 0.000000
0.002500 0.003750 0.000000
0.003000 0.003750 0.000000
0.003500 0.003750 0.000000
0.004000 0.003750 0.000000
0.004500 0.003750 0.000000
0.000500 0.002500 0.000000
0.001000 0.002500 0.000000
0.001500 0.002500 0.000000
0.002000 0.002500 0.000000
0.002500 0.002500 0.000000
0.003000 0.002500 0.000000
0.003500 0.002500 0.000000
0.004000 0.002500 0.000000
0.004500 0.002500 0.000000
0.000500 0.001250 0.000000
0.001000 0.001250 0.000000
0.001500 0.001250 0.000000
0.002000 0.001250 0.000000
0.002500 0.001250 0.000000
0.003000 0.001250 0.000000
0.003500 0.001250 0.000000
0.004000 0.001250 0.000000
0.004500 0.001250 0.000000
CELLS 800 4000
4 82 83 180 179
4 179 180 181 178
4 178 181 182 177
4 177 182 183 176
4 176 183 184 175
4 175 184 185 174
4 174 185 186 173
4 173 186 187 172
4 172 187 188 171
4 171 188 80 0
4 83 84 189 180
4 180 189 190 181
4 181 190 191 182
4 182 191 192 183
4 183 192 193 184
4 184 193 194 185
4 185 194 195 186
4 186 195 196 187
4 187 196 197 188
4 188 197 79 80
4 84 85 198 189
4 189 198 199 190
4 190 199 200 191
4 191 200 201 192
4 192 201 202 193
4 193 202 203 194
4 194 203 204 195
4 195 204 205 196
4 196 205 206 197
4 197 206 78 79
4 85 86 207 198
4 198 207 208 199
4 199 208 209 200
4 200 209 210 201
4 201 210 211 202
4 202 211 212 203
4 203 212 213 204
4 204 213 214 205
4 205 214 215 206
4 206 215 77 78
4 86 87 216 207
4 207 216 217 208
4 208 217 218 209
4 209 218 219 210
4 210 219 220 211
4 211 220 221 212
4 212 221 222 213
4 213 222 223 214
4 214 223 224 215
4 215 224 76 77
4 87 88 225 216
4 216 225 226 217
4 217 226 227 218
4 218 227 228 219
4 219 228 229 220
4 220 229 230 221
4 221 230 231 222
4 222 231 232 223
4 223 232 233 224
4 224 233 75 76
4 88 89 234 225
4 225 234 235 226
4 226 235 236 227
4 227 236 237 228
4 228 237 238 229
4 229 238 239 230
4 230 239 240 231
4 231 240 241 232
4 232 241 242 233
4 233 242 74 75
4 89 90 243 234
4 234 243 244 235
4 235 244 245 236
4 236 245 246 237
4 237 246 247 238
4 238 247 248 239
4 239 248 249 240
4 240 249 250 241
4 241 250 251 242
4 242 251 73 74
4 90 91 252 243
4 243 252 253 244
4 244 253 254 245
4 245 254 255 246
4 246 255 256 247
4 247 256 257 248
4 248 257 258 249
4 249 258 259 250
4 250 259 260 251
4 251 260 72 73
4 91 92 261 252
4 252 261 262 253
4 253 262 263 254
4 254 263 264 255
4 255 264 265 256
4 256 265 266 257
4 257 266 267 258
4 258 267 268 259
4 259 268 269 260
4 260 269 71 72
4 92 93 270 261
4 261 270 271 262
4 262 271 272 263
4 263 272 273 264
4 264 273 274 265
4 265 274 275 266
4 266 275 276 267
4 267 276 277 268
4 268 277 278 269
4 269 278 70 71
4 93 94 279 270
4 270 279 280 271
4 271 280 281 272
4 272 281 282 273
4 273 282 283 274
4 274 283 284 275
4 275 284 285 276
4 276 285 286 277
4 277 286 287 278
4 278 287 69 70
4 94 95 288 279
4 279 288 289 280
4 280 289 290 281
4 281 290 291 282
4 282 291 292 283
4 283 292 293 284
4 284 293 294 285
4 285 294 295 286
4 286 295 296 287
4 287 296 68 69
4 95 96 297 288
4 288 297 298 289
4 289 298 299 290
4 290 299 300 291
4 291 300 301 292
4 292 301 302 293
4 293 302 303 294
4 294 303 304 295
4 295 304 305 296
4 296 305 67 68
4 96 97 306 297
4 297 306 307 298
4 298 307 308 299
4 299 308 309 300
4 300 309 310 301
4 301 310 311 302
4 302 311 312 303
4 303 312 313 304
4 304 313 314 305
4 305 314 66 67
4 97 98 315 306
4 306 315 316 307
4 307 316 317 308
4 308 317 318 309
4 309 318 319 310
4 310 319 320 311
4 311 320 321 312
4 312 321 322 313
4 313 322 323 314
4 314 323 65 66
4 98 99 324 315
4 315 324 325 316
4 316 325 326 317
4 317 326 327 318
4 318 327 328 319
4 319 328 329 320
4 320 329 330 321
4 321 330 331 322
4 322 331 332 323
4 323 332 64 65
4 99 100 333 324
4 324 333 334 325
4 325 334 335 326
4 326 335 336 327
4 327 336 337 328
4 328 337 338 329
4 329 338 339 330
4 330 339 340 331
4 331 340 341 332
4 332 341 63 64
4 100 101 342 333
4 333 342 343 334
4 334 343 344 335
4 335 344 345 336
4 336 345 346 337
4 337 346 347 338
4 338 347 348 339
4 339 348 349 340
4 340 349 350 341
4 341 350 62 63
4 101 102 351 342
4 342 351 352 343
4 343 352 353 344
4 344 353 354 345
4 345 354 355 346
4 346 355 356 347
4 347 356 357 348
4 348 357 358 349
4 349 358 359 350
4 350 359 61 62
4 102 103 360 351
4 351 360 361 352
4 352 361 362 353
4 353 362 363 354
4 354 363 364 355
4 355 364 365 356
4 356 365 366 357
4 357 366 367 358
4 358 367 368 359
4 359 368 60 61
4 103 104 369 360
4 360 369 370 361
4 361 370 371 362
4 362 371 372 363
4 363 372 373 364
4 364 373 374 365
4 365 374 375 366
4 366 375 376 367
4 367 376 377 368
4 368 377 59 60
4 104 105 378 369
4 369 378 379 370
4 370 379 380 371
4 371 380 381 372
4 372 381 382 373
4 373 382 383 374
4 374 383 384 375
4 375 384 385 376
4 376 385 386 377
4 377 386 58 59
4 105 106 387 378
4 378 387 388 379
4 379 388 389 380
4 380 389 390 381
4 381 390 391 382
4 382 391 392 383
4 383 392 393 384
4 384 393 394 385
4 385 394 395 386
4 386 395 57 58
4 106 107 396 387
4 387 396 397 388
4 388 397 398 389
4 389 398 399 390
4 390 399 400 391
4 391 400 401 392
4 392 401 402 393
4 393 402 403 394
4 394 403 404 395
4 395 404 56 57
4 107 108 405 396
4 396 405 406 397
4 397 406 407 398
4 398 407 408 399
4 399 408 409 400
4 400 409 410 401
4 401 410 411 402
4 402 411 412 403
4 403 412 413 404
4 404 413 55 56
4 108 109 414 405
4 405 414 415 406
4 406 415 416 407
4 407 416 417 408
4 408 417 418 409
4 409 418 419 410
4 410 419 420 411
4 411 420 421 412
4 412 421 422 413
4 413 422 54 55
4 109 110 423 414
4 414 423 424 415
4 415 424 425 416
4 416 425 426 417
4 417 426 427 418
4 418 427 428 419
4 419 428 429 420
4 420 429 430 421
4 421 430 431 422
4 422 431 53 54
4 110 111 432 423
4 423 432 433 424
4 424 433 434 425
4 425 434 435 426
4 426 435 436 427
4 427 436 437 428
4 428 437 438 429
4 429 438 439 430
4 430 439 440 431
4 431 440 52 53
4 111 112 441 432
4 432 441 442 433
4 433 442 443 434
4 434 443 444 435
4 435 444 445 436
4 436 445 446 437
4 437 446 447 438
4 438 447 448 439
4 439 448 449 440
4 440 449 51 52
4 112 113 450 441
4 441 450 451 442
4 442 451 452 443
4 443 452 453 444
4 444 453 454 445
4 445 454 455 446
4 446 455 456 447
4 447 456 457 448
4 448 457 458 449
4 449 458 50 51
4 113 114 459 450
4 450 459 460 451
4 451 460 461 452
4 452 461 462 453
4 453 462 463 454
4 454 463 464 455
4 455 464 465 456
4 456 465 466 457
4 457 466 467 458
4 458 467 49 50
4 114 115 468 459
4 459 468 469 460
4 460 469 470 461
4 461 470 471 462
4 462 471 472 463
4 463 472 473 464
4 464 473 474 465
4 465 474 475 466
4 466 475 476 467
4 467 476 48 49
4 115 116 477 468
4 468 477 478 469
4 469 478 479 470
4 470 479 480 471
4 471 480 481 472
4 472 481 482 473
4 473 482 483 474
4 474 483 484 475
4 475 484 485 476
4 476 485 47 48
4 116 117 486 477
4 477 486 487 478
4 478 487 488 479
4 479 488 489 480
4 480 489 490 481
4 481 490 491 482
4 482 491 492 483
4 483 492 493 484
4 484 493 494 485
4 485 494 46 47
4 117 118 495 486
4 486 495 496 487
4 487 496 497 488
4 488 497 498 489
4 489 498 499 490
4 490 499 500 491
4 491 500 501 492
4 492 501 502 493
4 493 502 503 494
4 494 503 45 46
4 118 119 504 495
4 495 504 505 496
4 496 505 506 497
4 497 506 507 498
4 498 507 508 499
4 499 508 509 500
4 500 509 510 501
4 501 510 511 502
4 502 511 512 503
4 503 512 44 45
4 119 120 513 504
4 504 513 514 505
4 505 514 515 506
4 506 515 516 507
4 507 516 517 508
4 508 517 518 509
4 509 518 519 510
4 510 519 520 511
4 511 520 521 512
4 512 521 43 44
4 120 121 522 513
4 513 522 523 514
4 514 523 524 515
4 515 524 525 516
4 516 525 526 517
4 517 526 527 518
4 518 527 528 519
4 519 528 529 520
4 520 529 530 521
4 521 530 42 43
4 121 122 531 522
4 522 531 532 523
4 523 532 533 524
4 524 533 534 525
4 525 534 535 526
4 526 535 536 527
4 527 536 537 528
4 528 537 538 529
4 529 538 539 530
4 530 539 41 42
4 122 123 540 531
4 531 540 541 532
4 532 541 542 533
4 533 542 543 534
4 534 543 544 535
4 535 544 545 536
4 536 545 546 537
4 537 546 547 538
4 538 547 548 539
4 539 548 40 41
4 123 124 549 540
4 540 549 550 541
4 541 550 551 542
4 542 551 552 543
4 543 552 553 544
4 544 553 554 545
4 545 554 555 546
4 546 555 556 547
4 547 556 557 548
4 548 557 39 40
4 124 125 558 549
4 549 558 559 550
4 550 559 560 551
4 551 560 561 552
4 552 561 562 553
4 553 562 563 554
4 554 563 564 555
4 555 564 565 556
4 556 565 566 557
4 557 566 38 39
4 125 126 567 558
4 558 567 568 559
4 559 568 569 560
4 560 569 570 561
4 561 570 571 562
4 562 571 572 563
4 563 572 573 564
4 564 573 574 565
4 565 574 575 566
4 566 575 37 38
4 126 127 576 567
4 567 576 577 568
4 568 577 578 569
4 569 578 579 570
4 570 579 580 571
4 571 580 581 572
4 572 581 582 573
4 573 582 583 574
4 574 583 584 575
4 575 584 36 37
4 127 128 585 576
4 576 585 586 577
4 577 586 587 578
4 578 587 588 579
4 579 588 589 580
4 580 589 590 581
4 581 590 591 582
4 582 591 592 583
4 583 592 593 584
4 584 593 35 36
4 128 129 594 585
4 585 594 595 586
4 586 595 596 587
4 587 596 597 588
4 588 597 598 589
4 589 598 599 590
4 590 599 600 591
4 591 600 601 592
4 592 601 602 593
4 593 602 34 35
4 129 130 603 594
4 594 603 604 595
4 595 604 605 596
4 596 605 606 597
4 597 606 607 598
4 598 607 608 599
4 599 608 609 600
4 600 609 610 601
4 601 610 611 602
4 602 611 33 34
4 130 131 612 603
4 603 612 613 604
4 604 613 614 605
4 605 614 615 606
4 606 615 616 607
4 607 616 617 608
4 608 617 618 609
4 609 618 619 610
4 610 619 620 611
4 611 620 32 33
4 131 132 621 612
4 612 621 622 613
4 613 622 623 614
4 614 623 624 615
4 615 624 625 616
4 616 625 626 617
4 617 626 627 618
4 618 627 628 619
4 619 628 629 620
4 620 629 31 32
4 132 133 630 621
4 621 630 631 622
4 622 631 632 623
4 623 632 633 624
4 624 633 634 625
4 625 634 635 626
4 626 635 636 627
4 627 636 637 628
4 628 637 638 629
4 629 638 30 31
4 133 134 639 630
4 630 639 640 631
4 631 640 641 632
4 632 641 642 633
4 633 642 643 634
4 634 643 644 635
4 635 644 645 636
4 636 645 646 637
4 637 646 647 638
4 638 647 29 30
4 134 135 648 639
4 639 648 649 640
4 640 649 650 641
4 641 650 651 642
4 642 651 652 643
4 643 652 653 644
4 644 653 654 645
4 645 654 655 646
4 646 655 656 647
4 647 656 28 29
4 135 136 657 648
4 648 657 658 649
4 649 658 659 650
4 650 659 660 651
4 651 660 661 652
4 652 661 662 653
4 653 662 663 654
4 654 663 664 655
4 655 664 665 656
4 656 665 27 28
4 136 137 666 657
4 657 666 667 658
4 658 667 668 659
4 659 668 669 660
4 660 669 670 661
4 661 670 671 662
4 662 671 672 663
4 663 672 673 664
4 664 673 674 665
4 665 674 26 27
4 137 138 675 666
4 666 675 676 667
4 667 676 677 668
4 668 677 678 669
4 669 678 679 670
4 670 679 680 671
4 671 680 681 672
4 672 681 682 673
4 673 682 683 674
4 674 683 25 26
4 138 139 684 675
4 675 684 685 676
4 676 685 686 677
4 677 686 687 678
4 678 687 688 679
4 679 688 689 680
4 680 689 690 681
4 681 690 691 682
4 682 691 692 683
4 683 692 24 25
4 139 140 693 684
4 684 693 694 685
4 685 694 695 686
4 686 695 696 687
4 687 696 697 688
4 688 697 698 689
4 689 698 699 690
4 690 699 700 691
4 691 700 701 692
4 692 701 23 24
4 140 141 702 693
4 693 702 703 694
4 694 703 704 695
4 695 704 705 696
4 696 705 706 697
4 697 706 707 698
4 698 707 708 699
4 699 708 709 700
4 700 709 710 701
4 701 710 22 23
4 141 142 711 702
4 702 711 712 703
4 703 712 713 704
4 704 713 714 705
4 705 714 715 706
4 706 715 716 707
4 707 716 717 708
4 708 717 718 709
4 709 718 719 710
4 710 719 21 22
4 142 143 720 711
4 711 720 721 712
4 712 721 722 713
4 713 722 723 714
4 714 723 724 715
4 715 724 725 716
4 716 725 726 717
4 717 726 727 718
4 718 727 728 719
4 719 728 20 21
4 143 144 729 720
4 720 729 730 721
4 721 730 731 722
4 722 731 732 723
4 723 732 733 724
4 724 733 734 725
4 725 734 735 726
4 726 735 736 727
4 727 736 737 728
4 728 737 19 20
4 144 145 738 729
4 729 738 739 730
4 730 739 740 731
4 731 740 741 732
4 732 741 742 733
4 733 742 743 734
4 734 743 744 735
4 735 744 745 736
4 736 745 746 737
4 737 746 18 19
4 145 146 747 738
4 738 747 748 739
4 739 748 749 740
4 740 749 750 741
4 741 750 751 742
4 742 751 752 743
4 743 752 753 744
4 744 753 754 745
4 745 754 755 746
4 746 755 17 18
4 146 147 756 747
4 747 756 757 748
4 748 757 758 749
4 749 758 759 750
4 750 759 760 751
4 751 760 761 752
4 752 761 762 753
4 753 762 763 754
4 754 763 764 755
4 755 764 16 17
4 147 148 765 756
4 756 765 766 757
4 757 766 767 758
4 758 767 768 759
4 759 768 769 760
4 760 769 770 761
4 761 770 771 762
4 762 771 772 763
4 763 772 773 764
4 764 773 15 16
4 148 149 774 765
4 765 774 775 766
4 766 775 776 767
4 767 776 777 768
4 768 777 778 769
4 769 778 779 770
4 770 779 780 771
4 771 780 781 772
4 772 781 782 773
4 773 782 14 15
4 149 150 783 774
4 774 783 784 775
4 775 784 785 776
4 776 785 786 777
4 777 786 787 778
4 778 787 788 779
4 779 788 789 780
4 780 789 790 781
4 781 790 791 782
4 782 791 13 14
4 150 151 792 783
4 783 792 793 784
4 784 793 794 785
4 785 794 795 786
4 786 795 796 787
4 787 796 797 788
4 788 797 798 789
4 789 798 799 790
4 790 799 800 791
4 791 800 12 13
4 151 152 801 792
4 792 801 802 793
4 793 802 803 794
4 794 803 804 795
4 795 804 805 796
4 796 805 806 797
4 797 806 807 798
4 798 807 808 799
4 799 808 809 800
4 800 809 11 12
4 152 153 810 801
4 801 810 811 802
4 802 811 812 803
4 803 812 813 804
4 804 813 814 805
4 805 814 815 806
4 806 815 816 807
4 807 816 817 808
4 808 817 818 809
4 809 818 10 11
4 153 154 819 810
4 810 819 820 811
4 811 820 821 812
4 812 821 822 813
4 813 822 823 814
4 814 823 824 815
4 815 824 825 816
4 816 825 826 817
4 817 826 827 818
4 818 827 9 10
4 154 155 828 819
4 819 828 829 820
4 820 829 830 821
4 821 830 831 822
4 822 831 832 823
4 823 832 833 824
4 824 833 834 825
4 825 834 835 826
4 826 835 836 827
4 827 836 8 9
4 155 156 837 828
4 828 837 838 829
4 829 838 839 830
4 830 839 840 831
4 831 840 841 832
4 832 841 842 833
4 833 842 843 834
4 834 843 844 835
4 835 844 845 836
4 836 845 7 8
4 156 157 846 837
4 837 846 847 838
4 838 847 848 839
4 839 848 849 840
4 840 849 850 841
4 841 850 851 842
4 842 851 852 843
4 843 852 853 844
4 844 853 854 845
4 845 854 6 7
4 157 158 855 846
4 846 855 856 847
4 847 856 857 848
4 848 857 858 849
4 849 858 859 850
4 850 859 860 851
4 851 860 861 852
4 852 861 862 853
4 853 862 863 854
4 854 863 5 6
4 158 159 864 855
4 855 864 865 856
4 856 865 866 857
4 857 866 867 858
4 858 867 868 859
4 859 868 869 860
4 860 869 870 861
4 861 870 871 862
4 862 871 872 863
4 863 872 4 5
4 159 160 873 864
4 864 873 874 865
4 865 874 875 866
4 866 875 876 867
4 867 876 877 868
4 868 877 878 869
4 869 878 879 870
4 870 879 880 871
4 871 880 881 872
4 872 881 3 4
4 160 161 882 873
4 873 882 883 874
4 874 883 884 875
4 875 884 885 876
4 876 885 886 877
4 877 886 887 878
4 878 887 888 879
4 879 888 889 880
4 880 889 890 881
4 881 890 2 3
4 161 81 162 882
4 882 162 163 883
4 883 163 164 884
4 884 164 165 885
4 885 165 166 886
4 886 166 167 887
4 887 167 168 888
4 888 168 169 889
4 889 169 170 890
4 890 170 1 2
CELL_TYPES 800
9
9
9
9
9
9
9
9
9
9
9
9
9
9
9
9
9
9
9
9
9
9
9
9
9
9
9
9
9
9
9
9
9
9
9
9
9
9
9
9
9
9
9
9
9
9
9
9
9
9
9
9
9
9
9
9
9
9
9
9
9
9
9
9
9
9
9
9
9
9
9
9
9
9
9
9
9
9
9
9
9
9
9
9
9
9
9
9
9
9
9
9
9
9
9
9
9
9
9
9
9
9
9
9
9
9
9
9
9
9
9
9
9
9
9
9
9
9
9
9
9
9
9
9
9
9
9
9
9
9
9
9
9
9
9
9
9
9
9
9
9
9
9
9
9
9
9
9
9
9
9
9
9
9
9
9
9
9
9
9
9
9
9
9
9
9
9
9
9
9
9
9
9
9
9
9
9
9
9
9
9
9
9
9
9
9
9
9
9
9
9
9
9
9
9
9
9
9
9
9
9
9
9
9
9
9
9
9
9
9
9
9
9
9
9
9
9
9
9
9
9
9
9
9
9
9
9
9
9
9
9
9
9
9
9
9
9
9
9
9
9
9
9
9
9
9
9
9
9
9
9
9
9
9
9
9
9
9
9
9
9
9
9
9
9
9
9
9
9
9
9
9
9
9
9
9
9
9
9
9
9
9
9
9
9
9
9
9
9
9
9
9
9
9
9
9
9
9
9
9
9
9
9
9
9
9
9
9
9
9
9
9
9
9
9
9
9
9
9
9
9
9
9
9
9
9
9
9
9
9
9
9
9
9
9
9
9
9
9
9
9
9
9
9
9
9
9
9
9
9
9
9
9
9
9
9
9
9
9
9
9
9
9
9
9
9
9
9
9
9
9
9
9
9
9
9
9
9
9
9
9
9
9
9
9
9
9
9
9
9
9
9
9
9
9
9
9
9
9
9
9
9
9
9
9
9
9
9
9
9
9
9
9
9
9
9
9
9
9
9
9
9
9
9
9
9
9
9
9
9
9
9
9
9
9
9
9
9
9
9
9
9
9
9
9
9
9
9
9
9
9
9
9
9
9
9
9
9
9
9
9
9
9
9
9
9
9
9
9
9
9
9
9
9
9
9
9
9
9
9
9
9
9
9
9
9
9
9
9
9
9
9
9
9
9
9
9
9
9
9
9
9
9
9
9
9
9
9
9
9
9
9
9
9
9
9
9
9
9
9
9
9
9
9
9
9
9
9
9
9
9
9
9
9
9
9
9
9
9
9
9
9
9
9
9
9
9
9
9
9
9
9
9
9
9
9
9
9
9
9
9
9
9
9
9
9
9
9
9
9
9
9
9
9
9
9
9
9
9
9
9
9
9
9
9
9
9
9
9
9
9
9
9
9
9
9
9
9
9
9
9
9
9
9
9
9
9
9
9
9
9
9
9
9
9
9
9
9
9
9
9
9
9
9
9
9
9
9
9
9
9
9
9
9
9
9
9
9
9
9
9
9
9
9
9
9
9
9
9
9
9
9
9
9
9
9
9
9
9
9
9
9
9
9
9
9
9
9
9
9
9
9
9
9
9
9
9
9
9
9
9
9
9
9
9
9
9
9
9
9
9
9
9
9
9
9
9
9
9
9
9
9
9
9
9
9
9
9
9
9
9
9
9
9
9
9
9
9
9
9
9
9
9
9
9
9
9
9
9
9
9
9
9
9
9
9
9
9
9
9
9
9
9
9
9
9
9
9
9
9
9
9
9
9
9
9
9
9
9
9
9
9
9
9
9
9
9
9
9
9
9
9
9
9
9
9
9
9
9
9
9
9
9
9
9
9
9
9
9
9
9
9
9
9
9
9
9
9
9
9
POINT_DATA 891
SCALARS u1 float
LOOKUP_TABLE default
-2e-17
-2e-06
-2e-06
-2e-06
-2e-06
-2e-06
-2e-06
-2e-06
-2e-06
-2e-06
-2e-06
-2e-06
-2e-06
-2e-06
-2e-06
-2e-06
-2e-06
-2e-06
-2e-06
-2e-06
-2e-06
-2e-06
-2e-06
-2e-06
-2e-06
-2e-06
-2e-06
-2e-06
-2e-06
-2e-06
-2e-06
-2e-06
-2e-06
-2e-06
-2e-06
-2e-06
-2e-06
-2e-06
-2e-06
-2e-06
-2e-06
-2e-06
-2e-06
-2e-06
-2e-06
-2e-06
-2e-06
-2e-06
-2e-06
-2e-06
-2e-06
-2e-06
-2e-06
-2e-06
-2e-06
-2e-06
-2e-06
-2e-06
-2e-06
-2e-06
-2e-06
-2e-06
-2e-06
-2e-06
-2e-06
-2e-06
-2e-06
-2e-06
-2e-06
-2e-06
-2e-06
-2e-06
-2e-06
-2e-06
-2e-06
-2e-06
-2e-06
-2e-06
-2e-06
-2e-06
-1e-06
2e-06
4e-17
1e-06
2e-06
2e-06
2e-06
2e-06
2e-06
2e-06
2e-06
2e-06
2e-06
2e-06
2e-06
2e-06
2e-06
2e-06
2e-06
2e-06
2e-06
2e-06
2e-06
2e-06
2e-06
2e-06
2e-06
2e-06
2e-06
2e-06
2e-06
2e-06
2e-06
2e-06
2e-06
2e-06
2e-06
2e-06
2e-06
2e-06
2e-06
2e-06
2e-06
2e-06
2e-06
2e-06
2e-06
2e-06
2e-06
2e-06
2e-06
2e-06
2e-06
2e-06
2e-06
2e-06
2e-06
2e-06
2e-06
2e-06
2e-06
2e-06
2e-06
2e-06
2e-06
2e-06
2e-06
2e-06
2e-06
2e-06
2e-06
2e-06
2e-06
2e-06
2e-06
2e-06
2e-06
2e-06
2e-06
2e-06
2e-06
2e-06
2e-06
1e-06
8e-07
4e-07
9e-14
-4e-07
-8e-07
-1e-06
-2e-06
4e-17
-2e-17
-3e-17
2e-17
4e-17
-5e-18
-4e-17
1e-17
-7e-17
1e-06
7e-07
5e-07
2e-07
-3e-15
-2e-07
-5e-07
-7e-07
-1e-06
1e-06
1e-06
7e-07
4e-07
-7e-15
-4e-07
-7e-07
-1e-06
-1e-06
2e-06
1e-06
8e-07
4e-07
5e-15
-4e-07
-8e-07
-1e-06
-2e-06
2e-06
1e-06
8e-07
4e-07
2e-14
-4e-07
-8e-07
-1e-06
-2e-06
2e-06
1e-06
8e-07
4e-07
3e-14
-4e-07
-8e-07
-1e-06
-2e-06
2e-06
1e-06
8e-07
4e-07
3e-14
-4e-07
-8e-07
-1e-06
-2e-06
2e-06
1e-06
8e-07
4e-07
4e-14
-4e-07
-8e-07
-1e-06
-2e-06
2e-06
1e-06
8e-07
4e-07
5e-14
-4e-07
-8e-07
-1e-06
-2e-06
2e-06
1e-06
8e-07
4e-07
5e-14
-4e-07
-8e-07
-1e-06
-2e-06
2e-06
1e-06
8e-07
4e-07
6e-14
-4e-07
-8e-07
-1e-06
-2e-06
2e-06
1e-06
8e-07
4e-07
6e-14
-4e-07
-8e-07
-1e-06
-2e-06
2e-06
1e-06
8e-07
4e-07
7e-14
-4e-07
-8e-07
-1e-06
-2e-06
2e-06
1e-06
8e-07
4e-07
7e-14
-4e-07
-8e-07
-1e-06
-2e-06
2e-06
1e-06
8e-07
4e-07
7e-14
-4e-07
-8e-07
-1e-06
-2e-06
2e-06
1e-06
8e-07
4e-07
8e-14
-4e-07
-8e-07
-1e-06
-2e-06
2e-06
1e-06
8e-07
4e-07
8e-14
-4e-07
-8e-07
-1e-06
-2e-06
2e-06
1e-06
8e-07
4e-07
8e-14
-4e-07
-8e-07
-1e-06
-2e-06
2e-06
1e-06
8e-07
4e-07
8e-14
-4e-07
-8e-07
-1e-06
-2e-06
2e-06
1e-06
8e-07
4e-07
8e-14
-4e-07
-8e-07
-1e-06
-2e-06
2e-06
1e-06
8e-07
4e-07
8e-14
-4e-07
-8e-07
-1e-06
-2e-06
2e-06
1e-06
8e-07
4e-07
8e-14
-4e-07
-8e-07
-1e-06
-2e-06
2e-06
1e-06
8e-07
4e-07
8e-14
-4e-07
-8e-07
-1e-06
-2e-06
2e-06
1e-06
8e-07
4e-07
9e-14
-4e-07
-8e-07
-1e-06
-2e-06
2e-06
1e-06
8e-07
4e-07
9e-14
-4e-07
-8e-07
-1e-06
-2e-06
2e-06
1e-06
8e-07
4e-07
9e-14
-4e-07
-8e-07
-1e-06
-2e-06
2e-06
1e-06
8e-07
4e-07
9e-14
-4e-07
-8e-07
-1e-06
-2e-06
2e-06
1e-06
8e-07
4e-07
9e-14
-4e-07
-8e-07
-1e-06
-2e-06
2e-06
1e-06
8e-07
4e-07
9e-14
-4e-07
-8e-07
-1e-06
-2e-06
2e-06
1e-06
8e-07
4e-07
9e-14
-4e-07
-8e-07
-1e-06
-2e-06
2e-06
1e-06
8e-07
4e-07
9e-14
-4e-07
-8e-07
-1e-06
-2e-06
2e-06
1e-06
8e-07
4e-07
9e-14
-4e-07
-8e-07
-1e-06
-2e-06
2e-06
1e-06
8e-07
4e-07
9e-14
-4e-07
-8e-07
-1e-06
-2e-06
2e-06
1e-06
8e-07
4e-07
9e-14
-4e-07
-8e-07
-1e-06
-2e-06
2e-06
1e-06
8e-07
4e-07
9e-14
-4e-07
-8e-07
-1e-06
-2e-06
2e-06
1e-06
8e-07
4e-07
9e-14
-4e-07
-8e-07
-1e-06
-2e-06
2e-06
1e-06
8e-07
4e-07
9e-14
-4e-07
-8e-07
-1e-06
-2e-06
2e-06
1e-06
8e-07
4e-07
9e-14
-4e-07
-8e-07
-1e-06
-2e-06
2e-06
1e-06
8e-07
4e-07
9e-14
-4e-07
-8e-07
-1e-06
-2e-06
2e-06
1e-06
8e-07
4e-07
9e-14
-4e-07
-8e-07
-1e-06
-2e-06
2e-06
1e-06
8e-07
4e-07
9e-14
-4e-07
-8e-07
-1e-06
-2e-06
2e-06
1e-06
8e-07
4e-07
9e-14
-4e-07
-8e-07
-1e-06
-2e-06
2e-06
1e-06
8e-07
4e-07
9e-14
-4e-07
-8e-07
-1e-06
-2e-06
2e-06
1e-06
8e-07
4e-07
9e-14
-4e-07
-8e-07
-1e-06
-2e-06
2e-06
1e-06
8e-07
4e-07
9e-14
-4e-07
-8e-07
-1e-06
-2e-06
2e-06
1e-06
8e-07
4e-07
9e-14
-4e-07
-8e-07
-1e-06
-2e-06
2e-06
1e-06
8e-07
4e-07
9e-14
-4e-07
-8e-07
-1e-06
-2e-06
2e-06
1e-06
8e-07
4e-07
9e-14
-4e-07
-8e-07
-1e-06
-2e-06
2e-06
1e-06
8e-07
4e-07
9e-14
-4e-07
-8e-07
-1e-06
-2e-06
2e-06
1e-06
8e-07
4e-07
9e-14
-4e-07
-8e-07
-1e-06
-2e-06
2e-06
1e-06
8e-07
4e-07
9e-14
-4e-07
-8e-07
-1e-06
-2e-06
2e-06
1e-06
8e-07
4e-07
9e-14
-4e-07
-8e-07
-1e-06
-2e-06
2e-06
1e-06
8e-07
4e-07
9e-14
-4e-07
-8e-07
-1e-06
-2e-06
2e-06
1e-06
8e-07
4e-07
9e-14
-4e-07
-8e-07
-1e-06
-2e-06
2e-06
1e-06
8e-07
4e-07
9e-14
-4e-07
-8e-07
-1e-06
-2e-06
2e-06
1e-06
8e-07
4e-07
9e-14
-4e-07
-8e-07
-1e-06
-2e-06
2e-06
1e-06
8e-07
4e-07
9e-14
-4e-07
-8e-07
-1e-06
-2e-06
2e-06
1e-06
8e-07
4e-07
9e-14
-4e-07
-8e-07
-1e-06
-2e-06
2e-06
1e-06
8e-07
4e-07
9e-14
-4e-07
-8e-07
-1e-06
-2e-06
2e-06
1e-06
8e-07
4e-07
9e-14
-4e-07
-8e-07
-1e-06
-2e-06
2e-06
1e-06
8e-07
4e-07
9e-14
-4e-07
-8e-07
-1e-06
-2e-06
2e-06
1e-06
8e-07
4e-07
9e-14
-4e-07
-8e-07
-1e-06
-2e-06
2e-06
1e-06
8e-07
4e-07
9e-14
-4e-07
-8e-07
-1e-06
-2e-06
2e-06
1e-06
8e-07
4e-07
9e-14
-4e-07
-8e-07
-1e-06
-2e-06
2e-06
1e-06
8e-07
4e-07
9e-14
-4e-07
-8e-07
-1e-06
-2e-06
2e-06
1e-06
8e-07
4e-07
9e-14
-4e-07
-8e-07
-1e-06
-2e-06
2e-06
1e-06
8e-07
4e-07
9e-14
-4e-07
-8e-07
-1e-06
-2e-06
2e-06
1e-06
8e-07
4e-07
9e-14
-4e-07
-8e-07
-1e-06
-2e-06
2e-06
1e-06
8e-07
4e-07
9e-14
-4e-07
-8e-07
-1e-06
-2e-06
2e-06
1e-06
8e-07
4e-07
9e-14
-4e-07
-8e-07
-1e-06
-2e-06
2e-06
1e-06
8e-07
4e-07
9e-14
-4e-07
-8e-07
-1e-06
-2e-06
2e-06
1e-06
8e-07
4e-07
9e-14
-4e-07
-8e-07
-1e-06
-2e-06
2e-06
1e-06
8e-07
4e-07
9e-14
-4e-07
-8e-07
-1e-06
-2e-06
2e-06
1e-06
8e-07
4e-07
9e-14
-4e-07
-8e-07
-1e-06
-2e-06
2e-06
1e-06
8e-07
4e-07
9e-14
-4e-07
-8e-07
-1e-06
-2e-06
2e-06
1e-06
8e-07
4e-07
9e-14
-4e-07
-8e-07
-1e-06
-2e-06
2e-06
1e-06
8e-07
4e-07
9e-14
-4e-07
-8e-07
-1e-06
-2e-06
2e-06
1e-06
8e-07
4e-07
9e-14
-4e-07
-8e-07
-1e-06
-2e-06
2e-06
1e-06
8e-07
4e-07
9e-14
-4e-07
-8e-07
-1e-06
-2e-06
2e-06
1e-06
8e-07
4e-07
9e-14
-4e-07
-8e-07
-1e-06
-2e-06
SCALARS u2 float
LOOKUP_TABLE default
3e-17
-0.0005
-0.0005
-0.0005
-0.0005
-0.0005
-0.0005
-0.0005
-0.0005
-0.0004
-0.0004
-0.0004
-0.0004
-0.0004
-0.0004
-0.0004
-0.0004
-0.0004
-0.0004
-0.0004
-0.0004
-0.0004
-0.0004
-0.0004
-0.0004
-0.0003
-0.0003
-0.0003
-0.0003
-0.0003
-0.0003
-0.0003
-0.0003
-0.0003
-0.0003
-0.0003
-0.0003
-0.0003
-0.0003
-0.0003
-0.0003
-0.0002
-0.0002
-0.0002
-0.0002
-0.0002
-0.0002
-0.0002
-0.0002
-0.0002
-0.0002
-0.0002
-0.0002
-0.0002
-0.0002
-0.0002
-0.0002
-0.0001
-0.0001
-0.0001
-0.0001
-0.0001
-0.0001
-0.0001
-0.0001
-0.0001
-9e-05
-9e-05
-8e-05
-7e-05
-7e-05
-6e-05
-6e-05
-5e-05
-4e-05
-4e-05
-3e-05
-2e-05
-2e-05
-1e-05
-7e-06
-0.0005
-3e-17
-7e-06
-1e-05
-2e-05
-2e-05
-3e-05
-4e-05
-4e-05
-5e-05
-6e-05
-6e-05
-7e-05
-7e-05
-8e-05
-9e-05
-9e-05
-0.0001
-0.0001
-0.0001
-0.0001
-0.0001
-0.0001
-0.0001
-0.0001
-0.0001
-0.0002
-0.0002
-0.0002
-0.0002
-0.0002
-0.0002
-0.0002
-0.0002
-0.0002
-0.0002
-0.0002
-0.0002
-0.0002
-0.0002
-0.0002
-0.0002
-0.0003
-0.0003
-0.0003
-0.0003
-0.0003
-0.0003
-0.0003
-0.0003
-0.0003
-0.0003
-0.0003
-0.0003
-0.0003
-0.0003
-0.0003
-0.0003
-0.0004
-0.0004
-0.0004
-0.0004
-0.0004
-0.0004
-0.0004
-0.0004
-0.0004
-0.0004
-0.0004
-0.0004
-0.0004
-0.0004
-0.0004
-0.0004
-0.0005
-0.0005
-0.0005
-0.0005
-0.0005
-0.0005
-0.0005
-0.0005
-0.0005
-0.0005
-0.0005
-0.0005
-0.0005
-0.0005
-0.0005
-0.0005
2e-17
-6e-18
3e-17
-6e-17
6e-18
-5e-17
7e-17
2e-17
-3e-17
-6e-06
-6e-06
-6e-06
-6e-06
-6e-06
-6e-06
-6e-06
-6e-06
-6e-06
-1e-05
-1e-05
-1e-05
-1e-05
-1e-05
-1e-05
-1e-05
-1e-05
-1e-05
-2e-05
-2e-05
-2e-05
-2e-05
-2e-05
-2e-05
-2e-05
-2e-05
-2e-05
-2e-05
-2e-05
-2e-05
-2e-05
-2e-05
-2e-05
-2e-05
-2e-05
-2e-05
-3e-05
-3e-05
-3e-05
-3e-05
-3e-05
-3e-05
-3e-05
-3e-05
-3e-05
-4e-05
-4e-05
-4e-05
-4e-05
-4e-05
-4e-05
-4e-05
-4e-05
-4e-05
-4e-05
-4e-05
-4e-05
-4e-05
-4e-05
-4e-05
-4e-05
-4e-05
-4e-05
-5e-05
-5e-05
-5e-05
-5e-05
-5e-05
-5e-05
-5e-05
-5e-05
-5e-05
-6e-05
-6e-05
-6e-05
-6e-05
-6e-05
-6e-05
-6e-05
-6e-05
-6e-05
-6e-05
-6e-05
-6e-05
-6e-05
-6e-05
-6e-05
-6e-05
-6e-05
-6e-05
-7e-05
-7e-05
-7e-05
-7e-05
-7e-05
-7e-05
-7e-05
-7e-05
-7e-05
-7e-05
-7e-05
-7e-05
-7e-05
-7e-05
-7e-05
-7e-05
-7e-05
-7e-05
-8e-05
-8e-05
-8e-05
-8e-05
-8e-05
-8e-05
-8e-05
-8e-05
-8e-05
-9e-05
-9e-05
-9e-05
-9e-05
-9e-05
-9e-05
-9e-05
-9e-05
-9e-05
-9e-05
-9e-05
-9e-05
-9e-05
-9e-05
-9e-05
-9e-05
-9e-05
-9e-05
-0.0001
-0.0001
-0.0001
-0.0001
-0.0001
-0.0001
-0.0001
-0.0001
-0.0001
-0.0001
-0.0001
-0.0001
-0.0001
-0.0001
-0.0001
-0.0001
-0.0001
-0.0001
-0.0001
-0.0001
-0.0001
-0.0001
-0.0001
-0.0001
-0.0001
-0.0001
-0.0001
-0.0001
-0.0001
-0.0001
-0.0001
-0.0001
-0.0001
-0.0001
-0.0001
-0.0001
-0.0001
-0.0001
-0.0001
-0.0001
-0.0001
-0.0001
-0.0001
-0.0001
-0.0001
-0.0001
-0.0001
-0.0001
-0.0001
-0.0001
-0.0001
-0.0001
-0.0001
-0.0001
-0.0001
-0.0001
-0.0001
-0.0001
-0.0001
-0.0001
-0.0001
-0.0001
-0.0001
-0.0001
-0.0001
-0.0001
-0.0001
-0.0001
-0.0001
-0.0001
-0.0001
-0.0001
-0.0001
-0.0001
-0.0001
-0.0001
-0.0001
-0.0001
-0.0001
-0.0001
-0.0001
-0.0002
-0.0002
-0.0002
-0.0002
-0.0002
-0.0002
-0.0002
-0.0002
-0.0002
-0.0002
-0.0002
-0.0002
-0.0002
-0.0002
-0.0002
-0.0002
-0.0002
-0.0002
-0.0002
-0.0002
-0.0002
-0.0002
-0.0002
-0.0002
-0.0002
-0.0002
-0.0002
-0.0002
-0.0002
-0.0002
-0.0002
-0.0002
-0.0002
-0.0002
-0.0002
-0.0002
-0.0002
-0.0002
-0.0002
-0.0002
-0.0002
-0.0002
-0.0002
-0.0002
-0.0002
-0.0002
-0.0002
-0.0002
-0.0002
-0.0002
-0.0002
-0.0002
-0.0002
-0.0002
-0.0002
-0.0002
-0.0002
-0.0002
-0.0002
-0.0002
-0.0002
-0.0002
-0.0002
-0.0002
-0.0002
-0.0002
-0.0002
-0.0002
-0.0002
-0.0002
-0.0002
-0.0002
-0.0002
-0.0002
-0.0002
-0.0002
-0.0002
-0.0002
-0.0002
-0.0002
-0.0002
-0.0002
-0.0002
-0.0002
-0.0002
-0.0002
-0.0002
-0.0002
-0.0002
-0.0002
-0.0002
-0.0002
-0.0002
-0.0002
-0.0002
-0.0002
-0.0002
-0.0002
-0.0002
-0.0002
-0.0002
-0.0002
-0.0002
-0.0002
-0.0002
-0.0002
-0.0002
-0.0002
-0.0002
-0.0002
-0.0002
-0.0002
-0.0002
-0.0002
-0.0002
-0.0002
-0.0002
-0.0002
-0.0002
-0.0002
-0.0002
-0.0002
-0.0002
-0.0002
-0.0002
-0.0002
-0.0002
-0.0002
-0.0002
-0.0002
-0.0002
-0.0002
-0.0002
-0.0002
-0.0002
-0.0002
-0.0002
-0.0002
-0.0002
-0.0002
-0.0002
-0.0002
-0.0002
-0.0002
-0.0003
-0.0003
-0.0003
-0.0003
-0.0003
-0.0003
-0.0003
-0.0003
-0.0003
-0.0003
-0.0003
-0.0003
-0.0003
-0.0003
-0.0003
-0.0003
-0.0003
-0.0003
-0.0003
-0.0003
-0.0003
-0.0003
-0.0003
-0.0003
-0.0003
-0.0003
-0.0003
-0.0003
-0.0003
-0.0003
-0.0003
-0.0003
-0.0003
-0.0003
-0.0003
-0.0003
-0.0003
-0.0003
-0.0003
-0.0003
-0.0003
-0.0003
-0.0003
-0.0003
-0.0003
-0.0003
-0.0003
-0.0003
-0.0003
-0.0003
-0.0003
-0.0003
-0.0003
-0.0003
-0.0003
-0.0003
-0.0003
-0.0003
-0.0003
-0.0003
-0.0003
-0.0003
-0.0003
-0.0003
-0.0003
-0.0003
-0.0003
-0.0003
-0.0003
-0.0003
-0.0003
-0.0003
-0.0003
-0.0003
-0.0003
-0.0003
-0.0003
-0.0003
-0.0003
-0.0003
-0.0003
-0.0003
-0.0003
-0.0003
-0.0003
-0.0003
-0.0003
-0.0003
-0.0003
-0.0003
-0.0003
-0.0003
-0.0003
-0.0003
-0.0003
-0.0003
-0.0003
-0.0003
-0.0003
-0.0003
-0.0003
-0.0003
-0.0003
-0.0003
-0.0003
-0.0003
-0.0003
-0.0003
-0.0003
-0.0003
-0.0003
-0.0003
-0.0003
-0.0003
-0.0003
-0.0003
-0.0003
-0.0003
-0.0003
-0.0003
-0.0003
-0.0003
-0.0003
-0.0003
-0.0003
-0.0003
-0.0003
-0.0003
-0.0003
-0.0003
-0.0003
-0.0003
-0.0003
-0.0003
-0.0003
-0.0003
-0.0003
-0.0003
-0.0003
-0.0003
-0.0003
-0.0003
-0.0003
-0.0003
-0.0004
-0.0004
-0.0004
-0.0004
-0.0004
-0.0004
-0.0004
-0.0004
-0.0004
-0.0004
-0.0004
-0.0004
-0.0004
-0.0004
-0.0004
-0.0004
-0.0004
-0.0004
-0.0004
-0.0004
-0.0004
-0.0004
-0.0004
-0.0004
-0.0004
-0.0004
-0.0004
-0.0004
-0.0004
-0.0004
-0.0004
-0.0004
-0.0004
-0.0004
-0.0004
-0.0004
-0.0004
-0.0004
-0.0004
-0.0004
-0.0004
-0.0004
-0.0004
-0.0004
-0.0004
-0.0004
-0.0004
-0.0004
-0.0004
-0.0004
-0.0004
-0.0004
-0.0004
-0.0004
-0.0004
-0.0004
-0.0004
-0.0004
-0.0004
-0.0004
-0.0004
-0.0004
-0.0004
-0.0004
-0.0004
-0.0004
-0.0004
-0.0004
-0.0004
-0.0004
-0.0004
-0.0004
-0.0004
-0.0004
-0.0004
-0.0004
-0.0004
-0.0004
-0.0004
-0.0004
-0.0004
-0.0004
-0.0004
-0.0004
-0.0004
-0.0004
-0.0004
-0.0004
-0.0004
-0.0004
-0.0004
-0.0004
-0.0004
-0.0004
-0.0004
-0.0004
-0.0004
-0.0004
-0.0004
-0.0004
-0.0004
-0.0004
-0.0004
-0.0004
-0.0004
-0.0004
-0.0004
-0.0004
-0.0004
-0.0004
-0.0004
-0.0004
-0.0004
-0.0004
-0.0004
-0.0004
-0.0004
-0.0004
-0.0004
-0.0004
-0.0004
-0.0004
-0.0004
-0.0004
-0.0004
-0.0004
-0.0004
-0.0004
-0.0004
-0.0004
-0.0004
-0.0004
-0.0004
-0.0004
-0.0004
-0.0004
-0.0004
-0.0004
-0.0004
-0.0004
-0.0004
-0.0004
-0.0004
-0.0004
-0.0005
-0.0005
-0.0005
-0.0005
-0.0005
-0.0005
-0.0005
-0.0005
-0.0005
-0.0005
-0.0005
-0.0005
-0.0005
-0.0005
-0.0005
-0.0005
-0.0005
-0.0005
-0.0005
-0.0005
-0.0005
-0.0005
-0.0005
-0.0005
-0.0005
-0.0005
-0.0005
-0.0005
-0.0005
-0.0005
-0.0005
-0.0005
-0.0005
-0.0005
-0.0005
-0.0005
-0.0005
-0.0005
-0.0005
-0.0005
-0.0005
-0.0005
-0.0005
-0.0005
-0.0005
-0.0005
-0.0005
-0.0005
-0.0005
-0.0005
-0.0005
-0.0005
-0.0005
-0.0005
-0.0005
-0.0005
-0.0005
-0.0005
-0.0005
-0.0005
-0.0005
-0.0005
-0.0005
SCALARS strain_1 float
LOOKUP_TABLE default
-0.000138
-0.220349
-0.217017
-0.213668
-0.210303
-0.206924
-0.203529
-0.200122
-0.196700
-0.193269
-0.189825
-0.186371
-0.182908
-0.179437
-0.175960
-0.172476
-0.168987
-0.165494
-0.161999
-0.158502
-0.155005
-0.151510
-0.148016
-0.144527
-0.141043
-0.137564
-0.134093
-0.130634
-0.127184
-0.123746
-0.120322
-0.116915
-0.113523
-0.110151
-0.106799
-0.103468
-0.100160
-0.096879
-0.093624
-0.090397
-0.087201
-0.084036
-0.080905
-0.077811
-0.074751
-0.071731
-0.068751
-0.065813
-0.062919
-0.060070
-0.057267
-0.054513
-0.051809
-0.049157
-0.046557
-0.044011
-0.041521
-0.039088
-0.036715
-0.034400
-0.032145
-0.029953
-0.027824
-0.025758
-0.023758
-0.021823
-0.019954
-0.018153
-0.016419
-0.014753
-0.013156
-0.011628
-0.010170
-0.008780
-0.007458
-0.006209
-0.005026
-0.003912
-0.002868
-0.001891
-0.000981
-0.220544
-0.000006
-0.000851
-0.001762
-0.002743
-0.003790
-0.004906
-0.006091
-0.007346
-0.008669
-0.010062
-0.011525
-0.013057
-0.014659
-0.016327
-0.018065
-0.019870
-0.021744
-0.023684
-0.025689
-0.027759
-0.029893
-0.032089
-0.034348
-0.036668
-0.039047
-0.041485
-0.043979
-0.046529
-0.049135
-0.051792
-0.054502
-0.057261
-0.060068
-0.062922
-0.065822
-0.068765
-0.071750
-0.074775
-0.077839
-0.080940
-0.084076
-0.087245
-0.090447
-0.093679
-0.096938
-0.100225
-0.103537
-0.106872
-0.110230
-0.113608
-0.117003
-0.120416
-0.123844
-0.127286
-0.130740
-0.134206
-0.137680
-0.141162
-0.144651
-0.148145
-0.151642
-0.155141
-0.158643
-0.162143
-0.165641
-0.169138
-0.172630
-0.176117
-0.179600
-0.183073
-0.186539
-0.189996
-0.193442
-0.196879
-0.200302
-0.203712
-0.207109
-0.210492
-0.213859
-0.217210
-0.220527
-0.220507
-0.220489
-0.220470
-0.220451
-0.220430
-0.220411
-0.220390
-0.220369
-0.000112
-0.000089
-0.000068
-0.000050
-0.000036
-0.000023
-0.000015
-0.000008
-0.000005
-0.000851
-0.000853
-0.000859
-0.000868
-0.000879
-0.000894
-0.000911
-0.000932
-0.000955
-0.001762
-0.001765
-0.001770
-0.001778
-0.001790
-0.001805
-0.001822
-0.001842
-0.001865
-0.002741
-0.002744
-0.002749
-0.002757
-0.002769
-0.002782
-0.002799
-0.002819
-0.002842
-0.003789
-0.003791
-0.003796
-0.003804
-0.003815
-0.003829
-0.003845
-0.003865
-0.003887
-0.004905
-0.004907
-0.004911
-0.004918
-0.004929
-0.004942
-0.004959
-0.004979
-0.005001
-0.006090
-0.006091
-0.006095
-0.006102
-0.006113
-0.006126
-0.006142
-0.006161
-0.006183
-0.007344
-0.007344
-0.007349
-0.007356
-0.007365
-0.007378
-0.007394
-0.007413
-0.007434
-0.008667
-0.008668
-0.008671
-0.008678
-0.008688
-0.008700
-0.008715
-0.008733
-0.008756
-0.010060
-0.010061
-0.010064
-0.010070
-0.010079
-0.010091
-0.010106
-0.010124
-0.010145
-0.011522
-0.011522
-0.011525
-0.011531
-0.011540
-0.011551
-0.011567
-0.011584
-0.011605
-0.013054
-0.013053
-0.013056
-0.013061
-0.013069
-0.013082
-0.013095
-0.013113
-0.013133
-0.014655
-0.014654
-0.014656
-0.014660
-0.014669
-0.014680
-0.014694
-0.014710
-0.014731
-0.016323
-0.016322
-0.016324
-0.016329
-0.016337
-0.016347
-0.016360
-0.016377
-0.016397
-0.018061
-0.018060
-0.018061
-0.018065
-0.018072
-0.018083
-0.018096
-0.018112
-0.018131
-0.019866
-0.019865
-0.019866
-0.019869
-0.019876
-0.019887
-0.019899
-0.019914
-0.019933
-0.021739
-0.021736
-0.021737
-0.021741
-0.021747
-0.021756
-0.021769
-0.021784
-0.021802
-0.023678
-0.023675
-0.023675
-0.023679
-0.023685
-0.023694
-0.023706
-0.023721
-0.023738
-0.025683
-0.025680
-0.025680
-0.025682
-0.025688
-0.025696
-0.025707
-0.025721
-0.025738
-0.027752
-0.027749
-0.027749
-0.027750
-0.027756
-0.027763
-0.027774
-0.027788
-0.027804
-0.029886
-0.029881
-0.029881
-0.029883
-0.029888
-0.029896
-0.029905
-0.029919
-0.029934
-0.032082
-0.032079
-0.032077
-0.032079
-0.032083
-0.032090
-0.032100
-0.032113
-0.032127
-0.034341
-0.034336
-0.034335
-0.034336
-0.034339
-0.034347
-0.034356
-0.034367
-0.034382
-0.036660
-0.036656
-0.036653
-0.036654
-0.036657
-0.036663
-0.036672
-0.036684
-0.036698
-0.039039
-0.039033
-0.039032
-0.039031
-0.039034
-0.039040
-0.039048
-0.039059
-0.039073
-0.041477
-0.041471
-0.041468
-0.041467
-0.041470
-0.041475
-0.041483
-0.041493
-0.041506
-0.043971
-0.043965
-0.043961
-0.043961
-0.043963
-0.043968
-0.043975
-0.043984
-0.043996
-0.046521
-0.046515
-0.046511
-0.046510
-0.046511
-0.046515
-0.046522
-0.046531
-0.046542
-0.049126
-0.049119
-0.049115
-0.049113
-0.049114
-0.049118
-0.049123
-0.049132
-0.049143
-0.051782
-0.051776
-0.051771
-0.051770
-0.051770
-0.051773
-0.051778
-0.051786
-0.051796
-0.054492
-0.054485
-0.054480
-0.054477
-0.054477
-0.054480
-0.054485
-0.054492
-0.054502
-0.057251
-0.057243
-0.057238
-0.057235
-0.057235
-0.057236
-0.057240
-0.057247
-0.057256
-0.060058
-0.060050
-0.060044
-0.060041
-0.060040
-0.060042
-0.060045
-0.060051
-0.060059
-0.062912
-0.062904
-0.062898
-0.062893
-0.062892
-0.062893
-0.062896
-0.062902
-0.062909
-0.065811
-0.065803
-0.065797
-0.065792
-0.065790
-0.065790
-0.065792
-0.065797
-0.065803
-0.068754
-0.068745
-0.068738
-0.068733
-0.068730
-0.068731
-0.068732
-0.068737
-0.068743
-0.071739
-0.071730
-0.071722
-0.071717
-0.071713
-0.071713
-0.071714
-0.071718
-0.071723
-0.074764
-0.074755
-0.074746
-0.074741
-0.074737
-0.074736
-0.074737
-0.074739
-0.074743
-0.077827
-0.077817
-0.077809
-0.077803
-0.077800
-0.077798
-0.077798
-0.077800
-0.077804
-0.080929
-0.080918
-0.080909
-0.080904
-0.080898
-0.080896
-0.080895
-0.080896
-0.080900
-0.084063
-0.084053
-0.084044
-0.084037
-0.084032
-0.084030
-0.084029
-0.084029
-0.084032
-0.087233
-0.087222
-0.087213
-0.087206
-0.087200
-0.087197
-0.087195
-0.087194
-0.087197
-0.090434
-0.090422
-0.090413
-0.090406
-0.090400
-0.090396
-0.090394
-0.090393
-0.090394
-0.093665
-0.093654
-0.093645
-0.093636
-0.093630
-0.093625
-0.093622
-0.093621
-0.093622
-0.096925
-0.096914
-0.096903
-0.096895
-0.096888
-0.096882
-0.096879
-0.096877
-0.096877
-0.100212
-0.100199
-0.100190
-0.100180
-0.100173
-0.100167
-0.100163
-0.100161
-0.100160
-0.103524
-0.103511
-0.103501
-0.103491
-0.103483
-0.103477
-0.103472
-0.103469
-0.103468
-0.106858
-0.106847
-0.106834
-0.106825
-0.106817
-0.106810
-0.106806
-0.106801
-0.106799
-0.110215
-0.110202
-0.110191
-0.110181
-0.110172
-0.110166
-0.110159
-0.110156
-0.110152
-0.113592
-0.113580
-0.113568
-0.113557
-0.113548
-0.113540
-0.113535
-0.113529
-0.113526
-0.116988
-0.116975
-0.116963
-0.116952
-0.116942
-0.116934
-0.116927
-0.116922
-0.116918
-0.120401
-0.120387
-0.120375
-0.120364
-0.120353
-0.120345
-0.120338
-0.120331
-0.120326
-0.123829
-0.123815
-0.123802
-0.123790
-0.123781
-0.123771
-0.123763
-0.123756
-0.123751
-0.127271
-0.127257
-0.127243
-0.127232
-0.127220
-0.127211
-0.127202
-0.127195
-0.127189
-0.130725
-0.130710
-0.130697
-0.130685
-0.130674
-0.130663
-0.130655
-0.130646
-0.130640
-0.134190
-0.134175
-0.134161
-0.134149
-0.134137
-0.134126
-0.134117
-0.134108
-0.134101
-0.137664
-0.137650
-0.137636
-0.137622
-0.137610
-0.137600
-0.137590
-0.137580
-0.137572
-0.141146
-0.141132
-0.141117
-0.141104
-0.141091
-0.141079
-0.141069
-0.141060
-0.141051
-0.144634
-0.144619
-0.144605
-0.144591
-0.144578
-0.144567
-0.144555
-0.144545
-0.144536
-0.148128
-0.148112
-0.148098
-0.148084
-0.148071
-0.148058
-0.148047
-0.148036
-0.148026
-0.151625
-0.151610
-0.151594
-0.151580
-0.151567
-0.151553
-0.151541
-0.151531
-0.151520
-0.155124
-0.155109
-0.155094
-0.155079
-0.155065
-0.155052
-0.155039
-0.155027
-0.155016
-0.158625
-0.158609
-0.158594
-0.158579
-0.158564
-0.158551
-0.158537
-0.158526
-0.158513
-0.162126
-0.162110
-0.162094
-0.162079
-0.162064
-0.162050
-0.162036
-0.162022
-0.162011
-0.165624
-0.165608
-0.165592
-0.165576
-0.165561
-0.165547
-0.165533
-0.165519
-0.165507
-0.169121
-0.169104
-0.169088
-0.169072
-0.169057
-0.169041
-0.169027
-0.169013
-0.169000
-0.172613
-0.172596
-0.172580
-0.172563
-0.172548
-0.172533
-0.172518
-0.172503
-0.172489
-0.176101
-0.176084
-0.176067
-0.176050
-0.176034
-0.176018
-0.176004
-0.175988
-0.175975
-0.179581
-0.179564
-0.179547
-0.179531
-0.179514
-0.179498
-0.179483
-0.179467
-0.179453
-0.183056
-0.183038
-0.183021
-0.183004
-0.182988
-0.182971
-0.182955
-0.182940
-0.182924
-0.186522
-0.186505
-0.186487
-0.186469
-0.186453
-0.186436
-0.186420
-0.186403
-0.186388
-0.189978
-0.189961
-0.189943
-0.189926
-0.189909
-0.189892
-0.189875
-0.189858
-0.189841
-0.193425
-0.193407
-0.193389
-0.193372
-0.193354
-0.193337
-0.193319
-0.193303
-0.193285
-0.196860
-0.196842
-0.196824
-0.196807
-0.196789
-0.196771
-0.196753
-0.196735
-0.196718
-0.200284
-0.200265
-0.200247
-0.200230
-0.200211
-0.200193
-0.200176
-0.200157
-0.200139
-0.203694
-0.203676
-0.203658
-0.203640
-0.203622
-0.203603
-0.203585
-0.203567
-0.203547
-0.207091
-0.207073
-0.207055
-0.207036
-0.207018
-0.206999
-0.206980
-0.206961
-0.206942
-0.210474
-0.210455
-0.210437
-0.210418
-0.210399
-0.210381
-0.210361
-0.210342
-0.210322
-0.213841
-0.213822
-0.213803
-0.213785
-0.213766
-0.213747
-0.213727
-0.213708
-0.213688
-0.217192
-0.217173
-0.217155
-0.217135
-0.217116
-0.217097
-0.217077
-0.217057
-0.217037
SCALARS strain_2 float
LOOKUP_TABLE default
0.002556
0.001412
0.001408
0.001413
0.001411
0.001414
0.001415
0.001412
0.001419
0.001414
0.001414
0.001420
0.001420
0.001418
0.001421
0.001423
0.001432
0.001431
0.001437
0.001438
0.001445
0.001441
0.001447
0.001452
0.001461
0.001466
0.001471
0.001477
0.001485
0.001491
0.001498
0.001503
0.001515
0.001521
0.001530
0.001540
0.001549
0.001556
0.001569
0.001582
0.001593
0.001609
0.001618
0.001633
0.001650
0.001659
0.001677
0.001689
0.001710
0.001724
0.001743
0.001761
0.001778
0.001794
0.001814
0.001840
0.001859
0.001871
0.001900
0.001923
0.001941
0.001969
0.001993
0.002012
0.002045
0.002068
0.002093
0.002119
0.002149
0.002180
0.002208
0.002236
0.002262
0.002292
0.002323
0.002361
0.002387
0.002420
0.002457
0.002484
0.002521
0.005201
0.005275
0.005278
0.005283
0.005288
0.005289
0.005290
0.005297
0.005296
0.005304
0.005309
0.005309
0.005316
0.005315
0.005317
0.005321
0.005325
0.005329
0.005329
0.005335
0.005334
0.005336
0.005338
0.005342
0.005343
0.005345
0.005350
0.005347
0.005350
0.005353
0.005355
0.005355
0.005355
0.005354
0.005352
0.005354
0.005358
0.005358
0.005359
0.005360
0.005354
0.005355
0.005355
0.005355
0.005356
0.005352
0.005353
0.005353
0.005355
0.005349
0.005348
0.005348
0.005340
0.005340
0.005330
0.005336
0.005331
0.005322
0.005321
0.005318
0.005322
0.005315
0.005309
0.005307
0.005300
0.005297
0.005297
0.005286
0.005280
0.005279
0.005272
0.005269
0.005259
0.005256
0.005251
0.005247
0.005237
0.005231
0.005227
0.005223
0.005211
0.004826
0.004445
0.004069
0.003690
0.003309
0.002927
0.002548
0.002169
0.001791
0.002830
0.003100
0.003368
0.003646
0.003918
0.004186
0.004460
0.004733
0.005003
0.005002
0.004728
0.004453
0.004176
0.003900
0.003624
0.003352
0.003077
0.002795
0.005007
0.004727
0.004448
0.004166
0.003885
0.003606
0.003330
0.003048
0.002766
0.005003
0.004719
0.004437
0.004155
0.003871
0.003588
0.003306
0.003016
0.002740
0.005004
0.004718
0.004432
0.004145
0.003858
0.003572
0.003283
0.002997
0.002710
0.005006
0.004712
0.004423
0.004132
0.003847
0.003552
0.003263
0.002971
0.002680
0.005004
0.004705
0.004416
0.004125
0.003827
0.003533
0.003239
0.002944
0.002654
0.005002
0.004709
0.004411
0.004113
0.003816
0.003517
0.003218
0.002922
0.002625
0.005002
0.004703
0.004402
0.004103
0.003800
0.003499
0.003199
0.002894
0.002599
0.005005
0.004699
0.004395
0.004092
0.003787
0.003484
0.003177
0.002876
0.002567
0.005007
0.004695
0.004389
0.004084
0.003768
0.003466
0.003157
0.002853
0.002543
0.005003
0.004699
0.004383
0.004069
0.003764
0.003449
0.003139
0.002829
0.002517
0.005005
0.004686
0.004375
0.004061
0.003748
0.003433
0.003117
0.002805
0.002495
0.005007
0.004687
0.004372
0.004051
0.003734
0.003419
0.003100
0.002782
0.002465
0.005006
0.004684
0.004364
0.004046
0.003724
0.003403
0.003080
0.002764
0.002442
0.005004
0.004682
0.004355
0.004034
0.003708
0.003385
0.003064
0.002740
0.002419
0.005000
0.004678
0.004352
0.004023
0.003699
0.003375
0.003048
0.002722
0.002393
0.005002
0.004673
0.004346
0.004014
0.003688
0.003357
0.003029
0.002699
0.002369
0.005003
0.004674
0.004336
0.004008
0.003681
0.003345
0.003013
0.002682
0.002350
0.005003
0.004673
0.004333
0.003998
0.003664
0.003328
0.002994
0.002663
0.002328
0.005000
0.004667
0.004328
0.003988
0.003652
0.003317
0.002980
0.002645
0.002309
0.005000
0.004662
0.004325
0.003985
0.003642
0.003302
0.002965
0.002624
0.002283
0.004998
0.004659
0.004318
0.003972
0.003632
0.003292
0.002949
0.002609
0.002263
0.004999
0.004656
0.004311
0.003970
0.003621
0.003275
0.002932
0.002589
0.002245
0.005000
0.004650
0.004307
0.003958
0.003612
0.003263
0.002918
0.002571
0.002222
0.004997
0.004651
0.004301
0.003950
0.003604
0.003254
0.002904
0.002556
0.002204
0.004998
0.004646
0.004294
0.003942
0.003595
0.003240
0.002890
0.002541
0.002187
0.004997
0.004642
0.004293
0.003937
0.003582
0.003228
0.002876
0.002520
0.002170
0.004994
0.004642
0.004285
0.003931
0.003571
0.003219
0.002863
0.002505
0.002151
0.004997
0.004636
0.004282
0.003923
0.003566
0.003212
0.002850
0.002491
0.002138
0.004995
0.004637
0.004276
0.003916
0.003559
0.003195
0.002837
0.002478
0.002121
0.004994
0.004636
0.004272
0.003912
0.003544
0.003188
0.002827
0.002465
0.002103
0.004992
0.004631
0.004267
0.003905
0.003540
0.003175
0.002814
0.002449
0.002094
0.004989
0.004630
0.004267
0.003898
0.003535
0.003164
0.002799
0.002439
0.002074
0.004985
0.004624
0.004256
0.003887
0.003526
0.003160
0.002791
0.002426
0.002058
0.004991
0.004622
0.004253
0.003883
0.003519
0.003149
0.002781
0.002411
0.002043
0.004987
0.004620
0.004246
0.003881
0.003510
0.003136
0.002770
0.002398
0.002033
0.004993
0.004619
0.004246
0.003872
0.003501
0.003131
0.002759
0.002390
0.002018
0.004985
0.004609
0.004236
0.003867
0.003496
0.003123
0.002747
0.002377
0.002002
0.004981
0.004612
0.004237
0.003866
0.003485
0.003117
0.002736
0.002367
0.001994
0.004981
0.004610
0.004235
0.003856
0.003480
0.003108
0.002727
0.002356
0.001985
0.004977
0.004605
0.004227
0.003854
0.003476
0.003100
0.002722
0.002346
0.001970
0.004975
0.004601
0.004224
0.003847
0.003469
0.003092
0.002714
0.002338
0.001960
0.004973
0.004600
0.004218
0.003839
0.003461
0.003083
0.002708
0.002326
0.001945
0.004977
0.004593
0.004217
0.003837
0.003458
0.003075
0.002697
0.002321
0.001941
0.004973
0.004591
0.004209
0.003834
0.003456
0.003071
0.002689
0.002309
0.001929
0.004974
0.004587
0.004205
0.003829
0.003445
0.003065
0.002683
0.002303
0.001922
0.004966
0.004584
0.004203
0.003822
0.003441
0.003054
0.002673
0.002294
0.001912
0.004966
0.004580
0.004197
0.003818
0.003434
0.003052
0.002669
0.002285
0.001905
0.004965
0.004581
0.004199
0.003815
0.003432
0.003051
0.002663
0.002279
0.001898
0.004954
0.004577
0.004194
0.003806
0.003426
0.003043
0.002657
0.002275
0.001890
0.004953
0.004573
0.004186
0.003804
0.003422
0.003038
0.002652
0.002262
0.001883
0.004955
0.004568
0.004184
0.003798
0.003413
0.003030
0.002647
0.002257
0.001874
0.004949
0.004567
0.004180
0.003798
0.003409
0.003025
0.002640
0.002253
0.001870
0.004949
0.004559
0.004177
0.003793
0.003406
0.003021
0.002631
0.002249
0.001863
0.004946
0.004560
0.004177
0.003783
0.003400
0.003015
0.002630
0.002242
0.001858
0.004941
0.004555
0.004174
0.003784
0.003397
0.003013
0.002626
0.002239
0.001851
0.004938
0.004551
0.004164
0.003778
0.003389
0.003005
0.002619
0.002232
0.001846
0.004934
0.004551
0.004162
0.003775
0.003385
0.002999
0.002617
0.002227
0.001843
0.004932
0.004544
0.004156
0.003769
0.003382
0.002999
0.002612
0.002224
0.001836
0.004930
0.004540
0.004155
0.003767
0.003381
0.002991
0.002602
0.002218
0.001835
0.004922
0.004539
0.004148
0.003761
0.003378
0.002989
0.002600
0.002213
0.001828
0.004921
0.004532
0.004149
0.003757
0.003369
0.002984
0.002596
0.002214
0.001823
0.004914
0.004528
0.004140
0.003756
0.003364
0.002983
0.002599
0.002209
0.001822
0.004910
0.004527
0.004140
0.003754
0.003363
0.002978
0.002589
0.002203
0.001815
0.004908
0.004520
0.004132
0.003749
0.003363
0.002977
0.002587
0.002203
0.001819
0.004903
0.004515
0.004130
0.003744
0.003358
0.002972
0.002586
0.002201
0.001810
0.004896
0.004514
0.004126
0.003736
0.003358
0.002968
0.002581
0.002194
0.001810
0.004895
0.004509
0.004122
0.003740
0.003352
0.002962
0.002577
0.002193
0.001805
0.004889
0.004499
0.004118
0.003734
0.003345
0.002959
0.002576
0.002194
0.001802
0.004884
0.004495
0.004114
0.003729
0.003342
0.002959
0.002574
0.002188
0.001804
0.004878
0.004490
0.004108
0.003721
0.003338
0.002955
0.002569
0.002185
0.001799
0.004873
0.004491
0.004108
0.003719
0.003333
0.002948
0.002570
0.002180
0.001802
0.004867
0.004483
0.004101
0.003717
0.003335
0.002949
0.002565
0.002183
0.001799
0.004859
0.004480
0.004095
0.003715
0.003331
0.002950
0.002563
0.002180
0.001798
0.004857
0.004477
0.004089
0.003711
0.003328
0.002942
0.002560
0.002180
0.001796
0.004853
0.004470
0.004087
0.003704
0.003320
0.002940
0.002558
0.002176
0.001795
0.004846
0.004465
0.004080
0.003701
0.003322
0.002937
0.002556
0.002175
0.001796
0.004834
0.004457
0.004077
0.003698
0.003315
0.002934
0.002554
0.002173
0.001794
0.004829
0.004455
0.004072
0.003696
0.003316
0.002936
0.002553
0.002173
0.001798
SCALARS strain_3 float
LOOKUP_TABLE default
0.001119
0.073310
0.072278
0.071236
0.070190
0.069139
0.068083
0.067021
0.065954
0.064887
0.063811
0.062732
0.061647
0.060562
0.059475
0.058383
0.057289
0.056192
0.055095
0.053993
0.052891
0.051790
0.050686
0.049585
0.048486
0.047383
0.046281
0.045184
0.044088
0.042993
0.041902
0.040814
0.039730
0.038651
0.037575
0.036505
0.035439
0.034386
0.033330
0.032288
0.031253
0.030224
0.029208
0.028195
0.027195
0.026204
0.025229
0.024258
0.023303
0.022359
0.021424
0.020507
0.019607
0.018718
0.017841
0.016981
0.016140
0.015308
0.014498
0.013706
0.012927
0.012166
0.011427
0.010702
0.009999
0.009315
0.008648
0.008004
0.007378
0.006773
0.006188
0.005622
0.005079
0.004552
0.004050
0.003568
0.003108
0.002669
0.002251
0.001852
0.001477
0.071436
-0.000595
-0.000255
0.000108
0.000491
0.000897
0.001325
0.001771
0.002239
0.002729
0.003242
0.003777
0.004328
0.004907
0.005500
0.006116
0.006752
0.007408
0.008085
0.008780
0.009495
0.010229
0.010980
0.011751
0.012540
0.013343
0.014164
0.015005
0.015858
0.016730
0.017614
0.018512
0.019429
0.020357
0.021297
0.022251
0.023216
0.024194
0.025181
0.026179
0.027189
0.028206
0.029234
0.030271
0.031315
0.032364
0.033423
0.034489
0.035561
0.036635
0.037720
0.038804
0.039894
0.040990
0.042083
0.043182
0.044285
0.045389
0.046493
0.047597
0.048705
0.049809
0.050916
0.052024
0.053127
0.054229
0.055330
0.056430
0.057526
0.058620
0.059711
0.060800
0.061884
0.062964
0.064039
0.065111
0.066176
0.067240
0.068297
0.069350
0.070396
0.071625
0.071813
0.072002
0.072189
0.072375
0.072564
0.072752
0.072939
0.073125
0.000947
0.000769
0.000596
0.000422
0.000250
0.000079
-0.000092
-0.000260
-0.000428
-0.000085
0.000083
0.000255
0.000426
0.000600
0.000772
0.000949
0.001124
0.001297
0.000278
0.000449
0.000624
0.000796
0.000968
0.001146
0.001318
0.001497
0.001674
0.000663
0.000835
0.001009
0.001186
0.001360
0.001536
0.001712
0.001891
0.002070
0.001069
0.001244
0.001417
0.001596
0.001771
0.001948
0.002127
0.002306
0.002488
0.001499
0.001671
0.001848
0.002028
0.002205
0.002383
0.002563
0.002747
0.002927
0.001948
0.002122
0.002304
0.002480
0.002657
0.002838
0.003021
0.003203
0.003386
0.002417
0.002596
0.002774
0.002953
0.003134
0.003315
0.003501
0.003681
0.003866
0.002910
0.003089
0.003271
0.003450
0.003631
0.003811
0.003997
0.004181
0.004367
0.003423
0.003603
0.003783
0.003967
0.004150
0.004334
0.004517
0.004702
0.004891
0.003955
0.004139
0.004322
0.004502
0.004688
0.004871
0.005058
0.005248
0.005432
0.004512
0.004692
0.004877
0.005062
0.005247
0.005431
0.005622
0.005809
0.005997
0.005087
0.005270
0.005456
0.005639
0.005827
0.006012
0.006200
0.006392
0.006582
0.005686
0.005866
0.006054
0.006242
0.006429
0.006615
0.006806
0.006996
0.007188
0.006301
0.006486
0.006671
0.006861
0.007048
0.007240
0.007427
0.007619
0.007812
0.006939
0.007124
0.007309
0.007500
0.007689
0.007881
0.008070
0.008263
0.008456
0.007594
0.007783
0.007973
0.008161
0.008351
0.008543
0.008734
0.008928
0.009122
0.008272
0.008460
0.008651
0.008840
0.009032
0.009223
0.009417
0.009608
0.009806
0.008969
0.009159
0.009349
0.009538
0.009733
0.009923
0.010117
0.010313
0.010507
0.009683
0.009873
0.010066
0.010260
0.010450
0.010645
0.010836
0.011033
0.011231
0.010419
0.010610
0.010801
0.010996
0.011189
0.011382
0.011578
0.011774
0.011970
0.011173
0.011364
0.011556
0.011750
0.011944
0.012139
0.012335
0.012529
0.012728
0.011943
0.012135
0.012328
0.012523
0.012717
0.012915
0.013111
0.013307
0.013506
0.012730
0.012925
0.013119
0.013314
0.013511
0.013705
0.013903
0.014102
0.014300
0.013536
0.013731
0.013925
0.014120
0.014316
0.014512
0.014711
0.014910
0.015109
0.014357
0.014552
0.014749
0.014946
0.015142
0.015341
0.015538
0.015737
0.015936
0.015199
0.015394
0.015590
0.015787
0.015984
0.016182
0.016381
0.016579
0.016781
0.016054
0.016250
0.016446
0.016644
0.016842
0.017040
0.017241
0.017440
0.017639
0.016926
0.017122
0.017320
0.017517
0.017713
0.017912
0.018112
0.018313
0.018514
0.017811
0.018007
0.018204
0.018401
0.018600
0.018801
0.019001
0.019201
0.019403
0.018712
0.018907
0.019103
0.019304
0.019502
0.019702
0.019904
0.020104
0.020307
0.019626
0.019821
0.020021
0.020221
0.020419
0.020619
0.020821
0.021023
0.021223
0.020554
0.020750
0.020949
0.021150
0.021347
0.021550
0.021748
0.021952
0.022155
0.021493
0.021692
0.021891
0.022090
0.022292
0.022491
0.022692
0.022896
0.023099
0.022447
0.022646
0.022846
0.023047
0.023248
0.023448
0.023649
0.023853
0.024054
0.023411
0.023612
0.023811
0.024012
0.024212
0.024413
0.024615
0.024820
0.025022
0.024392
0.024588
0.024789
0.024989
0.025193
0.025393
0.025595
0.025799
0.026001
0.025381
0.025578
0.025778
0.025982
0.026180
0.026384
0.026584
0.026788
0.026991
0.026379
0.026579
0.026779
0.026981
0.027180
0.027380
0.027584
0.027787
0.027992
0.027389
0.027587
0.027788
0.027987
0.028191
0.028392
0.028596
0.028798
0.029001
0.028406
0.028605
0.028806
0.029007
0.029210
0.029412
0.029615
0.029814
0.030023
0.029436
0.029633
0.029833
0.030037
0.030236
0.030438
0.030642
0.030844
0.031048
0.030469
0.030670
0.030871
0.031072
0.031273
0.031477
0.031678
0.031882
0.032083
0.031514
0.031716
0.031917
0.032117
0.032318
0.032519
0.032725
0.032925
0.033128
0.032567
0.032764
0.032965
0.033167
0.033368
0.033571
0.033775
0.033977
0.034180
0.033624
0.033825
0.034025
0.034226
0.034426
0.034628
0.034830
0.035033
0.035238
0.034689
0.034888
0.035088
0.035289
0.035494
0.035694
0.035894
0.036098
0.036301
0.035760
0.035960
0.036159
0.036361
0.036562
0.036765
0.036968
0.037171
0.037372
0.036836
0.037035
0.037238
0.037435
0.037638
0.037843
0.038043
0.038244
0.038447
0.037918
0.038119
0.038318
0.038519
0.038720
0.038920
0.039123
0.039325
0.039529
0.039004
0.039205
0.039406
0.039604
0.039804
0.040007
0.040207
0.040409
0.040611
0.040094
0.040293
0.040494
0.040694
0.040895
0.041096
0.041295
0.041498
0.041698
0.041186
0.041386
0.041586
0.041786
0.041986
0.042186
0.042387
0.042590
0.042790
0.042284
0.042482
0.042681
0.042882
0.043082
0.043284
0.043484
0.043684
0.043886
0.043383
0.043581
0.043780
0.043982
0.044180
0.044380
0.044583
0.044782
0.044982
0.044482
0.044682
0.044880
0.045080
0.045280
0.045481
0.045681
0.045881
0.046081
0.045586
0.045784
0.045983
0.046183
0.046382
0.046579
0.046780
0.046981
0.047183
0.046691
0.046888
0.047088
0.047286
0.047485
0.047687
0.047885
0.048085
0.048284
0.047798
0.047995
0.048193
0.048391
0.048589
0.048788
0.048987
0.049187
0.049387
0.048902
0.049101
0.049299
0.049497
0.049693
0.049891
0.050088
0.050290
0.050488
0.050007
0.050204
0.050402
0.050598
0.050798
0.050995
0.051195
0.051394
0.051592
0.051114
0.051310
0.051505
0.051705
0.051902
0.052101
0.052299
0.052495
0.052695
0.052219
0.052414
0.052612
0.052810
0.053005
0.053204
0.053401
0.053597
0.053795
0.053323
0.053518
0.053717
0.053911
0.054107
0.054306
0.054501
0.054700
0.054896
0.054423
0.054621
0.054816
0.055013
0.055209
0.055408
0.055601
0.055797
0.055997
0.055525
0.055722
0.055917
0.056112
0.056309
0.056505
0.056701
0.056896
0.057091
0.056625
0.056818
0.057013
0.057209
0.057405
0.057600
0.057795
0.057993
0.058187
0.057720
0.057915
0.058110
0.058306
0.058498
0.058693
0.058888
0.059083
0.059278
0.058817
0.059009
0.059202
0.059398
0.059592
0.059787
0.059979
0.060174
0.060368
0.059906
0.060096
0.060293
0.060486
0.060680
0.060875
0.061066
0.061263
0.061454
0.060994
0.061186
0.061378
0.061573
0.061767
0.061960
0.062154
0.062344
0.062538
0.062078
0.062268
0.062461
0.062655
0.062847
0.063040
0.063232
0.063425
0.063616
0.063155
0.063347
0.063541
0.063733
0.063925
0.064116
0.064309
0.064503
0.064692
0.064229
0.064424
0.064615
0.064806
0.064998
0.065189
0.065382
0.065572
0.065764
0.065301
0.065494
0.065683
0.065875
0.066066
0.066259
0.066449
0.066640
0.066831
0.066372
0.066559
0.066752
0.066942
0.067132
0.067321
0.067513
0.067704
0.067892
0.067432
0.067620
0.067809
0.068003
0.068192
0.068380
0.068569
0.068759
0.068950
0.068488
0.068678
0.068867
0.069057
0.069245
0.069435
0.069623
0.069813
0.070002
0.069540
0.069728
0.069915
0.070106
0.070296
0.070483
0.070671
0.070862
0.071049
0.070583
0.070772
0.070962
0.071150
0.071338
0.071525
0.071712
0.071901
0.072088
SCALARS stress_1 float
LOOKUP_TABLE default
39559.194569
-41117686.573253
-40495377.876155
-39869875.179057
-39241652.481960
-38610443.784862
-37976582.087764
-37340133.390666
-36701210.693568
-36060166.996471
-35417192.299373
-34772190.602275
-34125268.905177
-33477097.208080
-32827413.510982
-32176653.813884
-31525077.116786
-30872665.419689
-30219752.722591
-29566562.025493
-28913378.328395
-28260412.631297
-27607888.934200
-26955889.237102
-26304864.540004
-25655171.842906
-25006978.145809
-24360425.448711
-23715950.751613
-23073624.054515
-22433973.357417
-21797428.660320
-21163580.963222
-20533554.266124
-19907102.569026
-19284697.871929
-18666906.174831
-18053597.477733
-17445295.780635
-16842185.083538
-16245038.386440
-15653572.689342
-15068453.992244
-14489925.295146
-13918275.598049
-13353895.900951
-12796809.203853
-12247639.506755
-11706633.809658
-11173992.112560
-10650209.415462
-10135480.718364
-9629858.021267
-9133854.324169
-8647832.627071
-8171871.929973
-7706428.232875
-7251451.535778
-6807444.838680
-6374474.141582
-5952951.444484
-5542948.747387
-5144617.050289
-4758275.353191
-4384010.656093
-4021880.958995
-3672315.261898
-3335207.564800
-3010720.867702
-2698961.170604
-2399920.473507
-2113842.776409
-1840657.079311
-1580484.382213
-1333086.685116
-1098706.988018
-877020.290920
-668427.593822
-472603.896724
-289338.199627
-118633.502529
-41057025.217290
148205.550532
-9617.146566
-179826.843663
-362723.540761
-558423.237859
-766738.934957
-988018.632054
-1222396.329152
-1469646.026250
-1729864.723348
-2002966.420446
-2289147.117543
-2588256.814641
-2899988.511739
-3224788.208837
-3562120.905934
-3911871.603032
-4274168.300130
-4648826.997228
-5035446.694326
-5434076.391423
-5844586.088521
-6266461.785619
-6700043.482717
-7144473.179814
-7600066.876912
-8066082.574010
-8542614.271108
-9029403.968205
-9525825.665303
-10032057.362401
-10547521.059499
-11072261.756597
-11605425.453694
-12147325.150792
-12697140.847890
-13254989.544988
-13820204.242085
-14392744.939183
-14972027.636281
-15558195.333379
-16150433.030477
-16748521.727574
-17352435.424672
-17961407.121770
-18575619.818868
-19194494.515965
-19817960.213063
-20445060.910161
-21076149.607259
-21710703.304356
-22348501.001454
-22988961.698552
-23632091.395650
-24277541.092748
-24925090.789845
-25574129.486943
-26225044.184041
-26876882.881139
-27529666.578236
-28183115.275334
-28836930.972432
-29491076.669530
-30145166.366628
-30798924.063725
-31452037.760823
-32104882.457921
-32756431.155019
-33406934.852116
-34056061.549214
-34703649.246312
-35349425.943410
-35993438.640507
-36635294.337605
-37275074.034703
-37912253.731801
-38546931.428899
-39178949.125996
-39807983.823094
-40434122.520192
-41063422.552886
-41069591.888482
-41075848.224079
-41081947.559675
-41087991.895271
-41094071.230868
-41099995.566464
-41105915.902060
-41111779.237657
52883.530165
65535.865762
77646.201358
89436.536954
100408.872551
111175.208147
121257.543743
130619.879339
139812.214936
-18144.482162
-27137.817758
-36697.153355
-46773.488951
-57420.824547
-68530.160144
-80227.495740
-92476.831336
-105342.166933
-188373.179260
-197515.514856
-207036.850452
-217150.186049
-227723.521645
-239017.857241
-250854.192838
-263117.528434
-275879.864030
-371262.876358
-380267.211954
-389953.547550
-400129.883146
-410852.218743
-422133.554339
-433969.889935
-446171.225532
-459069.561128
-566991.573455
-575946.909052
-585602.244648
-595869.580244
-606588.915841
-617892.251437
-629668.587033
-642004.922630
-654959.258226
-775354.270553
-784455.606149
-794226.941746
-804345.277342
-815283.612938
-826480.948535
-838448.284131
-850604.619727
-863719.955324
-996816.967651
-1005795.303247
-1015496.638843
-1025838.974440
-1036467.310036
-1047899.645632
-1059771.981229
-1072239.316825
-1085148.652421
-1231046.664749
-1240293.000345
-1249865.335941
-1260237.671538
-1270842.007134
-1282135.342730
-1294155.678327
-1306541.013923
-1319648.349519
-1478269.361846
-1487364.697443
-1497146.033039
-1507386.368635
-1518145.704232
-1529487.039828
-1541476.375424
-1553984.711021
-1566851.046617
-1738488.058944
-1747664.394540
-1757317.730137
-1767606.065733
-1778377.401329
-1789945.736926
-1801695.072522
-1814109.408118
-1827159.743715
-2011710.756042
-2020814.091638
-2030487.427235
-2040880.762831
-2051703.098427
-2063050.434024
-2074882.769620
-2087396.105216
-2100465.440813
-2297804.453140
-2306929.788736
-2316619.124332
-2326944.459929
-2337806.795525
-2349132.131121
-2361018.466718
-2373454.802314
-2386555.137910
-2596946.150237
-2606026.485834
-2615669.821430
-2626074.157026
-2636657.492623
-2648056.828219
-2659974.163815
-2672502.499412
-2685363.835008
-2908712.847335
-2917901.182932
-2927608.518528
-2937802.854124
-2948703.189721
-2960005.525317
-2971777.860913
-2984242.196509
-2997262.532106
-3233421.544433
-3242441.880029
-3252243.215626
-3262369.551222
-3273216.886818
-3284493.222415
-3296410.558011
-3308756.893607
-3321824.229204
-3570602.241531
-3579757.577127
-3589431.912723
-3599689.248320
-3610436.583916
-3621725.919512
-3633586.255109
-3646042.590705
-3658919.926301
-3920557.938629
-3929629.274225
-3939269.609821
-3949407.945418
-3960343.281014
-3971471.616610
-3983382.952206
-3995597.287803
-4008583.623399
-4282770.635726
-4291902.971323
-4301501.306919
-4311711.642515
-4322474.978112
-4333699.313708
-4345624.649304
-4357889.984901
-4370645.320497
-4657396.332824
-4666436.668420
-4676011.004017
-4686293.339613
-4696927.675209
-4708121.010806
-4719961.346402
-4732164.681998
-4744993.017595
-5043981.029922
-5053099.365518
-5062713.701115
-5072920.036711
-5083515.372307
-5094813.707903
-5106440.043500
-5118587.379096
-5131424.714692
-5442548.727020
-5451802.062616
-5461375.398212
-5471478.733809
-5482108.069405
-5493091.405001
-5504854.740598
-5517119.076194
-5529659.411790
-5853201.424117
-5862166.759714
-5871737.095310
-5881789.430906
-5892264.766503
-5903430.102099
-5915095.437695
-5927226.773292
-5939734.108888
-6275071.121215
-6284185.456812
-6293797.792408
-6303818.128004
-6314357.463600
-6325385.799197
-6336838.134793
-6348963.470389
-6361556.805986
-6708583.818313
-6717501.153909
-6727052.489506
-6736973.825102
-6747610.160698
-6758555.496295
-6770042.831891
-6781963.167487
-6794369.503084
-7152939.515411
-7162029.851007
-7171348.186603
-7181404.522200
-7191851.857796
-7202850.193392
-7214156.528989
-7226150.864585
-7238561.200181
-7608401.212508
-7617209.548105
-7626801.883701
-7636726.219297
-7647046.554894
-7657990.890490
-7669513.226086
-7681256.561683
-7693516.897279
-8074489.909606
-8083461.245203
-8092868.580799
-8102680.916395
-8113088.251992
-8123909.587588
-8135077.923184
-8146953.258781
-8159289.594377
-8551114.606704
-8559912.942300
-8569260.277897
-8579012.613493
-8589493.949089
-8600235.284686
-8611356.620282
-8623071.955878
-8635277.291475
-9037659.303802
-9046584.639398
-9055925.974994
-9065690.310591
-9075985.646187
-9086465.981783
-9097581.317380
-9109394.652976
-9121389.988572
-9534265.000900
-9543150.336496
-9552246.672092
-9561991.007689
-9572288.343285
-9582793.678881
-9593953.014478
-9605478.350074
-9617483.685670
-10040406.697997
-10049198.033594
-10058382.369190
-10068063.704786
-10078058.040383
-10088767.375979
-10099697.711575
-10111202.047172
-10123037.382768
-10555954.395095
-10564606.730691
-10573867.066288
-10583423.401884
-10593421.737480
-10603890.073077
-10614780.408673
-10626304.744269
-10638039.079866
-11080411.092193
-11089151.427789
-11098273.763386
-11107895.098982
-11117741.434578
-11128150.770175
-11138989.105771
-11150336.441367
-11161947.776963
-11613805.789291
-11622435.124887
-11631409.460483
-11641037.796080
-11650985.131676
-11661200.467272
-11671969.802869
-11683144.138465
-11694644.474061
-12155615.486388
-12164069.821985
-12172974.157581
-12182515.493177
-12192408.828774
-12202478.164370
-12213175.499966
-12224296.835563
-12235727.171159
-12705329.183486
-12713987.519083
-12722931.854679
-12732272.190275
-12742010.525872
-12752247.861468
-12762946.197064
-12773723.532660
-12785097.868257
-13263038.880584
-13271604.216180
-13280543.551777
-13289785.887373
-13299479.222969
-13309651.558566
-13320078.894162
-13330832.229758
-13342088.565355
-13828349.577682
-13836777.913278
-13845615.248874
-13855006.584471
-13864649.920067
-13874563.255663
-13884880.591260
-13895612.926856
-13906722.262452
-14400713.274780
-14409274.610376
-14418057.945972
-14427200.281569
-14436795.617165
-14446736.952761
-14456988.288357
-14467472.623954
-14478572.959550
-14980117.971877
-14988522.307474
-14997168.643070
-15006420.978666
-15015725.314263
-15025612.649859
-15035866.985455
-15046405.321052
-15057169.656648
-15566053.668975
-15574361.004571
-15583094.340168
-15592170.675764
-15601489.011360
-15611295.346957
-15621325.682553
-15631710.018149
-15642522.353746
-16158413.366073
-16166604.701669
-16175191.037266
-16184186.372862
-16193437.708458
-16203011.044054
-16213034.379651
-16223366.715247
-16234148.050843
-16756481.063171
-16764732.398767
-16773280.734363
-16782131.069960
-16791379.405556
-16800992.741152
-16810782.076749
-16820970.412345
-16831431.747941
-17360228.760268
-17368359.095865
-17376849.431461
-17385786.767057
-17394931.102654
-17404309.438250
-17414150.773846
-17424084.109443
-17434521.445039
-17969295.457366
-17977456.792962
-17985947.128559
-17994770.464155
-18003847.799751
-18013098.135348
-18022763.470944
-18032668.806540
-18042923.142137
-18583440.154464
-18591394.490060
-18599806.825657
-18608585.161253
-18617652.496849
-18626845.832446
-18636420.168042
-18646182.503638
-18656356.839235
-19202212.851562
-19210304.187158
-19218639.522754
-19227330.858351
-19236223.193947
-19245364.529543
-19254688.865140
-19264542.200736
-19274527.536332
-19825396.548659
-19833551.884256
-19841853.219852
-19850237.555448
-19859104.891045
-19868099.226641
-19877329.562237
-19886980.897834
-19896857.233430
-20452726.245757
-20460770.581354
-20468894.916950
-20477343.252546
-20486212.588143
-20495051.923739
-20504138.259335
-20513626.594932
-20523445.930528
-21083762.942855
-21091827.278451
-21099803.614048
-21108099.949644
-21116758.285240
-21125707.620837
-21134770.956433
-21144120.292029
-21153646.627626
-21718351.639953
-21726077.975549
-21734258.311145
-21742484.646742
-21751070.982338
-21759726.317934
-21768760.653531
-21778059.989127
-21787603.324723
-22355996.337051
-22363813.672647
-22371570.008243
-22379941.343840
-22388307.679436
-22397161.015032
-22406043.350629
-22415187.686225
-22424535.021821
-22996554.034148
-23004054.369745
-23012165.705341
-23020329.040937
-23028692.376534
-23037256.712130
-23046091.047726
-23054912.383323
-23064222.718919
-23639465.731246
-23647278.066842
-23655037.402439
-23663112.738035
-23671495.073631
-23679941.409228
-23688593.744824
-23697539.080420
-23706570.416017
-24284877.428344
-24292509.763940
-24300467.099537
-24308350.435133
-24316520.770729
-24325045.106326
-24333529.441922
-24342318.777518
-24351384.113114
-24932395.125442
-24939993.461038
-24947753.796634
-24955592.132231
-24963794.467827
-24972034.803423
-24980586.139020
-24989101.474616
-24997970.810212
-25581696.822539
-25589023.158136
-25596612.493732
-25604564.829328
-25612630.164925
-25620727.500521
-25629281.836117
-25637669.171714
-25646391.507310
-26232216.519637
-26239684.855234
-26247208.190830
-26255034.526426
-26262907.862023
-26271069.197619
-26279272.533215
-26287653.868811
-26296311.204408
-26883988.216735
-26891395.552331
-26899043.887928
-26906599.223524
-26914406.559120
-26922388.894717
-26930777.230313
-26938983.565909
-26947438.901506
-27536745.913833
-27544177.249429
-27551627.585025
-27559169.920622
-27566864.256218
-27574877.591814
-27582924.927411
-27591159.263007
-27599394.598603
-28190207.610931
-28197523.946527
-28204926.282123
-28212472.617720
-28220124.953316
-28228002.288912
-28235779.624508
-28243928.960105
-28252090.295701
-28843957.308028
-28851216.643625
-28858699.979221
-28866248.314817
-28873585.650414
-28881425.986010
-28889185.321606
-28897225.657203
-28905323.992799
-29498091.005126
-29505323.340722
-29512671.676319
-29520049.011915
-29527379.347511
-29535039.683108
-29542856.018704
-29550690.354300
-29558606.689897
-30152181.702224
-30159329.037820
-30166512.373416
-30173832.709013
-30181276.044609
-30188821.380205
-30196290.715802
-30204115.051398
-30211764.386994
-30805888.399322
-30812911.734918
-30820212.070514
-30827341.406111
-30834621.741707
-30842009.077303
-30849494.412900
-30857311.748496
-30864819.084092
-31459106.096419
-31466191.432016
-31473331.767612
-31480302.103208
-31487630.438805
-31494913.774401
-31502407.109997
-31509885.445594
-31517288.781190
-32111696.793517
-32118604.129113
-32125593.464710
-32132685.800306
-32139790.135902
-32146963.471499
-32154551.807095
-32161848.142691
-32169146.478288
-32763285.490615
-32770188.826211
-32777022.161808
-32784110.497404
-32791140.833000
-32798344.168597
-32805568.504193
-32812668.839789
-32820036.175386
-33413612.187713
-33420561.523309
-33427386.858905
-33434318.194502
-33441357.530098
-33448327.865694
-33455455.201291
-33462558.536887
-33469740.872483
-34062732.884810
-34069576.220407
-34076368.556003
-34083299.891599
-34090148.227196
-34097103.562792
-34104064.898388
-34111235.233985
-34118251.569581
-34710333.581908
-34717031.917505
-34723750.253101
-34730556.588697
-34737620.924294
-34744312.259890
-34751197.595486
-34758206.931083
-34765032.266679
-35356143.279006
-35362681.614602
-35369423.950199
-35376231.285795
-35382968.621391
-35389829.956988
-35396675.292584
-35403451.628180
-35410189.963777
-35999964.976104
-36006715.311700
-36013471.647296
-36020062.982893
-36026563.318489
-36033458.654085
-36039993.989682
-36046826.325278
-36053502.660874
-36641860.673202
-36648395.008798
-36655108.344394
-36661676.679991
-36668270.015587
-36674925.351183
-36681465.686780
-36688085.022376
-36694718.357972
-37281614.370299
-37288052.705896
-37294551.041492
-37301165.377088
-37307620.712685
-37314156.048281
-37320593.383877
-37327210.719474
-37333592.055070
-37918626.067397
-37925147.402993
-37931632.738590
-37938172.074186
-37944623.409782
-37950917.745379
-37957372.080975
-37963793.416571
-37970347.752168
-38553508.764495
-38559776.100091
-38566149.435688
-38572529.771284
-38578999.106880
-38585347.442477
-38591672.778073
-38597899.113669
-38604149.449265
-39185330.461593
-39191698.797189
-39198050.132785
-39204408.468382
-39210621.803978
-39216901.139574
-39223176.475171
-39229354.810767
-39235496.146363
-39814375.158690
-39820781.494287
-39826953.829883
-39833203.165479
-39839409.501076
-39845792.836672
-39851781.172268
-39857899.507865
-39864044.843461
-40440525.855788
-40446757.191385
-40452904.526981
-40459101.862577
-40465341.198174
-40471376.533770
-40477277.869366
-40483436.204962
-40489517.540559
SCALARS stress_2 float
LOOKUP_TABLE default
489817.318825
-6606971.865014
-6502605.200216
-6398302.535418
-6292655.870620
-6187137.205822
-6080978.541024
-5974819.876226
-5867893.211428
-5760518.546630
-5651479.881832
-5543465.217034
-5435322.552236
-5326411.887438
-5217373.222640
-5107950.557842
-4998335.893044
-4888401.228247
-4778210.563449
-4668403.898651
-4558981.233853
-4448342.569055
-4337959.904257
-4229241.239459
-4118666.574661
-4008539.909863
-3899309.245065
-3790398.580267
-3680463.915469
-3573409.250671
-3463794.585873
-3355715.921075
-3247317.256277
-3141094.591479
-3034039.926681
-2929289.261883
-2824026.597085
-2719403.932287
-2615997.267489
-2513294.602691
-2410207.937893
-2308977.273095
-2208834.608297
-2109715.943499
-2011493.278701
-1914678.613903
-1818823.949105
-1723609.284307
-1629802.619509
-1538299.954711
-1447501.289913
-1357342.625115
-1269807.960317
-1183489.295519
-1099218.630721
-1015203.965923
-934261.301125
-853830.636327
-775511.971529
-698537.306731
-624634.641933
-550987.977135
-480861.312337
-410670.647539
-343999.982741
-278929.317943
-215138.653145
-153523.988347
-94853.323549
-36950.658751
17880.006047
71558.670845
122229.335643
170916.000441
218578.665239
263681.330037
306735.994835
347102.659633
385997.324431
422395.989229
456746.654027
-5908899.355676
994737.828163
969411.163365
940948.498567
910629.833769
878967.168971
845320.504173
808281.839375
769579.174577
729852.509779
685709.844981
641119.180183
593904.515385
544449.850587
493139.185789
439844.520991
383605.856193
324999.191395
265240.526597
202985.861799
138619.197001
73612.532203
4957.867405
-66256.797393
-137663.462191
-212206.126989
-287644.791787
-365643.456585
-445370.121383
-526120.786181
-608855.450979
-693062.115777
-778932.780575
-866659.445373
-956754.110171
-1046080.774969
-1138543.439767
-1231518.104565
-1325772.769363
-1421371.434161
-1518250.098959
-1616600.763757
-1715463.428555
-1815414.093353
-1917092.758150
-2018579.422948
-2122114.087746
-2225392.752544
-2330463.417342
-2435342.082140
-2540988.746938
-2647595.411736
-2754906.076534
-2862536.741332
-2970103.406130
-3078374.070928
-3188052.735726
-3296323.400524
-3406002.065322
-3515168.730120
-3626447.394918
-3735358.059716
-3845740.724514
-3955611.389312
-4066250.054110
-4175352.718908
-4285351.383706
-4395926.048504
-4505988.713302
-4615795.378100
-4725538.042898
-4834576.707696
-4944255.372494
-5052718.037292
-5161756.702090
-5269259.366888
-5377018.031686
-5483816.696484
-5591575.361282
-5698246.026080
-5803828.690878
-5979257.006610
-6049358.657544
-6117860.308477
-6188537.959411
-6257999.610345
-6328037.261279
-6397754.912213
-6467728.563147
-6537446.214080
541614.969758
590660.620692
642458.271626
692847.922560
744453.573494
793627.224428
844208.875361
895110.526295
943964.177229
917869.512431
867799.861497
816962.210563
764780.559630
714390.908696
663169.257762
612715.606828
560853.955894
508608.304960
889150.847633
838249.196699
786963.545765
735421.894832
682664.243898
631314.592964
579580.942030
526247.291096
474513.640162
859408.182835
807162.531901
754340.880967
702159.230034
650233.579100
597155.928166
544142.277232
491832.626298
439202.975364
826401.518037
773899.867103
720694.216169
667872.565236
614026.914302
560565.263368
507039.612434
455113.961500
400052.310566
791602.853239
738397.202305
685127.551371
631089.900438
577116.249504
523526.598570
468784.947636
414427.296702
361093.645768
754564.188441
700718.537507
646296.886573
591811.235640
537325.584706
482903.933772
427906.282838
373164.631904
317718.980970
715669.523643
660479.872709
605866.221775
551188.570842
495678.919908
440745.268974
385555.618040
329853.967106
274280.316172
673638.858845
618065.207911
563707.556977
506917.906044
451472.255110
396218.604176
339940.953242
283727.302308
228473.651374
630008.194047
574498.543113
518412.892179
462455.241246
405473.590312
348875.939378
292598.288444
236192.637510
179082.986576
584969.529249
527923.878315
471006.227382
414792.576448
358258.925514
300765.274580
243399.623646
186353.972712
128604.321779
536922.864451
479237.213517
422959.562584
365273.911650
307524.260716
248942.609782
191768.958848
133827.307914
76141.656981
487020.199653
429462.548719
370944.897786
313067.246852
254805.595918
196415.944984
138090.294050
79508.643116
20990.992183
434621.534855
376359.883921
317970.232988
259068.582054
200358.931120
141329.280186
82427.629252
24421.978318
-35439.672615
380302.870057
321721.219123
262691.568190
202509.917256
142904.266322
85218.615388
25228.964454
-34056.686480
-93726.337413
323360.205259
264906.554325
204980.903392
145119.252458
85961.601524
25395.950590
-34337.700344
-94263.351278
-155021.002211
265201.540461
205147.889527
145350.238594
85424.587660
24922.936726
-36538.714208
-95888.365142
-156454.016076
-217403.667009
204418.875663
144429.224729
83287.573796
22785.922862
-38099.728072
-98537.379006
-159935.029940
-221460.680874
-282730.331807
142164.210865
80894.559931
20072.908998
-40876.741936
-102082.392870
-164184.043804
-225773.694738
-286851.345672
-349464.996605
77797.546067
15439.895133
-46277.755800
-107035.406734
-170033.057668
-231622.708602
-293724.359536
-355954.010470
-418119.661403
10998.881269
-51486.769665
-113396.420598
-175626.071532
-237663.722466
-301109.373400
-363467.024334
-425760.675268
-488438.326201
-57655.783529
-119885.434462
-183395.085396
-245304.736330
-309070.387264
-371236.038198
-434937.689132
-497679.340065
-561124.990999
-128486.448327
-191548.099260
-255249.750194
-318823.401128
-381181.052062
-444178.702996
-508008.353930
-571390.004863
-635283.655797
-200597.113125
-265130.764058
-327744.414992
-392214.065926
-455275.716860
-519169.367794
-582935.018728
-647020.669661
-711362.320595
-275395.777923
-339609.428856
-402991.079790
-468356.730724
-531674.381658
-595056.032592
-660293.683526
-724059.334459
-789424.985393
-351538.442721
-415624.093654
-480989.744588
-545139.395522
-609865.046456
-674846.697390
-738868.348324
-803529.999257
-868959.650191
-429857.107519
-494070.758452
-560012.409386
-624354.060320
-689527.711254
-754445.362188
-818979.013122
-884920.664055
-949710.314989
-509647.772317
-574501.423250
-639739.074184
-705296.725118
-771046.376052
-836156.026986
-901969.677920
-966759.328853
-1032572.979787
-591550.437115
-656724.088048
-722345.738982
-787967.389916
-853397.040850
-919402.691784
-985344.342718
-1051029.993651
-1117099.644585
-674669.101913
-740162.752846
-806104.403780
-872366.054714
-937667.705648
-1005145.356582
-1070575.007516
-1136516.658449
-1203866.309383
-758683.766711
-825329.417644
-891591.068578
-958620.719512
-1024114.370446
-1090760.021380
-1157277.672314
-1223539.323247
-1291016.974181
-845322.431509
-912032.082442
-979317.733376
-1045451.384310
-1112737.035244
-1179254.686178
-1245900.337112
-1313377.988045
-1380151.638979
-933433.096306
-1000334.747240
-1067300.398174
-1134010.049108
-1201359.700042
-1268837.350976
-1336379.001909
-1403216.652843
-1470438.303777
-1022695.761104
-1089981.412038
-1157011.062972
-1224488.713906
-1292158.364840
-1360020.015774
-1427689.666707
-1494655.317641
-1562516.968575
-1114070.425902
-1180268.076836
-1248897.727770
-1317143.378704
-1384621.029638
-1451906.680572
-1519768.331505
-1587245.982439
-1655491.633373
-1205317.090700
-1273818.741634
-1341232.392568
-1408518.043502
-1477275.694436
-1544817.345370
-1614342.996303
-1682204.647237
-1749874.298171
-1300083.755498
-1367305.406432
-1435039.057366
-1503476.708300
-1572106.359234
-1640544.010168
-1708725.661101
-1777099.312035
-1845152.962969
-1394466.420296
-1461496.071230
-1530637.722164
-1598563.373098
-1667705.024032
-1736334.674966
-1805604.325899
-1873465.976833
-1942607.627767
-1489873.085094
-1559014.736028
-1627452.386962
-1695762.037896
-1764263.688830
-1833981.339764
-1902930.990697
-1971112.641631
-2040958.292565
-1587199.749892
-1655573.400826
-1724651.051760
-1794048.702694
-1863510.353628
-1932204.004562
-2001025.655495
-2070295.306429
-2138668.957363
-1684910.414690
-1754116.065624
-1823769.716558
-1892079.367492
-1962181.018426
-2030874.669360
-2100528.320293
-2170117.971227
-2239963.622161
-1784733.079488
-1854002.730422
-1923400.381356
-1992734.032290
-2062067.683224
-2132169.334158
-2200734.985091
-2270580.636025
-2340298.286959
-1884235.744286
-1954209.395220
-2023991.046154
-2093260.697088
-2163874.348022
-2232951.998956
-2302861.649889
-2372003.300823
-2443448.951757
-1986554.409084
-2056464.060018
-2126949.710952
-2195387.361886
-2265489.012820
-2335398.663753
-2405116.314687
-2474705.965621
-2545255.616555
-2089385.073882
-2159038.724816
-2227732.375750
-2298026.026684
-2368127.677618
-2438933.328551
-2508714.979485
-2578688.630419
-2648918.281353
-2192151.738680
-2261613.389614
-2332035.040548
-2402136.691482
-2472174.342416
-2542467.993349
-2613081.644283
-2682543.295217
-2752900.946151
-2295878.403478
-2365788.054412
-2435825.705346
-2506503.356280
-2576349.007214
-2646834.658147
-2717768.309081
-2788445.960015
-2858803.610949
-2400053.068276
-2470986.719210
-2541024.370144
-2610678.021078
-2681931.672012
-2752481.322945
-2822710.973879
-2892620.624813
-2964258.275747
-2505251.733074
-2576057.384008
-2647503.034942
-2717092.685876
-2788474.336810
-2858191.987743
-2929445.638677
-3000187.289611
-3070928.940545
-2611794.397872
-2682728.048806
-2752893.699740
-2824339.350674
-2894441.001608
-2965118.652541
-3036052.303475
-3106089.954409
-3177343.605343
-2718593.062670
-2789206.713604
-2859884.364538
-2929794.015472
-3001047.666406
-3071789.317339
-3142786.968273
-3213272.619207
-3284206.270141
-2825391.727468
-2895749.378402
-2967131.029336
-3037552.680270
-3108998.331204
-3180379.982137
-3250481.633071
-3321415.284005
-3393180.934939
-2932574.392266
-3003828.043200
-3074569.694134
-3146015.345068
-3216628.996002
-3287946.646935
-3358496.297869
-3429749.948803
-3501451.599737
-3040973.057064
-3111970.707998
-3182776.358932
-3254734.009866
-3325539.660800
-3396793.311733
-3467854.962667
-3538148.613601
-3610362.264535
-3149179.721862
-3220881.372796
-3292135.023730
-3362364.674664
-3433746.325597
-3504551.976531
-3575421.627465
-3648275.278399
-3718888.929333
-3258730.386660
-3329600.037594
-3400021.688528
-3472363.339462
-3542912.990395
-3614294.641329
-3685420.292263
-3756225.943197
-3827735.594131
-3367769.051458
-3439406.702392
-3510532.353326
-3580314.004260
-3653231.655193
-3723717.306127
-3794330.957061
-3866288.607995
-3938118.258929
-3477063.716256
-3547933.367190
-3619443.018124
-3691144.669058
-3761502.319991
-3833267.970925
-3904841.621859
-3975711.272793
-4047668.923727
-3586614.381054
-3657932.031988
-3729697.682922
-3800631.333856
-3872140.984789
-3942434.635723
-4014264.286657
-4085069.937591
-4157603.588525
-3696677.045852
-3767354.696786
-3838416.347720
-3909733.998654
-3980987.649587
-4052881.300521
-4124582.951455
-4196220.602389
-4267538.253323
-3806355.710650
-3878057.361584
-3948607.012518
-4020052.663452
-4091498.314385
-4163775.965319
-4234837.616253
-4305067.267187
-4376448.918121
-3916098.375448
-3987864.026382
-4058989.677316
-4129987.328250
-4202392.979183
-4273134.630117
-4344516.281051
-4415705.931985
-4487599.582919
-4027313.040246
-4098374.691180
-4169372.342114
-4240753.993048
-4311559.643981
-4382941.294915
-4454706.945849
-4525768.596783
-4597470.247717
-4137439.705044
-4208181.355978
-4279115.006912
-4349984.657846
-4421750.308779
-4493067.959713
-4563873.610647
-4635767.261581
-4707916.912515
-4247374.369842
-4318564.020776
-4389305.671710
-4460303.322644
-4532452.973577
-4603706.624511
-4674320.275445
-4746149.926379
-4817275.577313
-4357373.034640
-4427922.685574
-4499368.336508
-4571517.987441
-4641619.638375
-4713001.289309
-4785086.940243
-4855188.591177
-4927082.242111
-4467115.699438
-4538369.350372
-4609175.001306
-4680236.652239
-4751618.303173
-4822743.954107
-4894189.605041
-4965059.255975
-5036504.906909
-4577370.364236
-4647856.015170
-4719045.666104
-4790363.317037
-4861488.967971
-4933254.618905
-5003740.269839
-5074481.920773
-5146631.571707
-4687305.029034
-4757598.679968
-4829492.330902
-4899593.981835
-4970271.632769
-5042037.283703
-5113354.934637
-5184288.585571
-5255414.236505
-4796087.693832
-4866893.344766
-4938146.995700
-5008632.646633
-5080078.297567
-5150947.948501
-5222457.599435
-5292943.250369
-5363876.901303
-4905190.358630
-4976188.009564
-5047121.660498
-5118119.311431
-5189372.962365
-5259090.613299
-5330600.264233
-5401533.915167
-5472147.566101
-5014613.023428
-5084714.674362
-5156480.325296
-5226709.976229
-5297771.627163
-5369729.278097
-5439894.929031
-5510124.579965
-5581314.230899
-5123459.688226
-5194649.339160
-5264430.990094
-5334596.641027
-5405466.291961
-5476911.942895
-5547653.593829
-5618459.244763
-5689840.895697
-5231922.353024
-5302088.003958
-5373021.654892
-5443571.305825
-5514760.956759
-5585246.607693
-5655604.258627
-5725257.909561
-5796959.560495
-5340321.017822
-5410294.668756
-5480460.319690
-5550497.970623
-5621815.621557
-5692685.272491
-5763170.923425
-5833464.574359
-5903758.225293
-5447183.682620
-5517413.333554
-5587962.984488
-5658384.635421
-5729190.286355
-5799611.937289
-5870225.588223
-5940263.239157
-6010812.890091
-5554686.347418
-5624531.998352
-5695017.649285
-5765503.300219
-5836180.951153
-5905770.602087
-5976128.253021
-6046293.903955
-6117163.554888
-5660909.012216
-5731650.663150
-5802456.314083
-5872173.965017
-5942211.615951
-6012569.266885
-6082414.917819
-6153476.568753
-6223578.219686
-5768027.677014
-5837233.327948
-5907974.978881
-5978012.629815
-6047986.280749
-6118279.931683
-6187805.582617
-6258483.233551
-6328584.884484
-5873098.341812
-5943263.992746
-6014325.643679
-6083595.294613
-6152864.945547
-6223734.596481
-6293324.247415
-6362465.898349
-6432503.549282
SCALARS stress_3 float
LOOKUP_TABLE default
178060.721543
11785799.617649
11619362.681448
11452029.745246
11283688.809045
11114787.872844
10944638.936642
10774186.000441
10602581.064240
10430656.128039
10257531.191837
10084150.255636
9909681.319435
9734908.383233
9560215.447032
9384290.510831
9208781.574629
9032152.638428
8855555.702227
8678110.766025
8501561.829824
8324100.893623
8146815.957421
7969387.021220
7792086.085019
7615217.148817
7438764.212616
7261431.276415
7085346.340213
6909341.404012
6733896.467811
6558643.531609
6384222.595408
6210681.659207
6037732.723006
5865823.786804
5694746.850603
5524277.914402
5355616.978200
5187772.041999
5021047.105798
4856018.169596
4691821.233395
4529448.297194
4368499.360992
4209486.424791
4052265.488590
3896324.552388
3742415.616187
3591082.679986
3441109.743784
3293824.807583
3148395.871382
3005382.935180
2864689.998979
2726509.062778
2591064.126576
2458019.190375
2327582.254174
2199881.317972
2074724.381771
1953055.445570
1833802.509369
1717909.573167
1603872.636966
1494571.700765
1387222.764563
1283313.828362
1182860.892161
1085751.955959
991411.019758
901134.083557
813369.147355
729044.211154
648447.274953
571370.338751
497461.402550
426608.466349
359387.530147
295654.593946
234881.657745
11493946.003239
-95312.892866
-40395.956665
17512.979536
79645.915738
144882.851939
213127.788140
285180.724342
360529.660543
439270.596744
521499.532946
607616.469147
696741.405348
788858.341550
884879.277751
983476.213952
1086281.150154
1191486.086355
1300275.022556
1412231.958758
1527292.894959
1644817.831160
1766118.767362
1890171.703563
2016784.639764
2146821.575965
2278794.512167
2413743.448368
2550932.384569
2691097.320771
2833246.256972
2977955.193173
3125208.129375
3274413.065576
3426050.001777
3579654.937979
3734411.874180
3892048.810381
4050837.746583
4211594.682784
4374079.618985
4537988.555187
4703033.491388
4870110.427589
5038019.363791
5207112.299992
5377709.236193
5548770.172395
5720759.108596
5894188.044797
6068640.980999
6243061.917200
6418618.853401
6594591.789602
6770804.725804
6948089.662005
7125102.598206
7302515.534408
7480136.470609
7658477.406810
7836466.343012
8014375.279213
8192012.215414
8369473.151616
8547782.087817
8724971.024018
8901951.960220
9079268.896421
9255657.832622
9431710.768824
9607075.705025
9782184.641226
9956957.577428
10130466.513629
10303591.449830
10475948.386032
10647921.322233
10818630.258434
10988827.194636
11158256.130837
11326229.067038
11523100.964680
11552015.926121
11581474.887562
11611093.849003
11639896.810444
11669163.771885
11698222.733326
11727249.694767
11756468.656208
149929.760102
122262.798661
94675.837221
66928.875780
39293.914339
12106.952898
-14776.008543
-42090.969984
-68717.931425
-13800.995224
13913.966217
40636.927658
68015.889099
95506.850540
123221.811981
150888.773422
178539.734863
206830.696304
44827.940977
71902.902418
99505.863859
126948.825300
154775.786741
182202.748182
210797.709623
238816.671064
267187.632505
106736.877179
134371.838620
161814.800061
189817.761502
217660.722943
245935.684384
273906.645824
302325.607265
330472.568706
172229.813380
200136.774821
227531.736262
255518.697703
283713.659144
312084.620585
340343.582026
369130.543467
397677.504908
240730.749581
268845.711022
296624.672463
324899.633904
353222.595345
381465.556786
410460.518227
439119.479668
468178.441109
313071.685783
341122.647224
369349.608665
397976.570106
426075.531547
454766.492987
483633.454428
512932.415869
541815.377310
388596.621984
417095.583425
445162.544866
474205.506307
502736.467748
531811.429189
560710.390630
589913.352071
618972.313512
467417.558185
496524.519626
524767.481067
553714.442508
582485.403949
611448.365390
641035.326831
670430.288272
699121.249713
549902.494387
578753.455828
607524.417269
636647.378710
665946.340150
695437.301591
724880.263032
754003.224473
783446.185914
636291.430588
664502.392029
694313.353470
722668.314911
752079.276352
781842.237793
811381.199234
840984.160675
870779.122116
724936.366789
754347.328230
783598.289671
813089.251112
841988.212553
871671.173994
901578.135435
931277.096876
961072.058317
817933.302991
847056.264432
876627.225873
905798.187313
935449.148754
965308.110195
995151.071636
1025058.033077
1055380.994518
913698.239192
943109.200633
972328.162074
1002267.123515
1032142.084956
1061793.046397
1091796.007838
1122374.969279
1152697.930720
1012919.175393
1042778.136834
1071965.098275
1102064.059716
1131555.021157
1161797.982598
1192104.944039
1222523.905480
1252926.866921
1115580.111595
1145327.073036
1175090.034476
1204948.995917
1235159.957358
1265450.918799
1295661.880240
1326016.841681
1356755.803122
1221489.047796
1250676.009237
1280982.970678
1310713.932119
1341244.893560
1371519.855001
1402290.816442
1432693.777883
1463064.739324
1330117.983997
1359912.945438
1389979.906879
1420542.868320
1450721.829761
1481204.791202
1511799.752643
1542442.714084
1573421.675525
1441914.920199
1472301.881639
1502224.843080
1532675.804521
1563110.765962
1593913.727403
1624668.688844
1655615.650285
1686258.611726
1557535.856400
1587234.817841
1617733.779282
1648248.740723
1678923.702164
1709902.663605
1740545.625046
1771556.586487
1802359.547928
1675428.792601
1705703.754042
1735978.715483
1766413.676924
1796976.638365
1828099.599806
1858822.561247
1890265.522688
1921660.484129
1796601.728802
1826972.690243
1857631.651684
1888066.613125
1919093.574566
1949944.536007
1980619.497448
2011966.458889
2043537.420330
1920382.665004
1951137.626445
1981812.587886
2012279.549327
2043242.510768
2074317.472209
2105328.433650
2136755.395091
2168150.356532
2047347.601205
2077878.562646
2108793.524087
2139740.485528
2170767.446969
2201730.408410
2233077.369851
2264280.331292
2295995.292733
2177192.537406
2207675.498847
2238526.460288
2269809.421729
2300644.383170
2331911.344611
2362970.306052
2394365.267493
2426256.228934
2309357.473608
2339552.435049
2370883.396490
2402054.357931
2433433.319372
2464748.280813
2496143.242254
2527394.203695
2559237.165135
2444114.409809
2475157.371250
2506168.332691
2536971.294132
2568910.255573
2600097.217014
2631444.178455
2662951.139896
2694682.101337
2581671.346010
2612922.307451
2643869.268892
2675376.230333
2706275.191774
2737942.153215
2769241.114656
2801308.076097
2832783.037538
2721708.282212
2752879.243653
2784082.205094
2815221.166535
2847048.127976
2878171.089417
2909838.050858
2941553.012298
2973331.973739
2864513.218413
2895732.179854
2926519.141295
2958074.102736
2989565.064177
3021360.025618
3052658.987059
3084677.948500
3116584.909941
3009094.154614
3040617.116055
3071484.077496
3103183.038937
3134274.000378
3166404.961819
3197863.923260
3229466.884701
3261725.846142
3156427.090816
3187390.052257
3218865.013698
3250403.975139
3281654.936580
3313785.898021
3345372.859461
3376927.820902
3409138.782343
3305744.027017
3336674.988458
3368277.949899
3399720.911340
3431611.872781
3463294.834222
3494545.795663
3526948.757104
3559079.718545
3457268.963218
3488455.924659
3519946.886100
3551565.847541
3583136.808982
3614771.770423
3646550.731864
3678073.693305
3710300.654746
3610761.899420
3641724.860861
3673503.822302
3704610.783743
3736261.745184
3768376.706624
3800219.668065
3831886.629506
3864513.590947
3766094.835621
3796977.797062
3828580.758503
3860615.719944
3892138.681385
3924189.642826
3955792.604267
3987635.565708
4019718.527149
3923011.771822
3954630.733263
3986233.694704
4017628.656145
4049711.617586
4081618.579027
4113253.540468
4145304.501909
4177403.463350
4082600.708024
4113435.669465
4145662.630906
4176785.592347
4208468.553787
4240359.515228
4272346.476669
4304205.438110
4336480.399551
4243181.644225
4274496.605666
4306195.567107
4337622.528548
4369609.489989
4401244.451430
4433279.412871
4464802.374312
4497077.335753
4405058.580426
4436869.541867
4468520.503308
4500219.464749
4531886.426190
4563793.387631
4595668.349072
4627431.310513
4659706.271954
4569175.516628
4600874.478069
4631869.439510
4663632.400950
4695555.362391
4727526.323832
4759385.285273
4791484.246714
4823775.208155
4734764.452829
4766255.414270
4797890.375711
4829493.337152
4861448.298593
4892875.260034
4924846.221475
4956929.182916
4988772.144357
4901345.389030
4933140.350471
4964615.311912
4996282.273353
5027853.234794
5059920.196235
5091747.157676
5123878.119117
5155657.080558
5069478.325232
5100793.286673
5132284.248113
5164207.209554
5195762.170995
5227749.132436
5259896.093877
5291579.055318
5323486.016759
5238683.261433
5270302.222874
5301553.184315
5333316.145756
5364855.107197
5396762.068638
5429117.030079
5460447.991520
5492450.952961
5408800.197634
5440115.159075
5471846.120516
5503705.081957
5535436.043398
5567103.004839
5598865.966280
5630692.927721
5662439.889162
5580261.133836
5611880.095276
5643243.056717
5674414.018158
5707152.979599
5738435.941040
5769990.902481
5802073.863922
5833932.825363
5752666.070037
5783773.031478
5815503.992919
5847010.954360
5878917.915801
5910696.877242
5941995.838683
5974318.800124
6005633.761565
5925967.006238
5957089.967679
5988500.929120
6019879.890561
6052090.852002
6083629.813443
6115136.774884
6146803.736325
6178790.697766
6099603.942439
6131206.903880
6162537.865321
6194236.826762
6225775.788203
6257538.749644
6289125.711085
6320744.672526
6352587.633967
6274632.878641
6306091.840082
6337374.801523
6368513.762964
6400276.724405
6431975.685846
6463306.647287
6495101.608728
6526976.570169
6449533.814842
6481232.776283
6512707.737724
6544326.699165
6575705.660606
6606972.622047
6638959.583488
6670274.544929
6701861.506370
6625890.751043
6657061.712484
6688344.673925
6719787.635366
6751630.596807
6782513.558248
6814084.519689
6846167.481130
6877482.442571
6802343.687245
6833578.648686
6864717.610127
6896464.571568
6927827.533009
6958790.494450
6990457.455891
7021980.417332
7053567.378772
6978988.623446
7010463.584887
7041426.546328
7072981.507769
7104216.469210
7135467.430651
7167214.392092
7198577.353533
7229908.314974
7156305.559647
7187236.521088
7218087.482529
7250026.443970
7281597.405411
7312608.366852
7343587.328293
7375654.289734
7406281.251175
7333830.495849
7364569.457290
7396268.418731
7427119.380172
7458434.341613
7490085.303054
7521160.264495
7552443.225935
7583502.187376
7511371.432050
7542238.393491
7573617.354932
7604868.316373
7635655.277814
7667242.239255
7698333.200696
7729840.162137
7760819.123578
7688944.368251
7720259.329692
7751478.291133
7782585.252574
7813692.214015
7844703.175456
7875922.136897
7906901.098338
7938520.059779
7867237.304453
7898008.265894
7928859.227335
7960014.188776
7991297.150217
8022516.111658
8053207.073098
8084410.034539
8115996.995980
8044890.240654
8076173.202095
8107168.163536
8137763.124977
8168774.086418
8199929.047859
8231116.009300
8262062.970741
8293105.932182
8222927.176855
8253522.138296
8284837.099737
8315800.061178
8346667.022619
8377629.984060
8408224.945501
8439363.906942
8470550.868383
8400836.113057
8431367.074498
8462458.035939
8493148.997380
8524511.958821
8554722.920261
8586021.881702
8616584.843143
8647723.804584
8578585.049258
8609068.010699
8639950.972140
8670609.933581
8701268.895022
8732023.856463
8762842.817904
8793485.779345
8824704.740786
8755789.985459
8786768.946900
8817203.908341
8847590.869782
8878649.831223
8909196.792664
8939759.754105
8970674.715546
9001461.676987
8932754.921661
8963461.883102
8993928.844543
9024859.805984
9055422.767424
9086113.728865
9116564.690306
9147447.651747
9178026.613188
9109543.857862
9140170.819303
9170813.780744
9200960.742185
9232019.703626
9262326.665067
9292921.626508
9323468.587949
9353999.549390
9286476.794063
9316591.755504
9346962.716945
9377477.678386
9408072.639827
9438299.601268
9468670.562709
9499217.524150
9529476.485591
9462161.730265
9492644.691706
9522583.653147
9553162.614587
9583149.576028
9614000.537469
9644227.498910
9674806.460351
9705337.421792
9637510.666466
9667625.627907
9697980.589348
9728207.550789
9758770.512230
9788597.473671
9819464.435112
9849259.396553
9879982.357994
9812539.602667
9842542.564108
9873025.525549
9903092.486990
9932999.448431
9963690.409872
9993597.371313
10023840.332754
10053651.294195
9986576.538869
10017091.500310
10047190.461750
10076841.423191
10107292.384632
10137279.346073
10167474.307514
10197749.268955
10227704.230396
10160517.475070
10190408.436511
10220763.397952
10250558.359393
10280673.320834
10310532.282275
10340599.243716
10370730.205157
10400781.166598
10333402.411271
10363581.372712
10393536.334153
10423091.295594
10453062.257035
10483241.218476
10512684.179917
10543231.141358
10572578.102799
10505935.347473
10536114.308913
10565653.270354
10595384.231795
10625195.193236
10655246.154677
10684769.116118
10714916.077559
10744823.039000
10677460.283674
10707495.245115
10737082.206556
10766781.167997
10796448.129438
10826483.090879
10855926.052320
10885513.013761
10915179.975202
10848585.219875
10878188.181316
10907615.142757
10936930.104198
10966757.065639
10996184.027080
11026026.988521
11055773.949962
11085008.911403
11018094.156076
11048257.117517
11077508.078958
11106999.040399
11136890.001840
11165692.963281
11195215.924722
11224626.886163
11254037.847604
11187843.092278
11216854.053719
11246553.015160
11275931.976601
11305454.938042
11334577.899483
11364148.860924
11393303.822365
11422906.783805
11355848.028479
11385018.989920
11414541.951361
11443952.912802
11473011.874243
11502406.835684
11531673.797125
11560828.758566
11589903.720007
