# vtk DataFile Version 2.0
Generated volume Mesh
ASCII
DATASET UNSTRUCTURED_GRID
POINTS 891 float
0.005000 0.100000 0.000000
0.005000 0.000000 0.000000
0.005000 0.001250 0.000000
0.005000 0.002500 0.000000
0.005000 0.003750 0.000000
0.005000 0.005000 0.000000
0.005000 0.006250 0.000000
0.005000 0.007500 0.000000
0.005000 0.008750 0.000000
0.005000 0.010000 0.000000
0.005000 0.011250 0.000000
0.005000 0.012500 0.000000
0.005000 0.013750 0.000000
0.005000 0.015000 0.000000
0.005000 0.016250 0.000000
0.005000 0.017500 0.000000
0.005000 0.018750 0.000000
0.005000 0.020000 0.000000
0.005000 0.021250 0.000000
0.005000 0.022500 0.000000
0.005000 0.023750 0.000000
0.005000 0.025000 0.000000
0.005000 0.026250 0.000000
0.005000 0.027500 0.000000
0.005000 0.028750 0.000000
0.005000 0.030000 0.000000
0.005000 0.031250 0.000000
0.005000 0.032500 0.000000
0.005000 0.033750 0.000000
0.005000 0.035000 0.000000
0.005000 0.036250 0.000000
0.005000 0.037500 0.000000
0.005000 0.038750 0.000000
0.005000 0.040000 0.000000
0.005000 0.041250 0.000000
0.005000 0.042500 0.000000
0.005000 0.043750 0.000000
0.005000 0.045000 0.000000
0.005000 0.046250 0.000000
0.005000 0.047500 0.000000
0.005000 0.048750 0.000000
0.005000 0.050000 0.000000
0.005000 0.051250 0.000000
0.005000 0.052500 0.000000
0.005000 0.053750 0.000000
0.005000 0.055000 0.000000
0.005000 0.056250 0.000000
0.005000 0.057500 0.000000
0.005000 0.058750 0.000000
0.005000 0.060000 0.000000
0.005000 0.061250 0.000000
0.005000 0.062500 0.000000
0.005000 0.063750 0.000000
0.005000 0.065000 0.000000
0.005000 0.066250 0.000000
0.005000 0.067500 0.000000
0.005000 0.068750 0.000000
0.005000 0.070000 0.000000
0.005000 0.071250 0.000000
0.005000 0.072500 0.000000
0.005000 0.073750 0.000000
0.005000 0.075000 0.000000
0.005000 0.076250 0.000000
0.005000 0.077500 0.000000
0.005000 0.078750 0.000000
0.005000 0.080000 0.000000
0.005000 0.081250 0.000000
0.005000 0.082500 0.000000
0.005000 0.083750 0.000000
0.005000 0.085000 0.000000
0.005000 0.086250 0.000000
0.005000 0.087500 0.000000
0.005000 0.088750 0.000000
0.005000 0.090000 0.000000
0.005000 0.091250 0.000000
0.005000 0.092500 0.000000
0.005000 0.093750 0.000000
0.005000 0.095000 0.000000
0.005000 0.096250 0.000000
0.005000 0.097500 0.000000
0.005000 0.098750 0.000000
0.000000 0.000000 0.000000
0.000000 0.100000 0.000000
0.000000 0.098750 0.000000
0.000000 0.097500 0.000000
0.000000 0.096250 0.000000
0.000000 0.095000 0.000000
0.000000 0.093750 0.000000
0.000000 0.092500 0.000000
0.000000 0.091250 0.000000
0.000000 0.090000 0.000000
0.000000 0.088750 0.000000
0.000000 0.087500 0.000000
0.000000 0.086250 0.000000
0.000000 0.085000 0.000000
0.000000 0.083750 0.000000
0.000000 0.082500 0.000000
0.000000 0.081250 0.000000
0.000000 0.080000 0.000000
0.000000 0.078750 0.000000
0.000000 0.077500 0.000000
0.000000 0.076250 0.000000
0.000000 0.075000 0.000000
0.000000 0.073750 0.000000
0.000000 0.072500 0.000000
0.000000 0.071250 0.000000
0.000000 0.070000 0.000000
0.000000 0.068750 0.000000
0.000000 0.067500 0.000000
0.000000 0.066250 0.000000
0.000000 0.065000 0.000000
0.000000 0.063750 0.000000
0.000000 0.062500 0.000000
0.000000 0.061250 0.000000
0.000000 0.060000 0.000000
0.000000 0.058750 0.000000
0.000000 0.057500 0.000000
0.000000 0.056250 0.000000
0.000000 0.055000 0.000000
0.000000 0.053750 0.000000
0.000000 0.052500 0.000000
0.000000 0.051250 0.000000
0.000000 0.050000 0.000000
0.000000 0.048750 0.000000
0.000000 0.047500 0.000000
0.000000 0.046250 0.000000
0.000000 0.045000 0.000000
0.000000 0.043750 0.000000
0.000000 0.042500 0.000000
0.000000 0.041250 0.000000
0.000000 0.040000 0.000000
0.000000 0.038750 0.000000
0.000000 0.037500 0.000000
0.000000 0.036250 0.000000
0.000000 0.035000 0.000000
0.000000 0.033750 0.000000
0.000000 0.032500 0.000000
0.000000 0.031250 0.000000
0.000000 0.030000 0.000000
0.000000 0.028750 0.000000
0.000000 0.027500 0.000000
0.000000 0.026250 0.000000
0.000000 0.025000 0.000000
0.000000 0.023750 0.000000
0.000000 0.022500 0.000000
0.000000 0.021250 0.000000
0.000000 0.020000 0.000000
0.000000 0.018750 0.000000
0.000000 0.017500 0.000000
0.000000 0.016250 0.000000
0.000000 0.015000 0.000000
0.000000 0.013750 0.000000
0.000000 0.012500 0.000000
0.000000 0.011250 0.000000
0.000000 0.010000 0.000000
0.000000 0.008750 0.000000
0.000000 0.007500 0.000000
0.000000 0.006250 0.000000
0.000000 0.005000 0.000000
0.000000 0.003750 0.000000
0.000000 0.002500 0.000000
0.000000 0.001250 0.000000
0.000500 0.000000 0.000000
0.001000 0.000000 0.000000
0.001500 0.000000 0.000000
0.002000 0.000000 0.000000
0.002500 0.000000 0.000000
0.003000 0.000000 0.000000
0.003500 0.000000 0.000000
0.004000 0.000000 0.000000
0.004500 0.000000 0.000000
0.004500 0.100000 0.000000
0.004000 0.100000 0.000000
0.003500 0.100000 0.000000
0.003000 0.100000 0.000000
0.002500 0.100000 0.000000
0.002000 0.100000 0.000000
0.001500 0.100000 0.000000
0.001000 0.100000 0.000000
0.000500 0.100000 0.000000
0.000500 0.098750 0.000000
0.001000 0.098750 0.000000
0.001500 0.098750 0.000000
0.002000 0.098750 0.000000
0.002500 0.098750 0.000000
0.003000 0.098750 0.000000
0.003500 0.098750 0.000000
0.004000 0.098750 0.000000
0.004500 0.098750 0.000000
0.000500 0.097500 0.000000
0.001000 0.097500 0.000000
0.001500 0.097500 0.000000
0.002000 0.097500 0.000000
0.002500 0.097500 0.000000
0.003000 0.097500 0.000000
0.003500 0.097500 0.000000
0.004000 0.097500 0.000000
0.004500 0.097500 0.000000
0.000500 0.096250 0.000000
0.001000 0.096250 0.000000
0.001500 0.096250 0.000000
0.002000 0.096250 0.000000
0.002500 0.096250 0.000000
0.003000 0.096250 0.000000
0.003500 0.096250 0.000000
0.004000 0.096250 0.000000
0.004500 0.096250 0.000000
0.000500 0.095000 0.000000
0.001000 0.095000 0.000000
0.001500 0.095000 0.000000
0.002000 0.095000 0.000000
0.002500 0.095000 0.000000
0.003000 0.095000 0.000000
0.003500 0.095000 0.000000
0.004000 0.095000 0.000000
0.004500 0.095000 0.000000
0.000500 0.093750 0.000000
0.001000 0.093750 0.000000
0.001500 0.093750 0.000000
0.002000 0.093750 0.000000
0.002500 0.093750 0.000000
0.003000 0.093750 0.000000
0.003500 0.093750 0.000000
0.004000 0.093750 0.000000
0.004500 0.093750 0.000000
0.000500 0.092500 0.000000
0.001000 0.092500 0.000000
0.001500 0.092500 0.000000
0.002000 0.092500 0.000000
0.002500 0.092500 0.000000
0.003000 0.092500 0.000000
0.003500 0.092500 0.000000
0.004000 0.092500 0.000000
0.004500 0.092500 0.000000
0.000500 0.091250 0.000000
0.001000 0.091250 0.000000
0.001500 0.091250 0.000000
0.002000 0.091250 0.000000
0.002500 0.091250 0.000000
0.003000 0.091250 0.000000
0.003500 0.091250 0.000000
0.004000 0.091250 0.000000
0.004500 0.091250 0.000000
0.000500 0.090000 0.000000
0.001000 0.090000 0.000000
0.001500 0.090000 0.000000
0.002000 0.090000 0.000000
0.002500 0.090000 0.000000
0.003000 0.090000 0.000000
0.003500 0.090000 0.000000
0.004000 0.090000 0.000000
0.004500 0.090000 0.000000
0.000500 0.088750 0.000000
0.001000 0.088750 0.000000
0.001500 0.088750 0.000000
0.002000 0.088750 0.000000
0.002500 0.088750 0.000000
0.003000 0.088750 0.000000
0.003500 0.088750 0.000000
0.004000 0.088750 0.000000
0.004500 0.088750 0.000000
0.000500 0.087500 0.000000
0.001000 0.087500 0.000000
0.001500 0.087500 0.000000
0.002000 0.087500 0.000000
0.002500 0.087500 0.000000
0.003000 0.087500 0.000000
0.003500 0.087500 0.000000
0.004000 0.087500 0.000000
0.004500 0.087500 0.000000
0.000500 0.086250 0.000000
0.001000 0.086250 0.000000
0.001500 0.086250 0.000000
0.002000 0.086250 0.000000
0.002500 0.086250 0.000000
0.003000 0.086250 0.000000
0.003500 0.086250 0.000000
0.004000 0.086250 0.000000
0.004500 0.086250 0.000000
0.000500 0.085000 0.000000
0.001000 0.085000 0.000000
0.001500 0.085000 0.000000
0.002000 0.085000 0.000000
0.002500 0.085000 0.000000
0.003000 0.085000 0.000000
0.003500 0.085000 0.000000
0.004000 0.085000 0.000000
0.004500 0.085000 0.000000
0.000500 0.083750 0.000000
0.001000 0.083750 0.000000
0.001500 0.083750 0.000000
0.002000 0.083750 0.000000
0.002500 0.083750 0.000000
0.003000 0.083750 0.000000
0.003500 0.083750 0.000000
0.004000 0.083750 0.000000
0.004500 0.083750 0.000000
0.000500 0.082500 0.000000
0.001000 0.082500 0.000000
0.001500 0.082500 0.000000
0.002000 0.082500 0.000000
0.002500 0.082500 0.000000
0.003000 0.082500 0.000000
0.003500 0.082500 0.000000
0.004000 0.082500 0.000000
0.004500 0.082500 0.000000
0.000500 0.081250 0.000000
0.001000 0.081250 0.000000
0.001500 0.081250 0.000000
0.002000 0.081250 0.000000
0.002500 0.081250 0.000000
0.003000 0.081250 0.000000
0.003500 0.081250 0.000000
0.004000 0.081250 0.000000
0.004500 0.081250 0.000000
0.000500 0.080000 0.000000
0.001000 0.080000 0.000000
0.001500 0.080000 0.000000
0.002000 0.080000 0.000000
0.002500 0.080000 0.000000
0.003000 0.080000 0.000000
0.003500 0.080000 0.000000
0.004000 0.080000 0.000000
0.004500 0.080000 0.000000
0.000500 0.078750 0.000000
0.001000 0.078750 0.000000
0.001500 0.078750 0.000000
0.002000 0.078750 0.000000
0.002500 0.078750 0.000000
0.003000 0.078750 0.000000
0.003500 0.078750 0.000000
0.004000 0.078750 0.000000
0.004500 0.078750 0.000000
0.000500 0.077500 0.000000
0.001000 0.077500 0.000000
0.001500 0.077500 0.000000
0.002000 0.077500 0.000000
0.002500 0.077500 0.000000
0.003000 0.077500 0.000000
0.003500 0.077500 0.000000
0.004000 0.077500 0.000000
0.004500 0.077500 0.000000
0.000500 0.076250 0.000000
0.001000 0.076250 0.000000
0.001500 0.076250 0.000000
0.002000 0.076250 0.000000
0.002500 0.076250 0.000000
0.003000 0.076250 0.000000
0.003500 0.076250 0.000000
0.004000 0.076250 0.000000
0.004500 0.076250 0.000000
0.000500 0.075000 0.000000
0.001000 0.075000 0.000000
0.001500 0.075000 0.000000
0.002000 0.075000 0.000000
0.002500 0.075000 0.000000
0.003000 0.075000 0.000000
0.003500 0.075000 0.000000
0.004000 0.075000 0.000000
0.004500 0.075000 0.000000
0.000500 0.073750 0.000000
0.001000 0.073750 0.000000
0.001500 0.073750 0.000000
0.002000 0.073750 0.000000
0.002500 0.073750 0.000000
0.003000 0.073750 0.000000
0.003500 0.073750 0.000000
0.004000 0.073750 0.000000
0.004500 0.073750 0.000000
0.000500 0.072500 0.000000
0.001000 0.072500 0.000000
0.001500 0.072500 0.000000
0.002000 0.072500 0.000000
0.002500 0.072500 0.000000
0.003000 0.072500 0.000000
0.003500 0.072500 0.000000
0.004000 0.072500 0.000000
0.004500 0.072500 0.000000
0.000500 0.071250 0.000000
0.001000 0.071250 0.000000
0.001500 0.071250 0.000000
0.002000 0.071250 0.000000
0.002500 0.071250 0.000000
0.003000 0.071250 0.000000
0.003500 0.071250 0.000000
0.004000 0.071250 0.000000
0.004500 0.071250 0.000000
0.000500 0.070000 0.000000
0.001000 0.070000 0.000000
0.001500 0.070000 0.000000
0.002000 0.070000 0.000000
0.002500 0.070000 0.000000
0.003000 0.070000 0.000000
0.003500 0.070000 0.000000
0.004000 0.070000 0.000000
0.004500 0.070000 0.000000
0.000500 0.068750 0.000000
0.001000 0.068750 0.000000
0.001500 0.068750 0.000000
0.002000 0.068750 0.000000
0.002500 0.068750 0.000000
0.003000 0.068750 0.000000
0.003500 0.068750 0.000000
0.004000 0.068750 0.000000
0.004500 0.068750 0.000000
0.000500 0.067500 0.000000
0.001000 0.067500 0.000000
0.001500 0.067500 0.000000
0.002000 0.067500 0.000000
0.002500 0.067500 0.000000
0.003000 0.067500 0.000000
0.003500 0.067500 0.000000
0.004000 0.067500 0.000000
0.004500 0.067500 0.000000
0.000500 0.066250 0.000000
0.001000 0.066250 0.000000
0.001500 0.066250 0.000000
0.002000 0.066250 0.000000
0.002500 0.066250 0.000000
0.003000 0.066250 0.000000
0.003500 0.066250 0.000000
0.004000 0.066250 0.000000
0.004500 0.066250 0.000000
0.000500 0.065000 0.000000
0.001000 0.065000 0.000000
0.001500 0.065000 0.000000
0.002000 0.065000 0.000000
0.002500 0.065000 0.000000
0.003000 0.065000 0.000000
0.003500 0.065000 0.000000
0.004000 0.065000 0.000000
0.004500 0.065000 0.000000
0.000500 0.063750 0.000000
0.001000 0.063750 0.000000
0.001500 0.063750 0.000000
0.002000 0.063750 0.000000
0.002500 0.063750 0.000000
0.003000 0.063750 0.000000
0.003500 0.063750 0.000000
0.004000 0.063750 0.000000
0.004500 0.063750 0.000000
0.000500 0.062500 0.000000
0.001000 0.062500 0.000000
0.001500 0.062500 0.000000
0.002000 0.062500 0.000000
0.002500 0.062500 0.000000
0.003000 0.062500 0.000000
0.003500 0.062500 0.000000
0.004000 0.062500 0.000000
0.004500 0.062500 0.000000
0.000500 0.061250 0.000000
0.001000 0.061250 0.000000
0.001500 0.061250 0.000000
0.002000 0.061250 0.000000
0.002500 0.061250 0.000000
0.003000 0.061250 0.000000
0.003500 0.061250 0.000000
0.004000 0.061250 0.000000
0.004500 0.061250 0.000000
0.000500 0.060000 0.000000
0.001000 0.060000 0.000000
0.001500 0.060000 0.000000
0.002000 0.060000 0.000000
0.002500 0.060000 0.000000
0.003000 0.060000 0.000000
0.003500 0.060000 0.000000
0.004000 0.060000 0.000000
0.004500 0.060000 0.000000
0.000500 0.058750 0.000000
0.001000 0.058750 0.000000
0.001500 0.058750 0.000000
0.002000 0.058750 0.000000
0.002500 0.058750 0.000000
0.003000 0.058750 0.000000
0.003500 0.058750 0.000000
0.004000 0.058750 0.000000
0.004500 0.058750 0.000000
0.000500 0.057500 0.000000
0.001000 0.057500 0.000000
0.001500 0.057500 0.000000
0.002000 0.057500 0.000000
0.002500 0.057500 0.000000
0.003000 0.057500 0.000000
0.003500 0.057500 0.000000
0.004000 0.057500 0.000000
0.004500 0.057500 0.000000
0.000500 0.056250 0.000000
0.001000 0.056250 0.000000
0.001500 0.056250 0.000000
0.002000 0.056250 0.000000
0.002500 0.056250 0.000000
0.003000 0.056250 0.000000
0.003500 0.056250 0.000000
0.004000 0.056250 0.000000
0.004500 0.056250 0.000000
0.000500 0.055000 0.000000
0.001000 0.055000 0.000000
0.001500 0.055000 0.000000
0.002000 0.055000 0.000000
0.002500 0.055000 0.000000
0.003000 0.055000 0.000000
0.003500 0.055000 0.000000
0.004000 0.055000 0.000000
0.004500 0.055000 0.000000
0.000500 0.053750 0.000000
0.001000 0.053750 0.000000
0.001500 0.053750 0.000000
0.002000 0.053750 0.000000
0.002500 0.053750 0.000000
0.003000 0.053750 0.000000
0.003500 0.053750 0.000000
0.004000 0.053750 0.000000
0.004500 0.053750 0.000000
0.000500 0.052500 0.000000
0.001000 0.052500 0.000000
0.001500 0.052500 0.000000
0.002000 0.052500 0.000000
0.002500 0.052500 0.000000
0.003000 0.052500 0.000000
0.003500 0.052500 0.000000
0.004000 0.052500 0.000000
0.004500 0.052500 0.000000
0.000500 0.051250 0.000000
0.001000 0.051250 0.000000
0.001500 0.051250 0.000000
0.002000 0.051250 0.000000
0.002500 0.051250 0.000000
0.003000 0.051250 0.000000
0.003500 0.051250 0.000000
0.004000 0.051250 0.000000
0.004500 0.051250 0.000000
0.000500 0.050000 0.000000
0.001000 0.050000 0.000000
0.001500 0.050000 0.000000
0.002000 0.050000 0.000000
0.002500 0.050000 0.000000
0.003000 0.050000 0.000000
0.003500 0.050000 0.000000
0.004000 0.050000 0.000000
0.004500 0.050000 0.000000
0.000500 0.048750 0.000000
0.001000 0.048750 0.000000
0.001500 0.048750 0.000000
0.002000 0.048750 0.000000
0.002500 0.048750 0.000000
0.003000 0.048750 0.000000
0.003500 0.048750 0.000000
0.004000 0.048750 0.000000
0.004500 0.048750 0.000000
0.000500 0.047500 0.000000
0.001000 0.047500 0.000000
0.001500 0.047500 0.000000
0.002000 0.047500 0.000000
0.002500 0.047500 0.000000
0.003000 0.047500 0.000000
0.003500 0.047500 0.000000
0.004000 0.047500 0.000000
0.004500 0.047500 0.000000
0.000500 0.046250 0.000000
0.001000 0.046250 0.000000
0.001500 0.046250 0.000000
0.002000 0.046250 0.000000
0.002500 0.046250 0.000000
0.003000 0.046250 0.000000
0.003500 0.046250 0.000000
0.004000 0.046250 0.000000
0.004500 0.046250 0.000000
0.000500 0.045000 0.000000
0.001000 0.045000 0.000000
0.001500 0.045000 0.000000
0.002000 0.045000 0.000000
0.002500 0.045000 0.000000
0.003000 0.045000 0.000000
0.003500 0.045000 0.000000
0.004000 0.045000 0.000000
0.004500 0.045000 0.000000
0.000500 0.043750 0.000000
0.001000 0.043750 0.000000
0.001500 0.043750 0.000000
0.002000 0.043750 0.000000
0.002500 0.043750 0.000000
0.003000 0.043750 0.000000
0.003500 0.043750 0.000000
0.004000 0.043750 0.000000
0.004500 0.043750 0.000000
0.000500 0.042500 0.000000
0.001000 0.042500 0.000000
0.001500 0.042500 0.000000
0.002000 0.042500 0.000000
0.002500 0.042500 0.000000
0.003000 0.042500 0.000000
0.003500 0.042500 0.000000
0.004000 0.042500 0.000000
0.004500 0.042500 0.000000
0.000500 0.041250 0.000000
0.001000 0.041250 0.000000
0.001500 0.041250 0.000000
0.002000 0.041250 0.000000
0.002500 0.041250 0.000000
0.003000 0.041250 0.000000
0.003500 0.041250 0.000000
0.004000 0.041250 0.000000
0.004500 0.041250 0.000000
0.000500 0.040000 0.000000
0.001000 0.040000 0.000000
0.001500 0.040000 0.000000
0.002000 0.040000 0.000000
0.002500 0.040000 0.000000
0.003000 0.040000 0.000000
0.003500 0.040000 0.000000
0.004000 0.040000 0.000000
0.004500 0.040000 0.000000
0.000500 0.038750 0.000000
0.001000 0.038750 0.000000
0.001500 0.038750 0.000000
0.002000 0.038750 0.000000
0.002500 0.038750 0.000000
0.003000 0.038750 0.000000
0.003500 0.038750 0.000000
0.004000 0.038750 0.000000
0.004500 0.038750 0.000000
0.000500 0.037500 0.000000
0.001000 0.037500 0.000000
0.001500 0.037500 0.000000
0.002000 0.037500 0.000000
0.002500 0.037500 0.000000
0.003000 0.037500 0.000000
0.003500 0.037500 0.000000
0.004000 0.037500 0.000000
0.004500 0.037500 0.000000
0.000500 0.036250 0.000000
0.001000 0.036250 0.000000
0.001500 0.036250 0.000000
0.002000 0.036250 0.000000
0.002500 0.036250 0.000000
0.003000 0.036250 0.000000
0.003500 0.036250 0.000000
0.004000 0.036250 0.000000
0.004500 0.036250 0.000000
0.000500 0.035000 0.000000
0.001000 0.035000 0.000000
0.001500 0.035000 0.000000
0.002000 0.035000 0.000000
0.002500 0.035000 0.000000
0.003000 0.035000 0.000000
0.003500 0.035000 0.000000
0.004000 0.035000 0.000000
0.004500 0.035000 0.000000
0.000500 0.033750 0.000000
0.001000 0.033750 0.000000
0.001500 0.033750 0.000000
0.002000 0.033750 0.000000
0.002500 0.033750 0.000000
0.003000 0.033750 0.000000
0.003500 0.033750 0.000000
0.004000 0.033750 0.000000
0.004500 0.033750 0.000000
0.000500 0.032500 0.000000
0.001000 0.032500 0.000000
0.001500 0.032500 0.000000
0.002000 0.032500 0.000000
0.002500 0.032500 0.000000
0.003000 0.032500 0.000000
0.003500 0.032500 0.000000
0.004000 0.032500 0.000000
0.004500 0.032500 0.000000
0.000500 0.031250 0.000000
0.001000 0.031250 0.000000
0.001500 0.031250 0.000000
0.002000 0.031250 0.000000
0.002500 0.031250 0.000000
0.003000 0.031250 0.000000
0.003500 0.031250 0.000000
0.004000 0.031250 0.000000
0.004500 0.031250 0.000000
0.000500 0.030000 0.000000
0.001000 0.030000 0.000000
0.001500 0.030000 0.000000
0.002000 0.030000 0.000000
0.002500 0.030000 0.000000
0.003000 0.030000 0.000000
0.003500 0.030000 0.000000
0.004000 0.030000 0.000000
0.004500 0.030000 0.000000
0.000500 0.028750 0.000000
0.001000 0.028750 0.000000
0.001500 0.028750 0.000000
0.002000 0.028750 0.000000
0.002500 0.028750 0.000000
0.003000 0.028750 0.000000
0.003500 0.028750 0.000000
0.004000 0.028750 0.000000
0.004500 0.028750 0.000000
0.000500 0.027500 0.000000
0.001000 0.027500 0.000000
0.001500 0.027500 0.000000
0.002000 0.027500 0.000000
0.002500 0.027500 0.000000
0.003000 0.027500 0.000000
0.003500 0.027500 0.000000
0.004000 0.027500 0.000000
0.004500 0.027500 0.000000
0.000500 0.026250 0.000000
0.001000 0.026250 0.000000
0.001500 0.026250 0.000000
0.002000 0.026250 0.000000
0.002500 0.026250 0.000000
0.003000 0.026250 0.000000
0.003500 0.026250 0.000000
0.004000 0.026250 0.000000
0.004500 0.026250 0.000000
0.000500 0.025000 0.000000
0.001000 0.025000 0.000000
0.001500 0.025000 0.000000
0.002000 0.025000 0.000000
0.002500 0.025000 0.000000
0.003000 0.025000 0.000000
0.003500 0.025000 0.000000
0.004000 0.025000 0.000000
0.004500 0.025000 0.000000
0.000500 0.023750 0.000000
0.001000 0.023750 0.000000
0.001500 0.023750 0.000000
0.002000 0.023750 0.000000
0.002500 0.023750 0.000000
0.003000 0.023750 0.000000
0.003500 0.023750 0.000000
0.004000 0.023750 0.000000
0.004500 0.023750 0.000000
0.000500 0.022500 0.000000
0.001000 0.022500 0.000000
0.001500 0.022500 0.000000
0.002000 0.022500 0.000000
0.002500 0.022500 0.000000
0.003000 0.022500 0.000000
0.003500 0.022500 0.000000
0.004000 0.022500 0.000000
0.004500 0.022500 0.000000
0.000500 0.021250 0.000000
0.001000 0.021250 0.000000
0.001500 0.021250 0.000000
0.002000 0.021250 0.000000
0.002500 0.021250 0.000000
0.003000 0.021250 0.000000
0.003500 0.021250 0.000000
0.004000 0.021250 0.000000
0.004500 0.021250 0.000000
0.000500 0.020000 0.000000
0.001000 0.020000 0.000000
0.001500 0.020000 0.000000
0.002000 0.020000 0.000000
0.002500 0.020000 0.000000
0.003000 0.020000 0.000000
0.003500 0.020000 0.000000
0.004000 0.020000 0.000000
0.004500 0.020000 0.000000
0.000500 0.018750 0.000000
0.001000 0.018750 0.000000
0.001500 0.018750 0.000000
0.002000 0.018750 0.000000
0.002500 0.018750 0.000000
0.003000 0.018750 0.000000
0.003500 0.018750 0.000000
0.004000 0.018750 0.000000
0.004500 0.018750 0.000000
0.000500 0.017500 0.000000
0.001000 0.017500 0.000000
0.001500 0.017500 0.000000
0.002000 0.017500 0.000000
0.002500 0.017500 0.000000
0.003000 0.017500 0.000000
0.003500 0.017500 0.000000
0.004000 0.017500 0.000000
0.004500 0.017500 0.000000
0.000500 0.016250 0.000000
0.001000 0.016250 0.000000
0.001500 0.016250 0.000000
0.002000 0.016250 0.000000
0.002500 0.016250 0.000000
0.003000 0.016250 0.000000
0.003500 0.016250 0.000000
0.004000 0.016250 0.000000
0.004500 0.016250 0.000000
0.000500 0.015000 0.000000
0.001000 0.015000 0.000000
0.001500 0.015000 0.000000
0.002000 0.015000 0.000000
0.002500 0.015000 0.000000
0.003000 0.015000 0.000000
0.003500 0.015000 0.000000
0.004000 0.015000 0.000000
0.004500 0.015000 0.000000
0.000500 0.013750 0.000000
0.001000 0.013750 0.000000
0.001500 0.013750 0.000000
0.002000 0.013750 0.000000
0.002500 0.013750 0.000000
0.003000 0.013750 0.000000
0.003500 0.013750 0.000000
0.004000 0.013750 0.000000
0.004500 0.013750 0.000000
0.000500 0.012500 0.000000
0.001000 0.012500 0.000000
0.001500 0.012500 0.000000
0.002000 0.012500 0.000000
0.002500 0.012500 0.000000
0.003000 0.012500 0.000000
0.003500 0.012500 0.000000
0.004000 0.012500 0.000000
0.004500 0.012500 0.000000
0.000500 0.011250 0.000000
0.001000 0.011250 0.000000
0.001500 0.011250 0.000000
0.002000 0.011250 0.000000
0.002500 0.011250 0.000000
0.003000 0.011250 0.000000
0.003500 0.011250 0.000000
0.004000 0.011250 0.000000
0.004500 0.011250 0.000000
0.000500 0.010000 0.000000
0.001000 0.010000 0.000000
0.001500 0.010000 0.000000
0.002000 0.010000 0.000000
0.002500 0.010000 0.000000
0.003000 0.010000 0.000000
0.003500 0.010000 0.000000
0.004000 0.010000 0.000000
0.004500 0.010000 0.000000
0.000500 0.008750 0.000000
0.001000 0.008750 0.000000
0.001500 0.008750 0.000000
0.002000 0.008750 0.000000
0.002500 0.008750 0.000000
0.003000 0.008750 0.000000
0.003500 0.008750 0.000000
0.004000 0.008750 0.000000
0.004500 0.008750 0.000000
0.000500 0.007500 0.000000
0.001000 0.007500 0.000000
0.001500 0.007500 0.000000
0.002000 0.007500 0.000000
0.002500 0.007500 0.000000
0.003000 0.007500 0.000000
0.003500 0.007500 0.000000
0.004000 0.007500 0.000000
0.004500 0.007500 0.000000
0.000500 0.006250 0.000000
0.001000 0.006250 0.000000
0.001500 0.006250 0.000000
0.002000 0.006250 0.000000
0.002500 0.006250 0.000000
0.003000 0.006250 0.000000
0.003500 0.006250 0.000000
0.004000 0.006250 0.000000
0.004500 0.006250 0.000000
0.000500 0.005000 0.000000
0.001000 0.005000 0.000000
0.001500 0.005000 0.000000
0.002000 0.005000 0.000000
0.002500 0.005000 0.000000
0.003000 0.005000 0.000000
0.003500 0.005000 0.000000
0.004000 0.005000 0.000000
0.004500 0.005000 0.000000
0.000500 0.003750 0.000000
0.001000 0.003750 0.000000
0.001500 0.003750 0.000000
0.002000 0.003750 0.000000
0.002500 0.003750 0.000000
0.003000 0.003750 0.000000
0.003500 0.003750 0.000000
0.004000 0.003750 0.000000
0.004500 0.003750 0.000000
0.000500 0.002500 0.000000
0.001000 0.002500 0.000000
0.001500 0.002500 0.000000
0.002000 0.002500 0.000000
0.002500 0.002500 0.000000
0.003000 0.002500 0.000000
0.003500 0.002500 0.000000
0.004000 0.002500 0.000000
0.004500 0.002500 0.000000
0.000500 0.001250 0.000000
0.001000 0.001250 0.000000
0.001500 0.001250 0.000000
0.002000 0.001250 0.000000
0.002500 0.001250 0.000000
0.003000 0.001250 0.000000
0.003500 0.001250 0.000000
0.004000 0.001250 0.000000
0.004500 0.001250 0.000000
CELLS 800 4000
4 82 83 180 179
4 179 180 181 178
4 178 181 182 177
4 177 182 183 176
4 176 183 184 175
4 175 184 185 174
4 174 185 186 173
4 173 186 187 172
4 172 187 188 171
4 171 188 80 0
4 83 84 189 180
4 180 189 190 181
4 181 190 191 182
4 182 191 192 183
4 183 192 193 184
4 184 193 194 185
4 185 194 195 186
4 186 195 196 187
4 187 196 197 188
4 188 197 79 80
4 84 85 198 189
4 189 198 199 190
4 190 199 200 191
4 191 200 201 192
4 192 201 202 193
4 193 202 203 194
4 194 203 204 195
4 195 204 205 196
4 196 205 206 197
4 197 206 78 79
4 85 86 207 198
4 198 207 208 199
4 199 208 209 200
4 200 209 210 201
4 201 210 211 202
4 202 211 212 203
4 203 212 213 204
4 204 213 214 205
4 205 214 215 206
4 206 215 77 78
4 86 87 216 207
4 207 216 217 208
4 208 217 218 209
4 209 218 219 210
4 210 219 220 211
4 211 220 221 212
4 212 221 222 213
4 213 222 223 214
4 214 223 224 215
4 215 224 76 77
4 87 88 225 216
4 216 225 226 217
4 217 226 227 218
4 218 227 228 219
4 219 228 229 220
4 220 229 230 221
4 221 230 231 222
4 222 231 232 223
4 223 232 233 224
4 224 233 75 76
4 88 89 234 225
4 225 234 235 226
4 226 235 236 227
4 227 236 237 228
4 228 237 238 229
4 229 238 239 230
4 230 239 240 231
4 231 240 241 232
4 232 241 242 233
4 233 242 74 75
4 89 90 243 234
4 234 243 244 235
4 235 244 245 236
4 236 245 246 237
4 237 246 247 238
4 238 247 248 239
4 239 248 249 240
4 240 249 250 241
4 241 250 251 242
4 242 251 73 74
4 90 91 252 243
4 243 252 253 244
4 244 253 254 245
4 245 254 255 246
4 246 255 256 247
4 247 256 257 248
4 248 257 258 249
4 249 258 259 250
4 250 259 260 251
4 251 260 72 73
4 91 92 261 252
4 252 261 262 253
4 253 262 263 254
4 254 263 264 255
4 255 264 265 256
4 256 265 266 257
4 257 266 267 258
4 258 267 268 259
4 259 268 269 260
4 260 269 71 72
4 92 93 270 261
4 261 270 271 262
4 262 271 272 263
4 263 272 273 264
4 264 273 274 265
4 265 274 275 266
4 266 275 276 267
4 267 276 277 268
4 268 277 278 269
4 269 278 70 71
4 93 94 279 270
4 270 279 280 271
4 271 280 281 272
4 272 281 282 273
4 273 282 283 274
4 274 283 284 275
4 275 284 285 276
4 276 285 286 277
4 277 286 287 278
4 278 287 69 70
4 94 95 288 279
4 279 288 289 280
4 280 289 290 281
4 281 290 291 282
4 282 291 292 283
4 283 292 293 284
4 284 293 294 285
4 285 294 295 286
4 286 295 296 287
4 287 296 68 69
4 95 96 297 288
4 288 297 298 289
4 289 298 299 290
4 290 299 300 291
4 291 300 301 292
4 292 301 302 293
4 293 302 303 294
4 294 303 304 295
4 295 304 305 296
4 296 305 67 68
4 96 97 306 297
4 297 306 307 298
4 298 307 308 299
4 299 308 309 300
4 300 309 310 301
4 301 310 311 302
4 302 311 312 303
4 303 312 313 304
4 304 313 314 305
4 305 314 66 67
4 97 98 315 306
4 306 315 316 307
4 307 316 317 308
4 308 317 318 309
4 309 318 319 310
4 310 319 320 311
4 311 320 321 312
4 312 321 322 313
4 313 322 323 314
4 314 323 65 66
4 98 99 324 315
4 315 324 325 316
4 316 325 326 317
4 317 326 327 318
4 318 327 328 319
4 319 328 329 320
4 320 329 330 321
4 321 330 331 322
4 322 331 332 323
4 323 332 64 65
4 99 100 333 324
4 324 333 334 325
4 325 334 335 326
4 326 335 336 327
4 327 336 337 328
4 328 337 338 329
4 329 338 339 330
4 330 339 340 331
4 331 340 341 332
4 332 341 63 64
4 100 101 342 333
4 333 342 343 334
4 334 343 344 335
4 335 344 345 336
4 336 345 346 337
4 337 346 347 338
4 338 347 348 339
4 339 348 349 340
4 340 349 350 341
4 341 350 62 63
4 101 102 351 342
4 342 351 352 343
4 343 352 353 344
4 344 353 354 345
4 345 354 355 346
4 346 355 356 347
4 347 356 357 348
4 348 357 358 349
4 349 358 359 350
4 350 359 61 62
4 102 103 360 351
4 351 360 361 352
4 352 361 362 353
4 353 362 363 354
4 354 363 364 355
4 355 364 365 356
4 356 365 366 357
4 357 366 367 358
4 358 367 368 359
4 359 368 60 61
4 103 104 369 360
4 360 369 370 361
4 361 370 371 362
4 362 371 372 363
4 363 372 373 364
4 364 373 374 365
4 365 374 375 366
4 366 375 376 367
4 367 376 377 368
4 368 377 59 60
4 104 105 378 369
4 369 378 379 370
4 370 379 380 371
4 371 380 381 372
4 372 381 382 373
4 373 382 383 374
4 374 383 384 375
4 375 384 385 376
4 376 385 386 377
4 377 386 58 59
4 105 106 387 378
4 378 387 388 379
4 379 388 389 380
4 380 389 390 381
4 381 390 391 382
4 382 391 392 383
4 383 392 393 384
4 384 393 394 385
4 385 394 395 386
4 386 395 57 58
4 106 107 396 387
4 387 396 397 388
4 388 397 398 389
4 389 398 399 390
4 390 399 400 391
4 391 400 401 392
4 392 401 402 393
4 393 402 403 394
4 394 403 404 395
4 395 404 56 57
4 107 108 405 396
4 396 405 406 397
4 397 406 407 398
4 398 407 408 399
4 399 408 409 400
4 400 409 410 401
4 401 410 411 402
4 402 411 412 403
4 403 412 413 404
4 404 413 55 56
4 108 109 414 405
4 405 414 415 406
4 406 415 416 407
4 407 416 417 408
4 408 417 418 409
4 409 418 419 410
4 410 419 420 411
4 411 420 421 412
4 412 421 422 413
4 413 422 54 55
4 109 110 423 414
4 414 423 424 415
4 415 424 425 416
4 416 425 426 417
4 417 426 427 418
4 418 427 428 419
4 419 428 429 420
4 420 429 430 421
4 421 430 431 422
4 422 431 53 54
4 110 111 432 423
4 423 432 433 424
4 424 433 434 425
4 425 434 435 426
4 426 435 436 427
4 427 436 437 428
4 428 437 438 429
4 429 438 439 430
4 430 439 440 431
4 431 440 52 53
4 111 112 441 432
4 432 441 442 433
4 433 442 443 434
4 434 443 444 435
4 435 444 445 436
4 436 445 446 437
4 437 446 447 438
4 438 447 448 439
4 439 448 449 440
4 440 449 51 52
4 112 113 450 441
4 441 450 451 442
4 442 451 452 443
4 443 452 453 444
4 444 453 454 445
4 445 454 455 446
4 446 455 456 447
4 447 456 457 448
4 448 457 458 449
4 449 458 50 51
4 113 114 459 450
4 450 459 460 451
4 451 460 461 452
4 452 461 462 453
4 453 462 463 454
4 454 463 464 455
4 455 464 465 456
4 456 465 466 457
4 457 466 467 458
4 458 467 49 50
4 114 115 468 459
4 459 468 469 460
4 460 469 470 461
4 461 470 471 462
4 462 471 472 463
4 463 472 473 464
4 464 473 474 465
4 465 474 475 466
4 466 475 476 467
4 467 476 48 49
4 115 116 477 468
4 468 477 478 469
4 469 478 479 470
4 470 479 480 471
4 471 480 481 472
4 472 481 482 473
4 473 482 483 474
4 474 483 484 475
4 475 484 485 476
4 476 485 47 48
4 116 117 486 477
4 477 486 487 478
4 478 487 488 479
4 479 488 489 480
4 480 489 490 481
4 481 490 491 482
4 482 491 492 483
4 483 492 493 484
4 484 493 494 485
4 485 494 46 47
4 117 118 495 486
4 486 495 496 487
4 487 496 497 488
4 488 497 498 489
4 489 498 499 490
4 490 499 500 491
4 491 500 501 492
4 492 501 502 493
4 493 502 503 494
4 494 503 45 46
4 118 119 504 495
4 495 504 505 496
4 496 505 506 497
4 497 506 507 498
4 498 507 508 499
4 499 508 509 500
4 500 509 510 501
4 501 510 511 502
4 502 511 512 503
4 503 512 44 45
4 119 120 513 504
4 504 513 514 505
4 505 514 515 506
4 506 515 516 507
4 507 516 517 508
4 508 517 518 509
4 509 518 519 510
4 510 519 520 511
4 511 520 521 512
4 512 521 43 44
4 120 121 522 513
4 513 522 523 514
4 514 523 524 515
4 515 524 525 516
4 516 525 526 517
4 517 526 527 518
4 518 527 528 519
4 519 528 529 520
4 520 529 530 521
4 521 530 42 43
4 121 122 531 522
4 522 531 532 523
4 523 532 533 524
4 524 533 534 525
4 525 534 535 526
4 526 535 536 527
4 527 536 537 528
4 528 537 538 529
4 529 538 539 530
4 530 539 41 42
4 122 123 540 531
4 531 540 541 532
4 532 541 542 533
4 533 542 543 534
4 534 543 544 535
4 535 544 545 536
4 536 545 546 537
4 537 546 547 538
4 538 547 548 539
4 539 548 40 41
4 123 124 549 540
4 540 549 550 541
4 541 550 551 542
4 542 551 552 543
4 543 552 553 544
4 544 553 554 545
4 545 554 555 546
4 546 555 556 547
4 547 556 557 548
4 548 557 39 40
4 124 125 558 549
4 549 558 559 550
4 550 559 560 551
4 551 560 561 552
4 552 561 562 553
4 553 562 563 554
4 554 563 564 555
4 555 564 565 556
4 556 565 566 557
4 557 566 38 39
4 125 126 567 558
4 558 567 568 559
4 559 568 569 560
4 560 569 570 561
4 561 570 571 562
4 562 571 572 563
4 563 572 573 564
4 564 573 574 565
4 565 574 575 566
4 566 575 37 38
4 126 127 576 567
4 567 576 577 568
4 568 577 578 569
4 569 578 579 570
4 570 579 580 571
4 571 580 581 572
4 572 581 582 573
4 573 582 583 574
4 574 583 584 575
4 575 584 36 37
4 127 128 585 576
4 576 585 586 577
4 577 586 587 578
4 578 587 588 579
4 579 588 589 580
4 580 589 590 581
4 581 590 591 582
4 582 591 592 583
4 583 592 593 584
4 584 593 35 36
4 128 129 594 585
4 585 594 595 586
4 586 595 596 587
4 587 596 597 588
4 588 597 598 589
4 589 598 599 590
4 590 599 600 591
4 591 600 601 592
4 592 601 602 593
4 593 602 34 35
4 129 130 603 594
4 594 603 604 595
4 595 604 605 596
4 596 605 606 597
4 597 606 607 598
4 598 607 608 599
4 599 608 609 600
4 600 609 610 601
4 601 610 611 602
4 602 611 33 34
4 130 131 612 603
4 603 612 613 604
4 604 613 614 605
4 605 614 615 606
4 606 615 616 607
4 607 616 617 608
4 608 617 618 609
4 609 618 619 610
4 610 619 620 611
4 611 620 32 33
4 131 132 621 612
4 612 621 622 613
4 613 622 623 614
4 614 623 624 615
4 615 624 625 616
4 616 625 626 617
4 617 626 627 618
4 618 627 628 619
4 619 628 629 620
4 620 629 31 32
4 132 133 630 621
4 621 630 631 622
4 622 631 632 623
4 623 632 633 624
4 624 633 634 625
4 625 634 635 626
4 626 635 636 627
4 627 636 637 628
4 628 637 638 629
4 629 638 30 31
4 133 134 639 630
4 630 639 640 631
4 631 640 641 632
4 632 641 642 633
4 633 642 643 634
4 634 643 644 635
4 635 644 645 636
4 636 645 646 637
4 637 646 647 638
4 638 647 29 30
4 134 135 648 639
4 639 648 649 640
4 640 649 650 641
4 641 650 651 642
4 642 651 652 643
4 643 652 653 644
4 644 653 654 645
4 645 654 655 646
4 646 655 656 647
4 647 656 28 29
4 135 136 657 648
4 648 657 658 649
4 649 658 659 650
4 650 659 660 651
4 651 660 661 652
4 652 661 662 653
4 653 662 663 654
4 654 663 664 655
4 655 664 665 656
4 656 665 27 28
4 136 137 666 657
4 657 666 667 658
4 658 667 668 659
4 659 668 669 660
4 660 669 670 661
4 661 670 671 662
4 662 671 672 663
4 663 672 673 664
4 664 673 674 665
4 665 674 26 27
4 137 138 675 666
4 666 675 676 667
4 667 676 677 668
4 668 677 678 669
4 669 678 679 670
4 670 679 680 671
4 671 680 681 672
4 672 681 682 673
4 673 682 683 674
4 674 683 25 26
4 138 139 684 675
4 675 684 685 676
4 676 685 686 677
4 677 686 687 678
4 678 687 688 679
4 679 688 689 680
4 680 689 690 681
4 681 690 691 682
4 682 691 692 683
4 683 692 24 25
4 139 140 693 684
4 684 693 694 685
4 685 694 695 686
4 686 695 696 687
4 687 696 697 688
4 688 697 698 689
4 689 698 699 690
4 690 699 700 691
4 691 700 701 692
4 692 701 23 24
4 140 141 702 693
4 693 702 703 694
4 694 703 704 695
4 695 704 705 696
4 696 705 706 697
4 697 706 707 698
4 698 707 708 699
4 699 708 709 700
4 700 709 710 701
4 701 710 22 23
4 141 142 711 702
4 702 711 712 703
4 703 712 713 704
4 704 713 714 705
4 705 714 715 706
4 706 715 716 707
4 707 716 717 708
4 708 717 718 709
4 709 718 719 710
4 710 719 21 22
4 142 143 720 711
4 711 720 721 712
4 712 721 722 713
4 713 722 723 714
4 714 723 724 715
4 715 724 725 716
4 716 725 726 717
4 717 726 727 718
4 718 727 728 719
4 719 728 20 21
4 143 144 729 720
4 720 729 730 721
4 721 730 731 722
4 722 731 732 723
4 723 732 733 724
4 724 733 734 725
4 725 734 735 726
4 726 735 736 727
4 727 736 737 728
4 728 737 19 20
4 144 145 738 729
4 729 738 739 730
4 730 739 740 731
4 731 740 741 732
4 732 741 742 733
4 733 742 743 734
4 734 743 744 735
4 735 744 745 736
4 736 745 746 737
4 737 746 18 19
4 145 146 747 738
4 738 747 748 739
4 739 748 749 740
4 740 749 750 741
4 741 750 751 742
4 742 751 752 743
4 743 752 753 744
4 744 753 754 745
4 745 754 755 746
4 746 755 17 18
4 146 147 756 747
4 747 756 757 748
4 748 757 758 749
4 749 758 759 750
4 750 759 760 751
4 751 760 761 752
4 752 761 762 753
4 753 762 763 754
4 754 763 764 755
4 755 764 16 17
4 147 148 765 756
4 756 765 766 757
4 757 766 767 758
4 758 767 768 759
4 759 768 769 760
4 760 769 770 761
4 761 770 771 762
4 762 771 772 763
4 763 772 773 764
4 764 773 15 16
4 148 149 774 765
4 765 774 775 766
4 766 775 776 767
4 767 776 777 768
4 768 777 778 769
4 769 778 779 770
4 770 779 780 771
4 771 780 781 772
4 772 781 782 773
4 773 782 14 15
4 149 150 783 774
4 774 783 784 775
4 775 784 785 776
4 776 785 786 777
4 777 786 787 778
4 778 787 788 779
4 779 788 789 780
4 780 789 790 781
4 781 790 791 782
4 782 791 13 14
4 150 151 792 783
4 783 792 793 784
4 784 793 794 785
4 785 794 795 786
4 786 795 796 787
4 787 796 797 788
4 788 797 798 789
4 789 798 799 790
4 790 799 800 791
4 791 800 12 13
4 151 152 801 792
4 792 801 802 793
4 793 802 803 794
4 794 803 804 795
4 795 804 805 796
4 796 805 806 797
4 797 806 807 798
4 798 807 808 799
4 799 808 809 800
4 800 809 11 12
4 152 153 810 801
4 801 810 811 802
4 802 811 812 803
4 803 812 813 804
4 804 813 814 805
4 805 814 815 806
4 806 815 816 807
4 807 816 817 808
4 808 817 818 809
4 809 818 10 11
4 153 154 819 810
4 810 819 820 811
4 811 820 821 812
4 812 821 822 813
4 813 822 823 814
4 814 823 824 815
4 815 824 825 816
4 816 825 826 817
4 817 826 827 818
4 818 827 9 10
4 154 155 828 819
4 819 828 829 820
4 820 829 830 821
4 821 830 831 822
4 822 831 832 823
4 823 832 833 824
4 824 833 834 825
4 825 834 835 826
4 826 835 836 827
4 827 836 8 9
4 155 156 837 828
4 828 837 838 829
4 829 838 839 830
4 830 839 840 831
4 831 840 841 832
4 832 841 842 833
4 833 842 843 834
4 834 843 844 835
4 835 844 845 836
4 836 845 7 8
4 156 157 846 837
4 837 846 847 838
4 838 847 848 839
4 839 848 849 840
4 840 849 850 841
4 841 850 851 842
4 842 851 852 843
4 843 852 853 844
4 844 853 854 845
4 845 854 6 7
4 157 158 855 846
4 846 855 856 847
4 847 856 857 848
4 848 857 858 849
4 849 858 859 850
4 850 859 860 851
4 851 860 861 852
4 852 861 862 853
4 853 862 863 854
4 854 863 5 6
4 158 159 864 855
4 855 864 865 856
4 856 865 866 857
4 857 866 867 858
4 858 867 868 859
4 859 868 869 860
4 860 869 870 861
4 861 870 871 862
4 862 871 872 863
4 863 872 4 5
4 159 160 873 864
4 864 873 874 865
4 865 874 875 866
4 866 875 876 867
4 867 876 877 868
4 868 877 878 869
4 869 878 879 870
4 870 879 880 871
4 871 880 881 872
4 872 881 3 4
4 160 161 882 873
4 873 882 883 874
4 874 883 884 875
4 875 884 885 876
4 876 885 886 877
4 877 886 887 878
4 878 887 888 879
4 879 888 889 880
4 880 889 890 881
4 881 890 2 3
4 161 81 162 882
4 882 162 163 883
4 883 163 164 884
4 884 164 165 885
4 885 165 166 886
4 886 166 167 887
4 887 167 168 888
4 888 168 169 889
4 889 169 170 890
4 890 170 1 2
CELL_TYPES 800
9
9
9
9
9
9
9
9
9
9
9
9
9
9
9
9
9
9
9
9
9
9
9
9
9
9
9
9
9
9
9
9
9
9
9
9
9
9
9
9
9
9
9
9
9
9
9
9
9
9
9
9
9
9
9
9
9
9
9
9
9
9
9
9
9
9
9
9
9
9
9
9
9
9
9
9
9
9
9
9
9
9
9
9
9
9
9
9
9
9
9
9
9
9
9
9
9
9
9
9
9
9
9
9
9
9
9
9
9
9
9
9
9
9
9
9
9
9
9
9
9
9
9
9
9
9
9
9
9
9
9
9
9
9
9
9
9
9
9
9
9
9
9
9
9
9
9
9
9
9
9
9
9
9
9
9
9
9
9
9
9
9
9
9
9
9
9
9
9
9
9
9
9
9
9
9
9
9
9
9
9
9
9
9
9
9
9
9
9
9
9
9
9
9
9
9
9
9
9
9
9
9
9
9
9
9
9
9
9
9
9
9
9
9
9
9
9
9
9
9
9
9
9
9
9
9
9
9
9
9
9
9
9
9
9
9
9
9
9
9
9
9
9
9
9
9
9
9
9
9
9
9
9
9
9
9
9
9
9
9
9
9
9
9
9
9
9
9
9
9
9
9
9
9
9
9
9
9
9
9
9
9
9
9
9
9
9
9
9
9
9
9
9
9
9
9
9
9
9
9
9
9
9
9
9
9
9
9
9
9
9
9
9
9
9
9
9
9
9
9
9
9
9
9
9
9
9
9
9
9
9
9
9
9
9
9
9
9
9
9
9
9
9
9
9
9
9
9
9
9
9
9
9
9
9
9
9
9
9
9
9
9
9
9
9
9
9
9
9
9
9
9
9
9
9
9
9
9
9
9
9
9
9
9
9
9
9
9
9
9
9
9
9
9
9
9
9
9
9
9
9
9
9
9
9
9
9
9
9
9
9
9
9
9
9
9
9
9
9
9
9
9
9
9
9
9
9
9
9
9
9
9
9
9
9
9
9
9
9
9
9
9
9
9
9
9
9
9
9
9
9
9
9
9
9
9
9
9
9
9
9
9
9
9
9
9
9
9
9
9
9
9
9
9
9
9
9
9
9
9
9
9
9
9
9
9
9
9
9
9
9
9
9
9
9
9
9
9
9
9
9
9
9
9
9
9
9
9
9
9
9
9
9
9
9
9
9
9
9
9
9
9
9
9
9
9
9
9
9
9
9
9
9
9
9
9
9
9
9
9
9
9
9
9
9
9
9
9
9
9
9
9
9
9
9
9
9
9
9
9
9
9
9
9
9
9
9
9
9
9
9
9
9
9
9
9
9
9
9
9
9
9
9
9
9
9
9
9
9
9
9
9
9
9
9
9
9
9
9
9
9
9
9
9
9
9
9
9
9
9
9
9
9
9
9
9
9
9
9
9
9
9
9
9
9
9
9
9
9
9
9
9
9
9
9
9
9
9
9
9
9
9
9
9
9
9
9
9
9
9
9
9
9
9
9
9
9
9
9
9
9
9
9
9
9
9
9
9
9
9
9
9
9
9
9
9
9
9
9
9
9
9
9
9
9
9
9
9
9
9
9
9
9
9
9
9
9
9
9
9
9
9
9
9
9
9
9
9
9
9
9
9
9
9
9
9
9
9
9
9
9
9
9
9
9
9
9
9
9
9
9
9
9
9
9
9
9
9
9
9
9
9
9
9
9
9
9
9
9
9
9
9
9
9
9
9
9
9
9
9
9
9
9
9
9
9
9
9
9
9
9
9
9
9
9
9
9
9
9
9
9
9
9
9
9
9
9
9
9
9
9
9
9
9
9
9
9
9
9
9
POINT_DATA 891
SCALARS u1 float
LOOKUP_TABLE default
-1e-17
-4e-07
-4e-07
-4e-07
-4e-07
-4e-07
-4e-07
-4e-07
-4e-07
-4e-07
-4e-07
-4e-07
-4e-07
-4e-07
-4e-07
-4e-07
-4e-07
-4e-07
-4e-07
-4e-07
-4e-07
-4e-07
-4e-07
-4e-07
-4e-07
-4e-07
-4e-07
-4e-07
-4e-07
-4e-07
-4e-07
-4e-07
-4e-07
-4e-07
-4e-07
-4e-07
-4e-07
-4e-07
-4e-07
-4e-07
-4e-07
-4e-07
-4e-07
-4e-07
-4e-07
-4e-07
-4e-07
-4e-07
-4e-07
-4e-07
-4e-07
-4e-07
-4e-07
-4e-07
-4e-07
-4e-07
-4e-07
-4e-07
-4e-07
-4e-07
-4e-07
-4e-07
-4e-07
-4e-07
-4e-07
-4e-07
-4e-07
-4e-07
-4e-07
-4e-07
-4e-07
-4e-07
-4e-07
-4e-07
-4e-07
-4e-07
-4e-07
-4e-07
-4e-07
-4e-07
-3e-07
4e-07
1e-17
3e-07
4e-07
4e-07
4e-07
4e-07
4e-07
4e-07
4e-07
4e-07
4e-07
4e-07
4e-07
4e-07
4e-07
4e-07
4e-07
4e-07
4e-07
4e-07
4e-07
4e-07
4e-07
4e-07
4e-07
4e-07
4e-07
4e-07
4e-07
4e-07
4e-07
4e-07
4e-07
4e-07
4e-07
4e-07
4e-07
4e-07
4e-07
4e-07
4e-07
4e-07
4e-07
4e-07
4e-07
4e-07
4e-07
4e-07
4e-07
4e-07
4e-07
4e-07
4e-07
4e-07
4e-07
4e-07
4e-07
4e-07
4e-07
4e-07
4e-07
4e-07
4e-07
4e-07
4e-07
4e-07
4e-07
4e-07
4e-07
4e-07
4e-07
4e-07
4e-07
4e-07
4e-07
4e-07
4e-07
4e-07
4e-07
4e-07
3e-07
2e-07
1e-07
7e-08
2e-14
-7e-08
-1e-07
-2e-07
-3e-07
6e-17
4e-17
-3e-17
-4e-17
-3e-17
-4e-18
-2e-18
4e-17
-1e-17
2e-07
1e-07
9e-08
4e-08
2e-14
-4e-08
-9e-08
-1e-07
-2e-07
3e-07
2e-07
1e-07
7e-08
4e-14
-7e-08
-1e-07
-2e-07
-3e-07
3e-07
2e-07
1e-07
7e-08
4e-14
-7e-08
-1e-07
-2e-07
-3e-07
3e-07
2e-07
1e-07
7e-08
4e-14
-7e-08
-1e-07
-2e-07
-3e-07
3e-07
2e-07
1e-07
7e-08
4e-14
-7e-08
-1e-07
-2e-07
-3e-07
3e-07
2e-07
1e-07
7e-08
4e-14
-7e-08
-1e-07
-2e-07
-3e-07
3e-07
2e-07
1e-07
7e-08
3e-14
-7e-08
-1e-07
-2e-07
-3e-07
3e-07
2e-07
1e-07
7e-08
3e-14
-7e-08
-1e-07
-2e-07
-3e-07
3e-07
2e-07
1e-07
7e-08
3e-14
-7e-08
-1e-07
-2e-07
-3e-07
3e-07
2e-07
1e-07
7e-08
3e-14
-7e-08
-1e-07
-2e-07
-3e-07
3e-07
2e-07
1e-07
7e-08
3e-14
-7e-08
-1e-07
-2e-07
-3e-07
3e-07
2e-07
1e-07
7e-08
3e-14
-7e-08
-1e-07
-2e-07
-3e-07
3e-07
2e-07
1e-07
7e-08
2e-14
-7e-08
-1e-07
-2e-07
-3e-07
3e-07
2e-07
1e-07
7e-08
2e-14
-7e-08
-1e-07
-2e-07
-3e-07
3e-07
2e-07
1e-07
7e-08
2e-14
-7e-08
-1e-07
-2e-07
-3e-07
3e-07
2e-07
1e-07
7e-08
2e-14
-7e-08
-1e-07
-2e-07
-3e-07
3e-07
2e-07
1e-07
7e-08
2e-14
-7e-08
-1e-07
-2e-07
-3e-07
3e-07
2e-07
1e-07
7e-08
2e-14
-7e-08
-1e-07
-2e-07
-3e-07
3e-07
2e-07
1e-07
7e-08
2e-14
-7e-08
-1e-07
-2e-07
-3e-07
3e-07
2e-07
1e-07
7e-08
2e-14
-7e-08
-1e-07
-2e-07
-3e-07
3e-07
2e-07
1e-07
7e-08
2e-14
-7e-08
-1e-07
-2e-07
-3e-07
3e-07
2e-07
1e-07
7e-08
2e-14
-7e-08
-1e-07
-2e-07
-3e-07
3e-07
2e-07
1e-07
7e-08
2e-14
-7e-08
-1e-07
-2e-07
-3e-07
3e-07
2e-07
1e-07
7e-08
2e-14
-7e-08
-1e-07
-2e-07
-3e-07
3e-07
2e-07
1e-07
7e-08
2e-14
-7e-08
-1e-07
-2e-07
-3e-07
3e-07
2e-07
1e-07
7e-08
2e-14
-7e-08
-1e-07
-2e-07
-3e-07
3e-07
2e-07
1e-07
7e-08
2e-14
-7e-08
-1e-07
-2e-07
-3e-07
3e-07
2e-07
1e-07
7e-08
2e-14
-7e-08
-1e-07
-2e-07
-3e-07
3e-07
2e-07
1e-07
7e-08
2e-14
-7e-08
-1e-07
-2e-07
-3e-07
3e-07
2e-07
1e-07
7e-08
2e-14
-7e-08
-1e-07
-2e-07
-3e-07
3e-07
2e-07
1e-07
7e-08
2e-14
-7e-08
-1e-07
-2e-07
-3e-07
3e-07
2e-07
1e-07
7e-08
2e-14
-7e-08
-1e-07
-2e-07
-3e-07
3e-07
2e-07
1e-07
7e-08
2e-14
-7e-08
-1e-07
-2e-07
-3e-07
3e-07
2e-07
1e-07
7e-08
2e-14
-7e-08
-1e-07
-2e-07
-3e-07
3e-07
2e-07
1e-07
7e-08
2e-14
-7e-08
-1e-07
-2e-07
-3e-07
3e-07
2e-07
1e-07
7e-08
2e-14
-7e-08
-1e-07
-2e-07
-3e-07
3e-07
2e-07
1e-07
7e-08
2e-14
-7e-08
-1e-07
-2e-07
-3e-07
3e-07
2e-07
1e-07
7e-08
2e-14
-7e-08
-1e-07
-2e-07
-3e-07
3e-07
2e-07
1e-07
7e-08
2e-14
-7e-08
-1e-07
-2e-07
-3e-07
3e-07
2e-07
1e-07
7e-08
2e-14
-7e-08
-1e-07
-2e-07
-3e-07
3e-07
2e-07
1e-07
7e-08
2e-14
-7e-08
-1e-07
-2e-07
-3e-07
3e-07
2e-07
1e-07
7e-08
2e-14
-7e-08
-1e-07
-2e-07
-3e-07
3e-07
2e-07
1e-07
7e-08
2e-14
-7e-08
-1e-07
-2e-07
-3e-07
3e-07
2e-07
1e-07
7e-08
2e-14
-7e-08
-1e-07
-2e-07
-3e-07
3e-07
2e-07
1e-07
7e-08
2e-14
-7e-08
-1e-07
-2e-07
-3e-07
3e-07
2e-07
1e-07
7e-08
2e-14
-7e-08
-1e-07
-2e-07
-3e-07
3e-07
2e-07
1e-07
7e-08
2e-14
-7e-08
-1e-07
-2e-07
-3e-07
3e-07
2e-07
1e-07
7e-08
2e-14
-7e-08
-1e-07
-2e-07
-3e-07
3e-07
2e-07
1e-07
7e-08
2e-14
-7e-08
-1e-07
-2e-07
-3e-07
3e-07
2e-07
1e-07
7e-08
2e-14
-7e-08
-1e-07
-2e-07
-3e-07
3e-07
2e-07
1e-07
7e-08
2e-14
-7e-08
-1e-07
-2e-07
-3e-07
3e-07
2e-07
1e-07
7e-08
2e-14
-7e-08
-1e-07
-2e-07
-3e-07
3e-07
2e-07
1e-07
7e-08
2e-14
-7e-08
-1e-07
-2e-07
-3e-07
3e-07
2e-07
1e-07
7e-08
2e-14
-7e-08
-1e-07
-2e-07
-3e-07
3e-07
2e-07
1e-07
7e-08
2e-14
-7e-08
-1e-07
-2e-07
-3e-07
3e-07
2e-07
1e-07
7e-08
2e-14
-7e-08
-1e-07
-2e-07
-3e-07
3e-07
2e-07
1e-07
7e-08
2e-14
-7e-08
-1e-07
-2e-07
-3e-07
3e-07
2e-07
1e-07
7e-08
2e-14
-7e-08
-1e-07
-2e-07
-3e-07
3e-07
2e-07
1e-07
7e-08
2e-14
-7e-08
-1e-07
-2e-07
-3e-07
3e-07
2e-07
1e-07
7e-08
2e-14
-7e-08
-1e-07
-2e-07
-3e-07
3e-07
2e-07
1e-07
7e-08
2e-14
-7e-08
-1e-07
-2e-07
-3e-07
3e-07
2e-07
1e-07
7e-08
2e-14
-7e-08
-1e-07
-2e-07
-3e-07
3e-07
2e-07
1e-07
7e-08
2e-14
-7e-08
-1e-07
-2e-07
-3e-07
3e-07
2e-07
1e-07
7e-08
2e-14
-7e-08
-1e-07
-2e-07
-3e-07
3e-07
2e-07
1e-07
7e-08
2e-14
-7e-08
-1e-07
-2e-07
-3e-07
3e-07
2e-07
1e-07
7e-08
2e-14
-7e-08
-1e-07
-2e-07
-3e-07
3e-07
2e-07
1e-07
7e-08
2e-14
-7e-08
-1e-07
-2e-07
-3e-07
3e-07
2e-07
1e-07
7e-08
2e-14
-7e-08
-1e-07
-2e-07
-3e-07
3e-07
2e-07
1e-07
7e-08
2e-14
-7e-08
-1e-07
-2e-07
-3e-07
3e-07
2e-07
1e-07
7e-08
2e-14
-7e-08
-1e-07
-2e-07
-3e-07
3e-07
2e-07
1e-07
7e-08
2e-14
-7e-08
-1e-07
-2e-07
-3e-07
3e-07
2e-07
1e-07
7e-08
2e-14
-7e-08
-1e-07
-2e-07
-3e-07
3e-07
2e-07
1e-07
7e-08
2e-14
-7e-08
-1e-07
-2e-07
-3e-07
3e-07
2e-07
1e-07
7e-08
2e-14
-7e-08
-1e-07
-2e-07
-3e-07
3e-07
2e-07
1e-07
7e-08
2e-14
-7e-08
-1e-07
-2e-07
-3e-07
3e-07
2e-07
1e-07
7e-08
2e-14
-7e-08
-1e-07
-2e-07
-3e-07
3e-07
2e-07
1e-07
7e-08
2e-14
-7e-08
-1e-07
-2e-07
-3e-07
3e-07
2e-07
1e-07
7e-08
2e-14
-7e-08
-1e-07
-2e-07
-3e-07
3e-07
2e-07
1e-07
7e-08
2e-14
-7e-08
-1e-07
-2e-07
-3e-07
SCALARS u2 float
LOOKUP_TABLE default
2e-17
-0.0001
-0.0001
-0.0001
-0.0001
-0.0001
-0.0001
-0.0001
-9e-05
-9e-05
-9e-05
-9e-05
-9e-05
-9e-05
-9e-05
-9e-05
-8e-05
-8e-05
-8e-05
-8e-05
-8e-05
-8e-05
-8e-05
-8e-05
-7e-05
-7e-05
-7e-05
-7e-05
-7e-05
-7e-05
-7e-05
-6e-05
-6e-05
-6e-05
-6e-05
-6e-05
-6e-05
-6e-05
-6e-05
-5e-05
-5e-05
-5e-05
-5e-05
-5e-05
-5e-05
-5e-05
-5e-05
-4e-05
-4e-05
-4e-05
-4e-05
-4e-05
-4e-05
-4e-05
-4e-05
-3e-05
-3e-05
-3e-05
-3e-05
-3e-05
-3e-05
-3e-05
-2e-05
-2e-05
-2e-05
-2e-05
-2e-05
-2e-05
-2e-05
-2e-05
-1e-05
-1e-05
-1e-05
-1e-05
-9e-06
-8e-06
-6e-06
-5e-06
-4e-06
-3e-06
-1e-06
-0.0001
7e-17
-1e-06
-3e-06
-4e-06
-5e-06
-6e-06
-8e-06
-9e-06
-1e-05
-1e-05
-1e-05
-1e-05
-2e-05
-2e-05
-2e-05
-2e-05
-2e-05
-2e-05
-2e-05
-2e-05
-3e-05
-3e-05
-3e-05
-3e-05
-3e-05
-3e-05
-3e-05
-4e-05
-4e-05
-4e-05
-4e-05
-4e-05
-4e-05
-4e-05
-4e-05
-5e-05
-5e-05
-5e-05
-5e-05
-5e-05
-5e-05
-5e-05
-5e-05
-6e-05
-6e-05
-6e-05
-6e-05
-6e-05
-6e-05
-6e-05
-6e-05
-7e-05
-7e-05
-7e-05
-7e-05
-7e-05
-7e-05
-7e-05
-8e-05
-8e-05
-8e-05
-8e-05
-8e-05
-8e-05
-8e-05
-8e-05
-9e-05
-9e-05
-9e-05
-9e-05
-9e-05
-9e-05
-9e-05
-9e-05
-0.0001
-0.0001
-0.0001
-0.0001
-0.0001
-0.0001
-0.0001
-0.0001
-0.0001
-0.0001
-0.0001
-0.0001
-0.0001
-0.0001
-0.0001
1e-16
-3e-17
-1e-18
7e-17
3e-17
4e-17
-1e-16
-2e-17
-3e-17
-1e-06
-1e-06
-1e-06
-1e-06
-1e-06
-1e-06
-1e-06
-1e-06
-1e-06
-3e-06
-3e-06
-3e-06
-3e-06
-3e-06
-3e-06
-3e-06
-3e-06
-3e-06
-4e-06
-4e-06
-4e-06
-4e-06
-4e-06
-4e-06
-4e-06
-4e-06
-4e-06
-5e-06
-5e-06
-5e-06
-5e-06
-5e-06
-5e-06
-5e-06
-5e-06
-5e-06
-6e-06
-6e-06
-6e-06
-6e-06
-6e-06
-6e-06
-6e-06
-6e-06
-6e-06
-8e-06
-8e-06
-8e-06
-8e-06
-8e-06
-8e-06
-8e-06
-8e-06
-8e-06
-9e-06
-9e-06
-9e-06
-9e-06
-9e-06
-9e-06
-9e-06
-9e-06
-9e-06
-1e-05
-1e-05
-1e-05
-1e-05
-1e-05
-1e-05
-1e-05
-1e-05
-1e-05
-1e-05
-1e-05
-1e-05
-1e-05
-1e-05
-1e-05
-1e-05
-1e-05
-1e-05
-1e-05
-1e-05
-1e-05
-1e-05
-1e-05
-1e-05
-1e-05
-1e-05
-1e-05
-1e-05
-1e-05
-1e-05
-1e-05
-1e-05
-1e-05
-1e-05
-1e-05
-1e-05
-2e-05
-2e-05
-2e-05
-2e-05
-2e-05
-2e-05
-2e-05
-2e-05
-2e-05
-2e-05
-2e-05
-2e-05
-2e-05
-2e-05
-2e-05
-2e-05
-2e-05
-2e-05
-2e-05
-2e-05
-2e-05
-2e-05
-2e-05
-2e-05
-2e-05
-2e-05
-2e-05
-2e-05
-2e-05
-2e-05
-2e-05
-2e-05
-2e-05
-2e-05
-2e-05
-2e-05
-2e-05
-2e-05
-2e-05
-2e-05
-2e-05
-2e-05
-2e-05
-2e-05
-2e-05
-2e-05
-2e-05
-2e-05
-2e-05
-2e-05
-2e-05
-2e-05
-2e-05
-2e-05
-2e-05
-2e-05
-2e-05
-2e-05
-2e-05
-2e-05
-2e-05
-2e-05
-2e-05
-2e-05
-2e-05
-2e-05
-2e-05
-2e-05
-2e-05
-2e-05
-2e-05
-2e-05
-3e-05
-3e-05
-3e-05
-3e-05
-3e-05
-3e-05
-3e-05
-3e-05
-3e-05
-3e-05
-3e-05
-3e-05
-3e-05
-3e-05
-3e-05
-3e-05
-3e-05
-3e-05
-3e-05
-3e-05
-3e-05
-3e-05
-3e-05
-3e-05
-3e-05
-3e-05
-3e-05
-3e-05
-3e-05
-3e-05
-3e-05
-3e-05
-3e-05
-3e-05
-3e-05
-3e-05
-3e-05
-3e-05
-3e-05
-3e-05
-3e-05
-3e-05
-3e-05
-3e-05
-3e-05
-3e-05
-3e-05
-3e-05
-3e-05
-3e-05
-3e-05
-3e-05
-3e-05
-3e-05
-3e-05
-3e-05
-3e-05
-3e-05
-3e-05
-3e-05
-3e-05
-3e-05
-3e-05
-4e-05
-4e-05
-4e-05
-4e-05
-4e-05
-4e-05
-4e-05
-4e-05
-4e-05
-4e-05
-4e-05
-4e-05
-4e-05
-4e-05
-4e-05
-4e-05
-4e-05
-4e-05
-4e-05
-4e-05
-4e-05
-4e-05
-4e-05
-4e-05
-4e-05
-4e-05
-4e-05
-4e-05
-4e-05
-4e-05
-4e-05
-4e-05
-4e-05
-4e-05
-4e-05
-4e-05
-4e-05
-4e-05
-4e-05
-4e-05
-4e-05
-4e-05
-4e-05
-4e-05
-4e-05
-4e-05
-4e-05
-4e-05
-4e-05
-4e-05
-4e-05
-4e-05
-4e-05
-4e-05
-4e-05
-4e-05
-4e-05
-4e-05
-4e-05
-4e-05
-4e-05
-4e-05
-4e-05
-4e-05
-4e-05
-4e-05
-4e-05
-4e-05
-4e-05
-4e-05
-4e-05
-4e-05
-5e-05
-5e-05
-5e-05
-5e-05
-5e-05
-5e-05
-5e-05
-5e-05
-5e-05
-5e-05
-5e-05
-5e-05
-5e-05
-5e-05
-5e-05
-5e-05
-5e-05
-5e-05
-5e-05
-5e-05
-5e-05
-5e-05
-5e-05
-5e-05
-5e-05
-5e-05
-5e-05
-5e-05
-5e-05
-5e-05
-5e-05
-5e-05
-5e-05
-5e-05
-5e-05
-5e-05
-5e-05
-5e-05
-5e-05
-5e-05
-5e-05
-5e-05
-5e-05
-5e-05
-5e-05
-5e-05
-5e-05
-5e-05
-5e-05
-5e-05
-5e-05
-5e-05
-5e-05
-5e-05
-5e-05
-5e-05
-5e-05
-5e-05
-5e-05
-5e-05
-5e-05
-5e-05
-5e-05
-5e-05
-5e-05
-5e-05
-5e-05
-5e-05
-5e-05
-5e-05
-5e-05
-5e-05
-6e-05
-6e-05
-6e-05
-6e-05
-6e-05
-6e-05
-6e-05
-6e-05
-6e-05
-6e-05
-6e-05
-6e-05
-6e-05
-6e-05
-6e-05
-6e-05
-6e-05
-6e-05
-6e-05
-6e-05
-6e-05
-6e-05
-6e-05
-6e-05
-6e-05
-6e-05
-6e-05
-6e-05
-6e-05
-6e-05
-6e-05
-6e-05
-6e-05
-6e-05
-6e-05
-6e-05
-6e-05
-6e-05
-6e-05
-6e-05
-6e-05
-6e-05
-6e-05
-6e-05
-6e-05
-6e-05
-6e-05
-6e-05
-6e-05
-6e-05
-6e-05
-6e-05
-6e-05
-6e-05
-6e-05
-6e-05
-6e-05
-6e-05
-6e-05
-6e-05
-6e-05
-6e-05
-6e-05
-6e-05
-6e-05
-6e-05
-6e-05
-6e-05
-6e-05
-6e-05
-6e-05
-6e-05
-7e-05
-7e-05
-7e-05
-7e-05
-7e-05
-7e-05
-7e-05
-7e-05
-7e-05
-7e-05
-7e-05
-7e-05
-7e-05
-7e-05
-7e-05
-7e-05
-7e-05
-7e-05
-7e-05
-7e-05
-7e-05
-7e-05
-7e-05
-7e-05
-7e-05
-7e-05
-7e-05
-7e-05
-7e-05
-7e-05
-7e-05
-7e-05
-7e-05
-7e-05
-7e-05
-7e-05
-7e-05
-7e-05
-7e-05
-7e-05
-7e-05
-7e-05
-7e-05
-7e-05
-7e-05
-7e-05
-7e-05
-7e-05
-7e-05
-7e-05
-7e-05
-7e-05
-7e-05
-7e-05
-7e-05
-7e-05
-7e-05
-7e-05
-7e-05
-7e-05
-7e-05
-7e-05
-7e-05
-8e-05
-8e-05
-8e-05
-8e-05
-8e-05
-8e-05
-8e-05
-8e-05
-8e-05
-8e-05
-8e-05
-8e-05
-8e-05
-8e-05
-8e-05
-8e-05
-8e-05
-8e-05
-8e-05
-8e-05
-8e-05
-8e-05
-8e-05
-8e-05
-8e-05
-8e-05
-8e-05
-8e-05
-8e-05
-8e-05
-8e-05
-8e-05
-8e-05
-8e-05
-8e-05
-8e-05
-8e-05
-8e-05
-8e-05
-8e-05
-8e-05
-8e-05
-8e-05
-8e-05
-8e-05
-8e-05
-8e-05
-8e-05
-8e-05
-8e-05
-8e-05
-8e-05
-8e-05
-8e-05
-8e-05
-8e-05
-8e-05
-8e-05
-8e-05
-8e-05
-8e-05
-8e-05
-8e-05
-8e-05
-8e-05
-8e-05
-8e-05
-8e-05
-8e-05
-8e-05
-8e-05
-8e-05
-9e-05
-9e-05
-9e-05
-9e-05
-9e-05
-9e-05
-9e-05
-9e-05
-9e-05
-9e-05
-9e-05
-9e-05
-9e-05
-9e-05
-9e-05
-9e-05
-9e-05
-9e-05
-9e-05
-9e-05
-9e-05
-9e-05
-9e-05
-9e-05
-9e-05
-9e-05
-9e-05
-9e-05
-9e-05
-9e-05
-9e-05
-9e-05
-9e-05
-9e-05
-9e-05
-9e-05
-9e-05
-9e-05
-9e-05
-9e-05
-9e-05
-9e-05
-9e-05
-9e-05
-9e-05
-9e-05
-9e-05
-9e-05
-9e-05
-9e-05
-9e-05
-9e-05
-9e-05
-9e-05
-9e-05
-9e-05
-9e-05
-9e-05
-9e-05
-9e-05
-9e-05
-9e-05
-9e-05
-9e-05
-9e-05
-9e-05
-9e-05
-9e-05
-9e-05
-9e-05
-9e-05
-9e-05
-0.0001
-0.0001
-0.0001
-0.0001
-0.0001
-0.0001
-0.0001
-0.0001
-0.0001
-0.0001
-0.0001
-0.0001
-0.0001
-0.0001
-0.0001
-0.0001
-0.0001
-0.0001
-0.0001
-0.0001
-0.0001
-0.0001
-0.0001
-0.0001
-0.0001
-0.0001
-0.0001
-0.0001
-0.0001
-0.0001
-0.0001
-0.0001
-0.0001
-0.0001
-0.0001
-0.0001
-0.0001
-0.0001
-0.0001
-0.0001
-0.0001
-0.0001
-0.0001
-0.0001
-0.0001
-0.0001
-0.0001
-0.0001
-0.0001
-0.0001
-0.0001
-0.0001
-0.0001
-0.0001
SCALARS strain_1 float
LOOKUP_TABLE default
-0.000026
-0.042151
-0.041514
-0.040873
-0.040230
-0.039583
-0.038934
-0.038282
-0.037627
-0.036971
-0.036312
-0.035651
-0.034989
-0.034325
-0.033659
-0.032993
-0.032325
-0.031657
-0.030989
-0.030320
-0.029651
-0.028982
-0.028314
-0.027646
-0.026979
-0.026314
-0.025650
-0.024988
-0.024328
-0.023671
-0.023016
-0.022364
-0.021715
-0.021070
-0.020429
-0.019792
-0.019159
-0.018531
-0.017908
-0.017291
-0.016680
-0.016074
-0.015475
-0.014883
-0.014298
-0.013720
-0.013150
-0.012588
-0.012035
-0.011490
-0.010954
-0.010427
-0.009909
-0.009402
-0.008905
-0.008418
-0.007942
-0.007476
-0.007022
-0.006579
-0.006148
-0.005729
-0.005322
-0.004926
-0.004544
-0.004174
-0.003816
-0.003472
-0.003140
-0.002821
-0.002516
-0.002224
-0.001945
-0.001679
-0.001426
-0.001187
-0.000961
-0.000748
-0.000548
-0.000361
-0.000188
-0.042189
-0.000001
-0.000163
-0.000337
-0.000524
-0.000725
-0.000938
-0.001165
-0.001405
-0.001658
-0.001924
-0.002204
-0.002497
-0.002803
-0.003123
-0.003455
-0.003800
-0.004159
-0.004529
-0.004913
-0.005309
-0.005717
-0.006137
-0.006569
-0.007013
-0.007468
-0.007934
-0.008412
-0.008900
-0.009398
-0.009906
-0.010424
-0.010952
-0.011489
-0.012035
-0.012590
-0.013153
-0.013724
-0.014303
-0.014889
-0.015482
-0.016082
-0.016688
-0.017301
-0.017919
-0.018542
-0.019171
-0.019805
-0.020443
-0.021085
-0.021731
-0.022381
-0.023034
-0.023690
-0.024348
-0.025009
-0.025672
-0.026336
-0.027002
-0.027670
-0.028338
-0.029007
-0.029677
-0.030346
-0.031016
-0.031686
-0.032354
-0.033023
-0.033690
-0.034356
-0.035020
-0.035683
-0.036345
-0.037004
-0.037661
-0.038316
-0.038969
-0.039619
-0.040266
-0.040910
-0.041551
-0.042185
-0.042182
-0.042178
-0.042175
-0.042171
-0.042167
-0.042163
-0.042159
-0.042155
-0.000021
-0.000017
-0.000013
-0.000010
-0.000007
-0.000005
-0.000003
-0.000002
-0.000001
-0.000163
-0.000163
-0.000164
-0.000166
-0.000168
-0.000171
-0.000174
-0.000178
-0.000183
-0.000337
-0.000337
-0.000339
-0.000340
-0.000342
-0.000345
-0.000348
-0.000352
-0.000357
-0.000524
-0.000525
-0.000526
-0.000527
-0.000529
-0.000532
-0.000535
-0.000539
-0.000543
-0.000724
-0.000725
-0.000726
-0.000727
-0.000729
-0.000732
-0.000735
-0.000739
-0.000743
-0.000938
-0.000938
-0.000939
-0.000941
-0.000943
-0.000945
-0.000948
-0.000952
-0.000956
-0.001165
-0.001165
-0.001166
-0.001167
-0.001169
-0.001171
-0.001174
-0.001178
-0.001182
-0.001404
-0.001404
-0.001405
-0.001407
-0.001408
-0.001411
-0.001414
-0.001418
-0.001422
-0.001657
-0.001658
-0.001658
-0.001659
-0.001661
-0.001664
-0.001667
-0.001670
-0.001674
-0.001924
-0.001924
-0.001925
-0.001926
-0.001927
-0.001930
-0.001933
-0.001936
-0.001940
-0.002203
-0.002203
-0.002204
-0.002205
-0.002207
-0.002209
-0.002212
-0.002215
-0.002219
-0.002496
-0.002496
-0.002497
-0.002498
-0.002499
-0.002502
-0.002504
-0.002508
-0.002512
-0.002803
-0.002802
-0.002803
-0.002804
-0.002805
-0.002807
-0.002810
-0.002813
-0.002817
-0.003122
-0.003122
-0.003122
-0.003123
-0.003124
-0.003126
-0.003129
-0.003132
-0.003136
-0.003454
-0.003454
-0.003454
-0.003455
-0.003456
-0.003458
-0.003461
-0.003464
-0.003467
-0.003799
-0.003799
-0.003799
-0.003800
-0.003801
-0.003803
-0.003806
-0.003809
-0.003812
-0.004158
-0.004157
-0.004157
-0.004158
-0.004159
-0.004161
-0.004163
-0.004166
-0.004170
-0.004528
-0.004528
-0.004528
-0.004529
-0.004530
-0.004531
-0.004534
-0.004537
-0.004540
-0.004912
-0.004911
-0.004911
-0.004912
-0.004913
-0.004914
-0.004917
-0.004919
-0.004923
-0.005308
-0.005307
-0.005307
-0.005307
-0.005308
-0.005310
-0.005312
-0.005315
-0.005318
-0.005716
-0.005715
-0.005715
-0.005715
-0.005716
-0.005718
-0.005720
-0.005722
-0.005725
-0.006136
-0.006135
-0.006135
-0.006135
-0.006136
-0.006138
-0.006139
-0.006142
-0.006145
-0.006568
-0.006567
-0.006567
-0.006567
-0.006568
-0.006569
-0.006571
-0.006573
-0.006576
-0.007012
-0.007011
-0.007010
-0.007011
-0.007011
-0.007012
-0.007014
-0.007016
-0.007019
-0.007467
-0.007466
-0.007465
-0.007465
-0.007466
-0.007467
-0.007468
-0.007470
-0.007473
-0.007933
-0.007932
-0.007931
-0.007931
-0.007932
-0.007933
-0.007934
-0.007936
-0.007939
-0.008410
-0.008409
-0.008408
-0.008408
-0.008409
-0.008410
-0.008411
-0.008413
-0.008415
-0.008898
-0.008897
-0.008896
-0.008896
-0.008896
-0.008897
-0.008898
-0.008900
-0.008902
-0.009396
-0.009395
-0.009394
-0.009394
-0.009394
-0.009395
-0.009396
-0.009397
-0.009399
-0.009904
-0.009903
-0.009902
-0.009902
-0.009902
-0.009903
-0.009904
-0.009905
-0.009907
-0.010423
-0.010421
-0.010420
-0.010420
-0.010420
-0.010420
-0.010421
-0.010423
-0.010424
-0.010950
-0.010949
-0.010948
-0.010947
-0.010947
-0.010948
-0.010948
-0.010950
-0.010951
-0.011487
-0.011486
-0.011485
-0.011484
-0.011484
-0.011484
-0.011485
-0.011486
-0.011488
-0.012033
-0.012032
-0.012031
-0.012030
-0.012030
-0.012030
-0.012030
-0.012031
-0.012033
-0.012588
-0.012586
-0.012585
-0.012584
-0.012584
-0.012584
-0.012584
-0.012585
-0.012587
-0.013151
-0.013149
-0.013148
-0.013147
-0.013146
-0.013146
-0.013147
-0.013147
-0.013149
-0.013722
-0.013720
-0.013719
-0.013718
-0.013717
-0.013717
-0.013717
-0.013718
-0.013719
-0.014300
-0.014299
-0.014297
-0.014296
-0.014295
-0.014295
-0.014295
-0.014296
-0.014297
-0.014887
-0.014885
-0.014883
-0.014882
-0.014881
-0.014881
-0.014881
-0.014881
-0.014882
-0.015480
-0.015478
-0.015476
-0.015475
-0.015474
-0.015473
-0.015473
-0.015474
-0.015474
-0.016079
-0.016078
-0.016076
-0.016074
-0.016074
-0.016073
-0.016073
-0.016073
-0.016073
-0.016686
-0.016684
-0.016682
-0.016681
-0.016680
-0.016679
-0.016678
-0.016679
-0.016679
-0.017298
-0.017296
-0.017294
-0.017293
-0.017291
-0.017291
-0.017290
-0.017290
-0.017291
-0.017916
-0.017914
-0.017912
-0.017911
-0.017909
-0.017909
-0.017908
-0.017908
-0.017908
-0.018540
-0.018538
-0.018536
-0.018534
-0.018533
-0.018532
-0.018531
-0.018531
-0.018531
-0.019169
-0.019166
-0.019164
-0.019163
-0.019161
-0.019160
-0.019159
-0.019159
-0.019159
-0.019802
-0.019800
-0.019798
-0.019796
-0.019794
-0.019793
-0.019792
-0.019792
-0.019792
-0.020440
-0.020438
-0.020436
-0.020434
-0.020432
-0.020431
-0.020430
-0.020429
-0.020429
-0.021082
-0.021080
-0.021078
-0.021076
-0.021074
-0.021073
-0.021072
-0.021071
-0.021070
-0.021728
-0.021726
-0.021724
-0.021722
-0.021720
-0.021718
-0.021717
-0.021716
-0.021715
-0.022378
-0.022375
-0.022373
-0.022371
-0.022369
-0.022368
-0.022366
-0.022365
-0.022364
-0.023031
-0.023028
-0.023026
-0.023024
-0.023022
-0.023020
-0.023019
-0.023017
-0.023017
-0.023687
-0.023684
-0.023681
-0.023679
-0.023677
-0.023676
-0.023674
-0.023673
-0.023672
-0.024345
-0.024342
-0.024340
-0.024337
-0.024335
-0.024334
-0.024332
-0.024331
-0.024329
-0.025006
-0.025003
-0.025000
-0.024998
-0.024996
-0.024994
-0.024992
-0.024991
-0.024989
-0.025669
-0.025666
-0.025663
-0.025661
-0.025658
-0.025657
-0.025655
-0.025653
-0.025652
-0.026333
-0.026330
-0.026328
-0.026325
-0.026323
-0.026321
-0.026319
-0.026317
-0.026316
-0.026999
-0.026996
-0.026994
-0.026991
-0.026989
-0.026987
-0.026985
-0.026983
-0.026981
-0.027667
-0.027664
-0.027661
-0.027659
-0.027656
-0.027654
-0.027652
-0.027650
-0.027648
-0.028335
-0.028332
-0.028329
-0.028327
-0.028324
-0.028322
-0.028319
-0.028317
-0.028315
-0.029004
-0.029001
-0.028998
-0.028996
-0.028993
-0.028991
-0.028988
-0.028986
-0.028984
-0.029674
-0.029671
-0.029667
-0.029665
-0.029662
-0.029660
-0.029657
-0.029655
-0.029653
-0.030343
-0.030340
-0.030337
-0.030334
-0.030332
-0.030329
-0.030327
-0.030324
-0.030322
-0.031013
-0.031010
-0.031007
-0.031004
-0.031001
-0.030998
-0.030996
-0.030993
-0.030991
-0.031682
-0.031679
-0.031676
-0.031673
-0.031670
-0.031667
-0.031665
-0.031662
-0.031660
-0.032351
-0.032348
-0.032345
-0.032342
-0.032339
-0.032336
-0.032333
-0.032331
-0.032328
-0.033019
-0.033016
-0.033013
-0.033010
-0.033007
-0.033004
-0.033001
-0.032998
-0.032996
-0.033686
-0.033683
-0.033680
-0.033677
-0.033674
-0.033671
-0.033668
-0.033665
-0.033662
-0.034352
-0.034349
-0.034346
-0.034343
-0.034340
-0.034336
-0.034334
-0.034331
-0.034328
-0.035017
-0.035014
-0.035010
-0.035007
-0.035004
-0.035001
-0.034998
-0.034995
-0.034992
-0.035680
-0.035677
-0.035673
-0.035670
-0.035667
-0.035664
-0.035661
-0.035657
-0.035654
-0.036341
-0.036338
-0.036335
-0.036331
-0.036328
-0.036325
-0.036321
-0.036318
-0.036315
-0.037001
-0.036997
-0.036994
-0.036991
-0.036987
-0.036984
-0.036981
-0.036977
-0.036974
-0.037658
-0.037654
-0.037651
-0.037648
-0.037644
-0.037641
-0.037637
-0.037634
-0.037631
-0.038313
-0.038309
-0.038306
-0.038303
-0.038299
-0.038296
-0.038292
-0.038289
-0.038285
-0.038965
-0.038962
-0.038958
-0.038955
-0.038951
-0.038948
-0.038944
-0.038941
-0.038937
-0.039615
-0.039612
-0.039608
-0.039605
-0.039601
-0.039598
-0.039594
-0.039590
-0.039587
-0.040262
-0.040259
-0.040255
-0.040252
-0.040248
-0.040244
-0.040241
-0.040237
-0.040233
-0.040906
-0.040903
-0.040899
-0.040896
-0.040892
-0.040888
-0.040885
-0.040881
-0.040877
-0.041548
-0.041544
-0.041540
-0.041537
-0.041533
-0.041529
-0.041526
-0.041522
-0.041518
SCALARS strain_2 float
LOOKUP_TABLE default
0.000586
0.000375
0.000374
0.000374
0.000374
0.000374
0.000373
0.000374
0.000374
0.000374
0.000376
0.000375
0.000375
0.000375
0.000376
0.000376
0.000377
0.000377
0.000377
0.000379
0.000379
0.000379
0.000381
0.000381
0.000382
0.000384
0.000384
0.000386
0.000387
0.000387
0.000389
0.000390
0.000392
0.000394
0.000396
0.000397
0.000399
0.000401
0.000404
0.000405
0.000408
0.000410
0.000412
0.000415
0.000417
0.000420
0.000423
0.000426
0.000428
0.000432
0.000435
0.000439
0.000442
0.000445
0.000449
0.000452
0.000456
0.000460
0.000464
0.000468
0.000472
0.000477
0.000481
0.000486
0.000490
0.000495
0.000500
0.000506
0.000511
0.000516
0.000521
0.000527
0.000532
0.000538
0.000544
0.000550
0.000554
0.000561
0.000567
0.000573
0.000579
0.001079
0.001093
0.001093
0.001094
0.001095
0.001095
0.001096
0.001097
0.001097
0.001099
0.001098
0.001100
0.001100
0.001101
0.001102
0.001101
0.001101
0.001103
0.001102
0.001103
0.001104
0.001104
0.001105
0.001105
0.001105
0.001106
0.001106
0.001106
0.001107
0.001106
0.001107
0.001108
0.001108
0.001108
0.001108
0.001107
0.001107
0.001108
0.001107
0.001108
0.001108
0.001108
0.001108
0.001107
0.001107
0.001106
0.001107
0.001107
0.001107
0.001106
0.001106
0.001105
0.001105
0.001104
0.001104
0.001104
0.001102
0.001102
0.001102
0.001102
0.001100
0.001100
0.001100
0.001099
0.001098
0.001097
0.001096
0.001094
0.001094
0.001093
0.001092
0.001092
0.001090
0.001089
0.001088
0.001086
0.001086
0.001085
0.001083
0.001082
0.001081
0.001009
0.000939
0.000868
0.000797
0.000727
0.000656
0.000585
0.000514
0.000444
0.000637
0.000688
0.000739
0.000789
0.000839
0.000890
0.000941
0.000992
0.001042
0.001041
0.000991
0.000939
0.000888
0.000836
0.000786
0.000734
0.000682
0.000631
0.001042
0.000991
0.000938
0.000885
0.000834
0.000783
0.000729
0.000678
0.000625
0.001042
0.000990
0.000937
0.000884
0.000831
0.000778
0.000725
0.000673
0.000620
0.001042
0.000989
0.000936
0.000882
0.000829
0.000776
0.000722
0.000668
0.000615
0.001043
0.000988
0.000934
0.000880
0.000826
0.000772
0.000717
0.000663
0.000609
0.001042
0.000987
0.000933
0.000877
0.000824
0.000769
0.000714
0.000659
0.000604
0.001042
0.000987
0.000932
0.000877
0.000821
0.000765
0.000710
0.000654
0.000599
0.001042
0.000986
0.000931
0.000874
0.000818
0.000762
0.000707
0.000650
0.000594
0.001043
0.000985
0.000929
0.000872
0.000815
0.000759
0.000702
0.000645
0.000589
0.001042
0.000985
0.000927
0.000870
0.000813
0.000756
0.000698
0.000641
0.000584
0.001042
0.000985
0.000926
0.000868
0.000810
0.000752
0.000695
0.000637
0.000579
0.001042
0.000984
0.000925
0.000866
0.000808
0.000749
0.000691
0.000633
0.000575
0.001042
0.000983
0.000924
0.000864
0.000806
0.000747
0.000688
0.000629
0.000570
0.001042
0.000982
0.000923
0.000863
0.000804
0.000744
0.000684
0.000625
0.000565
0.001043
0.000982
0.000922
0.000862
0.000802
0.000742
0.000682
0.000621
0.000560
0.001042
0.000981
0.000921
0.000860
0.000799
0.000738
0.000678
0.000617
0.000557
0.001042
0.000981
0.000919
0.000859
0.000797
0.000735
0.000675
0.000613
0.000552
0.001041
0.000979
0.000918
0.000856
0.000795
0.000733
0.000671
0.000609
0.000548
0.001042
0.000980
0.000917
0.000855
0.000793
0.000730
0.000668
0.000606
0.000544
0.001042
0.000979
0.000916
0.000854
0.000791
0.000728
0.000664
0.000602
0.000539
0.001041
0.000978
0.000915
0.000852
0.000788
0.000725
0.000662
0.000600
0.000536
0.001041
0.000978
0.000914
0.000851
0.000787
0.000723
0.000660
0.000596
0.000532
0.001042
0.000978
0.000913
0.000849
0.000785
0.000721
0.000657
0.000592
0.000528
0.001041
0.000977
0.000912
0.000848
0.000783
0.000718
0.000654
0.000590
0.000524
0.001041
0.000976
0.000911
0.000847
0.000782
0.000716
0.000651
0.000586
0.000521
0.001042
0.000976
0.000910
0.000845
0.000779
0.000714
0.000649
0.000583
0.000518
0.001041
0.000975
0.000909
0.000843
0.000778
0.000712
0.000646
0.000580
0.000514
0.001040
0.000974
0.000909
0.000843
0.000776
0.000710
0.000644
0.000577
0.000511
0.001040
0.000974
0.000908
0.000841
0.000775
0.000708
0.000641
0.000575
0.000508
0.001040
0.000973
0.000907
0.000839
0.000773
0.000706
0.000639
0.000573
0.000504
0.001040
0.000973
0.000906
0.000838
0.000771
0.000704
0.000637
0.000570
0.000501
0.001040
0.000973
0.000905
0.000837
0.000769
0.000702
0.000634
0.000567
0.000498
0.001040
0.000972
0.000904
0.000836
0.000768
0.000700
0.000632
0.000564
0.000495
0.001040
0.000972
0.000904
0.000835
0.000767
0.000699
0.000630
0.000563
0.000494
0.001039
0.000971
0.000903
0.000833
0.000766
0.000697
0.000627
0.000560
0.000491
0.001039
0.000970
0.000902
0.000833
0.000764
0.000695
0.000626
0.000557
0.000489
0.001039
0.000969
0.000901
0.000831
0.000763
0.000693
0.000624
0.000555
0.000486
0.001038
0.000969
0.000899
0.000830
0.000760
0.000692
0.000622
0.000554
0.000484
0.001039
0.000969
0.000900
0.000829
0.000760
0.000691
0.000620
0.000551
0.000482
0.001039
0.000968
0.000899
0.000828
0.000759
0.000689
0.000619
0.000549
0.000480
0.001038
0.000967
0.000897
0.000828
0.000757
0.000688
0.000617
0.000547
0.000477
0.001038
0.000967
0.000897
0.000828
0.000756
0.000686
0.000616
0.000546
0.000475
0.001037
0.000966
0.000896
0.000825
0.000755
0.000685
0.000614
0.000545
0.000474
0.001036
0.000966
0.000895
0.000825
0.000754
0.000683
0.000614
0.000543
0.000472
0.001036
0.000965
0.000894
0.000824
0.000753
0.000682
0.000612
0.000541
0.000470
0.001036
0.000965
0.000894
0.000823
0.000752
0.000681
0.000610
0.000539
0.000468
0.001036
0.000964
0.000893
0.000822
0.000751
0.000680
0.000608
0.000538
0.000467
0.001035
0.000964
0.000893
0.000821
0.000750
0.000679
0.000608
0.000537
0.000466
0.001034
0.000964
0.000892
0.000820
0.000749
0.000677
0.000607
0.000535
0.000463
0.001034
0.000963
0.000891
0.000820
0.000748
0.000677
0.000606
0.000534
0.000463
0.001032
0.000962
0.000890
0.000819
0.000747
0.000676
0.000604
0.000533
0.000460
0.001033
0.000961
0.000890
0.000818
0.000746
0.000675
0.000603
0.000531
0.000459
0.001032
0.000961
0.000889
0.000817
0.000746
0.000673
0.000602
0.000530
0.000458
0.001032
0.000960
0.000889
0.000817
0.000744
0.000673
0.000601
0.000529
0.000457
0.001031
0.000960
0.000888
0.000816
0.000744
0.000672
0.000600
0.000528
0.000456
0.001031
0.000959
0.000887
0.000814
0.000743
0.000671
0.000599
0.000526
0.000455
0.001030
0.000958
0.000886
0.000813
0.000743
0.000670
0.000598
0.000527
0.000454
0.001029
0.000958
0.000885
0.000813
0.000741
0.000669
0.000598
0.000524
0.000453
0.001029
0.000956
0.000885
0.000813
0.000741
0.000669
0.000597
0.000525
0.000453
0.001028
0.000956
0.000885
0.000811
0.000739
0.000667
0.000596
0.000524
0.000451
0.001027
0.000955
0.000883
0.000811
0.000739
0.000667
0.000595
0.000524
0.000452
0.001026
0.000954
0.000882
0.000810
0.000739
0.000667
0.000595
0.000522
0.000451
0.001026
0.000954
0.000882
0.000810
0.000738
0.000666
0.000595
0.000522
0.000450
0.001026
0.000953
0.000881
0.000808
0.000736
0.000665
0.000594
0.000521
0.000449
0.001024
0.000951
0.000880
0.000808
0.000736
0.000665
0.000592
0.000521
0.000449
0.001023
0.000951
0.000879
0.000808
0.000736
0.000663
0.000592
0.000520
0.000448
0.001022
0.000951
0.000878
0.000807
0.000735
0.000663
0.000592
0.000521
0.000448
0.001021
0.000949
0.000878
0.000806
0.000734
0.000662
0.000591
0.000519
0.000447
0.001021
0.000948
0.000877
0.000806
0.000734
0.000662
0.000590
0.000518
0.000447
0.001019
0.000948
0.000876
0.000805
0.000733
0.000661
0.000589
0.000517
0.000446
0.001019
0.000947
0.000876
0.000803
0.000732
0.000661
0.000589
0.000517
0.000446
0.001017
0.000947
0.000875
0.000803
0.000732
0.000660
0.000588
0.000517
0.000447
0.001017
0.000946
0.000874
0.000803
0.000731
0.000659
0.000588
0.000518
0.000446
0.001016
0.000944
0.000872
0.000801
0.000730
0.000659
0.000588
0.000516
0.000445
0.001015
0.000943
0.000872
0.000801
0.000730
0.000659
0.000588
0.000516
0.000445
0.001014
0.000943
0.000872
0.000800
0.000729
0.000658
0.000587
0.000516
0.000445
0.001013
0.000941
0.000871
0.000800
0.000728
0.000658
0.000586
0.000516
0.000444
0.001011
0.000941
0.000870
0.000799
0.000728
0.000657
0.000587
0.000515
0.000445
0.001010
0.000940
0.000868
0.000799
0.000727
0.000657
0.000586
0.000515
0.000445
SCALARS strain_3 float
LOOKUP_TABLE default
0.000214
0.013663
0.013471
0.013277
0.013082
0.012886
0.012689
0.012491
0.012293
0.012094
0.011894
0.011692
0.011491
0.011289
0.011086
0.010882
0.010678
0.010474
0.010269
0.010065
0.009859
0.009654
0.009449
0.009243
0.009038
0.008833
0.008628
0.008423
0.008219
0.008015
0.007812
0.007609
0.007407
0.007206
0.007006
0.006807
0.006608
0.006411
0.006215
0.006021
0.005828
0.005637
0.005446
0.005258
0.005072
0.004888
0.004705
0.004525
0.004346
0.004171
0.003998
0.003827
0.003658
0.003493
0.003329
0.003169
0.003012
0.002858
0.002707
0.002559
0.002414
0.002272
0.002134
0.002000
0.001869
0.001741
0.001617
0.001497
0.001380
0.001267
0.001158
0.001052
0.000951
0.000853
0.000760
0.000670
0.000584
0.000502
0.000424
0.000351
0.000280
0.013305
-0.000114
-0.000050
0.000017
0.000088
0.000164
0.000243
0.000327
0.000414
0.000505
0.000601
0.000700
0.000803
0.000910
0.001021
0.001136
0.001254
0.001376
0.001502
0.001632
0.001765
0.001902
0.002042
0.002185
0.002332
0.002482
0.002635
0.002792
0.002951
0.003112
0.003277
0.003445
0.003615
0.003788
0.003963
0.004141
0.004321
0.004503
0.004687
0.004873
0.005061
0.005250
0.005442
0.005635
0.005830
0.006026
0.006222
0.006421
0.006621
0.006821
0.007023
0.007225
0.007428
0.007632
0.007836
0.008041
0.008246
0.008451
0.008658
0.008863
0.009069
0.009276
0.009481
0.009687
0.009893
0.010099
0.010304
0.010509
0.010713
0.010917
0.011120
0.011323
0.011525
0.011726
0.011927
0.012126
0.012325
0.012523
0.012720
0.012916
0.013111
0.013341
0.013377
0.013412
0.013448
0.013484
0.013520
0.013556
0.013592
0.013628
0.000180
0.000147
0.000114
0.000081
0.000048
0.000015
-0.000018
-0.000049
-0.000083
-0.000018
0.000014
0.000047
0.000080
0.000113
0.000146
0.000179
0.000213
0.000246
0.000049
0.000082
0.000115
0.000148
0.000181
0.000215
0.000248
0.000282
0.000316
0.000121
0.000154
0.000188
0.000221
0.000254
0.000288
0.000322
0.000356
0.000390
0.000197
0.000230
0.000263
0.000298
0.000331
0.000365
0.000399
0.000434
0.000467
0.000276
0.000310
0.000344
0.000377
0.000411
0.000446
0.000480
0.000515
0.000549
0.000360
0.000394
0.000428
0.000462
0.000496
0.000531
0.000565
0.000600
0.000635
0.000448
0.000482
0.000516
0.000550
0.000585
0.000620
0.000655
0.000689
0.000725
0.000540
0.000573
0.000608
0.000642
0.000677
0.000712
0.000747
0.000782
0.000818
0.000635
0.000670
0.000704
0.000739
0.000774
0.000809
0.000845
0.000880
0.000915
0.000734
0.000770
0.000804
0.000839
0.000874
0.000910
0.000945
0.000980
0.001017
0.000838
0.000873
0.000907
0.000943
0.000978
0.001014
0.001050
0.001086
0.001122
0.000945
0.000980
0.001015
0.001051
0.001086
0.001122
0.001158
0.001194
0.001231
0.001057
0.001091
0.001127
0.001163
0.001198
0.001234
0.001270
0.001307
0.001343
0.001171
0.001207
0.001242
0.001278
0.001314
0.001350
0.001387
0.001423
0.001460
0.001290
0.001325
0.001362
0.001398
0.001433
0.001470
0.001506
0.001543
0.001580
0.001413
0.001448
0.001484
0.001520
0.001557
0.001593
0.001630
0.001667
0.001703
0.001538
0.001574
0.001610
0.001646
0.001683
0.001720
0.001757
0.001794
0.001831
0.001668
0.001704
0.001741
0.001778
0.001814
0.001851
0.001887
0.001925
0.001962
0.001801
0.001837
0.001874
0.001911
0.001947
0.001984
0.002022
0.002059
0.002097
0.001938
0.001974
0.002011
0.002048
0.002085
0.002122
0.002160
0.002197
0.002235
0.002078
0.002115
0.002152
0.002189
0.002226
0.002263
0.002301
0.002339
0.002376
0.002222
0.002259
0.002296
0.002333
0.002370
0.002408
0.002445
0.002483
0.002521
0.002369
0.002406
0.002443
0.002480
0.002517
0.002555
0.002593
0.002631
0.002668
0.002519
0.002556
0.002593
0.002631
0.002668
0.002706
0.002743
0.002782
0.002819
0.002672
0.002709
0.002746
0.002784
0.002822
0.002860
0.002898
0.002936
0.002974
0.002828
0.002865
0.002904
0.002941
0.002979
0.003016
0.003054
0.003092
0.003131
0.002988
0.003025
0.003063
0.003101
0.003138
0.003176
0.003215
0.003253
0.003291
0.003150
0.003187
0.003225
0.003263
0.003301
0.003339
0.003377
0.003416
0.003453
0.003315
0.003353
0.003390
0.003428
0.003466
0.003505
0.003543
0.003581
0.003619
0.003482
0.003521
0.003558
0.003596
0.003634
0.003673
0.003711
0.003750
0.003788
0.003653
0.003691
0.003729
0.003767
0.003805
0.003843
0.003882
0.003920
0.003958
0.003826
0.003863
0.003902
0.003940
0.003978
0.004016
0.004055
0.004093
0.004132
0.004001
0.004039
0.004077
0.004116
0.004153
0.004192
0.004231
0.004269
0.004308
0.004179
0.004217
0.004255
0.004293
0.004331
0.004370
0.004409
0.004447
0.004486
0.004359
0.004397
0.004435
0.004473
0.004512
0.004550
0.004588
0.004627
0.004666
0.004541
0.004579
0.004618
0.004655
0.004694
0.004733
0.004771
0.004810
0.004849
0.004725
0.004763
0.004801
0.004839
0.004878
0.004916
0.004955
0.004994
0.005033
0.004911
0.004949
0.004988
0.005026
0.005064
0.005103
0.005142
0.005180
0.005219
0.005099
0.005137
0.005175
0.005214
0.005253
0.005291
0.005330
0.005369
0.005407
0.005289
0.005327
0.005365
0.005403
0.005443
0.005480
0.005520
0.005559
0.005597
0.005481
0.005518
0.005557
0.005595
0.005634
0.005672
0.005711
0.005750
0.005789
0.005673
0.005711
0.005750
0.005788
0.005827
0.005866
0.005904
0.005943
0.005982
0.005868
0.005906
0.005945
0.005983
0.006022
0.006060
0.006099
0.006138
0.006176
0.006063
0.006102
0.006140
0.006178
0.006217
0.006255
0.006295
0.006334
0.006372
0.006261
0.006299
0.006338
0.006376
0.006414
0.006453
0.006492
0.006530
0.006570
0.006459
0.006498
0.006536
0.006575
0.006613
0.006652
0.006690
0.006729
0.006768
0.006659
0.006697
0.006736
0.006774
0.006812
0.006851
0.006889
0.006928
0.006967
0.006859
0.006898
0.006936
0.006974
0.007013
0.007051
0.007090
0.007129
0.007167
0.007061
0.007099
0.007137
0.007176
0.007214
0.007252
0.007291
0.007329
0.007368
0.007263
0.007301
0.007339
0.007378
0.007416
0.007455
0.007493
0.007532
0.007570
0.007466
0.007504
0.007542
0.007581
0.007619
0.007658
0.007696
0.007735
0.007773
0.007670
0.007708
0.007746
0.007784
0.007823
0.007861
0.007900
0.007938
0.007977
0.007874
0.007912
0.007950
0.007988
0.008027
0.008065
0.008104
0.008142
0.008181
0.008079
0.008117
0.008155
0.008193
0.008231
0.008270
0.008308
0.008347
0.008385
0.008284
0.008322
0.008360
0.008398
0.008437
0.008475
0.008513
0.008551
0.008590
0.008489
0.008527
0.008565
0.008604
0.008642
0.008680
0.008718
0.008756
0.008794
0.008695
0.008733
0.008771
0.008809
0.008847
0.008886
0.008923
0.008962
0.009000
0.008901
0.008939
0.008977
0.009015
0.009053
0.009091
0.009129
0.009167
0.009205
0.009107
0.009145
0.009183
0.009221
0.009259
0.009297
0.009334
0.009373
0.009411
0.009313
0.009351
0.009389
0.009427
0.009464
0.009502
0.009541
0.009578
0.009616
0.009520
0.009557
0.009595
0.009632
0.009670
0.009708
0.009746
0.009784
0.009821
0.009725
0.009763
0.009800
0.009838
0.009875
0.009913
0.009951
0.009989
0.010027
0.009931
0.009968
0.010006
0.010043
0.010081
0.010118
0.010156
0.010194
0.010232
0.010136
0.010174
0.010211
0.010249
0.010285
0.010323
0.010361
0.010399
0.010436
0.010341
0.010379
0.010416
0.010453
0.010491
0.010529
0.010566
0.010603
0.010641
0.010546
0.010583
0.010621
0.010658
0.010696
0.010733
0.010770
0.010808
0.010844
0.010750
0.010787
0.010825
0.010862
0.010900
0.010937
0.010974
0.011010
0.011048
0.010954
0.010991
0.011028
0.011065
0.011103
0.011140
0.011177
0.011214
0.011251
0.011158
0.011194
0.011231
0.011269
0.011306
0.011343
0.011380
0.011416
0.011454
0.011360
0.011397
0.011434
0.011471
0.011508
0.011545
0.011581
0.011619
0.011655
0.011561
0.011599
0.011635
0.011672
0.011709
0.011746
0.011783
0.011820
0.011857
0.011763
0.011799
0.011836
0.011873
0.011910
0.011947
0.011983
0.012020
0.012057
0.011963
0.012000
0.012036
0.012073
0.012110
0.012146
0.012183
0.012220
0.012256
0.012163
0.012199
0.012235
0.012272
0.012309
0.012346
0.012382
0.012419
0.012455
0.012362
0.012398
0.012434
0.012471
0.012507
0.012543
0.012580
0.012617
0.012654
0.012559
0.012596
0.012632
0.012668
0.012705
0.012741
0.012778
0.012814
0.012850
0.012756
0.012792
0.012829
0.012865
0.012901
0.012937
0.012974
0.013010
0.013046
0.012952
0.012988
0.013024
0.013060
0.013097
0.013133
0.013168
0.013204
0.013240
0.013147
0.013183
0.013219
0.013255
0.013291
0.013327
0.013363
0.013399
0.013435
SCALARS stress_1 float
LOOKUP_TABLE default
10252.679295
-8061344.807439
-7939292.988855
-7816626.170271
-7693382.351686
-7569560.533102
-7445246.714518
-7320406.895934
-7195088.077350
-7069351.258766
-6943197.440181
-6816701.621597
-6689812.803013
-6562687.984429
-6435280.165845
-6307634.347261
-6179827.528676
-6051875.710092
-5923821.891508
-5795723.072924
-5667617.254340
-5539553.435756
-5411565.617171
-5283683.798587
-5156032.980003
-5028617.161419
-4901474.342835
-4774678.524250
-4648258.705666
-4522311.887082
-4396881.068498
-4271989.249914
-4147731.431330
-4024147.612745
-3901304.794161
-3779255.975577
-3658054.156993
-3537794.338409
-3418514.519825
-3300277.701240
-3183134.882656
-3067171.064072
-2952406.245488
-2838940.426904
-2726830.608320
-2616150.789735
-2506921.971151
-2399244.152567
-2293136.333983
-2188701.515399
-2085968.696815
-1985015.878230
-1885886.059646
-1788622.241062
-1693294.422478
-1599972.603894
-1508686.785309
-1419454.966725
-1332406.148141
-1247515.329557
-1164841.510973
-1084436.692389
-1006315.873804
-930571.055220
-857180.236636
-786166.418052
-717610.599468
-651516.780884
-587900.962299
-526739.143715
-468133.325131
-412027.506547
-358432.687963
-307410.869379
-258897.050794
-212933.232210
-169514.413626
-128594.595042
-90162.776458
-54224.957874
-20778.139289
-8050146.779945
28883.706789
-2042.111795
-35423.930379
-71276.748964
-109624.567548
-150464.386132
-193862.204716
-239794.023300
-288251.841884
-339254.660469
-392810.479053
-448903.297637
-507513.116221
-568654.934805
-632289.753389
-698433.571974
-766997.390558
-838032.209142
-911439.027726
-987253.846310
-1065401.664894
-1145884.483479
-1228604.302063
-1313564.120647
-1400704.939231
-1489973.757815
-1581376.576399
-1674798.394984
-1770186.213568
-1867545.032152
-1966785.850736
-2067846.669320
-2170684.487905
-2275244.306489
-2381470.125073
-2489275.943657
-2598625.762241
-2709429.580825
-2821675.399410
-2935272.217994
-3050141.036578
-3166264.855162
-3283556.673746
-3401926.492330
-3521371.310915
-3641773.129499
-3763105.948083
-3885293.766667
-4008289.585251
-4132008.403835
-4256426.222420
-4381479.041004
-4507066.859588
-4633163.678172
-4759719.496756
-4886672.315340
-5013957.133925
-5141539.952509
-5269377.771093
-5397380.589677
-5525497.408261
-5653730.226846
-5781993.045430
-5910232.864014
-6038441.682598
-6166548.501182
-6294509.319766
-6422308.138351
-6549845.956935
-6677136.775519
-6804134.594103
-6930799.412687
-7057089.231271
-7182967.049856
-7308420.868440
-7433369.687024
-7557846.505608
-7681793.324192
-7805171.142776
-7927975.961361
-8051327.982694
-8052476.185444
-8053634.388193
-8054761.590942
-8055894.793692
-8056999.996441
-8058080.199191
-8059173.401940
-8060286.604690
12604.882044
14826.084794
16943.287543
18977.490292
20890.693042
22684.895791
24406.098541
26001.301290
27504.504040
-3431.314545
-4943.517294
-6556.720043
-8271.922793
-10086.125542
-12006.328292
-14036.531041
-16177.733791
-18404.936540
-36824.133129
-38330.335878
-39938.538628
-41677.741377
-43484.944126
-45443.146876
-47475.349625
-49611.552375
-51885.755124
-72688.951713
-74181.154462
-75809.357212
-77543.559961
-79380.762711
-81322.965460
-83376.168209
-85526.370959
-87797.573708
-111035.770297
-112558.973047
-114183.175796
-115907.378545
-117772.581295
-119696.784044
-121753.986794
-123923.189543
-126209.392292
-151893.588881
-153426.791631
-155051.994380
-156788.197130
-158644.399879
-160600.602628
-162653.805378
-164842.008127
-167127.210877
-195292.407465
-196821.610215
-198440.812964
-200193.015714
-202053.218463
-204006.421213
-206075.623962
-208259.826711
-210541.029461
-241210.226050
-242742.428799
-244383.631548
-246096.834298
-247994.037047
-249954.239797
-252015.442546
-254215.645296
-256490.848045
-289694.044634
-291206.247383
-292850.450133
-294618.652882
-296456.855631
-298441.058381
-300523.261130
-302730.463880
-305005.666629
-340688.863218
-342213.065967
-343871.268717
-345618.471466
-347493.674216
-349454.876965
-351549.079714
-353728.282464
-356069.485213
-394245.681802
-395797.884552
-397418.087301
-399193.290050
-401058.492800
-403007.695549
-405128.898299
-407311.101048
-409610.303797
-450326.500386
-451858.703136
-453542.905885
-455289.108635
-457147.311384
-459111.514133
-461227.716883
-463389.919632
-465718.122382
-508962.318970
-510487.521720
-512154.724469
-513929.927219
-515777.129968
-517754.332718
-519835.535467
-522025.738216
-524343.940966
-570067.137555
-571652.340304
-573281.543053
-575055.745803
-576917.948552
-578907.151302
-580978.354051
-583177.556801
-585478.759550
-633735.956139
-635259.158888
-636924.361638
-638703.564387
-640555.767137
-642555.969886
-644626.172635
-646804.375385
-649109.578134
-699837.774723
-701370.977472
-703072.180222
-704810.382971
-706685.585721
-708679.788470
-710727.991220
-712939.193969
-715215.396718
-768430.593307
-769980.796057
-771626.998806
-773391.201555
-775273.404305
-777230.607054
-779292.809804
-781503.012553
-783782.215303
-839478.411891
-841015.614641
-842648.817390
-844408.020140
-846279.222889
-848255.425638
-850322.628388
-852494.831137
-854799.033887
-912879.230476
-914441.433225
-916091.635974
-917836.838724
-919708.041473
-921670.244223
-923749.446972
-925896.649721
-928176.852471
-988690.049060
-990242.251809
-991899.454559
-993636.657308
-995499.860057
-997469.062807
-999503.265556
-1001699.468306
-1003946.671055
-1066848.867644
-1068407.070393
-1070035.273143
-1071782.475892
-1073649.678642
-1075585.881391
-1077641.084140
-1079798.286890
-1082061.489639
-1147311.686228
-1148848.888977
-1150509.091727
-1152236.294476
-1154095.497226
-1156025.699975
-1158091.902725
-1160229.105474
-1162476.308223
-1230039.504812
-1231582.707562
-1233201.910311
-1234958.113060
-1236804.315810
-1238745.518559
-1240791.721309
-1242912.924058
-1245158.126808
-1314989.323396
-1316538.526146
-1318188.728895
-1319906.931645
-1321740.134394
-1323680.337143
-1325711.539893
-1327848.742642
-1330069.945392
-1402140.141981
-1403687.344730
-1405323.547479
-1407052.750229
-1408862.952978
-1410803.155728
-1412818.358477
-1414924.561226
-1417168.763976
-1491426.960565
-1492969.163314
-1494594.366064
-1496309.568813
-1498125.771562
-1500050.974312
-1502064.177061
-1504175.379811
-1506389.582560
-1582791.779149
-1584337.981898
-1585968.184648
-1587684.387397
-1589470.590147
-1591387.792896
-1593389.995645
-1595496.198395
-1597701.401144
-1676213.597733
-1677723.800482
-1679357.003232
-1681058.205981
-1682892.408731
-1684793.611480
-1686772.814230
-1688838.016979
-1691019.219728
-1771622.416317
-1773150.619067
-1774752.821816
-1776471.024565
-1778256.227315
-1780145.430064
-1782132.632814
-1784199.835563
-1786362.038313
-1868983.234901
-1870493.437651
-1872097.640400
-1873797.843150
-1875595.045899
-1877462.248649
-1879414.451398
-1881482.654147
-1883649.856897
-1968191.053486
-1969717.256235
-1971332.458984
-1973015.661734
-1974810.864483
-1976661.067233
-1978618.269982
-1980656.472732
-1982787.675481
-2069281.872070
-2070782.074819
-2072385.277569
-2074051.480318
-2075830.683067
-2077676.885817
-2079622.088566
-2081657.291316
-2083760.494065
-2172096.690654
-2173611.893403
-2175193.096153
-2176889.298902
-2178646.501652
-2180492.704401
-2182394.907150
-2184403.109900
-2186517.312649
-2276672.509238
-2278143.711988
-2279750.914737
-2281417.117486
-2283150.320236
-2284996.522985
-2286898.725735
-2288883.928484
-2290971.131233
-2382866.327822
-2384381.530572
-2385932.733321
-2387597.936071
-2389328.138820
-2391149.341569
-2393059.544319
-2395035.747068
-2397095.949818
-2490683.146406
-2492153.349156
-2493727.551905
-2495378.754655
-2497108.957404
-2498920.160154
-2500786.362903
-2502764.565652
-2504810.768402
-2600010.964991
-2601501.167740
-2603067.370489
-2604717.573239
-2606417.775988
-2608228.978738
-2610069.181487
-2612016.384237
-2614048.586986
-2710839.783575
-2712318.986324
-2713881.189074
-2715495.391823
-2717200.594572
-2718974.797322
-2720845.000071
-2722761.202821
-2724740.405570
-2823078.602159
-2824535.804908
-2826079.007658
-2827707.210407
-2829389.413157
-2831175.615906
-2833000.818655
-2834910.021405
-2836901.224154
-2936672.420743
-2938142.623493
-2939648.826242
-2941285.028991
-2942961.231741
-2944691.434490
-2946519.637240
-2948402.839989
-2950370.042738
-3051539.239327
-3052989.442077
-3054531.644826
-3056098.847576
-3057788.050325
-3059522.253074
-3061353.455824
-3063184.658573
-3065133.861323
-3167629.057911
-3169112.260661
-3170617.463410
-3172204.666160
-3173863.868909
-3175576.071659
-3177369.274408
-3179208.477157
-3181140.679907
-3284914.876496
-3286388.079245
-3287869.281994
-3289449.484744
-3291105.687493
-3292815.890243
-3294562.092992
-3296391.295742
-3298286.498491
-3403298.695080
-3404761.897829
-3406236.100579
-3407816.303328
-3409443.506077
-3411148.708827
-3412888.911576
-3414689.114326
-3416581.317075
-3522730.513664
-3524176.716413
-3525650.919163
-3527202.121912
-3528837.324662
-3530483.527411
-3532236.730161
-3534015.932910
-3535878.135659
-3643137.332248
-3644576.534998
-3646040.737747
-3647588.940496
-3649212.143246
-3650838.345995
-3652563.548745
-3654335.751494
-3656188.954244
-3764482.150832
-3765881.353582
-3767343.556331
-3768898.759081
-3770500.961830
-3772116.164579
-3773828.367329
-3775577.570078
-3777393.772828
-3886655.969417
-3888074.172166
-3889517.374915
-3891043.577665
-3892617.780414
-3894245.983164
-3895955.185913
-3897672.388662
-3899449.591412
-4009644.788001
-4011030.990750
-4012508.193500
-4014005.396249
-4015564.598998
-4017204.801748
-4018838.004497
-4020543.207247
-4022317.409996
-4133381.606585
-4134757.809334
-4136213.012084
-4137701.214833
-4139261.417583
-4140842.620332
-4142491.823081
-4144184.025831
-4145917.228580
-4257763.425169
-4259153.627918
-4260594.830668
-4262086.033417
-4263608.236167
-4265189.438916
-4266814.641666
-4268481.844415
-4270223.047164
-4382802.243753
-4384201.446503
-4385618.649252
-4387096.852001
-4388597.054751
-4390181.257500
-4391767.460250
-4393429.662999
-4395112.865749
-4508420.062337
-4509767.265087
-4511174.467836
-4512640.670586
-4514152.873335
-4515688.076084
-4517296.278834
-4518904.481583
-4520608.684333
-4634503.880922
-4635861.083671
-4637258.286420
-4638721.489170
-4640201.691919
-4641725.894669
-4643311.097418
-4644933.300167
-4646572.502917
-4761055.699506
-4762385.902255
-4763803.105005
-4765245.307754
-4766710.510503
-4768210.713253
-4769753.916002
-4771357.118752
-4773002.321501
-4887984.518090
-4889335.720839
-4890712.923589
-4892165.126338
-4893599.329088
-4895090.531837
-4896634.734586
-4898222.937336
-4899841.140085
-5015288.336674
-5016598.539423
-5017993.742173
-5019411.944922
-5020861.147672
-5022328.350421
-5023859.553171
-5025396.755920
-5026994.958669
-5142847.155258
-5144179.358008
-5145574.560757
-5146951.763506
-5148387.966256
-5149851.169005
-5151347.371755
-5152880.574504
-5154441.777254
-5270640.973842
-5271997.176592
-5273353.379341
-5274723.582091
-5276161.784840
-5277617.987589
-5279094.190339
-5280589.393088
-5282125.595838
-5398658.792427
-5399997.995176
-5401329.197925
-5402714.400675
-5404105.603424
-5405542.806174
-5406999.008923
-5408476.211673
-5410006.414422
-5526803.611011
-5528092.813760
-5529457.016510
-5530800.219259
-5532193.422008
-5533617.624758
-5535039.827507
-5536510.030257
-5538028.233006
-5655014.429595
-5656319.632344
-5657617.835094
-5658991.037843
-5660352.240593
-5661783.443342
-5663194.646091
-5664627.848841
-5666108.051590
-5783267.248179
-5784549.450929
-5785868.653678
-5787214.856427
-5788595.059177
-5789954.261926
-5791351.464676
-5792780.667425
-5794236.870174
-5911515.066763
-5912830.269513
-5914112.472262
-5915419.675012
-5916775.877761
-5918155.080510
-5919541.283260
-5920951.486009
-5922367.688759
-6039721.885347
-6040999.088097
-6042296.290846
-6043601.493596
-6044931.696345
-6046287.899095
-6047661.101844
-6049044.304593
-6050445.507343
-6167822.703932
-6169070.906681
-6170376.109430
-6171666.312180
-6172985.514929
-6174320.717679
-6175658.920428
-6177016.123178
-6178429.325927
-6295754.522516
-6297017.725265
-6298299.928015
-6299579.130764
-6300899.333513
-6302206.536263
-6303557.739012
-6304908.941762
-6306282.144511
-6423534.341100
-6424783.543849
-6426047.746599
-6427345.949348
-6428643.152098
-6429929.354847
-6431252.557596
-6432591.760346
-6433912.963095
-6551075.159684
-6552336.362434
-6553575.565183
-6554859.767932
-6556138.970682
-6557421.173431
-6558721.376181
-6560040.578930
-6561349.781679
-6678391.978268
-6679616.181018
-6680858.383767
-6682111.586517
-6683382.789266
-6684651.992015
-6685937.194765
-6687214.397514
-6688538.600264
-6805373.796852
-6806593.999602
-6807819.202351
-6809077.405101
-6810338.607850
-6811580.810600
-6812855.013349
-6814124.216098
-6815404.418848
-6932022.615437
-6933238.818186
-6934455.020935
-6935704.223685
-6936926.426434
-6938177.629184
-6939431.831933
-6940675.034683
-6941955.237432
-7058285.434021
-7059528.636770
-7060732.839520
-7061958.042269
-7063173.245018
-7064398.447768
-7065643.650517
-7066868.853267
-7068125.056016
-7184176.252605
-7185385.455354
-7186590.658104
-7187797.860853
-7189012.063603
-7190225.266352
-7191442.469101
-7192657.671851
-7193879.874600
-7309622.071189
-7310827.273939
-7312003.476688
-7313193.679437
-7314392.882187
-7315592.084936
-7316796.287686
-7318004.490435
-7319191.693185
-7434571.889773
-7435784.092523
-7436958.295272
-7438149.498022
-7439325.700771
-7440500.903520
-7441694.106270
-7442879.309019
-7444059.511769
-7559030.708358
-7560233.911107
-7561423.113856
-7562584.316606
-7563748.519355
-7564919.722105
-7566098.924854
-7567264.127603
-7568413.330353
-7682971.526942
-7684152.729691
-7685320.932441
-7686490.135190
-7687666.337939
-7688800.540689
-7689969.743438
-7691094.946188
-7692248.148937
-7806350.345526
-7807499.548275
-7808682.751025
-7809827.953774
-7810995.156524
-7812114.359273
-7813271.562022
-7814400.764772
-7815513.967521
-7929152.164110
-7930320.366859
-7931456.569609
-7932597.772358
-7933739.975108
-7934857.177857
-7935989.380607
-7937082.583356
-7938193.786105
SCALARS stress_2 float
LOOKUP_TABLE default
112262.515256
-1078066.562763
-1060660.349287
-1043166.135812
-1025687.922337
-1008073.708862
-990187.495386
-972429.281911
-954615.068436
-936728.854961
-918426.641485
-900516.428010
-882406.214535
-864216.001060
-845921.787585
-827683.574109
-809453.360634
-791087.147159
-772640.933684
-754282.720208
-735964.506733
-717510.293258
-699096.079783
-680513.866307
-662283.652832
-643925.439357
-625727.225882
-607393.012407
-589066.798931
-571068.585456
-552734.371981
-534864.158506
-516777.945030
-498819.731555
-480933.518080
-463279.304605
-445689.091129
-428162.877654
-410780.664179
-393470.450704
-376304.237228
-359578.023753
-342707.810278
-326013.596803
-309471.383328
-293289.169852
-277034.956377
-261348.742902
-245806.529427
-230104.315951
-214746.102476
-199739.889001
-185053.675526
-170567.462050
-156249.248575
-142371.035100
-128668.821625
-115030.608150
-101952.394674
-89082.181199
-76531.967724
-64101.754249
-52215.540773
-40609.327298
-29371.113823
-18220.900348
-7518.686872
2927.526603
12861.740078
22667.953553
31962.167029
41008.380504
49798.593979
57884.807454
65899.020929
73601.234405
80871.447880
87797.661355
94411.874830
100786.088306
106784.301781
-944125.923902
209723.154116
205244.940641
200646.727166
195880.513690
190434.300215
184740.086740
178669.873265
172311.659790
165505.446314
158275.232839
150781.019364
143030.805889
134640.592413
126114.378938
117060.165463
107741.951988
98079.738512
88137.525037
77619.311562
67077.098087
55910.884611
44584.671136
32810.457661
20756.244186
8422.030711
-4176.182765
-17302.396240
-30660.609715
-44002.823190
-57841.036666
-72055.250141
-86365.463616
-100843.677091
-115673.890567
-130976.104042
-146206.317517
-161820.530992
-177626.744467
-193592.957943
-209887.171418
-226349.384893
-242931.598368
-259529.811844
-276384.025319
-293422.238794
-310628.452269
-328058.665745
-345520.879220
-363127.092695
-380773.306170
-398579.519645
-416481.733121
-434431.946596
-452454.160071
-470564.373546
-488762.587022
-507096.800497
-525239.013972
-543613.227447
-562091.440923
-580489.654398
-598991.867873
-617302.081348
-635732.294824
-654114.508299
-672592.721774
-691062.935249
-709277.148724
-727795.362200
-746185.575675
-764319.789150
-782510.002625
-800852.216101
-818946.429576
-837080.643051
-854958.856526
-873037.070002
-891011.283477
-908785.496952
-926503.710427
-957500.787789
-970923.651675
-984266.515561
-997825.379447
-1011032.243333
-1024423.107219
-1037853.971105
-1051300.834991
-1064699.698877
122029.379142
131844.243028
141707.106914
151521.970800
161216.834686
170943.698572
180718.562458
190501.426344
199956.290230
195646.076755
185847.212869
175960.348983
166273.485097
156290.621211
146483.757325
136372.893439
126726.029553
116591.165667
190839.863280
181048.999394
170986.135508
161027.271622
151020.407736
141021.543850
131046.679964
120895.816078
110792.952192
185881.649804
175842.785918
165387.922032
155485.058146
145422.194260
135191.330374
125008.466488
114825.602602
104786.738716
180243.436329
170116.572443
160005.708557
149550.844671
139335.980785
129049.116899
118810.253013
108603.389127
98220.525241
174333.222854
164078.358968
153751.495082
143368.631196
133113.767310
122610.903424
112276.039538
101837.175652
91222.311766
168335.009379
157720.145493
147433.281607
136962.417721
126419.553835
115788.689949
105245.826063
94702.962177
84248.098291
161640.795904
151193.932018
140651.068132
130036.204245
119381.340359
108702.476473
98079.612587
87328.748701
76697.884815
154770.582428
144043.718542
133372.854656
122813.990770
111935.126884
101248.262998
90425.399112
79618.535226
68763.671340
147460.368953
136773.505067
125894.641181
115175.777295
104240.913409
93282.049523
82515.185637
71564.321751
60621.457865
139998.155478
129039.291592
118064.427706
107233.563820
96154.699934
85195.836048
74108.972162
63038.108276
51967.244390
131807.942003
121001.078117
109922.214231
98811.350345
87676.486459
76565.622573
65382.758687
54279.894801
43121.030915
123545.728527
112450.864641
101268.000755
90061.136869
78854.272983
67679.409097
56432.545211
45313.681325
33930.817439
114835.515052
103588.651166
92277.787280
80998.923394
69824.059508
58337.195622
46922.331736
35731.467850
24300.603964
105773.301577
94382.437691
82999.573805
71728.709919
60137.846033
48658.982147
37276.118261
25805.254375
14358.390489
96319.088102
84960.224216
73409.360330
61762.496444
50499.632558
38812.768672
27261.904786
15775.040900
4152.177014
86592.874626
75026.010740
63539.146854
51828.282968
40261.419082
28438.555196
16879.691310
5208.827424
-6494.036462
76482.661151
64883.797265
53044.933379
41494.069493
29711.205607
17848.341721
6113.477835
-5693.386051
-17500.249937
65948.447676
54277.583790
42430.719904
30655.856018
18736.992132
6874.128246
-5012.735640
-16819.599526
-28698.463412
55142.234201
43295.370315
31352.506429
19513.642543
7586.778657
-4404.085229
-16274.949115
-28201.813001
-40248.676887
44064.020725
32049.156839
20130.292953
8051.429067
-3955.434819
-16002.298705
-27961.162591
-40072.026477
-52094.890363
32489.807250
20530.943364
8492.079478
-3650.784408
-15649.648294
-27960.512180
-39879.376066
-52182.239952
-64309.103838
20691.593775
8612.729889
-3650.133997
-15768.997883
-27839.861769
-40086.725655
-52293.589541
-64476.453427
-76843.317313
8629.380300
-3665.483586
-15760.347472
-28159.211358
-40414.075244
-52796.939130
-64827.803016
-77298.666902
-89569.530788
-3784.833175
-16151.697061
-28326.560947
-40813.424833
-53212.288719
-65563.152605
-77842.016491
-90280.880378
-102647.744264
-16607.046651
-29117.910537
-41348.774423
-53859.638309
-66178.502195
-78601.366081
-91032.229967
-103671.093853
-116085.957739
-29685.260126
-42012.124012
-54658.987898
-67121.851784
-79536.715670
-91975.579556
-104590.443442
-117317.307328
-129804.171214
-43083.473601
-55530.337487
-68025.201373
-80592.065259
-93326.929145
-105797.793031
-118316.656917
-130979.520803
-143610.384689
-56545.687076
-69112.550962
-81999.414848
-94462.278734
-107165.142620
-119660.006506
-132546.870392
-145161.734278
-157848.598164
-70535.900552
-83246.764438
-95941.628324
-108572.492210
-121115.356096
-134114.219982
-146817.083868
-159463.947754
-172390.811640
-84830.114027
-97372.977913
-110147.841799
-122882.705685
-135681.569571
-148680.433457
-161479.297343
-174086.161229
-187029.025115
-99004.327502
-111947.191388
-124730.055274
-137512.919160
-150271.783046
-163310.646932
-176133.510818
-189020.374704
-201963.238590
-113738.540977
-126617.404863
-139496.268749
-152487.132635
-165373.996521
-178308.860407
-191371.724293
-204138.588179
-217121.452065
-128680.754453
-141679.618339
-154622.482225
-167669.346111
-180492.209997
-193571.073883
-206489.937769
-219448.801655
-232495.665541
-143934.967928
-156885.831814
-169924.695700
-182931.559586
-196082.423472
-209017.287358
-221992.151244
-235087.015130
-248237.879016
-159357.181403
-172452.045289
-185402.909175
-198417.773061
-211664.636947
-224679.500833
-237550.364719
-250909.228605
-264044.092491
-174851.394878
-188202.258764
-201185.122650
-214095.986536
-227470.850422
-240581.714308
-253828.578194
-266899.442080
-279970.305966
-190873.608353
-203960.472239
-216999.336125
-230134.200012
-243405.063898
-256587.927784
-269730.791670
-283049.655556
-296112.519442
-206871.821829
-219862.685715
-233141.549601
-246476.413487
-259715.277373
-272882.141259
-286161.005145
-299543.869031
-312710.732917
-223014.035304
-236300.899190
-249587.763076
-262850.626962
-276129.490848
-289360.354734
-302687.218620
-315990.082506
-329364.946392
-239500.248779
-252715.112665
-265961.976551
-279344.840437
-292703.704323
-305950.568209
-319357.432095
-332732.295981
-346171.159867
-256098.462254
-269513.326140
-282744.190026
-296103.053912
-309429.917798
-322868.781684
-336139.645570
-349562.509456
-362993.373342
-272784.675730
-286223.539616
-299742.403502
-313101.267388
-326444.131274
-339874.995160
-353193.859046
-366488.722932
-380151.586818
-289838.889205
-303237.753091
-316748.616977
-330011.480863
-343578.344749
-356945.208635
-370360.072521
-383774.936407
-397349.800293
-306909.102680
-320355.966566
-333906.830452
-347321.694338
-360792.558224
-374111.422110
-387662.285996
-401205.149882
-414740.013768
-324275.316155
-337586.180041
-351105.043927
-364631.907813
-378006.771699
-391501.635585
-405020.499471
-418643.363357
-432258.227243
-341465.529631
-354984.393517
-368479.257403
-381934.121289
-395548.985175
-409139.849061
-422626.712947
-436121.576833
-449696.440719
-359015.743106
-372486.606992
-386149.470878
-399628.334764
-413083.198650
-426690.062536
-440312.926422
-453823.790308
-467318.654194
-376693.956581
-390228.820467
-403635.684353
-417306.548239
-430857.412125
-444432.276011
-458087.139897
-471558.003783
-485092.867669
-394508.170056
-407899.033942
-421425.897828
-434976.761714
-448615.625600
-462238.489486
-475765.353372
-489468.217258
-503083.081144
-412274.383532
-425641.247418
-439352.111304
-453014.975190
-466493.839076
-480124.702962
-493907.566848
-507322.430734
-521177.294620
-430144.597007
-443687.460893
-457350.324779
-470845.188665
-484644.052551
-498090.916437
-511801.780323
-525552.644209
-539015.508095
-448134.810482
-461613.674368
-475332.538254
-488875.402140
-502674.266026
-516249.129912
-529943.993798
-543590.857684
-557205.721570
-466197.023957
-479707.887843
-493426.751729
-507025.615615
-520632.479501
-534447.343387
-547934.207273
-561821.071159
-575339.935045
-484395.237432
-497874.101318
-511496.965204
-525223.829090
-538894.692976
-552709.556862
-566236.420748
-580035.284635
-593578.148521
-502577.450908
-516056.314794
-529727.178680
-543590.042566
-557084.906452
-570891.770338
-584402.634224
-598249.498110
-611968.361996
-520567.664383
-534318.528269
-548045.392155
-561740.256041
-575483.119927
-589121.983813
-602960.847699
-616679.711585
-630262.575471
-538997.877858
-552732.741744
-566411.605630
-580114.469516
-593857.333402
-607408.197288
-621119.061174
-634901.925060
-648620.788946
-557412.091333
-571186.955219
-584793.819105
-598288.682991
-611975.546877
-625926.410763
-639533.274649
-653380.138535
-666939.002421
-575746.304809
-589465.168695
-603272.032581
-616846.896467
-630413.760353
-644140.624239
-657979.488125
-671618.352011
-685425.215897
-594032.518284
-607823.382170
-621470.246056
-635197.109942
-648771.973828
-662578.837714
-676377.701600
-690216.565486
-703703.429372
-612502.731759
-626269.595645
-639940.459531
-653659.323417
-667194.187303
-681073.051189
-694831.915075
-708502.778961
-722181.642847
-631084.945234
-644595.809120
-658370.673006
-672025.536892
-685728.400778
-699479.264664
-713222.128550
-726796.992436
-740595.856322
-649475.158710
-663130.022596
-676760.886482
-690463.750368
-704110.614254
-717717.478140
-731444.342026
-745187.205912
-759050.069798
-667793.372185
-681560.236071
-695207.099957
-708733.963843
-722644.827729
-736219.691615
-749858.555501
-763561.419387
-777392.283273
-686047.585660
-699854.449546
-713405.313432
-727036.177318
-741131.041204
-754665.905090
-768336.768976
-781863.632862
-795494.496748
-704613.799135
-718228.663021
-731979.526907
-745618.390793
-759369.254679
-772976.118565
-786574.982451
-800237.846337
-813828.710223
-723036.012610
-736570.876496
-750201.740382
-763960.604268
-777535.468155
-791278.332041
-804885.195927
-818596.059813
-832162.923699
-741378.226086
-754833.089972
-768583.953858
-782318.817744
-795845.681630
-809588.545516
-823179.409402
-836914.273288
-850497.137174
-759728.439561
-773255.303447
-786902.167333
-800597.031219
-814139.895105
-827762.758991
-841521.622877
-854984.486763
-868631.350649
-777982.653036
-791301.516922
-805140.380808
-818715.244694
-832250.108580
-845912.972466
-859559.836352
-873134.700238
-886765.564124
-796148.866511
-809675.730397
-823370.594283
-836849.458169
-850536.322055
-864143.185941
-877654.049827
-891388.913713
-904923.777599
-814331.079987
-827993.943873
-841512.807759
-854887.671645
-868750.535531
-882101.399417
-895972.263303
-909331.127189
-923113.991075
-832449.293462
-846080.157348
-859479.021234
-873133.885120
-886676.749006
-900339.612892
-913786.476778
-927425.340664
-940968.204550
-850479.506937
-864094.370823
-877597.234709
-891244.098595
-904738.962481
-918249.826367
-931896.690253
-945247.554139
-958950.418025
-868605.720412
-882068.584298
-895611.448184
-909034.312070
-922609.175956
-936208.039842
-949654.903728
-963173.767614
-976724.631500
-886483.933888
-900050.797774
-913561.661660
-927000.525546
-940455.389432
-953990.253318
-967525.117204
-981011.981090
-994458.844976
-904282.147363
-917809.011249
-931327.875135
-944758.739021
-958165.602907
-971740.466793
-985171.330679
-998754.194565
-1012257.058451
-922152.360838
-935583.224724
-949014.088610
-962460.952496
-976051.816382
-989498.680268
-1002961.544154
-1016384.408040
-1029839.271926
-940030.574313
-953341.438199
-966796.302085
-980187.165971
-993450.029857
-1006992.893743
-1020639.757629
-1033774.621515
-1047341.485401
SCALARS stress_3 float
LOOKUP_TABLE default
35277.395711
2259893.253325
2227898.005104
2195954.756884
2163735.508664
2131320.260444
2098713.012224
2066025.764004
2033174.515783
2000195.267563
1967072.019343
1933864.771123
1900481.522903
1866994.274683
1833459.026462
1799843.778242
1766104.530022
1732249.281802
1698434.033582
1664530.785362
1630683.537141
1596676.288921
1562673.040701
1528693.792481
1494718.544261
1460927.296040
1426944.047820
1393112.799600
1359361.551380
1325598.303160
1291971.054940
1258423.806719
1225028.558499
1191729.310279
1158558.062059
1125674.813839
1092823.565619
1060276.317398
1027945.069178
995693.820958
963790.572738
932067.324518
900720.076298
869624.828077
838757.579857
808286.331637
778055.083417
748299.835197
718900.586976
689745.338756
661062.090536
632806.842316
604919.594096
577532.345876
550553.097655
524021.849435
498054.601215
472579.352995
447548.104775
423000.856555
399153.608334
375778.360114
352887.111894
330555.863674
308892.615454
287797.367234
267338.119013
247454.870793
228135.622573
209488.374353
191389.126133
174001.877912
157198.629692
141087.381472
125604.133252
110800.885032
96577.636812
82954.388591
70143.140371
57851.892151
46252.643931
2200920.682278
-18867.175335
-8195.927115
2847.321105
14622.569325
27081.817545
40217.065765
54036.313986
68579.562206
83582.810426
99334.058646
115753.306866
132824.555086
150623.803307
168859.051527
187850.299747
207457.547967
227672.796187
248592.044408
269903.292628
291958.540848
314537.789068
337753.037288
361444.285508
385735.533729
410566.781949
435846.030169
461705.278389
488048.526609
514875.774829
542159.023050
569870.271270
598061.519490
626620.767710
655612.015930
684983.264150
714782.512371
744857.760591
775301.008811
806076.257031
837163.505251
868630.753472
900230.001692
932193.249912
964340.498132
996767.746352
1029390.994572
1062186.242793
1095157.491013
1128400.739233
1161639.987453
1195091.235673
1228738.483893
1262405.732114
1296184.980334
1330112.228554
1364055.476774
1398062.724994
1432077.973214
1466129.221435
1500260.469655
1534343.717875
1568466.966095
1602430.214315
1636561.462536
1670520.710756
1704427.958976
1738395.207196
1772134.455416
1805817.703636
1839540.951857
1873064.200077
1906459.448297
1939714.696517
1972941.944737
2005905.192957
2038840.441178
2071559.689398
2104210.937618
2136542.185838
2168845.434058
2206781.939383
2212699.196488
2218580.453592
2224521.710697
2230462.967802
2236312.224906
2242201.482011
2248154.739115
2254035.996220
29700.138606
24298.881502
18781.624397
13316.367292
7847.110188
2549.853083
-2931.404022
-8244.661126
-13521.918231
-3014.670011
2402.587094
7803.844199
13129.101303
18642.358408
23967.615512
29552.872617
35142.129722
40679.386826
8256.578210
13569.835314
19083.092419
24496.349523
30013.606628
35574.863733
41068.120837
46633.377942
52210.635046
20019.826430
25565.083534
30986.340639
36435.597744
42092.854848
47626.111953
53203.369057
58796.626162
64457.883267
32551.074650
38128.331754
43545.588859
49130.845964
54708.103068
60289.360173
65998.617278
71623.874382
77341.131487
45782.322870
51287.579975
56884.837079
62446.094184
68031.351289
73780.608393
79373.865498
85123.122602
90780.379707
59549.571090
65182.828195
70764.085299
76317.342404
82034.599509
87779.856613
93437.113718
99178.370823
104951.627927
74080.819310
79634.076415
85315.333520
91016.590624
96749.847729
102511.104833
108172.361938
113949.619043
119790.876147
89152.067531
94937.324635
100582.581740
106267.838844
112021.095949
117710.353054
123535.610158
129368.867263
135214.124368
105031.315751
110636.572855
116361.829960
122175.087065
127928.344169
133669.601274
139558.858378
145460.115483
151321.372588
121450.563971
127223.821076
133009.078180
138746.335285
144619.592389
150376.849494
156250.106599
162107.363703
168048.620808
138625.812191
144311.069296
150088.326400
155933.583505
161802.840610
167680.097714
173565.354819
179490.611923
185459.869028
156305.060411
162038.317516
167967.574620
173784.831725
179678.088830
185555.345934
191440.603039
197497.860144
203455.117248
174704.308631
180573.565736
186358.822841
192332.079945
198201.337050
204110.594155
210051.851259
216045.108364
222122.365468
193735.556852
199536.813956
205458.071061
211359.328165
217324.585270
223245.842375
229275.099479
235328.356584
241273.613689
213302.805072
219192.062176
225161.319281
231046.576386
237043.833490
243017.090595
249098.347699
255159.604804
261256.861909
233538.053292
239551.310397
245396.567501
251461.824606
257363.081710
263472.338815
269545.595920
275574.853024
281712.110129
254393.301512
260378.558617
266315.815721
272345.072826
278358.329931
284427.587035
290536.844140
296658.101244
302771.358349
275832.549732
281837.806837
287899.063942
293904.321046
299921.578151
306010.835255
312172.092360
318285.349465
324386.606569
297935.797952
303905.055057
309962.312162
316083.569266
322164.826371
328166.083476
334323.340580
340460.597685
346697.854789
320551.046173
326612.303277
332685.560382
338762.817487
344852.074591
350933.331696
357094.588800
363283.845905
369477.103010
343762.294393
349823.551497
355900.808602
361998.065707
368139.322811
374328.579916
380493.837021
386655.094125
392848.351230
367525.542613
373538.799718
379720.056822
385829.313927
391994.571031
398163.828136
404289.085241
410490.342345
416871.599450
391772.790833
397930.047938
404047.305042
410204.562147
416377.819252
422527.076356
428716.333461
434945.590566
441202.847670
416660.039053
422769.296158
428910.553263
435075.810367
441265.067472
447470.324576
453795.581681
460000.838786
466246.095890
441975.287274
448076.544378
454277.801483
460487.058587
466644.315692
472873.572797
479234.829901
485380.087006
491697.344110
467894.535494
474003.792598
480221.049703
486386.306808
492639.563912
498884.821017
505078.078121
511415.335226
517764.592331
494229.783714
500367.040818
506612.297923
512781.555028
519038.812132
525228.069237
531569.326342
537826.583446
544215.840551
521033.031934
527214.289039
533403.546143
539644.803248
545926.060353
552167.317457
558400.574562
564805.831666
571155.088771
548292.280154
554477.537259
560742.794363
566976.051468
573229.308573
579542.565677
585887.822782
592145.079887
598570.336991
576019.528374
582252.785479
588482.042584
594759.299688
601016.556793
607345.813897
613703.071002
620016.328107
626373.585211
604198.776595
610456.033699
616673.290804
622918.547908
629263.805013
635549.062118
641914.319222
648239.576327
654624.833432
632830.024815
639019.281919
645316.539024
651649.796129
657891.053233
664196.310338
670581.567442
676970.824547
683376.081652
661793.273035
668046.530140
674327.787244
680717.044349
687026.301453
693235.558558
699588.815663
706066.072767
712419.329872
691212.521255
697505.778360
703735.035464
710108.292569
716365.549674
722698.806778
729016.063883
735473.320987
741914.578092
721071.769475
727277.026580
733590.283684
739891.540789
746248.797894
752502.054998
758875.312103
765284.569208
771733.826312
751135.017695
757428.274800
763677.531905
769986.789009
776324.046114
782665.303219
789066.560323
795427.817428
801825.074532
781658.265916
787815.523020
794060.780125
800518.037229
806819.294334
813172.551439
819557.808543
825887.065648
832312.322753
812349.514136
818626.771240
824988.028345
831229.285450
837586.542554
843999.799659
850329.056763
856786.313868
863139.570973
843460.762356
849730.019461
855975.276565
862380.533670
868813.790774
875087.047879
881432.304984
887809.562088
894326.819193
874884.010576
881129.267681
887410.524785
893831.781890
900125.038995
906526.296099
912939.553204
919244.810308
925714.067413
906519.258796
912840.515901
919205.773006
925483.030110
931856.287215
938189.544319
944594.801424
950924.058529
957353.315633
938426.507016
944747.764121
951057.021226
957366.278330
963679.535435
970148.792540
976522.049644
982899.306749
989264.563853
970685.755237
976935.012341
983264.269446
989549.526551
995842.783655
1002300.040760
1008673.297864
1015094.554969
1021491.812074
1002933.003457
1009374.260561
1015623.517666
1021988.774771
1028334.031875
1034711.288980
1041100.546085
1047497.803189
1053839.060294
1035676.251677
1041909.508782
1048234.765886
1054628.022991
1060917.280095
1067290.537200
1073723.794305
1080077.051409
1086502.308514
1068431.499897
1074796.757002
1081090.014106
1087427.271211
1093840.528316
1100057.785420
1106531.042525
1112852.299630
1119293.556734
1101438.748117
1107808.005222
1114005.262327
1120422.519431
1126767.776536
1133153.033640
1139534.290745
1145847.547850
1152208.804954
1134665.996338
1140915.253442
1147200.510547
1153545.767651
1159935.024756
1166264.281861
1172629.538965
1179018.796070
1185416.053174
1167969.244558
1174246.501662
1180603.758767
1186873.015872
1193262.272976
1199595.530081
1205932.787185
1212246.044290
1218623.301395
1201424.492778
1207697.749882
1214063.006987
1220352.264092
1226633.521196
1233010.778301
1239292.035406
1245709.292510
1252054.549615
1235007.740998
1241328.998103
1247550.255207
1253895.512312
1260200.769417
1266550.026521
1272899.283626
1279240.540730
1285609.797835
1268698.989218
1274920.246323
1281313.503427
1287590.760532
1293888.017637
1300225.274741
1306582.531846
1312795.788951
1319165.046055
1302482.237438
1308711.494543
1315056.751648
1321374.008752
1327683.265857
1334012.522961
1340317.780066
1346595.037171
1352908.294275
1336377.485659
1342586.742763
1348911.999868
1355261.256972
1361466.514077
1367879.771182
1374105.028286
1380438.285391
1386771.542496
1370344.733879
1376609.990983
1382891.248088
1389104.505193
1395401.762297
1401651.019402
1407984.276506
1414313.533611
1420610.790716
1404347.982099
1410577.239204
1416806.496308
1423023.753413
1429377.010517
1435650.267622
1441939.524727
1448264.781831
1454514.038936
1438347.230319
1444600.487424
1450769.744528
1457099.001633
1463388.258738
1469661.515842
1475866.772947
1482128.030051
1488485.287156
1472370.478539
1478679.735644
1484824.992748
1491118.249853
1497367.506958
1503664.764062
1509962.021167
1516195.278272
1522468.535376
1506537.726759
1512726.983864
1518956.240969
1525185.498073
1531434.755178
1537604.012283
1543949.269387
1550218.526492
1556487.783596
1540520.974980
1546838.232084
1552959.489189
1559184.746293
1565474.003398
1571671.260503
1577988.517607
1584173.774712
1590403.031817
1574584.223200
1580853.480304
1587086.737409
1593291.994514
1599453.251618
1605694.508723
1611979.765828
1618149.022932
1624402.280037
1608659.471420
1614848.728525
1621089.985629
1627303.242734
1633484.499838
1639709.756943
1645967.014048
1652120.271152
1658389.528257
1642650.719640
1648907.976745
1655065.233849
1661258.490954
1667455.748059
1673601.005163
1679850.262268
1686099.519372
1692288.776477
1676661.967860
1682847.224965
1689104.482070
1695173.739174
1701418.996279
1707560.253383
1713809.510488
1719918.767593
1726168.024697
1710621.216080
1716798.473185
1722931.730290
1729092.987394
1735230.244499
1741379.501604
1747628.758708
1753750.015813
1759863.272917
1744500.464301
1750681.721405
1756738.978510
1762944.235615
1769073.492719
1775122.749824
1781400.006928
1787477.264033
1793678.521138
1778311.712521
1784460.969625
1790490.226730
1796663.483835
1802748.740939
1808913.998044
1815059.255149
1821212.512253
1827325.769358
1811962.960741
1818112.217846
1824205.474950
1830358.732055
1836463.989159
1842549.246264
1848718.503369
1854827.760473
1860885.017578
1845622.208961
1851655.466066
1857852.723170
1863893.980275
1870007.237380
1876108.494484
1882197.751589
1888243.008694
1894412.265798
1879145.457181
1885166.714286
1891247.971391
1897317.228495
1903446.485600
1909575.742704
1915468.999809
1921662.256914
1927767.514018
1912508.705402
1918553.962506
1924651.219611
1930652.476715
1936749.733820
1942866.990925
1948884.248029
1954909.505134
1961026.762238
1945783.953622
1951841.210726
1957902.467831
1963923.724936
1970004.982040
1976010.239145
1982091.496249
1988076.753354
1994142.010459
1978967.201842
1984964.458946
1990957.716051
1997054.973156
2003064.230260
2009109.487365
2015182.744470
2021120.001574
2027173.258679
2011874.450062
2017871.707167
2023984.964271
2030018.221376
2035951.478481
2042028.735585
2048069.992690
2054051.249794
2060024.506899
2044805.698282
2050806.955387
2056788.212491
2062841.469596
2068778.726701
2074823.983805
2080773.240910
2086846.498015
2092739.755119
2077472.946502
2083534.203607
2089511.460712
2095496.717816
2101469.974921
2107467.232025
2113408.489130
2119297.746235
2125279.003339
2110028.194723
2116049.451827
2122054.708932
2127947.966036
2133925.223141
2139902.480246
2145831.737350
2151904.994455
2157766.251560
2142515.442943
2148452.700047
2154341.957152
2160355.214257
2166312.471361
2172189.728466
2178194.985570
2184120.242675
2189989.499780
2174718.691163
2180631.948268
2186613.205372
2192514.462477
2198495.719581
2204352.976686
2210318.233791
2216179.490895
2222068.748000
