# vtk DataFile Version 2.0
Generated volume Mesh
ASCII
DATASET UNSTRUCTURED_GRID
POINTS 891 float
0.005000 0.100000 0.000000
0.005000 0.000000 0.000000
0.005000 0.001250 0.000000
0.005000 0.002500 0.000000
0.005000 0.003750 0.000000
0.005000 0.005000 0.000000
0.005000 0.006250 0.000000
0.005000 0.007500 0.000000
0.005000 0.008750 0.000000
0.005000 0.010000 0.000000
0.005000 0.011250 0.000000
0.005000 0.012500 0.000000
0.005000 0.013750 0.000000
0.005000 0.015000 0.000000
0.005000 0.016250 0.000000
0.005000 0.017500 0.000000
0.005000 0.018750 0.000000
0.005000 0.020000 0.000000
0.005000 0.021250 0.000000
0.005000 0.022500 0.000000
0.005000 0.023750 0.000000
0.005000 0.025000 0.000000
0.005000 0.026250 0.000000
0.005000 0.027500 0.000000
0.005000 0.028750 0.000000
0.005000 0.030000 0.000000
0.005000 0.031250 0.000000
0.005000 0.032500 0.000000
0.005000 0.033750 0.000000
0.005000 0.035000 0.000000
0.005000 0.036250 0.000000
0.005000 0.037500 0.000000
0.005000 0.038750 0.000000
0.005000 0.040000 0.000000
0.005000 0.041250 0.000000
0.005000 0.042500 0.000000
0.005000 0.043750 0.000000
0.005000 0.045000 0.000000
0.005000 0.046250 0.000000
0.005000 0.047500 0.000000
0.005000 0.048750 0.000000
0.005000 0.050000 0.000000
0.005000 0.051250 0.000000
0.005000 0.052500 0.000000
0.005000 0.053750 0.000000
0.005000 0.055000 0.000000
0.005000 0.056250 0.000000
0.005000 0.057500 0.000000
0.005000 0.058750 0.000000
0.005000 0.060000 0.000000
0.005000 0.061250 0.000000
0.005000 0.062500 0.000000
0.005000 0.063750 0.000000
0.005000 0.065000 0.000000
0.005000 0.066250 0.000000
0.005000 0.067500 0.000000
0.005000 0.068750 0.000000
0.005000 0.070000 0.000000
0.005000 0.071250 0.000000
0.005000 0.072500 0.000000
0.005000 0.073750 0.000000
0.005000 0.075000 0.000000
0.005000 0.076250 0.000000
0.005000 0.077500 0.000000
0.005000 0.078750 0.000000
0.005000 0.080000 0.000000
0.005000 0.081250 0.000000
0.005000 0.082500 0.000000
0.005000 0.083750 0.000000
0.005000 0.085000 0.000000
0.005000 0.086250 0.000000
0.005000 0.087500 0.000000
0.005000 0.088750 0.000000
0.005000 0.090000 0.000000
0.005000 0.091250 0.000000
0.005000 0.092500 0.000000
0.005000 0.093750 0.000000
0.005000 0.095000 0.000000
0.005000 0.096250 0.000000
0.005000 0.097500 0.000000
0.005000 0.098750 0.000000
0.000000 0.000000 0.000000
0.000000 0.100000 0.000000
0.000000 0.098750 0.000000
0.000000 0.097500 0.000000
0.000000 0.096250 0.000000
0.000000 0.095000 0.000000
0.000000 0.093750 0.000000
0.000000 0.092500 0.000000
0.000000 0.091250 0.000000
0.000000 0.090000 0.000000
0.000000 0.088750 0.000000
0.000000 0.087500 0.000000
0.000000 0.086250 0.000000
0.000000 0.085000 0.000000
0.000000 0.083750 0.000000
0.000000 0.082500 0.000000
0.000000 0.081250 0.000000
0.000000 0.080000 0.000000
0.000000 0.078750 0.000000
0.000000 0.077500 0.000000
0.000000 0.076250 0.000000
0.000000 0.075000 0.000000
0.000000 0.073750 0.000000
0.000000 0.072500 0.000000
0.000000 0.071250 0.000000
0.000000 0.070000 0.000000
0.000000 0.068750 0.000000
0.000000 0.067500 0.000000
0.000000 0.066250 0.000000
0.000000 0.065000 0.000000
0.000000 0.063750 0.000000
0.000000 0.062500 0.000000
0.000000 0.061250 0.000000
0.000000 0.060000 0.000000
0.000000 0.058750 0.000000
0.000000 0.057500 0.000000
0.000000 0.056250 0.000000
0.000000 0.055000 0.000000
0.000000 0.053750 0.000000
0.000000 0.052500 0.000000
0.000000 0.051250 0.000000
0.000000 0.050000 0.000000
0.000000 0.048750 0.000000
0.000000 0.047500 0.000000
0.000000 0.046250 0.000000
0.000000 0.045000 0.000000
0.000000 0.043750 0.000000
0.000000 0.042500 0.000000
0.000000 0.041250 0.000000
0.000000 0.040000 0.000000
0.000000 0.038750 0.000000
0.000000 0.037500 0.000000
0.000000 0.036250 0.000000
0.000000 0.035000 0.000000
0.000000 0.033750 0.000000
0.000000 0.032500 0.000000
0.000000 0.031250 0.000000
0.000000 0.030000 0.000000
0.000000 0.028750 0.000000
0.000000 0.027500 0.000000
0.000000 0.026250 0.000000
0.000000 0.025000 0.000000
0.000000 0.023750 0.000000
0.000000 0.022500 0.000000
0.000000 0.021250 0.000000
0.000000 0.020000 0.000000
0.000000 0.018750 0.000000
0.000000 0.017500 0.000000
0.000000 0.016250 0.000000
0.000000 0.015000 0.000000
0.000000 0.013750 0.000000
0.000000 0.012500 0.000000
0.000000 0.011250 0.000000
0.000000 0.010000 0.000000
0.000000 0.008750 0.000000
0.000000 0.007500 0.000000
0.000000 0.006250 0.000000
0.000000 0.005000 0.000000
0.000000 0.003750 0.000000
0.000000 0.002500 0.000000
0.000000 0.001250 0.000000
0.000500 0.000000 0.000000
0.001000 0.000000 0.000000
0.001500 0.000000 0.000000
0.002000 0.000000 0.000000
0.002500 0.000000 0.000000
0.003000 0.000000 0.000000
0.003500 0.000000 0.000000
0.004000 0.000000 0.000000
0.004500 0.000000 0.000000
0.004500 0.100000 0.000000
0.004000 0.100000 0.000000
0.003500 0.100000 0.000000
0.003000 0.100000 0.000000
0.002500 0.100000 0.000000
0.002000 0.100000 0.000000
0.001500 0.100000 0.000000
0.001000 0.100000 0.000000
0.000500 0.100000 0.000000
0.000500 0.098750 0.000000
0.001000 0.098750 0.000000
0.001500 0.098750 0.000000
0.002000 0.098750 0.000000
0.002500 0.098750 0.000000
0.003000 0.098750 0.000000
0.003500 0.098750 0.000000
0.004000 0.098750 0.000000
0.004500 0.098750 0.000000
0.000500 0.097500 0.000000
0.001000 0.097500 0.000000
0.001500 0.097500 0.000000
0.002000 0.097500 0.000000
0.002500 0.097500 0.000000
0.003000 0.097500 0.000000
0.003500 0.097500 0.000000
0.004000 0.097500 0.000000
0.004500 0.097500 0.000000
0.000500 0.096250 0.000000
0.001000 0.096250 0.000000
0.001500 0.096250 0.000000
0.002000 0.096250 0.000000
0.002500 0.096250 0.000000
0.003000 0.096250 0.000000
0.003500 0.096250 0.000000
0.004000 0.096250 0.000000
0.004500 0.096250 0.000000
0.000500 0.095000 0.000000
0.001000 0.095000 0.000000
0.001500 0.095000 0.000000
0.002000 0.095000 0.000000
0.002500 0.095000 0.000000
0.003000 0.095000 0.000000
0.003500 0.095000 0.000000
0.004000 0.095000 0.000000
0.004500 0.095000 0.000000
0.000500 0.093750 0.000000
0.001000 0.093750 0.000000
0.001500 0.093750 0.000000
0.002000 0.093750 0.000000
0.002500 0.093750 0.000000
0.003000 0.093750 0.000000
0.003500 0.093750 0.000000
0.004000 0.093750 0.000000
0.004500 0.093750 0.000000
0.000500 0.092500 0.000000
0.001000 0.092500 0.000000
0.001500 0.092500 0.000000
0.002000 0.092500 0.000000
0.002500 0.092500 0.000000
0.003000 0.092500 0.000000
0.003500 0.092500 0.000000
0.004000 0.092500 0.000000
0.004500 0.092500 0.000000
0.000500 0.091250 0.000000
0.001000 0.091250 0.000000
0.001500 0.091250 0.000000
0.002000 0.091250 0.000000
0.002500 0.091250 0.000000
0.003000 0.091250 0.000000
0.003500 0.091250 0.000000
0.004000 0.091250 0.000000
0.004500 0.091250 0.000000
0.000500 0.090000 0.000000
0.001000 0.090000 0.000000
0.001500 0.090000 0.000000
0.002000 0.090000 0.000000
0.002500 0.090000 0.000000
0.003000 0.090000 0.000000
0.003500 0.090000 0.000000
0.004000 0.090000 0.000000
0.004500 0.090000 0.000000
0.000500 0.088750 0.000000
0.001000 0.088750 0.000000
0.001500 0.088750 0.000000
0.002000 0.088750 0.000000
0.002500 0.088750 0.000000
0.003000 0.088750 0.000000
0.003500 0.088750 0.000000
0.004000 0.088750 0.000000
0.004500 0.088750 0.000000
0.000500 0.087500 0.000000
0.001000 0.087500 0.000000
0.001500 0.087500 0.000000
0.002000 0.087500 0.000000
0.002500 0.087500 0.000000
0.003000 0.087500 0.000000
0.003500 0.087500 0.000000
0.004000 0.087500 0.000000
0.004500 0.087500 0.000000
0.000500 0.086250 0.000000
0.001000 0.086250 0.000000
0.001500 0.086250 0.000000
0.002000 0.086250 0.000000
0.002500 0.086250 0.000000
0.003000 0.086250 0.000000
0.003500 0.086250 0.000000
0.004000 0.086250 0.000000
0.004500 0.086250 0.000000
0.000500 0.085000 0.000000
0.001000 0.085000 0.000000
0.001500 0.085000 0.000000
0.002000 0.085000 0.000000
0.002500 0.085000 0.000000
0.003000 0.085000 0.000000
0.003500 0.085000 0.000000
0.004000 0.085000 0.000000
0.004500 0.085000 0.000000
0.000500 0.083750 0.000000
0.001000 0.083750 0.000000
0.001500 0.083750 0.000000
0.002000 0.083750 0.000000
0.002500 0.083750 0.000000
0.003000 0.083750 0.000000
0.003500 0.083750 0.000000
0.004000 0.083750 0.000000
0.004500 0.083750 0.000000
0.000500 0.082500 0.000000
0.001000 0.082500 0.000000
0.001500 0.082500 0.000000
0.002000 0.082500 0.000000
0.002500 0.082500 0.000000
0.003000 0.082500 0.000000
0.003500 0.082500 0.000000
0.004000 0.082500 0.000000
0.004500 0.082500 0.000000
0.000500 0.081250 0.000000
0.001000 0.081250 0.000000
0.001500 0.081250 0.000000
0.002000 0.081250 0.000000
0.002500 0.081250 0.000000
0.003000 0.081250 0.000000
0.003500 0.081250 0.000000
0.004000 0.081250 0.000000
0.004500 0.081250 0.000000
0.000500 0.080000 0.000000
0.001000 0.080000 0.000000
0.001500 0.080000 0.000000
0.002000 0.080000 0.000000
0.002500 0.080000 0.000000
0.003000 0.080000 0.000000
0.003500 0.080000 0.000000
0.004000 0.080000 0.000000
0.004500 0.080000 0.000000
0.000500 0.078750 0.000000
0.001000 0.078750 0.000000
0.001500 0.078750 0.000000
0.002000 0.078750 0.000000
0.002500 0.078750 0.000000
0.003000 0.078750 0.000000
0.003500 0.078750 0.000000
0.004000 0.078750 0.000000
0.004500 0.078750 0.000000
0.000500 0.077500 0.000000
0.001000 0.077500 0.000000
0.001500 0.077500 0.000000
0.002000 0.077500 0.000000
0.002500 0.077500 0.000000
0.003000 0.077500 0.000000
0.003500 0.077500 0.000000
0.004000 0.077500 0.000000
0.004500 0.077500 0.000000
0.000500 0.076250 0.000000
0.001000 0.076250 0.000000
0.001500 0.076250 0.000000
0.002000 0.076250 0.000000
0.002500 0.076250 0.000000
0.003000 0.076250 0.000000
0.003500 0.076250 0.000000
0.004000 0.076250 0.000000
0.004500 0.076250 0.000000
0.000500 0.075000 0.000000
0.001000 0.075000 0.000000
0.001500 0.075000 0.000000
0.002000 0.075000 0.000000
0.002500 0.075000 0.000000
0.003000 0.075000 0.000000
0.003500 0.075000 0.000000
0.004000 0.075000 0.000000
0.004500 0.075000 0.000000
0.000500 0.073750 0.000000
0.001000 0.073750 0.000000
0.001500 0.073750 0.000000
0.002000 0.073750 0.000000
0.002500 0.073750 0.000000
0.003000 0.073750 0.000000
0.003500 0.073750 0.000000
0.004000 0.073750 0.000000
0.004500 0.073750 0.000000
0.000500 0.072500 0.000000
0.001000 0.072500 0.000000
0.001500 0.072500 0.000000
0.002000 0.072500 0.000000
0.002500 0.072500 0.000000
0.003000 0.072500 0.000000
0.003500 0.072500 0.000000
0.004000 0.072500 0.000000
0.004500 0.072500 0.000000
0.000500 0.071250 0.000000
0.001000 0.071250 0.000000
0.001500 0.071250 0.000000
0.002000 0.071250 0.000000
0.002500 0.071250 0.000000
0.003000 0.071250 0.000000
0.003500 0.071250 0.000000
0.004000 0.071250 0.000000
0.004500 0.071250 0.000000
0.000500 0.070000 0.000000
0.001000 0.070000 0.000000
0.001500 0.070000 0.000000
0.002000 0.070000 0.000000
0.002500 0.070000 0.000000
0.003000 0.070000 0.000000
0.003500 0.070000 0.000000
0.004000 0.070000 0.000000
0.004500 0.070000 0.000000
0.000500 0.068750 0.000000
0.001000 0.068750 0.000000
0.001500 0.068750 0.000000
0.002000 0.068750 0.000000
0.002500 0.068750 0.000000
0.003000 0.068750 0.000000
0.003500 0.068750 0.000000
0.004000 0.068750 0.000000
0.004500 0.068750 0.000000
0.000500 0.067500 0.000000
0.001000 0.067500 0.000000
0.001500 0.067500 0.000000
0.002000 0.067500 0.000000
0.002500 0.067500 0.000000
0.003000 0.067500 0.000000
0.003500 0.067500 0.000000
0.004000 0.067500 0.000000
0.004500 0.067500 0.000000
0.000500 0.066250 0.000000
0.001000 0.066250 0.000000
0.001500 0.066250 0.000000
0.002000 0.066250 0.000000
0.002500 0.066250 0.000000
0.003000 0.066250 0.000000
0.003500 0.066250 0.000000
0.004000 0.066250 0.000000
0.004500 0.066250 0.000000
0.000500 0.065000 0.000000
0.001000 0.065000 0.000000
0.001500 0.065000 0.000000
0.002000 0.065000 0.000000
0.002500 0.065000 0.000000
0.003000 0.065000 0.000000
0.003500 0.065000 0.000000
0.004000 0.065000 0.000000
0.004500 0.065000 0.000000
0.000500 0.063750 0.000000
0.001000 0.063750 0.000000
0.001500 0.063750 0.000000
0.002000 0.063750 0.000000
0.002500 0.063750 0.000000
0.003000 0.063750 0.000000
0.003500 0.063750 0.000000
0.004000 0.063750 0.000000
0.004500 0.063750 0.000000
0.000500 0.062500 0.000000
0.001000 0.062500 0.000000
0.001500 0.062500 0.000000
0.002000 0.062500 0.000000
0.002500 0.062500 0.000000
0.003000 0.062500 0.000000
0.003500 0.062500 0.000000
0.004000 0.062500 0.000000
0.004500 0.062500 0.000000
0.000500 0.061250 0.000000
0.001000 0.061250 0.000000
0.001500 0.061250 0.000000
0.002000 0.061250 0.000000
0.002500 0.061250 0.000000
0.003000 0.061250 0.000000
0.003500 0.061250 0.000000
0.004000 0.061250 0.000000
0.004500 0.061250 0.000000
0.000500 0.060000 0.000000
0.001000 0.060000 0.000000
0.001500 0.060000 0.000000
0.002000 0.060000 0.000000
0.002500 0.060000 0.000000
0.003000 0.060000 0.000000
0.003500 0.060000 0.000000
0.004000 0.060000 0.000000
0.004500 0.060000 0.000000
0.000500 0.058750 0.000000
0.001000 0.058750 0.000000
0.001500 0.058750 0.000000
0.002000 0.058750 0.000000
0.002500 0.058750 0.000000
0.003000 0.058750 0.000000
0.003500 0.058750 0.000000
0.004000 0.058750 0.000000
0.004500 0.058750 0.000000
0.000500 0.057500 0.000000
0.001000 0.057500 0.000000
0.001500 0.057500 0.000000
0.002000 0.057500 0.000000
0.002500 0.057500 0.000000
0.003000 0.057500 0.000000
0.003500 0.057500 0.000000
0.004000 0.057500 0.000000
0.004500 0.057500 0.000000
0.000500 0.056250 0.000000
0.001000 0.056250 0.000000
0.001500 0.056250 0.000000
0.002000 0.056250 0.000000
0.002500 0.056250 0.000000
0.003000 0.056250 0.000000
0.003500 0.056250 0.000000
0.004000 0.056250 0.000000
0.004500 0.056250 0.000000
0.000500 0.055000 0.000000
0.001000 0.055000 0.000000
0.001500 0.055000 0.000000
0.002000 0.055000 0.000000
0.002500 0.055000 0.000000
0.003000 0.055000 0.000000
0.003500 0.055000 0.000000
0.004000 0.055000 0.000000
0.004500 0.055000 0.000000
0.000500 0.053750 0.000000
0.001000 0.053750 0.000000
0.001500 0.053750 0.000000
0.002000 0.053750 0.000000
0.002500 0.053750 0.000000
0.003000 0.053750 0.000000
0.003500 0.053750 0.000000
0.004000 0.053750 0.000000
0.004500 0.053750 0.000000
0.000500 0.052500 0.000000
0.001000 0.052500 0.000000
0.001500 0.052500 0.000000
0.002000 0.052500 0.000000
0.002500 0.052500 0.000000
0.003000 0.052500 0.000000
0.003500 0.052500 0.000000
0.004000 0.052500 0.000000
0.004500 0.052500 0.000000
0.000500 0.051250 0.000000
0.001000 0.051250 0.000000
0.001500 0.051250 0.000000
0.002000 0.051250 0.000000
0.002500 0.051250 0.000000
0.003000 0.051250 0.000000
0.003500 0.051250 0.000000
0.004000 0.051250 0.000000
0.004500 0.051250 0.000000
0.000500 0.050000 0.000000
0.001000 0.050000 0.000000
0.001500 0.050000 0.000000
0.002000 0.050000 0.000000
0.002500 0.050000 0.000000
0.003000 0.050000 0.000000
0.003500 0.050000 0.000000
0.004000 0.050000 0.000000
0.004500 0.050000 0.000000
0.000500 0.048750 0.000000
0.001000 0.048750 0.000000
0.001500 0.048750 0.000000
0.002000 0.048750 0.000000
0.002500 0.048750 0.000000
0.003000 0.048750 0.000000
0.003500 0.048750 0.000000
0.004000 0.048750 0.000000
0.004500 0.048750 0.000000
0.000500 0.047500 0.000000
0.001000 0.047500 0.000000
0.001500 0.047500 0.000000
0.002000 0.047500 0.000000
0.002500 0.047500 0.000000
0.003000 0.047500 0.000000
0.003500 0.047500 0.000000
0.004000 0.047500 0.000000
0.004500 0.047500 0.000000
0.000500 0.046250 0.000000
0.001000 0.046250 0.000000
0.001500 0.046250 0.000000
0.002000 0.046250 0.000000
0.002500 0.046250 0.000000
0.003000 0.046250 0.000000
0.003500 0.046250 0.000000
0.004000 0.046250 0.000000
0.004500 0.046250 0.000000
0.000500 0.045000 0.000000
0.001000 0.045000 0.000000
0.001500 0.045000 0.000000
0.002000 0.045000 0.000000
0.002500 0.045000 0.000000
0.003000 0.045000 0.000000
0.003500 0.045000 0.000000
0.004000 0.045000 0.000000
0.004500 0.045000 0.000000
0.000500 0.043750 0.000000
0.001000 0.043750 0.000000
0.001500 0.043750 0.000000
0.002000 0.043750 0.000000
0.002500 0.043750 0.000000
0.003000 0.043750 0.000000
0.003500 0.043750 0.000000
0.004000 0.043750 0.000000
0.004500 0.043750 0.000000
0.000500 0.042500 0.000000
0.001000 0.042500 0.000000
0.001500 0.042500 0.000000
0.002000 0.042500 0.000000
0.002500 0.042500 0.000000
0.003000 0.042500 0.000000
0.003500 0.042500 0.000000
0.004000 0.042500 0.000000
0.004500 0.042500 0.000000
0.000500 0.041250 0.000000
0.001000 0.041250 0.000000
0.001500 0.041250 0.000000
0.002000 0.041250 0.000000
0.002500 0.041250 0.000000
0.003000 0.041250 0.000000
0.003500 0.041250 0.000000
0.004000 0.041250 0.000000
0.004500 0.041250 0.000000
0.000500 0.040000 0.000000
0.001000 0.040000 0.000000
0.001500 0.040000 0.000000
0.002000 0.040000 0.000000
0.002500 0.040000 0.000000
0.003000 0.040000 0.000000
0.003500 0.040000 0.000000
0.004000 0.040000 0.000000
0.004500 0.040000 0.000000
0.000500 0.038750 0.000000
0.001000 0.038750 0.000000
0.001500 0.038750 0.000000
0.002000 0.038750 0.000000
0.002500 0.038750 0.000000
0.003000 0.038750 0.000000
0.003500 0.038750 0.000000
0.004000 0.038750 0.000000
0.004500 0.038750 0.000000
0.000500 0.037500 0.000000
0.001000 0.037500 0.000000
0.001500 0.037500 0.000000
0.002000 0.037500 0.000000
0.002500 0.037500 0.000000
0.003000 0.037500 0.000000
0.003500 0.037500 0.000000
0.004000 0.037500 0.000000
0.004500 0.037500 0.000000
0.000500 0.036250 0.000000
0.001000 0.036250 0.000000
0.001500 0.036250 0.000000
0.002000 0.036250 0.000000
0.002500 0.036250 0.000000
0.003000 0.036250 0.000000
0.003500 0.036250 0.000000
0.004000 0.036250 0.000000
0.004500 0.036250 0.000000
0.000500 0.035000 0.000000
0.001000 0.035000 0.000000
0.001500 0.035000 0.000000
0.002000 0.035000 0.000000
0.002500 0.035000 0.000000
0.003000 0.035000 0.000000
0.003500 0.035000 0.000000
0.004000 0.035000 0.000000
0.004500 0.035000 0.000000
0.000500 0.033750 0.000000
0.001000 0.033750 0.000000
0.001500 0.033750 0.000000
0.002000 0.033750 0.000000
0.002500 0.033750 0.000000
0.003000 0.033750 0.000000
0.003500 0.033750 0.000000
0.004000 0.033750 0.000000
0.004500 0.033750 0.000000
0.000500 0.032500 0.000000
0.001000 0.032500 0.000000
0.001500 0.032500 0.000000
0.002000 0.032500 0.000000
0.002500 0.032500 0.000000
0.003000 0.032500 0.000000
0.003500 0.032500 0.000000
0.004000 0.032500 0.000000
0.004500 0.032500 0.000000
0.000500 0.031250 0.000000
0.001000 0.031250 0.000000
0.001500 0.031250 0.000000
0.002000 0.031250 0.000000
0.002500 0.031250 0.000000
0.003000 0.031250 0.000000
0.003500 0.031250 0.000000
0.004000 0.031250 0.000000
0.004500 0.031250 0.000000
0.000500 0.030000 0.000000
0.001000 0.030000 0.000000
0.001500 0.030000 0.000000
0.002000 0.030000 0.000000
0.002500 0.030000 0.000000
0.003000 0.030000 0.000000
0.003500 0.030000 0.000000
0.004000 0.030000 0.000000
0.004500 0.030000 0.000000
0.000500 0.028750 0.000000
0.001000 0.028750 0.000000
0.001500 0.028750 0.000000
0.002000 0.028750 0.000000
0.002500 0.028750 0.000000
0.003000 0.028750 0.000000
0.003500 0.028750 0.000000
0.004000 0.028750 0.000000
0.004500 0.028750 0.000000
0.000500 0.027500 0.000000
0.001000 0.027500 0.000000
0.001500 0.027500 0.000000
0.002000 0.027500 0.000000
0.002500 0.027500 0.000000
0.003000 0.027500 0.000000
0.003500 0.027500 0.000000
0.004000 0.027500 0.000000
0.004500 0.027500 0.000000
0.000500 0.026250 0.000000
0.001000 0.026250 0.000000
0.001500 0.026250 0.000000
0.002000 0.026250 0.000000
0.002500 0.026250 0.000000
0.003000 0.026250 0.000000
0.003500 0.026250 0.000000
0.004000 0.026250 0.000000
0.004500 0.026250 0.000000
0.000500 0.025000 0.000000
0.001000 0.025000 0.000000
0.001500 0.025000 0.000000
0.002000 0.025000 0.000000
0.002500 0.025000 0.000000
0.003000 0.025000 0.000000
0.003500 0.025000 0.000000
0.004000 0.025000 0.000000
0.004500 0.025000 0.000000
0.000500 0.023750 0.000000
0.001000 0.023750 0.000000
0.001500 0.023750 0.000000
0.002000 0.023750 0.000000
0.002500 0.023750 0.000000
0.003000 0.023750 0.000000
0.003500 0.023750 0.000000
0.004000 0.023750 0.000000
0.004500 0.023750 0.000000
0.000500 0.022500 0.000000
0.001000 0.022500 0.000000
0.001500 0.022500 0.000000
0.002000 0.022500 0.000000
0.002500 0.022500 0.000000
0.003000 0.022500 0.000000
0.003500 0.022500 0.000000
0.004000 0.022500 0.000000
0.004500 0.022500 0.000000
0.000500 0.021250 0.000000
0.001000 0.021250 0.000000
0.001500 0.021250 0.000000
0.002000 0.021250 0.000000
0.002500 0.021250 0.000000
0.003000 0.021250 0.000000
0.003500 0.021250 0.000000
0.004000 0.021250 0.000000
0.004500 0.021250 0.000000
0.000500 0.020000 0.000000
0.001000 0.020000 0.000000
0.001500 0.020000 0.000000
0.002000 0.020000 0.000000
0.002500 0.020000 0.000000
0.003000 0.020000 0.000000
0.003500 0.020000 0.000000
0.004000 0.020000 0.000000
0.004500 0.020000 0.000000
0.000500 0.018750 0.000000
0.001000 0.018750 0.000000
0.001500 0.018750 0.000000
0.002000 0.018750 0.000000
0.002500 0.018750 0.000000
0.003000 0.018750 0.000000
0.003500 0.018750 0.000000
0.004000 0.018750 0.000000
0.004500 0.018750 0.000000
0.000500 0.017500 0.000000
0.001000 0.017500 0.000000
0.001500 0.017500 0.000000
0.002000 0.017500 0.000000
0.002500 0.017500 0.000000
0.003000 0.017500 0.000000
0.003500 0.017500 0.000000
0.004000 0.017500 0.000000
0.004500 0.017500 0.000000
0.000500 0.016250 0.000000
0.001000 0.016250 0.000000
0.001500 0.016250 0.000000
0.002000 0.016250 0.000000
0.002500 0.016250 0.000000
0.003000 0.016250 0.000000
0.003500 0.016250 0.000000
0.004000 0.016250 0.000000
0.004500 0.016250 0.000000
0.000500 0.015000 0.000000
0.001000 0.015000 0.000000
0.001500 0.015000 0.000000
0.002000 0.015000 0.000000
0.002500 0.015000 0.000000
0.003000 0.015000 0.000000
0.003500 0.015000 0.000000
0.004000 0.015000 0.000000
0.004500 0.015000 0.000000
0.000500 0.013750 0.000000
0.001000 0.013750 0.000000
0.001500 0.013750 0.000000
0.002000 0.013750 0.000000
0.002500 0.013750 0.000000
0.003000 0.013750 0.000000
0.003500 0.013750 0.000000
0.004000 0.013750 0.000000
0.004500 0.013750 0.000000
0.000500 0.012500 0.000000
0.001000 0.012500 0.000000
0.001500 0.012500 0.000000
0.002000 0.012500 0.000000
0.002500 0.012500 0.000000
0.003000 0.012500 0.000000
0.003500 0.012500 0.000000
0.004000 0.012500 0.000000
0.004500 0.012500 0.000000
0.000500 0.011250 0.000000
0.001000 0.011250 0.000000
0.001500 0.011250 0.000000
0.002000 0.011250 0.000000
0.002500 0.011250 0.000000
0.003000 0.011250 0.000000
0.003500 0.011250 0.000000
0.004000 0.011250 0.000000
0.004500 0.011250 0.000000
0.000500 0.010000 0.000000
0.001000 0.010000 0.000000
0.001500 0.010000 0.000000
0.002000 0.010000 0.000000
0.002500 0.010000 0.000000
0.003000 0.010000 0.000000
0.003500 0.010000 0.000000
0.004000 0.010000 0.000000
0.004500 0.010000 0.000000
0.000500 0.008750 0.000000
0.001000 0.008750 0.000000
0.001500 0.008750 0.000000
0.002000 0.008750 0.000000
0.002500 0.008750 0.000000
0.003000 0.008750 0.000000
0.003500 0.008750 0.000000
0.004000 0.008750 0.000000
0.004500 0.008750 0.000000
0.000500 0.007500 0.000000
0.001000 0.007500 0.000000
0.001500 0.007500 0.000000
0.002000 0.007500 0.000000
0.002500 0.007500 0.000000
0.003000 0.007500 0.000000
0.003500 0.007500 0.000000
0.004000 0.007500 0.000000
0.004500 0.007500 0.000000
0.000500 0.006250 0.000000
0.001000 0.006250 0.000000
0.001500 0.006250 0.000000
0.002000 0.006250 0.000000
0.002500 0.006250 0.000000
0.003000 0.006250 0.000000
0.003500 0.006250 0.000000
0.004000 0.006250 0.000000
0.004500 0.006250 0.000000
0.000500 0.005000 0.000000
0.001000 0.005000 0.000000
0.001500 0.005000 0.000000
0.002000 0.005000 0.000000
0.002500 0.005000 0.000000
0.003000 0.005000 0.000000
0.003500 0.005000 0.000000
0.004000 0.005000 0.000000
0.004500 0.005000 0.000000
0.000500 0.003750 0.000000
0.001000 0.003750 0.000000
0.001500 0.003750 0.000000
0.002000 0.003750 0.000000
0.002500 0.003750 0.000000
0.003000 0.003750 0.000000
0.003500 0.003750 0.000000
0.004000 0.003750 0.000000
0.004500 0.003750 0.000000
0.000500 0.002500 0.000000
0.001000 0.002500 0.000000
0.001500 0.002500 0.000000
0.002000 0.002500 0.000000
0.002500 0.002500 0.000000
0.003000 0.002500 0.000000
0.003500 0.002500 0.000000
0.004000 0.002500 0.000000
0.004500 0.002500 0.000000
0.000500 0.001250 0.000000
0.001000 0.001250 0.000000
0.001500 0.001250 0.000000
0.002000 0.001250 0.000000
0.002500 0.001250 0.000000
0.003000 0.001250 0.000000
0.003500 0.001250 0.000000
0.004000 0.001250 0.000000
0.004500 0.001250 0.000000
CELLS 800 4000
4 82 83 180 179
4 179 180 181 178
4 178 181 182 177
4 177 182 183 176
4 176 183 184 175
4 175 184 185 174
4 174 185 186 173
4 173 186 187 172
4 172 187 188 171
4 171 188 80 0
4 83 84 189 180
4 180 189 190 181
4 181 190 191 182
4 182 191 192 183
4 183 192 193 184
4 184 193 194 185
4 185 194 195 186
4 186 195 196 187
4 187 196 197 188
4 188 197 79 80
4 84 85 198 189
4 189 198 199 190
4 190 199 200 191
4 191 200 201 192
4 192 201 202 193
4 193 202 203 194
4 194 203 204 195
4 195 204 205 196
4 196 205 206 197
4 197 206 78 79
4 85 86 207 198
4 198 207 208 199
4 199 208 209 200
4 200 209 210 201
4 201 210 211 202
4 202 211 212 203
4 203 212 213 204
4 204 213 214 205
4 205 214 215 206
4 206 215 77 78
4 86 87 216 207
4 207 216 217 208
4 208 217 218 209
4 209 218 219 210
4 210 219 220 211
4 211 220 221 212
4 212 221 222 213
4 213 222 223 214
4 214 223 224 215
4 215 224 76 77
4 87 88 225 216
4 216 225 226 217
4 217 226 227 218
4 218 227 228 219
4 219 228 229 220
4 220 229 230 221
4 221 230 231 222
4 222 231 232 223
4 223 232 233 224
4 224 233 75 76
4 88 89 234 225
4 225 234 235 226
4 226 235 236 227
4 227 236 237 228
4 228 237 238 229
4 229 238 239 230
4 230 239 240 231
4 231 240 241 232
4 232 241 242 233
4 233 242 74 75
4 89 90 243 234
4 234 243 244 235
4 235 244 245 236
4 236 245 246 237
4 237 246 247 238
4 238 247 248 239
4 239 248 249 240
4 240 249 250 241
4 241 250 251 242
4 242 251 73 74
4 90 91 252 243
4 243 252 253 244
4 244 253 254 245
4 245 254 255 246
4 246 255 256 247
4 247 256 257 248
4 248 257 258 249
4 249 258 259 250
4 250 259 260 251
4 251 260 72 73
4 91 92 261 252
4 252 261 262 253
4 253 262 263 254
4 254 263 264 255
4 255 264 265 256
4 256 265 266 257
4 257 266 267 258
4 258 267 268 259
4 259 268 269 260
4 260 269 71 72
4 92 93 270 261
4 261 270 271 262
4 262 271 272 263
4 263 272 273 264
4 264 273 274 265
4 265 274 275 266
4 266 275 276 267
4 267 276 277 268
4 268 277 278 269
4 269 278 70 71
4 93 94 279 270
4 270 279 280 271
4 271 280 281 272
4 272 281 282 273
4 273 282 283 274
4 274 283 284 275
4 275 284 285 276
4 276 285 286 277
4 277 286 287 278
4 278 287 69 70
4 94 95 288 279
4 279 288 289 280
4 280 289 290 281
4 281 290 291 282
4 282 291 292 283
4 283 292 293 284
4 284 293 294 285
4 285 294 295 286
4 286 295 296 287
4 287 296 68 69
4 95 96 297 288
4 288 297 298 289
4 289 298 299 290
4 290 299 300 291
4 291 300 301 292
4 292 301 302 293
4 293 302 303 294
4 294 303 304 295
4 295 304 305 296
4 296 305 67 68
4 96 97 306 297
4 297 306 307 298
4 298 307 308 299
4 299 308 309 300
4 300 309 310 301
4 301 310 311 302
4 302 311 312 303
4 303 312 313 304
4 304 313 314 305
4 305 314 66 67
4 97 98 315 306
4 306 315 316 307
4 307 316 317 308
4 308 317 318 309
4 309 318 319 310
4 310 319 320 311
4 311 320 321 312
4 312 321 322 313
4 313 322 323 314
4 314 323 65 66
4 98 99 324 315
4 315 324 325 316
4 316 325 326 317
4 317 326 327 318
4 318 327 328 319
4 319 328 329 320
4 320 329 330 321
4 321 330 331 322
4 322 331 332 323
4 323 332 64 65
4 99 100 333 324
4 324 333 334 325
4 325 334 335 326
4 326 335 336 327
4 327 336 337 328
4 328 337 338 329
4 329 338 339 330
4 330 339 340 331
4 331 340 341 332
4 332 341 63 64
4 100 101 342 333
4 333 342 343 334
4 334 343 344 335
4 335 344 345 336
4 336 345 346 337
4 337 346 347 338
4 338 347 348 339
4 339 348 349 340
4 340 349 350 341
4 341 350 62 63
4 101 102 351 342
4 342 351 352 343
4 343 352 353 344
4 344 353 354 345
4 345 354 355 346
4 346 355 356 347
4 347 356 357 348
4 348 357 358 349
4 349 358 359 350
4 350 359 61 62
4 102 103 360 351
4 351 360 361 352
4 352 361 362 353
4 353 362 363 354
4 354 363 364 355
4 355 364 365 356
4 356 365 366 357
4 357 366 367 358
4 358 367 368 359
4 359 368 60 61
4 103 104 369 360
4 360 369 370 361
4 361 370 371 362
4 362 371 372 363
4 363 372 373 364
4 364 373 374 365
4 365 374 375 366
4 366 375 376 367
4 367 376 377 368
4 368 377 59 60
4 104 105 378 369
4 369 378 379 370
4 370 379 380 371
4 371 380 381 372
4 372 381 382 373
4 373 382 383 374
4 374 383 384 375
4 375 384 385 376
4 376 385 386 377
4 377 386 58 59
4 105 106 387 378
4 378 387 388 379
4 379 388 389 380
4 380 389 390 381
4 381 390 391 382
4 382 391 392 383
4 383 392 393 384
4 384 393 394 385
4 385 394 395 386
4 386 395 57 58
4 106 107 396 387
4 387 396 397 388
4 388 397 398 389
4 389 398 399 390
4 390 399 400 391
4 391 400 401 392
4 392 401 402 393
4 393 402 403 394
4 394 403 404 395
4 395 404 56 57
4 107 108 405 396
4 396 405 406 397
4 397 406 407 398
4 398 407 408 399
4 399 408 409 400
4 400 409 410 401
4 401 410 411 402
4 402 411 412 403
4 403 412 413 404
4 404 413 55 56
4 108 109 414 405
4 405 414 415 406
4 406 415 416 407
4 407 416 417 408
4 408 417 418 409
4 409 418 419 410
4 410 419 420 411
4 411 420 421 412
4 412 421 422 413
4 413 422 54 55
4 109 110 423 414
4 414 423 424 415
4 415 424 425 416
4 416 425 426 417
4 417 426 427 418
4 418 427 428 419
4 419 428 429 420
4 420 429 430 421
4 421 430 431 422
4 422 431 53 54
4 110 111 432 423
4 423 432 433 424
4 424 433 434 425
4 425 434 435 426
4 426 435 436 427
4 427 436 437 428
4 428 437 438 429
4 429 438 439 430
4 430 439 440 431
4 431 440 52 53
4 111 112 441 432
4 432 441 442 433
4 433 442 443 434
4 434 443 444 435
4 435 444 445 436
4 436 445 446 437
4 437 446 447 438
4 438 447 448 439
4 439 448 449 440
4 440 449 51 52
4 112 113 450 441
4 441 450 451 442
4 442 451 452 443
4 443 452 453 444
4 444 453 454 445
4 445 454 455 446
4 446 455 456 447
4 447 456 457 448
4 448 457 458 449
4 449 458 50 51
4 113 114 459 450
4 450 459 460 451
4 451 460 461 452
4 452 461 462 453
4 453 462 463 454
4 454 463 464 455
4 455 464 465 456
4 456 465 466 457
4 457 466 467 458
4 458 467 49 50
4 114 115 468 459
4 459 468 469 460
4 460 469 470 461
4 461 470 471 462
4 462 471 472 463
4 463 472 473 464
4 464 473 474 465
4 465 474 475 466
4 466 475 476 467
4 467 476 48 49
4 115 116 477 468
4 468 477 478 469
4 469 478 479 470
4 470 479 480 471
4 471 480 481 472
4 472 481 482 473
4 473 482 483 474
4 474 483 484 475
4 475 484 485 476
4 476 485 47 48
4 116 117 486 477
4 477 486 487 478
4 478 487 488 479
4 479 488 489 480
4 480 489 490 481
4 481 490 491 482
4 482 491 492 483
4 483 492 493 484
4 484 493 494 485
4 485 494 46 47
4 117 118 495 486
4 486 495 496 487
4 487 496 497 488
4 488 497 498 489
4 489 498 499 490
4 490 499 500 491
4 491 500 501 492
4 492 501 502 493
4 493 502 503 494
4 494 503 45 46
4 118 119 504 495
4 495 504 505 496
4 496 505 506 497
4 497 506 507 498
4 498 507 508 499
4 499 508 509 500
4 500 509 510 501
4 501 510 511 502
4 502 511 512 503
4 503 512 44 45
4 119 120 513 504
4 504 513 514 505
4 505 514 515 506
4 506 515 516 507
4 507 516 517 508
4 508 517 518 509
4 509 518 519 510
4 510 519 520 511
4 511 520 521 512
4 512 521 43 44
4 120 121 522 513
4 513 522 523 514
4 514 523 524 515
4 515 524 525 516
4 516 525 526 517
4 517 526 527 518
4 518 527 528 519
4 519 528 529 520
4 520 529 530 521
4 521 530 42 43
4 121 122 531 522
4 522 531 532 523
4 523 532 533 524
4 524 533 534 525
4 525 534 535 526
4 526 535 536 527
4 527 536 537 528
4 528 537 538 529
4 529 538 539 530
4 530 539 41 42
4 122 123 540 531
4 531 540 541 532
4 532 541 542 533
4 533 542 543 534
4 534 543 544 535
4 535 544 545 536
4 536 545 546 537
4 537 546 547 538
4 538 547 548 539
4 539 548 40 41
4 123 124 549 540
4 540 549 550 541
4 541 550 551 542
4 542 551 552 543
4 543 552 553 544
4 544 553 554 545
4 545 554 555 546
4 546 555 556 547
4 547 556 557 548
4 548 557 39 40
4 124 125 558 549
4 549 558 559 550
4 550 559 560 551
4 551 560 561 552
4 552 561 562 553
4 553 562 563 554
4 554 563 564 555
4 555 564 565 556
4 556 565 566 557
4 557 566 38 39
4 125 126 567 558
4 558 567 568 559
4 559 568 569 560
4 560 569 570 561
4 561 570 571 562
4 562 571 572 563
4 563 572 573 564
4 564 573 574 565
4 565 574 575 566
4 566 575 37 38
4 126 127 576 567
4 567 576 577 568
4 568 577 578 569
4 569 578 579 570
4 570 579 580 571
4 571 580 581 572
4 572 581 582 573
4 573 582 583 574
4 574 583 584 575
4 575 584 36 37
4 127 128 585 576
4 576 585 586 577
4 577 586 587 578
4 578 587 588 579
4 579 588 589 580
4 580 589 590 581
4 581 590 591 582
4 582 591 592 583
4 583 592 593 584
4 584 593 35 36
4 128 129 594 585
4 585 594 595 586
4 586 595 596 587
4 587 596 597 588
4 588 597 598 589
4 589 598 599 590
4 590 599 600 591
4 591 600 601 592
4 592 601 602 593
4 593 602 34 35
4 129 130 603 594
4 594 603 604 595
4 595 604 605 596
4 596 605 606 597
4 597 606 607 598
4 598 607 608 599
4 599 608 609 600
4 600 609 610 601
4 601 610 611 602
4 602 611 33 34
4 130 131 612 603
4 603 612 613 604
4 604 613 614 605
4 605 614 615 606
4 606 615 616 607
4 607 616 617 608
4 608 617 618 609
4 609 618 619 610
4 610 619 620 611
4 611 620 32 33
4 131 132 621 612
4 612 621 622 613
4 613 622 623 614
4 614 623 624 615
4 615 624 625 616
4 616 625 626 617
4 617 626 627 618
4 618 627 628 619
4 619 628 629 620
4 620 629 31 32
4 132 133 630 621
4 621 630 631 622
4 622 631 632 623
4 623 632 633 624
4 624 633 634 625
4 625 634 635 626
4 626 635 636 627
4 627 636 637 628
4 628 637 638 629
4 629 638 30 31
4 133 134 639 630
4 630 639 640 631
4 631 640 641 632
4 632 641 642 633
4 633 642 643 634
4 634 643 644 635
4 635 644 645 636
4 636 645 646 637
4 637 646 647 638
4 638 647 29 30
4 134 135 648 639
4 639 648 649 640
4 640 649 650 641
4 641 650 651 642
4 642 651 652 643
4 643 652 653 644
4 644 653 654 645
4 645 654 655 646
4 646 655 656 647
4 647 656 28 29
4 135 136 657 648
4 648 657 658 649
4 649 658 659 650
4 650 659 660 651
4 651 660 661 652
4 652 661 662 653
4 653 662 663 654
4 654 663 664 655
4 655 664 665 656
4 656 665 27 28
4 136 137 666 657
4 657 666 667 658
4 658 667 668 659
4 659 668 669 660
4 660 669 670 661
4 661 670 671 662
4 662 671 672 663
4 663 672 673 664
4 664 673 674 665
4 665 674 26 27
4 137 138 675 666
4 666 675 676 667
4 667 676 677 668
4 668 677 678 669
4 669 678 679 670
4 670 679 680 671
4 671 680 681 672
4 672 681 682 673
4 673 682 683 674
4 674 683 25 26
4 138 139 684 675
4 675 684 685 676
4 676 685 686 677
4 677 686 687 678
4 678 687 688 679
4 679 688 689 680
4 680 689 690 681
4 681 690 691 682
4 682 691 692 683
4 683 692 24 25
4 139 140 693 684
4 684 693 694 685
4 685 694 695 686
4 686 695 696 687
4 687 696 697 688
4 688 697 698 689
4 689 698 699 690
4 690 699 700 691
4 691 700 701 692
4 692 701 23 24
4 140 141 702 693
4 693 702 703 694
4 694 703 704 695
4 695 704 705 696
4 696 705 706 697
4 697 706 707 698
4 698 707 708 699
4 699 708 709 700
4 700 709 710 701
4 701 710 22 23
4 141 142 711 702
4 702 711 712 703
4 703 712 713 704
4 704 713 714 705
4 705 714 715 706
4 706 715 716 707
4 707 716 717 708
4 708 717 718 709
4 709 718 719 710
4 710 719 21 22
4 142 143 720 711
4 711 720 721 712
4 712 721 722 713
4 713 722 723 714
4 714 723 724 715
4 715 724 725 716
4 716 725 726 717
4 717 726 727 718
4 718 727 728 719
4 719 728 20 21
4 143 144 729 720
4 720 729 730 721
4 721 730 731 722
4 722 731 732 723
4 723 732 733 724
4 724 733 734 725
4 725 734 735 726
4 726 735 736 727
4 727 736 737 728
4 728 737 19 20
4 144 145 738 729
4 729 738 739 730
4 730 739 740 731
4 731 740 741 732
4 732 741 742 733
4 733 742 743 734
4 734 743 744 735
4 735 744 745 736
4 736 745 746 737
4 737 746 18 19
4 145 146 747 738
4 738 747 748 739
4 739 748 749 740
4 740 749 750 741
4 741 750 751 742
4 742 751 752 743
4 743 752 753 744
4 744 753 754 745
4 745 754 755 746
4 746 755 17 18
4 146 147 756 747
4 747 756 757 748
4 748 757 758 749
4 749 758 759 750
4 750 759 760 751
4 751 760 761 752
4 752 761 762 753
4 753 762 763 754
4 754 763 764 755
4 755 764 16 17
4 147 148 765 756
4 756 765 766 757
4 757 766 767 758
4 758 767 768 759
4 759 768 769 760
4 760 769 770 761
4 761 770 771 762
4 762 771 772 763
4 763 772 773 764
4 764 773 15 16
4 148 149 774 765
4 765 774 775 766
4 766 775 776 767
4 767 776 777 768
4 768 777 778 769
4 769 778 779 770
4 770 779 780 771
4 771 780 781 772
4 772 781 782 773
4 773 782 14 15
4 149 150 783 774
4 774 783 784 775
4 775 784 785 776
4 776 785 786 777
4 777 786 787 778
4 778 787 788 779
4 779 788 789 780
4 780 789 790 781
4 781 790 791 782
4 782 791 13 14
4 150 151 792 783
4 783 792 793 784
4 784 793 794 785
4 785 794 795 786
4 786 795 796 787
4 787 796 797 788
4 788 797 798 789
4 789 798 799 790
4 790 799 800 791
4 791 800 12 13
4 151 152 801 792
4 792 801 802 793
4 793 802 803 794
4 794 803 804 795
4 795 804 805 796
4 796 805 806 797
4 797 806 807 798
4 798 807 808 799
4 799 808 809 800
4 800 809 11 12
4 152 153 810 801
4 801 810 811 802
4 802 811 812 803
4 803 812 813 804
4 804 813 814 805
4 805 814 815 806
4 806 815 816 807
4 807 816 817 808
4 808 817 818 809
4 809 818 10 11
4 153 154 819 810
4 810 819 820 811
4 811 820 821 812
4 812 821 822 813
4 813 822 823 814
4 814 823 824 815
4 815 824 825 816
4 816 825 826 817
4 817 826 827 818
4 818 827 9 10
4 154 155 828 819
4 819 828 829 820
4 820 829 830 821
4 821 830 831 822
4 822 831 832 823
4 823 832 833 824
4 824 833 834 825
4 825 834 835 826
4 826 835 836 827
4 827 836 8 9
4 155 156 837 828
4 828 837 838 829
4 829 838 839 830
4 830 839 840 831
4 831 840 841 832
4 832 841 842 833
4 833 842 843 834
4 834 843 844 835
4 835 844 845 836
4 836 845 7 8
4 156 157 846 837
4 837 846 847 838
4 838 847 848 839
4 839 848 849 840
4 840 849 850 841
4 841 850 851 842
4 842 851 852 843
4 843 852 853 844
4 844 853 854 845
4 845 854 6 7
4 157 158 855 846
4 846 855 856 847
4 847 856 857 848
4 848 857 858 849
4 849 858 859 850
4 850 859 860 851
4 851 860 861 852
4 852 861 862 853
4 853 862 863 854
4 854 863 5 6
4 158 159 864 855
4 855 864 865 856
4 856 865 866 857
4 857 866 867 858
4 858 867 868 859
4 859 868 869 860
4 860 869 870 861
4 861 870 871 862
4 862 871 872 863
4 863 872 4 5
4 159 160 873 864
4 864 873 874 865
4 865 874 875 866
4 866 875 876 867
4 867 876 877 868
4 868 877 878 869
4 869 878 879 870
4 870 879 880 871
4 871 880 881 872
4 872 881 3 4
4 160 161 882 873
4 873 882 883 874
4 874 883 884 875
4 875 884 885 876
4 876 885 886 877
4 877 886 887 878
4 878 887 888 879
4 879 888 889 880
4 880 889 890 881
4 881 890 2 3
4 161 81 162 882
4 882 162 163 883
4 883 163 164 884
4 884 164 165 885
4 885 165 166 886
4 886 166 167 887
4 887 167 168 888
4 888 168 169 889
4 889 169 170 890
4 890 170 1 2
CELL_TYPES 800
9
9
9
9
9
9
9
9
9
9
9
9
9
9
9
9
9
9
9
9
9
9
9
9
9
9
9
9
9
9
9
9
9
9
9
9
9
9
9
9
9
9
9
9
9
9
9
9
9
9
9
9
9
9
9
9
9
9
9
9
9
9
9
9
9
9
9
9
9
9
9
9
9
9
9
9
9
9
9
9
9
9
9
9
9
9
9
9
9
9
9
9
9
9
9
9
9
9
9
9
9
9
9
9
9
9
9
9
9
9
9
9
9
9
9
9
9
9
9
9
9
9
9
9
9
9
9
9
9
9
9
9
9
9
9
9
9
9
9
9
9
9
9
9
9
9
9
9
9
9
9
9
9
9
9
9
9
9
9
9
9
9
9
9
9
9
9
9
9
9
9
9
9
9
9
9
9
9
9
9
9
9
9
9
9
9
9
9
9
9
9
9
9
9
9
9
9
9
9
9
9
9
9
9
9
9
9
9
9
9
9
9
9
9
9
9
9
9
9
9
9
9
9
9
9
9
9
9
9
9
9
9
9
9
9
9
9
9
9
9
9
9
9
9
9
9
9
9
9
9
9
9
9
9
9
9
9
9
9
9
9
9
9
9
9
9
9
9
9
9
9
9
9
9
9
9
9
9
9
9
9
9
9
9
9
9
9
9
9
9
9
9
9
9
9
9
9
9
9
9
9
9
9
9
9
9
9
9
9
9
9
9
9
9
9
9
9
9
9
9
9
9
9
9
9
9
9
9
9
9
9
9
9
9
9
9
9
9
9
9
9
9
9
9
9
9
9
9
9
9
9
9
9
9
9
9
9
9
9
9
9
9
9
9
9
9
9
9
9
9
9
9
9
9
9
9
9
9
9
9
9
9
9
9
9
9
9
9
9
9
9
9
9
9
9
9
9
9
9
9
9
9
9
9
9
9
9
9
9
9
9
9
9
9
9
9
9
9
9
9
9
9
9
9
9
9
9
9
9
9
9
9
9
9
9
9
9
9
9
9
9
9
9
9
9
9
9
9
9
9
9
9
9
9
9
9
9
9
9
9
9
9
9
9
9
9
9
9
9
9
9
9
9
9
9
9
9
9
9
9
9
9
9
9
9
9
9
9
9
9
9
9
9
9
9
9
9
9
9
9
9
9
9
9
9
9
9
9
9
9
9
9
9
9
9
9
9
9
9
9
9
9
9
9
9
9
9
9
9
9
9
9
9
9
9
9
9
9
9
9
9
9
9
9
9
9
9
9
9
9
9
9
9
9
9
9
9
9
9
9
9
9
9
9
9
9
9
9
9
9
9
9
9
9
9
9
9
9
9
9
9
9
9
9
9
9
9
9
9
9
9
9
9
9
9
9
9
9
9
9
9
9
9
9
9
9
9
9
9
9
9
9
9
9
9
9
9
9
9
9
9
9
9
9
9
9
9
9
9
9
9
9
9
9
9
9
9
9
9
9
9
9
9
9
9
9
9
9
9
9
9
9
9
9
9
9
9
9
9
9
9
9
9
9
9
9
9
9
9
9
9
9
9
9
9
9
9
9
9
9
9
9
9
9
9
9
9
9
9
9
9
9
9
9
9
9
9
9
9
9
9
9
9
9
9
9
9
9
9
9
9
9
9
9
9
9
9
9
9
9
9
9
9
9
9
9
9
9
9
9
9
9
9
9
9
9
9
9
9
9
9
9
9
9
9
9
9
9
9
9
9
9
9
9
9
9
9
9
9
9
9
9
9
9
9
9
9
9
9
9
9
9
9
9
9
9
9
9
9
9
9
9
9
9
9
9
9
9
9
9
9
9
9
9
9
9
9
9
9
9
POINT_DATA 891
SCALARS u1 float
LOOKUP_TABLE default
-1e-17
-1e-06
-1e-06
-1e-06
-1e-06
-1e-06
-1e-06
-1e-06
-1e-06
-1e-06
-1e-06
-1e-06
-1e-06
-1e-06
-1e-06
-1e-06
-1e-06
-1e-06
-1e-06
-1e-06
-1e-06
-1e-06
-1e-06
-1e-06
-1e-06
-1e-06
-1e-06
-1e-06
-1e-06
-1e-06
-1e-06
-1e-06
-1e-06
-1e-06
-1e-06
-1e-06
-1e-06
-1e-06
-1e-06
-1e-06
-1e-06
-1e-06
-1e-06
-1e-06
-1e-06
-1e-06
-1e-06
-1e-06
-1e-06
-1e-06
-1e-06
-1e-06
-1e-06
-1e-06
-1e-06
-1e-06
-1e-06
-1e-06
-1e-06
-1e-06
-1e-06
-1e-06
-1e-06
-1e-06
-1e-06
-1e-06
-1e-06
-1e-06
-1e-06
-1e-06
-1e-06
-1e-06
-1e-06
-1e-06
-1e-06
-1e-06
-1e-06
-1e-06
-1e-06
-1e-06
-9e-07
1e-06
-1e-17
9e-07
1e-06
1e-06
1e-06
1e-06
1e-06
1e-06
1e-06
1e-06
1e-06
1e-06
1e-06
1e-06
1e-06
1e-06
1e-06
1e-06
1e-06
1e-06
1e-06
1e-06
1e-06
1e-06
1e-06
1e-06
1e-06
1e-06
1e-06
1e-06
1e-06
1e-06
1e-06
1e-06
1e-06
1e-06
1e-06
1e-06
1e-06
1e-06
1e-06
1e-06
1e-06
1e-06
1e-06
1e-06
1e-06
1e-06
1e-06
1e-06
1e-06
1e-06
1e-06
1e-06
1e-06
1e-06
1e-06
1e-06
1e-06
1e-06
1e-06
1e-06
1e-06
1e-06
1e-06
1e-06
1e-06
1e-06
1e-06
1e-06
1e-06
1e-06
1e-06
1e-06
1e-06
1e-06
1e-06
1e-06
1e-06
1e-06
9e-07
7e-07
4e-07
2e-07
-5e-17
-2e-07
-4e-07
-7e-07
-9e-07
-6e-17
-6e-18
1e-16
9e-17
2e-17
-3e-18
-4e-17
-4e-17
5e-17
6e-07
4e-07
3e-07
1e-07
7e-15
-1e-07
-3e-07
-4e-07
-6e-07
9e-07
6e-07
4e-07
2e-07
-5e-15
-2e-07
-4e-07
-6e-07
-9e-07
9e-07
7e-07
5e-07
2e-07
-5e-15
-2e-07
-5e-07
-7e-07
-9e-07
9e-07
7e-07
4e-07
2e-07
-2e-15
-2e-07
-4e-07
-7e-07
-9e-07
9e-07
7e-07
4e-07
2e-07
-6e-16
-2e-07
-4e-07
-7e-07
-9e-07
9e-07
7e-07
4e-07
2e-07
9e-16
-2e-07
-4e-07
-7e-07
-9e-07
9e-07
7e-07
4e-07
2e-07
2e-15
-2e-07
-4e-07
-7e-07
-9e-07
9e-07
7e-07
4e-07
2e-07
2e-15
-2e-07
-4e-07
-7e-07
-9e-07
9e-07
7e-07
4e-07
2e-07
3e-15
-2e-07
-4e-07
-7e-07
-9e-07
9e-07
7e-07
4e-07
2e-07
3e-15
-2e-07
-4e-07
-7e-07
-9e-07
9e-07
7e-07
4e-07
2e-07
3e-15
-2e-07
-4e-07
-7e-07
-9e-07
9e-07
7e-07
4e-07
2e-07
3e-15
-2e-07
-4e-07
-7e-07
-9e-07
9e-07
7e-07
4e-07
2e-07
3e-15
-2e-07
-4e-07
-7e-07
-9e-07
9e-07
7e-07
4e-07
2e-07
3e-15
-2e-07
-4e-07
-7e-07
-9e-07
9e-07
7e-07
4e-07
2e-07
3e-15
-2e-07
-4e-07
-7e-07
-9e-07
9e-07
7e-07
4e-07
2e-07
3e-15
-2e-07
-4e-07
-7e-07
-9e-07
9e-07
7e-07
4e-07
2e-07
3e-15
-2e-07
-4e-07
-7e-07
-9e-07
9e-07
7e-07
4e-07
2e-07
2e-15
-2e-07
-4e-07
-7e-07
-9e-07
9e-07
7e-07
4e-07
2e-07
2e-15
-2e-07
-4e-07
-7e-07
-9e-07
9e-07
7e-07
4e-07
2e-07
2e-15
-2e-07
-4e-07
-7e-07
-9e-07
9e-07
7e-07
4e-07
2e-07
2e-15
-2e-07
-4e-07
-7e-07
-9e-07
9e-07
7e-07
4e-07
2e-07
2e-15
-2e-07
-4e-07
-7e-07
-9e-07
9e-07
7e-07
4e-07
2e-07
2e-15
-2e-07
-4e-07
-7e-07
-9e-07
9e-07
7e-07
4e-07
2e-07
1e-15
-2e-07
-4e-07
-7e-07
-9e-07
9e-07
7e-07
4e-07
2e-07
1e-15
-2e-07
-4e-07
-7e-07
-9e-07
9e-07
7e-07
4e-07
2e-07
1e-15
-2e-07
-4e-07
-7e-07
-9e-07
9e-07
7e-07
4e-07
2e-07
9e-16
-2e-07
-4e-07
-7e-07
-9e-07
9e-07
7e-07
4e-07
2e-07
8e-16
-2e-07
-4e-07
-7e-07
-9e-07
9e-07
7e-07
4e-07
2e-07
6e-16
-2e-07
-4e-07
-7e-07
-9e-07
9e-07
7e-07
4e-07
2e-07
5e-16
-2e-07
-4e-07
-7e-07
-9e-07
9e-07
7e-07
4e-07
2e-07
5e-16
-2e-07
-4e-07
-7e-07
-9e-07
9e-07
7e-07
4e-07
2e-07
4e-16
-2e-07
-4e-07
-7e-07
-9e-07
9e-07
7e-07
4e-07
2e-07
3e-16
-2e-07
-4e-07
-7e-07
-9e-07
9e-07
7e-07
4e-07
2e-07
2e-16
-2e-07
-4e-07
-7e-07
-9e-07
9e-07
7e-07
4e-07
2e-07
2e-16
-2e-07
-4e-07
-7e-07
-9e-07
9e-07
7e-07
4e-07
2e-07
2e-16
-2e-07
-4e-07
-7e-07
-9e-07
9e-07
7e-07
4e-07
2e-07
1e-16
-2e-07
-4e-07
-7e-07
-9e-07
9e-07
7e-07
4e-07
2e-07
8e-17
-2e-07
-4e-07
-7e-07
-9e-07
9e-07
7e-07
4e-07
2e-07
6e-17
-2e-07
-4e-07
-7e-07
-9e-07
9e-07
7e-07
4e-07
2e-07
4e-17
-2e-07
-4e-07
-7e-07
-9e-07
9e-07
7e-07
4e-07
2e-07
2e-17
-2e-07
-4e-07
-7e-07
-9e-07
9e-07
7e-07
4e-07
2e-07
6e-18
-2e-07
-4e-07
-7e-07
-9e-07
9e-07
7e-07
4e-07
2e-07
-5e-18
-2e-07
-4e-07
-7e-07
-9e-07
9e-07
7e-07
4e-07
2e-07
-1e-17
-2e-07
-4e-07
-7e-07
-9e-07
9e-07
7e-07
4e-07
2e-07
-2e-17
-2e-07
-4e-07
-7e-07
-9e-07
9e-07
7e-07
4e-07
2e-07
-3e-17
-2e-07
-4e-07
-7e-07
-9e-07
9e-07
7e-07
4e-07
2e-07
-3e-17
-2e-07
-4e-07
-7e-07
-9e-07
9e-07
7e-07
4e-07
2e-07
-4e-17
-2e-07
-4e-07
-7e-07
-9e-07
9e-07
7e-07
4e-07
2e-07
-4e-17
-2e-07
-4e-07
-7e-07
-9e-07
9e-07
7e-07
4e-07
2e-07
-4e-17
-2e-07
-4e-07
-7e-07
-9e-07
9e-07
7e-07
4e-07
2e-07
-5e-17
-2e-07
-4e-07
-7e-07
-9e-07
9e-07
7e-07
4e-07
2e-07
-5e-17
-2e-07
-4e-07
-7e-07
-9e-07
9e-07
7e-07
4e-07
2e-07
-5e-17
-2e-07
-4e-07
-7e-07
-9e-07
9e-07
7e-07
4e-07
2e-07
-5e-17
-2e-07
-4e-07
-7e-07
-9e-07
9e-07
7e-07
4e-07
2e-07
-5e-17
-2e-07
-4e-07
-7e-07
-9e-07
9e-07
7e-07
4e-07
2e-07
-5e-17
-2e-07
-4e-07
-7e-07
-9e-07
9e-07
7e-07
4e-07
2e-07
-5e-17
-2e-07
-4e-07
-7e-07
-9e-07
9e-07
7e-07
4e-07
2e-07
-5e-17
-2e-07
-4e-07
-7e-07
-9e-07
9e-07
7e-07
4e-07
2e-07
-5e-17
-2e-07
-4e-07
-7e-07
-9e-07
9e-07
7e-07
4e-07
2e-07
-5e-17
-2e-07
-4e-07
-7e-07
-9e-07
9e-07
7e-07
4e-07
2e-07
-5e-17
-2e-07
-4e-07
-7e-07
-9e-07
9e-07
7e-07
4e-07
2e-07
-5e-17
-2e-07
-4e-07
-7e-07
-9e-07
9e-07
7e-07
4e-07
2e-07
-5e-17
-2e-07
-4e-07
-7e-07
-9e-07
9e-07
7e-07
4e-07
2e-07
-5e-17
-2e-07
-4e-07
-7e-07
-9e-07
9e-07
7e-07
4e-07
2e-07
-5e-17
-2e-07
-4e-07
-7e-07
-9e-07
9e-07
7e-07
4e-07
2e-07
-5e-17
-2e-07
-4e-07
-7e-07
-9e-07
9e-07
7e-07
4e-07
2e-07
-5e-17
-2e-07
-4e-07
-7e-07
-9e-07
9e-07
7e-07
4e-07
2e-07
-5e-17
-2e-07
-4e-07
-7e-07
-9e-07
9e-07
7e-07
4e-07
2e-07
-5e-17
-2e-07
-4e-07
-7e-07
-9e-07
9e-07
7e-07
4e-07
2e-07
-5e-17
-2e-07
-4e-07
-7e-07
-9e-07
9e-07
7e-07
4e-07
2e-07
-5e-17
-2e-07
-4e-07
-7e-07
-9e-07
9e-07
7e-07
4e-07
2e-07
-5e-17
-2e-07
-4e-07
-7e-07
-9e-07
9e-07
7e-07
4e-07
2e-07
-5e-17
-2e-07
-4e-07
-7e-07
-9e-07
9e-07
7e-07
4e-07
2e-07
-5e-17
-2e-07
-4e-07
-7e-07
-9e-07
9e-07
7e-07
4e-07
2e-07
-5e-17
-2e-07
-4e-07
-7e-07
-9e-07
9e-07
7e-07
4e-07
2e-07
-5e-17
-2e-07
-4e-07
-7e-07
-9e-07
9e-07
7e-07
4e-07
2e-07
-5e-17
-2e-07
-4e-07
-7e-07
-9e-07
9e-07
7e-07
4e-07
2e-07
-5e-17
-2e-07
-4e-07
-7e-07
-9e-07
9e-07
7e-07
4e-07
2e-07
-5e-17
-2e-07
-4e-07
-7e-07
-9e-07
SCALARS u2 float
LOOKUP_TABLE default
8e-17
-0.0003
-0.0003
-0.0003
-0.0003
-0.0003
-0.0003
-0.0003
-0.0003
-0.0003
-0.0003
-0.0003
-0.0003
-0.0003
-0.0003
-0.0002
-0.0002
-0.0002
-0.0002
-0.0002
-0.0002
-0.0002
-0.0002
-0.0002
-0.0002
-0.0002
-0.0002
-0.0002
-0.0002
-0.0002
-0.0002
-0.0002
-0.0002
-0.0002
-0.0002
-0.0002
-0.0002
-0.0002
-0.0002
-0.0002
-0.0002
-0.0002
-0.0001
-0.0001
-0.0001
-0.0001
-0.0001
-0.0001
-0.0001
-0.0001
-0.0001
-0.0001
-0.0001
-0.0001
-0.0001
-0.0001
-9e-05
-9e-05
-9e-05
-8e-05
-8e-05
-8e-05
-7e-05
-7e-05
-6e-05
-6e-05
-6e-05
-5e-05
-5e-05
-5e-05
-4e-05
-4e-05
-3e-05
-3e-05
-3e-05
-2e-05
-2e-05
-2e-05
-1e-05
-8e-06
-4e-06
-0.0003
5e-17
-4e-06
-8e-06
-1e-05
-2e-05
-2e-05
-2e-05
-3e-05
-3e-05
-3e-05
-4e-05
-4e-05
-5e-05
-5e-05
-5e-05
-6e-05
-6e-05
-6e-05
-7e-05
-7e-05
-8e-05
-8e-05
-8e-05
-9e-05
-9e-05
-9e-05
-0.0001
-0.0001
-0.0001
-0.0001
-0.0001
-0.0001
-0.0001
-0.0001
-0.0001
-0.0001
-0.0001
-0.0001
-0.0001
-0.0001
-0.0002
-0.0002
-0.0002
-0.0002
-0.0002
-0.0002
-0.0002
-0.0002
-0.0002
-0.0002
-0.0002
-0.0002
-0.0002
-0.0002
-0.0002
-0.0002
-0.0002
-0.0002
-0.0002
-0.0002
-0.0002
-0.0002
-0.0002
-0.0002
-0.0002
-0.0002
-0.0002
-0.0003
-0.0003
-0.0003
-0.0003
-0.0003
-0.0003
-0.0003
-0.0003
-0.0003
-0.0003
-0.0003
-0.0003
-0.0003
-0.0003
-0.0003
-0.0003
-0.0003
-0.0003
-0.0003
-0.0003
-0.0003
-0.0003
-4e-17
2e-18
7e-17
1e-17
-1e-16
-1e-17
-6e-17
-4e-17
1e-16
-4e-06
-4e-06
-4e-06
-4e-06
-4e-06
-4e-06
-4e-06
-4e-06
-4e-06
-8e-06
-7e-06
-7e-06
-7e-06
-7e-06
-7e-06
-7e-06
-7e-06
-8e-06
-1e-05
-1e-05
-1e-05
-1e-05
-1e-05
-1e-05
-1e-05
-1e-05
-1e-05
-2e-05
-2e-05
-2e-05
-2e-05
-2e-05
-2e-05
-2e-05
-2e-05
-2e-05
-2e-05
-2e-05
-2e-05
-2e-05
-2e-05
-2e-05
-2e-05
-2e-05
-2e-05
-2e-05
-2e-05
-2e-05
-2e-05
-2e-05
-2e-05
-2e-05
-2e-05
-2e-05
-3e-05
-3e-05
-3e-05
-3e-05
-3e-05
-3e-05
-3e-05
-3e-05
-3e-05
-3e-05
-3e-05
-3e-05
-3e-05
-3e-05
-3e-05
-3e-05
-3e-05
-3e-05
-3e-05
-3e-05
-3e-05
-3e-05
-3e-05
-3e-05
-3e-05
-3e-05
-3e-05
-4e-05
-4e-05
-4e-05
-4e-05
-4e-05
-4e-05
-4e-05
-4e-05
-4e-05
-4e-05
-4e-05
-4e-05
-4e-05
-4e-05
-4e-05
-4e-05
-4e-05
-4e-05
-5e-05
-5e-05
-5e-05
-5e-05
-5e-05
-5e-05
-5e-05
-5e-05
-5e-05
-5e-05
-5e-05
-5e-05
-5e-05
-5e-05
-5e-05
-5e-05
-5e-05
-5e-05
-5e-05
-5e-05
-5e-05
-5e-05
-5e-05
-5e-05
-5e-05
-5e-05
-5e-05
-6e-05
-6e-05
-6e-05
-6e-05
-6e-05
-6e-05
-6e-05
-6e-05
-6e-05
-6e-05
-6e-05
-6e-05
-6e-05
-6e-05
-6e-05
-6e-05
-6e-05
-6e-05
-6e-05
-6e-05
-6e-05
-6e-05
-6e-05
-6e-05
-6e-05
-6e-05
-6e-05
-7e-05
-7e-05
-7e-05
-7e-05
-7e-05
-7e-05
-7e-05
-7e-05
-7e-05
-7e-05
-7e-05
-7e-05
-7e-05
-7e-05
-7e-05
-7e-05
-7e-05
-7e-05
-8e-05
-8e-05
-8e-05
-8e-05
-8e-05
-8e-05
-8e-05
-8e-05
-8e-05
-8e-05
-8e-05
-8e-05
-8e-05
-8e-05
-8e-05
-8e-05
-8e-05
-8e-05
-8e-05
-8e-05
-8e-05
-8e-05
-8e-05
-8e-05
-8e-05
-8e-05
-8e-05
-9e-05
-9e-05
-9e-05
-9e-05
-9e-05
-9e-05
-9e-05
-9e-05
-9e-05
-9e-05
-9e-05
-9e-05
-9e-05
-9e-05
-9e-05
-9e-05
-9e-05
-9e-05
-9e-05
-9e-05
-9e-05
-9e-05
-9e-05
-9e-05
-9e-05
-9e-05
-9e-05
-0.0001
-0.0001
-0.0001
-0.0001
-0.0001
-0.0001
-0.0001
-0.0001
-0.0001
-0.0001
-0.0001
-0.0001
-0.0001
-0.0001
-0.0001
-0.0001
-0.0001
-0.0001
-0.0001
-0.0001
-0.0001
-0.0001
-0.0001
-0.0001
-0.0001
-0.0001
-0.0001
-0.0001
-0.0001
-0.0001
-0.0001
-0.0001
-0.0001
-0.0001
-0.0001
-0.0001
-0.0001
-0.0001
-0.0001
-0.0001
-0.0001
-0.0001
-0.0001
-0.0001
-0.0001
-0.0001
-0.0001
-0.0001
-0.0001
-0.0001
-0.0001
-0.0001
-0.0001
-0.0001
-0.0001
-0.0001
-0.0001
-0.0001
-0.0001
-0.0001
-0.0001
-0.0001
-0.0001
-0.0001
-0.0001
-0.0001
-0.0001
-0.0001
-0.0001
-0.0001
-0.0001
-0.0001
-0.0001
-0.0001
-0.0001
-0.0001
-0.0001
-0.0001
-0.0001
-0.0001
-0.0001
-0.0001
-0.0001
-0.0001
-0.0001
-0.0001
-0.0001
-0.0001
-0.0001
-0.0001
-0.0001
-0.0001
-0.0001
-0.0001
-0.0001
-0.0001
-0.0001
-0.0001
-0.0001
-0.0001
-0.0001
-0.0001
-0.0001
-0.0001
-0.0001
-0.0001
-0.0001
-0.0001
-0.0001
-0.0001
-0.0001
-0.0001
-0.0001
-0.0001
-0.0001
-0.0001
-0.0001
-0.0001
-0.0001
-0.0001
-0.0001
-0.0001
-0.0001
-0.0001
-0.0001
-0.0001
-0.0002
-0.0002
-0.0002
-0.0002
-0.0002
-0.0002
-0.0002
-0.0002
-0.0002
-0.0002
-0.0002
-0.0002
-0.0002
-0.0002
-0.0002
-0.0002
-0.0002
-0.0002
-0.0002
-0.0002
-0.0002
-0.0002
-0.0002
-0.0002
-0.0002
-0.0002
-0.0002
-0.0002
-0.0002
-0.0002
-0.0002
-0.0002
-0.0002
-0.0002
-0.0002
-0.0002
-0.0002
-0.0002
-0.0002
-0.0002
-0.0002
-0.0002
-0.0002
-0.0002
-0.0002
-0.0002
-0.0002
-0.0002
-0.0002
-0.0002
-0.0002
-0.0002
-0.0002
-0.0002
-0.0002
-0.0002
-0.0002
-0.0002
-0.0002
-0.0002
-0.0002
-0.0002
-0.0002
-0.0002
-0.0002
-0.0002
-0.0002
-0.0002
-0.0002
-0.0002
-0.0002
-0.0002
-0.0002
-0.0002
-0.0002
-0.0002
-0.0002
-0.0002
-0.0002
-0.0002
-0.0002
-0.0002
-0.0002
-0.0002
-0.0002
-0.0002
-0.0002
-0.0002
-0.0002
-0.0002
-0.0002
-0.0002
-0.0002
-0.0002
-0.0002
-0.0002
-0.0002
-0.0002
-0.0002
-0.0002
-0.0002
-0.0002
-0.0002
-0.0002
-0.0002
-0.0002
-0.0002
-0.0002
-0.0002
-0.0002
-0.0002
-0.0002
-0.0002
-0.0002
-0.0002
-0.0002
-0.0002
-0.0002
-0.0002
-0.0002
-0.0002
-0.0002
-0.0002
-0.0002
-0.0002
-0.0002
-0.0002
-0.0002
-0.0002
-0.0002
-0.0002
-0.0002
-0.0002
-0.0002
-0.0002
-0.0002
-0.0002
-0.0002
-0.0002
-0.0002
-0.0002
-0.0002
-0.0002
-0.0002
-0.0002
-0.0002
-0.0002
-0.0002
-0.0002
-0.0002
-0.0002
-0.0002
-0.0002
-0.0002
-0.0002
-0.0002
-0.0002
-0.0002
-0.0002
-0.0002
-0.0002
-0.0002
-0.0002
-0.0002
-0.0002
-0.0002
-0.0002
-0.0002
-0.0002
-0.0002
-0.0002
-0.0002
-0.0002
-0.0002
-0.0002
-0.0002
-0.0002
-0.0002
-0.0002
-0.0002
-0.0002
-0.0002
-0.0002
-0.0002
-0.0002
-0.0002
-0.0002
-0.0002
-0.0002
-0.0002
-0.0002
-0.0002
-0.0002
-0.0002
-0.0002
-0.0002
-0.0002
-0.0002
-0.0002
-0.0002
-0.0002
-0.0002
-0.0002
-0.0002
-0.0002
-0.0002
-0.0002
-0.0002
-0.0002
-0.0002
-0.0002
-0.0002
-0.0002
-0.0002
-0.0002
-0.0002
-0.0002
-0.0002
-0.0002
-0.0002
-0.0002
-0.0002
-0.0002
-0.0002
-0.0002
-0.0002
-0.0002
-0.0002
-0.0002
-0.0002
-0.0002
-0.0002
-0.0002
-0.0002
-0.0002
-0.0002
-0.0002
-0.0002
-0.0002
-0.0002
-0.0002
-0.0002
-0.0002
-0.0003
-0.0003
-0.0003
-0.0003
-0.0003
-0.0003
-0.0003
-0.0003
-0.0003
-0.0003
-0.0003
-0.0003
-0.0003
-0.0003
-0.0003
-0.0003
-0.0003
-0.0003
-0.0003
-0.0003
-0.0003
-0.0003
-0.0003
-0.0003
-0.0003
-0.0003
-0.0003
-0.0003
-0.0003
-0.0003
-0.0003
-0.0003
-0.0003
-0.0003
-0.0003
-0.0003
-0.0003
-0.0003
-0.0003
-0.0003
-0.0003
-0.0003
-0.0003
-0.0003
-0.0003
-0.0003
-0.0003
-0.0003
-0.0003
-0.0003
-0.0003
-0.0003
-0.0003
-0.0003
-0.0003
-0.0003
-0.0003
-0.0003
-0.0003
-0.0003
-0.0003
-0.0003
-0.0003
-0.0003
-0.0003
-0.0003
-0.0003
-0.0003
-0.0003
-0.0003
-0.0003
-0.0003
-0.0003
-0.0003
-0.0003
-0.0003
-0.0003
-0.0003
-0.0003
-0.0003
-0.0003
-0.0003
-0.0003
-0.0003
-0.0003
-0.0003
-0.0003
-0.0003
-0.0003
-0.0003
-0.0003
-0.0003
-0.0003
-0.0003
-0.0003
-0.0003
-0.0003
-0.0003
-0.0003
-0.0003
-0.0003
-0.0003
-0.0003
-0.0003
-0.0003
-0.0003
-0.0003
-0.0003
-0.0003
-0.0003
-0.0003
-0.0003
-0.0003
-0.0003
-0.0003
-0.0003
-0.0003
SCALARS strain_1 float
LOOKUP_TABLE default
-0.000080
-0.127858
-0.125924
-0.123982
-0.122029
-0.120068
-0.118098
-0.116121
-0.114136
-0.112144
-0.110146
-0.108141
-0.106133
-0.104118
-0.102100
-0.100079
-0.098054
-0.096027
-0.093999
-0.091970
-0.089941
-0.087912
-0.085885
-0.083861
-0.081838
-0.079820
-0.077807
-0.075799
-0.073797
-0.071802
-0.069815
-0.067838
-0.065870
-0.063913
-0.061968
-0.060035
-0.058116
-0.056212
-0.054323
-0.052451
-0.050596
-0.048760
-0.046943
-0.045147
-0.043372
-0.041620
-0.039891
-0.038186
-0.036506
-0.034853
-0.033227
-0.031629
-0.030060
-0.028521
-0.027013
-0.025535
-0.024091
-0.022679
-0.021302
-0.019959
-0.018651
-0.017379
-0.016143
-0.014945
-0.013784
-0.012661
-0.011577
-0.010532
-0.009526
-0.008560
-0.007633
-0.006746
-0.005900
-0.005093
-0.004328
-0.003602
-0.002916
-0.002270
-0.001663
-0.001097
-0.000569
-0.127972
-0.000003
-0.000493
-0.001023
-0.001591
-0.002198
-0.002846
-0.003534
-0.004262
-0.005029
-0.005838
-0.006686
-0.007576
-0.008504
-0.009473
-0.010481
-0.011529
-0.012615
-0.013741
-0.014904
-0.016105
-0.017343
-0.018618
-0.019929
-0.021274
-0.022655
-0.024069
-0.025517
-0.026997
-0.028508
-0.030050
-0.031623
-0.033223
-0.034852
-0.036508
-0.038191
-0.039899
-0.041631
-0.043386
-0.045164
-0.046963
-0.048783
-0.050622
-0.052480
-0.054355
-0.056247
-0.058154
-0.060075
-0.062011
-0.063959
-0.065919
-0.067889
-0.069870
-0.071859
-0.073856
-0.075861
-0.077871
-0.079887
-0.081908
-0.083933
-0.085960
-0.087989
-0.090020
-0.092051
-0.094082
-0.096113
-0.098142
-0.100168
-0.102192
-0.104212
-0.106228
-0.108239
-0.110245
-0.112245
-0.114239
-0.116225
-0.118205
-0.120176
-0.122139
-0.124092
-0.126037
-0.127961
-0.127951
-0.127940
-0.127929
-0.127917
-0.127906
-0.127894
-0.127882
-0.127870
-0.000065
-0.000051
-0.000040
-0.000029
-0.000020
-0.000014
-0.000009
-0.000005
-0.000003
-0.000493
-0.000495
-0.000498
-0.000503
-0.000510
-0.000519
-0.000528
-0.000540
-0.000554
-0.001022
-0.001024
-0.001027
-0.001032
-0.001038
-0.001047
-0.001056
-0.001068
-0.001082
-0.001590
-0.001592
-0.001595
-0.001599
-0.001606
-0.001614
-0.001624
-0.001636
-0.001648
-0.002198
-0.002199
-0.002202
-0.002207
-0.002213
-0.002221
-0.002231
-0.002242
-0.002255
-0.002845
-0.002847
-0.002849
-0.002853
-0.002860
-0.002867
-0.002877
-0.002888
-0.002901
-0.003533
-0.003534
-0.003536
-0.003540
-0.003546
-0.003554
-0.003563
-0.003574
-0.003587
-0.004260
-0.004261
-0.004263
-0.004267
-0.004273
-0.004280
-0.004290
-0.004300
-0.004313
-0.005029
-0.005028
-0.005031
-0.005035
-0.005040
-0.005047
-0.005056
-0.005067
-0.005079
-0.005836
-0.005836
-0.005838
-0.005842
-0.005847
-0.005854
-0.005863
-0.005874
-0.005886
-0.006685
-0.006684
-0.006686
-0.006690
-0.006695
-0.006702
-0.006710
-0.006721
-0.006733
-0.007573
-0.007573
-0.007574
-0.007578
-0.007583
-0.007589
-0.007597
-0.007607
-0.007619
-0.008502
-0.008502
-0.008503
-0.008506
-0.008510
-0.008516
-0.008525
-0.008534
-0.008546
-0.009470
-0.009470
-0.009471
-0.009473
-0.009478
-0.009484
-0.009492
-0.009501
-0.009513
-0.010478
-0.010477
-0.010478
-0.010481
-0.010485
-0.010491
-0.010499
-0.010508
-0.010519
-0.011526
-0.011525
-0.011525
-0.011528
-0.011532
-0.011538
-0.011545
-0.011554
-0.011565
-0.012612
-0.012611
-0.012612
-0.012614
-0.012617
-0.012623
-0.012630
-0.012639
-0.012649
-0.013737
-0.013736
-0.013736
-0.013738
-0.013741
-0.013747
-0.013753
-0.013762
-0.013772
-0.014900
-0.014899
-0.014899
-0.014900
-0.014904
-0.014908
-0.014915
-0.014923
-0.014933
-0.016102
-0.016099
-0.016099
-0.016101
-0.016103
-0.016108
-0.016115
-0.016122
-0.016132
-0.017339
-0.017337
-0.017337
-0.017338
-0.017341
-0.017345
-0.017351
-0.017359
-0.017368
-0.018614
-0.018611
-0.018611
-0.018612
-0.018614
-0.018618
-0.018624
-0.018631
-0.018640
-0.019924
-0.019922
-0.019921
-0.019921
-0.019924
-0.019927
-0.019932
-0.019939
-0.019948
-0.021270
-0.021267
-0.021266
-0.021267
-0.021268
-0.021272
-0.021277
-0.021283
-0.021292
-0.022651
-0.022647
-0.022646
-0.022646
-0.022648
-0.022651
-0.022656
-0.022662
-0.022670
-0.024065
-0.024061
-0.024060
-0.024060
-0.024061
-0.024064
-0.024068
-0.024074
-0.024082
-0.025512
-0.025509
-0.025507
-0.025506
-0.025508
-0.025510
-0.025514
-0.025520
-0.025527
-0.026992
-0.026988
-0.026986
-0.026985
-0.026986
-0.026989
-0.026992
-0.026998
-0.027004
-0.028503
-0.028499
-0.028497
-0.028496
-0.028496
-0.028498
-0.028502
-0.028507
-0.028513
-0.030045
-0.030041
-0.030038
-0.030037
-0.030038
-0.030039
-0.030042
-0.030047
-0.030053
-0.031617
-0.031612
-0.031610
-0.031608
-0.031608
-0.031610
-0.031612
-0.031617
-0.031622
-0.033217
-0.033213
-0.033210
-0.033208
-0.033208
-0.033209
-0.033211
-0.033216
-0.033221
-0.034846
-0.034842
-0.034839
-0.034837
-0.034836
-0.034837
-0.034838
-0.034842
-0.034847
-0.036502
-0.036498
-0.036494
-0.036492
-0.036491
-0.036492
-0.036493
-0.036496
-0.036501
-0.038185
-0.038179
-0.038176
-0.038174
-0.038172
-0.038172
-0.038174
-0.038177
-0.038181
-0.039892
-0.039887
-0.039883
-0.039880
-0.039879
-0.039879
-0.039880
-0.039882
-0.039886
-0.041624
-0.041619
-0.041614
-0.041612
-0.041610
-0.041609
-0.041610
-0.041612
-0.041615
-0.043379
-0.043374
-0.043369
-0.043366
-0.043364
-0.043364
-0.043364
-0.043365
-0.043368
-0.045157
-0.045151
-0.045146
-0.045144
-0.045140
-0.045140
-0.045140
-0.045141
-0.045143
-0.046956
-0.046950
-0.046946
-0.046942
-0.046939
-0.046937
-0.046937
-0.046938
-0.046940
-0.048776
-0.048769
-0.048765
-0.048761
-0.048758
-0.048756
-0.048755
-0.048756
-0.048757
-0.050615
-0.050608
-0.050603
-0.050599
-0.050596
-0.050594
-0.050593
-0.050593
-0.050594
-0.052472
-0.052466
-0.052460
-0.052456
-0.052453
-0.052450
-0.052449
-0.052448
-0.052449
-0.054348
-0.054341
-0.054335
-0.054330
-0.054326
-0.054324
-0.054322
-0.054321
-0.054322
-0.056239
-0.056232
-0.056226
-0.056221
-0.056218
-0.056214
-0.056212
-0.056211
-0.056211
-0.058146
-0.058139
-0.058133
-0.058128
-0.058123
-0.058120
-0.058118
-0.058116
-0.058116
-0.060067
-0.060060
-0.060054
-0.060049
-0.060045
-0.060040
-0.060038
-0.060036
-0.060035
-0.062003
-0.061995
-0.061989
-0.061983
-0.061979
-0.061975
-0.061972
-0.061969
-0.061968
-0.063951
-0.063943
-0.063937
-0.063931
-0.063926
-0.063921
-0.063918
-0.063915
-0.063914
-0.065911
-0.065903
-0.065896
-0.065890
-0.065885
-0.065880
-0.065876
-0.065874
-0.065871
-0.067881
-0.067873
-0.067866
-0.067860
-0.067854
-0.067849
-0.067845
-0.067842
-0.067840
-0.069861
-0.069853
-0.069846
-0.069839
-0.069834
-0.069828
-0.069824
-0.069821
-0.069818
-0.071850
-0.071842
-0.071835
-0.071828
-0.071822
-0.071817
-0.071812
-0.071808
-0.071805
-0.073847
-0.073839
-0.073831
-0.073825
-0.073818
-0.073813
-0.073808
-0.073803
-0.073800
-0.075852
-0.075843
-0.075836
-0.075828
-0.075822
-0.075816
-0.075811
-0.075807
-0.075802
-0.077862
-0.077854
-0.077846
-0.077838
-0.077832
-0.077826
-0.077820
-0.077815
-0.077811
-0.079878
-0.079870
-0.079861
-0.079854
-0.079847
-0.079841
-0.079834
-0.079829
-0.079825
-0.081899
-0.081890
-0.081881
-0.081874
-0.081867
-0.081860
-0.081854
-0.081848
-0.081844
-0.083923
-0.083914
-0.083906
-0.083898
-0.083890
-0.083883
-0.083877
-0.083871
-0.083865
-0.085950
-0.085941
-0.085933
-0.085924
-0.085917
-0.085910
-0.085903
-0.085897
-0.085891
-0.087980
-0.087970
-0.087962
-0.087954
-0.087945
-0.087938
-0.087931
-0.087925
-0.087918
-0.090010
-0.090001
-0.089992
-0.089984
-0.089976
-0.089968
-0.089960
-0.089954
-0.089947
-0.092042
-0.092032
-0.092023
-0.092015
-0.092006
-0.091998
-0.091991
-0.091983
-0.091977
-0.094073
-0.094063
-0.094054
-0.094045
-0.094037
-0.094028
-0.094021
-0.094013
-0.094006
-0.096103
-0.096093
-0.096084
-0.096075
-0.096066
-0.096058
-0.096050
-0.096042
-0.096034
-0.098132
-0.098122
-0.098112
-0.098103
-0.098094
-0.098086
-0.098077
-0.098069
-0.098062
-0.100158
-0.100148
-0.100139
-0.100130
-0.100121
-0.100112
-0.100103
-0.100095
-0.100087
-0.102182
-0.102172
-0.102162
-0.102153
-0.102143
-0.102135
-0.102126
-0.102117
-0.102108
-0.104202
-0.104192
-0.104182
-0.104173
-0.104163
-0.104154
-0.104145
-0.104136
-0.104127
-0.106218
-0.106208
-0.106198
-0.106188
-0.106178
-0.106169
-0.106159
-0.106150
-0.106141
-0.108229
-0.108219
-0.108209
-0.108199
-0.108189
-0.108179
-0.108170
-0.108160
-0.108151
-0.110235
-0.110224
-0.110215
-0.110204
-0.110195
-0.110185
-0.110175
-0.110165
-0.110155
-0.112235
-0.112224
-0.112214
-0.112204
-0.112194
-0.112184
-0.112174
-0.112164
-0.112154
-0.114229
-0.114218
-0.114208
-0.114197
-0.114187
-0.114177
-0.114167
-0.114156
-0.114146
-0.116215
-0.116205
-0.116194
-0.116184
-0.116173
-0.116162
-0.116152
-0.116142
-0.116131
-0.118194
-0.118183
-0.118173
-0.118162
-0.118152
-0.118141
-0.118130
-0.118120
-0.118109
-0.120166
-0.120154
-0.120144
-0.120133
-0.120122
-0.120112
-0.120100
-0.120090
-0.120079
-0.122128
-0.122117
-0.122106
-0.122096
-0.122084
-0.122074
-0.122063
-0.122051
-0.122040
-0.124082
-0.124071
-0.124060
-0.124049
-0.124038
-0.124027
-0.124016
-0.124005
-0.123993
-0.126026
-0.126016
-0.126005
-0.125993
-0.125983
-0.125971
-0.125960
-0.125948
-0.125936
SCALARS strain_2 float
LOOKUP_TABLE default
0.001611
0.000951
0.000953
0.000954
0.000951
0.000953
0.000955
0.000952
0.000953
0.000954
0.000953
0.000955
0.000957
0.000956
0.000959
0.000959
0.000960
0.000964
0.000965
0.000967
0.000970
0.000971
0.000973
0.000977
0.000980
0.000980
0.000986
0.000989
0.000992
0.000998
0.001002
0.001004
0.001010
0.001014
0.001021
0.001025
0.001032
0.001038
0.001043
0.001050
0.001057
0.001064
0.001072
0.001080
0.001087
0.001096
0.001103
0.001114
0.001122
0.001133
0.001143
0.001151
0.001162
0.001173
0.001184
0.001197
0.001209
0.001221
0.001233
0.001248
0.001261
0.001273
0.001287
0.001304
0.001316
0.001332
0.001345
0.001362
0.001378
0.001393
0.001411
0.001427
0.001445
0.001464
0.001479
0.001499
0.001518
0.001534
0.001553
0.001572
0.001591
0.003143
0.003185
0.003185
0.003187
0.003190
0.003192
0.003194
0.003196
0.003197
0.003199
0.003202
0.003202
0.003206
0.003207
0.003208
0.003212
0.003213
0.003214
0.003217
0.003218
0.003217
0.003220
0.003220
0.003221
0.003221
0.003224
0.003225
0.003226
0.003227
0.003227
0.003229
0.003228
0.003229
0.003230
0.003231
0.003230
0.003231
0.003230
0.003229
0.003230
0.003230
0.003230
0.003231
0.003229
0.003229
0.003228
0.003227
0.003228
0.003227
0.003224
0.003226
0.003222
0.003224
0.003221
0.003219
0.003218
0.003216
0.003216
0.003213
0.003212
0.003208
0.003206
0.003205
0.003201
0.003200
0.003196
0.003193
0.003191
0.003189
0.003187
0.003181
0.003181
0.003177
0.003174
0.003170
0.003168
0.003163
0.003160
0.003157
0.003149
0.003149
0.002924
0.002704
0.002487
0.002265
0.002049
0.001829
0.001609
0.001392
0.001171
0.001769
0.001927
0.002085
0.002241
0.002399
0.002555
0.002713
0.002869
0.003026
0.003027
0.002867
0.002709
0.002548
0.002388
0.002230
0.002069
0.001912
0.001751
0.003025
0.002866
0.002704
0.002543
0.002381
0.002219
0.002056
0.001895
0.001735
0.003026
0.002863
0.002699
0.002537
0.002371
0.002207
0.002048
0.001882
0.001717
0.003027
0.002863
0.002698
0.002531
0.002363
0.002198
0.002032
0.001866
0.001701
0.003027
0.002858
0.002690
0.002525
0.002354
0.002187
0.002021
0.001852
0.001683
0.003026
0.002857
0.002689
0.002517
0.002347
0.002178
0.002008
0.001837
0.001667
0.003026
0.002852
0.002684
0.002512
0.002339
0.002166
0.001996
0.001824
0.001653
0.003027
0.002852
0.002679
0.002504
0.002332
0.002158
0.001983
0.001809
0.001636
0.003027
0.002850
0.002674
0.002501
0.002325
0.002148
0.001970
0.001797
0.001619
0.003027
0.002852
0.002673
0.002493
0.002315
0.002137
0.001960
0.001786
0.001605
0.003026
0.002849
0.002668
0.002488
0.002308
0.002127
0.001949
0.001770
0.001591
0.003026
0.002844
0.002663
0.002483
0.002299
0.002121
0.001940
0.001758
0.001578
0.003026
0.002842
0.002661
0.002479
0.002294
0.002112
0.001927
0.001744
0.001559
0.003027
0.002841
0.002656
0.002471
0.002288
0.002102
0.001916
0.001732
0.001548
0.003025
0.002840
0.002653
0.002468
0.002280
0.002094
0.001908
0.001721
0.001534
0.003025
0.002838
0.002651
0.002462
0.002273
0.002086
0.001897
0.001707
0.001518
0.003026
0.002837
0.002645
0.002457
0.002265
0.002076
0.001887
0.001695
0.001505
0.003024
0.002836
0.002642
0.002450
0.002259
0.002069
0.001877
0.001685
0.001494
0.003025
0.002833
0.002639
0.002446
0.002254
0.002061
0.001864
0.001674
0.001479
0.003025
0.002830
0.002635
0.002442
0.002248
0.002053
0.001858
0.001664
0.001468
0.003026
0.002830
0.002633
0.002435
0.002240
0.002044
0.001849
0.001652
0.001455
0.003023
0.002827
0.002627
0.002433
0.002234
0.002039
0.001839
0.001642
0.001444
0.003024
0.002823
0.002627
0.002428
0.002229
0.002029
0.001830
0.001631
0.001433
0.003024
0.002824
0.002623
0.002423
0.002222
0.002022
0.001820
0.001621
0.001420
0.003024
0.002822
0.002621
0.002421
0.002218
0.002017
0.001815
0.001612
0.001411
0.003023
0.002818
0.002617
0.002415
0.002213
0.002009
0.001804
0.001602
0.001401
0.003023
0.002821
0.002616
0.002411
0.002205
0.002001
0.001797
0.001594
0.001389
0.003023
0.002818
0.002615
0.002406
0.002201
0.001997
0.001791
0.001586
0.001379
0.003021
0.002814
0.002609
0.002402
0.002196
0.001988
0.001782
0.001574
0.001369
0.003021
0.002814
0.002606
0.002397
0.002191
0.001981
0.001776
0.001568
0.001361
0.003022
0.002813
0.002604
0.002396
0.002186
0.001978
0.001769
0.001559
0.001349
0.003019
0.002811
0.002601
0.002391
0.002184
0.001971
0.001759
0.001550
0.001343
0.003020
0.002809
0.002598
0.002388
0.002178
0.001967
0.001755
0.001543
0.001333
0.003020
0.002806
0.002594
0.002384
0.002173
0.001959
0.001748
0.001536
0.001327
0.003018
0.002806
0.002593
0.002381
0.002170
0.001954
0.001743
0.001528
0.001316
0.003018
0.002805
0.002589
0.002376
0.002167
0.001950
0.001739
0.001524
0.001310
0.003017
0.002803
0.002589
0.002372
0.002161
0.001946
0.001731
0.001517
0.001302
0.003015
0.002802
0.002584
0.002369
0.002156
0.001941
0.001723
0.001510
0.001291
0.003015
0.002802
0.002582
0.002366
0.002151
0.001935
0.001720
0.001504
0.001287
0.003013
0.002798
0.002581
0.002365
0.002149
0.001932
0.001714
0.001498
0.001281
0.003013
0.002796
0.002579
0.002361
0.002145
0.001926
0.001708
0.001493
0.001275
0.003013
0.002793
0.002577
0.002358
0.002142
0.001922
0.001705
0.001485
0.001266
0.003008
0.002792
0.002575
0.002356
0.002137
0.001918
0.001700
0.001481
0.001263
0.003009
0.002791
0.002573
0.002350
0.002135
0.001914
0.001694
0.001474
0.001257
0.003008
0.002790
0.002569
0.002348
0.002130
0.001909
0.001691
0.001470
0.001250
0.003007
0.002788
0.002566
0.002347
0.002128
0.001907
0.001688
0.001467
0.001246
0.003006
0.002786
0.002564
0.002344
0.002125
0.001903
0.001681
0.001462
0.001242
0.003005
0.002785
0.002560
0.002342
0.002120
0.001899
0.001680
0.001459
0.001236
0.003001
0.002782
0.002561
0.002339
0.002117
0.001896
0.001675
0.001453
0.001231
0.003002
0.002782
0.002558
0.002337
0.002114
0.001892
0.001670
0.001448
0.001227
0.002999
0.002776
0.002555
0.002334
0.002113
0.001890
0.001667
0.001444
0.001222
0.002999
0.002779
0.002553
0.002332
0.002109
0.001888
0.001665
0.001443
0.001217
0.002997
0.002774
0.002551
0.002329
0.002107
0.001885
0.001662
0.001437
0.001214
0.002994
0.002772
0.002549
0.002328
0.002104
0.001881
0.001658
0.001435
0.001212
0.002993
0.002771
0.002546
0.002327
0.002099
0.001878
0.001655
0.001433
0.001209
0.002990
0.002768
0.002545
0.002323
0.002097
0.001875
0.001651
0.001429
0.001206
0.002988
0.002767
0.002543
0.002319
0.002095
0.001874
0.001650
0.001426
0.001202
0.002988
0.002765
0.002542
0.002316
0.002094
0.001871
0.001649
0.001423
0.001201
0.002987
0.002762
0.002538
0.002315
0.002090
0.001867
0.001643
0.001420
0.001198
0.002984
0.002758
0.002537
0.002312
0.002089
0.001866
0.001642
0.001418
0.001195
0.002981
0.002758
0.002535
0.002309
0.002087
0.001864
0.001639
0.001414
0.001194
0.002980
0.002756
0.002532
0.002307
0.002085
0.001860
0.001638
0.001413
0.001190
0.002977
0.002753
0.002529
0.002305
0.002081
0.001860
0.001635
0.001411
0.001188
0.002973
0.002751
0.002528
0.002305
0.002082
0.001856
0.001632
0.001410
0.001186
0.002973
0.002748
0.002524
0.002301
0.002080
0.001853
0.001631
0.001409
0.001186
0.002966
0.002746
0.002523
0.002300
0.002076
0.001853
0.001630
0.001407
0.001182
0.002966
0.002744
0.002520
0.002298
0.002073
0.001854
0.001630
0.001404
0.001182
0.002963
0.002741
0.002518
0.002293
0.002074
0.001850
0.001626
0.001403
0.001181
0.002960
0.002737
0.002516
0.002294
0.002070
0.001846
0.001623
0.001401
0.001178
0.002959
0.002735
0.002513
0.002292
0.002068
0.001845
0.001623
0.001403
0.001176
0.002955
0.002732
0.002511
0.002289
0.002066
0.001843
0.001621
0.001398
0.001176
0.002953
0.002728
0.002508
0.002285
0.002064
0.001840
0.001619
0.001397
0.001175
0.002946
0.002726
0.002506
0.002284
0.002063
0.001840
0.001618
0.001398
0.001177
0.002947
0.002724
0.002501
0.002281
0.002060
0.001842
0.001618
0.001395
0.001176
0.002943
0.002722
0.002499
0.002277
0.002058
0.001839
0.001616
0.001394
0.001173
0.002939
0.002716
0.002496
0.002277
0.002056
0.001834
0.001614
0.001394
0.001174
0.002935
0.002716
0.002494
0.002273
0.002055
0.001833
0.001613
0.001394
0.001171
0.002931
0.002713
0.002492
0.002272
0.002051
0.001833
0.001614
0.001391
0.001171
0.002927
0.002708
0.002489
0.002269
0.002049
0.001831
0.001610
0.001392
0.001170
SCALARS strain_3 float
LOOKUP_TABLE default
0.000649
0.042332
0.041734
0.041135
0.040530
0.039923
0.039313
0.038700
0.038085
0.037468
0.036847
0.036224
0.035600
0.034972
0.034345
0.033714
0.033083
0.032448
0.031815
0.031179
0.030543
0.029907
0.029271
0.028634
0.027998
0.027362
0.026727
0.026093
0.025460
0.024829
0.024197
0.023570
0.022944
0.022321
0.021701
0.021083
0.020469
0.019858
0.019251
0.018648
0.018049
0.017456
0.016867
0.016284
0.015707
0.015135
0.014570
0.014011
0.013460
0.012914
0.012376
0.011846
0.011325
0.010811
0.010306
0.009810
0.009323
0.008844
0.008376
0.007917
0.007469
0.007029
0.006602
0.006185
0.005778
0.005383
0.004999
0.004624
0.004265
0.003913
0.003575
0.003251
0.002936
0.002634
0.002343
0.002065
0.001799
0.001546
0.001300
0.001072
0.000854
0.041245
-0.000347
-0.000148
0.000060
0.000282
0.000517
0.000763
0.001022
0.001293
0.001575
0.001871
0.002179
0.002499
0.002830
0.003175
0.003530
0.003897
0.004277
0.004667
0.005068
0.005481
0.005905
0.006340
0.006785
0.007240
0.007703
0.008178
0.008664
0.009156
0.009659
0.010170
0.010689
0.011217
0.011753
0.012296
0.012845
0.013404
0.013967
0.014538
0.015114
0.015697
0.016286
0.016879
0.017479
0.018079
0.018688
0.019298
0.019914
0.020531
0.021152
0.021777
0.022404
0.023034
0.023666
0.024299
0.024933
0.025569
0.026206
0.026845
0.027483
0.028120
0.028758
0.029398
0.030035
0.030673
0.031309
0.031947
0.032581
0.033213
0.033845
0.034476
0.035103
0.035730
0.036353
0.036974
0.037593
0.038209
0.038822
0.039433
0.040041
0.040644
0.041353
0.041463
0.041571
0.041681
0.041790
0.041898
0.042007
0.042115
0.042224
0.000547
0.000447
0.000345
0.000244
0.000144
0.000046
-0.000052
-0.000151
-0.000248
-0.000051
0.000048
0.000147
0.000247
0.000346
0.000448
0.000549
0.000651
0.000753
0.000160
0.000259
0.000359
0.000461
0.000560
0.000662
0.000764
0.000866
0.000968
0.000382
0.000482
0.000583
0.000684
0.000785
0.000889
0.000991
0.001095
0.001198
0.000618
0.000718
0.000819
0.000922
0.001024
0.001127
0.001230
0.001335
0.001439
0.000864
0.000966
0.001067
0.001170
0.001273
0.001377
0.001482
0.001588
0.001692
0.001123
0.001226
0.001329
0.001432
0.001536
0.001642
0.001746
0.001852
0.001958
0.001394
0.001499
0.001601
0.001706
0.001812
0.001917
0.002021
0.002128
0.002234
0.001679
0.001783
0.001887
0.001993
0.002099
0.002204
0.002312
0.002417
0.002524
0.001976
0.002079
0.002185
0.002290
0.002397
0.002504
0.002609
0.002718
0.002826
0.002284
0.002389
0.002495
0.002602
0.002709
0.002814
0.002924
0.003032
0.003141
0.002604
0.002711
0.002816
0.002922
0.003032
0.003139
0.003247
0.003356
0.003467
0.002937
0.003042
0.003151
0.003259
0.003365
0.003476
0.003583
0.003692
0.003803
0.003279
0.003388
0.003496
0.003605
0.003714
0.003821
0.003931
0.004042
0.004153
0.003638
0.003745
0.003854
0.003962
0.004071
0.004181
0.004292
0.004403
0.004514
0.004005
0.004113
0.004224
0.004332
0.004442
0.004552
0.004664
0.004773
0.004887
0.004385
0.004495
0.004603
0.004714
0.004823
0.004934
0.005045
0.005157
0.005270
0.004776
0.004885
0.004994
0.005104
0.005217
0.005326
0.005441
0.005552
0.005665
0.005178
0.005287
0.005398
0.005509
0.005621
0.005732
0.005846
0.005958
0.006072
0.005591
0.005702
0.005813
0.005925
0.006037
0.006147
0.006261
0.006374
0.006487
0.006015
0.006127
0.006238
0.006350
0.006461
0.006576
0.006688
0.006801
0.006916
0.006450
0.006560
0.006673
0.006786
0.006899
0.007013
0.007125
0.007239
0.007354
0.006896
0.007007
0.007119
0.007232
0.007345
0.007458
0.007572
0.007687
0.007802
0.007351
0.007462
0.007575
0.007688
0.007802
0.007916
0.008030
0.008147
0.008260
0.007817
0.007929
0.008042
0.008155
0.008270
0.008383
0.008497
0.008613
0.008729
0.008291
0.008405
0.008517
0.008632
0.008744
0.008859
0.008975
0.009090
0.009205
0.008776
0.008889
0.009002
0.009118
0.009231
0.009346
0.009460
0.009577
0.009693
0.009269
0.009383
0.009496
0.009611
0.009727
0.009841
0.009956
0.010073
0.010188
0.009773
0.009885
0.010000
0.010113
0.010230
0.010346
0.010461
0.010578
0.010695
0.010284
0.010398
0.010512
0.010626
0.010743
0.010858
0.010974
0.011092
0.011208
0.010803
0.010917
0.011032
0.011149
0.011264
0.011379
0.011496
0.011612
0.011728
0.011333
0.011446
0.011560
0.011677
0.011792
0.011909
0.012025
0.012142
0.012259
0.011867
0.011982
0.012097
0.012212
0.012329
0.012444
0.012561
0.012678
0.012797
0.012411
0.012525
0.012640
0.012757
0.012873
0.012988
0.013108
0.013224
0.013341
0.012962
0.013075
0.013192
0.013309
0.013424
0.013541
0.013658
0.013775
0.013893
0.013519
0.013635
0.013750
0.013866
0.013983
0.014100
0.014217
0.014333
0.014452
0.014084
0.014199
0.014315
0.014431
0.014548
0.014665
0.014782
0.014899
0.015017
0.014655
0.014770
0.014886
0.015001
0.015119
0.015236
0.015352
0.015471
0.015589
0.015230
0.015348
0.015463
0.015579
0.015695
0.015812
0.015930
0.016050
0.016166
0.015813
0.015930
0.016046
0.016162
0.016278
0.016396
0.016514
0.016631
0.016750
0.016401
0.016518
0.016634
0.016752
0.016867
0.016984
0.017102
0.017220
0.017339
0.016995
0.017111
0.017227
0.017345
0.017460
0.017580
0.017696
0.017812
0.017932
0.017593
0.017709
0.017826
0.017941
0.018059
0.018176
0.018293
0.018411
0.018530
0.018195
0.018311
0.018429
0.018546
0.018663
0.018779
0.018897
0.019014
0.019133
0.018803
0.018919
0.019035
0.019152
0.019270
0.019386
0.019504
0.019623
0.019738
0.019413
0.019530
0.019647
0.019764
0.019882
0.019997
0.020115
0.020233
0.020351
0.020030
0.020145
0.020261
0.020378
0.020496
0.020612
0.020729
0.020846
0.020965
0.020646
0.020764
0.020879
0.020996
0.021113
0.021229
0.021349
0.021465
0.021583
0.021270
0.021385
0.021502
0.021618
0.021734
0.021851
0.021968
0.022085
0.022203
0.021895
0.022009
0.022127
0.022242
0.022359
0.022474
0.022593
0.022708
0.022826
0.022520
0.022636
0.022753
0.022869
0.022986
0.023102
0.023218
0.023335
0.023453
0.023150
0.023265
0.023380
0.023497
0.023615
0.023731
0.023847
0.023963
0.024081
0.023780
0.023895
0.024013
0.024127
0.024244
0.024360
0.024477
0.024595
0.024711
0.024414
0.024530
0.024645
0.024761
0.024876
0.024994
0.025110
0.025227
0.025344
0.025049
0.025164
0.025280
0.025394
0.025511
0.025629
0.025744
0.025859
0.025977
0.025683
0.025799
0.025914
0.026031
0.026146
0.026263
0.026379
0.026495
0.026611
0.026320
0.026436
0.026551
0.026666
0.026782
0.026899
0.027015
0.027131
0.027246
0.026958
0.027073
0.027188
0.027304
0.027419
0.027535
0.027652
0.027766
0.027883
0.027598
0.027711
0.027826
0.027942
0.028056
0.028172
0.028288
0.028403
0.028519
0.028236
0.028349
0.028466
0.028578
0.028695
0.028810
0.028925
0.029041
0.029155
0.028873
0.028987
0.029101
0.029218
0.029333
0.029447
0.029562
0.029677
0.029793
0.029511
0.029626
0.029740
0.029856
0.029970
0.030083
0.030198
0.030314
0.030429
0.030151
0.030263
0.030379
0.030492
0.030607
0.030721
0.030836
0.030950
0.031065
0.030787
0.030900
0.031015
0.031129
0.031243
0.031357
0.031471
0.031586
0.031700
0.031423
0.031538
0.031651
0.031764
0.031878
0.031992
0.032107
0.032222
0.032335
0.032058
0.032172
0.032286
0.032399
0.032514
0.032628
0.032741
0.032853
0.032968
0.032694
0.032807
0.032921
0.033033
0.033147
0.033259
0.033374
0.033485
0.033600
0.033327
0.033439
0.033553
0.033666
0.033779
0.033891
0.034005
0.034119
0.034230
0.033959
0.034070
0.034184
0.034295
0.034409
0.034522
0.034634
0.034749
0.034858
0.034589
0.034699
0.034812
0.034925
0.035037
0.035150
0.035262
0.035374
0.035486
0.035215
0.035328
0.035439
0.035552
0.035664
0.035777
0.035887
0.036000
0.036112
0.035841
0.035952
0.036064
0.036178
0.036289
0.036400
0.036513
0.036624
0.036736
0.036463
0.036575
0.036688
0.036797
0.036910
0.037022
0.037134
0.037245
0.037356
0.037085
0.037197
0.037307
0.037420
0.037530
0.037642
0.037753
0.037864
0.037974
0.037704
0.037815
0.037925
0.038037
0.038147
0.038258
0.038370
0.038481
0.038591
0.038320
0.038432
0.038541
0.038652
0.038762
0.038873
0.038984
0.039093
0.039204
0.038933
0.039044
0.039154
0.039264
0.039373
0.039484
0.039595
0.039704
0.039814
0.039543
0.039654
0.039763
0.039873
0.039982
0.040092
0.040201
0.040313
0.040423
0.040152
0.040259
0.040369
0.040479
0.040588
0.040698
0.040807
0.040917
0.041024
0.040753
0.040864
0.040972
0.041083
0.041190
0.041300
0.041409
0.041517
0.041626
SCALARS stress_1 float
LOOKUP_TABLE default
26536.690141
-24147637.893676
-23782086.198878
-23414783.504081
-23045645.809283
-22674848.114485
-22302511.419687
-21928647.724890
-21553408.030092
-21176844.335294
-20799084.640497
-20420140.945699
-20040338.250901
-19659453.556103
-19277916.861306
-18895679.166508
-18512844.471710
-18129686.776913
-17746169.082115
-17362533.387317
-16978884.692520
-16595278.997722
-16211999.302924
-15829101.608126
-15446663.913329
-15065090.218531
-14684368.523733
-14304572.828936
-13926056.134138
-13548780.439340
-13173111.744542
-12799118.049745
-12426902.354947
-12056771.660149
-11688848.965352
-11323337.270554
-10960390.575756
-10600235.880958
-10242972.186161
-9888772.491363
-9537954.796565
-9190554.101768
-8846929.406970
-8507094.712172
-8171340.017374
-7839845.322577
-7512652.627779
-7190206.932981
-6872330.238184
-6559604.543386
-6251857.848588
-5949481.153791
-5652623.458993
-5361299.764195
-5075803.069397
-4796266.374600
-4522864.679802
-4255646.985004
-3994853.290207
-3740647.595409
-3493037.900611
-3252139.205813
-3018273.511016
-2791263.816218
-2571489.121420
-2358879.426623
-2153507.731825
-1955535.037027
-1764908.342229
-1581831.647432
-1406162.952634
-1238245.257836
-1077782.563039
-924879.868241
-779621.173443
-641924.478645
-511828.783848
-389310.089050
-274178.394252
-166556.699455
-66388.004657
-24112532.134546
86753.449271
-5809.245527
-105840.940325
-213267.635122
-328104.329920
-450476.024718
-580449.719516
-718052.414313
-863216.109111
-1016011.803909
-1176440.498706
-1344395.193504
-1520046.888302
-1703190.583100
-1893820.277897
-2091927.972695
-2297278.667493
-2510034.362290
-2730024.057088
-2957085.751886
-3191233.446683
-3432262.141481
-3680128.836279
-3934573.531077
-4195648.225874
-4463107.920672
-4736776.615470
-5016618.310267
-5302445.005065
-5594092.699863
-5891351.394661
-6194069.089458
-6502131.784256
-6815315.479054
-7133496.173851
-7456348.868649
-7783981.563447
-8115905.258245
-8452148.953042
-8792375.647840
-9136504.342638
-9484294.037435
-9835597.732233
-10190256.427031
-10548015.121829
-10908701.816626
-11272107.511424
-11638106.206222
-12006545.901019
-12377183.595817
-12749724.290615
-13124283.985412
-13500537.680210
-13878307.375008
-14257332.069806
-14637586.764603
-15018831.459401
-15400974.154199
-15783815.848996
-16167181.543794
-16551031.238592
-16935120.933390
-17319291.628187
-17703388.322985
-18087472.017783
-18471019.712580
-18854324.407378
-19237063.102176
-19619073.796974
-20000376.491771
-20380709.186569
-20760039.881367
-21138297.576164
-21515328.270962
-21891029.965760
-22265283.660557
-22638180.355355
-23009300.050153
-23378800.744951
-23746573.439748
-24116202.910459
-24119770.686372
-24123334.462285
-24126941.238198
-24130448.014111
-24133923.790024
-24137393.565937
-24140842.341850
-24144216.117763
33984.466054
41090.241967
47922.017880
54419.793793
60653.569706
66453.345619
72037.121532
77303.897445
82229.673358
-10522.021440
-15411.797353
-20706.573266
-26240.349179
-32105.125092
-38319.901005
-44872.676918
-51700.452831
-58896.228744
-110491.716238
-115450.492151
-120734.268064
-126270.043977
-132219.819890
-138485.595803
-145016.371716
-151876.147629
-159122.923542
-217867.411035
-222870.186948
-228157.962861
-233744.738774
-239762.514687
-246002.290600
-252524.066513
-259386.842426
-266687.618339
-332760.105833
-337737.881746
-343045.657659
-348703.433572
-354667.209485
-360919.985398
-367563.761311
-374420.537224
-381712.313137
-455187.800631
-460165.576544
-465528.352457
-471181.128370
-477125.904283
-483383.680196
-490037.456109
-496945.232022
-504265.007935
-585150.495429
-590142.271342
-595498.047255
-601209.823168
-607176.599081
-613485.374994
-620079.150907
-627062.926820
-634351.702732
-722735.190226
-727698.966139
-733036.742052
-738721.517965
-744747.293878
-751076.069791
-757774.845704
-764746.621617
-772005.397530
-867884.885024
-873009.660937
-878281.436850
-884022.212763
-889978.988676
-896322.764589
-902926.540502
-909976.316415
-917318.092328
-1020711.579822
-1025789.355735
-1031117.131648
-1036819.907561
-1042800.683474
-1049199.459387
-1055803.235300
-1062825.011213
-1070084.787126
-1181108.274619
-1186214.050532
-1191547.826445
-1197292.602358
-1203293.378271
-1209644.154184
-1216288.930097
-1223316.706010
-1230601.481923
-1349176.969417
-1354264.745330
-1359578.521243
-1365301.297156
-1371369.073069
-1377580.848982
-1384240.624895
-1391315.400808
-1398613.176721
-1524813.664215
-1529876.440128
-1535190.216041
-1540932.991954
-1546938.767867
-1553169.543780
-1559942.319693
-1566929.095606
-1574209.871519
-1707886.359013
-1712998.134926
-1718323.910838
-1724053.686751
-1730051.462664
-1736394.238577
-1743048.014490
-1750061.790403
-1757387.566316
-1898569.053810
-1903626.829723
-1909032.605636
-1914710.381549
-1920673.157462
-1926955.933375
-1933664.709288
-1940648.485201
-1947910.261114
-2096642.748608
-2101688.524521
-2107012.300434
-2112736.076347
-2118689.852260
-2125030.628173
-2131677.404086
-2138680.179999
-2145927.955912
-2302039.443406
-2307105.219319
-2312504.995232
-2318224.771145
-2324182.547058
-2330483.322971
-2337122.098884
-2344050.874797
-2351375.650710
-2514789.138203
-2519803.914116
-2525254.690029
-2530894.465942
-2536846.241855
-2543216.017768
-2549787.793681
-2556672.569594
-2564003.345507
-2734817.833001
-2739774.608914
-2745150.384827
-2750844.160740
-2756794.936653
-2763057.712566
-2769740.488479
-2776577.264392
-2783849.040305
-2961833.527799
-2966905.303712
-2972188.079625
-2977931.855538
-2983855.631451
-2990120.407364
-2996682.183277
-3003547.959190
-3010781.735103
-3195969.222596
-3201029.998509
-3206327.774422
-3212004.550335
-3217878.326248
-3224152.102161
-3230681.878074
-3237572.653987
-3244693.429900
-3437031.917394
-3442018.693307
-3447348.469220
-3452946.245133
-3458915.021046
-3465075.796959
-3471662.572872
-3478441.348785
-3485589.124698
-3684817.612192
-3689793.388105
-3695128.164018
-3700708.939931
-3706593.715844
-3712832.491757
-3719395.267670
-3726121.043583
-3733186.819496
-3939296.306990
-3944287.082903
-3949552.858816
-3955155.634729
-3961041.410642
-3967256.186555
-3973693.962468
-3980495.738381
-3987565.514294
-4200312.001787
-4205313.777700
-4210599.553613
-4216148.329526
-4221994.105439
-4228215.881352
-4234602.657265
-4241312.433178
-4248427.209091
-4467756.696585
-4472736.472498
-4478014.248411
-4483548.024324
-4489389.800237
-4495484.576150
-4501933.352063
-4508549.127976
-4515619.903889
-4741527.391383
-4746430.167296
-4751690.943209
-4757173.719122
-4763068.495035
-4769061.270948
-4775512.046861
-4782087.822774
-4789138.598687
-5021300.086180
-5026297.862093
-5031510.638006
-5037027.413919
-5042783.189832
-5048791.965745
-5055191.741658
-5061860.517571
-5068640.293484
-5307068.780978
-5312071.556891
-5317250.332804
-5322716.108717
-5328375.884630
-5334535.660543
-5340797.436456
-5347375.212369
-5354131.988282
-5598781.475776
-5603684.251689
-5608733.027602
-5614244.803515
-5620039.579428
-5625937.355341
-5632205.131254
-5638713.907167
-5645601.683080
-5895997.170574
-5900856.946487
-5906037.722400
-5911450.498313
-5917113.274226
-5923070.050139
-5929320.826052
-5935746.601965
-5942511.377878
-6198725.865371
-6203617.641284
-6208760.417197
-6214118.193110
-6219760.969023
-6225697.744936
-6231864.520849
-6238264.296762
-6244979.072675
-6506728.560169
-6511630.336082
-6516721.111995
-6522087.887908
-6527693.663821
-6533539.439734
-6539702.215647
-6546076.991560
-6552665.767473
-6819890.254967
-6824757.030880
-6829835.806793
-6835172.582706
-6840780.358619
-6846656.134532
-6852701.910445
-6858979.686358
-6865575.462271
-7138105.949764
-7142913.725677
-7147938.501590
-7153265.277503
-7158836.053416
-7164595.829329
-7170627.605242
-7176870.381155
-7183388.157068
-7460932.644562
-7465813.420475
-7470812.196388
-7476098.972301
-7481598.748214
-7487381.524127
-7493328.300040
-7499561.075953
-7506017.851866
-7788451.339360
-7793297.115273
-7798325.891186
-7803545.667099
-7808996.443012
-7814764.218925
-7820599.994838
-7826826.770751
-7833210.546664
-8120481.034158
-8125205.810071
-8130240.585984
-8135468.361897
-8140892.137810
-8146493.913723
-8152399.689635
-8158527.465548
-8164733.241461
-8456711.728955
-8461415.504868
-8466345.280781
-8471505.056694
-8476889.832607
-8482498.608520
-8488353.384433
-8494395.160346
-8500633.936259
-8796898.423753
-8801608.199666
-8806522.975579
-8811733.751492
-8817017.527405
-8822570.303318
-8828351.079231
-8834306.855144
-8840543.631057
-9140984.118551
-9145721.894464
-9150597.670377
-9155733.446290
-9161010.222203
-9166477.998116
-9172259.774029
-9178174.549942
-9184343.325855
-9488851.813348
-9493445.589261
-9498311.365174
-9503393.141087
-9508665.917000
-9514114.692913
-9519765.468826
-9525662.244739
-9531737.020652
-9840153.508146
-9844753.284059
-9849570.059972
-9854586.835885
-9859755.611798
-9865136.387711
-9870804.163624
-9876656.939537
-9882563.715450
-10194719.202944
-10199315.978857
-10204127.754770
-10209072.530683
-10214240.306596
-10219612.082509
-10225184.858422
-10230903.634335
-10236878.410248
-10552368.897742
-10557033.673654
-10561703.449567
-10566769.225480
-10571937.001393
-10577117.777306
-10582580.553219
-10588355.329132
-10594134.105045
-10913051.592539
-10917604.368452
-10922368.144365
-10927322.920278
-10932357.696191
-10937589.472104
-10943001.248017
-10948725.023930
-10954440.799843
-11276503.287337
-11281067.063250
-11285785.839163
-11290607.615076
-11295690.390989
-11300866.166902
-11306266.942815
-11311766.718728
-11317471.494641
-11642509.982135
-11647027.758048
-11651606.533961
-11656506.309874
-11661442.085787
-11666636.861700
-11671978.637613
-11677440.413526
-11683105.189439
-12010911.676932
-12015408.452845
-12020013.228758
-12024762.004671
-12029721.780584
-12034842.556497
-12040019.332410
-12045546.108323
-12051137.884236
-12381481.371730
-12385929.147643
-12390494.923556
-12395313.699469
-12400220.475382
-12405205.251295
-12410485.027208
-12415772.803121
-12421255.579034
-12754103.066528
-12758531.842441
-12763145.618354
-12767785.394267
-12772627.170180
-12777681.946093
-12782842.722006
-12788056.497919
-12793461.273832
-13128622.761325
-13133041.537238
-13137607.313151
-13142200.089064
-13147027.864977
-13151942.640890
-13157053.416803
-13162306.192716
-13167688.968629
-13504787.456123
-13509151.232036
-13513648.007949
-13518302.783862
-13523035.559775
-13527966.335688
-13533040.111601
-13538120.887514
-13543365.663427
-13882480.150921
-13886856.926834
-13891270.702747
-13895889.478660
-13900611.254573
-13905481.030486
-13910458.806399
-13915492.582312
-13920710.358225
-14261536.845719
-14265817.621632
-14270281.397545
-14274879.173458
-14279539.949371
-14284293.725284
-14289244.501197
-14294254.277110
-14299288.053023
-14641789.540516
-14646059.316429
-14650539.092342
-14654989.868255
-14659551.644168
-14664352.420081
-14669210.195994
-14674116.971907
-14679170.747820
-15023002.235314
-15027335.011227
-15031669.787140
-15036157.563053
-15040729.338966
-15045356.114879
-15050215.890792
-15055115.666705
-15060102.442618
-15405156.930112
-15409443.706025
-15413704.481938
-15418147.257851
-15422650.033764
-15427293.809677
-15432031.585590
-15436872.361503
-15441784.137416
-15787961.624909
-15792178.400822
-15796467.176735
-15800916.952648
-15805381.728561
-15809980.504474
-15814645.280387
-15819386.056300
-15824164.832213
-16171342.319707
-16175427.095620
-16179805.871533
-16184157.647446
-16188583.423359
-16193029.199272
-16197720.975185
-16202407.751098
-16207217.527011
-16555075.014505
-16559219.790418
-16563488.566331
-16567788.342244
-16572260.118157
-16576587.894070
-16581195.669983
-16585814.445896
-16590543.221809
-16939148.709303
-16943299.485216
-16947539.261129
-16951738.037042
-16956082.812955
-16960538.588868
-16965043.364781
-16969538.140694
-16974169.916607
-17323283.404100
-17327414.180013
-17331523.955926
-17335791.731839
-17340086.507752
-17344428.283665
-17348926.059578
-17353386.835491
-17357964.611404
-17707438.098898
-17711459.874811
-17715602.650724
-17719790.426637
-17724015.202550
-17728350.978463
-17732701.754376
-17737214.530289
-17741661.306202
-18091391.793696
-18095395.569609
-18099552.345522
-18103669.121435
-18107846.897348
-18112085.673261
-18116420.449174
-18120809.225087
-18125281.001000
-18475030.488493
-18479071.264406
-18483141.040319
-18487225.816232
-18491411.592145
-18495623.368058
-18499842.143971
-18504157.919884
-18508535.695797
-18858262.183291
-18862287.959204
-18866262.735117
-18870329.511030
-18874483.286943
-18878667.062856
-18882859.838769
-18887037.614682
-18891372.390595
-19241006.878089
-19244944.654002
-19248945.429915
-19253002.205828
-19257023.981741
-19261122.757654
-19265250.533567
-19269475.309480
-19273701.085393
-19623027.572887
-19626991.348800
-19630904.124713
-19634804.900626
-19638912.676539
-19642981.452451
-19647039.228364
-19651170.004277
-19655282.780190
-20004213.267684
-20008172.043597
-20012081.819510
-20016011.595423
-20020031.371336
-20024018.147249
-20028032.923162
-20032028.699075
-20036140.474988
-20384588.962482
-20388436.738395
-20392393.514308
-20396276.290221
-20400254.066134
-20404167.842047
-20408213.617960
-20412194.393873
-20416171.169786
-20763884.657280
-20767727.433193
-20771623.209106
-20775511.985019
-20779365.760932
-20783305.536845
-20787244.312758
-20791202.088671
-20795143.864584
-21142079.352077
-21145954.127990
-21149786.903903
-21153596.679816
-21157481.455729
-21161363.231642
-21165134.007555
-21169123.783468
-21172958.559381
-21519122.046875
-21522911.822788
-21526669.598701
-21530517.374614
-21534346.150527
-21538158.926440
-21541987.702353
-21545784.478266
-21549561.254179
-21894787.741673
-21898595.517586
-21902341.293499
-21906093.069412
-21909923.845325
-21913634.621238
-21917425.397151
-21921203.173064
-21924895.948977
-22269093.436470
-22272794.212383
-22276564.988296
-22280283.764209
-22283982.540122
-22287701.316035
-22291392.091948
-22295124.867861
-22298824.643774
-22641809.131268
-22645572.907181
-22649273.683094
-22652929.459007
-22656634.234920
-22660324.010833
-22664011.786746
-22667649.562659
-22671245.338572
-23012934.826066
-23016701.601979
-23020361.377892
-23023983.153805
-23027702.929718
-23031329.705631
-23034908.481544
-23038516.257457
-23042080.033370
-23382539.520864
-23386173.296777
-23389767.072690
-23393446.848603
-23397032.624516
-23400595.400429
-23404163.176342
-23407664.952255
-23411251.728168
-23750215.215661
-23753959.991574
-23757543.767487
-23761067.543400
-23764687.319313
-23768230.095226
-23771696.871139
-23775153.647052
-23778618.422965
SCALARS stress_2 float
LOOKUP_TABLE default
308406.678209
-3567358.082603
-3510380.223093
-3453722.363583
-3396200.504073
-3339158.644563
-3280548.785052
-3222706.925542
-3163969.066032
-3105807.206522
-3046493.347012
-2987915.487502
-2928729.627991
-2869191.768481
-2809461.908971
-2750692.049461
-2690514.189951
-2630880.330441
-2570606.470931
-2510460.611420
-2450666.751910
-2390872.892400
-2330823.032890
-2270773.173380
-2210787.313870
-2150897.454359
-2091199.594849
-2031693.735339
-1972443.875829
-1913354.016319
-1853752.156809
-1794790.297299
-1736148.437788
-1677826.578278
-1620080.718768
-1561726.859258
-1504588.999748
-1447995.140238
-1390889.280727
-1335127.421217
-1279173.561707
-1223923.702197
-1168993.842687
-1114767.983177
-1061566.123667
-1008684.264156
-955738.404646
-904168.545136
-853014.685626
-802852.826116
-753458.966606
-704673.107095
-656399.247585
-609085.388075
-563115.528565
-517177.669055
-472583.809545
-428757.950035
-385700.090524
-343986.231014
-303520.371504
-263054.511994
-223772.652484
-186506.792974
-149496.933463
-113863.073953
-78933.214443
-44899.354933
-12817.495423
18304.364087
48146.223597
78116.083108
105749.942618
133479.802128
159001.661638
183659.521148
207261.380658
229583.240169
251009.099679
271442.959189
290436.818699
-3157662.232459
605014.528353
590980.668843
575570.809333
559584.949823
542447.090313
523709.230803
504267.371292
482809.511782
460743.652272
437045.792762
413091.933252
386738.073742
359744.214232
331886.354721
302812.495211
272010.635701
240536.776191
208070.916681
174069.057171
139235.197660
103409.338150
65887.478640
27661.619130
-11620.240380
-51702.099890
-92935.959400
-135225.818911
-178731.678421
-223101.537931
-267727.397441
-313857.256951
-360499.116461
-408548.975972
-457238.835482
-506696.694992
-556922.554502
-607084.414012
-658814.273522
-710640.133032
-763841.992543
-817107.852053
-871013.711563
-925591.571073
-981001.430583
-1036123.290093
-1093165.149604
-1149695.009114
-1206032.868624
-1262946.728134
-1321012.587644
-1379142.447154
-1438104.306664
-1496362.166175
-1555228.025685
-1614189.885195
-1673535.744705
-1733297.604215
-1792355.463725
-1852117.323236
-1912167.182746
-1972121.042256
-2032458.901766
-2092092.761276
-2152078.620786
-2212576.480296
-2272658.339807
-2332324.199317
-2392534.058827
-2452647.918337
-2512153.777847
-2571147.637357
-2630717.496868
-2690799.356378
-2749249.215888
-2808691.075398
-2867364.934908
-2925846.794418
-2984232.653928
-3042458.513439
-3100268.372949
-3198295.817473
-3240017.402488
-3280778.987502
-3322084.572517
-3362238.157531
-3403415.742545
-3444913.327560
-3485642.912574
-3526884.497589
338128.263224
368233.848238
398051.433252
428221.018267
457366.603281
487696.188296
517001.773310
545955.358325
575612.943339
561451.083829
531633.498814
501655.913800
471390.328786
441636.743771
411627.158757
381169.573742
351223.988728
320414.403713
545401.224319
515167.639304
485414.054290
455244.469275
424434.884261
393849.299247
363327.714232
332678.129218
301580.544203
529479.364808
498445.779794
467508.194780
436666.609765
406177.024751
375527.439736
344333.854722
313492.269708
282362.684693
511349.505298
480283.920284
449442.335269
418088.750255
387119.165241
355061.580226
324539.995212
292802.410197
261160.825183
492451.645788
460618.060774
429776.475759
398326.890745
366237.305730
334691.720716
302794.135702
271184.550687
238966.965673
472017.786278
440568.201264
408862.616249
376581.031235
344907.446220
312721.861206
280216.276191
248158.691177
216261.106163
450847.926768
418918.341753
386892.756739
353939.171725
321433.586710
289728.001696
257286.416681
224268.831667
191827.246653
428302.067258
395732.482243
363418.897229
330785.312214
297991.727200
265070.142186
231732.557171
198490.972157
165889.387142
404188.207748
371586.622733
338697.037719
305583.452704
272661.867690
239228.282675
205890.697661
172937.112647
139055.527632
379402.348237
346096.763223
313047.178209
279773.593194
246660.008180
212938.423165
179344.838151
145559.253136
112125.668122
353816.488727
320062.903713
286309.318698
252811.733684
218802.148670
185304.563655
151166.978641
116965.393626
82763.808612
326822.629217
292205.044203
258355.459188
224761.874174
189792.289159
155686.704145
121677.119131
87059.534116
52665.949102
297524.769707
263707.184693
229281.599678
194984.014664
160366.429649
125780.844635
90971.259620
56385.674606
21992.089592
267874.910197
234153.325182
199183.740168
164022.155154
129532.570139
94306.985125
59465.400110
24815.815096
-10313.769919
238353.050687
202711.465672
167261.880658
132324.295643
97002.710629
61809.125615
26935.540600
-8482.044414
-44155.629429
205823.191176
170597.606162
134924.021148
99730.436133
64344.851119
28927.266104
-6746.318910
-42355.903924
-78221.488939
172173.331666
137139.746652
101338.161637
65152.576623
29766.991609
-6386.593406
-41708.178420
-77957.763435
-114111.348449
138427.472156
102369.887142
66216.302127
30158.717113
-5642.867902
-41284.452916
-77310.037930
-113399.622945
-150385.207959
103433.612646
66768.027632
31286.442617
-5283.142397
-41532.727412
-78262.312426
-114831.897441
-151273.482455
-187779.067469
66903.753136
29950.168121
-6299.416893
-42741.001907
-79406.586922
-116200.171936
-152737.756951
-189307.341965
-226164.926980
29317.893626
-7763.691389
-43917.276403
-80998.861418
-117824.446432
-154682.031446
-192019.616461
-229197.201475
-265862.786490
-9099.965884
-46533.550899
-82879.135913
-120088.720928
-157170.305942
-194251.890957
-231749.475971
-269215.060985
-306104.646000
-48989.825395
-85719.410409
-123152.995423
-160490.580438
-197764.165452
-235581.750467
-273239.335481
-310960.920496
-348042.505510
-88495.684905
-126761.269919
-164098.854934
-201756.439948
-240022.024962
-277231.609977
-315401.194991
-353346.780006
-391164.365020
-130657.544415
-168667.129429
-206196.714444
-244558.299458
-282311.884473
-319873.469487
-358523.054501
-396148.639516
-433998.224530
-173459.403925
-211180.988939
-249062.573954
-287808.158968
-325849.743983
-363603.328997
-401932.914012
-440550.499026
-478976.084040
-216805.263435
-255006.848450
-293176.433464
-332402.018478
-369963.603493
-408549.188507
-447134.773522
-485848.358536
-524209.943551
-261399.122945
-299440.707960
-338570.292974
-376867.877989
-415389.463003
-454263.048017
-492720.633032
-531530.218046
-570243.803061
-306984.982456
-345474.567470
-383996.152484
-422773.737499
-461455.322513
-500040.907528
-539458.492542
-578044.077556
-617397.662571
-352730.841966
-391316.426980
-430702.011995
-469767.597009
-508801.182023
-547834.767038
-587092.352052
-626189.937067
-665255.522081
-400364.701476
-438950.286490
-478399.871505
-517241.456519
-556659.041534
-595852.626548
-634854.211562
-674463.796577
-713689.381591
-447806.560986
-486968.146000
-526353.731015
-565419.316029
-605252.901044
-644638.486058
-683992.071073
-723281.656087
-763051.241101
-496624.420496
-535850.005511
-575075.590525
-615197.175539
-654486.760554
-694064.345568
-733609.930583
-773667.515597
-813437.100612
-546402.280006
-585979.865021
-625493.450035
-664911.035050
-705224.620064
-745058.205078
-784603.790093
-824757.375107
-864526.960122
-596180.139516
-635693.724531
-675847.309545
-716032.894560
-755674.479574
-795508.064589
-835341.649603
-875687.234617
-915936.819632
-647365.999027
-687519.584041
-727417.169055
-767122.754070
-807596.339084
-847173.924099
-887327.509113
-927769.094128
-968274.679142
-698935.858537
-739249.443551
-778923.028566
-818980.613580
-859486.198594
-899959.783609
-940913.368623
-980394.953638
-1020676.538652
-751017.718047
-791747.303061
-831612.888076
-872118.473090
-912688.058105
-952905.643119
-993635.228133
-1033756.813148
-1074166.398162
-804795.577557
-844661.162571
-885230.747586
-925512.332600
-965825.917615
-1006299.502629
-1047317.087644
-1088014.672658
-1128520.257672
-857325.437067
-897703.022082
-938432.607096
-979386.192110
-1020211.777125
-1061037.362139
-1102118.947154
-1142208.532168
-1182906.117183
-911935.296577
-952184.881592
-993234.466606
-1034092.051621
-1074469.636635
-1115903.221649
-1156632.806664
-1197234.391678
-1237963.976693
-966321.156088
-1007274.741102
-1048420.326116
-1089053.911131
-1129911.496145
-1170833.081160
-1211690.666174
-1252868.251188
-1294077.836203
-1021667.015598
-1062620.600612
-1103350.185627
-1144623.770641
-1185609.355655
-1226434.940670
-1267740.525684
-1309014.110699
-1349519.695713
-1077172.875108
-1118222.460122
-1159688.045137
-1200993.630151
-1242075.215166
-1282900.800180
-1324014.385194
-1364967.970209
-1406433.555223
-1134214.734618
-1174848.319632
-1215481.904647
-1257203.489661
-1298669.074676
-1339462.659690
-1380704.244705
-1421913.829719
-1462835.414733
-1190168.594128
-1231730.179143
-1272779.764157
-1314053.349171
-1355198.934186
-1396856.519200
-1437746.104215
-1479275.689229
-1520581.274244
-1246986.453638
-1288644.038653
-1329597.623667
-1371767.208682
-1412656.793696
-1454122.378710
-1495843.963725
-1536957.548739
-1578327.133754
-1304796.313148
-1346005.898163
-1387791.483177
-1428777.068192
-1469922.653206
-1511900.238221
-1553781.823235
-1594511.408249
-1636552.993264
-1362638.172659
-1403655.757673
-1445121.342687
-1486490.927702
-1528404.512716
-1569774.097731
-1611335.682745
-1653217.267760
-1694490.852774
-1421248.032169
-1462329.617183
-1503699.202198
-1544972.787212
-1586598.372226
-1628255.957241
-1670201.542255
-1711411.127270
-1753324.712284
-1479217.891679
-1520299.476693
-1561957.061708
-1603806.646722
-1645784.231737
-1687089.816751
-1728011.401765
-1770852.986780
-1812094.571794
-1537987.751189
-1579581.336203
-1621078.921218
-1662960.506232
-1704714.091247
-1746147.676261
-1788125.261276
-1829142.846290
-1871408.431304
-1596501.610699
-1637935.195714
-1680136.780728
-1721986.365742
-1763707.950757
-1805237.535771
-1847343.120786
-1888616.705800
-1930338.290815
-1656007.470209
-1697409.055224
-1738938.640238
-1781012.225253
-1822701.810267
-1864583.395281
-1906304.980296
-1948378.565310
-1989748.150325
-1715577.329720
-1757010.914734
-1798444.499748
-1840102.084763
-1881855.669777
-1923801.254792
-1966194.839806
-2008076.424820
-2049958.009835
-1774443.189230
-1816196.774244
-1857854.359259
-1899799.944273
-1941457.529287
-1983499.114302
-2025188.699316
-2067486.284331
-2109303.869345
-1834173.048740
-1876086.633754
-1917776.218769
-1959657.803783
-2001667.388798
-2043484.973812
-2085302.558826
-2127120.143841
-2168969.728855
-1894350.908250
-1935944.493264
-1977634.078279
-2019515.663293
-2061845.248308
-2103214.833322
-2145320.418337
-2187266.003351
-2228571.588365
-1953760.767760
-1995482.352775
-2037587.937789
-2080045.522803
-2121031.107818
-2163584.692832
-2205146.277847
-2247315.862861
-2288909.447876
-2013970.627270
-2055532.212285
-2097669.797299
-2139391.382314
-2181048.967328
-2223154.552342
-2265228.137357
-2307045.722371
-2348991.307386
-2073956.486780
-2115582.071795
-2157431.656809
-2199601.241824
-2241258.826838
-2282980.411853
-2325181.996867
-2367031.581881
-2408465.166896
-2133878.346291
-2175439.931305
-2217737.516319
-2259587.101334
-2301148.686348
-2343126.271363
-2385167.856377
-2427081.441392
-2468995.026406
-2194120.205801
-2235969.790815
-2278299.375830
-2319668.960844
-2361230.545858
-2403080.130873
-2445505.715887
-2487035.300902
-2529076.885916
-2254202.065311
-2295955.650325
-2337741.235340
-2379174.820354
-2421312.405369
-2463129.990383
-2504723.575397
-2547085.160412
-2588742.745426
-2314699.924821
-2356389.509835
-2398111.094850
-2439608.679864
-2481458.264879
-2523051.849893
-2564709.434908
-2606975.019922
-2648600.604936
-2374813.784331
-2415991.369346
-2457392.954360
-2499978.539374
-2541156.124389
-2582877.709403
-2624599.294418
-2666512.879432
-2708586.464447
-2434479.643841
-2475593.228856
-2517954.813870
-2559132.398885
-2601077.983899
-2642607.568913
-2684137.153928
-2726050.738942
-2768028.323957
-2494017.503352
-2535515.088366
-2577204.673380
-2619214.258395
-2660039.843409
-2701953.428424
-2743931.013438
-2785940.598452
-2827758.183467
-2553651.362862
-2594924.947876
-2637222.532891
-2678656.117905
-2719993.702919
-2761651.287934
-2803116.872948
-2844966.457963
-2886880.042977
-2613061.222372
-2654494.807386
-2696312.392401
-2737809.977415
-2779371.562430
-2820965.147444
-2862878.732458
-2904504.317473
-2946545.902487
-2672567.081882
-2714320.666896
-2755786.251911
-2797475.836925
-2838909.421940
-2880471.006954
-2922352.591969
-2963402.176983
-3005027.761997
-2731944.941392
-2773282.526407
-2814620.111421
-2856661.696435
-2898063.281450
-2939496.866464
-2981218.451479
-3022460.036493
-3064501.621508
-2790938.800902
-2832436.385917
-2873773.970931
-2915527.555946
-2956929.140960
-2998010.725974
-3039476.310989
-3081581.896003
-3122247.481018
-2850412.660412
-2891462.245427
-2932831.830441
-2974073.415456
-3015603.000470
-3056652.585485
-3098470.170499
-3140095.755513
-3180537.340528
-2908638.519923
-2950104.104937
-2991505.689951
-3032779.274966
-3074436.859980
-3115358.444995
-3155704.030009
-3197937.615024
-3239147.200038
-2967056.379433
-3008361.964447
-3049315.549462
-3091005.134476
-3132182.719490
-3173616.304505
-3214953.889519
-3256227.474534
-3296989.059548
-3025730.238943
-3066491.823957
-3108181.408972
-3148590.993986
-3190440.579001
-3231618.164015
-3272635.749029
-3314037.334044
-3354830.919058
-3083220.098453
-3124973.683467
-3165607.268482
-3207040.853496
-3247770.438511
-3289172.023525
-3330029.608540
-3371111.193554
-3412544.778568
-3141445.957963
-3182335.542978
-3222969.127992
-3264466.713006
-3305612.298021
-3346533.883035
-3386975.468050
-3428889.053064
-3469522.638079
SCALARS stress_3 float
LOOKUP_TABLE default
105283.119082
6901122.233921
6803892.444986
6705830.656050
6607624.867115
6508763.078179
6408941.289244
6308975.500308
6209233.711373
6108211.922437
6006854.133502
5905192.344566
5803434.555631
5701372.766695
5598846.977760
5495873.188824
5392899.399889
5289557.610953
5186343.822018
5082682.033082
4978940.244147
4875166.455211
4771392.666276
4667586.877340
4563685.088405
4459959.299469
4356585.510534
4253275.721598
4150157.932663
4046800.143727
3944178.354792
3841860.565857
3739638.776921
3638088.987986
3536795.199050
3436045.410115
3335791.621179
3236241.832244
3137508.043308
3039062.254373
2941528.465437
2844426.676502
2748796.887566
2653791.098631
2559473.309695
2466643.520760
2373941.731824
2282967.942889
2193098.153953
2104236.365018
2016542.576082
1930128.787147
1845106.998211
1761221.209276
1679111.420340
1598521.631405
1518795.842469
1440782.053534
1364336.264598
1289682.475663
1216500.686727
1144822.897792
1075113.108856
1007195.319921
940877.530985
876271.742050
813665.953114
753060.164179
694182.375243
636840.586308
582090.797372
528765.008437
477327.219501
428177.430566
380947.641630
335509.852695
292248.063759
251098.274824
211548.485888
173950.696953
138704.908017
6727481.737632
-56037.377207
-23911.588272
10294.200664
46243.989599
84705.778535
124463.567470
166669.356406
210891.145341
257064.934277
305254.723212
355236.512148
407426.301083
461520.090019
517789.878954
575771.667890
635753.456825
697383.245761
761189.034696
826514.823632
893968.612567
962990.401503
1033900.190438
1106281.979374
1180695.768309
1256309.557244
1333859.346180
1412673.135115
1493166.924051
1575068.712986
1658538.501922
1743352.290857
1829414.079793
1916851.868728
2005473.657664
2095103.446599
2185981.235535
2278139.024470
2370984.813406
2465110.602341
2560324.391277
2656178.180212
2752943.969148
2850605.758083
2949067.547019
3047833.335954
3147783.124890
3247940.913825
3348834.702761
3450048.491696
3552142.280632
3654268.069567
3757033.858503
3859927.647438
3963141.436374
4066531.225309
4170497.014245
4274270.803180
4378236.592116
4482586.381051
4586664.169987
4690805.958922
4795027.747858
4898945.536793
5003151.325729
5106893.114664
5210554.903600
5314024.692535
5417318.481471
5520516.270406
5623090.059342
5725551.848277
5827709.637213
5929771.426148
6030665.215084
6131703.004019
6232308.792955
6332290.581890
6431984.370826
6530910.159761
6629259.948697
6744933.787261
6762113.836890
6779677.886519
6797225.936148
6814565.985777
6831762.035406
6849646.085035
6866746.134663
6884086.184292
88727.069453
72299.019824
55726.970195
39714.920566
23382.870937
7258.821308
-8865.228321
-24557.277950
-40537.327578
-8091.538643
7504.510986
23772.560615
39832.610244
56116.659873
72640.709502
88684.759131
105432.808759
122212.858388
26098.250293
42078.299921
58362.349550
74534.399179
90834.448808
107454.498437
124074.548066
140822.597695
157410.647324
62272.039228
78572.088857
95144.138486
111444.188115
127904.237744
144492.287373
161016.337002
177668.386630
194544.436259
100653.828164
116985.877792
133269.927421
149873.977050
166702.026679
183290.076308
199974.125937
216898.175566
234142.225195
140875.617099
157511.666728
173795.716357
190639.765986
207195.815615
224087.865244
241139.914873
257951.964501
275308.014130
183241.406035
199861.455663
216337.505292
233165.554921
250121.604550
266933.654179
284129.703808
301085.753437
318233.803066
227415.194970
244387.244599
261135.294228
277883.343857
294759.393486
312067.443115
329183.492744
346187.542372
363879.592001
273860.983906
290497.033534
307453.083163
324361.132792
341589.182421
358561.232050
375885.281679
393449.331308
410853.380937
322018.772841
338974.822470
355978.872099
373158.921728
390466.971357
407391.020986
424987.070615
442199.120243
460083.169872
372560.561777
389356.611405
406376.661034
423524.710663
440976.760292
458492.809921
475928.859550
493220.909179
511120.958808
424622.350712
441850.400341
459030.449970
476370.499599
493518.549228
511322.598857
528806.648486
546562.698114
564174.747743
478796.139647
496056.189276
513412.238905
530848.288534
548268.338163
565864.387792
583796.437421
601552.487050
619244.536679
534969.928583
552341.978212
569826.027841
587278.077470
605050.127099
622614.176728
640098.226356
657982.275985
675946.325614
593335.717518
610627.767147
627967.816776
645675.866405
663399.916034
681267.965663
698992.015292
716796.064921
734904.114550
653333.506454
670673.556083
688221.605712
705737.655341
723525.704970
741505.754599
759661.804227
777657.853856
795477.903485
714883.295389
732671.345018
750251.394647
768279.444276
785939.493905
803855.543534
821979.593163
839927.642792
858147.692421
778881.084325
796381.133954
814345.183583
832101.233212
850177.282841
867933.332470
886121.382098
904117.431727
922593.481356
844350.873260
861802.922889
879830.972518
897667.022147
915679.071776
934011.121405
952439.171034
970291.220663
988639.270292
911900.662196
929416.711825
947332.761454
965488.811083
983644.860712
1001960.910341
1019780.959969
1038241.009598
1056557.059227
980794.451131
998806.500760
1016914.550389
1034894.600018
1053018.649647
1071302.699276
1089714.748905
1107966.798534
1126490.848163
1051720.240067
1069972.289696
1087824.339325
1106108.388954
1124216.438583
1142452.488212
1160928.537840
1179308.587469
1197784.637098
1124230.029002
1142386.078631
1160350.128260
1178938.177889
1197190.227518
1215330.277147
1233694.326776
1252298.376405
1271222.426034
1198355.817938
1216623.867567
1234811.917196
1253191.966825
1271540.016454
1289888.066083
1308540.115711
1326952.165340
1345300.214969
1274593.606873
1292573.656502
1310825.706131
1329285.755760
1347713.805389
1366269.855018
1384553.904647
1403285.954276
1421826.003905
1352175.395809
1370187.445438
1388663.495067
1406787.544696
1425231.594325
1443851.643953
1462455.693582
1481075.743211
1499903.792840
1430925.184744
1449385.234373
1467717.284002
1486161.333631
1504461.383260
1523369.432889
1541429.482518
1560417.532147
1579501.581776
1511370.973680
1529831.023309
1548067.072938
1566895.122567
1585323.172196
1604023.221824
1622723.271453
1641327.321082
1660139.370711
1593528.762615
1611812.812244
1630240.861873
1648940.911502
1667368.961131
1686069.010760
1704641.060389
1723773.110018
1742697.159647
1676934.551551
1695330.601180
1713582.650809
1732298.700438
1751094.750067
1769714.799695
1788526.849324
1807370.898953
1826150.948582
1761732.340486
1780048.390115
1798700.439744
1817192.489373
1835844.539002
1854656.588631
1873372.638260
1892296.687889
1911108.737518
1848002.129422
1866094.179051
1884906.228680
1903478.278309
1922402.327938
1940942.377566
1959914.427195
1978470.476824
1997730.526453
1934975.918357
1953627.967986
1972344.017615
1991156.067244
2009712.116873
2028364.166502
2047416.216131
2066228.265760
2085200.315389
2024141.707293
2042345.756922
2060917.806551
2079857.856180
2098637.905809
2117273.955437
2136166.005066
2155010.054695
2173854.104324
2113787.496228
2132375.545857
2150659.595486
2169743.645115
2188539.694744
2207223.744373
2226083.794002
2245087.843631
2264187.893260
2204569.285164
2222997.334793
2241905.384422
2260589.434051
2279241.483680
2298133.533308
2317073.582937
2336109.632566
2355385.682195
2296743.074099
2315395.123728
2334111.173357
2352827.222986
2371735.272615
2390403.322244
2409199.371873
2428219.421502
2447351.471131
2389828.863035
2408320.912664
2427132.962293
2445993.011922
2464661.061551
2483393.111179
2502509.160808
2521305.210437
2540565.260066
2483746.651970
2502462.701599
2521210.751228
2540038.800857
2558706.850486
2577614.900115
2596634.949744
2615462.999373
2634851.049002
2579136.440906
2597628.490535
2616248.540164
2635076.589793
2654032.639421
2672636.689050
2691848.738679
2710772.788308
2729776.837937
2674702.229841
2693594.279470
2712086.329099
2730834.378728
2749774.428357
2768570.477986
2787654.527615
2806658.577244
2825694.626873
2771788.018777
2790152.068406
2808836.118035
2828128.167664
2846844.217292
2865640.266921
2884580.316550
2903488.366179
2922524.415808
2869369.807712
2887877.857341
2906609.906970
2925501.956599
2944154.006228
2963222.055857
2981890.105486
3000958.155115
3020042.204744
2967191.596648
2986131.646277
3004815.695906
3023771.745535
3042615.795163
3061491.844792
3080479.894421
3099019.944050
3117943.993679
3066645.385583
3085329.435212
3103949.484841
3122665.534470
3141525.584099
3160257.633728
3179229.683357
3198121.732986
3217109.782615
3166339.174519
3184879.224148
3203739.273777
3222119.323406
3241075.373034
3260159.422663
3278843.472292
3297671.521921
3316707.571550
3266464.963454
3285293.013083
3303929.062712
3322501.112341
3341473.161970
3360477.211599
3379273.261228
3398421.310857
3416993.360486
3367310.752390
3385914.802019
3404854.851648
3423442.901277
3442270.950905
3461307.000534
3480039.050163
3498803.099792
3517823.149421
3468668.541325
3487208.590954
3505940.640583
3524960.690212
3543660.739841
3562456.789470
3581380.839099
3600320.888728
3618988.938357
3570538.330261
3589286.379890
3607954.429519
3626558.479148
3645354.528776
3664262.578405
3683074.628034
3701950.677663
3720714.727292
3672792.119196
3691412.168825
3710208.218454
3728892.268083
3747576.317712
3766276.367341
3785168.416970
3803948.466599
3822984.516228
3775397.908132
3794081.957761
3812734.007390
3831306.057018
3850406.106647
3869042.156276
3887758.205905
3906490.255534
3925126.305163
3878243.697067
3897103.746696
3915531.796325
3934039.845954
3952947.895583
3971695.945212
3990635.994841
4009256.044470
4028020.094099
3981521.486003
4000349.535632
4019001.585261
4037525.634889
4056257.684518
4074797.734147
4093689.783776
4112421.833405
4131217.883034
4085327.274938
4103579.324567
4122295.374196
4140659.423825
4159551.473454
4178491.523083
4196919.572712
4215859.622341
4234111.671970
4188877.063874
4207337.113503
4225973.163132
4244577.212760
4263325.262389
4281801.312018
4300485.361647
4319201.411276
4337725.460905
4292954.852809
4311302.902438
4329762.952067
4348479.001696
4366907.051325
4385543.100954
4404099.150583
4423087.200212
4441483.249841
4396616.641745
4415188.691374
4433792.741003
4452252.790631
4470872.840260
4489540.889889
4507872.939518
4526556.989147
4545017.038776
4500950.430680
4519346.480309
4537902.529938
4556394.579567
4574838.629196
4593362.678825
4611870.728454
4630378.778083
4648870.827712
4605108.219616
4623472.269245
4641996.318874
4660440.368502
4678852.418131
4697248.467760
4715548.517389
4734216.567018
4752724.616647
4709170.008551
4727742.058180
4745898.107809
4764342.157438
4782690.207067
4801278.256696
4819914.306325
4838214.355954
4856786.405583
4813375.797487
4831435.847116
4849911.896745
4868451.946373
4886767.996002
4905116.045631
4923560.095260
4942068.144889
4960592.194518
4917565.586422
4935593.636051
4953925.685680
4972401.735309
4990621.784938
5009113.834567
5027605.884196
5045665.933825
5064061.983454
5021499.375358
5039623.424987
5057891.474616
5076351.524244
5094523.573873
5112759.623502
5131155.673131
5149567.722760
5167723.772389
5125241.164293
5143397.213922
5161553.263551
5179757.313180
5198297.362809
5216293.412438
5234865.462067
5253053.511696
5271097.561325
5228870.953229
5246835.002858
5265279.052486
5283547.102115
5301655.151744
5319683.201373
5338015.251002
5356171.300631
5374647.350260
5332276.742164
5350368.791793
5368364.841422
5386728.891051
5404820.940680
5423344.990309
5441421.039938
5459497.089567
5477653.139195
5435506.531100
5453534.580729
5471882.630357
5489958.679986
5508114.729615
5526014.779244
5544218.828873
5562582.878502
5580642.928131
5538512.320035
5556636.369664
5574552.419293
5592740.468922
5610608.518551
5628892.568180
5646904.617809
5665012.667438
5682848.717066
5641550.108971
5659354.158600
5677302.208228
5695106.257857
5713214.307486
5731434.357115
5749398.406744
5767474.456373
5785406.506002
5743435.897906
5761463.947535
5779411.997164
5797616.046793
5815340.096422
5833480.146051
5851476.195680
5869424.245309
5887500.294937
5845529.686842
5863733.736471
5881441.786099
5899581.835728
5917225.885357
5935461.934986
5953073.984615
5971102.034244
5989066.083873
5947415.475777
5965123.525406
5983071.575035
6000907.624664
6018679.674293
6036627.723922
6054511.773551
6072475.823180
6090151.872808
6048581.264713
6066337.314342
6084461.363970
6102073.413599
6119717.463228
6137505.512857
6155581.562486
6173353.612115
6190901.661744
6149539.053648
6167263.103277
6184955.152906
6202855.202535
6220595.252164
6238223.301793
6256155.351422
6273943.401051
6291555.450679
6250032.842584
6267772.892213
6285368.941841
6302916.991470
6320785.041099
6338493.090728
6356105.140357
6373861.189986
6391473.239615
6349982.631519
6367466.681148
6385494.730777
6402930.780406
6420606.830035
6438010.879664
6455926.929293
6473490.978922
6490943.028550
6449436.420455
6466952.470084
6484724.519712
6502352.569341
6519996.618970
6537640.668599
6555060.718228
6572576.767857
6590300.817486
6548442.209390
6565798.259019
6583554.308648
6601230.358277
6618522.407906
6636182.457535
6653490.507164
6670910.556792
6688634.606421
6646935.998326
6664228.047954
6681760.097583
6699356.147212
6716824.196841
6734324.246470
6751776.296099
6769324.345728
6786792.395357
