# vtk DataFile Version 2.0
Generated volume Mesh
ASCII
DATASET UNSTRUCTURED_GRID
POINTS 891 float
0.005000 0.100000 0.000000
0.005000 0.000000 0.000000
0.005000 0.001250 0.000000
0.005000 0.002500 0.000000
0.005000 0.003750 0.000000
0.005000 0.005000 0.000000
0.005000 0.006250 0.000000
0.005000 0.007500 0.000000
0.005000 0.008750 0.000000
0.005000 0.010000 0.000000
0.005000 0.011250 0.000000
0.005000 0.012500 0.000000
0.005000 0.013750 0.000000
0.005000 0.015000 0.000000
0.005000 0.016250 0.000000
0.005000 0.017500 0.000000
0.005000 0.018750 0.000000
0.005000 0.020000 0.000000
0.005000 0.021250 0.000000
0.005000 0.022500 0.000000
0.005000 0.023750 0.000000
0.005000 0.025000 0.000000
0.005000 0.026250 0.000000
0.005000 0.027500 0.000000
0.005000 0.028750 0.000000
0.005000 0.030000 0.000000
0.005000 0.031250 0.000000
0.005000 0.032500 0.000000
0.005000 0.033750 0.000000
0.005000 0.035000 0.000000
0.005000 0.036250 0.000000
0.005000 0.037500 0.000000
0.005000 0.038750 0.000000
0.005000 0.040000 0.000000
0.005000 0.041250 0.000000
0.005000 0.042500 0.000000
0.005000 0.043750 0.000000
0.005000 0.045000 0.000000
0.005000 0.046250 0.000000
0.005000 0.047500 0.000000
0.005000 0.048750 0.000000
0.005000 0.050000 0.000000
0.005000 0.051250 0.000000
0.005000 0.052500 0.000000
0.005000 0.053750 0.000000
0.005000 0.055000 0.000000
0.005000 0.056250 0.000000
0.005000 0.057500 0.000000
0.005000 0.058750 0.000000
0.005000 0.060000 0.000000
0.005000 0.061250 0.000000
0.005000 0.062500 0.000000
0.005000 0.063750 0.000000
0.005000 0.065000 0.000000
0.005000 0.066250 0.000000
0.005000 0.067500 0.000000
0.005000 0.068750 0.000000
0.005000 0.070000 0.000000
0.005000 0.071250 0.000000
0.005000 0.072500 0.000000
0.005000 0.073750 0.000000
0.005000 0.075000 0.000000
0.005000 0.076250 0.000000
0.005000 0.077500 0.000000
0.005000 0.078750 0.000000
0.005000 0.080000 0.000000
0.005000 0.081250 0.000000
0.005000 0.082500 0.000000
0.005000 0.083750 0.000000
0.005000 0.085000 0.000000
0.005000 0.086250 0.000000
0.005000 0.087500 0.000000
0.005000 0.088750 0.000000
0.005000 0.090000 0.000000
0.005000 0.091250 0.000000
0.005000 0.092500 0.000000
0.005000 0.093750 0.000000
0.005000 0.095000 0.000000
0.005000 0.096250 0.000000
0.005000 0.097500 0.000000
0.005000 0.098750 0.000000
0.000000 0.000000 0.000000
0.000000 0.100000 0.000000
0.000000 0.098750 0.000000
0.000000 0.097500 0.000000
0.000000 0.096250 0.000000
0.000000 0.095000 0.000000
0.000000 0.093750 0.000000
0.000000 0.092500 0.000000
0.000000 0.091250 0.000000
0.000000 0.090000 0.000000
0.000000 0.088750 0.000000
0.000000 0.087500 0.000000
0.000000 0.086250 0.000000
0.000000 0.085000 0.000000
0.000000 0.083750 0.000000
0.000000 0.082500 0.000000
0.000000 0.081250 0.000000
0.000000 0.080000 0.000000
0.000000 0.078750 0.000000
0.000000 0.077500 0.000000
0.000000 0.076250 0.000000
0.000000 0.075000 0.000000
0.000000 0.073750 0.000000
0.000000 0.072500 0.000000
0.000000 0.071250 0.000000
0.000000 0.070000 0.000000
0.000000 0.068750 0.000000
0.000000 0.067500 0.000000
0.000000 0.066250 0.000000
0.000000 0.065000 0.000000
0.000000 0.063750 0.000000
0.000000 0.062500 0.000000
0.000000 0.061250 0.000000
0.000000 0.060000 0.000000
0.000000 0.058750 0.000000
0.000000 0.057500 0.000000
0.000000 0.056250 0.000000
0.000000 0.055000 0.000000
0.000000 0.053750 0.000000
0.000000 0.052500 0.000000
0.000000 0.051250 0.000000
0.000000 0.050000 0.000000
0.000000 0.048750 0.000000
0.000000 0.047500 0.000000
0.000000 0.046250 0.000000
0.000000 0.045000 0.000000
0.000000 0.043750 0.000000
0.000000 0.042500 0.000000
0.000000 0.041250 0.000000
0.000000 0.040000 0.000000
0.000000 0.038750 0.000000
0.000000 0.037500 0.000000
0.000000 0.036250 0.000000
0.000000 0.035000 0.000000
0.000000 0.033750 0.000000
0.000000 0.032500 0.000000
0.000000 0.031250 0.000000
0.000000 0.030000 0.000000
0.000000 0.028750 0.000000
0.000000 0.027500 0.000000
0.000000 0.026250 0.000000
0.000000 0.025000 0.000000
0.000000 0.023750 0.000000
0.000000 0.022500 0.000000
0.000000 0.021250 0.000000
0.000000 0.020000 0.000000
0.000000 0.018750 0.000000
0.000000 0.017500 0.000000
0.000000 0.016250 0.000000
0.000000 0.015000 0.000000
0.000000 0.013750 0.000000
0.000000 0.012500 0.000000
0.000000 0.011250 0.000000
0.000000 0.010000 0.000000
0.000000 0.008750 0.000000
0.000000 0.007500 0.000000
0.000000 0.006250 0.000000
0.000000 0.005000 0.000000
0.000000 0.003750 0.000000
0.000000 0.002500 0.000000
0.000000 0.001250 0.000000
0.000500 0.000000 0.000000
0.001000 0.000000 0.000000
0.001500 0.000000 0.000000
0.002000 0.000000 0.000000
0.002500 0.000000 0.000000
0.003000 0.000000 0.000000
0.003500 0.000000 0.000000
0.004000 0.000000 0.000000
0.004500 0.000000 0.000000
0.004500 0.100000 0.000000
0.004000 0.100000 0.000000
0.003500 0.100000 0.000000
0.003000 0.100000 0.000000
0.002500 0.100000 0.000000
0.002000 0.100000 0.000000
0.001500 0.100000 0.000000
0.001000 0.100000 0.000000
0.000500 0.100000 0.000000
0.000500 0.098750 0.000000
0.001000 0.098750 0.000000
0.001500 0.098750 0.000000
0.002000 0.098750 0.000000
0.002500 0.098750 0.000000
0.003000 0.098750 0.000000
0.003500 0.098750 0.000000
0.004000 0.098750 0.000000
0.004500 0.098750 0.000000
0.000500 0.097500 0.000000
0.001000 0.097500 0.000000
0.001500 0.097500 0.000000
0.002000 0.097500 0.000000
0.002500 0.097500 0.000000
0.003000 0.097500 0.000000
0.003500 0.097500 0.000000
0.004000 0.097500 0.000000
0.004500 0.097500 0.000000
0.000500 0.096250 0.000000
0.001000 0.096250 0.000000
0.001500 0.096250 0.000000
0.002000 0.096250 0.000000
0.002500 0.096250 0.000000
0.003000 0.096250 0.000000
0.003500 0.096250 0.000000
0.004000 0.096250 0.000000
0.004500 0.096250 0.000000
0.000500 0.095000 0.000000
0.001000 0.095000 0.000000
0.001500 0.095000 0.000000
0.002000 0.095000 0.000000
0.002500 0.095000 0.000000
0.003000 0.095000 0.000000
0.003500 0.095000 0.000000
0.004000 0.095000 0.000000
0.004500 0.095000 0.000000
0.000500 0.093750 0.000000
0.001000 0.093750 0.000000
0.001500 0.093750 0.000000
0.002000 0.093750 0.000000
0.002500 0.093750 0.000000
0.003000 0.093750 0.000000
0.003500 0.093750 0.000000
0.004000 0.093750 0.000000
0.004500 0.093750 0.000000
0.000500 0.092500 0.000000
0.001000 0.092500 0.000000
0.001500 0.092500 0.000000
0.002000 0.092500 0.000000
0.002500 0.092500 0.000000
0.003000 0.092500 0.000000
0.003500 0.092500 0.000000
0.004000 0.092500 0.000000
0.004500 0.092500 0.000000
0.000500 0.091250 0.000000
0.001000 0.091250 0.000000
0.001500 0.091250 0.000000
0.002000 0.091250 0.000000
0.002500 0.091250 0.000000
0.003000 0.091250 0.000000
0.003500 0.091250 0.000000
0.004000 0.091250 0.000000
0.004500 0.091250 0.000000
0.000500 0.090000 0.000000
0.001000 0.090000 0.000000
0.001500 0.090000 0.000000
0.002000 0.090000 0.000000
0.002500 0.090000 0.000000
0.003000 0.090000 0.000000
0.003500 0.090000 0.000000
0.004000 0.090000 0.000000
0.004500 0.090000 0.000000
0.000500 0.088750 0.000000
0.001000 0.088750 0.000000
0.001500 0.088750 0.000000
0.002000 0.088750 0.000000
0.002500 0.088750 0.000000
0.003000 0.088750 0.000000
0.003500 0.088750 0.000000
0.004000 0.088750 0.000000
0.004500 0.088750 0.000000
0.000500 0.087500 0.000000
0.001000 0.087500 0.000000
0.001500 0.087500 0.000000
0.002000 0.087500 0.000000
0.002500 0.087500 0.000000
0.003000 0.087500 0.000000
0.003500 0.087500 0.000000
0.004000 0.087500 0.000000
0.004500 0.087500 0.000000
0.000500 0.086250 0.000000
0.001000 0.086250 0.000000
0.001500 0.086250 0.000000
0.002000 0.086250 0.000000
0.002500 0.086250 0.000000
0.003000 0.086250 0.000000
0.003500 0.086250 0.000000
0.004000 0.086250 0.000000
0.004500 0.086250 0.000000
0.000500 0.085000 0.000000
0.001000 0.085000 0.000000
0.001500 0.085000 0.000000
0.002000 0.085000 0.000000
0.002500 0.085000 0.000000
0.003000 0.085000 0.000000
0.003500 0.085000 0.000000
0.004000 0.085000 0.000000
0.004500 0.085000 0.000000
0.000500 0.083750 0.000000
0.001000 0.083750 0.000000
0.001500 0.083750 0.000000
0.002000 0.083750 0.000000
0.002500 0.083750 0.000000
0.003000 0.083750 0.000000
0.003500 0.083750 0.000000
0.004000 0.083750 0.000000
0.004500 0.083750 0.000000
0.000500 0.082500 0.000000
0.001000 0.082500 0.000000
0.001500 0.082500 0.000000
0.002000 0.082500 0.000000
0.002500 0.082500 0.000000
0.003000 0.082500 0.000000
0.003500 0.082500 0.000000
0.004000 0.082500 0.000000
0.004500 0.082500 0.000000
0.000500 0.081250 0.000000
0.001000 0.081250 0.000000
0.001500 0.081250 0.000000
0.002000 0.081250 0.000000
0.002500 0.081250 0.000000
0.003000 0.081250 0.000000
0.003500 0.081250 0.000000
0.004000 0.081250 0.000000
0.004500 0.081250 0.000000
0.000500 0.080000 0.000000
0.001000 0.080000 0.000000
0.001500 0.080000 0.000000
0.002000 0.080000 0.000000
0.002500 0.080000 0.000000
0.003000 0.080000 0.000000
0.003500 0.080000 0.000000
0.004000 0.080000 0.000000
0.004500 0.080000 0.000000
0.000500 0.078750 0.000000
0.001000 0.078750 0.000000
0.001500 0.078750 0.000000
0.002000 0.078750 0.000000
0.002500 0.078750 0.000000
0.003000 0.078750 0.000000
0.003500 0.078750 0.000000
0.004000 0.078750 0.000000
0.004500 0.078750 0.000000
0.000500 0.077500 0.000000
0.001000 0.077500 0.000000
0.001500 0.077500 0.000000
0.002000 0.077500 0.000000
0.002500 0.077500 0.000000
0.003000 0.077500 0.000000
0.003500 0.077500 0.000000
0.004000 0.077500 0.000000
0.004500 0.077500 0.000000
0.000500 0.076250 0.000000
0.001000 0.076250 0.000000
0.001500 0.076250 0.000000
0.002000 0.076250 0.000000
0.002500 0.076250 0.000000
0.003000 0.076250 0.000000
0.003500 0.076250 0.000000
0.004000 0.076250 0.000000
0.004500 0.076250 0.000000
0.000500 0.075000 0.000000
0.001000 0.075000 0.000000
0.001500 0.075000 0.000000
0.002000 0.075000 0.000000
0.002500 0.075000 0.000000
0.003000 0.075000 0.000000
0.003500 0.075000 0.000000
0.004000 0.075000 0.000000
0.004500 0.075000 0.000000
0.000500 0.073750 0.000000
0.001000 0.073750 0.000000
0.001500 0.073750 0.000000
0.002000 0.073750 0.000000
0.002500 0.073750 0.000000
0.003000 0.073750 0.000000
0.003500 0.073750 0.000000
0.004000 0.073750 0.000000
0.004500 0.073750 0.000000
0.000500 0.072500 0.000000
0.001000 0.072500 0.000000
0.001500 0.072500 0.000000
0.002000 0.072500 0.000000
0.002500 0.072500 0.000000
0.003000 0.072500 0.000000
0.003500 0.072500 0.000000
0.004000 0.072500 0.000000
0.004500 0.072500 0.000000
0.000500 0.071250 0.000000
0.001000 0.071250 0.000000
0.001500 0.071250 0.000000
0.002000 0.071250 0.000000
0.002500 0.071250 0.000000
0.003000 0.071250 0.000000
0.003500 0.071250 0.000000
0.004000 0.071250 0.000000
0.004500 0.071250 0.000000
0.000500 0.070000 0.000000
0.001000 0.070000 0.000000
0.001500 0.070000 0.000000
0.002000 0.070000 0.000000
0.002500 0.070000 0.000000
0.003000 0.070000 0.000000
0.003500 0.070000 0.000000
0.004000 0.070000 0.000000
0.004500 0.070000 0.000000
0.000500 0.068750 0.000000
0.001000 0.068750 0.000000
0.001500 0.068750 0.000000
0.002000 0.068750 0.000000
0.002500 0.068750 0.000000
0.003000 0.068750 0.000000
0.003500 0.068750 0.000000
0.004000 0.068750 0.000000
0.004500 0.068750 0.000000
0.000500 0.067500 0.000000
0.001000 0.067500 0.000000
0.001500 0.067500 0.000000
0.002000 0.067500 0.000000
0.002500 0.067500 0.000000
0.003000 0.067500 0.000000
0.003500 0.067500 0.000000
0.004000 0.067500 0.000000
0.004500 0.067500 0.000000
0.000500 0.066250 0.000000
0.001000 0.066250 0.000000
0.001500 0.066250 0.000000
0.002000 0.066250 0.000000
0.002500 0.066250 0.000000
0.003000 0.066250 0.000000
0.003500 0.066250 0.000000
0.004000 0.066250 0.000000
0.004500 0.066250 0.000000
0.000500 0.065000 0.000000
0.001000 0.065000 0.000000
0.001500 0.065000 0.000000
0.002000 0.065000 0.000000
0.002500 0.065000 0.000000
0.003000 0.065000 0.000000
0.003500 0.065000 0.000000
0.004000 0.065000 0.000000
0.004500 0.065000 0.000000
0.000500 0.063750 0.000000
0.001000 0.063750 0.000000
0.001500 0.063750 0.000000
0.002000 0.063750 0.000000
0.002500 0.063750 0.000000
0.003000 0.063750 0.000000
0.003500 0.063750 0.000000
0.004000 0.063750 0.000000
0.004500 0.063750 0.000000
0.000500 0.062500 0.000000
0.001000 0.062500 0.000000
0.001500 0.062500 0.000000
0.002000 0.062500 0.000000
0.002500 0.062500 0.000000
0.003000 0.062500 0.000000
0.003500 0.062500 0.000000
0.004000 0.062500 0.000000
0.004500 0.062500 0.000000
0.000500 0.061250 0.000000
0.001000 0.061250 0.000000
0.001500 0.061250 0.000000
0.002000 0.061250 0.000000
0.002500 0.061250 0.000000
0.003000 0.061250 0.000000
0.003500 0.061250 0.000000
0.004000 0.061250 0.000000
0.004500 0.061250 0.000000
0.000500 0.060000 0.000000
0.001000 0.060000 0.000000
0.001500 0.060000 0.000000
0.002000 0.060000 0.000000
0.002500 0.060000 0.000000
0.003000 0.060000 0.000000
0.003500 0.060000 0.000000
0.004000 0.060000 0.000000
0.004500 0.060000 0.000000
0.000500 0.058750 0.000000
0.001000 0.058750 0.000000
0.001500 0.058750 0.000000
0.002000 0.058750 0.000000
0.002500 0.058750 0.000000
0.003000 0.058750 0.000000
0.003500 0.058750 0.000000
0.004000 0.058750 0.000000
0.004500 0.058750 0.000000
0.000500 0.057500 0.000000
0.001000 0.057500 0.000000
0.001500 0.057500 0.000000
0.002000 0.057500 0.000000
0.002500 0.057500 0.000000
0.003000 0.057500 0.000000
0.003500 0.057500 0.000000
0.004000 0.057500 0.000000
0.004500 0.057500 0.000000
0.000500 0.056250 0.000000
0.001000 0.056250 0.000000
0.001500 0.056250 0.000000
0.002000 0.056250 0.000000
0.002500 0.056250 0.000000
0.003000 0.056250 0.000000
0.003500 0.056250 0.000000
0.004000 0.056250 0.000000
0.004500 0.056250 0.000000
0.000500 0.055000 0.000000
0.001000 0.055000 0.000000
0.001500 0.055000 0.000000
0.002000 0.055000 0.000000
0.002500 0.055000 0.000000
0.003000 0.055000 0.000000
0.003500 0.055000 0.000000
0.004000 0.055000 0.000000
0.004500 0.055000 0.000000
0.000500 0.053750 0.000000
0.001000 0.053750 0.000000
0.001500 0.053750 0.000000
0.002000 0.053750 0.000000
0.002500 0.053750 0.000000
0.003000 0.053750 0.000000
0.003500 0.053750 0.000000
0.004000 0.053750 0.000000
0.004500 0.053750 0.000000
0.000500 0.052500 0.000000
0.001000 0.052500 0.000000
0.001500 0.052500 0.000000
0.002000 0.052500 0.000000
0.002500 0.052500 0.000000
0.003000 0.052500 0.000000
0.003500 0.052500 0.000000
0.004000 0.052500 0.000000
0.004500 0.052500 0.000000
0.000500 0.051250 0.000000
0.001000 0.051250 0.000000
0.001500 0.051250 0.000000
0.002000 0.051250 0.000000
0.002500 0.051250 0.000000
0.003000 0.051250 0.000000
0.003500 0.051250 0.000000
0.004000 0.051250 0.000000
0.004500 0.051250 0.000000
0.000500 0.050000 0.000000
0.001000 0.050000 0.000000
0.001500 0.050000 0.000000
0.002000 0.050000 0.000000
0.002500 0.050000 0.000000
0.003000 0.050000 0.000000
0.003500 0.050000 0.000000
0.004000 0.050000 0.000000
0.004500 0.050000 0.000000
0.000500 0.048750 0.000000
0.001000 0.048750 0.000000
0.001500 0.048750 0.000000
0.002000 0.048750 0.000000
0.002500 0.048750 0.000000
0.003000 0.048750 0.000000
0.003500 0.048750 0.000000
0.004000 0.048750 0.000000
0.004500 0.048750 0.000000
0.000500 0.047500 0.000000
0.001000 0.047500 0.000000
0.001500 0.047500 0.000000
0.002000 0.047500 0.000000
0.002500 0.047500 0.000000
0.003000 0.047500 0.000000
0.003500 0.047500 0.000000
0.004000 0.047500 0.000000
0.004500 0.047500 0.000000
0.000500 0.046250 0.000000
0.001000 0.046250 0.000000
0.001500 0.046250 0.000000
0.002000 0.046250 0.000000
0.002500 0.046250 0.000000
0.003000 0.046250 0.000000
0.003500 0.046250 0.000000
0.004000 0.046250 0.000000
0.004500 0.046250 0.000000
0.000500 0.045000 0.000000
0.001000 0.045000 0.000000
0.001500 0.045000 0.000000
0.002000 0.045000 0.000000
0.002500 0.045000 0.000000
0.003000 0.045000 0.000000
0.003500 0.045000 0.000000
0.004000 0.045000 0.000000
0.004500 0.045000 0.000000
0.000500 0.043750 0.000000
0.001000 0.043750 0.000000
0.001500 0.043750 0.000000
0.002000 0.043750 0.000000
0.002500 0.043750 0.000000
0.003000 0.043750 0.000000
0.003500 0.043750 0.000000
0.004000 0.043750 0.000000
0.004500 0.043750 0.000000
0.000500 0.042500 0.000000
0.001000 0.042500 0.000000
0.001500 0.042500 0.000000
0.002000 0.042500 0.000000
0.002500 0.042500 0.000000
0.003000 0.042500 0.000000
0.003500 0.042500 0.000000
0.004000 0.042500 0.000000
0.004500 0.042500 0.000000
0.000500 0.041250 0.000000
0.001000 0.041250 0.000000
0.001500 0.041250 0.000000
0.002000 0.041250 0.000000
0.002500 0.041250 0.000000
0.003000 0.041250 0.000000
0.003500 0.041250 0.000000
0.004000 0.041250 0.000000
0.004500 0.041250 0.000000
0.000500 0.040000 0.000000
0.001000 0.040000 0.000000
0.001500 0.040000 0.000000
0.002000 0.040000 0.000000
0.002500 0.040000 0.000000
0.003000 0.040000 0.000000
0.003500 0.040000 0.000000
0.004000 0.040000 0.000000
0.004500 0.040000 0.000000
0.000500 0.038750 0.000000
0.001000 0.038750 0.000000
0.001500 0.038750 0.000000
0.002000 0.038750 0.000000
0.002500 0.038750 0.000000
0.003000 0.038750 0.000000
0.003500 0.038750 0.000000
0.004000 0.038750 0.000000
0.004500 0.038750 0.000000
0.000500 0.037500 0.000000
0.001000 0.037500 0.000000
0.001500 0.037500 0.000000
0.002000 0.037500 0.000000
0.002500 0.037500 0.000000
0.003000 0.037500 0.000000
0.003500 0.037500 0.000000
0.004000 0.037500 0.000000
0.004500 0.037500 0.000000
0.000500 0.036250 0.000000
0.001000 0.036250 0.000000
0.001500 0.036250 0.000000
0.002000 0.036250 0.000000
0.002500 0.036250 0.000000
0.003000 0.036250 0.000000
0.003500 0.036250 0.000000
0.004000 0.036250 0.000000
0.004500 0.036250 0.000000
0.000500 0.035000 0.000000
0.001000 0.035000 0.000000
0.001500 0.035000 0.000000
0.002000 0.035000 0.000000
0.002500 0.035000 0.000000
0.003000 0.035000 0.000000
0.003500 0.035000 0.000000
0.004000 0.035000 0.000000
0.004500 0.035000 0.000000
0.000500 0.033750 0.000000
0.001000 0.033750 0.000000
0.001500 0.033750 0.000000
0.002000 0.033750 0.000000
0.002500 0.033750 0.000000
0.003000 0.033750 0.000000
0.003500 0.033750 0.000000
0.004000 0.033750 0.000000
0.004500 0.033750 0.000000
0.000500 0.032500 0.000000
0.001000 0.032500 0.000000
0.001500 0.032500 0.000000
0.002000 0.032500 0.000000
0.002500 0.032500 0.000000
0.003000 0.032500 0.000000
0.003500 0.032500 0.000000
0.004000 0.032500 0.000000
0.004500 0.032500 0.000000
0.000500 0.031250 0.000000
0.001000 0.031250 0.000000
0.001500 0.031250 0.000000
0.002000 0.031250 0.000000
0.002500 0.031250 0.000000
0.003000 0.031250 0.000000
0.003500 0.031250 0.000000
0.004000 0.031250 0.000000
0.004500 0.031250 0.000000
0.000500 0.030000 0.000000
0.001000 0.030000 0.000000
0.001500 0.030000 0.000000
0.002000 0.030000 0.000000
0.002500 0.030000 0.000000
0.003000 0.030000 0.000000
0.003500 0.030000 0.000000
0.004000 0.030000 0.000000
0.004500 0.030000 0.000000
0.000500 0.028750 0.000000
0.001000 0.028750 0.000000
0.001500 0.028750 0.000000
0.002000 0.028750 0.000000
0.002500 0.028750 0.000000
0.003000 0.028750 0.000000
0.003500 0.028750 0.000000
0.004000 0.028750 0.000000
0.004500 0.028750 0.000000
0.000500 0.027500 0.000000
0.001000 0.027500 0.000000
0.001500 0.027500 0.000000
0.002000 0.027500 0.000000
0.002500 0.027500 0.000000
0.003000 0.027500 0.000000
0.003500 0.027500 0.000000
0.004000 0.027500 0.000000
0.004500 0.027500 0.000000
0.000500 0.026250 0.000000
0.001000 0.026250 0.000000
0.001500 0.026250 0.000000
0.002000 0.026250 0.000000
0.002500 0.026250 0.000000
0.003000 0.026250 0.000000
0.003500 0.026250 0.000000
0.004000 0.026250 0.000000
0.004500 0.026250 0.000000
0.000500 0.025000 0.000000
0.001000 0.025000 0.000000
0.001500 0.025000 0.000000
0.002000 0.025000 0.000000
0.002500 0.025000 0.000000
0.003000 0.025000 0.000000
0.003500 0.025000 0.000000
0.004000 0.025000 0.000000
0.004500 0.025000 0.000000
0.000500 0.023750 0.000000
0.001000 0.023750 0.000000
0.001500 0.023750 0.000000
0.002000 0.023750 0.000000
0.002500 0.023750 0.000000
0.003000 0.023750 0.000000
0.003500 0.023750 0.000000
0.004000 0.023750 0.000000
0.004500 0.023750 0.000000
0.000500 0.022500 0.000000
0.001000 0.022500 0.000000
0.001500 0.022500 0.000000
0.002000 0.022500 0.000000
0.002500 0.022500 0.000000
0.003000 0.022500 0.000000
0.003500 0.022500 0.000000
0.004000 0.022500 0.000000
0.004500 0.022500 0.000000
0.000500 0.021250 0.000000
0.001000 0.021250 0.000000
0.001500 0.021250 0.000000
0.002000 0.021250 0.000000
0.002500 0.021250 0.000000
0.003000 0.021250 0.000000
0.003500 0.021250 0.000000
0.004000 0.021250 0.000000
0.004500 0.021250 0.000000
0.000500 0.020000 0.000000
0.001000 0.020000 0.000000
0.001500 0.020000 0.000000
0.002000 0.020000 0.000000
0.002500 0.020000 0.000000
0.003000 0.020000 0.000000
0.003500 0.020000 0.000000
0.004000 0.020000 0.000000
0.004500 0.020000 0.000000
0.000500 0.018750 0.000000
0.001000 0.018750 0.000000
0.001500 0.018750 0.000000
0.002000 0.018750 0.000000
0.002500 0.018750 0.000000
0.003000 0.018750 0.000000
0.003500 0.018750 0.000000
0.004000 0.018750 0.000000
0.004500 0.018750 0.000000
0.000500 0.017500 0.000000
0.001000 0.017500 0.000000
0.001500 0.017500 0.000000
0.002000 0.017500 0.000000
0.002500 0.017500 0.000000
0.003000 0.017500 0.000000
0.003500 0.017500 0.000000
0.004000 0.017500 0.000000
0.004500 0.017500 0.000000
0.000500 0.016250 0.000000
0.001000 0.016250 0.000000
0.001500 0.016250 0.000000
0.002000 0.016250 0.000000
0.002500 0.016250 0.000000
0.003000 0.016250 0.000000
0.003500 0.016250 0.000000
0.004000 0.016250 0.000000
0.004500 0.016250 0.000000
0.000500 0.015000 0.000000
0.001000 0.015000 0.000000
0.001500 0.015000 0.000000
0.002000 0.015000 0.000000
0.002500 0.015000 0.000000
0.003000 0.015000 0.000000
0.003500 0.015000 0.000000
0.004000 0.015000 0.000000
0.004500 0.015000 0.000000
0.000500 0.013750 0.000000
0.001000 0.013750 0.000000
0.001500 0.013750 0.000000
0.002000 0.013750 0.000000
0.002500 0.013750 0.000000
0.003000 0.013750 0.000000
0.003500 0.013750 0.000000
0.004000 0.013750 0.000000
0.004500 0.013750 0.000000
0.000500 0.012500 0.000000
0.001000 0.012500 0.000000
0.001500 0.012500 0.000000
0.002000 0.012500 0.000000
0.002500 0.012500 0.000000
0.003000 0.012500 0.000000
0.003500 0.012500 0.000000
0.004000 0.012500 0.000000
0.004500 0.012500 0.000000
0.000500 0.011250 0.000000
0.001000 0.011250 0.000000
0.001500 0.011250 0.000000
0.002000 0.011250 0.000000
0.002500 0.011250 0.000000
0.003000 0.011250 0.000000
0.003500 0.011250 0.000000
0.004000 0.011250 0.000000
0.004500 0.011250 0.000000
0.000500 0.010000 0.000000
0.001000 0.010000 0.000000
0.001500 0.010000 0.000000
0.002000 0.010000 0.000000
0.002500 0.010000 0.000000
0.003000 0.010000 0.000000
0.003500 0.010000 0.000000
0.004000 0.010000 0.000000
0.004500 0.010000 0.000000
0.000500 0.008750 0.000000
0.001000 0.008750 0.000000
0.001500 0.008750 0.000000
0.002000 0.008750 0.000000
0.002500 0.008750 0.000000
0.003000 0.008750 0.000000
0.003500 0.008750 0.000000
0.004000 0.008750 0.000000
0.004500 0.008750 0.000000
0.000500 0.007500 0.000000
0.001000 0.007500 0.000000
0.001500 0.007500 0.000000
0.002000 0.007500 0.000000
0.002500 0.007500 0.000000
0.003000 0.007500 0.000000
0.003500 0.007500 0.000000
0.004000 0.007500 0.000000
0.004500 0.007500 0.000000
0.000500 0.006250 0.000000
0.001000 0.006250 0.000000
0.001500 0.006250 0.000000
0.002000 0.006250 0.000000
0.002500 0.006250 0.000000
0.003000 0.006250 0.000000
0.003500 0.006250 0.000000
0.004000 0.006250 0.000000
0.004500 0.006250 0.000000
0.000500 0.005000 0.000000
0.001000 0.005000 0.000000
0.001500 0.005000 0.000000
0.002000 0.005000 0.000000
0.002500 0.005000 0.000000
0.003000 0.005000 0.000000
0.003500 0.005000 0.000000
0.004000 0.005000 0.000000
0.004500 0.005000 0.000000
0.000500 0.003750 0.000000
0.001000 0.003750 0.000000
0.001500 0.003750 0.000000
0.002000 0.003750 0.000000
0.002500 0.003750 0.000000
0.003000 0.003750 0.000000
0.003500 0.003750 0.000000
0.004000 0.003750 0.000000
0.004500 0.003750 0.000000
0.000500 0.002500 0.000000
0.001000 0.002500 0.000000
0.001500 0.002500 0.000000
0.002000 0.002500 0.000000
0.002500 0.002500 0.000000
0.003000 0.002500 0.000000
0.003500 0.002500 0.000000
0.004000 0.002500 0.000000
0.004500 0.002500 0.000000
0.000500 0.001250 0.000000
0.001000 0.001250 0.000000
0.001500 0.001250 0.000000
0.002000 0.001250 0.000000
0.002500 0.001250 0.000000
0.003000 0.001250 0.000000
0.003500 0.001250 0.000000
0.004000 0.001250 0.000000
0.004500 0.001250 0.000000
CELLS 800 4000
4 82 83 180 179
4 179 180 181 178
4 178 181 182 177
4 177 182 183 176
4 176 183 184 175
4 175 184 185 174
4 174 185 186 173
4 173 186 187 172
4 172 187 188 171
4 171 188 80 0
4 83 84 189 180
4 180 189 190 181
4 181 190 191 182
4 182 191 192 183
4 183 192 193 184
4 184 193 194 185
4 185 194 195 186
4 186 195 196 187
4 187 196 197 188
4 188 197 79 80
4 84 85 198 189
4 189 198 199 190
4 190 199 200 191
4 191 200 201 192
4 192 201 202 193
4 193 202 203 194
4 194 203 204 195
4 195 204 205 196
4 196 205 206 197
4 197 206 78 79
4 85 86 207 198
4 198 207 208 199
4 199 208 209 200
4 200 209 210 201
4 201 210 211 202
4 202 211 212 203
4 203 212 213 204
4 204 213 214 205
4 205 214 215 206
4 206 215 77 78
4 86 87 216 207
4 207 216 217 208
4 208 217 218 209
4 209 218 219 210
4 210 219 220 211
4 211 220 221 212
4 212 221 222 213
4 213 222 223 214
4 214 223 224 215
4 215 224 76 77
4 87 88 225 216
4 216 225 226 217
4 217 226 227 218
4 218 227 228 219
4 219 228 229 220
4 220 229 230 221
4 221 230 231 222
4 222 231 232 223
4 223 232 233 224
4 224 233 75 76
4 88 89 234 225
4 225 234 235 226
4 226 235 236 227
4 227 236 237 228
4 228 237 238 229
4 229 238 239 230
4 230 239 240 231
4 231 240 241 232
4 232 241 242 233
4 233 242 74 75
4 89 90 243 234
4 234 243 244 235
4 235 244 245 236
4 236 245 246 237
4 237 246 247 238
4 238 247 248 239
4 239 248 249 240
4 240 249 250 241
4 241 250 251 242
4 242 251 73 74
4 90 91 252 243
4 243 252 253 244
4 244 253 254 245
4 245 254 255 246
4 246 255 256 247
4 247 256 257 248
4 248 257 258 249
4 249 258 259 250
4 250 259 260 251
4 251 260 72 73
4 91 92 261 252
4 252 261 262 253
4 253 262 263 254
4 254 263 264 255
4 255 264 265 256
4 256 265 266 257
4 257 266 267 258
4 258 267 268 259
4 259 268 269 260
4 260 269 71 72
4 92 93 270 261
4 261 270 271 262
4 262 271 272 263
4 263 272 273 264
4 264 273 274 265
4 265 274 275 266
4 266 275 276 267
4 267 276 277 268
4 268 277 278 269
4 269 278 70 71
4 93 94 279 270
4 270 279 280 271
4 271 280 281 272
4 272 281 282 273
4 273 282 283 274
4 274 283 284 275
4 275 284 285 276
4 276 285 286 277
4 277 286 287 278
4 278 287 69 70
4 94 95 288 279
4 279 288 289 280
4 280 289 290 281
4 281 290 291 282
4 282 291 292 283
4 283 292 293 284
4 284 293 294 285
4 285 294 295 286
4 286 295 296 287
4 287 296 68 69
4 95 96 297 288
4 288 297 298 289
4 289 298 299 290
4 290 299 300 291
4 291 300 301 292
4 292 301 302 293
4 293 302 303 294
4 294 303 304 295
4 295 304 305 296
4 296 305 67 68
4 96 97 306 297
4 297 306 307 298
4 298 307 308 299
4 299 308 309 300
4 300 309 310 301
4 301 310 311 302
4 302 311 312 303
4 303 312 313 304
4 304 313 314 305
4 305 314 66 67
4 97 98 315 306
4 306 315 316 307
4 307 316 317 308
4 308 317 318 309
4 309 318 319 310
4 310 319 320 311
4 311 320 321 312
4 312 321 322 313
4 313 322 323 314
4 314 323 65 66
4 98 99 324 315
4 315 324 325 316
4 316 325 326 317
4 317 326 327 318
4 318 327 328 319
4 319 328 329 320
4 320 329 330 321
4 321 330 331 322
4 322 331 332 323
4 323 332 64 65
4 99 100 333 324
4 324 333 334 325
4 325 334 335 326
4 326 335 336 327
4 327 336 337 328
4 328 337 338 329
4 329 338 339 330
4 330 339 340 331
4 331 340 341 332
4 332 341 63 64
4 100 101 342 333
4 333 342 343 334
4 334 343 344 335
4 335 344 345 336
4 336 345 346 337
4 337 346 347 338
4 338 347 348 339
4 339 348 349 340
4 340 349 350 341
4 341 350 62 63
4 101 102 351 342
4 342 351 352 343
4 343 352 353 344
4 344 353 354 345
4 345 354 355 346
4 346 355 356 347
4 347 356 357 348
4 348 357 358 349
4 349 358 359 350
4 350 359 61 62
4 102 103 360 351
4 351 360 361 352
4 352 361 362 353
4 353 362 363 354
4 354 363 364 355
4 355 364 365 356
4 356 365 366 357
4 357 366 367 358
4 358 367 368 359
4 359 368 60 61
4 103 104 369 360
4 360 369 370 361
4 361 370 371 362
4 362 371 372 363
4 363 372 373 364
4 364 373 374 365
4 365 374 375 366
4 366 375 376 367
4 367 376 377 368
4 368 377 59 60
4 104 105 378 369
4 369 378 379 370
4 370 379 380 371
4 371 380 381 372
4 372 381 382 373
4 373 382 383 374
4 374 383 384 375
4 375 384 385 376
4 376 385 386 377
4 377 386 58 59
4 105 106 387 378
4 378 387 388 379
4 379 388 389 380
4 380 389 390 381
4 381 390 391 382
4 382 391 392 383
4 383 392 393 384
4 384 393 394 385
4 385 394 395 386
4 386 395 57 58
4 106 107 396 387
4 387 396 397 388
4 388 397 398 389
4 389 398 399 390
4 390 399 400 391
4 391 400 401 392
4 392 401 402 393
4 393 402 403 394
4 394 403 404 395
4 395 404 56 57
4 107 108 405 396
4 396 405 406 397
4 397 406 407 398
4 398 407 408 399
4 399 408 409 400
4 400 409 410 401
4 401 410 411 402
4 402 411 412 403
4 403 412 413 404
4 404 413 55 56
4 108 109 414 405
4 405 414 415 406
4 406 415 416 407
4 407 416 417 408
4 408 417 418 409
4 409 418 419 410
4 410 419 420 411
4 411 420 421 412
4 412 421 422 413
4 413 422 54 55
4 109 110 423 414
4 414 423 424 415
4 415 424 425 416
4 416 425 426 417
4 417 426 427 418
4 418 427 428 419
4 419 428 429 420
4 420 429 430 421
4 421 430 431 422
4 422 431 53 54
4 110 111 432 423
4 423 432 433 424
4 424 433 434 425
4 425 434 435 426
4 426 435 436 427
4 427 436 437 428
4 428 437 438 429
4 429 438 439 430
4 430 439 440 431
4 431 440 52 53
4 111 112 441 432
4 432 441 442 433
4 433 442 443 434
4 434 443 444 435
4 435 444 445 436
4 436 445 446 437
4 437 446 447 438
4 438 447 448 439
4 439 448 449 440
4 440 449 51 52
4 112 113 450 441
4 441 450 451 442
4 442 451 452 443
4 443 452 453 444
4 444 453 454 445
4 445 454 455 446
4 446 455 456 447
4 447 456 457 448
4 448 457 458 449
4 449 458 50 51
4 113 114 459 450
4 450 459 460 451
4 451 460 461 452
4 452 461 462 453
4 453 462 463 454
4 454 463 464 455
4 455 464 465 456
4 456 465 466 457
4 457 466 467 458
4 458 467 49 50
4 114 115 468 459
4 459 468 469 460
4 460 469 470 461
4 461 470 471 462
4 462 471 472 463
4 463 472 473 464
4 464 473 474 465
4 465 474 475 466
4 466 475 476 467
4 467 476 48 49
4 115 116 477 468
4 468 477 478 469
4 469 478 479 470
4 470 479 480 471
4 471 480 481 472
4 472 481 482 473
4 473 482 483 474
4 474 483 484 475
4 475 484 485 476
4 476 485 47 48
4 116 117 486 477
4 477 486 487 478
4 478 487 488 479
4 479 488 489 480
4 480 489 490 481
4 481 490 491 482
4 482 491 492 483
4 483 492 493 484
4 484 493 494 485
4 485 494 46 47
4 117 118 495 486
4 486 495 496 487
4 487 496 497 488
4 488 497 498 489
4 489 498 499 490
4 490 499 500 491
4 491 500 501 492
4 492 501 502 493
4 493 502 503 494
4 494 503 45 46
4 118 119 504 495
4 495 504 505 496
4 496 505 506 497
4 497 506 507 498
4 498 507 508 499
4 499 508 509 500
4 500 509 510 501
4 501 510 511 502
4 502 511 512 503
4 503 512 44 45
4 119 120 513 504
4 504 513 514 505
4 505 514 515 506
4 506 515 516 507
4 507 516 517 508
4 508 517 518 509
4 509 518 519 510
4 510 519 520 511
4 511 520 521 512
4 512 521 43 44
4 120 121 522 513
4 513 522 523 514
4 514 523 524 515
4 515 524 525 516
4 516 525 526 517
4 517 526 527 518
4 518 527 528 519
4 519 528 529 520
4 520 529 530 521
4 521 530 42 43
4 121 122 531 522
4 522 531 532 523
4 523 532 533 524
4 524 533 534 525
4 525 534 535 526
4 526 535 536 527
4 527 536 537 528
4 528 537 538 529
4 529 538 539 530
4 530 539 41 42
4 122 123 540 531
4 531 540 541 532
4 532 541 542 533
4 533 542 543 534
4 534 543 544 535
4 535 544 545 536
4 536 545 546 537
4 537 546 547 538
4 538 547 548 539
4 539 548 40 41
4 123 124 549 540
4 540 549 550 541
4 541 550 551 542
4 542 551 552 543
4 543 552 553 544
4 544 553 554 545
4 545 554 555 546
4 546 555 556 547
4 547 556 557 548
4 548 557 39 40
4 124 125 558 549
4 549 558 559 550
4 550 559 560 551
4 551 560 561 552
4 552 561 562 553
4 553 562 563 554
4 554 563 564 555
4 555 564 565 556
4 556 565 566 557
4 557 566 38 39
4 125 126 567 558
4 558 567 568 559
4 559 568 569 560
4 560 569 570 561
4 561 570 571 562
4 562 571 572 563
4 563 572 573 564
4 564 573 574 565
4 565 574 575 566
4 566 575 37 38
4 126 127 576 567
4 567 576 577 568
4 568 577 578 569
4 569 578 579 570
4 570 579 580 571
4 571 580 581 572
4 572 581 582 573
4 573 582 583 574
4 574 583 584 575
4 575 584 36 37
4 127 128 585 576
4 576 585 586 577
4 577 586 587 578
4 578 587 588 579
4 579 588 589 580
4 580 589 590 581
4 581 590 591 582
4 582 591 592 583
4 583 592 593 584
4 584 593 35 36
4 128 129 594 585
4 585 594 595 586
4 586 595 596 587
4 587 596 597 588
4 588 597 598 589
4 589 598 599 590
4 590 599 600 591
4 591 600 601 592
4 592 601 602 593
4 593 602 34 35
4 129 130 603 594
4 594 603 604 595
4 595 604 605 596
4 596 605 606 597
4 597 606 607 598
4 598 607 608 599
4 599 608 609 600
4 600 609 610 601
4 601 610 611 602
4 602 611 33 34
4 130 131 612 603
4 603 612 613 604
4 604 613 614 605
4 605 614 615 606
4 606 615 616 607
4 607 616 617 608
4 608 617 618 609
4 609 618 619 610
4 610 619 620 611
4 611 620 32 33
4 131 132 621 612
4 612 621 622 613
4 613 622 623 614
4 614 623 624 615
4 615 624 625 616
4 616 625 626 617
4 617 626 627 618
4 618 627 628 619
4 619 628 629 620
4 620 629 31 32
4 132 133 630 621
4 621 630 631 622
4 622 631 632 623
4 623 632 633 624
4 624 633 634 625
4 625 634 635 626
4 626 635 636 627
4 627 636 637 628
4 628 637 638 629
4 629 638 30 31
4 133 134 639 630
4 630 639 640 631
4 631 640 641 632
4 632 641 642 633
4 633 642 643 634
4 634 643 644 635
4 635 644 645 636
4 636 645 646 637
4 637 646 647 638
4 638 647 29 30
4 134 135 648 639
4 639 648 649 640
4 640 649 650 641
4 641 650 651 642
4 642 651 652 643
4 643 652 653 644
4 644 653 654 645
4 645 654 655 646
4 646 655 656 647
4 647 656 28 29
4 135 136 657 648
4 648 657 658 649
4 649 658 659 650
4 650 659 660 651
4 651 660 661 652
4 652 661 662 653
4 653 662 663 654
4 654 663 664 655
4 655 664 665 656
4 656 665 27 28
4 136 137 666 657
4 657 666 667 658
4 658 667 668 659
4 659 668 669 660
4 660 669 670 661
4 661 670 671 662
4 662 671 672 663
4 663 672 673 664
4 664 673 674 665
4 665 674 26 27
4 137 138 675 666
4 666 675 676 667
4 667 676 677 668
4 668 677 678 669
4 669 678 679 670
4 670 679 680 671
4 671 680 681 672
4 672 681 682 673
4 673 682 683 674
4 674 683 25 26
4 138 139 684 675
4 675 684 685 676
4 676 685 686 677
4 677 686 687 678
4 678 687 688 679
4 679 688 689 680
4 680 689 690 681
4 681 690 691 682
4 682 691 692 683
4 683 692 24 25
4 139 140 693 684
4 684 693 694 685
4 685 694 695 686
4 686 695 696 687
4 687 696 697 688
4 688 697 698 689
4 689 698 699 690
4 690 699 700 691
4 691 700 701 692
4 692 701 23 24
4 140 141 702 693
4 693 702 703 694
4 694 703 704 695
4 695 704 705 696
4 696 705 706 697
4 697 706 707 698
4 698 707 708 699
4 699 708 709 700
4 700 709 710 701
4 701 710 22 23
4 141 142 711 702
4 702 711 712 703
4 703 712 713 704
4 704 713 714 705
4 705 714 715 706
4 706 715 716 707
4 707 716 717 708
4 708 717 718 709
4 709 718 719 710
4 710 719 21 22
4 142 143 720 711
4 711 720 721 712
4 712 721 722 713
4 713 722 723 714
4 714 723 724 715
4 715 724 725 716
4 716 725 726 717
4 717 726 727 718
4 718 727 728 719
4 719 728 20 21
4 143 144 729 720
4 720 729 730 721
4 721 730 731 722
4 722 731 732 723
4 723 732 733 724
4 724 733 734 725
4 725 734 735 726
4 726 735 736 727
4 727 736 737 728
4 728 737 19 20
4 144 145 738 729
4 729 738 739 730
4 730 739 740 731
4 731 740 741 732
4 732 741 742 733
4 733 742 743 734
4 734 743 744 735
4 735 744 745 736
4 736 745 746 737
4 737 746 18 19
4 145 146 747 738
4 738 747 748 739
4 739 748 749 740
4 740 749 750 741
4 741 750 751 742
4 742 751 752 743
4 743 752 753 744
4 744 753 754 745
4 745 754 755 746
4 746 755 17 18
4 146 147 756 747
4 747 756 757 748
4 748 757 758 749
4 749 758 759 750
4 750 759 760 751
4 751 760 761 752
4 752 761 762 753
4 753 762 763 754
4 754 763 764 755
4 755 764 16 17
4 147 148 765 756
4 756 765 766 757
4 757 766 767 758
4 758 767 768 759
4 759 768 769 760
4 760 769 770 761
4 761 770 771 762
4 762 771 772 763
4 763 772 773 764
4 764 773 15 16
4 148 149 774 765
4 765 774 775 766
4 766 775 776 767
4 767 776 777 768
4 768 777 778 769
4 769 778 779 770
4 770 779 780 771
4 771 780 781 772
4 772 781 782 773
4 773 782 14 15
4 149 150 783 774
4 774 783 784 775
4 775 784 785 776
4 776 785 786 777
4 777 786 787 778
4 778 787 788 779
4 779 788 789 780
4 780 789 790 781
4 781 790 791 782
4 782 791 13 14
4 150 151 792 783
4 783 792 793 784
4 784 793 794 785
4 785 794 795 786
4 786 795 796 787
4 787 796 797 788
4 788 797 798 789
4 789 798 799 790
4 790 799 800 791
4 791 800 12 13
4 151 152 801 792
4 792 801 802 793
4 793 802 803 794
4 794 803 804 795
4 795 804 805 796
4 796 805 806 797
4 797 806 807 798
4 798 807 808 799
4 799 808 809 800
4 800 809 11 12
4 152 153 810 801
4 801 810 811 802
4 802 811 812 803
4 803 812 813 804
4 804 813 814 805
4 805 814 815 806
4 806 815 816 807
4 807 816 817 808
4 808 817 818 809
4 809 818 10 11
4 153 154 819 810
4 810 819 820 811
4 811 820 821 812
4 812 821 822 813
4 813 822 823 814
4 814 823 824 815
4 815 824 825 816
4 816 825 826 817
4 817 826 827 818
4 818 827 9 10
4 154 155 828 819
4 819 828 829 820
4 820 829 830 821
4 821 830 831 822
4 822 831 832 823
4 823 832 833 824
4 824 833 834 825
4 825 834 835 826
4 826 835 836 827
4 827 836 8 9
4 155 156 837 828
4 828 837 838 829
4 829 838 839 830
4 830 839 840 831
4 831 840 841 832
4 832 841 842 833
4 833 842 843 834
4 834 843 844 835
4 835 844 845 836
4 836 845 7 8
4 156 157 846 837
4 837 846 847 838
4 838 847 848 839
4 839 848 849 840
4 840 849 850 841
4 841 850 851 842
4 842 851 852 843
4 843 852 853 844
4 844 853 854 845
4 845 854 6 7
4 157 158 855 846
4 846 855 856 847
4 847 856 857 848
4 848 857 858 849
4 849 858 859 850
4 850 859 860 851
4 851 860 861 852
4 852 861 862 853
4 853 862 863 854
4 854 863 5 6
4 158 159 864 855
4 855 864 865 856
4 856 865 866 857
4 857 866 867 858
4 858 867 868 859
4 859 868 869 860
4 860 869 870 861
4 861 870 871 862
4 862 871 872 863
4 863 872 4 5
4 159 160 873 864
4 864 873 874 865
4 865 874 875 866
4 866 875 876 867
4 867 876 877 868
4 868 877 878 869
4 869 878 879 870
4 870 879 880 871
4 871 880 881 872
4 872 881 3 4
4 160 161 882 873
4 873 882 883 874
4 874 883 884 875
4 875 884 885 876
4 876 885 886 877
4 877 886 887 878
4 878 887 888 879
4 879 888 889 880
4 880 889 890 881
4 881 890 2 3
4 161 81 162 882
4 882 162 163 883
4 883 163 164 884
4 884 164 165 885
4 885 165 166 886
4 886 166 167 887
4 887 167 168 888
4 888 168 169 889
4 889 169 170 890
4 890 170 1 2
CELL_TYPES 800
9
9
9
9
9
9
9
9
9
9
9
9
9
9
9
9
9
9
9
9
9
9
9
9
9
9
9
9
9
9
9
9
9
9
9
9
9
9
9
9
9
9
9
9
9
9
9
9
9
9
9
9
9
9
9
9
9
9
9
9
9
9
9
9
9
9
9
9
9
9
9
9
9
9
9
9
9
9
9
9
9
9
9
9
9
9
9
9
9
9
9
9
9
9
9
9
9
9
9
9
9
9
9
9
9
9
9
9
9
9
9
9
9
9
9
9
9
9
9
9
9
9
9
9
9
9
9
9
9
9
9
9
9
9
9
9
9
9
9
9
9
9
9
9
9
9
9
9
9
9
9
9
9
9
9
9
9
9
9
9
9
9
9
9
9
9
9
9
9
9
9
9
9
9
9
9
9
9
9
9
9
9
9
9
9
9
9
9
9
9
9
9
9
9
9
9
9
9
9
9
9
9
9
9
9
9
9
9
9
9
9
9
9
9
9
9
9
9
9
9
9
9
9
9
9
9
9
9
9
9
9
9
9
9
9
9
9
9
9
9
9
9
9
9
9
9
9
9
9
9
9
9
9
9
9
9
9
9
9
9
9
9
9
9
9
9
9
9
9
9
9
9
9
9
9
9
9
9
9
9
9
9
9
9
9
9
9
9
9
9
9
9
9
9
9
9
9
9
9
9
9
9
9
9
9
9
9
9
9
9
9
9
9
9
9
9
9
9
9
9
9
9
9
9
9
9
9
9
9
9
9
9
9
9
9
9
9
9
9
9
9
9
9
9
9
9
9
9
9
9
9
9
9
9
9
9
9
9
9
9
9
9
9
9
9
9
9
9
9
9
9
9
9
9
9
9
9
9
9
9
9
9
9
9
9
9
9
9
9
9
9
9
9
9
9
9
9
9
9
9
9
9
9
9
9
9
9
9
9
9
9
9
9
9
9
9
9
9
9
9
9
9
9
9
9
9
9
9
9
9
9
9
9
9
9
9
9
9
9
9
9
9
9
9
9
9
9
9
9
9
9
9
9
9
9
9
9
9
9
9
9
9
9
9
9
9
9
9
9
9
9
9
9
9
9
9
9
9
9
9
9
9
9
9
9
9
9
9
9
9
9
9
9
9
9
9
9
9
9
9
9
9
9
9
9
9
9
9
9
9
9
9
9
9
9
9
9
9
9
9
9
9
9
9
9
9
9
9
9
9
9
9
9
9
9
9
9
9
9
9
9
9
9
9
9
9
9
9
9
9
9
9
9
9
9
9
9
9
9
9
9
9
9
9
9
9
9
9
9
9
9
9
9
9
9
9
9
9
9
9
9
9
9
9
9
9
9
9
9
9
9
9
9
9
9
9
9
9
9
9
9
9
9
9
9
9
9
9
9
9
9
9
9
9
9
9
9
9
9
9
9
9
9
9
9
9
9
9
9
9
9
9
9
9
9
9
9
9
9
9
9
9
9
9
9
9
9
9
9
9
9
9
9
9
9
9
9
9
9
9
9
9
9
9
9
9
9
9
9
9
9
9
9
9
9
9
9
9
9
9
9
9
9
9
9
9
9
9
9
9
9
9
9
9
9
9
9
9
9
9
9
9
9
9
9
9
9
9
9
9
9
9
9
9
9
9
9
9
9
9
9
9
9
9
9
9
9
9
9
9
9
9
9
9
9
9
9
9
9
9
9
9
9
9
9
9
9
9
9
9
9
9
9
9
9
9
9
9
9
9
9
9
9
9
9
9
9
9
9
9
9
9
9
9
9
9
9
9
9
9
9
9
9
9
9
9
9
9
9
9
9
9
9
9
9
9
9
9
9
9
POINT_DATA 891
SCALARS u1 float
LOOKUP_TABLE default
-1e-17
-7e-07
-7e-07
-7e-07
-7e-07
-7e-07
-7e-07
-7e-07
-7e-07
-7e-07
-7e-07
-7e-07
-7e-07
-7e-07
-7e-07
-7e-07
-7e-07
-7e-07
-7e-07
-7e-07
-7e-07
-7e-07
-7e-07
-7e-07
-7e-07
-7e-07
-7e-07
-7e-07
-7e-07
-7e-07
-7e-07
-7e-07
-7e-07
-7e-07
-7e-07
-7e-07
-7e-07
-7e-07
-7e-07
-7e-07
-7e-07
-7e-07
-7e-07
-7e-07
-7e-07
-7e-07
-7e-07
-7e-07
-7e-07
-7e-07
-7e-07
-7e-07
-7e-07
-7e-07
-7e-07
-7e-07
-7e-07
-7e-07
-7e-07
-7e-07
-7e-07
-7e-07
-7e-07
-7e-07
-7e-07
-7e-07
-7e-07
-7e-07
-7e-07
-7e-07
-7e-07
-7e-07
-7e-07
-7e-07
-7e-07
-7e-07
-7e-07
-7e-07
-7e-07
-7e-07
-6e-07
7e-07
-1e-17
6e-07
7e-07
7e-07
7e-07
7e-07
7e-07
7e-07
7e-07
7e-07
7e-07
7e-07
7e-07
7e-07
7e-07
7e-07
7e-07
7e-07
7e-07
7e-07
7e-07
7e-07
7e-07
7e-07
7e-07
7e-07
7e-07
7e-07
7e-07
7e-07
7e-07
7e-07
7e-07
7e-07
7e-07
7e-07
7e-07
7e-07
7e-07
7e-07
7e-07
7e-07
7e-07
7e-07
7e-07
7e-07
7e-07
7e-07
7e-07
7e-07
7e-07
7e-07
7e-07
7e-07
7e-07
7e-07
7e-07
7e-07
7e-07
7e-07
7e-07
7e-07
7e-07
7e-07
7e-07
7e-07
7e-07
7e-07
7e-07
7e-07
7e-07
7e-07
7e-07
7e-07
7e-07
7e-07
7e-07
7e-07
7e-07
7e-07
6e-07
4e-07
3e-07
1e-07
3e-14
-1e-07
-3e-07
-4e-07
-6e-07
-1e-17
-2e-17
1e-16
-5e-17
1e-17
7e-18
6e-18
-2e-17
-2e-17
4e-07
3e-07
2e-07
9e-08
1e-14
-9e-08
-2e-07
-3e-07
-4e-07
6e-07
4e-07
3e-07
1e-07
2e-14
-1e-07
-3e-07
-4e-07
-6e-07
6e-07
4e-07
3e-07
1e-07
3e-14
-1e-07
-3e-07
-4e-07
-6e-07
6e-07
4e-07
3e-07
1e-07
3e-14
-1e-07
-3e-07
-4e-07
-6e-07
6e-07
4e-07
3e-07
1e-07
3e-14
-1e-07
-3e-07
-4e-07
-6e-07
6e-07
4e-07
3e-07
1e-07
4e-14
-1e-07
-3e-07
-4e-07
-6e-07
6e-07
4e-07
3e-07
1e-07
4e-14
-1e-07
-3e-07
-4e-07
-6e-07
6e-07
4e-07
3e-07
1e-07
4e-14
-1e-07
-3e-07
-4e-07
-6e-07
6e-07
4e-07
3e-07
1e-07
4e-14
-1e-07
-3e-07
-4e-07
-6e-07
6e-07
4e-07
3e-07
1e-07
4e-14
-1e-07
-3e-07
-4e-07
-6e-07
6e-07
4e-07
3e-07
1e-07
3e-14
-1e-07
-3e-07
-4e-07
-6e-07
6e-07
4e-07
3e-07
1e-07
3e-14
-1e-07
-3e-07
-4e-07
-6e-07
6e-07
4e-07
3e-07
1e-07
3e-14
-1e-07
-3e-07
-4e-07
-6e-07
6e-07
4e-07
3e-07
1e-07
3e-14
-1e-07
-3e-07
-4e-07
-6e-07
6e-07
4e-07
3e-07
1e-07
3e-14
-1e-07
-3e-07
-4e-07
-6e-07
6e-07
4e-07
3e-07
1e-07
3e-14
-1e-07
-3e-07
-4e-07
-6e-07
6e-07
4e-07
3e-07
1e-07
3e-14
-1e-07
-3e-07
-4e-07
-6e-07
6e-07
4e-07
3e-07
1e-07
3e-14
-1e-07
-3e-07
-4e-07
-6e-07
6e-07
4e-07
3e-07
1e-07
3e-14
-1e-07
-3e-07
-4e-07
-6e-07
6e-07
4e-07
3e-07
1e-07
3e-14
-1e-07
-3e-07
-4e-07
-6e-07
6e-07
4e-07
3e-07
1e-07
3e-14
-1e-07
-3e-07
-4e-07
-6e-07
6e-07
4e-07
3e-07
1e-07
3e-14
-1e-07
-3e-07
-4e-07
-6e-07
6e-07
4e-07
3e-07
1e-07
3e-14
-1e-07
-3e-07
-4e-07
-6e-07
6e-07
4e-07
3e-07
1e-07
3e-14
-1e-07
-3e-07
-4e-07
-6e-07
6e-07
4e-07
3e-07
1e-07
3e-14
-1e-07
-3e-07
-4e-07
-6e-07
6e-07
4e-07
3e-07
1e-07
3e-14
-1e-07
-3e-07
-4e-07
-6e-07
6e-07
4e-07
3e-07
1e-07
3e-14
-1e-07
-3e-07
-4e-07
-6e-07
6e-07
4e-07
3e-07
1e-07
3e-14
-1e-07
-3e-07
-4e-07
-6e-07
6e-07
4e-07
3e-07
1e-07
3e-14
-1e-07
-3e-07
-4e-07
-6e-07
6e-07
4e-07
3e-07
1e-07
3e-14
-1e-07
-3e-07
-4e-07
-6e-07
6e-07
4e-07
3e-07
1e-07
3e-14
-1e-07
-3e-07
-4e-07
-6e-07
6e-07
4e-07
3e-07
1e-07
3e-14
-1e-07
-3e-07
-4e-07
-6e-07
6e-07
4e-07
3e-07
1e-07
3e-14
-1e-07
-3e-07
-4e-07
-6e-07
6e-07
4e-07
3e-07
1e-07
3e-14
-1e-07
-3e-07
-4e-07
-6e-07
6e-07
4e-07
3e-07
1e-07
3e-14
-1e-07
-3e-07
-4e-07
-6e-07
6e-07
4e-07
3e-07
1e-07
3e-14
-1e-07
-3e-07
-4e-07
-6e-07
6e-07
4e-07
3e-07
1e-07
3e-14
-1e-07
-3e-07
-4e-07
-6e-07
6e-07
4e-07
3e-07
1e-07
3e-14
-1e-07
-3e-07
-4e-07
-6e-07
6e-07
4e-07
3e-07
1e-07
3e-14
-1e-07
-3e-07
-4e-07
-6e-07
6e-07
4e-07
3e-07
1e-07
3e-14
-1e-07
-3e-07
-4e-07
-6e-07
6e-07
4e-07
3e-07
1e-07
3e-14
-1e-07
-3e-07
-4e-07
-6e-07
6e-07
4e-07
3e-07
1e-07
3e-14
-1e-07
-3e-07
-4e-07
-6e-07
6e-07
4e-07
3e-07
1e-07
3e-14
-1e-07
-3e-07
-4e-07
-6e-07
6e-07
4e-07
3e-07
1e-07
3e-14
-1e-07
-3e-07
-4e-07
-6e-07
6e-07
4e-07
3e-07
1e-07
3e-14
-1e-07
-3e-07
-4e-07
-6e-07
6e-07
4e-07
3e-07
1e-07
3e-14
-1e-07
-3e-07
-4e-07
-6e-07
6e-07
4e-07
3e-07
1e-07
3e-14
-1e-07
-3e-07
-4e-07
-6e-07
6e-07
4e-07
3e-07
1e-07
3e-14
-1e-07
-3e-07
-4e-07
-6e-07
6e-07
4e-07
3e-07
1e-07
3e-14
-1e-07
-3e-07
-4e-07
-6e-07
6e-07
4e-07
3e-07
1e-07
3e-14
-1e-07
-3e-07
-4e-07
-6e-07
6e-07
4e-07
3e-07
1e-07
3e-14
-1e-07
-3e-07
-4e-07
-6e-07
6e-07
4e-07
3e-07
1e-07
3e-14
-1e-07
-3e-07
-4e-07
-6e-07
6e-07
4e-07
3e-07
1e-07
3e-14
-1e-07
-3e-07
-4e-07
-6e-07
6e-07
4e-07
3e-07
1e-07
3e-14
-1e-07
-3e-07
-4e-07
-6e-07
6e-07
4e-07
3e-07
1e-07
3e-14
-1e-07
-3e-07
-4e-07
-6e-07
6e-07
4e-07
3e-07
1e-07
3e-14
-1e-07
-3e-07
-4e-07
-6e-07
6e-07
4e-07
3e-07
1e-07
3e-14
-1e-07
-3e-07
-4e-07
-6e-07
6e-07
4e-07
3e-07
1e-07
3e-14
-1e-07
-3e-07
-4e-07
-6e-07
6e-07
4e-07
3e-07
1e-07
3e-14
-1e-07
-3e-07
-4e-07
-6e-07
6e-07
4e-07
3e-07
1e-07
3e-14
-1e-07
-3e-07
-4e-07
-6e-07
6e-07
4e-07
3e-07
1e-07
3e-14
-1e-07
-3e-07
-4e-07
-6e-07
6e-07
4e-07
3e-07
1e-07
3e-14
-1e-07
-3e-07
-4e-07
-6e-07
6e-07
4e-07
3e-07
1e-07
3e-14
-1e-07
-3e-07
-4e-07
-6e-07
6e-07
4e-07
3e-07
1e-07
3e-14
-1e-07
-3e-07
-4e-07
-6e-07
6e-07
4e-07
3e-07
1e-07
3e-14
-1e-07
-3e-07
-4e-07
-6e-07
6e-07
4e-07
3e-07
1e-07
3e-14
-1e-07
-3e-07
-4e-07
-6e-07
6e-07
4e-07
3e-07
1e-07
3e-14
-1e-07
-3e-07
-4e-07
-6e-07
6e-07
4e-07
3e-07
1e-07
3e-14
-1e-07
-3e-07
-4e-07
-6e-07
6e-07
4e-07
3e-07
1e-07
3e-14
-1e-07
-3e-07
-4e-07
-6e-07
6e-07
4e-07
3e-07
1e-07
3e-14
-1e-07
-3e-07
-4e-07
-6e-07
6e-07
4e-07
3e-07
1e-07
3e-14
-1e-07
-3e-07
-4e-07
-6e-07
6e-07
4e-07
3e-07
1e-07
3e-14
-1e-07
-3e-07
-4e-07
-6e-07
6e-07
4e-07
3e-07
1e-07
3e-14
-1e-07
-3e-07
-4e-07
-6e-07
6e-07
4e-07
3e-07
1e-07
3e-14
-1e-07
-3e-07
-4e-07
-6e-07
6e-07
4e-07
3e-07
1e-07
3e-14
-1e-07
-3e-07
-4e-07
-6e-07
6e-07
4e-07
3e-07
1e-07
3e-14
-1e-07
-3e-07
-4e-07
-6e-07
6e-07
4e-07
3e-07
1e-07
3e-14
-1e-07
-3e-07
-4e-07
-6e-07
6e-07
4e-07
3e-07
1e-07
3e-14
-1e-07
-3e-07
-4e-07
-6e-07
6e-07
4e-07
3e-07
1e-07
3e-14
-1e-07
-3e-07
-4e-07
-6e-07
SCALARS u2 float
LOOKUP_TABLE default
4e-17
-0.0002
-0.0002
-0.0002
-0.0002
-0.0002
-0.0002
-0.0002
-0.0002
-0.0002
-0.0002
-0.0002
-0.0002
-0.0002
-0.0002
-0.0002
-0.0002
-0.0002
-0.0002
-0.0002
-0.0002
-0.0002
-0.0001
-0.0001
-0.0001
-0.0001
-0.0001
-0.0001
-0.0001
-0.0001
-0.0001
-0.0001
-0.0001
-0.0001
-0.0001
-0.0001
-0.0001
-0.0001
-0.0001
-0.0001
-0.0001
-0.0001
-0.0001
-0.0001
-9e-05
-9e-05
-9e-05
-9e-05
-8e-05
-8e-05
-8e-05
-8e-05
-7e-05
-7e-05
-7e-05
-7e-05
-6e-05
-6e-05
-6e-05
-6e-05
-5e-05
-5e-05
-5e-05
-5e-05
-4e-05
-4e-05
-4e-05
-4e-05
-3e-05
-3e-05
-3e-05
-3e-05
-2e-05
-2e-05
-2e-05
-2e-05
-1e-05
-1e-05
-8e-06
-5e-06
-3e-06
-0.0002
-5e-17
-3e-06
-5e-06
-8e-06
-1e-05
-1e-05
-2e-05
-2e-05
-2e-05
-2e-05
-3e-05
-3e-05
-3e-05
-3e-05
-4e-05
-4e-05
-4e-05
-4e-05
-5e-05
-5e-05
-5e-05
-5e-05
-6e-05
-6e-05
-6e-05
-6e-05
-7e-05
-7e-05
-7e-05
-7e-05
-8e-05
-8e-05
-8e-05
-8e-05
-9e-05
-9e-05
-9e-05
-9e-05
-0.0001
-0.0001
-0.0001
-0.0001
-0.0001
-0.0001
-0.0001
-0.0001
-0.0001
-0.0001
-0.0001
-0.0001
-0.0001
-0.0001
-0.0001
-0.0001
-0.0001
-0.0001
-0.0001
-0.0001
-0.0001
-0.0001
-0.0002
-0.0002
-0.0002
-0.0002
-0.0002
-0.0002
-0.0002
-0.0002
-0.0002
-0.0002
-0.0002
-0.0002
-0.0002
-0.0002
-0.0002
-0.0002
-0.0002
-0.0002
-0.0002
-0.0002
-0.0002
-0.0002
-0.0002
-0.0002
-0.0002
-0.0002
-0.0002
-0.0002
-0.0002
2e-17
2e-17
3e-18
-4e-17
-1e-17
-5e-17
2e-16
7e-18
-5e-17
-3e-06
-2e-06
-2e-06
-2e-06
-2e-06
-2e-06
-2e-06
-2e-06
-3e-06
-5e-06
-5e-06
-5e-06
-5e-06
-5e-06
-5e-06
-5e-06
-5e-06
-5e-06
-8e-06
-8e-06
-8e-06
-8e-06
-8e-06
-8e-06
-8e-06
-8e-06
-8e-06
-1e-05
-1e-05
-1e-05
-1e-05
-1e-05
-1e-05
-1e-05
-1e-05
-1e-05
-1e-05
-1e-05
-1e-05
-1e-05
-1e-05
-1e-05
-1e-05
-1e-05
-1e-05
-2e-05
-2e-05
-2e-05
-2e-05
-2e-05
-2e-05
-2e-05
-2e-05
-2e-05
-2e-05
-2e-05
-2e-05
-2e-05
-2e-05
-2e-05
-2e-05
-2e-05
-2e-05
-2e-05
-2e-05
-2e-05
-2e-05
-2e-05
-2e-05
-2e-05
-2e-05
-2e-05
-2e-05
-2e-05
-2e-05
-2e-05
-2e-05
-2e-05
-2e-05
-2e-05
-2e-05
-3e-05
-3e-05
-3e-05
-3e-05
-3e-05
-3e-05
-3e-05
-3e-05
-3e-05
-3e-05
-3e-05
-3e-05
-3e-05
-3e-05
-3e-05
-3e-05
-3e-05
-3e-05
-3e-05
-3e-05
-3e-05
-3e-05
-3e-05
-3e-05
-3e-05
-3e-05
-3e-05
-3e-05
-3e-05
-3e-05
-3e-05
-3e-05
-3e-05
-3e-05
-3e-05
-3e-05
-4e-05
-4e-05
-4e-05
-4e-05
-4e-05
-4e-05
-4e-05
-4e-05
-4e-05
-4e-05
-4e-05
-4e-05
-4e-05
-4e-05
-4e-05
-4e-05
-4e-05
-4e-05
-4e-05
-4e-05
-4e-05
-4e-05
-4e-05
-4e-05
-4e-05
-4e-05
-4e-05
-4e-05
-4e-05
-4e-05
-4e-05
-4e-05
-4e-05
-4e-05
-4e-05
-4e-05
-5e-05
-5e-05
-5e-05
-5e-05
-5e-05
-5e-05
-5e-05
-5e-05
-5e-05
-5e-05
-5e-05
-5e-05
-5e-05
-5e-05
-5e-05
-5e-05
-5e-05
-5e-05
-5e-05
-5e-05
-5e-05
-5e-05
-5e-05
-5e-05
-5e-05
-5e-05
-5e-05
-5e-05
-5e-05
-5e-05
-5e-05
-5e-05
-5e-05
-5e-05
-5e-05
-5e-05
-6e-05
-6e-05
-6e-05
-6e-05
-6e-05
-6e-05
-6e-05
-6e-05
-6e-05
-6e-05
-6e-05
-6e-05
-6e-05
-6e-05
-6e-05
-6e-05
-6e-05
-6e-05
-6e-05
-6e-05
-6e-05
-6e-05
-6e-05
-6e-05
-6e-05
-6e-05
-6e-05
-6e-05
-6e-05
-6e-05
-6e-05
-6e-05
-6e-05
-6e-05
-6e-05
-6e-05
-7e-05
-7e-05
-7e-05
-7e-05
-7e-05
-7e-05
-7e-05
-7e-05
-7e-05
-7e-05
-7e-05
-7e-05
-7e-05
-7e-05
-7e-05
-7e-05
-7e-05
-7e-05
-7e-05
-7e-05
-7e-05
-7e-05
-7e-05
-7e-05
-7e-05
-7e-05
-7e-05
-7e-05
-7e-05
-7e-05
-7e-05
-7e-05
-7e-05
-7e-05
-7e-05
-7e-05
-8e-05
-8e-05
-8e-05
-8e-05
-8e-05
-8e-05
-8e-05
-8e-05
-8e-05
-8e-05
-8e-05
-8e-05
-8e-05
-8e-05
-8e-05
-8e-05
-8e-05
-8e-05
-8e-05
-8e-05
-8e-05
-8e-05
-8e-05
-8e-05
-8e-05
-8e-05
-8e-05
-8e-05
-8e-05
-8e-05
-8e-05
-8e-05
-8e-05
-8e-05
-8e-05
-8e-05
-9e-05
-9e-05
-9e-05
-9e-05
-9e-05
-9e-05
-9e-05
-9e-05
-9e-05
-9e-05
-9e-05
-9e-05
-9e-05
-9e-05
-9e-05
-9e-05
-9e-05
-9e-05
-9e-05
-9e-05
-9e-05
-9e-05
-9e-05
-9e-05
-9e-05
-9e-05
-9e-05
-9e-05
-9e-05
-9e-05
-9e-05
-9e-05
-9e-05
-9e-05
-9e-05
-9e-05
-0.0001
-0.0001
-0.0001
-0.0001
-0.0001
-0.0001
-0.0001
-0.0001
-0.0001
-0.0001
-0.0001
-0.0001
-0.0001
-0.0001
-0.0001
-0.0001
-0.0001
-0.0001
-0.0001
-0.0001
-0.0001
-0.0001
-0.0001
-0.0001
-0.0001
-0.0001
-0.0001
-0.0001
-0.0001
-0.0001
-0.0001
-0.0001
-0.0001
-0.0001
-0.0001
-0.0001
-0.0001
-0.0001
-0.0001
-0.0001
-0.0001
-0.0001
-0.0001
-0.0001
-0.0001
-0.0001
-0.0001
-0.0001
-0.0001
-0.0001
-0.0001
-0.0001
-0.0001
-0.0001
-0.0001
-0.0001
-0.0001
-0.0001
-0.0001
-0.0001
-0.0001
-0.0001
-0.0001
-0.0001
-0.0001
-0.0001
-0.0001
-0.0001
-0.0001
-0.0001
-0.0001
-0.0001
-0.0001
-0.0001
-0.0001
-0.0001
-0.0001
-0.0001
-0.0001
-0.0001
-0.0001
-0.0001
-0.0001
-0.0001
-0.0001
-0.0001
-0.0001
-0.0001
-0.0001
-0.0001
-0.0001
-0.0001
-0.0001
-0.0001
-0.0001
-0.0001
-0.0001
-0.0001
-0.0001
-0.0001
-0.0001
-0.0001
-0.0001
-0.0001
-0.0001
-0.0001
-0.0001
-0.0001
-0.0001
-0.0001
-0.0001
-0.0001
-0.0001
-0.0001
-0.0001
-0.0001
-0.0001
-0.0001
-0.0001
-0.0001
-0.0001
-0.0001
-0.0001
-0.0001
-0.0001
-0.0001
-0.0001
-0.0001
-0.0001
-0.0001
-0.0001
-0.0001
-0.0001
-0.0001
-0.0001
-0.0001
-0.0001
-0.0001
-0.0001
-0.0001
-0.0001
-0.0001
-0.0001
-0.0001
-0.0001
-0.0001
-0.0001
-0.0001
-0.0001
-0.0001
-0.0001
-0.0001
-0.0001
-0.0001
-0.0001
-0.0001
-0.0001
-0.0001
-0.0001
-0.0001
-0.0001
-0.0001
-0.0001
-0.0001
-0.0001
-0.0001
-0.0001
-0.0001
-0.0001
-0.0001
-0.0001
-0.0001
-0.0001
-0.0001
-0.0001
-0.0001
-0.0001
-0.0001
-0.0001
-0.0001
-0.0001
-0.0001
-0.0001
-0.0001
-0.0001
-0.0001
-0.0001
-0.0001
-0.0001
-0.0001
-0.0001
-0.0001
-0.0001
-0.0001
-0.0001
-0.0001
-0.0001
-0.0001
-0.0002
-0.0002
-0.0002
-0.0002
-0.0002
-0.0002
-0.0002
-0.0002
-0.0002
-0.0002
-0.0002
-0.0002
-0.0002
-0.0002
-0.0002
-0.0002
-0.0002
-0.0002
-0.0002
-0.0002
-0.0002
-0.0002
-0.0002
-0.0002
-0.0002
-0.0002
-0.0002
-0.0002
-0.0002
-0.0002
-0.0002
-0.0002
-0.0002
-0.0002
-0.0002
-0.0002
-0.0002
-0.0002
-0.0002
-0.0002
-0.0002
-0.0002
-0.0002
-0.0002
-0.0002
-0.0002
-0.0002
-0.0002
-0.0002
-0.0002
-0.0002
-0.0002
-0.0002
-0.0002
-0.0002
-0.0002
-0.0002
-0.0002
-0.0002
-0.0002
-0.0002
-0.0002
-0.0002
-0.0002
-0.0002
-0.0002
-0.0002
-0.0002
-0.0002
-0.0002
-0.0002
-0.0002
-0.0002
-0.0002
-0.0002
-0.0002
-0.0002
-0.0002
-0.0002
-0.0002
-0.0002
-0.0002
-0.0002
-0.0002
-0.0002
-0.0002
-0.0002
-0.0002
-0.0002
-0.0002
-0.0002
-0.0002
-0.0002
-0.0002
-0.0002
-0.0002
-0.0002
-0.0002
-0.0002
-0.0002
-0.0002
-0.0002
-0.0002
-0.0002
-0.0002
-0.0002
-0.0002
-0.0002
-0.0002
-0.0002
-0.0002
-0.0002
-0.0002
-0.0002
-0.0002
-0.0002
-0.0002
-0.0002
-0.0002
-0.0002
-0.0002
-0.0002
-0.0002
-0.0002
-0.0002
-0.0002
-0.0002
-0.0002
-0.0002
-0.0002
-0.0002
-0.0002
-0.0002
-0.0002
-0.0002
-0.0002
-0.0002
-0.0002
-0.0002
-0.0002
-0.0002
-0.0002
-0.0002
-0.0002
-0.0002
-0.0002
-0.0002
-0.0002
-0.0002
-0.0002
-0.0002
-0.0002
-0.0002
-0.0002
-0.0002
-0.0002
-0.0002
-0.0002
-0.0002
-0.0002
-0.0002
-0.0002
-0.0002
-0.0002
-0.0002
-0.0002
-0.0002
-0.0002
-0.0002
-0.0002
-0.0002
-0.0002
-0.0002
-0.0002
-0.0002
-0.0002
-0.0002
-0.0002
-0.0002
-0.0002
SCALARS strain_1 float
LOOKUP_TABLE default
-0.000053
-0.084142
-0.082869
-0.081590
-0.080305
-0.079015
-0.077718
-0.076417
-0.075111
-0.073800
-0.072485
-0.071166
-0.069844
-0.068518
-0.067190
-0.065860
-0.064527
-0.063193
-0.061859
-0.060523
-0.059188
-0.057853
-0.056519
-0.055187
-0.053856
-0.052528
-0.051203
-0.049881
-0.048564
-0.047251
-0.045944
-0.044642
-0.043347
-0.042060
-0.040779
-0.039508
-0.038245
-0.036991
-0.035749
-0.034516
-0.033296
-0.032087
-0.030892
-0.029710
-0.028542
-0.027389
-0.026251
-0.025128
-0.024024
-0.022936
-0.021866
-0.020814
-0.019782
-0.018769
-0.017776
-0.016804
-0.015853
-0.014924
-0.014018
-0.013134
-0.012273
-0.011436
-0.010623
-0.009834
-0.009071
-0.008331
-0.007618
-0.006930
-0.006269
-0.005632
-0.005023
-0.004439
-0.003882
-0.003352
-0.002847
-0.002370
-0.001918
-0.001494
-0.001095
-0.000722
-0.000374
-0.084216
-0.000002
-0.000325
-0.000673
-0.001047
-0.001447
-0.001873
-0.002325
-0.002804
-0.003310
-0.003842
-0.004400
-0.004985
-0.005596
-0.006233
-0.006897
-0.007586
-0.008301
-0.009042
-0.009807
-0.010598
-0.011413
-0.012251
-0.013114
-0.014000
-0.014908
-0.015839
-0.016791
-0.017766
-0.018760
-0.019775
-0.020810
-0.021863
-0.022935
-0.024025
-0.025132
-0.026256
-0.027396
-0.028551
-0.029721
-0.030905
-0.032102
-0.033313
-0.034535
-0.035770
-0.037014
-0.038269
-0.039534
-0.040808
-0.042090
-0.043379
-0.044676
-0.045980
-0.047289
-0.048603
-0.049922
-0.051245
-0.052572
-0.053902
-0.055234
-0.056568
-0.057904
-0.059240
-0.060577
-0.061914
-0.063250
-0.064585
-0.065919
-0.067251
-0.068580
-0.069907
-0.071230
-0.072550
-0.073867
-0.075178
-0.076486
-0.077788
-0.079085
-0.080377
-0.081663
-0.082943
-0.084209
-0.084202
-0.084195
-0.084187
-0.084180
-0.084173
-0.084165
-0.084157
-0.084149
-0.000043
-0.000034
-0.000026
-0.000019
-0.000014
-0.000009
-0.000006
-0.000003
-0.000002
-0.000325
-0.000326
-0.000328
-0.000331
-0.000336
-0.000341
-0.000348
-0.000356
-0.000365
-0.000673
-0.000674
-0.000676
-0.000679
-0.000683
-0.000689
-0.000695
-0.000703
-0.000712
-0.001046
-0.001048
-0.001049
-0.001052
-0.001057
-0.001062
-0.001068
-0.001076
-0.001085
-0.001446
-0.001447
-0.001449
-0.001452
-0.001456
-0.001461
-0.001468
-0.001475
-0.001484
-0.001872
-0.001873
-0.001875
-0.001878
-0.001882
-0.001887
-0.001893
-0.001900
-0.001909
-0.002324
-0.002325
-0.002327
-0.002330
-0.002333
-0.002339
-0.002345
-0.002352
-0.002360
-0.002804
-0.002804
-0.002805
-0.002808
-0.002812
-0.002816
-0.002823
-0.002830
-0.002838
-0.003309
-0.003309
-0.003310
-0.003313
-0.003317
-0.003321
-0.003327
-0.003334
-0.003342
-0.003840
-0.003840
-0.003842
-0.003844
-0.003848
-0.003852
-0.003858
-0.003865
-0.003873
-0.004399
-0.004399
-0.004400
-0.004402
-0.004406
-0.004410
-0.004416
-0.004422
-0.004430
-0.004984
-0.004983
-0.004985
-0.004986
-0.004989
-0.004994
-0.004999
-0.005006
-0.005014
-0.005595
-0.005594
-0.005595
-0.005597
-0.005600
-0.005604
-0.005610
-0.005616
-0.005624
-0.006232
-0.006232
-0.006232
-0.006234
-0.006237
-0.006241
-0.006246
-0.006252
-0.006260
-0.006895
-0.006895
-0.006895
-0.006897
-0.006900
-0.006904
-0.006908
-0.006915
-0.006922
-0.007585
-0.007584
-0.007584
-0.007586
-0.007588
-0.007592
-0.007597
-0.007603
-0.007610
-0.008299
-0.008299
-0.008299
-0.008300
-0.008303
-0.008306
-0.008311
-0.008317
-0.008324
-0.009040
-0.009039
-0.009039
-0.009040
-0.009043
-0.009046
-0.009050
-0.009056
-0.009063
-0.009806
-0.009804
-0.009804
-0.009805
-0.009807
-0.009810
-0.009815
-0.009820
-0.009827
-0.010596
-0.010594
-0.010594
-0.010595
-0.010597
-0.010600
-0.010604
-0.010609
-0.010615
-0.011410
-0.011409
-0.011408
-0.011409
-0.011411
-0.011414
-0.011418
-0.011423
-0.011429
-0.012249
-0.012247
-0.012247
-0.012247
-0.012249
-0.012252
-0.012256
-0.012260
-0.012266
-0.013111
-0.013110
-0.013109
-0.013109
-0.013111
-0.013113
-0.013117
-0.013121
-0.013127
-0.013997
-0.013995
-0.013994
-0.013995
-0.013996
-0.013998
-0.014001
-0.014006
-0.014011
-0.014905
-0.014903
-0.014902
-0.014902
-0.014903
-0.014906
-0.014909
-0.014913
-0.014918
-0.015836
-0.015834
-0.015833
-0.015833
-0.015833
-0.015835
-0.015838
-0.015842
-0.015847
-0.016788
-0.016786
-0.016785
-0.016785
-0.016785
-0.016787
-0.016790
-0.016793
-0.016798
-0.017762
-0.017760
-0.017758
-0.017758
-0.017758
-0.017760
-0.017763
-0.017766
-0.017770
-0.018756
-0.018754
-0.018753
-0.018752
-0.018752
-0.018754
-0.018756
-0.018759
-0.018763
-0.019771
-0.019769
-0.019767
-0.019766
-0.019766
-0.019767
-0.019770
-0.019773
-0.019777
-0.020806
-0.020803
-0.020801
-0.020800
-0.020800
-0.020801
-0.020803
-0.020806
-0.020809
-0.021859
-0.021856
-0.021854
-0.021853
-0.021853
-0.021854
-0.021855
-0.021858
-0.021861
-0.022931
-0.022928
-0.022926
-0.022925
-0.022924
-0.022925
-0.022926
-0.022928
-0.022932
-0.024021
-0.024018
-0.024015
-0.024014
-0.024013
-0.024014
-0.024015
-0.024017
-0.024020
-0.025128
-0.025125
-0.025122
-0.025121
-0.025120
-0.025120
-0.025121
-0.025123
-0.025125
-0.026252
-0.026248
-0.026246
-0.026244
-0.026243
-0.026243
-0.026243
-0.026245
-0.026247
-0.027391
-0.027388
-0.027385
-0.027383
-0.027382
-0.027382
-0.027382
-0.027384
-0.027385
-0.028547
-0.028543
-0.028540
-0.028538
-0.028537
-0.028536
-0.028536
-0.028537
-0.028539
-0.029716
-0.029713
-0.029709
-0.029707
-0.029706
-0.029705
-0.029705
-0.029706
-0.029707
-0.030900
-0.030896
-0.030893
-0.030891
-0.030889
-0.030888
-0.030888
-0.030888
-0.030890
-0.032098
-0.032094
-0.032090
-0.032088
-0.032086
-0.032085
-0.032084
-0.032085
-0.032086
-0.033308
-0.033304
-0.033300
-0.033298
-0.033296
-0.033294
-0.033293
-0.033294
-0.033294
-0.034530
-0.034526
-0.034523
-0.034519
-0.034517
-0.034516
-0.034515
-0.034515
-0.034515
-0.035765
-0.035760
-0.035756
-0.035753
-0.035751
-0.035749
-0.035748
-0.035747
-0.035747
-0.037009
-0.037005
-0.037001
-0.036997
-0.036995
-0.036993
-0.036992
-0.036991
-0.036991
-0.038264
-0.038260
-0.038256
-0.038252
-0.038249
-0.038247
-0.038246
-0.038245
-0.038244
-0.039529
-0.039524
-0.039520
-0.039516
-0.039513
-0.039511
-0.039509
-0.039508
-0.039508
-0.040802
-0.040797
-0.040793
-0.040790
-0.040786
-0.040784
-0.040782
-0.040780
-0.040780
-0.042084
-0.042079
-0.042075
-0.042071
-0.042068
-0.042065
-0.042063
-0.042061
-0.042060
-0.043374
-0.043369
-0.043364
-0.043360
-0.043357
-0.043354
-0.043352
-0.043349
-0.043348
-0.044671
-0.044665
-0.044661
-0.044657
-0.044653
-0.044650
-0.044647
-0.044645
-0.044643
-0.045974
-0.045969
-0.045964
-0.045959
-0.045956
-0.045953
-0.045949
-0.045947
-0.045945
-0.047283
-0.047277
-0.047273
-0.047268
-0.047264
-0.047261
-0.047258
-0.047255
-0.047253
-0.048597
-0.048592
-0.048587
-0.048582
-0.048578
-0.048574
-0.048571
-0.048568
-0.048566
-0.049916
-0.049911
-0.049906
-0.049901
-0.049897
-0.049892
-0.049889
-0.049886
-0.049884
-0.051240
-0.051234
-0.051228
-0.051224
-0.051219
-0.051215
-0.051212
-0.051208
-0.051205
-0.052566
-0.052560
-0.052555
-0.052550
-0.052545
-0.052541
-0.052537
-0.052534
-0.052531
-0.053896
-0.053890
-0.053884
-0.053879
-0.053875
-0.053870
-0.053866
-0.053862
-0.053859
-0.055228
-0.055222
-0.055217
-0.055211
-0.055206
-0.055202
-0.055197
-0.055194
-0.055190
-0.056562
-0.056556
-0.056550
-0.056545
-0.056540
-0.056535
-0.056531
-0.056527
-0.056523
-0.057897
-0.057892
-0.057886
-0.057880
-0.057875
-0.057870
-0.057866
-0.057861
-0.057857
-0.059234
-0.059228
-0.059222
-0.059216
-0.059211
-0.059206
-0.059201
-0.059197
-0.059192
-0.060570
-0.060564
-0.060559
-0.060553
-0.060547
-0.060542
-0.060537
-0.060533
-0.060528
-0.061907
-0.061901
-0.061895
-0.061889
-0.061884
-0.061878
-0.061873
-0.061868
-0.061863
-0.063244
-0.063237
-0.063231
-0.063225
-0.063219
-0.063214
-0.063209
-0.063203
-0.063198
-0.064579
-0.064572
-0.064566
-0.064560
-0.064554
-0.064548
-0.064543
-0.064538
-0.064532
-0.065912
-0.065906
-0.065900
-0.065893
-0.065887
-0.065882
-0.065876
-0.065870
-0.065865
-0.067244
-0.067237
-0.067231
-0.067225
-0.067219
-0.067213
-0.067207
-0.067201
-0.067196
-0.068573
-0.068567
-0.068560
-0.068554
-0.068548
-0.068542
-0.068536
-0.068530
-0.068524
-0.069900
-0.069893
-0.069887
-0.069880
-0.069874
-0.069868
-0.069862
-0.069856
-0.069850
-0.071224
-0.071217
-0.071210
-0.071204
-0.071197
-0.071191
-0.071185
-0.071178
-0.071172
-0.072544
-0.072537
-0.072530
-0.072524
-0.072517
-0.072510
-0.072504
-0.072498
-0.072491
-0.073860
-0.073853
-0.073846
-0.073839
-0.073833
-0.073826
-0.073820
-0.073813
-0.073807
-0.075172
-0.075165
-0.075158
-0.075151
-0.075144
-0.075138
-0.075131
-0.075124
-0.075117
-0.076479
-0.076472
-0.076465
-0.076458
-0.076451
-0.076445
-0.076437
-0.076431
-0.076424
-0.077781
-0.077775
-0.077767
-0.077761
-0.077754
-0.077747
-0.077739
-0.077733
-0.077726
-0.079079
-0.079072
-0.079065
-0.079058
-0.079050
-0.079044
-0.079036
-0.079029
-0.079022
-0.080370
-0.080363
-0.080356
-0.080349
-0.080342
-0.080335
-0.080327
-0.080320
-0.080313
-0.081656
-0.081649
-0.081642
-0.081635
-0.081627
-0.081620
-0.081613
-0.081605
-0.081598
-0.082936
-0.082929
-0.082922
-0.082914
-0.082907
-0.082900
-0.082892
-0.082884
-0.082877
SCALARS strain_2 float
LOOKUP_TABLE default
0.001108
0.000678
0.000678
0.000677
0.000676
0.000677
0.000676
0.000678
0.000678
0.000676
0.000678
0.000678
0.000680
0.000681
0.000681
0.000683
0.000684
0.000682
0.000684
0.000686
0.000687
0.000689
0.000692
0.000694
0.000694
0.000696
0.000698
0.000701
0.000704
0.000706
0.000709
0.000712
0.000715
0.000718
0.000721
0.000724
0.000728
0.000731
0.000735
0.000741
0.000746
0.000750
0.000755
0.000760
0.000767
0.000771
0.000776
0.000782
0.000788
0.000795
0.000802
0.000807
0.000814
0.000822
0.000829
0.000836
0.000845
0.000853
0.000862
0.000869
0.000879
0.000886
0.000896
0.000904
0.000914
0.000926
0.000934
0.000944
0.000956
0.000968
0.000977
0.000988
0.000999
0.001011
0.001022
0.001033
0.001047
0.001059
0.001069
0.001084
0.001094
0.002110
0.002137
0.002137
0.002139
0.002141
0.002143
0.002143
0.002145
0.002147
0.002149
0.002148
0.002150
0.002153
0.002152
0.002153
0.002154
0.002156
0.002158
0.002158
0.002159
0.002161
0.002162
0.002162
0.002165
0.002163
0.002164
0.002165
0.002165
0.002165
0.002165
0.002166
0.002166
0.002167
0.002169
0.002168
0.002169
0.002166
0.002168
0.002168
0.002169
0.002167
0.002167
0.002167
0.002167
0.002168
0.002167
0.002167
0.002166
0.002165
0.002165
0.002165
0.002162
0.002164
0.002160
0.002160
0.002159
0.002158
0.002158
0.002156
0.002155
0.002152
0.002152
0.002150
0.002149
0.002148
0.002145
0.002145
0.002143
0.002140
0.002138
0.002137
0.002134
0.002134
0.002131
0.002127
0.002127
0.002124
0.002120
0.002120
0.002116
0.002113
0.001967
0.001824
0.001681
0.001537
0.001393
0.001250
0.001107
0.000964
0.000819
0.001213
0.001314
0.001419
0.001519
0.001624
0.001727
0.001830
0.001931
0.002033
0.002034
0.001930
0.001826
0.001723
0.001616
0.001512
0.001409
0.001305
0.001200
0.002033
0.001929
0.001823
0.001717
0.001612
0.001507
0.001402
0.001297
0.001188
0.002034
0.001928
0.001819
0.001712
0.001607
0.001499
0.001392
0.001286
0.001176
0.002033
0.001925
0.001818
0.001709
0.001600
0.001492
0.001385
0.001275
0.001167
0.002033
0.001925
0.001815
0.001704
0.001596
0.001486
0.001376
0.001265
0.001157
0.002034
0.001922
0.001811
0.001702
0.001590
0.001478
0.001368
0.001257
0.001146
0.002036
0.001921
0.001810
0.001697
0.001583
0.001472
0.001359
0.001247
0.001134
0.002035
0.001921
0.001807
0.001694
0.001579
0.001466
0.001353
0.001239
0.001126
0.002035
0.001922
0.001805
0.001690
0.001575
0.001460
0.001344
0.001228
0.001114
0.002034
0.001917
0.001802
0.001686
0.001570
0.001454
0.001337
0.001220
0.001104
0.002033
0.001917
0.001800
0.001681
0.001565
0.001447
0.001329
0.001213
0.001095
0.002035
0.001916
0.001799
0.001678
0.001560
0.001442
0.001323
0.001203
0.001084
0.002035
0.001914
0.001795
0.001676
0.001554
0.001435
0.001314
0.001195
0.001075
0.002034
0.001913
0.001794
0.001672
0.001551
0.001431
0.001307
0.001189
0.001066
0.002033
0.001911
0.001789
0.001669
0.001545
0.001423
0.001302
0.001180
0.001058
0.002033
0.001911
0.001786
0.001664
0.001542
0.001418
0.001294
0.001172
0.001049
0.002034
0.001909
0.001786
0.001662
0.001537
0.001412
0.001288
0.001164
0.001040
0.002033
0.001909
0.001782
0.001658
0.001532
0.001406
0.001282
0.001155
0.001031
0.002034
0.001908
0.001781
0.001654
0.001528
0.001403
0.001275
0.001147
0.001022
0.002033
0.001906
0.001777
0.001651
0.001524
0.001396
0.001269
0.001142
0.001014
0.002034
0.001904
0.001776
0.001649
0.001520
0.001391
0.001265
0.001134
0.001007
0.002034
0.001905
0.001775
0.001647
0.001515
0.001387
0.001258
0.001128
0.001000
0.002032
0.001903
0.001773
0.001643
0.001513
0.001380
0.001251
0.001122
0.000991
0.002034
0.001902
0.001770
0.001641
0.001508
0.001377
0.001247
0.001113
0.000985
0.002033
0.001901
0.001767
0.001635
0.001504
0.001372
0.001240
0.001107
0.000977
0.002034
0.001900
0.001766
0.001635
0.001500
0.001368
0.001236
0.001102
0.000971
0.002032
0.001898
0.001766
0.001631
0.001497
0.001364
0.001230
0.001096
0.000962
0.002031
0.001896
0.001763
0.001629
0.001495
0.001360
0.001224
0.001091
0.000958
0.002032
0.001894
0.001762
0.001627
0.001491
0.001356
0.001220
0.001085
0.000951
0.002031
0.001894
0.001759
0.001624
0.001488
0.001352
0.001215
0.001079
0.000944
0.002032
0.001894
0.001757
0.001620
0.001485
0.001347
0.001211
0.001074
0.000938
0.002031
0.001893
0.001756
0.001620
0.001482
0.001345
0.001207
0.001071
0.000930
0.002028
0.001892
0.001754
0.001616
0.001479
0.001340
0.001201
0.001064
0.000926
0.002028
0.001891
0.001751
0.001614
0.001476
0.001337
0.001198
0.001060
0.000920
0.002026
0.001891
0.001751
0.001610
0.001472
0.001333
0.001196
0.001055
0.000917
0.002029
0.001888
0.001749
0.001610
0.001470
0.001329
0.001191
0.001051
0.000911
0.002029
0.001887
0.001746
0.001607
0.001466
0.001326
0.001187
0.001046
0.000907
0.002027
0.001885
0.001745
0.001605
0.001465
0.001322
0.001181
0.001041
0.000900
0.002026
0.001885
0.001744
0.001605
0.001460
0.001321
0.001181
0.001037
0.000897
0.002027
0.001885
0.001743
0.001602
0.001461
0.001317
0.001176
0.001032
0.000892
0.002025
0.001885
0.001741
0.001599
0.001456
0.001315
0.001172
0.001030
0.000887
0.002024
0.001881
0.001741
0.001597
0.001456
0.001313
0.001168
0.001027
0.000883
0.002024
0.001882
0.001737
0.001596
0.001451
0.001310
0.001166
0.001025
0.000881
0.002023
0.001880
0.001735
0.001593
0.001450
0.001307
0.001164
0.001020
0.000877
0.002022
0.001879
0.001737
0.001591
0.001448
0.001304
0.001161
0.001018
0.000873
0.002022
0.001877
0.001733
0.001591
0.001445
0.001302
0.001158
0.001012
0.000870
0.002021
0.001876
0.001731
0.001589
0.001444
0.001298
0.001153
0.001011
0.000864
0.002018
0.001877
0.001731
0.001585
0.001442
0.001297
0.001151
0.001007
0.000863
0.002019
0.001874
0.001730
0.001584
0.001440
0.001295
0.001150
0.001003
0.000860
0.002018
0.001872
0.001728
0.001583
0.001436
0.001292
0.001148
0.001002
0.000859
0.002016
0.001873
0.001726
0.001581
0.001435
0.001291
0.001146
0.000998
0.000854
0.002015
0.001871
0.001724
0.001581
0.001433
0.001289
0.001142
0.000998
0.000851
0.002016
0.001870
0.001724
0.001579
0.001432
0.001286
0.001142
0.000995
0.000849
0.002013
0.001869
0.001722
0.001578
0.001431
0.001285
0.001138
0.000992
0.000848
0.002012
0.001867
0.001721
0.001574
0.001428
0.001282
0.001137
0.000992
0.000844
0.002012
0.001865
0.001720
0.001572
0.001426
0.001281
0.001136
0.000988
0.000844
0.002010
0.001863
0.001718
0.001572
0.001424
0.001280
0.001133
0.000987
0.000840
0.002008
0.001865
0.001718
0.001569
0.001423
0.001278
0.001131
0.000985
0.000840
0.002007
0.001860
0.001716
0.001568
0.001422
0.001276
0.001129
0.000984
0.000837
0.002005
0.001862
0.001714
0.001566
0.001421
0.001275
0.001128
0.000981
0.000835
0.002004
0.001859
0.001712
0.001565
0.001421
0.001274
0.001128
0.000980
0.000835
0.002003
0.001857
0.001710
0.001564
0.001417
0.001272
0.001125
0.000982
0.000832
0.002001
0.001854
0.001709
0.001563
0.001417
0.001270
0.001125
0.000978
0.000831
0.001998
0.001853
0.001708
0.001560
0.001414
0.001267
0.001122
0.000977
0.000830
0.001999
0.001852
0.001707
0.001559
0.001414
0.001268
0.001121
0.000975
0.000829
0.001995
0.001849
0.001705
0.001558
0.001413
0.001267
0.001121
0.000973
0.000829
0.001994
0.001849
0.001702
0.001556
0.001411
0.001265
0.001118
0.000972
0.000827
0.001994
0.001846
0.001702
0.001555
0.001410
0.001264
0.001119
0.000973
0.000826
0.001991
0.001844
0.001701
0.001552
0.001407
0.001263
0.001117
0.000970
0.000825
0.001989
0.001843
0.001699
0.001553
0.001406
0.001261
0.001115
0.000970
0.000824
0.001987
0.001842
0.001696
0.001551
0.001406
0.001260
0.001115
0.000969
0.000824
0.001985
0.001841
0.001695
0.001549
0.001405
0.001259
0.001113
0.000968
0.000822
0.001984
0.001837
0.001693
0.001550
0.001403
0.001258
0.001113
0.000968
0.000823
0.001981
0.001835
0.001692
0.001545
0.001402
0.001257
0.001113
0.000968
0.000821
0.001978
0.001835
0.001690
0.001546
0.001399
0.001256
0.001109
0.000967
0.000822
0.001976
0.001832
0.001689
0.001544
0.001399
0.001255
0.001111
0.000967
0.000822
0.001974
0.001831
0.001686
0.001541
0.001398
0.001253
0.001109
0.000965
0.000820
0.001971
0.001829
0.001685
0.001540
0.001396
0.001252
0.001109
0.000965
0.000820
0.001970
0.001826
0.001682
0.001539
0.001396
0.001252
0.001108
0.000963
0.000821
SCALARS strain_3 float
LOOKUP_TABLE default
0.000427
0.027705
0.027315
0.026921
0.026525
0.026129
0.025729
0.025329
0.024925
0.024520
0.024115
0.023707
0.023299
0.022888
0.022477
0.022065
0.021651
0.021237
0.020821
0.020406
0.019990
0.019573
0.019157
0.018741
0.018325
0.017908
0.017493
0.017077
0.016663
0.016249
0.015838
0.015426
0.015017
0.014609
0.014204
0.013799
0.013397
0.012997
0.012600
0.012205
0.011814
0.011426
0.011040
0.010660
0.010281
0.009908
0.009537
0.009171
0.008811
0.008453
0.008102
0.007756
0.007413
0.007077
0.006747
0.006423
0.006104
0.005791
0.005484
0.005184
0.004891
0.004603
0.004323
0.004051
0.003784
0.003525
0.003274
0.003029
0.002792
0.002564
0.002342
0.002129
0.001924
0.001725
0.001536
0.001353
0.001180
0.001013
0.000854
0.000705
0.000562
0.026989
-0.000226
-0.000098
0.000038
0.000184
0.000337
0.000498
0.000667
0.000845
0.001031
0.001223
0.001424
0.001635
0.001851
0.002075
0.002308
0.002549
0.002798
0.003054
0.003316
0.003586
0.003863
0.004148
0.004438
0.004736
0.005040
0.005350
0.005668
0.005990
0.006320
0.006653
0.006993
0.007339
0.007689
0.008045
0.008406
0.008770
0.009139
0.009512
0.009889
0.010272
0.010656
0.011044
0.011435
0.011830
0.012227
0.012627
0.013029
0.013434
0.013841
0.014250
0.014659
0.015072
0.015485
0.015899
0.016314
0.016730
0.017147
0.017565
0.017982
0.018401
0.018818
0.019237
0.019653
0.020072
0.020488
0.020903
0.021319
0.021733
0.022146
0.022560
0.022969
0.023379
0.023787
0.024194
0.024599
0.025001
0.025404
0.025803
0.026200
0.026595
0.027060
0.027133
0.027205
0.027275
0.027347
0.027420
0.027490
0.027561
0.027634
0.000359
0.000294
0.000227
0.000161
0.000096
0.000031
-0.000034
-0.000099
-0.000163
-0.000034
0.000031
0.000096
0.000161
0.000228
0.000295
0.000361
0.000427
0.000494
0.000104
0.000169
0.000235
0.000302
0.000367
0.000433
0.000502
0.000569
0.000637
0.000249
0.000315
0.000381
0.000448
0.000515
0.000582
0.000651
0.000718
0.000785
0.000403
0.000469
0.000536
0.000604
0.000671
0.000738
0.000807
0.000874
0.000944
0.000565
0.000631
0.000699
0.000766
0.000834
0.000902
0.000971
0.001040
0.001109
0.000735
0.000801
0.000870
0.000938
0.001006
0.001075
0.001144
0.001213
0.001283
0.000912
0.000980
0.001049
0.001117
0.001186
0.001255
0.001324
0.001395
0.001465
0.001098
0.001166
0.001236
0.001304
0.001373
0.001443
0.001513
0.001584
0.001655
0.001292
0.001361
0.001430
0.001499
0.001570
0.001639
0.001709
0.001780
0.001852
0.001494
0.001563
0.001633
0.001702
0.001772
0.001844
0.001915
0.001986
0.002058
0.001704
0.001773
0.001843
0.001913
0.001984
0.002055
0.002127
0.002199
0.002271
0.001921
0.001990
0.002061
0.002133
0.002203
0.002275
0.002346
0.002419
0.002490
0.002147
0.002217
0.002287
0.002359
0.002430
0.002503
0.002574
0.002646
0.002719
0.002379
0.002450
0.002521
0.002594
0.002665
0.002737
0.002810
0.002882
0.002957
0.002620
0.002691
0.002763
0.002834
0.002906
0.002980
0.003053
0.003126
0.003200
0.002869
0.002939
0.003013
0.003083
0.003157
0.003229
0.003304
0.003377
0.003450
0.003125
0.003196
0.003268
0.003340
0.003415
0.003488
0.003560
0.003635
0.003710
0.003387
0.003460
0.003532
0.003605
0.003679
0.003753
0.003826
0.003900
0.003974
0.003658
0.003731
0.003804
0.003877
0.003951
0.004024
0.004098
0.004173
0.004249
0.003936
0.004009
0.004082
0.004155
0.004229
0.004304
0.004377
0.004452
0.004528
0.004220
0.004293
0.004367
0.004441
0.004514
0.004589
0.004664
0.004740
0.004814
0.004511
0.004584
0.004659
0.004732
0.004808
0.004883
0.004956
0.005033
0.005109
0.004809
0.004883
0.004958
0.005032
0.005106
0.005181
0.005257
0.005331
0.005407
0.005115
0.005187
0.005262
0.005337
0.005412
0.005487
0.005563
0.005638
0.005714
0.005425
0.005500
0.005573
0.005648
0.005723
0.005799
0.005874
0.005950
0.006027
0.005742
0.005816
0.005891
0.005966
0.006041
0.006117
0.006192
0.006269
0.006346
0.006065
0.006139
0.006215
0.006290
0.006365
0.006441
0.006517
0.006594
0.006671
0.006394
0.006468
0.006544
0.006619
0.006695
0.006771
0.006847
0.006923
0.006999
0.006729
0.006803
0.006879
0.006955
0.007030
0.007107
0.007182
0.007260
0.007336
0.007067
0.007144
0.007219
0.007295
0.007371
0.007448
0.007524
0.007601
0.007677
0.007414
0.007489
0.007565
0.007641
0.007718
0.007793
0.007870
0.007948
0.008024
0.007766
0.007840
0.007916
0.007992
0.008069
0.008145
0.008222
0.008298
0.008376
0.008120
0.008196
0.008272
0.008348
0.008425
0.008501
0.008579
0.008656
0.008733
0.008481
0.008556
0.008633
0.008709
0.008784
0.008863
0.008940
0.009017
0.009094
0.008845
0.008921
0.008998
0.009075
0.009151
0.009228
0.009304
0.009382
0.009460
0.009214
0.009290
0.009368
0.009443
0.009520
0.009597
0.009675
0.009751
0.009830
0.009589
0.009664
0.009741
0.009817
0.009894
0.009971
0.010049
0.010126
0.010203
0.009966
0.010042
0.010119
0.010194
0.010273
0.010348
0.010427
0.010504
0.010581
0.010348
0.010424
0.010500
0.010577
0.010654
0.010730
0.010808
0.010885
0.010964
0.010732
0.010808
0.010885
0.010962
0.011039
0.011115
0.011193
0.011270
0.011347
0.011120
0.011196
0.011274
0.011350
0.011426
0.011504
0.011581
0.011658
0.011737
0.011512
0.011588
0.011664
0.011741
0.011818
0.011895
0.011972
0.012050
0.012128
0.011906
0.011983
0.012060
0.012135
0.012212
0.012290
0.012368
0.012444
0.012523
0.012303
0.012379
0.012457
0.012534
0.012609
0.012687
0.012765
0.012842
0.012919
0.012703
0.012780
0.012856
0.012933
0.013009
0.013087
0.013165
0.013242
0.013320
0.013105
0.013182
0.013259
0.013334
0.013413
0.013489
0.013566
0.013645
0.013721
0.013511
0.013587
0.013663
0.013740
0.013816
0.013894
0.013972
0.014048
0.014125
0.013917
0.013993
0.014069
0.014147
0.014223
0.014300
0.014377
0.014455
0.014532
0.014326
0.014401
0.014478
0.014555
0.014632
0.014707
0.014786
0.014862
0.014940
0.014736
0.014812
0.014890
0.014965
0.015041
0.015119
0.015195
0.015273
0.015349
0.015148
0.015223
0.015301
0.015377
0.015453
0.015530
0.015607
0.015684
0.015759
0.015561
0.015637
0.015713
0.015789
0.015866
0.015943
0.016019
0.016096
0.016173
0.015976
0.016051
0.016128
0.016204
0.016280
0.016356
0.016434
0.016510
0.016587
0.016390
0.016466
0.016541
0.016618
0.016695
0.016772
0.016849
0.016924
0.017001
0.016805
0.016882
0.016957
0.017035
0.017110
0.017187
0.017263
0.017340
0.017415
0.017223
0.017299
0.017375
0.017451
0.017527
0.017602
0.017680
0.017756
0.017832
0.017640
0.017716
0.017791
0.017868
0.017944
0.018020
0.018096
0.018172
0.018249
0.018058
0.018134
0.018210
0.018285
0.018360
0.018437
0.018513
0.018588
0.018664
0.018475
0.018551
0.018627
0.018702
0.018778
0.018855
0.018929
0.019005
0.019081
0.018893
0.018969
0.019043
0.019119
0.019195
0.019271
0.019346
0.019422
0.019498
0.019312
0.019386
0.019461
0.019537
0.019612
0.019687
0.019763
0.019840
0.019914
0.019729
0.019803
0.019879
0.019954
0.020030
0.020104
0.020179
0.020256
0.020331
0.020146
0.020221
0.020296
0.020370
0.020446
0.020520
0.020596
0.020671
0.020746
0.020563
0.020637
0.020712
0.020787
0.020862
0.020937
0.021011
0.021086
0.021162
0.020978
0.021053
0.021128
0.021202
0.021278
0.021351
0.021428
0.021501
0.021575
0.021394
0.021468
0.021542
0.021617
0.021692
0.021767
0.021841
0.021915
0.021989
0.021808
0.021881
0.021956
0.022030
0.022104
0.022179
0.022255
0.022328
0.022403
0.022221
0.022295
0.022368
0.022444
0.022517
0.022591
0.022665
0.022740
0.022814
0.022633
0.022707
0.022780
0.022854
0.022929
0.023001
0.023076
0.023150
0.023223
0.023044
0.023118
0.023192
0.023265
0.023339
0.023412
0.023485
0.023560
0.023634
0.023453
0.023526
0.023600
0.023674
0.023748
0.023821
0.023894
0.023967
0.024042
0.023860
0.023934
0.024008
0.024082
0.024154
0.024228
0.024301
0.024375
0.024447
0.024267
0.024339
0.024413
0.024486
0.024560
0.024633
0.024706
0.024779
0.024853
0.024672
0.024745
0.024818
0.024891
0.024964
0.025037
0.025110
0.025182
0.025255
0.025075
0.025148
0.025221
0.025294
0.025366
0.025439
0.025511
0.025584
0.025656
0.025476
0.025548
0.025621
0.025694
0.025766
0.025839
0.025911
0.025984
0.026056
0.025875
0.025948
0.026020
0.026092
0.026164
0.026237
0.026309
0.026381
0.026453
0.026273
0.026345
0.026417
0.026489
0.026560
0.026633
0.026705
0.026777
0.026848
0.026668
0.026740
0.026812
0.026883
0.026955
0.027026
0.027098
0.027170
0.027242
SCALARS stress_1 float
LOOKUP_TABLE default
18778.603511
-15990240.619659
-15748154.666869
-15504886.714080
-15260406.761290
-15014873.808500
-14768275.855711
-14520732.902921
-14272183.950132
-14022851.997342
-13772630.044552
-13521702.091763
-13270098.138973
-13017877.186183
-12765223.233394
-12512071.280604
-12258596.327815
-12004830.375025
-11750831.422235
-11496748.469446
-11242662.516656
-10988658.563866
-10734826.611077
-10481271.658287
-10228070.705497
-9975327.752708
-9723171.799918
-9471661.847129
-9220966.894339
-8971160.941549
-8722329.988760
-8474684.035970
-8228182.083180
-7983094.130391
-7739416.177601
-7497375.224812
-7257025.272022
-7018461.319232
-6781900.366443
-6547383.413653
-6315010.460863
-6084942.508074
-5857411.555284
-5632324.602495
-5409975.649705
-5190439.696915
-4973789.744126
-4760216.791336
-4549800.838546
-4342623.885757
-4138882.932967
-3938614.980178
-3742030.027388
-3549120.074598
-3360062.121809
-3174951.169019
-2993890.216229
-2816981.263440
-2644225.310650
-2475862.357860
-2311948.405071
-2152427.452281
-1997523.499492
-1847208.546702
-1701697.593912
-1560861.641123
-1424893.688333
-1293785.735543
-1167525.782754
-1046259.829964
-930017.877175
-818772.924385
-712472.971595
-611224.018806
-515018.066016
-423846.113226
-337715.160437
-256563.207647
-180325.254858
-109082.302068
-42722.349278
-15967272.926333
57405.296838
-3903.655952
-70139.608742
-141232.561531
-217354.514321
-298371.467111
-384471.419900
-475499.372690
-571689.325479
-672840.278269
-779066.231059
-890309.183848
-1006573.136638
-1127851.089428
-1254074.042217
-1385228.995007
-1521256.947796
-1662174.900586
-1807792.853376
-1958153.806165
-2113192.758955
-2272809.711745
-2436867.664534
-2605437.617324
-2778243.570114
-2955371.522903
-3136611.475693
-3321920.428482
-3511186.381272
-3704305.334062
-3901129.286851
-4101607.239641
-4305585.192431
-4512987.145220
-4723610.098010
-4937488.050799
-5154390.003589
-5374204.956379
-5596809.909168
-5822145.861958
-6050017.814748
-6280310.767537
-6512913.720327
-6747750.673116
-6984665.625906
-7223518.578696
-7464149.531485
-7706542.484275
-7950504.437065
-8195945.389854
-8442688.342644
-8690713.295433
-8939818.248223
-9189944.201013
-9440967.153802
-9692767.106592
-9945308.059382
-10198294.012171
-10451856.964961
-10705674.917751
-10959917.870540
-11214190.823330
-11468568.776119
-11722991.728909
-11977307.681699
-12231378.634488
-12485190.587278
-12738625.540068
-12991553.492857
-13244084.445647
-13495985.398436
-13747132.351226
-13997665.304016
-14247323.256805
-14496126.209595
-14744023.162385
-14990875.115174
-15236696.067964
-15481383.020753
-15724962.973543
-15969649.795665
-15972039.664998
-15974370.534331
-15976713.403663
-15979018.272996
-15981293.142328
-15983531.011661
-15985829.880994
-15988018.750326
23602.472844
28208.342177
32613.211509
36788.080842
40713.950174
44458.819507
48020.688840
51375.558172
54488.427505
-6899.525285
-10048.394617
-13349.263950
-16952.133283
-20711.002615
-24682.871948
-28885.741280
-33275.610613
-37885.479946
-73078.478074
-76238.347407
-79595.216740
-83208.086072
-86999.955405
-90971.824737
-95205.694070
-99602.563403
-104256.432735
-144239.430864
-147427.300197
-150781.169529
-154367.038862
-158173.908194
-162223.777527
-166393.646860
-170866.516192
-175502.385525
-220299.383654
-223467.252986
-226839.122319
-230446.991651
-234273.860984
-238317.730317
-242493.599649
-247006.468982
-251676.338315
-301367.336443
-304529.205776
-307962.075108
-311558.944441
-315389.813774
-319379.683106
-323641.552439
-328140.421772
-332806.291104
-387429.289233
-390618.158565
-394058.027898
-397650.897231
-401438.766563
-405559.635896
-409802.505229
-414283.374561
-418965.243894
-478528.242022
-481746.111355
-485123.980688
-488740.850020
-492611.719353
-496678.588686
-500936.458018
-505436.327351
-510117.196683
-574660.194812
-577881.064145
-581232.933477
-584907.802810
-588791.672143
-592835.541475
-597088.410808
-601625.280140
-606346.149473
-675849.147602
-679042.016934
-682466.886267
-686117.755600
-689941.624932
-694023.494265
-698353.363597
-702803.232930
-707558.102263
-782051.100391
-785231.969724
-788686.839057
-792361.708389
-796228.577722
-800316.447054
-804573.316387
-809069.185720
-813833.055052
-893315.053181
-896528.922514
-899962.791846
-903627.661179
-907489.530511
-911525.399844
-915890.269177
-920412.138509
-925065.007842
-1009616.005971
-1012786.875303
-1016248.744636
-1019876.613968
-1023743.483301
-1027834.352634
-1032095.221966
-1036632.091299
-1041377.960632
-1130852.958760
-1134116.828093
-1137547.697425
-1141152.566758
-1145017.436091
-1149080.305423
-1153401.174756
-1157854.044089
-1162658.913421
-1257120.911550
-1260304.780882
-1263738.650215
-1267418.519548
-1271253.388880
-1275365.258213
-1279622.127546
-1284165.996878
-1288819.866211
-1388259.864339
-1391441.733672
-1394918.603005
-1398568.472337
-1402434.341670
-1406493.211003
-1410790.080335
-1415227.949668
-1419951.819000
-1524294.817129
-1527532.686462
-1530920.555794
-1534629.425127
-1538416.294460
-1542518.163792
-1546780.033125
-1551285.902457
-1555951.771790
-1665149.769919
-1668374.639251
-1671817.508584
-1675473.377917
-1679317.247249
-1683363.116582
-1687598.985914
-1692107.855247
-1696782.724580
-1810804.722708
-1814043.592041
-1817447.461374
-1821116.330706
-1824924.200039
-1829010.069371
-1833218.938704
-1837720.808037
-1842356.677369
-1961194.675498
-1964441.544831
-1967796.414163
-1971492.283496
-1975311.152828
-1979359.022161
-1983574.891494
-1988046.760826
-1992668.630159
-2116228.628288
-2119393.497620
-2122848.366953
-2126501.236285
-2130295.105618
-2134331.974951
-2138516.844283
-2142965.713616
-2147606.582949
-2275819.581077
-2279007.450410
-2282408.319743
-2286018.189075
-2289858.058408
-2293808.927740
-2298070.797073
-2302491.666406
-2307086.535738
-2439874.533867
-2443119.403200
-2446493.272532
-2450103.141865
-2453931.011197
-2457917.880530
-2462112.749863
-2466474.619195
-2471026.488528
-2608428.486657
-2611620.355989
-2615030.225322
-2618601.094654
-2622402.963987
-2626347.833320
-2630580.702652
-2634940.571985
-2639464.441317
-2781252.439446
-2784484.308779
-2787848.178111
-2791437.047444
-2795190.916777
-2799149.786109
-2803348.655442
-2807679.524775
-2812207.394107
-2958375.392236
-2961535.261568
-2964929.130901
-2968499.000234
-2972241.869566
-2976217.738899
-2980346.608232
-2984666.477564
-2989163.346897
-3139625.345025
-3142808.214358
-3146179.083691
-3149708.953023
-3153481.822356
-3157386.691689
-3161489.561021
-3165778.430354
-3170276.299686
-3324956.297815
-3328064.167148
-3331450.036480
-3334968.905813
-3338721.775146
-3342589.644478
-3346693.513811
-3350954.383143
-3355411.252476
-3514157.250605
-3517309.119937
-3520674.989270
-3524168.858603
-3527907.727935
-3531756.597268
-3535797.466600
-3540107.335933
-3544521.205266
-3707263.203394
-3710433.072727
-3713719.942060
-3717251.811392
-3720949.680725
-3724751.550057
-3728828.419390
-3733085.288723
-3737472.158055
-3904096.156184
-3907228.025517
-3910552.894849
-3914061.764182
-3917715.633514
-3921562.502847
-3925621.372180
-3929754.241512
-3934127.110845
-4104535.108974
-4107678.978306
-4110950.847639
-4114444.716971
-4118085.586304
-4121891.455637
-4125932.324969
-4130051.194302
-4134398.063635
-4308557.061763
-4311664.931096
-4314893.800428
-4318402.669761
-4322011.539094
-4325816.408426
-4329762.277759
-4333911.147092
-4338193.016424
-4515906.014553
-4518990.883885
-4522302.753218
-4525732.622551
-4529303.491883
-4533087.361216
-4537036.230549
-4541107.099881
-4545346.969214
-4726563.967342
-4729724.836675
-4732920.706008
-4736371.575340
-4739928.444673
-4743667.314006
-4747613.183338
-4751622.052671
-4755874.922003
-4940455.920132
-4943545.789465
-4946748.658797
-4950167.528130
-4953705.397463
-4957373.266795
-4961249.136128
-4965301.005460
-4969498.874793
-5157320.872922
-5160389.742254
-5163589.611587
-5167007.480920
-5170536.350252
-5174223.219585
-5178053.088917
-5182036.958250
-5186154.827583
-5377105.825711
-5380190.695044
-5383373.564377
-5386795.433709
-5390237.303042
-5393898.172374
-5397721.041707
-5401633.911040
-5405787.780372
-5599721.778501
-5602797.647834
-5606000.517166
-5609306.386499
-5612812.255831
-5616403.125164
-5620197.994497
-5624079.863829
-5628173.733162
-5824984.731291
-5828087.600623
-5831241.469956
-5834584.339288
-5838006.208621
-5841576.077954
-5845351.947286
-5849227.816619
-5853247.685952
-6052940.684080
-6055888.553413
-6059083.422745
-6062347.292078
-6065792.161411
-6069368.030743
-6073033.900076
-6076925.769409
-6080857.638741
-6283195.636870
-6286224.506202
-6289372.375535
-6292587.244868
-6296018.114200
-6299553.983533
-6303219.852866
-6307034.722198
-6310976.591531
-6515794.589659
-6518803.458992
-6521985.328325
-6525160.197657
-6528583.066990
-6532060.936323
-6535707.805655
-6539454.674988
-6543357.544320
-6750631.542449
-6753578.411782
-6756711.281114
-6759947.150447
-6763301.019780
-6766748.889112
-6770338.758445
-6774076.627777
-6777907.497110
-6987526.495239
-6990439.364571
-6993532.233904
-6996731.103237
-7000068.972569
-7003517.841902
-7007083.711234
-7010755.580567
-7014524.449900
-7226305.448028
-7229246.317361
-7232347.186694
-7235513.056026
-7238820.925359
-7242181.794691
-7245763.664024
-7249388.533357
-7253162.402689
-7466978.400818
-7469929.270151
-7472960.139483
-7476119.008816
-7479366.878148
-7482749.747481
-7486220.616814
-7489828.486146
-7493519.355479
-7709342.353608
-7712287.222940
-7715278.092273
-7718386.961605
-7721667.830938
-7725005.700271
-7728431.569603
-7731989.438936
-7735630.308269
-7953280.306397
-7956212.175730
-7959226.045062
-7962309.914395
-7965499.783728
-7968849.653060
-7972213.522393
-7975719.391726
-7979375.261058
-8198702.259187
-8201543.128519
-8204612.997852
-8207670.867185
-8210848.736517
-8214090.605850
-8217468.475183
-8220944.344515
-8224491.213848
-8445470.211976
-8448357.081309
-8451298.950642
-8454309.819974
-8457508.689307
-8460732.558640
-8464096.427972
-8467484.297305
-8471050.166637
-8693465.164766
-8696320.034099
-8699263.903431
-8702319.772764
-8705342.642097
-8708608.511429
-8711897.380762
-8715258.250094
-8718754.119427
-8942566.117556
-8945414.986888
-8948270.856221
-8951377.725554
-8954416.594886
-8957598.464219
-8960851.333551
-8964195.202884
-8967626.072217
-9192662.070345
-9195494.939678
-9198388.809011
-9201314.678343
-9204439.547676
-9207576.417008
-9210815.286341
-9214107.155674
-9217482.025006
-9443667.023135
-9446481.892468
-9449302.761800
-9452310.631133
-9455331.500465
-9458442.369798
-9461690.239131
-9464939.108463
-9468213.977796
-9695518.975925
-9698242.845257
-9701127.714590
-9704076.583922
-9707017.453255
-9710142.322588
-9713291.191920
-9716500.061253
-9719764.930586
-9947958.928714
-9950732.798047
-9953518.667380
-9956497.536712
-9959388.406045
-9962476.275377
-9965562.144710
-9968777.014043
-9972009.883375
-10201012.881504
-10203755.750837
-10206549.620169
-10209414.489502
-10212364.358834
-10215361.228167
-10218455.097500
-10221593.966832
-10224780.836165
-10454472.834294
-10457235.703626
-10460032.572959
-10462864.442291
-10465787.311624
-10468717.180957
-10471812.050289
-10474893.919622
-10478058.788955
-10708390.787083
-10711095.656416
-10713900.525748
-10716701.395081
-10719598.264414
-10722516.133746
-10725535.003079
-10728580.872412
-10731690.741744
-10962530.739873
-10965221.609205
-10967989.478538
-10970781.347871
-10973606.217203
-10976529.086536
-10979471.955869
-10982487.825201
-10985541.694534
-11216821.692662
-11219476.561995
-11222242.431328
-11225038.300660
-11227906.169993
-11230743.039326
-11233592.908658
-11236611.777991
-11239641.647323
-11471215.645452
-11473888.514785
-11476590.384117
-11479360.253450
-11482150.122783
-11484973.992115
-11487865.861448
-11490816.730780
-11493742.600113
-11725603.598242
-11728233.467574
-11730931.336907
-11733649.206240
-11736414.075572
-11739223.944905
-11742060.814237
-11744950.683570
-11747859.552903
-11979882.551031
-11982487.420364
-11985168.289697
-11987845.159029
-11990605.028362
-11993388.897694
-11996158.767027
-11999001.636360
-12001924.505692
-12233943.503821
-12236585.373154
-12239179.242486
-12241888.111819
-12244559.981151
-12247282.850484
-12250100.719817
-12252860.589149
-12255705.458482
-12487716.456611
-12490320.325943
-12492981.195276
-12495530.064608
-12498246.933941
-12500988.803274
-12503701.672606
-12506496.541939
-12509277.411272
-12741116.409400
-12743720.278733
-12746342.148065
-12748933.017398
-12751620.886731
-12754291.756063
-12756929.625396
-12759696.494729
-12762460.364061
-12994144.362190
-12996670.231522
-12999258.100855
-13001895.970188
-13004493.839520
-13007126.708853
-13009808.578186
-13012475.447518
-13015232.316851
-13246582.314979
-13249137.184312
-13251710.053645
-13254280.922977
-13256841.792310
-13259490.661643
-13262105.530975
-13264736.400308
-13267455.269640
-13498420.267769
-13501015.137102
-13503570.006434
-13506093.875767
-13508678.745100
-13511222.614432
-13513862.483765
-13516426.353097
-13519057.222430
-13749692.220559
-13752182.089891
-13754736.959224
-13757248.828557
-13759755.697889
-13762297.567222
-13764904.436554
-13767455.305887
-13769991.175220
-14000141.173348
-14002661.042681
-14005126.912014
-14007628.781346
-14010156.650679
-14012645.520011
-14015237.389344
-14017715.258677
-14020285.128009
-14249757.126138
-14252295.995471
-14254748.864803
-14257260.734136
-14259710.603468
-14262171.472801
-14264699.342134
-14267220.211466
-14269658.080799
-14498591.078928
-14501057.948260
-14503491.817593
-14505965.686925
-14508446.556258
-14510865.425591
-14513344.294923
-14515795.164256
-14518300.033589
-14746475.031717
-14748901.901050
-14751359.770382
-14753739.639715
-14756181.509048
-14758619.378380
-14761052.247713
-14763476.117046
-14765887.986378
-14993305.984507
-14995715.853839
-14998154.723172
-15000572.592505
-15002991.461837
-15005365.331170
-15007771.200503
-15010125.069835
-15012512.939168
-15239122.937296
-15241549.806629
-15243920.675962
-15246342.545294
-15248703.414627
-15251017.283960
-15253456.153292
-15255752.022625
-15258070.891957
-15483813.890086
-15486245.759419
-15488586.628751
-15490971.498084
-15493309.367417
-15495625.236749
-15497940.106082
-15500295.975414
-15502616.844747
-15727350.842876
-15729737.712208
-15732129.581541
-15734425.450874
-15736784.320206
-15739062.189539
-15741389.058871
-15743665.928204
-15745931.797537
SCALARS stress_2 float
LOOKUP_TABLE default
212242.833116
-2253219.316472
-2217424.439603
-2181149.562733
-2144810.685863
-2108071.808993
-2071492.932123
-2034514.055253
-1997151.178383
-1960172.301514
-1922649.424644
-1885350.547774
-1847635.670904
-1809792.794034
-1771933.917164
-1734027.040295
-1696424.163425
-1658405.286555
-1620306.409685
-1582063.532815
-1543948.655945
-1506009.779075
-1467686.902206
-1429412.025336
-1391585.148466
-1353358.271596
-1315371.394726
-1277512.517856
-1239861.640986
-1202162.764117
-1164927.887247
-1127197.010377
-1090042.133507
-1052631.256637
-1015700.379767
-979073.502897
-942350.626028
-906139.749158
-870200.872288
-834645.995418
-799267.118548
-764064.241678
-728749.364809
-694650.487939
-660519.611069
-626644.734199
-593393.857329
-560814.980459
-528284.103589
-496057.226720
-464614.349850
-433379.472980
-402944.596110
-372733.719240
-342826.842370
-314231.965500
-285621.088631
-257762.211761
-230623.334891
-203932.458021
-178233.581151
-152422.704281
-127715.827412
-103616.950542
-80158.073672
-57371.196802
-35288.319932
-13749.443062
7101.433808
27104.310677
46259.187547
65062.064417
83208.941287
99995.818157
116494.695027
132529.571897
147316.448766
161783.325636
175370.202506
188493.079376
200895.956246
-1983276.865126
408457.284462
399286.407592
389699.530723
379456.653853
368237.776983
356394.900113
343912.023243
330709.146373
316546.269503
301503.392634
286156.515764
269705.638894
252550.762024
234451.885154
216193.008284
196734.131415
176619.254545
156104.377675
134485.500805
112498.623935
89423.747065
65724.870195
41321.993326
16295.116456
-9163.760414
-35390.637284
-62273.514154
-90084.391024
-117895.267894
-146666.144763
-175677.021633
-205951.898503
-235906.775373
-266805.652243
-298152.529113
-330331.405983
-362302.282852
-394673.159722
-428084.036592
-461766.913462
-495721.790332
-530044.667202
-564863.544071
-599746.420941
-634917.297811
-670440.174681
-706843.051551
-742701.928421
-779312.805291
-816067.682160
-852774.559030
-889865.435900
-927404.312770
-964751.189640
-1002514.066510
-1039812.943380
-1077751.820249
-1115690.697119
-1153533.573989
-1191824.450859
-1229843.327729
-1267878.204599
-1306249.081468
-1344619.958338
-1382478.835208
-1420449.712078
-1459140.588948
-1496823.465818
-1535114.342688
-1573005.219557
-1610736.096427
-1648962.973297
-1686469.850167
-1723944.727037
-1761451.603907
-1798702.480777
-1836161.357646
-1873156.234516
-1910151.111386
-1946809.988256
-2010539.910260
-2037338.955395
-2064298.000530
-2091561.045664
-2118280.090799
-2145607.135934
-2172470.181068
-2199669.226203
-2226484.271338
231969.878250
251744.923385
271391.968520
291375.013654
310478.058789
330061.103924
350092.149058
369435.194193
388794.239328
379607.362458
359896.317323
339849.272188
320282.227054
300363.181919
280492.136784
260733.091650
240606.046515
220767.001380
369716.485588
349813.440453
329670.395319
309383.350184
289448.305049
269321.259915
249370.214780
229051.169645
208908.124511
359201.608718
338786.563583
318707.518449
298340.473314
277829.428179
257558.383045
236951.337910
216696.292775
196185.247641
347774.731848
327407.686714
306944.641579
286273.596444
265634.551310
244755.506175
224308.461040
203493.415906
182502.370771
335739.854978
314956.809844
294141.764709
273646.719574
252399.674440
231632.629305
210705.584170
189682.539036
168643.493901
322984.978109
301897.932974
281066.887839
259579.842705
238764.797570
217325.752435
196062.707301
175023.662166
153616.617031
309238.101239
288103.056104
266712.010969
245288.965835
224073.920700
202826.875565
180923.830431
159836.785296
138349.740161
295027.224369
273652.179234
251989.134099
230566.088965
209047.043830
187255.998695
165224.953561
143721.908426
121610.863292
280112.347499
257905.302364
236610.257230
214435.212095
192692.166960
170485.121826
148982.076691
127111.031556
104903.986422
264093.470629
241982.425494
220223.380360
198192.335225
175985.290090
153922.244956
131539.199821
109652.154686
87317.109552
247386.593759
225547.548625
202764.503490
181005.458355
158382.413221
136223.368086
113952.322951
91569.277817
68674.232682
230103.716889
207928.671755
185193.626620
162746.581485
140331.536351
117772.491216
95213.446081
72398.400947
49807.355812
212228.840020
189541.794885
167014.749750
144055.704616
121240.659481
98681.614346
75802.569212
52539.524077
30092.478942
193329.963150
170466.918015
147731.872880
124548.827746
101797.782611
78550.737476
55799.692342
32456.647207
9209.602072
173455.086280
150848.041145
127264.996011
104513.950876
81266.905741
58019.860607
34484.815472
11493.770337
-11497.274797
153436.209410
130349.164275
106862.119141
83583.074006
60032.028871
36512.983737
13121.938602
-10317.106533
-33804.151667
132345.332540
109034.287405
85579.242271
62140.197136
38013.152002
14526.106867
-8880.938268
-32591.983402
-56095.028537
110950.455670
87079.410536
63384.365401
39513.320266
15994.275132
-7956.770003
-31619.815138
-55762.860272
-79713.905407
88531.578800
64548.533666
40485.488531
16630.443396
-7368.601738
-31767.646873
-55398.692008
-79653.737142
-103668.782277
65376.701931
40945.656796
17298.611661
-6908.433473
-31323.478608
-55354.523743
-79737.568877
-103784.614012
-128279.659147
41549.825061
17422.779926
-7088.265209
-31551.310343
-56158.355478
-80317.400613
-104892.445747
-128923.490882
-153434.536017
17130.948191
-7572.096944
-31795.142078
-56642.187213
-81089.232348
-105552.277482
-130207.322617
-154654.367752
-179117.412886
-7959.928679
-32630.973814
-57222.018948
-81973.064083
-106692.109218
-131475.154352
-156354.199487
-181169.244622
-205968.289756
-33930.805549
-58777.850683
-83288.895818
-108295.940953
-133174.986087
-158086.031222
-183205.076357
-207636.121491
-232835.166626
-60253.682419
-85468.727553
-110091.772688
-135210.817823
-160265.862957
-185064.908092
-210135.953227
-235350.998361
-261046.043496
-87376.559289
-112367.604423
-137326.649558
-162733.694692
-188012.739827
-212891.784962
-238410.830096
-263465.875231
-288744.920366
-114947.436158
-140354.481293
-165137.526428
-190848.571562
-216191.616697
-241662.661832
-266973.706966
-292316.752101
-317691.797236
-143478.313028
-168709.358163
-194212.403298
-219747.448432
-244914.493567
-270433.538702
-296208.583836
-321343.628971
-347278.674106
-172041.189898
-197560.235033
-223175.280167
-248598.325302
-274437.370437
-300020.415571
-325715.460706
-351426.505841
-376913.550975
-201580.066768
-227179.111903
-252570.157037
-278441.202172
-304072.247307
-330247.292441
-356006.337576
-381557.382711
-407492.427845
-231630.943638
-257229.988772
-282861.033907
-308844.079042
-334763.124176
-360218.169311
-386505.214446
-412232.259580
-438455.304715
-262001.820508
-287856.865642
-313935.910777
-339790.955912
-365646.001046
-391709.046181
-417852.091316
-443867.136450
-470106.181585
-292788.697377
-318563.742512
-345042.787647
-371121.832781
-397056.877916
-423359.923051
-449438.968185
-475710.013320
-501821.058455
-324439.574247
-350390.619382
-376453.664517
-402900.709651
-429219.754786
-455442.799921
-481505.845055
-508000.890190
-534207.935325
-356074.451117
-382713.496252
-408872.541386
-434887.586521
-461590.631656
-487829.676790
-514260.721925
-540643.767060
-567058.812194
-388701.327987
-414972.373122
-441051.418256
-467642.463391
-494265.508526
-520456.553660
-547063.598795
-573974.643930
-600309.689064
-420896.204857
-447903.249992
-474302.295126
-500861.340261
-527532.385396
-554187.430530
-580762.475665
-607209.520800
-633944.565934
-454579.081727
-480994.126861
-507777.171996
-534352.217131
-561391.262265
-587966.307400
-614605.352535
-641276.397669
-667931.442804
-488197.958597
-514901.003731
-541604.048866
-568323.094001
-595058.139135
-621905.184270
-648512.229405
-675135.274539
-702094.319674
-522472.835466
-549143.880601
-575814.925736
-602773.970870
-629301.016005
-656468.061140
-683075.106274
-710002.151409
-736817.196544
-556715.712336
-583658.757471
-610457.802606
-637416.847740
-664103.892875
-691206.938010
-718165.983144
-745109.028279
-772164.073414
-591710.589206
-618653.634341
-645180.679475
-672443.724610
-699626.769745
-726281.814879
-753160.860014
-780487.905149
-807478.950283
-626657.466076
-653520.511211
-680831.556345
-707662.601480
-734813.646615
-761900.691749
-789019.736884
-815978.782019
-843113.827153
-662196.342946
-689107.388080
-716162.433215
-743457.478350
-770224.523484
-797743.568619
-824510.613754
-851741.658888
-879036.704023
-698023.219816
-724854.264950
-752069.310085
-779316.355220
-806515.400354
-833442.445489
-860817.490624
-888000.535758
-915439.580893
-733946.096686
-760985.141820
-788360.186955
-815479.232090
-842822.277224
-869621.322359
-897156.367494
-924195.412628
-951874.457763
-770172.973555
-797228.018690
-824731.063825
-852010.108959
-879081.154094
-906472.199229
-933847.244363
-961110.289498
-988245.334633
-806703.850425
-833918.895560
-860973.940695
-888748.985829
-915948.030964
-943067.076099
-970618.121233
-997913.166368
-1025432.211503
-843298.727295
-870689.772430
-898032.817564
-925535.862699
-952782.907834
-980125.952968
-1007644.998103
-1035068.043238
-1062363.088372
-880133.604165
-907236.649300
-935363.694434
-962130.739569
-989697.784704
-1017072.829838
-1044623.874973
-1072094.920108
-1099661.965242
-917256.481035
-944647.526169
-971958.571304
-999637.616439
-1026836.661573
-1054467.706708
-1082034.751843
-1109713.796977
-1137120.842112
-954747.357905
-982058.403039
-1009481.448174
-1037032.493309
-1064567.538443
-1092086.583578
-1119653.628713
-1147108.673847
-1174723.718982
-992366.234774
-1019629.279909
-1047116.325044
-1074523.370178
-1102074.415313
-1129801.460448
-1157112.505582
-1184647.550717
-1212150.595852
-1029857.111644
-1056944.156779
-1084639.201914
-1112078.247048
-1139661.292183
-1167148.337318
-1194923.382452
-1222218.427587
-1250265.472722
-1067203.988514
-1095059.033649
-1122530.078784
-1150033.123918
-1177376.169053
-1205151.214188
-1232702.259322
-1260637.304457
-1287452.349591
-1105062.865384
-1132821.910519
-1160292.955653
-1187908.000788
-1215507.045923
-1243170.091057
-1270561.136192
-1298048.181327
-1325967.226461
-1143065.742254
-1170536.787389
-1198007.832523
-1226086.877658
-1253061.922793
-1280868.967927
-1308628.013062
-1336259.058197
-1363858.103331
-1181388.619124
-1208907.664258
-1236138.709393
-1263865.754528
-1291608.799662
-1319223.844797
-1346790.889932
-1374453.935066
-1402052.980201
-1219391.495994
-1246990.541128
-1274461.586263
-1302156.631398
-1329755.676532
-1357274.721667
-1384713.766802
-1412600.811936
-1439911.857071
-1257186.372863
-1285057.417998
-1312400.463133
-1340271.508267
-1367598.553402
-1395133.598537
-1422908.643671
-1450731.688806
-1478298.733941
-1295525.249733
-1323252.294868
-1350739.340003
-1378354.385137
-1406113.430272
-1434000.475407
-1461023.520541
-1488622.565676
-1516509.610811
-1333800.126603
-1361239.171738
-1388518.216872
-1416293.262007
-1444116.307142
-1471891.352276
-1499250.397411
-1526865.442546
-1554560.487680
-1371739.003473
-1399434.048608
-1427017.093742
-1454360.138877
-1481959.184012
-1509846.229146
-1537237.274281
-1564900.319416
-1592499.364550
-1409917.880343
-1437420.925478
-1465243.970612
-1492699.015747
-1520266.060882
-1548073.106016
-1575352.151151
-1603239.196285
-1630630.241420
-1448304.757213
-1475743.802347
-1503614.847482
-1530861.892617
-1558284.937751
-1585803.982886
-1613755.028021
-1641146.073155
-1668841.118290
-1486355.634083
-1513810.679217
-1541345.724352
-1568672.769487
-1596655.814621
-1624078.859756
-1651325.904891
-1679180.950025
-1706747.995160
-1524310.510952
-1552085.556087
-1579396.601222
-1607107.646356
-1634370.691491
-1661809.736626
-1689616.781760
-1716943.826895
-1744622.872030
-1562457.387822
-1589960.432957
-1617383.478092
-1645206.523226
-1672485.568361
-1700020.613496
-1727587.658630
-1754850.703765
-1782561.748900
-1600508.264692
-1627643.309827
-1655226.354961
-1682633.400096
-1710088.445231
-1737927.490365
-1765430.535500
-1792613.580635
-1820244.625769
-1638175.141562
-1666014.186697
-1693037.231831
-1720748.276966
-1748011.322101
-1775562.367235
-1802841.412370
-1830408.457505
-1858215.502639
-1675970.018432
-1703041.063566
-1730832.108701
-1758335.153836
-1785582.198970
-1812957.244105
-1840588.289240
-1867995.334374
-1895274.379509
-1713748.895302
-1741171.940436
-1768082.985571
-1795586.030706
-1823025.075840
-1850432.120975
-1878079.166110
-1905182.211244
-1932861.256379
-1751287.772172
-1778598.817306
-1805861.862441
-1833236.907576
-1860563.952710
-1887906.997845
-1915410.042979
-1942641.088114
-1970080.133249
-1788666.649041
-1816153.694176
-1843256.739311
-1870583.784445
-1897926.829580
-1925221.874715
-1952612.919849
-1979875.964984
-2007187.010119
-1826189.525911
-1853260.571046
-1880667.616181
-1907818.661315
-1935113.706450
-1962328.751585
-1989543.796719
-2016806.841854
-2044245.886989
-1863424.402781
-1890671.447916
-1917582.493050
-1944877.538185
-1972156.583320
-1999179.628454
-2026794.673589
-2053721.718724
-2080968.763858
-1900467.279651
-1927602.324786
-1954641.369920
-1981616.415055
-2008879.460190
-2036078.505324
-2063309.550459
-2090108.595594
-2117659.640728
-1937078.156521
-1964437.201655
-1991556.246790
-2018515.291925
-2045554.337059
-2072801.382194
-2099776.427329
-2126895.472463
-2153950.517598
-1973945.033391
-2000968.078525
-2027927.123660
-2055366.168795
-2081989.213929
-2109012.259064
-2136227.304199
-2163298.349333
-2190369.394468
SCALARS stress_3 float
LOOKUP_TABLE default
69792.213303
4548987.746817
4484619.402648
4420403.058479
4355170.714310
4290154.370141
4224522.025972
4158657.681803
4092409.337634
4026216.993465
3959512.649297
3892416.305128
3825215.960959
3757831.616790
3690471.272621
3622694.928452
3554678.584283
3486798.240114
3418725.895945
3350405.551776
3282045.207607
3213612.863438
3145076.519269
3076820.175100
3008483.830932
2940179.486763
2872003.142594
2803682.798425
2735594.454256
2667834.110087
2600137.765918
2532585.421749
2465449.077580
2398352.733411
2331568.389242
2265136.045073
2199207.700904
2133591.356735
2068247.012567
2003814.668398
1939270.324229
1875453.980060
1812181.635891
1749677.291722
1687524.947553
1626148.603384
1565444.259215
1505363.915046
1445955.570877
1387539.226708
1329770.882539
1272938.538370
1216762.194201
1161625.850033
1107185.505864
1053769.161695
1001584.817526
950160.473357
899848.129188
850631.785019
802407.440850
755247.096681
709294.752512
664406.408343
620726.064174
578333.720005
536845.375836
496885.031668
458036.687499
420492.343330
384171.999161
349155.654992
315435.310823
282874.966654
251674.622485
221562.278316
193273.934147
165857.589978
139881.245809
114976.901640
91776.557471
4432693.168536
-37318.364979
-16134.020810
6290.323359
30226.667528
55355.011697
81643.355866
109515.700035
138748.044204
169100.388373
200820.732542
233965.076711
268381.420880
304125.765049
340982.109217
379134.453386
418702.797555
459303.141724
501191.485893
544407.830062
588728.174231
634400.518400
680952.862569
728809.206738
777633.550907
827745.895076
878650.239245
930778.583414
983762.927582
1037723.271751
1092619.615920
1148531.960089
1205276.304258
1262780.648427
1321212.992596
1380261.336765
1440437.680934
1500950.025103
1562262.369272
1624158.713441
1686807.057610
1749975.401779
1813879.745948
1878088.090116
1942960.434285
2008256.778454
2073913.122623
2139889.466792
2206337.810961
2273218.155130
2340362.499299
2407698.843468
2475411.187637
2543155.531806
2611227.875975
2679460.220144
2747868.564313
2816348.908481
2884821.252650
2953565.596819
3022029.940988
3090790.285157
3159326.629326
3228030.973495
3296511.317664
3364999.661833
3433288.006002
3501472.350171
3569640.694340
3637465.038509
3705177.382678
3772769.726846
3840002.071015
3906970.415184
3973810.759353
4040235.103522
4106475.447691
4172523.791860
4237988.136029
4303204.480198
4368164.824367
4444492.226364
4455971.284192
4467762.342020
4479265.399848
4490960.457676
4502503.515504
4514174.573333
4525725.631161
4537388.688989
58865.155474
47874.097646
37147.039818
26243.981990
15532.924162
4877.866334
-5809.191494
-16336.249322
-26919.307150
-5526.962982
5112.094847
15727.152675
26374.210503
37093.268331
47916.326159
58971.383987
69882.441815
80921.499643
16905.381187
27688.439015
38439.496844
49198.554672
60133.612500
71012.670328
82019.728156
93098.785984
104121.843812
40969.725356
51752.783184
62583.841013
73414.898841
84141.956669
95229.014497
106436.072325
117507.130153
128738.187981
66298.069525
76857.127353
87824.185181
98831.243010
109886.300838
120981.358666
132124.416494
143179.474322
154466.532150
92618.413694
103553.471522
114608.529350
125679.587179
136814.645007
147933.702835
159196.760663
170427.818491
181850.876319
120554.757863
131657.815691
142592.873519
153687.931347
164902.989176
176310.047004
187549.104832
198900.162660
210227.220488
149811.102032
160930.159860
171977.217688
182976.275516
194431.333344
205646.391173
217101.449001
228508.506829
239995.564657
179971.446201
191490.504029
202689.561857
213896.619685
225223.677513
236742.735342
248149.793170
259732.850998
271203.908826
212099.790370
223162.848198
234585.906026
245968.963854
257408.021682
268807.079510
280470.137339
291885.195167
303612.252995
245156.134539
256523.192367
267946.250195
279209.308023
290704.365851
302399.423679
313958.481507
325613.539336
337412.597164
279636.478708
291059.536536
302506.594364
313817.652192
325512.710020
337071.767848
348950.825676
360565.883505
372300.941333
315300.822877
326891.880705
338402.938533
349945.996361
361465.054189
373160.112017
384935.169845
396710.227673
408461.285502
352333.167046
363908.224874
375499.282702
387266.340530
399017.398358
410680.456186
422367.514014
434206.571842
446165.629671
390733.511215
402156.569043
413955.626871
425690.684699
437385.742527
449176.800355
460959.858183
472878.916011
484821.973839
430245.855383
441884.913212
453603.971040
465331.028868
477114.086696
489041.144524
500904.202352
512863.260180
524982.318008
471030.199552
482621.257380
494388.315209
506355.373037
517930.430865
529961.488693
542008.546521
554031.604349
566142.662177
512878.543721
524605.601549
536548.659378
548411.717206
560434.775034
572353.832862
584504.890690
596295.948518
608487.006346
556302.887890
568181.945718
579749.003546
591972.061375
603883.119203
615786.177031
627889.234859
639944.292687
652263.350515
600727.232059
612470.289887
624445.347715
636380.405544
648307.463372
660642.521200
672617.579028
684776.636856
697007.694684
646135.576228
658102.634056
670117.691884
682132.749712
694315.807541
706218.865369
718305.923197
730672.981025
742888.038853
692959.920397
704982.978225
716926.036053
728885.093881
741012.151709
753155.209538
765450.267366
777593.325194
789992.383022
740896.264566
752719.322394
764782.380222
776981.438050
789236.495878
801379.553707
813498.611535
825865.669363
838240.727191
789616.608735
801695.666563
813878.724391
825941.782219
838108.840047
850395.897875
862602.955704
875010.013532
887337.071360
839704.952904
851712.010732
863823.068560
875966.126388
888245.184216
900660.242044
913107.299873
925370.357701
937753.415529
890697.297073
902832.354901
914983.412729
927182.470557
939541.528385
951708.586213
964227.644041
976538.701870
988985.759698
942873.641242
955040.699070
967191.756898
979326.814726
991805.872554
1003980.930382
1016491.988210
1028875.046038
1041434.103867
995849.985411
1007865.043239
1020304.101067
1032575.158895
1044886.216723
1057253.274551
1069580.332379
1082163.390207
1094746.448036
1050034.329580
1062289.387408
1074432.445236
1086655.503064
1099078.560892
1111413.618720
1123764.676548
1136499.734376
1149002.792204
1105050.673748
1117137.731577
1129488.789405
1141783.847233
1154030.905061
1166517.962889
1178989.020717
1191588.078545
1204075.136373
1160699.017917
1172986.075746
1185465.133574
1197600.191402
1210191.249230
1222526.307058
1235077.364886
1247588.422714
1260107.480542
1217403.362086
1229794.419914
1242121.477743
1254608.535571
1266975.593399
1279454.651227
1291997.709055
1304428.766883
1317059.824711
1275083.706255
1287354.764083
1299801.821911
1312104.879740
1324623.937568
1337246.995396
1349702.053224
1362213.111052
1374980.168880
1333588.050424
1345907.108252
1358130.166080
1370713.223909
1383288.281737
1395551.339565
1408286.397393
1420677.455221
1433412.513049
1392668.394593
1405027.452421
1417498.510249
1429873.568077
1442416.625906
1454983.683734
1467422.741562
1480133.799390
1492588.857218
1452620.738762
1464939.796590
1477290.854418
1489849.912246
1502336.970075
1514856.027903
1527359.085731
1540102.143559
1552797.201387
1513389.082931
1525636.140759
1538211.198587
1550530.256415
1563145.314243
1575616.372072
1587991.429900
1600750.487728
1613525.545556
1574661.427100
1587068.484928
1599379.542756
1611922.600584
1624273.658412
1637008.716240
1649559.774069
1662190.831897
1674933.889725
1636557.771269
1648940.829097
1661443.886925
1674026.944753
1686538.002581
1699113.060409
1711656.118238
1724295.176066
1736958.233894
1699270.115438
1711741.173266
1723964.231094
1736763.288922
1749098.346750
1761745.404578
1774392.462406
1787039.520235
1799686.578063
1762510.459607
1774949.517435
1787500.575263
1799819.633091
1812426.690919
1824897.748747
1837552.806575
1850183.864403
1862798.922232
1826222.803776
1838501.861604
1851172.919432
1863691.977260
1876251.035088
1888898.092916
1901305.150744
1913928.208572
1926735.266401
1890455.147945
1903102.205773
1915493.263601
1928140.321429
1940379.379257
1953114.437085
1965737.494913
1978312.552741
1990927.610569
1955287.492113
1967758.549942
1980269.607770
1992940.665598
2005179.723426
2017938.781254
2030425.839082
2042992.896910
2055735.954738
2020679.836282
2032966.894111
2045581.951939
2058013.009767
2070540.067595
2082939.125423
2095722.183251
2108297.241079
2120952.298907
2086240.180451
2098799.238279
2111134.296108
2123621.353936
2136116.411764
2148963.469592
2161458.527420
2173977.585248
2186608.643076
2152352.524620
2164607.582448
2177366.640276
2189741.698105
2202316.755933
2214755.813761
2227410.871589
2239977.929417
2252648.987245
2218888.868789
2231215.926617
2243758.984445
2256182.042274
2268741.100102
2281372.157930
2293899.215758
2306378.273586
2318977.331414
2285577.212958
2298016.270786
2310375.328614
2323006.386442
2335493.444271
2348020.502099
2360539.559927
2373162.617755
2385801.675583
2352585.557127
2365160.614955
2377567.672783
2390062.730611
2402685.788440
2415052.846268
2427595.904096
2440098.961924
2452570.019752
2420017.901296
2432624.959124
2444880.016952
2457375.074780
2469934.132608
2482437.190437
2494956.248265
2507515.306093
2520018.363921
2487706.245465
2500209.303293
2512600.361121
2524991.418949
2537590.476777
2549989.534605
2562460.592434
2575019.650262
2587490.708090
2555538.589634
2567969.647462
2580312.705290
2592743.763118
2605310.820946
2617717.878774
2630348.936603
2642611.994431
2655291.052259
2623482.933803
2635953.991631
2648425.049459
2660840.107287
2673151.165115
2685734.222943
2698109.280771
2710852.338600
2723147.396428
2691771.277972
2704082.335800
2716473.393628
2729000.451456
2741407.509284
2753702.567112
2766221.624940
2778756.682769
2791155.740597
2760339.622141
2772498.679969
2784961.737797
2797328.795625
2809719.853453
2822046.911281
2834573.969109
2846973.026937
2859260.084766
2828587.966310
2840979.024138
2853186.081966
2865809.139794
2878008.197622
2890311.255450
2902926.313278
2915245.371106
2927788.428934
2897276.310478
2909467.368307
2921914.426135
2934241.483963
2946424.541791
2958863.599619
2971166.657447
2983629.715275
2995932.773103
2965716.654647
2977987.712476
2990322.770304
3002705.828132
3014952.885960
3027271.943788
3039703.001616
3052046.059444
3064373.117272
3034332.998816
3046580.056644
3059067.114473
3071250.172301
3083649.230129
3096040.287957
3108199.345785
3120646.403613
3132901.461441
3103013.342985
3115316.400813
3127539.458642
3139834.516470
3152033.574298
3164376.632126
3176559.689954
3188758.747782
3201325.805610
3171565.687154
3183924.744982
3196075.802810
3208226.860639
3220457.918467
3232848.976295
3245080.034123
3257391.091951
3269710.149779
3240142.031323
3252437.089151
3264644.146979
3276883.204807
3289050.262636
3301305.320464
3313584.378292
3325839.436120
3338046.493948
3308750.375492
3320693.433320
3333060.491148
3345179.548976
3357546.606805
3369489.664633
3381824.722461
3394071.780289
3406430.838117
3377126.719661
3389309.777489
3401500.835317
3413723.893145
3425738.950973
3437954.008802
3450105.066630
3462280.124458
3474607.182286
3445351.063830
3457606.121658
3469629.179486
3481812.237314
3493915.295142
3506018.352971
3518377.410799
3530432.468627
3542583.526455
3513655.407999
3525814.465827
3537845.523655
3549940.581483
3562131.639311
3574266.697139
3586281.754968
3598416.812796
3610567.870624
3581751.752168
3593710.809996
3605725.867824
3617868.925652
3629915.983480
3642147.041308
3654226.099136
3666201.156965
3678168.214793
3649448.096337
3661519.154165
3673646.211993
3685701.269821
3697700.327649
3709771.385477
3721794.443305
3733929.501134
3745920.558962
3717144.440506
3729215.498334
3741318.556162
3753261.613990
3765244.671818
3777347.729646
3789274.787474
3801385.845302
3813248.903131
3784592.784675
3796559.842503
3808694.900331
3820533.958159
3832541.015987
3844620.073815
3856675.131643
3868586.189471
3880577.247299
3851857.128844
3863800.186672
3875687.244500
3887774.302328
3899701.360156
3911708.417984
3923523.475812
3935530.533640
3947545.591468
3918849.473012
3930784.530841
3942863.588669
3954622.646497
3966685.704325
3978620.762153
3990331.819981
4002242.877809
4014305.935637
3985633.817181
3997408.875009
4009463.932838
4021398.990666
4033278.048494
4045125.106322
4057068.164150
4068771.221978
4080818.279806
4052074.161350
4063889.219178
4075992.277007
4087863.334835
4099454.392663
4111373.450491
4123140.508319
4134947.566147
4146898.623975
4118298.505519
4130145.563347
4142096.621175
4153759.679004
4165606.736832
4177357.794660
4189100.852488
4201027.910316
4212874.968144
4184250.849688
4195929.907516
4207912.965344
4219592.023172
4231335.081001
4243086.138829
4254949.196657
4266724.254485
4278243.312313
4249667.193857
4261610.251685
4273185.309513
4284976.367341
4296671.425170
4308454.482998
4320117.540826
4331996.598654
4343643.656482
4314883.538026
4326530.595854
4338401.653682
4350088.711510
4361815.769338
4373566.827167
4385133.884995
4396988.942823
4408588.000651
4379971.882195
4391762.940023
4403313.997851
4414969.055679
4426680.113507
4438255.171336
4449894.229164
4461421.286992
4473092.344820
