# vtk DataFile Version 2.0
Generated volume Mesh
ASCII
DATASET UNSTRUCTURED_GRID
POINTS 891 float
0.005000 0.100000 0.000000
0.005000 0.000000 0.000000
0.005000 0.001250 0.000000
0.005000 0.002500 0.000000
0.005000 0.003750 0.000000
0.005000 0.005000 0.000000
0.005000 0.006250 0.000000
0.005000 0.007500 0.000000
0.005000 0.008750 0.000000
0.005000 0.010000 0.000000
0.005000 0.011250 0.000000
0.005000 0.012500 0.000000
0.005000 0.013750 0.000000
0.005000 0.015000 0.000000
0.005000 0.016250 0.000000
0.005000 0.017500 0.000000
0.005000 0.018750 0.000000
0.005000 0.020000 0.000000
0.005000 0.021250 0.000000
0.005000 0.022500 0.000000
0.005000 0.023750 0.000000
0.005000 0.025000 0.000000
0.005000 0.026250 0.000000
0.005000 0.027500 0.000000
0.005000 0.028750 0.000000
0.005000 0.030000 0.000000
0.005000 0.031250 0.000000
0.005000 0.032500 0.000000
0.005000 0.033750 0.000000
0.005000 0.035000 0.000000
0.005000 0.036250 0.000000
0.005000 0.037500 0.000000
0.005000 0.038750 0.000000
0.005000 0.040000 0.000000
0.005000 0.041250 0.000000
0.005000 0.042500 0.000000
0.005000 0.043750 0.000000
0.005000 0.045000 0.000000
0.005000 0.046250 0.000000
0.005000 0.047500 0.000000
0.005000 0.048750 0.000000
0.005000 0.050000 0.000000
0.005000 0.051250 0.000000
0.005000 0.052500 0.000000
0.005000 0.053750 0.000000
0.005000 0.055000 0.000000
0.005000 0.056250 0.000000
0.005000 0.057500 0.000000
0.005000 0.058750 0.000000
0.005000 0.060000 0.000000
0.005000 0.061250 0.000000
0.005000 0.062500 0.000000
0.005000 0.063750 0.000000
0.005000 0.065000 0.000000
0.005000 0.066250 0.000000
0.005000 0.067500 0.000000
0.005000 0.068750 0.000000
0.005000 0.070000 0.000000
0.005000 0.071250 0.000000
0.005000 0.072500 0.000000
0.005000 0.073750 0.000000
0.005000 0.075000 0.000000
0.005000 0.076250 0.000000
0.005000 0.077500 0.000000
0.005000 0.078750 0.000000
0.005000 0.080000 0.000000
0.005000 0.081250 0.000000
0.005000 0.082500 0.000000
0.005000 0.083750 0.000000
0.005000 0.085000 0.000000
0.005000 0.086250 0.000000
0.005000 0.087500 0.000000
0.005000 0.088750 0.000000
0.005000 0.090000 0.000000
0.005000 0.091250 0.000000
0.005000 0.092500 0.000000
0.005000 0.093750 0.000000
0.005000 0.095000 0.000000
0.005000 0.096250 0.000000
0.005000 0.097500 0.000000
0.005000 0.098750 0.000000
0.000000 0.000000 0.000000
0.000000 0.100000 0.000000
0.000000 0.098750 0.000000
0.000000 0.097500 0.000000
0.000000 0.096250 0.000000
0.000000 0.095000 0.000000
0.000000 0.093750 0.000000
0.000000 0.092500 0.000000
0.000000 0.091250 0.000000
0.000000 0.090000 0.000000
0.000000 0.088750 0.000000
0.000000 0.087500 0.000000
0.000000 0.086250 0.000000
0.000000 0.085000 0.000000
0.000000 0.083750 0.000000
0.000000 0.082500 0.000000
0.000000 0.081250 0.000000
0.000000 0.080000 0.000000
0.000000 0.078750 0.000000
0.000000 0.077500 0.000000
0.000000 0.076250 0.000000
0.000000 0.075000 0.000000
0.000000 0.073750 0.000000
0.000000 0.072500 0.000000
0.000000 0.071250 0.000000
0.000000 0.070000 0.000000
0.000000 0.068750 0.000000
0.000000 0.067500 0.000000
0.000000 0.066250 0.000000
0.000000 0.065000 0.000000
0.000000 0.063750 0.000000
0.000000 0.062500 0.000000
0.000000 0.061250 0.000000
0.000000 0.060000 0.000000
0.000000 0.058750 0.000000
0.000000 0.057500 0.000000
0.000000 0.056250 0.000000
0.000000 0.055000 0.000000
0.000000 0.053750 0.000000
0.000000 0.052500 0.000000
0.000000 0.051250 0.000000
0.000000 0.050000 0.000000
0.000000 0.048750 0.000000
0.000000 0.047500 0.000000
0.000000 0.046250 0.000000
0.000000 0.045000 0.000000
0.000000 0.043750 0.000000
0.000000 0.042500 0.000000
0.000000 0.041250 0.000000
0.000000 0.040000 0.000000
0.000000 0.038750 0.000000
0.000000 0.037500 0.000000
0.000000 0.036250 0.000000
0.000000 0.035000 0.000000
0.000000 0.033750 0.000000
0.000000 0.032500 0.000000
0.000000 0.031250 0.000000
0.000000 0.030000 0.000000
0.000000 0.028750 0.000000
0.000000 0.027500 0.000000
0.000000 0.026250 0.000000
0.000000 0.025000 0.000000
0.000000 0.023750 0.000000
0.000000 0.022500 0.000000
0.000000 0.021250 0.000000
0.000000 0.020000 0.000000
0.000000 0.018750 0.000000
0.000000 0.017500 0.000000
0.000000 0.016250 0.000000
0.000000 0.015000 0.000000
0.000000 0.013750 0.000000
0.000000 0.012500 0.000000
0.000000 0.011250 0.000000
0.000000 0.010000 0.000000
0.000000 0.008750 0.000000
0.000000 0.007500 0.000000
0.000000 0.006250 0.000000
0.000000 0.005000 0.000000
0.000000 0.003750 0.000000
0.000000 0.002500 0.000000
0.000000 0.001250 0.000000
0.000500 0.000000 0.000000
0.001000 0.000000 0.000000
0.001500 0.000000 0.000000
0.002000 0.000000 0.000000
0.002500 0.000000 0.000000
0.003000 0.000000 0.000000
0.003500 0.000000 0.000000
0.004000 0.000000 0.000000
0.004500 0.000000 0.000000
0.004500 0.100000 0.000000
0.004000 0.100000 0.000000
0.003500 0.100000 0.000000
0.003000 0.100000 0.000000
0.002500 0.100000 0.000000
0.002000 0.100000 0.000000
0.001500 0.100000 0.000000
0.001000 0.100000 0.000000
0.000500 0.100000 0.000000
0.000500 0.098750 0.000000
0.001000 0.098750 0.000000
0.001500 0.098750 0.000000
0.002000 0.098750 0.000000
0.002500 0.098750 0.000000
0.003000 0.098750 0.000000
0.003500 0.098750 0.000000
0.004000 0.098750 0.000000
0.004500 0.098750 0.000000
0.000500 0.097500 0.000000
0.001000 0.097500 0.000000
0.001500 0.097500 0.000000
0.002000 0.097500 0.000000
0.002500 0.097500 0.000000
0.003000 0.097500 0.000000
0.003500 0.097500 0.000000
0.004000 0.097500 0.000000
0.004500 0.097500 0.000000
0.000500 0.096250 0.000000
0.001000 0.096250 0.000000
0.001500 0.096250 0.000000
0.002000 0.096250 0.000000
0.002500 0.096250 0.000000
0.003000 0.096250 0.000000
0.003500 0.096250 0.000000
0.004000 0.096250 0.000000
0.004500 0.096250 0.000000
0.000500 0.095000 0.000000
0.001000 0.095000 0.000000
0.001500 0.095000 0.000000
0.002000 0.095000 0.000000
0.002500 0.095000 0.000000
0.003000 0.095000 0.000000
0.003500 0.095000 0.000000
0.004000 0.095000 0.000000
0.004500 0.095000 0.000000
0.000500 0.093750 0.000000
0.001000 0.093750 0.000000
0.001500 0.093750 0.000000
0.002000 0.093750 0.000000
0.002500 0.093750 0.000000
0.003000 0.093750 0.000000
0.003500 0.093750 0.000000
0.004000 0.093750 0.000000
0.004500 0.093750 0.000000
0.000500 0.092500 0.000000
0.001000 0.092500 0.000000
0.001500 0.092500 0.000000
0.002000 0.092500 0.000000
0.002500 0.092500 0.000000
0.003000 0.092500 0.000000
0.003500 0.092500 0.000000
0.004000 0.092500 0.000000
0.004500 0.092500 0.000000
0.000500 0.091250 0.000000
0.001000 0.091250 0.000000
0.001500 0.091250 0.000000
0.002000 0.091250 0.000000
0.002500 0.091250 0.000000
0.003000 0.091250 0.000000
0.003500 0.091250 0.000000
0.004000 0.091250 0.000000
0.004500 0.091250 0.000000
0.000500 0.090000 0.000000
0.001000 0.090000 0.000000
0.001500 0.090000 0.000000
0.002000 0.090000 0.000000
0.002500 0.090000 0.000000
0.003000 0.090000 0.000000
0.003500 0.090000 0.000000
0.004000 0.090000 0.000000
0.004500 0.090000 0.000000
0.000500 0.088750 0.000000
0.001000 0.088750 0.000000
0.001500 0.088750 0.000000
0.002000 0.088750 0.000000
0.002500 0.088750 0.000000
0.003000 0.088750 0.000000
0.003500 0.088750 0.000000
0.004000 0.088750 0.000000
0.004500 0.088750 0.000000
0.000500 0.087500 0.000000
0.001000 0.087500 0.000000
0.001500 0.087500 0.000000
0.002000 0.087500 0.000000
0.002500 0.087500 0.000000
0.003000 0.087500 0.000000
0.003500 0.087500 0.000000
0.004000 0.087500 0.000000
0.004500 0.087500 0.000000
0.000500 0.086250 0.000000
0.001000 0.086250 0.000000
0.001500 0.086250 0.000000
0.002000 0.086250 0.000000
0.002500 0.086250 0.000000
0.003000 0.086250 0.000000
0.003500 0.086250 0.000000
0.004000 0.086250 0.000000
0.004500 0.086250 0.000000
0.000500 0.085000 0.000000
0.001000 0.085000 0.000000
0.001500 0.085000 0.000000
0.002000 0.085000 0.000000
0.002500 0.085000 0.000000
0.003000 0.085000 0.000000
0.003500 0.085000 0.000000
0.004000 0.085000 0.000000
0.004500 0.085000 0.000000
0.000500 0.083750 0.000000
0.001000 0.083750 0.000000
0.001500 0.083750 0.000000
0.002000 0.083750 0.000000
0.002500 0.083750 0.000000
0.003000 0.083750 0.000000
0.003500 0.083750 0.000000
0.004000 0.083750 0.000000
0.004500 0.083750 0.000000
0.000500 0.082500 0.000000
0.001000 0.082500 0.000000
0.001500 0.082500 0.000000
0.002000 0.082500 0.000000
0.002500 0.082500 0.000000
0.003000 0.082500 0.000000
0.003500 0.082500 0.000000
0.004000 0.082500 0.000000
0.004500 0.082500 0.000000
0.000500 0.081250 0.000000
0.001000 0.081250 0.000000
0.001500 0.081250 0.000000
0.002000 0.081250 0.000000
0.002500 0.081250 0.000000
0.003000 0.081250 0.000000
0.003500 0.081250 0.000000
0.004000 0.081250 0.000000
0.004500 0.081250 0.000000
0.000500 0.080000 0.000000
0.001000 0.080000 0.000000
0.001500 0.080000 0.000000
0.002000 0.080000 0.000000
0.002500 0.080000 0.000000
0.003000 0.080000 0.000000
0.003500 0.080000 0.000000
0.004000 0.080000 0.000000
0.004500 0.080000 0.000000
0.000500 0.078750 0.000000
0.001000 0.078750 0.000000
0.001500 0.078750 0.000000
0.002000 0.078750 0.000000
0.002500 0.078750 0.000000
0.003000 0.078750 0.000000
0.003500 0.078750 0.000000
0.004000 0.078750 0.000000
0.004500 0.078750 0.000000
0.000500 0.077500 0.000000
0.001000 0.077500 0.000000
0.001500 0.077500 0.000000
0.002000 0.077500 0.000000
0.002500 0.077500 0.000000
0.003000 0.077500 0.000000
0.003500 0.077500 0.000000
0.004000 0.077500 0.000000
0.004500 0.077500 0.000000
0.000500 0.076250 0.000000
0.001000 0.076250 0.000000
0.001500 0.076250 0.000000
0.002000 0.076250 0.000000
0.002500 0.076250 0.000000
0.003000 0.076250 0.000000
0.003500 0.076250 0.000000
0.004000 0.076250 0.000000
0.004500 0.076250 0.000000
0.000500 0.075000 0.000000
0.001000 0.075000 0.000000
0.001500 0.075000 0.000000
0.002000 0.075000 0.000000
0.002500 0.075000 0.000000
0.003000 0.075000 0.000000
0.003500 0.075000 0.000000
0.004000 0.075000 0.000000
0.004500 0.075000 0.000000
0.000500 0.073750 0.000000
0.001000 0.073750 0.000000
0.001500 0.073750 0.000000
0.002000 0.073750 0.000000
0.002500 0.073750 0.000000
0.003000 0.073750 0.000000
0.003500 0.073750 0.000000
0.004000 0.073750 0.000000
0.004500 0.073750 0.000000
0.000500 0.072500 0.000000
0.001000 0.072500 0.000000
0.001500 0.072500 0.000000
0.002000 0.072500 0.000000
0.002500 0.072500 0.000000
0.003000 0.072500 0.000000
0.003500 0.072500 0.000000
0.004000 0.072500 0.000000
0.004500 0.072500 0.000000
0.000500 0.071250 0.000000
0.001000 0.071250 0.000000
0.001500 0.071250 0.000000
0.002000 0.071250 0.000000
0.002500 0.071250 0.000000
0.003000 0.071250 0.000000
0.003500 0.071250 0.000000
0.004000 0.071250 0.000000
0.004500 0.071250 0.000000
0.000500 0.070000 0.000000
0.001000 0.070000 0.000000
0.001500 0.070000 0.000000
0.002000 0.070000 0.000000
0.002500 0.070000 0.000000
0.003000 0.070000 0.000000
0.003500 0.070000 0.000000
0.004000 0.070000 0.000000
0.004500 0.070000 0.000000
0.000500 0.068750 0.000000
0.001000 0.068750 0.000000
0.001500 0.068750 0.000000
0.002000 0.068750 0.000000
0.002500 0.068750 0.000000
0.003000 0.068750 0.000000
0.003500 0.068750 0.000000
0.004000 0.068750 0.000000
0.004500 0.068750 0.000000
0.000500 0.067500 0.000000
0.001000 0.067500 0.000000
0.001500 0.067500 0.000000
0.002000 0.067500 0.000000
0.002500 0.067500 0.000000
0.003000 0.067500 0.000000
0.003500 0.067500 0.000000
0.004000 0.067500 0.000000
0.004500 0.067500 0.000000
0.000500 0.066250 0.000000
0.001000 0.066250 0.000000
0.001500 0.066250 0.000000
0.002000 0.066250 0.000000
0.002500 0.066250 0.000000
0.003000 0.066250 0.000000
0.003500 0.066250 0.000000
0.004000 0.066250 0.000000
0.004500 0.066250 0.000000
0.000500 0.065000 0.000000
0.001000 0.065000 0.000000
0.001500 0.065000 0.000000
0.002000 0.065000 0.000000
0.002500 0.065000 0.000000
0.003000 0.065000 0.000000
0.003500 0.065000 0.000000
0.004000 0.065000 0.000000
0.004500 0.065000 0.000000
0.000500 0.063750 0.000000
0.001000 0.063750 0.000000
0.001500 0.063750 0.000000
0.002000 0.063750 0.000000
0.002500 0.063750 0.000000
0.003000 0.063750 0.000000
0.003500 0.063750 0.000000
0.004000 0.063750 0.000000
0.004500 0.063750 0.000000
0.000500 0.062500 0.000000
0.001000 0.062500 0.000000
0.001500 0.062500 0.000000
0.002000 0.062500 0.000000
0.002500 0.062500 0.000000
0.003000 0.062500 0.000000
0.003500 0.062500 0.000000
0.004000 0.062500 0.000000
0.004500 0.062500 0.000000
0.000500 0.061250 0.000000
0.001000 0.061250 0.000000
0.001500 0.061250 0.000000
0.002000 0.061250 0.000000
0.002500 0.061250 0.000000
0.003000 0.061250 0.000000
0.003500 0.061250 0.000000
0.004000 0.061250 0.000000
0.004500 0.061250 0.000000
0.000500 0.060000 0.000000
0.001000 0.060000 0.000000
0.001500 0.060000 0.000000
0.002000 0.060000 0.000000
0.002500 0.060000 0.000000
0.003000 0.060000 0.000000
0.003500 0.060000 0.000000
0.004000 0.060000 0.000000
0.004500 0.060000 0.000000
0.000500 0.058750 0.000000
0.001000 0.058750 0.000000
0.001500 0.058750 0.000000
0.002000 0.058750 0.000000
0.002500 0.058750 0.000000
0.003000 0.058750 0.000000
0.003500 0.058750 0.000000
0.004000 0.058750 0.000000
0.004500 0.058750 0.000000
0.000500 0.057500 0.000000
0.001000 0.057500 0.000000
0.001500 0.057500 0.000000
0.002000 0.057500 0.000000
0.002500 0.057500 0.000000
0.003000 0.057500 0.000000
0.003500 0.057500 0.000000
0.004000 0.057500 0.000000
0.004500 0.057500 0.000000
0.000500 0.056250 0.000000
0.001000 0.056250 0.000000
0.001500 0.056250 0.000000
0.002000 0.056250 0.000000
0.002500 0.056250 0.000000
0.003000 0.056250 0.000000
0.003500 0.056250 0.000000
0.004000 0.056250 0.000000
0.004500 0.056250 0.000000
0.000500 0.055000 0.000000
0.001000 0.055000 0.000000
0.001500 0.055000 0.000000
0.002000 0.055000 0.000000
0.002500 0.055000 0.000000
0.003000 0.055000 0.000000
0.003500 0.055000 0.000000
0.004000 0.055000 0.000000
0.004500 0.055000 0.000000
0.000500 0.053750 0.000000
0.001000 0.053750 0.000000
0.001500 0.053750 0.000000
0.002000 0.053750 0.000000
0.002500 0.053750 0.000000
0.003000 0.053750 0.000000
0.003500 0.053750 0.000000
0.004000 0.053750 0.000000
0.004500 0.053750 0.000000
0.000500 0.052500 0.000000
0.001000 0.052500 0.000000
0.001500 0.052500 0.000000
0.002000 0.052500 0.000000
0.002500 0.052500 0.000000
0.003000 0.052500 0.000000
0.003500 0.052500 0.000000
0.004000 0.052500 0.000000
0.004500 0.052500 0.000000
0.000500 0.051250 0.000000
0.001000 0.051250 0.000000
0.001500 0.051250 0.000000
0.002000 0.051250 0.000000
0.002500 0.051250 0.000000
0.003000 0.051250 0.000000
0.003500 0.051250 0.000000
0.004000 0.051250 0.000000
0.004500 0.051250 0.000000
0.000500 0.050000 0.000000
0.001000 0.050000 0.000000
0.001500 0.050000 0.000000
0.002000 0.050000 0.000000
0.002500 0.050000 0.000000
0.003000 0.050000 0.000000
0.003500 0.050000 0.000000
0.004000 0.050000 0.000000
0.004500 0.050000 0.000000
0.000500 0.048750 0.000000
0.001000 0.048750 0.000000
0.001500 0.048750 0.000000
0.002000 0.048750 0.000000
0.002500 0.048750 0.000000
0.003000 0.048750 0.000000
0.003500 0.048750 0.000000
0.004000 0.048750 0.000000
0.004500 0.048750 0.000000
0.000500 0.047500 0.000000
0.001000 0.047500 0.000000
0.001500 0.047500 0.000000
0.002000 0.047500 0.000000
0.002500 0.047500 0.000000
0.003000 0.047500 0.000000
0.003500 0.047500 0.000000
0.004000 0.047500 0.000000
0.004500 0.047500 0.000000
0.000500 0.046250 0.000000
0.001000 0.046250 0.000000
0.001500 0.046250 0.000000
0.002000 0.046250 0.000000
0.002500 0.046250 0.000000
0.003000 0.046250 0.000000
0.003500 0.046250 0.000000
0.004000 0.046250 0.000000
0.004500 0.046250 0.000000
0.000500 0.045000 0.000000
0.001000 0.045000 0.000000
0.001500 0.045000 0.000000
0.002000 0.045000 0.000000
0.002500 0.045000 0.000000
0.003000 0.045000 0.000000
0.003500 0.045000 0.000000
0.004000 0.045000 0.000000
0.004500 0.045000 0.000000
0.000500 0.043750 0.000000
0.001000 0.043750 0.000000
0.001500 0.043750 0.000000
0.002000 0.043750 0.000000
0.002500 0.043750 0.000000
0.003000 0.043750 0.000000
0.003500 0.043750 0.000000
0.004000 0.043750 0.000000
0.004500 0.043750 0.000000
0.000500 0.042500 0.000000
0.001000 0.042500 0.000000
0.001500 0.042500 0.000000
0.002000 0.042500 0.000000
0.002500 0.042500 0.000000
0.003000 0.042500 0.000000
0.003500 0.042500 0.000000
0.004000 0.042500 0.000000
0.004500 0.042500 0.000000
0.000500 0.041250 0.000000
0.001000 0.041250 0.000000
0.001500 0.041250 0.000000
0.002000 0.041250 0.000000
0.002500 0.041250 0.000000
0.003000 0.041250 0.000000
0.003500 0.041250 0.000000
0.004000 0.041250 0.000000
0.004500 0.041250 0.000000
0.000500 0.040000 0.000000
0.001000 0.040000 0.000000
0.001500 0.040000 0.000000
0.002000 0.040000 0.000000
0.002500 0.040000 0.000000
0.003000 0.040000 0.000000
0.003500 0.040000 0.000000
0.004000 0.040000 0.000000
0.004500 0.040000 0.000000
0.000500 0.038750 0.000000
0.001000 0.038750 0.000000
0.001500 0.038750 0.000000
0.002000 0.038750 0.000000
0.002500 0.038750 0.000000
0.003000 0.038750 0.000000
0.003500 0.038750 0.000000
0.004000 0.038750 0.000000
0.004500 0.038750 0.000000
0.000500 0.037500 0.000000
0.001000 0.037500 0.000000
0.001500 0.037500 0.000000
0.002000 0.037500 0.000000
0.002500 0.037500 0.000000
0.003000 0.037500 0.000000
0.003500 0.037500 0.000000
0.004000 0.037500 0.000000
0.004500 0.037500 0.000000
0.000500 0.036250 0.000000
0.001000 0.036250 0.000000
0.001500 0.036250 0.000000
0.002000 0.036250 0.000000
0.002500 0.036250 0.000000
0.003000 0.036250 0.000000
0.003500 0.036250 0.000000
0.004000 0.036250 0.000000
0.004500 0.036250 0.000000
0.000500 0.035000 0.000000
0.001000 0.035000 0.000000
0.001500 0.035000 0.000000
0.002000 0.035000 0.000000
0.002500 0.035000 0.000000
0.003000 0.035000 0.000000
0.003500 0.035000 0.000000
0.004000 0.035000 0.000000
0.004500 0.035000 0.000000
0.000500 0.033750 0.000000
0.001000 0.033750 0.000000
0.001500 0.033750 0.000000
0.002000 0.033750 0.000000
0.002500 0.033750 0.000000
0.003000 0.033750 0.000000
0.003500 0.033750 0.000000
0.004000 0.033750 0.000000
0.004500 0.033750 0.000000
0.000500 0.032500 0.000000
0.001000 0.032500 0.000000
0.001500 0.032500 0.000000
0.002000 0.032500 0.000000
0.002500 0.032500 0.000000
0.003000 0.032500 0.000000
0.003500 0.032500 0.000000
0.004000 0.032500 0.000000
0.004500 0.032500 0.000000
0.000500 0.031250 0.000000
0.001000 0.031250 0.000000
0.001500 0.031250 0.000000
0.002000 0.031250 0.000000
0.002500 0.031250 0.000000
0.003000 0.031250 0.000000
0.003500 0.031250 0.000000
0.004000 0.031250 0.000000
0.004500 0.031250 0.000000
0.000500 0.030000 0.000000
0.001000 0.030000 0.000000
0.001500 0.030000 0.000000
0.002000 0.030000 0.000000
0.002500 0.030000 0.000000
0.003000 0.030000 0.000000
0.003500 0.030000 0.000000
0.004000 0.030000 0.000000
0.004500 0.030000 0.000000
0.000500 0.028750 0.000000
0.001000 0.028750 0.000000
0.001500 0.028750 0.000000
0.002000 0.028750 0.000000
0.002500 0.028750 0.000000
0.003000 0.028750 0.000000
0.003500 0.028750 0.000000
0.004000 0.028750 0.000000
0.004500 0.028750 0.000000
0.000500 0.027500 0.000000
0.001000 0.027500 0.000000
0.001500 0.027500 0.000000
0.002000 0.027500 0.000000
0.002500 0.027500 0.000000
0.003000 0.027500 0.000000
0.003500 0.027500 0.000000
0.004000 0.027500 0.000000
0.004500 0.027500 0.000000
0.000500 0.026250 0.000000
0.001000 0.026250 0.000000
0.001500 0.026250 0.000000
0.002000 0.026250 0.000000
0.002500 0.026250 0.000000
0.003000 0.026250 0.000000
0.003500 0.026250 0.000000
0.004000 0.026250 0.000000
0.004500 0.026250 0.000000
0.000500 0.025000 0.000000
0.001000 0.025000 0.000000
0.001500 0.025000 0.000000
0.002000 0.025000 0.000000
0.002500 0.025000 0.000000
0.003000 0.025000 0.000000
0.003500 0.025000 0.000000
0.004000 0.025000 0.000000
0.004500 0.025000 0.000000
0.000500 0.023750 0.000000
0.001000 0.023750 0.000000
0.001500 0.023750 0.000000
0.002000 0.023750 0.000000
0.002500 0.023750 0.000000
0.003000 0.023750 0.000000
0.003500 0.023750 0.000000
0.004000 0.023750 0.000000
0.004500 0.023750 0.000000
0.000500 0.022500 0.000000
0.001000 0.022500 0.000000
0.001500 0.022500 0.000000
0.002000 0.022500 0.000000
0.002500 0.022500 0.000000
0.003000 0.022500 0.000000
0.003500 0.022500 0.000000
0.004000 0.022500 0.000000
0.004500 0.022500 0.000000
0.000500 0.021250 0.000000
0.001000 0.021250 0.000000
0.001500 0.021250 0.000000
0.002000 0.021250 0.000000
0.002500 0.021250 0.000000
0.003000 0.021250 0.000000
0.003500 0.021250 0.000000
0.004000 0.021250 0.000000
0.004500 0.021250 0.000000
0.000500 0.020000 0.000000
0.001000 0.020000 0.000000
0.001500 0.020000 0.000000
0.002000 0.020000 0.000000
0.002500 0.020000 0.000000
0.003000 0.020000 0.000000
0.003500 0.020000 0.000000
0.004000 0.020000 0.000000
0.004500 0.020000 0.000000
0.000500 0.018750 0.000000
0.001000 0.018750 0.000000
0.001500 0.018750 0.000000
0.002000 0.018750 0.000000
0.002500 0.018750 0.000000
0.003000 0.018750 0.000000
0.003500 0.018750 0.000000
0.004000 0.018750 0.000000
0.004500 0.018750 0.000000
0.000500 0.017500 0.000000
0.001000 0.017500 0.000000
0.001500 0.017500 0.000000
0.002000 0.017500 0.000000
0.002500 0.017500 0.000000
0.003000 0.017500 0.000000
0.003500 0.017500 0.000000
0.004000 0.017500 0.000000
0.004500 0.017500 0.000000
0.000500 0.016250 0.000000
0.001000 0.016250 0.000000
0.001500 0.016250 0.000000
0.002000 0.016250 0.000000
0.002500 0.016250 0.000000
0.003000 0.016250 0.000000
0.003500 0.016250 0.000000
0.004000 0.016250 0.000000
0.004500 0.016250 0.000000
0.000500 0.015000 0.000000
0.001000 0.015000 0.000000
0.001500 0.015000 0.000000
0.002000 0.015000 0.000000
0.002500 0.015000 0.000000
0.003000 0.015000 0.000000
0.003500 0.015000 0.000000
0.004000 0.015000 0.000000
0.004500 0.015000 0.000000
0.000500 0.013750 0.000000
0.001000 0.013750 0.000000
0.001500 0.013750 0.000000
0.002000 0.013750 0.000000
0.002500 0.013750 0.000000
0.003000 0.013750 0.000000
0.003500 0.013750 0.000000
0.004000 0.013750 0.000000
0.004500 0.013750 0.000000
0.000500 0.012500 0.000000
0.001000 0.012500 0.000000
0.001500 0.012500 0.000000
0.002000 0.012500 0.000000
0.002500 0.012500 0.000000
0.003000 0.012500 0.000000
0.003500 0.012500 0.000000
0.004000 0.012500 0.000000
0.004500 0.012500 0.000000
0.000500 0.011250 0.000000
0.001000 0.011250 0.000000
0.001500 0.011250 0.000000
0.002000 0.011250 0.000000
0.002500 0.011250 0.000000
0.003000 0.011250 0.000000
0.003500 0.011250 0.000000
0.004000 0.011250 0.000000
0.004500 0.011250 0.000000
0.000500 0.010000 0.000000
0.001000 0.010000 0.000000
0.001500 0.010000 0.000000
0.002000 0.010000 0.000000
0.002500 0.010000 0.000000
0.003000 0.010000 0.000000
0.003500 0.010000 0.000000
0.004000 0.010000 0.000000
0.004500 0.010000 0.000000
0.000500 0.008750 0.000000
0.001000 0.008750 0.000000
0.001500 0.008750 0.000000
0.002000 0.008750 0.000000
0.002500 0.008750 0.000000
0.003000 0.008750 0.000000
0.003500 0.008750 0.000000
0.004000 0.008750 0.000000
0.004500 0.008750 0.000000
0.000500 0.007500 0.000000
0.001000 0.007500 0.000000
0.001500 0.007500 0.000000
0.002000 0.007500 0.000000
0.002500 0.007500 0.000000
0.003000 0.007500 0.000000
0.003500 0.007500 0.000000
0.004000 0.007500 0.000000
0.004500 0.007500 0.000000
0.000500 0.006250 0.000000
0.001000 0.006250 0.000000
0.001500 0.006250 0.000000
0.002000 0.006250 0.000000
0.002500 0.006250 0.000000
0.003000 0.006250 0.000000
0.003500 0.006250 0.000000
0.004000 0.006250 0.000000
0.004500 0.006250 0.000000
0.000500 0.005000 0.000000
0.001000 0.005000 0.000000
0.001500 0.005000 0.000000
0.002000 0.005000 0.000000
0.002500 0.005000 0.000000
0.003000 0.005000 0.000000
0.003500 0.005000 0.000000
0.004000 0.005000 0.000000
0.004500 0.005000 0.000000
0.000500 0.003750 0.000000
0.001000 0.003750 0.000000
0.001500 0.003750 0.000000
0.002000 0.003750 0.000000
0.002500 0.003750 0.000000
0.003000 0.003750 0.000000
0.003500 0.003750 0.000000
0.004000 0.003750 0.000000
0.004500 0.003750 0.000000
0.000500 0.002500 0.000000
0.001000 0.002500 0.000000
0.001500 0.002500 0.000000
0.002000 0.002500 0.000000
0.002500 0.002500 0.000000
0.003000 0.002500 0.000000
0.003500 0.002500 0.000000
0.004000 0.002500 0.000000
0.004500 0.002500 0.000000
0.000500 0.001250 0.000000
0.001000 0.001250 0.000000
0.001500 0.001250 0.000000
0.002000 0.001250 0.000000
0.002500 0.001250 0.000000
0.003000 0.001250 0.000000
0.003500 0.001250 0.000000
0.004000 0.001250 0.000000
0.004500 0.001250 0.000000
CELLS 800 4000
4 82 83 180 179
4 179 180 181 178
4 178 181 182 177
4 177 182 183 176
4 176 183 184 175
4 175 184 185 174
4 174 185 186 173
4 173 186 187 172
4 172 187 188 171
4 171 188 80 0
4 83 84 189 180
4 180 189 190 181
4 181 190 191 182
4 182 191 192 183
4 183 192 193 184
4 184 193 194 185
4 185 194 195 186
4 186 195 196 187
4 187 196 197 188
4 188 197 79 80
4 84 85 198 189
4 189 198 199 190
4 190 199 200 191
4 191 200 201 192
4 192 201 202 193
4 193 202 203 194
4 194 203 204 195
4 195 204 205 196
4 196 205 206 197
4 197 206 78 79
4 85 86 207 198
4 198 207 208 199
4 199 208 209 200
4 200 209 210 201
4 201 210 211 202
4 202 211 212 203
4 203 212 213 204
4 204 213 214 205
4 205 214 215 206
4 206 215 77 78
4 86 87 216 207
4 207 216 217 208
4 208 217 218 209
4 209 218 219 210
4 210 219 220 211
4 211 220 221 212
4 212 221 222 213
4 213 222 223 214
4 214 223 224 215
4 215 224 76 77
4 87 88 225 216
4 216 225 226 217
4 217 226 227 218
4 218 227 228 219
4 219 228 229 220
4 220 229 230 221
4 221 230 231 222
4 222 231 232 223
4 223 232 233 224
4 224 233 75 76
4 88 89 234 225
4 225 234 235 226
4 226 235 236 227
4 227 236 237 228
4 228 237 238 229
4 229 238 239 230
4 230 239 240 231
4 231 240 241 232
4 232 241 242 233
4 233 242 74 75
4 89 90 243 234
4 234 243 244 235
4 235 244 245 236
4 236 245 246 237
4 237 246 247 238
4 238 247 248 239
4 239 248 249 240
4 240 249 250 241
4 241 250 251 242
4 242 251 73 74
4 90 91 252 243
4 243 252 253 244
4 244 253 254 245
4 245 254 255 246
4 246 255 256 247
4 247 256 257 248
4 248 257 258 249
4 249 258 259 250
4 250 259 260 251
4 251 260 72 73
4 91 92 261 252
4 252 261 262 253
4 253 262 263 254
4 254 263 264 255
4 255 264 265 256
4 256 265 266 257
4 257 266 267 258
4 258 267 268 259
4 259 268 269 260
4 260 269 71 72
4 92 93 270 261
4 261 270 271 262
4 262 271 272 263
4 263 272 273 264
4 264 273 274 265
4 265 274 275 266
4 266 275 276 267
4 267 276 277 268
4 268 277 278 269
4 269 278 70 71
4 93 94 279 270
4 270 279 280 271
4 271 280 281 272
4 272 281 282 273
4 273 282 283 274
4 274 283 284 275
4 275 284 285 276
4 276 285 286 277
4 277 286 287 278
4 278 287 69 70
4 94 95 288 279
4 279 288 289 280
4 280 289 290 281
4 281 290 291 282
4 282 291 292 283
4 283 292 293 284
4 284 293 294 285
4 285 294 295 286
4 286 295 296 287
4 287 296 68 69
4 95 96 297 288
4 288 297 298 289
4 289 298 299 290
4 290 299 300 291
4 291 300 301 292
4 292 301 302 293
4 293 302 303 294
4 294 303 304 295
4 295 304 305 296
4 296 305 67 68
4 96 97 306 297
4 297 306 307 298
4 298 307 308 299
4 299 308 309 300
4 300 309 310 301
4 301 310 311 302
4 302 311 312 303
4 303 312 313 304
4 304 313 314 305
4 305 314 66 67
4 97 98 315 306
4 306 315 316 307
4 307 316 317 308
4 308 317 318 309
4 309 318 319 310
4 310 319 320 311
4 311 320 321 312
4 312 321 322 313
4 313 322 323 314
4 314 323 65 66
4 98 99 324 315
4 315 324 325 316
4 316 325 326 317
4 317 326 327 318
4 318 327 328 319
4 319 328 329 320
4 320 329 330 321
4 321 330 331 322
4 322 331 332 323
4 323 332 64 65
4 99 100 333 324
4 324 333 334 325
4 325 334 335 326
4 326 335 336 327
4 327 336 337 328
4 328 337 338 329
4 329 338 339 330
4 330 339 340 331
4 331 340 341 332
4 332 341 63 64
4 100 101 342 333
4 333 342 343 334
4 334 343 344 335
4 335 344 345 336
4 336 345 346 337
4 337 346 347 338
4 338 347 348 339
4 339 348 349 340
4 340 349 350 341
4 341 350 62 63
4 101 102 351 342
4 342 351 352 343
4 343 352 353 344
4 344 353 354 345
4 345 354 355 346
4 346 355 356 347
4 347 356 357 348
4 348 357 358 349
4 349 358 359 350
4 350 359 61 62
4 102 103 360 351
4 351 360 361 352
4 352 361 362 353
4 353 362 363 354
4 354 363 364 355
4 355 364 365 356
4 356 365 366 357
4 357 366 367 358
4 358 367 368 359
4 359 368 60 61
4 103 104 369 360
4 360 369 370 361
4 361 370 371 362
4 362 371 372 363
4 363 372 373 364
4 364 373 374 365
4 365 374 375 366
4 366 375 376 367
4 367 376 377 368
4 368 377 59 60
4 104 105 378 369
4 369 378 379 370
4 370 379 380 371
4 371 380 381 372
4 372 381 382 373
4 373 382 383 374
4 374 383 384 375
4 375 384 385 376
4 376 385 386 377
4 377 386 58 59
4 105 106 387 378
4 378 387 388 379
4 379 388 389 380
4 380 389 390 381
4 381 390 391 382
4 382 391 392 383
4 383 392 393 384
4 384 393 394 385
4 385 394 395 386
4 386 395 57 58
4 106 107 396 387
4 387 396 397 388
4 388 397 398 389
4 389 398 399 390
4 390 399 400 391
4 391 400 401 392
4 392 401 402 393
4 393 402 403 394
4 394 403 404 395
4 395 404 56 57
4 107 108 405 396
4 396 405 406 397
4 397 406 407 398
4 398 407 408 399
4 399 408 409 400
4 400 409 410 401
4 401 410 411 402
4 402 411 412 403
4 403 412 413 404
4 404 413 55 56
4 108 109 414 405
4 405 414 415 406
4 406 415 416 407
4 407 416 417 408
4 408 417 418 409
4 409 418 419 410
4 410 419 420 411
4 411 420 421 412
4 412 421 422 413
4 413 422 54 55
4 109 110 423 414
4 414 423 424 415
4 415 424 425 416
4 416 425 426 417
4 417 426 427 418
4 418 427 428 419
4 419 428 429 420
4 420 429 430 421
4 421 430 431 422
4 422 431 53 54
4 110 111 432 423
4 423 432 433 424
4 424 433 434 425
4 425 434 435 426
4 426 435 436 427
4 427 436 437 428
4 428 437 438 429
4 429 438 439 430
4 430 439 440 431
4 431 440 52 53
4 111 112 441 432
4 432 441 442 433
4 433 442 443 434
4 434 443 444 435
4 435 444 445 436
4 436 445 446 437
4 437 446 447 438
4 438 447 448 439
4 439 448 449 440
4 440 449 51 52
4 112 113 450 441
4 441 450 451 442
4 442 451 452 443
4 443 452 453 444
4 444 453 454 445
4 445 454 455 446
4 446 455 456 447
4 447 456 457 448
4 448 457 458 449
4 449 458 50 51
4 113 114 459 450
4 450 459 460 451
4 451 460 461 452
4 452 461 462 453
4 453 462 463 454
4 454 463 464 455
4 455 464 465 456
4 456 465 466 457
4 457 466 467 458
4 458 467 49 50
4 114 115 468 459
4 459 468 469 460
4 460 469 470 461
4 461 470 471 462
4 462 471 472 463
4 463 472 473 464
4 464 473 474 465
4 465 474 475 466
4 466 475 476 467
4 467 476 48 49
4 115 116 477 468
4 468 477 478 469
4 469 478 479 470
4 470 479 480 471
4 471 480 481 472
4 472 481 482 473
4 473 482 483 474
4 474 483 484 475
4 475 484 485 476
4 476 485 47 48
4 116 117 486 477
4 477 486 487 478
4 478 487 488 479
4 479 488 489 480
4 480 489 490 481
4 481 490 491 482
4 482 491 492 483
4 483 492 493 484
4 484 493 494 485
4 485 494 46 47
4 117 118 495 486
4 486 495 496 487
4 487 496 497 488
4 488 497 498 489
4 489 498 499 490
4 490 499 500 491
4 491 500 501 492
4 492 501 502 493
4 493 502 503 494
4 494 503 45 46
4 118 119 504 495
4 495 504 505 496
4 496 505 506 497
4 497 506 507 498
4 498 507 508 499
4 499 508 509 500
4 500 509 510 501
4 501 510 511 502
4 502 511 512 503
4 503 512 44 45
4 119 120 513 504
4 504 513 514 505
4 505 514 515 506
4 506 515 516 507
4 507 516 517 508
4 508 517 518 509
4 509 518 519 510
4 510 519 520 511
4 511 520 521 512
4 512 521 43 44
4 120 121 522 513
4 513 522 523 514
4 514 523 524 515
4 515 524 525 516
4 516 525 526 517
4 517 526 527 518
4 518 527 528 519
4 519 528 529 520
4 520 529 530 521
4 521 530 42 43
4 121 122 531 522
4 522 531 532 523
4 523 532 533 524
4 524 533 534 525
4 525 534 535 526
4 526 535 536 527
4 527 536 537 528
4 528 537 538 529
4 529 538 539 530
4 530 539 41 42
4 122 123 540 531
4 531 540 541 532
4 532 541 542 533
4 533 542 543 534
4 534 543 544 535
4 535 544 545 536
4 536 545 546 537
4 537 546 547 538
4 538 547 548 539
4 539 548 40 41
4 123 124 549 540
4 540 549 550 541
4 541 550 551 542
4 542 551 552 543
4 543 552 553 544
4 544 553 554 545
4 545 554 555 546
4 546 555 556 547
4 547 556 557 548
4 548 557 39 40
4 124 125 558 549
4 549 558 559 550
4 550 559 560 551
4 551 560 561 552
4 552 561 562 553
4 553 562 563 554
4 554 563 564 555
4 555 564 565 556
4 556 565 566 557
4 557 566 38 39
4 125 126 567 558
4 558 567 568 559
4 559 568 569 560
4 560 569 570 561
4 561 570 571 562
4 562 571 572 563
4 563 572 573 564
4 564 573 574 565
4 565 574 575 566
4 566 575 37 38
4 126 127 576 567
4 567 576 577 568
4 568 577 578 569
4 569 578 579 570
4 570 579 580 571
4 571 580 581 572
4 572 581 582 573
4 573 582 583 574
4 574 583 584 575
4 575 584 36 37
4 127 128 585 576
4 576 585 586 577
4 577 586 587 578
4 578 587 588 579
4 579 588 589 580
4 580 589 590 581
4 581 590 591 582
4 582 591 592 583
4 583 592 593 584
4 584 593 35 36
4 128 129 594 585
4 585 594 595 586
4 586 595 596 587
4 587 596 597 588
4 588 597 598 589
4 589 598 599 590
4 590 599 600 591
4 591 600 601 592
4 592 601 602 593
4 593 602 34 35
4 129 130 603 594
4 594 603 604 595
4 595 604 605 596
4 596 605 606 597
4 597 606 607 598
4 598 607 608 599
4 599 608 609 600
4 600 609 610 601
4 601 610 611 602
4 602 611 33 34
4 130 131 612 603
4 603 612 613 604
4 604 613 614 605
4 605 614 615 606
4 606 615 616 607
4 607 616 617 608
4 608 617 618 609
4 609 618 619 610
4 610 619 620 611
4 611 620 32 33
4 131 132 621 612
4 612 621 622 613
4 613 622 623 614
4 614 623 624 615
4 615 624 625 616
4 616 625 626 617
4 617 626 627 618
4 618 627 628 619
4 619 628 629 620
4 620 629 31 32
4 132 133 630 621
4 621 630 631 622
4 622 631 632 623
4 623 632 633 624
4 624 633 634 625
4 625 634 635 626
4 626 635 636 627
4 627 636 637 628
4 628 637 638 629
4 629 638 30 31
4 133 134 639 630
4 630 639 640 631
4 631 640 641 632
4 632 641 642 633
4 633 642 643 634
4 634 643 644 635
4 635 644 645 636
4 636 645 646 637
4 637 646 647 638
4 638 647 29 30
4 134 135 648 639
4 639 648 649 640
4 640 649 650 641
4 641 650 651 642
4 642 651 652 643
4 643 652 653 644
4 644 653 654 645
4 645 654 655 646
4 646 655 656 647
4 647 656 28 29
4 135 136 657 648
4 648 657 658 649
4 649 658 659 650
4 650 659 660 651
4 651 660 661 652
4 652 661 662 653
4 653 662 663 654
4 654 663 664 655
4 655 664 665 656
4 656 665 27 28
4 136 137 666 657
4 657 666 667 658
4 658 667 668 659
4 659 668 669 660
4 660 669 670 661
4 661 670 671 662
4 662 671 672 663
4 663 672 673 664
4 664 673 674 665
4 665 674 26 27
4 137 138 675 666
4 666 675 676 667
4 667 676 677 668
4 668 677 678 669
4 669 678 679 670
4 670 679 680 671
4 671 680 681 672
4 672 681 682 673
4 673 682 683 674
4 674 683 25 26
4 138 139 684 675
4 675 684 685 676
4 676 685 686 677
4 677 686 687 678
4 678 687 688 679
4 679 688 689 680
4 680 689 690 681
4 681 690 691 682
4 682 691 692 683
4 683 692 24 25
4 139 140 693 684
4 684 693 694 685
4 685 694 695 686
4 686 695 696 687
4 687 696 697 688
4 688 697 698 689
4 689 698 699 690
4 690 699 700 691
4 691 700 701 692
4 692 701 23 24
4 140 141 702 693
4 693 702 703 694
4 694 703 704 695
4 695 704 705 696
4 696 705 706 697
4 697 706 707 698
4 698 707 708 699
4 699 708 709 700
4 700 709 710 701
4 701 710 22 23
4 141 142 711 702
4 702 711 712 703
4 703 712 713 704
4 704 713 714 705
4 705 714 715 706
4 706 715 716 707
4 707 716 717 708
4 708 717 718 709
4 709 718 719 710
4 710 719 21 22
4 142 143 720 711
4 711 720 721 712
4 712 721 722 713
4 713 722 723 714
4 714 723 724 715
4 715 724 725 716
4 716 725 726 717
4 717 726 727 718
4 718 727 728 719
4 719 728 20 21
4 143 144 729 720
4 720 729 730 721
4 721 730 731 722
4 722 731 732 723
4 723 732 733 724
4 724 733 734 725
4 725 734 735 726
4 726 735 736 727
4 727 736 737 728
4 728 737 19 20
4 144 145 738 729
4 729 738 739 730
4 730 739 740 731
4 731 740 741 732
4 732 741 742 733
4 733 742 743 734
4 734 743 744 735
4 735 744 745 736
4 736 745 746 737
4 737 746 18 19
4 145 146 747 738
4 738 747 748 739
4 739 748 749 740
4 740 749 750 741
4 741 750 751 742
4 742 751 752 743
4 743 752 753 744
4 744 753 754 745
4 745 754 755 746
4 746 755 17 18
4 146 147 756 747
4 747 756 757 748
4 748 757 758 749
4 749 758 759 750
4 750 759 760 751
4 751 760 761 752
4 752 761 762 753
4 753 762 763 754
4 754 763 764 755
4 755 764 16 17
4 147 148 765 756
4 756 765 766 757
4 757 766 767 758
4 758 767 768 759
4 759 768 769 760
4 760 769 770 761
4 761 770 771 762
4 762 771 772 763
4 763 772 773 764
4 764 773 15 16
4 148 149 774 765
4 765 774 775 766
4 766 775 776 767
4 767 776 777 768
4 768 777 778 769
4 769 778 779 770
4 770 779 780 771
4 771 780 781 772
4 772 781 782 773
4 773 782 14 15
4 149 150 783 774
4 774 783 784 775
4 775 784 785 776
4 776 785 786 777
4 777 786 787 778
4 778 787 788 779
4 779 788 789 780
4 780 789 790 781
4 781 790 791 782
4 782 791 13 14
4 150 151 792 783
4 783 792 793 784
4 784 793 794 785
4 785 794 795 786
4 786 795 796 787
4 787 796 797 788
4 788 797 798 789
4 789 798 799 790
4 790 799 800 791
4 791 800 12 13
4 151 152 801 792
4 792 801 802 793
4 793 802 803 794
4 794 803 804 795
4 795 804 805 796
4 796 805 806 797
4 797 806 807 798
4 798 807 808 799
4 799 808 809 800
4 800 809 11 12
4 152 153 810 801
4 801 810 811 802
4 802 811 812 803
4 803 812 813 804
4 804 813 814 805
4 805 814 815 806
4 806 815 816 807
4 807 816 817 808
4 808 817 818 809
4 809 818 10 11
4 153 154 819 810
4 810 819 820 811
4 811 820 821 812
4 812 821 822 813
4 813 822 823 814
4 814 823 824 815
4 815 824 825 816
4 816 825 826 817
4 817 826 827 818
4 818 827 9 10
4 154 155 828 819
4 819 828 829 820
4 820 829 830 821
4 821 830 831 822
4 822 831 832 823
4 823 832 833 824
4 824 833 834 825
4 825 834 835 826
4 826 835 836 827
4 827 836 8 9
4 155 156 837 828
4 828 837 838 829
4 829 838 839 830
4 830 839 840 831
4 831 840 841 832
4 832 841 842 833
4 833 842 843 834
4 834 843 844 835
4 835 844 845 836
4 836 845 7 8
4 156 157 846 837
4 837 846 847 838
4 838 847 848 839
4 839 848 849 840
4 840 849 850 841
4 841 850 851 842
4 842 851 852 843
4 843 852 853 844
4 844 853 854 845
4 845 854 6 7
4 157 158 855 846
4 846 855 856 847
4 847 856 857 848
4 848 857 858 849
4 849 858 859 850
4 850 859 860 851
4 851 860 861 852
4 852 861 862 853
4 853 862 863 854
4 854 863 5 6
4 158 159 864 855
4 855 864 865 856
4 856 865 866 857
4 857 866 867 858
4 858 867 868 859
4 859 868 869 860
4 860 869 870 861
4 861 870 871 862
4 862 871 872 863
4 863 872 4 5
4 159 160 873 864
4 864 873 874 865
4 865 874 875 866
4 866 875 876 867
4 867 876 877 868
4 868 877 878 869
4 869 878 879 870
4 870 879 880 871
4 871 880 881 872
4 872 881 3 4
4 160 161 882 873
4 873 882 883 874
4 874 883 884 875
4 875 884 885 876
4 876 885 886 877
4 877 886 887 878
4 878 887 888 879
4 879 888 889 880
4 880 889 890 881
4 881 890 2 3
4 161 81 162 882
4 882 162 163 883
4 883 163 164 884
4 884 164 165 885
4 885 165 166 886
4 886 166 167 887
4 887 167 168 888
4 888 168 169 889
4 889 169 170 890
4 890 170 1 2
CELL_TYPES 800
9
9
9
9
9
9
9
9
9
9
9
9
9
9
9
9
9
9
9
9
9
9
9
9
9
9
9
9
9
9
9
9
9
9
9
9
9
9
9
9
9
9
9
9
9
9
9
9
9
9
9
9
9
9
9
9
9
9
9
9
9
9
9
9
9
9
9
9
9
9
9
9
9
9
9
9
9
9
9
9
9
9
9
9
9
9
9
9
9
9
9
9
9
9
9
9
9
9
9
9
9
9
9
9
9
9
9
9
9
9
9
9
9
9
9
9
9
9
9
9
9
9
9
9
9
9
9
9
9
9
9
9
9
9
9
9
9
9
9
9
9
9
9
9
9
9
9
9
9
9
9
9
9
9
9
9
9
9
9
9
9
9
9
9
9
9
9
9
9
9
9
9
9
9
9
9
9
9
9
9
9
9
9
9
9
9
9
9
9
9
9
9
9
9
9
9
9
9
9
9
9
9
9
9
9
9
9
9
9
9
9
9
9
9
9
9
9
9
9
9
9
9
9
9
9
9
9
9
9
9
9
9
9
9
9
9
9
9
9
9
9
9
9
9
9
9
9
9
9
9
9
9
9
9
9
9
9
9
9
9
9
9
9
9
9
9
9
9
9
9
9
9
9
9
9
9
9
9
9
9
9
9
9
9
9
9
9
9
9
9
9
9
9
9
9
9
9
9
9
9
9
9
9
9
9
9
9
9
9
9
9
9
9
9
9
9
9
9
9
9
9
9
9
9
9
9
9
9
9
9
9
9
9
9
9
9
9
9
9
9
9
9
9
9
9
9
9
9
9
9
9
9
9
9
9
9
9
9
9
9
9
9
9
9
9
9
9
9
9
9
9
9
9
9
9
9
9
9
9
9
9
9
9
9
9
9
9
9
9
9
9
9
9
9
9
9
9
9
9
9
9
9
9
9
9
9
9
9
9
9
9
9
9
9
9
9
9
9
9
9
9
9
9
9
9
9
9
9
9
9
9
9
9
9
9
9
9
9
9
9
9
9
9
9
9
9
9
9
9
9
9
9
9
9
9
9
9
9
9
9
9
9
9
9
9
9
9
9
9
9
9
9
9
9
9
9
9
9
9
9
9
9
9
9
9
9
9
9
9
9
9
9
9
9
9
9
9
9
9
9
9
9
9
9
9
9
9
9
9
9
9
9
9
9
9
9
9
9
9
9
9
9
9
9
9
9
9
9
9
9
9
9
9
9
9
9
9
9
9
9
9
9
9
9
9
9
9
9
9
9
9
9
9
9
9
9
9
9
9
9
9
9
9
9
9
9
9
9
9
9
9
9
9
9
9
9
9
9
9
9
9
9
9
9
9
9
9
9
9
9
9
9
9
9
9
9
9
9
9
9
9
9
9
9
9
9
9
9
9
9
9
9
9
9
9
9
9
9
9
9
9
9
9
9
9
9
9
9
9
9
9
9
9
9
9
9
9
9
9
9
9
9
9
9
9
9
9
9
9
9
9
9
9
9
9
9
9
9
9
9
9
9
9
9
9
9
9
9
9
9
9
9
9
9
9
9
9
9
9
9
9
9
9
9
9
9
9
9
9
9
9
9
9
9
9
9
9
9
9
9
9
9
9
9
9
9
9
9
9
9
9
9
9
9
9
9
9
9
9
9
9
9
9
9
9
9
9
9
9
9
9
9
9
9
9
9
9
9
9
9
9
9
9
9
9
9
9
9
9
9
9
9
9
9
9
9
9
9
9
9
9
9
9
9
9
9
9
9
9
9
9
9
9
9
9
9
9
9
9
9
9
9
9
9
9
9
9
9
9
9
9
9
9
9
9
9
9
9
9
9
POINT_DATA 891
SCALARS u1 float
LOOKUP_TABLE default
2e-17
-2e-06
-2e-06
-2e-06
-2e-06
-2e-06
-2e-06
-2e-06
-2e-06
-2e-06
-2e-06
-2e-06
-2e-06
-2e-06
-2e-06
-2e-06
-2e-06
-2e-06
-2e-06
-2e-06
-2e-06
-2e-06
-2e-06
-2e-06
-2e-06
-2e-06
-2e-06
-2e-06
-2e-06
-2e-06
-2e-06
-2e-06
-2e-06
-2e-06
-2e-06
-2e-06
-2e-06
-2e-06
-2e-06
-2e-06
-2e-06
-2e-06
-2e-06
-2e-06
-2e-06
-2e-06
-2e-06
-2e-06
-2e-06
-2e-06
-2e-06
-2e-06
-2e-06
-2e-06
-2e-06
-2e-06
-2e-06
-2e-06
-2e-06
-2e-06
-2e-06
-2e-06
-2e-06
-2e-06
-2e-06
-2e-06
-2e-06
-2e-06
-2e-06
-2e-06
-2e-06
-2e-06
-2e-06
-2e-06
-2e-06
-2e-06
-2e-06
-2e-06
-2e-06
-2e-06
-1e-06
2e-06
-3e-18
1e-06
2e-06
2e-06
2e-06
2e-06
2e-06
2e-06
2e-06
2e-06
2e-06
2e-06
2e-06
2e-06
2e-06
2e-06
2e-06
2e-06
2e-06
2e-06
2e-06
2e-06
2e-06
2e-06
2e-06
2e-06
2e-06
2e-06
2e-06
2e-06
2e-06
2e-06
2e-06
2e-06
2e-06
2e-06
2e-06
2e-06
2e-06
2e-06
2e-06
2e-06
2e-06
2e-06
2e-06
2e-06
2e-06
2e-06
2e-06
2e-06
2e-06
2e-06
2e-06
2e-06
2e-06
2e-06
2e-06
2e-06
2e-06
2e-06
2e-06
2e-06
2e-06
2e-06
2e-06
2e-06
2e-06
2e-06
2e-06
2e-06
2e-06
2e-06
2e-06
2e-06
2e-06
2e-06
2e-06
2e-06
2e-06
2e-06
1e-06
1e-06
7e-07
3e-07
4e-14
-3e-07
-7e-07
-1e-06
-1e-06
-7e-17
5e-18
5e-17
3e-17
1e-17
7e-18
-1e-17
-7e-19
-2e-17
1e-06
7e-07
4e-07
2e-07
-5e-15
-2e-07
-4e-07
-7e-07
-1e-06
1e-06
1e-06
6e-07
3e-07
-6e-15
-3e-07
-6e-07
-1e-06
-1e-06
1e-06
1e-06
7e-07
3e-07
-7e-15
-3e-07
-7e-07
-1e-06
-1e-06
1e-06
1e-06
7e-07
3e-07
-4e-15
-3e-07
-7e-07
-1e-06
-1e-06
1e-06
1e-06
7e-07
3e-07
6e-17
-3e-07
-7e-07
-1e-06
-1e-06
1e-06
1e-06
7e-07
3e-07
5e-15
-3e-07
-7e-07
-1e-06
-1e-06
1e-06
1e-06
7e-07
3e-07
1e-14
-3e-07
-7e-07
-1e-06
-1e-06
1e-06
1e-06
7e-07
3e-07
1e-14
-3e-07
-7e-07
-1e-06
-1e-06
1e-06
1e-06
7e-07
3e-07
2e-14
-3e-07
-7e-07
-1e-06
-1e-06
1e-06
1e-06
7e-07
3e-07
2e-14
-3e-07
-7e-07
-1e-06
-1e-06
1e-06
1e-06
7e-07
3e-07
3e-14
-3e-07
-7e-07
-1e-06
-1e-06
1e-06
1e-06
7e-07
3e-07
3e-14
-3e-07
-7e-07
-1e-06
-1e-06
1e-06
1e-06
7e-07
3e-07
3e-14
-3e-07
-7e-07
-1e-06
-1e-06
1e-06
1e-06
7e-07
3e-07
3e-14
-3e-07
-7e-07
-1e-06
-1e-06
1e-06
1e-06
7e-07
3e-07
4e-14
-3e-07
-7e-07
-1e-06
-1e-06
1e-06
1e-06
7e-07
3e-07
4e-14
-3e-07
-7e-07
-1e-06
-1e-06
1e-06
1e-06
7e-07
3e-07
4e-14
-3e-07
-7e-07
-1e-06
-1e-06
1e-06
1e-06
7e-07
3e-07
4e-14
-3e-07
-7e-07
-1e-06
-1e-06
1e-06
1e-06
7e-07
3e-07
4e-14
-3e-07
-7e-07
-1e-06
-1e-06
1e-06
1e-06
7e-07
3e-07
4e-14
-3e-07
-7e-07
-1e-06
-1e-06
1e-06
1e-06
7e-07
3e-07
4e-14
-3e-07
-7e-07
-1e-06
-1e-06
1e-06
1e-06
7e-07
3e-07
4e-14
-3e-07
-7e-07
-1e-06
-1e-06
1e-06
1e-06
7e-07
3e-07
4e-14
-3e-07
-7e-07
-1e-06
-1e-06
1e-06
1e-06
7e-07
3e-07
4e-14
-3e-07
-7e-07
-1e-06
-1e-06
1e-06
1e-06
7e-07
3e-07
4e-14
-3e-07
-7e-07
-1e-06
-1e-06
1e-06
1e-06
7e-07
3e-07
4e-14
-3e-07
-7e-07
-1e-06
-1e-06
1e-06
1e-06
7e-07
3e-07
4e-14
-3e-07
-7e-07
-1e-06
-1e-06
1e-06
1e-06
7e-07
3e-07
4e-14
-3e-07
-7e-07
-1e-06
-1e-06
1e-06
1e-06
7e-07
3e-07
4e-14
-3e-07
-7e-07
-1e-06
-1e-06
1e-06
1e-06
7e-07
3e-07
4e-14
-3e-07
-7e-07
-1e-06
-1e-06
1e-06
1e-06
7e-07
3e-07
4e-14
-3e-07
-7e-07
-1e-06
-1e-06
1e-06
1e-06
7e-07
3e-07
4e-14
-3e-07
-7e-07
-1e-06
-1e-06
1e-06
1e-06
7e-07
3e-07
4e-14
-3e-07
-7e-07
-1e-06
-1e-06
1e-06
1e-06
7e-07
3e-07
4e-14
-3e-07
-7e-07
-1e-06
-1e-06
1e-06
1e-06
7e-07
3e-07
4e-14
-3e-07
-7e-07
-1e-06
-1e-06
1e-06
1e-06
7e-07
3e-07
4e-14
-3e-07
-7e-07
-1e-06
-1e-06
1e-06
1e-06
7e-07
3e-07
4e-14
-3e-07
-7e-07
-1e-06
-1e-06
1e-06
1e-06
7e-07
3e-07
4e-14
-3e-07
-7e-07
-1e-06
-1e-06
1e-06
1e-06
7e-07
3e-07
4e-14
-3e-07
-7e-07
-1e-06
-1e-06
1e-06
1e-06
7e-07
3e-07
4e-14
-3e-07
-7e-07
-1e-06
-1e-06
1e-06
1e-06
7e-07
3e-07
4e-14
-3e-07
-7e-07
-1e-06
-1e-06
1e-06
1e-06
7e-07
3e-07
4e-14
-3e-07
-7e-07
-1e-06
-1e-06
1e-06
1e-06
7e-07
3e-07
4e-14
-3e-07
-7e-07
-1e-06
-1e-06
1e-06
1e-06
7e-07
3e-07
4e-14
-3e-07
-7e-07
-1e-06
-1e-06
1e-06
1e-06
7e-07
3e-07
4e-14
-3e-07
-7e-07
-1e-06
-1e-06
1e-06
1e-06
7e-07
3e-07
4e-14
-3e-07
-7e-07
-1e-06
-1e-06
1e-06
1e-06
7e-07
3e-07
4e-14
-3e-07
-7e-07
-1e-06
-1e-06
1e-06
1e-06
7e-07
3e-07
4e-14
-3e-07
-7e-07
-1e-06
-1e-06
1e-06
1e-06
7e-07
3e-07
4e-14
-3e-07
-7e-07
-1e-06
-1e-06
1e-06
1e-06
7e-07
3e-07
4e-14
-3e-07
-7e-07
-1e-06
-1e-06
1e-06
1e-06
7e-07
3e-07
4e-14
-3e-07
-7e-07
-1e-06
-1e-06
1e-06
1e-06
7e-07
3e-07
4e-14
-3e-07
-7e-07
-1e-06
-1e-06
1e-06
1e-06
7e-07
3e-07
4e-14
-3e-07
-7e-07
-1e-06
-1e-06
1e-06
1e-06
7e-07
3e-07
4e-14
-3e-07
-7e-07
-1e-06
-1e-06
1e-06
1e-06
7e-07
3e-07
4e-14
-3e-07
-7e-07
-1e-06
-1e-06
1e-06
1e-06
7e-07
3e-07
4e-14
-3e-07
-7e-07
-1e-06
-1e-06
1e-06
1e-06
7e-07
3e-07
4e-14
-3e-07
-7e-07
-1e-06
-1e-06
1e-06
1e-06
7e-07
3e-07
4e-14
-3e-07
-7e-07
-1e-06
-1e-06
1e-06
1e-06
7e-07
3e-07
4e-14
-3e-07
-7e-07
-1e-06
-1e-06
1e-06
1e-06
7e-07
3e-07
4e-14
-3e-07
-7e-07
-1e-06
-1e-06
1e-06
1e-06
7e-07
3e-07
4e-14
-3e-07
-7e-07
-1e-06
-1e-06
1e-06
1e-06
7e-07
3e-07
4e-14
-3e-07
-7e-07
-1e-06
-1e-06
1e-06
1e-06
7e-07
3e-07
4e-14
-3e-07
-7e-07
-1e-06
-1e-06
1e-06
1e-06
7e-07
3e-07
4e-14
-3e-07
-7e-07
-1e-06
-1e-06
1e-06
1e-06
7e-07
3e-07
4e-14
-3e-07
-7e-07
-1e-06
-1e-06
1e-06
1e-06
7e-07
3e-07
4e-14
-3e-07
-7e-07
-1e-06
-1e-06
1e-06
1e-06
7e-07
3e-07
4e-14
-3e-07
-7e-07
-1e-06
-1e-06
1e-06
1e-06
7e-07
3e-07
4e-14
-3e-07
-7e-07
-1e-06
-1e-06
1e-06
1e-06
7e-07
3e-07
4e-14
-3e-07
-7e-07
-1e-06
-1e-06
1e-06
1e-06
7e-07
3e-07
4e-14
-3e-07
-7e-07
-1e-06
-1e-06
1e-06
1e-06
7e-07
3e-07
4e-14
-3e-07
-7e-07
-1e-06
-1e-06
1e-06
1e-06
7e-07
3e-07
4e-14
-3e-07
-7e-07
-1e-06
-1e-06
1e-06
1e-06
7e-07
3e-07
4e-14
-3e-07
-7e-07
-1e-06
-1e-06
1e-06
1e-06
7e-07
3e-07
4e-14
-3e-07
-7e-07
-1e-06
-1e-06
1e-06
1e-06
7e-07
3e-07
4e-14
-3e-07
-7e-07
-1e-06
-1e-06
1e-06
1e-06
7e-07
3e-07
4e-14
-3e-07
-7e-07
-1e-06
-1e-06
1e-06
1e-06
7e-07
3e-07
4e-14
-3e-07
-7e-07
-1e-06
-1e-06
1e-06
1e-06
7e-07
3e-07
4e-14
-3e-07
-7e-07
-1e-06
-1e-06
1e-06
1e-06
7e-07
3e-07
4e-14
-3e-07
-7e-07
-1e-06
-1e-06
SCALARS u2 float
LOOKUP_TABLE default
-1e-17
-0.0005
-0.0004
-0.0004
-0.0004
-0.0004
-0.0004
-0.0004
-0.0004
-0.0004
-0.0004
-0.0004
-0.0004
-0.0004
-0.0004
-0.0004
-0.0004
-0.0004
-0.0004
-0.0003
-0.0003
-0.0003
-0.0003
-0.0003
-0.0003
-0.0003
-0.0003
-0.0003
-0.0003
-0.0003
-0.0003
-0.0003
-0.0003
-0.0003
-0.0003
-0.0003
-0.0003
-0.0002
-0.0002
-0.0002
-0.0002
-0.0002
-0.0002
-0.0002
-0.0002
-0.0002
-0.0002
-0.0002
-0.0002
-0.0002
-0.0002
-0.0002
-0.0002
-0.0002
-0.0002
-0.0001
-0.0001
-0.0001
-0.0001
-0.0001
-0.0001
-0.0001
-0.0001
-0.0001
-0.0001
-9e-05
-8e-05
-8e-05
-7e-05
-7e-05
-6e-05
-6e-05
-5e-05
-4e-05
-4e-05
-3e-05
-3e-05
-2e-05
-2e-05
-1e-05
-6e-06
-0.0005
5e-19
-6e-06
-1e-05
-2e-05
-2e-05
-3e-05
-3e-05
-4e-05
-4e-05
-5e-05
-6e-05
-6e-05
-7e-05
-7e-05
-8e-05
-8e-05
-9e-05
-0.0001
-0.0001
-0.0001
-0.0001
-0.0001
-0.0001
-0.0001
-0.0001
-0.0001
-0.0001
-0.0002
-0.0002
-0.0002
-0.0002
-0.0002
-0.0002
-0.0002
-0.0002
-0.0002
-0.0002
-0.0002
-0.0002
-0.0002
-0.0002
-0.0002
-0.0002
-0.0002
-0.0002
-0.0003
-0.0003
-0.0003
-0.0003
-0.0003
-0.0003
-0.0003
-0.0003
-0.0003
-0.0003
-0.0003
-0.0003
-0.0003
-0.0003
-0.0003
-0.0003
-0.0003
-0.0003
-0.0004
-0.0004
-0.0004
-0.0004
-0.0004
-0.0004
-0.0004
-0.0004
-0.0004
-0.0004
-0.0004
-0.0004
-0.0004
-0.0004
-0.0004
-0.0004
-0.0004
-0.0005
-0.0005
-0.0005
-0.0005
-0.0005
-0.0005
-0.0005
-0.0005
-0.0005
-1e-18
-6e-17
2e-17
-1e-17
4e-17
-9e-17
-5e-17
1e-17
6e-17
-6e-06
-6e-06
-5e-06
-5e-06
-5e-06
-5e-06
-5e-06
-6e-06
-6e-06
-1e-05
-1e-05
-1e-05
-1e-05
-1e-05
-1e-05
-1e-05
-1e-05
-1e-05
-2e-05
-2e-05
-2e-05
-2e-05
-2e-05
-2e-05
-2e-05
-2e-05
-2e-05
-2e-05
-2e-05
-2e-05
-2e-05
-2e-05
-2e-05
-2e-05
-2e-05
-2e-05
-3e-05
-3e-05
-3e-05
-3e-05
-3e-05
-3e-05
-3e-05
-3e-05
-3e-05
-3e-05
-3e-05
-3e-05
-3e-05
-3e-05
-3e-05
-3e-05
-3e-05
-3e-05
-4e-05
-4e-05
-4e-05
-4e-05
-4e-05
-4e-05
-4e-05
-4e-05
-4e-05
-4e-05
-4e-05
-4e-05
-4e-05
-4e-05
-4e-05
-4e-05
-4e-05
-4e-05
-5e-05
-5e-05
-5e-05
-5e-05
-5e-05
-5e-05
-5e-05
-5e-05
-5e-05
-6e-05
-6e-05
-6e-05
-6e-05
-6e-05
-6e-05
-6e-05
-6e-05
-6e-05
-6e-05
-6e-05
-6e-05
-6e-05
-6e-05
-6e-05
-6e-05
-6e-05
-6e-05
-7e-05
-7e-05
-7e-05
-7e-05
-7e-05
-7e-05
-7e-05
-7e-05
-7e-05
-7e-05
-7e-05
-7e-05
-7e-05
-7e-05
-7e-05
-7e-05
-7e-05
-7e-05
-8e-05
-8e-05
-8e-05
-8e-05
-8e-05
-8e-05
-8e-05
-8e-05
-8e-05
-8e-05
-8e-05
-8e-05
-8e-05
-8e-05
-8e-05
-8e-05
-8e-05
-8e-05
-9e-05
-9e-05
-9e-05
-9e-05
-9e-05
-9e-05
-9e-05
-9e-05
-9e-05
-0.0001
-0.0001
-0.0001
-0.0001
-0.0001
-0.0001
-0.0001
-0.0001
-0.0001
-0.0001
-0.0001
-0.0001
-0.0001
-0.0001
-0.0001
-0.0001
-0.0001
-0.0001
-0.0001
-0.0001
-0.0001
-0.0001
-0.0001
-0.0001
-0.0001
-0.0001
-0.0001
-0.0001
-0.0001
-0.0001
-0.0001
-0.0001
-0.0001
-0.0001
-0.0001
-0.0001
-0.0001
-0.0001
-0.0001
-0.0001
-0.0001
-0.0001
-0.0001
-0.0001
-0.0001
-0.0001
-0.0001
-0.0001
-0.0001
-0.0001
-0.0001
-0.0001
-0.0001
-0.0001
-0.0001
-0.0001
-0.0001
-0.0001
-0.0001
-0.0001
-0.0001
-0.0001
-0.0001
-0.0001
-0.0001
-0.0001
-0.0001
-0.0001
-0.0001
-0.0001
-0.0001
-0.0001
-0.0001
-0.0001
-0.0001
-0.0001
-0.0001
-0.0001
-0.0001
-0.0001
-0.0001
-0.0001
-0.0001
-0.0001
-0.0001
-0.0001
-0.0001
-0.0001
-0.0001
-0.0001
-0.0002
-0.0002
-0.0002
-0.0002
-0.0002
-0.0002
-0.0002
-0.0002
-0.0002
-0.0002
-0.0002
-0.0002
-0.0002
-0.0002
-0.0002
-0.0002
-0.0002
-0.0002
-0.0002
-0.0002
-0.0002
-0.0002
-0.0002
-0.0002
-0.0002
-0.0002
-0.0002
-0.0002
-0.0002
-0.0002
-0.0002
-0.0002
-0.0002
-0.0002
-0.0002
-0.0002
-0.0002
-0.0002
-0.0002
-0.0002
-0.0002
-0.0002
-0.0002
-0.0002
-0.0002
-0.0002
-0.0002
-0.0002
-0.0002
-0.0002
-0.0002
-0.0002
-0.0002
-0.0002
-0.0002
-0.0002
-0.0002
-0.0002
-0.0002
-0.0002
-0.0002
-0.0002
-0.0002
-0.0002
-0.0002
-0.0002
-0.0002
-0.0002
-0.0002
-0.0002
-0.0002
-0.0002
-0.0002
-0.0002
-0.0002
-0.0002
-0.0002
-0.0002
-0.0002
-0.0002
-0.0002
-0.0002
-0.0002
-0.0002
-0.0002
-0.0002
-0.0002
-0.0002
-0.0002
-0.0002
-0.0002
-0.0002
-0.0002
-0.0002
-0.0002
-0.0002
-0.0002
-0.0002
-0.0002
-0.0002
-0.0002
-0.0002
-0.0002
-0.0002
-0.0002
-0.0002
-0.0002
-0.0002
-0.0002
-0.0002
-0.0002
-0.0002
-0.0002
-0.0002
-0.0002
-0.0002
-0.0002
-0.0002
-0.0002
-0.0002
-0.0002
-0.0002
-0.0002
-0.0002
-0.0002
-0.0002
-0.0002
-0.0002
-0.0002
-0.0002
-0.0002
-0.0002
-0.0002
-0.0002
-0.0002
-0.0002
-0.0002
-0.0002
-0.0002
-0.0002
-0.0002
-0.0002
-0.0002
-0.0002
-0.0002
-0.0002
-0.0002
-0.0002
-0.0002
-0.0002
-0.0002
-0.0002
-0.0002
-0.0002
-0.0002
-0.0002
-0.0002
-0.0002
-0.0002
-0.0002
-0.0002
-0.0002
-0.0003
-0.0003
-0.0003
-0.0003
-0.0003
-0.0003
-0.0003
-0.0003
-0.0003
-0.0003
-0.0003
-0.0003
-0.0003
-0.0003
-0.0003
-0.0003
-0.0003
-0.0003
-0.0003
-0.0003
-0.0003
-0.0003
-0.0003
-0.0003
-0.0003
-0.0003
-0.0003
-0.0003
-0.0003
-0.0003
-0.0003
-0.0003
-0.0003
-0.0003
-0.0003
-0.0003
-0.0003
-0.0003
-0.0003
-0.0003
-0.0003
-0.0003
-0.0003
-0.0003
-0.0003
-0.0003
-0.0003
-0.0003
-0.0003
-0.0003
-0.0003
-0.0003
-0.0003
-0.0003
-0.0003
-0.0003
-0.0003
-0.0003
-0.0003
-0.0003
-0.0003
-0.0003
-0.0003
-0.0003
-0.0003
-0.0003
-0.0003
-0.0003
-0.0003
-0.0003
-0.0003
-0.0003
-0.0003
-0.0003
-0.0003
-0.0003
-0.0003
-0.0003
-0.0003
-0.0003
-0.0003
-0.0003
-0.0003
-0.0003
-0.0003
-0.0003
-0.0003
-0.0003
-0.0003
-0.0003
-0.0003
-0.0003
-0.0003
-0.0003
-0.0003
-0.0003
-0.0003
-0.0003
-0.0003
-0.0003
-0.0003
-0.0003
-0.0003
-0.0003
-0.0003
-0.0003
-0.0003
-0.0003
-0.0003
-0.0003
-0.0003
-0.0003
-0.0003
-0.0003
-0.0003
-0.0003
-0.0003
-0.0003
-0.0003
-0.0003
-0.0003
-0.0003
-0.0003
-0.0003
-0.0003
-0.0003
-0.0003
-0.0003
-0.0003
-0.0003
-0.0003
-0.0003
-0.0003
-0.0003
-0.0003
-0.0003
-0.0003
-0.0003
-0.0003
-0.0003
-0.0003
-0.0003
-0.0003
-0.0003
-0.0003
-0.0003
-0.0003
-0.0003
-0.0003
-0.0003
-0.0003
-0.0003
-0.0003
-0.0003
-0.0003
-0.0003
-0.0003
-0.0003
-0.0003
-0.0003
-0.0003
-0.0003
-0.0004
-0.0004
-0.0004
-0.0004
-0.0004
-0.0004
-0.0004
-0.0004
-0.0004
-0.0004
-0.0004
-0.0004
-0.0004
-0.0004
-0.0004
-0.0004
-0.0004
-0.0004
-0.0004
-0.0004
-0.0004
-0.0004
-0.0004
-0.0004
-0.0004
-0.0004
-0.0004
-0.0004
-0.0004
-0.0004
-0.0004
-0.0004
-0.0004
-0.0004
-0.0004
-0.0004
-0.0004
-0.0004
-0.0004
-0.0004
-0.0004
-0.0004
-0.0004
-0.0004
-0.0004
-0.0004
-0.0004
-0.0004
-0.0004
-0.0004
-0.0004
-0.0004
-0.0004
-0.0004
-0.0004
-0.0004
-0.0004
-0.0004
-0.0004
-0.0004
-0.0004
-0.0004
-0.0004
-0.0004
-0.0004
-0.0004
-0.0004
-0.0004
-0.0004
-0.0004
-0.0004
-0.0004
-0.0004
-0.0004
-0.0004
-0.0004
-0.0004
-0.0004
-0.0004
-0.0004
-0.0004
-0.0004
-0.0004
-0.0004
-0.0004
-0.0004
-0.0004
-0.0004
-0.0004
-0.0004
-0.0004
-0.0004
-0.0004
-0.0004
-0.0004
-0.0004
-0.0004
-0.0004
-0.0004
-0.0004
-0.0004
-0.0004
-0.0004
-0.0004
-0.0004
-0.0004
-0.0004
-0.0004
-0.0004
-0.0004
-0.0004
-0.0004
-0.0004
-0.0004
-0.0004
-0.0004
-0.0004
-0.0004
-0.0004
-0.0004
-0.0004
-0.0004
-0.0004
-0.0004
-0.0004
-0.0004
-0.0004
-0.0004
-0.0004
-0.0004
-0.0004
-0.0004
-0.0004
-0.0004
-0.0004
-0.0004
-0.0004
-0.0004
-0.0004
-0.0004
-0.0004
-0.0004
-0.0004
-0.0004
-0.0004
-0.0004
-0.0004
-0.0004
-0.0004
-0.0004
-0.0004
-0.0004
-0.0004
SCALARS strain_1 float
LOOKUP_TABLE default
-0.000123
-0.196603
-0.193630
-0.190642
-0.187640
-0.184624
-0.181595
-0.178556
-0.175503
-0.172441
-0.169368
-0.166286
-0.163198
-0.160100
-0.156998
-0.153889
-0.150776
-0.147659
-0.144541
-0.141420
-0.138301
-0.135182
-0.132065
-0.128951
-0.125842
-0.122739
-0.119643
-0.116555
-0.113477
-0.110409
-0.107355
-0.104315
-0.101288
-0.098279
-0.095288
-0.092317
-0.089366
-0.086438
-0.083534
-0.080654
-0.077803
-0.074979
-0.072186
-0.069424
-0.066695
-0.063999
-0.061341
-0.058719
-0.056138
-0.053596
-0.051095
-0.048637
-0.046225
-0.043858
-0.041539
-0.039267
-0.037046
-0.034875
-0.032757
-0.030691
-0.028680
-0.026724
-0.024825
-0.022982
-0.021196
-0.019470
-0.017803
-0.016196
-0.014649
-0.013163
-0.011738
-0.010375
-0.009073
-0.007833
-0.006655
-0.005539
-0.004485
-0.003490
-0.002559
-0.001687
-0.000875
-0.196778
-0.000005
-0.000758
-0.001573
-0.002446
-0.003382
-0.004377
-0.005434
-0.006554
-0.007734
-0.008978
-0.010283
-0.011649
-0.013078
-0.014567
-0.016118
-0.017729
-0.019400
-0.021130
-0.022919
-0.024766
-0.026670
-0.028630
-0.030645
-0.032715
-0.034838
-0.037013
-0.039239
-0.041514
-0.043839
-0.046209
-0.048627
-0.051090
-0.053594
-0.056140
-0.058728
-0.061354
-0.064017
-0.066716
-0.069451
-0.072217
-0.075015
-0.077843
-0.080699
-0.083583
-0.086491
-0.089424
-0.092379
-0.095355
-0.098351
-0.101364
-0.104393
-0.107439
-0.110497
-0.113568
-0.116651
-0.119742
-0.122842
-0.125949
-0.129062
-0.132179
-0.135300
-0.138422
-0.141546
-0.144669
-0.147791
-0.150911
-0.154027
-0.157139
-0.160244
-0.163344
-0.166437
-0.169522
-0.172596
-0.175661
-0.178716
-0.181759
-0.184790
-0.187808
-0.190813
-0.193802
-0.196762
-0.196745
-0.196728
-0.196711
-0.196694
-0.196676
-0.196657
-0.196640
-0.196622
-0.000100
-0.000078
-0.000060
-0.000045
-0.000032
-0.000021
-0.000013
-0.000008
-0.000005
-0.000758
-0.000761
-0.000767
-0.000774
-0.000784
-0.000797
-0.000814
-0.000831
-0.000852
-0.001572
-0.001574
-0.001579
-0.001587
-0.001597
-0.001610
-0.001625
-0.001643
-0.001664
-0.002446
-0.002448
-0.002452
-0.002460
-0.002470
-0.002482
-0.002497
-0.002515
-0.002535
-0.003380
-0.003382
-0.003387
-0.003394
-0.003403
-0.003415
-0.003430
-0.003448
-0.003468
-0.004376
-0.004378
-0.004382
-0.004388
-0.004397
-0.004410
-0.004424
-0.004442
-0.004461
-0.005433
-0.005434
-0.005438
-0.005444
-0.005453
-0.005465
-0.005479
-0.005496
-0.005517
-0.006551
-0.006552
-0.006556
-0.006563
-0.006571
-0.006583
-0.006597
-0.006613
-0.006633
-0.007732
-0.007733
-0.007736
-0.007742
-0.007751
-0.007762
-0.007776
-0.007792
-0.007811
-0.008976
-0.008976
-0.008978
-0.008984
-0.008992
-0.009003
-0.009016
-0.009032
-0.009051
-0.010280
-0.010280
-0.010282
-0.010288
-0.010295
-0.010306
-0.010320
-0.010335
-0.010354
-0.011646
-0.011646
-0.011648
-0.011653
-0.011661
-0.011671
-0.011684
-0.011699
-0.011717
-0.013075
-0.013074
-0.013076
-0.013080
-0.013088
-0.013098
-0.013110
-0.013125
-0.013143
-0.014564
-0.014563
-0.014564
-0.014569
-0.014575
-0.014585
-0.014596
-0.014611
-0.014629
-0.016114
-0.016112
-0.016114
-0.016118
-0.016124
-0.016133
-0.016146
-0.016160
-0.016177
-0.017725
-0.017724
-0.017724
-0.017728
-0.017734
-0.017742
-0.017754
-0.017768
-0.017784
-0.019395
-0.019394
-0.019394
-0.019397
-0.019403
-0.019411
-0.019423
-0.019436
-0.019452
-0.021125
-0.021123
-0.021123
-0.021127
-0.021132
-0.021139
-0.021150
-0.021163
-0.021179
-0.022914
-0.022911
-0.022911
-0.022914
-0.022920
-0.022927
-0.022936
-0.022949
-0.022965
-0.024761
-0.024758
-0.024757
-0.024759
-0.024763
-0.024771
-0.024781
-0.024793
-0.024808
-0.026664
-0.026661
-0.026661
-0.026662
-0.026666
-0.026673
-0.026682
-0.026694
-0.026708
-0.028624
-0.028620
-0.028619
-0.028621
-0.028625
-0.028630
-0.028640
-0.028651
-0.028664
-0.030639
-0.030635
-0.030634
-0.030635
-0.030638
-0.030644
-0.030652
-0.030663
-0.030676
-0.032708
-0.032704
-0.032703
-0.032703
-0.032706
-0.032712
-0.032719
-0.032730
-0.032742
-0.034831
-0.034827
-0.034824
-0.034824
-0.034827
-0.034833
-0.034839
-0.034849
-0.034861
-0.037006
-0.037001
-0.036998
-0.036998
-0.037000
-0.037004
-0.037011
-0.037021
-0.037032
-0.039232
-0.039227
-0.039223
-0.039223
-0.039224
-0.039228
-0.039235
-0.039243
-0.039254
-0.041507
-0.041501
-0.041498
-0.041497
-0.041498
-0.041502
-0.041508
-0.041516
-0.041526
-0.043831
-0.043825
-0.043822
-0.043820
-0.043820
-0.043824
-0.043829
-0.043837
-0.043846
-0.046202
-0.046196
-0.046192
-0.046190
-0.046190
-0.046193
-0.046197
-0.046204
-0.046213
-0.048619
-0.048612
-0.048608
-0.048605
-0.048606
-0.048608
-0.048612
-0.048618
-0.048627
-0.051080
-0.051073
-0.051069
-0.051066
-0.051066
-0.051068
-0.051071
-0.051076
-0.051085
-0.053585
-0.053578
-0.053573
-0.053570
-0.053569
-0.053570
-0.053573
-0.053578
-0.053586
-0.056131
-0.056123
-0.056118
-0.056115
-0.056113
-0.056114
-0.056117
-0.056122
-0.056129
-0.058718
-0.058710
-0.058705
-0.058701
-0.058699
-0.058699
-0.058701
-0.058706
-0.058712
-0.061343
-0.061336
-0.061329
-0.061325
-0.061323
-0.061323
-0.061325
-0.061329
-0.061334
-0.064007
-0.063999
-0.063992
-0.063987
-0.063984
-0.063984
-0.063985
-0.063988
-0.063993
-0.066706
-0.066697
-0.066690
-0.066685
-0.066682
-0.066681
-0.066681
-0.066684
-0.066689
-0.069440
-0.069430
-0.069423
-0.069418
-0.069415
-0.069413
-0.069413
-0.069414
-0.069418
-0.072206
-0.072196
-0.072189
-0.072183
-0.072180
-0.072177
-0.072177
-0.072178
-0.072181
-0.075004
-0.074994
-0.074986
-0.074980
-0.074976
-0.074973
-0.074972
-0.074973
-0.074975
-0.077831
-0.077821
-0.077813
-0.077807
-0.077802
-0.077798
-0.077798
-0.077798
-0.077799
-0.080688
-0.080677
-0.080669
-0.080662
-0.080657
-0.080654
-0.080651
-0.080651
-0.080652
-0.083570
-0.083561
-0.083552
-0.083545
-0.083538
-0.083535
-0.083532
-0.083531
-0.083531
-0.086479
-0.086469
-0.086459
-0.086452
-0.086446
-0.086441
-0.086439
-0.086437
-0.086437
-0.089412
-0.089401
-0.089391
-0.089384
-0.089377
-0.089372
-0.089368
-0.089366
-0.089366
-0.092367
-0.092355
-0.092345
-0.092337
-0.092330
-0.092326
-0.092321
-0.092318
-0.092317
-0.095342
-0.095331
-0.095321
-0.095313
-0.095305
-0.095299
-0.095294
-0.095291
-0.095289
-0.098337
-0.098326
-0.098316
-0.098306
-0.098299
-0.098292
-0.098287
-0.098283
-0.098281
-0.101350
-0.101339
-0.101328
-0.101319
-0.101311
-0.101304
-0.101298
-0.101293
-0.101291
-0.104381
-0.104369
-0.104357
-0.104347
-0.104340
-0.104332
-0.104326
-0.104321
-0.104317
-0.107425
-0.107413
-0.107402
-0.107392
-0.107383
-0.107375
-0.107368
-0.107363
-0.107359
-0.110483
-0.110471
-0.110460
-0.110450
-0.110441
-0.110432
-0.110424
-0.110419
-0.110414
-0.113555
-0.113543
-0.113530
-0.113520
-0.113510
-0.113501
-0.113494
-0.113487
-0.113482
-0.116637
-0.116624
-0.116612
-0.116601
-0.116591
-0.116582
-0.116574
-0.116566
-0.116561
-0.119728
-0.119716
-0.119703
-0.119692
-0.119681
-0.119671
-0.119663
-0.119656
-0.119649
-0.122828
-0.122815
-0.122802
-0.122791
-0.122780
-0.122771
-0.122761
-0.122753
-0.122746
-0.125935
-0.125922
-0.125909
-0.125897
-0.125886
-0.125875
-0.125866
-0.125857
-0.125850
-0.129048
-0.129034
-0.129021
-0.129009
-0.128997
-0.128987
-0.128977
-0.128967
-0.128959
-0.132165
-0.132151
-0.132137
-0.132125
-0.132114
-0.132102
-0.132092
-0.132082
-0.132073
-0.135285
-0.135271
-0.135258
-0.135245
-0.135233
-0.135221
-0.135210
-0.135200
-0.135191
-0.138408
-0.138393
-0.138379
-0.138367
-0.138354
-0.138342
-0.138331
-0.138320
-0.138310
-0.141531
-0.141516
-0.141502
-0.141489
-0.141476
-0.141464
-0.141453
-0.141441
-0.141430
-0.144654
-0.144639
-0.144626
-0.144612
-0.144598
-0.144586
-0.144574
-0.144562
-0.144551
-0.147776
-0.147761
-0.147746
-0.147733
-0.147719
-0.147706
-0.147694
-0.147682
-0.147670
-0.150895
-0.150880
-0.150866
-0.150851
-0.150838
-0.150825
-0.150811
-0.150799
-0.150787
-0.154012
-0.153996
-0.153981
-0.153967
-0.153954
-0.153940
-0.153926
-0.153913
-0.153901
-0.157123
-0.157107
-0.157092
-0.157078
-0.157063
-0.157050
-0.157037
-0.157022
-0.157009
-0.160229
-0.160213
-0.160198
-0.160184
-0.160169
-0.160154
-0.160141
-0.160127
-0.160113
-0.163329
-0.163313
-0.163298
-0.163282
-0.163268
-0.163252
-0.163239
-0.163224
-0.163211
-0.166421
-0.166405
-0.166390
-0.166375
-0.166359
-0.166345
-0.166330
-0.166316
-0.166300
-0.169505
-0.169490
-0.169474
-0.169459
-0.169443
-0.169428
-0.169412
-0.169397
-0.169383
-0.172580
-0.172564
-0.172549
-0.172533
-0.172518
-0.172502
-0.172486
-0.172471
-0.172456
-0.175646
-0.175629
-0.175614
-0.175598
-0.175582
-0.175567
-0.175550
-0.175535
-0.175518
-0.178700
-0.178684
-0.178668
-0.178651
-0.178636
-0.178620
-0.178603
-0.178587
-0.178572
-0.181743
-0.181727
-0.181711
-0.181695
-0.181678
-0.181662
-0.181645
-0.181629
-0.181613
-0.184774
-0.184758
-0.184742
-0.184725
-0.184708
-0.184692
-0.184675
-0.184658
-0.184641
-0.187792
-0.187775
-0.187759
-0.187742
-0.187726
-0.187709
-0.187692
-0.187674
-0.187657
-0.190796
-0.190780
-0.190764
-0.190747
-0.190729
-0.190712
-0.190695
-0.190677
-0.190660
-0.193786
-0.193770
-0.193753
-0.193736
-0.193719
-0.193701
-0.193683
-0.193666
-0.193648
SCALARS strain_2 float
LOOKUP_TABLE default
0.002324
0.001308
0.001308
0.001309
0.001311
0.001307
0.001308
0.001308
0.001311
0.001309
0.001309
0.001312
0.001312
0.001314
0.001317
0.001318
0.001321
0.001323
0.001324
0.001329
0.001333
0.001339
0.001341
0.001344
0.001349
0.001355
0.001360
0.001363
0.001372
0.001377
0.001386
0.001389
0.001401
0.001406
0.001415
0.001418
0.001430
0.001441
0.001450
0.001462
0.001472
0.001481
0.001492
0.001502
0.001518
0.001525
0.001541
0.001558
0.001568
0.001584
0.001603
0.001615
0.001632
0.001652
0.001670
0.001687
0.001705
0.001725
0.001740
0.001763
0.001780
0.001805
0.001828
0.001846
0.001870
0.001893
0.001920
0.001941
0.001970
0.001991
0.002017
0.002043
0.002067
0.002096
0.002123
0.002150
0.002176
0.002210
0.002239
0.002269
0.002297
0.004691
0.004748
0.004757
0.004760
0.004765
0.004766
0.004768
0.004772
0.004777
0.004779
0.004782
0.004786
0.004788
0.004789
0.004790
0.004796
0.004794
0.004800
0.004802
0.004804
0.004807
0.004810
0.004812
0.004810
0.004810
0.004816
0.004818
0.004815
0.004818
0.004818
0.004821
0.004822
0.004825
0.004821
0.004823
0.004823
0.004823
0.004825
0.004823
0.004825
0.004819
0.004827
0.004824
0.004826
0.004822
0.004817
0.004820
0.004821
0.004821
0.004817
0.004812
0.004816
0.004811
0.004810
0.004808
0.004805
0.004801
0.004801
0.004793
0.004795
0.004791
0.004786
0.004782
0.004778
0.004777
0.004770
0.004767
0.004766
0.004760
0.004753
0.004747
0.004746
0.004740
0.004734
0.004730
0.004724
0.004720
0.004710
0.004708
0.004703
0.004694
0.004350
0.004014
0.003675
0.003333
0.002998
0.002661
0.002324
0.001983
0.001643
0.002567
0.002813
0.003053
0.003296
0.003541
0.003781
0.004025
0.004268
0.004511
0.004508
0.004263
0.004019
0.003767
0.003524
0.003278
0.003035
0.002788
0.002542
0.004511
0.004264
0.004011
0.003765
0.003515
0.003267
0.003016
0.002768
0.002511
0.004510
0.004260
0.004007
0.003752
0.003501
0.003251
0.002995
0.002740
0.002490
0.004507
0.004257
0.004002
0.003747
0.003485
0.003234
0.002975
0.002721
0.002463
0.004511
0.004249
0.003993
0.003736
0.003473
0.003213
0.002957
0.002697
0.002438
0.004508
0.004247
0.003983
0.003722
0.003461
0.003199
0.002939
0.002677
0.002413
0.004507
0.004245
0.003978
0.003715
0.003448
0.003182
0.002918
0.002657
0.002387
0.004513
0.004239
0.003970
0.003707
0.003435
0.003166
0.002896
0.002633
0.002361
0.004508
0.004239
0.003968
0.003696
0.003426
0.003152
0.002882
0.002609
0.002338
0.004511
0.004235
0.003962
0.003689
0.003410
0.003144
0.002864
0.002591
0.002313
0.004510
0.004230
0.003952
0.003680
0.003402
0.003126
0.002845
0.002570
0.002292
0.004509
0.004230
0.003949
0.003671
0.003391
0.003110
0.002832
0.002550
0.002272
0.004508
0.004227
0.003944
0.003661
0.003381
0.003098
0.002812
0.002533
0.002251
0.004510
0.004225
0.003937
0.003652
0.003365
0.003078
0.002795
0.002512
0.002225
0.004510
0.004221
0.003936
0.003649
0.003355
0.003070
0.002781
0.002490
0.002206
0.004507
0.004215
0.003930
0.003642
0.003349
0.003056
0.002765
0.002480
0.002184
0.004507
0.004217
0.003922
0.003629
0.003336
0.003045
0.002751
0.002458
0.002164
0.004509
0.004216
0.003917
0.003619
0.003325
0.003030
0.002734
0.002440
0.002141
0.004511
0.004211
0.003914
0.003613
0.003313
0.003016
0.002719
0.002422
0.002125
0.004508
0.004210
0.003906
0.003609
0.003303
0.003003
0.002705
0.002404
0.002102
0.004506
0.004204
0.003902
0.003596
0.003297
0.002992
0.002692
0.002390
0.002086
0.004504
0.004199
0.003901
0.003591
0.003289
0.002984
0.002676
0.002373
0.002066
0.004506
0.004201
0.003893
0.003587
0.003275
0.002969
0.002663
0.002356
0.002049
0.004504
0.004197
0.003890
0.003577
0.003269
0.002958
0.002649
0.002341
0.002033
0.004502
0.004197
0.003881
0.003573
0.003258
0.002945
0.002635
0.002323
0.002017
0.004504
0.004190
0.003876
0.003565
0.003249
0.002942
0.002622
0.002314
0.002001
0.004509
0.004188
0.003877
0.003559
0.003244
0.002930
0.002613
0.002300
0.001979
0.004500
0.004184
0.003865
0.003550
0.003234
0.002919
0.002599
0.002283
0.001966
0.004501
0.004184
0.003864
0.003550
0.003229
0.002910
0.002592
0.002270
0.001956
0.004506
0.004182
0.003863
0.003541
0.003223
0.002898
0.002579
0.002256
0.001934
0.004501
0.004178
0.003856
0.003534
0.003210
0.002892
0.002570
0.002247
0.001921
0.004497
0.004173
0.003854
0.003534
0.003202
0.002883
0.002557
0.002230
0.001910
0.004503
0.004173
0.003851
0.003522
0.003199
0.002876
0.002547
0.002221
0.001894
0.004497
0.004175
0.003843
0.003521
0.003192
0.002862
0.002536
0.002211
0.001886
0.004498
0.004172
0.003840
0.003511
0.003182
0.002854
0.002527
0.002202
0.001871
0.004494
0.004166
0.003835
0.003508
0.003177
0.002848
0.002514
0.002190
0.001860
0.004493
0.004164
0.003834
0.003500
0.003168
0.002839
0.002511
0.002179
0.001851
0.004491
0.004160
0.003829
0.003497
0.003166
0.002831
0.002502
0.002167
0.001838
0.004493
0.004161
0.003827
0.003490
0.003156
0.002824
0.002489
0.002158
0.001826
0.004491
0.004155
0.003822
0.003486
0.003152
0.002820
0.002488
0.002150
0.001813
0.004487
0.004152
0.003817
0.003483
0.003147
0.002811
0.002473
0.002142
0.001805
0.004487
0.004150
0.003811
0.003478
0.003141
0.002803
0.002467
0.002129
0.001795
0.004484
0.004149
0.003812
0.003471
0.003135
0.002799
0.002465
0.002123
0.001784
0.004487
0.004146
0.003807
0.003467
0.003135
0.002794
0.002454
0.002119
0.001783
0.004479
0.004144
0.003802
0.003466
0.003126
0.002786
0.002447
0.002108
0.001766
0.004478
0.004141
0.003800
0.003464
0.003122
0.002785
0.002440
0.002103
0.001761
0.004479
0.004138
0.003796
0.003455
0.003111
0.002776
0.002437
0.002092
0.001752
0.004476
0.004138
0.003794
0.003449
0.003111
0.002771
0.002427
0.002087
0.001746
0.004475
0.004135
0.003791
0.003445
0.003107
0.002764
0.002423
0.002081
0.001740
0.004472
0.004131
0.003786
0.003443
0.003103
0.002761
0.002422
0.002075
0.001731
0.004468
0.004123
0.003783
0.003443
0.003097
0.002755
0.002413
0.002068
0.001727
0.004464
0.004122
0.003779
0.003435
0.003091
0.002752
0.002406
0.002066
0.001721
0.004464
0.004121
0.003773
0.003433
0.003091
0.002749
0.002403
0.002057
0.001714
0.004460
0.004119
0.003771
0.003430
0.003085
0.002741
0.002396
0.002055
0.001708
0.004453
0.004116
0.003776
0.003426
0.003082
0.002739
0.002391
0.002050
0.001701
0.004458
0.004110
0.003767
0.003419
0.003077
0.002727
0.002387
0.002042
0.001703
0.004455
0.004106
0.003762
0.003420
0.003071
0.002726
0.002384
0.002040
0.001694
0.004446
0.004103
0.003759
0.003413
0.003070
0.002723
0.002379
0.002033
0.001688
0.004446
0.004098
0.003756
0.003413
0.003064
0.002719
0.002376
0.002028
0.001689
0.004444
0.004097
0.003750
0.003407
0.003063
0.002717
0.002371
0.002026
0.001680
0.004438
0.004093
0.003749
0.003404
0.003061
0.002712
0.002369
0.002024
0.001679
0.004434
0.004091
0.003748
0.003401
0.003057
0.002706
0.002364
0.002023
0.001675
0.004431
0.004089
0.003744
0.003396
0.003053
0.002707
0.002361
0.002018
0.001671
0.004426
0.004085
0.003738
0.003393
0.003045
0.002703
0.002357
0.002015
0.001670
0.004423
0.004076
0.003733
0.003391
0.003044
0.002697
0.002354
0.002013
0.001666
0.004422
0.004075
0.003732
0.003385
0.003044
0.002699
0.002355
0.002009
0.001662
0.004416
0.004074
0.003727
0.003384
0.003041
0.002698
0.002348
0.002002
0.001662
0.004408
0.004067
0.003722
0.003377
0.003037
0.002694
0.002347
0.002000
0.001658
0.004411
0.004065
0.003722
0.003376
0.003031
0.002685
0.002344
0.002004
0.001658
0.004401
0.004059
0.003713
0.003374
0.003028
0.002685
0.002341
0.002000
0.001657
0.004395
0.004054
0.003711
0.003365
0.003027
0.002684
0.002341
0.001999
0.001656
0.004396
0.004050
0.003707
0.003368
0.003022
0.002683
0.002338
0.001996
0.001654
0.004389
0.004048
0.003704
0.003362
0.003021
0.002679
0.002334
0.001992
0.001645
0.004386
0.004044
0.003703
0.003361
0.003016
0.002679
0.002337
0.001990
0.001651
0.004379
0.004040
0.003695
0.003354
0.003013
0.002675
0.002330
0.001988
0.001652
0.004373
0.004035
0.003689
0.003352
0.003013
0.002671
0.002331
0.001988
0.001647
0.004369
0.004027
0.003689
0.003346
0.003009
0.002669
0.002333
0.001988
0.001648
0.004360
0.004025
0.003683
0.003344
0.003003
0.002665
0.002326
0.001985
0.001648
0.004355
0.004018
0.003679
0.003342
0.003001
0.002663
0.002325
0.001984
0.001644
SCALARS strain_3 float
LOOKUP_TABLE default
0.000999
0.065355
0.064430
0.063506
0.062575
0.061635
0.060692
0.059749
0.058798
0.057842
0.056886
0.055923
0.054957
0.053989
0.053019
0.052048
0.051070
0.050093
0.049116
0.048133
0.047151
0.046171
0.045186
0.044205
0.043222
0.042240
0.041260
0.040280
0.039303
0.038328
0.037355
0.036383
0.035419
0.034454
0.033499
0.032544
0.031593
0.030653
0.029716
0.028786
0.027861
0.026946
0.026036
0.025137
0.024246
0.023362
0.022490
0.021628
0.020774
0.019934
0.019103
0.018285
0.017480
0.016688
0.015907
0.015140
0.014387
0.013650
0.012929
0.012219
0.011524
0.010848
0.010188
0.009545
0.008915
0.008305
0.007712
0.007136
0.006580
0.006038
0.005517
0.005012
0.004526
0.004059
0.003614
0.003183
0.002773
0.002382
0.002007
0.001652
0.001315
0.063681
-0.000528
-0.000228
0.000096
0.000439
0.000800
0.001179
0.001578
0.001998
0.002433
0.002890
0.003367
0.003860
0.004373
0.004907
0.005454
0.006018
0.006605
0.007206
0.007828
0.008463
0.009120
0.009789
0.010476
0.011176
0.011895
0.012629
0.013377
0.014138
0.014913
0.015702
0.016504
0.017319
0.018146
0.018985
0.019835
0.020696
0.021567
0.022446
0.023338
0.024238
0.025145
0.026061
0.026984
0.027918
0.028853
0.029794
0.030747
0.031702
0.032659
0.033623
0.034593
0.035564
0.036540
0.037516
0.038496
0.039476
0.040462
0.041447
0.042433
0.043415
0.044405
0.045389
0.046374
0.047360
0.048344
0.049324
0.050302
0.051283
0.052256
0.053229
0.054200
0.055166
0.056128
0.057088
0.058043
0.058993
0.059941
0.060884
0.061821
0.062754
0.063849
0.064017
0.064183
0.064354
0.064519
0.064686
0.064853
0.065020
0.065188
0.000843
0.000687
0.000530
0.000376
0.000223
0.000072
-0.000080
-0.000231
-0.000381
-0.000075
0.000076
0.000229
0.000381
0.000536
0.000689
0.000844
0.001003
0.001158
0.000248
0.000402
0.000555
0.000709
0.000865
0.001022
0.001177
0.001336
0.001493
0.000593
0.000747
0.000900
0.001058
0.001213
0.001371
0.001527
0.001688
0.001848
0.000955
0.001109
0.001265
0.001423
0.001580
0.001739
0.001898
0.002057
0.002221
0.001337
0.001492
0.001651
0.001807
0.001964
0.002124
0.002287
0.002447
0.002608
0.001735
0.001894
0.002052
0.002212
0.002371
0.002531
0.002693
0.002856
0.003019
0.002156
0.002314
0.002474
0.002635
0.002795
0.002958
0.003122
0.003285
0.003448
0.002595
0.002754
0.002913
0.003076
0.003238
0.003404
0.003565
0.003730
0.003894
0.003052
0.003212
0.003373
0.003536
0.003700
0.003863
0.004028
0.004194
0.004359
0.003526
0.003687
0.003851
0.004016
0.004179
0.004345
0.004511
0.004678
0.004844
0.004023
0.004186
0.004349
0.004513
0.004679
0.004845
0.005010
0.005178
0.005348
0.004535
0.004699
0.004864
0.005030
0.005196
0.005362
0.005528
0.005696
0.005869
0.005068
0.005231
0.005396
0.005563
0.005731
0.005898
0.006067
0.006237
0.006407
0.005614
0.005781
0.005950
0.006117
0.006282
0.006453
0.006622
0.006797
0.006963
0.006185
0.006350
0.006520
0.006686
0.006856
0.007025
0.007195
0.007368
0.007541
0.006770
0.006938
0.007105
0.007278
0.007445
0.007615
0.007788
0.007957
0.008132
0.007376
0.007542
0.007713
0.007881
0.008054
0.008223
0.008397
0.008570
0.008742
0.007995
0.008163
0.008334
0.008504
0.008676
0.008850
0.009020
0.009193
0.009369
0.008634
0.008803
0.008974
0.009146
0.009316
0.009489
0.009661
0.009838
0.010014
0.009288
0.009459
0.009631
0.009803
0.009977
0.010147
0.010321
0.010495
0.010672
0.009959
0.010132
0.010303
0.010474
0.010649
0.010823
0.010997
0.011172
0.011347
0.010648
0.010819
0.010992
0.011164
0.011338
0.011512
0.011689
0.011863
0.012041
0.011347
0.011522
0.011694
0.011869
0.012045
0.012221
0.012395
0.012571
0.012748
0.012068
0.012241
0.012416
0.012589
0.012764
0.012941
0.013117
0.013293
0.013471
0.012802
0.012976
0.013148
0.013323
0.013500
0.013675
0.013852
0.014030
0.014209
0.013549
0.013724
0.013898
0.014073
0.014250
0.014426
0.014603
0.014783
0.014961
0.014310
0.014484
0.014662
0.014836
0.015014
0.015191
0.015371
0.015548
0.015728
0.015090
0.015262
0.015438
0.015613
0.015791
0.015970
0.016147
0.016326
0.016506
0.015877
0.016054
0.016226
0.016406
0.016584
0.016761
0.016940
0.017116
0.017300
0.016679
0.016855
0.017033
0.017209
0.017389
0.017564
0.017746
0.017923
0.018104
0.017494
0.017669
0.017849
0.018026
0.018204
0.018382
0.018561
0.018739
0.018922
0.018321
0.018499
0.018676
0.018854
0.019031
0.019212
0.019393
0.019570
0.019752
0.019163
0.019339
0.019515
0.019694
0.019872
0.020053
0.020231
0.020411
0.020593
0.020013
0.020188
0.020367
0.020544
0.020724
0.020905
0.021084
0.021263
0.021443
0.020872
0.021050
0.021229
0.021406
0.021586
0.021767
0.021945
0.022126
0.022306
0.021744
0.021920
0.022098
0.022277
0.022459
0.022639
0.022819
0.022998
0.023181
0.022624
0.022802
0.022983
0.023160
0.023340
0.023520
0.023699
0.023881
0.024062
0.023516
0.023693
0.023870
0.024051
0.024229
0.024410
0.024592
0.024775
0.024954
0.024416
0.024592
0.024771
0.024952
0.025129
0.025311
0.025490
0.025672
0.025855
0.025323
0.025503
0.025679
0.025862
0.026038
0.026221
0.026401
0.026580
0.026765
0.026238
0.026417
0.026598
0.026777
0.026954
0.027137
0.027316
0.027498
0.027679
0.027161
0.027343
0.027521
0.027700
0.027878
0.028060
0.028240
0.028422
0.028603
0.028095
0.028271
0.028450
0.028632
0.028812
0.028989
0.029173
0.029352
0.029535
0.029030
0.029209
0.029389
0.029568
0.029747
0.029929
0.030108
0.030289
0.030471
0.029975
0.030156
0.030333
0.030512
0.030692
0.030872
0.031051
0.031233
0.031412
0.030926
0.031103
0.031281
0.031462
0.031641
0.031821
0.032002
0.032182
0.032364
0.031879
0.032056
0.032235
0.032415
0.032595
0.032774
0.032955
0.033136
0.033316
0.032839
0.033016
0.033196
0.033375
0.033555
0.033732
0.033913
0.034093
0.034274
0.033803
0.033981
0.034159
0.034338
0.034517
0.034696
0.034876
0.035056
0.035236
0.034770
0.034946
0.035128
0.035307
0.035484
0.035665
0.035844
0.036025
0.036204
0.035741
0.035919
0.036100
0.036276
0.036457
0.036636
0.036814
0.036994
0.037175
0.036717
0.036892
0.037073
0.037251
0.037429
0.037609
0.037787
0.037967
0.038149
0.037695
0.037873
0.038051
0.038227
0.038407
0.038585
0.038763
0.038945
0.039126
0.038674
0.038850
0.039031
0.039205
0.039385
0.039563
0.039744
0.039922
0.040102
0.039656
0.039831
0.040009
0.040189
0.040366
0.040543
0.040722
0.040900
0.041081
0.040637
0.040816
0.040993
0.041171
0.041348
0.041527
0.041704
0.041883
0.042062
0.041620
0.041799
0.041978
0.042154
0.042331
0.042510
0.042687
0.042864
0.043042
0.042610
0.042783
0.042959
0.043138
0.043315
0.043492
0.043672
0.043849
0.044026
0.043596
0.043770
0.043946
0.044123
0.044299
0.044477
0.044657
0.044830
0.045011
0.044579
0.044758
0.044931
0.045108
0.045286
0.045462
0.045637
0.045816
0.045992
0.045566
0.045739
0.045919
0.046092
0.046270
0.046445
0.046622
0.046798
0.046974
0.046551
0.046727
0.046902
0.047078
0.047253
0.047430
0.047606
0.047780
0.047958
0.047532
0.047711
0.047883
0.048061
0.048234
0.048411
0.048587
0.048763
0.048937
0.048517
0.048693
0.048867
0.049043
0.049218
0.049392
0.049569
0.049741
0.049920
0.049500
0.049672
0.049847
0.050022
0.050197
0.050372
0.050546
0.050720
0.050897
0.050479
0.050652
0.050825
0.051000
0.051174
0.051349
0.051522
0.051697
0.051873
0.051456
0.051629
0.051802
0.051973
0.052151
0.052324
0.052500
0.052672
0.052847
0.052429
0.052603
0.052777
0.052950
0.053123
0.053295
0.053471
0.053644
0.053817
0.053402
0.053575
0.053749
0.053920
0.054091
0.054267
0.054441
0.054613
0.054784
0.054372
0.054544
0.054717
0.054887
0.055062
0.055235
0.055406
0.055580
0.055750
0.055339
0.055509
0.055681
0.055855
0.056025
0.056197
0.056368
0.056543
0.056713
0.056300
0.056472
0.056643
0.056813
0.056987
0.057157
0.057330
0.057502
0.057672
0.057259
0.057430
0.057601
0.057774
0.057945
0.058114
0.058286
0.058457
0.058627
0.058214
0.058385
0.058556
0.058726
0.058896
0.059066
0.059237
0.059406
0.059578
0.059167
0.059333
0.059505
0.059676
0.059843
0.060015
0.060186
0.060354
0.060524
0.060111
0.060280
0.060452
0.060620
0.060787
0.060960
0.061128
0.061299
0.061466
0.061053
0.061221
0.061390
0.061560
0.061729
0.061896
0.062068
0.062237
0.062403
0.061990
0.062157
0.062327
0.062494
0.062662
0.062832
0.063000
0.063169
0.063339
0.062921
0.063090
0.063259
0.063427
0.063594
0.063762
0.063927
0.064097
0.064265
SCALARS stress_1 float
LOOKUP_TABLE default
36714.733994
-36795307.514841
-36238527.586731
-35678950.158620
-35116451.730510
-34551689.802399
-33984549.374289
-33414846.446178
-32843128.518068
-32269463.589957
-31693932.161847
-31116643.733737
-30537710.305626
-29957685.877516
-29376374.449405
-28793893.521295
-28210665.593184
-27626875.165074
-27042602.736963
-26458078.808853
-25873511.880743
-25289132.452632
-24705179.024522
-24121762.096411
-23539160.168301
-22957813.740190
-22377681.312080
-21799031.383970
-21222250.455859
-20647424.027749
-20075064.599638
-19505088.171528
-18938153.243417
-18374272.815307
-17813678.387196
-17256811.959086
-16703779.530976
-16155077.602865
-15610686.174755
-15071052.746644
-14536546.318534
-14007279.890423
-13483533.962313
-12965942.534202
-12454254.106092
-11949127.677982
-11450640.249871
-10959177.321761
-10475109.893650
-9998517.965540
-9529686.537429
-9068989.109319
-8616521.681208
-8172756.253098
-7737695.824988
-7311854.896877
-6895224.968767
-6488107.040656
-6090695.112546
-5703387.184435
-5325973.256325
-4959109.328214
-4602697.900104
-4256984.971994
-3921974.043883
-3597994.615773
-3285124.687662
-2983499.759552
-2693108.831441
-2414102.403331
-2146458.475220
-1890425.047110
-1645948.619000
-1413075.690889
-1191675.762779
-981972.334668
-783787.906558
-596962.478447
-421710.050337
-257555.622226
-105036.194116
-36741384.503284
132655.245552
-8574.182559
-160984.110669
-324800.538779
-499706.466890
-686223.895000
-884261.323111
-1094006.751221
-1315187.679332
-1548016.607442
-1792514.035553
-2048512.463663
-2316124.891773
-2595346.319884
-2885674.247994
-3187666.176105
-3500573.604215
-3824853.032326
-4160101.460436
-4506224.888547
-4862885.316657
-5230116.744767
-5607710.172878
-5995642.600988
-6393406.529099
-6800911.457209
-7218108.385320
-7644522.313430
-8080076.741541
-8524441.669651
-8977414.597761
-9438773.025872
-9908144.453982
-10385445.882093
-10870171.810203
-11362360.738314
-11861438.166424
-12367319.594535
-12879557.522645
-13397981.450755
-13922384.378866
-14452492.806976
-14987753.735087
-15528067.163197
-16073322.591308
-16622928.519418
-17176563.447528
-17734364.875639
-18295695.303749
-18860510.231860
-19428371.159970
-19999047.588081
-20572215.016191
-21147713.944302
-21725349.872412
-22304777.300522
-22885766.228633
-23468082.156743
-24051304.584854
-24635635.512964
-25220374.441075
-25805598.369185
-26391034.297296
-26976262.725406
-27561350.153516
-28145904.581627
-28729930.009737
-29312958.437848
-29895083.365958
-30476038.794069
-31055605.722179
-31633592.150290
-32209898.078400
-32784285.506510
-33356758.434621
-33926998.362731
-34495106.290842
-35060580.218952
-35623722.647063
-36184036.075173
-36747155.604439
-36752573.205595
-36758064.306751
-36763554.907907
-36769141.509062
-36774385.610218
-36779807.211374
-36785062.812530
-36790210.413685
48458.835150
59736.936306
70396.037462
80713.638617
90593.739773
99910.340929
108815.942085
117260.543240
125133.144396
-16053.783714
-23984.384870
-32510.486026
-41473.587182
-50796.188337
-60659.789493
-71105.890649
-81819.991805
-93136.092960
-168480.211825
-176543.312981
-184914.414136
-193912.015292
-203210.616448
-213295.217604
-223662.818759
-234564.919915
-245881.021071
-332214.639935
-340188.241091
-348696.842247
-357586.443402
-367071.544558
-377112.145714
-387422.246870
-398407.348025
-409759.449181
-507221.068046
-515169.669201
-523836.770357
-532739.371513
-542223.972669
-552301.073824
-562686.174980
-573640.276136
-585123.877292
-693748.496156
-701919.597312
-710390.698468
-719383.299623
-728980.400779
-738971.501935
-749441.603091
-760352.704246
-771854.805402
-891866.424267
-899886.025422
-908476.126578
-917536.727734
-926992.328890
-937071.930045
-947508.531201
-958488.632357
-970044.733513
-1101492.352377
-1109653.953533
-1118130.054688
-1127142.155844
-1136725.257000
-1146664.858156
-1157321.959311
-1168221.560467
-1179796.161623
-1322679.780487
-1330762.381643
-1339361.982799
-1348481.083955
-1357914.185110
-1368121.786266
-1378667.387422
-1389558.488578
-1401065.589733
-1555628.208598
-1563798.309754
-1572299.910909
-1581393.012065
-1590866.613221
-1600937.714377
-1611412.815532
-1622604.916688
-1633926.517844
-1800036.636708
-1808212.237864
-1816695.839020
-1825838.440176
-1835330.541331
-1845355.642487
-1855989.743643
-1867009.344799
-1878481.945954
-2056115.064819
-2064222.665974
-2072840.267130
-2081853.868286
-2091512.969442
-2101492.070597
-2112063.671753
-2122929.272909
-2134488.874065
-2323615.992929
-2331816.594085
-2340366.195241
-2349432.796396
-2358938.897552
-2369197.998708
-2379562.099864
-2390628.701019
-2402041.802175
-2602857.921040
-2610790.522195
-2619490.123351
-2628555.224507
-2637994.825663
-2648071.926818
-2658608.527974
-2669648.629130
-2681148.230286
-2893345.849150
-2901407.950306
-2909960.551462
-2918965.652617
-2928527.253773
-2938534.354929
-2949090.456085
-2960050.557240
-2971570.158396
-3195155.777261
-3203243.878416
-3211752.479572
-3220724.580728
-3230391.681884
-3240261.283039
-3250799.884195
-3261830.985351
-3273182.086507
-3508185.205371
-3516312.306527
-3524793.907682
-3533764.508838
-3543370.609994
-3553429.711150
-3563800.312305
-3574635.413461
-3586114.514617
-3832398.133481
-3840507.234637
-3849110.835793
-3858055.436949
-3867522.538104
-3877481.639260
-3887826.240416
-3898919.341572
-3910219.442727
-4167594.061592
-4175697.662748
-4184161.263903
-4193195.865059
-4202629.466215
-4212600.567371
-4222995.168526
-4233811.269682
-4245134.870838
-4513701.989702
-4521743.590858
-4530221.192014
-4539141.293170
-4548535.894325
-4558461.495481
-4568846.596637
-4579552.197793
-4590915.798948
-4870326.917813
-4878445.018968
-4886878.120124
-4895725.721280
-4905254.822436
-4915026.923591
-4925443.524747
-4936284.625903
-4947428.727059
-5237745.345923
-5245669.447079
-5254081.048235
-5263040.149390
-5272356.750546
-5282274.851702
-5292484.952858
-5303176.054013
-5314477.655169
-5615302.774034
-5623283.375189
-5631760.976345
-5640609.577501
-5649964.678657
-5659696.279812
-5669907.380968
-5680558.982124
-5691818.083280
-6003037.202144
-6011008.803300
-6019494.404456
-6028346.005611
-6037595.606767
-6047398.707923
-6057572.809079
-6068230.910234
-6079328.511390
-6400951.630254
-6408756.231410
-6417325.832566
-6425978.933722
-6435305.034877
-6444989.636033
-6455031.237189
-6465574.838345
-6476621.439500
-6808330.058365
-6816312.159521
-6824709.260676
-6833542.861832
-6842690.462988
-6852290.064144
-6862299.665299
-6872816.266455
-6883889.867611
-7225544.986475
-7233523.087631
-7241691.688787
-7250492.789943
-7259707.391098
-7269192.492254
-7279280.593410
-7289660.694566
-7300621.295721
-7651967.914586
-7659820.515742
-7668001.116897
-7676774.218053
-7685910.319209
-7695319.920365
-7705392.021520
-7715740.122676
-7726535.223832
-8087391.842696
-8095277.443852
-8103582.545008
-8112148.146164
-8121336.747319
-8130631.848475
-8140596.949631
-8150877.550787
-8161636.151942
-8531825.770807
-8539639.371962
-8547796.473118
-8556281.074274
-8565310.175430
-8574831.776585
-8584734.877741
-8594919.978897
-8605593.080053
-8984850.198917
-8992569.800073
-9000604.401229
-9009262.002384
-9018150.603540
-9027569.204696
-9037335.805852
-9047478.907007
-9058047.508163
-9446127.127028
-9453852.728183
-9461880.329339
-9470465.430495
-9479312.031651
-9488622.632806
-9498280.233962
-9508515.835118
-9518800.936274
-9915470.555138
-9923151.656294
-9931249.757450
-9939808.358605
-9948482.959761
-9957714.560917
-9967354.162073
-9977336.263228
-9987736.864384
-10392715.483248
-10400298.084404
-10408423.685560
-10416851.286716
-10425565.387871
-10434706.489027
-10444177.090183
-10454148.691339
-10464385.792494
-10877393.411359
-10885075.512515
-10893167.613670
-10901498.714826
-10910240.315982
-10919274.417138
-10928814.518293
-10938552.619449
-10948626.220605
-11369584.839469
-11377203.940625
-11385113.541781
-11393350.142937
-11402059.244092
-11411034.845248
-11420474.946404
-11430081.547560
-11440274.648715
-11868680.267580
-11876156.868736
-11884124.969891
-11892396.571047
-11901031.172203
-11909854.273359
-11919208.874514
-11928760.975670
-11938835.076826
-12374475.195690
-12382050.796846
-12389843.898002
-12398026.999157
-12406694.100313
-12415320.701469
-12424713.802625
-12434080.903780
-12443992.004936
-12886905.123801
-12894229.224956
-12901883.826112
-12910031.427268
-12918581.528424
-12927473.129579
-12936527.230735
-12946026.831891
-12955793.933047
-13405166.551911
-13412641.153067
-13420453.754223
-13428430.355378
-13436889.456534
-13445492.557690
-13454559.158846
-13463924.760001
-13473561.361157
-13929520.480022
-13937019.081177
-13944632.682333
-13952632.783489
-13960961.384645
-13969648.985800
-13978533.086956
-13987934.188112
-13997395.289268
-14459486.408132
-14466905.509288
-14474403.610444
-14482495.211599
-14490708.312755
-14499205.913911
-14508154.515067
-14517265.116222
-14526797.217378
-14994803.336242
-15002089.937398
-15009625.038554
-15017556.639710
-15025869.740865
-15034246.842021
-15042919.943177
-15052029.044333
-15061462.645488
-15535166.764353
-15542385.365509
-15549849.466664
-15557760.067820
-15565881.168976
-15574276.270132
-15582939.871287
-15591869.472443
-15601154.573599
-16080243.192463
-16087445.793619
-16094915.394775
-16102674.995931
-16110763.097086
-16119005.698242
-16127628.799398
-16136483.400554
-16145597.001709
-16629819.620574
-16636954.221730
-16644422.822885
-16652058.924041
-16659980.525197
-16668277.126353
-16676785.227508
-16685564.328664
-16694456.929820
-17183576.048684
-17190590.149840
-17198158.250996
-17205641.852151
-17213597.953307
-17221664.054463
-17230159.155619
-17238601.256774
-17247674.357930
-17741195.476795
-17748307.077950
-17755585.179106
-17763145.780262
-17770945.881418
-17779079.482573
-17787406.083729
-17795982.684885
-17804635.286041
-18302475.904905
-18309545.006061
-18316840.607217
-18324268.708372
-18331979.809528
-18340033.910684
-18348315.511840
-18356711.112995
-18365426.714151
-18867286.333016
-18874293.934171
-18881441.535327
-18888839.136483
-18896525.237639
-18904403.838794
-18912510.939950
-18920880.541106
-18929390.142262
-19435045.761126
-19441987.862282
-19449128.463437
-19456507.564593
-19464096.665749
-19471890.766905
-19479916.868060
-19488124.969216
-19496657.570372
-20005713.189236
-20012596.290392
-20019664.391548
-20026950.992704
-20034591.093859
-20042285.695015
-20050087.296171
-20058264.397327
-20066662.998482
-20579007.617347
-20585840.218503
-20592750.819658
-20600038.920814
-20607390.521970
-20615062.623126
-20622954.724281
-20631084.825437
-20639192.426593
-21154526.045457
-21161211.646613
-21168188.247769
-21175382.848925
-21182717.450080
-21190387.051236
-21198049.152392
-21205944.753548
-21213984.354703
-21732054.973568
-21738638.074724
-21745694.175879
-21752813.277035
-21759994.378191
-21767524.979347
-21775081.580502
-21782971.181658
-21790840.782814
-22311402.401678
-22318018.502834
-22324864.103990
-22332065.705145
-22339166.806301
-22346610.407457
-22354008.508613
-22361832.109768
-22369695.210924
-22892279.329789
-22898963.930944
-22905729.032100
-22912728.133256
-22919957.734412
-22927088.335567
-22934596.436723
-22942163.537879
-22949950.639035
-23474546.757899
-23481193.359055
-23487903.460211
-23494764.561366
-23501925.662522
-23509072.763678
-23516428.364834
-23523853.965989
-23531486.567145
-24057856.186010
-24064350.287165
-24071096.388321
-24077992.489477
-24084937.090633
-24091992.691788
-24099223.792944
-24106719.894100
-24114270.995256
-24641964.614120
-24648514.215276
-24655227.816431
-24661901.917587
-24668840.518743
-24675811.119899
-24682962.221054
-24690316.822210
-24697701.923366
-25226690.542230
-25233152.643386
-25239866.244542
-25246473.845698
-25253258.946853
-25260193.548009
-25267200.149165
-25274528.250321
-25281878.851476
-25811900.470341
-25818376.071497
-25824821.172652
-25831560.273808
-25838319.874964
-25845096.476120
-25852121.577275
-25859098.178431
-25866438.779587
-26397153.398451
-26403581.499607
-26409933.600763
-26416638.201919
-26423373.803074
-26430031.904230
-26436995.005386
-26443908.106542
-26450859.707697
-26982498.326562
-26988753.927718
-26995180.528873
-27001835.630029
-27008354.731185
-27015062.832340
-27021796.933496
-27028664.534652
-27035660.635808
-27567501.254672
-27573847.355828
-27580107.456984
-27586575.558139
-27593096.159295
-27599760.760451
-27606382.361607
-27613149.462762
-27620074.063918
-28152012.182783
-28158352.283938
-28164631.385094
-28171045.486250
-28177406.087406
-28184034.688561
-28190554.789717
-28197270.890873
-28203987.492029
-28736002.610893
-28742153.212049
-28748468.813205
-28754777.414360
-28761060.015516
-28767646.616672
-28774093.717828
-28780744.818983
-28787281.420139
-29319196.539004
-29325284.140159
-29331522.241315
-29337732.842471
-29344021.443627
-29350305.044782
-29356760.145938
-29363357.247094
-29369763.348250
-29901218.467114
-29907376.568270
-29913386.669425
-29919565.270581
-29925860.371737
-29932047.472893
-29938516.074048
-29944770.675204
-29951184.276360
-30482080.395224
-30488052.496380
-30494164.597536
-30500423.698692
-30506395.299847
-30512728.401003
-30518946.502159
-30525179.603315
-30531524.204470
-31061594.823335
-31067648.924491
-31073566.025646
-31079717.126802
-31085721.727958
-31091852.329114
-31098071.930269
-31104140.531425
-31110364.632581
-31639632.251445
-31645536.852601
-31651514.953757
-31657392.554913
-31663492.656068
-31669468.257224
-31675497.358380
-31681757.959536
-31687871.560691
-32215702.679556
-32221729.280711
-32227588.381867
-32233607.983023
-32239432.584179
-32245493.685334
-32251524.286490
-32257409.887646
-32263434.988802
-32790226.607666
-32796026.208822
-32801980.309978
-32807788.411133
-32813704.012289
-32819726.113445
-32825497.214601
-32831376.815756
-32837296.916912
-33362506.035777
-33368431.636932
-33374204.738088
-33380027.839244
-33385792.940400
-33391618.541555
-33397496.642711
-33403306.743867
-33409082.345023
-33932806.963887
-33938555.065043
-33944441.166199
-33950224.767354
-33955904.868510
-33961606.469666
-33967311.070822
-33973135.671977
-33978745.773133
-34500736.391998
-34506431.993153
-34512319.094309
-34517903.695465
-34523638.796621
-34529330.897776
-34534832.998932
-34540540.100088
-34546078.201243
-35066258.320108
-35071991.421264
-35077618.522419
-35083238.623575
-35088884.224731
-35094400.325887
-35100084.427042
-35105567.528198
-35111046.629354
-35629256.748218
-35634888.849374
-35640599.950530
-35646137.051686
-35651709.152841
-35657178.753997
-35662705.855153
-35668030.456309
-35673488.557464
-36189571.676329
-36195193.277485
-36200770.878640
-36206190.979796
-36211726.580952
-36217225.182108
-36222564.783263
-36227964.884419
-36233259.985575
SCALARS stress_2 float
LOOKUP_TABLE default
445647.051168
-5795794.489109
-5704550.869856
-5612411.250602
-5520207.631349
-5426596.012095
-5333560.392842
-5239756.773588
-5145569.154335
-5050997.535081
-4956297.915828
-4861022.296575
-4766130.677321
-4669703.058068
-4574427.438814
-4477615.819561
-4381572.200307
-4284952.581054
-4188268.961800
-4092097.342547
-3994773.723293
-3898794.104040
-3801918.484786
-3704786.865533
-3608423.246280
-3511675.627026
-3416016.007773
-3319396.388519
-3223096.769266
-3127309.150012
-3032097.530759
-2938101.911505
-2843274.292252
-2749278.672998
-2655091.053745
-2562311.434492
-2469147.815238
-2377776.195985
-2287044.576731
-2195800.957478
-2106029.338224
-2016961.718971
-1929238.099717
-1841642.480464
-1754942.861210
-1670035.241957
-1585383.622703
-1502076.003450
-1420112.384197
-1339108.764943
-1259321.145690
-1181133.526436
-1102753.907183
-1027318.287929
-952650.668676
-880031.049422
-807155.430169
-736903.810915
-668444.191662
-600560.572409
-534596.953155
-471001.333902
-408237.714648
-347010.095395
-287254.476141
-230826.856888
-175039.237634
-120915.618381
-68583.999127
-18300.379874
30255.239380
77722.858633
121798.477886
165234.097140
207325.716393
246537.335647
283828.954900
319520.574154
354700.193407
386807.812661
417379.431914
-5171688.824716
898168.715560
874829.096307
850913.477053
824501.857800
796682.238546
766430.619293
734771.000039
700679.380786
664539.761532
626160.142279
587204.523026
545624.903772
502445.284519
456897.665265
409494.046012
360618.426758
309694.807505
257043.188251
201767.568998
145851.949744
87376.330491
27748.711238
-34246.908016
-98162.527269
-162782.146523
-229449.765776
-297461.385030
-367329.004283
-438604.623537
-511288.242790
-585379.862044
-660943.481297
-738299.100551
-815782.719804
-896466.339057
-977213.958311
-1058409.577564
-1141845.196818
-1225728.816071
-1310508.435325
-1397656.054578
-1484483.673832
-1572719.293085
-1660698.912339
-1750982.531592
-1841650.150845
-1932637.770099
-2024521.389352
-2116917.008606
-2209888.627859
-2303500.247113
-2397495.866366
-2492963.485620
-2587087.104873
-2682810.724127
-2778150.343380
-2873617.962634
-2970237.581887
-3066921.201140
-3163156.820394
-3259968.439647
-3357100.058901
-3453591.678154
-3550019.297408
-3647278.916661
-3744282.535915
-3840966.155168
-3937905.774422
-4034653.393675
-4130441.012928
-4226676.632182
-4322720.251435
-4417931.870689
-4513143.489942
-4608035.109196
-4703054.728449
-4798074.347703
-4891877.966956
-4985873.586210
-5078781.205463
-5233414.591156
-5296228.357595
-5358850.124034
-5421279.890474
-5483389.656913
-5546523.423352
-5608825.189791
-5670806.956231
-5733108.722670
491628.817607
536906.584046
582632.350485
627590.116925
673251.883364
718145.649803
763167.416242
808829.182682
852762.949121
830639.329867
784657.563428
739123.796989
693270.030550
647544.264110
601178.497671
555580.731232
510110.964793
463233.198353
804739.710614
758501.944175
712648.177735
666154.411296
619596.644857
573230.878418
526993.111978
480563.345539
433621.579100
778264.091361
731514.324921
684188.558482
638014.792043
590561.025603
543235.259164
496805.492725
448967.726286
401577.959846
748972.472107
702414.705668
654448.939229
607571.172789
559925.406350
512087.639911
463801.873471
416604.107032
368382.340593
718464.852854
670627.086414
622341.319975
574823.553536
525897.787097
477996.020657
429710.254218
381424.487779
332882.721340
685397.233600
637431.467161
589209.700722
540731.934282
491486.167843
442688.401404
393698.634965
344964.868525
296039.102086
651113.614347
602827.847907
553774.081468
504272.315029
454706.548590
405268.782150
355767.015711
305945.249272
256763.482833
615357.995093
565600.228654
516162.462215
465444.695775
416646.929336
366377.162897
315979.396458
266221.630018
215695.863579
577106.375840
526964.609401
476630.842961
426361.076522
376091.310083
325309.543643
274655.777204
223554.010765
172708.244326
536742.756586
486216.990147
435499.223708
384525.457269
333615.690829
282769.924390
231604.157951
180182.391511
128632.625072
494587.137333
443805.370894
392063.604454
340577.838015
289092.071576
237350.305137
185672.538697
133930.772258
82765.005819
450703.518079
398961.751640
347475.985201
295414.218762
243416.452322
190650.685883
138204.919444
86399.153005
33761.386565
405219.898826
352390.132387
300392.365947
247370.599508
195308.833069
142671.066630
89905.300190
36883.533751
-15434.232688
356856.279572
304666.513133
251644.746694
198814.980255
145729.213815
92323.447376
38917.680937
-13720.085502
-67573.851942
307724.660319
253870.893880
200913.127440
147571.361001
94421.594562
40247.828123
-13797.938317
-67523.704756
-121313.471195
255841.041066
202371.274626
148325.508187
93703.741748
40937.975309
-13043.791131
-67537.557570
-122031.324009
-176717.090449
203061.421812
148375.655373
93753.888934
39964.122494
-14145.643945
-69343.410384
-123901.176823
-178522.943263
-233272.709702
148041.802559
92652.036119
37838.269680
-16527.496759
-72045.263198
-126347.029638
-181352.796077
-237254.562516
-292004.328955
90462.183305
35520.416866
-19229.349573
-75195.116013
-129816.882452
-185974.648891
-241044.415330
-296818.181770
-352399.948209
32306.564052
-23531.202388
-79368.968827
-134822.735266
-190468.501705
-246946.268145
-302144.034584
-358621.801023
-414395.567462
-28665.055202
-83798.821641
-140020.588080
-197394.354520
-253104.120959
-308685.887398
-365099.653837
-421513.420277
-478439.186716
-90596.674455
-146882.440894
-203360.207334
-259517.973773
-316251.740212
-373241.506651
-429143.273091
-486709.039530
-543634.805969
-154064.293709
-211182.060148
-267979.826587
-324905.593026
-382279.359466
-438245.125905
-495746.892344
-553056.658783
-610942.425223
-219323.912962
-277273.679401
-334455.445841
-391125.212280
-449010.978719
-506896.745158
-564142.511598
-621260.278037
-679338.044476
-287079.532216
-343685.298655
-401507.065094
-459840.831533
-517150.597973
-575036.364412
-633178.130851
-690743.897290
-749461.663730
-354963.151469
-413296.917908
-471438.684348
-528940.450787
-587146.217226
-645479.983665
-703749.750105
-762019.516544
-820673.282983
-425214.770722
-483420.537162
-542138.303601
-600792.070040
-658933.836480
-717971.602919
-776433.369358
-834767.135797
-893740.902237
-496874.389976
-555720.156415
-614181.922854
-672707.689294
-731489.455733
-790527.222172
-849820.988611
-908474.755051
-967704.521490
-570134.009229
-629427.775669
-688017.542108
-746991.308547
-806093.074986
-865578.841426
-924488.607865
-984166.374304
-1044164.140743
-644353.628483
-703711.394922
-762557.161361
-822490.927801
-882040.694240
-942102.460679
-1001268.227118
-1061201.993558
-1120495.759997
-720685.247736
-780491.014176
-839336.780615
-899206.547054
-959396.313493
-1018946.079933
-1079327.846372
-1138877.612811
-1198747.379250
-797848.866990
-857334.633429
-917716.399868
-977522.166308
-1037135.932747
-1097645.699186
-1158475.465625
-1218537.232065
-1278726.998504
-877188.486243
-936418.252682
-997056.019122
-1056861.785561
-1117307.552000
-1177497.318440
-1238455.084879
-1299156.851318
-1358962.617757
-955952.105497
-1015885.871936
-1077163.638375
-1137545.404814
-1197351.171254
-1259076.937693
-1319458.704132
-1380480.470572
-1441566.237011
-1037787.724750
-1097401.491189
-1158871.257629
-1219509.024068
-1280274.790507
-1341296.556946
-1402062.323386
-1463340.089825
-1523657.856264
-1119367.344004
-1180453.110443
-1241538.876882
-1302560.643321
-1363198.409761
-1424412.176200
-1486073.942639
-1547415.709078
-1608117.475518
-1202546.963257
-1263696.729696
-1324846.496136
-1386316.262575
-1447594.029014
-1509447.795453
-1570981.561893
-1631939.328332
-1693793.094771
-1286942.582511
-1348156.348950
-1410266.115389
-1471159.881828
-1533077.648268
-1594483.414707
-1656849.181146
-1718702.947585
-1780364.714025
-1372490.201764
-1433767.968203
-1495877.734642
-1557219.501082
-1619457.267521
-1681631.033960
-1742972.800400
-1804314.566839
-1867192.333278
-1458741.821017
-1520979.587457
-1582257.353896
-1644879.120335
-1706924.886774
-1768458.653214
-1830248.419653
-1893062.186092
-1954979.952532
-1546465.440271
-1607999.206710
-1670108.973149
-1732474.739589
-1794648.506028
-1856438.272467
-1918740.038906
-1981105.805346
-2043855.571785
-1634637.059524
-1696554.825964
-1758408.592403
-1821222.358842
-1883588.125281
-1945889.891721
-2008895.658160
-2071197.424599
-2133563.191038
-1723256.678778
-1785622.445217
-1847796.211656
-1910801.978096
-1973871.744535
-2035725.510974
-2098923.277413
-2161417.043853
-2223846.810292
-1813796.298031
-1876162.064471
-1938591.830910
-2001149.597349
-2063899.363788
-2125817.130228
-2189334.896667
-2252148.663106
-2315154.429545
-1904079.917285
-1966701.683724
-2029323.450163
-2092521.216603
-2154758.983042
-2218020.749481
-2280962.515920
-2343520.282360
-2406846.048799
-1995131.536538
-2057881.302977
-2120823.069417
-2183700.835856
-2247154.602295
-2309840.368734
-2372398.135174
-2435659.901613
-2498729.668052
-2086887.155792
-2150916.922231
-2212898.688670
-2276672.455109
-2339358.221549
-2402619.987988
-2465433.754427
-2528503.520866
-2591829.287306
-2180178.775045
-2243312.541484
-2306126.307924
-2369132.074363
-2432265.840802
-2495591.607241
-2559301.373681
-2621731.140120
-2685824.906559
-2273278.394299
-2336668.160738
-2399289.927177
-2463255.693616
-2525941.460056
-2589395.226495
-2652848.992934
-2715918.759373
-2779244.525813
-2367530.013552
-2429831.779991
-2493221.546431
-2556803.312870
-2620321.079309
-2683582.845748
-2747228.612188
-2810554.378627
-2874584.145066
-2461589.632805
-2523891.399245
-2587985.165684
-2650862.932123
-2714636.698563
-2778794.465002
-2841864.231441
-2905253.997880
-2969027.764320
-2555521.252059
-2618975.018498
-2682748.784937
-2746138.551377
-2809848.317816
-2873302.084255
-2936499.850694
-3000209.617134
-3064431.383573
-2650732.871312
-2714378.637752
-2777704.404191
-2841542.170630
-2904547.937069
-2968961.703509
-3032415.469948
-3095997.236387
-3159963.002826
-2746008.490566
-2808758.257005
-2872788.023444
-2936753.789884
-3000399.556323
-3064429.322762
-3128267.089201
-3191400.855641
-3255814.622080
-2841924.109819
-2905377.876259
-2968639.642698
-3032093.409137
-3096507.175576
-3160280.942016
-3223862.708455
-3287700.474894
-3351346.241333
-2938031.729073
-3001421.495512
-3065707.261951
-3128329.028391
-3191718.794830
-3256644.561269
-3320610.327708
-3384128.094148
-3448157.860587
-3033755.348326
-3097849.114765
-3161238.881205
-3225076.647644
-3288914.414083
-3352176.180523
-3416909.946962
-3480427.713401
-3544137.479840
-3130246.967580
-3193636.734019
-3257666.500458
-3321760.266897
-3385598.033337
-3449051.799776
-3512953.566215
-3577175.332654
-3641141.099094
-3226930.586833
-3290960.353272
-3354862.119712
-3417867.886151
-3481513.652590
-3546055.419029
-3610277.185469
-3673922.951908
-3737696.718347
-3323614.206087
-3387259.972526
-3450841.738965
-3514807.505404
-3578709.271844
-3642931.038283
-3707280.804722
-3770478.571161
-3834508.337601
-3420297.825340
-3483815.591779
-3547397.358219
-3611235.124658
-3675392.891097
-3739358.657536
-3803900.423976
-3867674.190415
-3930935.956854
-3517301.444594
-3581139.211033
-3644784.977472
-3708174.743911
-3772396.510351
-3836234.276790
-3900456.043229
-3963909.809668
-4028067.576108
-3614817.063847
-3677822.830286
-3741788.596725
-3805306.363165
-3869400.129604
-3932469.896043
-3996435.662483
-4060785.428922
-4124047.195361
-3711372.683100
-3774442.449540
-3838664.215979
-3902053.982418
-3965955.748857
-4029217.515297
-4093439.281736
-4157277.048175
-4221306.814615
-3807544.302354
-3871702.068793
-3935027.835232
-3998801.601672
-4062575.368111
-4126285.134550
-4189802.900989
-4253512.667429
-4317862.433868
-3904291.921607
-3968129.688047
-4032095.454486
-4095613.220925
-4159258.987364
-4223224.753804
-4286486.520243
-4350388.286682
-4414418.053121
-4001359.540861
-4064877.307300
-4128011.073739
-4192040.840179
-4255430.606618
-4318948.373057
-4382978.139496
-4446367.905936
-4510141.672375
-4097595.160114
-4161368.926554
-4224822.692993
-4288340.459432
-4351474.225871
-4415503.992311
-4478957.758750
-4542475.525189
-4605929.291628
-4193574.779368
-4257284.545807
-4320546.312246
-4384512.078685
-4447453.845125
-4511739.611564
-4575449.378003
-4638263.144443
-4702228.910882
-4289554.398621
-4353008.165060
-4416333.931500
-4480427.697939
-4543753.464378
-4607207.230817
-4670660.997257
-4734178.763696
-4798144.530135
-4385406.017875
-4448987.784314
-4512313.550753
-4575447.317192
-4639413.083632
-4702546.850071
-4766576.616510
-4829134.382949
-4892204.149389
-4480489.637128
-4544455.403567
-4608037.170007
-4670914.936446
-4735008.702885
-4797310.469324
-4861276.235764
-4924154.002203
-4987607.768642
-4576533.256382
-4639475.022821
-4702672.789260
-4766062.555699
-4829644.322139
-4893098.088578
-4955463.855017
-5019365.621456
-5082691.387896
-4671488.875635
-4734494.642074
-4797564.408514
-4860890.174953
-4924087.941392
-4987093.707831
-5050227.474271
-5113233.240710
-5176495.007149
-4766060.494888
-4829450.261328
-4892200.027767
-4955845.794206
-5017763.560646
-5081665.327085
-5143967.093524
-5207100.859963
-5270042.626403
-4859992.114142
-4923701.880581
-4986515.647020
-5049649.413460
-5112143.179899
-5175468.946338
-5237514.712777
-5301032.479217
-5364678.245656
-4954371.733395
-5016993.499835
-5079551.266274
-5143005.032713
-5205498.799152
-5269144.565592
-5331830.332031
-5394324.098470
-5457393.864909
-5047855.352649
-5110477.119088
-5173162.885527
-5235400.651967
-5299366.418406
-5361732.184845
-5424289.951284
-5487231.717724
-5549597.484163
-5141466.971902
-5203448.738342
-5266518.504781
-5328884.271220
-5391378.037659
-5454127.804099
-5516621.570538
-5579499.336977
-5642057.103416
SCALARS stress_3 float
LOOKUP_TABLE default
159658.462438
10543008.505671
10394006.830131
10245037.154590
10093907.479050
9942921.803510
9790592.127969
9637990.452429
9484508.776888
9330691.101348
9176473.425807
9020703.750267
8864918.074727
8709036.399186
8551938.723646
8395241.048105
8237567.372565
8079637.697024
7921772.021484
7763650.345944
7605192.670403
7446846.994863
7288101.319322
7129339.643782
6970881.968242
6812520.292701
6654318.617161
6496468.941620
6338331.266080
6181233.590539
6024087.914999
5867454.239459
5711828.563918
5556554.888378
5402001.212837
5247575.537297
5094797.861756
4942532.186216
4791514.510676
4641072.835135
4492247.159595
4344589.484054
4197427.808514
4052314.132974
3908880.457433
3766102.781893
3625117.106352
3485891.430812
3348585.755271
3212672.079731
3078902.404191
2947116.728650
2816931.053110
2688873.377569
2563663.702029
2439382.026488
2317996.350948
2199362.675408
2082664.999867
1968127.324327
1856773.648786
1747499.973246
1640834.297706
1536920.622165
1435518.946625
1337109.271084
1241627.595544
1148545.920003
1058216.244463
971566.568923
887668.893382
806219.217842
728033.542301
652855.866761
580862.191220
511284.515680
445226.840140
382241.164599
321799.489059
264269.813518
210340.137978
10280791.860356
-85646.182877
-36164.507337
15685.168203
71118.843744
129304.519284
190802.194825
255227.870365
322341.545905
393183.221446
466904.896986
543074.572527
622540.248067
705461.923608
791455.599148
880009.274688
971826.950229
1065676.625769
1162838.301310
1263247.976850
1365721.652391
1471651.327931
1579837.003471
1690486.679012
1804176.354552
1919722.030093
2038115.705633
2158605.381173
2281975.056714
2407056.732254
2534522.407795
2663860.083335
2795677.758876
2929143.434416
3064785.109956
3201674.785497
3340564.461037
3481070.136578
3623655.812118
3767121.487659
3912139.163199
4059028.838739
4207134.514280
4356104.189820
4506369.865361
4657483.540901
4809877.216441
4963182.891982
5117240.567522
5272370.243063
5427915.918603
5584053.594144
5741247.269684
5898168.945224
6056226.620765
6214428.296305
6373269.971846
6531727.647386
6691081.322927
6849858.998467
7009308.674007
7168278.349548
7327536.025088
7486537.700629
7645907.376169
7804541.051709
7962662.727250
8121072.402790
8278730.078331
8436387.753871
8593085.429412
8749959.104952
8905920.780492
9061418.456033
9216388.131573
9370733.807114
9524439.482654
9676737.158195
9828890.833735
9980308.509275
10130574.184816
10306829.524888
10333475.189419
10359592.853951
10385886.518482
10411924.183014
10438681.847545
10464527.512077
10490997.176608
10516970.841140
134484.797906
109391.133375
84633.468843
60227.804312
35182.139780
11096.475249
-13069.189283
-37554.853814
-61512.518346
-11982.842806
12070.821726
36700.486257
60770.150789
85575.815320
110173.479852
134835.144383
160248.808915
185390.473446
39786.832735
64800.497266
89206.161798
113723.826329
138513.490861
163703.155392
188668.819924
213746.484455
239144.148987
95684.508275
120042.172807
145087.837338
169717.501870
194635.166401
219808.830933
245398.495464
270700.159996
296257.824527
154030.183816
178915.848347
203497.512879
228895.177410
254004.841942
279386.506473
304736.171005
330821.835536
356107.500068
215415.859356
240493.523888
265267.188419
290840.852951
316142.517482
342052.182014
367177.846545
392975.511077
418869.175608
280129.534897
305079.199428
330748.863960
356050.528491
381320.193023
406989.857554
432787.522086
458777.186617
485054.851149
347819.210437
372832.874968
398166.539500
424524.204031
449873.868563
475895.533094
501757.197626
528098.862157
554072.526689
418244.885977
443882.550509
469712.215040
495221.879572
521515.544103
547473.208635
573622.873166
599916.537698
626082.202229
492190.561518
517668.226049
543769.890581
569471.555112
595845.219644
621882.884175
648416.548707
674950.213238
701419.877770
568952.237058
594797.901590
620611.566121
647065.230653
673214.895184
699588.559716
725626.224247
752607.888779
779157.553310
648545.912599
674935.577130
700941.241662
727298.906193
753480.570725
779806.235256
806659.899788
833369.564319
860367.228851
731723.588139
757889.252671
784038.917202
810700.581734
836882.246265
863927.910797
890269.575328
917379.239860
944664.904391
817429.263680
843738.928211
870128.592743
896806.257274
923147.921806
950337.586337
976967.250869
1004220.915400
1031442.579932
906238.939220
932612.603751
959482.268283
985647.932814
1012341.597346
1039787.261877
1066848.926409
1093814.590940
1121196.255472
998072.614760
1024254.279292
1051219.943823
1077577.608355
1104975.272886
1131796.937418
1159338.601949
1186880.266481
1214117.931012
1092370.290301
1119063.954832
1146013.619364
1172851.283895
1199912.948427
1227502.612958
1254500.277490
1281977.942021
1309711.606553
1190091.965841
1216721.630373
1243655.294904
1270684.959436
1297698.623967
1325336.288499
1352621.953030
1380067.617562
1408041.282093
1289861.641382
1316987.305913
1343840.970445
1371318.634976
1398620.299508
1425905.964039
1453719.628571
1481341.293102
1508642.957634
1392927.316922
1420004.981454
1447226.645985
1474624.310517
1502005.975048
1529323.639580
1556897.304111
1584998.968643
1612908.633174
1498904.992462
1525998.656994
1552868.321525
1580697.986057
1608447.650588
1635733.315120
1663162.979651
1690976.644183
1719238.308714
1607074.668003
1634312.332534
1661645.997066
1688787.661597
1716713.326129
1744654.990660
1772276.655192
1800570.319723
1828527.984255
1718012.343543
1745378.008075
1772695.672606
1800205.337138
1828195.001669
1855608.666201
1884030.330732
1911907.995264
1939993.659795
1831414.019084
1858843.683615
1886561.348147
1913831.012678
1942012.677210
1969890.341741
1998120.006273
2025949.670804
2054115.335336
1947295.694624
1974901.359156
2002379.023687
2030304.688219
2058166.352750
2085884.017282
2114481.681813
2142455.346345
2170557.010876
2065433.370165
2093135.034696
2120964.699228
2148890.363759
2176832.028291
2204885.692822
2233275.357354
2261425.021885
2289798.686417
2186291.045705
2213992.710236
2241950.374768
2270004.039299
2297737.703831
2326047.368362
2354453.032894
2382746.697425
2411408.361957
2309676.721245
2337266.385777
2364936.050308
2393117.714840
2421491.379371
2449769.043903
2477950.708434
2506212.372966
2534554.037497
2434790.396786
2462508.061317
2490657.725849
2518727.390380
2546877.054912
2574898.719443
2602968.383975
2631630.048506
2660307.713038
2562128.072326
2590469.736858
2618043.401389
2646577.065921
2674694.730452
2703020.394984
2731138.059515
2759975.724047
2788301.388578
2691881.747867
2719791.412398
2747925.076930
2775882.741461
2804176.405993
2832502.070524
2861019.735056
2889617.399587
2918039.064119
2823267.423407
2851513.087939
2879470.752470
2907684.417002
2935786.081533
2964367.746065
2992789.410596
3021547.075128
3050032.739659
2956989.098948
2984882.763479
3013288.428011
3041774.092542
3069731.757074
3098761.421605
3126799.086137
3155156.750668
3183946.415200
3092390.774488
3120332.439019
3148146.103551
3176935.768082
3205357.432614
3233891.097145
3262344.761677
3291038.426208
3319588.090740
3229872.450028
3257718.114560
3285947.779091
3314305.443623
3342743.108154
3371596.772686
3399714.437217
3428424.101749
3457485.766280
3368650.125569
3396687.790100
3425237.454632
3453307.119163
3481568.783695
3510022.448226
3539132.112758
3567905.777289
3596471.441821
3509107.801109
3537417.465641
3565567.130172
3593892.794704
3622682.459235
3651136.123767
3679893.788298
3708843.452830
3736961.117361
3651629.476650
3679587.141181
3708408.805713
3736542.470244
3765092.134776
3793241.799307
3821967.463839
3850709.128370
3879546.792902
3795431.152190
3823788.816722
3852018.481253
3880232.145785
3909149.810316
3937251.474848
3966281.139379
3994558.803911
4023092.468442
3940496.827730
3968870.492262
3997004.156793
4025329.821325
4054151.485856
4082893.150388
4111138.814919
4139752.479451
4168862.143982
4086906.503271
4115536.167802
4143877.832334
4172187.496865
4200561.161397
4229302.825928
4257868.490460
4286626.154991
4315175.819523
4235060.178811
4263305.843343
4291951.507874
4320117.172406
4348586.836937
4377424.501469
4406022.166000
4434619.830532
4463265.495063
4384221.854352
4412931.518883
4440649.183415
4469374.847946
4497508.512478
4526058.177009
4554799.841541
4583637.506072
4612475.170604
4534215.529892
4562749.194424
4591202.858955
4619448.523487
4648062.188018
4676595.852550
4705097.517081
4733823.181613
4762436.846144
4685985.205433
4713718.869964
4742204.534496
4771138.199027
4799351.863559
4827757.528090
4856499.192622
4885112.857153
4913934.521685
4838042.880973
4866256.545504
4894662.210036
4922939.874567
4951537.539099
4980071.203630
5008764.868162
5037234.532693
5065816.197225
4991444.556513
5019754.221045
5048143.885576
5076453.550108
5105019.214639
5133280.879171
5162134.543702
5190508.208234
5218737.872765
5145678.232054
5173667.896585
5201993.561117
5230559.225648
5258948.890180
5287786.554711
5315536.219243
5344293.883774
5372747.548306
5300343.907594
5328781.572126
5357139.236657
5385336.901189
5413598.565720
5442228.230252
5470681.894783
5499407.559315
5527813.223846
5455857.583135
5484615.247666
5512508.912198
5540738.576729
5569064.241261
5597757.905792
5626227.570324
5654697.234855
5683038.899387
5612379.258675
5640896.923207
5668726.587738
5697084.252270
5725473.916801
5753559.581333
5782077.245864
5810562.910396
5838984.574927
5768868.934216
5797034.598747
5825392.263279
5853573.927810
5882235.592342
5910417.256873
5938822.921405
5967340.585936
5995490.250468
5926606.609756
5954628.274287
5982825.938819
6010863.603350
6039429.267882
6067466.932413
6095664.596945
6124326.261476
6152347.926008
6084440.285296
6112253.949828
6140899.614359
6168601.278891
6196750.943422
6224868.607954
6253322.272485
6281391.937017
6309829.601548
6242625.960837
6270711.625368
6299101.289900
6326530.954431
6355096.618963
6383150.283494
6411171.948026
6439641.612557
6467871.277089
6400891.636377
6428817.300909
6456934.965440
6484988.629972
6513138.294503
6541319.959035
6569437.623566
6597427.288098
6625896.952629
6559349.311918
6587690.976449
6615376.640981
6643718.305512
6672011.970044
6700001.634575
6728023.299107
6755900.963638
6783922.628170
6718478.987458
6746788.651990
6774618.316521
6802655.981053
6830533.645584
6858459.310116
6886544.974647
6914230.639179
6942700.303710
6877832.662998
6905614.327530
6933251.992061
6961561.656593
6989391.321124
7017108.985656
7045658.650187
7073120.314719
7101749.979250
7036994.338539
7064712.003070
7092589.667602
7120419.332133
7148168.996665
7176302.661196
7204244.325728
7232233.990259
7259871.654791
7195996.014079
7223969.678611
7251511.343142
7279533.007674
7307250.672205
7335240.336737
7363006.001268
7390771.665800
7418665.330331
7355237.689620
7383051.354151
7410705.018683
7438214.683214
7465932.347746
7493522.012277
7521463.676809
7549565.341340
7577475.005872
7514399.365160
7542021.029692
7569274.694223
7597424.358755
7625414.023286
7652891.687818
7680369.352349
7707799.016881
7735852.681412
7673337.040701
7700766.705232
7728484.369764
7755722.034295
7783103.698827
7811093.363358
7838699.027890
7866528.692421
7894102.356953
7831602.716241
7859336.380772
7886670.045304
7914403.709835
7941769.374367
7969615.038898
7997268.703430
8024506.367961
8052640.032493
7990268.391781
8017682.056313
8045239.720844
8072333.385376
8099971.049907
8127704.714439
8155502.378970
8182820.043502
8209993.708033
8148358.067322
8175467.731853
8202865.396385
8230215.060916
8257676.725448
8285250.389979
8312872.054511
8340173.719042
8367635.383574
8306255.742862
8333317.407394
8361099.071925
8388080.736457
8415558.400988
8442796.065520
8470625.730051
8497447.394583
8524685.059114
8463721.418403
8490879.082934
8518148.747466
8545034.411997
8572368.076529
8599653.741060
8626891.405592
8654465.070123
8681686.734655
8620339.093943
8647528.758475
8674766.423006
8702324.087538
8728969.752069
8756447.416601
8783429.081132
8810506.745664
8837696.410195
8777244.769484
8804146.434015
8831160.098547
8858493.763078
8885379.427610
8912665.092141
8939502.756673
8966964.421204
8993594.085736
8933094.445024
8959676.109555
8986705.774087
9013895.438618
9041181.103150
9068210.767681
9094728.432213
9122270.096744
9149011.761276
9088768.120564
9115301.785096
9142123.449627
9168833.114159
9195702.778690
9222812.443222
9250098.107753
9276775.772285
9303725.436816
9242777.796105
9269919.460636
9296949.125168
9323994.789699
9350304.454231
9377286.118762
9404331.783294
9431073.447825
9457655.112357
9397267.471645
9424073.136177
9450974.800708
9477332.465240
9504330.129771
9531007.794303
9557877.458834
9584859.123366
9611328.787897
9550781.147186
9577490.811717
9604360.476249
9630958.140780
9657427.805312
9684169.469843
9710463.134375
9737556.798906
9764074.463438
9703238.822726
9729820.487258
9756738.151789
9783655.816321
9809901.480852
9836659.145384
9862776.809915
9889614.474447
9916356.138978
9855312.498266
9882166.162798
9908699.827329
9934977.491861
9961687.156392
9988428.820924
10014754.485455
10041224.149987
10067629.814518
10006666.173807
10033183.838338
10059621.502870
10086027.167401
10112640.831933
10139142.496464
10164892.160996
10191729.825527
10218055.490059
10157219.849347
10183513.513879
10210335.178410
10236628.842942
10262362.507473
10289040.172005
10315301.836536
10341851.501068
10367937.165599
