# vtk DataFile Version 2.0
Generated volume Mesh
ASCII
DATASET UNSTRUCTURED_GRID
POINTS 891 float
0.005000 0.100000 0.000000
0.005000 0.000000 0.000000
0.005000 0.001250 0.000000
0.005000 0.002500 0.000000
0.005000 0.003750 0.000000
0.005000 0.005000 0.000000
0.005000 0.006250 0.000000
0.005000 0.007500 0.000000
0.005000 0.008750 0.000000
0.005000 0.010000 0.000000
0.005000 0.011250 0.000000
0.005000 0.012500 0.000000
0.005000 0.013750 0.000000
0.005000 0.015000 0.000000
0.005000 0.016250 0.000000
0.005000 0.017500 0.000000
0.005000 0.018750 0.000000
0.005000 0.020000 0.000000
0.005000 0.021250 0.000000
0.005000 0.022500 0.000000
0.005000 0.023750 0.000000
0.005000 0.025000 0.000000
0.005000 0.026250 0.000000
0.005000 0.027500 0.000000
0.005000 0.028750 0.000000
0.005000 0.030000 0.000000
0.005000 0.031250 0.000000
0.005000 0.032500 0.000000
0.005000 0.033750 0.000000
0.005000 0.035000 0.000000
0.005000 0.036250 0.000000
0.005000 0.037500 0.000000
0.005000 0.038750 0.000000
0.005000 0.040000 0.000000
0.005000 0.041250 0.000000
0.005000 0.042500 0.000000
0.005000 0.043750 0.000000
0.005000 0.045000 0.000000
0.005000 0.046250 0.000000
0.005000 0.047500 0.000000
0.005000 0.048750 0.000000
0.005000 0.050000 0.000000
0.005000 0.051250 0.000000
0.005000 0.052500 0.000000
0.005000 0.053750 0.000000
0.005000 0.055000 0.000000
0.005000 0.056250 0.000000
0.005000 0.057500 0.000000
0.005000 0.058750 0.000000
0.005000 0.060000 0.000000
0.005000 0.061250 0.000000
0.005000 0.062500 0.000000
0.005000 0.063750 0.000000
0.005000 0.065000 0.000000
0.005000 0.066250 0.000000
0.005000 0.067500 0.000000
0.005000 0.068750 0.000000
0.005000 0.070000 0.000000
0.005000 0.071250 0.000000
0.005000 0.072500 0.000000
0.005000 0.073750 0.000000
0.005000 0.075000 0.000000
0.005000 0.076250 0.000000
0.005000 0.077500 0.000000
0.005000 0.078750 0.000000
0.005000 0.080000 0.000000
0.005000 0.081250 0.000000
0.005000 0.082500 0.000000
0.005000 0.083750 0.000000
0.005000 0.085000 0.000000
0.005000 0.086250 0.000000
0.005000 0.087500 0.000000
0.005000 0.088750 0.000000
0.005000 0.090000 0.000000
0.005000 0.091250 0.000000
0.005000 0.092500 0.000000
0.005000 0.093750 0.000000
0.005000 0.095000 0.000000
0.005000 0.096250 0.000000
0.005000 0.097500 0.000000
0.005000 0.098750 0.000000
0.000000 0.000000 0.000000
0.000000 0.100000 0.000000
0.000000 0.098750 0.000000
0.000000 0.097500 0.000000
0.000000 0.096250 0.000000
0.000000 0.095000 0.000000
0.000000 0.093750 0.000000
0.000000 0.092500 0.000000
0.000000 0.091250 0.000000
0.000000 0.090000 0.000000
0.000000 0.088750 0.000000
0.000000 0.087500 0.000000
0.000000 0.086250 0.000000
0.000000 0.085000 0.000000
0.000000 0.083750 0.000000
0.000000 0.082500 0.000000
0.000000 0.081250 0.000000
0.000000 0.080000 0.000000
0.000000 0.078750 0.000000
0.000000 0.077500 0.000000
0.000000 0.076250 0.000000
0.000000 0.075000 0.000000
0.000000 0.073750 0.000000
0.000000 0.072500 0.000000
0.000000 0.071250 0.000000
0.000000 0.070000 0.000000
0.000000 0.068750 0.000000
0.000000 0.067500 0.000000
0.000000 0.066250 0.000000
0.000000 0.065000 0.000000
0.000000 0.063750 0.000000
0.000000 0.062500 0.000000
0.000000 0.061250 0.000000
0.000000 0.060000 0.000000
0.000000 0.058750 0.000000
0.000000 0.057500 0.000000
0.000000 0.056250 0.000000
0.000000 0.055000 0.000000
0.000000 0.053750 0.000000
0.000000 0.052500 0.000000
0.000000 0.051250 0.000000
0.000000 0.050000 0.000000
0.000000 0.048750 0.000000
0.000000 0.047500 0.000000
0.000000 0.046250 0.000000
0.000000 0.045000 0.000000
0.000000 0.043750 0.000000
0.000000 0.042500 0.000000
0.000000 0.041250 0.000000
0.000000 0.040000 0.000000
0.000000 0.038750 0.000000
0.000000 0.037500 0.000000
0.000000 0.036250 0.000000
0.000000 0.035000 0.000000
0.000000 0.033750 0.000000
0.000000 0.032500 0.000000
0.000000 0.031250 0.000000
0.000000 0.030000 0.000000
0.000000 0.028750 0.000000
0.000000 0.027500 0.000000
0.000000 0.026250 0.000000
0.000000 0.025000 0.000000
0.000000 0.023750 0.000000
0.000000 0.022500 0.000000
0.000000 0.021250 0.000000
0.000000 0.020000 0.000000
0.000000 0.018750 0.000000
0.000000 0.017500 0.000000
0.000000 0.016250 0.000000
0.000000 0.015000 0.000000
0.000000 0.013750 0.000000
0.000000 0.012500 0.000000
0.000000 0.011250 0.000000
0.000000 0.010000 0.000000
0.000000 0.008750 0.000000
0.000000 0.007500 0.000000
0.000000 0.006250 0.000000
0.000000 0.005000 0.000000
0.000000 0.003750 0.000000
0.000000 0.002500 0.000000
0.000000 0.001250 0.000000
0.000500 0.000000 0.000000
0.001000 0.000000 0.000000
0.001500 0.000000 0.000000
0.002000 0.000000 0.000000
0.002500 0.000000 0.000000
0.003000 0.000000 0.000000
0.003500 0.000000 0.000000
0.004000 0.000000 0.000000
0.004500 0.000000 0.000000
0.004500 0.100000 0.000000
0.004000 0.100000 0.000000
0.003500 0.100000 0.000000
0.003000 0.100000 0.000000
0.002500 0.100000 0.000000
0.002000 0.100000 0.000000
0.001500 0.100000 0.000000
0.001000 0.100000 0.000000
0.000500 0.100000 0.000000
0.000500 0.098750 0.000000
0.001000 0.098750 0.000000
0.001500 0.098750 0.000000
0.002000 0.098750 0.000000
0.002500 0.098750 0.000000
0.003000 0.098750 0.000000
0.003500 0.098750 0.000000
0.004000 0.098750 0.000000
0.004500 0.098750 0.000000
0.000500 0.097500 0.000000
0.001000 0.097500 0.000000
0.001500 0.097500 0.000000
0.002000 0.097500 0.000000
0.002500 0.097500 0.000000
0.003000 0.097500 0.000000
0.003500 0.097500 0.000000
0.004000 0.097500 0.000000
0.004500 0.097500 0.000000
0.000500 0.096250 0.000000
0.001000 0.096250 0.000000
0.001500 0.096250 0.000000
0.002000 0.096250 0.000000
0.002500 0.096250 0.000000
0.003000 0.096250 0.000000
0.003500 0.096250 0.000000
0.004000 0.096250 0.000000
0.004500 0.096250 0.000000
0.000500 0.095000 0.000000
0.001000 0.095000 0.000000
0.001500 0.095000 0.000000
0.002000 0.095000 0.000000
0.002500 0.095000 0.000000
0.003000 0.095000 0.000000
0.003500 0.095000 0.000000
0.004000 0.095000 0.000000
0.004500 0.095000 0.000000
0.000500 0.093750 0.000000
0.001000 0.093750 0.000000
0.001500 0.093750 0.000000
0.002000 0.093750 0.000000
0.002500 0.093750 0.000000
0.003000 0.093750 0.000000
0.003500 0.093750 0.000000
0.004000 0.093750 0.000000
0.004500 0.093750 0.000000
0.000500 0.092500 0.000000
0.001000 0.092500 0.000000
0.001500 0.092500 0.000000
0.002000 0.092500 0.000000
0.002500 0.092500 0.000000
0.003000 0.092500 0.000000
0.003500 0.092500 0.000000
0.004000 0.092500 0.000000
0.004500 0.092500 0.000000
0.000500 0.091250 0.000000
0.001000 0.091250 0.000000
0.001500 0.091250 0.000000
0.002000 0.091250 0.000000
0.002500 0.091250 0.000000
0.003000 0.091250 0.000000
0.003500 0.091250 0.000000
0.004000 0.091250 0.000000
0.004500 0.091250 0.000000
0.000500 0.090000 0.000000
0.001000 0.090000 0.000000
0.001500 0.090000 0.000000
0.002000 0.090000 0.000000
0.002500 0.090000 0.000000
0.003000 0.090000 0.000000
0.003500 0.090000 0.000000
0.004000 0.090000 0.000000
0.004500 0.090000 0.000000
0.000500 0.088750 0.000000
0.001000 0.088750 0.000000
0.001500 0.088750 0.000000
0.002000 0.088750 0.000000
0.002500 0.088750 0.000000
0.003000 0.088750 0.000000
0.003500 0.088750 0.000000
0.004000 0.088750 0.000000
0.004500 0.088750 0.000000
0.000500 0.087500 0.000000
0.001000 0.087500 0.000000
0.001500 0.087500 0.000000
0.002000 0.087500 0.000000
0.002500 0.087500 0.000000
0.003000 0.087500 0.000000
0.003500 0.087500 0.000000
0.004000 0.087500 0.000000
0.004500 0.087500 0.000000
0.000500 0.086250 0.000000
0.001000 0.086250 0.000000
0.001500 0.086250 0.000000
0.002000 0.086250 0.000000
0.002500 0.086250 0.000000
0.003000 0.086250 0.000000
0.003500 0.086250 0.000000
0.004000 0.086250 0.000000
0.004500 0.086250 0.000000
0.000500 0.085000 0.000000
0.001000 0.085000 0.000000
0.001500 0.085000 0.000000
0.002000 0.085000 0.000000
0.002500 0.085000 0.000000
0.003000 0.085000 0.000000
0.003500 0.085000 0.000000
0.004000 0.085000 0.000000
0.004500 0.085000 0.000000
0.000500 0.083750 0.000000
0.001000 0.083750 0.000000
0.001500 0.083750 0.000000
0.002000 0.083750 0.000000
0.002500 0.083750 0.000000
0.003000 0.083750 0.000000
0.003500 0.083750 0.000000
0.004000 0.083750 0.000000
0.004500 0.083750 0.000000
0.000500 0.082500 0.000000
0.001000 0.082500 0.000000
0.001500 0.082500 0.000000
0.002000 0.082500 0.000000
0.002500 0.082500 0.000000
0.003000 0.082500 0.000000
0.003500 0.082500 0.000000
0.004000 0.082500 0.000000
0.004500 0.082500 0.000000
0.000500 0.081250 0.000000
0.001000 0.081250 0.000000
0.001500 0.081250 0.000000
0.002000 0.081250 0.000000
0.002500 0.081250 0.000000
0.003000 0.081250 0.000000
0.003500 0.081250 0.000000
0.004000 0.081250 0.000000
0.004500 0.081250 0.000000
0.000500 0.080000 0.000000
0.001000 0.080000 0.000000
0.001500 0.080000 0.000000
0.002000 0.080000 0.000000
0.002500 0.080000 0.000000
0.003000 0.080000 0.000000
0.003500 0.080000 0.000000
0.004000 0.080000 0.000000
0.004500 0.080000 0.000000
0.000500 0.078750 0.000000
0.001000 0.078750 0.000000
0.001500 0.078750 0.000000
0.002000 0.078750 0.000000
0.002500 0.078750 0.000000
0.003000 0.078750 0.000000
0.003500 0.078750 0.000000
0.004000 0.078750 0.000000
0.004500 0.078750 0.000000
0.000500 0.077500 0.000000
0.001000 0.077500 0.000000
0.001500 0.077500 0.000000
0.002000 0.077500 0.000000
0.002500 0.077500 0.000000
0.003000 0.077500 0.000000
0.003500 0.077500 0.000000
0.004000 0.077500 0.000000
0.004500 0.077500 0.000000
0.000500 0.076250 0.000000
0.001000 0.076250 0.000000
0.001500 0.076250 0.000000
0.002000 0.076250 0.000000
0.002500 0.076250 0.000000
0.003000 0.076250 0.000000
0.003500 0.076250 0.000000
0.004000 0.076250 0.000000
0.004500 0.076250 0.000000
0.000500 0.075000 0.000000
0.001000 0.075000 0.000000
0.001500 0.075000 0.000000
0.002000 0.075000 0.000000
0.002500 0.075000 0.000000
0.003000 0.075000 0.000000
0.003500 0.075000 0.000000
0.004000 0.075000 0.000000
0.004500 0.075000 0.000000
0.000500 0.073750 0.000000
0.001000 0.073750 0.000000
0.001500 0.073750 0.000000
0.002000 0.073750 0.000000
0.002500 0.073750 0.000000
0.003000 0.073750 0.000000
0.003500 0.073750 0.000000
0.004000 0.073750 0.000000
0.004500 0.073750 0.000000
0.000500 0.072500 0.000000
0.001000 0.072500 0.000000
0.001500 0.072500 0.000000
0.002000 0.072500 0.000000
0.002500 0.072500 0.000000
0.003000 0.072500 0.000000
0.003500 0.072500 0.000000
0.004000 0.072500 0.000000
0.004500 0.072500 0.000000
0.000500 0.071250 0.000000
0.001000 0.071250 0.000000
0.001500 0.071250 0.000000
0.002000 0.071250 0.000000
0.002500 0.071250 0.000000
0.003000 0.071250 0.000000
0.003500 0.071250 0.000000
0.004000 0.071250 0.000000
0.004500 0.071250 0.000000
0.000500 0.070000 0.000000
0.001000 0.070000 0.000000
0.001500 0.070000 0.000000
0.002000 0.070000 0.000000
0.002500 0.070000 0.000000
0.003000 0.070000 0.000000
0.003500 0.070000 0.000000
0.004000 0.070000 0.000000
0.004500 0.070000 0.000000
0.000500 0.068750 0.000000
0.001000 0.068750 0.000000
0.001500 0.068750 0.000000
0.002000 0.068750 0.000000
0.002500 0.068750 0.000000
0.003000 0.068750 0.000000
0.003500 0.068750 0.000000
0.004000 0.068750 0.000000
0.004500 0.068750 0.000000
0.000500 0.067500 0.000000
0.001000 0.067500 0.000000
0.001500 0.067500 0.000000
0.002000 0.067500 0.000000
0.002500 0.067500 0.000000
0.003000 0.067500 0.000000
0.003500 0.067500 0.000000
0.004000 0.067500 0.000000
0.004500 0.067500 0.000000
0.000500 0.066250 0.000000
0.001000 0.066250 0.000000
0.001500 0.066250 0.000000
0.002000 0.066250 0.000000
0.002500 0.066250 0.000000
0.003000 0.066250 0.000000
0.003500 0.066250 0.000000
0.004000 0.066250 0.000000
0.004500 0.066250 0.000000
0.000500 0.065000 0.000000
0.001000 0.065000 0.000000
0.001500 0.065000 0.000000
0.002000 0.065000 0.000000
0.002500 0.065000 0.000000
0.003000 0.065000 0.000000
0.003500 0.065000 0.000000
0.004000 0.065000 0.000000
0.004500 0.065000 0.000000
0.000500 0.063750 0.000000
0.001000 0.063750 0.000000
0.001500 0.063750 0.000000
0.002000 0.063750 0.000000
0.002500 0.063750 0.000000
0.003000 0.063750 0.000000
0.003500 0.063750 0.000000
0.004000 0.063750 0.000000
0.004500 0.063750 0.000000
0.000500 0.062500 0.000000
0.001000 0.062500 0.000000
0.001500 0.062500 0.000000
0.002000 0.062500 0.000000
0.002500 0.062500 0.000000
0.003000 0.062500 0.000000
0.003500 0.062500 0.000000
0.004000 0.062500 0.000000
0.004500 0.062500 0.000000
0.000500 0.061250 0.000000
0.001000 0.061250 0.000000
0.001500 0.061250 0.000000
0.002000 0.061250 0.000000
0.002500 0.061250 0.000000
0.003000 0.061250 0.000000
0.003500 0.061250 0.000000
0.004000 0.061250 0.000000
0.004500 0.061250 0.000000
0.000500 0.060000 0.000000
0.001000 0.060000 0.000000
0.001500 0.060000 0.000000
0.002000 0.060000 0.000000
0.002500 0.060000 0.000000
0.003000 0.060000 0.000000
0.003500 0.060000 0.000000
0.004000 0.060000 0.000000
0.004500 0.060000 0.000000
0.000500 0.058750 0.000000
0.001000 0.058750 0.000000
0.001500 0.058750 0.000000
0.002000 0.058750 0.000000
0.002500 0.058750 0.000000
0.003000 0.058750 0.000000
0.003500 0.058750 0.000000
0.004000 0.058750 0.000000
0.004500 0.058750 0.000000
0.000500 0.057500 0.000000
0.001000 0.057500 0.000000
0.001500 0.057500 0.000000
0.002000 0.057500 0.000000
0.002500 0.057500 0.000000
0.003000 0.057500 0.000000
0.003500 0.057500 0.000000
0.004000 0.057500 0.000000
0.004500 0.057500 0.000000
0.000500 0.056250 0.000000
0.001000 0.056250 0.000000
0.001500 0.056250 0.000000
0.002000 0.056250 0.000000
0.002500 0.056250 0.000000
0.003000 0.056250 0.000000
0.003500 0.056250 0.000000
0.004000 0.056250 0.000000
0.004500 0.056250 0.000000
0.000500 0.055000 0.000000
0.001000 0.055000 0.000000
0.001500 0.055000 0.000000
0.002000 0.055000 0.000000
0.002500 0.055000 0.000000
0.003000 0.055000 0.000000
0.003500 0.055000 0.000000
0.004000 0.055000 0.000000
0.004500 0.055000 0.000000
0.000500 0.053750 0.000000
0.001000 0.053750 0.000000
0.001500 0.053750 0.000000
0.002000 0.053750 0.000000
0.002500 0.053750 0.000000
0.003000 0.053750 0.000000
0.003500 0.053750 0.000000
0.004000 0.053750 0.000000
0.004500 0.053750 0.000000
0.000500 0.052500 0.000000
0.001000 0.052500 0.000000
0.001500 0.052500 0.000000
0.002000 0.052500 0.000000
0.002500 0.052500 0.000000
0.003000 0.052500 0.000000
0.003500 0.052500 0.000000
0.004000 0.052500 0.000000
0.004500 0.052500 0.000000
0.000500 0.051250 0.000000
0.001000 0.051250 0.000000
0.001500 0.051250 0.000000
0.002000 0.051250 0.000000
0.002500 0.051250 0.000000
0.003000 0.051250 0.000000
0.003500 0.051250 0.000000
0.004000 0.051250 0.000000
0.004500 0.051250 0.000000
0.000500 0.050000 0.000000
0.001000 0.050000 0.000000
0.001500 0.050000 0.000000
0.002000 0.050000 0.000000
0.002500 0.050000 0.000000
0.003000 0.050000 0.000000
0.003500 0.050000 0.000000
0.004000 0.050000 0.000000
0.004500 0.050000 0.000000
0.000500 0.048750 0.000000
0.001000 0.048750 0.000000
0.001500 0.048750 0.000000
0.002000 0.048750 0.000000
0.002500 0.048750 0.000000
0.003000 0.048750 0.000000
0.003500 0.048750 0.000000
0.004000 0.048750 0.000000
0.004500 0.048750 0.000000
0.000500 0.047500 0.000000
0.001000 0.047500 0.000000
0.001500 0.047500 0.000000
0.002000 0.047500 0.000000
0.002500 0.047500 0.000000
0.003000 0.047500 0.000000
0.003500 0.047500 0.000000
0.004000 0.047500 0.000000
0.004500 0.047500 0.000000
0.000500 0.046250 0.000000
0.001000 0.046250 0.000000
0.001500 0.046250 0.000000
0.002000 0.046250 0.000000
0.002500 0.046250 0.000000
0.003000 0.046250 0.000000
0.003500 0.046250 0.000000
0.004000 0.046250 0.000000
0.004500 0.046250 0.000000
0.000500 0.045000 0.000000
0.001000 0.045000 0.000000
0.001500 0.045000 0.000000
0.002000 0.045000 0.000000
0.002500 0.045000 0.000000
0.003000 0.045000 0.000000
0.003500 0.045000 0.000000
0.004000 0.045000 0.000000
0.004500 0.045000 0.000000
0.000500 0.043750 0.000000
0.001000 0.043750 0.000000
0.001500 0.043750 0.000000
0.002000 0.043750 0.000000
0.002500 0.043750 0.000000
0.003000 0.043750 0.000000
0.003500 0.043750 0.000000
0.004000 0.043750 0.000000
0.004500 0.043750 0.000000
0.000500 0.042500 0.000000
0.001000 0.042500 0.000000
0.001500 0.042500 0.000000
0.002000 0.042500 0.000000
0.002500 0.042500 0.000000
0.003000 0.042500 0.000000
0.003500 0.042500 0.000000
0.004000 0.042500 0.000000
0.004500 0.042500 0.000000
0.000500 0.041250 0.000000
0.001000 0.041250 0.000000
0.001500 0.041250 0.000000
0.002000 0.041250 0.000000
0.002500 0.041250 0.000000
0.003000 0.041250 0.000000
0.003500 0.041250 0.000000
0.004000 0.041250 0.000000
0.004500 0.041250 0.000000
0.000500 0.040000 0.000000
0.001000 0.040000 0.000000
0.001500 0.040000 0.000000
0.002000 0.040000 0.000000
0.002500 0.040000 0.000000
0.003000 0.040000 0.000000
0.003500 0.040000 0.000000
0.004000 0.040000 0.000000
0.004500 0.040000 0.000000
0.000500 0.038750 0.000000
0.001000 0.038750 0.000000
0.001500 0.038750 0.000000
0.002000 0.038750 0.000000
0.002500 0.038750 0.000000
0.003000 0.038750 0.000000
0.003500 0.038750 0.000000
0.004000 0.038750 0.000000
0.004500 0.038750 0.000000
0.000500 0.037500 0.000000
0.001000 0.037500 0.000000
0.001500 0.037500 0.000000
0.002000 0.037500 0.000000
0.002500 0.037500 0.000000
0.003000 0.037500 0.000000
0.003500 0.037500 0.000000
0.004000 0.037500 0.000000
0.004500 0.037500 0.000000
0.000500 0.036250 0.000000
0.001000 0.036250 0.000000
0.001500 0.036250 0.000000
0.002000 0.036250 0.000000
0.002500 0.036250 0.000000
0.003000 0.036250 0.000000
0.003500 0.036250 0.000000
0.004000 0.036250 0.000000
0.004500 0.036250 0.000000
0.000500 0.035000 0.000000
0.001000 0.035000 0.000000
0.001500 0.035000 0.000000
0.002000 0.035000 0.000000
0.002500 0.035000 0.000000
0.003000 0.035000 0.000000
0.003500 0.035000 0.000000
0.004000 0.035000 0.000000
0.004500 0.035000 0.000000
0.000500 0.033750 0.000000
0.001000 0.033750 0.000000
0.001500 0.033750 0.000000
0.002000 0.033750 0.000000
0.002500 0.033750 0.000000
0.003000 0.033750 0.000000
0.003500 0.033750 0.000000
0.004000 0.033750 0.000000
0.004500 0.033750 0.000000
0.000500 0.032500 0.000000
0.001000 0.032500 0.000000
0.001500 0.032500 0.000000
0.002000 0.032500 0.000000
0.002500 0.032500 0.000000
0.003000 0.032500 0.000000
0.003500 0.032500 0.000000
0.004000 0.032500 0.000000
0.004500 0.032500 0.000000
0.000500 0.031250 0.000000
0.001000 0.031250 0.000000
0.001500 0.031250 0.000000
0.002000 0.031250 0.000000
0.002500 0.031250 0.000000
0.003000 0.031250 0.000000
0.003500 0.031250 0.000000
0.004000 0.031250 0.000000
0.004500 0.031250 0.000000
0.000500 0.030000 0.000000
0.001000 0.030000 0.000000
0.001500 0.030000 0.000000
0.002000 0.030000 0.000000
0.002500 0.030000 0.000000
0.003000 0.030000 0.000000
0.003500 0.030000 0.000000
0.004000 0.030000 0.000000
0.004500 0.030000 0.000000
0.000500 0.028750 0.000000
0.001000 0.028750 0.000000
0.001500 0.028750 0.000000
0.002000 0.028750 0.000000
0.002500 0.028750 0.000000
0.003000 0.028750 0.000000
0.003500 0.028750 0.000000
0.004000 0.028750 0.000000
0.004500 0.028750 0.000000
0.000500 0.027500 0.000000
0.001000 0.027500 0.000000
0.001500 0.027500 0.000000
0.002000 0.027500 0.000000
0.002500 0.027500 0.000000
0.003000 0.027500 0.000000
0.003500 0.027500 0.000000
0.004000 0.027500 0.000000
0.004500 0.027500 0.000000
0.000500 0.026250 0.000000
0.001000 0.026250 0.000000
0.001500 0.026250 0.000000
0.002000 0.026250 0.000000
0.002500 0.026250 0.000000
0.003000 0.026250 0.000000
0.003500 0.026250 0.000000
0.004000 0.026250 0.000000
0.004500 0.026250 0.000000
0.000500 0.025000 0.000000
0.001000 0.025000 0.000000
0.001500 0.025000 0.000000
0.002000 0.025000 0.000000
0.002500 0.025000 0.000000
0.003000 0.025000 0.000000
0.003500 0.025000 0.000000
0.004000 0.025000 0.000000
0.004500 0.025000 0.000000
0.000500 0.023750 0.000000
0.001000 0.023750 0.000000
0.001500 0.023750 0.000000
0.002000 0.023750 0.000000
0.002500 0.023750 0.000000
0.003000 0.023750 0.000000
0.003500 0.023750 0.000000
0.004000 0.023750 0.000000
0.004500 0.023750 0.000000
0.000500 0.022500 0.000000
0.001000 0.022500 0.000000
0.001500 0.022500 0.000000
0.002000 0.022500 0.000000
0.002500 0.022500 0.000000
0.003000 0.022500 0.000000
0.003500 0.022500 0.000000
0.004000 0.022500 0.000000
0.004500 0.022500 0.000000
0.000500 0.021250 0.000000
0.001000 0.021250 0.000000
0.001500 0.021250 0.000000
0.002000 0.021250 0.000000
0.002500 0.021250 0.000000
0.003000 0.021250 0.000000
0.003500 0.021250 0.000000
0.004000 0.021250 0.000000
0.004500 0.021250 0.000000
0.000500 0.020000 0.000000
0.001000 0.020000 0.000000
0.001500 0.020000 0.000000
0.002000 0.020000 0.000000
0.002500 0.020000 0.000000
0.003000 0.020000 0.000000
0.003500 0.020000 0.000000
0.004000 0.020000 0.000000
0.004500 0.020000 0.000000
0.000500 0.018750 0.000000
0.001000 0.018750 0.000000
0.001500 0.018750 0.000000
0.002000 0.018750 0.000000
0.002500 0.018750 0.000000
0.003000 0.018750 0.000000
0.003500 0.018750 0.000000
0.004000 0.018750 0.000000
0.004500 0.018750 0.000000
0.000500 0.017500 0.000000
0.001000 0.017500 0.000000
0.001500 0.017500 0.000000
0.002000 0.017500 0.000000
0.002500 0.017500 0.000000
0.003000 0.017500 0.000000
0.003500 0.017500 0.000000
0.004000 0.017500 0.000000
0.004500 0.017500 0.000000
0.000500 0.016250 0.000000
0.001000 0.016250 0.000000
0.001500 0.016250 0.000000
0.002000 0.016250 0.000000
0.002500 0.016250 0.000000
0.003000 0.016250 0.000000
0.003500 0.016250 0.000000
0.004000 0.016250 0.000000
0.004500 0.016250 0.000000
0.000500 0.015000 0.000000
0.001000 0.015000 0.000000
0.001500 0.015000 0.000000
0.002000 0.015000 0.000000
0.002500 0.015000 0.000000
0.003000 0.015000 0.000000
0.003500 0.015000 0.000000
0.004000 0.015000 0.000000
0.004500 0.015000 0.000000
0.000500 0.013750 0.000000
0.001000 0.013750 0.000000
0.001500 0.013750 0.000000
0.002000 0.013750 0.000000
0.002500 0.013750 0.000000
0.003000 0.013750 0.000000
0.003500 0.013750 0.000000
0.004000 0.013750 0.000000
0.004500 0.013750 0.000000
0.000500 0.012500 0.000000
0.001000 0.012500 0.000000
0.001500 0.012500 0.000000
0.002000 0.012500 0.000000
0.002500 0.012500 0.000000
0.003000 0.012500 0.000000
0.003500 0.012500 0.000000
0.004000 0.012500 0.000000
0.004500 0.012500 0.000000
0.000500 0.011250 0.000000
0.001000 0.011250 0.000000
0.001500 0.011250 0.000000
0.002000 0.011250 0.000000
0.002500 0.011250 0.000000
0.003000 0.011250 0.000000
0.003500 0.011250 0.000000
0.004000 0.011250 0.000000
0.004500 0.011250 0.000000
0.000500 0.010000 0.000000
0.001000 0.010000 0.000000
0.001500 0.010000 0.000000
0.002000 0.010000 0.000000
0.002500 0.010000 0.000000
0.003000 0.010000 0.000000
0.003500 0.010000 0.000000
0.004000 0.010000 0.000000
0.004500 0.010000 0.000000
0.000500 0.008750 0.000000
0.001000 0.008750 0.000000
0.001500 0.008750 0.000000
0.002000 0.008750 0.000000
0.002500 0.008750 0.000000
0.003000 0.008750 0.000000
0.003500 0.008750 0.000000
0.004000 0.008750 0.000000
0.004500 0.008750 0.000000
0.000500 0.007500 0.000000
0.001000 0.007500 0.000000
0.001500 0.007500 0.000000
0.002000 0.007500 0.000000
0.002500 0.007500 0.000000
0.003000 0.007500 0.000000
0.003500 0.007500 0.000000
0.004000 0.007500 0.000000
0.004500 0.007500 0.000000
0.000500 0.006250 0.000000
0.001000 0.006250 0.000000
0.001500 0.006250 0.000000
0.002000 0.006250 0.000000
0.002500 0.006250 0.000000
0.003000 0.006250 0.000000
0.003500 0.006250 0.000000
0.004000 0.006250 0.000000
0.004500 0.006250 0.000000
0.000500 0.005000 0.000000
0.001000 0.005000 0.000000
0.001500 0.005000 0.000000
0.002000 0.005000 0.000000
0.002500 0.005000 0.000000
0.003000 0.005000 0.000000
0.003500 0.005000 0.000000
0.004000 0.005000 0.000000
0.004500 0.005000 0.000000
0.000500 0.003750 0.000000
0.001000 0.003750 0.000000
0.001500 0.003750 0.000000
0.002000 0.003750 0.000000
0.002500 0.003750 0.000000
0.003000 0.003750 0.000000
0.003500 0.003750 0.000000
0.004000 0.003750 0.000000
0.004500 0.003750 0.000000
0.000500 0.002500 0.000000
0.001000 0.002500 0.000000
0.001500 0.002500 0.000000
0.002000 0.002500 0.000000
0.002500 0.002500 0.000000
0.003000 0.002500 0.000000
0.003500 0.002500 0.000000
0.004000 0.002500 0.000000
0.004500 0.002500 0.000000
0.000500 0.001250 0.000000
0.001000 0.001250 0.000000
0.001500 0.001250 0.000000
0.002000 0.001250 0.000000
0.002500 0.001250 0.000000
0.003000 0.001250 0.000000
0.003500 0.001250 0.000000
0.004000 0.001250 0.000000
0.004500 0.001250 0.000000
CELLS 800 4000
4 82 83 180 179
4 179 180 181 178
4 178 181 182 177
4 177 182 183 176
4 176 183 184 175
4 175 184 185 174
4 174 185 186 173
4 173 186 187 172
4 172 187 188 171
4 171 188 80 0
4 83 84 189 180
4 180 189 190 181
4 181 190 191 182
4 182 191 192 183
4 183 192 193 184
4 184 193 194 185
4 185 194 195 186
4 186 195 196 187
4 187 196 197 188
4 188 197 79 80
4 84 85 198 189
4 189 198 199 190
4 190 199 200 191
4 191 200 201 192
4 192 201 202 193
4 193 202 203 194
4 194 203 204 195
4 195 204 205 196
4 196 205 206 197
4 197 206 78 79
4 85 86 207 198
4 198 207 208 199
4 199 208 209 200
4 200 209 210 201
4 201 210 211 202
4 202 211 212 203
4 203 212 213 204
4 204 213 214 205
4 205 214 215 206
4 206 215 77 78
4 86 87 216 207
4 207 216 217 208
4 208 217 218 209
4 209 218 219 210
4 210 219 220 211
4 211 220 221 212
4 212 221 222 213
4 213 222 223 214
4 214 223 224 215
4 215 224 76 77
4 87 88 225 216
4 216 225 226 217
4 217 226 227 218
4 218 227 228 219
4 219 228 229 220
4 220 229 230 221
4 221 230 231 222
4 222 231 232 223
4 223 232 233 224
4 224 233 75 76
4 88 89 234 225
4 225 234 235 226
4 226 235 236 227
4 227 236 237 228
4 228 237 238 229
4 229 238 239 230
4 230 239 240 231
4 231 240 241 232
4 232 241 242 233
4 233 242 74 75
4 89 90 243 234
4 234 243 244 235
4 235 244 245 236
4 236 245 246 237
4 237 246 247 238
4 238 247 248 239
4 239 248 249 240
4 240 249 250 241
4 241 250 251 242
4 242 251 73 74
4 90 91 252 243
4 243 252 253 244
4 244 253 254 245
4 245 254 255 246
4 246 255 256 247
4 247 256 257 248
4 248 257 258 249
4 249 258 259 250
4 250 259 260 251
4 251 260 72 73
4 91 92 261 252
4 252 261 262 253
4 253 262 263 254
4 254 263 264 255
4 255 264 265 256
4 256 265 266 257
4 257 266 267 258
4 258 267 268 259
4 259 268 269 260
4 260 269 71 72
4 92 93 270 261
4 261 270 271 262
4 262 271 272 263
4 263 272 273 264
4 264 273 274 265
4 265 274 275 266
4 266 275 276 267
4 267 276 277 268
4 268 277 278 269
4 269 278 70 71
4 93 94 279 270
4 270 279 280 271
4 271 280 281 272
4 272 281 282 273
4 273 282 283 274
4 274 283 284 275
4 275 284 285 276
4 276 285 286 277
4 277 286 287 278
4 278 287 69 70
4 94 95 288 279
4 279 288 289 280
4 280 289 290 281
4 281 290 291 282
4 282 291 292 283
4 283 292 293 284
4 284 293 294 285
4 285 294 295 286
4 286 295 296 287
4 287 296 68 69
4 95 96 297 288
4 288 297 298 289
4 289 298 299 290
4 290 299 300 291
4 291 300 301 292
4 292 301 302 293
4 293 302 303 294
4 294 303 304 295
4 295 304 305 296
4 296 305 67 68
4 96 97 306 297
4 297 306 307 298
4 298 307 308 299
4 299 308 309 300
4 300 309 310 301
4 301 310 311 302
4 302 311 312 303
4 303 312 313 304
4 304 313 314 305
4 305 314 66 67
4 97 98 315 306
4 306 315 316 307
4 307 316 317 308
4 308 317 318 309
4 309 318 319 310
4 310 319 320 311
4 311 320 321 312
4 312 321 322 313
4 313 322 323 314
4 314 323 65 66
4 98 99 324 315
4 315 324 325 316
4 316 325 326 317
4 317 326 327 318
4 318 327 328 319
4 319 328 329 320
4 320 329 330 321
4 321 330 331 322
4 322 331 332 323
4 323 332 64 65
4 99 100 333 324
4 324 333 334 325
4 325 334 335 326
4 326 335 336 327
4 327 336 337 328
4 328 337 338 329
4 329 338 339 330
4 330 339 340 331
4 331 340 341 332
4 332 341 63 64
4 100 101 342 333
4 333 342 343 334
4 334 343 344 335
4 335 344 345 336
4 336 345 346 337
4 337 346 347 338
4 338 347 348 339
4 339 348 349 340
4 340 349 350 341
4 341 350 62 63
4 101 102 351 342
4 342 351 352 343
4 343 352 353 344
4 344 353 354 345
4 345 354 355 346
4 346 355 356 347
4 347 356 357 348
4 348 357 358 349
4 349 358 359 350
4 350 359 61 62
4 102 103 360 351
4 351 360 361 352
4 352 361 362 353
4 353 362 363 354
4 354 363 364 355
4 355 364 365 356
4 356 365 366 357
4 357 366 367 358
4 358 367 368 359
4 359 368 60 61
4 103 104 369 360
4 360 369 370 361
4 361 370 371 362
4 362 371 372 363
4 363 372 373 364
4 364 373 374 365
4 365 374 375 366
4 366 375 376 367
4 367 376 377 368
4 368 377 59 60
4 104 105 378 369
4 369 378 379 370
4 370 379 380 371
4 371 380 381 372
4 372 381 382 373
4 373 382 383 374
4 374 383 384 375
4 375 384 385 376
4 376 385 386 377
4 377 386 58 59
4 105 106 387 378
4 378 387 388 379
4 379 388 389 380
4 380 389 390 381
4 381 390 391 382
4 382 391 392 383
4 383 392 393 384
4 384 393 394 385
4 385 394 395 386
4 386 395 57 58
4 106 107 396 387
4 387 396 397 388
4 388 397 398 389
4 389 398 399 390
4 390 399 400 391
4 391 400 401 392
4 392 401 402 393
4 393 402 403 394
4 394 403 404 395
4 395 404 56 57
4 107 108 405 396
4 396 405 406 397
4 397 406 407 398
4 398 407 408 399
4 399 408 409 400
4 400 409 410 401
4 401 410 411 402
4 402 411 412 403
4 403 412 413 404
4 404 413 55 56
4 108 109 414 405
4 405 414 415 406
4 406 415 416 407
4 407 416 417 408
4 408 417 418 409
4 409 418 419 410
4 410 419 420 411
4 411 420 421 412
4 412 421 422 413
4 413 422 54 55
4 109 110 423 414
4 414 423 424 415
4 415 424 425 416
4 416 425 426 417
4 417 426 427 418
4 418 427 428 419
4 419 428 429 420
4 420 429 430 421
4 421 430 431 422
4 422 431 53 54
4 110 111 432 423
4 423 432 433 424
4 424 433 434 425
4 425 434 435 426
4 426 435 436 427
4 427 436 437 428
4 428 437 438 429
4 429 438 439 430
4 430 439 440 431
4 431 440 52 53
4 111 112 441 432
4 432 441 442 433
4 433 442 443 434
4 434 443 444 435
4 435 444 445 436
4 436 445 446 437
4 437 446 447 438
4 438 447 448 439
4 439 448 449 440
4 440 449 51 52
4 112 113 450 441
4 441 450 451 442
4 442 451 452 443
4 443 452 453 444
4 444 453 454 445
4 445 454 455 446
4 446 455 456 447
4 447 456 457 448
4 448 457 458 449
4 449 458 50 51
4 113 114 459 450
4 450 459 460 451
4 451 460 461 452
4 452 461 462 453
4 453 462 463 454
4 454 463 464 455
4 455 464 465 456
4 456 465 466 457
4 457 466 467 458
4 458 467 49 50
4 114 115 468 459
4 459 468 469 460
4 460 469 470 461
4 461 470 471 462
4 462 471 472 463
4 463 472 473 464
4 464 473 474 465
4 465 474 475 466
4 466 475 476 467
4 467 476 48 49
4 115 116 477 468
4 468 477 478 469
4 469 478 479 470
4 470 479 480 471
4 471 480 481 472
4 472 481 482 473
4 473 482 483 474
4 474 483 484 475
4 475 484 485 476
4 476 485 47 48
4 116 117 486 477
4 477 486 487 478
4 478 487 488 479
4 479 488 489 480
4 480 489 490 481
4 481 490 491 482
4 482 491 492 483
4 483 492 493 484
4 484 493 494 485
4 485 494 46 47
4 117 118 495 486
4 486 495 496 487
4 487 496 497 488
4 488 497 498 489
4 489 498 499 490
4 490 499 500 491
4 491 500 501 492
4 492 501 502 493
4 493 502 503 494
4 494 503 45 46
4 118 119 504 495
4 495 504 505 496
4 496 505 506 497
4 497 506 507 498
4 498 507 508 499
4 499 508 509 500
4 500 509 510 501
4 501 510 511 502
4 502 511 512 503
4 503 512 44 45
4 119 120 513 504
4 504 513 514 505
4 505 514 515 506
4 506 515 516 507
4 507 516 517 508
4 508 517 518 509
4 509 518 519 510
4 510 519 520 511
4 511 520 521 512
4 512 521 43 44
4 120 121 522 513
4 513 522 523 514
4 514 523 524 515
4 515 524 525 516
4 516 525 526 517
4 517 526 527 518
4 518 527 528 519
4 519 528 529 520
4 520 529 530 521
4 521 530 42 43
4 121 122 531 522
4 522 531 532 523
4 523 532 533 524
4 524 533 534 525
4 525 534 535 526
4 526 535 536 527
4 527 536 537 528
4 528 537 538 529
4 529 538 539 530
4 530 539 41 42
4 122 123 540 531
4 531 540 541 532
4 532 541 542 533
4 533 542 543 534
4 534 543 544 535
4 535 544 545 536
4 536 545 546 537
4 537 546 547 538
4 538 547 548 539
4 539 548 40 41
4 123 124 549 540
4 540 549 550 541
4 541 550 551 542
4 542 551 552 543
4 543 552 553 544
4 544 553 554 545
4 545 554 555 546
4 546 555 556 547
4 547 556 557 548
4 548 557 39 40
4 124 125 558 549
4 549 558 559 550
4 550 559 560 551
4 551 560 561 552
4 552 561 562 553
4 553 562 563 554
4 554 563 564 555
4 555 564 565 556
4 556 565 566 557
4 557 566 38 39
4 125 126 567 558
4 558 567 568 559
4 559 568 569 560
4 560 569 570 561
4 561 570 571 562
4 562 571 572 563
4 563 572 573 564
4 564 573 574 565
4 565 574 575 566
4 566 575 37 38
4 126 127 576 567
4 567 576 577 568
4 568 577 578 569
4 569 578 579 570
4 570 579 580 571
4 571 580 581 572
4 572 581 582 573
4 573 582 583 574
4 574 583 584 575
4 575 584 36 37
4 127 128 585 576
4 576 585 586 577
4 577 586 587 578
4 578 587 588 579
4 579 588 589 580
4 580 589 590 581
4 581 590 591 582
4 582 591 592 583
4 583 592 593 584
4 584 593 35 36
4 128 129 594 585
4 585 594 595 586
4 586 595 596 587
4 587 596 597 588
4 588 597 598 589
4 589 598 599 590
4 590 599 600 591
4 591 600 601 592
4 592 601 602 593
4 593 602 34 35
4 129 130 603 594
4 594 603 604 595
4 595 604 605 596
4 596 605 606 597
4 597 606 607 598
4 598 607 608 599
4 599 608 609 600
4 600 609 610 601
4 601 610 611 602
4 602 611 33 34
4 130 131 612 603
4 603 612 613 604
4 604 613 614 605
4 605 614 615 606
4 606 615 616 607
4 607 616 617 608
4 608 617 618 609
4 609 618 619 610
4 610 619 620 611
4 611 620 32 33
4 131 132 621 612
4 612 621 622 613
4 613 622 623 614
4 614 623 624 615
4 615 624 625 616
4 616 625 626 617
4 617 626 627 618
4 618 627 628 619
4 619 628 629 620
4 620 629 31 32
4 132 133 630 621
4 621 630 631 622
4 622 631 632 623
4 623 632 633 624
4 624 633 634 625
4 625 634 635 626
4 626 635 636 627
4 627 636 637 628
4 628 637 638 629
4 629 638 30 31
4 133 134 639 630
4 630 639 640 631
4 631 640 641 632
4 632 641 642 633
4 633 642 643 634
4 634 643 644 635
4 635 644 645 636
4 636 645 646 637
4 637 646 647 638
4 638 647 29 30
4 134 135 648 639
4 639 648 649 640
4 640 649 650 641
4 641 650 651 642
4 642 651 652 643
4 643 652 653 644
4 644 653 654 645
4 645 654 655 646
4 646 655 656 647
4 647 656 28 29
4 135 136 657 648
4 648 657 658 649
4 649 658 659 650
4 650 659 660 651
4 651 660 661 652
4 652 661 662 653
4 653 662 663 654
4 654 663 664 655
4 655 664 665 656
4 656 665 27 28
4 136 137 666 657
4 657 666 667 658
4 658 667 668 659
4 659 668 669 660
4 660 669 670 661
4 661 670 671 662
4 662 671 672 663
4 663 672 673 664
4 664 673 674 665
4 665 674 26 27
4 137 138 675 666
4 666 675 676 667
4 667 676 677 668
4 668 677 678 669
4 669 678 679 670
4 670 679 680 671
4 671 680 681 672
4 672 681 682 673
4 673 682 683 674
4 674 683 25 26
4 138 139 684 675
4 675 684 685 676
4 676 685 686 677
4 677 686 687 678
4 678 687 688 679
4 679 688 689 680
4 680 689 690 681
4 681 690 691 682
4 682 691 692 683
4 683 692 24 25
4 139 140 693 684
4 684 693 694 685
4 685 694 695 686
4 686 695 696 687
4 687 696 697 688
4 688 697 698 689
4 689 698 699 690
4 690 699 700 691
4 691 700 701 692
4 692 701 23 24
4 140 141 702 693
4 693 702 703 694
4 694 703 704 695
4 695 704 705 696
4 696 705 706 697
4 697 706 707 698
4 698 707 708 699
4 699 708 709 700
4 700 709 710 701
4 701 710 22 23
4 141 142 711 702
4 702 711 712 703
4 703 712 713 704
4 704 713 714 705
4 705 714 715 706
4 706 715 716 707
4 707 716 717 708
4 708 717 718 709
4 709 718 719 710
4 710 719 21 22
4 142 143 720 711
4 711 720 721 712
4 712 721 722 713
4 713 722 723 714
4 714 723 724 715
4 715 724 725 716
4 716 725 726 717
4 717 726 727 718
4 718 727 728 719
4 719 728 20 21
4 143 144 729 720
4 720 729 730 721
4 721 730 731 722
4 722 731 732 723
4 723 732 733 724
4 724 733 734 725
4 725 734 735 726
4 726 735 736 727
4 727 736 737 728
4 728 737 19 20
4 144 145 738 729
4 729 738 739 730
4 730 739 740 731
4 731 740 741 732
4 732 741 742 733
4 733 742 743 734
4 734 743 744 735
4 735 744 745 736
4 736 745 746 737
4 737 746 18 19
4 145 146 747 738
4 738 747 748 739
4 739 748 749 740
4 740 749 750 741
4 741 750 751 742
4 742 751 752 743
4 743 752 753 744
4 744 753 754 745
4 745 754 755 746
4 746 755 17 18
4 146 147 756 747
4 747 756 757 748
4 748 757 758 749
4 749 758 759 750
4 750 759 760 751
4 751 760 761 752
4 752 761 762 753
4 753 762 763 754
4 754 763 764 755
4 755 764 16 17
4 147 148 765 756
4 756 765 766 757
4 757 766 767 758
4 758 767 768 759
4 759 768 769 760
4 760 769 770 761
4 761 770 771 762
4 762 771 772 763
4 763 772 773 764
4 764 773 15 16
4 148 149 774 765
4 765 774 775 766
4 766 775 776 767
4 767 776 777 768
4 768 777 778 769
4 769 778 779 770
4 770 779 780 771
4 771 780 781 772
4 772 781 782 773
4 773 782 14 15
4 149 150 783 774
4 774 783 784 775
4 775 784 785 776
4 776 785 786 777
4 777 786 787 778
4 778 787 788 779
4 779 788 789 780
4 780 789 790 781
4 781 790 791 782
4 782 791 13 14
4 150 151 792 783
4 783 792 793 784
4 784 793 794 785
4 785 794 795 786
4 786 795 796 787
4 787 796 797 788
4 788 797 798 789
4 789 798 799 790
4 790 799 800 791
4 791 800 12 13
4 151 152 801 792
4 792 801 802 793
4 793 802 803 794
4 794 803 804 795
4 795 804 805 796
4 796 805 806 797
4 797 806 807 798
4 798 807 808 799
4 799 808 809 800
4 800 809 11 12
4 152 153 810 801
4 801 810 811 802
4 802 811 812 803
4 803 812 813 804
4 804 813 814 805
4 805 814 815 806
4 806 815 816 807
4 807 816 817 808
4 808 817 818 809
4 809 818 10 11
4 153 154 819 810
4 810 819 820 811
4 811 820 821 812
4 812 821 822 813
4 813 822 823 814
4 814 823 824 815
4 815 824 825 816
4 816 825 826 817
4 817 826 827 818
4 818 827 9 10
4 154 155 828 819
4 819 828 829 820
4 820 829 830 821
4 821 830 831 822
4 822 831 832 823
4 823 832 833 824
4 824 833 834 825
4 825 834 835 826
4 826 835 836 827
4 827 836 8 9
4 155 156 837 828
4 828 837 838 829
4 829 838 839 830
4 830 839 840 831
4 831 840 841 832
4 832 841 842 833
4 833 842 843 834
4 834 843 844 835
4 835 844 845 836
4 836 845 7 8
4 156 157 846 837
4 837 846 847 838
4 838 847 848 839
4 839 848 849 840
4 840 849 850 841
4 841 850 851 842
4 842 851 852 843
4 843 852 853 844
4 844 853 854 845
4 845 854 6 7
4 157 158 855 846
4 846 855 856 847
4 847 856 857 848
4 848 857 858 849
4 849 858 859 850
4 850 859 860 851
4 851 860 861 852
4 852 861 862 853
4 853 862 863 854
4 854 863 5 6
4 158 159 864 855
4 855 864 865 856
4 856 865 866 857
4 857 866 867 858
4 858 867 868 859
4 859 868 869 860
4 860 869 870 861
4 861 870 871 862
4 862 871 872 863
4 863 872 4 5
4 159 160 873 864
4 864 873 874 865
4 865 874 875 866
4 866 875 876 867
4 867 876 877 868
4 868 877 878 869
4 869 878 879 870
4 870 879 880 871
4 871 880 881 872
4 872 881 3 4
4 160 161 882 873
4 873 882 883 874
4 874 883 884 875
4 875 884 885 876
4 876 885 886 877
4 877 886 887 878
4 878 887 888 879
4 879 888 889 880
4 880 889 890 881
4 881 890 2 3
4 161 81 162 882
4 882 162 163 883
4 883 163 164 884
4 884 164 165 885
4 885 165 166 886
4 886 166 167 887
4 887 167 168 888
4 888 168 169 889
4 889 169 170 890
4 890 170 1 2
CELL_TYPES 800
9
9
9
9
9
9
9
9
9
9
9
9
9
9
9
9
9
9
9
9
9
9
9
9
9
9
9
9
9
9
9
9
9
9
9
9
9
9
9
9
9
9
9
9
9
9
9
9
9
9
9
9
9
9
9
9
9
9
9
9
9
9
9
9
9
9
9
9
9
9
9
9
9
9
9
9
9
9
9
9
9
9
9
9
9
9
9
9
9
9
9
9
9
9
9
9
9
9
9
9
9
9
9
9
9
9
9
9
9
9
9
9
9
9
9
9
9
9
9
9
9
9
9
9
9
9
9
9
9
9
9
9
9
9
9
9
9
9
9
9
9
9
9
9
9
9
9
9
9
9
9
9
9
9
9
9
9
9
9
9
9
9
9
9
9
9
9
9
9
9
9
9
9
9
9
9
9
9
9
9
9
9
9
9
9
9
9
9
9
9
9
9
9
9
9
9
9
9
9
9
9
9
9
9
9
9
9
9
9
9
9
9
9
9
9
9
9
9
9
9
9
9
9
9
9
9
9
9
9
9
9
9
9
9
9
9
9
9
9
9
9
9
9
9
9
9
9
9
9
9
9
9
9
9
9
9
9
9
9
9
9
9
9
9
9
9
9
9
9
9
9
9
9
9
9
9
9
9
9
9
9
9
9
9
9
9
9
9
9
9
9
9
9
9
9
9
9
9
9
9
9
9
9
9
9
9
9
9
9
9
9
9
9
9
9
9
9
9
9
9
9
9
9
9
9
9
9
9
9
9
9
9
9
9
9
9
9
9
9
9
9
9
9
9
9
9
9
9
9
9
9
9
9
9
9
9
9
9
9
9
9
9
9
9
9
9
9
9
9
9
9
9
9
9
9
9
9
9
9
9
9
9
9
9
9
9
9
9
9
9
9
9
9
9
9
9
9
9
9
9
9
9
9
9
9
9
9
9
9
9
9
9
9
9
9
9
9
9
9
9
9
9
9
9
9
9
9
9
9
9
9
9
9
9
9
9
9
9
9
9
9
9
9
9
9
9
9
9
9
9
9
9
9
9
9
9
9
9
9
9
9
9
9
9
9
9
9
9
9
9
9
9
9
9
9
9
9
9
9
9
9
9
9
9
9
9
9
9
9
9
9
9
9
9
9
9
9
9
9
9
9
9
9
9
9
9
9
9
9
9
9
9
9
9
9
9
9
9
9
9
9
9
9
9
9
9
9
9
9
9
9
9
9
9
9
9
9
9
9
9
9
9
9
9
9
9
9
9
9
9
9
9
9
9
9
9
9
9
9
9
9
9
9
9
9
9
9
9
9
9
9
9
9
9
9
9
9
9
9
9
9
9
9
9
9
9
9
9
9
9
9
9
9
9
9
9
9
9
9
9
9
9
9
9
9
9
9
9
9
9
9
9
9
9
9
9
9
9
9
9
9
9
9
9
9
9
9
9
9
9
9
9
9
9
9
9
9
9
9
9
9
9
9
9
9
9
9
9
9
9
9
9
9
9
9
9
9
9
9
9
9
9
9
9
9
9
9
9
9
9
9
9
9
9
9
9
9
9
9
9
9
9
9
9
9
9
9
9
9
9
9
9
9
9
9
9
9
9
9
9
9
9
9
9
9
9
9
9
9
9
9
9
9
9
9
9
9
9
9
9
9
9
9
9
9
9
9
9
9
9
9
9
9
9
9
9
9
9
9
9
9
9
9
9
9
9
9
9
9
9
9
9
9
9
9
9
9
9
9
9
9
9
9
9
9
9
9
9
9
9
9
9
9
9
9
9
9
9
9
9
9
9
9
9
9
9
9
9
9
9
9
9
9
9
9
9
9
9
9
9
POINT_DATA 891
SCALARS u1 float
LOOKUP_TABLE default
-8e-19
-1e-06
-1e-06
-1e-06
-1e-06
-1e-06
-1e-06
-1e-06
-1e-06
-1e-06
-1e-06
-1e-06
-1e-06
-1e-06
-1e-06
-1e-06
-1e-06
-1e-06
-1e-06
-1e-06
-1e-06
-1e-06
-1e-06
-1e-06
-1e-06
-1e-06
-1e-06
-1e-06
-1e-06
-1e-06
-1e-06
-1e-06
-1e-06
-1e-06
-1e-06
-1e-06
-1e-06
-1e-06
-1e-06
-1e-06
-1e-06
-1e-06
-1e-06
-1e-06
-1e-06
-1e-06
-1e-06
-1e-06
-1e-06
-1e-06
-1e-06
-1e-06
-1e-06
-1e-06
-1e-06
-1e-06
-1e-06
-1e-06
-1e-06
-1e-06
-1e-06
-1e-06
-1e-06
-1e-06
-1e-06
-1e-06
-1e-06
-1e-06
-1e-06
-1e-06
-1e-06
-1e-06
-1e-06
-1e-06
-1e-06
-1e-06
-1e-06
-1e-06
-2e-06
-1e-06
-1e-06
1e-06
3e-17
1e-06
1e-06
2e-06
1e-06
1e-06
1e-06
1e-06
1e-06
1e-06
1e-06
1e-06
1e-06
1e-06
1e-06
1e-06
1e-06
1e-06
1e-06
1e-06
1e-06
1e-06
1e-06
1e-06
1e-06
1e-06
1e-06
1e-06
1e-06
1e-06
1e-06
1e-06
1e-06
1e-06
1e-06
1e-06
1e-06
1e-06
1e-06
1e-06
1e-06
1e-06
1e-06
1e-06
1e-06
1e-06
1e-06
1e-06
1e-06
1e-06
1e-06
1e-06
1e-06
1e-06
1e-06
1e-06
1e-06
1e-06
1e-06
1e-06
1e-06
1e-06
1e-06
1e-06
1e-06
1e-06
1e-06
1e-06
1e-06
1e-06
1e-06
1e-06
1e-06
1e-06
1e-06
1e-06
1e-06
1e-06
1e-06
1e-06
1e-06
9e-07
6e-07
3e-07
6e-14
-3e-07
-6e-07
-9e-07
-1e-06
-9e-17
4e-17
4e-18
7e-17
-2e-17
-5e-17
-3e-17
2e-17
2e-17
8e-07
6e-07
4e-07
2e-07
-8e-15
-2e-07
-4e-07
-6e-07
-8e-07
1e-06
9e-07
6e-07
3e-07
7e-16
-3e-07
-6e-07
-9e-07
-1e-06
1e-06
9e-07
6e-07
3e-07
8e-15
-3e-07
-6e-07
-9e-07
-1e-06
1e-06
9e-07
6e-07
3e-07
1e-14
-3e-07
-6e-07
-9e-07
-1e-06
1e-06
9e-07
6e-07
3e-07
2e-14
-3e-07
-6e-07
-9e-07
-1e-06
1e-06
9e-07
6e-07
3e-07
3e-14
-3e-07
-6e-07
-9e-07
-1e-06
1e-06
9e-07
6e-07
3e-07
3e-14
-3e-07
-6e-07
-9e-07
-1e-06
1e-06
9e-07
6e-07
3e-07
4e-14
-3e-07
-6e-07
-9e-07
-1e-06
1e-06
9e-07
6e-07
3e-07
4e-14
-3e-07
-6e-07
-9e-07
-1e-06
1e-06
9e-07
6e-07
3e-07
5e-14
-3e-07
-6e-07
-9e-07
-1e-06
1e-06
9e-07
6e-07
3e-07
5e-14
-3e-07
-6e-07
-9e-07
-1e-06
1e-06
9e-07
6e-07
3e-07
5e-14
-3e-07
-6e-07
-9e-07
-1e-06
1e-06
9e-07
6e-07
3e-07
5e-14
-3e-07
-6e-07
-9e-07
-1e-06
1e-06
9e-07
6e-07
3e-07
5e-14
-3e-07
-6e-07
-9e-07
-1e-06
1e-06
9e-07
6e-07
3e-07
6e-14
-3e-07
-6e-07
-9e-07
-1e-06
1e-06
9e-07
6e-07
3e-07
6e-14
-3e-07
-6e-07
-9e-07
-1e-06
1e-06
9e-07
6e-07
3e-07
6e-14
-3e-07
-6e-07
-9e-07
-1e-06
1e-06
9e-07
6e-07
3e-07
6e-14
-3e-07
-6e-07
-9e-07
-1e-06
1e-06
9e-07
6e-07
3e-07
6e-14
-3e-07
-6e-07
-9e-07
-1e-06
1e-06
9e-07
6e-07
3e-07
6e-14
-3e-07
-6e-07
-9e-07
-1e-06
1e-06
9e-07
6e-07
3e-07
6e-14
-3e-07
-6e-07
-9e-07
-1e-06
1e-06
9e-07
6e-07
3e-07
6e-14
-3e-07
-6e-07
-9e-07
-1e-06
1e-06
9e-07
6e-07
3e-07
6e-14
-3e-07
-6e-07
-9e-07
-1e-06
1e-06
9e-07
6e-07
3e-07
6e-14
-3e-07
-6e-07
-9e-07
-1e-06
1e-06
9e-07
6e-07
3e-07
6e-14
-3e-07
-6e-07
-9e-07
-1e-06
1e-06
9e-07
6e-07
3e-07
6e-14
-3e-07
-6e-07
-9e-07
-1e-06
1e-06
9e-07
6e-07
3e-07
6e-14
-3e-07
-6e-07
-9e-07
-1e-06
1e-06
9e-07
6e-07
3e-07
6e-14
-3e-07
-6e-07
-9e-07
-1e-06
1e-06
9e-07
6e-07
3e-07
6e-14
-3e-07
-6e-07
-9e-07
-1e-06
1e-06
9e-07
6e-07
3e-07
6e-14
-3e-07
-6e-07
-9e-07
-1e-06
1e-06
9e-07
6e-07
3e-07
6e-14
-3e-07
-6e-07
-9e-07
-1e-06
1e-06
9e-07
6e-07
3e-07
6e-14
-3e-07
-6e-07
-9e-07
-1e-06
1e-06
9e-07
6e-07
3e-07
6e-14
-3e-07
-6e-07
-9e-07
-1e-06
1e-06
9e-07
6e-07
3e-07
6e-14
-3e-07
-6e-07
-9e-07
-1e-06
1e-06
9e-07
6e-07
3e-07
6e-14
-3e-07
-6e-07
-9e-07
-1e-06
1e-06
9e-07
6e-07
3e-07
6e-14
-3e-07
-6e-07
-9e-07
-1e-06
1e-06
9e-07
6e-07
3e-07
6e-14
-3e-07
-6e-07
-9e-07
-1e-06
1e-06
9e-07
6e-07
3e-07
6e-14
-3e-07
-6e-07
-9e-07
-1e-06
1e-06
9e-07
6e-07
3e-07
6e-14
-3e-07
-6e-07
-9e-07
-1e-06
1e-06
9e-07
6e-07
3e-07
6e-14
-3e-07
-6e-07
-9e-07
-1e-06
1e-06
9e-07
6e-07
3e-07
6e-14
-3e-07
-6e-07
-9e-07
-1e-06
1e-06
9e-07
6e-07
3e-07
6e-14
-3e-07
-6e-07
-9e-07
-1e-06
1e-06
9e-07
6e-07
3e-07
6e-14
-3e-07
-6e-07
-9e-07
-1e-06
1e-06
9e-07
6e-07
3e-07
6e-14
-3e-07
-6e-07
-9e-07
-1e-06
1e-06
9e-07
6e-07
3e-07
6e-14
-3e-07
-6e-07
-9e-07
-1e-06
1e-06
9e-07
6e-07
3e-07
6e-14
-3e-07
-6e-07
-9e-07
-1e-06
1e-06
9e-07
6e-07
3e-07
6e-14
-3e-07
-6e-07
-9e-07
-1e-06
1e-06
9e-07
6e-07
3e-07
6e-14
-3e-07
-6e-07
-9e-07
-1e-06
1e-06
9e-07
6e-07
3e-07
6e-14
-3e-07
-6e-07
-9e-07
-1e-06
1e-06
9e-07
6e-07
3e-07
6e-14
-3e-07
-6e-07
-9e-07
-1e-06
1e-06
9e-07
6e-07
3e-07
6e-14
-3e-07
-6e-07
-9e-07
-1e-06
1e-06
9e-07
6e-07
3e-07
6e-14
-3e-07
-6e-07
-9e-07
-1e-06
1e-06
9e-07
6e-07
3e-07
6e-14
-3e-07
-6e-07
-9e-07
-1e-06
1e-06
9e-07
6e-07
3e-07
6e-14
-3e-07
-6e-07
-9e-07
-1e-06
1e-06
9e-07
6e-07
3e-07
6e-14
-3e-07
-6e-07
-9e-07
-1e-06
1e-06
9e-07
6e-07
3e-07
6e-14
-3e-07
-6e-07
-9e-07
-1e-06
1e-06
9e-07
6e-07
3e-07
6e-14
-3e-07
-6e-07
-9e-07
-1e-06
1e-06
9e-07
6e-07
3e-07
6e-14
-3e-07
-6e-07
-9e-07
-1e-06
1e-06
9e-07
6e-07
3e-07
6e-14
-3e-07
-6e-07
-9e-07
-1e-06
1e-06
9e-07
6e-07
3e-07
6e-14
-3e-07
-6e-07
-9e-07
-1e-06
1e-06
9e-07
6e-07
3e-07
6e-14
-3e-07
-6e-07
-9e-07
-1e-06
1e-06
9e-07
6e-07
3e-07
6e-14
-3e-07
-6e-07
-9e-07
-1e-06
1e-06
9e-07
6e-07
3e-07
6e-14
-3e-07
-6e-07
-9e-07
-1e-06
1e-06
9e-07
6e-07
3e-07
6e-14
-3e-07
-6e-07
-9e-07
-1e-06
1e-06
9e-07
6e-07
3e-07
6e-14
-3e-07
-6e-07
-9e-07
-1e-06
1e-06
9e-07
6e-07
3e-07
6e-14
-3e-07
-6e-07
-9e-07
-1e-06
1e-06
9e-07
6e-07
3e-07
6e-14
-3e-07
-6e-07
-9e-07
-1e-06
1e-06
9e-07
6e-07
3e-07
6e-14
-3e-07
-6e-07
-9e-07
-1e-06
1e-06
9e-07
6e-07
3e-07
6e-14
-3e-07
-6e-07
-9e-07
-1e-06
1e-06
9e-07
6e-07
3e-07
6e-14
-3e-07
-6e-07
-9e-07
-1e-06
1e-06
9e-07
6e-07
3e-07
6e-14
-3e-07
-6e-07
-9e-07
-1e-06
1e-06
9e-07
6e-07
3e-07
6e-14
-3e-07
-6e-07
-9e-07
-1e-06
1e-06
9e-07
6e-07
3e-07
6e-14
-3e-07
-6e-07
-9e-07
-1e-06
1e-06
9e-07
6e-07
3e-07
6e-14
-3e-07
-6e-07
-9e-07
-1e-06
1e-06
9e-07
6e-07
3e-07
6e-14
-3e-07
-6e-07
-9e-07
-1e-06
1e-06
9e-07
6e-07
3e-07
6e-14
-3e-07
-6e-07
-9e-07
-1e-06
1e-06
9e-07
6e-07
3e-07
6e-14
-3e-07
-6e-07
-9e-07
-1e-06
1e-06
9e-07
6e-07
3e-07
6e-14
-3e-07
-6e-07
-9e-07
-1e-06
1e-06
9e-07
6e-07
3e-07
6e-14
-3e-07
-6e-07
-9e-07
-1e-06
SCALARS u2 float
LOOKUP_TABLE default
-8e-18
-0.0004
-0.0004
-0.0004
-0.0004
-0.0004
-0.0004
-0.0004
-0.0004
-0.0004
-0.0004
-0.0004
-0.0003
-0.0003
-0.0003
-0.0003
-0.0003
-0.0003
-0.0003
-0.0003
-0.0003
-0.0003
-0.0003
-0.0003
-0.0003
-0.0003
-0.0003
-0.0003
-0.0003
-0.0003
-0.0003
-0.0003
-0.0002
-0.0002
-0.0002
-0.0002
-0.0002
-0.0002
-0.0002
-0.0002
-0.0002
-0.0002
-0.0002
-0.0002
-0.0002
-0.0002
-0.0002
-0.0002
-0.0002
-0.0002
-0.0002
-0.0002
-0.0001
-0.0001
-0.0001
-0.0001
-0.0001
-0.0001
-0.0001
-0.0001
-0.0001
-0.0001
-0.0001
-9e-05
-9e-05
-8e-05
-8e-05
-7e-05
-7e-05
-6e-05
-6e-05
-5e-05
-5e-05
-4e-05
-4e-05
-3e-05
-2e-05
-2e-05
-1e-05
-1e-05
-5e-06
-0.0004
7e-17
-5e-06
-1e-05
-1e-05
-2e-05
-2e-05
-3e-05
-4e-05
-4e-05
-5e-05
-5e-05
-6e-05
-6e-05
-7e-05
-7e-05
-8e-05
-8e-05
-9e-05
-9e-05
-0.0001
-0.0001
-0.0001
-0.0001
-0.0001
-0.0001
-0.0001
-0.0001
-0.0001
-0.0001
-0.0001
-0.0002
-0.0002
-0.0002
-0.0002
-0.0002
-0.0002
-0.0002
-0.0002
-0.0002
-0.0002
-0.0002
-0.0002
-0.0002
-0.0002
-0.0002
-0.0002
-0.0002
-0.0002
-0.0002
-0.0002
-0.0003
-0.0003
-0.0003
-0.0003
-0.0003
-0.0003
-0.0003
-0.0003
-0.0003
-0.0003
-0.0003
-0.0003
-0.0003
-0.0003
-0.0003
-0.0003
-0.0003
-0.0003
-0.0003
-0.0003
-0.0004
-0.0004
-0.0004
-0.0004
-0.0004
-0.0004
-0.0004
-0.0004
-0.0004
-0.0004
-0.0004
-0.0004
-0.0004
-0.0004
-0.0004
-0.0004
-0.0004
-0.0004
-0.0004
1e-16
-2e-17
-8e-17
-2e-17
-1e-17
-2e-17
-8e-17
-5e-17
3e-18
-5e-06
-5e-06
-5e-06
-5e-06
-5e-06
-5e-06
-5e-06
-5e-06
-5e-06
-1e-05
-1e-05
-1e-05
-1e-05
-1e-05
-1e-05
-1e-05
-1e-05
-1e-05
-1e-05
-1e-05
-1e-05
-1e-05
-1e-05
-1e-05
-1e-05
-1e-05
-1e-05
-2e-05
-2e-05
-2e-05
-2e-05
-2e-05
-2e-05
-2e-05
-2e-05
-2e-05
-2e-05
-2e-05
-2e-05
-2e-05
-2e-05
-2e-05
-2e-05
-2e-05
-2e-05
-3e-05
-3e-05
-3e-05
-3e-05
-3e-05
-3e-05
-3e-05
-3e-05
-3e-05
-4e-05
-4e-05
-4e-05
-4e-05
-4e-05
-4e-05
-4e-05
-4e-05
-4e-05
-4e-05
-4e-05
-4e-05
-4e-05
-4e-05
-4e-05
-4e-05
-4e-05
-4e-05
-5e-05
-5e-05
-5e-05
-5e-05
-5e-05
-5e-05
-5e-05
-5e-05
-5e-05
-5e-05
-5e-05
-5e-05
-5e-05
-5e-05
-5e-05
-5e-05
-5e-05
-5e-05
-6e-05
-6e-05
-6e-05
-6e-05
-6e-05
-6e-05
-6e-05
-6e-05
-6e-05
-6e-05
-6e-05
-6e-05
-6e-05
-6e-05
-6e-05
-6e-05
-6e-05
-6e-05
-7e-05
-7e-05
-7e-05
-7e-05
-7e-05
-7e-05
-7e-05
-7e-05
-7e-05
-7e-05
-7e-05
-7e-05
-7e-05
-7e-05
-7e-05
-7e-05
-7e-05
-7e-05
-8e-05
-8e-05
-8e-05
-8e-05
-8e-05
-8e-05
-8e-05
-8e-05
-8e-05
-8e-05
-8e-05
-8e-05
-8e-05
-8e-05
-8e-05
-8e-05
-8e-05
-8e-05
-9e-05
-9e-05
-9e-05
-9e-05
-9e-05
-9e-05
-9e-05
-9e-05
-9e-05
-9e-05
-9e-05
-9e-05
-9e-05
-9e-05
-9e-05
-9e-05
-9e-05
-9e-05
-0.0001
-0.0001
-0.0001
-0.0001
-0.0001
-0.0001
-0.0001
-0.0001
-0.0001
-0.0001
-0.0001
-0.0001
-0.0001
-0.0001
-0.0001
-0.0001
-0.0001
-0.0001
-0.0001
-0.0001
-0.0001
-0.0001
-0.0001
-0.0001
-0.0001
-0.0001
-0.0001
-0.0001
-0.0001
-0.0001
-0.0001
-0.0001
-0.0001
-0.0001
-0.0001
-0.0001
-0.0001
-0.0001
-0.0001
-0.0001
-0.0001
-0.0001
-0.0001
-0.0001
-0.0001
-0.0001
-0.0001
-0.0001
-0.0001
-0.0001
-0.0001
-0.0001
-0.0001
-0.0001
-0.0001
-0.0001
-0.0001
-0.0001
-0.0001
-0.0001
-0.0001
-0.0001
-0.0001
-0.0001
-0.0001
-0.0001
-0.0001
-0.0001
-0.0001
-0.0001
-0.0001
-0.0001
-0.0001
-0.0001
-0.0001
-0.0001
-0.0001
-0.0001
-0.0001
-0.0001
-0.0001
-0.0001
-0.0001
-0.0001
-0.0001
-0.0001
-0.0001
-0.0001
-0.0001
-0.0001
-0.0001
-0.0001
-0.0001
-0.0001
-0.0001
-0.0001
-0.0001
-0.0001
-0.0001
-0.0002
-0.0002
-0.0002
-0.0002
-0.0002
-0.0002
-0.0002
-0.0002
-0.0002
-0.0002
-0.0002
-0.0002
-0.0002
-0.0002
-0.0002
-0.0002
-0.0002
-0.0002
-0.0002
-0.0002
-0.0002
-0.0002
-0.0002
-0.0002
-0.0002
-0.0002
-0.0002
-0.0002
-0.0002
-0.0002
-0.0002
-0.0002
-0.0002
-0.0002
-0.0002
-0.0002
-0.0002
-0.0002
-0.0002
-0.0002
-0.0002
-0.0002
-0.0002
-0.0002
-0.0002
-0.0002
-0.0002
-0.0002
-0.0002
-0.0002
-0.0002
-0.0002
-0.0002
-0.0002
-0.0002
-0.0002
-0.0002
-0.0002
-0.0002
-0.0002
-0.0002
-0.0002
-0.0002
-0.0002
-0.0002
-0.0002
-0.0002
-0.0002
-0.0002
-0.0002
-0.0002
-0.0002
-0.0002
-0.0002
-0.0002
-0.0002
-0.0002
-0.0002
-0.0002
-0.0002
-0.0002
-0.0002
-0.0002
-0.0002
-0.0002
-0.0002
-0.0002
-0.0002
-0.0002
-0.0002
-0.0002
-0.0002
-0.0002
-0.0002
-0.0002
-0.0002
-0.0002
-0.0002
-0.0002
-0.0002
-0.0002
-0.0002
-0.0002
-0.0002
-0.0002
-0.0002
-0.0002
-0.0002
-0.0002
-0.0002
-0.0002
-0.0002
-0.0002
-0.0002
-0.0002
-0.0002
-0.0002
-0.0002
-0.0002
-0.0002
-0.0002
-0.0002
-0.0002
-0.0002
-0.0002
-0.0002
-0.0002
-0.0002
-0.0002
-0.0002
-0.0002
-0.0002
-0.0002
-0.0002
-0.0002
-0.0002
-0.0002
-0.0002
-0.0002
-0.0002
-0.0002
-0.0002
-0.0002
-0.0002
-0.0002
-0.0002
-0.0002
-0.0002
-0.0002
-0.0002
-0.0002
-0.0002
-0.0002
-0.0002
-0.0002
-0.0002
-0.0002
-0.0002
-0.0002
-0.0002
-0.0002
-0.0002
-0.0002
-0.0002
-0.0002
-0.0002
-0.0002
-0.0002
-0.0002
-0.0002
-0.0002
-0.0002
-0.0002
-0.0002
-0.0002
-0.0002
-0.0002
-0.0002
-0.0002
-0.0002
-0.0003
-0.0003
-0.0003
-0.0003
-0.0003
-0.0003
-0.0003
-0.0003
-0.0003
-0.0003
-0.0003
-0.0003
-0.0003
-0.0003
-0.0003
-0.0003
-0.0003
-0.0003
-0.0003
-0.0003
-0.0003
-0.0003
-0.0003
-0.0003
-0.0003
-0.0003
-0.0003
-0.0003
-0.0003
-0.0003
-0.0003
-0.0003
-0.0003
-0.0003
-0.0003
-0.0003
-0.0003
-0.0003
-0.0003
-0.0003
-0.0003
-0.0003
-0.0003
-0.0003
-0.0003
-0.0003
-0.0003
-0.0003
-0.0003
-0.0003
-0.0003
-0.0003
-0.0003
-0.0003
-0.0003
-0.0003
-0.0003
-0.0003
-0.0003
-0.0003
-0.0003
-0.0003
-0.0003
-0.0003
-0.0003
-0.0003
-0.0003
-0.0003
-0.0003
-0.0003
-0.0003
-0.0003
-0.0003
-0.0003
-0.0003
-0.0003
-0.0003
-0.0003
-0.0003
-0.0003
-0.0003
-0.0003
-0.0003
-0.0003
-0.0003
-0.0003
-0.0003
-0.0003
-0.0003
-0.0003
-0.0003
-0.0003
-0.0003
-0.0003
-0.0003
-0.0003
-0.0003
-0.0003
-0.0003
-0.0003
-0.0003
-0.0003
-0.0003
-0.0003
-0.0003
-0.0003
-0.0003
-0.0003
-0.0003
-0.0003
-0.0003
-0.0003
-0.0003
-0.0003
-0.0003
-0.0003
-0.0003
-0.0003
-0.0003
-0.0003
-0.0003
-0.0003
-0.0003
-0.0003
-0.0003
-0.0003
-0.0003
-0.0003
-0.0003
-0.0003
-0.0003
-0.0003
-0.0003
-0.0003
-0.0003
-0.0003
-0.0003
-0.0003
-0.0003
-0.0003
-0.0003
-0.0003
-0.0003
-0.0003
-0.0003
-0.0003
-0.0003
-0.0003
-0.0003
-0.0003
-0.0003
-0.0003
-0.0003
-0.0003
-0.0003
-0.0003
-0.0003
-0.0003
-0.0003
-0.0003
-0.0003
-0.0003
-0.0003
-0.0003
-0.0003
-0.0003
-0.0003
-0.0003
-0.0003
-0.0003
-0.0003
-0.0003
-0.0003
-0.0003
-0.0003
-0.0003
-0.0003
-0.0003
-0.0003
-0.0003
-0.0004
-0.0004
-0.0004
-0.0004
-0.0004
-0.0004
-0.0004
-0.0004
-0.0004
-0.0004
-0.0004
-0.0004
-0.0004
-0.0004
-0.0004
-0.0004
-0.0004
-0.0004
-0.0004
-0.0004
-0.0004
-0.0004
-0.0004
-0.0004
-0.0004
-0.0004
-0.0004
-0.0004
-0.0004
-0.0004
-0.0004
-0.0004
-0.0004
-0.0004
-0.0004
-0.0004
-0.0004
-0.0004
-0.0004
-0.0004
-0.0004
-0.0004
-0.0004
-0.0004
-0.0004
-0.0004
-0.0004
-0.0004
-0.0004
-0.0004
-0.0004
-0.0004
-0.0004
-0.0004
-0.0004
-0.0004
-0.0004
-0.0004
-0.0004
-0.0004
-0.0004
-0.0004
-0.0004
-0.0004
-0.0004
-0.0004
-0.0004
-0.0004
-0.0004
-0.0004
-0.0004
-0.0004
-0.0004
-0.0004
-0.0004
-0.0004
-0.0004
-0.0004
-0.0004
-0.0004
-0.0004
-0.0004
-0.0004
-0.0004
-0.0004
-0.0004
-0.0004
-0.0004
-0.0004
-0.0004
SCALARS strain_1 float
LOOKUP_TABLE default
-0.000108
-0.173270
-0.170651
-0.168017
-0.165371
-0.162714
-0.160045
-0.157365
-0.154674
-0.151976
-0.149268
-0.146552
-0.143829
-0.141100
-0.138364
-0.135625
-0.132881
-0.130135
-0.127386
-0.124637
-0.121887
-0.119138
-0.116391
-0.113647
-0.110907
-0.108172
-0.105443
-0.102722
-0.100009
-0.097306
-0.094614
-0.091934
-0.089267
-0.086615
-0.083979
-0.081360
-0.078760
-0.076179
-0.073619
-0.071082
-0.068568
-0.066080
-0.063618
-0.061184
-0.058778
-0.056404
-0.054060
-0.051751
-0.049475
-0.047235
-0.045030
-0.042865
-0.040739
-0.038653
-0.036608
-0.034606
-0.032649
-0.030736
-0.028869
-0.027049
-0.025276
-0.023553
-0.021879
-0.020254
-0.018681
-0.017159
-0.015690
-0.014273
-0.012911
-0.011600
-0.010345
-0.009143
-0.007996
-0.006903
-0.005865
-0.004881
-0.003952
-0.003076
-0.002255
-0.001487
-0.000771
-0.173425
-0.000004
-0.000669
-0.001386
-0.002156
-0.002980
-0.003858
-0.004790
-0.005776
-0.006816
-0.007912
-0.009062
-0.010266
-0.011526
-0.012838
-0.014205
-0.015625
-0.017097
-0.018622
-0.020199
-0.021826
-0.023504
-0.025232
-0.027008
-0.028832
-0.030703
-0.032620
-0.034582
-0.036587
-0.038635
-0.040725
-0.042856
-0.045025
-0.047233
-0.049477
-0.051758
-0.054071
-0.056419
-0.058797
-0.061207
-0.063646
-0.066111
-0.068604
-0.071121
-0.073662
-0.076226
-0.078810
-0.081415
-0.084038
-0.086678
-0.089334
-0.092004
-0.094688
-0.097383
-0.100090
-0.102806
-0.105531
-0.108263
-0.111002
-0.113745
-0.116492
-0.119242
-0.121994
-0.124747
-0.127499
-0.130251
-0.133000
-0.135747
-0.138489
-0.141227
-0.143959
-0.146684
-0.149402
-0.152113
-0.154815
-0.157506
-0.160189
-0.162860
-0.165520
-0.168167
-0.170803
-0.173411
-0.173396
-0.173381
-0.173365
-0.173351
-0.173335
-0.173319
-0.173303
-0.173287
-0.000088
-0.000070
-0.000054
-0.000039
-0.000028
-0.000018
-0.000012
-0.000007
-0.000004
-0.000669
-0.000671
-0.000675
-0.000682
-0.000692
-0.000703
-0.000717
-0.000733
-0.000751
-0.001385
-0.001387
-0.001392
-0.001398
-0.001407
-0.001419
-0.001432
-0.001448
-0.001466
-0.002155
-0.002158
-0.002162
-0.002168
-0.002177
-0.002188
-0.002201
-0.002216
-0.002235
-0.002979
-0.002981
-0.002984
-0.002991
-0.002999
-0.003010
-0.003023
-0.003038
-0.003056
-0.003857
-0.003858
-0.003861
-0.003868
-0.003875
-0.003886
-0.003899
-0.003914
-0.003932
-0.004788
-0.004789
-0.004793
-0.004798
-0.004806
-0.004816
-0.004829
-0.004845
-0.004862
-0.005774
-0.005775
-0.005778
-0.005784
-0.005791
-0.005801
-0.005814
-0.005828
-0.005846
-0.006814
-0.006815
-0.006818
-0.006823
-0.006831
-0.006841
-0.006853
-0.006868
-0.006885
-0.007910
-0.007910
-0.007913
-0.007918
-0.007925
-0.007934
-0.007946
-0.007961
-0.007976
-0.009060
-0.009060
-0.009062
-0.009067
-0.009073
-0.009083
-0.009094
-0.009109
-0.009125
-0.010264
-0.010264
-0.010266
-0.010270
-0.010277
-0.010286
-0.010297
-0.010311
-0.010326
-0.011522
-0.011522
-0.011523
-0.011528
-0.011534
-0.011542
-0.011554
-0.011567
-0.011583
-0.012836
-0.012834
-0.012836
-0.012839
-0.012846
-0.012854
-0.012865
-0.012878
-0.012892
-0.014201
-0.014200
-0.014202
-0.014205
-0.014210
-0.014218
-0.014229
-0.014241
-0.014257
-0.015621
-0.015620
-0.015620
-0.015623
-0.015629
-0.015636
-0.015646
-0.015659
-0.015673
-0.017093
-0.017091
-0.017092
-0.017095
-0.017100
-0.017107
-0.017117
-0.017129
-0.017143
-0.018618
-0.018616
-0.018616
-0.018619
-0.018624
-0.018630
-0.018639
-0.018651
-0.018665
-0.020195
-0.020192
-0.020192
-0.020194
-0.020198
-0.020205
-0.020214
-0.020225
-0.020239
-0.021822
-0.021819
-0.021818
-0.021821
-0.021825
-0.021831
-0.021839
-0.021850
-0.021863
-0.023500
-0.023496
-0.023496
-0.023497
-0.023501
-0.023507
-0.023515
-0.023525
-0.023537
-0.025227
-0.025224
-0.025223
-0.025224
-0.025227
-0.025232
-0.025240
-0.025250
-0.025262
-0.027003
-0.026999
-0.026998
-0.026999
-0.027002
-0.027006
-0.027014
-0.027023
-0.027035
-0.028826
-0.028822
-0.028821
-0.028822
-0.028824
-0.028829
-0.028835
-0.028845
-0.028856
-0.030696
-0.030693
-0.030691
-0.030691
-0.030694
-0.030698
-0.030704
-0.030713
-0.030724
-0.032614
-0.032609
-0.032607
-0.032607
-0.032609
-0.032612
-0.032618
-0.032627
-0.032636
-0.034575
-0.034570
-0.034568
-0.034567
-0.034568
-0.034572
-0.034578
-0.034585
-0.034595
-0.036580
-0.036575
-0.036573
-0.036571
-0.036573
-0.036576
-0.036581
-0.036588
-0.036597
-0.038628
-0.038624
-0.038620
-0.038619
-0.038620
-0.038622
-0.038627
-0.038634
-0.038642
-0.040719
-0.040712
-0.040709
-0.040707
-0.040707
-0.040710
-0.040714
-0.040721
-0.040728
-0.042848
-0.042842
-0.042838
-0.042837
-0.042837
-0.042839
-0.042842
-0.042848
-0.042856
-0.045018
-0.045011
-0.045007
-0.045005
-0.045005
-0.045006
-0.045010
-0.045015
-0.045022
-0.047225
-0.047218
-0.047214
-0.047211
-0.047211
-0.047212
-0.047215
-0.047219
-0.047226
-0.049469
-0.049463
-0.049458
-0.049454
-0.049453
-0.049454
-0.049456
-0.049461
-0.049467
-0.051749
-0.051742
-0.051737
-0.051733
-0.051732
-0.051732
-0.051734
-0.051738
-0.051743
-0.054063
-0.054055
-0.054051
-0.054046
-0.054045
-0.054044
-0.054046
-0.054049
-0.054054
-0.056410
-0.056403
-0.056397
-0.056393
-0.056391
-0.056390
-0.056391
-0.056393
-0.056398
-0.058788
-0.058781
-0.058775
-0.058771
-0.058768
-0.058767
-0.058767
-0.058770
-0.058773
-0.061198
-0.061190
-0.061184
-0.061179
-0.061176
-0.061174
-0.061175
-0.061176
-0.061179
-0.063635
-0.063628
-0.063621
-0.063616
-0.063612
-0.063611
-0.063611
-0.063611
-0.063614
-0.066102
-0.066093
-0.066086
-0.066081
-0.066077
-0.066075
-0.066074
-0.066075
-0.066077
-0.068594
-0.068585
-0.068578
-0.068573
-0.068568
-0.068566
-0.068564
-0.068564
-0.068566
-0.071111
-0.071102
-0.071094
-0.071089
-0.071084
-0.071081
-0.071079
-0.071079
-0.071080
-0.073652
-0.073643
-0.073635
-0.073629
-0.073624
-0.073620
-0.073619
-0.073617
-0.073617
-0.076216
-0.076206
-0.076198
-0.076191
-0.076186
-0.076182
-0.076180
-0.076178
-0.076177
-0.078799
-0.078790
-0.078782
-0.078775
-0.078769
-0.078765
-0.078762
-0.078760
-0.078759
-0.081404
-0.081394
-0.081385
-0.081379
-0.081372
-0.081367
-0.081364
-0.081361
-0.081360
-0.084026
-0.084016
-0.084008
-0.084000
-0.083994
-0.083988
-0.083985
-0.083981
-0.083980
-0.086666
-0.086656
-0.086648
-0.086639
-0.086632
-0.086627
-0.086622
-0.086618
-0.086616
-0.089322
-0.089312
-0.089303
-0.089294
-0.089287
-0.089281
-0.089276
-0.089272
-0.089269
-0.091992
-0.091982
-0.091972
-0.091964
-0.091956
-0.091950
-0.091944
-0.091940
-0.091936
-0.094676
-0.094665
-0.094655
-0.094646
-0.094638
-0.094631
-0.094626
-0.094621
-0.094617
-0.097372
-0.097361
-0.097350
-0.097341
-0.097333
-0.097326
-0.097319
-0.097314
-0.097310
-0.100078
-0.100066
-0.100056
-0.100047
-0.100038
-0.100031
-0.100024
-0.100019
-0.100013
-0.102794
-0.102783
-0.102772
-0.102762
-0.102753
-0.102746
-0.102738
-0.102732
-0.102727
-0.105518
-0.105507
-0.105496
-0.105486
-0.105477
-0.105469
-0.105461
-0.105455
-0.105449
-0.108251
-0.108239
-0.108228
-0.108218
-0.108208
-0.108200
-0.108191
-0.108185
-0.108178
-0.110989
-0.110977
-0.110966
-0.110955
-0.110946
-0.110936
-0.110928
-0.110921
-0.110913
-0.113732
-0.113720
-0.113708
-0.113698
-0.113688
-0.113678
-0.113669
-0.113661
-0.113653
-0.116479
-0.116467
-0.116456
-0.116444
-0.116434
-0.116424
-0.116415
-0.116406
-0.116399
-0.119229
-0.119217
-0.119205
-0.119194
-0.119183
-0.119173
-0.119163
-0.119154
-0.119146
-0.121981
-0.121969
-0.121956
-0.121945
-0.121934
-0.121923
-0.121914
-0.121904
-0.121895
-0.124734
-0.124721
-0.124709
-0.124697
-0.124686
-0.124675
-0.124665
-0.124655
-0.124646
-0.127486
-0.127473
-0.127461
-0.127449
-0.127438
-0.127426
-0.127416
-0.127405
-0.127396
-0.130238
-0.130225
-0.130212
-0.130200
-0.130188
-0.130177
-0.130166
-0.130155
-0.130145
-0.132987
-0.132974
-0.132961
-0.132949
-0.132936
-0.132925
-0.132913
-0.132902
-0.132892
-0.135733
-0.135720
-0.135707
-0.135694
-0.135682
-0.135670
-0.135658
-0.135647
-0.135636
-0.138475
-0.138462
-0.138449
-0.138436
-0.138423
-0.138411
-0.138399
-0.138387
-0.138376
-0.141213
-0.141199
-0.141186
-0.141173
-0.141160
-0.141148
-0.141135
-0.141123
-0.141112
-0.143945
-0.143931
-0.143917
-0.143905
-0.143891
-0.143879
-0.143866
-0.143853
-0.143841
-0.146670
-0.146657
-0.146643
-0.146629
-0.146616
-0.146603
-0.146590
-0.146578
-0.146565
-0.149389
-0.149374
-0.149361
-0.149347
-0.149333
-0.149320
-0.149307
-0.149294
-0.149281
-0.152099
-0.152085
-0.152070
-0.152057
-0.152043
-0.152030
-0.152016
-0.152003
-0.151989
-0.154800
-0.154786
-0.154772
-0.154758
-0.154744
-0.154730
-0.154716
-0.154702
-0.154689
-0.157492
-0.157478
-0.157464
-0.157450
-0.157436
-0.157422
-0.157407
-0.157393
-0.157379
-0.160174
-0.160160
-0.160146
-0.160131
-0.160117
-0.160103
-0.160088
-0.160074
-0.160059
-0.162845
-0.162831
-0.162817
-0.162802
-0.162788
-0.162773
-0.162758
-0.162744
-0.162728
-0.165505
-0.165491
-0.165476
-0.165462
-0.165447
-0.165432
-0.165417
-0.165402
-0.165387
-0.168153
-0.168138
-0.168124
-0.168109
-0.168094
-0.168079
-0.168064
-0.168048
-0.168033
-0.170789
-0.170774
-0.170759
-0.170744
-0.170729
-0.170714
-0.170698
-0.170682
-0.170666
SCALARS strain_2 float
LOOKUP_TABLE default
0.002096
0.001198
0.001198
0.001194
0.001198
0.001195
0.001199
0.001199
0.001198
0.001203
0.001198
0.001198
0.001205
0.001202
0.001204
0.001210
0.001207
0.001213
0.001214
0.001217
0.001216
0.001222
0.001226
0.001228
0.001233
0.001240
0.001244
0.001248
0.001253
0.001256
0.001267
0.001268
0.001279
0.001283
0.001288
0.001296
0.001307
0.001311
0.001318
0.001334
0.001341
0.001348
0.001361
0.001371
0.001383
0.001389
0.001407
0.001413
0.001431
0.001439
0.001455
0.001465
0.001481
0.001498
0.001512
0.001528
0.001541
0.001562
0.001579
0.001597
0.001611
0.001633
0.001649
0.001672
0.001688
0.001712
0.001732
0.001755
0.001777
0.001796
0.001817
0.001843
0.001866
0.001887
0.001911
0.001943
0.001964
0.001986
0.002013
0.002039
0.002068
0.004170
0.004226
0.004232
0.004234
0.004238
0.004234
0.004242
0.004247
0.004248
0.004249
0.004256
0.004253
0.004259
0.004265
0.004265
0.004266
0.004266
0.004272
0.004270
0.004276
0.004275
0.004277
0.004282
0.004284
0.004286
0.004283
0.004283
0.004287
0.004288
0.004290
0.004289
0.004291
0.004296
0.004292
0.004293
0.004296
0.004294
0.004289
0.004292
0.004296
0.004296
0.004294
0.004294
0.004291
0.004290
0.004291
0.004292
0.004289
0.004289
0.004286
0.004284
0.004283
0.004282
0.004278
0.004278
0.004274
0.004273
0.004273
0.004266
0.004267
0.004263
0.004260
0.004257
0.004256
0.004248
0.004246
0.004243
0.004237
0.004234
0.004234
0.004230
0.004227
0.004219
0.004217
0.004210
0.004205
0.004205
0.004198
0.004189
0.004189
0.004180
0.003876
0.003582
0.003283
0.002986
0.002684
0.002390
0.002089
0.001794
0.001494
0.002311
0.002520
0.002733
0.002949
0.003163
0.003373
0.003588
0.003803
0.004014
0.004016
0.003798
0.003581
0.003367
0.003147
0.002931
0.002716
0.002503
0.002283
0.004017
0.003798
0.003579
0.003363
0.003138
0.002918
0.002702
0.002477
0.002261
0.004015
0.003793
0.003569
0.003350
0.003127
0.002905
0.002681
0.002457
0.002234
0.004017
0.003792
0.003569
0.003342
0.003113
0.002889
0.002663
0.002437
0.002213
0.004016
0.003788
0.003561
0.003332
0.003101
0.002874
0.002649
0.002419
0.002190
0.004017
0.003787
0.003551
0.003322
0.003091
0.002863
0.002631
0.002402
0.002168
0.004013
0.003787
0.003551
0.003314
0.003082
0.002845
0.002615
0.002385
0.002148
0.004018
0.003783
0.003542
0.003308
0.003073
0.002834
0.002600
0.002361
0.002127
0.004017
0.003772
0.003537
0.003301
0.003059
0.002822
0.002578
0.002344
0.002104
0.004017
0.003776
0.003531
0.003294
0.003051
0.002808
0.002569
0.002326
0.002081
0.004014
0.003768
0.003529
0.003285
0.003042
0.002796
0.002551
0.002308
0.002063
0.004017
0.003771
0.003525
0.003277
0.003032
0.002784
0.002539
0.002291
0.002045
0.004021
0.003769
0.003519
0.003270
0.003023
0.002769
0.002524
0.002272
0.002021
0.004016
0.003763
0.003510
0.003263
0.003010
0.002759
0.002511
0.002257
0.002003
0.004018
0.003759
0.003510
0.003257
0.003006
0.002744
0.002494
0.002240
0.001987
0.004013
0.003758
0.003500
0.003248
0.002993
0.002738
0.002480
0.002224
0.001969
0.004014
0.003758
0.003502
0.003244
0.002979
0.002720
0.002468
0.002205
0.001946
0.004014
0.003756
0.003495
0.003234
0.002975
0.002709
0.002455
0.002196
0.001931
0.004013
0.003755
0.003490
0.003228
0.002964
0.002702
0.002441
0.002176
0.001910
0.004017
0.003750
0.003481
0.003221
0.002959
0.002697
0.002431
0.002162
0.001900
0.004016
0.003744
0.003486
0.003214
0.002948
0.002681
0.002414
0.002148
0.001879
0.004014
0.003745
0.003479
0.003205
0.002945
0.002672
0.002404
0.002132
0.001869
0.004016
0.003742
0.003472
0.003201
0.002930
0.002661
0.002389
0.002121
0.001846
0.004013
0.003737
0.003470
0.003196
0.002920
0.002649
0.002377
0.002107
0.001833
0.004014
0.003738
0.003467
0.003192
0.002915
0.002643
0.002366
0.002095
0.001823
0.004010
0.003734
0.003460
0.003183
0.002908
0.002635
0.002357
0.002083
0.001803
0.004015
0.003736
0.003458
0.003176
0.002900
0.002626
0.002345
0.002068
0.001791
0.004012
0.003734
0.003454
0.003171
0.002895
0.002616
0.002332
0.002061
0.001778
0.004009
0.003728
0.003448
0.003164
0.002890
0.002604
0.002325
0.002043
0.001759
0.004010
0.003729
0.003445
0.003163
0.002881
0.002594
0.002313
0.002033
0.001749
0.004006
0.003724
0.003440
0.003160
0.002871
0.002592
0.002307
0.002023
0.001738
0.004010
0.003721
0.003436
0.003154
0.002867
0.002582
0.002296
0.002012
0.001726
0.004003
0.003721
0.003436
0.003149
0.002859
0.002577
0.002284
0.002006
0.001712
0.004006
0.003719
0.003432
0.003142
0.002859
0.002564
0.002278
0.001990
0.001706
0.004007
0.003719
0.003428
0.003136
0.002850
0.002559
0.002270
0.001980
0.001690
0.004006
0.003715
0.003425
0.003135
0.002845
0.002552
0.002260
0.001973
0.001681
0.004003
0.003715
0.003419
0.003130
0.002837
0.002549
0.002254
0.001961
0.001675
0.004001
0.003711
0.003414
0.003123
0.002833
0.002541
0.002248
0.001955
0.001664
0.003997
0.003708
0.003417
0.003121
0.002827
0.002533
0.002237
0.001948
0.001651
0.003998
0.003706
0.003411
0.003116
0.002821
0.002527
0.002233
0.001936
0.001647
0.003999
0.003702
0.003409
0.003108
0.002819
0.002519
0.002224
0.001931
0.001632
0.003997
0.003699
0.003402
0.003108
0.002811
0.002515
0.002220
0.001920
0.001625
0.003992
0.003699
0.003401
0.003102
0.002805
0.002508
0.002211
0.001914
0.001615
0.003993
0.003692
0.003397
0.003103
0.002799
0.002507
0.002207
0.001908
0.001614
0.003990
0.003691
0.003396
0.003093
0.002796
0.002501
0.002199
0.001899
0.001603
0.003991
0.003695
0.003391
0.003093
0.002797
0.002494
0.002196
0.001897
0.001594
0.003991
0.003688
0.003390
0.003089
0.002790
0.002493
0.002188
0.001888
0.001590
0.003988
0.003687
0.003384
0.003087
0.002783
0.002483
0.002183
0.001884
0.001581
0.003985
0.003680
0.003385
0.003082
0.002780
0.002477
0.002179
0.001875
0.001579
0.003984
0.003678
0.003381
0.003078
0.002773
0.002478
0.002174
0.001873
0.001570
0.003977
0.003680
0.003374
0.003077
0.002773
0.002468
0.002169
0.001868
0.001568
0.003976
0.003677
0.003371
0.003074
0.002770
0.002461
0.002164
0.001862
0.001558
0.003975
0.003673
0.003369
0.003068
0.002764
0.002461
0.002160
0.001857
0.001553
0.003973
0.003669
0.003367
0.003062
0.002761
0.002460
0.002156
0.001854
0.001551
0.003968
0.003669
0.003362
0.003063
0.002759
0.002452
0.002151
0.001851
0.001543
0.003967
0.003661
0.003361
0.003062
0.002758
0.002449
0.002148
0.001846
0.001540
0.003961
0.003663
0.003354
0.003054
0.002753
0.002446
0.002144
0.001841
0.001534
0.003961
0.003659
0.003359
0.003049
0.002749
0.002444
0.002140
0.001841
0.001534
0.003958
0.003653
0.003355
0.003047
0.002743
0.002442
0.002138
0.001836
0.001528
0.003955
0.003652
0.003347
0.003044
0.002741
0.002435
0.002131
0.001829
0.001527
0.003950
0.003649
0.003344
0.003041
0.002742
0.002434
0.002130
0.001827
0.001525
0.003950
0.003647
0.003344
0.003040
0.002736
0.002430
0.002130
0.001824
0.001522
0.003948
0.003642
0.003341
0.003037
0.002732
0.002431
0.002124
0.001823
0.001517
0.003944
0.003640
0.003336
0.003032
0.002730
0.002425
0.002120
0.001820
0.001512
0.003941
0.003637
0.003333
0.003030
0.002728
0.002420
0.002119
0.001816
0.001514
0.003939
0.003633
0.003330
0.003028
0.002723
0.002420
0.002117
0.001816
0.001513
0.003935
0.003632
0.003328
0.003025
0.002722
0.002418
0.002112
0.001810
0.001512
0.003927
0.003626
0.003324
0.003025
0.002717
0.002413
0.002112
0.001807
0.001506
0.003928
0.003625
0.003314
0.003018
0.002715
0.002411
0.002111
0.001808
0.001507
0.003923
0.003621
0.003320
0.003015
0.002714
0.002413
0.002106
0.001805
0.001506
0.003918
0.003614
0.003314
0.003012
0.002710
0.002410
0.002106
0.001804
0.001504
0.003914
0.003615
0.003313
0.003007
0.002702
0.002408
0.002108
0.001801
0.001503
0.003912
0.003608
0.003307
0.003007
0.002707
0.002402
0.002104
0.001802
0.001502
0.003906
0.003602
0.003305
0.003003
0.002702
0.002403
0.002101
0.001799
0.001498
0.003899
0.003603
0.003299
0.003001
0.002701
0.002398
0.002099
0.001800
0.001500
0.003895
0.003598
0.003295
0.002991
0.002694
0.002397
0.002097
0.001797
0.001496
0.003890
0.003594
0.003292
0.002993
0.002692
0.002395
0.002096
0.001797
0.001497
0.003886
0.003590
0.003287
0.002987
0.002695
0.002395
0.002093
0.001794
0.001498
0.003881
0.003582
0.003285
0.002990
0.002688
0.002393
0.002094
0.001796
0.001497
SCALARS strain_3 float
LOOKUP_TABLE default
0.000881
0.057539
0.056726
0.055910
0.055088
0.054264
0.053435
0.052602
0.051765
0.050925
0.050082
0.049236
0.048388
0.047535
0.046679
0.045823
0.044964
0.044102
0.043240
0.042379
0.041515
0.040651
0.039784
0.038918
0.038054
0.037189
0.036326
0.035465
0.034605
0.033743
0.032887
0.032033
0.031184
0.030335
0.029495
0.028653
0.027817
0.026988
0.026163
0.025343
0.024532
0.023723
0.022923
0.022132
0.021346
0.020570
0.019802
0.019042
0.018291
0.017551
0.016821
0.016099
0.015390
0.014691
0.014004
0.013331
0.012668
0.012019
0.011383
0.010758
0.010148
0.009554
0.008969
0.008403
0.007851
0.007313
0.006790
0.006284
0.005791
0.005318
0.004858
0.004416
0.003988
0.003575
0.003181
0.002803
0.002441
0.002098
0.001769
0.001457
0.001160
0.056066
-0.000469
-0.000199
0.000084
0.000387
0.000706
0.001041
0.001391
0.001757
0.002142
0.002545
0.002963
0.003398
0.003849
0.004314
0.004801
0.005300
0.005814
0.006345
0.006892
0.007451
0.008026
0.008616
0.009222
0.009840
0.010474
0.011117
0.011775
0.012448
0.013130
0.013823
0.014531
0.015246
0.015975
0.016714
0.017463
0.018220
0.018987
0.019762
0.020547
0.021339
0.022138
0.022945
0.023756
0.024577
0.025403
0.026231
0.027069
0.027908
0.028754
0.029604
0.030453
0.031311
0.032168
0.033029
0.033892
0.034756
0.035623
0.036490
0.037355
0.038224
0.039091
0.039962
0.040827
0.041697
0.042559
0.043423
0.044286
0.045149
0.046005
0.046862
0.047716
0.048567
0.049417
0.050258
0.051098
0.051939
0.052773
0.053601
0.054427
0.055249
0.056212
0.056359
0.056507
0.056655
0.056802
0.056948
0.057098
0.057245
0.057392
0.000744
0.000605
0.000470
0.000334
0.000197
0.000062
-0.000072
-0.000203
-0.000335
-0.000069
0.000067
0.000201
0.000337
0.000471
0.000606
0.000746
0.000884
0.001021
0.000219
0.000352
0.000488
0.000625
0.000762
0.000898
0.001036
0.001179
0.001315
0.000519
0.000656
0.000792
0.000930
0.001069
0.001208
0.001346
0.001485
0.001626
0.000838
0.000978
0.001113
0.001252
0.001391
0.001532
0.001671
0.001812
0.001954
0.001176
0.001312
0.001450
0.001591
0.001731
0.001872
0.002014
0.002156
0.002298
0.001527
0.001668
0.001807
0.001948
0.002089
0.002229
0.002370
0.002514
0.002659
0.001898
0.002037
0.002178
0.002319
0.002460
0.002602
0.002747
0.002890
0.003035
0.002284
0.002423
0.002565
0.002706
0.002850
0.002994
0.003138
0.003283
0.003428
0.002685
0.002827
0.002970
0.003114
0.003256
0.003401
0.003545
0.003693
0.003840
0.003106
0.003247
0.003392
0.003533
0.003680
0.003824
0.003972
0.004119
0.004266
0.003540
0.003685
0.003827
0.003974
0.004119
0.004264
0.004413
0.004560
0.004708
0.003994
0.004138
0.004282
0.004427
0.004574
0.004721
0.004869
0.005017
0.005167
0.004460
0.004605
0.004751
0.004900
0.005048
0.005194
0.005344
0.005493
0.005642
0.004945
0.005092
0.005240
0.005385
0.005534
0.005682
0.005830
0.005982
0.006133
0.005444
0.005593
0.005738
0.005887
0.006038
0.006186
0.006336
0.006487
0.006640
0.005962
0.006107
0.006257
0.006408
0.006555
0.006705
0.006855
0.007009
0.007159
0.006494
0.006641
0.006791
0.006939
0.007090
0.007241
0.007395
0.007545
0.007698
0.007039
0.007187
0.007337
0.007488
0.007638
0.007789
0.007942
0.008095
0.008249
0.007602
0.007750
0.007902
0.008052
0.008204
0.008356
0.008507
0.008662
0.008815
0.008177
0.008326
0.008478
0.008630
0.008784
0.008935
0.009089
0.009242
0.009399
0.008768
0.008919
0.009070
0.009222
0.009374
0.009528
0.009683
0.009836
0.009992
0.009373
0.009524
0.009676
0.009831
0.009983
0.010134
0.010293
0.010447
0.010602
0.009989
0.010142
0.010296
0.010448
0.010604
0.010760
0.010913
0.011069
0.011225
0.010624
0.010776
0.010931
0.011084
0.011239
0.011393
0.011548
0.011705
0.011861
0.011271
0.011422
0.011575
0.011731
0.011885
0.012041
0.012199
0.012353
0.012511
0.011929
0.012082
0.012236
0.012391
0.012547
0.012701
0.012859
0.013014
0.013173
0.012600
0.012753
0.012909
0.013065
0.013219
0.013374
0.013532
0.013689
0.013846
0.013282
0.013437
0.013592
0.013748
0.013904
0.014059
0.014216
0.014375
0.014534
0.013978
0.014133
0.014288
0.014442
0.014602
0.014756
0.014915
0.015073
0.015233
0.014686
0.014837
0.014995
0.015151
0.015308
0.015466
0.015623
0.015781
0.015941
0.015403
0.015556
0.015715
0.015870
0.016027
0.016184
0.016342
0.016501
0.016657
0.016129
0.016287
0.016442
0.016600
0.016755
0.016914
0.017071
0.017230
0.017389
0.016870
0.017025
0.017182
0.017340
0.017495
0.017655
0.017813
0.017972
0.018131
0.017618
0.017773
0.017930
0.018088
0.018247
0.018403
0.018561
0.018721
0.018882
0.018375
0.018533
0.018688
0.018846
0.019004
0.019160
0.019321
0.019482
0.019639
0.019142
0.019301
0.019455
0.019614
0.019772
0.019930
0.020090
0.020249
0.020410
0.019919
0.020076
0.020233
0.020390
0.020548
0.020709
0.020867
0.021026
0.021187
0.020703
0.020860
0.021017
0.021177
0.021333
0.021491
0.021653
0.021811
0.021971
0.021496
0.021651
0.021809
0.021968
0.022127
0.022285
0.022444
0.022603
0.022765
0.022296
0.022451
0.022609
0.022767
0.022926
0.023085
0.023243
0.023403
0.023562
0.023101
0.023258
0.023415
0.023575
0.023732
0.023892
0.024052
0.024210
0.024369
0.023913
0.024071
0.024229
0.024387
0.024545
0.024703
0.024864
0.025023
0.025183
0.024733
0.024891
0.025049
0.025208
0.025366
0.025525
0.025684
0.025844
0.026003
0.025559
0.025715
0.025874
0.026031
0.026189
0.026348
0.026509
0.026668
0.026827
0.026389
0.026548
0.026705
0.026863
0.027021
0.027179
0.027339
0.027501
0.027658
0.027224
0.027385
0.027541
0.027698
0.027857
0.028014
0.028175
0.028335
0.028493
0.028067
0.028222
0.028381
0.028538
0.028697
0.028857
0.029014
0.029173
0.029333
0.028909
0.029068
0.029226
0.029384
0.029540
0.029701
0.029857
0.030017
0.030177
0.029759
0.029916
0.030074
0.030230
0.030388
0.030546
0.030707
0.030866
0.031024
0.030612
0.030770
0.030925
0.031084
0.031241
0.031399
0.031556
0.031716
0.031877
0.031468
0.031625
0.031781
0.031937
0.032096
0.032255
0.032411
0.032570
0.032730
0.032325
0.032481
0.032639
0.032797
0.032954
0.033111
0.033268
0.033428
0.033584
0.033185
0.033344
0.033500
0.033656
0.033814
0.033970
0.034128
0.034284
0.034446
0.034047
0.034203
0.034362
0.034518
0.034675
0.034832
0.034990
0.035149
0.035305
0.034912
0.035067
0.035224
0.035382
0.035538
0.035696
0.035854
0.036011
0.036165
0.035778
0.035935
0.036090
0.036246
0.036403
0.036561
0.036717
0.036875
0.037031
0.036649
0.036799
0.036956
0.037112
0.037271
0.037425
0.037583
0.037739
0.037898
0.037510
0.037666
0.037824
0.037979
0.038135
0.038292
0.038449
0.038604
0.038763
0.038381
0.038537
0.038690
0.038847
0.039003
0.039158
0.039317
0.039472
0.039627
0.039248
0.039402
0.039558
0.039715
0.039868
0.040025
0.040183
0.040337
0.040492
0.040116
0.040269
0.040426
0.040579
0.040735
0.040891
0.041046
0.041202
0.041358
0.040982
0.041136
0.041292
0.041446
0.041602
0.041757
0.041910
0.042066
0.042223
0.041848
0.042003
0.042157
0.042313
0.042467
0.042620
0.042776
0.042930
0.043088
0.042714
0.042868
0.043023
0.043177
0.043331
0.043485
0.043639
0.043794
0.043948
0.043578
0.043731
0.043887
0.044041
0.044194
0.044348
0.044503
0.044656
0.044810
0.044438
0.044595
0.044746
0.044900
0.045054
0.045205
0.045362
0.045515
0.045670
0.045300
0.045452
0.045607
0.045759
0.045914
0.046066
0.046218
0.046374
0.046526
0.046159
0.046312
0.046465
0.046617
0.046769
0.046924
0.047075
0.047229
0.047380
0.047015
0.047166
0.047321
0.047470
0.047625
0.047777
0.047929
0.048082
0.048233
0.047868
0.048018
0.048170
0.048323
0.048478
0.048630
0.048781
0.048933
0.049084
0.048719
0.048871
0.049021
0.049173
0.049324
0.049476
0.049628
0.049780
0.049930
0.049564
0.049716
0.049869
0.050019
0.050171
0.050321
0.050472
0.050623
0.050775
0.050410
0.050561
0.050711
0.050861
0.051013
0.051163
0.051314
0.051465
0.051615
0.051250
0.051401
0.051553
0.051701
0.051852
0.052003
0.052152
0.052302
0.052453
0.052088
0.052237
0.052387
0.052537
0.052688
0.052837
0.052988
0.053136
0.053287
0.052921
0.053071
0.053220
0.053370
0.053519
0.053668
0.053817
0.053966
0.054116
0.053751
0.053899
0.054048
0.054197
0.054348
0.054495
0.054643
0.054792
0.054941
0.054576
0.054723
0.054872
0.055022
0.055170
0.055315
0.055466
0.055615
0.055763
0.055396
0.055543
0.055693
0.055841
0.055989
0.056136
0.056286
0.056432
0.056579
SCALARS stress_1 float
LOOKUP_TABLE default
33480.657082
-32525795.174521
-32033447.214126
-31538765.753731
-31041678.293335
-30542301.082940
-30040831.872545
-29537356.412150
-29031925.201755
-28524790.741360
-28016005.530965
-27505656.820570
-26994112.860175
-26481130.149780
-25967262.189385
-25452415.478990
-24936872.518595
-24420775.308200
-23904328.597805
-23387482.137410
-22870835.677015
-22354225.966620
-21837904.756225
-21322306.295830
-20807233.585435
-20293325.125040
-19780453.414645
-19268855.454250
-18759035.993855
-18251005.783460
-17744966.823065
-17241215.362669
-16740010.152274
-16241424.191879
-15745983.231484
-15253612.771089
-14764779.810694
-14279573.350299
-13798424.389904
-13321406.429509
-12848904.469114
-12381043.758719
-11918213.048324
-11460467.087929
-11008132.877534
-10561659.667139
-10121093.706744
-9686657.246349
-9258656.285954
-8837400.575559
-8422988.615164
-8015674.654769
-7615751.694374
-7223429.233979
-6838922.273584
-6462338.563189
-6094152.352794
-5734222.142399
-5383064.432003
-5040541.971608
-4707002.761213
-4382672.800818
-4067687.090423
-3761969.130028
-3465850.919633
-3179473.459238
-2902868.498843
-2636231.038448
-2379473.328053
-2132858.867658
-1896400.407263
-1670025.196868
-1453873.236473
-1248016.276078
-1052332.565683
-866939.105288
-691712.894893
-526578.684498
-371654.724103
-226678.013708
-91618.553313
-32478190.874809
117005.206794
-7637.253602
-142404.713997
-287157.174392
-441807.634787
-606686.095182
-781717.055577
-967037.515972
-1162639.976367
-1368537.436762
-1584551.897157
-1810754.857552
-2047379.567947
-2294022.278342
-2550941.238737
-2817728.699132
-3094422.159527
-3380979.119922
-3677326.080317
-3983180.790712
-4298540.251107
-4623209.461502
-4956986.671897
-5299872.632292
-5651452.842687
-6011729.803082
-6380360.763477
-6757402.473872
-7142384.934268
-7535151.144663
-7935642.855058
-8343400.565453
-8758336.275848
-9180182.236243
-9608779.696638
-10043699.657033
-10484917.867428
-10932132.327823
-11384878.538218
-11843281.248613
-12306735.959008
-12775253.669403
-13248495.879798
-13726125.590193
-14208018.050588
-14693873.760983
-15183242.471378
-15676384.181773
-16172543.142168
-16671761.352563
-17173739.062958
-17678235.273353
-18184995.233748
-18693629.944143
-19204284.654538
-19716419.364934
-20230005.075329
-20744671.785724
-21260310.996119
-21776773.456514
-22293793.166909
-22811010.377304
-23328577.587699
-23845880.048094
-24363102.758489
-24879906.218884
-25396028.429279
-25911510.639674
-26426137.100069
-26939676.060464
-27451971.770859
-27962845.731254
-28472311.441649
-28980116.152044
-29486191.362439
-29990192.822834
-30492410.033229
-30992391.743624
-31490023.954019
-31985295.414414
-32483023.054781
-32488092.984752
-32492900.164723
-32497761.844694
-32502560.274665
-32507241.204636
-32511910.384607
-32516586.564578
-32521232.244549
43823.337053
53591.267025
63025.696996
72024.376967
80557.806938
88815.486909
96474.416880
103874.346851
110632.276822
-14168.183573
-21046.363544
-28463.793515
-36181.223486
-44401.153457
-53037.333428
-62062.763399
-71445.693370
-81369.873342
-148847.643968
-155884.073939
-163087.503910
-170937.933881
-179229.613852
-187799.793823
-196907.723794
-206347.403765
-216402.333737
-293568.854363
-300554.534334
-307969.214305
-315777.894276
-324055.324247
-332610.504218
-341764.934189
-351225.614161
-361235.044132
-448329.564758
-455280.244729
-462795.924700
-470521.354671
-478767.034642
-487510.714613
-496521.644584
-506187.574556
-516153.504527
-613146.275153
-620240.205124
-627716.635095
-635467.815066
-643764.995037
-652471.175008
-661605.854979
-671242.284951
-681270.464922
-788360.735548
-795414.915519
-802781.845490
-810516.275461
-818952.205432
-827657.135403
-836839.565375
-846502.245346
-856453.175317
-973563.945943
-980649.375914
-988057.805885
-996037.235856
-1004284.165827
-1013007.595798
-1022222.025770
-1031802.455741
-1041830.385712
-1169208.406338
-1176190.836309
-1183694.516280
-1191560.196251
-1199818.876222
-1208694.806193
-1217818.736165
-1227443.166136
-1237536.846107
-1375028.116733
-1381991.546704
-1389500.976675
-1397457.656646
-1405673.836617
-1414593.516589
-1423707.946560
-1433304.126531
-1443408.306502
-1591111.327128
-1598104.507099
-1605564.437070
-1613475.867041
-1621861.547012
-1630698.476984
-1639865.156955
-1649408.086926
-1659615.266897
-1817462.787523
-1824442.967494
-1831882.397465
-1839930.327436
-1848177.007407
-1856935.937379
-1866130.617350
-1875793.047321
-1885843.977292
-2053999.747918
-2061047.677889
-2068500.357860
-2076262.787831
-2084700.717803
-2093468.897774
-2102688.827745
-2112318.757716
-2122366.937687
-2300768.708313
-2307686.138284
-2315217.568255
-2323089.498226
-2331393.428198
-2340220.108169
-2349378.288140
-2358980.718111
-2368974.648082
-2557506.168708
-2564498.848679
-2571992.278650
-2579871.958621
-2588177.388593
-2596962.068564
-2606174.998535
-2615711.928506
-2625755.608477
-2824292.879103
-2831277.809074
-2838802.489045
-2846688.669017
-2855052.098988
-2863742.778959
-2872858.708930
-2882323.138901
-2892426.568872
-3100992.089498
-3108067.519469
-3115456.449440
-3123310.379412
-3131611.059383
-3140354.489354
-3149511.669325
-3159052.599296
-3169105.029267
-3387617.799893
-3394636.979864
-3402124.409835
-3409895.089807
-3418157.269778
-3426836.699749
-3435967.379720
-3445591.559691
-3455510.739662
-3683932.010288
-3690909.940259
-3698287.620231
-3706167.550202
-3714422.480173
-3723119.660144
-3732225.590115
-3741632.270086
-3751646.950057
-3989769.720683
-3996709.650654
-4004217.330626
-4011965.010597
-4020278.940568
-4028811.370539
-4038007.550510
-4047396.730481
-4057231.410452
-4305021.931078
-4312057.861049
-4319544.291021
-4327229.720992
-4335545.650963
-4344132.080934
-4353175.260905
-4362540.940876
-4372417.370847
-4629788.391473
-4636744.821445
-4644077.501416
-4651793.431387
-4660026.611358
-4668657.041329
-4677592.971300
-4687025.401271
-4696865.331242
-4963614.851868
-4970492.281840
-4977894.961811
-4985626.891782
-4993799.821753
-5002386.001724
-5011228.181695
-5020594.611666
-5030427.041637
-5306424.812263
-5313252.242235
-5320596.172206
-5328390.602177
-5336409.782148
-5344945.462119
-5353880.892090
-5363151.822061
-5372860.002032
-5658004.772658
-5664866.452630
-5672187.632601
-5679934.062572
-5688007.992543
-5696431.922514
-5705362.352485
-5714536.282456
-5724342.962427
-6018139.983054
-6025134.913025
-6032458.592996
-6040013.022967
-6048096.452938
-6056559.882909
-6065337.062880
-6074602.992851
-6084119.672822
-6386862.193449
-6393797.623420
-6401039.553391
-6408660.233362
-6416698.663333
-6425046.093304
-6433894.273275
-6442903.953246
-6452601.133217
-6763827.903844
-6770721.583815
-6777881.263786
-6785530.943757
-6793469.873728
-6801927.803699
-6810510.233670
-6819622.413641
-6829159.093613
-7148836.364239
-7155660.544210
-7162864.474181
-7170392.154152
-7178326.334123
-7186612.764094
-7195276.444065
-7204264.124036
-7213684.554008
-7541622.574634
-7548430.504605
-7555538.184576
-7563024.114547
-7571026.294518
-7579267.474489
-7587746.404460
-7596810.834431
-7606038.514403
-7941951.035029
-7948754.715000
-7955935.644971
-7963475.324942
-7971210.254913
-7979394.934884
-7987900.114855
-7996821.544827
-8006035.974798
-8349799.995424
-8356520.425395
-8363615.855366
-8371103.285337
-8378780.465308
-8386992.645279
-8395402.075250
-8404223.005222
-8413454.935193
-8764675.955819
-8771402.885790
-8778427.815761
-8785907.745732
-8793624.425703
-8801690.105674
-8810141.535645
-8818860.215617
-8827966.145588
-9186601.416214
-9193217.346185
-9200229.276156
-9207636.456127
-9215249.636098
-9223314.816069
-9231655.246041
-9240391.676012
-9249398.105983
-9615064.126609
-9621831.556580
-9628745.486551
-9636060.666522
-9643667.346493
-9651628.526464
-9659919.956436
-9668518.386407
-9677440.566378
-10050060.837004
-10056620.766975
-10063592.446946
-10070855.376917
-10078377.306888
-10086388.486859
-10094610.666831
-10103132.096802
-10111916.026773
-10491288.297399
-10497836.227370
-10504724.657341
-10511889.587312
-10519425.517283
-10527236.197255
-10535476.877226
-10543841.807197
-10552654.237168
-10938345.757794
-10944947.187765
-10951768.117736
-10958947.297707
-10966412.477678
-10974148.407650
-10982226.587621
-10990631.267592
-10999288.197563
-11391170.218189
-11397731.648160
-11404584.078131
-11411645.008102
-11419069.188073
-11426776.868045
-11434787.048016
-11443009.977987
-11451666.657958
-11849531.678584
-11855877.108555
-11862707.538526
-11869888.968497
-11877257.398469
-11884807.828440
-11892715.258411
-11900961.438382
-11909396.118353
-12312979.138979
-12319415.568950
-12326195.248921
-12333289.428892
-12340505.858864
-12347969.288835
-12355910.968806
-12364029.148777
-12372408.578748
-12781406.599374
-12787963.529345
-12794518.709316
-12801602.889287
-12808706.069259
-12816135.249230
-12824077.679201
-12832030.609172
-12840270.039143
-13254551.059769
-13260974.989740
-13267631.919711
-13274604.349683
-13281728.779654
-13289110.709625
-13296762.889596
-13304766.319567
-13312977.499538
-13732306.770164
-13738547.200135
-13745226.880106
-13752085.810078
-13759160.240049
-13766509.170020
-13774101.099991
-13781943.279962
-13790094.709933
-14214071.980559
-14220462.160530
-14226980.340501
-14233716.270473
-14240769.450444
-14248126.630415
-14255563.060386
-14263384.490357
-14271350.170328
-14699919.940954
-14706021.120925
-14712634.550897
-14719412.730868
-14726383.410839
-14733522.090810
-14741079.770781
-14748642.950752
-14756585.130723
-15189361.401349
-15195684.831320
-15202049.511292
-15208792.941263
-15215618.121234
-15222887.801205
-15230169.981176
-15237729.161147
-15245587.091118
-15682356.611744
-15688534.541715
-15694986.221687
-15701537.401658
-15708391.081629
-15715450.511600
-15722774.691571
-15730331.371542
-15738087.051513
-16178571.572139
-16184656.002110
-16191132.182082
-16197682.112053
-16204415.292024
-16211377.471995
-16218661.901966
-16226014.331937
-16233664.261908
-16677682.782534
-16683901.712506
-16690236.642477
-16696694.572448
-16703336.502419
-16710269.932390
-16717527.862361
-16724687.792332
-16732198.472303
-17179632.242929
-17185635.172901
-17192071.602872
-17198391.032843
-17205142.962814
-17211966.642785
-17218971.072756
-17226162.502727
-17233546.432698
-17684069.453324
-17690082.133296
-17696302.063267
-17702714.243238
-17709373.673209
-17716092.603180
-17722958.283151
-17730143.963122
-17737503.643093
-18190788.913720
-18196803.593691
-18202912.023662
-18209336.953633
-18215882.133604
-18222371.813575
-18229364.993546
-18236368.173517
-18243619.603488
-18699509.124115
-18705497.554086
-18711664.484057
-18717843.164028
-18724373.343999
-18730969.273970
-18737756.203941
-18744625.383912
-18751813.063883
-19210081.084510
-19215956.514481
-19222076.944452
-19228222.124423
-19234739.554394
-19241262.484365
-19247894.664336
-19254801.844307
-19261792.524279
-19722242.544905
-19728056.474876
-19734135.904847
-19740349.584818
-19746618.264789
-19753063.444760
-19759766.124731
-19766488.304702
-19773343.734674
-20235723.755300
-20241617.435271
-20247499.115242
-20253682.545213
-20259894.225184
-20266221.655155
-20272865.085126
-20279503.515097
-20286310.695069
-20750381.465695
-20756214.395666
-20762117.575637
-20768287.755608
-20774300.685579
-20780799.615550
-20787188.545521
-20793738.225493
-20800401.905464
-21266038.926090
-21271740.356061
-21277628.786032
-21283654.466003
-21289810.895974
-21296053.575945
-21302403.255916
-21308924.935888
-21315535.365859
-21782420.386485
-21788274.566456
-21794014.746427
-21800014.926398
-21806007.606369
-21812084.536340
-21818534.966311
-21824913.146283
-21831311.326254
-22299233.346880
-22305018.776851
-22310788.706822
-22316665.636793
-22322653.566764
-22328733.246735
-22334984.926707
-22341373.356678
-22347673.786649
-22816566.807275
-22822271.487246
-22828012.667217
-22833781.847188
-22839818.527159
-22845683.957130
-22851845.387102
-22858081.067073
-22864402.247044
-23334056.267670
-23339547.197641
-23345295.627612
-23351118.557583
-23356973.487554
-23362808.417525
-23368905.097497
-23375025.777468
-23381189.957439
-23851369.478065
-23856960.658036
-23862611.338007
-23868330.017978
-23874060.447949
-23879874.627921
-23885911.057892
-23892067.237863
-23898035.167834
-24368489.188460
-24374086.618431
-24379591.548402
-24385353.728373
-24391012.908344
-24396866.588316
-24402746.768287
-24408628.448258
-24414724.878229
-24885284.898855
-24890805.828826
-24896311.508797
-24901927.938768
-24907493.868739
-24913300.798711
-24919071.228682
-24924917.908653
-24930878.838624
-25401449.109250
-25406948.789221
-25412446.469192
-25417908.149163
-25423639.079135
-25429220.759106
-25434967.189077
-25440714.619048
-25446589.549019
-25916949.069645
-25922356.999616
-25927831.679587
-25933186.359558
-25938719.289530
-25944425.969501
-25949972.149472
-25955720.829443
-25961447.509414
-26431451.030040
-26436792.960011
-26442228.389982
-26447722.819953
-26453106.749925
-26458650.179896
-26464163.359867
-26469950.289838
-26475479.219809
-26944935.490435
-26950283.920406
-26955599.600377
-26961071.280348
-26966488.210320
-26971883.390291
-26977379.820262
-26982791.500233
-26988477.680204
-27457217.950830
-27462584.380801
-27467797.560772
-27473148.740744
-27478578.170715
-27483930.600686
-27489301.030657
-27494718.960628
-27500276.140599
-27968090.661225
-27973308.091196
-27978553.771167
-27983881.201139
-27989289.881110
-27994488.311081
-27999851.241052
-28005212.921023
-28010553.350994
-28477506.871620
-28482741.551591
-28487999.231562
-28493190.161534
-28498461.591505
-28503569.521476
-28508853.701447
-28514163.381418
-28519466.061389
-28985308.082015
-28990499.511986
-28995640.691958
-29000884.621929
-29005941.051900
-29011217.481871
-29016232.411842
-29021606.841813
-29026673.271784
-29491250.292410
-29496420.722381
-29501525.652353
-29506687.582324
-29511813.762295
-29516929.942266
-29522015.622237
-29527091.302208
-29532223.982179
-29995327.252805
-30000538.682776
-30005516.112748
-30010579.542719
-30015629.722690
-30020685.402661
-30025737.332632
-30030775.762603
-30035896.692574
-30497404.713200
-30502394.643172
-30507479.823143
-30512501.753114
-30517478.683085
-30522561.363056
-30527498.043027
-30532449.222998
-30537420.152969
-30997371.673595
-31002398.603567
-31007427.533538
-31012302.213509
-31017273.893480
-31022166.323451
-31027082.253422
-31031938.183393
-31036852.613364
-31494979.383990
-31500079.313962
-31504986.243933
-31509897.173904
-31514854.353875
-31519601.033846
-31524499.713817
-31529197.143788
-31534035.323759
-31990283.594386
-31995227.024357
-32000214.954328
-32005081.884299
-32009902.064270
-32014566.744241
-32019526.924212
-32024106.354183
-32028790.534154
SCALARS stress_2 float
LOOKUP_TABLE default
401399.760112
-5018306.915219
-4938647.781777
-4858860.648335
-4779393.514894
-4699030.381452
-4616971.248010
-4536384.114569
-4454804.981127
-4372617.847686
-4289694.714244
-4207539.580802
-4124744.447361
-4041149.313919
-3958450.180477
-3874663.047036
-3791131.913594
-3707376.780152
-3623973.646711
-3540186.513269
-3455599.379828
-3371428.246386
-3288121.112944
-3204173.979503
-3119810.846061
-3036663.712619
-2953100.579178
-2869601.445736
-2786614.312295
-2703051.178853
-2620768.045411
-2538324.911970
-2456009.778528
-2374142.645086
-2293075.511645
-2212424.378203
-2132157.244762
-2052658.111320
-1972902.977878
-1894235.844437
-1816272.710995
-1739429.577553
-1662490.444112
-1587087.310670
-1511876.177228
-1437977.043787
-1364877.910345
-1291778.776904
-1220247.643462
-1150092.510020
-1080385.376579
-1013206.243137
-945803.109695
-879007.976254
-814580.842812
-751401.709371
-688350.575929
-627507.442487
-567368.309046
-509277.175604
-452018.042162
-395558.908721
-341851.775279
-288944.641838
-237349.508396
-187258.374954
-139151.241513
-92420.108071
-46392.974629
-2797.841188
40061.292254
79944.425696
119251.559137
156670.692579
192937.826020
227060.959462
260000.092904
291563.226345
321366.359787
349953.493229
375980.626670
-4466562.320420
800152.354911
781165.221469
760066.088027
737206.954586
712459.821144
686144.687702
658805.554261
629514.420819
598367.287378
565236.153936
531177.020494
495549.887053
457490.753611
417895.620169
377212.486728
334897.353286
290406.219845
244283.086403
197007.952961
148068.819520
97945.686078
45902.552636
-7932.580805
-63111.714247
-119250.847689
-177277.981130
-236297.114572
-296756.248013
-358943.381455
-422250.514897
-485877.648338
-551872.781780
-619307.915222
-686839.048663
-755298.182105
-825741.315546
-896568.448988
-969507.582430
-1042190.715871
-1115897.849313
-1191012.982755
-1266672.116196
-1342875.249638
-1419590.383079
-1497969.516521
-1576476.649963
-1655815.783404
-1735090.916846
-1815454.050288
-1896873.183729
-1977620.317171
-2059167.450613
-2140874.584054
-2224245.717496
-2306496.850937
-2389259.984379
-2473303.117821
-2556418.251262
-2639949.384704
-2723128.518146
-2807651.651587
-2891854.785029
-2975673.918470
-3059685.051912
-3143472.185354
-3227611.318795
-3311782.452237
-3395857.585679
-3479836.719120
-3563335.852562
-3646898.986003
-3729214.119445
-3812905.252887
-3895348.386328
-3978015.519770
-4060106.653212
-4142005.786653
-4223680.920095
-4305260.053537
-4386295.186978
-4521416.779900
-4577263.239380
-4632053.698859
-4687644.158339
-4742466.617819
-4797929.077299
-4853359.536779
-4908469.996259
-4963612.455739
441214.219592
482180.679072
521835.138551
561521.598031
602328.057511
641694.516991
681220.976471
720971.435951
761169.895431
741030.761989
700896.302509
661081.843029
619859.383549
579308.924070
538982.464590
498688.005110
457945.545630
416467.086150
719035.628547
678453.169068
637934.709588
596840.250108
556321.790628
514459.331148
473012.871668
432590.412188
391175.952708
696016.495106
654570.035626
612995.576146
571645.116666
529334.657186
488592.197706
446985.738227
404771.278747
363164.819267
670917.361664
628702.902184
587032.442704
545521.983225
503435.523745
461157.064265
418782.604785
376504.145305
334161.685825
644282.228223
602035.768743
559181.309263
517062.849783
473952.390303
431673.930823
388883.471343
346189.011863
303270.552384
615503.094781
573032.635301
530690.175821
487579.716341
444181.256861
401166.797382
358088.337902
314689.878422
271291.418942
586339.961339
543357.501859
499095.042380
455984.582900
412298.123420
368643.663940
324925.204460
280662.744980
237168.285500
554648.827898
510610.368418
467307.908938
422501.449458
378590.989978
334392.530498
290418.071018
246155.611539
201893.152059
521837.694456
476519.234976
433088.775496
388314.316016
343987.856537
298637.397057
253606.937577
209664.478097
164762.018617
486434.561014
441980.101535
396629.642055
352239.182575
305896.723095
261474.263615
216379.804135
171477.344655
125966.885175
450103.427573
404848.968093
358794.508613
313924.049133
268221.589653
222871.130173
177136.670694
131850.211214
85603.751734
412108.294131
366309.834651
320031.375171
274264.915692
228018.456212
182443.996732
136517.537252
90015.077772
43000.618292
372161.160690
325434.701210
280148.241730
233389.782250
186535.322770
140288.863290
93338.403810
47123.944330
45.484851
330774.027248
284111.567768
237769.108288
190338.648808
143516.189328
96021.729849
49519.270369
2376.810889
-44413.648591
287594.893806
240132.434326
193501.974847
146647.515367
98641.055887
51082.596407
3620.136927
-43138.322553
-91336.782033
242271.760365
195513.300885
148114.841405
99948.381925
52421.922445
5151.462965
-43462.996515
-91309.455994
-139315.915474
196692.626923
148846.167443
100519.707963
52801.248483
4634.789004
-43819.670476
-92050.129956
-140504.589436
-189151.048916
148489.493481
100643.034002
52604.574522
3926.115042
-45136.344438
-93430.803918
-142141.263398
-190947.722878
-239882.182358
99422.360040
50775.900560
2129.441080
-46901.018400
-95707.477880
-145409.937360
-193768.396840
-243118.856319
-292213.315799
48339.226598
-947.232882
-49113.692362
-99328.151842
-148230.611321
-197677.070801
-247123.530281
-296665.989761
-346368.449241
-3735.906843
-52862.366323
-102500.825803
-152683.285283
-202097.744763
-251800.204243
-301630.663723
-352325.123203
-401675.582683
-57891.040285
-107401.499765
-157231.959245
-207734.418725
-257564.878205
-307875.337685
-357481.797164
-407664.256644
-458038.716124
-112910.173727
-163284.633207
-212923.092687
-264321.552166
-314216.011646
-364910.471126
-415348.930606
-465851.390086
-516545.849566
-169721.307168
-220639.766648
-271654.226128
-321836.685608
-372531.145088
-423353.604568
-473952.064048
-525062.523528
-576204.983007
-227620.440610
-278858.900090
-329585.359570
-380727.819050
-431998.278530
-483620.738009
-534635.197489
-585777.656969
-636984.116449
-287375.574052
-338486.033532
-390524.493011
-441186.952491
-492841.411971
-544431.871451
-595766.330931
-647420.790411
-699011.249891
-347962.707493
-400129.166973
-451303.626453
-503726.085933
-555252.545413
-606875.004893
-658817.464373
-710663.923852
-762382.383332
-410949.840935
-462604.300415
-514322.759895
-566233.219375
-618655.678854
-670598.138334
-722412.597814
-775027.057294
-827193.516774
-474192.974377
-525943.433856
-578621.893336
-630916.352816
-682730.812296
-735313.271776
-788407.731256
-840158.190736
-892996.650216
-539036.107818
-591042.567298
-643689.026778
-696047.486258
-749077.945738
-801436.405218
-854370.864697
-907017.324177
-959759.783657
-604391.241260
-657357.700740
-710420.160220
-762554.619699
-815777.079179
-869031.538659
-921517.998139
-974964.457619
-1028314.917099
-672562.374701
-724312.834181
-777439.293661
-830533.753141
-884044.212621
-936498.672101
-989945.131581
-1043295.591061
-1096870.050540
-739613.508143
-793251.967623
-846346.427103
-899856.886583
-953271.346063
-1006301.805542
-1059972.265022
-1113578.724502
-1167089.183982
-809480.641585
-861999.101065
-916245.560544
-969980.020024
-1023586.479504
-1076968.938984
-1130671.398464
-1183925.857944
-1237692.317424
-879251.775026
-933050.234506
-986656.693986
-1040519.153466
-1094829.612946
-1148340.072426
-1202618.531906
-1256128.991385
-1310407.450865
-950718.908468
-1004645.367948
-1058571.827428
-1112370.286908
-1167064.746387
-1220671.205867
-1274789.665347
-1329612.124827
-1383730.584307
-1022826.041910
-1077328.501389
-1131094.960869
-1185213.420349
-1240515.879829
-1294410.339309
-1348336.798789
-1402103.258269
-1457149.717749
-1096373.175351
-1150459.634831
-1204802.094311
-1259592.553791
-1313903.013271
-1368789.472751
-1423387.932230
-1477410.391710
-1531944.851190
-1169984.308793
-1224422.768273
-1279245.227753
-1333779.687232
-1389274.146712
-1443488.606192
-1498855.065672
-1552781.525152
-1607763.984632
-1245291.442234
-1300049.901714
-1354776.361194
-1409278.820674
-1464101.280154
-1519115.739634
-1574098.199114
-1629304.658594
-1684223.118073
-1321238.575676
-1375645.035156
-1430851.494636
-1485673.954116
-1540720.413596
-1596086.873075
-1650717.332555
-1706307.792035
-1760842.251515
-1398145.709118
-1452968.168598
-1507950.628077
-1563189.087557
-1618395.547037
-1673218.006517
-1728104.465997
-1783406.925477
-1839413.384957
-1474988.842559
-1529971.302039
-1584857.761519
-1640576.220999
-1695366.680479
-1751693.139959
-1806259.599439
-1861978.058918
-1917088.518398
-1553399.976001
-1607710.435481
-1663460.894961
-1719179.354441
-1774193.813920
-1830008.273400
-1884830.732880
-1941317.192360
-1996491.651840
-1631235.109443
-1686569.568922
-1742608.028402
-1798262.487882
-1853532.947362
-1909443.406842
-1964521.866322
-2021104.325802
-2076118.785282
-1710478.242884
-1766900.702364
-1822267.161844
-1877025.621324
-1932776.080804
-1988942.540284
-2044756.999764
-2100955.459243
-2156609.918723
-1790393.376326
-1846175.835806
-1902022.295286
-1957452.754766
-2013235.214245
-2069593.673725
-2125824.133205
-2181222.592685
-2237261.052165
-1871300.509768
-1926314.969247
-1983153.428727
-2038583.888207
-2094622.347687
-2150276.807167
-2206699.266647
-2261969.726127
-2318136.185607
-1952079.643209
-2007318.102689
-2063676.562169
-2119939.021649
-2175849.481129
-2231439.940609
-2288054.400088
-2343836.859568
-2400035.319048
-2033338.776651
-2089601.236131
-2145159.695611
-2201454.155090
-2257204.614570
-2313115.074050
-2369313.533530
-2425703.993010
-2482318.452490
-2115141.910092
-2171020.369572
-2226578.829052
-2283545.288532
-2339263.748012
-2395558.207492
-2451852.666972
-2507827.126452
-2564089.585931
-2196881.043534
-2252983.503014
-2308957.962494
-2365636.421974
-2422346.881454
-2478353.340933
-2534263.800413
-2591390.259893
-2646756.719373
-2279868.176976
-2335650.636456
-2392393.095935
-2448591.555415
-2504342.014895
-2560220.474375
-2617218.933855
-2673801.393335
-2729711.852815
-2362119.310417
-2418733.769897
-2474996.229377
-2531578.688857
-2587937.148337
-2643719.607817
-2700558.067297
-2756948.526776
-2813018.986256
-2445522.443859
-2501880.903339
-2557791.362819
-2614501.822299
-2670764.281778
-2727346.741258
-2783897.200738
-2839807.660218
-2895974.119698
-2529405.577301
-2584996.036780
-2641642.496260
-2697392.955740
-2754103.415220
-2810173.874700
-2867140.334180
-2923114.793660
-2979729.253140
-2612104.710742
-2668847.170222
-2725269.629702
-2781276.089182
-2837602.548662
-2894409.008142
-2951151.467621
-3007189.927101
-3063676.386581
-2695891.844184
-2752762.303664
-2808832.763144
-2865063.222623
-2921421.682103
-2978100.141583
-3034874.601063
-3090977.060543
-3147559.520023
-2780222.977625
-2836357.437105
-2892907.896585
-2949234.356065
-3005752.815545
-3062015.275025
-3118277.734505
-3174956.193985
-3231506.653464
-2863722.111067
-2920176.570547
-2976919.030027
-3033213.489507
-3089571.948987
-3145834.408466
-3202576.867946
-3258711.327426
-3315901.786906
-2947253.244509
-3004571.703989
-3060482.163468
-3117544.622948
-3173615.082428
-3229973.541908
-3286428.001388
-3343202.460868
-3399496.920348
-3031552.377950
-3088806.837430
-3144301.296910
-3200883.756390
-3257594.215870
-3314080.675350
-3370311.134830
-3426893.594309
-3483508.053789
-3116171.511392
-3172753.970872
-3228984.430352
-3285342.889832
-3341349.349311
-3397707.808791
-3454546.268271
-3511320.727751
-3567039.187231
-3199926.644834
-3256253.104313
-3312803.563793
-3368906.023273
-3425616.482753
-3481750.942233
-3538045.401713
-3594019.861193
-3651274.320673
-3284257.778275
-3340392.237755
-3397166.697235
-3453141.156715
-3509275.616195
-3565538.075675
-3622536.535154
-3677838.994634
-3735061.454114
-3368300.911717
-3424339.371197
-3480313.830677
-3536672.290156
-3592870.749636
-3649261.209116
-3706003.668596
-3761914.128076
-3818528.587556
-3451736.045158
-3508030.504638
-3564420.964118
-3620491.423598
-3677041.883078
-3733208.342558
-3789054.802038
-3845253.261518
-3902091.720997
-3535427.178600
-3590985.638080
-3648112.097560
-3703990.557040
-3760477.016520
-3816547.475999
-3872329.935479
-3928976.394959
-3985462.854439
-3619310.312042
-3675284.771522
-3731579.231001
-3788289.690481
-3843400.149961
-3899790.609441
-3956149.068921
-4011931.528401
-4068289.987881
-3701849.445483
-3758431.904963
-3814150.364443
-3870668.823923
-3926579.283403
-3982905.742883
-4038848.202363
-4095366.661843
-4151213.121322
-3785540.578925
-3842059.038405
-3897649.497885
-3953655.957365
-4009822.416845
-4066276.876324
-4121771.335804
-4178033.795284
-4234168.254764
-3868751.712367
-3924438.171846
-3980540.631326
-4036227.090806
-4092617.550286
-4148784.009766
-4204406.469246
-4260956.928726
-4316099.388206
-3951354.845808
-4007041.305288
-4063271.764768
-4119086.224248
-4174548.683728
-4230427.143208
-4287137.602688
-4342216.062167
-4398638.521647
-4033765.979250
-4089804.438730
-4145362.898210
-4200825.357690
-4256799.817169
-4312742.276649
-4368844.736129
-4424531.195609
-4480505.655089
-4115889.112692
-4171735.572171
-4227390.031651
-4283140.491131
-4339370.950611
-4394545.410091
-4450455.869571
-4505694.329051
-4561828.788531
-4198012.246133
-4253730.705613
-4308745.165093
-4364751.624573
-4420502.084053
-4475740.543533
-4531779.003012
-4586825.462492
-4643279.921972
-4279559.379575
-4335117.839055
-4390036.298535
-4445562.758014
-4501569.217494
-4557319.676974
-4612814.136454
-4668308.595934
-4723707.055414
-4360370.513016
-4416344.972496
-4470847.431976
-4526981.891456
-4582220.350936
-4637778.810416
-4693209.269896
-4748351.729376
-4804230.188855
-4441501.646458
-4496452.105938
-4551786.565418
-4607345.024898
-4662743.484378
-4718173.943857
-4773284.403337
-4828906.862817
-4884017.322297
SCALARS stress_3 float
LOOKUP_TABLE default
140897.938319
9314224.532922
9183281.150490
9050913.768057
8917522.385625
8784547.003192
8649987.620760
8514916.238327
8379428.855894
8243413.473462
8107142.091029
7969830.708597
7832039.326164
7694087.943732
7555624.561299
7417129.178867
7277801.796434
7138554.414002
6998875.031569
6859307.649136
6719180.266704
6579116.884271
6439053.501839
6299006.119406
6159054.736974
6018895.354541
5879231.972109
5739440.589676
5600177.207244
5461057.824811
5322354.442378
5184179.059946
5046275.677513
4909124.295081
4772500.912648
4636437.530216
4501574.147783
4366918.765351
4233127.382918
4100952.000485
3969192.618053
3838505.235620
3708857.853188
3580410.470755
3453419.088323
3327515.705890
3203164.323458
3080316.941025
2958845.558593
2838814.176160
2720734.793727
2603871.411295
2489152.028862
2375952.646430
2265009.263997
2155889.881565
2048706.499132
1943475.116700
1840243.734267
1739300.351835
1640836.969402
1543957.586969
1450038.204537
1358198.822104
1268631.439672
1181624.057239
1097336.674807
1015497.292374
935641.909942
859034.527509
784651.145077
712283.762644
643516.380211
577292.997779
513181.615346
451886.232914
393774.850481
337583.468049
284416.085616
234112.703184
186161.320751
9081743.850965
-75582.743639
-32063.361207
14000.021226
62559.403659
113950.786091
168174.168524
225357.550956
284604.933389
347036.315821
411819.698254
479803.080686
550298.463119
623161.845551
699289.227984
777448.610417
858087.992849
941287.375282
1027702.757714
1115894.140147
1206741.522579
1299828.905012
1395684.287444
1493523.669877
1593971.052309
1695986.434742
1800657.817175
1906993.199607
2015824.582040
2126815.964472
2238959.346905
2353214.729337
2469598.111770
2587501.494202
2707004.876635
2827932.259067
2951035.641500
3075323.023933
3200890.406365
3328041.788798
3456489.171230
3585784.553663
3716295.936095
3848119.318528
3980918.700960
4114246.083393
4249109.465825
4384260.848258
4520660.230691
4657443.613123
4794802.995556
4933154.377988
5071777.760421
5210881.142853
5349952.525286
5489791.907718
5629919.290151
5770334.672583
5910414.055016
6051021.437449
6191772.819881
6332444.202314
6472651.584746
6613498.967179
6753866.349611
6893897.732044
7034153.114476
7173496.496909
7313527.879341
7452359.261774
7591158.644207
7729350.026639
7867141.409072
8004580.791504
8141284.173937
8277715.556369
8413106.938802
8548434.321234
8682689.703667
8816417.086100
8949600.468532
9104967.919160
9128367.987356
9151848.055552
9174944.123748
9198360.191943
9221584.260139
9244616.328335
9268032.396531
9291224.464726
118841.870123
96753.801927
75033.733731
52817.665536
31305.597340
9665.529144
-12054.539052
-32894.607248
-54294.675443
-10759.293011
10368.775185
32088.843381
53888.911577
75640.979772
97569.047968
119577.116164
141633.184360
163865.252555
35384.089422
57040.157618
78680.225813
100640.294009
122600.362205
144880.430401
166856.498596
189168.566792
211576.634988
84263.471854
106143.540050
128039.608246
150015.676442
172183.744637
194527.812833
216855.881029
239455.949225
261848.017420
135894.854287
158078.922483
179990.990678
202031.058874
224439.127070
247007.195266
269351.263461
292191.331657
314855.399853
190390.236719
212446.304915
234358.373111
256846.441307
279686.509502
301950.577698
324854.645894
347534.714090
370374.782286
246901.619152
269645.687348
292149.755543
314573.823739
337205.891935
359693.960131
382870.028327
405886.096522
428998.164718
307077.001585
329309.069780
352437.137976
374813.206172
397605.274368
420589.342563
443797.410759
466557.478955
489941.547151
369572.384017
392380.452213
414980.520409
437980.588604
460644.656800
483548.724996
506820.793192
530076.861387
553460.929583
434883.766450
457403.834645
480515.902841
503515.971037
526372.039233
549692.107428
572900.175624
596364.243820
620036.312016
502707.148882
525563.217078
548643.285274
571707.353469
594931.421665
618187.489861
641459.558057
665035.626252
688819.694448
573010.531315
596378.599510
619602.667706
642394.735902
666066.804098
689610.872294
713106.940489
736427.008685
760451.076881
646145.913747
669369.981943
692866.050139
716026.118335
739730.186530
763370.254726
786674.322922
810714.391118
834962.459313
722241.296180
745337.364376
768929.432571
792105.500767
815921.568963
839321.637159
863665.705354
887593.773550
911745.841746
800592.678612
823944.746808
847728.815004
870856.883200
894864.951395
918297.019591
942817.087787
966681.155983
991025.224178
881696.061045
905112.129241
928688.197436
952216.265632
976240.333828
1000488.402024
1024448.470219
1048696.538415
1072848.606611
965087.443477
988695.511673
1012463.579869
1036343.648065
1060207.716260
1084519.784456
1108703.852652
1132903.920848
1157359.989044
1051166.825910
1075398.894106
1099150.962301
1122903.030497
1146687.098693
1170983.166889
1195455.235085
1219687.303280
1244319.371476
1139646.208343
1163510.276538
1187566.344734
1211510.412930
1235662.481126
1260166.549321
1284334.617517
1309094.685713
1333454.753909
1230573.590775
1254437.658971
1278717.727167
1302885.795362
1327341.863558
1351557.931754
1375997.999950
1400598.068145
1425470.136341
1324092.973208
1347909.041403
1372141.109599
1396533.177795
1420669.245991
1445173.314186
1470013.382382
1494325.450578
1519357.518774
1419756.355640
1443620.423836
1468140.492032
1492724.560227
1516844.628423
1541540.696619
1565996.764815
1590612.833010
1615692.901206
1517931.738073
1541971.806268
1565947.874464
1590435.942660
1614876.010856
1639620.079052
1664524.147247
1689460.215443
1714236.283639
1617691.120505
1642227.188701
1666619.256897
1691187.325093
1715899.393288
1740515.461484
1765291.529680
1790067.597876
1815099.666071
1720410.502938
1744738.571134
1769146.639329
1793986.707525
1818458.775721
1843106.843917
1868026.912112
1893426.980308
1918107.048504
1824681.885370
1849281.953566
1874010.021762
1898994.089958
1923578.158153
1948226.226349
1973370.294545
1998578.362741
2023226.430936
1931641.267803
1956225.335999
1980745.404194
2005425.472390
2030681.540586
2055137.608782
2080169.676977
2105425.745173
2130313.813369
2040184.650235
2064992.718431
2089288.786627
2114240.854823
2139128.923018
2164352.991214
2189257.059410
2214529.127606
2239673.195802
2150952.032668
2175616.100864
2200328.169059
2225104.237255
2250216.305451
2275088.373647
2300440.441843
2325520.510038
2350376.578234
2263703.415101
2288191.483296
2313015.551492
2337679.619688
2362855.687884
2388191.756079
2412919.824275
2438399.892471
2463607.960667
2377942.797533
2402926.865729
2427574.933925
2452687.002120
2477687.070316
2502671.138512
2527927.206708
2553359.274903
2578743.343099
2494230.179966
2519054.248161
2544102.316357
2568862.384553
2594054.452749
2619390.520944
2644422.589140
2669886.657336
2695334.725532
2612309.562398
2637165.630594
2661973.698790
2687053.766985
2712181.835181
2737149.903377
2762421.971573
2788110.039769
2813526.107964
2731988.944831
2757069.013026
2781637.081222
2806973.149418
2831765.217614
2857341.285810
2882293.354005
2907869.422201
2933301.490397
2853204.327263
2878028.395459
2902900.463655
2928092.531851
2953028.600046
2978668.668242
3004068.736438
3029228.804634
3054452.872829
2975987.709696
3000619.777892
3025827.846087
3051051.914283
3076419.982479
3101404.050675
3126820.118870
3152188.187066
3177636.255262
3100147.092128
3125179.160324
3150083.228520
3175339.296716
3200867.364911
3225563.433107
3251155.501303
3276811.569499
3302003.637694
3226002.474561
3251034.542757
3276226.610952
3301322.679148
3326226.747344
3351322.815540
3376962.883735
3402314.951931
3428035.020127
3352833.856993
3377897.925189
3403025.993385
3428426.061581
3453538.129776
3478586.197972
3504114.266168
3529418.334364
3555058.402560
3480993.239426
3506153.307622
3531201.375818
3556201.444013
3581297.512209
3607113.580405
3632321.648601
3657817.716796
3683425.784992
3610736.621859
3635528.690054
3660864.758250
3686264.826446
3711344.894642
3736584.962837
3761969.031033
3787305.099229
3812689.167425
3741424.004291
3766296.072487
3791376.140683
3816744.208878
3841936.277074
3867160.345270
3892720.413466
3918232.481661
3943648.549857
3872911.386724
3898103.454919
3923263.523115
3948311.591311
3973471.659507
3998727.727702
4023983.795898
4049735.864094
4075183.932290
4006014.769156
4030950.837352
4055998.905548
4081190.973743
4106255.041939
4131719.110135
4157087.178331
4182583.246527
4208175.314722
4139422.151589
4164262.219784
4189630.287980
4214630.356176
4239998.424372
4265366.492568
4290750.560763
4315750.628959
4341454.697155
4274173.534021
4298837.602217
4324237.670413
4349541.738609
4374717.806804
4399797.875000
4425229.943196
4450662.011392
4476142.079587
4409388.916454
4434372.984650
4459549.052845
4484949.121041
4509965.189237
4534901.257433
4560157.325628
4585845.393824
4611197.462020
4545532.298886
4570836.367082
4595468.435278
4620772.503474
4645756.571669
4671268.639865
4696412.708061
4721892.776257
4747388.844452
4682459.681319
4707459.749515
4732523.817710
4757699.885906
4782779.954102
4807972.022298
4833452.090493
4858276.158689
4883740.226885
4819963.063751
4844883.131947
4869547.200143
4894915.268339
4920091.336534
4945107.404730
4970619.472926
4995907.541122
5020811.609318
4957946.446184
4982930.514380
5007850.582576
5032914.650771
5058138.718967
5083314.787163
5108394.855359
5133554.923554
5158858.991750
5096761.828617
5121553.896812
5146185.965008
5171346.033204
5196698.101400
5221378.169595
5246826.237791
5272114.305987
5297258.374183
5235513.211049
5260385.279245
5285225.347441
5310337.415636
5335241.483832
5360609.552028
5385385.620224
5410545.688419
5436153.756615
5374840.593482
5400064.661677
5424616.729873
5449520.798069
5474888.866265
5499744.934460
5524761.002656
5549985.070852
5574937.139048
5514551.975914
5539712.044110
5564216.112306
5589312.180501
5614040.248697
5639328.316893
5664584.385089
5689344.453285
5714520.521480
5654919.358347
5679487.426542
5704151.494738
5729407.562934
5754263.631130
5779215.699326
5803751.767521
5829039.835717
5853847.903913
5794790.740779
5819694.808975
5844662.877171
5869470.945367
5894295.013562
5919023.081758
5943975.149954
5969023.218150
5993959.286345
5935350.123212
5960366.191408
5984630.259603
6009614.327799
6034358.395995
6059406.464191
6084214.532386
6109134.600582
6133878.668778
6075845.505644
6100477.573840
6125301.642036
6150045.710232
6175013.778427
6199485.846623
6224565.914819
6249293.983015
6273878.051210
6216484.888077
6241212.956273
6265621.024468
6290413.092664
6315253.160860
6339981.229056
6364677.297251
6389661.365447
6414549.433643
6356836.270509
6381596.338705
6406308.406901
6430860.475097
6455780.543292
6480188.611488
6504868.679684
6529820.747880
6554388.816076
6497555.652942
6522315.721138
6546595.789334
6571291.857529
6595891.925725
6620667.993921
6645140.062117
6670044.130312
6694708.198508
6638083.035375
6662827.103570
6687299.171766
6711627.239962
6736067.308158
6760747.376353
6785171.444549
6809883.512745
6834899.580941
6778642.417807
6802618.486003
6827186.554199
6851914.622394
6876322.690590
6900762.758786
6925298.826982
6949658.895177
6974594.963373
6918465.800240
6942809.868435
6967169.936631
6991610.004827
7016354.073023
7040826.141218
7065042.209414
7089578.277610
7114066.345806
7058865.182672
7083065.250868
7107281.319064
7131833.387259
7155985.455455
7180361.523651
7205073.591847
7229193.660043
7253681.728238
7198368.565105
7222520.633300
7246720.701496
7271080.769692
7295168.837888
7319720.906084
7344064.974279
7368233.042475
7392593.110671
7337407.947537
7361832.015733
7386112.083929
7410280.152125
7434672.220320
7458936.288516
7483024.356712
7507272.424908
7531504.493103
7476783.329970
7500919.398166
7524879.466361
7549207.534557
7573295.602753
7597639.670949
7621647.739144
7645591.807340
7669983.875536
7615470.712402
7639206.780598
7663374.848794
7687574.916990
7711534.985185
7735943.053381
7759887.121577
7783847.189773
7808191.257968
7753438.094835
7777462.163031
7801182.231226
7825382.299422
7849518.367618
7873478.435814
7897806.504009
7921686.572205
7945598.640401
7891389.477267
7915141.545463
7939053.613659
7963093.681855
7987197.750051
8010901.818246
8035133.886442
8059141.954638
8083118.022834
8028684.859700
8052292.927896
8076204.996092
8100405.064287
8124381.132483
8147909.200679
8171917.268875
8195861.337070
8219741.405266
8165148.242133
8189044.310328
8212780.378524
8236532.446720
8260204.514916
8284260.583111
8308140.651307
8332132.719503
8355852.787699
8301483.624565
8325299.692761
8348619.760957
8372819.829152
8396571.897348
8420179.965544
8443980.033740
8467748.101935
8491372.170131
8436683.006998
8460659.075193
8484187.143389
8507939.211585
8531611.279781
8555123.347976
8579147.416172
8602595.484368
8626459.552564
8571834.389430
8595570.457626
8619338.525822
8642770.594017
8666490.662213
8689874.730409
8713818.798605
8737186.866801
8760682.934996
8706185.771863
8729809.840058
8753433.908254
8777089.976450
8801066.044646
8824130.112842
8847370.181037
8871090.249233
8894346.317429
8839801.154295
8863521.222491
8886681.290687
8910641.358883
8933929.427078
8957393.495274
8980505.563470
9003873.631666
9027417.699861
8972744.536728
8996208.604924
9019288.673119
9043008.741315
9066568.809511
9089792.877707
9112904.945902
9136273.014098
9159737.082294
