# vtk DataFile Version 2.0
Generated volume Mesh
ASCII
DATASET UNSTRUCTURED_GRID
POINTS 891 float
0.005000 0.100000 0.000000
0.005000 0.000000 0.000000
0.005000 0.001250 0.000000
0.005000 0.002500 0.000000
0.005000 0.003750 0.000000
0.005000 0.005000 0.000000
0.005000 0.006250 0.000000
0.005000 0.007500 0.000000
0.005000 0.008750 0.000000
0.005000 0.010000 0.000000
0.005000 0.011250 0.000000
0.005000 0.012500 0.000000
0.005000 0.013750 0.000000
0.005000 0.015000 0.000000
0.005000 0.016250 0.000000
0.005000 0.017500 0.000000
0.005000 0.018750 0.000000
0.005000 0.020000 0.000000
0.005000 0.021250 0.000000
0.005000 0.022500 0.000000
0.005000 0.023750 0.000000
0.005000 0.025000 0.000000
0.005000 0.026250 0.000000
0.005000 0.027500 0.000000
0.005000 0.028750 0.000000
0.005000 0.030000 0.000000
0.005000 0.031250 0.000000
0.005000 0.032500 0.000000
0.005000 0.033750 0.000000
0.005000 0.035000 0.000000
0.005000 0.036250 0.000000
0.005000 0.037500 0.000000
0.005000 0.038750 0.000000
0.005000 0.040000 0.000000
0.005000 0.041250 0.000000
0.005000 0.042500 0.000000
0.005000 0.043750 0.000000
0.005000 0.045000 0.000000
0.005000 0.046250 0.000000
0.005000 0.047500 0.000000
0.005000 0.048750 0.000000
0.005000 0.050000 0.000000
0.005000 0.051250 0.000000
0.005000 0.052500 0.000000
0.005000 0.053750 0.000000
0.005000 0.055000 0.000000
0.005000 0.056250 0.000000
0.005000 0.057500 0.000000
0.005000 0.058750 0.000000
0.005000 0.060000 0.000000
0.005000 0.061250 0.000000
0.005000 0.062500 0.000000
0.005000 0.063750 0.000000
0.005000 0.065000 0.000000
0.005000 0.066250 0.000000
0.005000 0.067500 0.000000
0.005000 0.068750 0.000000
0.005000 0.070000 0.000000
0.005000 0.071250 0.000000
0.005000 0.072500 0.000000
0.005000 0.073750 0.000000
0.005000 0.075000 0.000000
0.005000 0.076250 0.000000
0.005000 0.077500 0.000000
0.005000 0.078750 0.000000
0.005000 0.080000 0.000000
0.005000 0.081250 0.000000
0.005000 0.082500 0.000000
0.005000 0.083750 0.000000
0.005000 0.085000 0.000000
0.005000 0.086250 0.000000
0.005000 0.087500 0.000000
0.005000 0.088750 0.000000
0.005000 0.090000 0.000000
0.005000 0.091250 0.000000
0.005000 0.092500 0.000000
0.005000 0.093750 0.000000
0.005000 0.095000 0.000000
0.005000 0.096250 0.000000
0.005000 0.097500 0.000000
0.005000 0.098750 0.000000
0.000000 0.000000 0.000000
0.000000 0.100000 0.000000
0.000000 0.098750 0.000000
0.000000 0.097500 0.000000
0.000000 0.096250 0.000000
0.000000 0.095000 0.000000
0.000000 0.093750 0.000000
0.000000 0.092500 0.000000
0.000000 0.091250 0.000000
0.000000 0.090000 0.000000
0.000000 0.088750 0.000000
0.000000 0.087500 0.000000
0.000000 0.086250 0.000000
0.000000 0.085000 0.000000
0.000000 0.083750 0.000000
0.000000 0.082500 0.000000
0.000000 0.081250 0.000000
0.000000 0.080000 0.000000
0.000000 0.078750 0.000000
0.000000 0.077500 0.000000
0.000000 0.076250 0.000000
0.000000 0.075000 0.000000
0.000000 0.073750 0.000000
0.000000 0.072500 0.000000
0.000000 0.071250 0.000000
0.000000 0.070000 0.000000
0.000000 0.068750 0.000000
0.000000 0.067500 0.000000
0.000000 0.066250 0.000000
0.000000 0.065000 0.000000
0.000000 0.063750 0.000000
0.000000 0.062500 0.000000
0.000000 0.061250 0.000000
0.000000 0.060000 0.000000
0.000000 0.058750 0.000000
0.000000 0.057500 0.000000
0.000000 0.056250 0.000000
0.000000 0.055000 0.000000
0.000000 0.053750 0.000000
0.000000 0.052500 0.000000
0.000000 0.051250 0.000000
0.000000 0.050000 0.000000
0.000000 0.048750 0.000000
0.000000 0.047500 0.000000
0.000000 0.046250 0.000000
0.000000 0.045000 0.000000
0.000000 0.043750 0.000000
0.000000 0.042500 0.000000
0.000000 0.041250 0.000000
0.000000 0.040000 0.000000
0.000000 0.038750 0.000000
0.000000 0.037500 0.000000
0.000000 0.036250 0.000000
0.000000 0.035000 0.000000
0.000000 0.033750 0.000000
0.000000 0.032500 0.000000
0.000000 0.031250 0.000000
0.000000 0.030000 0.000000
0.000000 0.028750 0.000000
0.000000 0.027500 0.000000
0.000000 0.026250 0.000000
0.000000 0.025000 0.000000
0.000000 0.023750 0.000000
0.000000 0.022500 0.000000
0.000000 0.021250 0.000000
0.000000 0.020000 0.000000
0.000000 0.018750 0.000000
0.000000 0.017500 0.000000
0.000000 0.016250 0.000000
0.000000 0.015000 0.000000
0.000000 0.013750 0.000000
0.000000 0.012500 0.000000
0.000000 0.011250 0.000000
0.000000 0.010000 0.000000
0.000000 0.008750 0.000000
0.000000 0.007500 0.000000
0.000000 0.006250 0.000000
0.000000 0.005000 0.000000
0.000000 0.003750 0.000000
0.000000 0.002500 0.000000
0.000000 0.001250 0.000000
0.000500 0.000000 0.000000
0.001000 0.000000 0.000000
0.001500 0.000000 0.000000
0.002000 0.000000 0.000000
0.002500 0.000000 0.000000
0.003000 0.000000 0.000000
0.003500 0.000000 0.000000
0.004000 0.000000 0.000000
0.004500 0.000000 0.000000
0.004500 0.100000 0.000000
0.004000 0.100000 0.000000
0.003500 0.100000 0.000000
0.003000 0.100000 0.000000
0.002500 0.100000 0.000000
0.002000 0.100000 0.000000
0.001500 0.100000 0.000000
0.001000 0.100000 0.000000
0.000500 0.100000 0.000000
0.000500 0.098750 0.000000
0.001000 0.098750 0.000000
0.001500 0.098750 0.000000
0.002000 0.098750 0.000000
0.002500 0.098750 0.000000
0.003000 0.098750 0.000000
0.003500 0.098750 0.000000
0.004000 0.098750 0.000000
0.004500 0.098750 0.000000
0.000500 0.097500 0.000000
0.001000 0.097500 0.000000
0.001500 0.097500 0.000000
0.002000 0.097500 0.000000
0.002500 0.097500 0.000000
0.003000 0.097500 0.000000
0.003500 0.097500 0.000000
0.004000 0.097500 0.000000
0.004500 0.097500 0.000000
0.000500 0.096250 0.000000
0.001000 0.096250 0.000000
0.001500 0.096250 0.000000
0.002000 0.096250 0.000000
0.002500 0.096250 0.000000
0.003000 0.096250 0.000000
0.003500 0.096250 0.000000
0.004000 0.096250 0.000000
0.004500 0.096250 0.000000
0.000500 0.095000 0.000000
0.001000 0.095000 0.000000
0.001500 0.095000 0.000000
0.002000 0.095000 0.000000
0.002500 0.095000 0.000000
0.003000 0.095000 0.000000
0.003500 0.095000 0.000000
0.004000 0.095000 0.000000
0.004500 0.095000 0.000000
0.000500 0.093750 0.000000
0.001000 0.093750 0.000000
0.001500 0.093750 0.000000
0.002000 0.093750 0.000000
0.002500 0.093750 0.000000
0.003000 0.093750 0.000000
0.003500 0.093750 0.000000
0.004000 0.093750 0.000000
0.004500 0.093750 0.000000
0.000500 0.092500 0.000000
0.001000 0.092500 0.000000
0.001500 0.092500 0.000000
0.002000 0.092500 0.000000
0.002500 0.092500 0.000000
0.003000 0.092500 0.000000
0.003500 0.092500 0.000000
0.004000 0.092500 0.000000
0.004500 0.092500 0.000000
0.000500 0.091250 0.000000
0.001000 0.091250 0.000000
0.001500 0.091250 0.000000
0.002000 0.091250 0.000000
0.002500 0.091250 0.000000
0.003000 0.091250 0.000000
0.003500 0.091250 0.000000
0.004000 0.091250 0.000000
0.004500 0.091250 0.000000
0.000500 0.090000 0.000000
0.001000 0.090000 0.000000
0.001500 0.090000 0.000000
0.002000 0.090000 0.000000
0.002500 0.090000 0.000000
0.003000 0.090000 0.000000
0.003500 0.090000 0.000000
0.004000 0.090000 0.000000
0.004500 0.090000 0.000000
0.000500 0.088750 0.000000
0.001000 0.088750 0.000000
0.001500 0.088750 0.000000
0.002000 0.088750 0.000000
0.002500 0.088750 0.000000
0.003000 0.088750 0.000000
0.003500 0.088750 0.000000
0.004000 0.088750 0.000000
0.004500 0.088750 0.000000
0.000500 0.087500 0.000000
0.001000 0.087500 0.000000
0.001500 0.087500 0.000000
0.002000 0.087500 0.000000
0.002500 0.087500 0.000000
0.003000 0.087500 0.000000
0.003500 0.087500 0.000000
0.004000 0.087500 0.000000
0.004500 0.087500 0.000000
0.000500 0.086250 0.000000
0.001000 0.086250 0.000000
0.001500 0.086250 0.000000
0.002000 0.086250 0.000000
0.002500 0.086250 0.000000
0.003000 0.086250 0.000000
0.003500 0.086250 0.000000
0.004000 0.086250 0.000000
0.004500 0.086250 0.000000
0.000500 0.085000 0.000000
0.001000 0.085000 0.000000
0.001500 0.085000 0.000000
0.002000 0.085000 0.000000
0.002500 0.085000 0.000000
0.003000 0.085000 0.000000
0.003500 0.085000 0.000000
0.004000 0.085000 0.000000
0.004500 0.085000 0.000000
0.000500 0.083750 0.000000
0.001000 0.083750 0.000000
0.001500 0.083750 0.000000
0.002000 0.083750 0.000000
0.002500 0.083750 0.000000
0.003000 0.083750 0.000000
0.003500 0.083750 0.000000
0.004000 0.083750 0.000000
0.004500 0.083750 0.000000
0.000500 0.082500 0.000000
0.001000 0.082500 0.000000
0.001500 0.082500 0.000000
0.002000 0.082500 0.000000
0.002500 0.082500 0.000000
0.003000 0.082500 0.000000
0.003500 0.082500 0.000000
0.004000 0.082500 0.000000
0.004500 0.082500 0.000000
0.000500 0.081250 0.000000
0.001000 0.081250 0.000000
0.001500 0.081250 0.000000
0.002000 0.081250 0.000000
0.002500 0.081250 0.000000
0.003000 0.081250 0.000000
0.003500 0.081250 0.000000
0.004000 0.081250 0.000000
0.004500 0.081250 0.000000
0.000500 0.080000 0.000000
0.001000 0.080000 0.000000
0.001500 0.080000 0.000000
0.002000 0.080000 0.000000
0.002500 0.080000 0.000000
0.003000 0.080000 0.000000
0.003500 0.080000 0.000000
0.004000 0.080000 0.000000
0.004500 0.080000 0.000000
0.000500 0.078750 0.000000
0.001000 0.078750 0.000000
0.001500 0.078750 0.000000
0.002000 0.078750 0.000000
0.002500 0.078750 0.000000
0.003000 0.078750 0.000000
0.003500 0.078750 0.000000
0.004000 0.078750 0.000000
0.004500 0.078750 0.000000
0.000500 0.077500 0.000000
0.001000 0.077500 0.000000
0.001500 0.077500 0.000000
0.002000 0.077500 0.000000
0.002500 0.077500 0.000000
0.003000 0.077500 0.000000
0.003500 0.077500 0.000000
0.004000 0.077500 0.000000
0.004500 0.077500 0.000000
0.000500 0.076250 0.000000
0.001000 0.076250 0.000000
0.001500 0.076250 0.000000
0.002000 0.076250 0.000000
0.002500 0.076250 0.000000
0.003000 0.076250 0.000000
0.003500 0.076250 0.000000
0.004000 0.076250 0.000000
0.004500 0.076250 0.000000
0.000500 0.075000 0.000000
0.001000 0.075000 0.000000
0.001500 0.075000 0.000000
0.002000 0.075000 0.000000
0.002500 0.075000 0.000000
0.003000 0.075000 0.000000
0.003500 0.075000 0.000000
0.004000 0.075000 0.000000
0.004500 0.075000 0.000000
0.000500 0.073750 0.000000
0.001000 0.073750 0.000000
0.001500 0.073750 0.000000
0.002000 0.073750 0.000000
0.002500 0.073750 0.000000
0.003000 0.073750 0.000000
0.003500 0.073750 0.000000
0.004000 0.073750 0.000000
0.004500 0.073750 0.000000
0.000500 0.072500 0.000000
0.001000 0.072500 0.000000
0.001500 0.072500 0.000000
0.002000 0.072500 0.000000
0.002500 0.072500 0.000000
0.003000 0.072500 0.000000
0.003500 0.072500 0.000000
0.004000 0.072500 0.000000
0.004500 0.072500 0.000000
0.000500 0.071250 0.000000
0.001000 0.071250 0.000000
0.001500 0.071250 0.000000
0.002000 0.071250 0.000000
0.002500 0.071250 0.000000
0.003000 0.071250 0.000000
0.003500 0.071250 0.000000
0.004000 0.071250 0.000000
0.004500 0.071250 0.000000
0.000500 0.070000 0.000000
0.001000 0.070000 0.000000
0.001500 0.070000 0.000000
0.002000 0.070000 0.000000
0.002500 0.070000 0.000000
0.003000 0.070000 0.000000
0.003500 0.070000 0.000000
0.004000 0.070000 0.000000
0.004500 0.070000 0.000000
0.000500 0.068750 0.000000
0.001000 0.068750 0.000000
0.001500 0.068750 0.000000
0.002000 0.068750 0.000000
0.002500 0.068750 0.000000
0.003000 0.068750 0.000000
0.003500 0.068750 0.000000
0.004000 0.068750 0.000000
0.004500 0.068750 0.000000
0.000500 0.067500 0.000000
0.001000 0.067500 0.000000
0.001500 0.067500 0.000000
0.002000 0.067500 0.000000
0.002500 0.067500 0.000000
0.003000 0.067500 0.000000
0.003500 0.067500 0.000000
0.004000 0.067500 0.000000
0.004500 0.067500 0.000000
0.000500 0.066250 0.000000
0.001000 0.066250 0.000000
0.001500 0.066250 0.000000
0.002000 0.066250 0.000000
0.002500 0.066250 0.000000
0.003000 0.066250 0.000000
0.003500 0.066250 0.000000
0.004000 0.066250 0.000000
0.004500 0.066250 0.000000
0.000500 0.065000 0.000000
0.001000 0.065000 0.000000
0.001500 0.065000 0.000000
0.002000 0.065000 0.000000
0.002500 0.065000 0.000000
0.003000 0.065000 0.000000
0.003500 0.065000 0.000000
0.004000 0.065000 0.000000
0.004500 0.065000 0.000000
0.000500 0.063750 0.000000
0.001000 0.063750 0.000000
0.001500 0.063750 0.000000
0.002000 0.063750 0.000000
0.002500 0.063750 0.000000
0.003000 0.063750 0.000000
0.003500 0.063750 0.000000
0.004000 0.063750 0.000000
0.004500 0.063750 0.000000
0.000500 0.062500 0.000000
0.001000 0.062500 0.000000
0.001500 0.062500 0.000000
0.002000 0.062500 0.000000
0.002500 0.062500 0.000000
0.003000 0.062500 0.000000
0.003500 0.062500 0.000000
0.004000 0.062500 0.000000
0.004500 0.062500 0.000000
0.000500 0.061250 0.000000
0.001000 0.061250 0.000000
0.001500 0.061250 0.000000
0.002000 0.061250 0.000000
0.002500 0.061250 0.000000
0.003000 0.061250 0.000000
0.003500 0.061250 0.000000
0.004000 0.061250 0.000000
0.004500 0.061250 0.000000
0.000500 0.060000 0.000000
0.001000 0.060000 0.000000
0.001500 0.060000 0.000000
0.002000 0.060000 0.000000
0.002500 0.060000 0.000000
0.003000 0.060000 0.000000
0.003500 0.060000 0.000000
0.004000 0.060000 0.000000
0.004500 0.060000 0.000000
0.000500 0.058750 0.000000
0.001000 0.058750 0.000000
0.001500 0.058750 0.000000
0.002000 0.058750 0.000000
0.002500 0.058750 0.000000
0.003000 0.058750 0.000000
0.003500 0.058750 0.000000
0.004000 0.058750 0.000000
0.004500 0.058750 0.000000
0.000500 0.057500 0.000000
0.001000 0.057500 0.000000
0.001500 0.057500 0.000000
0.002000 0.057500 0.000000
0.002500 0.057500 0.000000
0.003000 0.057500 0.000000
0.003500 0.057500 0.000000
0.004000 0.057500 0.000000
0.004500 0.057500 0.000000
0.000500 0.056250 0.000000
0.001000 0.056250 0.000000
0.001500 0.056250 0.000000
0.002000 0.056250 0.000000
0.002500 0.056250 0.000000
0.003000 0.056250 0.000000
0.003500 0.056250 0.000000
0.004000 0.056250 0.000000
0.004500 0.056250 0.000000
0.000500 0.055000 0.000000
0.001000 0.055000 0.000000
0.001500 0.055000 0.000000
0.002000 0.055000 0.000000
0.002500 0.055000 0.000000
0.003000 0.055000 0.000000
0.003500 0.055000 0.000000
0.004000 0.055000 0.000000
0.004500 0.055000 0.000000
0.000500 0.053750 0.000000
0.001000 0.053750 0.000000
0.001500 0.053750 0.000000
0.002000 0.053750 0.000000
0.002500 0.053750 0.000000
0.003000 0.053750 0.000000
0.003500 0.053750 0.000000
0.004000 0.053750 0.000000
0.004500 0.053750 0.000000
0.000500 0.052500 0.000000
0.001000 0.052500 0.000000
0.001500 0.052500 0.000000
0.002000 0.052500 0.000000
0.002500 0.052500 0.000000
0.003000 0.052500 0.000000
0.003500 0.052500 0.000000
0.004000 0.052500 0.000000
0.004500 0.052500 0.000000
0.000500 0.051250 0.000000
0.001000 0.051250 0.000000
0.001500 0.051250 0.000000
0.002000 0.051250 0.000000
0.002500 0.051250 0.000000
0.003000 0.051250 0.000000
0.003500 0.051250 0.000000
0.004000 0.051250 0.000000
0.004500 0.051250 0.000000
0.000500 0.050000 0.000000
0.001000 0.050000 0.000000
0.001500 0.050000 0.000000
0.002000 0.050000 0.000000
0.002500 0.050000 0.000000
0.003000 0.050000 0.000000
0.003500 0.050000 0.000000
0.004000 0.050000 0.000000
0.004500 0.050000 0.000000
0.000500 0.048750 0.000000
0.001000 0.048750 0.000000
0.001500 0.048750 0.000000
0.002000 0.048750 0.000000
0.002500 0.048750 0.000000
0.003000 0.048750 0.000000
0.003500 0.048750 0.000000
0.004000 0.048750 0.000000
0.004500 0.048750 0.000000
0.000500 0.047500 0.000000
0.001000 0.047500 0.000000
0.001500 0.047500 0.000000
0.002000 0.047500 0.000000
0.002500 0.047500 0.000000
0.003000 0.047500 0.000000
0.003500 0.047500 0.000000
0.004000 0.047500 0.000000
0.004500 0.047500 0.000000
0.000500 0.046250 0.000000
0.001000 0.046250 0.000000
0.001500 0.046250 0.000000
0.002000 0.046250 0.000000
0.002500 0.046250 0.000000
0.003000 0.046250 0.000000
0.003500 0.046250 0.000000
0.004000 0.046250 0.000000
0.004500 0.046250 0.000000
0.000500 0.045000 0.000000
0.001000 0.045000 0.000000
0.001500 0.045000 0.000000
0.002000 0.045000 0.000000
0.002500 0.045000 0.000000
0.003000 0.045000 0.000000
0.003500 0.045000 0.000000
0.004000 0.045000 0.000000
0.004500 0.045000 0.000000
0.000500 0.043750 0.000000
0.001000 0.043750 0.000000
0.001500 0.043750 0.000000
0.002000 0.043750 0.000000
0.002500 0.043750 0.000000
0.003000 0.043750 0.000000
0.003500 0.043750 0.000000
0.004000 0.043750 0.000000
0.004500 0.043750 0.000000
0.000500 0.042500 0.000000
0.001000 0.042500 0.000000
0.001500 0.042500 0.000000
0.002000 0.042500 0.000000
0.002500 0.042500 0.000000
0.003000 0.042500 0.000000
0.003500 0.042500 0.000000
0.004000 0.042500 0.000000
0.004500 0.042500 0.000000
0.000500 0.041250 0.000000
0.001000 0.041250 0.000000
0.001500 0.041250 0.000000
0.002000 0.041250 0.000000
0.002500 0.041250 0.000000
0.003000 0.041250 0.000000
0.003500 0.041250 0.000000
0.004000 0.041250 0.000000
0.004500 0.041250 0.000000
0.000500 0.040000 0.000000
0.001000 0.040000 0.000000
0.001500 0.040000 0.000000
0.002000 0.040000 0.000000
0.002500 0.040000 0.000000
0.003000 0.040000 0.000000
0.003500 0.040000 0.000000
0.004000 0.040000 0.000000
0.004500 0.040000 0.000000
0.000500 0.038750 0.000000
0.001000 0.038750 0.000000
0.001500 0.038750 0.000000
0.002000 0.038750 0.000000
0.002500 0.038750 0.000000
0.003000 0.038750 0.000000
0.003500 0.038750 0.000000
0.004000 0.038750 0.000000
0.004500 0.038750 0.000000
0.000500 0.037500 0.000000
0.001000 0.037500 0.000000
0.001500 0.037500 0.000000
0.002000 0.037500 0.000000
0.002500 0.037500 0.000000
0.003000 0.037500 0.000000
0.003500 0.037500 0.000000
0.004000 0.037500 0.000000
0.004500 0.037500 0.000000
0.000500 0.036250 0.000000
0.001000 0.036250 0.000000
0.001500 0.036250 0.000000
0.002000 0.036250 0.000000
0.002500 0.036250 0.000000
0.003000 0.036250 0.000000
0.003500 0.036250 0.000000
0.004000 0.036250 0.000000
0.004500 0.036250 0.000000
0.000500 0.035000 0.000000
0.001000 0.035000 0.000000
0.001500 0.035000 0.000000
0.002000 0.035000 0.000000
0.002500 0.035000 0.000000
0.003000 0.035000 0.000000
0.003500 0.035000 0.000000
0.004000 0.035000 0.000000
0.004500 0.035000 0.000000
0.000500 0.033750 0.000000
0.001000 0.033750 0.000000
0.001500 0.033750 0.000000
0.002000 0.033750 0.000000
0.002500 0.033750 0.000000
0.003000 0.033750 0.000000
0.003500 0.033750 0.000000
0.004000 0.033750 0.000000
0.004500 0.033750 0.000000
0.000500 0.032500 0.000000
0.001000 0.032500 0.000000
0.001500 0.032500 0.000000
0.002000 0.032500 0.000000
0.002500 0.032500 0.000000
0.003000 0.032500 0.000000
0.003500 0.032500 0.000000
0.004000 0.032500 0.000000
0.004500 0.032500 0.000000
0.000500 0.031250 0.000000
0.001000 0.031250 0.000000
0.001500 0.031250 0.000000
0.002000 0.031250 0.000000
0.002500 0.031250 0.000000
0.003000 0.031250 0.000000
0.003500 0.031250 0.000000
0.004000 0.031250 0.000000
0.004500 0.031250 0.000000
0.000500 0.030000 0.000000
0.001000 0.030000 0.000000
0.001500 0.030000 0.000000
0.002000 0.030000 0.000000
0.002500 0.030000 0.000000
0.003000 0.030000 0.000000
0.003500 0.030000 0.000000
0.004000 0.030000 0.000000
0.004500 0.030000 0.000000
0.000500 0.028750 0.000000
0.001000 0.028750 0.000000
0.001500 0.028750 0.000000
0.002000 0.028750 0.000000
0.002500 0.028750 0.000000
0.003000 0.028750 0.000000
0.003500 0.028750 0.000000
0.004000 0.028750 0.000000
0.004500 0.028750 0.000000
0.000500 0.027500 0.000000
0.001000 0.027500 0.000000
0.001500 0.027500 0.000000
0.002000 0.027500 0.000000
0.002500 0.027500 0.000000
0.003000 0.027500 0.000000
0.003500 0.027500 0.000000
0.004000 0.027500 0.000000
0.004500 0.027500 0.000000
0.000500 0.026250 0.000000
0.001000 0.026250 0.000000
0.001500 0.026250 0.000000
0.002000 0.026250 0.000000
0.002500 0.026250 0.000000
0.003000 0.026250 0.000000
0.003500 0.026250 0.000000
0.004000 0.026250 0.000000
0.004500 0.026250 0.000000
0.000500 0.025000 0.000000
0.001000 0.025000 0.000000
0.001500 0.025000 0.000000
0.002000 0.025000 0.000000
0.002500 0.025000 0.000000
0.003000 0.025000 0.000000
0.003500 0.025000 0.000000
0.004000 0.025000 0.000000
0.004500 0.025000 0.000000
0.000500 0.023750 0.000000
0.001000 0.023750 0.000000
0.001500 0.023750 0.000000
0.002000 0.023750 0.000000
0.002500 0.023750 0.000000
0.003000 0.023750 0.000000
0.003500 0.023750 0.000000
0.004000 0.023750 0.000000
0.004500 0.023750 0.000000
0.000500 0.022500 0.000000
0.001000 0.022500 0.000000
0.001500 0.022500 0.000000
0.002000 0.022500 0.000000
0.002500 0.022500 0.000000
0.003000 0.022500 0.000000
0.003500 0.022500 0.000000
0.004000 0.022500 0.000000
0.004500 0.022500 0.000000
0.000500 0.021250 0.000000
0.001000 0.021250 0.000000
0.001500 0.021250 0.000000
0.002000 0.021250 0.000000
0.002500 0.021250 0.000000
0.003000 0.021250 0.000000
0.003500 0.021250 0.000000
0.004000 0.021250 0.000000
0.004500 0.021250 0.000000
0.000500 0.020000 0.000000
0.001000 0.020000 0.000000
0.001500 0.020000 0.000000
0.002000 0.020000 0.000000
0.002500 0.020000 0.000000
0.003000 0.020000 0.000000
0.003500 0.020000 0.000000
0.004000 0.020000 0.000000
0.004500 0.020000 0.000000
0.000500 0.018750 0.000000
0.001000 0.018750 0.000000
0.001500 0.018750 0.000000
0.002000 0.018750 0.000000
0.002500 0.018750 0.000000
0.003000 0.018750 0.000000
0.003500 0.018750 0.000000
0.004000 0.018750 0.000000
0.004500 0.018750 0.000000
0.000500 0.017500 0.000000
0.001000 0.017500 0.000000
0.001500 0.017500 0.000000
0.002000 0.017500 0.000000
0.002500 0.017500 0.000000
0.003000 0.017500 0.000000
0.003500 0.017500 0.000000
0.004000 0.017500 0.000000
0.004500 0.017500 0.000000
0.000500 0.016250 0.000000
0.001000 0.016250 0.000000
0.001500 0.016250 0.000000
0.002000 0.016250 0.000000
0.002500 0.016250 0.000000
0.003000 0.016250 0.000000
0.003500 0.016250 0.000000
0.004000 0.016250 0.000000
0.004500 0.016250 0.000000
0.000500 0.015000 0.000000
0.001000 0.015000 0.000000
0.001500 0.015000 0.000000
0.002000 0.015000 0.000000
0.002500 0.015000 0.000000
0.003000 0.015000 0.000000
0.003500 0.015000 0.000000
0.004000 0.015000 0.000000
0.004500 0.015000 0.000000
0.000500 0.013750 0.000000
0.001000 0.013750 0.000000
0.001500 0.013750 0.000000
0.002000 0.013750 0.000000
0.002500 0.013750 0.000000
0.003000 0.013750 0.000000
0.003500 0.013750 0.000000
0.004000 0.013750 0.000000
0.004500 0.013750 0.000000
0.000500 0.012500 0.000000
0.001000 0.012500 0.000000
0.001500 0.012500 0.000000
0.002000 0.012500 0.000000
0.002500 0.012500 0.000000
0.003000 0.012500 0.000000
0.003500 0.012500 0.000000
0.004000 0.012500 0.000000
0.004500 0.012500 0.000000
0.000500 0.011250 0.000000
0.001000 0.011250 0.000000
0.001500 0.011250 0.000000
0.002000 0.011250 0.000000
0.002500 0.011250 0.000000
0.003000 0.011250 0.000000
0.003500 0.011250 0.000000
0.004000 0.011250 0.000000
0.004500 0.011250 0.000000
0.000500 0.010000 0.000000
0.001000 0.010000 0.000000
0.001500 0.010000 0.000000
0.002000 0.010000 0.000000
0.002500 0.010000 0.000000
0.003000 0.010000 0.000000
0.003500 0.010000 0.000000
0.004000 0.010000 0.000000
0.004500 0.010000 0.000000
0.000500 0.008750 0.000000
0.001000 0.008750 0.000000
0.001500 0.008750 0.000000
0.002000 0.008750 0.000000
0.002500 0.008750 0.000000
0.003000 0.008750 0.000000
0.003500 0.008750 0.000000
0.004000 0.008750 0.000000
0.004500 0.008750 0.000000
0.000500 0.007500 0.000000
0.001000 0.007500 0.000000
0.001500 0.007500 0.000000
0.002000 0.007500 0.000000
0.002500 0.007500 0.000000
0.003000 0.007500 0.000000
0.003500 0.007500 0.000000
0.004000 0.007500 0.000000
0.004500 0.007500 0.000000
0.000500 0.006250 0.000000
0.001000 0.006250 0.000000
0.001500 0.006250 0.000000
0.002000 0.006250 0.000000
0.002500 0.006250 0.000000
0.003000 0.006250 0.000000
0.003500 0.006250 0.000000
0.004000 0.006250 0.000000
0.004500 0.006250 0.000000
0.000500 0.005000 0.000000
0.001000 0.005000 0.000000
0.001500 0.005000 0.000000
0.002000 0.005000 0.000000
0.002500 0.005000 0.000000
0.003000 0.005000 0.000000
0.003500 0.005000 0.000000
0.004000 0.005000 0.000000
0.004500 0.005000 0.000000
0.000500 0.003750 0.000000
0.001000 0.003750 0.000000
0.001500 0.003750 0.000000
0.002000 0.003750 0.000000
0.002500 0.003750 0.000000
0.003000 0.003750 0.000000
0.003500 0.003750 0.000000
0.004000 0.003750 0.000000
0.004500 0.003750 0.000000
0.000500 0.002500 0.000000
0.001000 0.002500 0.000000
0.001500 0.002500 0.000000
0.002000 0.002500 0.000000
0.002500 0.002500 0.000000
0.003000 0.002500 0.000000
0.003500 0.002500 0.000000
0.004000 0.002500 0.000000
0.004500 0.002500 0.000000
0.000500 0.001250 0.000000
0.001000 0.001250 0.000000
0.001500 0.001250 0.000000
0.002000 0.001250 0.000000
0.002500 0.001250 0.000000
0.003000 0.001250 0.000000
0.003500 0.001250 0.000000
0.004000 0.001250 0.000000
0.004500 0.001250 0.000000
CELLS 800 4000
4 82 83 180 179
4 179 180 181 178
4 178 181 182 177
4 177 182 183 176
4 176 183 184 175
4 175 184 185 174
4 174 185 186 173
4 173 186 187 172
4 172 187 188 171
4 171 188 80 0
4 83 84 189 180
4 180 189 190 181
4 181 190 191 182
4 182 191 192 183
4 183 192 193 184
4 184 193 194 185
4 185 194 195 186
4 186 195 196 187
4 187 196 197 188
4 188 197 79 80
4 84 85 198 189
4 189 198 199 190
4 190 199 200 191
4 191 200 201 192
4 192 201 202 193
4 193 202 203 194
4 194 203 204 195
4 195 204 205 196
4 196 205 206 197
4 197 206 78 79
4 85 86 207 198
4 198 207 208 199
4 199 208 209 200
4 200 209 210 201
4 201 210 211 202
4 202 211 212 203
4 203 212 213 204
4 204 213 214 205
4 205 214 215 206
4 206 215 77 78
4 86 87 216 207
4 207 216 217 208
4 208 217 218 209
4 209 218 219 210
4 210 219 220 211
4 211 220 221 212
4 212 221 222 213
4 213 222 223 214
4 214 223 224 215
4 215 224 76 77
4 87 88 225 216
4 216 225 226 217
4 217 226 227 218
4 218 227 228 219
4 219 228 229 220
4 220 229 230 221
4 221 230 231 222
4 222 231 232 223
4 223 232 233 224
4 224 233 75 76
4 88 89 234 225
4 225 234 235 226
4 226 235 236 227
4 227 236 237 228
4 228 237 238 229
4 229 238 239 230
4 230 239 240 231
4 231 240 241 232
4 232 241 242 233
4 233 242 74 75
4 89 90 243 234
4 234 243 244 235
4 235 244 245 236
4 236 245 246 237
4 237 246 247 238
4 238 247 248 239
4 239 248 249 240
4 240 249 250 241
4 241 250 251 242
4 242 251 73 74
4 90 91 252 243
4 243 252 253 244
4 244 253 254 245
4 245 254 255 246
4 246 255 256 247
4 247 256 257 248
4 248 257 258 249
4 249 258 259 250
4 250 259 260 251
4 251 260 72 73
4 91 92 261 252
4 252 261 262 253
4 253 262 263 254
4 254 263 264 255
4 255 264 265 256
4 256 265 266 257
4 257 266 267 258
4 258 267 268 259
4 259 268 269 260
4 260 269 71 72
4 92 93 270 261
4 261 270 271 262
4 262 271 272 263
4 263 272 273 264
4 264 273 274 265
4 265 274 275 266
4 266 275 276 267
4 267 276 277 268
4 268 277 278 269
4 269 278 70 71
4 93 94 279 270
4 270 279 280 271
4 271 280 281 272
4 272 281 282 273
4 273 282 283 274
4 274 283 284 275
4 275 284 285 276
4 276 285 286 277
4 277 286 287 278
4 278 287 69 70
4 94 95 288 279
4 279 288 289 280
4 280 289 290 281
4 281 290 291 282
4 282 291 292 283
4 283 292 293 284
4 284 293 294 285
4 285 294 295 286
4 286 295 296 287
4 287 296 68 69
4 95 96 297 288
4 288 297 298 289
4 289 298 299 290
4 290 299 300 291
4 291 300 301 292
4 292 301 302 293
4 293 302 303 294
4 294 303 304 295
4 295 304 305 296
4 296 305 67 68
4 96 97 306 297
4 297 306 307 298
4 298 307 308 299
4 299 308 309 300
4 300 309 310 301
4 301 310 311 302
4 302 311 312 303
4 303 312 313 304
4 304 313 314 305
4 305 314 66 67
4 97 98 315 306
4 306 315 316 307
4 307 316 317 308
4 308 317 318 309
4 309 318 319 310
4 310 319 320 311
4 311 320 321 312
4 312 321 322 313
4 313 322 323 314
4 314 323 65 66
4 98 99 324 315
4 315 324 325 316
4 316 325 326 317
4 317 326 327 318
4 318 327 328 319
4 319 328 329 320
4 320 329 330 321
4 321 330 331 322
4 322 331 332 323
4 323 332 64 65
4 99 100 333 324
4 324 333 334 325
4 325 334 335 326
4 326 335 336 327
4 327 336 337 328
4 328 337 338 329
4 329 338 339 330
4 330 339 340 331
4 331 340 341 332
4 332 341 63 64
4 100 101 342 333
4 333 342 343 334
4 334 343 344 335
4 335 344 345 336
4 336 345 346 337
4 337 346 347 338
4 338 347 348 339
4 339 348 349 340
4 340 349 350 341
4 341 350 62 63
4 101 102 351 342
4 342 351 352 343
4 343 352 353 344
4 344 353 354 345
4 345 354 355 346
4 346 355 356 347
4 347 356 357 348
4 348 357 358 349
4 349 358 359 350
4 350 359 61 62
4 102 103 360 351
4 351 360 361 352
4 352 361 362 353
4 353 362 363 354
4 354 363 364 355
4 355 364 365 356
4 356 365 366 357
4 357 366 367 358
4 358 367 368 359
4 359 368 60 61
4 103 104 369 360
4 360 369 370 361
4 361 370 371 362
4 362 371 372 363
4 363 372 373 364
4 364 373 374 365
4 365 374 375 366
4 366 375 376 367
4 367 376 377 368
4 368 377 59 60
4 104 105 378 369
4 369 378 379 370
4 370 379 380 371
4 371 380 381 372
4 372 381 382 373
4 373 382 383 374
4 374 383 384 375
4 375 384 385 376
4 376 385 386 377
4 377 386 58 59
4 105 106 387 378
4 378 387 388 379
4 379 388 389 380
4 380 389 390 381
4 381 390 391 382
4 382 391 392 383
4 383 392 393 384
4 384 393 394 385
4 385 394 395 386
4 386 395 57 58
4 106 107 396 387
4 387 396 397 388
4 388 397 398 389
4 389 398 399 390
4 390 399 400 391
4 391 400 401 392
4 392 401 402 393
4 393 402 403 394
4 394 403 404 395
4 395 404 56 57
4 107 108 405 396
4 396 405 406 397
4 397 406 407 398
4 398 407 408 399
4 399 408 409 400
4 400 409 410 401
4 401 410 411 402
4 402 411 412 403
4 403 412 413 404
4 404 413 55 56
4 108 109 414 405
4 405 414 415 406
4 406 415 416 407
4 407 416 417 408
4 408 417 418 409
4 409 418 419 410
4 410 419 420 411
4 411 420 421 412
4 412 421 422 413
4 413 422 54 55
4 109 110 423 414
4 414 423 424 415
4 415 424 425 416
4 416 425 426 417
4 417 426 427 418
4 418 427 428 419
4 419 428 429 420
4 420 429 430 421
4 421 430 431 422
4 422 431 53 54
4 110 111 432 423
4 423 432 433 424
4 424 433 434 425
4 425 434 435 426
4 426 435 436 427
4 427 436 437 428
4 428 437 438 429
4 429 438 439 430
4 430 439 440 431
4 431 440 52 53
4 111 112 441 432
4 432 441 442 433
4 433 442 443 434
4 434 443 444 435
4 435 444 445 436
4 436 445 446 437
4 437 446 447 438
4 438 447 448 439
4 439 448 449 440
4 440 449 51 52
4 112 113 450 441
4 441 450 451 442
4 442 451 452 443
4 443 452 453 444
4 444 453 454 445
4 445 454 455 446
4 446 455 456 447
4 447 456 457 448
4 448 457 458 449
4 449 458 50 51
4 113 114 459 450
4 450 459 460 451
4 451 460 461 452
4 452 461 462 453
4 453 462 463 454
4 454 463 464 455
4 455 464 465 456
4 456 465 466 457
4 457 466 467 458
4 458 467 49 50
4 114 115 468 459
4 459 468 469 460
4 460 469 470 461
4 461 470 471 462
4 462 471 472 463
4 463 472 473 464
4 464 473 474 465
4 465 474 475 466
4 466 475 476 467
4 467 476 48 49
4 115 116 477 468
4 468 477 478 469
4 469 478 479 470
4 470 479 480 471
4 471 480 481 472
4 472 481 482 473
4 473 482 483 474
4 474 483 484 475
4 475 484 485 476
4 476 485 47 48
4 116 117 486 477
4 477 486 487 478
4 478 487 488 479
4 479 488 489 480
4 480 489 490 481
4 481 490 491 482
4 482 491 492 483
4 483 492 493 484
4 484 493 494 485
4 485 494 46 47
4 117 118 495 486
4 486 495 496 487
4 487 496 497 488
4 488 497 498 489
4 489 498 499 490
4 490 499 500 491
4 491 500 501 492
4 492 501 502 493
4 493 502 503 494
4 494 503 45 46
4 118 119 504 495
4 495 504 505 496
4 496 505 506 497
4 497 506 507 498
4 498 507 508 499
4 499 508 509 500
4 500 509 510 501
4 501 510 511 502
4 502 511 512 503
4 503 512 44 45
4 119 120 513 504
4 504 513 514 505
4 505 514 515 506
4 506 515 516 507
4 507 516 517 508
4 508 517 518 509
4 509 518 519 510
4 510 519 520 511
4 511 520 521 512
4 512 521 43 44
4 120 121 522 513
4 513 522 523 514
4 514 523 524 515
4 515 524 525 516
4 516 525 526 517
4 517 526 527 518
4 518 527 528 519
4 519 528 529 520
4 520 529 530 521
4 521 530 42 43
4 121 122 531 522
4 522 531 532 523
4 523 532 533 524
4 524 533 534 525
4 525 534 535 526
4 526 535 536 527
4 527 536 537 528
4 528 537 538 529
4 529 538 539 530
4 530 539 41 42
4 122 123 540 531
4 531 540 541 532
4 532 541 542 533
4 533 542 543 534
4 534 543 544 535
4 535 544 545 536
4 536 545 546 537
4 537 546 547 538
4 538 547 548 539
4 539 548 40 41
4 123 124 549 540
4 540 549 550 541
4 541 550 551 542
4 542 551 552 543
4 543 552 553 544
4 544 553 554 545
4 545 554 555 546
4 546 555 556 547
4 547 556 557 548
4 548 557 39 40
4 124 125 558 549
4 549 558 559 550
4 550 559 560 551
4 551 560 561 552
4 552 561 562 553
4 553 562 563 554
4 554 563 564 555
4 555 564 565 556
4 556 565 566 557
4 557 566 38 39
4 125 126 567 558
4 558 567 568 559
4 559 568 569 560
4 560 569 570 561
4 561 570 571 562
4 562 571 572 563
4 563 572 573 564
4 564 573 574 565
4 565 574 575 566
4 566 575 37 38
4 126 127 576 567
4 567 576 577 568
4 568 577 578 569
4 569 578 579 570
4 570 579 580 571
4 571 580 581 572
4 572 581 582 573
4 573 582 583 574
4 574 583 584 575
4 575 584 36 37
4 127 128 585 576
4 576 585 586 577
4 577 586 587 578
4 578 587 588 579
4 579 588 589 580
4 580 589 590 581
4 581 590 591 582
4 582 591 592 583
4 583 592 593 584
4 584 593 35 36
4 128 129 594 585
4 585 594 595 586
4 586 595 596 587
4 587 596 597 588
4 588 597 598 589
4 589 598 599 590
4 590 599 600 591
4 591 600 601 592
4 592 601 602 593
4 593 602 34 35
4 129 130 603 594
4 594 603 604 595
4 595 604 605 596
4 596 605 606 597
4 597 606 607 598
4 598 607 608 599
4 599 608 609 600
4 600 609 610 601
4 601 610 611 602
4 602 611 33 34
4 130 131 612 603
4 603 612 613 604
4 604 613 614 605
4 605 614 615 606
4 606 615 616 607
4 607 616 617 608
4 608 617 618 609
4 609 618 619 610
4 610 619 620 611
4 611 620 32 33
4 131 132 621 612
4 612 621 622 613
4 613 622 623 614
4 614 623 624 615
4 615 624 625 616
4 616 625 626 617
4 617 626 627 618
4 618 627 628 619
4 619 628 629 620
4 620 629 31 32
4 132 133 630 621
4 621 630 631 622
4 622 631 632 623
4 623 632 633 624
4 624 633 634 625
4 625 634 635 626
4 626 635 636 627
4 627 636 637 628
4 628 637 638 629
4 629 638 30 31
4 133 134 639 630
4 630 639 640 631
4 631 640 641 632
4 632 641 642 633
4 633 642 643 634
4 634 643 644 635
4 635 644 645 636
4 636 645 646 637
4 637 646 647 638
4 638 647 29 30
4 134 135 648 639
4 639 648 649 640
4 640 649 650 641
4 641 650 651 642
4 642 651 652 643
4 643 652 653 644
4 644 653 654 645
4 645 654 655 646
4 646 655 656 647
4 647 656 28 29
4 135 136 657 648
4 648 657 658 649
4 649 658 659 650
4 650 659 660 651
4 651 660 661 652
4 652 661 662 653
4 653 662 663 654
4 654 663 664 655
4 655 664 665 656
4 656 665 27 28
4 136 137 666 657
4 657 666 667 658
4 658 667 668 659
4 659 668 669 660
4 660 669 670 661
4 661 670 671 662
4 662 671 672 663
4 663 672 673 664
4 664 673 674 665
4 665 674 26 27
4 137 138 675 666
4 666 675 676 667
4 667 676 677 668
4 668 677 678 669
4 669 678 679 670
4 670 679 680 671
4 671 680 681 672
4 672 681 682 673
4 673 682 683 674
4 674 683 25 26
4 138 139 684 675
4 675 684 685 676
4 676 685 686 677
4 677 686 687 678
4 678 687 688 679
4 679 688 689 680
4 680 689 690 681
4 681 690 691 682
4 682 691 692 683
4 683 692 24 25
4 139 140 693 684
4 684 693 694 685
4 685 694 695 686
4 686 695 696 687
4 687 696 697 688
4 688 697 698 689
4 689 698 699 690
4 690 699 700 691
4 691 700 701 692
4 692 701 23 24
4 140 141 702 693
4 693 702 703 694
4 694 703 704 695
4 695 704 705 696
4 696 705 706 697
4 697 706 707 698
4 698 707 708 699
4 699 708 709 700
4 700 709 710 701
4 701 710 22 23
4 141 142 711 702
4 702 711 712 703
4 703 712 713 704
4 704 713 714 705
4 705 714 715 706
4 706 715 716 707
4 707 716 717 708
4 708 717 718 709
4 709 718 719 710
4 710 719 21 22
4 142 143 720 711
4 711 720 721 712
4 712 721 722 713
4 713 722 723 714
4 714 723 724 715
4 715 724 725 716
4 716 725 726 717
4 717 726 727 718
4 718 727 728 719
4 719 728 20 21
4 143 144 729 720
4 720 729 730 721
4 721 730 731 722
4 722 731 732 723
4 723 732 733 724
4 724 733 734 725
4 725 734 735 726
4 726 735 736 727
4 727 736 737 728
4 728 737 19 20
4 144 145 738 729
4 729 738 739 730
4 730 739 740 731
4 731 740 741 732
4 732 741 742 733
4 733 742 743 734
4 734 743 744 735
4 735 744 745 736
4 736 745 746 737
4 737 746 18 19
4 145 146 747 738
4 738 747 748 739
4 739 748 749 740
4 740 749 750 741
4 741 750 751 742
4 742 751 752 743
4 743 752 753 744
4 744 753 754 745
4 745 754 755 746
4 746 755 17 18
4 146 147 756 747
4 747 756 757 748
4 748 757 758 749
4 749 758 759 750
4 750 759 760 751
4 751 760 761 752
4 752 761 762 753
4 753 762 763 754
4 754 763 764 755
4 755 764 16 17
4 147 148 765 756
4 756 765 766 757
4 757 766 767 758
4 758 767 768 759
4 759 768 769 760
4 760 769 770 761
4 761 770 771 762
4 762 771 772 763
4 763 772 773 764
4 764 773 15 16
4 148 149 774 765
4 765 774 775 766
4 766 775 776 767
4 767 776 777 768
4 768 777 778 769
4 769 778 779 770
4 770 779 780 771
4 771 780 781 772
4 772 781 782 773
4 773 782 14 15
4 149 150 783 774
4 774 783 784 775
4 775 784 785 776
4 776 785 786 777
4 777 786 787 778
4 778 787 788 779
4 779 788 789 780
4 780 789 790 781
4 781 790 791 782
4 782 791 13 14
4 150 151 792 783
4 783 792 793 784
4 784 793 794 785
4 785 794 795 786
4 786 795 796 787
4 787 796 797 788
4 788 797 798 789
4 789 798 799 790
4 790 799 800 791
4 791 800 12 13
4 151 152 801 792
4 792 801 802 793
4 793 802 803 794
4 794 803 804 795
4 795 804 805 796
4 796 805 806 797
4 797 806 807 798
4 798 807 808 799
4 799 808 809 800
4 800 809 11 12
4 152 153 810 801
4 801 810 811 802
4 802 811 812 803
4 803 812 813 804
4 804 813 814 805
4 805 814 815 806
4 806 815 816 807
4 807 816 817 808
4 808 817 818 809
4 809 818 10 11
4 153 154 819 810
4 810 819 820 811
4 811 820 821 812
4 812 821 822 813
4 813 822 823 814
4 814 823 824 815
4 815 824 825 816
4 816 825 826 817
4 817 826 827 818
4 818 827 9 10
4 154 155 828 819
4 819 828 829 820
4 820 829 830 821
4 821 830 831 822
4 822 831 832 823
4 823 832 833 824
4 824 833 834 825
4 825 834 835 826
4 826 835 836 827
4 827 836 8 9
4 155 156 837 828
4 828 837 838 829
4 829 838 839 830
4 830 839 840 831
4 831 840 841 832
4 832 841 842 833
4 833 842 843 834
4 834 843 844 835
4 835 844 845 836
4 836 845 7 8
4 156 157 846 837
4 837 846 847 838
4 838 847 848 839
4 839 848 849 840
4 840 849 850 841
4 841 850 851 842
4 842 851 852 843
4 843 852 853 844
4 844 853 854 845
4 845 854 6 7
4 157 158 855 846
4 846 855 856 847
4 847 856 857 848
4 848 857 858 849
4 849 858 859 850
4 850 859 860 851
4 851 860 861 852
4 852 861 862 853
4 853 862 863 854
4 854 863 5 6
4 158 159 864 855
4 855 864 865 856
4 856 865 866 857
4 857 866 867 858
4 858 867 868 859
4 859 868 869 860
4 860 869 870 861
4 861 870 871 862
4 862 871 872 863
4 863 872 4 5
4 159 160 873 864
4 864 873 874 865
4 865 874 875 866
4 866 875 876 867
4 867 876 877 868
4 868 877 878 869
4 869 878 879 870
4 870 879 880 871
4 871 880 881 872
4 872 881 3 4
4 160 161 882 873
4 873 882 883 874
4 874 883 884 875
4 875 884 885 876
4 876 885 886 877
4 877 886 887 878
4 878 887 888 879
4 879 888 889 880
4 880 889 890 881
4 881 890 2 3
4 161 81 162 882
4 882 162 163 883
4 883 163 164 884
4 884 164 165 885
4 885 165 166 886
4 886 166 167 887
4 887 167 168 888
4 888 168 169 889
4 889 169 170 890
4 890 170 1 2
CELL_TYPES 800
9
9
9
9
9
9
9
9
9
9
9
9
9
9
9
9
9
9
9
9
9
9
9
9
9
9
9
9
9
9
9
9
9
9
9
9
9
9
9
9
9
9
9
9
9
9
9
9
9
9
9
9
9
9
9
9
9
9
9
9
9
9
9
9
9
9
9
9
9
9
9
9
9
9
9
9
9
9
9
9
9
9
9
9
9
9
9
9
9
9
9
9
9
9
9
9
9
9
9
9
9
9
9
9
9
9
9
9
9
9
9
9
9
9
9
9
9
9
9
9
9
9
9
9
9
9
9
9
9
9
9
9
9
9
9
9
9
9
9
9
9
9
9
9
9
9
9
9
9
9
9
9
9
9
9
9
9
9
9
9
9
9
9
9
9
9
9
9
9
9
9
9
9
9
9
9
9
9
9
9
9
9
9
9
9
9
9
9
9
9
9
9
9
9
9
9
9
9
9
9
9
9
9
9
9
9
9
9
9
9
9
9
9
9
9
9
9
9
9
9
9
9
9
9
9
9
9
9
9
9
9
9
9
9
9
9
9
9
9
9
9
9
9
9
9
9
9
9
9
9
9
9
9
9
9
9
9
9
9
9
9
9
9
9
9
9
9
9
9
9
9
9
9
9
9
9
9
9
9
9
9
9
9
9
9
9
9
9
9
9
9
9
9
9
9
9
9
9
9
9
9
9
9
9
9
9
9
9
9
9
9
9
9
9
9
9
9
9
9
9
9
9
9
9
9
9
9
9
9
9
9
9
9
9
9
9
9
9
9
9
9
9
9
9
9
9
9
9
9
9
9
9
9
9
9
9
9
9
9
9
9
9
9
9
9
9
9
9
9
9
9
9
9
9
9
9
9
9
9
9
9
9
9
9
9
9
9
9
9
9
9
9
9
9
9
9
9
9
9
9
9
9
9
9
9
9
9
9
9
9
9
9
9
9
9
9
9
9
9
9
9
9
9
9
9
9
9
9
9
9
9
9
9
9
9
9
9
9
9
9
9
9
9
9
9
9
9
9
9
9
9
9
9
9
9
9
9
9
9
9
9
9
9
9
9
9
9
9
9
9
9
9
9
9
9
9
9
9
9
9
9
9
9
9
9
9
9
9
9
9
9
9
9
9
9
9
9
9
9
9
9
9
9
9
9
9
9
9
9
9
9
9
9
9
9
9
9
9
9
9
9
9
9
9
9
9
9
9
9
9
9
9
9
9
9
9
9
9
9
9
9
9
9
9
9
9
9
9
9
9
9
9
9
9
9
9
9
9
9
9
9
9
9
9
9
9
9
9
9
9
9
9
9
9
9
9
9
9
9
9
9
9
9
9
9
9
9
9
9
9
9
9
9
9
9
9
9
9
9
9
9
9
9
9
9
9
9
9
9
9
9
9
9
9
9
9
9
9
9
9
9
9
9
9
9
9
9
9
9
9
9
9
9
9
9
9
9
9
9
9
9
9
9
9
9
9
9
9
9
9
9
9
9
9
9
9
9
9
9
9
9
9
9
9
9
9
9
9
9
9
9
9
9
9
9
9
9
9
9
9
9
9
9
9
9
9
9
9
9
9
9
9
9
9
9
9
9
9
9
9
9
9
9
9
9
9
9
9
9
9
9
9
9
9
9
9
9
9
9
9
9
9
9
9
9
9
9
9
9
9
9
9
9
9
9
9
9
9
9
9
9
9
9
9
9
9
9
9
9
9
9
9
9
9
9
9
9
9
9
9
9
9
9
9
9
9
9
9
9
9
9
9
9
9
9
9
9
9
9
9
9
9
9
9
9
9
9
9
9
9
9
9
9
9
9
9
9
9
9
9
POINT_DATA 891
SCALARS u1 float
LOOKUP_TABLE default
3e-17
-2e-07
-2e-07
-2e-07
-2e-07
-2e-07
-2e-07
-2e-07
-2e-07
-2e-07
-2e-07
-2e-07
-2e-07
-2e-07
-2e-07
-2e-07
-2e-07
-2e-07
-2e-07
-2e-07
-2e-07
-2e-07
-2e-07
-2e-07
-2e-07
-2e-07
-2e-07
-2e-07
-2e-07
-2e-07
-2e-07
-2e-07
-2e-07
-2e-07
-2e-07
-2e-07
-2e-07
-2e-07
-2e-07
-2e-07
-2e-07
-2e-07
-2e-07
-2e-07
-2e-07
-2e-07
-2e-07
-2e-07
-2e-07
-2e-07
-2e-07
-2e-07
-2e-07
-2e-07
-2e-07
-2e-07
-2e-07
-2e-07
-2e-07
-2e-07
-2e-07
-2e-07
-2e-07
-2e-07
-2e-07
-2e-07
-2e-07
-2e-07
-2e-07
-2e-07
-2e-07
-2e-07
-2e-07
-2e-07
-2e-07
-2e-07
-2e-07
-2e-07
-2e-07
-2e-07
-1e-07
2e-07
-3e-17
1e-07
2e-07
2e-07
2e-07
2e-07
2e-07
2e-07
2e-07
2e-07
2e-07
2e-07
2e-07
2e-07
2e-07
2e-07
2e-07
2e-07
2e-07
2e-07
2e-07
2e-07
2e-07
2e-07
2e-07
2e-07
2e-07
2e-07
2e-07
2e-07
2e-07
2e-07
2e-07
2e-07
2e-07
2e-07
2e-07
2e-07
2e-07
2e-07
2e-07
2e-07
2e-07
2e-07
2e-07
2e-07
2e-07
2e-07
2e-07
2e-07
2e-07
2e-07
2e-07
2e-07
2e-07
2e-07
2e-07
2e-07
2e-07
2e-07
2e-07
2e-07
2e-07
2e-07
2e-07
2e-07
2e-07
2e-07
2e-07
2e-07
2e-07
2e-07
2e-07
2e-07
2e-07
2e-07
2e-07
2e-07
2e-07
2e-07
1e-07
1e-07
7e-08
4e-08
-6e-14
-4e-08
-7e-08
-1e-07
-1e-07
2e-18
-7e-18
-6e-17
-2e-17
1e-18
2e-17
7e-18
9e-18
7e-18
1e-07
7e-08
5e-08
2e-08
-4e-14
-2e-08
-5e-08
-7e-08
-1e-07
1e-07
1e-07
7e-08
4e-08
-4e-14
-4e-08
-7e-08
-1e-07
-1e-07
2e-07
1e-07
8e-08
4e-08
-5e-14
-4e-08
-8e-08
-1e-07
-2e-07
2e-07
1e-07
8e-08
4e-08
-5e-14
-4e-08
-8e-08
-1e-07
-2e-07
2e-07
1e-07
8e-08
4e-08
-6e-14
-4e-08
-8e-08
-1e-07
-2e-07
1e-07
1e-07
7e-08
4e-08
-6e-14
-4e-08
-7e-08
-1e-07
-1e-07
1e-07
1e-07
7e-08
4e-08
-6e-14
-4e-08
-7e-08
-1e-07
-1e-07
1e-07
1e-07
7e-08
4e-08
-6e-14
-4e-08
-7e-08
-1e-07
-1e-07
1e-07
1e-07
7e-08
4e-08
-6e-14
-4e-08
-7e-08
-1e-07
-1e-07
1e-07
1e-07
7e-08
4e-08
-6e-14
-4e-08
-7e-08
-1e-07
-1e-07
1e-07
1e-07
7e-08
4e-08
-6e-14
-4e-08
-7e-08
-1e-07
-1e-07
1e-07
1e-07
7e-08
4e-08
-6e-14
-4e-08
-7e-08
-1e-07
-1e-07
1e-07
1e-07
7e-08
4e-08
-6e-14
-4e-08
-7e-08
-1e-07
-1e-07
1e-07
1e-07
7e-08
4e-08
-6e-14
-4e-08
-7e-08
-1e-07
-1e-07
1e-07
1e-07
7e-08
4e-08
-6e-14
-4e-08
-7e-08
-1e-07
-1e-07
1e-07
1e-07
7e-08
4e-08
-6e-14
-4e-08
-7e-08
-1e-07
-1e-07
1e-07
1e-07
7e-08
4e-08
-6e-14
-4e-08
-7e-08
-1e-07
-1e-07
1e-07
1e-07
7e-08
4e-08
-6e-14
-4e-08
-7e-08
-1e-07
-1e-07
1e-07
1e-07
7e-08
4e-08
-6e-14
-4e-08
-7e-08
-1e-07
-1e-07
1e-07
1e-07
7e-08
4e-08
-6e-14
-4e-08
-7e-08
-1e-07
-1e-07
1e-07
1e-07
7e-08
4e-08
-6e-14
-4e-08
-7e-08
-1e-07
-1e-07
1e-07
1e-07
7e-08
4e-08
-6e-14
-4e-08
-7e-08
-1e-07
-1e-07
1e-07
1e-07
7e-08
4e-08
-6e-14
-4e-08
-7e-08
-1e-07
-1e-07
1e-07
1e-07
7e-08
4e-08
-6e-14
-4e-08
-7e-08
-1e-07
-1e-07
1e-07
1e-07
7e-08
4e-08
-6e-14
-4e-08
-7e-08
-1e-07
-1e-07
1e-07
1e-07
7e-08
4e-08
-6e-14
-4e-08
-7e-08
-1e-07
-1e-07
1e-07
1e-07
7e-08
4e-08
-6e-14
-4e-08
-7e-08
-1e-07
-1e-07
1e-07
1e-07
7e-08
4e-08
-6e-14
-4e-08
-7e-08
-1e-07
-1e-07
1e-07
1e-07
7e-08
4e-08
-6e-14
-4e-08
-7e-08
-1e-07
-1e-07
1e-07
1e-07
7e-08
4e-08
-6e-14
-4e-08
-7e-08
-1e-07
-1e-07
1e-07
1e-07
7e-08
4e-08
-6e-14
-4e-08
-7e-08
-1e-07
-1e-07
1e-07
1e-07
7e-08
4e-08
-6e-14
-4e-08
-7e-08
-1e-07
-1e-07
1e-07
1e-07
7e-08
4e-08
-6e-14
-4e-08
-7e-08
-1e-07
-1e-07
1e-07
1e-07
7e-08
4e-08
-6e-14
-4e-08
-7e-08
-1e-07
-1e-07
1e-07
1e-07
7e-08
4e-08
-6e-14
-4e-08
-7e-08
-1e-07
-1e-07
1e-07
1e-07
7e-08
4e-08
-6e-14
-4e-08
-7e-08
-1e-07
-1e-07
1e-07
1e-07
7e-08
4e-08
-6e-14
-4e-08
-7e-08
-1e-07
-1e-07
1e-07
1e-07
7e-08
4e-08
-6e-14
-4e-08
-7e-08
-1e-07
-1e-07
1e-07
1e-07
7e-08
4e-08
-6e-14
-4e-08
-7e-08
-1e-07
-1e-07
1e-07
1e-07
7e-08
4e-08
-6e-14
-4e-08
-7e-08
-1e-07
-1e-07
1e-07
1e-07
7e-08
4e-08
-6e-14
-4e-08
-7e-08
-1e-07
-1e-07
1e-07
1e-07
7e-08
4e-08
-6e-14
-4e-08
-7e-08
-1e-07
-1e-07
1e-07
1e-07
7e-08
4e-08
-6e-14
-4e-08
-7e-08
-1e-07
-1e-07
1e-07
1e-07
7e-08
4e-08
-6e-14
-4e-08
-7e-08
-1e-07
-1e-07
1e-07
1e-07
7e-08
4e-08
-6e-14
-4e-08
-7e-08
-1e-07
-1e-07
1e-07
1e-07
7e-08
4e-08
-6e-14
-4e-08
-7e-08
-1e-07
-1e-07
1e-07
1e-07
7e-08
4e-08
-6e-14
-4e-08
-7e-08
-1e-07
-1e-07
1e-07
1e-07
7e-08
4e-08
-6e-14
-4e-08
-7e-08
-1e-07
-1e-07
1e-07
1e-07
7e-08
4e-08
-6e-14
-4e-08
-7e-08
-1e-07
-1e-07
1e-07
1e-07
7e-08
4e-08
-6e-14
-4e-08
-7e-08
-1e-07
-1e-07
1e-07
1e-07
7e-08
4e-08
-6e-14
-4e-08
-7e-08
-1e-07
-1e-07
1e-07
1e-07
7e-08
4e-08
-6e-14
-4e-08
-7e-08
-1e-07
-1e-07
1e-07
1e-07
7e-08
4e-08
-6e-14
-4e-08
-7e-08
-1e-07
-1e-07
1e-07
1e-07
7e-08
4e-08
-6e-14
-4e-08
-7e-08
-1e-07
-1e-07
1e-07
1e-07
7e-08
4e-08
-6e-14
-4e-08
-7e-08
-1e-07
-1e-07
1e-07
1e-07
7e-08
4e-08
-6e-14
-4e-08
-7e-08
-1e-07
-1e-07
1e-07
1e-07
7e-08
4e-08
-6e-14
-4e-08
-7e-08
-1e-07
-1e-07
1e-07
1e-07
7e-08
4e-08
-6e-14
-4e-08
-7e-08
-1e-07
-1e-07
1e-07
1e-07
7e-08
4e-08
-6e-14
-4e-08
-7e-08
-1e-07
-1e-07
1e-07
1e-07
7e-08
4e-08
-6e-14
-4e-08
-7e-08
-1e-07
-1e-07
1e-07
1e-07
7e-08
4e-08
-6e-14
-4e-08
-7e-08
-1e-07
-1e-07
1e-07
1e-07
7e-08
4e-08
-6e-14
-4e-08
-7e-08
-1e-07
-1e-07
1e-07
1e-07
7e-08
4e-08
-6e-14
-4e-08
-7e-08
-1e-07
-1e-07
1e-07
1e-07
7e-08
4e-08
-6e-14
-4e-08
-7e-08
-1e-07
-1e-07
1e-07
1e-07
7e-08
4e-08
-6e-14
-4e-08
-7e-08
-1e-07
-1e-07
1e-07
1e-07
7e-08
4e-08
-6e-14
-4e-08
-7e-08
-1e-07
-1e-07
1e-07
1e-07
7e-08
4e-08
-6e-14
-4e-08
-7e-08
-1e-07
-1e-07
1e-07
1e-07
7e-08
4e-08
-6e-14
-4e-08
-7e-08
-1e-07
-1e-07
1e-07
1e-07
7e-08
4e-08
-6e-14
-4e-08
-7e-08
-1e-07
-1e-07
1e-07
1e-07
7e-08
4e-08
-6e-14
-4e-08
-7e-08
-1e-07
-1e-07
1e-07
1e-07
7e-08
4e-08
-6e-14
-4e-08
-7e-08
-1e-07
-1e-07
1e-07
1e-07
7e-08
4e-08
-6e-14
-4e-08
-7e-08
-1e-07
-1e-07
1e-07
1e-07
7e-08
4e-08
-6e-14
-4e-08
-7e-08
-1e-07
-1e-07
1e-07
1e-07
7e-08
4e-08
-6e-14
-4e-08
-7e-08
-1e-07
-1e-07
1e-07
1e-07
7e-08
4e-08
-6e-14
-4e-08
-7e-08
-1e-07
-1e-07
1e-07
1e-07
7e-08
4e-08
-6e-14
-4e-08
-7e-08
-1e-07
-1e-07
1e-07
1e-07
7e-08
4e-08
-6e-14
-4e-08
-7e-08
-1e-07
-1e-07
1e-07
1e-07
7e-08
4e-08
-6e-14
-4e-08
-7e-08
-1e-07
-1e-07
1e-07
1e-07
7e-08
4e-08
-6e-14
-4e-08
-7e-08
-1e-07
-1e-07
SCALARS u2 float
LOOKUP_TABLE default
-4e-17
-5e-05
-5e-05
-5e-05
-5e-05
-5e-05
-5e-05
-5e-05
-5e-05
-5e-05
-5e-05
-5e-05
-5e-05
-5e-05
-5e-05
-4e-05
-4e-05
-4e-05
-4e-05
-4e-05
-4e-05
-4e-05
-4e-05
-4e-05
-4e-05
-4e-05
-4e-05
-4e-05
-4e-05
-4e-05
-3e-05
-3e-05
-3e-05
-3e-05
-3e-05
-3e-05
-3e-05
-3e-05
-3e-05
-3e-05
-3e-05
-3e-05
-3e-05
-3e-05
-3e-05
-2e-05
-2e-05
-2e-05
-2e-05
-2e-05
-2e-05
-2e-05
-2e-05
-2e-05
-2e-05
-2e-05
-2e-05
-2e-05
-2e-05
-1e-05
-1e-05
-1e-05
-1e-05
-1e-05
-1e-05
-1e-05
-1e-05
-1e-05
-9e-06
-8e-06
-7e-06
-7e-06
-6e-06
-5e-06
-5e-06
-4e-06
-3e-06
-3e-06
-2e-06
-1e-06
-7e-07
-5e-05
-1e-16
-7e-07
-1e-06
-2e-06
-3e-06
-3e-06
-4e-06
-5e-06
-5e-06
-6e-06
-7e-06
-7e-06
-8e-06
-9e-06
-1e-05
-1e-05
-1e-05
-1e-05
-1e-05
-1e-05
-1e-05
-1e-05
-1e-05
-2e-05
-2e-05
-2e-05
-2e-05
-2e-05
-2e-05
-2e-05
-2e-05
-2e-05
-2e-05
-2e-05
-2e-05
-2e-05
-2e-05
-3e-05
-3e-05
-3e-05
-3e-05
-3e-05
-3e-05
-3e-05
-3e-05
-3e-05
-3e-05
-3e-05
-3e-05
-3e-05
-3e-05
-3e-05
-4e-05
-4e-05
-4e-05
-4e-05
-4e-05
-4e-05
-4e-05
-4e-05
-4e-05
-4e-05
-4e-05
-4e-05
-4e-05
-4e-05
-4e-05
-5e-05
-5e-05
-5e-05
-5e-05
-5e-05
-5e-05
-5e-05
-5e-05
-5e-05
-5e-05
-5e-05
-5e-05
-5e-05
-5e-05
-5e-05
-5e-05
-5e-05
-5e-05
-5e-05
-5e-05
-5e-05
-5e-05
-3e-17
-4e-17
4e-18
-2e-17
-3e-17
-3e-17
3e-17
-6e-17
2e-17
-7e-07
-7e-07
-7e-07
-7e-07
-7e-07
-7e-07
-7e-07
-7e-07
-7e-07
-1e-06
-1e-06
-1e-06
-1e-06
-1e-06
-1e-06
-1e-06
-1e-06
-1e-06
-2e-06
-2e-06
-2e-06
-2e-06
-2e-06
-2e-06
-2e-06
-2e-06
-2e-06
-3e-06
-3e-06
-3e-06
-3e-06
-3e-06
-3e-06
-3e-06
-3e-06
-3e-06
-3e-06
-3e-06
-3e-06
-3e-06
-3e-06
-3e-06
-3e-06
-3e-06
-3e-06
-4e-06
-4e-06
-4e-06
-4e-06
-4e-06
-4e-06
-4e-06
-4e-06
-4e-06
-5e-06
-5e-06
-5e-06
-5e-06
-5e-06
-5e-06
-5e-06
-5e-06
-5e-06
-5e-06
-5e-06
-5e-06
-5e-06
-5e-06
-5e-06
-5e-06
-5e-06
-5e-06
-6e-06
-6e-06
-6e-06
-6e-06
-6e-06
-6e-06
-6e-06
-6e-06
-6e-06
-7e-06
-7e-06
-7e-06
-7e-06
-7e-06
-7e-06
-7e-06
-7e-06
-7e-06
-7e-06
-7e-06
-7e-06
-7e-06
-7e-06
-7e-06
-7e-06
-7e-06
-7e-06
-8e-06
-8e-06
-8e-06
-8e-06
-8e-06
-8e-06
-8e-06
-8e-06
-8e-06
-9e-06
-9e-06
-9e-06
-9e-06
-9e-06
-9e-06
-9e-06
-9e-06
-9e-06
-1e-05
-1e-05
-1e-05
-1e-05
-1e-05
-1e-05
-1e-05
-1e-05
-1e-05
-1e-05
-1e-05
-1e-05
-1e-05
-1e-05
-1e-05
-1e-05
-1e-05
-1e-05
-1e-05
-1e-05
-1e-05
-1e-05
-1e-05
-1e-05
-1e-05
-1e-05
-1e-05
-1e-05
-1e-05
-1e-05
-1e-05
-1e-05
-1e-05
-1e-05
-1e-05
-1e-05
-1e-05
-1e-05
-1e-05
-1e-05
-1e-05
-1e-05
-1e-05
-1e-05
-1e-05
-1e-05
-1e-05
-1e-05
-1e-05
-1e-05
-1e-05
-1e-05
-1e-05
-1e-05
-1e-05
-1e-05
-1e-05
-1e-05
-1e-05
-1e-05
-1e-05
-1e-05
-1e-05
-1e-05
-1e-05
-1e-05
-1e-05
-1e-05
-1e-05
-1e-05
-1e-05
-1e-05
-1e-05
-1e-05
-1e-05
-1e-05
-1e-05
-1e-05
-1e-05
-1e-05
-1e-05
-2e-05
-2e-05
-2e-05
-2e-05
-2e-05
-2e-05
-2e-05
-2e-05
-2e-05
-2e-05
-2e-05
-2e-05
-2e-05
-2e-05
-2e-05
-2e-05
-2e-05
-2e-05
-2e-05
-2e-05
-2e-05
-2e-05
-2e-05
-2e-05
-2e-05
-2e-05
-2e-05
-2e-05
-2e-05
-2e-05
-2e-05
-2e-05
-2e-05
-2e-05
-2e-05
-2e-05
-2e-05
-2e-05
-2e-05
-2e-05
-2e-05
-2e-05
-2e-05
-2e-05
-2e-05
-2e-05
-2e-05
-2e-05
-2e-05
-2e-05
-2e-05
-2e-05
-2e-05
-2e-05
-2e-05
-2e-05
-2e-05
-2e-05
-2e-05
-2e-05
-2e-05
-2e-05
-2e-05
-2e-05
-2e-05
-2e-05
-2e-05
-2e-05
-2e-05
-2e-05
-2e-05
-2e-05
-2e-05
-2e-05
-2e-05
-2e-05
-2e-05
-2e-05
-2e-05
-2e-05
-2e-05
-2e-05
-2e-05
-2e-05
-2e-05
-2e-05
-2e-05
-2e-05
-2e-05
-2e-05
-2e-05
-2e-05
-2e-05
-2e-05
-2e-05
-2e-05
-2e-05
-2e-05
-2e-05
-2e-05
-2e-05
-2e-05
-2e-05
-2e-05
-2e-05
-2e-05
-2e-05
-2e-05
-2e-05
-2e-05
-2e-05
-2e-05
-2e-05
-2e-05
-2e-05
-2e-05
-2e-05
-2e-05
-2e-05
-2e-05
-2e-05
-2e-05
-2e-05
-2e-05
-2e-05
-2e-05
-3e-05
-3e-05
-3e-05
-3e-05
-3e-05
-3e-05
-3e-05
-3e-05
-3e-05
-3e-05
-3e-05
-3e-05
-3e-05
-3e-05
-3e-05
-3e-05
-3e-05
-3e-05
-3e-05
-3e-05
-3e-05
-3e-05
-3e-05
-3e-05
-3e-05
-3e-05
-3e-05
-3e-05
-3e-05
-3e-05
-3e-05
-3e-05
-3e-05
-3e-05
-3e-05
-3e-05
-3e-05
-3e-05
-3e-05
-3e-05
-3e-05
-3e-05
-3e-05
-3e-05
-3e-05
-3e-05
-3e-05
-3e-05
-3e-05
-3e-05
-3e-05
-3e-05
-3e-05
-3e-05
-3e-05
-3e-05
-3e-05
-3e-05
-3e-05
-3e-05
-3e-05
-3e-05
-3e-05
-3e-05
-3e-05
-3e-05
-3e-05
-3e-05
-3e-05
-3e-05
-3e-05
-3e-05
-3e-05
-3e-05
-3e-05
-3e-05
-3e-05
-3e-05
-3e-05
-3e-05
-3e-05
-3e-05
-3e-05
-3e-05
-3e-05
-3e-05
-3e-05
-3e-05
-3e-05
-3e-05
-3e-05
-3e-05
-3e-05
-3e-05
-3e-05
-3e-05
-3e-05
-3e-05
-3e-05
-3e-05
-3e-05
-3e-05
-3e-05
-3e-05
-3e-05
-3e-05
-3e-05
-3e-05
-3e-05
-3e-05
-3e-05
-3e-05
-3e-05
-3e-05
-3e-05
-3e-05
-3e-05
-3e-05
-3e-05
-3e-05
-3e-05
-3e-05
-3e-05
-3e-05
-3e-05
-3e-05
-3e-05
-3e-05
-3e-05
-3e-05
-3e-05
-3e-05
-3e-05
-3e-05
-3e-05
-4e-05
-4e-05
-4e-05
-4e-05
-4e-05
-4e-05
-4e-05
-4e-05
-4e-05
-4e-05
-4e-05
-4e-05
-4e-05
-4e-05
-4e-05
-4e-05
-4e-05
-4e-05
-4e-05
-4e-05
-4e-05
-4e-05
-4e-05
-4e-05
-4e-05
-4e-05
-4e-05
-4e-05
-4e-05
-4e-05
-4e-05
-4e-05
-4e-05
-4e-05
-4e-05
-4e-05
-4e-05
-4e-05
-4e-05
-4e-05
-4e-05
-4e-05
-4e-05
-4e-05
-4e-05
-4e-05
-4e-05
-4e-05
-4e-05
-4e-05
-4e-05
-4e-05
-4e-05
-4e-05
-4e-05
-4e-05
-4e-05
-4e-05
-4e-05
-4e-05
-4e-05
-4e-05
-4e-05
-4e-05
-4e-05
-4e-05
-4e-05
-4e-05
-4e-05
-4e-05
-4e-05
-4e-05
-4e-05
-4e-05
-4e-05
-4e-05
-4e-05
-4e-05
-4e-05
-4e-05
-4e-05
-4e-05
-4e-05
-4e-05
-4e-05
-4e-05
-4e-05
-4e-05
-4e-05
-4e-05
-4e-05
-4e-05
-4e-05
-4e-05
-4e-05
-4e-05
-4e-05
-4e-05
-4e-05
-4e-05
-4e-05
-4e-05
-4e-05
-4e-05
-4e-05
-4e-05
-4e-05
-4e-05
-4e-05
-4e-05
-4e-05
-4e-05
-4e-05
-4e-05
-4e-05
-4e-05
-4e-05
-4e-05
-4e-05
-4e-05
-4e-05
-4e-05
-4e-05
-4e-05
-4e-05
-4e-05
-4e-05
-4e-05
-4e-05
-4e-05
-4e-05
-4e-05
-4e-05
-4e-05
-4e-05
-5e-05
-5e-05
-5e-05
-5e-05
-5e-05
-5e-05
-5e-05
-5e-05
-5e-05
-5e-05
-5e-05
-5e-05
-5e-05
-5e-05
-5e-05
-5e-05
-5e-05
-5e-05
-5e-05
-5e-05
-5e-05
-5e-05
-5e-05
-5e-05
-5e-05
-5e-05
-5e-05
-5e-05
-5e-05
-5e-05
-5e-05
-5e-05
-5e-05
-5e-05
-5e-05
-5e-05
-5e-05
-5e-05
-5e-05
-5e-05
-5e-05
-5e-05
-5e-05
-5e-05
-5e-05
-5e-05
-5e-05
-5e-05
-5e-05
-5e-05
-5e-05
-5e-05
-5e-05
-5e-05
-5e-05
-5e-05
-5e-05
-5e-05
-5e-05
-5e-05
-5e-05
-5e-05
-5e-05
-5e-05
-5e-05
-5e-05
-5e-05
-5e-05
-5e-05
-5e-05
-5e-05
-5e-05
-5e-05
-5e-05
-5e-05
-5e-05
-5e-05
-5e-05
-5e-05
-5e-05
-5e-05
-5e-05
-5e-05
-5e-05
-5e-05
-5e-05
-5e-05
-5e-05
-5e-05
-5e-05
-5e-05
-5e-05
-5e-05
-5e-05
-5e-05
-5e-05
-5e-05
-5e-05
-5e-05
-5e-05
-5e-05
-5e-05
-5e-05
-5e-05
-5e-05
-5e-05
-5e-05
-5e-05
-5e-05
-5e-05
-5e-05
-5e-05
-5e-05
-5e-05
-5e-05
-5e-05
-5e-05
SCALARS strain_1 float
LOOKUP_TABLE default
-0.000014
-0.021814
-0.021484
-0.021153
-0.020820
-0.020485
-0.020149
-0.019811
-0.019473
-0.019133
-0.018792
-0.018450
-0.018107
-0.017764
-0.017419
-0.017074
-0.016729
-0.016383
-0.016037
-0.015691
-0.015345
-0.014999
-0.014653
-0.014307
-0.013962
-0.013618
-0.013275
-0.012932
-0.012590
-0.012250
-0.011911
-0.011574
-0.011238
-0.010904
-0.010572
-0.010242
-0.009915
-0.009590
-0.009268
-0.008949
-0.008632
-0.008319
-0.008009
-0.007702
-0.007400
-0.007101
-0.006806
-0.006515
-0.006228
-0.005946
-0.005669
-0.005396
-0.005128
-0.004866
-0.004609
-0.004356
-0.004110
-0.003869
-0.003634
-0.003405
-0.003182
-0.002965
-0.002754
-0.002550
-0.002352
-0.002160
-0.001975
-0.001797
-0.001625
-0.001460
-0.001302
-0.001151
-0.001006
-0.000869
-0.000738
-0.000614
-0.000497
-0.000387
-0.000284
-0.000187
-0.000097
-0.021833
-0.000000
-0.000084
-0.000174
-0.000271
-0.000375
-0.000486
-0.000603
-0.000727
-0.000858
-0.000996
-0.001141
-0.001292
-0.001451
-0.001616
-0.001788
-0.001967
-0.002152
-0.002344
-0.002543
-0.002748
-0.002959
-0.003176
-0.003400
-0.003630
-0.003865
-0.004106
-0.004353
-0.004606
-0.004864
-0.005127
-0.005395
-0.005668
-0.005946
-0.006229
-0.006516
-0.006807
-0.007103
-0.007402
-0.007705
-0.008012
-0.008323
-0.008637
-0.008953
-0.009273
-0.009596
-0.009922
-0.010249
-0.010580
-0.010912
-0.011246
-0.011583
-0.011920
-0.012260
-0.012601
-0.012943
-0.013286
-0.013630
-0.013974
-0.014320
-0.014666
-0.015012
-0.015358
-0.015705
-0.016051
-0.016398
-0.016744
-0.017090
-0.017435
-0.017780
-0.018124
-0.018467
-0.018809
-0.019150
-0.019490
-0.019829
-0.020167
-0.020503
-0.020838
-0.021172
-0.021503
-0.021832
-0.021830
-0.021828
-0.021826
-0.021824
-0.021822
-0.021820
-0.021818
-0.021816
-0.000011
-0.000009
-0.000007
-0.000005
-0.000004
-0.000002
-0.000001
-0.000001
-0.000001
-0.000084
-0.000084
-0.000085
-0.000086
-0.000087
-0.000088
-0.000090
-0.000092
-0.000094
-0.000174
-0.000175
-0.000175
-0.000176
-0.000177
-0.000179
-0.000180
-0.000182
-0.000185
-0.000271
-0.000272
-0.000272
-0.000273
-0.000274
-0.000275
-0.000277
-0.000279
-0.000281
-0.000375
-0.000375
-0.000376
-0.000376
-0.000378
-0.000379
-0.000381
-0.000382
-0.000385
-0.000485
-0.000486
-0.000486
-0.000487
-0.000488
-0.000489
-0.000491
-0.000493
-0.000495
-0.000603
-0.000603
-0.000603
-0.000604
-0.000605
-0.000606
-0.000608
-0.000610
-0.000612
-0.000727
-0.000727
-0.000727
-0.000728
-0.000729
-0.000730
-0.000732
-0.000734
-0.000736
-0.000858
-0.000858
-0.000858
-0.000859
-0.000860
-0.000861
-0.000863
-0.000864
-0.000867
-0.000996
-0.000996
-0.000996
-0.000997
-0.000998
-0.000999
-0.001000
-0.001002
-0.001004
-0.001140
-0.001140
-0.001141
-0.001141
-0.001142
-0.001143
-0.001145
-0.001147
-0.001149
-0.001292
-0.001292
-0.001292
-0.001293
-0.001294
-0.001295
-0.001296
-0.001298
-0.001300
-0.001450
-0.001450
-0.001451
-0.001451
-0.001452
-0.001453
-0.001454
-0.001456
-0.001458
-0.001616
-0.001615
-0.001616
-0.001616
-0.001617
-0.001618
-0.001619
-0.001621
-0.001623
-0.001788
-0.001788
-0.001788
-0.001788
-0.001789
-0.001790
-0.001791
-0.001793
-0.001795
-0.001966
-0.001966
-0.001966
-0.001967
-0.001967
-0.001968
-0.001970
-0.001971
-0.001973
-0.002152
-0.002151
-0.002152
-0.002152
-0.002153
-0.002153
-0.002155
-0.002156
-0.002158
-0.002344
-0.002343
-0.002343
-0.002344
-0.002344
-0.002345
-0.002346
-0.002348
-0.002350
-0.002542
-0.002542
-0.002542
-0.002542
-0.002543
-0.002543
-0.002545
-0.002546
-0.002548
-0.002747
-0.002747
-0.002747
-0.002747
-0.002747
-0.002748
-0.002749
-0.002751
-0.002752
-0.002958
-0.002958
-0.002958
-0.002958
-0.002958
-0.002959
-0.002960
-0.002961
-0.002963
-0.003176
-0.003175
-0.003175
-0.003175
-0.003176
-0.003176
-0.003177
-0.003179
-0.003180
-0.003399
-0.003399
-0.003399
-0.003399
-0.003399
-0.003400
-0.003401
-0.003402
-0.003403
-0.003629
-0.003628
-0.003628
-0.003628
-0.003628
-0.003629
-0.003630
-0.003631
-0.003632
-0.003864
-0.003864
-0.003864
-0.003864
-0.003864
-0.003864
-0.003865
-0.003866
-0.003868
-0.004106
-0.004105
-0.004105
-0.004105
-0.004105
-0.004105
-0.004106
-0.004107
-0.004108
-0.004352
-0.004352
-0.004352
-0.004352
-0.004352
-0.004352
-0.004353
-0.004354
-0.004355
-0.004605
-0.004604
-0.004604
-0.004604
-0.004604
-0.004604
-0.004605
-0.004606
-0.004607
-0.004863
-0.004862
-0.004862
-0.004862
-0.004862
-0.004862
-0.004863
-0.004863
-0.004864
-0.005126
-0.005125
-0.005125
-0.005124
-0.005125
-0.005125
-0.005125
-0.005126
-0.005127
-0.005394
-0.005393
-0.005393
-0.005393
-0.005393
-0.005393
-0.005393
-0.005394
-0.005395
-0.005667
-0.005666
-0.005666
-0.005666
-0.005666
-0.005666
-0.005666
-0.005667
-0.005668
-0.005945
-0.005944
-0.005944
-0.005943
-0.005943
-0.005943
-0.005944
-0.005944
-0.005945
-0.006228
-0.006227
-0.006226
-0.006226
-0.006226
-0.006226
-0.006226
-0.006227
-0.006227
-0.006515
-0.006514
-0.006513
-0.006513
-0.006512
-0.006513
-0.006513
-0.006513
-0.006514
-0.006806
-0.006805
-0.006804
-0.006804
-0.006804
-0.006804
-0.006804
-0.006804
-0.006805
-0.007101
-0.007101
-0.007100
-0.007099
-0.007099
-0.007099
-0.007099
-0.007099
-0.007100
-0.007401
-0.007400
-0.007399
-0.007399
-0.007398
-0.007398
-0.007398
-0.007398
-0.007399
-0.007704
-0.007703
-0.007702
-0.007702
-0.007701
-0.007701
-0.007701
-0.007701
-0.007702
-0.008011
-0.008010
-0.008009
-0.008009
-0.008008
-0.008008
-0.008008
-0.008008
-0.008008
-0.008322
-0.008320
-0.008320
-0.008319
-0.008318
-0.008318
-0.008318
-0.008318
-0.008318
-0.008635
-0.008634
-0.008633
-0.008633
-0.008632
-0.008632
-0.008632
-0.008632
-0.008632
-0.008952
-0.008951
-0.008950
-0.008949
-0.008949
-0.008948
-0.008948
-0.008948
-0.008948
-0.009272
-0.009271
-0.009270
-0.009269
-0.009268
-0.009268
-0.009268
-0.009268
-0.009268
-0.009595
-0.009594
-0.009593
-0.009592
-0.009591
-0.009591
-0.009590
-0.009590
-0.009590
-0.009920
-0.009919
-0.009918
-0.009917
-0.009916
-0.009916
-0.009915
-0.009915
-0.009915
-0.010248
-0.010247
-0.010246
-0.010245
-0.010244
-0.010243
-0.010243
-0.010243
-0.010243
-0.010578
-0.010577
-0.010576
-0.010575
-0.010574
-0.010573
-0.010573
-0.010572
-0.010572
-0.010911
-0.010909
-0.010908
-0.010907
-0.010906
-0.010906
-0.010905
-0.010905
-0.010904
-0.011245
-0.011244
-0.011243
-0.011241
-0.011241
-0.011240
-0.011239
-0.011239
-0.011238
-0.011581
-0.011580
-0.011579
-0.011577
-0.011577
-0.011576
-0.011575
-0.011575
-0.011574
-0.011919
-0.011918
-0.011916
-0.011915
-0.011914
-0.011913
-0.011913
-0.011912
-0.011912
-0.012258
-0.012257
-0.012256
-0.012255
-0.012253
-0.012253
-0.012252
-0.012251
-0.012251
-0.012599
-0.012598
-0.012596
-0.012595
-0.012594
-0.012593
-0.012592
-0.012592
-0.012591
-0.012941
-0.012940
-0.012938
-0.012937
-0.012936
-0.012935
-0.012934
-0.012933
-0.012933
-0.013284
-0.013283
-0.013281
-0.013280
-0.013279
-0.013278
-0.013277
-0.013276
-0.013275
-0.013628
-0.013627
-0.013625
-0.013624
-0.013623
-0.013622
-0.013621
-0.013620
-0.013619
-0.013973
-0.013971
-0.013970
-0.013969
-0.013967
-0.013966
-0.013965
-0.013964
-0.013963
-0.014318
-0.014317
-0.014315
-0.014314
-0.014313
-0.014311
-0.014310
-0.014309
-0.014308
-0.014664
-0.014662
-0.014661
-0.014660
-0.014658
-0.014657
-0.014656
-0.014655
-0.014654
-0.015010
-0.015009
-0.015007
-0.015006
-0.015004
-0.015003
-0.015002
-0.015001
-0.015000
-0.015357
-0.015355
-0.015354
-0.015352
-0.015351
-0.015349
-0.015348
-0.015347
-0.015346
-0.015703
-0.015702
-0.015700
-0.015699
-0.015697
-0.015696
-0.015695
-0.015693
-0.015692
-0.016050
-0.016048
-0.016047
-0.016045
-0.016044
-0.016042
-0.016041
-0.016040
-0.016038
-0.016396
-0.016395
-0.016393
-0.016391
-0.016390
-0.016389
-0.016387
-0.016386
-0.016384
-0.016742
-0.016741
-0.016739
-0.016737
-0.016736
-0.016734
-0.016733
-0.016732
-0.016730
-0.017088
-0.017086
-0.017085
-0.017083
-0.017082
-0.017080
-0.017079
-0.017077
-0.017076
-0.017433
-0.017432
-0.017430
-0.017428
-0.017427
-0.017425
-0.017424
-0.017422
-0.017421
-0.017778
-0.017776
-0.017775
-0.017773
-0.017771
-0.017770
-0.017768
-0.017767
-0.017765
-0.018122
-0.018120
-0.018119
-0.018117
-0.018115
-0.018114
-0.018112
-0.018110
-0.018109
-0.018465
-0.018463
-0.018462
-0.018460
-0.018458
-0.018457
-0.018455
-0.018453
-0.018452
-0.018807
-0.018806
-0.018804
-0.018802
-0.018800
-0.018799
-0.018797
-0.018795
-0.018794
-0.019148
-0.019147
-0.019145
-0.019143
-0.019142
-0.019140
-0.019138
-0.019136
-0.019135
-0.019489
-0.019487
-0.019485
-0.019483
-0.019482
-0.019480
-0.019478
-0.019476
-0.019475
-0.019828
-0.019826
-0.019824
-0.019822
-0.019820
-0.019819
-0.019817
-0.019815
-0.019813
-0.020165
-0.020163
-0.020162
-0.020160
-0.020158
-0.020156
-0.020154
-0.020153
-0.020151
-0.020502
-0.020500
-0.020498
-0.020496
-0.020494
-0.020492
-0.020491
-0.020489
-0.020487
-0.020836
-0.020835
-0.020833
-0.020831
-0.020829
-0.020827
-0.020825
-0.020823
-0.020822
-0.021170
-0.021168
-0.021166
-0.021164
-0.021162
-0.021160
-0.021159
-0.021157
-0.021155
-0.021501
-0.021500
-0.021498
-0.021496
-0.021494
-0.021492
-0.021490
-0.021488
-0.021486
SCALARS strain_2 float
LOOKUP_TABLE default
0.000317
0.000212
0.000212
0.000212
0.000212
0.000212
0.000212
0.000212
0.000212
0.000212
0.000212
0.000213
0.000212
0.000212
0.000213
0.000213
0.000213
0.000214
0.000214
0.000214
0.000214
0.000215
0.000216
0.000215
0.000216
0.000216
0.000217
0.000218
0.000218
0.000219
0.000219
0.000220
0.000221
0.000221
0.000223
0.000223
0.000224
0.000225
0.000227
0.000227
0.000228
0.000230
0.000231
0.000232
0.000233
0.000235
0.000236
0.000237
0.000239
0.000241
0.000242
0.000243
0.000245
0.000247
0.000249
0.000250
0.000252
0.000254
0.000256
0.000258
0.000261
0.000263
0.000265
0.000267
0.000270
0.000272
0.000275
0.000277
0.000280
0.000283
0.000285
0.000288
0.000290
0.000293
0.000296
0.000299
0.000302
0.000305
0.000308
0.000311
0.000314
0.000565
0.000571
0.000571
0.000572
0.000572
0.000573
0.000573
0.000573
0.000574
0.000574
0.000574
0.000574
0.000575
0.000575
0.000575
0.000576
0.000576
0.000576
0.000576
0.000577
0.000576
0.000577
0.000577
0.000578
0.000578
0.000578
0.000578
0.000578
0.000578
0.000578
0.000578
0.000579
0.000579
0.000579
0.000579
0.000579
0.000579
0.000579
0.000579
0.000579
0.000579
0.000579
0.000579
0.000579
0.000579
0.000579
0.000578
0.000578
0.000578
0.000578
0.000578
0.000578
0.000577
0.000577
0.000577
0.000576
0.000576
0.000576
0.000576
0.000576
0.000575
0.000575
0.000574
0.000574
0.000574
0.000573
0.000573
0.000573
0.000572
0.000571
0.000571
0.000571
0.000570
0.000570
0.000569
0.000568
0.000568
0.000567
0.000567
0.000566
0.000565
0.000530
0.000494
0.000459
0.000424
0.000389
0.000353
0.000317
0.000283
0.000247
0.000342
0.000368
0.000394
0.000419
0.000445
0.000469
0.000495
0.000520
0.000546
0.000546
0.000520
0.000494
0.000469
0.000443
0.000417
0.000391
0.000365
0.000340
0.000546
0.000519
0.000494
0.000467
0.000442
0.000415
0.000389
0.000363
0.000337
0.000546
0.000519
0.000493
0.000467
0.000440
0.000413
0.000387
0.000361
0.000334
0.000546
0.000519
0.000492
0.000465
0.000439
0.000412
0.000385
0.000358
0.000332
0.000546
0.000519
0.000492
0.000464
0.000438
0.000410
0.000383
0.000356
0.000329
0.000545
0.000518
0.000491
0.000464
0.000436
0.000409
0.000381
0.000354
0.000327
0.000546
0.000518
0.000491
0.000463
0.000435
0.000407
0.000379
0.000352
0.000324
0.000546
0.000518
0.000490
0.000462
0.000434
0.000406
0.000378
0.000349
0.000321
0.000546
0.000517
0.000489
0.000461
0.000432
0.000404
0.000376
0.000347
0.000319
0.000546
0.000517
0.000489
0.000460
0.000431
0.000402
0.000374
0.000345
0.000317
0.000546
0.000517
0.000488
0.000459
0.000430
0.000401
0.000372
0.000343
0.000314
0.000546
0.000517
0.000487
0.000458
0.000429
0.000399
0.000370
0.000341
0.000312
0.000546
0.000516
0.000487
0.000457
0.000427
0.000398
0.000369
0.000338
0.000309
0.000546
0.000516
0.000486
0.000456
0.000426
0.000397
0.000367
0.000337
0.000307
0.000546
0.000515
0.000485
0.000455
0.000426
0.000395
0.000365
0.000335
0.000305
0.000546
0.000516
0.000485
0.000455
0.000425
0.000394
0.000363
0.000333
0.000302
0.000546
0.000515
0.000484
0.000454
0.000423
0.000392
0.000362
0.000331
0.000301
0.000545
0.000515
0.000484
0.000453
0.000422
0.000391
0.000360
0.000329
0.000298
0.000546
0.000514
0.000483
0.000452
0.000421
0.000390
0.000359
0.000327
0.000296
0.000546
0.000514
0.000483
0.000452
0.000420
0.000389
0.000357
0.000326
0.000294
0.000546
0.000514
0.000482
0.000451
0.000419
0.000387
0.000356
0.000324
0.000292
0.000546
0.000514
0.000482
0.000450
0.000418
0.000386
0.000354
0.000322
0.000290
0.000546
0.000513
0.000481
0.000449
0.000417
0.000385
0.000353
0.000320
0.000288
0.000546
0.000513
0.000481
0.000448
0.000416
0.000384
0.000352
0.000319
0.000287
0.000545
0.000513
0.000481
0.000448
0.000415
0.000382
0.000350
0.000317
0.000285
0.000545
0.000513
0.000480
0.000447
0.000414
0.000382
0.000349
0.000316
0.000284
0.000545
0.000512
0.000480
0.000447
0.000414
0.000381
0.000348
0.000315
0.000281
0.000545
0.000512
0.000479
0.000446
0.000412
0.000379
0.000346
0.000313
0.000280
0.000545
0.000512
0.000479
0.000444
0.000412
0.000378
0.000345
0.000312
0.000279
0.000545
0.000512
0.000478
0.000444
0.000411
0.000378
0.000344
0.000311
0.000277
0.000545
0.000511
0.000478
0.000444
0.000411
0.000377
0.000343
0.000309
0.000276
0.000545
0.000511
0.000477
0.000443
0.000410
0.000376
0.000342
0.000308
0.000274
0.000545
0.000511
0.000477
0.000443
0.000409
0.000375
0.000341
0.000307
0.000273
0.000545
0.000510
0.000477
0.000442
0.000408
0.000374
0.000339
0.000306
0.000272
0.000545
0.000510
0.000476
0.000442
0.000407
0.000373
0.000339
0.000304
0.000270
0.000544
0.000510
0.000476
0.000441
0.000407
0.000372
0.000338
0.000303
0.000269
0.000544
0.000510
0.000475
0.000441
0.000406
0.000372
0.000337
0.000302
0.000268
0.000544
0.000510
0.000474
0.000440
0.000405
0.000371
0.000336
0.000301
0.000267
0.000544
0.000509
0.000475
0.000440
0.000405
0.000370
0.000335
0.000301
0.000265
0.000544
0.000509
0.000474
0.000439
0.000404
0.000370
0.000335
0.000300
0.000264
0.000544
0.000509
0.000474
0.000439
0.000404
0.000369
0.000333
0.000298
0.000263
0.000544
0.000508
0.000473
0.000438
0.000403
0.000368
0.000333
0.000297
0.000262
0.000544
0.000508
0.000473
0.000437
0.000402
0.000367
0.000332
0.000296
0.000261
0.000543
0.000508
0.000473
0.000437
0.000402
0.000367
0.000331
0.000296
0.000260
0.000543
0.000508
0.000472
0.000437
0.000401
0.000366
0.000330
0.000295
0.000259
0.000543
0.000507
0.000472
0.000436
0.000401
0.000365
0.000329
0.000294
0.000259
0.000543
0.000507
0.000471
0.000436
0.000400
0.000365
0.000329
0.000294
0.000258
0.000543
0.000507
0.000471
0.000436
0.000400
0.000364
0.000329
0.000293
0.000258
0.000542
0.000506
0.000471
0.000435
0.000399
0.000364
0.000328
0.000292
0.000257
0.000542
0.000505
0.000470
0.000434
0.000399
0.000363
0.000328
0.000292
0.000256
0.000541
0.000506
0.000470
0.000434
0.000399
0.000363
0.000327
0.000291
0.000255
0.000541
0.000505
0.000470
0.000434
0.000398
0.000362
0.000327
0.000290
0.000255
0.000541
0.000505
0.000469
0.000434
0.000398
0.000362
0.000326
0.000290
0.000254
0.000541
0.000505
0.000469
0.000433
0.000397
0.000361
0.000325
0.000289
0.000254
0.000540
0.000505
0.000469
0.000433
0.000397
0.000361
0.000325
0.000289
0.000253
0.000540
0.000505
0.000468
0.000432
0.000396
0.000360
0.000324
0.000288
0.000252
0.000540
0.000504
0.000468
0.000432
0.000396
0.000360
0.000324
0.000288
0.000252
0.000539
0.000504
0.000468
0.000432
0.000396
0.000359
0.000324
0.000287
0.000252
0.000539
0.000503
0.000467
0.000431
0.000395
0.000359
0.000323
0.000287
0.000251
0.000539
0.000503
0.000467
0.000431
0.000395
0.000359
0.000323
0.000287
0.000251
0.000539
0.000503
0.000467
0.000431
0.000394
0.000358
0.000323
0.000287
0.000250
0.000538
0.000502
0.000466
0.000430
0.000394
0.000358
0.000322
0.000286
0.000250
0.000538
0.000502
0.000466
0.000430
0.000394
0.000358
0.000322
0.000286
0.000249
0.000537
0.000501
0.000466
0.000429
0.000393
0.000357
0.000322
0.000286
0.000250
0.000537
0.000501
0.000465
0.000429
0.000393
0.000357
0.000321
0.000286
0.000249
0.000537
0.000501
0.000465
0.000429
0.000393
0.000357
0.000321
0.000285
0.000249
0.000536
0.000500
0.000464
0.000428
0.000392
0.000356
0.000321
0.000285
0.000249
0.000536
0.000500
0.000464
0.000428
0.000392
0.000356
0.000320
0.000285
0.000248
0.000535
0.000499
0.000463
0.000427
0.000392
0.000356
0.000320
0.000284
0.000248
0.000535
0.000499
0.000463
0.000428
0.000392
0.000356
0.000320
0.000284
0.000248
0.000534
0.000498
0.000463
0.000427
0.000391
0.000356
0.000320
0.000284
0.000248
0.000534
0.000498
0.000462
0.000427
0.000391
0.000355
0.000319
0.000283
0.000248
0.000533
0.000497
0.000462
0.000426
0.000391
0.000355
0.000319
0.000284
0.000248
0.000533
0.000498
0.000462
0.000426
0.000390
0.000355
0.000319
0.000283
0.000248
0.000533
0.000497
0.000461
0.000426
0.000390
0.000354
0.000319
0.000283
0.000247
0.000532
0.000496
0.000461
0.000425
0.000389
0.000354
0.000319
0.000283
0.000247
0.000531
0.000496
0.000461
0.000425
0.000389
0.000354
0.000318
0.000283
0.000248
0.000531
0.000495
0.000460
0.000424
0.000389
0.000353
0.000318
0.000282
0.000248
0.000530
0.000495
0.000459
0.000424
0.000389
0.000353
0.000318
0.000283
0.000247
SCALARS strain_3 float
LOOKUP_TABLE default
0.000111
0.006867
0.006770
0.006673
0.006575
0.006477
0.006378
0.006279
0.006178
0.006078
0.005978
0.005877
0.005775
0.005674
0.005572
0.005470
0.005368
0.005265
0.005162
0.005059
0.004956
0.004853
0.004749
0.004646
0.004543
0.004440
0.004337
0.004234
0.004132
0.004029
0.003927
0.003825
0.003724
0.003623
0.003522
0.003422
0.003322
0.003223
0.003125
0.003027
0.002930
0.002834
0.002739
0.002644
0.002550
0.002458
0.002366
0.002276
0.002186
0.002098
0.002011
0.001925
0.001840
0.001757
0.001675
0.001595
0.001516
0.001438
0.001363
0.001288
0.001215
0.001144
0.001075
0.001007
0.000942
0.000877
0.000815
0.000755
0.000696
0.000640
0.000584
0.000532
0.000481
0.000432
0.000385
0.000340
0.000297
0.000256
0.000216
0.000179
0.000144
0.006681
-0.000059
-0.000027
0.000007
0.000042
0.000081
0.000120
0.000162
0.000206
0.000252
0.000300
0.000349
0.000401
0.000455
0.000510
0.000568
0.000628
0.000689
0.000752
0.000817
0.000884
0.000952
0.001023
0.001095
0.001168
0.001244
0.001321
0.001399
0.001479
0.001561
0.001643
0.001727
0.001813
0.001900
0.001988
0.002077
0.002167
0.002259
0.002351
0.002445
0.002539
0.002634
0.002731
0.002827
0.002925
0.003024
0.003123
0.003222
0.003323
0.003423
0.003525
0.003626
0.003728
0.003830
0.003934
0.004036
0.004139
0.004243
0.004346
0.004449
0.004553
0.004657
0.004760
0.004864
0.004967
0.005070
0.005173
0.005276
0.005379
0.005481
0.005583
0.005685
0.005787
0.005888
0.005989
0.006089
0.006189
0.006288
0.006387
0.006486
0.006584
0.006700
0.006719
0.006737
0.006756
0.006774
0.006793
0.006812
0.006830
0.006849
0.000093
0.000076
0.000059
0.000042
0.000025
0.000008
-0.000009
-0.000026
-0.000042
-0.000010
0.000006
0.000023
0.000040
0.000057
0.000074
0.000092
0.000109
0.000127
0.000024
0.000040
0.000057
0.000074
0.000092
0.000109
0.000127
0.000144
0.000161
0.000060
0.000076
0.000094
0.000111
0.000129
0.000146
0.000163
0.000181
0.000198
0.000097
0.000115
0.000132
0.000149
0.000167
0.000184
0.000202
0.000220
0.000238
0.000138
0.000155
0.000172
0.000190
0.000207
0.000225
0.000243
0.000261
0.000279
0.000180
0.000197
0.000215
0.000232
0.000250
0.000268
0.000286
0.000304
0.000322
0.000223
0.000241
0.000259
0.000276
0.000294
0.000312
0.000330
0.000348
0.000366
0.000269
0.000287
0.000305
0.000323
0.000340
0.000359
0.000377
0.000395
0.000413
0.000317
0.000335
0.000353
0.000371
0.000389
0.000408
0.000426
0.000444
0.000462
0.000367
0.000385
0.000403
0.000421
0.000439
0.000458
0.000476
0.000494
0.000513
0.000419
0.000437
0.000455
0.000474
0.000492
0.000510
0.000529
0.000547
0.000566
0.000473
0.000491
0.000509
0.000527
0.000546
0.000564
0.000583
0.000602
0.000620
0.000529
0.000547
0.000565
0.000584
0.000602
0.000621
0.000640
0.000658
0.000677
0.000586
0.000605
0.000623
0.000642
0.000660
0.000679
0.000698
0.000717
0.000735
0.000646
0.000665
0.000683
0.000701
0.000720
0.000739
0.000758
0.000777
0.000796
0.000708
0.000726
0.000745
0.000763
0.000782
0.000801
0.000820
0.000839
0.000858
0.000771
0.000789
0.000808
0.000827
0.000846
0.000865
0.000884
0.000903
0.000922
0.000836
0.000855
0.000873
0.000893
0.000911
0.000930
0.000949
0.000969
0.000988
0.000903
0.000922
0.000940
0.000959
0.000978
0.000998
0.001017
0.001036
0.001055
0.000972
0.000990
0.001009
0.001028
0.001048
0.001067
0.001086
0.001105
0.001125
0.001042
0.001061
0.001080
0.001099
0.001118
0.001138
0.001157
0.001176
0.001196
0.001114
0.001133
0.001152
0.001171
0.001190
0.001210
0.001230
0.001249
0.001269
0.001187
0.001207
0.001226
0.001246
0.001265
0.001284
0.001304
0.001323
0.001343
0.001263
0.001282
0.001302
0.001321
0.001340
0.001360
0.001379
0.001399
0.001418
0.001340
0.001359
0.001378
0.001398
0.001417
0.001437
0.001456
0.001476
0.001496
0.001418
0.001438
0.001457
0.001477
0.001496
0.001516
0.001536
0.001555
0.001575
0.001498
0.001518
0.001537
0.001557
0.001576
0.001596
0.001616
0.001635
0.001655
0.001580
0.001599
0.001619
0.001638
0.001658
0.001678
0.001698
0.001717
0.001737
0.001663
0.001682
0.001702
0.001721
0.001741
0.001761
0.001781
0.001801
0.001820
0.001747
0.001767
0.001786
0.001806
0.001826
0.001845
0.001865
0.001885
0.001905
0.001833
0.001852
0.001872
0.001892
0.001911
0.001931
0.001951
0.001971
0.001991
0.001919
0.001939
0.001958
0.001978
0.001998
0.002018
0.002038
0.002058
0.002078
0.002008
0.002027
0.002047
0.002067
0.002086
0.002106
0.002126
0.002146
0.002166
0.002097
0.002116
0.002136
0.002156
0.002176
0.002196
0.002216
0.002236
0.002256
0.002187
0.002207
0.002226
0.002246
0.002266
0.002286
0.002306
0.002326
0.002346
0.002279
0.002298
0.002318
0.002338
0.002358
0.002378
0.002398
0.002418
0.002438
0.002371
0.002391
0.002410
0.002430
0.002450
0.002470
0.002490
0.002510
0.002530
0.002465
0.002484
0.002504
0.002524
0.002544
0.002563
0.002584
0.002604
0.002624
0.002559
0.002578
0.002599
0.002618
0.002638
0.002658
0.002678
0.002698
0.002719
0.002654
0.002674
0.002694
0.002714
0.002734
0.002754
0.002774
0.002794
0.002814
0.002750
0.002770
0.002790
0.002810
0.002830
0.002850
0.002870
0.002890
0.002910
0.002847
0.002867
0.002887
0.002907
0.002927
0.002947
0.002967
0.002987
0.003007
0.002945
0.002965
0.002985
0.003005
0.003025
0.003045
0.003065
0.003085
0.003105
0.003043
0.003063
0.003083
0.003103
0.003123
0.003143
0.003163
0.003183
0.003203
0.003143
0.003162
0.003182
0.003202
0.003222
0.003242
0.003262
0.003282
0.003302
0.003242
0.003262
0.003282
0.003302
0.003322
0.003342
0.003362
0.003382
0.003402
0.003342
0.003362
0.003382
0.003402
0.003422
0.003442
0.003462
0.003482
0.003502
0.003443
0.003463
0.003483
0.003503
0.003523
0.003543
0.003563
0.003582
0.003603
0.003544
0.003564
0.003584
0.003604
0.003624
0.003644
0.003664
0.003684
0.003704
0.003646
0.003665
0.003686
0.003706
0.003725
0.003745
0.003765
0.003785
0.003805
0.003748
0.003768
0.003787
0.003807
0.003827
0.003847
0.003867
0.003887
0.003907
0.003850
0.003870
0.003890
0.003910
0.003929
0.003950
0.003970
0.003989
0.004009
0.003953
0.003973
0.003992
0.004012
0.004032
0.004052
0.004072
0.004092
0.004112
0.004056
0.004076
0.004096
0.004115
0.004135
0.004154
0.004175
0.004194
0.004214
0.004159
0.004179
0.004198
0.004218
0.004238
0.004258
0.004278
0.004297
0.004317
0.004262
0.004282
0.004302
0.004321
0.004341
0.004361
0.004381
0.004400
0.004420
0.004366
0.004385
0.004405
0.004425
0.004444
0.004464
0.004484
0.004503
0.004524
0.004469
0.004489
0.004508
0.004528
0.004547
0.004567
0.004587
0.004607
0.004626
0.004573
0.004592
0.004612
0.004632
0.004651
0.004671
0.004690
0.004710
0.004730
0.004676
0.004696
0.004715
0.004735
0.004754
0.004774
0.004794
0.004813
0.004833
0.004780
0.004799
0.004819
0.004838
0.004857
0.004877
0.004897
0.004917
0.004936
0.004883
0.004902
0.004922
0.004942
0.004961
0.004981
0.005000
0.005019
0.005039
0.004986
0.005006
0.005025
0.005045
0.005064
0.005084
0.005103
0.005123
0.005142
0.005090
0.005109
0.005129
0.005148
0.005167
0.005187
0.005206
0.005226
0.005245
0.005193
0.005212
0.005231
0.005251
0.005270
0.005290
0.005309
0.005328
0.005348
0.005295
0.005315
0.005334
0.005354
0.005373
0.005392
0.005412
0.005431
0.005450
0.005398
0.005417
0.005437
0.005456
0.005475
0.005494
0.005514
0.005533
0.005552
0.005500
0.005520
0.005539
0.005558
0.005577
0.005597
0.005616
0.005635
0.005655
0.005602
0.005622
0.005641
0.005660
0.005680
0.005699
0.005718
0.005737
0.005756
0.005705
0.005724
0.005743
0.005762
0.005781
0.005800
0.005819
0.005838
0.005858
0.005806
0.005825
0.005844
0.005863
0.005882
0.005901
0.005920
0.005940
0.005959
0.005907
0.005926
0.005945
0.005964
0.005983
0.006002
0.006021
0.006040
0.006059
0.006008
0.006027
0.006046
0.006065
0.006084
0.006103
0.006122
0.006140
0.006160
0.006108
0.006127
0.006146
0.006165
0.006184
0.006203
0.006222
0.006241
0.006259
0.006208
0.006227
0.006246
0.006265
0.006284
0.006303
0.006321
0.006340
0.006359
0.006307
0.006326
0.006345
0.006364
0.006383
0.006401
0.006420
0.006439
0.006458
0.006406
0.006425
0.006444
0.006462
0.006481
0.006500
0.006519
0.006537
0.006556
0.006505
0.006523
0.006542
0.006561
0.006580
0.006598
0.006617
0.006636
0.006654
0.006603
0.006621
0.006640
0.006659
0.006677
0.006696
0.006714
0.006733
0.006752
SCALARS stress_1 float
LOOKUP_TABLE default
5664.409169
-4185116.809075
-4121739.887597
-4058047.966119
-3994059.544641
-3929780.623163
-3865214.201685
-3800399.780207
-3735342.358729
-3670051.437251
-3604556.015772
-3538874.594294
-3473010.172816
-3406983.251338
-3340833.329860
-3274576.408382
-3208210.486904
-3141775.065426
-3075283.143948
-3008779.222470
-2942261.800992
-2875768.879514
-2809313.958036
-2742934.036558
-2676655.115080
-2610494.193602
-2544478.772124
-2478641.350646
-2413013.429168
-2347619.007690
-2282483.586212
-2217652.164734
-2153132.743255
-2088960.821777
-2025188.900299
-1961827.478821
-1898904.557343
-1836459.135865
-1774531.214387
-1713141.792909
-1652303.371431
-1592107.449953
-1532521.028475
-1473609.106997
-1415410.185519
-1357938.764041
-1301225.342563
-1245309.921085
-1190228.499607
-1136010.078129
-1082677.156651
-1030256.235173
-978790.313695
-928298.892216
-878807.470738
-830344.049260
-782949.627782
-736622.206304
-691413.784826
-647345.863348
-604430.441870
-562679.520392
-522123.598914
-482790.677436
-444680.755958
-407835.834480
-372237.413002
-337911.991524
-304869.070046
-273134.148568
-242695.727090
-213568.805612
-185761.384134
-159242.462656
-134076.041178
-110202.619699
-87654.198221
-66410.276743
-46467.855265
-27814.933787
-10448.512309
-4179626.247776
14976.970468
-1084.451010
-18409.872488
-37027.793966
-56941.715444
-78157.636922
-100683.058400
-124521.979878
-149688.901356
-176179.322834
-203983.744312
-233101.665790
-263542.087268
-295288.008746
-328323.930225
-362659.351703
-398264.773181
-435147.694659
-473259.116137
-512623.037615
-553199.959093
-594975.880571
-637928.302049
-682041.223527
-727286.145005
-773643.066483
-821087.987961
-869588.909439
-919115.830917
-969672.752395
-1021196.173873
-1073658.595351
-1127066.016829
-1181348.438307
-1236494.859785
-1292460.781263
-1349231.202742
-1406766.624220
-1465043.045698
-1524028.967176
-1583663.888654
-1643952.810132
-1704841.231610
-1766317.653088
-1828314.074566
-1890828.496044
-1953822.417522
-2017260.839000
-2081113.760478
-2145365.181956
-2209961.603434
-2274870.524912
-2340090.446390
-2405564.367868
-2471254.289346
-2537175.210824
-2603266.132302
-2669504.053781
-2735861.975259
-2802326.396737
-2868853.818215
-2935418.239693
-3002018.161171
-3068600.082649
-3135158.504127
-3201668.425605
-3268109.847083
-3334454.268561
-3400672.190039
-3466772.111517
-3532702.032995
-3598461.954473
-3664029.375951
-3729389.297429
-3794524.218907
-3859406.140385
-3924032.561863
-3988382.983341
-4052439.404819
-4116200.826298
-4180210.703906
-4180767.660035
-4181331.616165
-4181890.072295
-4182432.028425
-4182985.984555
-4183525.440685
-4184060.396815
-4184597.852945
6841.365299
7975.821429
9036.277559
10049.733689
11020.689818
11913.645948
12760.602078
13554.058208
14293.514338
-1758.907140
-2506.863270
-3302.819400
-4160.775530
-5064.231660
-6026.687790
-7049.643919
-8125.600049
-9252.056179
-19107.328618
-19846.284748
-20643.740878
-21500.197008
-22423.653138
-23384.109268
-24410.065397
-25489.021527
-26624.477657
-37725.750096
-38481.206226
-39275.162356
-40131.618486
-41046.574616
-42023.030746
-43051.486876
-44131.443005
-45270.899135
-57635.171574
-58388.627704
-59191.583834
-60047.539964
-60978.996094
-61951.952224
-62977.408354
-64069.864484
-65208.820613
-78856.593052
-79607.049182
-80415.005312
-81283.461442
-82201.917572
-83177.873702
-84211.829832
-85302.785962
-86449.242091
-101385.014530
-102125.970660
-102952.426790
-103820.382920
-104741.839050
-105721.295180
-106764.251310
-107850.207440
-109013.163570
-125231.936008
-125976.392138
-126796.348268
-127660.804398
-128591.260528
-129576.216658
-130612.172788
-131708.628918
-132868.085048
-150394.857486
-151151.813616
-151966.769746
-152839.725876
-153774.682006
-154749.138136
-155794.594266
-156890.550396
-158044.506526
-176881.778964
-177643.735094
-178461.691224
-179332.647354
-180257.103484
-181243.059614
-182281.515744
-183380.471874
-184538.928004
-204683.200442
-205447.156572
-206267.112702
-207139.568832
-208062.524962
-209048.481092
-210094.937222
-211191.893352
-212360.849482
-233808.621920
-234572.578050
-235390.534180
-236258.990310
-237202.446440
-238183.402570
-239223.358700
-240329.314830
-241480.770960
-264250.543398
-265005.499528
-265825.455658
-266699.411788
-267630.367918
-268618.824048
-269664.280178
-270764.736308
-271918.692438
-295991.964876
-296751.921006
-297572.877136
-298443.333266
-299381.789396
-300365.745526
-301409.201656
-302517.657786
-303655.613916
-329045.386354
-329793.842484
-330615.798614
-331486.754744
-332426.710874
-333409.667004
-334452.623134
-335549.079264
-336698.035394
-363357.807832
-364116.763962
-364946.220092
-365826.176222
-366758.132352
-367730.088482
-368779.044612
-369865.500742
-371014.956872
-398975.229311
-399737.685440
-400550.641570
-401426.597700
-402362.053830
-403345.509960
-404376.466090
-405479.422220
-406626.878350
-435848.150789
-436615.606919
-437436.563048
-438302.519178
-439231.475308
-440217.431438
-441247.387568
-442341.843698
-443485.299828
-473980.572267
-474736.028397
-475550.984526
-476424.440656
-477350.896786
-478337.852916
-479366.809046
-480446.765176
-481586.721306
-513336.493745
-514095.449875
-514911.906005
-515790.362134
-516705.818264
-517675.774394
-518712.730524
-519794.186654
-520933.142784
-553915.915223
-554670.871353
-555486.827483
-556355.783613
-557273.739742
-558253.195872
-559280.152002
-560345.108132
-561494.564262
-595683.836701
-596447.292831
-597256.748961
-598133.205091
-599045.661221
-600014.617350
-601038.573480
-602120.029610
-603243.985740
-638641.258179
-639397.714309
-640211.170439
-641079.626569
-641998.582699
-642962.538828
-643965.494958
-645037.451088
-646169.407218
-682746.179657
-683506.135787
-684316.091917
-685179.548047
-686089.004177
-687054.960307
-688069.916436
-689134.872566
-690255.328696
-727994.101135
-728756.057265
-729543.513395
-730411.969525
-731322.925655
-732287.881785
-733288.337915
-734364.794044
-735464.750174
-774351.522613
-775106.478743
-775909.434873
-776763.391003
-777663.347133
-778620.303263
-779628.759393
-780676.715522
-781786.171652
-821788.444091
-822542.900221
-823341.356351
-824193.812481
-825094.768611
-826044.724741
-827049.180871
-828095.137001
-829198.593130
-870293.865569
-871043.321699
-871842.777829
-872694.733959
-873600.190089
-874538.146219
-875536.102349
-876573.058479
-877665.514609
-919832.287047
-920581.243177
-921367.699307
-922217.655437
-923108.111567
-924050.567697
-925028.523827
-926074.479957
-927159.936087
-970373.208525
-971125.664655
-971910.120785
-972753.576915
-973645.033045
-974572.989175
-975555.445305
-976600.901435
-977667.857565
-1021902.630003
-1022646.586133
-1023432.042263
-1024261.498393
-1025147.954523
-1026076.910653
-1027046.866783
-1028076.822913
-1029146.779043
-1074370.551481
-1075109.007611
-1075898.963741
-1076721.919871
-1077606.876001
-1078524.832131
-1079495.288261
-1080516.744391
-1081574.700521
-1127750.472959
-1128489.429089
-1129281.385219
-1130114.341349
-1130982.797479
-1131900.253609
-1132863.209739
-1133874.665869
-1134914.121999
-1182036.894437
-1182772.350567
-1183562.806697
-1184393.262827
-1185254.218957
-1186164.175087
-1187116.131217
-1188110.087347
-1189155.543477
-1237186.815915
-1237926.772045
-1238704.728175
-1239510.684305
-1240380.640435
-1241284.596565
-1242231.552695
-1243216.508825
-1244242.964955
-1293146.737393
-1293877.193523
-1294660.649653
-1295479.105783
-1296326.561913
-1297230.518043
-1298165.974173
-1299152.430303
-1300170.886433
-1349922.158871
-1350650.615001
-1351417.571131
-1352232.527261
-1353079.483391
-1353978.439521
-1354906.395651
-1355875.851781
-1356885.807911
-1407455.080350
-1408183.036479
-1408946.492609
-1409764.948739
-1410606.404869
-1411486.860999
-1412410.817129
-1413368.273259
-1414366.229389
-1465735.501828
-1466460.957957
-1467223.914087
-1468015.870217
-1468847.326347
-1469738.282477
-1470658.238607
-1471593.694737
-1472589.650867
-1524710.923306
-1525420.879436
-1526184.335565
-1526988.291695
-1527812.747825
-1528683.703955
-1529591.660085
-1530526.116215
-1531507.572345
-1584351.344784
-1585065.800914
-1585819.757044
-1586613.213173
-1587432.169303
-1588293.625433
-1589195.581563
-1590124.537693
-1591102.493823
-1644629.766262
-1645346.722392
-1646101.178522
-1646877.134651
-1647700.590781
-1648547.046911
-1649444.503041
-1650358.959171
-1651322.415301
-1705521.687740
-1706229.643870
-1706968.100000
-1707760.056130
-1708568.512259
-1709412.968389
-1710294.424519
-1711217.880649
-1712158.336779
-1766993.109218
-1767695.565348
-1768427.021478
-1769203.977608
-1770015.933738
-1770856.889867
-1771720.345997
-1772619.302127
-1773562.758257
-1828990.030696
-1829685.986826
-1830425.942956
-1831195.899086
-1831990.855216
-1832821.811346
-1833687.267475
-1834572.723605
-1835504.679735
-1891502.452174
-1892206.408304
-1892924.364434
-1893696.820564
-1894488.276694
-1895303.232824
-1896168.188953
-1897045.145083
-1897960.601213
-1954494.373652
-1955190.329782
-1955922.285912
-1956680.242042
-1957457.698172
-1958272.154302
-1959111.110432
-1959992.066561
-1960897.522691
-2017934.795130
-2018618.751260
-2019344.207390
-2020096.163520
-2020879.619650
-2021678.575780
-2022526.531910
-2023378.488040
-2024275.444169
-2081796.216608
-2082474.672738
-2083194.128868
-2083932.084998
-2084703.041128
-2085504.997258
-2086328.453388
-2087179.409518
-2088067.865647
-2146014.138086
-2146708.094216
-2147426.050346
-2148155.506476
-2148922.462606
-2149708.918736
-2150528.374866
-2151369.330996
-2152242.787126
-2210619.559564
-2211291.015694
-2212001.971824
-2212742.927954
-2213492.384084
-2214284.340214
-2215074.296344
-2215911.252474
-2216777.708604
-2275523.981042
-2276203.937172
-2276910.393302
-2277635.849432
-2278375.305562
-2279155.761692
-2279956.217822
-2280782.673952
-2281619.130082
-2340740.902520
-2341412.358650
-2342115.314780
-2342830.770910
-2343564.227040
-2344334.683170
-2345124.639300
-2345941.595430
-2346767.551560
-2406212.823998
-2406874.280128
-2407563.736258
-2408276.192388
-2409018.648518
-2409780.604648
-2410548.560778
-2411352.016908
-2412175.473038
-2471918.245476
-2472579.201606
-2473266.157736
-2473970.113866
-2474700.069996
-2475451.526126
-2476214.982256
-2477001.938386
-2477809.394516
-2537815.166954
-2538486.623084
-2539166.579214
-2539865.035344
-2540582.491474
-2541330.447604
-2542081.403734
-2542871.359864
-2543657.315994
-2603895.088432
-2604556.544562
-2605229.000692
-2605940.456822
-2606650.412952
-2607390.869082
-2608130.325212
-2608900.281342
-2609691.737472
-2670131.009910
-2670805.466040
-2671467.422170
-2672158.378300
-2672862.334430
-2673592.290560
-2674321.246690
-2675081.202820
-2675864.158950
-2736497.431388
-2737154.887518
-2737826.343648
-2738499.799778
-2739207.255908
-2739914.212038
-2740646.668168
-2741391.124298
-2742156.080428
-2802956.852867
-2803604.308996
-2804265.265126
-2804942.221256
-2805633.677386
-2806335.133516
-2807072.589646
-2807788.545776
-2808552.001906
-2869482.774345
-2870117.730475
-2870775.686604
-2871452.142734
-2872141.598864
-2872834.554994
-2873546.511124
-2874273.967254
-2875010.923384
-2936049.695823
-2936692.651953
-2937345.108082
-2938006.564212
-2938681.520342
-2939367.476472
-2940077.432602
-2940797.888732
-2941517.344862
-3002638.117301
-3003276.073431
-3003917.529561
-3004580.985690
-3005257.441820
-3005936.897950
-3006622.854080
-3007324.310210
-3008045.266340
-3069227.038779
-3069849.994909
-3070491.451039
-3071143.407169
-3071815.363298
-3072490.319428
-3073171.275558
-3073873.731688
-3074582.187818
-3135784.960257
-3136405.416387
-3137054.372517
-3137690.828647
-3138344.784776
-3139009.240906
-3139690.697036
-3140370.153166
-3141070.609296
-3202290.381735
-3202913.337865
-3203536.293995
-3204181.250125
-3204830.206255
-3205487.162384
-3206162.618514
-3206829.074644
-3207515.530774
-3268719.303213
-3269338.259343
-3269968.215473
-3270615.171603
-3271243.627733
-3271894.083863
-3272552.039992
-3273217.996122
-3273892.952252
-3335070.224691
-3335676.680821
-3336305.636951
-3336928.093081
-3337567.049211
-3338209.505341
-3338863.961471
-3339511.417600
-3340167.873730
-3401287.146169
-3401901.102299
-3402513.058429
-3403129.014559
-3403767.470689
-3404389.426819
-3405030.382949
-3405685.339078
-3406344.795208
-3467374.067647
-3467987.523777
-3468591.979907
-3469210.436037
-3469832.392167
-3470462.348297
-3471097.804427
-3471723.760557
-3472353.216686
-3533307.489125
-3533912.445255
-3534522.901385
-3535133.357515
-3535735.313645
-3536358.769775
-3536979.725905
-3537605.182035
-3538242.138165
-3599070.910603
-3599650.366733
-3600269.322863
-3600873.778993
-3601482.235123
-3602091.191253
-3602701.147383
-3603321.603513
-3603944.059643
-3664626.832081
-3665234.288211
-3665823.244341
-3666425.200471
-3667028.156601
-3667620.612731
-3668231.568861
-3668843.524991
-3669451.981121
-3729982.753559
-3730580.709689
-3731164.665819
-3731758.621949
-3732358.578079
-3732949.534209
-3733555.490339
-3734142.446469
-3734751.902599
-3795110.675037
-3795695.131167
-3796282.587297
-3796867.043427
-3797458.999557
-3798057.455687
-3798638.411817
-3799227.867947
-3799813.324077
-3859991.096515
-3860573.552645
-3861152.008775
-3861729.464905
-3862318.421035
-3862896.877165
-3863473.833295
-3864063.789425
-3864648.745555
-3924616.517993
-3925189.974123
-3925773.930253
-3926351.386383
-3926924.342513
-3927492.798643
-3928061.254773
-3928640.710903
-3929207.667033
-3988960.439471
-3989529.895601
-3990109.351731
-3990678.307861
-3991251.263991
-3991817.220121
-3992375.176251
-3992950.132381
-3993502.088511
-4053019.860949
-4053592.817079
-4054156.773209
-4054726.729339
-4055287.185469
-4055847.641599
-4056407.097729
-4056955.553859
-4057510.009989
-4116771.782427
-4117333.238557
-4117895.694687
-4118466.650817
-4119020.606947
-4119574.563077
-4120123.019207
-4120666.475337
-4121207.431467
SCALARS stress_2 float
LOOKUP_TABLE default
60817.535660
-542627.134812
-533891.376431
-524959.618050
-516035.859670
-507108.101289
-498028.342908
-489052.584527
-479980.826146
-470881.067765
-461757.309384
-452565.551003
-443401.792622
-434130.034241
-424914.275861
-415618.517480
-406378.759099
-397035.000718
-387759.242337
-378415.483956
-369083.725575
-359775.967194
-350448.208813
-341140.450432
-331808.692052
-322492.933671
-313189.175290
-303981.416909
-294717.658528
-285493.900147
-276250.141766
-267070.383385
-257978.625004
-248974.866623
-239879.108243
-230923.349862
-221927.591481
-213067.833100
-204260.074719
-195508.316338
-186836.557957
-178236.799576
-169757.041195
-161261.282814
-152937.524434
-144709.766053
-136554.007672
-128426.249291
-120530.490910
-112654.732529
-104982.974148
-97327.215767
-89867.457386
-82515.699005
-75291.940625
-68192.182244
-61204.423863
-54336.665482
-47688.907101
-41205.148720
-34805.390339
-28565.631958
-22501.873577
-16670.115196
-10874.356816
-5270.598435
145.159946
5428.918327
10492.676708
15420.435089
20080.193470
24679.951851
29167.710232
33315.468613
37375.226993
41242.985374
44914.743755
48454.502136
51782.260517
55002.018898
57945.777279
-475378.462347
109910.208125
107714.449744
105386.691363
102862.932982
100059.174601
97247.416220
94187.657839
90919.899459
87480.141078
83804.382697
79996.624316
76036.865935
71749.107554
67485.349173
62933.590792
58165.832411
53274.074030
48118.315650
42962.557269
37442.798888
31871.040507
26099.282126
20159.523745
14083.765364
7704.006983
1456.248602
-5303.509779
-11983.268159
-18915.026540
-25846.784921
-32994.543302
-40298.301683
-47770.060064
-55293.818445
-62993.576826
-70745.335207
-78633.093588
-86608.851968
-94768.610349
-102980.368730
-111220.127111
-119695.885492
-128155.643873
-136735.402254
-145367.160635
-154114.919016
-162870.677397
-171790.435777
-180614.194158
-189697.952539
-198765.710920
-207761.469301
-216881.227682
-226008.986063
-235288.744444
-244492.502825
-253720.261206
-263060.019586
-272343.777967
-281623.536348
-290931.294729
-300291.053110
-309622.811491
-318958.569872
-328342.328253
-337662.086634
-346969.845015
-356309.603395
-365629.361776
-374933.120157
-384240.878538
-393468.636919
-402640.395300
-411952.153681
-421075.912062
-430211.670443
-439315.428824
-448439.187204
-457462.945585
-466434.703966
-482158.129594
-488885.796840
-495541.464087
-502229.131333
-509076.798580
-515760.465826
-522504.133073
-529195.800319
-535967.467566
65749.202906
70716.870153
75620.537399
80556.204646
85427.871892
90347.539139
95239.206385
100150.873632
104942.540878
102722.782497
97811.115251
92879.448004
87903.780758
82980.113511
77984.446265
72988.779018
67993.111772
63029.444525
100375.024117
95351.356870
90343.689624
85232.022377
80204.355131
75240.687884
70173.020637
65157.353391
59997.686144
97783.265736
92715.598489
87591.931243
82508.263996
77404.596750
72296.929503
67177.262257
62093.595010
56885.927764
94967.507355
89915.840108
84688.172862
79556.505615
74368.838369
69249.171122
64073.503876
58845.836629
53674.169383
92015.748974
86824.081727
81628.414481
76404.747234
71181.079988
65949.412741
60705.745495
55494.078248
50198.411002
88839.990593
83712.323346
78364.656100
73056.988853
67749.321607
62537.654360
57209.987114
51866.319867
46606.652621
85616.232212
80320.564966
74904.897719
69529.230473
64245.563226
58893.895980
53494.228733
48186.561486
42806.894240
82104.473831
76712.806585
71373.139338
65981.472092
60529.804845
55066.137599
49698.470352
44198.803106
38759.135859
78396.715450
72973.048204
67501.380957
62073.713711
56598.046464
51078.379218
45582.711971
40147.044725
34627.377478
74528.957069
69097.289823
63525.622576
57981.955330
52430.288083
46930.620837
41330.953590
35827.286344
30287.619097
70425.198688
64917.531442
59317.864195
53778.196949
48158.529702
42602.862456
36967.195209
31351.527963
25747.860716
66209.440308
60601.773061
54974.105815
49322.438568
43762.771322
38067.104075
32415.436828
26763.769582
21040.102335
61801.681927
56202.014680
50414.347434
44730.680187
39075.012941
33275.345694
27611.678448
21896.011201
16208.343955
57177.923546
51450.256299
45722.589053
40050.921806
34283.254560
28471.587313
22739.920067
17044.252820
11228.585574
52354.165165
46674.497918
40826.830672
35047.163425
29251.496179
23439.828932
17652.161686
11796.494439
6004.827193
47470.406784
41650.739537
35819.072291
29943.405044
24115.737798
18280.070551
12320.403305
6480.736058
589.068812
42286.648403
36418.981157
30603.313910
24671.646664
18755.979417
12872.312171
6948.644924
1008.977677
-4930.689569
37014.890022
31063.222776
25151.555529
19207.888283
13248.221036
7356.553790
1336.886543
-4606.780703
-10626.447950
31519.131641
25503.464395
19559.797148
13572.129902
7624.462655
1620.795409
-4426.871838
-10450.539084
-16446.206331
25815.373260
19795.706014
13760.038767
7704.371521
1772.704274
-4342.962972
-10354.630219
-16446.297465
-22513.964712
20063.614879
13967.947633
7904.280386
1832.613140
-4219.054107
-10342.721353
-16478.388600
-22610.055846
-28705.723093
13995.856499
7968.189252
1844.522006
-4279.145241
-10382.812487
-16534.479734
-22722.146981
-28825.814227
-35037.481474
7872.098118
1752.430871
-4391.236375
-10566.903622
-16738.570868
-22858.238115
-29153.905361
-35341.572608
-41525.239854
1584.339737
-4623.327510
-10762.994756
-17002.662003
-23226.329249
-29429.996496
-35665.663742
-41849.330989
-48156.998235
-4923.418644
-11127.085891
-17406.753137
-23506.420384
-29766.087630
-36129.754877
-42377.422123
-48573.089370
-54928.756616
-11471.177025
-17762.844272
-24062.511518
-30318.178765
-36581.846011
-42913.513258
-49249.180504
-55480.847751
-61848.514997
-18214.935406
-24606.602652
-30926.269899
-37193.937145
-43549.604392
-49837.271638
-56184.938885
-62508.606132
-68920.273378
-25186.693787
-31534.361033
-37854.028280
-44217.695526
-50577.362773
-56949.030019
-63320.697266
-69672.364512
-76116.031759
-32322.452168
-38610.119414
-44925.786661
-51373.453907
-57849.121154
-64152.788400
-70584.455647
-77016.122893
-83399.790140
-39370.210549
-45793.877795
-52241.545042
-58673.212288
-65048.879535
-71480.546781
-77968.214028
-84443.881274
-90887.548521
-46725.968930
-53141.636176
-59653.303423
-66076.970669
-72588.637916
-78948.305162
-85503.972409
-92023.639655
-98399.306902
-54233.727310
-60681.394557
-67185.061803
-73600.729050
-80152.396296
-86568.063543
-93095.730790
-99591.398036
-106219.065283
-61793.485691
-68253.152938
-74716.820184
-81260.487431
-87848.154677
-94335.821924
-100883.489170
-107419.156417
-113990.823663
-69393.244072
-75948.911319
-82552.578565
-89108.245812
-95671.913058
-102147.580305
-108787.247551
-115302.914798
-121906.582044
-77233.002453
-83876.669700
-90356.336946
-97000.004193
-103571.671439
-110199.338686
-116763.005932
-123254.673179
-129922.340425
-85168.760834
-91688.428081
-98424.095327
-104971.762574
-111591.429820
-118191.097067
-124798.764313
-131430.431560
-138006.098806
-93180.519215
-99864.186461
-106423.853708
-113127.520954
-119687.188201
-126314.855448
-133078.522694
-139518.189941
-146305.857187
-101388.277596
-107983.944842
-114663.612089
-121371.279335
-127974.946582
-134582.613828
-141318.281075
-148009.948321
-154605.615568
-109600.035977
-116331.703223
-122919.370470
-129555.037716
-136326.704963
-142898.372209
-149618.039456
-156273.706702
-163077.373949
-117951.794358
-124555.461604
-131359.128851
-137994.796097
-144670.463344
-151354.130590
-158101.797837
-164769.465083
-171541.132330
-126367.552739
-133075.219985
-139766.887232
-146538.554478
-153206.221725
-159929.888971
-166621.556218
-173397.223464
-180116.890711
-134887.311119
-141606.978366
-148306.645612
-155082.312859
-161781.980105
-168517.647352
-175245.314599
-181992.981845
-188768.649092
-143435.069500
-150206.736747
-156974.403993
-163682.071240
-170433.738486
-177157.405733
-183965.072979
-190752.740226
-197460.407472
-152102.827881
-158934.495128
-165630.162374
-172401.829621
-179189.496867
-185985.164114
-192756.831360
-199440.498607
-206328.165853
-160866.586262
-167582.253509
-174405.920755
-181177.588002
-188013.255248
-194728.922495
-201560.589741
-208336.256988
-215171.924234
-169750.344643
-176466.011890
-183317.679136
-190065.346383
-196893.013629
-203640.680876
-210420.348122
-217236.015369
-224103.682615
-178582.103024
-185281.770270
-192121.437517
-198977.104763
-205764.772010
-212704.439257
-219388.106503
-226219.773750
-233007.440996
-187485.861405
-194301.528651
-201149.195898
-207916.863144
-214808.530391
-221504.197637
-228451.864884
-235307.532130
-242083.199377
-196441.619786
-203329.287032
-210084.954279
-216988.621525
-223780.288772
-230627.956018
-237463.623265
-244247.290511
-251110.957758
-205565.378167
-212361.045413
-219200.712660
-225976.379906
-232864.047153
-239643.714399
-246507.381646
-253431.048892
-260302.716139
-214609.136548
-221500.803794
-228324.471041
-235104.138287
-241967.805534
-248843.472780
-255687.140027
-262514.807273
-269362.474520
-223744.894928
-230552.562175
-237460.229421
-244299.896668
-251067.563914
-257955.231161
-264938.898408
-271726.565654
-278614.232901
-232880.653309
-239764.320556
-246655.987802
-253499.655049
-260271.322295
-267202.989542
-274054.656788
-280898.324035
-287853.991281
-242112.411690
-248884.078937
-255847.746183
-262707.413430
-269579.080676
-276474.747923
-283374.415169
-290114.082416
-297093.749662
-251300.170071
-258203.837318
-265071.504564
-271899.171811
-278790.839057
-285714.506304
-292562.173550
-299437.840797
-306329.508043
-260607.928452
-267491.595699
-274295.262945
-281178.930192
-288070.597438
-294942.264685
-301837.931931
-308765.599178
-315541.266424
-269907.686833
-276763.354079
-283619.021326
-290566.688572
-297414.355819
-304258.023066
-311209.690312
-318041.357559
-324969.024805
-279179.445214
-286095.112460
-292918.779707
-299770.446953
-306718.114200
-313549.781446
-320489.448693
-327341.115939
-334260.783186
-288447.203595
-295410.870841
-302278.538088
-309162.205334
-316029.872581
-322957.539827
-329785.207074
-336712.874320
-343564.541567
-297846.961976
-304710.629222
-311586.296469
-318481.963715
-325377.630962
-332281.298208
-339128.965455
-345976.632701
-352880.299948
-307210.720357
-314106.387603
-320890.054850
-327793.722096
-334725.389343
-341609.056589
-348440.723836
-355316.391082
-362240.058329
-316502.478737
-323394.145984
-330305.813230
-337145.480477
-344053.147723
-350972.814970
-357804.482217
-364660.149463
-371463.816710
-325822.237118
-332665.904365
-339613.571611
-346449.238858
-353280.906104
-360160.573351
-367088.240597
-373963.907844
-380915.575090
-335165.995499
-342029.662746
-348945.329992
-355760.997239
-362732.664485
-369544.331732
-376447.998978
-383339.666225
-390163.333471
-344493.753880
-351441.421127
-358293.088373
-365136.755620
-371960.422866
-378832.090113
-385791.757359
-392619.424606
-399491.091852
-353901.512261
-360709.179508
-367564.846754
-374448.514001
-381296.181247
-388159.848494
-395027.515740
-401859.182987
-408794.850233
-363201.270642
-369972.937888
-376888.605135
-383736.272381
-390571.939628
-397407.606875
-404379.274121
-411106.941368
-418094.608614
-372445.029023
-379404.696269
-386140.363516
-393116.030762
-399899.698009
-406695.365255
-413579.032502
-420470.699748
-427310.366995
-381788.787404
-388584.454650
-395432.121897
-402367.789143
-409167.456390
-415991.123636
-422818.790883
-429666.458129
-436482.125376
-391060.545785
-397900.213031
-404707.880278
-411539.547524
-418315.214771
-425218.882017
-432086.549264
-438870.216510
-445761.883757
-400320.304166
-407123.971412
-413907.638659
-420747.305905
-427566.973152
-434378.640398
-441226.307645
-448129.974891
-454925.642138
-409496.062546
-416295.729793
-423175.397039
-429971.064286
-436734.731532
-443646.398779
-450418.066026
-457253.733272
-464045.400519
-418727.820927
-425491.488174
-432295.155420
-439062.822667
-445902.489913
-452750.157160
-459537.824406
-466369.491653
-473189.158899
-427843.579308
-434651.246555
-441410.913801
-448206.581048
-455090.248294
-461849.915541
-468637.582787
-475497.250034
-482352.917280
-436931.337689
-443779.004936
-450542.672182
-457374.339429
-464218.006675
-470953.673922
-477737.341168
-484497.008415
-491216.675661
-446051.096070
-452894.763317
-459654.430563
-466438.097810
-473229.765056
-480005.432303
-486733.099549
-493600.766796
-500344.434042
-455162.854451
-461874.521697
-468702.188944
-475417.856190
-482245.523437
-488989.190684
-495700.857930
-502552.525177
-509204.192423
-464218.612832
-470946.280078
-477705.947325
-484445.614571
-491205.281818
-497948.949064
-504744.616311
-511464.283557
-518247.950804
-473186.371213
-479870.038459
-486589.705706
-493373.372952
-500105.040199
-506876.707445
-513664.374692
-520312.041938
-527083.709185
SCALARS stress_3 float
LOOKUP_TABLE default
18365.824509
1139915.604240
1123865.206993
1107726.809747
1091446.412500
1075130.015253
1058695.618007
1042205.220760
1025662.823513
1009036.426267
992354.029020
975557.631773
958699.234527
941886.837280
924920.440034
907972.042787
890969.645540
873923.248294
856882.851047
839738.453800
822652.056554
805555.659307
788389.262060
771252.864814
754174.467567
737010.070320
719909.673074
702851.275827
685842.878581
668836.481334
651840.084087
634969.686841
618117.289594
601356.892347
584618.495101
567960.097854
551507.700607
535043.303361
518730.906114
502518.508868
486400.111621
470461.714374
454569.317128
438896.919881
423382.522634
407954.125388
392783.728141
377773.330894
362866.933648
348228.536401
333760.139154
319507.741908
305493.344661
291658.947415
278058.550168
264684.152921
251579.755675
238711.358428
226178.961181
213784.563935
201746.166688
189915.769441
178413.372195
167196.974948
156244.577702
145634.180455
135267.783208
125221.385962
115536.988715
106106.591468
97018.194222
88273.796975
79773.399728
71669.002482
63896.605235
56360.207988
49227.810742
42393.413495
35889.016249
29750.619002
23874.221755
1109198.522520
-9773.257211
-4494.859964
1139.537282
7113.934529
13360.331776
19972.729022
26903.126269
34179.523516
41803.920762
49728.318009
57972.715256
66583.112502
75503.509749
84701.906995
94266.304242
104182.701489
114357.098735
124807.495982
135645.893229
146736.290475
158112.687722
169779.084969
181741.482215
193989.879462
206472.276708
219288.673955
232313.071202
245551.468448
259045.865695
272794.262942
286800.660188
300937.057435
315413.454682
329969.851928
344804.249175
359850.646422
374963.043668
390305.440915
405841.838161
421524.235408
437346.632655
453297.029901
469423.427148
485625.824395
501978.221641
518418.618888
534985.016135
551589.413381
568305.810628
585104.207874
602012.605121
618937.002368
635949.399614
652969.796861
670076.194108
687188.591354
704326.988601
721497.385848
738653.783094
755874.180341
773058.577588
790232.974834
807421.372081
824563.769327
841708.166574
858844.563821
875884.961067
892969.358314
909981.755561
926954.152807
943844.550054
960710.947301
977497.344547
994245.741794
1010874.139040
1027476.536287
1043986.933534
1060417.330780
1076751.728027
1093036.125274
1112320.630692
1115364.738864
1118444.847036
1121512.955208
1124589.063380
1127673.171552
1130751.279724
1133821.387896
1136919.496068
15465.716337
12583.608165
9735.499993
6911.391821
4085.283649
1323.175477
-1510.932695
-4281.040867
-7019.149039
-1694.751792
1069.356380
3871.464552
6675.572724
9503.680896
12365.789067
15231.897239
18076.005411
20956.113583
3943.645454
6757.753626
9579.861798
12375.969970
15244.078142
18112.186314
20968.294486
23900.402658
26810.510830
9894.042701
12746.150873
15598.259045
18418.367217
21300.475389
24180.583561
27104.691733
30018.799905
32970.908077
16142.439948
19016.548120
21880.656292
24784.764464
27678.872635
30628.980807
33539.088979
36449.197151
39437.305323
22824.837194
25682.945366
28617.053538
31513.161710
34415.269882
37357.378054
40321.486226
43259.594398
46255.702570
29801.234441
32657.342613
35609.450785
38519.558957
41463.667129
44429.775301
47373.883473
50389.991645
53344.099817
37065.631688
40001.739860
42945.848031
45905.956203
48812.064375
51844.172547
54840.280719
57812.388891
60790.497063
44684.028934
47644.137106
50598.245278
53592.353450
56576.461622
59568.569794
62570.677966
65596.786138
68634.894310
52706.426181
55606.534353
58588.642525
61564.750697
64570.858869
67614.967041
70645.075213
73649.183385
76715.291556
60924.823427
63924.931599
66937.039771
69907.147943
72923.256115
75987.364287
79041.472459
82123.580631
85135.688803
69551.220674
72531.328846
75565.437018
78557.545190
81617.653362
84713.761534
87757.869706
90815.977878
93920.086050
78491.617921
81521.726093
84555.834265
87607.942437
90642.050609
93714.158781
96818.266952
99874.375124
102988.483296
87752.015167
90772.123339
93838.231511
96872.339683
99932.447855
103032.556027
106118.664199
109252.772371
112386.880543
97352.412414
100370.520586
103426.628758
106486.736930
109566.845102
112678.953274
115819.061446
118935.169618
122077.277790
107238.809661
110264.917833
113357.026005
116471.134177
119533.242348
122675.350520
125801.458692
128953.566864
132111.675036
117431.206907
120493.315079
123615.423251
126707.531423
129817.639595
132931.747767
136081.855939
139259.964111
142462.072283
127927.604154
130989.712326
134123.820498
137249.928670
140366.036842
143550.145014
146652.253186
149852.361358
153062.469530
138702.001401
141870.109573
144988.217745
148122.325916
151250.434088
154462.542260
157614.650432
160796.758604
163962.866776
149832.398647
152976.506819
156086.614991
159250.723163
162410.831335
165614.939507
168773.047679
172001.155851
175175.264023
161256.795894
164388.904066
167507.012238
170717.120410
173867.228582
177061.336754
180247.444926
183469.553098
186697.661269
172927.193141
176115.301312
179217.409484
182397.517656
185585.625828
188787.734000
191989.842172
195209.950344
198478.058516
184911.590387
188035.698559
191221.806731
194413.914903
197630.023075
200856.131247
204030.239419
207290.347591
210526.455763
197129.987634
200342.095806
203476.203978
206712.312150
209920.420322
213148.528494
216358.636666
219600.744837
222844.853009
209648.384880
212886.493052
216050.601224
219260.709396
222470.817568
225710.925740
228943.033912
232191.142084
235479.250256
222448.782127
225664.890299
228826.998471
232037.106643
235291.214815
238497.322987
241777.431159
245031.539331
248329.647503
235465.179374
238683.287546
241873.395718
245133.503890
248363.612062
251597.720233
254855.828405
258107.936577
261400.044749
248771.576620
251947.684792
255141.792964
258417.901136
261650.009308
264940.117480
268176.225652
271462.333824
274768.441996
262261.973867
265464.082039
268746.190211
271960.298383
275208.406555
278476.514727
281770.622899
285044.731071
288308.839243
276012.371114
279232.479286
282476.587458
285732.695629
289046.803801
292288.911973
295581.020145
298865.128317
302151.236489
290048.768360
293244.876532
296514.984704
299743.092876
303043.201048
306267.309220
309605.417392
312903.525564
316213.633736
304235.165607
307439.273779
310703.381951
313949.490123
317209.598295
320543.706467
323807.814639
327135.922811
330450.030983
318629.562854
321859.671026
325125.779197
328425.887369
331695.995541
334978.103713
338222.211885
341584.320057
344900.428229
333257.960100
336474.068272
339754.176444
343038.284616
346318.392788
349602.500960
352936.609132
356236.717304
359566.825476
348046.357347
351348.465519
354560.573691
357848.681863
361136.790035
364444.898207
367729.006379
371059.114550
374413.222722
363052.754593
366350.862765
369594.970937
372877.079109
376169.187281
379455.295453
382789.403625
386137.511797
389443.619969
378239.151840
381507.260012
384769.368184
388071.476356
391391.584528
394695.692700
398017.800872
401319.909044
404648.017216
393599.549087
396865.657259
400145.765431
403437.873603
406723.981775
410062.089947
413374.198118
416660.306290
420054.414462
409139.946333
412402.054505
415686.162677
418976.270849
422242.379021
425594.487193
428902.595365
432228.703537
435570.811709
424764.343580
428084.451752
431338.559924
434630.668096
437980.776268
441260.884440
444592.992612
447899.100784
451283.208956
440652.740827
443916.848999
447168.957171
450461.065343
453783.173514
457111.281686
460423.389858
463749.498030
467087.606202
456583.138073
459829.246245
463171.354417
466501.462589
469739.570761
473061.678933
476415.787105
479713.895277
483078.003449
472707.535320
475981.643492
479243.751664
482557.859836
485879.968008
489166.076180
492526.184352
495816.292524
499176.400696
488917.932567
492200.040739
495492.148911
498786.257082
502050.365254
505406.473426
508714.581598
512034.689770
515396.797942
505252.329813
508516.437985
511808.546157
515136.654329
518444.762501
521744.870673
525074.978845
528365.087017
531711.195189
521714.727060
524970.835232
528296.943404
531551.051576
534863.159748
538187.267920
541503.376092
544851.484264
548171.592435
538257.124307
541553.232478
544791.340650
548093.448822
551413.556994
554759.665166
558027.773338
561355.881510
564679.989682
554867.521553
558199.629725
561449.737897
564763.846069
568049.954241
571398.062413
574682.170585
578032.278757
581318.386929
571615.918800
574894.026972
578148.135144
581496.243316
584762.351488
588082.459660
591384.567832
594698.676003
598030.784175
588410.316046
591688.424218
595012.532390
598282.640562
601546.748734
604870.856906
608170.965078
611483.073250
614807.181422
605272.713293
608548.821465
611854.929637
615137.037809
618441.145981
621743.254153
625023.362325
628319.470497
631673.578669
622181.110540
625499.218712
628765.326884
632081.435056
635357.543228
638621.651399
641929.759571
645255.867743
648557.975915
639217.507786
642479.615958
645741.724130
649013.832302
652317.940474
655618.048646
658920.156818
662222.264990
665502.373162
656237.905033
659538.013205
662796.121377
666094.229549
669340.337721
672608.445893
675926.554065
679216.662237
682524.770409
673336.302280
676584.410452
679856.518624
683148.626795
686416.734967
689680.843139
692976.951311
696269.059483
699573.167655
690474.699526
693690.807698
696966.915870
700247.024042
703547.132214
706787.240386
710071.348558
713359.456730
716675.564902
707551.096773
710833.204945
714099.313117
717357.421289
720669.529461
723911.637633
727191.745805
730435.853977
733753.962149
724757.494020
727983.602192
731281.710363
734505.818535
737791.926707
741040.034879
744294.143051
747584.251223
750872.359395
741915.891266
745125.999438
748406.107610
751662.215782
754942.323954
758164.432126
761466.540298
764730.648470
767996.756642
759102.288513
762358.396685
765606.504857
768848.613029
772130.721201
775394.829373
778612.937545
781875.045716
785129.153888
776272.685759
779520.793931
782768.902103
786007.010275
789237.118447
792529.226619
795765.334791
798995.442963
802245.551135
793493.083006
796687.191178
799937.299350
803193.407522
806399.515694
809663.623866
812917.732038
816177.840210
819421.948382
810647.480253
813877.588425
817069.696597
820339.804769
823561.912941
826792.021113
830056.129284
833308.237456
836556.345628
827779.877499
831025.985671
834230.093843
837496.202015
840696.310187
843940.418359
847152.526531
850396.634703
853620.742875
844938.274746
848180.382918
851352.491090
854548.599262
857842.707434
861064.815606
864234.923778
867459.031950
870719.140122
862052.671993
865242.780165
868454.888337
871688.996509
874883.104680
878135.212852
881355.321024
884563.429196
887731.537368
879131.069239
882341.177411
885543.285583
888707.393755
891973.501927
895169.610099
898349.718271
901563.826443
904789.934615
896157.466486
899371.574658
902539.682830
905725.791002
908937.899174
912142.007346
915318.115518
918532.223690
921754.331862
913191.863733
916349.971905
919544.080076
922722.188248
925906.296420
929104.404592
932290.512764
935486.620936
938668.729108
930116.260979
933314.369151
936476.477323
939660.585495
942820.693667
946040.801839
949196.910011
952371.018183
955539.126355
947020.658226
950180.766398
953374.874570
956532.982742
959713.090914
962849.199086
966049.307258
969211.415430
972379.523601
963841.055473
967025.163644
970213.271816
973295.379988
976487.488160
979661.596332
982823.704504
985995.812676
989125.920848
980645.452719
983793.560891
986963.669063
990131.777235
993261.885407
996431.993579
999594.101751
1002696.209923
1005834.318095
997345.849966
1000489.958138
1003646.066310
1006798.174482
1009916.282654
1013102.390826
1016220.498997
1019364.607169
1022516.715341
1014042.247212
1017174.355384
1020322.463556
1023418.571728
1026580.679900
1029694.788072
1032814.896244
1035975.004416
1039089.112588
1030530.644459
1033718.752631
1036856.860803
1039980.968975
1043103.077147
1046227.185319
1049341.293491
1052453.401663
1055563.509835
1047085.041706
1050243.149878
1053339.258050
1056435.366222
1059577.474394
1062657.582565
1065813.690737
1068891.798909
1072005.907081
1063529.438952
1066611.547124
1069721.655296
1072823.763468
1075963.871640
1079043.979812
1082158.087984
1085268.196156
1088390.304328
1079873.836199
1082945.944371
1086044.052543
1089142.160715
1092270.268887
1095338.377059
1098412.485231
1101552.593403
1104626.701575
1096138.233446
1099242.341618
1102296.449790
1105380.557961
1108454.666133
1111598.774305
1114664.882477
1117720.990649
1120813.098821
