# vtk DataFile Version 2.0
Generated volume Mesh
ASCII
DATASET UNSTRUCTURED_GRID
POINTS 891 float
0.005000 0.100000 0.000000
0.005000 0.000000 0.000000
0.005000 0.001250 0.000000
0.005000 0.002500 0.000000
0.005000 0.003750 0.000000
0.005000 0.005000 0.000000
0.005000 0.006250 0.000000
0.005000 0.007500 0.000000
0.005000 0.008750 0.000000
0.005000 0.010000 0.000000
0.005000 0.011250 0.000000
0.005000 0.012500 0.000000
0.005000 0.013750 0.000000
0.005000 0.015000 0.000000
0.005000 0.016250 0.000000
0.005000 0.017500 0.000000
0.005000 0.018750 0.000000
0.005000 0.020000 0.000000
0.005000 0.021250 0.000000
0.005000 0.022500 0.000000
0.005000 0.023750 0.000000
0.005000 0.025000 0.000000
0.005000 0.026250 0.000000
0.005000 0.027500 0.000000
0.005000 0.028750 0.000000
0.005000 0.030000 0.000000
0.005000 0.031250 0.000000
0.005000 0.032500 0.000000
0.005000 0.033750 0.000000
0.005000 0.035000 0.000000
0.005000 0.036250 0.000000
0.005000 0.037500 0.000000
0.005000 0.038750 0.000000
0.005000 0.040000 0.000000
0.005000 0.041250 0.000000
0.005000 0.042500 0.000000
0.005000 0.043750 0.000000
0.005000 0.045000 0.000000
0.005000 0.046250 0.000000
0.005000 0.047500 0.000000
0.005000 0.048750 0.000000
0.005000 0.050000 0.000000
0.005000 0.051250 0.000000
0.005000 0.052500 0.000000
0.005000 0.053750 0.000000
0.005000 0.055000 0.000000
0.005000 0.056250 0.000000
0.005000 0.057500 0.000000
0.005000 0.058750 0.000000
0.005000 0.060000 0.000000
0.005000 0.061250 0.000000
0.005000 0.062500 0.000000
0.005000 0.063750 0.000000
0.005000 0.065000 0.000000
0.005000 0.066250 0.000000
0.005000 0.067500 0.000000
0.005000 0.068750 0.000000
0.005000 0.070000 0.000000
0.005000 0.071250 0.000000
0.005000 0.072500 0.000000
0.005000 0.073750 0.000000
0.005000 0.075000 0.000000
0.005000 0.076250 0.000000
0.005000 0.077500 0.000000
0.005000 0.078750 0.000000
0.005000 0.080000 0.000000
0.005000 0.081250 0.000000
0.005000 0.082500 0.000000
0.005000 0.083750 0.000000
0.005000 0.085000 0.000000
0.005000 0.086250 0.000000
0.005000 0.087500 0.000000
0.005000 0.088750 0.000000
0.005000 0.090000 0.000000
0.005000 0.091250 0.000000
0.005000 0.092500 0.000000
0.005000 0.093750 0.000000
0.005000 0.095000 0.000000
0.005000 0.096250 0.000000
0.005000 0.097500 0.000000
0.005000 0.098750 0.000000
0.000000 0.000000 0.000000
0.000000 0.100000 0.000000
0.000000 0.098750 0.000000
0.000000 0.097500 0.000000
0.000000 0.096250 0.000000
0.000000 0.095000 0.000000
0.000000 0.093750 0.000000
0.000000 0.092500 0.000000
0.000000 0.091250 0.000000
0.000000 0.090000 0.000000
0.000000 0.088750 0.000000
0.000000 0.087500 0.000000
0.000000 0.086250 0.000000
0.000000 0.085000 0.000000
0.000000 0.083750 0.000000
0.000000 0.082500 0.000000
0.000000 0.081250 0.000000
0.000000 0.080000 0.000000
0.000000 0.078750 0.000000
0.000000 0.077500 0.000000
0.000000 0.076250 0.000000
0.000000 0.075000 0.000000
0.000000 0.073750 0.000000
0.000000 0.072500 0.000000
0.000000 0.071250 0.000000
0.000000 0.070000 0.000000
0.000000 0.068750 0.000000
0.000000 0.067500 0.000000
0.000000 0.066250 0.000000
0.000000 0.065000 0.000000
0.000000 0.063750 0.000000
0.000000 0.062500 0.000000
0.000000 0.061250 0.000000
0.000000 0.060000 0.000000
0.000000 0.058750 0.000000
0.000000 0.057500 0.000000
0.000000 0.056250 0.000000
0.000000 0.055000 0.000000
0.000000 0.053750 0.000000
0.000000 0.052500 0.000000
0.000000 0.051250 0.000000
0.000000 0.050000 0.000000
0.000000 0.048750 0.000000
0.000000 0.047500 0.000000
0.000000 0.046250 0.000000
0.000000 0.045000 0.000000
0.000000 0.043750 0.000000
0.000000 0.042500 0.000000
0.000000 0.041250 0.000000
0.000000 0.040000 0.000000
0.000000 0.038750 0.000000
0.000000 0.037500 0.000000
0.000000 0.036250 0.000000
0.000000 0.035000 0.000000
0.000000 0.033750 0.000000
0.000000 0.032500 0.000000
0.000000 0.031250 0.000000
0.000000 0.030000 0.000000
0.000000 0.028750 0.000000
0.000000 0.027500 0.000000
0.000000 0.026250 0.000000
0.000000 0.025000 0.000000
0.000000 0.023750 0.000000
0.000000 0.022500 0.000000
0.000000 0.021250 0.000000
0.000000 0.020000 0.000000
0.000000 0.018750 0.000000
0.000000 0.017500 0.000000
0.000000 0.016250 0.000000
0.000000 0.015000 0.000000
0.000000 0.013750 0.000000
0.000000 0.012500 0.000000
0.000000 0.011250 0.000000
0.000000 0.010000 0.000000
0.000000 0.008750 0.000000
0.000000 0.007500 0.000000
0.000000 0.006250 0.000000
0.000000 0.005000 0.000000
0.000000 0.003750 0.000000
0.000000 0.002500 0.000000
0.000000 0.001250 0.000000
0.000500 0.000000 0.000000
0.001000 0.000000 0.000000
0.001500 0.000000 0.000000
0.002000 0.000000 0.000000
0.002500 0.000000 0.000000
0.003000 0.000000 0.000000
0.003500 0.000000 0.000000
0.004000 0.000000 0.000000
0.004500 0.000000 0.000000
0.004500 0.100000 0.000000
0.004000 0.100000 0.000000
0.003500 0.100000 0.000000
0.003000 0.100000 0.000000
0.002500 0.100000 0.000000
0.002000 0.100000 0.000000
0.001500 0.100000 0.000000
0.001000 0.100000 0.000000
0.000500 0.100000 0.000000
0.000500 0.098750 0.000000
0.001000 0.098750 0.000000
0.001500 0.098750 0.000000
0.002000 0.098750 0.000000
0.002500 0.098750 0.000000
0.003000 0.098750 0.000000
0.003500 0.098750 0.000000
0.004000 0.098750 0.000000
0.004500 0.098750 0.000000
0.000500 0.097500 0.000000
0.001000 0.097500 0.000000
0.001500 0.097500 0.000000
0.002000 0.097500 0.000000
0.002500 0.097500 0.000000
0.003000 0.097500 0.000000
0.003500 0.097500 0.000000
0.004000 0.097500 0.000000
0.004500 0.097500 0.000000
0.000500 0.096250 0.000000
0.001000 0.096250 0.000000
0.001500 0.096250 0.000000
0.002000 0.096250 0.000000
0.002500 0.096250 0.000000
0.003000 0.096250 0.000000
0.003500 0.096250 0.000000
0.004000 0.096250 0.000000
0.004500 0.096250 0.000000
0.000500 0.095000 0.000000
0.001000 0.095000 0.000000
0.001500 0.095000 0.000000
0.002000 0.095000 0.000000
0.002500 0.095000 0.000000
0.003000 0.095000 0.000000
0.003500 0.095000 0.000000
0.004000 0.095000 0.000000
0.004500 0.095000 0.000000
0.000500 0.093750 0.000000
0.001000 0.093750 0.000000
0.001500 0.093750 0.000000
0.002000 0.093750 0.000000
0.002500 0.093750 0.000000
0.003000 0.093750 0.000000
0.003500 0.093750 0.000000
0.004000 0.093750 0.000000
0.004500 0.093750 0.000000
0.000500 0.092500 0.000000
0.001000 0.092500 0.000000
0.001500 0.092500 0.000000
0.002000 0.092500 0.000000
0.002500 0.092500 0.000000
0.003000 0.092500 0.000000
0.003500 0.092500 0.000000
0.004000 0.092500 0.000000
0.004500 0.092500 0.000000
0.000500 0.091250 0.000000
0.001000 0.091250 0.000000
0.001500 0.091250 0.000000
0.002000 0.091250 0.000000
0.002500 0.091250 0.000000
0.003000 0.091250 0.000000
0.003500 0.091250 0.000000
0.004000 0.091250 0.000000
0.004500 0.091250 0.000000
0.000500 0.090000 0.000000
0.001000 0.090000 0.000000
0.001500 0.090000 0.000000
0.002000 0.090000 0.000000
0.002500 0.090000 0.000000
0.003000 0.090000 0.000000
0.003500 0.090000 0.000000
0.004000 0.090000 0.000000
0.004500 0.090000 0.000000
0.000500 0.088750 0.000000
0.001000 0.088750 0.000000
0.001500 0.088750 0.000000
0.002000 0.088750 0.000000
0.002500 0.088750 0.000000
0.003000 0.088750 0.000000
0.003500 0.088750 0.000000
0.004000 0.088750 0.000000
0.004500 0.088750 0.000000
0.000500 0.087500 0.000000
0.001000 0.087500 0.000000
0.001500 0.087500 0.000000
0.002000 0.087500 0.000000
0.002500 0.087500 0.000000
0.003000 0.087500 0.000000
0.003500 0.087500 0.000000
0.004000 0.087500 0.000000
0.004500 0.087500 0.000000
0.000500 0.086250 0.000000
0.001000 0.086250 0.000000
0.001500 0.086250 0.000000
0.002000 0.086250 0.000000
0.002500 0.086250 0.000000
0.003000 0.086250 0.000000
0.003500 0.086250 0.000000
0.004000 0.086250 0.000000
0.004500 0.086250 0.000000
0.000500 0.085000 0.000000
0.001000 0.085000 0.000000
0.001500 0.085000 0.000000
0.002000 0.085000 0.000000
0.002500 0.085000 0.000000
0.003000 0.085000 0.000000
0.003500 0.085000 0.000000
0.004000 0.085000 0.000000
0.004500 0.085000 0.000000
0.000500 0.083750 0.000000
0.001000 0.083750 0.000000
0.001500 0.083750 0.000000
0.002000 0.083750 0.000000
0.002500 0.083750 0.000000
0.003000 0.083750 0.000000
0.003500 0.083750 0.000000
0.004000 0.083750 0.000000
0.004500 0.083750 0.000000
0.000500 0.082500 0.000000
0.001000 0.082500 0.000000
0.001500 0.082500 0.000000
0.002000 0.082500 0.000000
0.002500 0.082500 0.000000
0.003000 0.082500 0.000000
0.003500 0.082500 0.000000
0.004000 0.082500 0.000000
0.004500 0.082500 0.000000
0.000500 0.081250 0.000000
0.001000 0.081250 0.000000
0.001500 0.081250 0.000000
0.002000 0.081250 0.000000
0.002500 0.081250 0.000000
0.003000 0.081250 0.000000
0.003500 0.081250 0.000000
0.004000 0.081250 0.000000
0.004500 0.081250 0.000000
0.000500 0.080000 0.000000
0.001000 0.080000 0.000000
0.001500 0.080000 0.000000
0.002000 0.080000 0.000000
0.002500 0.080000 0.000000
0.003000 0.080000 0.000000
0.003500 0.080000 0.000000
0.004000 0.080000 0.000000
0.004500 0.080000 0.000000
0.000500 0.078750 0.000000
0.001000 0.078750 0.000000
0.001500 0.078750 0.000000
0.002000 0.078750 0.000000
0.002500 0.078750 0.000000
0.003000 0.078750 0.000000
0.003500 0.078750 0.000000
0.004000 0.078750 0.000000
0.004500 0.078750 0.000000
0.000500 0.077500 0.000000
0.001000 0.077500 0.000000
0.001500 0.077500 0.000000
0.002000 0.077500 0.000000
0.002500 0.077500 0.000000
0.003000 0.077500 0.000000
0.003500 0.077500 0.000000
0.004000 0.077500 0.000000
0.004500 0.077500 0.000000
0.000500 0.076250 0.000000
0.001000 0.076250 0.000000
0.001500 0.076250 0.000000
0.002000 0.076250 0.000000
0.002500 0.076250 0.000000
0.003000 0.076250 0.000000
0.003500 0.076250 0.000000
0.004000 0.076250 0.000000
0.004500 0.076250 0.000000
0.000500 0.075000 0.000000
0.001000 0.075000 0.000000
0.001500 0.075000 0.000000
0.002000 0.075000 0.000000
0.002500 0.075000 0.000000
0.003000 0.075000 0.000000
0.003500 0.075000 0.000000
0.004000 0.075000 0.000000
0.004500 0.075000 0.000000
0.000500 0.073750 0.000000
0.001000 0.073750 0.000000
0.001500 0.073750 0.000000
0.002000 0.073750 0.000000
0.002500 0.073750 0.000000
0.003000 0.073750 0.000000
0.003500 0.073750 0.000000
0.004000 0.073750 0.000000
0.004500 0.073750 0.000000
0.000500 0.072500 0.000000
0.001000 0.072500 0.000000
0.001500 0.072500 0.000000
0.002000 0.072500 0.000000
0.002500 0.072500 0.000000
0.003000 0.072500 0.000000
0.003500 0.072500 0.000000
0.004000 0.072500 0.000000
0.004500 0.072500 0.000000
0.000500 0.071250 0.000000
0.001000 0.071250 0.000000
0.001500 0.071250 0.000000
0.002000 0.071250 0.000000
0.002500 0.071250 0.000000
0.003000 0.071250 0.000000
0.003500 0.071250 0.000000
0.004000 0.071250 0.000000
0.004500 0.071250 0.000000
0.000500 0.070000 0.000000
0.001000 0.070000 0.000000
0.001500 0.070000 0.000000
0.002000 0.070000 0.000000
0.002500 0.070000 0.000000
0.003000 0.070000 0.000000
0.003500 0.070000 0.000000
0.004000 0.070000 0.000000
0.004500 0.070000 0.000000
0.000500 0.068750 0.000000
0.001000 0.068750 0.000000
0.001500 0.068750 0.000000
0.002000 0.068750 0.000000
0.002500 0.068750 0.000000
0.003000 0.068750 0.000000
0.003500 0.068750 0.000000
0.004000 0.068750 0.000000
0.004500 0.068750 0.000000
0.000500 0.067500 0.000000
0.001000 0.067500 0.000000
0.001500 0.067500 0.000000
0.002000 0.067500 0.000000
0.002500 0.067500 0.000000
0.003000 0.067500 0.000000
0.003500 0.067500 0.000000
0.004000 0.067500 0.000000
0.004500 0.067500 0.000000
0.000500 0.066250 0.000000
0.001000 0.066250 0.000000
0.001500 0.066250 0.000000
0.002000 0.066250 0.000000
0.002500 0.066250 0.000000
0.003000 0.066250 0.000000
0.003500 0.066250 0.000000
0.004000 0.066250 0.000000
0.004500 0.066250 0.000000
0.000500 0.065000 0.000000
0.001000 0.065000 0.000000
0.001500 0.065000 0.000000
0.002000 0.065000 0.000000
0.002500 0.065000 0.000000
0.003000 0.065000 0.000000
0.003500 0.065000 0.000000
0.004000 0.065000 0.000000
0.004500 0.065000 0.000000
0.000500 0.063750 0.000000
0.001000 0.063750 0.000000
0.001500 0.063750 0.000000
0.002000 0.063750 0.000000
0.002500 0.063750 0.000000
0.003000 0.063750 0.000000
0.003500 0.063750 0.000000
0.004000 0.063750 0.000000
0.004500 0.063750 0.000000
0.000500 0.062500 0.000000
0.001000 0.062500 0.000000
0.001500 0.062500 0.000000
0.002000 0.062500 0.000000
0.002500 0.062500 0.000000
0.003000 0.062500 0.000000
0.003500 0.062500 0.000000
0.004000 0.062500 0.000000
0.004500 0.062500 0.000000
0.000500 0.061250 0.000000
0.001000 0.061250 0.000000
0.001500 0.061250 0.000000
0.002000 0.061250 0.000000
0.002500 0.061250 0.000000
0.003000 0.061250 0.000000
0.003500 0.061250 0.000000
0.004000 0.061250 0.000000
0.004500 0.061250 0.000000
0.000500 0.060000 0.000000
0.001000 0.060000 0.000000
0.001500 0.060000 0.000000
0.002000 0.060000 0.000000
0.002500 0.060000 0.000000
0.003000 0.060000 0.000000
0.003500 0.060000 0.000000
0.004000 0.060000 0.000000
0.004500 0.060000 0.000000
0.000500 0.058750 0.000000
0.001000 0.058750 0.000000
0.001500 0.058750 0.000000
0.002000 0.058750 0.000000
0.002500 0.058750 0.000000
0.003000 0.058750 0.000000
0.003500 0.058750 0.000000
0.004000 0.058750 0.000000
0.004500 0.058750 0.000000
0.000500 0.057500 0.000000
0.001000 0.057500 0.000000
0.001500 0.057500 0.000000
0.002000 0.057500 0.000000
0.002500 0.057500 0.000000
0.003000 0.057500 0.000000
0.003500 0.057500 0.000000
0.004000 0.057500 0.000000
0.004500 0.057500 0.000000
0.000500 0.056250 0.000000
0.001000 0.056250 0.000000
0.001500 0.056250 0.000000
0.002000 0.056250 0.000000
0.002500 0.056250 0.000000
0.003000 0.056250 0.000000
0.003500 0.056250 0.000000
0.004000 0.056250 0.000000
0.004500 0.056250 0.000000
0.000500 0.055000 0.000000
0.001000 0.055000 0.000000
0.001500 0.055000 0.000000
0.002000 0.055000 0.000000
0.002500 0.055000 0.000000
0.003000 0.055000 0.000000
0.003500 0.055000 0.000000
0.004000 0.055000 0.000000
0.004500 0.055000 0.000000
0.000500 0.053750 0.000000
0.001000 0.053750 0.000000
0.001500 0.053750 0.000000
0.002000 0.053750 0.000000
0.002500 0.053750 0.000000
0.003000 0.053750 0.000000
0.003500 0.053750 0.000000
0.004000 0.053750 0.000000
0.004500 0.053750 0.000000
0.000500 0.052500 0.000000
0.001000 0.052500 0.000000
0.001500 0.052500 0.000000
0.002000 0.052500 0.000000
0.002500 0.052500 0.000000
0.003000 0.052500 0.000000
0.003500 0.052500 0.000000
0.004000 0.052500 0.000000
0.004500 0.052500 0.000000
0.000500 0.051250 0.000000
0.001000 0.051250 0.000000
0.001500 0.051250 0.000000
0.002000 0.051250 0.000000
0.002500 0.051250 0.000000
0.003000 0.051250 0.000000
0.003500 0.051250 0.000000
0.004000 0.051250 0.000000
0.004500 0.051250 0.000000
0.000500 0.050000 0.000000
0.001000 0.050000 0.000000
0.001500 0.050000 0.000000
0.002000 0.050000 0.000000
0.002500 0.050000 0.000000
0.003000 0.050000 0.000000
0.003500 0.050000 0.000000
0.004000 0.050000 0.000000
0.004500 0.050000 0.000000
0.000500 0.048750 0.000000
0.001000 0.048750 0.000000
0.001500 0.048750 0.000000
0.002000 0.048750 0.000000
0.002500 0.048750 0.000000
0.003000 0.048750 0.000000
0.003500 0.048750 0.000000
0.004000 0.048750 0.000000
0.004500 0.048750 0.000000
0.000500 0.047500 0.000000
0.001000 0.047500 0.000000
0.001500 0.047500 0.000000
0.002000 0.047500 0.000000
0.002500 0.047500 0.000000
0.003000 0.047500 0.000000
0.003500 0.047500 0.000000
0.004000 0.047500 0.000000
0.004500 0.047500 0.000000
0.000500 0.046250 0.000000
0.001000 0.046250 0.000000
0.001500 0.046250 0.000000
0.002000 0.046250 0.000000
0.002500 0.046250 0.000000
0.003000 0.046250 0.000000
0.003500 0.046250 0.000000
0.004000 0.046250 0.000000
0.004500 0.046250 0.000000
0.000500 0.045000 0.000000
0.001000 0.045000 0.000000
0.001500 0.045000 0.000000
0.002000 0.045000 0.000000
0.002500 0.045000 0.000000
0.003000 0.045000 0.000000
0.003500 0.045000 0.000000
0.004000 0.045000 0.000000
0.004500 0.045000 0.000000
0.000500 0.043750 0.000000
0.001000 0.043750 0.000000
0.001500 0.043750 0.000000
0.002000 0.043750 0.000000
0.002500 0.043750 0.000000
0.003000 0.043750 0.000000
0.003500 0.043750 0.000000
0.004000 0.043750 0.000000
0.004500 0.043750 0.000000
0.000500 0.042500 0.000000
0.001000 0.042500 0.000000
0.001500 0.042500 0.000000
0.002000 0.042500 0.000000
0.002500 0.042500 0.000000
0.003000 0.042500 0.000000
0.003500 0.042500 0.000000
0.004000 0.042500 0.000000
0.004500 0.042500 0.000000
0.000500 0.041250 0.000000
0.001000 0.041250 0.000000
0.001500 0.041250 0.000000
0.002000 0.041250 0.000000
0.002500 0.041250 0.000000
0.003000 0.041250 0.000000
0.003500 0.041250 0.000000
0.004000 0.041250 0.000000
0.004500 0.041250 0.000000
0.000500 0.040000 0.000000
0.001000 0.040000 0.000000
0.001500 0.040000 0.000000
0.002000 0.040000 0.000000
0.002500 0.040000 0.000000
0.003000 0.040000 0.000000
0.003500 0.040000 0.000000
0.004000 0.040000 0.000000
0.004500 0.040000 0.000000
0.000500 0.038750 0.000000
0.001000 0.038750 0.000000
0.001500 0.038750 0.000000
0.002000 0.038750 0.000000
0.002500 0.038750 0.000000
0.003000 0.038750 0.000000
0.003500 0.038750 0.000000
0.004000 0.038750 0.000000
0.004500 0.038750 0.000000
0.000500 0.037500 0.000000
0.001000 0.037500 0.000000
0.001500 0.037500 0.000000
0.002000 0.037500 0.000000
0.002500 0.037500 0.000000
0.003000 0.037500 0.000000
0.003500 0.037500 0.000000
0.004000 0.037500 0.000000
0.004500 0.037500 0.000000
0.000500 0.036250 0.000000
0.001000 0.036250 0.000000
0.001500 0.036250 0.000000
0.002000 0.036250 0.000000
0.002500 0.036250 0.000000
0.003000 0.036250 0.000000
0.003500 0.036250 0.000000
0.004000 0.036250 0.000000
0.004500 0.036250 0.000000
0.000500 0.035000 0.000000
0.001000 0.035000 0.000000
0.001500 0.035000 0.000000
0.002000 0.035000 0.000000
0.002500 0.035000 0.000000
0.003000 0.035000 0.000000
0.003500 0.035000 0.000000
0.004000 0.035000 0.000000
0.004500 0.035000 0.000000
0.000500 0.033750 0.000000
0.001000 0.033750 0.000000
0.001500 0.033750 0.000000
0.002000 0.033750 0.000000
0.002500 0.033750 0.000000
0.003000 0.033750 0.000000
0.003500 0.033750 0.000000
0.004000 0.033750 0.000000
0.004500 0.033750 0.000000
0.000500 0.032500 0.000000
0.001000 0.032500 0.000000
0.001500 0.032500 0.000000
0.002000 0.032500 0.000000
0.002500 0.032500 0.000000
0.003000 0.032500 0.000000
0.003500 0.032500 0.000000
0.004000 0.032500 0.000000
0.004500 0.032500 0.000000
0.000500 0.031250 0.000000
0.001000 0.031250 0.000000
0.001500 0.031250 0.000000
0.002000 0.031250 0.000000
0.002500 0.031250 0.000000
0.003000 0.031250 0.000000
0.003500 0.031250 0.000000
0.004000 0.031250 0.000000
0.004500 0.031250 0.000000
0.000500 0.030000 0.000000
0.001000 0.030000 0.000000
0.001500 0.030000 0.000000
0.002000 0.030000 0.000000
0.002500 0.030000 0.000000
0.003000 0.030000 0.000000
0.003500 0.030000 0.000000
0.004000 0.030000 0.000000
0.004500 0.030000 0.000000
0.000500 0.028750 0.000000
0.001000 0.028750 0.000000
0.001500 0.028750 0.000000
0.002000 0.028750 0.000000
0.002500 0.028750 0.000000
0.003000 0.028750 0.000000
0.003500 0.028750 0.000000
0.004000 0.028750 0.000000
0.004500 0.028750 0.000000
0.000500 0.027500 0.000000
0.001000 0.027500 0.000000
0.001500 0.027500 0.000000
0.002000 0.027500 0.000000
0.002500 0.027500 0.000000
0.003000 0.027500 0.000000
0.003500 0.027500 0.000000
0.004000 0.027500 0.000000
0.004500 0.027500 0.000000
0.000500 0.026250 0.000000
0.001000 0.026250 0.000000
0.001500 0.026250 0.000000
0.002000 0.026250 0.000000
0.002500 0.026250 0.000000
0.003000 0.026250 0.000000
0.003500 0.026250 0.000000
0.004000 0.026250 0.000000
0.004500 0.026250 0.000000
0.000500 0.025000 0.000000
0.001000 0.025000 0.000000
0.001500 0.025000 0.000000
0.002000 0.025000 0.000000
0.002500 0.025000 0.000000
0.003000 0.025000 0.000000
0.003500 0.025000 0.000000
0.004000 0.025000 0.000000
0.004500 0.025000 0.000000
0.000500 0.023750 0.000000
0.001000 0.023750 0.000000
0.001500 0.023750 0.000000
0.002000 0.023750 0.000000
0.002500 0.023750 0.000000
0.003000 0.023750 0.000000
0.003500 0.023750 0.000000
0.004000 0.023750 0.000000
0.004500 0.023750 0.000000
0.000500 0.022500 0.000000
0.001000 0.022500 0.000000
0.001500 0.022500 0.000000
0.002000 0.022500 0.000000
0.002500 0.022500 0.000000
0.003000 0.022500 0.000000
0.003500 0.022500 0.000000
0.004000 0.022500 0.000000
0.004500 0.022500 0.000000
0.000500 0.021250 0.000000
0.001000 0.021250 0.000000
0.001500 0.021250 0.000000
0.002000 0.021250 0.000000
0.002500 0.021250 0.000000
0.003000 0.021250 0.000000
0.003500 0.021250 0.000000
0.004000 0.021250 0.000000
0.004500 0.021250 0.000000
0.000500 0.020000 0.000000
0.001000 0.020000 0.000000
0.001500 0.020000 0.000000
0.002000 0.020000 0.000000
0.002500 0.020000 0.000000
0.003000 0.020000 0.000000
0.003500 0.020000 0.000000
0.004000 0.020000 0.000000
0.004500 0.020000 0.000000
0.000500 0.018750 0.000000
0.001000 0.018750 0.000000
0.001500 0.018750 0.000000
0.002000 0.018750 0.000000
0.002500 0.018750 0.000000
0.003000 0.018750 0.000000
0.003500 0.018750 0.000000
0.004000 0.018750 0.000000
0.004500 0.018750 0.000000
0.000500 0.017500 0.000000
0.001000 0.017500 0.000000
0.001500 0.017500 0.000000
0.002000 0.017500 0.000000
0.002500 0.017500 0.000000
0.003000 0.017500 0.000000
0.003500 0.017500 0.000000
0.004000 0.017500 0.000000
0.004500 0.017500 0.000000
0.000500 0.016250 0.000000
0.001000 0.016250 0.000000
0.001500 0.016250 0.000000
0.002000 0.016250 0.000000
0.002500 0.016250 0.000000
0.003000 0.016250 0.000000
0.003500 0.016250 0.000000
0.004000 0.016250 0.000000
0.004500 0.016250 0.000000
0.000500 0.015000 0.000000
0.001000 0.015000 0.000000
0.001500 0.015000 0.000000
0.002000 0.015000 0.000000
0.002500 0.015000 0.000000
0.003000 0.015000 0.000000
0.003500 0.015000 0.000000
0.004000 0.015000 0.000000
0.004500 0.015000 0.000000
0.000500 0.013750 0.000000
0.001000 0.013750 0.000000
0.001500 0.013750 0.000000
0.002000 0.013750 0.000000
0.002500 0.013750 0.000000
0.003000 0.013750 0.000000
0.003500 0.013750 0.000000
0.004000 0.013750 0.000000
0.004500 0.013750 0.000000
0.000500 0.012500 0.000000
0.001000 0.012500 0.000000
0.001500 0.012500 0.000000
0.002000 0.012500 0.000000
0.002500 0.012500 0.000000
0.003000 0.012500 0.000000
0.003500 0.012500 0.000000
0.004000 0.012500 0.000000
0.004500 0.012500 0.000000
0.000500 0.011250 0.000000
0.001000 0.011250 0.000000
0.001500 0.011250 0.000000
0.002000 0.011250 0.000000
0.002500 0.011250 0.000000
0.003000 0.011250 0.000000
0.003500 0.011250 0.000000
0.004000 0.011250 0.000000
0.004500 0.011250 0.000000
0.000500 0.010000 0.000000
0.001000 0.010000 0.000000
0.001500 0.010000 0.000000
0.002000 0.010000 0.000000
0.002500 0.010000 0.000000
0.003000 0.010000 0.000000
0.003500 0.010000 0.000000
0.004000 0.010000 0.000000
0.004500 0.010000 0.000000
0.000500 0.008750 0.000000
0.001000 0.008750 0.000000
0.001500 0.008750 0.000000
0.002000 0.008750 0.000000
0.002500 0.008750 0.000000
0.003000 0.008750 0.000000
0.003500 0.008750 0.000000
0.004000 0.008750 0.000000
0.004500 0.008750 0.000000
0.000500 0.007500 0.000000
0.001000 0.007500 0.000000
0.001500 0.007500 0.000000
0.002000 0.007500 0.000000
0.002500 0.007500 0.000000
0.003000 0.007500 0.000000
0.003500 0.007500 0.000000
0.004000 0.007500 0.000000
0.004500 0.007500 0.000000
0.000500 0.006250 0.000000
0.001000 0.006250 0.000000
0.001500 0.006250 0.000000
0.002000 0.006250 0.000000
0.002500 0.006250 0.000000
0.003000 0.006250 0.000000
0.003500 0.006250 0.000000
0.004000 0.006250 0.000000
0.004500 0.006250 0.000000
0.000500 0.005000 0.000000
0.001000 0.005000 0.000000
0.001500 0.005000 0.000000
0.002000 0.005000 0.000000
0.002500 0.005000 0.000000
0.003000 0.005000 0.000000
0.003500 0.005000 0.000000
0.004000 0.005000 0.000000
0.004500 0.005000 0.000000
0.000500 0.003750 0.000000
0.001000 0.003750 0.000000
0.001500 0.003750 0.000000
0.002000 0.003750 0.000000
0.002500 0.003750 0.000000
0.003000 0.003750 0.000000
0.003500 0.003750 0.000000
0.004000 0.003750 0.000000
0.004500 0.003750 0.000000
0.000500 0.002500 0.000000
0.001000 0.002500 0.000000
0.001500 0.002500 0.000000
0.002000 0.002500 0.000000
0.002500 0.002500 0.000000
0.003000 0.002500 0.000000
0.003500 0.002500 0.000000
0.004000 0.002500 0.000000
0.004500 0.002500 0.000000
0.000500 0.001250 0.000000
0.001000 0.001250 0.000000
0.001500 0.001250 0.000000
0.002000 0.001250 0.000000
0.002500 0.001250 0.000000
0.003000 0.001250 0.000000
0.003500 0.001250 0.000000
0.004000 0.001250 0.000000
0.004500 0.001250 0.000000
CELLS 800 4000
4 82 83 180 179
4 179 180 181 178
4 178 181 182 177
4 177 182 183 176
4 176 183 184 175
4 175 184 185 174
4 174 185 186 173
4 173 186 187 172
4 172 187 188 171
4 171 188 80 0
4 83 84 189 180
4 180 189 190 181
4 181 190 191 182
4 182 191 192 183
4 183 192 193 184
4 184 193 194 185
4 185 194 195 186
4 186 195 196 187
4 187 196 197 188
4 188 197 79 80
4 84 85 198 189
4 189 198 199 190
4 190 199 200 191
4 191 200 201 192
4 192 201 202 193
4 193 202 203 194
4 194 203 204 195
4 195 204 205 196
4 196 205 206 197
4 197 206 78 79
4 85 86 207 198
4 198 207 208 199
4 199 208 209 200
4 200 209 210 201
4 201 210 211 202
4 202 211 212 203
4 203 212 213 204
4 204 213 214 205
4 205 214 215 206
4 206 215 77 78
4 86 87 216 207
4 207 216 217 208
4 208 217 218 209
4 209 218 219 210
4 210 219 220 211
4 211 220 221 212
4 212 221 222 213
4 213 222 223 214
4 214 223 224 215
4 215 224 76 77
4 87 88 225 216
4 216 225 226 217
4 217 226 227 218
4 218 227 228 219
4 219 228 229 220
4 220 229 230 221
4 221 230 231 222
4 222 231 232 223
4 223 232 233 224
4 224 233 75 76
4 88 89 234 225
4 225 234 235 226
4 226 235 236 227
4 227 236 237 228
4 228 237 238 229
4 229 238 239 230
4 230 239 240 231
4 231 240 241 232
4 232 241 242 233
4 233 242 74 75
4 89 90 243 234
4 234 243 244 235
4 235 244 245 236
4 236 245 246 237
4 237 246 247 238
4 238 247 248 239
4 239 248 249 240
4 240 249 250 241
4 241 250 251 242
4 242 251 73 74
4 90 91 252 243
4 243 252 253 244
4 244 253 254 245
4 245 254 255 246
4 246 255 256 247
4 247 256 257 248
4 248 257 258 249
4 249 258 259 250
4 250 259 260 251
4 251 260 72 73
4 91 92 261 252
4 252 261 262 253
4 253 262 263 254
4 254 263 264 255
4 255 264 265 256
4 256 265 266 257
4 257 266 267 258
4 258 267 268 259
4 259 268 269 260
4 260 269 71 72
4 92 93 270 261
4 261 270 271 262
4 262 271 272 263
4 263 272 273 264
4 264 273 274 265
4 265 274 275 266
4 266 275 276 267
4 267 276 277 268
4 268 277 278 269
4 269 278 70 71
4 93 94 279 270
4 270 279 280 271
4 271 280 281 272
4 272 281 282 273
4 273 282 283 274
4 274 283 284 275
4 275 284 285 276
4 276 285 286 277
4 277 286 287 278
4 278 287 69 70
4 94 95 288 279
4 279 288 289 280
4 280 289 290 281
4 281 290 291 282
4 282 291 292 283
4 283 292 293 284
4 284 293 294 285
4 285 294 295 286
4 286 295 296 287
4 287 296 68 69
4 95 96 297 288
4 288 297 298 289
4 289 298 299 290
4 290 299 300 291
4 291 300 301 292
4 292 301 302 293
4 293 302 303 294
4 294 303 304 295
4 295 304 305 296
4 296 305 67 68
4 96 97 306 297
4 297 306 307 298
4 298 307 308 299
4 299 308 309 300
4 300 309 310 301
4 301 310 311 302
4 302 311 312 303
4 303 312 313 304
4 304 313 314 305
4 305 314 66 67
4 97 98 315 306
4 306 315 316 307
4 307 316 317 308
4 308 317 318 309
4 309 318 319 310
4 310 319 320 311
4 311 320 321 312
4 312 321 322 313
4 313 322 323 314
4 314 323 65 66
4 98 99 324 315
4 315 324 325 316
4 316 325 326 317
4 317 326 327 318
4 318 327 328 319
4 319 328 329 320
4 320 329 330 321
4 321 330 331 322
4 322 331 332 323
4 323 332 64 65
4 99 100 333 324
4 324 333 334 325
4 325 334 335 326
4 326 335 336 327
4 327 336 337 328
4 328 337 338 329
4 329 338 339 330
4 330 339 340 331
4 331 340 341 332
4 332 341 63 64
4 100 101 342 333
4 333 342 343 334
4 334 343 344 335
4 335 344 345 336
4 336 345 346 337
4 337 346 347 338
4 338 347 348 339
4 339 348 349 340
4 340 349 350 341
4 341 350 62 63
4 101 102 351 342
4 342 351 352 343
4 343 352 353 344
4 344 353 354 345
4 345 354 355 346
4 346 355 356 347
4 347 356 357 348
4 348 357 358 349
4 349 358 359 350
4 350 359 61 62
4 102 103 360 351
4 351 360 361 352
4 352 361 362 353
4 353 362 363 354
4 354 363 364 355
4 355 364 365 356
4 356 365 366 357
4 357 366 367 358
4 358 367 368 359
4 359 368 60 61
4 103 104 369 360
4 360 369 370 361
4 361 370 371 362
4 362 371 372 363
4 363 372 373 364
4 364 373 374 365
4 365 374 375 366
4 366 375 376 367
4 367 376 377 368
4 368 377 59 60
4 104 105 378 369
4 369 378 379 370
4 370 379 380 371
4 371 380 381 372
4 372 381 382 373
4 373 382 383 374
4 374 383 384 375
4 375 384 385 376
4 376 385 386 377
4 377 386 58 59
4 105 106 387 378
4 378 387 388 379
4 379 388 389 380
4 380 389 390 381
4 381 390 391 382
4 382 391 392 383
4 383 392 393 384
4 384 393 394 385
4 385 394 395 386
4 386 395 57 58
4 106 107 396 387
4 387 396 397 388
4 388 397 398 389
4 389 398 399 390
4 390 399 400 391
4 391 400 401 392
4 392 401 402 393
4 393 402 403 394
4 394 403 404 395
4 395 404 56 57
4 107 108 405 396
4 396 405 406 397
4 397 406 407 398
4 398 407 408 399
4 399 408 409 400
4 400 409 410 401
4 401 410 411 402
4 402 411 412 403
4 403 412 413 404
4 404 413 55 56
4 108 109 414 405
4 405 414 415 406
4 406 415 416 407
4 407 416 417 408
4 408 417 418 409
4 409 418 419 410
4 410 419 420 411
4 411 420 421 412
4 412 421 422 413
4 413 422 54 55
4 109 110 423 414
4 414 423 424 415
4 415 424 425 416
4 416 425 426 417
4 417 426 427 418
4 418 427 428 419
4 419 428 429 420
4 420 429 430 421
4 421 430 431 422
4 422 431 53 54
4 110 111 432 423
4 423 432 433 424
4 424 433 434 425
4 425 434 435 426
4 426 435 436 427
4 427 436 437 428
4 428 437 438 429
4 429 438 439 430
4 430 439 440 431
4 431 440 52 53
4 111 112 441 432
4 432 441 442 433
4 433 442 443 434
4 434 443 444 435
4 435 444 445 436
4 436 445 446 437
4 437 446 447 438
4 438 447 448 439
4 439 448 449 440
4 440 449 51 52
4 112 113 450 441
4 441 450 451 442
4 442 451 452 443
4 443 452 453 444
4 444 453 454 445
4 445 454 455 446
4 446 455 456 447
4 447 456 457 448
4 448 457 458 449
4 449 458 50 51
4 113 114 459 450
4 450 459 460 451
4 451 460 461 452
4 452 461 462 453
4 453 462 463 454
4 454 463 464 455
4 455 464 465 456
4 456 465 466 457
4 457 466 467 458
4 458 467 49 50
4 114 115 468 459
4 459 468 469 460
4 460 469 470 461
4 461 470 471 462
4 462 471 472 463
4 463 472 473 464
4 464 473 474 465
4 465 474 475 466
4 466 475 476 467
4 467 476 48 49
4 115 116 477 468
4 468 477 478 469
4 469 478 479 470
4 470 479 480 471
4 471 480 481 472
4 472 481 482 473
4 473 482 483 474
4 474 483 484 475
4 475 484 485 476
4 476 485 47 48
4 116 117 486 477
4 477 486 487 478
4 478 487 488 479
4 479 488 489 480
4 480 489 490 481
4 481 490 491 482
4 482 491 492 483
4 483 492 493 484
4 484 493 494 485
4 485 494 46 47
4 117 118 495 486
4 486 495 496 487
4 487 496 497 488
4 488 497 498 489
4 489 498 499 490
4 490 499 500 491
4 491 500 501 492
4 492 501 502 493
4 493 502 503 494
4 494 503 45 46
4 118 119 504 495
4 495 504 505 496
4 496 505 506 497
4 497 506 507 498
4 498 507 508 499
4 499 508 509 500
4 500 509 510 501
4 501 510 511 502
4 502 511 512 503
4 503 512 44 45
4 119 120 513 504
4 504 513 514 505
4 505 514 515 506
4 506 515 516 507
4 507 516 517 508
4 508 517 518 509
4 509 518 519 510
4 510 519 520 511
4 511 520 521 512
4 512 521 43 44
4 120 121 522 513
4 513 522 523 514
4 514 523 524 515
4 515 524 525 516
4 516 525 526 517
4 517 526 527 518
4 518 527 528 519
4 519 528 529 520
4 520 529 530 521
4 521 530 42 43
4 121 122 531 522
4 522 531 532 523
4 523 532 533 524
4 524 533 534 525
4 525 534 535 526
4 526 535 536 527
4 527 536 537 528
4 528 537 538 529
4 529 538 539 530
4 530 539 41 42
4 122 123 540 531
4 531 540 541 532
4 532 541 542 533
4 533 542 543 534
4 534 543 544 535
4 535 544 545 536
4 536 545 546 537
4 537 546 547 538
4 538 547 548 539
4 539 548 40 41
4 123 124 549 540
4 540 549 550 541
4 541 550 551 542
4 542 551 552 543
4 543 552 553 544
4 544 553 554 545
4 545 554 555 546
4 546 555 556 547
4 547 556 557 548
4 548 557 39 40
4 124 125 558 549
4 549 558 559 550
4 550 559 560 551
4 551 560 561 552
4 552 561 562 553
4 553 562 563 554
4 554 563 564 555
4 555 564 565 556
4 556 565 566 557
4 557 566 38 39
4 125 126 567 558
4 558 567 568 559
4 559 568 569 560
4 560 569 570 561
4 561 570 571 562
4 562 571 572 563
4 563 572 573 564
4 564 573 574 565
4 565 574 575 566
4 566 575 37 38
4 126 127 576 567
4 567 576 577 568
4 568 577 578 569
4 569 578 579 570
4 570 579 580 571
4 571 580 581 572
4 572 581 582 573
4 573 582 583 574
4 574 583 584 575
4 575 584 36 37
4 127 128 585 576
4 576 585 586 577
4 577 586 587 578
4 578 587 588 579
4 579 588 589 580
4 580 589 590 581
4 581 590 591 582
4 582 591 592 583
4 583 592 593 584
4 584 593 35 36
4 128 129 594 585
4 585 594 595 586
4 586 595 596 587
4 587 596 597 588
4 588 597 598 589
4 589 598 599 590
4 590 599 600 591
4 591 600 601 592
4 592 601 602 593
4 593 602 34 35
4 129 130 603 594
4 594 603 604 595
4 595 604 605 596
4 596 605 606 597
4 597 606 607 598
4 598 607 608 599
4 599 608 609 600
4 600 609 610 601
4 601 610 611 602
4 602 611 33 34
4 130 131 612 603
4 603 612 613 604
4 604 613 614 605
4 605 614 615 606
4 606 615 616 607
4 607 616 617 608
4 608 617 618 609
4 609 618 619 610
4 610 619 620 611
4 611 620 32 33
4 131 132 621 612
4 612 621 622 613
4 613 622 623 614
4 614 623 624 615
4 615 624 625 616
4 616 625 626 617
4 617 626 627 618
4 618 627 628 619
4 619 628 629 620
4 620 629 31 32
4 132 133 630 621
4 621 630 631 622
4 622 631 632 623
4 623 632 633 624
4 624 633 634 625
4 625 634 635 626
4 626 635 636 627
4 627 636 637 628
4 628 637 638 629
4 629 638 30 31
4 133 134 639 630
4 630 639 640 631
4 631 640 641 632
4 632 641 642 633
4 633 642 643 634
4 634 643 644 635
4 635 644 645 636
4 636 645 646 637
4 637 646 647 638
4 638 647 29 30
4 134 135 648 639
4 639 648 649 640
4 640 649 650 641
4 641 650 651 642
4 642 651 652 643
4 643 652 653 644
4 644 653 654 645
4 645 654 655 646
4 646 655 656 647
4 647 656 28 29
4 135 136 657 648
4 648 657 658 649
4 649 658 659 650
4 650 659 660 651
4 651 660 661 652
4 652 661 662 653
4 653 662 663 654
4 654 663 664 655
4 655 664 665 656
4 656 665 27 28
4 136 137 666 657
4 657 666 667 658
4 658 667 668 659
4 659 668 669 660
4 660 669 670 661
4 661 670 671 662
4 662 671 672 663
4 663 672 673 664
4 664 673 674 665
4 665 674 26 27
4 137 138 675 666
4 666 675 676 667
4 667 676 677 668
4 668 677 678 669
4 669 678 679 670
4 670 679 680 671
4 671 680 681 672
4 672 681 682 673
4 673 682 683 674
4 674 683 25 26
4 138 139 684 675
4 675 684 685 676
4 676 685 686 677
4 677 686 687 678
4 678 687 688 679
4 679 688 689 680
4 680 689 690 681
4 681 690 691 682
4 682 691 692 683
4 683 692 24 25
4 139 140 693 684
4 684 693 694 685
4 685 694 695 686
4 686 695 696 687
4 687 696 697 688
4 688 697 698 689
4 689 698 699 690
4 690 699 700 691
4 691 700 701 692
4 692 701 23 24
4 140 141 702 693
4 693 702 703 694
4 694 703 704 695
4 695 704 705 696
4 696 705 706 697
4 697 706 707 698
4 698 707 708 699
4 699 708 709 700
4 700 709 710 701
4 701 710 22 23
4 141 142 711 702
4 702 711 712 703
4 703 712 713 704
4 704 713 714 705
4 705 714 715 706
4 706 715 716 707
4 707 716 717 708
4 708 717 718 709
4 709 718 719 710
4 710 719 21 22
4 142 143 720 711
4 711 720 721 712
4 712 721 722 713
4 713 722 723 714
4 714 723 724 715
4 715 724 725 716
4 716 725 726 717
4 717 726 727 718
4 718 727 728 719
4 719 728 20 21
4 143 144 729 720
4 720 729 730 721
4 721 730 731 722
4 722 731 732 723
4 723 732 733 724
4 724 733 734 725
4 725 734 735 726
4 726 735 736 727
4 727 736 737 728
4 728 737 19 20
4 144 145 738 729
4 729 738 739 730
4 730 739 740 731
4 731 740 741 732
4 732 741 742 733
4 733 742 743 734
4 734 743 744 735
4 735 744 745 736
4 736 745 746 737
4 737 746 18 19
4 145 146 747 738
4 738 747 748 739
4 739 748 749 740
4 740 749 750 741
4 741 750 751 742
4 742 751 752 743
4 743 752 753 744
4 744 753 754 745
4 745 754 755 746
4 746 755 17 18
4 146 147 756 747
4 747 756 757 748
4 748 757 758 749
4 749 758 759 750
4 750 759 760 751
4 751 760 761 752
4 752 761 762 753
4 753 762 763 754
4 754 763 764 755
4 755 764 16 17
4 147 148 765 756
4 756 765 766 757
4 757 766 767 758
4 758 767 768 759
4 759 768 769 760
4 760 769 770 761
4 761 770 771 762
4 762 771 772 763
4 763 772 773 764
4 764 773 15 16
4 148 149 774 765
4 765 774 775 766
4 766 775 776 767
4 767 776 777 768
4 768 777 778 769
4 769 778 779 770
4 770 779 780 771
4 771 780 781 772
4 772 781 782 773
4 773 782 14 15
4 149 150 783 774
4 774 783 784 775
4 775 784 785 776
4 776 785 786 777
4 777 786 787 778
4 778 787 788 779
4 779 788 789 780
4 780 789 790 781
4 781 790 791 782
4 782 791 13 14
4 150 151 792 783
4 783 792 793 784
4 784 793 794 785
4 785 794 795 786
4 786 795 796 787
4 787 796 797 788
4 788 797 798 789
4 789 798 799 790
4 790 799 800 791
4 791 800 12 13
4 151 152 801 792
4 792 801 802 793
4 793 802 803 794
4 794 803 804 795
4 795 804 805 796
4 796 805 806 797
4 797 806 807 798
4 798 807 808 799
4 799 808 809 800
4 800 809 11 12
4 152 153 810 801
4 801 810 811 802
4 802 811 812 803
4 803 812 813 804
4 804 813 814 805
4 805 814 815 806
4 806 815 816 807
4 807 816 817 808
4 808 817 818 809
4 809 818 10 11
4 153 154 819 810
4 810 819 820 811
4 811 820 821 812
4 812 821 822 813
4 813 822 823 814
4 814 823 824 815
4 815 824 825 816
4 816 825 826 817
4 817 826 827 818
4 818 827 9 10
4 154 155 828 819
4 819 828 829 820
4 820 829 830 821
4 821 830 831 822
4 822 831 832 823
4 823 832 833 824
4 824 833 834 825
4 825 834 835 826
4 826 835 836 827
4 827 836 8 9
4 155 156 837 828
4 828 837 838 829
4 829 838 839 830
4 830 839 840 831
4 831 840 841 832
4 832 841 842 833
4 833 842 843 834
4 834 843 844 835
4 835 844 845 836
4 836 845 7 8
4 156 157 846 837
4 837 846 847 838
4 838 847 848 839
4 839 848 849 840
4 840 849 850 841
4 841 850 851 842
4 842 851 852 843
4 843 852 853 844
4 844 853 854 845
4 845 854 6 7
4 157 158 855 846
4 846 855 856 847
4 847 856 857 848
4 848 857 858 849
4 849 858 859 850
4 850 859 860 851
4 851 860 861 852
4 852 861 862 853
4 853 862 863 854
4 854 863 5 6
4 158 159 864 855
4 855 864 865 856
4 856 865 866 857
4 857 866 867 858
4 858 867 868 859
4 859 868 869 860
4 860 869 870 861
4 861 870 871 862
4 862 871 872 863
4 863 872 4 5
4 159 160 873 864
4 864 873 874 865
4 865 874 875 866
4 866 875 876 867
4 867 876 877 868
4 868 877 878 869
4 869 878 879 870
4 870 879 880 871
4 871 880 881 872
4 872 881 3 4
4 160 161 882 873
4 873 882 883 874
4 874 883 884 875
4 875 884 885 876
4 876 885 886 877
4 877 886 887 878
4 878 887 888 879
4 879 888 889 880
4 880 889 890 881
4 881 890 2 3
4 161 81 162 882
4 882 162 163 883
4 883 163 164 884
4 884 164 165 885
4 885 165 166 886
4 886 166 167 887
4 887 167 168 888
4 888 168 169 889
4 889 169 170 890
4 890 170 1 2
CELL_TYPES 800
9
9
9
9
9
9
9
9
9
9
9
9
9
9
9
9
9
9
9
9
9
9
9
9
9
9
9
9
9
9
9
9
9
9
9
9
9
9
9
9
9
9
9
9
9
9
9
9
9
9
9
9
9
9
9
9
9
9
9
9
9
9
9
9
9
9
9
9
9
9
9
9
9
9
9
9
9
9
9
9
9
9
9
9
9
9
9
9
9
9
9
9
9
9
9
9
9
9
9
9
9
9
9
9
9
9
9
9
9
9
9
9
9
9
9
9
9
9
9
9
9
9
9
9
9
9
9
9
9
9
9
9
9
9
9
9
9
9
9
9
9
9
9
9
9
9
9
9
9
9
9
9
9
9
9
9
9
9
9
9
9
9
9
9
9
9
9
9
9
9
9
9
9
9
9
9
9
9
9
9
9
9
9
9
9
9
9
9
9
9
9
9
9
9
9
9
9
9
9
9
9
9
9
9
9
9
9
9
9
9
9
9
9
9
9
9
9
9
9
9
9
9
9
9
9
9
9
9
9
9
9
9
9
9
9
9
9
9
9
9
9
9
9
9
9
9
9
9
9
9
9
9
9
9
9
9
9
9
9
9
9
9
9
9
9
9
9
9
9
9
9
9
9
9
9
9
9
9
9
9
9
9
9
9
9
9
9
9
9
9
9
9
9
9
9
9
9
9
9
9
9
9
9
9
9
9
9
9
9
9
9
9
9
9
9
9
9
9
9
9
9
9
9
9
9
9
9
9
9
9
9
9
9
9
9
9
9
9
9
9
9
9
9
9
9
9
9
9
9
9
9
9
9
9
9
9
9
9
9
9
9
9
9
9
9
9
9
9
9
9
9
9
9
9
9
9
9
9
9
9
9
9
9
9
9
9
9
9
9
9
9
9
9
9
9
9
9
9
9
9
9
9
9
9
9
9
9
9
9
9
9
9
9
9
9
9
9
9
9
9
9
9
9
9
9
9
9
9
9
9
9
9
9
9
9
9
9
9
9
9
9
9
9
9
9
9
9
9
9
9
9
9
9
9
9
9
9
9
9
9
9
9
9
9
9
9
9
9
9
9
9
9
9
9
9
9
9
9
9
9
9
9
9
9
9
9
9
9
9
9
9
9
9
9
9
9
9
9
9
9
9
9
9
9
9
9
9
9
9
9
9
9
9
9
9
9
9
9
9
9
9
9
9
9
9
9
9
9
9
9
9
9
9
9
9
9
9
9
9
9
9
9
9
9
9
9
9
9
9
9
9
9
9
9
9
9
9
9
9
9
9
9
9
9
9
9
9
9
9
9
9
9
9
9
9
9
9
9
9
9
9
9
9
9
9
9
9
9
9
9
9
9
9
9
9
9
9
9
9
9
9
9
9
9
9
9
9
9
9
9
9
9
9
9
9
9
9
9
9
9
9
9
9
9
9
9
9
9
9
9
9
9
9
9
9
9
9
9
9
9
9
9
9
9
9
9
9
9
9
9
9
9
9
9
9
9
9
9
9
9
9
9
9
9
9
9
9
9
9
9
9
9
9
9
9
9
9
9
9
9
9
9
9
9
9
9
9
9
9
9
9
9
9
9
9
9
9
9
9
9
9
9
9
9
9
9
9
9
9
9
9
9
9
9
9
9
9
9
9
9
9
9
9
9
9
9
9
9
9
9
9
9
9
9
9
9
9
9
9
9
9
9
9
9
9
9
9
9
9
9
9
9
9
9
9
9
9
9
9
9
9
9
9
9
9
9
9
9
9
9
9
9
9
9
9
9
9
9
9
9
9
9
9
9
9
9
9
9
9
9
9
9
9
9
9
9
9
9
9
9
POINT_DATA 891
SCALARS u1 float
LOOKUP_TABLE default
8e-18
-1e-06
-1e-06
-1e-06
-1e-06
-1e-06
-1e-06
-1e-06
-1e-06
-1e-06
-1e-06
-1e-06
-1e-06
-1e-06
-1e-06
-1e-06
-1e-06
-1e-06
-1e-06
-1e-06
-1e-06
-1e-06
-1e-06
-1e-06
-1e-06
-1e-06
-1e-06
-1e-06
-1e-06
-1e-06
-1e-06
-1e-06
-1e-06
-1e-06
-1e-06
-1e-06
-1e-06
-1e-06
-1e-06
-1e-06
-1e-06
-1e-06
-1e-06
-1e-06
-1e-06
-1e-06
-1e-06
-1e-06
-1e-06
-1e-06
-1e-06
-1e-06
-1e-06
-1e-06
-1e-06
-1e-06
-1e-06
-1e-06
-1e-06
-1e-06
-1e-06
-1e-06
-1e-06
-1e-06
-1e-06
-1e-06
-1e-06
-1e-06
-1e-06
-1e-06
-1e-06
-1e-06
-1e-06
-1e-06
-1e-06
-1e-06
-1e-06
-1e-06
-1e-06
-1e-06
-1e-06
1e-06
3e-17
1e-06
1e-06
1e-06
1e-06
1e-06
1e-06
1e-06
1e-06
1e-06
1e-06
1e-06
1e-06
1e-06
1e-06
1e-06
1e-06
1e-06
1e-06
1e-06
1e-06
1e-06
1e-06
1e-06
1e-06
1e-06
1e-06
1e-06
1e-06
1e-06
1e-06
1e-06
1e-06
1e-06
1e-06
1e-06
1e-06
1e-06
1e-06
1e-06
1e-06
1e-06
1e-06
1e-06
1e-06
1e-06
1e-06
1e-06
1e-06
1e-06
1e-06
1e-06
1e-06
1e-06
1e-06
1e-06
1e-06
1e-06
1e-06
1e-06
1e-06
1e-06
1e-06
1e-06
1e-06
1e-06
1e-06
1e-06
1e-06
1e-06
1e-06
1e-06
1e-06
1e-06
1e-06
1e-06
1e-06
1e-06
1e-06
1e-06
1e-06
8e-07
5e-07
3e-07
9e-14
-3e-07
-5e-07
-8e-07
-1e-06
-1e-17
-3e-17
-2e-17
-4e-17
-2e-17
3e-17
5e-17
2e-18
-4e-17
7e-07
5e-07
3e-07
2e-07
2e-14
-2e-07
-3e-07
-5e-07
-7e-07
1e-06
8e-07
5e-07
2e-07
2e-14
-2e-07
-5e-07
-8e-07
-1e-06
1e-06
8e-07
5e-07
3e-07
4e-14
-3e-07
-5e-07
-8e-07
-1e-06
1e-06
8e-07
5e-07
3e-07
5e-14
-3e-07
-5e-07
-8e-07
-1e-06
1e-06
8e-07
5e-07
3e-07
6e-14
-3e-07
-5e-07
-8e-07
-1e-06
1e-06
8e-07
5e-07
3e-07
7e-14
-3e-07
-5e-07
-8e-07
-1e-06
1e-06
8e-07
5e-07
3e-07
8e-14
-3e-07
-5e-07
-8e-07
-1e-06
1e-06
8e-07
5e-07
3e-07
8e-14
-3e-07
-5e-07
-8e-07
-1e-06
1e-06
8e-07
5e-07
3e-07
9e-14
-3e-07
-5e-07
-8e-07
-1e-06
1e-06
8e-07
5e-07
3e-07
9e-14
-3e-07
-5e-07
-8e-07
-1e-06
1e-06
8e-07
5e-07
3e-07
9e-14
-3e-07
-5e-07
-8e-07
-1e-06
1e-06
8e-07
5e-07
3e-07
9e-14
-3e-07
-5e-07
-8e-07
-1e-06
1e-06
8e-07
5e-07
3e-07
9e-14
-3e-07
-5e-07
-8e-07
-1e-06
1e-06
8e-07
5e-07
3e-07
9e-14
-3e-07
-5e-07
-8e-07
-1e-06
1e-06
8e-07
5e-07
3e-07
9e-14
-3e-07
-5e-07
-8e-07
-1e-06
1e-06
8e-07
5e-07
3e-07
9e-14
-3e-07
-5e-07
-8e-07
-1e-06
1e-06
8e-07
5e-07
3e-07
9e-14
-3e-07
-5e-07
-8e-07
-1e-06
1e-06
8e-07
5e-07
3e-07
9e-14
-3e-07
-5e-07
-8e-07
-1e-06
1e-06
8e-07
5e-07
3e-07
9e-14
-3e-07
-5e-07
-8e-07
-1e-06
1e-06
8e-07
5e-07
3e-07
9e-14
-3e-07
-5e-07
-8e-07
-1e-06
1e-06
8e-07
5e-07
3e-07
9e-14
-3e-07
-5e-07
-8e-07
-1e-06
1e-06
8e-07
5e-07
3e-07
9e-14
-3e-07
-5e-07
-8e-07
-1e-06
1e-06
8e-07
5e-07
3e-07
9e-14
-3e-07
-5e-07
-8e-07
-1e-06
1e-06
8e-07
5e-07
3e-07
9e-14
-3e-07
-5e-07
-8e-07
-1e-06
1e-06
8e-07
5e-07
3e-07
9e-14
-3e-07
-5e-07
-8e-07
-1e-06
1e-06
8e-07
5e-07
3e-07
9e-14
-3e-07
-5e-07
-8e-07
-1e-06
1e-06
8e-07
5e-07
3e-07
9e-14
-3e-07
-5e-07
-8e-07
-1e-06
1e-06
8e-07
5e-07
3e-07
9e-14
-3e-07
-5e-07
-8e-07
-1e-06
1e-06
8e-07
5e-07
3e-07
9e-14
-3e-07
-5e-07
-8e-07
-1e-06
1e-06
8e-07
5e-07
3e-07
9e-14
-3e-07
-5e-07
-8e-07
-1e-06
1e-06
8e-07
5e-07
3e-07
9e-14
-3e-07
-5e-07
-8e-07
-1e-06
1e-06
8e-07
5e-07
3e-07
9e-14
-3e-07
-5e-07
-8e-07
-1e-06
1e-06
8e-07
5e-07
3e-07
9e-14
-3e-07
-5e-07
-8e-07
-1e-06
1e-06
8e-07
5e-07
3e-07
9e-14
-3e-07
-5e-07
-8e-07
-1e-06
1e-06
8e-07
5e-07
3e-07
9e-14
-3e-07
-5e-07
-8e-07
-1e-06
1e-06
8e-07
5e-07
3e-07
9e-14
-3e-07
-5e-07
-8e-07
-1e-06
1e-06
8e-07
5e-07
3e-07
9e-14
-3e-07
-5e-07
-8e-07
-1e-06
1e-06
8e-07
5e-07
3e-07
9e-14
-3e-07
-5e-07
-8e-07
-1e-06
1e-06
8e-07
5e-07
3e-07
9e-14
-3e-07
-5e-07
-8e-07
-1e-06
1e-06
8e-07
5e-07
3e-07
9e-14
-3e-07
-5e-07
-8e-07
-1e-06
1e-06
8e-07
5e-07
3e-07
9e-14
-3e-07
-5e-07
-8e-07
-1e-06
1e-06
8e-07
5e-07
3e-07
9e-14
-3e-07
-5e-07
-8e-07
-1e-06
1e-06
8e-07
5e-07
3e-07
9e-14
-3e-07
-5e-07
-8e-07
-1e-06
1e-06
8e-07
5e-07
3e-07
9e-14
-3e-07
-5e-07
-8e-07
-1e-06
1e-06
8e-07
5e-07
3e-07
9e-14
-3e-07
-5e-07
-8e-07
-1e-06
1e-06
8e-07
5e-07
3e-07
9e-14
-3e-07
-5e-07
-8e-07
-1e-06
1e-06
8e-07
5e-07
3e-07
9e-14
-3e-07
-5e-07
-8e-07
-1e-06
1e-06
8e-07
5e-07
3e-07
9e-14
-3e-07
-5e-07
-8e-07
-1e-06
1e-06
8e-07
5e-07
3e-07
9e-14
-3e-07
-5e-07
-8e-07
-1e-06
1e-06
8e-07
5e-07
3e-07
9e-14
-3e-07
-5e-07
-8e-07
-1e-06
1e-06
8e-07
5e-07
3e-07
9e-14
-3e-07
-5e-07
-8e-07
-1e-06
1e-06
8e-07
5e-07
3e-07
9e-14
-3e-07
-5e-07
-8e-07
-1e-06
1e-06
8e-07
5e-07
3e-07
9e-14
-3e-07
-5e-07
-8e-07
-1e-06
1e-06
8e-07
5e-07
3e-07
9e-14
-3e-07
-5e-07
-8e-07
-1e-06
1e-06
8e-07
5e-07
3e-07
9e-14
-3e-07
-5e-07
-8e-07
-1e-06
1e-06
8e-07
5e-07
3e-07
9e-14
-3e-07
-5e-07
-8e-07
-1e-06
1e-06
8e-07
5e-07
3e-07
9e-14
-3e-07
-5e-07
-8e-07
-1e-06
1e-06
8e-07
5e-07
3e-07
9e-14
-3e-07
-5e-07
-8e-07
-1e-06
1e-06
8e-07
5e-07
3e-07
9e-14
-3e-07
-5e-07
-8e-07
-1e-06
1e-06
8e-07
5e-07
3e-07
9e-14
-3e-07
-5e-07
-8e-07
-1e-06
1e-06
8e-07
5e-07
3e-07
9e-14
-3e-07
-5e-07
-8e-07
-1e-06
1e-06
8e-07
5e-07
3e-07
9e-14
-3e-07
-5e-07
-8e-07
-1e-06
1e-06
8e-07
5e-07
3e-07
9e-14
-3e-07
-5e-07
-8e-07
-1e-06
1e-06
8e-07
5e-07
3e-07
9e-14
-3e-07
-5e-07
-8e-07
-1e-06
1e-06
8e-07
5e-07
3e-07
9e-14
-3e-07
-5e-07
-8e-07
-1e-06
1e-06
8e-07
5e-07
3e-07
9e-14
-3e-07
-5e-07
-8e-07
-1e-06
1e-06
8e-07
5e-07
3e-07
9e-14
-3e-07
-5e-07
-8e-07
-1e-06
1e-06
8e-07
5e-07
3e-07
9e-14
-3e-07
-5e-07
-8e-07
-1e-06
1e-06
8e-07
5e-07
3e-07
9e-14
-3e-07
-5e-07
-8e-07
-1e-06
1e-06
8e-07
5e-07
3e-07
9e-14
-3e-07
-5e-07
-8e-07
-1e-06
1e-06
8e-07
5e-07
3e-07
9e-14
-3e-07
-5e-07
-8e-07
-1e-06
1e-06
8e-07
5e-07
3e-07
9e-14
-3e-07
-5e-07
-8e-07
-1e-06
1e-06
8e-07
5e-07
3e-07
9e-14
-3e-07
-5e-07
-8e-07
-1e-06
1e-06
8e-07
5e-07
3e-07
9e-14
-3e-07
-5e-07
-8e-07
-1e-06
1e-06
8e-07
5e-07
3e-07
9e-14
-3e-07
-5e-07
-8e-07
-1e-06
1e-06
8e-07
5e-07
3e-07
9e-14
-3e-07
-5e-07
-8e-07
-1e-06
1e-06
8e-07
5e-07
3e-07
9e-14
-3e-07
-5e-07
-8e-07
-1e-06
1e-06
8e-07
5e-07
3e-07
9e-14
-3e-07
-5e-07
-8e-07
-1e-06
1e-06
8e-07
5e-07
3e-07
9e-14
-3e-07
-5e-07
-8e-07
-1e-06
SCALARS u2 float
LOOKUP_TABLE default
-2e-18
-0.0004
-0.0003
-0.0003
-0.0003
-0.0003
-0.0003
-0.0003
-0.0003
-0.0003
-0.0003
-0.0003
-0.0003
-0.0003
-0.0003
-0.0003
-0.0003
-0.0003
-0.0003
-0.0003
-0.0003
-0.0003
-0.0003
-0.0003
-0.0003
-0.0002
-0.0002
-0.0002
-0.0002
-0.0002
-0.0002
-0.0002
-0.0002
-0.0002
-0.0002
-0.0002
-0.0002
-0.0002
-0.0002
-0.0002
-0.0002
-0.0002
-0.0002
-0.0002
-0.0002
-0.0002
-0.0002
-0.0001
-0.0001
-0.0001
-0.0001
-0.0001
-0.0001
-0.0001
-0.0001
-0.0001
-0.0001
-0.0001
-0.0001
-0.0001
-9e-05
-9e-05
-8e-05
-8e-05
-7e-05
-7e-05
-7e-05
-6e-05
-6e-05
-5e-05
-5e-05
-4e-05
-4e-05
-4e-05
-3e-05
-3e-05
-2e-05
-2e-05
-1e-05
-9e-06
-5e-06
-0.0004
5e-17
-5e-06
-9e-06
-1e-05
-2e-05
-2e-05
-3e-05
-3e-05
-4e-05
-4e-05
-4e-05
-5e-05
-5e-05
-6e-05
-6e-05
-7e-05
-7e-05
-7e-05
-8e-05
-8e-05
-9e-05
-9e-05
-0.0001
-0.0001
-0.0001
-0.0001
-0.0001
-0.0001
-0.0001
-0.0001
-0.0001
-0.0001
-0.0001
-0.0001
-0.0001
-0.0002
-0.0002
-0.0002
-0.0002
-0.0002
-0.0002
-0.0002
-0.0002
-0.0002
-0.0002
-0.0002
-0.0002
-0.0002
-0.0002
-0.0002
-0.0002
-0.0002
-0.0002
-0.0002
-0.0002
-0.0002
-0.0002
-0.0003
-0.0003
-0.0003
-0.0003
-0.0003
-0.0003
-0.0003
-0.0003
-0.0003
-0.0003
-0.0003
-0.0003
-0.0003
-0.0003
-0.0003
-0.0003
-0.0003
-0.0003
-0.0003
-0.0003
-0.0003
-0.0003
-0.0003
-0.0004
-0.0004
-0.0004
-0.0004
-0.0004
-0.0004
-0.0004
-0.0004
-0.0004
8e-17
3e-17
-1e-18
1e-17
4e-18
-6e-17
-9e-17
-5e-17
6e-17
-4e-06
-4e-06
-4e-06
-4e-06
-4e-06
-4e-06
-4e-06
-4e-06
-4e-06
-9e-06
-9e-06
-9e-06
-9e-06
-9e-06
-9e-06
-9e-06
-9e-06
-9e-06
-1e-05
-1e-05
-1e-05
-1e-05
-1e-05
-1e-05
-1e-05
-1e-05
-1e-05
-2e-05
-2e-05
-2e-05
-2e-05
-2e-05
-2e-05
-2e-05
-2e-05
-2e-05
-2e-05
-2e-05
-2e-05
-2e-05
-2e-05
-2e-05
-2e-05
-2e-05
-2e-05
-3e-05
-3e-05
-3e-05
-3e-05
-3e-05
-3e-05
-3e-05
-3e-05
-3e-05
-3e-05
-3e-05
-3e-05
-3e-05
-3e-05
-3e-05
-3e-05
-3e-05
-3e-05
-4e-05
-4e-05
-4e-05
-4e-05
-4e-05
-4e-05
-4e-05
-4e-05
-4e-05
-4e-05
-4e-05
-4e-05
-4e-05
-4e-05
-4e-05
-4e-05
-4e-05
-4e-05
-4e-05
-4e-05
-4e-05
-4e-05
-4e-05
-4e-05
-4e-05
-4e-05
-4e-05
-5e-05
-5e-05
-5e-05
-5e-05
-5e-05
-5e-05
-5e-05
-5e-05
-5e-05
-5e-05
-5e-05
-5e-05
-5e-05
-5e-05
-5e-05
-5e-05
-5e-05
-5e-05
-6e-05
-6e-05
-6e-05
-6e-05
-6e-05
-6e-05
-6e-05
-6e-05
-6e-05
-6e-05
-6e-05
-6e-05
-6e-05
-6e-05
-6e-05
-6e-05
-6e-05
-6e-05
-7e-05
-7e-05
-7e-05
-7e-05
-7e-05
-7e-05
-7e-05
-7e-05
-7e-05
-7e-05
-7e-05
-7e-05
-7e-05
-7e-05
-7e-05
-7e-05
-7e-05
-7e-05
-7e-05
-7e-05
-7e-05
-7e-05
-7e-05
-7e-05
-7e-05
-7e-05
-7e-05
-8e-05
-8e-05
-8e-05
-8e-05
-8e-05
-8e-05
-8e-05
-8e-05
-8e-05
-8e-05
-8e-05
-8e-05
-8e-05
-8e-05
-8e-05
-8e-05
-8e-05
-8e-05
-9e-05
-9e-05
-9e-05
-9e-05
-9e-05
-9e-05
-9e-05
-9e-05
-9e-05
-9e-05
-9e-05
-9e-05
-9e-05
-9e-05
-9e-05
-9e-05
-9e-05
-9e-05
-0.0001
-0.0001
-0.0001
-0.0001
-0.0001
-0.0001
-0.0001
-0.0001
-0.0001
-0.0001
-0.0001
-0.0001
-0.0001
-0.0001
-0.0001
-0.0001
-0.0001
-0.0001
-0.0001
-0.0001
-0.0001
-0.0001
-0.0001
-0.0001
-0.0001
-0.0001
-0.0001
-0.0001
-0.0001
-0.0001
-0.0001
-0.0001
-0.0001
-0.0001
-0.0001
-0.0001
-0.0001
-0.0001
-0.0001
-0.0001
-0.0001
-0.0001
-0.0001
-0.0001
-0.0001
-0.0001
-0.0001
-0.0001
-0.0001
-0.0001
-0.0001
-0.0001
-0.0001
-0.0001
-0.0001
-0.0001
-0.0001
-0.0001
-0.0001
-0.0001
-0.0001
-0.0001
-0.0001
-0.0001
-0.0001
-0.0001
-0.0001
-0.0001
-0.0001
-0.0001
-0.0001
-0.0001
-0.0001
-0.0001
-0.0001
-0.0001
-0.0001
-0.0001
-0.0001
-0.0001
-0.0001
-0.0001
-0.0001
-0.0001
-0.0001
-0.0001
-0.0001
-0.0001
-0.0001
-0.0001
-0.0001
-0.0001
-0.0001
-0.0001
-0.0001
-0.0001
-0.0001
-0.0001
-0.0001
-0.0001
-0.0001
-0.0001
-0.0001
-0.0001
-0.0001
-0.0001
-0.0001
-0.0001
-0.0001
-0.0001
-0.0001
-0.0001
-0.0001
-0.0001
-0.0001
-0.0001
-0.0001
-0.0002
-0.0002
-0.0002
-0.0002
-0.0002
-0.0002
-0.0002
-0.0002
-0.0002
-0.0002
-0.0002
-0.0002
-0.0002
-0.0002
-0.0002
-0.0002
-0.0002
-0.0002
-0.0002
-0.0002
-0.0002
-0.0002
-0.0002
-0.0002
-0.0002
-0.0002
-0.0002
-0.0002
-0.0002
-0.0002
-0.0002
-0.0002
-0.0002
-0.0002
-0.0002
-0.0002
-0.0002
-0.0002
-0.0002
-0.0002
-0.0002
-0.0002
-0.0002
-0.0002
-0.0002
-0.0002
-0.0002
-0.0002
-0.0002
-0.0002
-0.0002
-0.0002
-0.0002
-0.0002
-0.0002
-0.0002
-0.0002
-0.0002
-0.0002
-0.0002
-0.0002
-0.0002
-0.0002
-0.0002
-0.0002
-0.0002
-0.0002
-0.0002
-0.0002
-0.0002
-0.0002
-0.0002
-0.0002
-0.0002
-0.0002
-0.0002
-0.0002
-0.0002
-0.0002
-0.0002
-0.0002
-0.0002
-0.0002
-0.0002
-0.0002
-0.0002
-0.0002
-0.0002
-0.0002
-0.0002
-0.0002
-0.0002
-0.0002
-0.0002
-0.0002
-0.0002
-0.0002
-0.0002
-0.0002
-0.0002
-0.0002
-0.0002
-0.0002
-0.0002
-0.0002
-0.0002
-0.0002
-0.0002
-0.0002
-0.0002
-0.0002
-0.0002
-0.0002
-0.0002
-0.0002
-0.0002
-0.0002
-0.0002
-0.0002
-0.0002
-0.0002
-0.0002
-0.0002
-0.0002
-0.0002
-0.0002
-0.0002
-0.0002
-0.0002
-0.0002
-0.0002
-0.0002
-0.0002
-0.0002
-0.0002
-0.0002
-0.0002
-0.0002
-0.0002
-0.0002
-0.0002
-0.0002
-0.0002
-0.0002
-0.0002
-0.0002
-0.0002
-0.0002
-0.0002
-0.0002
-0.0002
-0.0002
-0.0002
-0.0002
-0.0002
-0.0002
-0.0002
-0.0002
-0.0002
-0.0002
-0.0002
-0.0002
-0.0002
-0.0002
-0.0002
-0.0002
-0.0002
-0.0002
-0.0002
-0.0002
-0.0002
-0.0002
-0.0002
-0.0002
-0.0002
-0.0002
-0.0002
-0.0002
-0.0002
-0.0002
-0.0002
-0.0002
-0.0002
-0.0002
-0.0002
-0.0002
-0.0002
-0.0002
-0.0002
-0.0002
-0.0002
-0.0002
-0.0002
-0.0002
-0.0002
-0.0002
-0.0002
-0.0002
-0.0003
-0.0003
-0.0003
-0.0003
-0.0003
-0.0003
-0.0003
-0.0003
-0.0003
-0.0003
-0.0003
-0.0003
-0.0003
-0.0003
-0.0003
-0.0003
-0.0003
-0.0003
-0.0003
-0.0003
-0.0003
-0.0003
-0.0003
-0.0003
-0.0003
-0.0003
-0.0003
-0.0003
-0.0003
-0.0003
-0.0003
-0.0003
-0.0003
-0.0003
-0.0003
-0.0003
-0.0003
-0.0003
-0.0003
-0.0003
-0.0003
-0.0003
-0.0003
-0.0003
-0.0003
-0.0003
-0.0003
-0.0003
-0.0003
-0.0003
-0.0003
-0.0003
-0.0003
-0.0003
-0.0003
-0.0003
-0.0003
-0.0003
-0.0003
-0.0003
-0.0003
-0.0003
-0.0003
-0.0003
-0.0003
-0.0003
-0.0003
-0.0003
-0.0003
-0.0003
-0.0003
-0.0003
-0.0003
-0.0003
-0.0003
-0.0003
-0.0003
-0.0003
-0.0003
-0.0003
-0.0003
-0.0003
-0.0003
-0.0003
-0.0003
-0.0003
-0.0003
-0.0003
-0.0003
-0.0003
-0.0003
-0.0003
-0.0003
-0.0003
-0.0003
-0.0003
-0.0003
-0.0003
-0.0003
-0.0003
-0.0003
-0.0003
-0.0003
-0.0003
-0.0003
-0.0003
-0.0003
-0.0003
-0.0003
-0.0003
-0.0003
-0.0003
-0.0003
-0.0003
-0.0003
-0.0003
-0.0003
-0.0003
-0.0003
-0.0003
-0.0003
-0.0003
-0.0003
-0.0003
-0.0003
-0.0003
-0.0003
-0.0003
-0.0003
-0.0003
-0.0003
-0.0003
-0.0003
-0.0003
-0.0003
-0.0003
-0.0003
-0.0003
-0.0003
-0.0003
-0.0003
-0.0003
-0.0003
-0.0003
-0.0003
-0.0003
-0.0003
-0.0003
-0.0003
-0.0003
-0.0003
-0.0003
-0.0003
-0.0003
-0.0003
-0.0003
-0.0003
-0.0003
-0.0003
-0.0003
-0.0003
-0.0003
-0.0003
-0.0003
-0.0003
-0.0003
-0.0003
-0.0003
-0.0003
-0.0003
-0.0003
-0.0003
-0.0003
-0.0003
-0.0003
-0.0003
-0.0003
-0.0003
-0.0003
-0.0003
-0.0003
-0.0003
-0.0003
-0.0003
-0.0003
-0.0003
-0.0003
-0.0003
-0.0003
-0.0003
-0.0003
-0.0003
-0.0003
-0.0003
-0.0003
-0.0003
-0.0003
-0.0003
-0.0003
-0.0003
-0.0003
-0.0003
-0.0003
-0.0003
-0.0003
-0.0003
-0.0003
SCALARS strain_1 float
LOOKUP_TABLE default
-0.000094
-0.150354
-0.148081
-0.145796
-0.143499
-0.141193
-0.138877
-0.136552
-0.134218
-0.131876
-0.129526
-0.127169
-0.124806
-0.122438
-0.120064
-0.117687
-0.115307
-0.112923
-0.110538
-0.108152
-0.105766
-0.103381
-0.100997
-0.098616
-0.096238
-0.093865
-0.091497
-0.089136
-0.086782
-0.084436
-0.082100
-0.079774
-0.077460
-0.075159
-0.072871
-0.070599
-0.068342
-0.066103
-0.063882
-0.061680
-0.059499
-0.057340
-0.055203
-0.053091
-0.051004
-0.048943
-0.046910
-0.044905
-0.042930
-0.040986
-0.039074
-0.037195
-0.035350
-0.033540
-0.031766
-0.030029
-0.028330
-0.026671
-0.025050
-0.023471
-0.021933
-0.020437
-0.018984
-0.017575
-0.016209
-0.014890
-0.013615
-0.012385
-0.011202
-0.010066
-0.008977
-0.007934
-0.006938
-0.005990
-0.005089
-0.004235
-0.003429
-0.002669
-0.001956
-0.001290
-0.000669
-0.150488
-0.000004
-0.000580
-0.001202
-0.001871
-0.002586
-0.003347
-0.004156
-0.005012
-0.005915
-0.006865
-0.007863
-0.008909
-0.010001
-0.011140
-0.012326
-0.013558
-0.014835
-0.016159
-0.017527
-0.018939
-0.020395
-0.021894
-0.023436
-0.025018
-0.026641
-0.028305
-0.030007
-0.031748
-0.033525
-0.035338
-0.037187
-0.039070
-0.040985
-0.042933
-0.044911
-0.046919
-0.048956
-0.051020
-0.053111
-0.055227
-0.057367
-0.059529
-0.061714
-0.063919
-0.066143
-0.068387
-0.070646
-0.072923
-0.075214
-0.077518
-0.079835
-0.082164
-0.084503
-0.086852
-0.089209
-0.091573
-0.093944
-0.096320
-0.098701
-0.101084
-0.103471
-0.105859
-0.108248
-0.110636
-0.113024
-0.115410
-0.117793
-0.120173
-0.122548
-0.124919
-0.127284
-0.129643
-0.131994
-0.134339
-0.136675
-0.139002
-0.141321
-0.143629
-0.145926
-0.148213
-0.150476
-0.150463
-0.150450
-0.150437
-0.150424
-0.150410
-0.150396
-0.150383
-0.150369
-0.000076
-0.000060
-0.000046
-0.000035
-0.000024
-0.000016
-0.000010
-0.000006
-0.000004
-0.000580
-0.000582
-0.000586
-0.000592
-0.000600
-0.000610
-0.000622
-0.000635
-0.000652
-0.001202
-0.001204
-0.001208
-0.001214
-0.001221
-0.001231
-0.001243
-0.001256
-0.001272
-0.001870
-0.001872
-0.001875
-0.001881
-0.001889
-0.001898
-0.001910
-0.001923
-0.001939
-0.002585
-0.002586
-0.002589
-0.002595
-0.002602
-0.002611
-0.002623
-0.002636
-0.002652
-0.003346
-0.003347
-0.003351
-0.003356
-0.003363
-0.003372
-0.003383
-0.003397
-0.003412
-0.004154
-0.004156
-0.004158
-0.004164
-0.004170
-0.004179
-0.004190
-0.004203
-0.004218
-0.005010
-0.005011
-0.005013
-0.005018
-0.005025
-0.005034
-0.005045
-0.005057
-0.005072
-0.005913
-0.005914
-0.005916
-0.005920
-0.005927
-0.005935
-0.005946
-0.005959
-0.005974
-0.006863
-0.006864
-0.006866
-0.006870
-0.006877
-0.006885
-0.006895
-0.006907
-0.006922
-0.007862
-0.007861
-0.007863
-0.007867
-0.007873
-0.007882
-0.007891
-0.007903
-0.007918
-0.008906
-0.008906
-0.008908
-0.008911
-0.008917
-0.008925
-0.008935
-0.008946
-0.008960
-0.009998
-0.009997
-0.009999
-0.010002
-0.010009
-0.010015
-0.010025
-0.010037
-0.010050
-0.011137
-0.011136
-0.011137
-0.011141
-0.011146
-0.011153
-0.011163
-0.011174
-0.011188
-0.012323
-0.012321
-0.012323
-0.012325
-0.012331
-0.012337
-0.012346
-0.012357
-0.012370
-0.013554
-0.013553
-0.013554
-0.013557
-0.013561
-0.013568
-0.013577
-0.013588
-0.013600
-0.014832
-0.014830
-0.014831
-0.014834
-0.014838
-0.014844
-0.014852
-0.014863
-0.014875
-0.016155
-0.016153
-0.016154
-0.016156
-0.016160
-0.016166
-0.016175
-0.016184
-0.016196
-0.017523
-0.017521
-0.017521
-0.017523
-0.017527
-0.017533
-0.017540
-0.017550
-0.017561
-0.018935
-0.018933
-0.018933
-0.018934
-0.018937
-0.018943
-0.018950
-0.018959
-0.018971
-0.020391
-0.020389
-0.020388
-0.020389
-0.020392
-0.020397
-0.020404
-0.020413
-0.020424
-0.021890
-0.021887
-0.021886
-0.021887
-0.021890
-0.021895
-0.021901
-0.021910
-0.021920
-0.023431
-0.023428
-0.023426
-0.023427
-0.023430
-0.023434
-0.023440
-0.023448
-0.023459
-0.025013
-0.025010
-0.025009
-0.025009
-0.025011
-0.025015
-0.025021
-0.025029
-0.025039
-0.026636
-0.026633
-0.026631
-0.026631
-0.026633
-0.026637
-0.026642
-0.026650
-0.026659
-0.028300
-0.028296
-0.028294
-0.028294
-0.028295
-0.028299
-0.028304
-0.028311
-0.028320
-0.030002
-0.029997
-0.029995
-0.029994
-0.029996
-0.029999
-0.030004
-0.030011
-0.030019
-0.031741
-0.031737
-0.031735
-0.031734
-0.031735
-0.031737
-0.031742
-0.031748
-0.031756
-0.033518
-0.033514
-0.033511
-0.033510
-0.033511
-0.033513
-0.033517
-0.033523
-0.033530
-0.035332
-0.035327
-0.035324
-0.035323
-0.035323
-0.035325
-0.035329
-0.035334
-0.035341
-0.037181
-0.037175
-0.037172
-0.037171
-0.037170
-0.037171
-0.037175
-0.037180
-0.037187
-0.039063
-0.039058
-0.039054
-0.039052
-0.039051
-0.039053
-0.039056
-0.039061
-0.039066
-0.040979
-0.040973
-0.040969
-0.040967
-0.040966
-0.040967
-0.040969
-0.040973
-0.040979
-0.042926
-0.042920
-0.042916
-0.042913
-0.042912
-0.042913
-0.042915
-0.042919
-0.042924
-0.044904
-0.044898
-0.044893
-0.044891
-0.044889
-0.044889
-0.044891
-0.044894
-0.044899
-0.046912
-0.046906
-0.046901
-0.046898
-0.046896
-0.046896
-0.046897
-0.046900
-0.046904
-0.048948
-0.048942
-0.048937
-0.048934
-0.048932
-0.048931
-0.048932
-0.048934
-0.048938
-0.051013
-0.051006
-0.051001
-0.050997
-0.050995
-0.050994
-0.050994
-0.050996
-0.050999
-0.053103
-0.053096
-0.053090
-0.053087
-0.053084
-0.053083
-0.053082
-0.053084
-0.053087
-0.055219
-0.055211
-0.055206
-0.055202
-0.055198
-0.055197
-0.055197
-0.055198
-0.055200
-0.057359
-0.057351
-0.057345
-0.057341
-0.057337
-0.057335
-0.057334
-0.057335
-0.057336
-0.059521
-0.059513
-0.059507
-0.059502
-0.059499
-0.059497
-0.059495
-0.059495
-0.059496
-0.061706
-0.061698
-0.061691
-0.061686
-0.061682
-0.061679
-0.061677
-0.061677
-0.061679
-0.063910
-0.063903
-0.063896
-0.063890
-0.063886
-0.063883
-0.063881
-0.063880
-0.063881
-0.066134
-0.066126
-0.066119
-0.066114
-0.066109
-0.066106
-0.066103
-0.066102
-0.066102
-0.068377
-0.068369
-0.068362
-0.068356
-0.068351
-0.068347
-0.068344
-0.068342
-0.068341
-0.070637
-0.070628
-0.070621
-0.070615
-0.070609
-0.070605
-0.070602
-0.070600
-0.070599
-0.072913
-0.072904
-0.072897
-0.072890
-0.072884
-0.072880
-0.072876
-0.072873
-0.072872
-0.075204
-0.075194
-0.075187
-0.075180
-0.075174
-0.075169
-0.075165
-0.075162
-0.075160
-0.077508
-0.077499
-0.077491
-0.077483
-0.077478
-0.077472
-0.077467
-0.077464
-0.077462
-0.079825
-0.079816
-0.079808
-0.079800
-0.079794
-0.079788
-0.079783
-0.079779
-0.079776
-0.082153
-0.082144
-0.082136
-0.082128
-0.082121
-0.082115
-0.082110
-0.082106
-0.082102
-0.084493
-0.084483
-0.084474
-0.084467
-0.084459
-0.084453
-0.084448
-0.084443
-0.084439
-0.086841
-0.086832
-0.086823
-0.086814
-0.086807
-0.086800
-0.086795
-0.086790
-0.086785
-0.089198
-0.089188
-0.089179
-0.089171
-0.089163
-0.089156
-0.089150
-0.089144
-0.089140
-0.091563
-0.091552
-0.091543
-0.091535
-0.091527
-0.091519
-0.091513
-0.091507
-0.091502
-0.093933
-0.093923
-0.093913
-0.093904
-0.093896
-0.093889
-0.093882
-0.093876
-0.093870
-0.096309
-0.096299
-0.096289
-0.096280
-0.096271
-0.096263
-0.096257
-0.096250
-0.096244
-0.098690
-0.098679
-0.098669
-0.098660
-0.098651
-0.098643
-0.098635
-0.098629
-0.098622
-0.101074
-0.101063
-0.101053
-0.101043
-0.101034
-0.101025
-0.101018
-0.101010
-0.101003
-0.103460
-0.103449
-0.103439
-0.103429
-0.103420
-0.103411
-0.103403
-0.103395
-0.103387
-0.105848
-0.105837
-0.105826
-0.105816
-0.105807
-0.105798
-0.105789
-0.105781
-0.105773
-0.108236
-0.108225
-0.108215
-0.108205
-0.108195
-0.108185
-0.108176
-0.108168
-0.108160
-0.110625
-0.110614
-0.110602
-0.110593
-0.110583
-0.110573
-0.110564
-0.110555
-0.110546
-0.113013
-0.113001
-0.112990
-0.112979
-0.112970
-0.112959
-0.112950
-0.112941
-0.112932
-0.115398
-0.115387
-0.115376
-0.115364
-0.115354
-0.115344
-0.115334
-0.115325
-0.115316
-0.117781
-0.117770
-0.117758
-0.117748
-0.117737
-0.117726
-0.117716
-0.117706
-0.117696
-0.120161
-0.120149
-0.120137
-0.120126
-0.120115
-0.120105
-0.120095
-0.120084
-0.120074
-0.122536
-0.122524
-0.122513
-0.122501
-0.122490
-0.122479
-0.122469
-0.122458
-0.122448
-0.124906
-0.124895
-0.124883
-0.124872
-0.124861
-0.124849
-0.124838
-0.124827
-0.124816
-0.127272
-0.127260
-0.127248
-0.127236
-0.127224
-0.127213
-0.127202
-0.127191
-0.127180
-0.129631
-0.129618
-0.129607
-0.129595
-0.129583
-0.129571
-0.129560
-0.129548
-0.129537
-0.131982
-0.131970
-0.131958
-0.131946
-0.131934
-0.131922
-0.131910
-0.131899
-0.131887
-0.134326
-0.134314
-0.134302
-0.134290
-0.134277
-0.134266
-0.134254
-0.134242
-0.134229
-0.136663
-0.136650
-0.136638
-0.136626
-0.136613
-0.136601
-0.136588
-0.136576
-0.136564
-0.138990
-0.138977
-0.138965
-0.138952
-0.138940
-0.138927
-0.138915
-0.138902
-0.138890
-0.141308
-0.141295
-0.141283
-0.141270
-0.141257
-0.141244
-0.141232
-0.141219
-0.141206
-0.143616
-0.143603
-0.143590
-0.143578
-0.143565
-0.143552
-0.143539
-0.143526
-0.143513
-0.145913
-0.145901
-0.145888
-0.145876
-0.145862
-0.145849
-0.145836
-0.145823
-0.145809
-0.148200
-0.148188
-0.148174
-0.148162
-0.148149
-0.148135
-0.148122
-0.148108
-0.148095
SCALARS strain_2 float
LOOKUP_TABLE default
0.001855
0.001078
0.001076
0.001077
0.001078
0.001078
0.001078
0.001080
0.001076
0.001080
0.001081
0.001081
0.001083
0.001083
0.001084
0.001085
0.001088
0.001091
0.001090
0.001094
0.001095
0.001100
0.001103
0.001108
0.001108
0.001114
0.001118
0.001121
0.001125
0.001127
0.001133
0.001139
0.001147
0.001153
0.001155
0.001164
0.001172
0.001179
0.001184
0.001192
0.001201
0.001210
0.001218
0.001227
0.001235
0.001247
0.001257
0.001268
0.001277
0.001289
0.001300
0.001314
0.001323
0.001338
0.001350
0.001365
0.001377
0.001394
0.001408
0.001424
0.001439
0.001456
0.001471
0.001487
0.001506
0.001525
0.001544
0.001559
0.001579
0.001599
0.001617
0.001638
0.001658
0.001679
0.001696
0.001722
0.001739
0.001765
0.001787
0.001809
0.001831
0.003659
0.003706
0.003707
0.003711
0.003711
0.003715
0.003718
0.003720
0.003725
0.003725
0.003726
0.003728
0.003733
0.003733
0.003734
0.003738
0.003740
0.003740
0.003741
0.003744
0.003746
0.003749
0.003750
0.003752
0.003753
0.003758
0.003753
0.003756
0.003757
0.003756
0.003759
0.003759
0.003761
0.003760
0.003759
0.003759
0.003760
0.003761
0.003762
0.003761
0.003759
0.003760
0.003760
0.003759
0.003761
0.003759
0.003760
0.003757
0.003758
0.003755
0.003755
0.003752
0.003748
0.003751
0.003748
0.003743
0.003744
0.003741
0.003740
0.003737
0.003731
0.003730
0.003727
0.003727
0.003722
0.003721
0.003719
0.003716
0.003713
0.003705
0.003705
0.003699
0.003696
0.003694
0.003688
0.003686
0.003681
0.003678
0.003672
0.003669
0.003663
0.003400
0.003142
0.002887
0.002623
0.002368
0.002109
0.001853
0.001596
0.001335
0.002040
0.002225
0.002410
0.002597
0.002779
0.002966
0.003149
0.003337
0.003521
0.003521
0.003335
0.003149
0.002956
0.002768
0.002585
0.002396
0.002207
0.002021
0.003523
0.003332
0.003140
0.002952
0.002759
0.002570
0.002380
0.002189
0.002000
0.003522
0.003329
0.003135
0.002941
0.002749
0.002559
0.002363
0.002172
0.001979
0.003519
0.003325
0.003134
0.002935
0.002740
0.002545
0.002350
0.002152
0.001958
0.003523
0.003321
0.003124
0.002927
0.002730
0.002533
0.002334
0.002137
0.001942
0.003520
0.003322
0.003120
0.002919
0.002724
0.002520
0.002320
0.002121
0.001920
0.003520
0.003319
0.003114
0.002914
0.002711
0.002510
0.002307
0.002103
0.001900
0.003521
0.003315
0.003112
0.002908
0.002703
0.002496
0.002291
0.002087
0.001883
0.003521
0.003312
0.003105
0.002900
0.002695
0.002488
0.002279
0.002072
0.001865
0.003519
0.003311
0.003101
0.002891
0.002684
0.002472
0.002265
0.002058
0.001845
0.003520
0.003309
0.003101
0.002885
0.002675
0.002463
0.002252
0.002040
0.001829
0.003520
0.003306
0.003094
0.002879
0.002667
0.002451
0.002237
0.002027
0.001813
0.003519
0.003306
0.003091
0.002874
0.002657
0.002443
0.002225
0.002011
0.001795
0.003518
0.003302
0.003085
0.002865
0.002649
0.002434
0.002216
0.001995
0.001778
0.003522
0.003301
0.003080
0.002862
0.002642
0.002422
0.002201
0.001979
0.001761
0.003522
0.003299
0.003081
0.002854
0.002633
0.002409
0.002191
0.001965
0.001746
0.003520
0.003296
0.003073
0.002848
0.002623
0.002398
0.002178
0.001953
0.001728
0.003520
0.003294
0.003069
0.002842
0.002617
0.002391
0.002168
0.001941
0.001711
0.003518
0.003294
0.003064
0.002837
0.002608
0.002382
0.002154
0.001926
0.001697
0.003519
0.003291
0.003058
0.002834
0.002603
0.002374
0.002145
0.001914
0.001686
0.003520
0.003286
0.003057
0.002824
0.002591
0.002363
0.002133
0.001903
0.001670
0.003518
0.003285
0.003052
0.002821
0.002587
0.002356
0.002122
0.001890
0.001657
0.003519
0.003282
0.003049
0.002815
0.002581
0.002347
0.002114
0.001878
0.001642
0.003519
0.003283
0.003047
0.002812
0.002573
0.002338
0.002102
0.001866
0.001631
0.003513
0.003279
0.003041
0.002806
0.002567
0.002329
0.002093
0.001854
0.001614
0.003518
0.003279
0.003040
0.002801
0.002559
0.002321
0.002079
0.001844
0.001606
0.003517
0.003276
0.003034
0.002795
0.002555
0.002316
0.002073
0.001836
0.001593
0.003514
0.003274
0.003032
0.002788
0.002552
0.002307
0.002066
0.001824
0.001581
0.003515
0.003269
0.003028
0.002786
0.002543
0.002298
0.002055
0.001812
0.001569
0.003517
0.003268
0.003025
0.002781
0.002535
0.002294
0.002045
0.001802
0.001556
0.003514
0.003270
0.003022
0.002777
0.002530
0.002283
0.002039
0.001792
0.001547
0.003513
0.003269
0.003019
0.002774
0.002526
0.002277
0.002029
0.001781
0.001538
0.003512
0.003263
0.003015
0.002771
0.002520
0.002272
0.002023
0.001775
0.001530
0.003511
0.003263
0.003012
0.002764
0.002514
0.002267
0.002015
0.001766
0.001515
0.003512
0.003259
0.003011
0.002763
0.002509
0.002257
0.002009
0.001755
0.001507
0.003511
0.003257
0.003009
0.002754
0.002504
0.002251
0.002000
0.001749
0.001497
0.003510
0.003258
0.003004
0.002750
0.002501
0.002247
0.001991
0.001742
0.001489
0.003509
0.003256
0.003003
0.002746
0.002494
0.002242
0.001986
0.001733
0.001483
0.003509
0.003251
0.003000
0.002742
0.002490
0.002234
0.001980
0.001727
0.001473
0.003505
0.003252
0.002997
0.002741
0.002485
0.002230
0.001973
0.001720
0.001462
0.003507
0.003248
0.002993
0.002737
0.002481
0.002227
0.001971
0.001712
0.001454
0.003505
0.003251
0.002989
0.002733
0.002476
0.002218
0.001961
0.001706
0.001450
0.003501
0.003247
0.002986
0.002728
0.002474
0.002212
0.001959
0.001701
0.001442
0.003501
0.003243
0.002985
0.002725
0.002469
0.002213
0.001951
0.001694
0.001434
0.003498
0.003240
0.002978
0.002723
0.002465
0.002207
0.001946
0.001687
0.001431
0.003500
0.003239
0.002981
0.002719
0.002461
0.002199
0.001944
0.001683
0.001422
0.003496
0.003237
0.002976
0.002717
0.002459
0.002198
0.001936
0.001674
0.001417
0.003495
0.003236
0.002972
0.002713
0.002452
0.002192
0.001933
0.001672
0.001410
0.003495
0.003230
0.002971
0.002711
0.002451
0.002187
0.001927
0.001666
0.001406
0.003489
0.003232
0.002968
0.002705
0.002448
0.002185
0.001925
0.001662
0.001401
0.003490
0.003228
0.002967
0.002704
0.002446
0.002181
0.001920
0.001656
0.001395
0.003490
0.003229
0.002964
0.002702
0.002442
0.002176
0.001916
0.001655
0.001393
0.003484
0.003223
0.002961
0.002700
0.002436
0.002175
0.001909
0.001650
0.001387
0.003485
0.003223
0.002957
0.002695
0.002430
0.002170
0.001908
0.001646
0.001384
0.003481
0.003218
0.002957
0.002695
0.002429
0.002171
0.001907
0.001641
0.001380
0.003483
0.003214
0.002954
0.002690
0.002427
0.002165
0.001902
0.001638
0.001372
0.003477
0.003214
0.002949
0.002690
0.002423
0.002160
0.001898
0.001636
0.001372
0.003476
0.003212
0.002948
0.002684
0.002421
0.002161
0.001895
0.001632
0.001368
0.003471
0.003207
0.002945
0.002681
0.002417
0.002155
0.001890
0.001627
0.001365
0.003470
0.003205
0.002941
0.002678
0.002416
0.002152
0.001891
0.001625
0.001360
0.003469
0.003201
0.002942
0.002677
0.002414
0.002151
0.001885
0.001621
0.001359
0.003465
0.003201
0.002938
0.002675
0.002409
0.002148
0.001884
0.001620
0.001357
0.003462
0.003197
0.002934
0.002673
0.002408
0.002146
0.001880
0.001620
0.001355
0.003456
0.003197
0.002931
0.002669
0.002408
0.002144
0.001880
0.001616
0.001352
0.003453
0.003193
0.002930
0.002665
0.002404
0.002142
0.001877
0.001613
0.001348
0.003451
0.003187
0.002927
0.002662
0.002400
0.002137
0.001875
0.001615
0.001349
0.003446
0.003187
0.002924
0.002661
0.002398
0.002136
0.001873
0.001611
0.001347
0.003447
0.003181
0.002921
0.002663
0.002394
0.002128
0.001870
0.001610
0.001346
0.003441
0.003177
0.002915
0.002658
0.002394
0.002131
0.001867
0.001605
0.001350
0.003439
0.003176
0.002914
0.002653
0.002390
0.002130
0.001866
0.001605
0.001339
0.003436
0.003172
0.002911
0.002646
0.002388
0.002127
0.001863
0.001603
0.001342
0.003432
0.003169
0.002908
0.002652
0.002385
0.002125
0.001865
0.001601
0.001340
0.003429
0.003167
0.002904
0.002645
0.002384
0.002123
0.001860
0.001603
0.001338
0.003426
0.003166
0.002903
0.002640
0.002386
0.002123
0.001859
0.001595
0.001341
0.003422
0.003162
0.002898
0.002641
0.002382
0.002120
0.001858
0.001597
0.001338
0.003416
0.003156
0.002896
0.002636
0.002379
0.002119
0.001857
0.001597
0.001336
0.003411
0.003151
0.002895
0.002635
0.002376
0.002116
0.001857
0.001595
0.001337
0.003409
0.003149
0.002889
0.002632
0.002373
0.002112
0.001853
0.001594
0.001337
0.003403
0.003144
0.002885
0.002627
0.002372
0.002111
0.001851
0.001594
0.001336
SCALARS strain_3 float
LOOKUP_TABLE default
0.000764
0.049864
0.049161
0.048452
0.047742
0.047027
0.046307
0.045585
0.044861
0.044133
0.043402
0.042670
0.041933
0.041195
0.040454
0.039711
0.038967
0.038220
0.037474
0.036726
0.035978
0.035228
0.034478
0.033728
0.032979
0.032229
0.031484
0.030735
0.029989
0.029245
0.028501
0.027762
0.027026
0.026291
0.025562
0.024833
0.024107
0.023389
0.022674
0.021963
0.021260
0.020561
0.019866
0.019180
0.018499
0.017827
0.017160
0.016502
0.015852
0.015211
0.014577
0.013954
0.013338
0.012735
0.012138
0.011555
0.010980
0.010415
0.009864
0.009323
0.008796
0.008279
0.007774
0.007282
0.006805
0.006338
0.005885
0.005447
0.005022
0.004609
0.004209
0.003824
0.003457
0.003100
0.002759
0.002430
0.002117
0.001817
0.001532
0.001261
0.001005
0.048585
-0.000406
-0.000174
0.000073
0.000334
0.000608
0.000898
0.001204
0.001523
0.001857
0.002205
0.002567
0.002944
0.003335
0.003740
0.004158
0.004594
0.005038
0.005497
0.005972
0.006457
0.006955
0.007467
0.007990
0.008526
0.009075
0.009634
0.010205
0.010785
0.011378
0.011980
0.012590
0.013213
0.013843
0.014483
0.015133
0.015789
0.016455
0.017126
0.017805
0.018492
0.019183
0.019883
0.020587
0.021297
0.022013
0.022732
0.023457
0.024183
0.024917
0.025653
0.026392
0.027133
0.027877
0.028621
0.029370
0.030118
0.030868
0.031621
0.032372
0.033124
0.033877
0.034629
0.035379
0.036132
0.036881
0.037629
0.038378
0.039124
0.039869
0.040610
0.041350
0.042088
0.042822
0.043554
0.044281
0.045008
0.045733
0.046449
0.047167
0.047876
0.048713
0.048842
0.048968
0.049096
0.049225
0.049355
0.049481
0.049608
0.049736
0.000644
0.000524
0.000407
0.000287
0.000171
0.000055
-0.000063
-0.000178
-0.000293
-0.000059
0.000055
0.000173
0.000291
0.000408
0.000527
0.000646
0.000765
0.000886
0.000190
0.000306
0.000423
0.000541
0.000660
0.000780
0.000899
0.001018
0.001141
0.000450
0.000568
0.000688
0.000807
0.000925
0.001046
0.001165
0.001289
0.001410
0.000728
0.000845
0.000965
0.001086
0.001206
0.001326
0.001448
0.001570
0.001694
0.001017
0.001138
0.001258
0.001379
0.001499
0.001622
0.001746
0.001868
0.001991
0.001324
0.001446
0.001566
0.001687
0.001808
0.001933
0.002055
0.002180
0.002306
0.001644
0.001764
0.001886
0.002009
0.002132
0.002256
0.002382
0.002506
0.002631
0.001978
0.002099
0.002222
0.002346
0.002471
0.002595
0.002721
0.002847
0.002973
0.002327
0.002449
0.002574
0.002698
0.002821
0.002949
0.003075
0.003200
0.003328
0.002690
0.002814
0.002938
0.003064
0.003189
0.003315
0.003443
0.003569
0.003697
0.003068
0.003192
0.003318
0.003442
0.003570
0.003696
0.003825
0.003952
0.004082
0.003460
0.003584
0.003711
0.003837
0.003964
0.004092
0.004220
0.004348
0.004479
0.003864
0.003991
0.004117
0.004246
0.004374
0.004502
0.004629
0.004759
0.004891
0.004284
0.004410
0.004540
0.004668
0.004796
0.004925
0.005056
0.005185
0.005315
0.004719
0.004845
0.004973
0.005102
0.005232
0.005361
0.005490
0.005623
0.005754
0.005165
0.005294
0.005422
0.005551
0.005681
0.005811
0.005943
0.006074
0.006208
0.005626
0.005755
0.005885
0.006013
0.006144
0.006273
0.006405
0.006538
0.006672
0.006098
0.006227
0.006359
0.006488
0.006620
0.006752
0.006882
0.007017
0.007151
0.006585
0.006716
0.006846
0.006978
0.007110
0.007240
0.007374
0.007506
0.007642
0.007086
0.007217
0.007348
0.007479
0.007611
0.007743
0.007875
0.008009
0.008146
0.007598
0.007730
0.007860
0.007993
0.008125
0.008257
0.008391
0.008524
0.008660
0.008121
0.008253
0.008386
0.008518
0.008653
0.008785
0.008919
0.009054
0.009189
0.008659
0.008790
0.008923
0.009056
0.009188
0.009324
0.009458
0.009593
0.009729
0.009206
0.009341
0.009472
0.009606
0.009738
0.009873
0.010007
0.010145
0.010281
0.009767
0.009898
0.010032
0.010166
0.010301
0.010435
0.010571
0.010706
0.010842
0.010337
0.010470
0.010604
0.010739
0.010872
0.011008
0.011144
0.011281
0.011418
0.010919
0.011051
0.011185
0.011320
0.011454
0.011591
0.011729
0.011863
0.012001
0.011511
0.011646
0.011779
0.011916
0.012049
0.012185
0.012320
0.012458
0.012594
0.012113
0.012247
0.012382
0.012517
0.012652
0.012789
0.012927
0.013063
0.013200
0.012726
0.012857
0.012996
0.013133
0.013267
0.013402
0.013540
0.013677
0.013814
0.013347
0.013482
0.013617
0.013754
0.013888
0.014026
0.014164
0.014302
0.014439
0.013980
0.014115
0.014248
0.014386
0.014521
0.014659
0.014797
0.014934
0.015071
0.014618
0.014754
0.014892
0.015025
0.015164
0.015301
0.015437
0.015575
0.015712
0.015268
0.015403
0.015540
0.015675
0.015812
0.015950
0.016088
0.016226
0.016364
0.015925
0.016061
0.016195
0.016334
0.016469
0.016608
0.016745
0.016884
0.017023
0.016589
0.016724
0.016862
0.016998
0.017135
0.017273
0.017411
0.017551
0.017687
0.017262
0.017397
0.017534
0.017671
0.017809
0.017945
0.018083
0.018221
0.018360
0.017942
0.018077
0.018213
0.018350
0.018489
0.018627
0.018763
0.018903
0.019041
0.018628
0.018763
0.018900
0.019036
0.019174
0.019314
0.019450
0.019588
0.019728
0.019319
0.019456
0.019594
0.019730
0.019867
0.020005
0.020143
0.020282
0.020422
0.020021
0.020155
0.020292
0.020428
0.020568
0.020705
0.020845
0.020982
0.021121
0.020725
0.020859
0.020996
0.021133
0.021271
0.021409
0.021548
0.021686
0.021825
0.021434
0.021572
0.021708
0.021844
0.021982
0.022119
0.022260
0.022397
0.022537
0.022150
0.022286
0.022424
0.022559
0.022697
0.022836
0.022972
0.023111
0.023249
0.022869
0.023005
0.023142
0.023279
0.023417
0.023555
0.023692
0.023831
0.023970
0.023592
0.023730
0.023867
0.024003
0.024141
0.024276
0.024416
0.024556
0.024692
0.024322
0.024457
0.024595
0.024730
0.024868
0.025007
0.025145
0.025282
0.025421
0.025052
0.025189
0.025328
0.025465
0.025602
0.025739
0.025877
0.026013
0.026153
0.025789
0.025925
0.026062
0.026198
0.026338
0.026474
0.026610
0.026748
0.026886
0.026530
0.026665
0.026800
0.026936
0.027073
0.027212
0.027348
0.027488
0.027626
0.027268
0.027406
0.027541
0.027677
0.027815
0.027952
0.028089
0.028227
0.028363
0.028012
0.028148
0.028284
0.028419
0.028558
0.028694
0.028833
0.028970
0.029108
0.028758
0.028893
0.029029
0.029167
0.029303
0.029440
0.029577
0.029713
0.029852
0.029506
0.029640
0.029776
0.029912
0.030050
0.030186
0.030324
0.030460
0.030597
0.030255
0.030389
0.030525
0.030661
0.030797
0.030935
0.031071
0.031207
0.031343
0.031004
0.031140
0.031274
0.031411
0.031548
0.031682
0.031820
0.031956
0.032094
0.031756
0.031892
0.032026
0.032163
0.032298
0.032434
0.032569
0.032706
0.032843
0.032507
0.032643
0.032778
0.032914
0.033050
0.033185
0.033320
0.033457
0.033591
0.033260
0.033397
0.033530
0.033664
0.033798
0.033935
0.034071
0.034208
0.034340
0.034012
0.034147
0.034281
0.034417
0.034551
0.034685
0.034821
0.034956
0.035093
0.034764
0.034897
0.035032
0.035167
0.035303
0.035438
0.035573
0.035708
0.035842
0.035515
0.035649
0.035784
0.035917
0.036052
0.036186
0.036321
0.036457
0.036592
0.036267
0.036400
0.036534
0.036667
0.036801
0.036936
0.037071
0.037205
0.037339
0.037015
0.037149
0.037285
0.037416
0.037552
0.037685
0.037817
0.037953
0.038087
0.037765
0.037898
0.038030
0.038165
0.038298
0.038431
0.038566
0.038699
0.038832
0.038511
0.038644
0.038778
0.038910
0.039044
0.039178
0.039311
0.039444
0.039577
0.039256
0.039390
0.039523
0.039657
0.039789
0.039921
0.040055
0.040186
0.040320
0.040001
0.040134
0.040266
0.040398
0.040531
0.040663
0.040796
0.040929
0.041061
0.040744
0.040876
0.041006
0.041141
0.041271
0.041402
0.041537
0.041667
0.041801
0.041482
0.041613
0.041745
0.041877
0.042008
0.042142
0.042273
0.042406
0.042537
0.042221
0.042351
0.042482
0.042615
0.042744
0.042876
0.043008
0.043139
0.043272
0.042953
0.043085
0.043216
0.043346
0.043479
0.043609
0.043740
0.043869
0.044003
0.043686
0.043815
0.043944
0.044077
0.044208
0.044339
0.044468
0.044600
0.044731
0.044415
0.044543
0.044675
0.044804
0.044935
0.045065
0.045196
0.045324
0.045456
0.045139
0.045269
0.045399
0.045529
0.045658
0.045788
0.045920
0.046050
0.046178
0.045862
0.045990
0.046121
0.046250
0.046381
0.046509
0.046638
0.046768
0.046898
0.046579
0.046709
0.046838
0.046968
0.047098
0.047226
0.047354
0.047483
0.047614
0.047295
0.047423
0.047553
0.047683
0.047810
0.047939
0.048066
0.048196
0.048325
0.048006
0.048133
0.048263
0.048391
0.048518
0.048647
0.048776
0.048905
0.049033
SCALARS stress_1 float
LOOKUP_TABLE default
30151.524214
-28309608.253193
-27880986.393475
-27450351.533757
-27017726.674040
-26583099.814322
-26146601.954605
-25708395.094887
-25268452.235170
-24827005.375452
-24384128.515734
-23939832.656017
-23494549.796299
-23048125.936582
-22600799.076864
-22152717.217146
-21703973.357429
-21254786.497711
-20805181.637994
-20355518.778276
-19905675.918558
-19456023.058841
-19006667.199123
-18557859.339406
-18109566.479688
-17662163.619971
-17215804.760253
-16770602.900535
-16326792.040818
-15884623.181100
-15444069.321383
-15005702.461665
-14569344.601947
-14135385.742230
-13704105.882512
-13275720.022795
-12850143.163077
-12427900.303359
-12009109.443642
-11593949.583924
-11182603.724207
-10775334.864489
-10372524.004772
-9974106.145054
-9580523.285336
-9191840.425619
-8808295.565901
-8430247.706184
-8057682.846466
-7691001.986748
-7330286.127031
-6975679.267313
-6627668.407596
-6286253.547878
-5951543.688160
-5623769.828443
-5303217.968725
-4990042.109008
-4684320.249290
-4386257.389572
-4095933.529855
-3813679.670137
-3539399.810420
-3273362.950702
-3015649.090985
-2766409.231267
-2525658.371549
-2293523.511832
-2070124.652114
-1855473.792397
-1649552.932679
-1452625.072961
-1264497.213244
-1085341.353526
-915004.493809
-753506.634091
-601090.774373
-457336.914656
-322511.054938
-196301.195221
-78806.335503
-28268275.036485
101888.740922
-6799.118795
-123922.978513
-249851.838231
-384541.697948
-528052.557666
-680486.417383
-841732.277101
-1011892.136819
-1191084.996536
-1379187.856254
-1576127.715971
-1781985.575689
-1996728.435406
-2220199.295124
-2452401.154842
-2693343.014559
-2942741.874277
-3200588.733994
-3466753.593712
-3741333.453430
-4023908.313147
-4314469.172865
-4612754.032582
-4918901.892300
-5232330.752018
-5553278.611735
-5881287.471453
-6216430.331170
-6558301.190888
-6906809.050605
-7261719.910323
-7622821.770041
-7990120.629758
-8363052.489476
-8741617.349193
-9125663.208911
-9514888.068629
-9908928.928346
-10307878.788064
-10711308.647781
-11119017.507499
-11530959.367217
-11946697.226934
-12366125.086652
-12788847.946369
-13215059.806087
-13644055.665804
-14076025.525522
-14510548.385240
-14947416.244957
-15386454.104675
-15827569.964392
-16270355.824110
-16714725.683828
-17160548.543545
-17607542.403263
-18055571.262980
-18504407.122698
-18953841.982416
-19403752.842133
-19853931.701851
-20304408.561568
-20754702.421286
-21204840.281004
-21654680.140721
-22104000.000439
-22552675.860156
-23000567.719874
-23447577.579591
-23893388.439309
-24338059.299027
-24781604.158744
-25223505.018462
-25663956.878179
-26102799.737897
-26539781.597615
-26974962.457332
-27408219.317050
-27839255.176767
-28272599.358156
-28276832.679826
-28280971.001497
-28285213.323168
-28289409.644839
-28293470.966510
-28297522.288180
-28301567.609851
-28305632.931522
38917.845885
47433.167556
55561.489227
63284.810898
70685.132568
77585.454239
84222.775910
90475.097581
96290.419251
-12272.440466
-18243.762137
-24518.083808
-31141.405478
-38198.727149
-45566.048820
-53302.370491
-61473.692162
-69953.013832
-129540.300184
-135487.621855
-141840.943525
-148427.265196
-155464.586867
-162963.908538
-170738.230208
-178879.551879
-187412.873550
-255414.159901
-261375.481572
-267712.803243
-274500.124914
-281574.446584
-288962.768255
-296748.089926
-304896.411597
-313543.733268
-390173.019619
-396141.341290
-402496.662960
-409137.984631
-416296.306302
-423758.627973
-431584.949644
-439712.271314
-448393.592985
-533699.879337
-539670.201007
-546017.522678
-552796.844349
-559865.166020
-567382.487690
-575185.809361
-583417.131032
-592055.452703
-686046.739054
-692062.060725
-698418.382396
-705177.704066
-712279.025737
-719761.347408
-727624.669079
-735911.990750
-744583.312420
-847416.598772
-853321.920442
-859729.242113
-866503.563784
-873650.885455
-881149.207126
-889082.528796
-897260.850467
-905932.172138
-1017563.458489
-1023596.780160
-1029911.101831
-1036733.423502
-1043800.745172
-1051424.066843
-1059315.388514
-1067631.710185
-1076246.031855
-1196715.318207
-1202674.639878
-1209168.961548
-1215901.283219
-1223082.604890
-1230589.926561
-1238468.248232
-1246797.569902
-1255345.891573
-1384765.177924
-1390780.499595
-1397266.821266
-1403957.142937
-1411141.464608
-1418697.786278
-1426596.107949
-1434884.429620
-1443517.751291
-1581813.037642
-1587812.359313
-1594193.680984
-1600970.002654
-1608127.324325
-1615740.645996
-1623562.967667
-1631852.289337
-1640532.611008
-1787635.897360
-1793638.219030
-1800117.540701
-1806859.862372
-1814002.184043
-1821507.505714
-1829438.827384
-1837757.149055
-1846496.470726
-2002355.757077
-2008354.078748
-2014773.400419
-2021558.722090
-2028724.043760
-2036295.365431
-2044111.687102
-2052360.008773
-2061046.330443
-2225801.616795
-2231879.938466
-2238311.260136
-2245060.581807
-2252203.903478
-2259699.225149
-2267599.546819
-2275894.868490
-2284495.190161
-2458044.476512
-2464028.798183
-2470472.119854
-2477218.441525
-2484381.763195
-2491870.084866
-2499840.406537
-2508033.728208
-2516623.049879
-2698943.336230
-2704974.657901
-2711313.979572
-2718106.301242
-2725210.622913
-2732682.944584
-2740640.266255
-2748895.587925
-2757485.909596
-2948387.195948
-2954403.517618
-2960807.839289
-2967551.160960
-2974593.482631
-2982100.804301
-2989919.125972
-2998126.447643
-3006680.769314
-3206250.055665
-3212240.377336
-3218597.699007
-3225353.020677
-3232430.342348
-3239867.664019
-3247767.985690
-3255909.307361
-3264422.629031
-3472445.915383
-3478409.237054
-3484784.558724
-3491507.880395
-3498569.202066
-3506033.523737
-3513911.845407
-3522012.167078
-3530515.488749
-3746960.775100
-3752893.096771
-3759309.418442
-3766003.740113
-3772964.061783
-3780524.383454
-3788119.705125
-3796363.026796
-3804783.348467
-4029422.634818
-4035464.956489
-4041847.278159
-4048473.599830
-4055470.921501
-4062922.243172
-4070589.564843
-4078686.886513
-4087158.208184
-4320035.494536
-4326025.816206
-4332265.137877
-4338981.459548
-4345987.781219
-4353279.102889
-4361004.424560
-4369108.746231
-4377515.067902
-4618368.354253
-4624352.675924
-4630605.997595
-4637207.319265
-4644215.640936
-4651582.962607
-4659184.284278
-4667218.605949
-4675637.927619
-4924397.213971
-4930370.535641
-4936627.857312
-4943267.178983
-4950181.500654
-4957502.822325
-4965065.143995
-4973048.465666
-4981429.787337
-5237924.073688
-5243863.395359
-5250081.717030
-5256738.038701
-5263674.360371
-5270899.682042
-5278524.003713
-5286427.325384
-5294741.647054
-5558875.933406
-5564752.255077
-5570978.576747
-5577559.898418
-5584417.220089
-5591691.541760
-5599168.863431
-5607061.185101
-5615304.506772
-5886889.793123
-5892805.114794
-5898964.436465
-5905583.758136
-5912354.079807
-5919548.401477
-5927064.723148
-5934867.044819
-5943104.366490
-6221959.652841
-6227854.974512
-6234037.296183
-6240517.617853
-6247361.939524
-6254477.261195
-6261944.582866
-6269707.904536
-6277793.226207
-6563842.512559
-6569695.834229
-6575849.155900
-6582279.477571
-6589058.799242
-6596176.120913
-6603635.442583
-6611304.764254
-6619357.085925
-6912336.372276
-6918145.693947
-6924277.015618
-6930745.337289
-6937398.658959
-6944496.980630
-6951881.302301
-6959500.623972
-6967553.945642
-7267187.231994
-7273070.553665
-7279218.875335
-7285535.197006
-7292203.518677
-7299254.840348
-7306565.162018
-7314199.483689
-7322093.805360
-7628370.091711
-7634147.413382
-7640289.735053
-7646575.056724
-7653260.378395
-7660282.700065
-7667399.021736
-7675002.343407
-7682831.665078
-7995569.951429
-8001223.273100
-8007319.594771
-8013660.916441
-8020249.238112
-8027186.559783
-8034350.881454
-8041771.203124
-8049536.524795
-8368528.811147
-8374290.132817
-8380302.454488
-8386523.776159
-8393113.097830
-8399944.419500
-8407130.741171
-8414608.062842
-8422281.384513
-8747013.670864
-8752751.992535
-8758796.314206
-8764986.635877
-8771566.957547
-8778356.279218
-8785439.600889
-8792809.922560
-8800469.244230
-9131108.530582
-9136703.852253
-9142731.173923
-9148911.495594
-9155355.817265
-9162185.138936
-9169118.460606
-9176473.782277
-9183999.103948
-9520265.390299
-9525914.711970
-9531833.033641
-9538003.355312
-9544394.676982
-9551127.998653
-9558149.320324
-9565246.641995
-9572761.963666
-9914381.250017
-9920026.571688
-9925818.893359
-9932057.215029
-9938359.536700
-9944998.858371
-9951884.180042
-9959097.501712
-9966501.823383
-10313263.109735
-10318834.431405
-10324686.753076
-10330761.074747
-10337081.396418
-10343705.718088
-10350551.039759
-10357624.361430
-10364891.683101
-10716615.969452
-10722257.291123
-10728119.612794
-10734076.934464
-10740413.256135
-10746874.577806
-10753704.899477
-10760665.221148
-10767906.542818
-11124380.829170
-11129962.150841
-11135716.472511
-11141668.794182
-11147860.115853
-11154453.437524
-11161199.759194
-11168018.080865
-11175189.402536
-11536163.688887
-11541788.010558
-11547453.332229
-11553438.653900
-11559659.975570
-11566029.297241
-11572728.618912
-11579464.940583
-11586568.262254
-11951924.548605
-11957426.870276
-11963135.191946
-11969081.513617
-11975186.835288
-11981520.156959
-11988044.478630
-11994873.800300
-12001867.121971
-12371239.408322
-12376811.729993
-12382495.051664
-12388214.373335
-12394345.695006
-12400702.016676
-12407174.338347
-12413789.660018
-12420715.981689
-12794180.268040
-12799582.589711
-12805231.911382
-12811043.233052
-12817046.554723
-12823239.876394
-12829696.198065
-12836282.519735
-12843125.841406
-13220171.127758
-13225660.449428
-13231094.771099
-13236960.092770
-13242867.414441
-13249019.736112
-13255478.057782
-13261911.379453
-13268695.701124
-13649296.987475
-13654568.309146
-13660104.630817
-13665949.952488
-13671784.274158
-13677921.595829
-13684156.917500
-13690656.239171
-13697280.560841
-14081160.847193
-14086478.168864
-14091953.490534
-14097629.812205
-14103445.133876
-14109569.455547
-14115766.777217
-14122157.098888
-14128718.420559
-14515632.706910
-14520966.028581
-14526360.350252
-14531992.671923
-14537875.993594
-14543694.315264
-14549917.636935
-14556217.958606
-14562704.280277
-14952437.566628
-14957703.888299
-14963114.209970
-14968653.531640
-14974467.853311
-14980374.174982
-14986435.496653
-14992700.818323
-14999106.139994
-15391524.426346
-15396776.748016
-15402084.069687
-15407642.391358
-15413289.713029
-15419211.034699
-15425201.356370
-15431361.678041
-15437718.999712
-15832566.286063
-15837781.607734
-15843058.929405
-15848567.251076
-15854229.572746
-15860013.894417
-15865818.216088
-15871996.537759
-15878320.859429
-16275302.145781
-16280509.467452
-16285767.789122
-16291127.110793
-16296827.432464
-16302473.754135
-16308423.075805
-16314291.397476
-16320540.719147
-16719769.005498
-16724824.327169
-16730032.648840
-16735471.970511
-16741057.292181
-16746641.613852
-16752460.935523
-16758374.257194
-16764378.578865
-17165462.865216
-17170605.186887
-17175813.508558
-17181064.830228
-17186580.151899
-17192168.473570
-17197932.795241
-17203784.116911
-17209698.438582
-17612365.724934
-17617550.046604
-17622621.368275
-17627992.689946
-17633403.011617
-17638849.333287
-17644536.654958
-17650276.976629
-17656231.298300
-18060442.584651
-18065393.906322
-18070524.227993
-18075828.549663
-18081135.871334
-18086590.193005
-18092177.514676
-18097908.836347
-18103618.158017
-18509208.444369
-18514168.766040
-18519232.087710
-18524531.409381
-18529809.731052
-18535171.052723
-18540609.374393
-18546321.696064
-18551951.017735
-18958687.304086
-18963622.625757
-18968591.947428
-18973867.269099
-18978993.590769
-18984326.912440
-18989840.234111
-18995306.555782
-19000969.877453
-19408538.163804
-19413469.485475
-19418539.807145
-19423587.128816
-19428716.450487
-19434049.772158
-19439368.093829
-19444810.415499
-19450386.737170
-19858756.023522
-19863622.345192
-19868692.666863
-19873708.988534
-19878833.310205
-19883920.631875
-19889305.953546
-19894614.275217
-19900089.596888
-20309163.883239
-20313968.204910
-20318906.526581
-20323902.848251
-20329017.169922
-20334161.491593
-20339334.813264
-20344668.134935
-20349960.456605
-20759466.742957
-20764227.064627
-20769066.386298
-20774095.707969
-20779115.029640
-20784127.351311
-20789429.672981
-20794671.994652
-20799888.316323
-21209580.602674
-21214303.924345
-21219159.246016
-21224095.567687
-21229105.889357
-21234071.211028
-21239154.532699
-21244277.854370
-21249504.176040
-21659427.462392
-21664060.784063
-21668901.105733
-21673750.427404
-21678648.749075
-21683567.070746
-21688622.392417
-21693744.714087
-21698800.035758
-22108678.322109
-22113371.643780
-22118070.965451
-22122919.287122
-22127749.608793
-22132692.930463
-22137561.252134
-22142594.573805
-22147605.895476
-22557272.181827
-22561966.503498
-22566713.825169
-22571417.146839
-22576186.468510
-22581067.790181
-22586010.111852
-22590869.433522
-22595874.755193
-23005176.041545
-23009798.363215
-23014405.684886
-23019231.006557
-23023944.328228
-23028720.649899
-23033490.971569
-23038396.293240
-23043154.614911
-23452071.901262
-23456689.222933
-23461303.544604
-23466017.866275
-23470728.187945
-23475438.509616
-23480123.831287
-23484923.152958
-23489800.474628
-23897943.760980
-23902512.082651
-23907114.404321
-23911793.725992
-23916391.047663
-23921001.369334
-23925812.691004
-23930440.012675
-23935138.334346
-24342710.620697
-24347180.942368
-24351718.264039
-24356329.585710
-24360886.907381
-24365529.229051
-24370190.550722
-24374817.872393
-24379443.194064
-24786098.480415
-24790576.802086
-24795075.123757
-24799619.445427
-24804192.767098
-24808671.088769
-24813244.410440
-24817841.732110
-24822450.053781
-25228043.340133
-25232438.661803
-25236984.983474
-25241448.305145
-25245854.626816
-25250411.948486
-25254952.270157
-25259418.591828
-25263897.913499
-25668426.199850
-25672873.521521
-25677288.843192
-25681691.164862
-25686200.486533
-25690561.808204
-25695069.129875
-25699451.451546
-25703914.773216
-26107112.059568
-26111595.381239
-26115956.702909
-26120348.024580
-26124682.346251
-26129207.667922
-26133514.989592
-26137900.311263
-26142192.632934
-26544202.919285
-26548579.240956
-26552899.562627
-26557357.884298
-26561570.205968
-26565990.527639
-26570226.849310
-26574483.170981
-26578792.492652
-26979346.779003
-26983696.100674
-26988007.422344
-26992311.744015
-26996579.065686
-27000834.387357
-27005014.709028
-27009315.030698
-27013477.352369
-27412470.638721
-27416766.960391
-27421027.282062
-27425322.603733
-27429570.925404
-27433868.247074
-27437966.568745
-27442191.890416
-27446285.212087
-27843617.498438
-27847778.820109
-27852148.141780
-27856298.463450
-27860565.785121
-27864660.106792
-27868821.428463
-27872925.750134
-27877002.071804
SCALARS stress_2 float
LOOKUP_TABLE default
354992.905541
-4276016.056263
-4208194.844241
-4139829.632218
-4071304.420196
-4002459.208173
-3933805.996150
-3863968.784128
-3793843.572105
-3724294.360083
-3653817.148060
-3582923.936038
-3512670.724015
-3441617.511993
-3370308.299970
-3299191.087947
-3227689.875925
-3155900.663902
-3084463.451880
-3012962.239857
-2941269.027835
-2869191.815812
-2797466.603790
-2726605.391767
-2654784.179745
-2583026.967722
-2511781.755699
-2440088.543677
-2368907.331654
-2298558.119632
-2228048.907609
-2157667.695587
-2086934.483564
-2017385.271542
-1948060.059519
-1878510.847496
-1810305.635474
-1742068.423451
-1674663.211429
-1607609.999406
-1540748.787384
-1474815.575361
-1409810.363339
-1345029.151316
-1280023.939294
-1216426.727271
-1154749.515248
-1092752.303226
-1031843.091203
-971925.879181
-912200.667158
-854459.455136
-796494.243113
-740097.031091
-684947.819068
-630150.607045
-576825.395023
-524684.183000
-473406.970978
-423505.758955
-374500.546933
-326839.334910
-280746.122888
-235548.910865
-190895.698843
-149026.486820
-106677.274797
-67176.062775
-27642.850752
9490.361270
45439.573293
80716.785315
113561.997338
146311.209360
176852.421383
206689.633406
234318.845428
261532.057451
286793.269473
310742.481496
333475.693518
-3795474.739755
702894.222049
685889.010027
668051.798004
648358.585982
627993.373959
606028.161937
581790.949914
556689.737891
530372.525869
502807.313846
473066.101824
442492.889801
410031.677779
376706.465756
341749.253734
305160.041711
267450.829689
228493.617666
187584.405643
146451.193621
102341.981598
58360.769576
13035.557553
-34465.654469
-82510.866492
-131516.078514
-182889.290537
-234454.502560
-287363.714582
-341488.926605
-396254.138627
-451883.350650
-509496.562672
-567301.774695
-626962.986717
-686080.198740
-746637.410762
-808346.622785
-870727.834808
-934005.046830
-998242.258853
-1062607.470875
-1127612.682898
-1194089.894920
-1260151.106943
-1327236.318965
-1394737.530988
-1462334.743011
-1531499.955033
-1600377.167056
-1669830.379078
-1739635.591101
-1809504.803123
-1879630.015146
-1950651.227168
-2021544.439191
-2092213.651213
-2163746.863236
-2235504.075259
-2306621.287281
-2378314.499304
-2450775.711326
-2522052.923349
-2594194.135371
-2665311.347394
-2737260.559416
-2809145.771439
-2880806.983462
-2952340.195484
-3023585.407507
-3095374.619529
-3165787.831552
-3236905.043574
-3307766.255597
-3377955.467619
-3448688.679642
-3518621.891664
-3588075.103687
-3657784.315710
-3726757.527732
-3843394.471406
-3891218.203056
-3939169.934707
-3987601.666358
-4036449.398009
-4083857.129660
-4131552.861311
-4180048.592961
-4228160.324612
390368.637192
425008.368843
460192.100493
494799.832144
529695.563795
564527.295446
599391.027097
634254.758748
668510.490398
651825.278376
616033.546725
580977.815074
545922.083423
510834.351773
475906.620122
440178.888471
404579.156820
368979.425169
633316.066353
597428.334703
561476.603052
526516.871401
490341.139750
454901.408099
418949.676448
382933.944797
346950.213147
613110.854331
576743.122680
540951.391029
504295.659378
468663.927727
432040.196077
395736.464426
359688.732775
323961.001124
591273.642308
555033.910657
518730.179007
482106.447356
445514.715705
408730.984054
372107.252403
335771.520752
298475.789101
568572.430286
531564.698635
495068.966984
457741.235333
420893.503682
383341.772031
346718.040381
309134.308730
271870.577079
544943.218263
507551.486612
469807.754961
432736.023311
394800.291660
357184.560009
319408.828358
282529.096707
243825.365056
519298.006241
481586.274590
443394.542939
405586.811288
367523.079637
328947.347986
292003.616336
253491.884685
215268.153034
492404.794218
454277.062567
415765.330916
377541.599266
339029.867615
300742.135964
261750.404313
223590.672662
184470.941011
463751.582196
425431.850545
386952.118894
347384.387243
309032.655592
269816.923941
231209.192290
192505.460640
152873.728989
433882.370173
394922.638522
355898.906871
317163.175220
277467.443570
238411.711919
198651.980268
159532.248617
119900.516966
402893.158150
363677.426500
323917.694849
284445.963198
244142.231547
205310.499896
164590.768245
125407.036594
85199.304944
370303.946128
330672.214477
289888.482826
250544.751175
210657.019524
170193.287874
130369.556223
90481.824572
49634.092921
336210.734105
296035.002454
256115.270804
216131.539153
175347.807502
134276.075851
93492.344200
53700.612549
12468.880899
301445.522083
260405.790432
219238.058781
178870.327130
138310.595479
97014.863829
55815.132178
14263.400527
-25496.331124
263544.310060
223112.578409
182360.846759
141161.115108
99609.383457
58409.651806
16825.920155
-24277.811496
-66085.543147
225835.098038
184635.366387
143179.634736
102139.903085
60108.171434
18428.439783
-23347.291867
-65283.023518
-106706.755169
185821.886015
144206.154364
102910.422713
61358.691063
18878.959412
-22608.772239
-64576.503890
-107248.235541
-149727.967192
145360.673993
103232.942342
61617.210691
18721.479040
-23054.252611
-65309.984262
-107917.715913
-150397.447563
-192845.179214
103395.461970
60883.730319
18147.998668
-23563.732983
-66811.464633
-109163.196284
-151802.927935
-193962.659586
-237530.391237
60374.249947
17670.518297
-25001.213354
-68152.945005
-110920.676656
-154840.408307
-197608.139958
-240375.871608
-283911.603259
15625.037925
-27718.693726
-71094.425377
-114726.157028
-157685.888678
-200485.620329
-244405.351980
-287909.083631
-331444.815282
-30692.174098
-74291.905748
-117347.637399
-160915.369050
-204419.100701
-248178.832352
-291842.564003
-335922.295654
-379618.027304
-78353.386120
-121985.117771
-165808.849422
-208992.581073
-253552.312724
-297632.044374
-341167.776025
-385279.507676
-428975.239327
-126430.598143
-170478.329794
-214270.061444
-258381.793095
-302557.524746
-347469.256397
-390876.988048
-435724.719699
-480380.451350
-176427.810165
-220379.541816
-264683.273467
-309531.005118
-354186.736769
-397850.468420
-442762.200070
-487353.931721
-532233.663372
-227001.022188
-272072.753839
-316440.485490
-361000.217140
-405751.948791
-450535.680442
-495351.412093
-540391.143744
-585014.875395
-279654.234210
-323861.965861
-368933.697512
-413333.429163
-459205.160814
-503604.892465
-548644.624115
-594420.355766
-639652.087417
-332019.446233
-377027.177884
-422386.909535
-468162.641185
-512658.372836
-557762.104487
-603825.836138
-649153.567789
-694641.299440
-386912.658255
-431664.389906
-476832.121557
-522543.853208
-567903.584859
-614575.316510
-659135.048161
-705166.779811
-750782.511462
-441709.870278
-487069.601929
-533165.333580
-578589.065231
-624172.796881
-670556.528532
-716236.260183
-762299.991834
-807787.723485
-498075.082301
-543498.813951
-589370.545602
-635210.277253
-681306.008904
-727209.740555
-773337.472206
-819753.203857
-865912.935507
-555240.294323
-601208.025974
-647239.757625
-693495.489276
-739719.220927
-786422.952577
-832134.684228
-878870.415879
-924838.147530
-613589.506346
-659749.237997
-705588.969647
-752644.701298
-798708.432949
-845220.164600
-892019.896251
-938659.627902
-985075.359552
-673058.718368
-718898.450019
-765602.181670
-811889.913321
-859265.644972
-905297.376622
-952097.108273
-999504.839924
-1046272.571575
-732591.930391
-779135.662042
-825839.393692
-872991.125343
-919950.856994
-967038.588645
-1013774.320296
-1060158.051947
-1108013.783598
-793245.142413
-840524.874064
-887452.605715
-934060.337366
-981628.069017
-1028235.800668
-1075643.532318
-1122571.263969
-1169914.995620
-855274.354436
-901882.086087
-949577.817738
-996249.549388
-1043465.281039
-1091449.012690
-1138184.744341
-1185752.475992
-1233096.207643
-917751.566458
-965159.298109
-1012407.029760
-1059622.761411
-1106550.493062
-1154214.224713
-1201781.956364
-1249957.688014
-1297301.419665
-980868.778481
-1028692.510132
-1076708.241783
-1123667.973434
-1171043.705084
-1218579.436735
-1266179.168386
-1313426.900037
-1361538.631688
-1045233.990504
-1092481.722154
-1140465.453805
-1188129.185456
-1235376.917107
-1283424.648758
-1331152.380409
-1378720.112059
-1427183.843710
-1109695.202526
-1157326.934177
-1205598.665828
-1253166.397479
-1301150.129129
-1348781.860780
-1396061.592431
-1445229.324082
-1492573.055733
-1175404.414549
-1223612.146199
-1270955.877850
-1319099.609501
-1366827.341152
-1414683.072803
-1463306.804454
-1511226.536105
-1558890.267755
-1241529.626571
-1289321.358222
-1336793.089873
-1385864.821524
-1433112.553175
-1481608.284825
-1529688.016476
-1578311.748127
-1626007.479778
-1308326.838594
-1355766.570245
-1404038.301895
-1452022.033546
-1500421.765197
-1549045.496848
-1597285.228499
-1645364.960150
-1693860.691801
-1374612.050616
-1423683.782267
-1471827.513918
-1519011.245569
-1567410.977220
-1617026.708871
-1665362.440521
-1713602.172172
-1761937.903823
-1443169.262639
-1490832.994290
-1539968.725941
-1587760.457591
-1636480.189242
-1684527.920893
-1733343.652544
-1781551.384195
-1830559.115846
-1510766.474661
-1559294.206312
-1607661.937963
-1656317.669614
-1704653.401265
-1753501.132916
-1801804.864566
-1850940.596217
-1899180.327868
-1579451.686684
-1628523.418335
-1676443.149986
-1725642.881636
-1773882.613287
-1822698.344938
-1871386.076589
-1920265.808240
-1968601.539891
-1648648.898706
-1697304.630357
-1746056.362008
-1794360.093659
-1843399.825310
-1892215.556961
-1940679.288612
-1989303.020262
-2038630.751913
-1718166.110729
-1767205.842380
-1815221.574031
-1864293.305682
-1912885.037332
-1961892.768983
-2010868.500634
-2059588.232285
-2108339.963936
-1788099.322752
-1836883.054402
-1885858.786053
-1934354.517704
-1983554.249355
-2032145.981006
-2080897.712657
-2130065.444308
-2178977.175958
-1857936.534774
-1906272.266425
-1955791.998076
-2004671.729727
-2053551.461378
-2102207.193028
-2151662.924679
-2200158.656330
-2249134.387981
-1929053.746797
-1977485.478448
-2026045.210098
-2075948.941749
-2124412.673400
-2173228.405051
-2222268.136702
-2271211.868353
-2320635.600003
-1999306.958819
-2047834.690470
-2097322.422121
-2145786.153772
-2195017.885423
-2243929.617073
-2293353.348724
-2341817.080375
-2390888.812026
-2069816.170842
-2119047.902493
-2168023.634143
-2217159.365794
-2266263.097445
-2315366.829096
-2364054.560747
-2413254.292398
-2462198.024049
-2141733.382864
-2189909.114515
-2239204.846166
-2288084.577817
-2337508.309468
-2387092.041119
-2435139.772769
-2484371.504420
-2534243.236071
-2212466.594887
-2261858.326538
-2310514.058189
-2359489.789839
-2408721.521490
-2458433.253141
-2507312.984792
-2556896.716443
-2605424.448094
-2284351.806909
-2333135.538560
-2381919.270211
-2431407.001862
-2480478.733513
-2530126.465164
-2579006.196815
-2627789.928465
-2676925.660116
-2356173.018932
-2404348.750583
-2453708.482234
-2503004.213885
-2552331.945535
-2601339.677186
-2650219.408837
-2699867.140488
-2748970.872139
-2427578.230955
-2476777.962605
-2525529.694256
-2574569.425907
-2624281.157558
-2673000.889209
-2722168.620860
-2771400.352510
-2820600.084161
-2498919.442977
-2548887.174628
-2597030.906279
-2646262.637930
-2695558.369580
-2744630.101231
-2793701.832882
-2842965.564533
-2892005.296184
-2570932.655000
-2619780.386650
-2668916.118301
-2718019.849952
-2767091.581603
-2816387.313254
-2865939.044905
-2914946.776556
-2964210.508206
-2643073.867022
-2692081.598673
-2740321.330324
-2789809.061975
-2838432.793626
-2888592.525276
-2937568.256927
-2986447.988578
-3035711.720229
-2714639.079045
-2763582.810696
-2812334.542346
-2861246.273997
-2910862.005648
-2959805.737299
-3009037.468950
-3057597.200601
-3107308.932252
-2786812.291067
-2835244.022718
-2885019.754369
-2932875.486020
-2982011.217671
-3031146.949322
-3079802.680972
-3128874.412623
-3178650.144274
-2858601.503090
-2907225.234741
-2955944.966392
-3005400.698042
-3053960.429693
-3103032.161344
-3151591.892995
-3201303.624646
-3250567.356297
-2929846.715112
-2978406.446763
-3027702.178414
-3076293.910065
-3125173.641716
-3174117.373367
-3223445.105017
-3272100.836668
-3321268.568319
-3001091.927135
-3050355.658786
-3098435.390437
-3147795.122087
-3197154.853738
-3245426.585389
-3294978.317040
-3343346.048691
-3392993.780342
-3072209.139157
-3121856.870808
-3170416.602459
-3218688.334110
-3268048.065761
-3316703.797412
-3365615.529063
-3414271.260713
-3463630.992364
-3143870.351180
-3192430.082831
-3241117.814482
-3289773.546133
-3339357.277783
-3388141.009434
-3436668.741085
-3485836.472736
-3534684.204387
-3214571.563203
-3263163.294853
-3312331.026504
-3361242.758155
-3409610.489806
-3458298.221457
-3507241.953108
-3556345.684759
-3605321.416409
-3285624.775225
-3334120.506876
-3382744.238527
-3431495.970178
-3480407.701829
-3529063.433479
-3577911.165130
-3626502.896781
-3675062.628432
-3356229.987248
-3405173.718899
-3453893.450549
-3502261.182200
-3551044.913851
-3599636.645502
-3648452.377153
-3696532.108804
-3745603.840454
-3426483.199270
-3475202.930921
-3523346.662572
-3572386.394223
-3621106.125874
-3669505.857524
-3718193.589175
-3766369.320826
-3815217.052477
-3496896.411293
-3545424.142944
-3593887.874594
-3642447.606245
-3691231.337896
-3739087.069547
-3787614.801198
-3836590.532849
-3884382.264500
-3566829.623315
-3615965.354966
-3663373.086617
-3712028.818268
-3760300.549919
-3808796.281570
-3857196.013220
-3905787.744871
-3953899.476522
-3636122.835338
-3684938.566989
-3732762.298640
-3781674.030290
-3829561.761941
-3877961.493592
-3926457.225243
-3975016.956894
-4023800.688545
-3705928.047360
-3753975.779011
-3801895.510662
-3850935.242313
-3898662.973964
-3947542.705615
-3995078.437266
-4043606.168916
-4091621.900567
-3774421.259383
-3822884.991034
-3871412.722685
-3919588.454336
-3967220.185986
-4015651.917637
-4063443.649288
-4111875.380939
-4160275.112590
SCALARS stress_3 float
LOOKUP_TABLE default
123182.312634
8100628.646540
7986318.567366
7871224.488192
7755602.409019
7639372.329845
7522678.250671
7405456.171497
7287770.092323
7169348.013149
7050461.933976
6931127.854802
6811825.775628
6691643.696454
6571253.617280
6450687.538106
6329401.458933
6208563.379759
6086989.300585
5965431.221411
5843777.142237
5721963.063063
5600228.983890
5478350.904716
5356664.825542
5234626.746368
5113372.667194
4992102.588020
4870752.508847
4749962.429673
4629044.350499
4508718.271325
4388984.192151
4269906.112978
4151164.033804
4032693.954630
3914975.875456
3798153.796282
3682179.717108
3566733.637935
3451959.558761
3338593.479587
3226027.400413
3114549.321239
3003679.242065
2894537.162892
2786115.083718
2679245.004544
2573702.925370
2469552.846196
2366538.767022
2265140.687849
2165438.608675
2066920.529501
1970162.450327
1875372.371153
1782166.291979
1690448.212806
1601050.133632
1513204.054458
1427277.975284
1343351.896110
1261345.816936
1181883.737763
1103813.658589
1028255.579415
954729.500241
883283.421067
814093.341894
747495.262720
682913.183546
620011.104372
560133.025198
502110.946024
446856.866851
393554.787677
342652.708503
294294.629329
247824.550155
204282.470981
162244.391808
7897310.743166
-65783.590740
-28081.511567
12116.567607
54170.646781
99408.725955
146198.805129
195612.884303
247650.963476
301881.042650
358415.121824
417253.200998
478427.280172
542097.359346
607895.438519
675885.517693
746307.596867
818681.676041
893391.755215
970469.834389
1049547.913562
1130433.992736
1213752.071910
1298862.151084
1385876.230258
1474778.309431
1565760.388605
1658566.467779
1752940.546953
1848866.626127
1947016.705301
2046478.784474
2147396.863648
2250202.942822
2354209.021996
2459415.101170
2566461.180344
2674307.259517
2783529.338691
2893999.417865
3005573.497039
3118091.576213
3231633.655387
3346279.734560
3461837.813734
3578275.892908
3694793.972082
3812720.051256
3931126.130430
4050060.209603
4169826.288777
4289768.367951
4410270.447125
4531076.526299
4652474.605473
4773936.684646
4895510.763820
5017596.842994
5139650.922168
5261657.001342
5384303.080516
5506485.159689
5628923.238863
5751457.318037
5873223.397211
5995133.476385
6116851.555558
6238169.634732
6359535.713906
6480469.793080
6601243.872254
6721521.951428
6841112.030601
6960638.109775
7079620.188949
7198042.268123
7315936.347297
7433526.426471
7550124.505644
7666258.584818
7782120.663992
7917672.933503
7938163.123841
7958109.314178
7978919.504516
7998977.694853
8019563.885190
8039830.075528
8060112.265865
8080090.456203
103828.122296
84537.931959
65279.741621
46421.551284
27307.360947
8673.170609
-10457.019728
-29011.210066
-47453.400403
-9543.321229
9346.869108
28189.059446
46935.249783
66065.440120
84827.630458
104357.820795
123632.011133
142938.201470
30750.757945
49528.948282
68339.138619
87533.328957
106775.519294
126017.709632
145451.899969
164902.090307
184112.280644
73380.837118
92175.027456
111305.217793
130819.408131
150029.598468
169095.788806
188785.979143
208604.169480
228134.359818
118266.916292
137493.106630
156495.296967
175977.487305
195363.677642
214973.867979
234312.058317
254482.248654
274428.438992
165312.995466
184667.185804
204069.376141
223535.566478
243209.756816
262995.947153
282814.137491
302744.327828
322578.518165
215255.074640
234289.264977
254123.455315
273989.645652
293375.835990
313482.026327
333140.216664
353198.407002
373384.597339
267005.153814
286711.344151
306273.534489
325995.724826
346117.915163
365872.105501
386218.295838
406276.486176
426286.676513
321811.232988
341405.423325
360775.613662
381009.804000
400811.994337
420998.184675
440912.375012
461626.565350
481956.755687
377993.312161
397955.502499
417869.692836
437815.883174
457666.073511
478140.263849
498294.454186
518816.644523
539594.834861
437199.391335
457225.581673
477107.772010
497149.962348
517784.152685
537986.343022
558172.533360
578854.723697
599472.914035
498533.470509
518527.660847
538649.851184
558964.041521
579438.231859
599992.422196
620514.612534
640828.802871
661750.993208
562171.549683
582485.740020
602751.930358
622938.120695
643476.311033
663742.501370
684696.691707
705122.882045
726237.072382
628193.628857
648235.819194
668726.009532
689184.199869
709930.390206
730660.580544
751390.770881
772136.961219
793427.151556
695911.708031
716721.898368
737244.088705
757862.279043
778400.469380
799434.659718
819972.850055
841119.040393
862089.230730
766557.787204
787207.977542
807746.167879
828524.358217
849174.548554
870224.738892
891082.929229
912421.119566
933471.309904
839539.866378
859982.056716
880648.247053
901586.437391
922428.627728
943334.818065
964513.008403
985723.198740
1006997.389078
914137.945552
934724.135890
955614.326227
976408.516564
997634.706902
1018588.897239
1039863.087577
1061073.277914
1082315.468251
991312.024726
1011658.215063
1033076.405401
1053870.595738
1074600.786076
1095970.976413
1117421.166750
1138647.357088
1160193.547425
1070054.103900
1091104.294237
1112010.484575
1133252.674912
1154190.865249
1175785.055587
1197043.245924
1218365.436262
1239943.626599
1151532.183074
1172470.373411
1193360.563748
1214826.754086
1236020.944423
1257183.134761
1278329.325098
1300131.515435
1321277.705773
1234738.262247
1255740.452585
1276822.642922
1298128.833260
1319483.023597
1340757.213934
1362431.404272
1384041.594609
1405555.784947
1319672.341421
1341010.531759
1362172.722096
1383446.912433
1405089.102771
1426379.293108
1447637.483446
1469615.673783
1491369.864121
1406862.420595
1428312.610932
1449506.801270
1471180.991607
1492247.181945
1513889.372282
1535483.562620
1557189.752957
1578975.943294
1496100.499769
1517166.690106
1538616.880444
1560179.070781
1582061.261119
1603319.451456
1625009.641793
1646795.832131
1668726.022468
1587114.578943
1608404.769280
1629918.959618
1651193.149955
1672883.340292
1694557.530630
1716343.720967
1738305.911305
1760204.101642
1679392.658117
1701242.848454
1722629.038791
1744463.229129
1765737.419466
1787635.609804
1809437.800141
1831239.990478
1853218.180816
1774550.737290
1795728.927628
1816811.117965
1839061.308303
1860863.498640
1882585.688977
1904115.879315
1926286.069652
1948152.259990
1870412.816464
1892167.006802
1913505.197139
1935595.387476
1957141.577814
1978719.768151
2000793.958489
2022676.148826
2044910.339164
1968498.895638
1989997.085975
2011799.276313
2033473.466650
2054907.656988
2077141.847325
2098800.037663
2120826.228000
2143188.418337
2067640.974812
2089539.165149
2111293.355487
2133127.545824
2154769.736162
2176939.926499
2198886.116836
2220592.307174
2243002.497511
2169151.053986
2190601.244323
2212515.434661
2234141.624998
2256199.815335
2278178.005673
2300156.196010
2322214.386348
2344512.576685
2271605.133160
2293311.323497
2315049.513834
2336803.704172
2358797.894509
2380952.084847
2402546.275184
2425116.465521
2447078.655859
2375979.212333
2397509.402671
2419167.593008
2441193.783346
2462995.973683
2484974.164020
2507224.354358
2529170.544695
2551244.735033
2480977.291507
2502779.481845
2524709.672182
2546751.862519
2568282.052857
2590628.243194
2612814.433532
2634744.623869
2657106.814207
2587831.370681
2609585.561018
2631579.751356
2653621.941693
2675408.132031
2697706.322368
2719620.512706
2741662.703043
2763928.893380
2695773.449855
2717591.640192
2739601.830530
2761500.020867
2783558.211205
2805504.401542
2827738.591879
2849876.782217
2871934.972554
2805331.529029
2826893.719366
2848999.909704
2871106.100041
2893036.290378
2914790.480716
2937344.671053
2959450.861391
2981525.051728
2915721.608203
2937731.798540
2959037.988877
2981464.179215
3003346.369552
3025532.559890
3047494.750227
3069712.940564
3092075.130902
3027471.687376
3049081.877714
3070996.068051
3092894.258389
3114984.448726
3137170.639063
3159132.829401
3181623.019738
3203505.210076
3140021.766550
3161727.956888
3183482.147225
3205796.337562
3227566.527900
3249768.718237
3272018.908575
3294045.098912
3316295.289249
3253403.845724
3275238.036061
3297264.226399
3319178.416736
3341140.607074
3363438.797411
3385736.987748
3407683.178086
3429949.368423
3367873.924898
3389868.115235
3412134.305573
3433744.495910
3455754.686247
3477908.876585
3500111.066922
3522217.257260
3544307.447597
3483512.004072
3505346.194409
3527340.384746
3549190.575084
3571312.765421
3593274.955759
3615797.146096
3637583.336434
3659785.526771
3599566.083245
3621352.273583
3643586.463920
3665516.654258
3687686.844595
3709681.034933
3731595.225270
3753813.415607
3776319.605945
3716740.162419
3738558.352757
3760536.543094
3782546.733432
3804428.923769
3826711.114106
3848609.304444
3870779.494781
3892949.685119
3834442.241593
3856372.431931
3878414.622268
3900312.812605
3922067.002943
3944445.193280
3966183.383618
3988593.573955
4010651.764292
3952784.320767
3974570.511104
3996468.701442
4018462.891779
4040425.082117
4062291.272454
4084605.462791
4106711.653129
4128881.843466
4072086.399941
4093872.590278
4115578.780616
4137268.970953
4159343.161290
4181193.351628
4203523.541965
4225485.732303
4247751.922640
4191324.479115
4213030.669452
4235168.859789
4256939.050127
4278725.240464
4301087.430802
4322745.621139
4344643.811477
4367086.001814
4311618.558288
4333308.748626
4355046.938963
4376721.129301
4398683.319638
4420805.509976
4442831.700313
4464761.890650
4487060.080988
4432248.637462
4453634.827800
4475485.018137
4497207.208475
4519393.398812
4541163.589149
4563141.779487
4584991.969824
4607402.160162
4552750.716636
4574408.906974
4596435.097311
4618141.287648
4640423.477986
4661793.668323
4684027.858661
4705750.048998
4727696.239335
4673940.795810
4695726.986147
4717513.176485
4739379.366822
4761149.557160
4782791.747497
4805105.937834
4826652.128172
4848822.318509
4795386.874984
4817141.065321
4838847.255659
4860553.445996
4882739.636333
4904317.826671
4926264.017008
4948226.207346
4969900.397683
4917472.954158
4938987.144495
4960773.334832
4982351.525170
5004073.715507
5025987.905845
5047790.096182
5069544.286519
5091506.476857
5038999.033331
5060961.223669
5082443.414006
5103861.604344
5125615.794681
5147545.985018
5169348.175356
5191374.365693
5212840.556031
5161245.112505
5182727.302843
5204417.493180
5226203.683518
5248037.873855
5269520.064192
5291098.254530
5313124.444867
5334606.635205
5283491.191679
5304909.382017
5326487.572354
5348273.762691
5370059.953029
5391734.143366
5413200.333704
5434842.524041
5456628.714378
5405673.270853
5427331.461190
5448717.651528
5470215.841865
5491906.032203
5513532.222540
5535334.412877
5556896.603215
5578474.793552
5527967.350027
5549465.540364
5570835.730702
5592365.921039
5614104.111376
5635666.301714
5657068.492051
5678806.682389
5700496.872726
5650389.429201
5671695.619538
5693273.809875
5714564.000213
5736030.190550
5757784.380888
5779170.571225
5800924.761562
5822134.951900
5772363.508374
5793797.698712
5815135.889049
5836602.079387
5857828.269724
5879486.460061
5900920.650399
5922258.840736
5944557.031074
5894449.587548
5915739.777886
5936901.968223
5958576.158560
5979818.348898
6001236.539235
6022526.729573
6043992.919910
6065779.110248
6016263.666722
6037601.857059
6058876.047397
6080134.237734
6101504.428072
6123098.618409
6144132.808747
6165790.999084
6187017.189421
6137917.745896
6159191.936233
6180594.126571
6201612.316908
6223206.507246
6244480.697583
6265530.887920
6287221.078258
6308287.268595
6259411.825070
6280670.015407
6301992.205745
6323186.396082
6344252.586419
6365942.776757
6387008.967094
6408155.157432
6429381.347769
6380425.904244
6401620.094581
6422894.284918
6444040.475256
6465314.665593
6486364.855931
6507911.046268
6529025.236605
6550107.426943
6501519.983417
6522666.173755
6543748.364092
6565134.554430
6586008.744767
6607138.935104
6628141.125442
6649335.315779
6670481.506117
6622118.062591
6642896.252929
6664426.443266
6685268.633603
6706462.823941
6727465.014278
6748355.204616
6769357.394953
6790695.585291
6742204.141765
6762998.332102
6784176.522440
6805370.712777
6826212.903115
6847327.093452
6868265.283790
6889459.474127
6910349.664464
6862290.220939
6882940.411276
6903942.601614
6925104.791951
6945818.982289
6966789.172626
6987727.362963
7008793.553301
7029795.743638
6981080.300113
7002402.490450
7023260.680788
7044022.871125
7064897.061462
7085963.251800
7106421.442137
7127695.632475
7148681.822812
7100398.379287
7121128.569624
7141858.759961
7163164.950299
7183575.140636
7204353.330974
7225259.521311
7246021.711648
7266799.901986
7218708.458460
7239806.648798
7260424.839135
7281027.029473
7301949.219810
7322583.410147
7343569.600485
7363899.790822
7384821.981160
7336682.537634
7357476.727972
7378110.918309
7398649.108646
7419379.298984
7440013.489321
7460823.679659
7481313.869996
7502188.060333
7454240.616808
7474762.807145
7495108.997483
7515951.187820
7536745.378158
7557299.568495
7577469.758832
7598599.949170
7619186.139507
7570886.695982
7591456.886319
7612011.076657
7632661.266994
7653007.457331
7673705.647669
7694339.838006
7714750.028344
7735160.218681
7686844.775156
7707654.965493
7728065.155830
7748507.346168
7768629.536505
7789503.726843
7809881.917180
7830516.107518
7851038.297855
7802610.854329
7823325.044667
7843431.235004
7863905.425342
7884139.615679
7904741.806017
7925199.996354
7945786.186691
7965940.377029
