# vtk DataFile Version 2.0
Generated volume Mesh
ASCII
DATASET UNSTRUCTURED_GRID
POINTS 891 float
0.005000 0.100000 0.000000
0.005000 0.000000 0.000000
0.005000 0.001250 0.000000
0.005000 0.002500 0.000000
0.005000 0.003750 0.000000
0.005000 0.005000 0.000000
0.005000 0.006250 0.000000
0.005000 0.007500 0.000000
0.005000 0.008750 0.000000
0.005000 0.010000 0.000000
0.005000 0.011250 0.000000
0.005000 0.012500 0.000000
0.005000 0.013750 0.000000
0.005000 0.015000 0.000000
0.005000 0.016250 0.000000
0.005000 0.017500 0.000000
0.005000 0.018750 0.000000
0.005000 0.020000 0.000000
0.005000 0.021250 0.000000
0.005000 0.022500 0.000000
0.005000 0.023750 0.000000
0.005000 0.025000 0.000000
0.005000 0.026250 0.000000
0.005000 0.027500 0.000000
0.005000 0.028750 0.000000
0.005000 0.030000 0.000000
0.005000 0.031250 0.000000
0.005000 0.032500 0.000000
0.005000 0.033750 0.000000
0.005000 0.035000 0.000000
0.005000 0.036250 0.000000
0.005000 0.037500 0.000000
0.005000 0.038750 0.000000
0.005000 0.040000 0.000000
0.005000 0.041250 0.000000
0.005000 0.042500 0.000000
0.005000 0.043750 0.000000
0.005000 0.045000 0.000000
0.005000 0.046250 0.000000
0.005000 0.047500 0.000000
0.005000 0.048750 0.000000
0.005000 0.050000 0.000000
0.005000 0.051250 0.000000
0.005000 0.052500 0.000000
0.005000 0.053750 0.000000
0.005000 0.055000 0.000000
0.005000 0.056250 0.000000
0.005000 0.057500 0.000000
0.005000 0.058750 0.000000
0.005000 0.060000 0.000000
0.005000 0.061250 0.000000
0.005000 0.062500 0.000000
0.005000 0.063750 0.000000
0.005000 0.065000 0.000000
0.005000 0.066250 0.000000
0.005000 0.067500 0.000000
0.005000 0.068750 0.000000
0.005000 0.070000 0.000000
0.005000 0.071250 0.000000
0.005000 0.072500 0.000000
0.005000 0.073750 0.000000
0.005000 0.075000 0.000000
0.005000 0.076250 0.000000
0.005000 0.077500 0.000000
0.005000 0.078750 0.000000
0.005000 0.080000 0.000000
0.005000 0.081250 0.000000
0.005000 0.082500 0.000000
0.005000 0.083750 0.000000
0.005000 0.085000 0.000000
0.005000 0.086250 0.000000
0.005000 0.087500 0.000000
0.005000 0.088750 0.000000
0.005000 0.090000 0.000000
0.005000 0.091250 0.000000
0.005000 0.092500 0.000000
0.005000 0.093750 0.000000
0.005000 0.095000 0.000000
0.005000 0.096250 0.000000
0.005000 0.097500 0.000000
0.005000 0.098750 0.000000
0.000000 0.000000 0.000000
0.000000 0.100000 0.000000
0.000000 0.098750 0.000000
0.000000 0.097500 0.000000
0.000000 0.096250 0.000000
0.000000 0.095000 0.000000
0.000000 0.093750 0.000000
0.000000 0.092500 0.000000
0.000000 0.091250 0.000000
0.000000 0.090000 0.000000
0.000000 0.088750 0.000000
0.000000 0.087500 0.000000
0.000000 0.086250 0.000000
0.000000 0.085000 0.000000
0.000000 0.083750 0.000000
0.000000 0.082500 0.000000
0.000000 0.081250 0.000000
0.000000 0.080000 0.000000
0.000000 0.078750 0.000000
0.000000 0.077500 0.000000
0.000000 0.076250 0.000000
0.000000 0.075000 0.000000
0.000000 0.073750 0.000000
0.000000 0.072500 0.000000
0.000000 0.071250 0.000000
0.000000 0.070000 0.000000
0.000000 0.068750 0.000000
0.000000 0.067500 0.000000
0.000000 0.066250 0.000000
0.000000 0.065000 0.000000
0.000000 0.063750 0.000000
0.000000 0.062500 0.000000
0.000000 0.061250 0.000000
0.000000 0.060000 0.000000
0.000000 0.058750 0.000000
0.000000 0.057500 0.000000
0.000000 0.056250 0.000000
0.000000 0.055000 0.000000
0.000000 0.053750 0.000000
0.000000 0.052500 0.000000
0.000000 0.051250 0.000000
0.000000 0.050000 0.000000
0.000000 0.048750 0.000000
0.000000 0.047500 0.000000
0.000000 0.046250 0.000000
0.000000 0.045000 0.000000
0.000000 0.043750 0.000000
0.000000 0.042500 0.000000
0.000000 0.041250 0.000000
0.000000 0.040000 0.000000
0.000000 0.038750 0.000000
0.000000 0.037500 0.000000
0.000000 0.036250 0.000000
0.000000 0.035000 0.000000
0.000000 0.033750 0.000000
0.000000 0.032500 0.000000
0.000000 0.031250 0.000000
0.000000 0.030000 0.000000
0.000000 0.028750 0.000000
0.000000 0.027500 0.000000
0.000000 0.026250 0.000000
0.000000 0.025000 0.000000
0.000000 0.023750 0.000000
0.000000 0.022500 0.000000
0.000000 0.021250 0.000000
0.000000 0.020000 0.000000
0.000000 0.018750 0.000000
0.000000 0.017500 0.000000
0.000000 0.016250 0.000000
0.000000 0.015000 0.000000
0.000000 0.013750 0.000000
0.000000 0.012500 0.000000
0.000000 0.011250 0.000000
0.000000 0.010000 0.000000
0.000000 0.008750 0.000000
0.000000 0.007500 0.000000
0.000000 0.006250 0.000000
0.000000 0.005000 0.000000
0.000000 0.003750 0.000000
0.000000 0.002500 0.000000
0.000000 0.001250 0.000000
0.000500 0.000000 0.000000
0.001000 0.000000 0.000000
0.001500 0.000000 0.000000
0.002000 0.000000 0.000000
0.002500 0.000000 0.000000
0.003000 0.000000 0.000000
0.003500 0.000000 0.000000
0.004000 0.000000 0.000000
0.004500 0.000000 0.000000
0.004500 0.100000 0.000000
0.004000 0.100000 0.000000
0.003500 0.100000 0.000000
0.003000 0.100000 0.000000
0.002500 0.100000 0.000000
0.002000 0.100000 0.000000
0.001500 0.100000 0.000000
0.001000 0.100000 0.000000
0.000500 0.100000 0.000000
0.000500 0.098750 0.000000
0.001000 0.098750 0.000000
0.001500 0.098750 0.000000
0.002000 0.098750 0.000000
0.002500 0.098750 0.000000
0.003000 0.098750 0.000000
0.003500 0.098750 0.000000
0.004000 0.098750 0.000000
0.004500 0.098750 0.000000
0.000500 0.097500 0.000000
0.001000 0.097500 0.000000
0.001500 0.097500 0.000000
0.002000 0.097500 0.000000
0.002500 0.097500 0.000000
0.003000 0.097500 0.000000
0.003500 0.097500 0.000000
0.004000 0.097500 0.000000
0.004500 0.097500 0.000000
0.000500 0.096250 0.000000
0.001000 0.096250 0.000000
0.001500 0.096250 0.000000
0.002000 0.096250 0.000000
0.002500 0.096250 0.000000
0.003000 0.096250 0.000000
0.003500 0.096250 0.000000
0.004000 0.096250 0.000000
0.004500 0.096250 0.000000
0.000500 0.095000 0.000000
0.001000 0.095000 0.000000
0.001500 0.095000 0.000000
0.002000 0.095000 0.000000
0.002500 0.095000 0.000000
0.003000 0.095000 0.000000
0.003500 0.095000 0.000000
0.004000 0.095000 0.000000
0.004500 0.095000 0.000000
0.000500 0.093750 0.000000
0.001000 0.093750 0.000000
0.001500 0.093750 0.000000
0.002000 0.093750 0.000000
0.002500 0.093750 0.000000
0.003000 0.093750 0.000000
0.003500 0.093750 0.000000
0.004000 0.093750 0.000000
0.004500 0.093750 0.000000
0.000500 0.092500 0.000000
0.001000 0.092500 0.000000
0.001500 0.092500 0.000000
0.002000 0.092500 0.000000
0.002500 0.092500 0.000000
0.003000 0.092500 0.000000
0.003500 0.092500 0.000000
0.004000 0.092500 0.000000
0.004500 0.092500 0.000000
0.000500 0.091250 0.000000
0.001000 0.091250 0.000000
0.001500 0.091250 0.000000
0.002000 0.091250 0.000000
0.002500 0.091250 0.000000
0.003000 0.091250 0.000000
0.003500 0.091250 0.000000
0.004000 0.091250 0.000000
0.004500 0.091250 0.000000
0.000500 0.090000 0.000000
0.001000 0.090000 0.000000
0.001500 0.090000 0.000000
0.002000 0.090000 0.000000
0.002500 0.090000 0.000000
0.003000 0.090000 0.000000
0.003500 0.090000 0.000000
0.004000 0.090000 0.000000
0.004500 0.090000 0.000000
0.000500 0.088750 0.000000
0.001000 0.088750 0.000000
0.001500 0.088750 0.000000
0.002000 0.088750 0.000000
0.002500 0.088750 0.000000
0.003000 0.088750 0.000000
0.003500 0.088750 0.000000
0.004000 0.088750 0.000000
0.004500 0.088750 0.000000
0.000500 0.087500 0.000000
0.001000 0.087500 0.000000
0.001500 0.087500 0.000000
0.002000 0.087500 0.000000
0.002500 0.087500 0.000000
0.003000 0.087500 0.000000
0.003500 0.087500 0.000000
0.004000 0.087500 0.000000
0.004500 0.087500 0.000000
0.000500 0.086250 0.000000
0.001000 0.086250 0.000000
0.001500 0.086250 0.000000
0.002000 0.086250 0.000000
0.002500 0.086250 0.000000
0.003000 0.086250 0.000000
0.003500 0.086250 0.000000
0.004000 0.086250 0.000000
0.004500 0.086250 0.000000
0.000500 0.085000 0.000000
0.001000 0.085000 0.000000
0.001500 0.085000 0.000000
0.002000 0.085000 0.000000
0.002500 0.085000 0.000000
0.003000 0.085000 0.000000
0.003500 0.085000 0.000000
0.004000 0.085000 0.000000
0.004500 0.085000 0.000000
0.000500 0.083750 0.000000
0.001000 0.083750 0.000000
0.001500 0.083750 0.000000
0.002000 0.083750 0.000000
0.002500 0.083750 0.000000
0.003000 0.083750 0.000000
0.003500 0.083750 0.000000
0.004000 0.083750 0.000000
0.004500 0.083750 0.000000
0.000500 0.082500 0.000000
0.001000 0.082500 0.000000
0.001500 0.082500 0.000000
0.002000 0.082500 0.000000
0.002500 0.082500 0.000000
0.003000 0.082500 0.000000
0.003500 0.082500 0.000000
0.004000 0.082500 0.000000
0.004500 0.082500 0.000000
0.000500 0.081250 0.000000
0.001000 0.081250 0.000000
0.001500 0.081250 0.000000
0.002000 0.081250 0.000000
0.002500 0.081250 0.000000
0.003000 0.081250 0.000000
0.003500 0.081250 0.000000
0.004000 0.081250 0.000000
0.004500 0.081250 0.000000
0.000500 0.080000 0.000000
0.001000 0.080000 0.000000
0.001500 0.080000 0.000000
0.002000 0.080000 0.000000
0.002500 0.080000 0.000000
0.003000 0.080000 0.000000
0.003500 0.080000 0.000000
0.004000 0.080000 0.000000
0.004500 0.080000 0.000000
0.000500 0.078750 0.000000
0.001000 0.078750 0.000000
0.001500 0.078750 0.000000
0.002000 0.078750 0.000000
0.002500 0.078750 0.000000
0.003000 0.078750 0.000000
0.003500 0.078750 0.000000
0.004000 0.078750 0.000000
0.004500 0.078750 0.000000
0.000500 0.077500 0.000000
0.001000 0.077500 0.000000
0.001500 0.077500 0.000000
0.002000 0.077500 0.000000
0.002500 0.077500 0.000000
0.003000 0.077500 0.000000
0.003500 0.077500 0.000000
0.004000 0.077500 0.000000
0.004500 0.077500 0.000000
0.000500 0.076250 0.000000
0.001000 0.076250 0.000000
0.001500 0.076250 0.000000
0.002000 0.076250 0.000000
0.002500 0.076250 0.000000
0.003000 0.076250 0.000000
0.003500 0.076250 0.000000
0.004000 0.076250 0.000000
0.004500 0.076250 0.000000
0.000500 0.075000 0.000000
0.001000 0.075000 0.000000
0.001500 0.075000 0.000000
0.002000 0.075000 0.000000
0.002500 0.075000 0.000000
0.003000 0.075000 0.000000
0.003500 0.075000 0.000000
0.004000 0.075000 0.000000
0.004500 0.075000 0.000000
0.000500 0.073750 0.000000
0.001000 0.073750 0.000000
0.001500 0.073750 0.000000
0.002000 0.073750 0.000000
0.002500 0.073750 0.000000
0.003000 0.073750 0.000000
0.003500 0.073750 0.000000
0.004000 0.073750 0.000000
0.004500 0.073750 0.000000
0.000500 0.072500 0.000000
0.001000 0.072500 0.000000
0.001500 0.072500 0.000000
0.002000 0.072500 0.000000
0.002500 0.072500 0.000000
0.003000 0.072500 0.000000
0.003500 0.072500 0.000000
0.004000 0.072500 0.000000
0.004500 0.072500 0.000000
0.000500 0.071250 0.000000
0.001000 0.071250 0.000000
0.001500 0.071250 0.000000
0.002000 0.071250 0.000000
0.002500 0.071250 0.000000
0.003000 0.071250 0.000000
0.003500 0.071250 0.000000
0.004000 0.071250 0.000000
0.004500 0.071250 0.000000
0.000500 0.070000 0.000000
0.001000 0.070000 0.000000
0.001500 0.070000 0.000000
0.002000 0.070000 0.000000
0.002500 0.070000 0.000000
0.003000 0.070000 0.000000
0.003500 0.070000 0.000000
0.004000 0.070000 0.000000
0.004500 0.070000 0.000000
0.000500 0.068750 0.000000
0.001000 0.068750 0.000000
0.001500 0.068750 0.000000
0.002000 0.068750 0.000000
0.002500 0.068750 0.000000
0.003000 0.068750 0.000000
0.003500 0.068750 0.000000
0.004000 0.068750 0.000000
0.004500 0.068750 0.000000
0.000500 0.067500 0.000000
0.001000 0.067500 0.000000
0.001500 0.067500 0.000000
0.002000 0.067500 0.000000
0.002500 0.067500 0.000000
0.003000 0.067500 0.000000
0.003500 0.067500 0.000000
0.004000 0.067500 0.000000
0.004500 0.067500 0.000000
0.000500 0.066250 0.000000
0.001000 0.066250 0.000000
0.001500 0.066250 0.000000
0.002000 0.066250 0.000000
0.002500 0.066250 0.000000
0.003000 0.066250 0.000000
0.003500 0.066250 0.000000
0.004000 0.066250 0.000000
0.004500 0.066250 0.000000
0.000500 0.065000 0.000000
0.001000 0.065000 0.000000
0.001500 0.065000 0.000000
0.002000 0.065000 0.000000
0.002500 0.065000 0.000000
0.003000 0.065000 0.000000
0.003500 0.065000 0.000000
0.004000 0.065000 0.000000
0.004500 0.065000 0.000000
0.000500 0.063750 0.000000
0.001000 0.063750 0.000000
0.001500 0.063750 0.000000
0.002000 0.063750 0.000000
0.002500 0.063750 0.000000
0.003000 0.063750 0.000000
0.003500 0.063750 0.000000
0.004000 0.063750 0.000000
0.004500 0.063750 0.000000
0.000500 0.062500 0.000000
0.001000 0.062500 0.000000
0.001500 0.062500 0.000000
0.002000 0.062500 0.000000
0.002500 0.062500 0.000000
0.003000 0.062500 0.000000
0.003500 0.062500 0.000000
0.004000 0.062500 0.000000
0.004500 0.062500 0.000000
0.000500 0.061250 0.000000
0.001000 0.061250 0.000000
0.001500 0.061250 0.000000
0.002000 0.061250 0.000000
0.002500 0.061250 0.000000
0.003000 0.061250 0.000000
0.003500 0.061250 0.000000
0.004000 0.061250 0.000000
0.004500 0.061250 0.000000
0.000500 0.060000 0.000000
0.001000 0.060000 0.000000
0.001500 0.060000 0.000000
0.002000 0.060000 0.000000
0.002500 0.060000 0.000000
0.003000 0.060000 0.000000
0.003500 0.060000 0.000000
0.004000 0.060000 0.000000
0.004500 0.060000 0.000000
0.000500 0.058750 0.000000
0.001000 0.058750 0.000000
0.001500 0.058750 0.000000
0.002000 0.058750 0.000000
0.002500 0.058750 0.000000
0.003000 0.058750 0.000000
0.003500 0.058750 0.000000
0.004000 0.058750 0.000000
0.004500 0.058750 0.000000
0.000500 0.057500 0.000000
0.001000 0.057500 0.000000
0.001500 0.057500 0.000000
0.002000 0.057500 0.000000
0.002500 0.057500 0.000000
0.003000 0.057500 0.000000
0.003500 0.057500 0.000000
0.004000 0.057500 0.000000
0.004500 0.057500 0.000000
0.000500 0.056250 0.000000
0.001000 0.056250 0.000000
0.001500 0.056250 0.000000
0.002000 0.056250 0.000000
0.002500 0.056250 0.000000
0.003000 0.056250 0.000000
0.003500 0.056250 0.000000
0.004000 0.056250 0.000000
0.004500 0.056250 0.000000
0.000500 0.055000 0.000000
0.001000 0.055000 0.000000
0.001500 0.055000 0.000000
0.002000 0.055000 0.000000
0.002500 0.055000 0.000000
0.003000 0.055000 0.000000
0.003500 0.055000 0.000000
0.004000 0.055000 0.000000
0.004500 0.055000 0.000000
0.000500 0.053750 0.000000
0.001000 0.053750 0.000000
0.001500 0.053750 0.000000
0.002000 0.053750 0.000000
0.002500 0.053750 0.000000
0.003000 0.053750 0.000000
0.003500 0.053750 0.000000
0.004000 0.053750 0.000000
0.004500 0.053750 0.000000
0.000500 0.052500 0.000000
0.001000 0.052500 0.000000
0.001500 0.052500 0.000000
0.002000 0.052500 0.000000
0.002500 0.052500 0.000000
0.003000 0.052500 0.000000
0.003500 0.052500 0.000000
0.004000 0.052500 0.000000
0.004500 0.052500 0.000000
0.000500 0.051250 0.000000
0.001000 0.051250 0.000000
0.001500 0.051250 0.000000
0.002000 0.051250 0.000000
0.002500 0.051250 0.000000
0.003000 0.051250 0.000000
0.003500 0.051250 0.000000
0.004000 0.051250 0.000000
0.004500 0.051250 0.000000
0.000500 0.050000 0.000000
0.001000 0.050000 0.000000
0.001500 0.050000 0.000000
0.002000 0.050000 0.000000
0.002500 0.050000 0.000000
0.003000 0.050000 0.000000
0.003500 0.050000 0.000000
0.004000 0.050000 0.000000
0.004500 0.050000 0.000000
0.000500 0.048750 0.000000
0.001000 0.048750 0.000000
0.001500 0.048750 0.000000
0.002000 0.048750 0.000000
0.002500 0.048750 0.000000
0.003000 0.048750 0.000000
0.003500 0.048750 0.000000
0.004000 0.048750 0.000000
0.004500 0.048750 0.000000
0.000500 0.047500 0.000000
0.001000 0.047500 0.000000
0.001500 0.047500 0.000000
0.002000 0.047500 0.000000
0.002500 0.047500 0.000000
0.003000 0.047500 0.000000
0.003500 0.047500 0.000000
0.004000 0.047500 0.000000
0.004500 0.047500 0.000000
0.000500 0.046250 0.000000
0.001000 0.046250 0.000000
0.001500 0.046250 0.000000
0.002000 0.046250 0.000000
0.002500 0.046250 0.000000
0.003000 0.046250 0.000000
0.003500 0.046250 0.000000
0.004000 0.046250 0.000000
0.004500 0.046250 0.000000
0.000500 0.045000 0.000000
0.001000 0.045000 0.000000
0.001500 0.045000 0.000000
0.002000 0.045000 0.000000
0.002500 0.045000 0.000000
0.003000 0.045000 0.000000
0.003500 0.045000 0.000000
0.004000 0.045000 0.000000
0.004500 0.045000 0.000000
0.000500 0.043750 0.000000
0.001000 0.043750 0.000000
0.001500 0.043750 0.000000
0.002000 0.043750 0.000000
0.002500 0.043750 0.000000
0.003000 0.043750 0.000000
0.003500 0.043750 0.000000
0.004000 0.043750 0.000000
0.004500 0.043750 0.000000
0.000500 0.042500 0.000000
0.001000 0.042500 0.000000
0.001500 0.042500 0.000000
0.002000 0.042500 0.000000
0.002500 0.042500 0.000000
0.003000 0.042500 0.000000
0.003500 0.042500 0.000000
0.004000 0.042500 0.000000
0.004500 0.042500 0.000000
0.000500 0.041250 0.000000
0.001000 0.041250 0.000000
0.001500 0.041250 0.000000
0.002000 0.041250 0.000000
0.002500 0.041250 0.000000
0.003000 0.041250 0.000000
0.003500 0.041250 0.000000
0.004000 0.041250 0.000000
0.004500 0.041250 0.000000
0.000500 0.040000 0.000000
0.001000 0.040000 0.000000
0.001500 0.040000 0.000000
0.002000 0.040000 0.000000
0.002500 0.040000 0.000000
0.003000 0.040000 0.000000
0.003500 0.040000 0.000000
0.004000 0.040000 0.000000
0.004500 0.040000 0.000000
0.000500 0.038750 0.000000
0.001000 0.038750 0.000000
0.001500 0.038750 0.000000
0.002000 0.038750 0.000000
0.002500 0.038750 0.000000
0.003000 0.038750 0.000000
0.003500 0.038750 0.000000
0.004000 0.038750 0.000000
0.004500 0.038750 0.000000
0.000500 0.037500 0.000000
0.001000 0.037500 0.000000
0.001500 0.037500 0.000000
0.002000 0.037500 0.000000
0.002500 0.037500 0.000000
0.003000 0.037500 0.000000
0.003500 0.037500 0.000000
0.004000 0.037500 0.000000
0.004500 0.037500 0.000000
0.000500 0.036250 0.000000
0.001000 0.036250 0.000000
0.001500 0.036250 0.000000
0.002000 0.036250 0.000000
0.002500 0.036250 0.000000
0.003000 0.036250 0.000000
0.003500 0.036250 0.000000
0.004000 0.036250 0.000000
0.004500 0.036250 0.000000
0.000500 0.035000 0.000000
0.001000 0.035000 0.000000
0.001500 0.035000 0.000000
0.002000 0.035000 0.000000
0.002500 0.035000 0.000000
0.003000 0.035000 0.000000
0.003500 0.035000 0.000000
0.004000 0.035000 0.000000
0.004500 0.035000 0.000000
0.000500 0.033750 0.000000
0.001000 0.033750 0.000000
0.001500 0.033750 0.000000
0.002000 0.033750 0.000000
0.002500 0.033750 0.000000
0.003000 0.033750 0.000000
0.003500 0.033750 0.000000
0.004000 0.033750 0.000000
0.004500 0.033750 0.000000
0.000500 0.032500 0.000000
0.001000 0.032500 0.000000
0.001500 0.032500 0.000000
0.002000 0.032500 0.000000
0.002500 0.032500 0.000000
0.003000 0.032500 0.000000
0.003500 0.032500 0.000000
0.004000 0.032500 0.000000
0.004500 0.032500 0.000000
0.000500 0.031250 0.000000
0.001000 0.031250 0.000000
0.001500 0.031250 0.000000
0.002000 0.031250 0.000000
0.002500 0.031250 0.000000
0.003000 0.031250 0.000000
0.003500 0.031250 0.000000
0.004000 0.031250 0.000000
0.004500 0.031250 0.000000
0.000500 0.030000 0.000000
0.001000 0.030000 0.000000
0.001500 0.030000 0.000000
0.002000 0.030000 0.000000
0.002500 0.030000 0.000000
0.003000 0.030000 0.000000
0.003500 0.030000 0.000000
0.004000 0.030000 0.000000
0.004500 0.030000 0.000000
0.000500 0.028750 0.000000
0.001000 0.028750 0.000000
0.001500 0.028750 0.000000
0.002000 0.028750 0.000000
0.002500 0.028750 0.000000
0.003000 0.028750 0.000000
0.003500 0.028750 0.000000
0.004000 0.028750 0.000000
0.004500 0.028750 0.000000
0.000500 0.027500 0.000000
0.001000 0.027500 0.000000
0.001500 0.027500 0.000000
0.002000 0.027500 0.000000
0.002500 0.027500 0.000000
0.003000 0.027500 0.000000
0.003500 0.027500 0.000000
0.004000 0.027500 0.000000
0.004500 0.027500 0.000000
0.000500 0.026250 0.000000
0.001000 0.026250 0.000000
0.001500 0.026250 0.000000
0.002000 0.026250 0.000000
0.002500 0.026250 0.000000
0.003000 0.026250 0.000000
0.003500 0.026250 0.000000
0.004000 0.026250 0.000000
0.004500 0.026250 0.000000
0.000500 0.025000 0.000000
0.001000 0.025000 0.000000
0.001500 0.025000 0.000000
0.002000 0.025000 0.000000
0.002500 0.025000 0.000000
0.003000 0.025000 0.000000
0.003500 0.025000 0.000000
0.004000 0.025000 0.000000
0.004500 0.025000 0.000000
0.000500 0.023750 0.000000
0.001000 0.023750 0.000000
0.001500 0.023750 0.000000
0.002000 0.023750 0.000000
0.002500 0.023750 0.000000
0.003000 0.023750 0.000000
0.003500 0.023750 0.000000
0.004000 0.023750 0.000000
0.004500 0.023750 0.000000
0.000500 0.022500 0.000000
0.001000 0.022500 0.000000
0.001500 0.022500 0.000000
0.002000 0.022500 0.000000
0.002500 0.022500 0.000000
0.003000 0.022500 0.000000
0.003500 0.022500 0.000000
0.004000 0.022500 0.000000
0.004500 0.022500 0.000000
0.000500 0.021250 0.000000
0.001000 0.021250 0.000000
0.001500 0.021250 0.000000
0.002000 0.021250 0.000000
0.002500 0.021250 0.000000
0.003000 0.021250 0.000000
0.003500 0.021250 0.000000
0.004000 0.021250 0.000000
0.004500 0.021250 0.000000
0.000500 0.020000 0.000000
0.001000 0.020000 0.000000
0.001500 0.020000 0.000000
0.002000 0.020000 0.000000
0.002500 0.020000 0.000000
0.003000 0.020000 0.000000
0.003500 0.020000 0.000000
0.004000 0.020000 0.000000
0.004500 0.020000 0.000000
0.000500 0.018750 0.000000
0.001000 0.018750 0.000000
0.001500 0.018750 0.000000
0.002000 0.018750 0.000000
0.002500 0.018750 0.000000
0.003000 0.018750 0.000000
0.003500 0.018750 0.000000
0.004000 0.018750 0.000000
0.004500 0.018750 0.000000
0.000500 0.017500 0.000000
0.001000 0.017500 0.000000
0.001500 0.017500 0.000000
0.002000 0.017500 0.000000
0.002500 0.017500 0.000000
0.003000 0.017500 0.000000
0.003500 0.017500 0.000000
0.004000 0.017500 0.000000
0.004500 0.017500 0.000000
0.000500 0.016250 0.000000
0.001000 0.016250 0.000000
0.001500 0.016250 0.000000
0.002000 0.016250 0.000000
0.002500 0.016250 0.000000
0.003000 0.016250 0.000000
0.003500 0.016250 0.000000
0.004000 0.016250 0.000000
0.004500 0.016250 0.000000
0.000500 0.015000 0.000000
0.001000 0.015000 0.000000
0.001500 0.015000 0.000000
0.002000 0.015000 0.000000
0.002500 0.015000 0.000000
0.003000 0.015000 0.000000
0.003500 0.015000 0.000000
0.004000 0.015000 0.000000
0.004500 0.015000 0.000000
0.000500 0.013750 0.000000
0.001000 0.013750 0.000000
0.001500 0.013750 0.000000
0.002000 0.013750 0.000000
0.002500 0.013750 0.000000
0.003000 0.013750 0.000000
0.003500 0.013750 0.000000
0.004000 0.013750 0.000000
0.004500 0.013750 0.000000
0.000500 0.012500 0.000000
0.001000 0.012500 0.000000
0.001500 0.012500 0.000000
0.002000 0.012500 0.000000
0.002500 0.012500 0.000000
0.003000 0.012500 0.000000
0.003500 0.012500 0.000000
0.004000 0.012500 0.000000
0.004500 0.012500 0.000000
0.000500 0.011250 0.000000
0.001000 0.011250 0.000000
0.001500 0.011250 0.000000
0.002000 0.011250 0.000000
0.002500 0.011250 0.000000
0.003000 0.011250 0.000000
0.003500 0.011250 0.000000
0.004000 0.011250 0.000000
0.004500 0.011250 0.000000
0.000500 0.010000 0.000000
0.001000 0.010000 0.000000
0.001500 0.010000 0.000000
0.002000 0.010000 0.000000
0.002500 0.010000 0.000000
0.003000 0.010000 0.000000
0.003500 0.010000 0.000000
0.004000 0.010000 0.000000
0.004500 0.010000 0.000000
0.000500 0.008750 0.000000
0.001000 0.008750 0.000000
0.001500 0.008750 0.000000
0.002000 0.008750 0.000000
0.002500 0.008750 0.000000
0.003000 0.008750 0.000000
0.003500 0.008750 0.000000
0.004000 0.008750 0.000000
0.004500 0.008750 0.000000
0.000500 0.007500 0.000000
0.001000 0.007500 0.000000
0.001500 0.007500 0.000000
0.002000 0.007500 0.000000
0.002500 0.007500 0.000000
0.003000 0.007500 0.000000
0.003500 0.007500 0.000000
0.004000 0.007500 0.000000
0.004500 0.007500 0.000000
0.000500 0.006250 0.000000
0.001000 0.006250 0.000000
0.001500 0.006250 0.000000
0.002000 0.006250 0.000000
0.002500 0.006250 0.000000
0.003000 0.006250 0.000000
0.003500 0.006250 0.000000
0.004000 0.006250 0.000000
0.004500 0.006250 0.000000
0.000500 0.005000 0.000000
0.001000 0.005000 0.000000
0.001500 0.005000 0.000000
0.002000 0.005000 0.000000
0.002500 0.005000 0.000000
0.003000 0.005000 0.000000
0.003500 0.005000 0.000000
0.004000 0.005000 0.000000
0.004500 0.005000 0.000000
0.000500 0.003750 0.000000
0.001000 0.003750 0.000000
0.001500 0.003750 0.000000
0.002000 0.003750 0.000000
0.002500 0.003750 0.000000
0.003000 0.003750 0.000000
0.003500 0.003750 0.000000
0.004000 0.003750 0.000000
0.004500 0.003750 0.000000
0.000500 0.002500 0.000000
0.001000 0.002500 0.000000
0.001500 0.002500 0.000000
0.002000 0.002500 0.000000
0.002500 0.002500 0.000000
0.003000 0.002500 0.000000
0.003500 0.002500 0.000000
0.004000 0.002500 0.000000
0.004500 0.002500 0.000000
0.000500 0.001250 0.000000
0.001000 0.001250 0.000000
0.001500 0.001250 0.000000
0.002000 0.001250 0.000000
0.002500 0.001250 0.000000
0.003000 0.001250 0.000000
0.003500 0.001250 0.000000
0.004000 0.001250 0.000000
0.004500 0.001250 0.000000
CELLS 800 4000
4 82 83 180 179
4 179 180 181 178
4 178 181 182 177
4 177 182 183 176
4 176 183 184 175
4 175 184 185 174
4 174 185 186 173
4 173 186 187 172
4 172 187 188 171
4 171 188 80 0
4 83 84 189 180
4 180 189 190 181
4 181 190 191 182
4 182 191 192 183
4 183 192 193 184
4 184 193 194 185
4 185 194 195 186
4 186 195 196 187
4 187 196 197 188
4 188 197 79 80
4 84 85 198 189
4 189 198 199 190
4 190 199 200 191
4 191 200 201 192
4 192 201 202 193
4 193 202 203 194
4 194 203 204 195
4 195 204 205 196
4 196 205 206 197
4 197 206 78 79
4 85 86 207 198
4 198 207 208 199
4 199 208 209 200
4 200 209 210 201
4 201 210 211 202
4 202 211 212 203
4 203 212 213 204
4 204 213 214 205
4 205 214 215 206
4 206 215 77 78
4 86 87 216 207
4 207 216 217 208
4 208 217 218 209
4 209 218 219 210
4 210 219 220 211
4 211 220 221 212
4 212 221 222 213
4 213 222 223 214
4 214 223 224 215
4 215 224 76 77
4 87 88 225 216
4 216 225 226 217
4 217 226 227 218
4 218 227 228 219
4 219 228 229 220
4 220 229 230 221
4 221 230 231 222
4 222 231 232 223
4 223 232 233 224
4 224 233 75 76
4 88 89 234 225
4 225 234 235 226
4 226 235 236 227
4 227 236 237 228
4 228 237 238 229
4 229 238 239 230
4 230 239 240 231
4 231 240 241 232
4 232 241 242 233
4 233 242 74 75
4 89 90 243 234
4 234 243 244 235
4 235 244 245 236
4 236 245 246 237
4 237 246 247 238
4 238 247 248 239
4 239 248 249 240
4 240 249 250 241
4 241 250 251 242
4 242 251 73 74
4 90 91 252 243
4 243 252 253 244
4 244 253 254 245
4 245 254 255 246
4 246 255 256 247
4 247 256 257 248
4 248 257 258 249
4 249 258 259 250
4 250 259 260 251
4 251 260 72 73
4 91 92 261 252
4 252 261 262 253
4 253 262 263 254
4 254 263 264 255
4 255 264 265 256
4 256 265 266 257
4 257 266 267 258
4 258 267 268 259
4 259 268 269 260
4 260 269 71 72
4 92 93 270 261
4 261 270 271 262
4 262 271 272 263
4 263 272 273 264
4 264 273 274 265
4 265 274 275 266
4 266 275 276 267
4 267 276 277 268
4 268 277 278 269
4 269 278 70 71
4 93 94 279 270
4 270 279 280 271
4 271 280 281 272
4 272 281 282 273
4 273 282 283 274
4 274 283 284 275
4 275 284 285 276
4 276 285 286 277
4 277 286 287 278
4 278 287 69 70
4 94 95 288 279
4 279 288 289 280
4 280 289 290 281
4 281 290 291 282
4 282 291 292 283
4 283 292 293 284
4 284 293 294 285
4 285 294 295 286
4 286 295 296 287
4 287 296 68 69
4 95 96 297 288
4 288 297 298 289
4 289 298 299 290
4 290 299 300 291
4 291 300 301 292
4 292 301 302 293
4 293 302 303 294
4 294 303 304 295
4 295 304 305 296
4 296 305 67 68
4 96 97 306 297
4 297 306 307 298
4 298 307 308 299
4 299 308 309 300
4 300 309 310 301
4 301 310 311 302
4 302 311 312 303
4 303 312 313 304
4 304 313 314 305
4 305 314 66 67
4 97 98 315 306
4 306 315 316 307
4 307 316 317 308
4 308 317 318 309
4 309 318 319 310
4 310 319 320 311
4 311 320 321 312
4 312 321 322 313
4 313 322 323 314
4 314 323 65 66
4 98 99 324 315
4 315 324 325 316
4 316 325 326 317
4 317 326 327 318
4 318 327 328 319
4 319 328 329 320
4 320 329 330 321
4 321 330 331 322
4 322 331 332 323
4 323 332 64 65
4 99 100 333 324
4 324 333 334 325
4 325 334 335 326
4 326 335 336 327
4 327 336 337 328
4 328 337 338 329
4 329 338 339 330
4 330 339 340 331
4 331 340 341 332
4 332 341 63 64
4 100 101 342 333
4 333 342 343 334
4 334 343 344 335
4 335 344 345 336
4 336 345 346 337
4 337 346 347 338
4 338 347 348 339
4 339 348 349 340
4 340 349 350 341
4 341 350 62 63
4 101 102 351 342
4 342 351 352 343
4 343 352 353 344
4 344 353 354 345
4 345 354 355 346
4 346 355 356 347
4 347 356 357 348
4 348 357 358 349
4 349 358 359 350
4 350 359 61 62
4 102 103 360 351
4 351 360 361 352
4 352 361 362 353
4 353 362 363 354
4 354 363 364 355
4 355 364 365 356
4 356 365 366 357
4 357 366 367 358
4 358 367 368 359
4 359 368 60 61
4 103 104 369 360
4 360 369 370 361
4 361 370 371 362
4 362 371 372 363
4 363 372 373 364
4 364 373 374 365
4 365 374 375 366
4 366 375 376 367
4 367 376 377 368
4 368 377 59 60
4 104 105 378 369
4 369 378 379 370
4 370 379 380 371
4 371 380 381 372
4 372 381 382 373
4 373 382 383 374
4 374 383 384 375
4 375 384 385 376
4 376 385 386 377
4 377 386 58 59
4 105 106 387 378
4 378 387 388 379
4 379 388 389 380
4 380 389 390 381
4 381 390 391 382
4 382 391 392 383
4 383 392 393 384
4 384 393 394 385
4 385 394 395 386
4 386 395 57 58
4 106 107 396 387
4 387 396 397 388
4 388 397 398 389
4 389 398 399 390
4 390 399 400 391
4 391 400 401 392
4 392 401 402 393
4 393 402 403 394
4 394 403 404 395
4 395 404 56 57
4 107 108 405 396
4 396 405 406 397
4 397 406 407 398
4 398 407 408 399
4 399 408 409 400
4 400 409 410 401
4 401 410 411 402
4 402 411 412 403
4 403 412 413 404
4 404 413 55 56
4 108 109 414 405
4 405 414 415 406
4 406 415 416 407
4 407 416 417 408
4 408 417 418 409
4 409 418 419 410
4 410 419 420 411
4 411 420 421 412
4 412 421 422 413
4 413 422 54 55
4 109 110 423 414
4 414 423 424 415
4 415 424 425 416
4 416 425 426 417
4 417 426 427 418
4 418 427 428 419
4 419 428 429 420
4 420 429 430 421
4 421 430 431 422
4 422 431 53 54
4 110 111 432 423
4 423 432 433 424
4 424 433 434 425
4 425 434 435 426
4 426 435 436 427
4 427 436 437 428
4 428 437 438 429
4 429 438 439 430
4 430 439 440 431
4 431 440 52 53
4 111 112 441 432
4 432 441 442 433
4 433 442 443 434
4 434 443 444 435
4 435 444 445 436
4 436 445 446 437
4 437 446 447 438
4 438 447 448 439
4 439 448 449 440
4 440 449 51 52
4 112 113 450 441
4 441 450 451 442
4 442 451 452 443
4 443 452 453 444
4 444 453 454 445
4 445 454 455 446
4 446 455 456 447
4 447 456 457 448
4 448 457 458 449
4 449 458 50 51
4 113 114 459 450
4 450 459 460 451
4 451 460 461 452
4 452 461 462 453
4 453 462 463 454
4 454 463 464 455
4 455 464 465 456
4 456 465 466 457
4 457 466 467 458
4 458 467 49 50
4 114 115 468 459
4 459 468 469 460
4 460 469 470 461
4 461 470 471 462
4 462 471 472 463
4 463 472 473 464
4 464 473 474 465
4 465 474 475 466
4 466 475 476 467
4 467 476 48 49
4 115 116 477 468
4 468 477 478 469
4 469 478 479 470
4 470 479 480 471
4 471 480 481 472
4 472 481 482 473
4 473 482 483 474
4 474 483 484 475
4 475 484 485 476
4 476 485 47 48
4 116 117 486 477
4 477 486 487 478
4 478 487 488 479
4 479 488 489 480
4 480 489 490 481
4 481 490 491 482
4 482 491 492 483
4 483 492 493 484
4 484 493 494 485
4 485 494 46 47
4 117 118 495 486
4 486 495 496 487
4 487 496 497 488
4 488 497 498 489
4 489 498 499 490
4 490 499 500 491
4 491 500 501 492
4 492 501 502 493
4 493 502 503 494
4 494 503 45 46
4 118 119 504 495
4 495 504 505 496
4 496 505 506 497
4 497 506 507 498
4 498 507 508 499
4 499 508 509 500
4 500 509 510 501
4 501 510 511 502
4 502 511 512 503
4 503 512 44 45
4 119 120 513 504
4 504 513 514 505
4 505 514 515 506
4 506 515 516 507
4 507 516 517 508
4 508 517 518 509
4 509 518 519 510
4 510 519 520 511
4 511 520 521 512
4 512 521 43 44
4 120 121 522 513
4 513 522 523 514
4 514 523 524 515
4 515 524 525 516
4 516 525 526 517
4 517 526 527 518
4 518 527 528 519
4 519 528 529 520
4 520 529 530 521
4 521 530 42 43
4 121 122 531 522
4 522 531 532 523
4 523 532 533 524
4 524 533 534 525
4 525 534 535 526
4 526 535 536 527
4 527 536 537 528
4 528 537 538 529
4 529 538 539 530
4 530 539 41 42
4 122 123 540 531
4 531 540 541 532
4 532 541 542 533
4 533 542 543 534
4 534 543 544 535
4 535 544 545 536
4 536 545 546 537
4 537 546 547 538
4 538 547 548 539
4 539 548 40 41
4 123 124 549 540
4 540 549 550 541
4 541 550 551 542
4 542 551 552 543
4 543 552 553 544
4 544 553 554 545
4 545 554 555 546
4 546 555 556 547
4 547 556 557 548
4 548 557 39 40
4 124 125 558 549
4 549 558 559 550
4 550 559 560 551
4 551 560 561 552
4 552 561 562 553
4 553 562 563 554
4 554 563 564 555
4 555 564 565 556
4 556 565 566 557
4 557 566 38 39
4 125 126 567 558
4 558 567 568 559
4 559 568 569 560
4 560 569 570 561
4 561 570 571 562
4 562 571 572 563
4 563 572 573 564
4 564 573 574 565
4 565 574 575 566
4 566 575 37 38
4 126 127 576 567
4 567 576 577 568
4 568 577 578 569
4 569 578 579 570
4 570 579 580 571
4 571 580 581 572
4 572 581 582 573
4 573 582 583 574
4 574 583 584 575
4 575 584 36 37
4 127 128 585 576
4 576 585 586 577
4 577 586 587 578
4 578 587 588 579
4 579 588 589 580
4 580 589 590 581
4 581 590 591 582
4 582 591 592 583
4 583 592 593 584
4 584 593 35 36
4 128 129 594 585
4 585 594 595 586
4 586 595 596 587
4 587 596 597 588
4 588 597 598 589
4 589 598 599 590
4 590 599 600 591
4 591 600 601 592
4 592 601 602 593
4 593 602 34 35
4 129 130 603 594
4 594 603 604 595
4 595 604 605 596
4 596 605 606 597
4 597 606 607 598
4 598 607 608 599
4 599 608 609 600
4 600 609 610 601
4 601 610 611 602
4 602 611 33 34
4 130 131 612 603
4 603 612 613 604
4 604 613 614 605
4 605 614 615 606
4 606 615 616 607
4 607 616 617 608
4 608 617 618 609
4 609 618 619 610
4 610 619 620 611
4 611 620 32 33
4 131 132 621 612
4 612 621 622 613
4 613 622 623 614
4 614 623 624 615
4 615 624 625 616
4 616 625 626 617
4 617 626 627 618
4 618 627 628 619
4 619 628 629 620
4 620 629 31 32
4 132 133 630 621
4 621 630 631 622
4 622 631 632 623
4 623 632 633 624
4 624 633 634 625
4 625 634 635 626
4 626 635 636 627
4 627 636 637 628
4 628 637 638 629
4 629 638 30 31
4 133 134 639 630
4 630 639 640 631
4 631 640 641 632
4 632 641 642 633
4 633 642 643 634
4 634 643 644 635
4 635 644 645 636
4 636 645 646 637
4 637 646 647 638
4 638 647 29 30
4 134 135 648 639
4 639 648 649 640
4 640 649 650 641
4 641 650 651 642
4 642 651 652 643
4 643 652 653 644
4 644 653 654 645
4 645 654 655 646
4 646 655 656 647
4 647 656 28 29
4 135 136 657 648
4 648 657 658 649
4 649 658 659 650
4 650 659 660 651
4 651 660 661 652
4 652 661 662 653
4 653 662 663 654
4 654 663 664 655
4 655 664 665 656
4 656 665 27 28
4 136 137 666 657
4 657 666 667 658
4 658 667 668 659
4 659 668 669 660
4 660 669 670 661
4 661 670 671 662
4 662 671 672 663
4 663 672 673 664
4 664 673 674 665
4 665 674 26 27
4 137 138 675 666
4 666 675 676 667
4 667 676 677 668
4 668 677 678 669
4 669 678 679 670
4 670 679 680 671
4 671 680 681 672
4 672 681 682 673
4 673 682 683 674
4 674 683 25 26
4 138 139 684 675
4 675 684 685 676
4 676 685 686 677
4 677 686 687 678
4 678 687 688 679
4 679 688 689 680
4 680 689 690 681
4 681 690 691 682
4 682 691 692 683
4 683 692 24 25
4 139 140 693 684
4 684 693 694 685
4 685 694 695 686
4 686 695 696 687
4 687 696 697 688
4 688 697 698 689
4 689 698 699 690
4 690 699 700 691
4 691 700 701 692
4 692 701 23 24
4 140 141 702 693
4 693 702 703 694
4 694 703 704 695
4 695 704 705 696
4 696 705 706 697
4 697 706 707 698
4 698 707 708 699
4 699 708 709 700
4 700 709 710 701
4 701 710 22 23
4 141 142 711 702
4 702 711 712 703
4 703 712 713 704
4 704 713 714 705
4 705 714 715 706
4 706 715 716 707
4 707 716 717 708
4 708 717 718 709
4 709 718 719 710
4 710 719 21 22
4 142 143 720 711
4 711 720 721 712
4 712 721 722 713
4 713 722 723 714
4 714 723 724 715
4 715 724 725 716
4 716 725 726 717
4 717 726 727 718
4 718 727 728 719
4 719 728 20 21
4 143 144 729 720
4 720 729 730 721
4 721 730 731 722
4 722 731 732 723
4 723 732 733 724
4 724 733 734 725
4 725 734 735 726
4 726 735 736 727
4 727 736 737 728
4 728 737 19 20
4 144 145 738 729
4 729 738 739 730
4 730 739 740 731
4 731 740 741 732
4 732 741 742 733
4 733 742 743 734
4 734 743 744 735
4 735 744 745 736
4 736 745 746 737
4 737 746 18 19
4 145 146 747 738
4 738 747 748 739
4 739 748 749 740
4 740 749 750 741
4 741 750 751 742
4 742 751 752 743
4 743 752 753 744
4 744 753 754 745
4 745 754 755 746
4 746 755 17 18
4 146 147 756 747
4 747 756 757 748
4 748 757 758 749
4 749 758 759 750
4 750 759 760 751
4 751 760 761 752
4 752 761 762 753
4 753 762 763 754
4 754 763 764 755
4 755 764 16 17
4 147 148 765 756
4 756 765 766 757
4 757 766 767 758
4 758 767 768 759
4 759 768 769 760
4 760 769 770 761
4 761 770 771 762
4 762 771 772 763
4 763 772 773 764
4 764 773 15 16
4 148 149 774 765
4 765 774 775 766
4 766 775 776 767
4 767 776 777 768
4 768 777 778 769
4 769 778 779 770
4 770 779 780 771
4 771 780 781 772
4 772 781 782 773
4 773 782 14 15
4 149 150 783 774
4 774 783 784 775
4 775 784 785 776
4 776 785 786 777
4 777 786 787 778
4 778 787 788 779
4 779 788 789 780
4 780 789 790 781
4 781 790 791 782
4 782 791 13 14
4 150 151 792 783
4 783 792 793 784
4 784 793 794 785
4 785 794 795 786
4 786 795 796 787
4 787 796 797 788
4 788 797 798 789
4 789 798 799 790
4 790 799 800 791
4 791 800 12 13
4 151 152 801 792
4 792 801 802 793
4 793 802 803 794
4 794 803 804 795
4 795 804 805 796
4 796 805 806 797
4 797 806 807 798
4 798 807 808 799
4 799 808 809 800
4 800 809 11 12
4 152 153 810 801
4 801 810 811 802
4 802 811 812 803
4 803 812 813 804
4 804 813 814 805
4 805 814 815 806
4 806 815 816 807
4 807 816 817 808
4 808 817 818 809
4 809 818 10 11
4 153 154 819 810
4 810 819 820 811
4 811 820 821 812
4 812 821 822 813
4 813 822 823 814
4 814 823 824 815
4 815 824 825 816
4 816 825 826 817
4 817 826 827 818
4 818 827 9 10
4 154 155 828 819
4 819 828 829 820
4 820 829 830 821
4 821 830 831 822
4 822 831 832 823
4 823 832 833 824
4 824 833 834 825
4 825 834 835 826
4 826 835 836 827
4 827 836 8 9
4 155 156 837 828
4 828 837 838 829
4 829 838 839 830
4 830 839 840 831
4 831 840 841 832
4 832 841 842 833
4 833 842 843 834
4 834 843 844 835
4 835 844 845 836
4 836 845 7 8
4 156 157 846 837
4 837 846 847 838
4 838 847 848 839
4 839 848 849 840
4 840 849 850 841
4 841 850 851 842
4 842 851 852 843
4 843 852 853 844
4 844 853 854 845
4 845 854 6 7
4 157 158 855 846
4 846 855 856 847
4 847 856 857 848
4 848 857 858 849
4 849 858 859 850
4 850 859 860 851
4 851 860 861 852
4 852 861 862 853
4 853 862 863 854
4 854 863 5 6
4 158 159 864 855
4 855 864 865 856
4 856 865 866 857
4 857 866 867 858
4 858 867 868 859
4 859 868 869 860
4 860 869 870 861
4 861 870 871 862
4 862 871 872 863
4 863 872 4 5
4 159 160 873 864
4 864 873 874 865
4 865 874 875 866
4 866 875 876 867
4 867 876 877 868
4 868 877 878 869
4 869 878 879 870
4 870 879 880 871
4 871 880 881 872
4 872 881 3 4
4 160 161 882 873
4 873 882 883 874
4 874 883 884 875
4 875 884 885 876
4 876 885 886 877
4 877 886 887 878
4 878 887 888 879
4 879 888 889 880
4 880 889 890 881
4 881 890 2 3
4 161 81 162 882
4 882 162 163 883
4 883 163 164 884
4 884 164 165 885
4 885 165 166 886
4 886 166 167 887
4 887 167 168 888
4 888 168 169 889
4 889 169 170 890
4 890 170 1 2
CELL_TYPES 800
9
9
9
9
9
9
9
9
9
9
9
9
9
9
9
9
9
9
9
9
9
9
9
9
9
9
9
9
9
9
9
9
9
9
9
9
9
9
9
9
9
9
9
9
9
9
9
9
9
9
9
9
9
9
9
9
9
9
9
9
9
9
9
9
9
9
9
9
9
9
9
9
9
9
9
9
9
9
9
9
9
9
9
9
9
9
9
9
9
9
9
9
9
9
9
9
9
9
9
9
9
9
9
9
9
9
9
9
9
9
9
9
9
9
9
9
9
9
9
9
9
9
9
9
9
9
9
9
9
9
9
9
9
9
9
9
9
9
9
9
9
9
9
9
9
9
9
9
9
9
9
9
9
9
9
9
9
9
9
9
9
9
9
9
9
9
9
9
9
9
9
9
9
9
9
9
9
9
9
9
9
9
9
9
9
9
9
9
9
9
9
9
9
9
9
9
9
9
9
9
9
9
9
9
9
9
9
9
9
9
9
9
9
9
9
9
9
9
9
9
9
9
9
9
9
9
9
9
9
9
9
9
9
9
9
9
9
9
9
9
9
9
9
9
9
9
9
9
9
9
9
9
9
9
9
9
9
9
9
9
9
9
9
9
9
9
9
9
9
9
9
9
9
9
9
9
9
9
9
9
9
9
9
9
9
9
9
9
9
9
9
9
9
9
9
9
9
9
9
9
9
9
9
9
9
9
9
9
9
9
9
9
9
9
9
9
9
9
9
9
9
9
9
9
9
9
9
9
9
9
9
9
9
9
9
9
9
9
9
9
9
9
9
9
9
9
9
9
9
9
9
9
9
9
9
9
9
9
9
9
9
9
9
9
9
9
9
9
9
9
9
9
9
9
9
9
9
9
9
9
9
9
9
9
9
9
9
9
9
9
9
9
9
9
9
9
9
9
9
9
9
9
9
9
9
9
9
9
9
9
9
9
9
9
9
9
9
9
9
9
9
9
9
9
9
9
9
9
9
9
9
9
9
9
9
9
9
9
9
9
9
9
9
9
9
9
9
9
9
9
9
9
9
9
9
9
9
9
9
9
9
9
9
9
9
9
9
9
9
9
9
9
9
9
9
9
9
9
9
9
9
9
9
9
9
9
9
9
9
9
9
9
9
9
9
9
9
9
9
9
9
9
9
9
9
9
9
9
9
9
9
9
9
9
9
9
9
9
9
9
9
9
9
9
9
9
9
9
9
9
9
9
9
9
9
9
9
9
9
9
9
9
9
9
9
9
9
9
9
9
9
9
9
9
9
9
9
9
9
9
9
9
9
9
9
9
9
9
9
9
9
9
9
9
9
9
9
9
9
9
9
9
9
9
9
9
9
9
9
9
9
9
9
9
9
9
9
9
9
9
9
9
9
9
9
9
9
9
9
9
9
9
9
9
9
9
9
9
9
9
9
9
9
9
9
9
9
9
9
9
9
9
9
9
9
9
9
9
9
9
9
9
9
9
9
9
9
9
9
9
9
9
9
9
9
9
9
9
9
9
9
9
9
9
9
9
9
9
9
9
9
9
9
9
9
9
9
9
9
9
9
9
9
9
9
9
9
9
9
9
9
9
9
9
9
9
9
9
9
9
9
9
9
9
9
9
9
9
9
9
9
9
9
9
9
9
9
9
9
9
9
9
9
9
9
9
9
9
9
9
9
9
9
9
9
9
9
9
9
9
9
9
9
9
9
9
9
9
9
9
9
9
9
9
9
9
9
9
9
9
9
9
9
9
9
9
9
9
9
9
9
9
9
9
9
9
9
9
9
9
9
9
9
9
9
9
9
9
9
9
9
9
9
9
9
9
9
9
9
9
POINT_DATA 891
SCALARS u1 float
LOOKUP_TABLE default
-4e-18
-9e-07
-9e-07
-9e-07
-9e-07
-9e-07
-9e-07
-9e-07
-9e-07
-9e-07
-9e-07
-9e-07
-9e-07
-9e-07
-9e-07
-9e-07
-9e-07
-9e-07
-9e-07
-9e-07
-9e-07
-9e-07
-9e-07
-9e-07
-9e-07
-9e-07
-9e-07
-9e-07
-9e-07
-9e-07
-9e-07
-9e-07
-9e-07
-9e-07
-9e-07
-9e-07
-9e-07
-9e-07
-9e-07
-9e-07
-9e-07
-9e-07
-9e-07
-9e-07
-9e-07
-9e-07
-9e-07
-9e-07
-9e-07
-9e-07
-9e-07
-9e-07
-9e-07
-9e-07
-9e-07
-9e-07
-9e-07
-9e-07
-9e-07
-9e-07
-9e-07
-9e-07
-9e-07
-9e-07
-9e-07
-9e-07
-9e-07
-9e-07
-9e-07
-9e-07
-9e-07
-9e-07
-9e-07
-9e-07
-9e-07
-9e-07
-9e-07
-9e-07
-9e-07
-9e-07
-7e-07
9e-07
4e-17
7e-07
9e-07
9e-07
9e-07
9e-07
9e-07
9e-07
9e-07
9e-07
9e-07
9e-07
9e-07
9e-07
9e-07
9e-07
9e-07
9e-07
9e-07
9e-07
9e-07
9e-07
9e-07
9e-07
9e-07
9e-07
9e-07
9e-07
9e-07
9e-07
9e-07
9e-07
9e-07
9e-07
9e-07
9e-07
9e-07
9e-07
9e-07
9e-07
9e-07
9e-07
9e-07
9e-07
9e-07
9e-07
9e-07
9e-07
9e-07
9e-07
9e-07
9e-07
9e-07
9e-07
9e-07
9e-07
9e-07
9e-07
9e-07
9e-07
9e-07
9e-07
9e-07
9e-07
9e-07
9e-07
9e-07
9e-07
9e-07
9e-07
9e-07
9e-07
9e-07
9e-07
9e-07
9e-07
9e-07
9e-07
9e-07
9e-07
7e-07
5e-07
4e-07
2e-07
-6e-14
-2e-07
-4e-07
-5e-07
-7e-07
-6e-19
8e-18
-5e-17
3e-17
2e-17
-6e-17
-4e-17
-6e-18
4e-17
5e-07
4e-07
2e-07
1e-07
-1e-14
-1e-07
-2e-07
-4e-07
-5e-07
7e-07
5e-07
3e-07
2e-07
-4e-14
-2e-07
-3e-07
-5e-07
-7e-07
7e-07
6e-07
4e-07
2e-07
-5e-14
-2e-07
-4e-07
-6e-07
-7e-07
7e-07
6e-07
4e-07
2e-07
-6e-14
-2e-07
-4e-07
-6e-07
-7e-07
7e-07
5e-07
4e-07
2e-07
-6e-14
-2e-07
-4e-07
-5e-07
-7e-07
7e-07
5e-07
4e-07
2e-07
-6e-14
-2e-07
-4e-07
-5e-07
-7e-07
7e-07
5e-07
4e-07
2e-07
-6e-14
-2e-07
-4e-07
-5e-07
-7e-07
7e-07
5e-07
4e-07
2e-07
-6e-14
-2e-07
-4e-07
-5e-07
-7e-07
7e-07
5e-07
4e-07
2e-07
-6e-14
-2e-07
-4e-07
-5e-07
-7e-07
7e-07
5e-07
4e-07
2e-07
-6e-14
-2e-07
-4e-07
-5e-07
-7e-07
7e-07
5e-07
4e-07
2e-07
-6e-14
-2e-07
-4e-07
-5e-07
-7e-07
7e-07
5e-07
4e-07
2e-07
-6e-14
-2e-07
-4e-07
-5e-07
-7e-07
7e-07
5e-07
4e-07
2e-07
-6e-14
-2e-07
-4e-07
-5e-07
-7e-07
7e-07
5e-07
4e-07
2e-07
-6e-14
-2e-07
-4e-07
-5e-07
-7e-07
7e-07
5e-07
4e-07
2e-07
-6e-14
-2e-07
-4e-07
-5e-07
-7e-07
7e-07
5e-07
4e-07
2e-07
-6e-14
-2e-07
-4e-07
-5e-07
-7e-07
7e-07
5e-07
4e-07
2e-07
-6e-14
-2e-07
-4e-07
-5e-07
-7e-07
7e-07
5e-07
4e-07
2e-07
-6e-14
-2e-07
-4e-07
-5e-07
-7e-07
7e-07
5e-07
4e-07
2e-07
-6e-14
-2e-07
-4e-07
-5e-07
-7e-07
7e-07
5e-07
4e-07
2e-07
-6e-14
-2e-07
-4e-07
-5e-07
-7e-07
7e-07
5e-07
4e-07
2e-07
-6e-14
-2e-07
-4e-07
-5e-07
-7e-07
7e-07
5e-07
4e-07
2e-07
-6e-14
-2e-07
-4e-07
-5e-07
-7e-07
7e-07
5e-07
4e-07
2e-07
-6e-14
-2e-07
-4e-07
-5e-07
-7e-07
7e-07
5e-07
4e-07
2e-07
-6e-14
-2e-07
-4e-07
-5e-07
-7e-07
7e-07
5e-07
4e-07
2e-07
-6e-14
-2e-07
-4e-07
-5e-07
-7e-07
7e-07
5e-07
4e-07
2e-07
-6e-14
-2e-07
-4e-07
-5e-07
-7e-07
7e-07
5e-07
4e-07
2e-07
-6e-14
-2e-07
-4e-07
-5e-07
-7e-07
7e-07
5e-07
4e-07
2e-07
-6e-14
-2e-07
-4e-07
-5e-07
-7e-07
7e-07
5e-07
4e-07
2e-07
-6e-14
-2e-07
-4e-07
-5e-07
-7e-07
7e-07
5e-07
4e-07
2e-07
-6e-14
-2e-07
-4e-07
-5e-07
-7e-07
7e-07
5e-07
4e-07
2e-07
-6e-14
-2e-07
-4e-07
-5e-07
-7e-07
7e-07
5e-07
4e-07
2e-07
-6e-14
-2e-07
-4e-07
-5e-07
-7e-07
7e-07
5e-07
4e-07
2e-07
-6e-14
-2e-07
-4e-07
-5e-07
-7e-07
7e-07
5e-07
4e-07
2e-07
-6e-14
-2e-07
-4e-07
-5e-07
-7e-07
7e-07
5e-07
4e-07
2e-07
-6e-14
-2e-07
-4e-07
-5e-07
-7e-07
7e-07
5e-07
4e-07
2e-07
-6e-14
-2e-07
-4e-07
-5e-07
-7e-07
7e-07
5e-07
4e-07
2e-07
-6e-14
-2e-07
-4e-07
-5e-07
-7e-07
7e-07
5e-07
4e-07
2e-07
-6e-14
-2e-07
-4e-07
-5e-07
-7e-07
7e-07
5e-07
4e-07
2e-07
-6e-14
-2e-07
-4e-07
-5e-07
-7e-07
7e-07
5e-07
4e-07
2e-07
-6e-14
-2e-07
-4e-07
-5e-07
-7e-07
7e-07
5e-07
4e-07
2e-07
-6e-14
-2e-07
-4e-07
-5e-07
-7e-07
7e-07
5e-07
4e-07
2e-07
-6e-14
-2e-07
-4e-07
-5e-07
-7e-07
7e-07
5e-07
4e-07
2e-07
-6e-14
-2e-07
-4e-07
-5e-07
-7e-07
7e-07
5e-07
4e-07
2e-07
-6e-14
-2e-07
-4e-07
-5e-07
-7e-07
7e-07
5e-07
4e-07
2e-07
-6e-14
-2e-07
-4e-07
-5e-07
-7e-07
7e-07
5e-07
4e-07
2e-07
-6e-14
-2e-07
-4e-07
-5e-07
-7e-07
7e-07
5e-07
4e-07
2e-07
-6e-14
-2e-07
-4e-07
-5e-07
-7e-07
7e-07
5e-07
4e-07
2e-07
-6e-14
-2e-07
-4e-07
-5e-07
-7e-07
7e-07
5e-07
4e-07
2e-07
-6e-14
-2e-07
-4e-07
-5e-07
-7e-07
7e-07
5e-07
4e-07
2e-07
-6e-14
-2e-07
-4e-07
-5e-07
-7e-07
7e-07
5e-07
4e-07
2e-07
-6e-14
-2e-07
-4e-07
-5e-07
-7e-07
7e-07
5e-07
4e-07
2e-07
-6e-14
-2e-07
-4e-07
-5e-07
-7e-07
7e-07
5e-07
4e-07
2e-07
-6e-14
-2e-07
-4e-07
-5e-07
-7e-07
7e-07
5e-07
4e-07
2e-07
-6e-14
-2e-07
-4e-07
-5e-07
-7e-07
7e-07
5e-07
4e-07
2e-07
-6e-14
-2e-07
-4e-07
-5e-07
-7e-07
7e-07
5e-07
4e-07
2e-07
-6e-14
-2e-07
-4e-07
-5e-07
-7e-07
7e-07
5e-07
4e-07
2e-07
-6e-14
-2e-07
-4e-07
-5e-07
-7e-07
7e-07
5e-07
4e-07
2e-07
-6e-14
-2e-07
-4e-07
-5e-07
-7e-07
7e-07
5e-07
4e-07
2e-07
-6e-14
-2e-07
-4e-07
-5e-07
-7e-07
7e-07
5e-07
4e-07
2e-07
-6e-14
-2e-07
-4e-07
-5e-07
-7e-07
7e-07
5e-07
4e-07
2e-07
-6e-14
-2e-07
-4e-07
-5e-07
-7e-07
7e-07
5e-07
4e-07
2e-07
-6e-14
-2e-07
-4e-07
-5e-07
-7e-07
7e-07
5e-07
4e-07
2e-07
-6e-14
-2e-07
-4e-07
-5e-07
-7e-07
7e-07
5e-07
4e-07
2e-07
-6e-14
-2e-07
-4e-07
-5e-07
-7e-07
7e-07
5e-07
4e-07
2e-07
-6e-14
-2e-07
-4e-07
-5e-07
-7e-07
7e-07
5e-07
4e-07
2e-07
-6e-14
-2e-07
-4e-07
-5e-07
-7e-07
7e-07
5e-07
4e-07
2e-07
-6e-14
-2e-07
-4e-07
-5e-07
-7e-07
7e-07
5e-07
4e-07
2e-07
-6e-14
-2e-07
-4e-07
-5e-07
-7e-07
7e-07
5e-07
4e-07
2e-07
-6e-14
-2e-07
-4e-07
-5e-07
-7e-07
7e-07
5e-07
4e-07
2e-07
-6e-14
-2e-07
-4e-07
-5e-07
-7e-07
7e-07
5e-07
4e-07
2e-07
-6e-14
-2e-07
-4e-07
-5e-07
-7e-07
7e-07
5e-07
4e-07
2e-07
-6e-14
-2e-07
-4e-07
-5e-07
-7e-07
7e-07
5e-07
4e-07
2e-07
-6e-14
-2e-07
-4e-07
-5e-07
-7e-07
7e-07
5e-07
4e-07
2e-07
-6e-14
-2e-07
-4e-07
-5e-07
-7e-07
7e-07
5e-07
4e-07
2e-07
-6e-14
-2e-07
-4e-07
-5e-07
-7e-07
7e-07
5e-07
4e-07
2e-07
-6e-14
-2e-07
-4e-07
-5e-07
-7e-07
7e-07
5e-07
4e-07
2e-07
-6e-14
-2e-07
-4e-07
-5e-07
-7e-07
7e-07
5e-07
4e-07
2e-07
-6e-14
-2e-07
-4e-07
-5e-07
-7e-07
7e-07
5e-07
4e-07
2e-07
-6e-14
-2e-07
-4e-07
-5e-07
-7e-07
SCALARS u2 float
LOOKUP_TABLE default
1e-16
-0.0003
-0.0002
-0.0002
-0.0002
-0.0002
-0.0002
-0.0002
-0.0002
-0.0002
-0.0002
-0.0002
-0.0002
-0.0002
-0.0002
-0.0002
-0.0002
-0.0002
-0.0002
-0.0002
-0.0002
-0.0002
-0.0002
-0.0002
-0.0002
-0.0002
-0.0002
-0.0002
-0.0002
-0.0002
-0.0002
-0.0002
-0.0002
-0.0002
-0.0001
-0.0001
-0.0001
-0.0001
-0.0001
-0.0001
-0.0001
-0.0001
-0.0001
-0.0001
-0.0001
-0.0001
-0.0001
-0.0001
-0.0001
-0.0001
-0.0001
-9e-05
-9e-05
-9e-05
-9e-05
-8e-05
-8e-05
-8e-05
-7e-05
-7e-05
-7e-05
-6e-05
-6e-05
-6e-05
-5e-05
-5e-05
-5e-05
-4e-05
-4e-05
-4e-05
-3e-05
-3e-05
-3e-05
-3e-05
-2e-05
-2e-05
-2e-05
-1e-05
-9e-06
-6e-06
-3e-06
-0.0003
6e-17
-3e-06
-6e-06
-9e-06
-1e-05
-2e-05
-2e-05
-2e-05
-3e-05
-3e-05
-3e-05
-3e-05
-4e-05
-4e-05
-4e-05
-5e-05
-5e-05
-5e-05
-6e-05
-6e-05
-6e-05
-7e-05
-7e-05
-7e-05
-8e-05
-8e-05
-8e-05
-9e-05
-9e-05
-9e-05
-9e-05
-0.0001
-0.0001
-0.0001
-0.0001
-0.0001
-0.0001
-0.0001
-0.0001
-0.0001
-0.0001
-0.0001
-0.0001
-0.0001
-0.0001
-0.0001
-0.0001
-0.0001
-0.0002
-0.0002
-0.0002
-0.0002
-0.0002
-0.0002
-0.0002
-0.0002
-0.0002
-0.0002
-0.0002
-0.0002
-0.0002
-0.0002
-0.0002
-0.0002
-0.0002
-0.0002
-0.0002
-0.0002
-0.0002
-0.0002
-0.0002
-0.0002
-0.0002
-0.0002
-0.0002
-0.0002
-0.0002
-0.0002
-0.0002
-0.0002
-0.0003
-0.0003
-0.0003
-0.0003
-0.0003
-0.0003
-0.0003
-0.0003
-0.0003
2e-17
-1e-16
-1e-16
9e-18
4e-17
3e-17
-4e-17
8e-17
-4e-17
-3e-06
-3e-06
-3e-06
-3e-06
-3e-06
-3e-06
-3e-06
-3e-06
-3e-06
-6e-06
-6e-06
-6e-06
-6e-06
-6e-06
-6e-06
-6e-06
-6e-06
-6e-06
-9e-06
-9e-06
-9e-06
-9e-06
-9e-06
-9e-06
-9e-06
-9e-06
-9e-06
-1e-05
-1e-05
-1e-05
-1e-05
-1e-05
-1e-05
-1e-05
-1e-05
-1e-05
-2e-05
-2e-05
-2e-05
-2e-05
-2e-05
-2e-05
-2e-05
-2e-05
-2e-05
-2e-05
-2e-05
-2e-05
-2e-05
-2e-05
-2e-05
-2e-05
-2e-05
-2e-05
-2e-05
-2e-05
-2e-05
-2e-05
-2e-05
-2e-05
-2e-05
-2e-05
-2e-05
-3e-05
-3e-05
-3e-05
-3e-05
-3e-05
-3e-05
-3e-05
-3e-05
-3e-05
-3e-05
-3e-05
-3e-05
-3e-05
-3e-05
-3e-05
-3e-05
-3e-05
-3e-05
-3e-05
-3e-05
-3e-05
-3e-05
-3e-05
-3e-05
-3e-05
-3e-05
-3e-05
-3e-05
-3e-05
-3e-05
-3e-05
-3e-05
-3e-05
-3e-05
-3e-05
-3e-05
-4e-05
-4e-05
-4e-05
-4e-05
-4e-05
-4e-05
-4e-05
-4e-05
-4e-05
-4e-05
-4e-05
-4e-05
-4e-05
-4e-05
-4e-05
-4e-05
-4e-05
-4e-05
-4e-05
-4e-05
-4e-05
-4e-05
-4e-05
-4e-05
-4e-05
-4e-05
-4e-05
-5e-05
-5e-05
-5e-05
-5e-05
-5e-05
-5e-05
-5e-05
-5e-05
-5e-05
-5e-05
-5e-05
-5e-05
-5e-05
-5e-05
-5e-05
-5e-05
-5e-05
-5e-05
-5e-05
-5e-05
-5e-05
-5e-05
-5e-05
-5e-05
-5e-05
-5e-05
-5e-05
-6e-05
-6e-05
-6e-05
-6e-05
-6e-05
-6e-05
-6e-05
-6e-05
-6e-05
-6e-05
-6e-05
-6e-05
-6e-05
-6e-05
-6e-05
-6e-05
-6e-05
-6e-05
-6e-05
-6e-05
-6e-05
-6e-05
-6e-05
-6e-05
-6e-05
-6e-05
-6e-05
-7e-05
-7e-05
-7e-05
-7e-05
-7e-05
-7e-05
-7e-05
-7e-05
-7e-05
-7e-05
-7e-05
-7e-05
-7e-05
-7e-05
-7e-05
-7e-05
-7e-05
-7e-05
-7e-05
-7e-05
-7e-05
-7e-05
-7e-05
-7e-05
-7e-05
-7e-05
-7e-05
-8e-05
-8e-05
-8e-05
-8e-05
-8e-05
-8e-05
-8e-05
-8e-05
-8e-05
-8e-05
-8e-05
-8e-05
-8e-05
-8e-05
-8e-05
-8e-05
-8e-05
-8e-05
-8e-05
-8e-05
-8e-05
-8e-05
-8e-05
-8e-05
-8e-05
-8e-05
-8e-05
-9e-05
-9e-05
-9e-05
-9e-05
-9e-05
-9e-05
-9e-05
-9e-05
-9e-05
-9e-05
-9e-05
-9e-05
-9e-05
-9e-05
-9e-05
-9e-05
-9e-05
-9e-05
-9e-05
-9e-05
-9e-05
-9e-05
-9e-05
-9e-05
-9e-05
-9e-05
-9e-05
-9e-05
-9e-05
-9e-05
-9e-05
-9e-05
-9e-05
-9e-05
-9e-05
-9e-05
-0.0001
-0.0001
-0.0001
-0.0001
-0.0001
-0.0001
-0.0001
-0.0001
-0.0001
-0.0001
-0.0001
-0.0001
-0.0001
-0.0001
-0.0001
-0.0001
-0.0001
-0.0001
-0.0001
-0.0001
-0.0001
-0.0001
-0.0001
-0.0001
-0.0001
-0.0001
-0.0001
-0.0001
-0.0001
-0.0001
-0.0001
-0.0001
-0.0001
-0.0001
-0.0001
-0.0001
-0.0001
-0.0001
-0.0001
-0.0001
-0.0001
-0.0001
-0.0001
-0.0001
-0.0001
-0.0001
-0.0001
-0.0001
-0.0001
-0.0001
-0.0001
-0.0001
-0.0001
-0.0001
-0.0001
-0.0001
-0.0001
-0.0001
-0.0001
-0.0001
-0.0001
-0.0001
-0.0001
-0.0001
-0.0001
-0.0001
-0.0001
-0.0001
-0.0001
-0.0001
-0.0001
-0.0001
-0.0001
-0.0001
-0.0001
-0.0001
-0.0001
-0.0001
-0.0001
-0.0001
-0.0001
-0.0001
-0.0001
-0.0001
-0.0001
-0.0001
-0.0001
-0.0001
-0.0001
-0.0001
-0.0001
-0.0001
-0.0001
-0.0001
-0.0001
-0.0001
-0.0001
-0.0001
-0.0001
-0.0001
-0.0001
-0.0001
-0.0001
-0.0001
-0.0001
-0.0001
-0.0001
-0.0001
-0.0001
-0.0001
-0.0001
-0.0001
-0.0001
-0.0001
-0.0001
-0.0001
-0.0001
-0.0001
-0.0001
-0.0001
-0.0001
-0.0001
-0.0001
-0.0001
-0.0001
-0.0001
-0.0001
-0.0001
-0.0001
-0.0001
-0.0001
-0.0001
-0.0001
-0.0001
-0.0001
-0.0001
-0.0001
-0.0001
-0.0001
-0.0001
-0.0001
-0.0001
-0.0001
-0.0001
-0.0001
-0.0001
-0.0001
-0.0001
-0.0001
-0.0001
-0.0001
-0.0001
-0.0001
-0.0002
-0.0002
-0.0002
-0.0002
-0.0002
-0.0002
-0.0002
-0.0002
-0.0002
-0.0002
-0.0002
-0.0002
-0.0002
-0.0002
-0.0002
-0.0002
-0.0002
-0.0002
-0.0002
-0.0002
-0.0002
-0.0002
-0.0002
-0.0002
-0.0002
-0.0002
-0.0002
-0.0002
-0.0002
-0.0002
-0.0002
-0.0002
-0.0002
-0.0002
-0.0002
-0.0002
-0.0002
-0.0002
-0.0002
-0.0002
-0.0002
-0.0002
-0.0002
-0.0002
-0.0002
-0.0002
-0.0002
-0.0002
-0.0002
-0.0002
-0.0002
-0.0002
-0.0002
-0.0002
-0.0002
-0.0002
-0.0002
-0.0002
-0.0002
-0.0002
-0.0002
-0.0002
-0.0002
-0.0002
-0.0002
-0.0002
-0.0002
-0.0002
-0.0002
-0.0002
-0.0002
-0.0002
-0.0002
-0.0002
-0.0002
-0.0002
-0.0002
-0.0002
-0.0002
-0.0002
-0.0002
-0.0002
-0.0002
-0.0002
-0.0002
-0.0002
-0.0002
-0.0002
-0.0002
-0.0002
-0.0002
-0.0002
-0.0002
-0.0002
-0.0002
-0.0002
-0.0002
-0.0002
-0.0002
-0.0002
-0.0002
-0.0002
-0.0002
-0.0002
-0.0002
-0.0002
-0.0002
-0.0002
-0.0002
-0.0002
-0.0002
-0.0002
-0.0002
-0.0002
-0.0002
-0.0002
-0.0002
-0.0002
-0.0002
-0.0002
-0.0002
-0.0002
-0.0002
-0.0002
-0.0002
-0.0002
-0.0002
-0.0002
-0.0002
-0.0002
-0.0002
-0.0002
-0.0002
-0.0002
-0.0002
-0.0002
-0.0002
-0.0002
-0.0002
-0.0002
-0.0002
-0.0002
-0.0002
-0.0002
-0.0002
-0.0002
-0.0002
-0.0002
-0.0002
-0.0002
-0.0002
-0.0002
-0.0002
-0.0002
-0.0002
-0.0002
-0.0002
-0.0002
-0.0002
-0.0002
-0.0002
-0.0002
-0.0002
-0.0002
-0.0002
-0.0002
-0.0002
-0.0002
-0.0002
-0.0002
-0.0002
-0.0002
-0.0002
-0.0002
-0.0002
-0.0002
-0.0002
-0.0002
-0.0002
-0.0002
-0.0002
-0.0002
-0.0002
-0.0002
-0.0002
-0.0002
-0.0002
-0.0002
-0.0002
-0.0002
-0.0002
-0.0002
-0.0002
-0.0002
-0.0002
-0.0002
-0.0002
-0.0002
-0.0002
-0.0002
-0.0002
-0.0002
-0.0002
-0.0002
-0.0002
-0.0002
-0.0002
-0.0002
-0.0002
-0.0002
-0.0002
-0.0002
-0.0002
-0.0002
-0.0002
-0.0002
-0.0002
-0.0002
-0.0002
-0.0002
-0.0002
-0.0002
-0.0002
-0.0002
-0.0002
-0.0002
-0.0002
-0.0002
-0.0002
-0.0002
-0.0002
-0.0002
-0.0002
-0.0002
-0.0002
-0.0002
-0.0002
-0.0002
-0.0002
-0.0002
-0.0002
-0.0002
-0.0002
-0.0002
-0.0002
-0.0002
-0.0002
-0.0002
-0.0002
-0.0002
-0.0002
-0.0002
-0.0002
-0.0002
-0.0002
-0.0002
-0.0002
-0.0002
-0.0002
-0.0002
-0.0002
-0.0002
-0.0002
-0.0002
-0.0002
-0.0002
-0.0002
-0.0002
-0.0002
-0.0002
-0.0002
-0.0002
-0.0002
-0.0002
-0.0002
-0.0002
-0.0002
-0.0002
-0.0002
-0.0002
-0.0002
-0.0002
-0.0002
-0.0002
-0.0002
-0.0002
-0.0002
-0.0002
SCALARS strain_1 float
LOOKUP_TABLE default
-0.000067
-0.105786
-0.104186
-0.102579
-0.100963
-0.099341
-0.097711
-0.096075
-0.094432
-0.092784
-0.091131
-0.089473
-0.087810
-0.086144
-0.084474
-0.082802
-0.081127
-0.079450
-0.077772
-0.076093
-0.074414
-0.072736
-0.071059
-0.069383
-0.067711
-0.066041
-0.064375
-0.062713
-0.061057
-0.059407
-0.057763
-0.056127
-0.054498
-0.052879
-0.051270
-0.049671
-0.048083
-0.046507
-0.044945
-0.043396
-0.041861
-0.040342
-0.038839
-0.037353
-0.035884
-0.034434
-0.033004
-0.031593
-0.030204
-0.028836
-0.027491
-0.026169
-0.024870
-0.023597
-0.022349
-0.021127
-0.019931
-0.018763
-0.017624
-0.016513
-0.015430
-0.014378
-0.013356
-0.012364
-0.011404
-0.010475
-0.009578
-0.008714
-0.007881
-0.007081
-0.006315
-0.005582
-0.004881
-0.004214
-0.003580
-0.002980
-0.002412
-0.001878
-0.001376
-0.000907
-0.000471
-0.105880
-0.000003
-0.000408
-0.000846
-0.001316
-0.001819
-0.002355
-0.002924
-0.003526
-0.004161
-0.004830
-0.005532
-0.006267
-0.007036
-0.007837
-0.008671
-0.009538
-0.010438
-0.011368
-0.012331
-0.013324
-0.014349
-0.015404
-0.016488
-0.017602
-0.018744
-0.019914
-0.021111
-0.022336
-0.023586
-0.024862
-0.026163
-0.027487
-0.028835
-0.030206
-0.031598
-0.033010
-0.034444
-0.035896
-0.037367
-0.038856
-0.040361
-0.041883
-0.043420
-0.044971
-0.046536
-0.048114
-0.049704
-0.051305
-0.052917
-0.054539
-0.056169
-0.057808
-0.059454
-0.061106
-0.062764
-0.064428
-0.066096
-0.067768
-0.069443
-0.071120
-0.072799
-0.074479
-0.076160
-0.077841
-0.079521
-0.081199
-0.082876
-0.084550
-0.086222
-0.087890
-0.089554
-0.091213
-0.092868
-0.094517
-0.096161
-0.097799
-0.099430
-0.101053
-0.102670
-0.104279
-0.105871
-0.105862
-0.105853
-0.105844
-0.105835
-0.105825
-0.105816
-0.105806
-0.105796
-0.000054
-0.000042
-0.000033
-0.000024
-0.000017
-0.000011
-0.000007
-0.000004
-0.000003
-0.000408
-0.000409
-0.000412
-0.000416
-0.000422
-0.000429
-0.000438
-0.000447
-0.000459
-0.000846
-0.000847
-0.000850
-0.000854
-0.000859
-0.000866
-0.000874
-0.000884
-0.000895
-0.001316
-0.001317
-0.001319
-0.001323
-0.001329
-0.001335
-0.001343
-0.001353
-0.001364
-0.001819
-0.001819
-0.001822
-0.001826
-0.001831
-0.001838
-0.001845
-0.001855
-0.001866
-0.002354
-0.002355
-0.002357
-0.002361
-0.002366
-0.002372
-0.002380
-0.002389
-0.002400
-0.002923
-0.002923
-0.002926
-0.002929
-0.002934
-0.002940
-0.002948
-0.002957
-0.002968
-0.003525
-0.003525
-0.003527
-0.003531
-0.003535
-0.003541
-0.003549
-0.003558
-0.003568
-0.004160
-0.004160
-0.004162
-0.004165
-0.004170
-0.004176
-0.004183
-0.004192
-0.004203
-0.004828
-0.004829
-0.004830
-0.004833
-0.004838
-0.004843
-0.004851
-0.004859
-0.004869
-0.005530
-0.005531
-0.005532
-0.005534
-0.005539
-0.005544
-0.005552
-0.005560
-0.005570
-0.006266
-0.006266
-0.006267
-0.006270
-0.006273
-0.006279
-0.006286
-0.006294
-0.006304
-0.007034
-0.007034
-0.007034
-0.007037
-0.007041
-0.007046
-0.007053
-0.007061
-0.007071
-0.007835
-0.007835
-0.007836
-0.007838
-0.007841
-0.007847
-0.007853
-0.007861
-0.007870
-0.008669
-0.008669
-0.008669
-0.008671
-0.008675
-0.008680
-0.008686
-0.008694
-0.008703
-0.009536
-0.009535
-0.009536
-0.009537
-0.009541
-0.009546
-0.009552
-0.009559
-0.009568
-0.010435
-0.010433
-0.010434
-0.010436
-0.010439
-0.010443
-0.010449
-0.010456
-0.010465
-0.011366
-0.011364
-0.011364
-0.011366
-0.011369
-0.011373
-0.011379
-0.011386
-0.011394
-0.012328
-0.012326
-0.012327
-0.012328
-0.012331
-0.012334
-0.012340
-0.012347
-0.012355
-0.013322
-0.013320
-0.013320
-0.013321
-0.013323
-0.013327
-0.013332
-0.013339
-0.013347
-0.014346
-0.014344
-0.014343
-0.014345
-0.014347
-0.014350
-0.014356
-0.014361
-0.014369
-0.015400
-0.015398
-0.015398
-0.015398
-0.015400
-0.015403
-0.015408
-0.015415
-0.015422
-0.016484
-0.016483
-0.016482
-0.016482
-0.016484
-0.016487
-0.016491
-0.016497
-0.016504
-0.017598
-0.017595
-0.017595
-0.017595
-0.017597
-0.017599
-0.017604
-0.017609
-0.017616
-0.018740
-0.018738
-0.018736
-0.018736
-0.018738
-0.018740
-0.018744
-0.018750
-0.018756
-0.019910
-0.019907
-0.019906
-0.019906
-0.019907
-0.019909
-0.019913
-0.019918
-0.019925
-0.021107
-0.021105
-0.021103
-0.021103
-0.021104
-0.021106
-0.021109
-0.021114
-0.021120
-0.022332
-0.022329
-0.022327
-0.022327
-0.022327
-0.022329
-0.022332
-0.022337
-0.022342
-0.023582
-0.023579
-0.023577
-0.023576
-0.023577
-0.023578
-0.023581
-0.023585
-0.023590
-0.024858
-0.024854
-0.024852
-0.024851
-0.024852
-0.024853
-0.024856
-0.024860
-0.024864
-0.026159
-0.026155
-0.026153
-0.026151
-0.026151
-0.026153
-0.026155
-0.026158
-0.026163
-0.027483
-0.027479
-0.027476
-0.027475
-0.027475
-0.027476
-0.027478
-0.027481
-0.027485
-0.028831
-0.028827
-0.028824
-0.028822
-0.028822
-0.028822
-0.028824
-0.028827
-0.028831
-0.030200
-0.030196
-0.030194
-0.030192
-0.030191
-0.030191
-0.030193
-0.030196
-0.030199
-0.031592
-0.031588
-0.031585
-0.031583
-0.031582
-0.031583
-0.031584
-0.031586
-0.031589
-0.033005
-0.033001
-0.032998
-0.032995
-0.032994
-0.032994
-0.032995
-0.032997
-0.033000
-0.034438
-0.034434
-0.034430
-0.034428
-0.034426
-0.034426
-0.034426
-0.034428
-0.034431
-0.035890
-0.035886
-0.035882
-0.035880
-0.035878
-0.035877
-0.035878
-0.035879
-0.035881
-0.037361
-0.037356
-0.037352
-0.037350
-0.037348
-0.037347
-0.037347
-0.037348
-0.037350
-0.038850
-0.038845
-0.038841
-0.038838
-0.038835
-0.038834
-0.038834
-0.038835
-0.038837
-0.040355
-0.040350
-0.040346
-0.040343
-0.040340
-0.040339
-0.040338
-0.040339
-0.040340
-0.041877
-0.041872
-0.041867
-0.041864
-0.041861
-0.041859
-0.041858
-0.041859
-0.041860
-0.043413
-0.043408
-0.043403
-0.043400
-0.043397
-0.043395
-0.043394
-0.043394
-0.043394
-0.044965
-0.044959
-0.044954
-0.044951
-0.044948
-0.044945
-0.044944
-0.044943
-0.044944
-0.046530
-0.046524
-0.046519
-0.046515
-0.046512
-0.046509
-0.046508
-0.046507
-0.046507
-0.048108
-0.048102
-0.048097
-0.048093
-0.048089
-0.048086
-0.048084
-0.048084
-0.048083
-0.049698
-0.049692
-0.049687
-0.049682
-0.049678
-0.049676
-0.049673
-0.049672
-0.049671
-0.051299
-0.051293
-0.051287
-0.051283
-0.051279
-0.051276
-0.051273
-0.051271
-0.051270
-0.052911
-0.052904
-0.052899
-0.052894
-0.052890
-0.052887
-0.052884
-0.052881
-0.052880
-0.054532
-0.054526
-0.054520
-0.054515
-0.054511
-0.054507
-0.054503
-0.054502
-0.054500
-0.056162
-0.056156
-0.056150
-0.056145
-0.056140
-0.056136
-0.056133
-0.056130
-0.056128
-0.057800
-0.057794
-0.057788
-0.057783
-0.057778
-0.057773
-0.057770
-0.057767
-0.057765
-0.059446
-0.059440
-0.059433
-0.059428
-0.059423
-0.059418
-0.059415
-0.059411
-0.059409
-0.061099
-0.061092
-0.061086
-0.061080
-0.061075
-0.061070
-0.061066
-0.061062
-0.061059
-0.062757
-0.062750
-0.062744
-0.062738
-0.062732
-0.062727
-0.062723
-0.062719
-0.062716
-0.064421
-0.064413
-0.064407
-0.064401
-0.064395
-0.064390
-0.064385
-0.064382
-0.064378
-0.066089
-0.066081
-0.066075
-0.066068
-0.066063
-0.066057
-0.066053
-0.066048
-0.066044
-0.067760
-0.067753
-0.067746
-0.067740
-0.067734
-0.067728
-0.067723
-0.067718
-0.067714
-0.069435
-0.069428
-0.069421
-0.069414
-0.069408
-0.069403
-0.069397
-0.069392
-0.069387
-0.071113
-0.071105
-0.071098
-0.071091
-0.071085
-0.071079
-0.071073
-0.071068
-0.071063
-0.072791
-0.072784
-0.072776
-0.072770
-0.072763
-0.072757
-0.072751
-0.072746
-0.072740
-0.074472
-0.074464
-0.074456
-0.074449
-0.074443
-0.074436
-0.074430
-0.074425
-0.074419
-0.076152
-0.076144
-0.076137
-0.076130
-0.076123
-0.076116
-0.076110
-0.076104
-0.076098
-0.077833
-0.077825
-0.077817
-0.077810
-0.077803
-0.077796
-0.077790
-0.077783
-0.077777
-0.079512
-0.079505
-0.079497
-0.079489
-0.079482
-0.079475
-0.079469
-0.079462
-0.079456
-0.081191
-0.081183
-0.081175
-0.081168
-0.081160
-0.081153
-0.081146
-0.081140
-0.081133
-0.082868
-0.082859
-0.082852
-0.082844
-0.082836
-0.082829
-0.082822
-0.082815
-0.082808
-0.084542
-0.084534
-0.084526
-0.084518
-0.084510
-0.084503
-0.084495
-0.084488
-0.084481
-0.086213
-0.086205
-0.086197
-0.086189
-0.086181
-0.086173
-0.086166
-0.086159
-0.086151
-0.087882
-0.087873
-0.087865
-0.087857
-0.087849
-0.087841
-0.087833
-0.087826
-0.087818
-0.089545
-0.089537
-0.089529
-0.089521
-0.089512
-0.089504
-0.089496
-0.089489
-0.089481
-0.091205
-0.091196
-0.091188
-0.091180
-0.091171
-0.091163
-0.091155
-0.091147
-0.091139
-0.092859
-0.092851
-0.092842
-0.092834
-0.092826
-0.092817
-0.092809
-0.092801
-0.092793
-0.094509
-0.094500
-0.094492
-0.094483
-0.094475
-0.094466
-0.094458
-0.094449
-0.094441
-0.096153
-0.096144
-0.096135
-0.096127
-0.096118
-0.096109
-0.096101
-0.096092
-0.096083
-0.097790
-0.097782
-0.097773
-0.097764
-0.097755
-0.097746
-0.097738
-0.097729
-0.097720
-0.099421
-0.099412
-0.099404
-0.099394
-0.099386
-0.099377
-0.099368
-0.099359
-0.099349
-0.101045
-0.101036
-0.101027
-0.101018
-0.101009
-0.101000
-0.100991
-0.100982
-0.100973
-0.102662
-0.102652
-0.102644
-0.102635
-0.102626
-0.102616
-0.102607
-0.102598
-0.102588
-0.104270
-0.104261
-0.104252
-0.104243
-0.104234
-0.104225
-0.104215
-0.104205
-0.104196
SCALARS strain_2 float
LOOKUP_TABLE default
0.001363
0.000817
0.000817
0.000816
0.000817
0.000817
0.000817
0.000817
0.000818
0.000817
0.000820
0.000819
0.000820
0.000819
0.000822
0.000823
0.000827
0.000826
0.000828
0.000831
0.000831
0.000832
0.000835
0.000836
0.000842
0.000842
0.000843
0.000848
0.000850
0.000854
0.000858
0.000862
0.000865
0.000867
0.000874
0.000876
0.000883
0.000888
0.000892
0.000898
0.000903
0.000910
0.000917
0.000923
0.000928
0.000938
0.000945
0.000949
0.000957
0.000965
0.000974
0.000982
0.000989
0.001000
0.001011
0.001020
0.001030
0.001040
0.001049
0.001060
0.001071
0.001084
0.001095
0.001107
0.001118
0.001131
0.001142
0.001154
0.001167
0.001182
0.001195
0.001210
0.001226
0.001240
0.001252
0.001267
0.001282
0.001299
0.001314
0.001330
0.001347
0.002626
0.002660
0.002661
0.002664
0.002664
0.002666
0.002666
0.002670
0.002671
0.002672
0.002675
0.002676
0.002678
0.002679
0.002681
0.002680
0.002686
0.002684
0.002688
0.002687
0.002688
0.002690
0.002691
0.002691
0.002695
0.002694
0.002695
0.002694
0.002696
0.002695
0.002696
0.002699
0.002697
0.002697
0.002697
0.002698
0.002699
0.002697
0.002698
0.002698
0.002698
0.002696
0.002699
0.002696
0.002697
0.002696
0.002698
0.002696
0.002695
0.002695
0.002693
0.002692
0.002689
0.002688
0.002689
0.002687
0.002687
0.002685
0.002682
0.002682
0.002679
0.002677
0.002675
0.002675
0.002671
0.002670
0.002669
0.002664
0.002661
0.002662
0.002658
0.002655
0.002653
0.002653
0.002647
0.002646
0.002642
0.002639
0.002636
0.002632
0.002629
0.002444
0.002264
0.002082
0.001903
0.001722
0.001540
0.001360
0.001179
0.000997
0.001493
0.001621
0.001753
0.001882
0.002009
0.002140
0.002269
0.002402
0.002532
0.002530
0.002397
0.002267
0.002136
0.002006
0.001874
0.001740
0.001609
0.001479
0.002531
0.002398
0.002265
0.002131
0.001999
0.001865
0.001730
0.001597
0.001463
0.002530
0.002396
0.002260
0.002126
0.001989
0.001853
0.001720
0.001585
0.001447
0.002530
0.002392
0.002258
0.002119
0.001982
0.001847
0.001712
0.001574
0.001434
0.002530
0.002390
0.002251
0.002115
0.001977
0.001838
0.001699
0.001561
0.001421
0.002528
0.002391
0.002251
0.002109
0.001970
0.001830
0.001688
0.001549
0.001408
0.002532
0.002389
0.002247
0.002107
0.001964
0.001822
0.001679
0.001537
0.001394
0.002530
0.002388
0.002242
0.002100
0.001956
0.001812
0.001671
0.001527
0.001380
0.002529
0.002386
0.002239
0.002095
0.001950
0.001803
0.001660
0.001513
0.001369
0.002530
0.002383
0.002236
0.002091
0.001941
0.001798
0.001649
0.001503
0.001357
0.002530
0.002380
0.002233
0.002086
0.001936
0.001790
0.001642
0.001494
0.001344
0.002530
0.002381
0.002231
0.002081
0.001931
0.001781
0.001632
0.001483
0.001332
0.002528
0.002377
0.002229
0.002076
0.001923
0.001775
0.001623
0.001470
0.001321
0.002530
0.002378
0.002225
0.002072
0.001921
0.001768
0.001614
0.001461
0.001309
0.002529
0.002374
0.002221
0.002068
0.001913
0.001759
0.001606
0.001450
0.001297
0.002529
0.002374
0.002220
0.002062
0.001908
0.001751
0.001596
0.001442
0.001285
0.002530
0.002373
0.002217
0.002059
0.001901
0.001746
0.001588
0.001432
0.001276
0.002529
0.002373
0.002213
0.002055
0.001897
0.001739
0.001581
0.001423
0.001265
0.002528
0.002371
0.002211
0.002051
0.001890
0.001732
0.001573
0.001414
0.001253
0.002527
0.002369
0.002209
0.002046
0.001887
0.001727
0.001564
0.001405
0.001243
0.002526
0.002365
0.002205
0.002043
0.001881
0.001720
0.001557
0.001394
0.001233
0.002529
0.002366
0.002203
0.002038
0.001875
0.001715
0.001549
0.001386
0.001224
0.002528
0.002364
0.002199
0.002036
0.001871
0.001707
0.001541
0.001377
0.001214
0.002528
0.002361
0.002198
0.002031
0.001866
0.001701
0.001535
0.001371
0.001204
0.002526
0.002360
0.002193
0.002029
0.001862
0.001697
0.001529
0.001362
0.001194
0.002527
0.002361
0.002192
0.002025
0.001856
0.001692
0.001521
0.001354
0.001187
0.002527
0.002358
0.002190
0.002019
0.001852
0.001685
0.001516
0.001347
0.001178
0.002525
0.002357
0.002187
0.002018
0.001851
0.001677
0.001507
0.001339
0.001170
0.002526
0.002355
0.002187
0.002015
0.001846
0.001672
0.001504
0.001333
0.001162
0.002528
0.002355
0.002185
0.002011
0.001838
0.001668
0.001496
0.001325
0.001155
0.002526
0.002356
0.002181
0.002007
0.001836
0.001664
0.001491
0.001320
0.001146
0.002526
0.002351
0.002179
0.002006
0.001834
0.001658
0.001486
0.001314
0.001140
0.002524
0.002351
0.002177
0.002002
0.001830
0.001653
0.001478
0.001308
0.001133
0.002522
0.002349
0.002175
0.002001
0.001825
0.001647
0.001474
0.001300
0.001125
0.002523
0.002347
0.002173
0.001997
0.001820
0.001644
0.001471
0.001294
0.001118
0.002524
0.002346
0.002171
0.001994
0.001816
0.001643
0.001462
0.001289
0.001112
0.002522
0.002346
0.002170
0.001992
0.001814
0.001637
0.001460
0.001284
0.001106
0.002521
0.002344
0.002164
0.001988
0.001811
0.001634
0.001457
0.001278
0.001100
0.002520
0.002341
0.002162
0.001985
0.001807
0.001628
0.001452
0.001273
0.001094
0.002521
0.002341
0.002161
0.001981
0.001805
0.001626
0.001448
0.001267
0.001088
0.002520
0.002340
0.002159
0.001980
0.001802
0.001620
0.001442
0.001263
0.001084
0.002518
0.002339
0.002157
0.001979
0.001797
0.001617
0.001438
0.001258
0.001079
0.002515
0.002336
0.002154
0.001976
0.001795
0.001614
0.001435
0.001254
0.001073
0.002517
0.002335
0.002154
0.001974
0.001792
0.001611
0.001430
0.001251
0.001069
0.002514
0.002334
0.002152
0.001970
0.001789
0.001609
0.001425
0.001247
0.001063
0.002512
0.002333
0.002150
0.001969
0.001786
0.001606
0.001426
0.001241
0.001059
0.002511
0.002330
0.002148
0.001967
0.001783
0.001602
0.001420
0.001238
0.001056
0.002511
0.002328
0.002147
0.001965
0.001783
0.001600
0.001417
0.001235
0.001051
0.002510
0.002329
0.002145
0.001962
0.001778
0.001597
0.001414
0.001231
0.001049
0.002507
0.002327
0.002144
0.001959
0.001777
0.001594
0.001411
0.001227
0.001044
0.002507
0.002323
0.002140
0.001958
0.001774
0.001591
0.001408
0.001224
0.001039
0.002507
0.002323
0.002139
0.001957
0.001771
0.001589
0.001406
0.001222
0.001035
0.002506
0.002322
0.002137
0.001953
0.001771
0.001586
0.001403
0.001217
0.001035
0.002505
0.002321
0.002135
0.001952
0.001766
0.001587
0.001398
0.001215
0.001031
0.002502
0.002319
0.002133
0.001952
0.001766
0.001580
0.001398
0.001212
0.001029
0.002501
0.002316
0.002134
0.001948
0.001762
0.001578
0.001396
0.001211
0.001025
0.002501
0.002316
0.002128
0.001946
0.001763
0.001577
0.001391
0.001211
0.001023
0.002497
0.002314
0.002128
0.001945
0.001759
0.001577
0.001392
0.001207
0.001021
0.002495
0.002310
0.002124
0.001942
0.001757
0.001574
0.001387
0.001205
0.001019
0.002493
0.002309
0.002124
0.001940
0.001757
0.001570
0.001388
0.001203
0.001015
0.002491
0.002307
0.002122
0.001938
0.001755
0.001570
0.001385
0.001199
0.001017
0.002492
0.002304
0.002119
0.001935
0.001753
0.001566
0.001384
0.001197
0.001014
0.002488
0.002303
0.002118
0.001934
0.001750
0.001564
0.001380
0.001198
0.001012
0.002486
0.002302
0.002119
0.001932
0.001750
0.001564
0.001379
0.001194
0.001009
0.002484
0.002300
0.002114
0.001930
0.001748
0.001563
0.001376
0.001194
0.001010
0.002479
0.002299
0.002113
0.001928
0.001744
0.001561
0.001378
0.001190
0.001009
0.002480
0.002296
0.002112
0.001928
0.001743
0.001560
0.001373
0.001191
0.001006
0.002478
0.002292
0.002108
0.001928
0.001741
0.001558
0.001375
0.001188
0.001004
0.002472
0.002292
0.002106
0.001922
0.001738
0.001555
0.001371
0.001188
0.001004
0.002472
0.002286
0.002106
0.001920
0.001738
0.001555
0.001372
0.001185
0.001003
0.002470
0.002286
0.002104
0.001920
0.001736
0.001553
0.001370
0.001186
0.001003
0.002469
0.002284
0.002102
0.001917
0.001734
0.001552
0.001367
0.001185
0.001001
0.002465
0.002283
0.002099
0.001916
0.001733
0.001550
0.001366
0.001185
0.001001
0.002463
0.002280
0.002097
0.001914
0.001731
0.001549
0.001366
0.001183
0.001003
0.002460
0.002276
0.002095
0.001911
0.001731
0.001546
0.001364
0.001182
0.001000
0.002458
0.002276
0.002091
0.001910
0.001729
0.001546
0.001365
0.001181
0.000998
0.002454
0.002271
0.002092
0.001909
0.001727
0.001544
0.001362
0.001180
0.000999
0.002449
0.002270
0.002089
0.001906
0.001725
0.001544
0.001362
0.001179
0.000999
0.002447
0.002269
0.002086
0.001906
0.001722
0.001542
0.001361
0.001178
0.000997
SCALARS strain_3 float
LOOKUP_TABLE default
0.000538
0.034944
0.034452
0.033957
0.033458
0.032958
0.032453
0.031948
0.031440
0.030928
0.030418
0.029903
0.029388
0.028870
0.028352
0.027831
0.027310
0.026787
0.026263
0.025739
0.025215
0.024689
0.024163
0.023638
0.023113
0.022588
0.022064
0.021541
0.021017
0.020496
0.019976
0.019458
0.018942
0.018426
0.017914
0.017405
0.016896
0.016393
0.015892
0.015395
0.014900
0.014411
0.013925
0.013444
0.012968
0.012494
0.012028
0.011567
0.011112
0.010662
0.010218
0.009780
0.009349
0.008924
0.008508
0.008098
0.007696
0.007302
0.006915
0.006536
0.006167
0.005804
0.005451
0.005106
0.004770
0.004445
0.004127
0.003819
0.003521
0.003232
0.002953
0.002683
0.002424
0.002175
0.001936
0.001705
0.001486
0.001275
0.001076
0.000887
0.000706
0.034046
-0.000286
-0.000123
0.000049
0.000233
0.000426
0.000629
0.000842
0.001066
0.001300
0.001544
0.001798
0.002062
0.002336
0.002620
0.002913
0.003217
0.003529
0.003852
0.004183
0.004524
0.004874
0.005232
0.005599
0.005973
0.006359
0.006751
0.007150
0.007558
0.007972
0.008393
0.008823
0.009259
0.009700
0.010148
0.010603
0.011064
0.011528
0.012000
0.012476
0.012958
0.013442
0.013932
0.014427
0.014923
0.015424
0.015930
0.016437
0.016947
0.017460
0.017976
0.018493
0.019013
0.019535
0.020057
0.020580
0.021105
0.021632
0.022157
0.022685
0.023210
0.023738
0.024266
0.024793
0.025318
0.025845
0.026370
0.026894
0.027416
0.027938
0.028457
0.028975
0.029492
0.030007
0.030520
0.031031
0.031539
0.032046
0.032550
0.033051
0.033548
0.034136
0.034226
0.034317
0.034406
0.034496
0.034586
0.034675
0.034766
0.034856
0.000453
0.000369
0.000285
0.000202
0.000120
0.000038
-0.000044
-0.000125
-0.000206
-0.000042
0.000040
0.000122
0.000204
0.000286
0.000370
0.000454
0.000537
0.000622
0.000131
0.000213
0.000296
0.000379
0.000463
0.000546
0.000631
0.000715
0.000801
0.000315
0.000397
0.000481
0.000564
0.000649
0.000733
0.000819
0.000904
0.000989
0.000508
0.000592
0.000677
0.000760
0.000845
0.000930
0.001015
0.001103
0.001188
0.000714
0.000797
0.000881
0.000966
0.001051
0.001138
0.001224
0.001312
0.001399
0.000927
0.001012
0.001096
0.001183
0.001268
0.001355
0.001442
0.001529
0.001618
0.001151
0.001236
0.001322
0.001408
0.001495
0.001582
0.001670
0.001759
0.001846
0.001385
0.001471
0.001558
0.001645
0.001732
0.001819
0.001906
0.001996
0.002085
0.001630
0.001716
0.001804
0.001890
0.001979
0.002066
0.002155
0.002245
0.002334
0.001885
0.001971
0.002059
0.002147
0.002236
0.002325
0.002415
0.002503
0.002593
0.002149
0.002237
0.002325
0.002413
0.002503
0.002590
0.002681
0.002771
0.002861
0.002423
0.002512
0.002600
0.002689
0.002779
0.002868
0.002958
0.003049
0.003141
0.002707
0.002796
0.002886
0.002974
0.003065
0.003155
0.003246
0.003338
0.003430
0.003002
0.003092
0.003181
0.003270
0.003361
0.003452
0.003543
0.003636
0.003726
0.003306
0.003394
0.003485
0.003576
0.003666
0.003757
0.003849
0.003942
0.004034
0.003619
0.003710
0.003800
0.003890
0.003982
0.004074
0.004166
0.004258
0.004351
0.003942
0.004032
0.004124
0.004214
0.004307
0.004398
0.004492
0.004584
0.004677
0.004274
0.004364
0.004456
0.004547
0.004639
0.004732
0.004825
0.004919
0.005013
0.004615
0.004706
0.004798
0.004891
0.004983
0.005076
0.005168
0.005263
0.005358
0.004964
0.005056
0.005149
0.005242
0.005334
0.005427
0.005522
0.005615
0.005711
0.005324
0.005414
0.005508
0.005600
0.005694
0.005788
0.005883
0.005976
0.006071
0.005692
0.005783
0.005877
0.005970
0.006064
0.006157
0.006251
0.006345
0.006442
0.006068
0.006160
0.006254
0.006348
0.006441
0.006536
0.006629
0.006724
0.006819
0.006452
0.006544
0.006638
0.006731
0.006826
0.006921
0.007015
0.007111
0.007207
0.006843
0.006937
0.007031
0.007125
0.007219
0.007313
0.007408
0.007505
0.007601
0.007243
0.007337
0.007432
0.007524
0.007620
0.007715
0.007810
0.007906
0.008002
0.007651
0.007744
0.007838
0.007933
0.008029
0.008124
0.008219
0.008315
0.008413
0.008066
0.008159
0.008254
0.008350
0.008444
0.008539
0.008637
0.008732
0.008829
0.008488
0.008582
0.008677
0.008772
0.008867
0.008963
0.009059
0.009155
0.009252
0.008917
0.009012
0.009106
0.009202
0.009298
0.009393
0.009490
0.009586
0.009684
0.009353
0.009447
0.009543
0.009639
0.009735
0.009830
0.009926
0.010025
0.010121
0.009795
0.009890
0.009985
0.010081
0.010176
0.010273
0.010370
0.010467
0.010565
0.010244
0.010339
0.010434
0.010531
0.010626
0.010723
0.010819
0.010917
0.011013
0.010699
0.010794
0.010888
0.010985
0.011082
0.011177
0.011275
0.011372
0.011469
0.011158
0.011253
0.011350
0.011446
0.011542
0.011639
0.011736
0.011833
0.011930
0.011624
0.011720
0.011816
0.011911
0.012008
0.012107
0.012203
0.012300
0.012397
0.012095
0.012191
0.012287
0.012384
0.012479
0.012577
0.012675
0.012771
0.012869
0.012572
0.012667
0.012764
0.012860
0.012957
0.013054
0.013150
0.013248
0.013346
0.013053
0.013149
0.013245
0.013342
0.013438
0.013535
0.013632
0.013730
0.013826
0.013538
0.013634
0.013731
0.013827
0.013923
0.014021
0.014118
0.014215
0.014312
0.014029
0.014124
0.014221
0.014317
0.014414
0.014510
0.014608
0.014704
0.014803
0.014521
0.014618
0.014714
0.014811
0.014908
0.015005
0.015101
0.015199
0.015297
0.015019
0.015116
0.015212
0.015309
0.015405
0.015502
0.015600
0.015697
0.015795
0.015521
0.015616
0.015715
0.015810
0.015907
0.016003
0.016100
0.016198
0.016295
0.016024
0.016121
0.016217
0.016314
0.016411
0.016507
0.016605
0.016702
0.016799
0.016532
0.016629
0.016725
0.016822
0.016918
0.017014
0.017112
0.017209
0.017307
0.017043
0.017138
0.017235
0.017331
0.017429
0.017525
0.017622
0.017719
0.017817
0.017557
0.017652
0.017748
0.017844
0.017942
0.018037
0.018135
0.018232
0.018328
0.018072
0.018167
0.018263
0.018360
0.018456
0.018553
0.018651
0.018747
0.018844
0.018589
0.018684
0.018781
0.018878
0.018973
0.019070
0.019167
0.019263
0.019360
0.019108
0.019204
0.019301
0.019396
0.019492
0.019589
0.019686
0.019783
0.019879
0.019629
0.019725
0.019822
0.019918
0.020014
0.020109
0.020206
0.020303
0.020399
0.020153
0.020248
0.020344
0.020439
0.020536
0.020632
0.020728
0.020824
0.020921
0.020675
0.020771
0.020867
0.020963
0.021060
0.021155
0.021252
0.021347
0.021443
0.021201
0.021296
0.021392
0.021487
0.021584
0.021678
0.021775
0.021870
0.021968
0.021725
0.021823
0.021917
0.022013
0.022108
0.022205
0.022301
0.022396
0.022492
0.022253
0.022348
0.022444
0.022539
0.022634
0.022730
0.022826
0.022922
0.023017
0.022781
0.022875
0.022969
0.023065
0.023159
0.023255
0.023350
0.023448
0.023543
0.023306
0.023402
0.023496
0.023592
0.023687
0.023782
0.023877
0.023971
0.024068
0.023834
0.023928
0.024022
0.024119
0.024213
0.024309
0.024403
0.024499
0.024594
0.024361
0.024454
0.024549
0.024644
0.024739
0.024834
0.024929
0.025025
0.025120
0.024887
0.024981
0.025075
0.025170
0.025265
0.025360
0.025455
0.025549
0.025644
0.025413
0.025507
0.025602
0.025696
0.025791
0.025885
0.025980
0.026073
0.026169
0.025938
0.026032
0.026127
0.026221
0.026315
0.026409
0.026504
0.026599
0.026692
0.026464
0.026557
0.026651
0.026746
0.026839
0.026934
0.027027
0.027120
0.027214
0.026987
0.027081
0.027174
0.027268
0.027361
0.027456
0.027550
0.027643
0.027737
0.027509
0.027603
0.027697
0.027790
0.027883
0.027977
0.028070
0.028164
0.028258
0.028031
0.028124
0.028217
0.028310
0.028403
0.028498
0.028590
0.028683
0.028777
0.028551
0.028643
0.028736
0.028830
0.028922
0.029015
0.029109
0.029202
0.029295
0.029068
0.029162
0.029254
0.029346
0.029439
0.029532
0.029625
0.029718
0.029812
0.029586
0.029676
0.029770
0.029863
0.029955
0.030049
0.030140
0.030233
0.030324
0.030099
0.030192
0.030284
0.030376
0.030468
0.030560
0.030653
0.030746
0.030838
0.030612
0.030705
0.030797
0.030888
0.030980
0.031072
0.031164
0.031256
0.031349
0.031123
0.031215
0.031307
0.031398
0.031489
0.031582
0.031673
0.031765
0.031856
0.031631
0.031722
0.031815
0.031906
0.031997
0.032089
0.032180
0.032271
0.032363
0.032137
0.032227
0.032320
0.032411
0.032503
0.032593
0.032684
0.032775
0.032866
0.032641
0.032733
0.032823
0.032914
0.033005
0.033095
0.033186
0.033277
0.033368
0.033141
0.033232
0.033323
0.033413
0.033505
0.033595
0.033685
0.033776
0.033866
0.033641
0.033731
0.033821
0.033912
0.034001
0.034092
0.034181
0.034272
0.034363
SCALARS stress_1 float
LOOKUP_TABLE default
22785.462759
-20040866.341375
-19737455.306323
-19432566.271271
-19126204.236220
-18818542.201168
-18509445.166116
-18199192.131065
-17887706.096013
-17575177.060961
-17261677.025910
-16947174.990858
-16631859.955806
-16315827.920755
-15999100.885703
-15681861.850651
-15364153.815600
-15046123.780548
-14727783.745496
-14409424.710445
-14091004.675393
-13772624.640341
-13454543.605290
-13136748.570238
-12819405.535186
-12502607.500135
-12186561.465083
-11871425.430031
-11557243.394980
-11244165.359928
-10932360.324876
-10621937.289825
-10313023.254773
-10005826.219721
-9700479.184670
-9397115.149618
-9095876.114566
-8796901.079515
-8500392.044463
-8206509.009411
-7915264.974359
-7626996.939308
-7341820.904256
-7059719.869204
-6780993.834153
-6505975.799101
-6234398.764049
-5966694.728998
-5702947.693946
-5443375.658894
-5188050.623843
-4937036.588791
-4690612.553739
-4448883.518688
-4211927.483636
-3979943.448584
-3752999.413533
-3531250.378481
-3314786.343429
-3103701.308378
-2898278.273326
-2698376.238274
-2504276.203223
-2315902.168171
-2133489.133119
-1957003.098068
-1786556.063016
-1622257.027964
-1464077.992913
-1312091.957861
-1166407.922809
-1026871.887758
-893715.852706
-766876.817654
-646275.782603
-532019.747551
-424039.712499
-322302.677447
-226859.642396
-137519.607344
-54411.572292
-20011871.420506
72006.383628
-4939.651423
-87866.686475
-177013.721527
-272362.756578
-373931.791630
-481711.826682
-595965.861733
-716422.896785
-843268.931837
-976417.966888
-1115794.001940
-1261541.036992
-1413544.072043
-1571769.107095
-1736131.142147
-1906628.177198
-2083121.212250
-2265734.247302
-2454216.282353
-2648503.317405
-2848542.352457
-3054207.387508
-3265466.422560
-3482052.457612
-3703984.492663
-3931207.527715
-4163424.562767
-4400605.597818
-4642631.632870
-4889303.667922
-5140611.702973
-5396295.738025
-5656194.773077
-5920225.808128
-6188264.843180
-6460140.878232
-6735653.913284
-7014635.948335
-7296976.983387
-7582605.018439
-7871317.053490
-8162859.088542
-8457154.123594
-8754050.158645
-9053361.193697
-9355030.228749
-9658786.263800
-9964596.298852
-10272143.333904
-10581422.368955
-10892232.404007
-11204447.439059
-11517946.474110
-11832566.509162
-12148122.544214
-12464617.579265
-12781753.614317
-13099482.649369
-13417681.684420
-13736225.719472
-14054938.754524
-14373739.789575
-14692613.824627
-15011256.859679
-15329705.894730
-15647808.929782
-15965462.964834
-16282556.999885
-16598974.034937
-16914614.069989
-17229521.105040
-17543443.140092
-17856282.175144
-18168109.210196
-18478745.245247
-18788187.280299
-19096241.315351
-19402950.350402
-19708162.385454
-20014866.712592
-20017836.004679
-20020828.296766
-20023746.588853
-20026749.880940
-20029561.173027
-20032403.465114
-20035240.757201
-20038069.049288
28914.754846
34735.046933
40296.339020
45619.631107
50666.923194
55434.215281
59987.507368
64296.799455
68231.091542
-8674.943510
-12687.235597
-16951.527684
-21507.819771
-26321.111858
-31370.403945
-36725.696032
-42320.988119
-48223.280206
-91600.978562
-95678.270649
-100005.562736
-104587.854823
-109322.146910
-114504.438996
-119830.731083
-125490.023170
-131352.315257
-180817.013613
-184806.305700
-189174.597787
-193764.889874
-198585.181961
-203700.474048
-209084.766135
-214765.058222
-220654.350309
-276107.048665
-280163.340752
-284521.632839
-289079.924926
-293927.217013
-299165.509100
-304548.801187
-310232.093274
-316154.385361
-377739.083717
-381803.375804
-386110.667891
-390762.959978
-395666.252065
-400789.544151
-406232.836238
-411917.128325
-417838.420412
-485563.118768
-489688.410855
-494038.702942
-498657.995029
-503528.287116
-508718.579203
-514143.871290
-519817.163377
-525797.455464
-599758.153820
-603872.445907
-608225.737994
-612777.030081
-617736.322168
-622934.614255
-628333.906342
-634084.198429
-640006.490516
-720268.188872
-724407.480959
-728717.773046
-733380.065133
-738298.357220
-743493.649306
-748863.941393
-754624.233480
-760630.525567
-847138.223924
-851185.516010
-855571.808097
-860214.100184
-865123.392271
-870289.684358
-875774.976445
-881504.268532
-887413.560619
-980210.258975
-984365.551062
-988674.843149
-993365.135236
-998293.427323
-1003490.719410
-1008896.011497
-1014609.303584
-1020629.595671
-1119678.294027
-1123818.586114
-1128190.878201
-1132815.170288
-1137720.462375
-1142922.754462
-1148369.046548
-1154129.338635
-1160057.630722
-1265413.329079
-1269475.621165
-1273921.913252
-1278507.205339
-1283494.497426
-1288658.789513
-1294168.081600
-1299847.373687
-1305822.665774
-1417357.364130
-1421507.656217
-1425865.948304
-1430538.240391
-1435493.532478
-1440613.824565
-1446072.116652
-1451817.408739
-1457848.700826
-1575613.399182
-1579721.691269
-1584083.983356
-1588743.275443
-1593730.567530
-1598845.859617
-1604315.151703
-1610067.443790
-1615996.735877
-1740003.434234
-1744117.726321
-1748489.018407
-1753092.310494
-1758098.602581
-1763210.894668
-1768653.186755
-1774450.478842
-1780358.770929
-1910464.469285
-1914570.761372
-1919010.053459
-1923614.345546
-1928557.637633
-1933747.929720
-1939127.221807
-1944867.513894
-1950798.805981
-2087010.504337
-2091212.796424
-2095517.088511
-2100221.380598
-2105066.672685
-2110250.964772
-2115664.256858
-2121325.548945
-2127309.841032
-2269606.539389
-2273736.831476
-2278040.123562
-2282640.415649
-2287624.707736
-2292725.999823
-2298196.291910
-2303783.583997
-2309772.876084
-2458082.574440
-2462153.866527
-2466550.158614
-2471160.450701
-2476061.742788
-2481167.034875
-2486547.326962
-2492169.619049
-2498073.911136
-2652331.609492
-2656491.901579
-2660805.193666
-2665443.485753
-2670253.777840
-2675436.069927
-2680779.362014
-2686398.654100
-2692244.946187
-2852386.644544
-2856461.936631
-2860817.228717
-2865407.520804
-2870290.812891
-2875384.104978
-2880769.397065
-2886295.689152
-2892132.981239
-3058052.679595
-3062111.971682
-3066457.263769
-3071061.555856
-3075914.847943
-3080959.140030
-3086306.432117
-3091900.724204
-3097727.016291
-3269268.714647
-3273322.006734
-3277644.298821
-3282233.590908
-3287033.882995
-3292093.175082
-3297411.467169
-3302976.759255
-3308742.051342
-3485917.749699
-3489940.041786
-3494277.333873
-3498844.625959
-3503594.918046
-3508675.210133
-3513950.502220
-3519510.794307
-3525229.086394
-3707857.784750
-3711863.076837
-3716181.368924
-3720769.661011
-3725559.953098
-3730553.245185
-3735866.537272
-3741311.829359
-3747000.121446
-3935004.819802
-3939109.111889
-3943376.403976
-3947865.696063
-3952635.988150
-3957619.280237
-3962808.572324
-3968357.864410
-3973994.156497
-4167225.854854
-4171303.146941
-4175545.439028
-4180093.731114
-4184764.023201
-4189749.315288
-4194952.607375
-4200383.899462
-4206048.191549
-4404413.889905
-4408479.181992
-4412710.474079
-4417220.766166
-4421937.058253
-4426849.350340
-4432000.642427
-4437421.934514
-4443002.226601
-4646449.924957
-4650492.217044
-4654685.509131
-4659166.801218
-4663886.093305
-4668777.385392
-4673907.677479
-4679222.969566
-4684800.261652
-4893128.960009
-4897129.252096
-4901394.544183
-4905807.836269
-4910427.128356
-4915324.420443
-4920469.712530
-4925771.004617
-4931327.296704
-5144370.995060
-5148394.287147
-5152620.579234
-5156929.871321
-5161657.163408
-5166555.455495
-5171491.747582
-5176846.039669
-5182344.331756
-5400006.030112
-5404026.322199
-5408204.614286
-5412561.906373
-5417240.198460
-5421983.490547
-5427006.782634
-5432296.074721
-5437751.366807
-5659981.065164
-5663918.357251
-5668079.649338
-5672443.941425
-5677016.233511
-5681850.525598
-5686812.817685
-5692014.109772
-5697384.401859
-5924002.100215
-5927902.392302
-5932026.684389
-5936451.976476
-5941025.268563
-5945692.560650
-5950656.852737
-5955785.144824
-5961147.436911
-6192027.135267
-6195902.427354
-6200045.719441
-6204415.011528
-6208882.303615
-6213606.595702
-6218537.887789
-6223585.179876
-6228858.471962
-6463840.170319
-6467737.462406
-6471806.754493
-6476110.046580
-6480627.338666
-6485260.630753
-6490133.922840
-6495227.214927
-6500443.507014
-6739319.205370
-6743228.497457
-6747266.789544
-6751573.081631
-6756005.373718
-6760636.665805
-6765481.957892
-6770480.249979
-6775760.542066
-7018319.240422
-7022218.532509
-7026257.824596
-7030479.116683
-7034900.408770
-7039500.700857
-7044302.992944
-7049250.285031
-7054422.577118
-7300711.275474
-7304582.567561
-7308595.859648
-7312804.151735
-7317212.443821
-7321759.735908
-7326492.027995
-7331350.320082
-7336571.612169
-7586277.310525
-7590132.602612
-7594148.894699
-7598318.186786
-7602684.478873
-7607198.770960
-7611927.063047
-7616741.355134
-7621827.647221
-7874912.345577
-7878763.637664
-7882711.929751
-7886913.221838
-7891208.513925
-7895738.806012
-7900399.098099
-7905199.390186
-7910151.682273
-8166447.380629
-8170291.672716
-8174242.964803
-8178349.256890
-8182691.548977
-8187083.841063
-8191716.133150
-8196447.425237
-8201399.717324
-8460752.415680
-8464517.707767
-8468521.999854
-8472619.291941
-8476839.584028
-8481220.876115
-8485789.168202
-8490486.460289
-8495397.752376
-8757668.450732
-8761391.742819
-8765310.034906
-8769381.326993
-8773616.619080
-8778001.911167
-8782435.203254
-8787104.495341
-8791896.787428
-9056958.485784
-9060681.777871
-9064650.069958
-9068580.362045
-9072840.654132
-9077126.946218
-9081621.238305
-9086224.530392
-9090923.822479
-9358610.520836
-9362322.812922
-9366184.105009
-9370175.397096
-9374316.689183
-9378609.981270
-9382976.273357
-9387575.565444
-9392270.857531
-9662361.555887
-9666095.847974
-9669898.140061
-9673832.432148
-9677971.724235
-9682142.016322
-9686548.308409
-9691064.600496
-9695702.892583
-9968085.590939
-9971779.883026
-9975551.175113
-9979504.467200
-9983552.759287
-9987773.051374
-9992101.343460
-9996540.635547
-10001087.927634
-10275649.625991
-10279335.918077
-10283119.210164
-10287037.502251
-10291018.794338
-10295220.086425
-10299477.378512
-10303864.670599
-10308309.962686
-10584945.661042
-10588543.953129
-10592339.245216
-10596170.537303
-10600130.829390
-10604240.121477
-10608448.413564
-10612837.705651
-10617346.997738
-10895733.696094
-10899366.988181
-10903064.280268
-10906877.572355
-10910905.864442
-10914931.156529
-10919098.448615
-10923414.740702
-10927798.032789
-11207942.731146
-11211554.023232
-11215201.315319
-11219048.607406
-11222962.899493
-11226977.191580
-11231061.483667
-11235359.775754
-11239685.067841
-11521410.766197
-11524956.058284
-11528612.350371
-11532419.642458
-11536358.934545
-11540330.226632
-11544388.518719
-11548538.810806
-11552832.102893
-11835973.801249
-11839543.093336
-11843180.385423
-11846975.677510
-11850808.969597
-11854755.261684
-11858752.553770
-11862916.845857
-11867083.137944
-12151537.836301
-12155102.128388
-12158686.420474
-12162468.712561
-12166249.004648
-12170095.296735
-12174071.588822
-12178172.880909
-12182325.172996
-12467982.871352
-12471571.163439
-12475100.455526
-12478819.747613
-12482537.039700
-12486395.331787
-12490358.623874
-12494343.915961
-12498418.208048
-12785112.906404
-12788598.198491
-12792193.490578
-12795843.782665
-12799529.074752
-12803336.366839
-12807254.658926
-12811178.951012
-12815233.243099
-13102835.941456
-13106328.233543
-13109808.525629
-13113435.817716
-13117091.109803
-13120966.401890
-13124778.693977
-13128650.986064
-13132666.278151
-13421033.976507
-13424462.268594
-13427981.560681
-13431584.852768
-13435236.144855
-13438879.436942
-13442753.729029
-13446570.021116
-13450488.313203
-13739571.011559
-13742963.303646
-13746441.595733
-13750012.887820
-13753578.179907
-13757296.471994
-13761017.764081
-13764817.056167
-13768682.348254
-14058284.046611
-14061615.338698
-14065071.630785
-14068652.922871
-14072209.214958
-14075859.507045
-14079569.799132
-14083265.091219
-14087092.383306
-14377092.081662
-14380497.373749
-14383888.665836
-14387402.957923
-14390909.250010
-14394496.542097
-14398198.834184
-14401820.126271
-14405619.418358
-14695835.116714
-14699271.408801
-14702586.700888
-14706065.992975
-14709610.285062
-14713114.577149
-14716695.869236
-14720414.161322
-14724133.453409
-15014558.151766
-15017893.443853
-15021293.735940
-15024653.028026
-15028117.320113
-15031654.612200
-15035187.904287
-15038737.196374
-15042431.488461
-15333014.186817
-15336260.478904
-15339606.770991
-15343003.063078
-15346391.355165
-15349882.647252
-15353425.939339
-15356958.231426
-15360492.523513
-15651090.221869
-15654360.513956
-15657636.806043
-15661009.098130
-15664430.390217
-15667831.682304
-15671261.974391
-15674743.266478
-15678256.558564
-15968700.256921
-15971938.549008
-15975228.841095
-15978514.133181
-15981912.425268
-15985285.717355
-15988695.009442
-15992161.301529
-15995589.593616
-16285680.291972
-16288941.584059
-16292225.876146
-16295497.168233
-16298815.460320
-16302141.752407
-16305521.044494
-16308954.336581
-16312364.628668
-16602157.327024
-16605323.619111
-16608606.911198
-16611867.203285
-16615142.495372
-16618423.787459
-16621774.079546
-16625069.371633
-16628465.663719
-16917848.362076
-16921010.654163
-16924208.946250
-16927456.238337
-16930698.530423
-16933971.822510
-16937260.114597
-16940481.406684
-16943833.698771
-17232650.397127
-17235791.689214
-17238984.981301
-17242136.273388
-17245370.565475
-17248651.857562
-17251881.149649
-17255052.441736
-17258331.733823
-17546538.432179
-17549675.724266
-17552824.016353
-17556074.308440
-17559245.600527
-17562351.892614
-17565579.184701
-17568770.476788
-17571951.768874
-17859425.467231
-17862541.759318
-17865756.051405
-17868821.343492
-17871955.635578
-17875107.927665
-17878258.219752
-17881425.511839
-17884562.803926
-18171197.502282
-18174298.794369
-18177439.086456
-18180580.378543
-18183670.670630
-18186774.962717
-18189864.254804
-18192973.546891
-18196069.838978
-18481848.537334
-18484934.829421
-18488038.121508
-18491133.413595
-18494182.705682
-18497235.997769
-18500321.289856
-18503342.581943
-18506412.874030
-18791278.572386
-18794282.864473
-18797339.156560
-18800419.448647
-18803434.740733
-18806497.032820
-18809472.324907
-18812506.616994
-18815499.909081
-19099319.607437
-19102371.899524
-19105364.191611
-19108369.483698
-19111418.775785
-19114397.067872
-19117400.359959
-19120312.652046
-19123297.944133
-19406015.642489
-19409022.934576
-19412018.226663
-19414985.518750
-19417896.810837
-19420942.102924
-19423825.395011
-19426768.687098
-19429730.979185
-19711169.677541
-19714185.969628
-19717202.261715
-19720153.553802
-19723052.845889
-19725985.137975
-19728905.430062
-19731789.722149
-19734643.014236
SCALARS stress_2 float
LOOKUP_TABLE default
260915.049352
-2893283.339467
-2846922.259607
-2800529.179747
-2754136.099887
-2706943.020026
-2659973.940166
-2612524.860306
-2565235.780446
-2517722.700585
-2470081.620725
-2421576.540865
-2373999.461005
-2325782.381145
-2277117.301284
-2228612.221424
-2179915.141564
-2131378.061704
-2082136.981843
-2033791.901983
-1985062.822123
-1936397.742263
-1888052.662402
-1838779.582542
-1789634.502682
-1741577.422822
-1693008.342961
-1644087.263101
-1595806.183241
-1547813.103381
-1499404.023520
-1451666.943660
-1403833.863800
-1356224.783940
-1309447.704080
-1262318.624219
-1215285.544359
-1168892.464499
-1123011.384639
-1077130.304778
-1031793.224918
-987288.145058
-942207.065198
-897925.985337
-854444.905477
-811251.825617
-769050.745757
-726945.665896
-685128.586036
-644527.506176
-604054.426316
-564061.346455
-525348.266595
-486571.186735
-448466.106875
-411609.027014
-375327.947154
-339718.867294
-304909.787434
-270708.707574
-237595.627713
-205282.547853
-172873.467993
-142352.388133
-112727.308272
-83134.228412
-55237.148552
-27820.068692
-1042.988831
24550.091029
49407.170889
73144.250749
95857.330610
118122.410470
138883.490330
158972.570190
178197.650051
196654.729911
214023.809771
230496.889631
246265.969492
-2553531.120654
507195.268165
495554.188305
482953.108445
469840.028585
455510.948724
440701.868864
424100.789004
407339.709144
389650.629283
370393.549423
350496.469563
329671.389703
307790.309842
284693.229982
261212.150122
236259.070262
210473.990402
184048.910541
156567.830681
128094.750821
98821.670961
68396.591100
37331.511240
5434.431380
-27518.648480
-61175.728341
-95312.808201
-130665.888061
-166530.967921
-203452.047782
-241109.127642
-278766.207502
-317479.287362
-356704.367223
-397049.447083
-437778.526943
-479051.606803
-520964.686663
-563165.766524
-606390.846384
-649871.926244
-693897.006104
-738306.085965
-783035.165825
-828468.245685
-873837.325545
-919718.405406
-966143.485266
-1013176.565126
-1059473.644986
-1106826.724847
-1154595.804707
-1202140.884567
-1250229.964427
-1297967.044288
-1345992.124148
-1394593.204008
-1443258.283868
-1491699.363729
-1540204.443589
-1589317.523449
-1638174.603309
-1687159.683169
-1735952.763030
-1784585.842890
-1833826.922750
-1882588.002610
-1931029.082471
-1979630.162331
-2028647.242191
-2076768.322051
-2125433.401912
-2173618.481772
-2221739.561632
-2269924.641492
-2317597.721353
-2365302.801213
-2412495.881073
-2459624.960933
-2506562.040794
-2587487.142535
-2621635.164417
-2655463.186298
-2689611.208179
-2723855.230061
-2757331.251942
-2791639.273823
-2825403.295705
-2859135.317586
285719.071233
310811.093114
334975.114996
360003.136877
384231.158759
409227.180640
433487.202521
457971.224403
482455.246284
470622.166424
446170.144542
420982.122661
396530.100780
371342.078898
346666.057017
321414.035136
296482.013254
271357.991373
458373.086564
433185.064682
407869.042801
382681.020919
357652.999038
332464.977157
307084.955275
281320.933394
256420.911513
444716.006703
418983.984822
393955.962941
367359.941059
342779.919178
317047.897296
291283.875415
265647.853534
239723.831652
430034.926843
404494.904962
378858.883080
353158.861199
326690.839318
301118.817436
274938.795555
249238.773674
222610.751792
414809.846983
388597.825101
362673.803220
336269.781339
310313.759457
283749.737576
257569.715695
231037.693813
204825.671932
398048.767123
371868.745241
345400.723360
318964.701478
292496.679597
265772.657716
238984.635834
212708.613953
185632.592072
380711.687262
354051.665381
327455.643500
300635.621618
273975.599737
246931.577856
219823.555974
193131.534093
165927.512211
362446.607402
334794.585521
308294.563639
281314.541758
254430.519877
226842.497995
200022.476114
172306.454233
145070.432351
343189.527542
316049.505660
288749.483779
261417.461898
233701.440016
206337.418135
178653.396254
151449.374372
123669.352491
322972.447682
295608.425800
267764.403919
239728.382038
212204.360156
184136.338275
156772.316393
128704.294512
100604.272631
301571.367821
273695.345940
246043.324059
218039.302177
189907.280296
161871.258415
133867.236533
105447.214652
77251.192770
279882.287961
251654.266080
223234.244198
195102.222317
166330.200436
138230.178554
110290.156673
81390.134792
52906.112910
256433.208101
228237.186220
199657.164338
170981.142457
142593.120575
113821.098694
85273.076813
56245.054931
27633.033050
232472.128241
203796.106359
175024.084478
145836.062597
117352.040715
88356.018834
59711.996952
30619.975071
1655.953190
207519.048380
178587.026499
149399.004618
120242.982736
91406.960855
62154.938974
32774.917092
3554.895211
-25857.126670
181413.968520
152513.946639
122941.924757
93721.902876
64213.880995
35153.859113
5645.837232
-24022.184649
-53722.206531
154444.888660
125160.866779
95364.844897
66048.823016
36540.801134
6968.779253
-23115.242628
-53359.264510
-82387.286391
126835.808800
97071.786918
67339.765037
37191.743156
7491.721274
-22400.300607
-52388.322488
-82472.344370
-112172.366251
98362.728939
67926.707058
38162.685177
8014.663295
-21781.358586
-52409.380467
-82429.402349
-112865.424230
-142917.446111
68449.649079
38173.627198
8153.605316
-22314.416565
-52654.438446
-83250.460328
-113462.482209
-143546.504090
-174558.525972
38376.569219
7588.547338
-22655.474544
-53411.496425
-84071.518306
-115051.540188
-145039.562069
-175987.583951
-206807.605832
6959.489359
-23892.532523
-54488.554404
-85660.576285
-116064.598167
-146724.620048
-178120.641929
-208812.663811
-239760.685692
-25641.590502
-56269.612383
-87089.634264
-118069.656146
-149049.678027
-180285.699908
-211745.721790
-242309.743671
-273737.765552
-58050.670362
-89542.692243
-120970.714124
-151694.736006
-182994.757887
-214614.779769
-245498.801650
-276734.823531
-308354.845413
-92315.750222
-123487.772103
-154787.793985
-186247.815866
-217675.837747
-249231.859629
-281075.881510
-311959.903392
-343739.925273
-126676.830082
-158168.851964
-189628.873845
-221760.895726
-252772.917608
-284360.939489
-316076.961370
-348400.983252
-379733.005133
-161773.909942
-194001.931824
-225525.953705
-257049.975587
-289245.997468
-321154.019349
-352966.041231
-385130.063112
-416814.084993
-198150.989803
-229995.011684
-262031.033565
-294067.055447
-325783.077328
-357819.099210
-390239.121091
-422595.142972
-453959.164854
-235072.069663
-267396.091544
-299272.113426
-331404.135307
-363888.157188
-395796.179070
-427896.200951
-460508.222832
-492864.244714
-272793.149523
-304733.171405
-337089.193286
-369861.215167
-402025.237049
-434189.258930
-466609.280811
-499125.302693
-531609.324574
-310994.229383
-343222.251265
-375706.273146
-408382.295028
-441058.316909
-473862.338790
-506410.360672
-538446.382553
-571282.404434
-350123.309244
-382543.331125
-414867.353006
-447799.374888
-480251.396769
-512959.418650
-545859.440532
-578631.462413
-611339.484295
-389604.389104
-422408.410985
-455340.432867
-487760.454748
-520500.476629
-553496.498511
-586396.520392
-619488.542273
-652324.564155
-429661.468964
-462561.490845
-495685.512727
-528585.534608
-561549.556490
-594513.578371
-627221.600252
-660537.622134
-693309.644015
-470742.548824
-503994.570706
-536766.592587
-570082.614468
-603078.636350
-636042.658231
-669166.680113
-702482.701994
-735958.723875
-512431.628685
-545459.650566
-578519.672447
-611483.694329
-644671.716210
-677923.738091
-711367.759973
-744907.781854
-778543.803736
-554472.708545
-587468.730426
-620656.752308
-654068.774189
-687032.796070
-720924.817952
-754304.839833
-787748.861714
-820872.883596
-596865.788405
-630245.810286
-663273.832168
-697037.854049
-730481.875931
-763701.897812
-797657.919693
-831229.941575
-864673.963456
-640154.868265
-673310.890147
-706690.912028
-740358.933909
-774250.955791
-807918.977672
-840914.999554
-874775.021435
-908827.043316
-683507.948126
-716663.970007
-750395.991888
-783904.013770
-817828.035651
-851656.057532
-885708.079414
-919280.101295
-953172.123176
-727277.027986
-761169.049867
-794517.071749
-828377.093630
-862493.115511
-896161.137393
-930309.159274
-964201.181155
-998061.203037
-771910.107846
-805770.129727
-839790.151609
-873426.173490
-907318.195371
-941306.217253
-975646.239134
-1008802.261016
-1042982.282897
-816959.187706
-850915.209588
-884743.231469
-918859.253350
-952975.275232
-986643.297113
-1020535.318994
-1054523.340876
-1088703.362757
-862072.267567
-896028.289448
-930240.311329
-964420.333211
-998216.355092
-1032268.376973
-1066736.398855
-1100884.420736
-1134808.442617
-908049.347427
-942069.369308
-976057.391189
-1010269.413071
-1044289.434952
-1078725.456834
-1112937.478715
-1146861.500596
-1181521.522478
-954346.427287
-988110.449168
-1022290.471050
-1056438.492931
-1090778.514812
-1124926.536694
-1159362.558575
-1193286.580457
-1227914.602338
-1000739.507147
-1034407.529029
-1068907.550910
-1102959.572791
-1137427.594673
-1171607.616554
-1206043.638435
-1240607.660317
-1274723.682198
-1046908.587007
-1081248.608889
-1115620.630770
-1149800.652652
-1184300.674533
-1218320.696414
-1253140.718296
-1287704.740177
-1321980.762058
-1093973.666868
-1128121.688749
-1162877.710630
-1197217.732512
-1231461.754393
-1266121.776275
-1300589.798156
-1334897.820037
-1369333.841919
-1141262.746728
-1175826.768609
-1210262.790491
-1244730.812372
-1279070.834253
-1313282.856135
-1348198.878016
-1382730.899897
-1417166.921779
-1188583.826588
-1223147.848470
-1257839.870351
-1292179.892232
-1326903.914114
-1361275.935995
-1395519.957876
-1430243.979758
-1464904.001639
-1236704.906448
-1271140.928330
-1305704.950211
-1339788.972093
-1374704.993974
-1409045.015855
-1443577.037737
-1478333.059618
-1512897.081499
-1284889.986309
-1318814.008190
-1353890.030071
-1388134.051953
-1422698.073834
-1457070.095715
-1491666.117597
-1526582.139478
-1561178.161360
-1332595.066169
-1367319.088050
-1401627.109932
-1436223.131813
-1471075.153694
-1505223.175576
-1539979.197457
-1574799.219338
-1609555.241220
-1381228.146029
-1415024.167911
-1449908.189792
-1484632.211673
-1519516.233555
-1554176.255436
-1588772.277317
-1623240.299199
-1657804.321080
-1429221.225889
-1463913.247771
-1498509.269652
-1533233.291533
-1568053.313415
-1602361.335296
-1637373.357178
-1671745.379059
-1706309.400940
-1477694.305750
-1512194.327631
-1547078.349512
-1581738.371394
-1616206.393275
-1651122.415156
-1685910.437038
-1720634.458919
-1755198.480801
-1526551.385610
-1560731.407491
-1595647.429373
-1630211.451254
-1665319.473135
-1699435.495017
-1734767.516898
-1769619.538779
-1803927.560661
-1575216.465470
-1609748.487351
-1644600.509233
-1679228.531114
-1713920.552996
-1748516.574877
-1783016.596758
-1818028.618640
-1852880.640521
-1624009.545330
-1658413.567212
-1693329.589093
-1728309.610974
-1762649.632856
-1797661.654737
-1832097.676619
-1866981.698500
-1901449.720381
-1672898.625191
-1707686.647072
-1742218.668953
-1777006.690835
-1811506.712716
-1846198.734597
-1880922.756479
-1915582.778360
-1950050.800241
-1721787.705051
-1756575.726932
-1791171.748814
-1825575.770695
-1860587.792576
-1895151.814458
-1929779.836339
-1964439.858220
-1999067.880102
-1770548.784911
-1805208.806792
-1839836.828674
-1874176.850555
-1909572.872437
-1943752.894318
-1978508.916199
-2012880.938081
-2047828.959962
-1819373.864771
-1854065.886653
-1888437.908534
-1923257.930415
-1957661.952297
-1992449.974178
-2027621.996059
-2062026.017941
-2096398.039822
-1868550.944632
-1902922.966513
-1937486.988394
-1972211.010276
-2006871.032157
-2041371.054038
-2075999.075920
-2110723.097801
-2145031.119682
-1917024.024492
-1951716.046373
-1985832.068255
-2020844.090136
-2055216.112017
-2089780.133899
-2124472.155780
-2159196.177661
-2193984.199543
-1965529.104352
-2000477.126233
-2034689.148115
-2069317.169996
-2103817.191877
-2138509.213759
-2173393.235640
-2207957.257522
-2242841.279403
-2014322.184212
-2048630.206094
-2083386.227975
-2117822.249856
-2152290.271738
-2186790.293619
-2221866.315500
-2256238.337382
-2290866.359263
-2063019.264073
-2097199.285954
-2131923.307835
-2166167.329717
-2200859.351598
-2235423.373479
-2270051.395361
-2304551.417242
-2338859.439123
-2111652.343933
-2145672.365814
-2180492.387695
-2214576.409577
-2249076.431458
-2283960.453340
-2318460.475221
-2352448.497102
-2387492.518984
-2159549.423793
-2193793.445674
-2228805.467556
-2263145.489437
-2297325.511318
-2331697.533200
-2366037.555081
-2400729.576963
-2435325.598844
-2207766.503653
-2242330.525535
-2276638.547416
-2311042.569297
-2345670.591179
-2380106.613060
-2414798.634941
-2448818.656823
-2483030.678704
-2256143.583513
-2290547.605395
-2324663.627276
-2359291.649158
-2393439.671039
-2427843.692920
-2462151.714802
-2496459.736683
-2530959.758564
-2303976.663374
-2338124.685255
-2372912.707136
-2406804.729018
-2441368.750899
-2475452.772781
-2510016.794662
-2543876.816543
-2578440.838425
-2351681.743234
-2386021.765115
-2420073.786997
-2454381.808878
-2488785.830759
-2523189.852641
-2557369.874522
-2591581.896403
-2625601.918285
-2399290.823094
-2433534.844976
-2467906.866857
-2502118.888738
-2536298.910620
-2570222.932501
-2604594.954382
-2638646.976264
-2672986.998145
-2446547.902954
-2480823.924836
-2515099.946717
-2549247.968599
-2583203.990480
-2617064.012361
-2651628.034243
-2685616.056124
-2719988.078005
-2493996.982815
-2528241.004696
-2561845.026577
-2595833.048459
-2630525.070340
-2664161.092221
-2698245.114103
-2732297.135984
-2766381.157866
-2540774.062675
-2574890.084556
-2608878.106438
-2642834.128319
-2677174.150200
-2710682.172082
-2744862.193963
-2779138.215844
-2813030.237726
SCALARS stress_3 float
LOOKUP_TABLE default
87276.345875
5717479.204278
5636752.668548
5555714.132818
5474147.597088
5392189.061358
5309758.525628
5227151.989898
5143673.454168
5060050.918437
4976524.382707
4892389.846977
4807975.311247
4723144.775517
4638306.239787
4553163.704057
4467773.168327
4382326.632597
4296392.096867
4210825.561137
4124875.025407
4038932.489677
3952861.953947
3866935.418217
3781136.882487
3695130.346757
3609411.811027
3523869.275297
3438150.739567
3352976.203837
3267801.668107
3182867.132377
3098420.596647
3014046.060917
2930239.525187
2846776.989457
2763954.453727
2681235.917997
2599381.382267
2517974.846537
2437352.310806
2357089.775076
2277555.239346
2198852.703616
2120782.167886
2043671.632156
1967257.096426
1891706.560696
1817124.024966
1743733.489236
1670950.953506
1599256.417776
1528969.882046
1459579.346316
1391204.810586
1324134.274856
1258391.739126
1193921.203396
1130674.667666
1068532.131936
1008029.596206
948943.060476
890960.524746
834793.989016
779763.453286
726324.917556
674470.381826
624127.846096
575521.310366
528074.774636
482444.238906
438437.703175
395823.167445
355088.631715
315818.095985
278499.560255
242461.024525
208102.488795
175311.953065
144537.417335
115178.881605
5572350.549858
-46836.308544
-20109.772814
8208.762916
38231.298646
69629.834376
103012.370106
137778.905836
174569.441566
212879.977296
252702.513026
293997.048756
337539.584486
382242.120216
428736.655946
476807.191676
526349.727406
577524.263136
630418.798866
684641.334596
740351.870326
797718.406056
856260.941787
916323.477517
977882.013247
1040448.548977
1104823.084707
1170253.620437
1236908.156167
1304682.691897
1373793.227627
1443855.763357
1515174.299087
1587452.834817
1660987.370547
1735369.906277
1810792.442007
1887054.977737
1964077.513467
2041988.049197
2120802.584927
2200105.120657
2280359.656387
2361198.192117
2442452.727847
2524475.263577
2607305.799307
2690128.335037
2773686.870767
2857805.406497
2942147.942227
3026786.477957
3111849.013687
3197111.549418
3282678.085148
3368604.620878
3454291.156608
3540449.692338
3626776.228068
3712830.763798
3799109.299528
3885699.835258
3971826.370988
4057912.906718
4144095.442448
4230237.978178
4316092.513908
4401651.049638
4487225.585368
4572696.121098
4657702.656828
4742581.192558
4827275.728288
4911418.264018
4995576.799748
5078927.335478
5162317.871208
5245108.406938
5327474.942668
5409617.478398
5491152.014128
5586860.215300
5601585.880742
5616031.546184
5630453.211626
5644922.877068
5659584.542510
5674158.207952
5688555.873394
5703113.538836
73510.680433
60097.014991
46371.349549
32845.684107
19400.018665
6130.353224
-7243.312218
-20264.977660
-33550.643102
-6896.107372
6437.558070
19859.223512
33200.888954
46726.554396
60212.219837
73705.885279
87479.550721
101389.216163
21670.428358
34940.093800
48529.759242
61767.424684
75493.090126
89106.755567
102992.421009
116678.086451
130667.751893
51652.964088
64858.629530
78560.294972
92181.960414
105947.625856
119689.291298
133550.956739
147620.622181
161482.287623
83163.499818
97041.165260
110430.830702
124484.496144
138074.161586
151975.827028
165765.492469
179739.157911
193904.823353
116754.035548
130207.700990
144021.366432
157795.031874
172008.697316
185878.362758
199812.028200
214025.693641
228279.359083
151672.571278
165598.236720
179291.902162
193129.567604
207103.233046
221276.898488
235490.563930
249680.229371
264069.894813
188223.107008
202196.772450
216210.437892
230280.103334
244405.768776
258539.434218
272769.099660
286982.765102
301372.430543
226589.642738
240627.308180
254928.973622
268910.639064
283084.304506
297329.969948
311799.635390
325997.300832
340658.966273
266644.178468
280641.843910
294783.509352
309333.174794
323410.840236
337704.505678
352310.171120
366851.836562
381337.502004
308226.714198
322520.379640
336622.045082
351043.710524
365457.375966
379839.041408
394484.706850
408922.372292
423696.037734
351729.249928
365886.915370
380156.580812
394706.246254
409103.911696
423669.577138
438339.242580
452808.908022
467758.573464
396567.785658
410965.451100
425339.116542
439904.781984
454318.447426
469052.112868
483673.778310
498527.443752
513165.109194
443134.321388
457699.986830
472145.652272
486511.317714
501188.983156
515850.648598
530544.314040
545581.979482
560379.644924
491092.857118
505682.522560
520144.188002
534901.853444
549579.518886
564457.184328
579302.849770
594372.515212
609066.180654
540955.392848
555553.058290
570278.723732
584900.389174
599690.054616
614471.720058
629381.385500
644403.050942
659408.716384
592153.928578
606871.594020
621661.259462
636378.924904
651216.590346
666230.255788
681035.921230
696089.586672
711295.252114
644960.464308
659654.129750
674563.795192
689553.460634
704135.126076
719252.791518
734290.456960
749392.122402
764805.787844
699463.000038
714244.665480
728946.330922
743815.996364
758789.661806
773963.327248
788920.992690
804174.658132
819268.323574
755173.535768
769891.201210
784840.866652
799822.532094
814740.197536
830177.862978
845079.528420
860437.193862
875858.859304
812340.071498
827385.736940
842231.402382
857565.067824
872402.733266
887536.398708
902982.064150
918099.729592
933433.395034
871210.607228
886072.272670
901069.938112
916251.603554
931305.268996
946510.934438
961940.599880
977282.265322
992703.930764
931353.142958
946326.808400
961412.473842
976586.139284
991663.804726
1006957.470168
1022147.135610
1037776.801052
1053102.466494
992623.678689
1008125.344130
1022899.009572
1038384.675014
1053502.340456
1068684.005898
1084089.671340
1099679.336782
1115085.002224
1055622.214419
1070819.879860
1085969.545302
1101431.210744
1116516.876186
1131874.541628
1147440.207070
1162637.872512
1178371.537954
1119884.750149
1134962.415591
1150200.081032
1165589.746474
1180811.411916
1196305.077358
1211774.742800
1227228.408242
1242826.073684
1185339.285879
1200592.951321
1215886.616762
1231260.282204
1246521.947646
1261823.613088
1277613.278530
1293082.943972
1308584.609414
1252097.821609
1267271.487051
1282669.152493
1298026.817934
1313552.483376
1328790.148818
1344355.814260
1359785.479702
1375551.145144
1319968.357339
1335358.022781
1350547.688223
1366177.353664
1381519.019106
1396908.684548
1412482.349990
1427992.015432
1443637.680874
1388990.893069
1404260.558511
1419714.223953
1435103.889395
1450565.554836
1466059.220278
1481952.885720
1497598.551162
1513108.216604
1459301.428799
1474379.094241
1490120.759683
1505518.425125
1520964.090566
1536593.756008
1552175.421450
1567885.086892
1583474.752334
1530451.964529
1546073.629971
1561375.295413
1576948.960855
1592522.626297
1608104.291738
1623645.957180
1639395.622622
1655129.288064
1602954.500259
1618488.165701
1633837.831143
1649235.496585
1664961.162027
1680502.827468
1696308.492910
1711962.158352
1727775.823794
1676449.035989
1691806.701431
1707340.366873
1722842.032315
1738599.697757
1754165.363198
1769771.028640
1785600.694082
1801302.359524
1750671.571719
1766301.237161
1781826.902603
1797320.568045
1812870.233487
1828571.898929
1844105.564370
1859767.229812
1876060.895254
1826262.107449
1841747.772891
1857097.438333
1872671.103775
1888396.769217
1903922.434659
1919888.100100
1935605.765542
1951339.430984
1902420.643179
1917842.308621
1933487.974063
1949029.639505
1964723.304947
1980472.970389
1995950.635831
2011876.301272
2027697.966714
1979715.178909
1995112.844351
2010678.509793
2026108.175235
2041985.840677
2057679.506119
2073413.171561
2088938.837002
2105008.502444
2057281.714639
2073023.380081
2088717.045523
2104322.710965
2119808.376407
2135454.041849
2151235.707291
2167137.372733
2182967.038174
2136272.250369
2151693.915811
2167243.581253
2182801.246695
2198702.912137
2214348.577579
2229938.243021
2245791.908463
2261837.573904
2215534.786099
2231148.451541
2246778.116983
2262367.782425
2278189.447867
2293555.113309
2309656.778751
2325318.444193
2341268.109635
2295749.321829
2311250.987271
2326760.652713
2342662.318155
2358259.983597
2374049.649039
2389655.314481
2405396.979923
2421306.645365
2376611.857559
2392153.523001
2407631.188443
2423348.853885
2439210.519327
2454736.184769
2470405.850211
2486395.515653
2502049.181095
2458026.393289
2473720.058731
2489205.724173
2505059.389615
2520473.055057
2536398.720499
2552004.385941
2567714.051383
2583655.716825
2540136.929019
2555582.594461
2571380.259903
2587017.925345
2602663.590787
2618165.256229
2634106.921671
2649752.587113
2665614.252555
2622647.464749
2638269.130191
2653786.795633
2669480.461075
2685062.126517
2700787.791959
2716721.457401
2732303.122843
2747980.788285
2705726.000479
2721211.665921
2736969.331363
2752614.996805
2768188.662247
2783650.327689
2799519.993131
2815333.658573
2831139.324015
2789268.536209
2804890.201651
2820503.867093
2836069.532535
2851539.197977
2867368.863419
2883158.528861
2898908.194303
2914465.859745
2873203.071939
2888864.737381
2904486.402823
2919980.068265
2935553.733707
2951455.399149
2966917.064591
2982538.730033
2998408.395475
2957721.607669
2973167.273111
2988780.938553
3004370.603995
3019824.269437
3035645.934879
3051203.600321
3066785.265763
3082838.931205
3042360.143399
3057957.808841
3073227.474283
3089017.139725
3104654.805167
3120260.470609
3135770.136051
3151447.801493
3167125.466935
3127310.679129
3142684.344571
3158346.010013
3173927.675455
3189389.340897
3205179.006339
3220712.671781
3236470.337223
3252188.002665
3212517.214859
3228018.880301
3243624.545743
3259150.211185
3274915.876627
3290185.542069
3305847.207511
3321508.872953
3337234.538395
3298163.750589
3313649.416031
3329231.081473
3344684.746915
3360218.412357
3375752.077799
3391493.743241
3406827.408683
3422433.074125
3383962.286320
3399479.951761
3414861.617203
3430107.282645
3445808.948087
3461510.613529
3477044.278971
3492377.944413
3508183.609855
3469864.822050
3485286.487491
3500756.152933
3516209.818375
3531623.483817
3547237.149259
3562578.814701
3578272.480143
3593790.145585
3555799.357780
3571141.023222
3586570.688663
3602288.354105
3617478.019547
3632915.684989
3648497.350431
3664215.015873
3679444.681315
3641965.893510
3657483.558952
3672905.224393
3688214.889835
3703604.555277
3719042.220719
3734543.886161
3750061.551603
3765795.217045
3728260.429240
3743642.094682
3759039.760124
3774325.425565
3789755.091007
3805120.756449
3820694.421891
3836172.087333
3851673.752775
3814538.964970
3829664.630412
3845046.295854
3860611.961295
3875961.626737
3891351.292179
3906804.957621
3922234.623063
3937632.288505
3900825.500700
3916055.166142
3931268.831584
3946658.497026
3961968.162467
3977485.827909
3992851.493351
4008353.158793
4023526.824235
3987072.036430
4002277.701872
4017531.367314
4032889.032756
4048230.698197
4063564.363639
4078770.029081
4094175.694523
4109621.359965
4073270.572160
4088348.237602
4103777.903044
4118967.568486
4134429.233928
4149562.899369
4165016.564811
4180094.230253
4195531.895695
4159349.107890
4174578.773332
4189800.438774
4204742.104216
4220395.769658
4235329.435099
4250815.100541
4266260.765983
4281250.431425
4245251.643620
4260385.309062
4275734.974504
4290828.639946
4306266.305388
4321263.970830
4336485.636271
4351827.301713
4367000.967155
4331098.179350
4346183.844792
4361605.510234
4376683.175676
4392080.841118
4407230.506560
4422244.172001
4437441.837443
4452575.502885
4416952.715080
4431998.380522
4447060.045964
4462161.711406
4477407.376848
4492477.042290
4507674.707731
4522800.373173
4537958.038615
4502447.250810
4517540.916252
4532474.581694
4547896.247136
4562733.912578
4577891.578020
4592873.243462
4608078.908903
4623148.574345
4587701.786540
4602571.451982
4617969.117424
4632814.782866
4647812.448308
4662986.113750
4678103.779192
4693157.444633
4708067.110075
4672812.322270
4687729.987712
4702807.653154
4717965.318596
4732986.984038
4747968.649480
4762814.314922
4777787.980364
4792953.645805
4757682.858000
4772688.523442
4787614.188884
4802611.854326
4817393.519768
4832399.185210
4847356.850652
4862426.516094
4877288.181535
4842145.393730
4857119.059172
4871964.724614
4886850.390056
4901912.055498
4916733.720940
4931787.386382
4946625.051824
4961606.717266
4926351.929460
4941277.594902
4956131.260344
4971080.925786
4985942.591228
5000676.256670
5015793.922112
5030551.587554
5045373.252996
5010222.465190
5025084.130632
5040049.796074
5054855.461516
5069661.126958
5084394.792400
5099304.457842
5114246.123284
5128987.788726
5093845.000920
5108722.666362
5123360.331804
5138165.997246
5153051.662688
5167953.328130
5182510.993572
5197428.659014
5212210.324456
5176875.536650
5191745.202092
5206678.867534
5221276.532976
5236090.198418
5250783.863860
5265565.529302
5280267.194744
5295056.860186
5259962.072380
5274511.737822
5289157.403264
5303971.068706
5318520.734148
5333446.399590
5348108.065032
5362769.730474
5377399.395916
5342352.608110
5356886.273552
5371715.938994
5386361.604436
5400991.269878
5415396.935320
5430298.600762
5444920.266204
5459405.931646
5424279.143840
5438932.809282
5453442.474724
5468000.140166
5482797.805608
5497483.471050
5511801.136492
5526390.801934
5541028.467376
5505893.679570
5520235.345012
5535113.010454
5549486.675896
5564092.341338
5578714.006780
5593223.672222
5607813.337664
5622219.003106
