# vtk DataFile Version 2.0
Generated volume Mesh
ASCII
DATASET UNSTRUCTURED_GRID
POINTS 891 float
0.005000 0.100000 0.000000
0.005000 0.000000 0.000000
0.005000 0.001250 0.000000
0.005000 0.002500 0.000000
0.005000 0.003750 0.000000
0.005000 0.005000 0.000000
0.005000 0.006250 0.000000
0.005000 0.007500 0.000000
0.005000 0.008750 0.000000
0.005000 0.010000 0.000000
0.005000 0.011250 0.000000
0.005000 0.012500 0.000000
0.005000 0.013750 0.000000
0.005000 0.015000 0.000000
0.005000 0.016250 0.000000
0.005000 0.017500 0.000000
0.005000 0.018750 0.000000
0.005000 0.020000 0.000000
0.005000 0.021250 0.000000
0.005000 0.022500 0.000000
0.005000 0.023750 0.000000
0.005000 0.025000 0.000000
0.005000 0.026250 0.000000
0.005000 0.027500 0.000000
0.005000 0.028750 0.000000
0.005000 0.030000 0.000000
0.005000 0.031250 0.000000
0.005000 0.032500 0.000000
0.005000 0.033750 0.000000
0.005000 0.035000 0.000000
0.005000 0.036250 0.000000
0.005000 0.037500 0.000000
0.005000 0.038750 0.000000
0.005000 0.040000 0.000000
0.005000 0.041250 0.000000
0.005000 0.042500 0.000000
0.005000 0.043750 0.000000
0.005000 0.045000 0.000000
0.005000 0.046250 0.000000
0.005000 0.047500 0.000000
0.005000 0.048750 0.000000
0.005000 0.050000 0.000000
0.005000 0.051250 0.000000
0.005000 0.052500 0.000000
0.005000 0.053750 0.000000
0.005000 0.055000 0.000000
0.005000 0.056250 0.000000
0.005000 0.057500 0.000000
0.005000 0.058750 0.000000
0.005000 0.060000 0.000000
0.005000 0.061250 0.000000
0.005000 0.062500 0.000000
0.005000 0.063750 0.000000
0.005000 0.065000 0.000000
0.005000 0.066250 0.000000
0.005000 0.067500 0.000000
0.005000 0.068750 0.000000
0.005000 0.070000 0.000000
0.005000 0.071250 0.000000
0.005000 0.072500 0.000000
0.005000 0.073750 0.000000
0.005000 0.075000 0.000000
0.005000 0.076250 0.000000
0.005000 0.077500 0.000000
0.005000 0.078750 0.000000
0.005000 0.080000 0.000000
0.005000 0.081250 0.000000
0.005000 0.082500 0.000000
0.005000 0.083750 0.000000
0.005000 0.085000 0.000000
0.005000 0.086250 0.000000
0.005000 0.087500 0.000000
0.005000 0.088750 0.000000
0.005000 0.090000 0.000000
0.005000 0.091250 0.000000
0.005000 0.092500 0.000000
0.005000 0.093750 0.000000
0.005000 0.095000 0.000000
0.005000 0.096250 0.000000
0.005000 0.097500 0.000000
0.005000 0.098750 0.000000
0.000000 0.000000 0.000000
0.000000 0.100000 0.000000
0.000000 0.098750 0.000000
0.000000 0.097500 0.000000
0.000000 0.096250 0.000000
0.000000 0.095000 0.000000
0.000000 0.093750 0.000000
0.000000 0.092500 0.000000
0.000000 0.091250 0.000000
0.000000 0.090000 0.000000
0.000000 0.088750 0.000000
0.000000 0.087500 0.000000
0.000000 0.086250 0.000000
0.000000 0.085000 0.000000
0.000000 0.083750 0.000000
0.000000 0.082500 0.000000
0.000000 0.081250 0.000000
0.000000 0.080000 0.000000
0.000000 0.078750 0.000000
0.000000 0.077500 0.000000
0.000000 0.076250 0.000000
0.000000 0.075000 0.000000
0.000000 0.073750 0.000000
0.000000 0.072500 0.000000
0.000000 0.071250 0.000000
0.000000 0.070000 0.000000
0.000000 0.068750 0.000000
0.000000 0.067500 0.000000
0.000000 0.066250 0.000000
0.000000 0.065000 0.000000
0.000000 0.063750 0.000000
0.000000 0.062500 0.000000
0.000000 0.061250 0.000000
0.000000 0.060000 0.000000
0.000000 0.058750 0.000000
0.000000 0.057500 0.000000
0.000000 0.056250 0.000000
0.000000 0.055000 0.000000
0.000000 0.053750 0.000000
0.000000 0.052500 0.000000
0.000000 0.051250 0.000000
0.000000 0.050000 0.000000
0.000000 0.048750 0.000000
0.000000 0.047500 0.000000
0.000000 0.046250 0.000000
0.000000 0.045000 0.000000
0.000000 0.043750 0.000000
0.000000 0.042500 0.000000
0.000000 0.041250 0.000000
0.000000 0.040000 0.000000
0.000000 0.038750 0.000000
0.000000 0.037500 0.000000
0.000000 0.036250 0.000000
0.000000 0.035000 0.000000
0.000000 0.033750 0.000000
0.000000 0.032500 0.000000
0.000000 0.031250 0.000000
0.000000 0.030000 0.000000
0.000000 0.028750 0.000000
0.000000 0.027500 0.000000
0.000000 0.026250 0.000000
0.000000 0.025000 0.000000
0.000000 0.023750 0.000000
0.000000 0.022500 0.000000
0.000000 0.021250 0.000000
0.000000 0.020000 0.000000
0.000000 0.018750 0.000000
0.000000 0.017500 0.000000
0.000000 0.016250 0.000000
0.000000 0.015000 0.000000
0.000000 0.013750 0.000000
0.000000 0.012500 0.000000
0.000000 0.011250 0.000000
0.000000 0.010000 0.000000
0.000000 0.008750 0.000000
0.000000 0.007500 0.000000
0.000000 0.006250 0.000000
0.000000 0.005000 0.000000
0.000000 0.003750 0.000000
0.000000 0.002500 0.000000
0.000000 0.001250 0.000000
0.000500 0.000000 0.000000
0.001000 0.000000 0.000000
0.001500 0.000000 0.000000
0.002000 0.000000 0.000000
0.002500 0.000000 0.000000
0.003000 0.000000 0.000000
0.003500 0.000000 0.000000
0.004000 0.000000 0.000000
0.004500 0.000000 0.000000
0.004500 0.100000 0.000000
0.004000 0.100000 0.000000
0.003500 0.100000 0.000000
0.003000 0.100000 0.000000
0.002500 0.100000 0.000000
0.002000 0.100000 0.000000
0.001500 0.100000 0.000000
0.001000 0.100000 0.000000
0.000500 0.100000 0.000000
0.000500 0.098750 0.000000
0.001000 0.098750 0.000000
0.001500 0.098750 0.000000
0.002000 0.098750 0.000000
0.002500 0.098750 0.000000
0.003000 0.098750 0.000000
0.003500 0.098750 0.000000
0.004000 0.098750 0.000000
0.004500 0.098750 0.000000
0.000500 0.097500 0.000000
0.001000 0.097500 0.000000
0.001500 0.097500 0.000000
0.002000 0.097500 0.000000
0.002500 0.097500 0.000000
0.003000 0.097500 0.000000
0.003500 0.097500 0.000000
0.004000 0.097500 0.000000
0.004500 0.097500 0.000000
0.000500 0.096250 0.000000
0.001000 0.096250 0.000000
0.001500 0.096250 0.000000
0.002000 0.096250 0.000000
0.002500 0.096250 0.000000
0.003000 0.096250 0.000000
0.003500 0.096250 0.000000
0.004000 0.096250 0.000000
0.004500 0.096250 0.000000
0.000500 0.095000 0.000000
0.001000 0.095000 0.000000
0.001500 0.095000 0.000000
0.002000 0.095000 0.000000
0.002500 0.095000 0.000000
0.003000 0.095000 0.000000
0.003500 0.095000 0.000000
0.004000 0.095000 0.000000
0.004500 0.095000 0.000000
0.000500 0.093750 0.000000
0.001000 0.093750 0.000000
0.001500 0.093750 0.000000
0.002000 0.093750 0.000000
0.002500 0.093750 0.000000
0.003000 0.093750 0.000000
0.003500 0.093750 0.000000
0.004000 0.093750 0.000000
0.004500 0.093750 0.000000
0.000500 0.092500 0.000000
0.001000 0.092500 0.000000
0.001500 0.092500 0.000000
0.002000 0.092500 0.000000
0.002500 0.092500 0.000000
0.003000 0.092500 0.000000
0.003500 0.092500 0.000000
0.004000 0.092500 0.000000
0.004500 0.092500 0.000000
0.000500 0.091250 0.000000
0.001000 0.091250 0.000000
0.001500 0.091250 0.000000
0.002000 0.091250 0.000000
0.002500 0.091250 0.000000
0.003000 0.091250 0.000000
0.003500 0.091250 0.000000
0.004000 0.091250 0.000000
0.004500 0.091250 0.000000
0.000500 0.090000 0.000000
0.001000 0.090000 0.000000
0.001500 0.090000 0.000000
0.002000 0.090000 0.000000
0.002500 0.090000 0.000000
0.003000 0.090000 0.000000
0.003500 0.090000 0.000000
0.004000 0.090000 0.000000
0.004500 0.090000 0.000000
0.000500 0.088750 0.000000
0.001000 0.088750 0.000000
0.001500 0.088750 0.000000
0.002000 0.088750 0.000000
0.002500 0.088750 0.000000
0.003000 0.088750 0.000000
0.003500 0.088750 0.000000
0.004000 0.088750 0.000000
0.004500 0.088750 0.000000
0.000500 0.087500 0.000000
0.001000 0.087500 0.000000
0.001500 0.087500 0.000000
0.002000 0.087500 0.000000
0.002500 0.087500 0.000000
0.003000 0.087500 0.000000
0.003500 0.087500 0.000000
0.004000 0.087500 0.000000
0.004500 0.087500 0.000000
0.000500 0.086250 0.000000
0.001000 0.086250 0.000000
0.001500 0.086250 0.000000
0.002000 0.086250 0.000000
0.002500 0.086250 0.000000
0.003000 0.086250 0.000000
0.003500 0.086250 0.000000
0.004000 0.086250 0.000000
0.004500 0.086250 0.000000
0.000500 0.085000 0.000000
0.001000 0.085000 0.000000
0.001500 0.085000 0.000000
0.002000 0.085000 0.000000
0.002500 0.085000 0.000000
0.003000 0.085000 0.000000
0.003500 0.085000 0.000000
0.004000 0.085000 0.000000
0.004500 0.085000 0.000000
0.000500 0.083750 0.000000
0.001000 0.083750 0.000000
0.001500 0.083750 0.000000
0.002000 0.083750 0.000000
0.002500 0.083750 0.000000
0.003000 0.083750 0.000000
0.003500 0.083750 0.000000
0.004000 0.083750 0.000000
0.004500 0.083750 0.000000
0.000500 0.082500 0.000000
0.001000 0.082500 0.000000
0.001500 0.082500 0.000000
0.002000 0.082500 0.000000
0.002500 0.082500 0.000000
0.003000 0.082500 0.000000
0.003500 0.082500 0.000000
0.004000 0.082500 0.000000
0.004500 0.082500 0.000000
0.000500 0.081250 0.000000
0.001000 0.081250 0.000000
0.001500 0.081250 0.000000
0.002000 0.081250 0.000000
0.002500 0.081250 0.000000
0.003000 0.081250 0.000000
0.003500 0.081250 0.000000
0.004000 0.081250 0.000000
0.004500 0.081250 0.000000
0.000500 0.080000 0.000000
0.001000 0.080000 0.000000
0.001500 0.080000 0.000000
0.002000 0.080000 0.000000
0.002500 0.080000 0.000000
0.003000 0.080000 0.000000
0.003500 0.080000 0.000000
0.004000 0.080000 0.000000
0.004500 0.080000 0.000000
0.000500 0.078750 0.000000
0.001000 0.078750 0.000000
0.001500 0.078750 0.000000
0.002000 0.078750 0.000000
0.002500 0.078750 0.000000
0.003000 0.078750 0.000000
0.003500 0.078750 0.000000
0.004000 0.078750 0.000000
0.004500 0.078750 0.000000
0.000500 0.077500 0.000000
0.001000 0.077500 0.000000
0.001500 0.077500 0.000000
0.002000 0.077500 0.000000
0.002500 0.077500 0.000000
0.003000 0.077500 0.000000
0.003500 0.077500 0.000000
0.004000 0.077500 0.000000
0.004500 0.077500 0.000000
0.000500 0.076250 0.000000
0.001000 0.076250 0.000000
0.001500 0.076250 0.000000
0.002000 0.076250 0.000000
0.002500 0.076250 0.000000
0.003000 0.076250 0.000000
0.003500 0.076250 0.000000
0.004000 0.076250 0.000000
0.004500 0.076250 0.000000
0.000500 0.075000 0.000000
0.001000 0.075000 0.000000
0.001500 0.075000 0.000000
0.002000 0.075000 0.000000
0.002500 0.075000 0.000000
0.003000 0.075000 0.000000
0.003500 0.075000 0.000000
0.004000 0.075000 0.000000
0.004500 0.075000 0.000000
0.000500 0.073750 0.000000
0.001000 0.073750 0.000000
0.001500 0.073750 0.000000
0.002000 0.073750 0.000000
0.002500 0.073750 0.000000
0.003000 0.073750 0.000000
0.003500 0.073750 0.000000
0.004000 0.073750 0.000000
0.004500 0.073750 0.000000
0.000500 0.072500 0.000000
0.001000 0.072500 0.000000
0.001500 0.072500 0.000000
0.002000 0.072500 0.000000
0.002500 0.072500 0.000000
0.003000 0.072500 0.000000
0.003500 0.072500 0.000000
0.004000 0.072500 0.000000
0.004500 0.072500 0.000000
0.000500 0.071250 0.000000
0.001000 0.071250 0.000000
0.001500 0.071250 0.000000
0.002000 0.071250 0.000000
0.002500 0.071250 0.000000
0.003000 0.071250 0.000000
0.003500 0.071250 0.000000
0.004000 0.071250 0.000000
0.004500 0.071250 0.000000
0.000500 0.070000 0.000000
0.001000 0.070000 0.000000
0.001500 0.070000 0.000000
0.002000 0.070000 0.000000
0.002500 0.070000 0.000000
0.003000 0.070000 0.000000
0.003500 0.070000 0.000000
0.004000 0.070000 0.000000
0.004500 0.070000 0.000000
0.000500 0.068750 0.000000
0.001000 0.068750 0.000000
0.001500 0.068750 0.000000
0.002000 0.068750 0.000000
0.002500 0.068750 0.000000
0.003000 0.068750 0.000000
0.003500 0.068750 0.000000
0.004000 0.068750 0.000000
0.004500 0.068750 0.000000
0.000500 0.067500 0.000000
0.001000 0.067500 0.000000
0.001500 0.067500 0.000000
0.002000 0.067500 0.000000
0.002500 0.067500 0.000000
0.003000 0.067500 0.000000
0.003500 0.067500 0.000000
0.004000 0.067500 0.000000
0.004500 0.067500 0.000000
0.000500 0.066250 0.000000
0.001000 0.066250 0.000000
0.001500 0.066250 0.000000
0.002000 0.066250 0.000000
0.002500 0.066250 0.000000
0.003000 0.066250 0.000000
0.003500 0.066250 0.000000
0.004000 0.066250 0.000000
0.004500 0.066250 0.000000
0.000500 0.065000 0.000000
0.001000 0.065000 0.000000
0.001500 0.065000 0.000000
0.002000 0.065000 0.000000
0.002500 0.065000 0.000000
0.003000 0.065000 0.000000
0.003500 0.065000 0.000000
0.004000 0.065000 0.000000
0.004500 0.065000 0.000000
0.000500 0.063750 0.000000
0.001000 0.063750 0.000000
0.001500 0.063750 0.000000
0.002000 0.063750 0.000000
0.002500 0.063750 0.000000
0.003000 0.063750 0.000000
0.003500 0.063750 0.000000
0.004000 0.063750 0.000000
0.004500 0.063750 0.000000
0.000500 0.062500 0.000000
0.001000 0.062500 0.000000
0.001500 0.062500 0.000000
0.002000 0.062500 0.000000
0.002500 0.062500 0.000000
0.003000 0.062500 0.000000
0.003500 0.062500 0.000000
0.004000 0.062500 0.000000
0.004500 0.062500 0.000000
0.000500 0.061250 0.000000
0.001000 0.061250 0.000000
0.001500 0.061250 0.000000
0.002000 0.061250 0.000000
0.002500 0.061250 0.000000
0.003000 0.061250 0.000000
0.003500 0.061250 0.000000
0.004000 0.061250 0.000000
0.004500 0.061250 0.000000
0.000500 0.060000 0.000000
0.001000 0.060000 0.000000
0.001500 0.060000 0.000000
0.002000 0.060000 0.000000
0.002500 0.060000 0.000000
0.003000 0.060000 0.000000
0.003500 0.060000 0.000000
0.004000 0.060000 0.000000
0.004500 0.060000 0.000000
0.000500 0.058750 0.000000
0.001000 0.058750 0.000000
0.001500 0.058750 0.000000
0.002000 0.058750 0.000000
0.002500 0.058750 0.000000
0.003000 0.058750 0.000000
0.003500 0.058750 0.000000
0.004000 0.058750 0.000000
0.004500 0.058750 0.000000
0.000500 0.057500 0.000000
0.001000 0.057500 0.000000
0.001500 0.057500 0.000000
0.002000 0.057500 0.000000
0.002500 0.057500 0.000000
0.003000 0.057500 0.000000
0.003500 0.057500 0.000000
0.004000 0.057500 0.000000
0.004500 0.057500 0.000000
0.000500 0.056250 0.000000
0.001000 0.056250 0.000000
0.001500 0.056250 0.000000
0.002000 0.056250 0.000000
0.002500 0.056250 0.000000
0.003000 0.056250 0.000000
0.003500 0.056250 0.000000
0.004000 0.056250 0.000000
0.004500 0.056250 0.000000
0.000500 0.055000 0.000000
0.001000 0.055000 0.000000
0.001500 0.055000 0.000000
0.002000 0.055000 0.000000
0.002500 0.055000 0.000000
0.003000 0.055000 0.000000
0.003500 0.055000 0.000000
0.004000 0.055000 0.000000
0.004500 0.055000 0.000000
0.000500 0.053750 0.000000
0.001000 0.053750 0.000000
0.001500 0.053750 0.000000
0.002000 0.053750 0.000000
0.002500 0.053750 0.000000
0.003000 0.053750 0.000000
0.003500 0.053750 0.000000
0.004000 0.053750 0.000000
0.004500 0.053750 0.000000
0.000500 0.052500 0.000000
0.001000 0.052500 0.000000
0.001500 0.052500 0.000000
0.002000 0.052500 0.000000
0.002500 0.052500 0.000000
0.003000 0.052500 0.000000
0.003500 0.052500 0.000000
0.004000 0.052500 0.000000
0.004500 0.052500 0.000000
0.000500 0.051250 0.000000
0.001000 0.051250 0.000000
0.001500 0.051250 0.000000
0.002000 0.051250 0.000000
0.002500 0.051250 0.000000
0.003000 0.051250 0.000000
0.003500 0.051250 0.000000
0.004000 0.051250 0.000000
0.004500 0.051250 0.000000
0.000500 0.050000 0.000000
0.001000 0.050000 0.000000
0.001500 0.050000 0.000000
0.002000 0.050000 0.000000
0.002500 0.050000 0.000000
0.003000 0.050000 0.000000
0.003500 0.050000 0.000000
0.004000 0.050000 0.000000
0.004500 0.050000 0.000000
0.000500 0.048750 0.000000
0.001000 0.048750 0.000000
0.001500 0.048750 0.000000
0.002000 0.048750 0.000000
0.002500 0.048750 0.000000
0.003000 0.048750 0.000000
0.003500 0.048750 0.000000
0.004000 0.048750 0.000000
0.004500 0.048750 0.000000
0.000500 0.047500 0.000000
0.001000 0.047500 0.000000
0.001500 0.047500 0.000000
0.002000 0.047500 0.000000
0.002500 0.047500 0.000000
0.003000 0.047500 0.000000
0.003500 0.047500 0.000000
0.004000 0.047500 0.000000
0.004500 0.047500 0.000000
0.000500 0.046250 0.000000
0.001000 0.046250 0.000000
0.001500 0.046250 0.000000
0.002000 0.046250 0.000000
0.002500 0.046250 0.000000
0.003000 0.046250 0.000000
0.003500 0.046250 0.000000
0.004000 0.046250 0.000000
0.004500 0.046250 0.000000
0.000500 0.045000 0.000000
0.001000 0.045000 0.000000
0.001500 0.045000 0.000000
0.002000 0.045000 0.000000
0.002500 0.045000 0.000000
0.003000 0.045000 0.000000
0.003500 0.045000 0.000000
0.004000 0.045000 0.000000
0.004500 0.045000 0.000000
0.000500 0.043750 0.000000
0.001000 0.043750 0.000000
0.001500 0.043750 0.000000
0.002000 0.043750 0.000000
0.002500 0.043750 0.000000
0.003000 0.043750 0.000000
0.003500 0.043750 0.000000
0.004000 0.043750 0.000000
0.004500 0.043750 0.000000
0.000500 0.042500 0.000000
0.001000 0.042500 0.000000
0.001500 0.042500 0.000000
0.002000 0.042500 0.000000
0.002500 0.042500 0.000000
0.003000 0.042500 0.000000
0.003500 0.042500 0.000000
0.004000 0.042500 0.000000
0.004500 0.042500 0.000000
0.000500 0.041250 0.000000
0.001000 0.041250 0.000000
0.001500 0.041250 0.000000
0.002000 0.041250 0.000000
0.002500 0.041250 0.000000
0.003000 0.041250 0.000000
0.003500 0.041250 0.000000
0.004000 0.041250 0.000000
0.004500 0.041250 0.000000
0.000500 0.040000 0.000000
0.001000 0.040000 0.000000
0.001500 0.040000 0.000000
0.002000 0.040000 0.000000
0.002500 0.040000 0.000000
0.003000 0.040000 0.000000
0.003500 0.040000 0.000000
0.004000 0.040000 0.000000
0.004500 0.040000 0.000000
0.000500 0.038750 0.000000
0.001000 0.038750 0.000000
0.001500 0.038750 0.000000
0.002000 0.038750 0.000000
0.002500 0.038750 0.000000
0.003000 0.038750 0.000000
0.003500 0.038750 0.000000
0.004000 0.038750 0.000000
0.004500 0.038750 0.000000
0.000500 0.037500 0.000000
0.001000 0.037500 0.000000
0.001500 0.037500 0.000000
0.002000 0.037500 0.000000
0.002500 0.037500 0.000000
0.003000 0.037500 0.000000
0.003500 0.037500 0.000000
0.004000 0.037500 0.000000
0.004500 0.037500 0.000000
0.000500 0.036250 0.000000
0.001000 0.036250 0.000000
0.001500 0.036250 0.000000
0.002000 0.036250 0.000000
0.002500 0.036250 0.000000
0.003000 0.036250 0.000000
0.003500 0.036250 0.000000
0.004000 0.036250 0.000000
0.004500 0.036250 0.000000
0.000500 0.035000 0.000000
0.001000 0.035000 0.000000
0.001500 0.035000 0.000000
0.002000 0.035000 0.000000
0.002500 0.035000 0.000000
0.003000 0.035000 0.000000
0.003500 0.035000 0.000000
0.004000 0.035000 0.000000
0.004500 0.035000 0.000000
0.000500 0.033750 0.000000
0.001000 0.033750 0.000000
0.001500 0.033750 0.000000
0.002000 0.033750 0.000000
0.002500 0.033750 0.000000
0.003000 0.033750 0.000000
0.003500 0.033750 0.000000
0.004000 0.033750 0.000000
0.004500 0.033750 0.000000
0.000500 0.032500 0.000000
0.001000 0.032500 0.000000
0.001500 0.032500 0.000000
0.002000 0.032500 0.000000
0.002500 0.032500 0.000000
0.003000 0.032500 0.000000
0.003500 0.032500 0.000000
0.004000 0.032500 0.000000
0.004500 0.032500 0.000000
0.000500 0.031250 0.000000
0.001000 0.031250 0.000000
0.001500 0.031250 0.000000
0.002000 0.031250 0.000000
0.002500 0.031250 0.000000
0.003000 0.031250 0.000000
0.003500 0.031250 0.000000
0.004000 0.031250 0.000000
0.004500 0.031250 0.000000
0.000500 0.030000 0.000000
0.001000 0.030000 0.000000
0.001500 0.030000 0.000000
0.002000 0.030000 0.000000
0.002500 0.030000 0.000000
0.003000 0.030000 0.000000
0.003500 0.030000 0.000000
0.004000 0.030000 0.000000
0.004500 0.030000 0.000000
0.000500 0.028750 0.000000
0.001000 0.028750 0.000000
0.001500 0.028750 0.000000
0.002000 0.028750 0.000000
0.002500 0.028750 0.000000
0.003000 0.028750 0.000000
0.003500 0.028750 0.000000
0.004000 0.028750 0.000000
0.004500 0.028750 0.000000
0.000500 0.027500 0.000000
0.001000 0.027500 0.000000
0.001500 0.027500 0.000000
0.002000 0.027500 0.000000
0.002500 0.027500 0.000000
0.003000 0.027500 0.000000
0.003500 0.027500 0.000000
0.004000 0.027500 0.000000
0.004500 0.027500 0.000000
0.000500 0.026250 0.000000
0.001000 0.026250 0.000000
0.001500 0.026250 0.000000
0.002000 0.026250 0.000000
0.002500 0.026250 0.000000
0.003000 0.026250 0.000000
0.003500 0.026250 0.000000
0.004000 0.026250 0.000000
0.004500 0.026250 0.000000
0.000500 0.025000 0.000000
0.001000 0.025000 0.000000
0.001500 0.025000 0.000000
0.002000 0.025000 0.000000
0.002500 0.025000 0.000000
0.003000 0.025000 0.000000
0.003500 0.025000 0.000000
0.004000 0.025000 0.000000
0.004500 0.025000 0.000000
0.000500 0.023750 0.000000
0.001000 0.023750 0.000000
0.001500 0.023750 0.000000
0.002000 0.023750 0.000000
0.002500 0.023750 0.000000
0.003000 0.023750 0.000000
0.003500 0.023750 0.000000
0.004000 0.023750 0.000000
0.004500 0.023750 0.000000
0.000500 0.022500 0.000000
0.001000 0.022500 0.000000
0.001500 0.022500 0.000000
0.002000 0.022500 0.000000
0.002500 0.022500 0.000000
0.003000 0.022500 0.000000
0.003500 0.022500 0.000000
0.004000 0.022500 0.000000
0.004500 0.022500 0.000000
0.000500 0.021250 0.000000
0.001000 0.021250 0.000000
0.001500 0.021250 0.000000
0.002000 0.021250 0.000000
0.002500 0.021250 0.000000
0.003000 0.021250 0.000000
0.003500 0.021250 0.000000
0.004000 0.021250 0.000000
0.004500 0.021250 0.000000
0.000500 0.020000 0.000000
0.001000 0.020000 0.000000
0.001500 0.020000 0.000000
0.002000 0.020000 0.000000
0.002500 0.020000 0.000000
0.003000 0.020000 0.000000
0.003500 0.020000 0.000000
0.004000 0.020000 0.000000
0.004500 0.020000 0.000000
0.000500 0.018750 0.000000
0.001000 0.018750 0.000000
0.001500 0.018750 0.000000
0.002000 0.018750 0.000000
0.002500 0.018750 0.000000
0.003000 0.018750 0.000000
0.003500 0.018750 0.000000
0.004000 0.018750 0.000000
0.004500 0.018750 0.000000
0.000500 0.017500 0.000000
0.001000 0.017500 0.000000
0.001500 0.017500 0.000000
0.002000 0.017500 0.000000
0.002500 0.017500 0.000000
0.003000 0.017500 0.000000
0.003500 0.017500 0.000000
0.004000 0.017500 0.000000
0.004500 0.017500 0.000000
0.000500 0.016250 0.000000
0.001000 0.016250 0.000000
0.001500 0.016250 0.000000
0.002000 0.016250 0.000000
0.002500 0.016250 0.000000
0.003000 0.016250 0.000000
0.003500 0.016250 0.000000
0.004000 0.016250 0.000000
0.004500 0.016250 0.000000
0.000500 0.015000 0.000000
0.001000 0.015000 0.000000
0.001500 0.015000 0.000000
0.002000 0.015000 0.000000
0.002500 0.015000 0.000000
0.003000 0.015000 0.000000
0.003500 0.015000 0.000000
0.004000 0.015000 0.000000
0.004500 0.015000 0.000000
0.000500 0.013750 0.000000
0.001000 0.013750 0.000000
0.001500 0.013750 0.000000
0.002000 0.013750 0.000000
0.002500 0.013750 0.000000
0.003000 0.013750 0.000000
0.003500 0.013750 0.000000
0.004000 0.013750 0.000000
0.004500 0.013750 0.000000
0.000500 0.012500 0.000000
0.001000 0.012500 0.000000
0.001500 0.012500 0.000000
0.002000 0.012500 0.000000
0.002500 0.012500 0.000000
0.003000 0.012500 0.000000
0.003500 0.012500 0.000000
0.004000 0.012500 0.000000
0.004500 0.012500 0.000000
0.000500 0.011250 0.000000
0.001000 0.011250 0.000000
0.001500 0.011250 0.000000
0.002000 0.011250 0.000000
0.002500 0.011250 0.000000
0.003000 0.011250 0.000000
0.003500 0.011250 0.000000
0.004000 0.011250 0.000000
0.004500 0.011250 0.000000
0.000500 0.010000 0.000000
0.001000 0.010000 0.000000
0.001500 0.010000 0.000000
0.002000 0.010000 0.000000
0.002500 0.010000 0.000000
0.003000 0.010000 0.000000
0.003500 0.010000 0.000000
0.004000 0.010000 0.000000
0.004500 0.010000 0.000000
0.000500 0.008750 0.000000
0.001000 0.008750 0.000000
0.001500 0.008750 0.000000
0.002000 0.008750 0.000000
0.002500 0.008750 0.000000
0.003000 0.008750 0.000000
0.003500 0.008750 0.000000
0.004000 0.008750 0.000000
0.004500 0.008750 0.000000
0.000500 0.007500 0.000000
0.001000 0.007500 0.000000
0.001500 0.007500 0.000000
0.002000 0.007500 0.000000
0.002500 0.007500 0.000000
0.003000 0.007500 0.000000
0.003500 0.007500 0.000000
0.004000 0.007500 0.000000
0.004500 0.007500 0.000000
0.000500 0.006250 0.000000
0.001000 0.006250 0.000000
0.001500 0.006250 0.000000
0.002000 0.006250 0.000000
0.002500 0.006250 0.000000
0.003000 0.006250 0.000000
0.003500 0.006250 0.000000
0.004000 0.006250 0.000000
0.004500 0.006250 0.000000
0.000500 0.005000 0.000000
0.001000 0.005000 0.000000
0.001500 0.005000 0.000000
0.002000 0.005000 0.000000
0.002500 0.005000 0.000000
0.003000 0.005000 0.000000
0.003500 0.005000 0.000000
0.004000 0.005000 0.000000
0.004500 0.005000 0.000000
0.000500 0.003750 0.000000
0.001000 0.003750 0.000000
0.001500 0.003750 0.000000
0.002000 0.003750 0.000000
0.002500 0.003750 0.000000
0.003000 0.003750 0.000000
0.003500 0.003750 0.000000
0.004000 0.003750 0.000000
0.004500 0.003750 0.000000
0.000500 0.002500 0.000000
0.001000 0.002500 0.000000
0.001500 0.002500 0.000000
0.002000 0.002500 0.000000
0.002500 0.002500 0.000000
0.003000 0.002500 0.000000
0.003500 0.002500 0.000000
0.004000 0.002500 0.000000
0.004500 0.002500 0.000000
0.000500 0.001250 0.000000
0.001000 0.001250 0.000000
0.001500 0.001250 0.000000
0.002000 0.001250 0.000000
0.002500 0.001250 0.000000
0.003000 0.001250 0.000000
0.003500 0.001250 0.000000
0.004000 0.001250 0.000000
0.004500 0.001250 0.000000
CELLS 800 4000
4 82 83 180 179
4 179 180 181 178
4 178 181 182 177
4 177 182 183 176
4 176 183 184 175
4 175 184 185 174
4 174 185 186 173
4 173 186 187 172
4 172 187 188 171
4 171 188 80 0
4 83 84 189 180
4 180 189 190 181
4 181 190 191 182
4 182 191 192 183
4 183 192 193 184
4 184 193 194 185
4 185 194 195 186
4 186 195 196 187
4 187 196 197 188
4 188 197 79 80
4 84 85 198 189
4 189 198 199 190
4 190 199 200 191
4 191 200 201 192
4 192 201 202 193
4 193 202 203 194
4 194 203 204 195
4 195 204 205 196
4 196 205 206 197
4 197 206 78 79
4 85 86 207 198
4 198 207 208 199
4 199 208 209 200
4 200 209 210 201
4 201 210 211 202
4 202 211 212 203
4 203 212 213 204
4 204 213 214 205
4 205 214 215 206
4 206 215 77 78
4 86 87 216 207
4 207 216 217 208
4 208 217 218 209
4 209 218 219 210
4 210 219 220 211
4 211 220 221 212
4 212 221 222 213
4 213 222 223 214
4 214 223 224 215
4 215 224 76 77
4 87 88 225 216
4 216 225 226 217
4 217 226 227 218
4 218 227 228 219
4 219 228 229 220
4 220 229 230 221
4 221 230 231 222
4 222 231 232 223
4 223 232 233 224
4 224 233 75 76
4 88 89 234 225
4 225 234 235 226
4 226 235 236 227
4 227 236 237 228
4 228 237 238 229
4 229 238 239 230
4 230 239 240 231
4 231 240 241 232
4 232 241 242 233
4 233 242 74 75
4 89 90 243 234
4 234 243 244 235
4 235 244 245 236
4 236 245 246 237
4 237 246 247 238
4 238 247 248 239
4 239 248 249 240
4 240 249 250 241
4 241 250 251 242
4 242 251 73 74
4 90 91 252 243
4 243 252 253 244
4 244 253 254 245
4 245 254 255 246
4 246 255 256 247
4 247 256 257 248
4 248 257 258 249
4 249 258 259 250
4 250 259 260 251
4 251 260 72 73
4 91 92 261 252
4 252 261 262 253
4 253 262 263 254
4 254 263 264 255
4 255 264 265 256
4 256 265 266 257
4 257 266 267 258
4 258 267 268 259
4 259 268 269 260
4 260 269 71 72
4 92 93 270 261
4 261 270 271 262
4 262 271 272 263
4 263 272 273 264
4 264 273 274 265
4 265 274 275 266
4 266 275 276 267
4 267 276 277 268
4 268 277 278 269
4 269 278 70 71
4 93 94 279 270
4 270 279 280 271
4 271 280 281 272
4 272 281 282 273
4 273 282 283 274
4 274 283 284 275
4 275 284 285 276
4 276 285 286 277
4 277 286 287 278
4 278 287 69 70
4 94 95 288 279
4 279 288 289 280
4 280 289 290 281
4 281 290 291 282
4 282 291 292 283
4 283 292 293 284
4 284 293 294 285
4 285 294 295 286
4 286 295 296 287
4 287 296 68 69
4 95 96 297 288
4 288 297 298 289
4 289 298 299 290
4 290 299 300 291
4 291 300 301 292
4 292 301 302 293
4 293 302 303 294
4 294 303 304 295
4 295 304 305 296
4 296 305 67 68
4 96 97 306 297
4 297 306 307 298
4 298 307 308 299
4 299 308 309 300
4 300 309 310 301
4 301 310 311 302
4 302 311 312 303
4 303 312 313 304
4 304 313 314 305
4 305 314 66 67
4 97 98 315 306
4 306 315 316 307
4 307 316 317 308
4 308 317 318 309
4 309 318 319 310
4 310 319 320 311
4 311 320 321 312
4 312 321 322 313
4 313 322 323 314
4 314 323 65 66
4 98 99 324 315
4 315 324 325 316
4 316 325 326 317
4 317 326 327 318
4 318 327 328 319
4 319 328 329 320
4 320 329 330 321
4 321 330 331 322
4 322 331 332 323
4 323 332 64 65
4 99 100 333 324
4 324 333 334 325
4 325 334 335 326
4 326 335 336 327
4 327 336 337 328
4 328 337 338 329
4 329 338 339 330
4 330 339 340 331
4 331 340 341 332
4 332 341 63 64
4 100 101 342 333
4 333 342 343 334
4 334 343 344 335
4 335 344 345 336
4 336 345 346 337
4 337 346 347 338
4 338 347 348 339
4 339 348 349 340
4 340 349 350 341
4 341 350 62 63
4 101 102 351 342
4 342 351 352 343
4 343 352 353 344
4 344 353 354 345
4 345 354 355 346
4 346 355 356 347
4 347 356 357 348
4 348 357 358 349
4 349 358 359 350
4 350 359 61 62
4 102 103 360 351
4 351 360 361 352
4 352 361 362 353
4 353 362 363 354
4 354 363 364 355
4 355 364 365 356
4 356 365 366 357
4 357 366 367 358
4 358 367 368 359
4 359 368 60 61
4 103 104 369 360
4 360 369 370 361
4 361 370 371 362
4 362 371 372 363
4 363 372 373 364
4 364 373 374 365
4 365 374 375 366
4 366 375 376 367
4 367 376 377 368
4 368 377 59 60
4 104 105 378 369
4 369 378 379 370
4 370 379 380 371
4 371 380 381 372
4 372 381 382 373
4 373 382 383 374
4 374 383 384 375
4 375 384 385 376
4 376 385 386 377
4 377 386 58 59
4 105 106 387 378
4 378 387 388 379
4 379 388 389 380
4 380 389 390 381
4 381 390 391 382
4 382 391 392 383
4 383 392 393 384
4 384 393 394 385
4 385 394 395 386
4 386 395 57 58
4 106 107 396 387
4 387 396 397 388
4 388 397 398 389
4 389 398 399 390
4 390 399 400 391
4 391 400 401 392
4 392 401 402 393
4 393 402 403 394
4 394 403 404 395
4 395 404 56 57
4 107 108 405 396
4 396 405 406 397
4 397 406 407 398
4 398 407 408 399
4 399 408 409 400
4 400 409 410 401
4 401 410 411 402
4 402 411 412 403
4 403 412 413 404
4 404 413 55 56
4 108 109 414 405
4 405 414 415 406
4 406 415 416 407
4 407 416 417 408
4 408 417 418 409
4 409 418 419 410
4 410 419 420 411
4 411 420 421 412
4 412 421 422 413
4 413 422 54 55
4 109 110 423 414
4 414 423 424 415
4 415 424 425 416
4 416 425 426 417
4 417 426 427 418
4 418 427 428 419
4 419 428 429 420
4 420 429 430 421
4 421 430 431 422
4 422 431 53 54
4 110 111 432 423
4 423 432 433 424
4 424 433 434 425
4 425 434 435 426
4 426 435 436 427
4 427 436 437 428
4 428 437 438 429
4 429 438 439 430
4 430 439 440 431
4 431 440 52 53
4 111 112 441 432
4 432 441 442 433
4 433 442 443 434
4 434 443 444 435
4 435 444 445 436
4 436 445 446 437
4 437 446 447 438
4 438 447 448 439
4 439 448 449 440
4 440 449 51 52
4 112 113 450 441
4 441 450 451 442
4 442 451 452 443
4 443 452 453 444
4 444 453 454 445
4 445 454 455 446
4 446 455 456 447
4 447 456 457 448
4 448 457 458 449
4 449 458 50 51
4 113 114 459 450
4 450 459 460 451
4 451 460 461 452
4 452 461 462 453
4 453 462 463 454
4 454 463 464 455
4 455 464 465 456
4 456 465 466 457
4 457 466 467 458
4 458 467 49 50
4 114 115 468 459
4 459 468 469 460
4 460 469 470 461
4 461 470 471 462
4 462 471 472 463
4 463 472 473 464
4 464 473 474 465
4 465 474 475 466
4 466 475 476 467
4 467 476 48 49
4 115 116 477 468
4 468 477 478 469
4 469 478 479 470
4 470 479 480 471
4 471 480 481 472
4 472 481 482 473
4 473 482 483 474
4 474 483 484 475
4 475 484 485 476
4 476 485 47 48
4 116 117 486 477
4 477 486 487 478
4 478 487 488 479
4 479 488 489 480
4 480 489 490 481
4 481 490 491 482
4 482 491 492 483
4 483 492 493 484
4 484 493 494 485
4 485 494 46 47
4 117 118 495 486
4 486 495 496 487
4 487 496 497 488
4 488 497 498 489
4 489 498 499 490
4 490 499 500 491
4 491 500 501 492
4 492 501 502 493
4 493 502 503 494
4 494 503 45 46
4 118 119 504 495
4 495 504 505 496
4 496 505 506 497
4 497 506 507 498
4 498 507 508 499
4 499 508 509 500
4 500 509 510 501
4 501 510 511 502
4 502 511 512 503
4 503 512 44 45
4 119 120 513 504
4 504 513 514 505
4 505 514 515 506
4 506 515 516 507
4 507 516 517 508
4 508 517 518 509
4 509 518 519 510
4 510 519 520 511
4 511 520 521 512
4 512 521 43 44
4 120 121 522 513
4 513 522 523 514
4 514 523 524 515
4 515 524 525 516
4 516 525 526 517
4 517 526 527 518
4 518 527 528 519
4 519 528 529 520
4 520 529 530 521
4 521 530 42 43
4 121 122 531 522
4 522 531 532 523
4 523 532 533 524
4 524 533 534 525
4 525 534 535 526
4 526 535 536 527
4 527 536 537 528
4 528 537 538 529
4 529 538 539 530
4 530 539 41 42
4 122 123 540 531
4 531 540 541 532
4 532 541 542 533
4 533 542 543 534
4 534 543 544 535
4 535 544 545 536
4 536 545 546 537
4 537 546 547 538
4 538 547 548 539
4 539 548 40 41
4 123 124 549 540
4 540 549 550 541
4 541 550 551 542
4 542 551 552 543
4 543 552 553 544
4 544 553 554 545
4 545 554 555 546
4 546 555 556 547
4 547 556 557 548
4 548 557 39 40
4 124 125 558 549
4 549 558 559 550
4 550 559 560 551
4 551 560 561 552
4 552 561 562 553
4 553 562 563 554
4 554 563 564 555
4 555 564 565 556
4 556 565 566 557
4 557 566 38 39
4 125 126 567 558
4 558 567 568 559
4 559 568 569 560
4 560 569 570 561
4 561 570 571 562
4 562 571 572 563
4 563 572 573 564
4 564 573 574 565
4 565 574 575 566
4 566 575 37 38
4 126 127 576 567
4 567 576 577 568
4 568 577 578 569
4 569 578 579 570
4 570 579 580 571
4 571 580 581 572
4 572 581 582 573
4 573 582 583 574
4 574 583 584 575
4 575 584 36 37
4 127 128 585 576
4 576 585 586 577
4 577 586 587 578
4 578 587 588 579
4 579 588 589 580
4 580 589 590 581
4 581 590 591 582
4 582 591 592 583
4 583 592 593 584
4 584 593 35 36
4 128 129 594 585
4 585 594 595 586
4 586 595 596 587
4 587 596 597 588
4 588 597 598 589
4 589 598 599 590
4 590 599 600 591
4 591 600 601 592
4 592 601 602 593
4 593 602 34 35
4 129 130 603 594
4 594 603 604 595
4 595 604 605 596
4 596 605 606 597
4 597 606 607 598
4 598 607 608 599
4 599 608 609 600
4 600 609 610 601
4 601 610 611 602
4 602 611 33 34
4 130 131 612 603
4 603 612 613 604
4 604 613 614 605
4 605 614 615 606
4 606 615 616 607
4 607 616 617 608
4 608 617 618 609
4 609 618 619 610
4 610 619 620 611
4 611 620 32 33
4 131 132 621 612
4 612 621 622 613
4 613 622 623 614
4 614 623 624 615
4 615 624 625 616
4 616 625 626 617
4 617 626 627 618
4 618 627 628 619
4 619 628 629 620
4 620 629 31 32
4 132 133 630 621
4 621 630 631 622
4 622 631 632 623
4 623 632 633 624
4 624 633 634 625
4 625 634 635 626
4 626 635 636 627
4 627 636 637 628
4 628 637 638 629
4 629 638 30 31
4 133 134 639 630
4 630 639 640 631
4 631 640 641 632
4 632 641 642 633
4 633 642 643 634
4 634 643 644 635
4 635 644 645 636
4 636 645 646 637
4 637 646 647 638
4 638 647 29 30
4 134 135 648 639
4 639 648 649 640
4 640 649 650 641
4 641 650 651 642
4 642 651 652 643
4 643 652 653 644
4 644 653 654 645
4 645 654 655 646
4 646 655 656 647
4 647 656 28 29
4 135 136 657 648
4 648 657 658 649
4 649 658 659 650
4 650 659 660 651
4 651 660 661 652
4 652 661 662 653
4 653 662 663 654
4 654 663 664 655
4 655 664 665 656
4 656 665 27 28
4 136 137 666 657
4 657 666 667 658
4 658 667 668 659
4 659 668 669 660
4 660 669 670 661
4 661 670 671 662
4 662 671 672 663
4 663 672 673 664
4 664 673 674 665
4 665 674 26 27
4 137 138 675 666
4 666 675 676 667
4 667 676 677 668
4 668 677 678 669
4 669 678 679 670
4 670 679 680 671
4 671 680 681 672
4 672 681 682 673
4 673 682 683 674
4 674 683 25 26
4 138 139 684 675
4 675 684 685 676
4 676 685 686 677
4 677 686 687 678
4 678 687 688 679
4 679 688 689 680
4 680 689 690 681
4 681 690 691 682
4 682 691 692 683
4 683 692 24 25
4 139 140 693 684
4 684 693 694 685
4 685 694 695 686
4 686 695 696 687
4 687 696 697 688
4 688 697 698 689
4 689 698 699 690
4 690 699 700 691
4 691 700 701 692
4 692 701 23 24
4 140 141 702 693
4 693 702 703 694
4 694 703 704 695
4 695 704 705 696
4 696 705 706 697
4 697 706 707 698
4 698 707 708 699
4 699 708 709 700
4 700 709 710 701
4 701 710 22 23
4 141 142 711 702
4 702 711 712 703
4 703 712 713 704
4 704 713 714 705
4 705 714 715 706
4 706 715 716 707
4 707 716 717 708
4 708 717 718 709
4 709 718 719 710
4 710 719 21 22
4 142 143 720 711
4 711 720 721 712
4 712 721 722 713
4 713 722 723 714
4 714 723 724 715
4 715 724 725 716
4 716 725 726 717
4 717 726 727 718
4 718 727 728 719
4 719 728 20 21
4 143 144 729 720
4 720 729 730 721
4 721 730 731 722
4 722 731 732 723
4 723 732 733 724
4 724 733 734 725
4 725 734 735 726
4 726 735 736 727
4 727 736 737 728
4 728 737 19 20
4 144 145 738 729
4 729 738 739 730
4 730 739 740 731
4 731 740 741 732
4 732 741 742 733
4 733 742 743 734
4 734 743 744 735
4 735 744 745 736
4 736 745 746 737
4 737 746 18 19
4 145 146 747 738
4 738 747 748 739
4 739 748 749 740
4 740 749 750 741
4 741 750 751 742
4 742 751 752 743
4 743 752 753 744
4 744 753 754 745
4 745 754 755 746
4 746 755 17 18
4 146 147 756 747
4 747 756 757 748
4 748 757 758 749
4 749 758 759 750
4 750 759 760 751
4 751 760 761 752
4 752 761 762 753
4 753 762 763 754
4 754 763 764 755
4 755 764 16 17
4 147 148 765 756
4 756 765 766 757
4 757 766 767 758
4 758 767 768 759
4 759 768 769 760
4 760 769 770 761
4 761 770 771 762
4 762 771 772 763
4 763 772 773 764
4 764 773 15 16
4 148 149 774 765
4 765 774 775 766
4 766 775 776 767
4 767 776 777 768
4 768 777 778 769
4 769 778 779 770
4 770 779 780 771
4 771 780 781 772
4 772 781 782 773
4 773 782 14 15
4 149 150 783 774
4 774 783 784 775
4 775 784 785 776
4 776 785 786 777
4 777 786 787 778
4 778 787 788 779
4 779 788 789 780
4 780 789 790 781
4 781 790 791 782
4 782 791 13 14
4 150 151 792 783
4 783 792 793 784
4 784 793 794 785
4 785 794 795 786
4 786 795 796 787
4 787 796 797 788
4 788 797 798 789
4 789 798 799 790
4 790 799 800 791
4 791 800 12 13
4 151 152 801 792
4 792 801 802 793
4 793 802 803 794
4 794 803 804 795
4 795 804 805 796
4 796 805 806 797
4 797 806 807 798
4 798 807 808 799
4 799 808 809 800
4 800 809 11 12
4 152 153 810 801
4 801 810 811 802
4 802 811 812 803
4 803 812 813 804
4 804 813 814 805
4 805 814 815 806
4 806 815 816 807
4 807 816 817 808
4 808 817 818 809
4 809 818 10 11
4 153 154 819 810
4 810 819 820 811
4 811 820 821 812
4 812 821 822 813
4 813 822 823 814
4 814 823 824 815
4 815 824 825 816
4 816 825 826 817
4 817 826 827 818
4 818 827 9 10
4 154 155 828 819
4 819 828 829 820
4 820 829 830 821
4 821 830 831 822
4 822 831 832 823
4 823 832 833 824
4 824 833 834 825
4 825 834 835 826
4 826 835 836 827
4 827 836 8 9
4 155 156 837 828
4 828 837 838 829
4 829 838 839 830
4 830 839 840 831
4 831 840 841 832
4 832 841 842 833
4 833 842 843 834
4 834 843 844 835
4 835 844 845 836
4 836 845 7 8
4 156 157 846 837
4 837 846 847 838
4 838 847 848 839
4 839 848 849 840
4 840 849 850 841
4 841 850 851 842
4 842 851 852 843
4 843 852 853 844
4 844 853 854 845
4 845 854 6 7
4 157 158 855 846
4 846 855 856 847
4 847 856 857 848
4 848 857 858 849
4 849 858 859 850
4 850 859 860 851
4 851 860 861 852
4 852 861 862 853
4 853 862 863 854
4 854 863 5 6
4 158 159 864 855
4 855 864 865 856
4 856 865 866 857
4 857 866 867 858
4 858 867 868 859
4 859 868 869 860
4 860 869 870 861
4 861 870 871 862
4 862 871 872 863
4 863 872 4 5
4 159 160 873 864
4 864 873 874 865
4 865 874 875 866
4 866 875 876 867
4 867 876 877 868
4 868 877 878 869
4 869 878 879 870
4 870 879 880 871
4 871 880 881 872
4 872 881 3 4
4 160 161 882 873
4 873 882 883 874
4 874 883 884 875
4 875 884 885 876
4 876 885 886 877
4 877 886 887 878
4 878 887 888 879
4 879 888 889 880
4 880 889 890 881
4 881 890 2 3
4 161 81 162 882
4 882 162 163 883
4 883 163 164 884
4 884 164 165 885
4 885 165 166 886
4 886 166 167 887
4 887 167 168 888
4 888 168 169 889
4 889 169 170 890
4 890 170 1 2
CELL_TYPES 800
9
9
9
9
9
9
9
9
9
9
9
9
9
9
9
9
9
9
9
9
9
9
9
9
9
9
9
9
9
9
9
9
9
9
9
9
9
9
9
9
9
9
9
9
9
9
9
9
9
9
9
9
9
9
9
9
9
9
9
9
9
9
9
9
9
9
9
9
9
9
9
9
9
9
9
9
9
9
9
9
9
9
9
9
9
9
9
9
9
9
9
9
9
9
9
9
9
9
9
9
9
9
9
9
9
9
9
9
9
9
9
9
9
9
9
9
9
9
9
9
9
9
9
9
9
9
9
9
9
9
9
9
9
9
9
9
9
9
9
9
9
9
9
9
9
9
9
9
9
9
9
9
9
9
9
9
9
9
9
9
9
9
9
9
9
9
9
9
9
9
9
9
9
9
9
9
9
9
9
9
9
9
9
9
9
9
9
9
9
9
9
9
9
9
9
9
9
9
9
9
9
9
9
9
9
9
9
9
9
9
9
9
9
9
9
9
9
9
9
9
9
9
9
9
9
9
9
9
9
9
9
9
9
9
9
9
9
9
9
9
9
9
9
9
9
9
9
9
9
9
9
9
9
9
9
9
9
9
9
9
9
9
9
9
9
9
9
9
9
9
9
9
9
9
9
9
9
9
9
9
9
9
9
9
9
9
9
9
9
9
9
9
9
9
9
9
9
9
9
9
9
9
9
9
9
9
9
9
9
9
9
9
9
9
9
9
9
9
9
9
9
9
9
9
9
9
9
9
9
9
9
9
9
9
9
9
9
9
9
9
9
9
9
9
9
9
9
9
9
9
9
9
9
9
9
9
9
9
9
9
9
9
9
9
9
9
9
9
9
9
9
9
9
9
9
9
9
9
9
9
9
9
9
9
9
9
9
9
9
9
9
9
9
9
9
9
9
9
9
9
9
9
9
9
9
9
9
9
9
9
9
9
9
9
9
9
9
9
9
9
9
9
9
9
9
9
9
9
9
9
9
9
9
9
9
9
9
9
9
9
9
9
9
9
9
9
9
9
9
9
9
9
9
9
9
9
9
9
9
9
9
9
9
9
9
9
9
9
9
9
9
9
9
9
9
9
9
9
9
9
9
9
9
9
9
9
9
9
9
9
9
9
9
9
9
9
9
9
9
9
9
9
9
9
9
9
9
9
9
9
9
9
9
9
9
9
9
9
9
9
9
9
9
9
9
9
9
9
9
9
9
9
9
9
9
9
9
9
9
9
9
9
9
9
9
9
9
9
9
9
9
9
9
9
9
9
9
9
9
9
9
9
9
9
9
9
9
9
9
9
9
9
9
9
9
9
9
9
9
9
9
9
9
9
9
9
9
9
9
9
9
9
9
9
9
9
9
9
9
9
9
9
9
9
9
9
9
9
9
9
9
9
9
9
9
9
9
9
9
9
9
9
9
9
9
9
9
9
9
9
9
9
9
9
9
9
9
9
9
9
9
9
9
9
9
9
9
9
9
9
9
9
9
9
9
9
9
9
9
9
9
9
9
9
9
9
9
9
9
9
9
9
9
9
9
9
9
9
9
9
9
9
9
9
9
9
9
9
9
9
9
9
9
9
9
9
9
9
9
9
9
9
9
9
9
9
9
9
9
9
9
9
9
9
9
9
9
9
9
9
9
9
9
9
9
9
9
9
9
9
9
9
9
9
9
9
9
9
9
9
9
9
9
9
9
9
9
9
9
9
9
9
9
9
9
9
9
9
9
9
9
9
9
9
9
9
9
9
9
9
9
9
9
9
9
9
9
9
9
9
9
9
9
9
9
9
9
9
9
9
9
9
9
9
9
9
9
9
9
9
POINT_DATA 891
SCALARS u1 float
LOOKUP_TABLE default
-2e-18
-2e-08
-2e-08
-2e-08
-2e-08
-2e-08
-2e-08
-2e-08
-2e-08
-2e-08
-2e-08
-2e-08
-2e-08
-2e-08
-2e-08
-2e-08
-2e-08
-2e-08
-2e-08
-2e-08
-2e-08
-2e-08
-2e-08
-2e-08
-2e-08
-2e-08
-2e-08
-2e-08
-2e-08
-2e-08
-2e-08
-2e-08
-2e-08
-2e-08
-2e-08
-2e-08
-2e-08
-2e-08
-2e-08
-2e-08
-2e-08
-2e-08
-2e-08
-2e-08
-2e-08
-2e-08
-2e-08
-2e-08
-2e-08
-2e-08
-2e-08
-2e-08
-2e-08
-2e-08
-2e-08
-2e-08
-2e-08
-2e-08
-2e-08
-2e-08
-2e-08
-2e-08
-2e-08
-2e-08
-2e-08
-2e-08
-2e-08
-2e-08
-2e-08
-2e-08
-2e-08
-2e-08
-2e-08
-2e-08
-2e-08
-2e-08
-2e-08
-2e-08
-2e-08
-2e-08
-1e-08
2e-08
-2e-17
1e-08
2e-08
2e-08
2e-08
2e-08
2e-08
2e-08
2e-08
2e-08
2e-08
2e-08
2e-08
2e-08
2e-08
2e-08
2e-08
2e-08
2e-08
2e-08
2e-08
2e-08
2e-08
2e-08
2e-08
2e-08
2e-08
2e-08
2e-08
2e-08
2e-08
2e-08
2e-08
2e-08
2e-08
2e-08
2e-08
2e-08
2e-08
2e-08
2e-08
2e-08
2e-08
2e-08
2e-08
2e-08
2e-08
2e-08
2e-08
2e-08
2e-08
2e-08
2e-08
2e-08
2e-08
2e-08
2e-08
2e-08
2e-08
2e-08
2e-08
2e-08
2e-08
2e-08
2e-08
2e-08
2e-08
2e-08
2e-08
2e-08
2e-08
2e-08
2e-08
2e-08
2e-08
2e-08
2e-08
2e-08
2e-08
2e-08
1e-08
1e-08
7e-09
3e-09
-3e-14
-3e-09
-7e-09
-1e-08
-1e-08
3e-17
-8e-18
-5e-17
-3e-17
2e-17
-2e-18
1e-17
5e-18
-2e-17
9e-09
6e-09
4e-09
2e-09
-3e-15
-2e-09
-4e-09
-6e-09
-9e-09
1e-08
9e-09
6e-09
3e-09
-2e-14
-3e-09
-6e-09
-9e-09
-1e-08
1e-08
1e-08
7e-09
3e-09
-3e-14
-3e-09
-7e-09
-1e-08
-1e-08
1e-08
1e-08
7e-09
3e-09
-3e-14
-3e-09
-7e-09
-1e-08
-1e-08
1e-08
1e-08
7e-09
3e-09
-3e-14
-3e-09
-7e-09
-1e-08
-1e-08
1e-08
1e-08
7e-09
3e-09
-3e-14
-3e-09
-7e-09
-1e-08
-1e-08
1e-08
1e-08
7e-09
3e-09
-3e-14
-3e-09
-7e-09
-1e-08
-1e-08
1e-08
1e-08
7e-09
3e-09
-3e-14
-3e-09
-7e-09
-1e-08
-1e-08
1e-08
1e-08
7e-09
3e-09
-3e-14
-3e-09
-7e-09
-1e-08
-1e-08
1e-08
1e-08
7e-09
3e-09
-3e-14
-3e-09
-7e-09
-1e-08
-1e-08
1e-08
1e-08
7e-09
3e-09
-3e-14
-3e-09
-7e-09
-1e-08
-1e-08
1e-08
1e-08
7e-09
3e-09
-3e-14
-3e-09
-7e-09
-1e-08
-1e-08
1e-08
1e-08
7e-09
3e-09
-3e-14
-3e-09
-7e-09
-1e-08
-1e-08
1e-08
1e-08
7e-09
3e-09
-3e-14
-3e-09
-7e-09
-1e-08
-1e-08
1e-08
1e-08
7e-09
3e-09
-3e-14
-3e-09
-7e-09
-1e-08
-1e-08
1e-08
1e-08
7e-09
3e-09
-3e-14
-3e-09
-7e-09
-1e-08
-1e-08
1e-08
1e-08
7e-09
3e-09
-3e-14
-3e-09
-7e-09
-1e-08
-1e-08
1e-08
1e-08
7e-09
3e-09
-3e-14
-3e-09
-7e-09
-1e-08
-1e-08
1e-08
1e-08
7e-09
3e-09
-3e-14
-3e-09
-7e-09
-1e-08
-1e-08
1e-08
1e-08
7e-09
3e-09
-3e-14
-3e-09
-7e-09
-1e-08
-1e-08
1e-08
1e-08
7e-09
3e-09
-3e-14
-3e-09
-7e-09
-1e-08
-1e-08
1e-08
1e-08
7e-09
3e-09
-3e-14
-3e-09
-7e-09
-1e-08
-1e-08
1e-08
1e-08
7e-09
3e-09
-3e-14
-3e-09
-7e-09
-1e-08
-1e-08
1e-08
1e-08
7e-09
3e-09
-3e-14
-3e-09
-7e-09
-1e-08
-1e-08
1e-08
1e-08
7e-09
3e-09
-3e-14
-3e-09
-7e-09
-1e-08
-1e-08
1e-08
1e-08
7e-09
3e-09
-3e-14
-3e-09
-7e-09
-1e-08
-1e-08
1e-08
1e-08
7e-09
3e-09
-3e-14
-3e-09
-7e-09
-1e-08
-1e-08
1e-08
1e-08
7e-09
3e-09
-3e-14
-3e-09
-7e-09
-1e-08
-1e-08
1e-08
1e-08
7e-09
3e-09
-3e-14
-3e-09
-7e-09
-1e-08
-1e-08
1e-08
1e-08
7e-09
3e-09
-3e-14
-3e-09
-7e-09
-1e-08
-1e-08
1e-08
1e-08
7e-09
3e-09
-3e-14
-3e-09
-7e-09
-1e-08
-1e-08
1e-08
1e-08
7e-09
3e-09
-3e-14
-3e-09
-7e-09
-1e-08
-1e-08
1e-08
1e-08
7e-09
3e-09
-3e-14
-3e-09
-7e-09
-1e-08
-1e-08
1e-08
1e-08
7e-09
3e-09
-3e-14
-3e-09
-7e-09
-1e-08
-1e-08
1e-08
1e-08
7e-09
3e-09
-3e-14
-3e-09
-7e-09
-1e-08
-1e-08
1e-08
1e-08
7e-09
3e-09
-3e-14
-3e-09
-7e-09
-1e-08
-1e-08
1e-08
1e-08
7e-09
3e-09
-3e-14
-3e-09
-7e-09
-1e-08
-1e-08
1e-08
1e-08
7e-09
3e-09
-3e-14
-3e-09
-7e-09
-1e-08
-1e-08
1e-08
1e-08
7e-09
3e-09
-3e-14
-3e-09
-7e-09
-1e-08
-1e-08
1e-08
1e-08
7e-09
3e-09
-3e-14
-3e-09
-7e-09
-1e-08
-1e-08
1e-08
1e-08
7e-09
3e-09
-3e-14
-3e-09
-7e-09
-1e-08
-1e-08
1e-08
1e-08
7e-09
3e-09
-3e-14
-3e-09
-7e-09
-1e-08
-1e-08
1e-08
1e-08
7e-09
3e-09
-3e-14
-3e-09
-7e-09
-1e-08
-1e-08
1e-08
1e-08
7e-09
3e-09
-3e-14
-3e-09
-7e-09
-1e-08
-1e-08
1e-08
1e-08
7e-09
3e-09
-3e-14
-3e-09
-7e-09
-1e-08
-1e-08
1e-08
1e-08
7e-09
3e-09
-3e-14
-3e-09
-7e-09
-1e-08
-1e-08
1e-08
1e-08
7e-09
3e-09
-3e-14
-3e-09
-7e-09
-1e-08
-1e-08
1e-08
1e-08
7e-09
3e-09
-3e-14
-3e-09
-7e-09
-1e-08
-1e-08
1e-08
1e-08
7e-09
3e-09
-3e-14
-3e-09
-7e-09
-1e-08
-1e-08
1e-08
1e-08
7e-09
3e-09
-3e-14
-3e-09
-7e-09
-1e-08
-1e-08
1e-08
1e-08
7e-09
3e-09
-3e-14
-3e-09
-7e-09
-1e-08
-1e-08
1e-08
1e-08
7e-09
3e-09
-3e-14
-3e-09
-7e-09
-1e-08
-1e-08
1e-08
1e-08
7e-09
3e-09
-3e-14
-3e-09
-7e-09
-1e-08
-1e-08
1e-08
1e-08
7e-09
3e-09
-3e-14
-3e-09
-7e-09
-1e-08
-1e-08
1e-08
1e-08
7e-09
3e-09
-3e-14
-3e-09
-7e-09
-1e-08
-1e-08
1e-08
1e-08
7e-09
3e-09
-3e-14
-3e-09
-7e-09
-1e-08
-1e-08
1e-08
1e-08
7e-09
3e-09
-3e-14
-3e-09
-7e-09
-1e-08
-1e-08
1e-08
1e-08
7e-09
3e-09
-3e-14
-3e-09
-7e-09
-1e-08
-1e-08
1e-08
1e-08
7e-09
3e-09
-3e-14
-3e-09
-7e-09
-1e-08
-1e-08
1e-08
1e-08
7e-09
3e-09
-3e-14
-3e-09
-7e-09
-1e-08
-1e-08
1e-08
1e-08
7e-09
3e-09
-3e-14
-3e-09
-7e-09
-1e-08
-1e-08
1e-08
1e-08
7e-09
3e-09
-3e-14
-3e-09
-7e-09
-1e-08
-1e-08
1e-08
1e-08
7e-09
3e-09
-3e-14
-3e-09
-7e-09
-1e-08
-1e-08
1e-08
1e-08
7e-09
3e-09
-3e-14
-3e-09
-7e-09
-1e-08
-1e-08
1e-08
1e-08
7e-09
3e-09
-3e-14
-3e-09
-7e-09
-1e-08
-1e-08
1e-08
1e-08
7e-09
3e-09
-3e-14
-3e-09
-7e-09
-1e-08
-1e-08
1e-08
1e-08
7e-09
3e-09
-3e-14
-3e-09
-7e-09
-1e-08
-1e-08
1e-08
1e-08
7e-09
3e-09
-3e-14
-3e-09
-7e-09
-1e-08
-1e-08
1e-08
1e-08
7e-09
3e-09
-3e-14
-3e-09
-7e-09
-1e-08
-1e-08
1e-08
1e-08
7e-09
3e-09
-3e-14
-3e-09
-7e-09
-1e-08
-1e-08
1e-08
1e-08
7e-09
3e-09
-3e-14
-3e-09
-7e-09
-1e-08
-1e-08
1e-08
1e-08
7e-09
3e-09
-3e-14
-3e-09
-7e-09
-1e-08
-1e-08
1e-08
1e-08
7e-09
3e-09
-3e-14
-3e-09
-7e-09
-1e-08
-1e-08
1e-08
1e-08
7e-09
3e-09
-3e-14
-3e-09
-7e-09
-1e-08
-1e-08
1e-08
1e-08
7e-09
3e-09
-3e-14
-3e-09
-7e-09
-1e-08
-1e-08
1e-08
1e-08
7e-09
3e-09
-3e-14
-3e-09
-7e-09
-1e-08
-1e-08
1e-08
1e-08
7e-09
3e-09
-3e-14
-3e-09
-7e-09
-1e-08
-1e-08
1e-08
1e-08
7e-09
3e-09
-3e-14
-3e-09
-7e-09
-1e-08
-1e-08
1e-08
1e-08
7e-09
3e-09
-3e-14
-3e-09
-7e-09
-1e-08
-1e-08
SCALARS u2 float
LOOKUP_TABLE default
-1e-17
-5e-06
-5e-06
-5e-06
-5e-06
-5e-06
-5e-06
-5e-06
-5e-06
-4e-06
-4e-06
-4e-06
-4e-06
-4e-06
-4e-06
-4e-06
-4e-06
-4e-06
-4e-06
-4e-06
-4e-06
-4e-06
-4e-06
-4e-06
-4e-06
-3e-06
-3e-06
-3e-06
-3e-06
-3e-06
-3e-06
-3e-06
-3e-06
-3e-06
-3e-06
-3e-06
-3e-06
-3e-06
-3e-06
-3e-06
-3e-06
-2e-06
-2e-06
-2e-06
-2e-06
-2e-06
-2e-06
-2e-06
-2e-06
-2e-06
-2e-06
-2e-06
-2e-06
-2e-06
-2e-06
-2e-06
-2e-06
-1e-06
-1e-06
-1e-06
-1e-06
-1e-06
-1e-06
-1e-06
-1e-06
-1e-06
-9e-07
-9e-07
-8e-07
-7e-07
-7e-07
-6e-07
-6e-07
-5e-07
-4e-07
-4e-07
-3e-07
-2e-07
-2e-07
-1e-07
-6e-08
-5e-06
3e-17
-6e-08
-1e-07
-2e-07
-2e-07
-3e-07
-4e-07
-4e-07
-5e-07
-6e-07
-6e-07
-7e-07
-7e-07
-8e-07
-9e-07
-9e-07
-1e-06
-1e-06
-1e-06
-1e-06
-1e-06
-1e-06
-1e-06
-1e-06
-1e-06
-2e-06
-2e-06
-2e-06
-2e-06
-2e-06
-2e-06
-2e-06
-2e-06
-2e-06
-2e-06
-2e-06
-2e-06
-2e-06
-2e-06
-2e-06
-2e-06
-3e-06
-3e-06
-3e-06
-3e-06
-3e-06
-3e-06
-3e-06
-3e-06
-3e-06
-3e-06
-3e-06
-3e-06
-3e-06
-3e-06
-3e-06
-3e-06
-4e-06
-4e-06
-4e-06
-4e-06
-4e-06
-4e-06
-4e-06
-4e-06
-4e-06
-4e-06
-4e-06
-4e-06
-4e-06
-4e-06
-4e-06
-4e-06
-5e-06
-5e-06
-5e-06
-5e-06
-5e-06
-5e-06
-5e-06
-5e-06
-5e-06
-5e-06
-5e-06
-5e-06
-5e-06
-5e-06
-5e-06
-5e-06
-2e-17
-4e-17
5e-17
2e-17
2e-17
-4e-17
-1e-17
-4e-18
-1e-17
-6e-08
-6e-08
-6e-08
-6e-08
-6e-08
-6e-08
-6e-08
-6e-08
-6e-08
-1e-07
-1e-07
-1e-07
-1e-07
-1e-07
-1e-07
-1e-07
-1e-07
-1e-07
-2e-07
-2e-07
-2e-07
-2e-07
-2e-07
-2e-07
-2e-07
-2e-07
-2e-07
-2e-07
-2e-07
-2e-07
-2e-07
-2e-07
-2e-07
-2e-07
-2e-07
-2e-07
-3e-07
-3e-07
-3e-07
-3e-07
-3e-07
-3e-07
-3e-07
-3e-07
-3e-07
-4e-07
-4e-07
-4e-07
-4e-07
-4e-07
-4e-07
-4e-07
-4e-07
-4e-07
-4e-07
-4e-07
-4e-07
-4e-07
-4e-07
-4e-07
-4e-07
-4e-07
-4e-07
-5e-07
-5e-07
-5e-07
-5e-07
-5e-07
-5e-07
-5e-07
-5e-07
-5e-07
-6e-07
-6e-07
-6e-07
-6e-07
-6e-07
-6e-07
-6e-07
-6e-07
-6e-07
-6e-07
-6e-07
-6e-07
-6e-07
-6e-07
-6e-07
-6e-07
-6e-07
-6e-07
-7e-07
-7e-07
-7e-07
-7e-07
-7e-07
-7e-07
-7e-07
-7e-07
-7e-07
-7e-07
-7e-07
-7e-07
-7e-07
-7e-07
-7e-07
-7e-07
-7e-07
-7e-07
-8e-07
-8e-07
-8e-07
-8e-07
-8e-07
-8e-07
-8e-07
-8e-07
-8e-07
-9e-07
-9e-07
-9e-07
-9e-07
-9e-07
-9e-07
-9e-07
-9e-07
-9e-07
-9e-07
-9e-07
-9e-07
-9e-07
-9e-07
-9e-07
-9e-07
-9e-07
-9e-07
-1e-06
-1e-06
-1e-06
-1e-06
-1e-06
-1e-06
-1e-06
-1e-06
-1e-06
-1e-06
-1e-06
-1e-06
-1e-06
-1e-06
-1e-06
-1e-06
-1e-06
-1e-06
-1e-06
-1e-06
-1e-06
-1e-06
-1e-06
-1e-06
-1e-06
-1e-06
-1e-06
-1e-06
-1e-06
-1e-06
-1e-06
-1e-06
-1e-06
-1e-06
-1e-06
-1e-06
-1e-06
-1e-06
-1e-06
-1e-06
-1e-06
-1e-06
-1e-06
-1e-06
-1e-06
-1e-06
-1e-06
-1e-06
-1e-06
-1e-06
-1e-06
-1e-06
-1e-06
-1e-06
-1e-06
-1e-06
-1e-06
-1e-06
-1e-06
-1e-06
-1e-06
-1e-06
-1e-06
-1e-06
-1e-06
-1e-06
-1e-06
-1e-06
-1e-06
-1e-06
-1e-06
-1e-06
-1e-06
-1e-06
-1e-06
-1e-06
-1e-06
-1e-06
-1e-06
-1e-06
-1e-06
-2e-06
-2e-06
-2e-06
-2e-06
-2e-06
-2e-06
-2e-06
-2e-06
-2e-06
-2e-06
-2e-06
-2e-06
-2e-06
-2e-06
-2e-06
-2e-06
-2e-06
-2e-06
-2e-06
-2e-06
-2e-06
-2e-06
-2e-06
-2e-06
-2e-06
-2e-06
-2e-06
-2e-06
-2e-06
-2e-06
-2e-06
-2e-06
-2e-06
-2e-06
-2e-06
-2e-06
-2e-06
-2e-06
-2e-06
-2e-06
-2e-06
-2e-06
-2e-06
-2e-06
-2e-06
-2e-06
-2e-06
-2e-06
-2e-06
-2e-06
-2e-06
-2e-06
-2e-06
-2e-06
-2e-06
-2e-06
-2e-06
-2e-06
-2e-06
-2e-06
-2e-06
-2e-06
-2e-06
-2e-06
-2e-06
-2e-06
-2e-06
-2e-06
-2e-06
-2e-06
-2e-06
-2e-06
-2e-06
-2e-06
-2e-06
-2e-06
-2e-06
-2e-06
-2e-06
-2e-06
-2e-06
-2e-06
-2e-06
-2e-06
-2e-06
-2e-06
-2e-06
-2e-06
-2e-06
-2e-06
-2e-06
-2e-06
-2e-06
-2e-06
-2e-06
-2e-06
-2e-06
-2e-06
-2e-06
-2e-06
-2e-06
-2e-06
-2e-06
-2e-06
-2e-06
-2e-06
-2e-06
-2e-06
-2e-06
-2e-06
-2e-06
-2e-06
-2e-06
-2e-06
-2e-06
-2e-06
-2e-06
-2e-06
-2e-06
-2e-06
-2e-06
-2e-06
-2e-06
-2e-06
-2e-06
-2e-06
-2e-06
-2e-06
-2e-06
-2e-06
-2e-06
-2e-06
-2e-06
-2e-06
-2e-06
-2e-06
-2e-06
-2e-06
-2e-06
-2e-06
-2e-06
-2e-06
-2e-06
-2e-06
-3e-06
-3e-06
-3e-06
-3e-06
-3e-06
-3e-06
-3e-06
-3e-06
-3e-06
-3e-06
-3e-06
-3e-06
-3e-06
-3e-06
-3e-06
-3e-06
-3e-06
-3e-06
-3e-06
-3e-06
-3e-06
-3e-06
-3e-06
-3e-06
-3e-06
-3e-06
-3e-06
-3e-06
-3e-06
-3e-06
-3e-06
-3e-06
-3e-06
-3e-06
-3e-06
-3e-06
-3e-06
-3e-06
-3e-06
-3e-06
-3e-06
-3e-06
-3e-06
-3e-06
-3e-06
-3e-06
-3e-06
-3e-06
-3e-06
-3e-06
-3e-06
-3e-06
-3e-06
-3e-06
-3e-06
-3e-06
-3e-06
-3e-06
-3e-06
-3e-06
-3e-06
-3e-06
-3e-06
-3e-06
-3e-06
-3e-06
-3e-06
-3e-06
-3e-06
-3e-06
-3e-06
-3e-06
-3e-06
-3e-06
-3e-06
-3e-06
-3e-06
-3e-06
-3e-06
-3e-06
-3e-06
-3e-06
-3e-06
-3e-06
-3e-06
-3e-06
-3e-06
-3e-06
-3e-06
-3e-06
-3e-06
-3e-06
-3e-06
-3e-06
-3e-06
-3e-06
-3e-06
-3e-06
-3e-06
-3e-06
-3e-06
-3e-06
-3e-06
-3e-06
-3e-06
-3e-06
-3e-06
-3e-06
-3e-06
-3e-06
-3e-06
-3e-06
-3e-06
-3e-06
-3e-06
-3e-06
-3e-06
-3e-06
-3e-06
-3e-06
-3e-06
-3e-06
-3e-06
-3e-06
-3e-06
-3e-06
-3e-06
-3e-06
-3e-06
-3e-06
-3e-06
-3e-06
-3e-06
-3e-06
-3e-06
-3e-06
-3e-06
-3e-06
-3e-06
-3e-06
-3e-06
-3e-06
-3e-06
-3e-06
-4e-06
-4e-06
-4e-06
-4e-06
-4e-06
-4e-06
-4e-06
-4e-06
-4e-06
-4e-06
-4e-06
-4e-06
-4e-06
-4e-06
-4e-06
-4e-06
-4e-06
-4e-06
-4e-06
-4e-06
-4e-06
-4e-06
-4e-06
-4e-06
-4e-06
-4e-06
-4e-06
-4e-06
-4e-06
-4e-06
-4e-06
-4e-06
-4e-06
-4e-06
-4e-06
-4e-06
-4e-06
-4e-06
-4e-06
-4e-06
-4e-06
-4e-06
-4e-06
-4e-06
-4e-06
-4e-06
-4e-06
-4e-06
-4e-06
-4e-06
-4e-06
-4e-06
-4e-06
-4e-06
-4e-06
-4e-06
-4e-06
-4e-06
-4e-06
-4e-06
-4e-06
-4e-06
-4e-06
-4e-06
-4e-06
-4e-06
-4e-06
-4e-06
-4e-06
-4e-06
-4e-06
-4e-06
-4e-06
-4e-06
-4e-06
-4e-06
-4e-06
-4e-06
-4e-06
-4e-06
-4e-06
-4e-06
-4e-06
-4e-06
-4e-06
-4e-06
-4e-06
-4e-06
-4e-06
-4e-06
-4e-06
-4e-06
-4e-06
-4e-06
-4e-06
-4e-06
-4e-06
-4e-06
-4e-06
-4e-06
-4e-06
-4e-06
-4e-06
-4e-06
-4e-06
-4e-06
-4e-06
-4e-06
-4e-06
-4e-06
-4e-06
-4e-06
-4e-06
-4e-06
-4e-06
-4e-06
-4e-06
-4e-06
-4e-06
-4e-06
-4e-06
-4e-06
-4e-06
-4e-06
-4e-06
-4e-06
-4e-06
-4e-06
-4e-06
-4e-06
-4e-06
-4e-06
-4e-06
-4e-06
-4e-06
-4e-06
-4e-06
-4e-06
-4e-06
-4e-06
-4e-06
-4e-06
-4e-06
-4e-06
-5e-06
-5e-06
-5e-06
-5e-06
-5e-06
-5e-06
-5e-06
-5e-06
-5e-06
-5e-06
-5e-06
-5e-06
-5e-06
-5e-06
-5e-06
-5e-06
-5e-06
-5e-06
-5e-06
-5e-06
-5e-06
-5e-06
-5e-06
-5e-06
-5e-06
-5e-06
-5e-06
-5e-06
-5e-06
-5e-06
-5e-06
-5e-06
-5e-06
-5e-06
-5e-06
-5e-06
-5e-06
-5e-06
-5e-06
-5e-06
-5e-06
-5e-06
-5e-06
-5e-06
-5e-06
-5e-06
-5e-06
-5e-06
-5e-06
-5e-06
-5e-06
-5e-06
-5e-06
-5e-06
-5e-06
-5e-06
-5e-06
-5e-06
-5e-06
-5e-06
-5e-06
-5e-06
-5e-06
SCALARS strain_1 float
LOOKUP_TABLE default
-0.000001
-0.001915
-0.001886
-0.001857
-0.001828
-0.001799
-0.001769
-0.001739
-0.001710
-0.001680
-0.001650
-0.001620
-0.001590
-0.001560
-0.001530
-0.001499
-0.001469
-0.001439
-0.001408
-0.001378
-0.001348
-0.001317
-0.001287
-0.001257
-0.001226
-0.001196
-0.001166
-0.001136
-0.001106
-0.001076
-0.001046
-0.001017
-0.000987
-0.000958
-0.000929
-0.000900
-0.000871
-0.000843
-0.000815
-0.000786
-0.000759
-0.000731
-0.000704
-0.000677
-0.000651
-0.000624
-0.000598
-0.000573
-0.000548
-0.000523
-0.000499
-0.000475
-0.000451
-0.000428
-0.000405
-0.000383
-0.000362
-0.000340
-0.000320
-0.000300
-0.000280
-0.000261
-0.000242
-0.000224
-0.000207
-0.000190
-0.000174
-0.000158
-0.000143
-0.000129
-0.000115
-0.000101
-0.000089
-0.000077
-0.000065
-0.000054
-0.000044
-0.000034
-0.000025
-0.000017
-0.000009
-0.001917
-0.000000
-0.000007
-0.000015
-0.000024
-0.000033
-0.000043
-0.000053
-0.000064
-0.000076
-0.000088
-0.000101
-0.000114
-0.000128
-0.000142
-0.000158
-0.000173
-0.000190
-0.000206
-0.000224
-0.000242
-0.000260
-0.000280
-0.000299
-0.000319
-0.000340
-0.000361
-0.000383
-0.000405
-0.000428
-0.000451
-0.000475
-0.000498
-0.000523
-0.000548
-0.000573
-0.000598
-0.000624
-0.000651
-0.000677
-0.000704
-0.000732
-0.000759
-0.000787
-0.000815
-0.000843
-0.000872
-0.000901
-0.000930
-0.000959
-0.000988
-0.001018
-0.001047
-0.001077
-0.001107
-0.001137
-0.001167
-0.001197
-0.001227
-0.001258
-0.001288
-0.001319
-0.001349
-0.001379
-0.001410
-0.001440
-0.001470
-0.001501
-0.001531
-0.001561
-0.001591
-0.001622
-0.001652
-0.001681
-0.001711
-0.001741
-0.001771
-0.001800
-0.001830
-0.001859
-0.001888
-0.001917
-0.001916
-0.001916
-0.001916
-0.001916
-0.001916
-0.001916
-0.001915
-0.001915
-0.000001
-0.000001
-0.000001
-0.000000
-0.000000
-0.000000
-0.000000
-0.000000
-0.000000
-0.000007
-0.000007
-0.000008
-0.000008
-0.000008
-0.000008
-0.000008
-0.000008
-0.000008
-0.000015
-0.000015
-0.000015
-0.000016
-0.000016
-0.000016
-0.000016
-0.000016
-0.000016
-0.000024
-0.000024
-0.000024
-0.000024
-0.000024
-0.000024
-0.000024
-0.000025
-0.000025
-0.000033
-0.000033
-0.000033
-0.000033
-0.000033
-0.000033
-0.000034
-0.000034
-0.000034
-0.000043
-0.000043
-0.000043
-0.000043
-0.000043
-0.000043
-0.000043
-0.000043
-0.000044
-0.000053
-0.000053
-0.000053
-0.000053
-0.000053
-0.000053
-0.000054
-0.000054
-0.000054
-0.000064
-0.000064
-0.000064
-0.000064
-0.000064
-0.000064
-0.000065
-0.000065
-0.000065
-0.000076
-0.000076
-0.000076
-0.000076
-0.000076
-0.000076
-0.000076
-0.000076
-0.000076
-0.000088
-0.000088
-0.000088
-0.000088
-0.000088
-0.000088
-0.000088
-0.000088
-0.000089
-0.000101
-0.000101
-0.000101
-0.000101
-0.000101
-0.000101
-0.000101
-0.000101
-0.000101
-0.000114
-0.000114
-0.000114
-0.000114
-0.000114
-0.000114
-0.000114
-0.000114
-0.000115
-0.000128
-0.000128
-0.000128
-0.000128
-0.000128
-0.000128
-0.000128
-0.000128
-0.000128
-0.000142
-0.000142
-0.000142
-0.000142
-0.000142
-0.000143
-0.000143
-0.000143
-0.000143
-0.000157
-0.000157
-0.000157
-0.000158
-0.000158
-0.000158
-0.000158
-0.000158
-0.000158
-0.000173
-0.000173
-0.000173
-0.000173
-0.000173
-0.000173
-0.000173
-0.000174
-0.000174
-0.000190
-0.000189
-0.000189
-0.000190
-0.000190
-0.000190
-0.000190
-0.000190
-0.000190
-0.000206
-0.000206
-0.000206
-0.000206
-0.000206
-0.000207
-0.000207
-0.000207
-0.000207
-0.000224
-0.000224
-0.000224
-0.000224
-0.000224
-0.000224
-0.000224
-0.000224
-0.000224
-0.000242
-0.000242
-0.000242
-0.000242
-0.000242
-0.000242
-0.000242
-0.000242
-0.000242
-0.000260
-0.000260
-0.000260
-0.000260
-0.000260
-0.000260
-0.000261
-0.000261
-0.000261
-0.000280
-0.000279
-0.000279
-0.000279
-0.000280
-0.000280
-0.000280
-0.000280
-0.000280
-0.000299
-0.000299
-0.000299
-0.000299
-0.000299
-0.000299
-0.000299
-0.000299
-0.000300
-0.000319
-0.000319
-0.000319
-0.000319
-0.000319
-0.000319
-0.000319
-0.000320
-0.000320
-0.000340
-0.000340
-0.000340
-0.000340
-0.000340
-0.000340
-0.000340
-0.000340
-0.000340
-0.000361
-0.000361
-0.000361
-0.000361
-0.000361
-0.000361
-0.000361
-0.000361
-0.000362
-0.000383
-0.000383
-0.000383
-0.000383
-0.000383
-0.000383
-0.000383
-0.000383
-0.000383
-0.000405
-0.000405
-0.000405
-0.000405
-0.000405
-0.000405
-0.000405
-0.000405
-0.000405
-0.000428
-0.000428
-0.000428
-0.000428
-0.000428
-0.000428
-0.000428
-0.000428
-0.000428
-0.000451
-0.000451
-0.000451
-0.000451
-0.000451
-0.000451
-0.000451
-0.000451
-0.000451
-0.000474
-0.000474
-0.000474
-0.000474
-0.000474
-0.000474
-0.000474
-0.000474
-0.000475
-0.000498
-0.000498
-0.000498
-0.000498
-0.000498
-0.000498
-0.000498
-0.000498
-0.000498
-0.000523
-0.000523
-0.000523
-0.000523
-0.000523
-0.000523
-0.000523
-0.000523
-0.000523
-0.000548
-0.000548
-0.000547
-0.000547
-0.000547
-0.000547
-0.000547
-0.000548
-0.000548
-0.000573
-0.000573
-0.000573
-0.000573
-0.000573
-0.000573
-0.000573
-0.000573
-0.000573
-0.000598
-0.000598
-0.000598
-0.000598
-0.000598
-0.000598
-0.000598
-0.000598
-0.000598
-0.000624
-0.000624
-0.000624
-0.000624
-0.000624
-0.000624
-0.000624
-0.000624
-0.000624
-0.000651
-0.000651
-0.000650
-0.000650
-0.000650
-0.000650
-0.000650
-0.000650
-0.000650
-0.000677
-0.000677
-0.000677
-0.000677
-0.000677
-0.000677
-0.000677
-0.000677
-0.000677
-0.000704
-0.000704
-0.000704
-0.000704
-0.000704
-0.000704
-0.000704
-0.000704
-0.000704
-0.000731
-0.000731
-0.000731
-0.000731
-0.000731
-0.000731
-0.000731
-0.000731
-0.000731
-0.000759
-0.000759
-0.000759
-0.000759
-0.000759
-0.000759
-0.000759
-0.000759
-0.000759
-0.000787
-0.000787
-0.000787
-0.000787
-0.000787
-0.000786
-0.000786
-0.000786
-0.000786
-0.000815
-0.000815
-0.000815
-0.000815
-0.000815
-0.000815
-0.000815
-0.000815
-0.000815
-0.000843
-0.000843
-0.000843
-0.000843
-0.000843
-0.000843
-0.000843
-0.000843
-0.000843
-0.000872
-0.000872
-0.000872
-0.000872
-0.000871
-0.000871
-0.000871
-0.000871
-0.000871
-0.000901
-0.000900
-0.000900
-0.000900
-0.000900
-0.000900
-0.000900
-0.000900
-0.000900
-0.000930
-0.000929
-0.000929
-0.000929
-0.000929
-0.000929
-0.000929
-0.000929
-0.000929
-0.000959
-0.000959
-0.000958
-0.000958
-0.000958
-0.000958
-0.000958
-0.000958
-0.000958
-0.000988
-0.000988
-0.000988
-0.000988
-0.000988
-0.000988
-0.000988
-0.000987
-0.000987
-0.001018
-0.001017
-0.001017
-0.001017
-0.001017
-0.001017
-0.001017
-0.001017
-0.001017
-0.001047
-0.001047
-0.001047
-0.001047
-0.001047
-0.001047
-0.001047
-0.001047
-0.001047
-0.001077
-0.001077
-0.001077
-0.001077
-0.001077
-0.001076
-0.001076
-0.001076
-0.001076
-0.001107
-0.001107
-0.001107
-0.001107
-0.001106
-0.001106
-0.001106
-0.001106
-0.001106
-0.001137
-0.001137
-0.001137
-0.001136
-0.001136
-0.001136
-0.001136
-0.001136
-0.001136
-0.001167
-0.001167
-0.001167
-0.001167
-0.001166
-0.001166
-0.001166
-0.001166
-0.001166
-0.001197
-0.001197
-0.001197
-0.001197
-0.001197
-0.001197
-0.001196
-0.001196
-0.001196
-0.001227
-0.001227
-0.001227
-0.001227
-0.001227
-0.001227
-0.001227
-0.001227
-0.001227
-0.001258
-0.001258
-0.001257
-0.001257
-0.001257
-0.001257
-0.001257
-0.001257
-0.001257
-0.001288
-0.001288
-0.001288
-0.001288
-0.001287
-0.001287
-0.001287
-0.001287
-0.001287
-0.001318
-0.001318
-0.001318
-0.001318
-0.001318
-0.001318
-0.001318
-0.001318
-0.001317
-0.001349
-0.001349
-0.001348
-0.001348
-0.001348
-0.001348
-0.001348
-0.001348
-0.001348
-0.001379
-0.001379
-0.001379
-0.001379
-0.001379
-0.001379
-0.001378
-0.001378
-0.001378
-0.001410
-0.001409
-0.001409
-0.001409
-0.001409
-0.001409
-0.001409
-0.001409
-0.001409
-0.001440
-0.001440
-0.001440
-0.001440
-0.001439
-0.001439
-0.001439
-0.001439
-0.001439
-0.001470
-0.001470
-0.001470
-0.001470
-0.001470
-0.001470
-0.001469
-0.001469
-0.001469
-0.001501
-0.001500
-0.001500
-0.001500
-0.001500
-0.001500
-0.001500
-0.001500
-0.001500
-0.001531
-0.001531
-0.001531
-0.001530
-0.001530
-0.001530
-0.001530
-0.001530
-0.001530
-0.001561
-0.001561
-0.001561
-0.001561
-0.001561
-0.001560
-0.001560
-0.001560
-0.001560
-0.001591
-0.001591
-0.001591
-0.001591
-0.001591
-0.001591
-0.001590
-0.001590
-0.001590
-0.001621
-0.001621
-0.001621
-0.001621
-0.001621
-0.001621
-0.001621
-0.001620
-0.001620
-0.001651
-0.001651
-0.001651
-0.001651
-0.001651
-0.001651
-0.001651
-0.001650
-0.001650
-0.001681
-0.001681
-0.001681
-0.001681
-0.001681
-0.001681
-0.001680
-0.001680
-0.001680
-0.001711
-0.001711
-0.001711
-0.001711
-0.001711
-0.001710
-0.001710
-0.001710
-0.001710
-0.001741
-0.001741
-0.001741
-0.001740
-0.001740
-0.001740
-0.001740
-0.001740
-0.001740
-0.001771
-0.001770
-0.001770
-0.001770
-0.001770
-0.001770
-0.001770
-0.001769
-0.001769
-0.001800
-0.001800
-0.001800
-0.001800
-0.001799
-0.001799
-0.001799
-0.001799
-0.001799
-0.001829
-0.001829
-0.001829
-0.001829
-0.001829
-0.001829
-0.001828
-0.001828
-0.001828
-0.001859
-0.001858
-0.001858
-0.001858
-0.001858
-0.001858
-0.001858
-0.001857
-0.001857
-0.001888
-0.001888
-0.001887
-0.001887
-0.001887
-0.001887
-0.001887
-0.001887
-0.001886
SCALARS strain_2 float
LOOKUP_TABLE default
0.000039
0.000035
0.000035
0.000035
0.000035
0.000035
0.000035
0.000035
0.000035
0.000035
0.000035
0.000035
0.000035
0.000035
0.000035
0.000035
0.000035
0.000035
0.000035
0.000035
0.000035
0.000035
0.000035
0.000035
0.000035
0.000035
0.000035
0.000035
0.000035
0.000035
0.000035
0.000035
0.000035
0.000035
0.000035
0.000035
0.000035
0.000035
0.000035
0.000035
0.000035
0.000035
0.000035
0.000035
0.000035
0.000036
0.000036
0.000036
0.000036
0.000036
0.000036
0.000036
0.000036
0.000036
0.000036
0.000036
0.000036
0.000036
0.000036
0.000036
0.000037
0.000037
0.000037
0.000037
0.000037
0.000037
0.000037
0.000037
0.000037
0.000037
0.000037
0.000038
0.000038
0.000038
0.000038
0.000038
0.000038
0.000038
0.000038
0.000039
0.000039
0.000051
0.000051
0.000051
0.000051
0.000051
0.000051
0.000051
0.000051
0.000051
0.000051
0.000051
0.000051
0.000051
0.000051
0.000051
0.000051
0.000051
0.000051
0.000051
0.000051
0.000051
0.000051
0.000051
0.000051
0.000051
0.000051
0.000051
0.000051
0.000051
0.000051
0.000051
0.000051
0.000051
0.000051
0.000051
0.000051
0.000051
0.000051
0.000051
0.000051
0.000051
0.000051
0.000051
0.000051
0.000051
0.000051
0.000051
0.000051
0.000051
0.000051
0.000051
0.000051
0.000051
0.000051
0.000051
0.000051
0.000051
0.000051
0.000051
0.000051
0.000051
0.000051
0.000051
0.000051
0.000051
0.000051
0.000051
0.000051
0.000051
0.000051
0.000051
0.000051
0.000051
0.000051
0.000051
0.000051
0.000051
0.000051
0.000051
0.000051
0.000051
0.000049
0.000047
0.000046
0.000044
0.000043
0.000041
0.000040
0.000038
0.000037
0.000040
0.000041
0.000042
0.000044
0.000045
0.000046
0.000047
0.000048
0.000049
0.000049
0.000048
0.000047
0.000046
0.000045
0.000043
0.000042
0.000041
0.000040
0.000049
0.000048
0.000047
0.000046
0.000045
0.000043
0.000042
0.000041
0.000040
0.000049
0.000048
0.000047
0.000046
0.000045
0.000043
0.000042
0.000041
0.000040
0.000049
0.000048
0.000047
0.000046
0.000044
0.000043
0.000042
0.000041
0.000040
0.000049
0.000048
0.000047
0.000046
0.000044
0.000043
0.000042
0.000041
0.000039
0.000049
0.000048
0.000047
0.000046
0.000044
0.000043
0.000042
0.000041
0.000039
0.000049
0.000048
0.000047
0.000046
0.000044
0.000043
0.000042
0.000041
0.000039
0.000049
0.000048
0.000047
0.000046
0.000044
0.000043
0.000042
0.000040
0.000039
0.000049
0.000048
0.000047
0.000046
0.000044
0.000043
0.000042
0.000040
0.000039
0.000049
0.000048
0.000047
0.000046
0.000044
0.000043
0.000042
0.000040
0.000039
0.000049
0.000048
0.000047
0.000045
0.000044
0.000043
0.000041
0.000040
0.000039
0.000049
0.000048
0.000047
0.000045
0.000044
0.000043
0.000041
0.000040
0.000039
0.000049
0.000048
0.000047
0.000045
0.000044
0.000043
0.000041
0.000040
0.000039
0.000049
0.000048
0.000047
0.000045
0.000044
0.000043
0.000041
0.000040
0.000039
0.000049
0.000048
0.000047
0.000045
0.000044
0.000043
0.000041
0.000040
0.000038
0.000049
0.000048
0.000047
0.000045
0.000044
0.000043
0.000041
0.000040
0.000038
0.000049
0.000048
0.000047
0.000045
0.000044
0.000042
0.000041
0.000040
0.000038
0.000049
0.000048
0.000047
0.000045
0.000044
0.000042
0.000041
0.000040
0.000038
0.000049
0.000048
0.000047
0.000045
0.000044
0.000042
0.000041
0.000040
0.000038
0.000049
0.000048
0.000047
0.000045
0.000044
0.000042
0.000041
0.000039
0.000038
0.000049
0.000048
0.000047
0.000045
0.000044
0.000042
0.000041
0.000039
0.000038
0.000049
0.000048
0.000047
0.000045
0.000044
0.000042
0.000041
0.000039
0.000038
0.000049
0.000048
0.000047
0.000045
0.000044
0.000042
0.000041
0.000039
0.000038
0.000049
0.000048
0.000047
0.000045
0.000044
0.000042
0.000041
0.000039
0.000038
0.000049
0.000048
0.000047
0.000045
0.000044
0.000042
0.000041
0.000039
0.000038
0.000049
0.000048
0.000046
0.000045
0.000044
0.000042
0.000041
0.000039
0.000038
0.000049
0.000048
0.000046
0.000045
0.000044
0.000042
0.000041
0.000039
0.000038
0.000049
0.000048
0.000046
0.000045
0.000043
0.000042
0.000040
0.000039
0.000037
0.000049
0.000048
0.000046
0.000045
0.000043
0.000042
0.000040
0.000039
0.000037
0.000049
0.000048
0.000046
0.000045
0.000043
0.000042
0.000040
0.000039
0.000037
0.000049
0.000048
0.000046
0.000045
0.000043
0.000042
0.000040
0.000039
0.000037
0.000049
0.000048
0.000046
0.000045
0.000043
0.000042
0.000040
0.000039
0.000037
0.000049
0.000048
0.000046
0.000045
0.000043
0.000042
0.000040
0.000039
0.000037
0.000049
0.000048
0.000046
0.000045
0.000043
0.000042
0.000040
0.000039
0.000037
0.000049
0.000048
0.000046
0.000045
0.000043
0.000042
0.000040
0.000039
0.000037
0.000049
0.000048
0.000046
0.000045
0.000043
0.000042
0.000040
0.000039
0.000037
0.000049
0.000048
0.000046
0.000045
0.000043
0.000042
0.000040
0.000039
0.000037
0.000049
0.000048
0.000046
0.000045
0.000043
0.000042
0.000040
0.000039
0.000037
0.000049
0.000048
0.000046
0.000045
0.000043
0.000042
0.000040
0.000039
0.000037
0.000049
0.000048
0.000046
0.000045
0.000043
0.000042
0.000040
0.000038
0.000037
0.000049
0.000048
0.000046
0.000045
0.000043
0.000042
0.000040
0.000038
0.000037
0.000049
0.000048
0.000046
0.000045
0.000043
0.000042
0.000040
0.000038
0.000037
0.000049
0.000048
0.000046
0.000045
0.000043
0.000042
0.000040
0.000038
0.000037
0.000049
0.000048
0.000046
0.000045
0.000043
0.000042
0.000040
0.000038
0.000037
0.000049
0.000048
0.000046
0.000045
0.000043
0.000042
0.000040
0.000038
0.000037
0.000049
0.000048
0.000046
0.000045
0.000043
0.000041
0.000040
0.000038
0.000037
0.000049
0.000048
0.000046
0.000045
0.000043
0.000041
0.000040
0.000038
0.000037
0.000049
0.000048
0.000046
0.000045
0.000043
0.000041
0.000040
0.000038
0.000037
0.000049
0.000048
0.000046
0.000045
0.000043
0.000041
0.000040
0.000038
0.000037
0.000049
0.000048
0.000046
0.000045
0.000043
0.000041
0.000040
0.000038
0.000037
0.000049
0.000048
0.000046
0.000045
0.000043
0.000041
0.000040
0.000038
0.000037
0.000049
0.000048
0.000046
0.000045
0.000043
0.000041
0.000040
0.000038
0.000037
0.000049
0.000048
0.000046
0.000045
0.000043
0.000041
0.000040
0.000038
0.000037
0.000049
0.000048
0.000046
0.000045
0.000043
0.000041
0.000040
0.000038
0.000037
0.000049
0.000048
0.000046
0.000045
0.000043
0.000041
0.000040
0.000038
0.000037
0.000049
0.000048
0.000046
0.000045
0.000043
0.000041
0.000040
0.000038
0.000037
0.000049
0.000048
0.000046
0.000045
0.000043
0.000041
0.000040
0.000038
0.000037
0.000049
0.000048
0.000046
0.000045
0.000043
0.000041
0.000040
0.000038
0.000037
0.000049
0.000048
0.000046
0.000045
0.000043
0.000041
0.000040
0.000038
0.000037
0.000049
0.000048
0.000046
0.000045
0.000043
0.000041
0.000040
0.000038
0.000037
0.000049
0.000048
0.000046
0.000045
0.000043
0.000041
0.000040
0.000038
0.000037
0.000049
0.000048
0.000046
0.000044
0.000043
0.000041
0.000040
0.000038
0.000037
0.000049
0.000048
0.000046
0.000044
0.000043
0.000041
0.000040
0.000038
0.000036
0.000049
0.000048
0.000046
0.000044
0.000043
0.000041
0.000040
0.000038
0.000036
0.000049
0.000048
0.000046
0.000044
0.000043
0.000041
0.000040
0.000038
0.000037
0.000049
0.000048
0.000046
0.000044
0.000043
0.000041
0.000040
0.000038
0.000037
0.000049
0.000048
0.000046
0.000044
0.000043
0.000041
0.000040
0.000038
0.000036
0.000049
0.000048
0.000046
0.000044
0.000043
0.000041
0.000040
0.000038
0.000036
0.000049
0.000048
0.000046
0.000044
0.000043
0.000041
0.000040
0.000038
0.000037
0.000049
0.000048
0.000046
0.000044
0.000043
0.000041
0.000040
0.000038
0.000037
0.000049
0.000048
0.000046
0.000044
0.000043
0.000041
0.000040
0.000038
0.000037
0.000049
0.000048
0.000046
0.000044
0.000043
0.000041
0.000040
0.000038
0.000037
0.000049
0.000048
0.000046
0.000044
0.000043
0.000041
0.000040
0.000038
0.000037
0.000049
0.000048
0.000046
0.000044
0.000043
0.000041
0.000040
0.000038
0.000037
0.000049
0.000048
0.000046
0.000044
0.000043
0.000041
0.000040
0.000038
0.000037
0.000049
0.000048
0.000046
0.000044
0.000043
0.000041
0.000040
0.000038
0.000037
0.000049
0.000047
0.000046
0.000044
0.000043
0.000041
0.000040
0.000038
0.000037
0.000049
0.000047
0.000046
0.000044
0.000043
0.000041
0.000040
0.000038
0.000037
0.000049
0.000047
0.000046
0.000044
0.000043
0.000041
0.000040
0.000038
0.000037
SCALARS strain_3 float
LOOKUP_TABLE default
0.000010
0.000339
0.000334
0.000330
0.000325
0.000320
0.000315
0.000310
0.000305
0.000301
0.000296
0.000291
0.000286
0.000281
0.000276
0.000271
0.000266
0.000261
0.000256
0.000251
0.000246
0.000241
0.000235
0.000230
0.000225
0.000220
0.000215
0.000210
0.000205
0.000200
0.000195
0.000190
0.000185
0.000180
0.000176
0.000171
0.000166
0.000161
0.000156
0.000151
0.000147
0.000142
0.000137
0.000133
0.000128
0.000124
0.000119
0.000115
0.000110
0.000106
0.000102
0.000098
0.000094
0.000089
0.000085
0.000082
0.000078
0.000074
0.000070
0.000067
0.000063
0.000060
0.000056
0.000053
0.000050
0.000047
0.000044
0.000041
0.000038
0.000035
0.000033
0.000030
0.000028
0.000025
0.000023
0.000021
0.000019
0.000017
0.000015
0.000013
0.000011
0.000322
-0.000005
-0.000004
-0.000002
-0.000000
0.000001
0.000003
0.000005
0.000007
0.000009
0.000012
0.000014
0.000016
0.000019
0.000022
0.000024
0.000027
0.000030
0.000033
0.000036
0.000040
0.000043
0.000046
0.000050
0.000053
0.000057
0.000061
0.000064
0.000068
0.000072
0.000076
0.000080
0.000084
0.000089
0.000093
0.000097
0.000102
0.000106
0.000110
0.000115
0.000120
0.000124
0.000129
0.000134
0.000138
0.000143
0.000148
0.000153
0.000158
0.000163
0.000168
0.000173
0.000178
0.000183
0.000188
0.000193
0.000198
0.000203
0.000208
0.000213
0.000218
0.000223
0.000228
0.000233
0.000238
0.000243
0.000248
0.000253
0.000258
0.000263
0.000268
0.000273
0.000278
0.000283
0.000288
0.000293
0.000298
0.000303
0.000308
0.000313
0.000318
0.000324
0.000326
0.000327
0.000329
0.000331
0.000332
0.000334
0.000336
0.000337
0.000008
0.000007
0.000005
0.000004
0.000002
0.000001
-0.000001
-0.000002
-0.000004
-0.000002
-0.000001
0.000001
0.000002
0.000004
0.000005
0.000007
0.000008
0.000010
-0.000001
0.000001
0.000002
0.000004
0.000005
0.000007
0.000008
0.000010
0.000011
0.000001
0.000003
0.000004
0.000006
0.000007
0.000009
0.000010
0.000012
0.000013
0.000003
0.000004
0.000006
0.000007
0.000009
0.000010
0.000012
0.000014
0.000015
0.000005
0.000006
0.000008
0.000009
0.000011
0.000012
0.000014
0.000016
0.000017
0.000007
0.000008
0.000010
0.000011
0.000013
0.000014
0.000016
0.000018
0.000019
0.000009
0.000010
0.000012
0.000013
0.000015
0.000017
0.000018
0.000020
0.000021
0.000011
0.000013
0.000014
0.000016
0.000017
0.000019
0.000020
0.000022
0.000024
0.000013
0.000015
0.000016
0.000018
0.000020
0.000021
0.000023
0.000024
0.000026
0.000016
0.000017
0.000019
0.000020
0.000022
0.000024
0.000025
0.000027
0.000028
0.000018
0.000020
0.000021
0.000023
0.000024
0.000026
0.000028
0.000029
0.000031
0.000021
0.000022
0.000024
0.000025
0.000027
0.000029
0.000030
0.000032
0.000034
0.000023
0.000025
0.000027
0.000028
0.000030
0.000031
0.000033
0.000035
0.000036
0.000026
0.000028
0.000029
0.000031
0.000033
0.000034
0.000036
0.000037
0.000039
0.000029
0.000031
0.000032
0.000034
0.000035
0.000037
0.000039
0.000040
0.000042
0.000032
0.000033
0.000035
0.000037
0.000038
0.000040
0.000042
0.000043
0.000045
0.000035
0.000037
0.000038
0.000040
0.000041
0.000043
0.000045
0.000046
0.000048
0.000038
0.000040
0.000041
0.000043
0.000045
0.000046
0.000048
0.000050
0.000051
0.000041
0.000043
0.000045
0.000046
0.000048
0.000050
0.000051
0.000053
0.000055
0.000044
0.000046
0.000048
0.000050
0.000051
0.000053
0.000055
0.000056
0.000058
0.000048
0.000050
0.000051
0.000053
0.000055
0.000056
0.000058
0.000060
0.000061
0.000051
0.000053
0.000055
0.000056
0.000058
0.000060
0.000062
0.000063
0.000065
0.000055
0.000057
0.000058
0.000060
0.000062
0.000063
0.000065
0.000067
0.000069
0.000059
0.000060
0.000062
0.000064
0.000065
0.000067
0.000069
0.000071
0.000072
0.000062
0.000064
0.000066
0.000067
0.000069
0.000071
0.000073
0.000074
0.000076
0.000066
0.000068
0.000069
0.000071
0.000073
0.000075
0.000076
0.000078
0.000080
0.000070
0.000072
0.000073
0.000075
0.000077
0.000079
0.000080
0.000082
0.000084
0.000074
0.000076
0.000077
0.000079
0.000081
0.000082
0.000084
0.000086
0.000088
0.000078
0.000080
0.000081
0.000083
0.000085
0.000087
0.000088
0.000090
0.000092
0.000082
0.000084
0.000085
0.000087
0.000089
0.000091
0.000092
0.000094
0.000096
0.000086
0.000088
0.000090
0.000091
0.000093
0.000095
0.000097
0.000098
0.000100
0.000090
0.000092
0.000094
0.000096
0.000097
0.000099
0.000101
0.000103
0.000104
0.000095
0.000096
0.000098
0.000100
0.000102
0.000103
0.000105
0.000107
0.000109
0.000099
0.000101
0.000102
0.000104
0.000106
0.000108
0.000109
0.000111
0.000113
0.000103
0.000105
0.000107
0.000109
0.000110
0.000112
0.000114
0.000116
0.000117
0.000108
0.000109
0.000111
0.000113
0.000115
0.000117
0.000118
0.000120
0.000122
0.000112
0.000114
0.000116
0.000117
0.000119
0.000121
0.000123
0.000125
0.000126
0.000117
0.000119
0.000120
0.000122
0.000124
0.000126
0.000127
0.000129
0.000131
0.000121
0.000123
0.000125
0.000127
0.000128
0.000130
0.000132
0.000134
0.000135
0.000126
0.000128
0.000130
0.000131
0.000133
0.000135
0.000137
0.000138
0.000140
0.000131
0.000132
0.000134
0.000136
0.000138
0.000140
0.000141
0.000143
0.000145
0.000135
0.000137
0.000139
0.000141
0.000142
0.000144
0.000146
0.000148
0.000150
0.000140
0.000142
0.000144
0.000145
0.000147
0.000149
0.000151
0.000153
0.000154
0.000145
0.000147
0.000148
0.000150
0.000152
0.000154
0.000156
0.000157
0.000159
0.000150
0.000152
0.000153
0.000155
0.000157
0.000159
0.000160
0.000162
0.000164
0.000155
0.000156
0.000158
0.000160
0.000162
0.000164
0.000165
0.000167
0.000169
0.000160
0.000161
0.000163
0.000165
0.000167
0.000168
0.000170
0.000172
0.000174
0.000164
0.000166
0.000168
0.000170
0.000172
0.000173
0.000175
0.000177
0.000179
0.000169
0.000171
0.000173
0.000175
0.000176
0.000178
0.000180
0.000182
0.000184
0.000174
0.000176
0.000178
0.000180
0.000181
0.000183
0.000185
0.000187
0.000189
0.000179
0.000181
0.000183
0.000185
0.000186
0.000188
0.000190
0.000192
0.000194
0.000184
0.000186
0.000188
0.000190
0.000191
0.000193
0.000195
0.000197
0.000199
0.000189
0.000191
0.000193
0.000195
0.000196
0.000198
0.000200
0.000202
0.000204
0.000194
0.000196
0.000198
0.000200
0.000201
0.000203
0.000205
0.000207
0.000209
0.000199
0.000201
0.000203
0.000205
0.000207
0.000208
0.000210
0.000212
0.000214
0.000204
0.000206
0.000208
0.000210
0.000212
0.000213
0.000215
0.000217
0.000219
0.000210
0.000211
0.000213
0.000215
0.000217
0.000218
0.000220
0.000222
0.000224
0.000215
0.000216
0.000218
0.000220
0.000222
0.000223
0.000225
0.000227
0.000229
0.000220
0.000221
0.000223
0.000225
0.000227
0.000228
0.000230
0.000232
0.000234
0.000225
0.000227
0.000228
0.000230
0.000232
0.000234
0.000235
0.000237
0.000239
0.000230
0.000232
0.000233
0.000235
0.000237
0.000239
0.000240
0.000242
0.000244
0.000235
0.000237
0.000238
0.000240
0.000242
0.000244
0.000245
0.000247
0.000249
0.000240
0.000242
0.000243
0.000245
0.000247
0.000249
0.000250
0.000252
0.000254
0.000245
0.000247
0.000248
0.000250
0.000252
0.000254
0.000255
0.000257
0.000259
0.000250
0.000252
0.000254
0.000255
0.000257
0.000259
0.000260
0.000262
0.000264
0.000255
0.000257
0.000259
0.000260
0.000262
0.000264
0.000266
0.000267
0.000269
0.000260
0.000262
0.000264
0.000265
0.000267
0.000269
0.000271
0.000272
0.000274
0.000265
0.000267
0.000269
0.000270
0.000272
0.000274
0.000276
0.000277
0.000279
0.000270
0.000272
0.000274
0.000275
0.000277
0.000279
0.000281
0.000282
0.000284
0.000275
0.000277
0.000279
0.000280
0.000282
0.000284
0.000285
0.000287
0.000289
0.000280
0.000282
0.000284
0.000285
0.000287
0.000289
0.000290
0.000292
0.000294
0.000285
0.000287
0.000289
0.000290
0.000292
0.000294
0.000295
0.000297
0.000299
0.000290
0.000292
0.000293
0.000295
0.000297
0.000299
0.000300
0.000302
0.000304
0.000295
0.000297
0.000298
0.000300
0.000302
0.000304
0.000305
0.000307
0.000309
0.000300
0.000302
0.000303
0.000305
0.000307
0.000308
0.000310
0.000312
0.000313
0.000305
0.000306
0.000308
0.000310
0.000312
0.000313
0.000315
0.000317
0.000318
0.000310
0.000311
0.000313
0.000315
0.000316
0.000318
0.000320
0.000321
0.000323
0.000315
0.000316
0.000318
0.000320
0.000321
0.000323
0.000325
0.000326
0.000328
0.000319
0.000321
0.000323
0.000324
0.000326
0.000328
0.000329
0.000331
0.000333
SCALARS stress_1 float
LOOKUP_TABLE default
783.971564
-368214.287080
-362638.864315
-357035.941551
-351405.112537
-345749.564772
-340069.204508
-334365.656744
-328641.671480
-322896.904965
-317134.263451
-311354.371937
-305559.261672
-299749.682658
-293929.384894
-288098.493379
-282257.414365
-276412.085351
-270561.131337
-264709.239822
-258855.379558
-253003.425544
-247154.721529
-241313.861265
-235480.907251
-229658.390736
-223848.717972
-218053.888958
-212277.966194
-206522.855929
-200789.745665
-195082.822901
-189404.025136
-183756.852372
-178142.085858
-172563.819343
-167025.802829
-161529.005065
-156076.832301
-150672.909536
-145317.080522
-140015.439008
-134770.734993
-129584.624729
-124458.920715
-119399.310450
-114404.137686
-109481.746172
-104631.760908
-99855.369393
-95157.071629
-90541.180115
-86007.444850
-81559.740836
-77201.036822
-72931.832807
-68756.722543
-64676.768529
-60693.127015
-56809.204250
-53026.406486
-49348.202472
-45775.123457
-42307.263193
-38948.684179
-35699.292664
-32560.807400
-29535.259636
-26622.774372
-23823.101607
-21138.803843
-18569.912329
-16115.708314
-13777.754300
-11555.456536
-9449.033771
-7458.329757
-5583.531993
-3822.359229
-2174.561464
-640.013700
-368136.433611
1315.325033
-108.066481
-1643.395496
-3291.068260
-5053.803524
-6929.882538
-8922.867803
-11031.165567
-13255.182081
-15595.167346
-18052.340110
-20623.731624
-23312.810639
-26114.077153
-29030.874917
-32061.266431
-35203.470446
-38456.705710
-41820.190974
-45292.519989
-48872.161503
-52555.584267
-56343.882032
-60233.023546
-64222.133810
-68308.525324
-72489.635589
-76764.902103
-81131.481117
-85585.435132
-90125.482896
-94748.655660
-99453.109675
-104236.094939
-109094.455203
-114024.940467
-119025.925732
-124093.035996
-129225.302510
-134419.631525
-139673.210539
-144982.195803
-150343.993568
-155755.978832
-161215.964096
-166719.386860
-172266.153375
-177851.888639
-183473.936403
-189128.609168
-194814.063182
-200530.204696
-206268.783711
-212032.081475
-217815.285489
-223616.083253
-229433.881018
-235263.772532
-241103.914046
-246952.086811
-252806.353325
-258665.776089
-264525.761354
-270386.621618
-276242.700632
-282094.467146
-287941.546161
-293778.156425
-299605.266689
-305420.345704
-311222.299718
-317008.066232
-322776.301497
-328527.349261
-334256.334525
-339965.476039
-345650.211304
-351311.852818
-356946.744332
-362555.760847
-368146.853333
-368155.554305
-368165.567777
-368173.112498
-368180.563470
-368189.545692
-368196.965414
-368202.385136
-368209.336108
859.672536
929.061008
994.418230
1054.025452
1110.038924
1160.271146
1206.597117
1248.173089
1284.686561
-139.017453
-174.780925
-216.794397
-261.995369
-313.571341
-368.709812
-429.723284
-494.893006
-564.625228
-1673.190217
-1709.828689
-1750.373411
-1796.730633
-1847.306605
-1903.726327
-1963.021049
-2028.659521
-2099.297992
-3323.206732
-3358.845204
-3398.827425
-3445.059647
-3495.323119
-3550.805341
-3611.193813
-3675.894785
-3747.220757
-5084.629496
-5119.830468
-5160.781440
-5206.419912
-5256.964634
-5312.321855
-5372.147827
-5437.880049
-5508.424771
-6960.864760
-6996.315732
-7036.829204
-7082.686426
-7133.512398
-7188.057120
-7247.883092
-7313.771563
-7383.253785
-8953.912525
-8989.175996
-9028.626968
-9074.202940
-9124.216412
-9179.292384
-9239.243356
-9303.975578
-9374.582800
-11060.210289
-11095.473761
-11135.737233
-11180.719455
-11231.139176
-11286.215148
-11346.634870
-11411.085842
-11480.849314
-13285.164303
-13319.459025
-13358.847497
-13405.017219
-13454.186941
-13509.294163
-13568.182634
-13632.946106
-13704.022078
-15624.680818
-15658.725539
-15699.832761
-15744.127483
-15793.797205
-15848.623177
-15907.230399
-15972.368871
-16041.319842
-18081.166082
-18114.929554
-18155.036776
-18199.175247
-18247.813719
-18303.452191
-18360.934413
-18425.760385
-18495.523857
-20653.088846
-20687.039818
-20726.553290
-20770.504262
-20819.017734
-20873.437455
-20931.763427
-20996.120649
-21064.509121
-23340.574110
-23374.243832
-23412.757304
-23457.020776
-23505.440498
-23559.578970
-23617.686192
-23680.699664
-23749.900635
-26142.590625
-26176.916597
-26214.617568
-26258.443540
-26306.394512
-26360.032984
-26417.983956
-26481.997428
-26549.698400
-29060.419639
-29093.401861
-29130.446583
-29174.085055
-29222.817277
-29274.799498
-29333.031720
-29395.201442
-29462.464914
-32089.654903
-32122.730875
-32160.119347
-32202.476569
-32249.802541
-32303.003513
-32360.266985
-32422.155456
-32488.981428
-35231.890168
-35264.403639
-35301.635861
-35343.961833
-35390.444055
-35443.488777
-35500.752249
-35561.484471
-35628.685443
-38484.844182
-38516.920154
-38554.371126
-38595.759598
-38642.741819
-38693.224041
-38751.425013
-38811.782235
-38878.201957
-41848.516946
-41879.842918
-41917.262640
-41958.057362
-42004.289584
-42055.490556
-42111.097777
-42171.142499
-42236.968471
-45319.939711
-45351.578182
-45387.341654
-45429.417626
-45473.931098
-45525.663320
-45580.083042
-45641.096514
-45705.047485
-48898.456225
-48929.219697
-48965.608169
-49005.434140
-49050.885112
-49101.367334
-49156.755806
-49214.300528
-49279.657750
-52583.253989
-52613.486211
-52649.249683
-52689.294405
-52733.682877
-52783.571348
-52837.834820
-52895.879542
-52958.236764
-56369.395503
-56399.627725
-56435.172447
-56474.404669
-56519.136891
-56568.681613
-56621.320085
-56679.521057
-56742.597028
-60258.224518
-60289.050490
-60322.313961
-60362.733683
-60406.997155
-60454.541877
-60508.555349
-60564.881321
-60626.332293
-64247.116032
-64277.379504
-64310.986726
-64350.187698
-64393.826169
-64440.589641
-64492.384363
-64548.991585
-64610.005057
-68333.695046
-68362.208518
-68397.003240
-68434.672962
-68478.061434
-68524.262406
-68575.932128
-68632.414349
-68691.834071
-72515.399061
-72544.693782
-72577.394754
-72615.001976
-72656.265448
-72704.122670
-72754.167392
-72809.087114
-72868.788086
-76789.853075
-76818.679047
-76851.661269
-76888.549741
-76929.875712
-76975.076684
-77026.183906
-77079.728628
-77138.054600
-81155.619589
-81183.476811
-81216.115283
-81252.347505
-81294.017227
-81337.499449
-81387.356670
-81441.057642
-81498.821114
-85610.198604
-85637.149575
-85669.569297
-85705.395269
-85745.283741
-85790.234713
-85838.091935
-85890.074157
-85946.900128
-90149.496368
-90176.322340
-90207.554562
-90243.505533
-90283.550255
-90326.251227
-90374.045949
-90426.278171
-90480.979143
-94772.106632
-94798.620104
-94829.914826
-94864.772048
-94904.129270
-94945.892741
-94993.999963
-95045.013435
-95099.526907
-99475.810646
-99502.605368
-99533.400090
-99567.507312
-99605.270784
-99648.471756
-99693.391478
-99743.654950
-99798.168421
-104257.639661
-104284.684383
-104314.322854
-104348.180076
-104386.037298
-104427.550770
-104472.251742
-104521.171464
-104573.778686
-109115.656175
-109142.232147
-109170.870619
-109204.540341
-109241.585062
-109281.879784
-109325.893256
-109374.062978
-109426.295200
-114046.266439
-114071.373661
-114100.449633
-114133.369355
-114170.007827
-114209.240049
-114251.972271
-114300.298242
-114351.561714
-119046.376704
-119071.390175
-119100.184897
-119132.354619
-119168.180591
-119207.537813
-119249.207535
-119295.158507
-119344.921979
-124114.736968
-124138.500440
-124167.232662
-124198.308634
-124232.947105
-124271.648077
-124312.942799
-124358.425021
-124406.563493
-129246.315982
-129270.704454
-129298.561676
-129329.700148
-129362.869870
-129400.820842
-129441.021813
-129485.910285
-129532.611257
-134440.394997
-134464.689718
-134490.515690
-134521.435412
-134554.761384
-134591.024856
-134632.007078
-134674.864300
-134721.784021
-139693.036511
-139716.893733
-139743.657205
-139772.045676
-139805.434148
-139840.228870
-139880.461092
-139921.787064
-139966.894286
-145000.896775
-145025.035247
-145049.423719
-145079.218441
-145111.513163
-145146.464134
-145184.633856
-145225.084828
-145270.223300
-150361.975789
-150385.458011
-150411.315233
-150438.828705
-150470.623427
-150504.730649
-150542.119121
-150582.445093
-150625.177314
-155774.867304
-155796.505776
-155822.487997
-155849.751469
-155880.264941
-155914.340913
-155950.479385
-155989.180357
-156031.662579
-161234.008818
-161255.803540
-161280.035762
-161307.486734
-161338.125205
-161369.701177
-161405.339649
-161443.696871
-161484.460343
-166738.462832
-166760.038804
-166783.146026
-166809.721998
-166839.297970
-166871.686442
-166904.824914
-166942.869635
-166982.601857
-172283.760597
-172305.461568
-172328.412540
-172355.519762
-172383.658234
-172414.265456
-172447.122678
-172484.386150
-172523.180872
-177868.995861
-177889.759333
-177912.397805
-177938.317527
-177966.174748
-177995.938220
-178029.107942
-178064.215164
-178102.009886
-183490.668625
-183511.150847
-183533.945569
-183558.021541
-183585.503763
-183614.704735
-183645.874456
-183680.825428
-183717.651400
-189146.028889
-189164.823611
-189187.868333
-189210.944305
-189238.082777
-189266.033749
-189297.765971
-189330.904443
-189366.480414
-194831.576654
-194850.746376
-194872.916098
-194896.585819
-194921.755541
-194948.987763
-194979.001235
-195011.077207
-195046.778179
-200545.749418
-200563.856640
-200586.120112
-200608.133584
-200633.365806
-200660.598027
-200689.861499
-200721.374971
-200755.107193
-206285.234682
-206303.623154
-206324.949126
-206347.306348
-206370.757320
-206398.020792
-206425.534264
-206456.328986
-206487.717457
-212048.657447
-212067.452169
-212085.465640
-212107.791612
-212131.898834
-212157.131056
-212184.269528
-212213.564250
-212244.921472
-217831.423961
-217849.812433
-217867.919655
-217889.933127
-217912.321598
-217937.241320
-217963.848542
-217991.612014
-218022.187986
-223631.596725
-223649.422697
-223668.592419
-223688.980891
-223711.431863
-223736.195335
-223760.802557
-223788.222278
-223816.860750
-229449.081990
-229465.314211
-229484.327683
-229504.622405
-229525.292127
-229548.743099
-229574.131571
-229600.332543
-229628.127265
-235278.567254
-235294.736976
-235313.750448
-235332.576420
-235353.464891
-235375.228363
-235399.460585
-235424.849057
-235452.425029
-241118.615018
-241134.534740
-241152.298212
-241171.124184
-241192.450156
-241212.463628
-241237.039599
-241260.459321
-241286.285293
-246967.162782
-246983.582504
-246999.252226
-247018.203198
-247037.810420
-247058.917642
-247081.274864
-247104.475836
-247129.301807
-252820.648047
-252836.880269
-252853.143741
-252871.157212
-252890.326934
-252910.840406
-252932.322628
-252954.554850
-252979.005822
-258679.789561
-258694.490533
-258710.941505
-258728.392477
-258745.343449
-258766.138170
-258786.682892
-258808.540114
-258830.897336
-264538.993575
-264554.475797
-264570.239269
-264587.158991
-264604.609963
-264624.873435
-264642.636907
-264664.400378
-264686.257600
-270399.072590
-270413.054812
-270428.412033
-270444.894255
-270462.251477
-270479.671199
-270499.434671
-270518.541893
-270539.399115
-276256.057854
-276270.227576
-276284.522298
-276299.754520
-276317.236741
-276333.281463
-276352.638685
-276372.058407
-276391.696879
-282108.386868
-282121.462840
-282136.476312
-282151.146034
-282167.409506
-282184.110478
-282201.186450
-282219.824921
-282237.900893
-287953.028383
-287968.010604
-287981.399076
-287995.787548
-288009.738520
-288028.064492
-288043.734214
-288061.685186
-288079.292408
-293791.232397
-293803.964619
-293817.259341
-293831.460313
-293846.223784
-293861.612256
-293878.563228
-293895.076700
-293911.590172
-299617.998911
-299631.449883
-299644.619605
-299656.758077
-299671.552799
-299687.441271
-299701.610992
-299717.030714
-299733.794186
-305432.140425
-305446.091397
-305458.542369
-305471.774591
-305485.319313
-305499.145285
-305513.065007
-305527.922229
-305543.341950
-311233.719440
-311246.045412
-311258.558884
-311270.728605
-311285.210827
-311297.849299
-311311.175271
-311325.626243
-311339.608465
-317020.235954
-317031.155676
-317043.544148
-317056.151370
-317067.977342
-317081.147063
-317093.754285
-317107.080257
-317121.687479
-322787.814968
-322800.578440
-322811.123162
-322822.292884
-322834.931356
-322846.819828
-322859.989550
-322871.971771
-322884.797743
-328538.175233
-328549.657455
-328560.514676
-328571.309398
-328583.666620
-328594.711342
-328606.349814
-328617.800786
-328628.876758
-334268.347997
-334278.455219
-334288.906191
-334300.294663
-334311.183134
-334322.352856
-334334.022578
-334345.379800
-334354.987022
-339976.145761
-339987.127983
-339996.516455
-340006.686177
-340017.949649
-340027.838121
-340038.601593
-340049.521314
-340059.284786
-345661.474776
-345671.331997
-345681.032969
-345691.765191
-345701.622413
-345711.448385
-345721.055607
-345731.006579
-345740.176301
-351322.491290
-351331.879762
-351342.143234
-351352.156706
-351361.763927
-351370.496149
-351379.259621
-351387.679343
-351396.849065
-356957.632804
-356967.490026
-356976.128498
-356985.891970
-356995.499192
-357003.637664
-357012.276135
-357020.070857
-357027.834329
-362565.774318
-362575.475290
-362584.613762
-362593.095984
-362602.828206
-362610.247928
-362618.511400
-362625.056122
-362631.507093
SCALARS stress_2 float
LOOKUP_TABLE default
7451.043152
-43422.413427
-42670.445220
-41911.477013
-41147.508805
-40380.290598
-39608.822391
-38835.604184
-38060.135976
-37276.917769
-36499.199562
-35709.731355
-34924.013147
-34134.044940
-33344.576733
-32552.358526
-31757.640318
-30962.672111
-30166.953904
-29373.985697
-28578.517489
-27785.049282
-26984.081075
-26190.612868
-25391.394660
-24596.426453
-23808.958246
-23017.490039
-22230.021832
-21445.803624
-20660.335417
-19882.367210
-19103.649003
-18334.180795
-17568.462588
-16801.244381
-16041.776174
-15297.057966
-14546.339759
-13801.871552
-13067.653345
-12341.435137
-11619.466930
-10910.248723
-10200.530516
-9508.312308
-8816.844101
-8137.875894
-7470.657687
-6808.689479
-6157.721272
-5520.503065
-4894.284858
-4276.066650
-3672.098443
-3073.630236
-2498.162029
-1926.443821
-1370.975614
-825.507407
-294.539200
219.679007
723.147215
1212.865422
1683.333629
2145.051836
2592.020044
3019.988251
3437.706458
3833.424665
4222.392873
4590.611080
4946.079287
5285.297494
5609.015702
5917.483909
6210.452116
6490.420323
6750.388531
7001.106738
7232.074945
-40472.047568
9754.409012
9568.940804
9362.472597
9139.754390
8903.286183
8654.817975
8384.349768
8097.881561
7801.163354
7483.195146
7153.726939
6807.758732
6445.540525
6064.572317
5674.354110
5260.635903
4836.417696
4397.199489
3942.481281
3471.513074
2992.294867
2489.326660
1975.858452
1447.140245
907.922038
356.703831
-213.514377
-787.732584
-1382.700791
-1990.418998
-2605.387206
-3231.105413
-3864.323620
-4515.291827
-5175.260035
-5846.228242
-6526.696449
-7213.414656
-7913.382864
-8615.351071
-9333.819278
-10051.287485
-10783.505693
-11517.723900
-12263.192107
-13009.660314
-13764.878522
-14522.596729
-15287.314936
-16055.533143
-16829.001350
-17607.969558
-18389.187765
-19175.405972
-19965.124179
-20751.592387
-21545.060594
-22343.528801
-23137.497008
-23932.215216
-24729.683423
-25530.401630
-26330.119837
-27125.588045
-27928.306252
-28722.274459
-29519.742666
-30317.460874
-31111.429081
-31907.147288
-32702.615495
-33488.083703
-34274.801910
-35061.020117
-35839.988324
-36622.206532
-37399.924739
-38173.642946
-38943.111153
-39712.579361
-40769.059154
-41060.570740
-41360.582326
-41658.343911
-41950.605497
-42243.367083
-42543.878669
-42835.390255
-43127.651841
7685.304738
7919.816324
8148.577910
8379.589496
8614.101082
8842.112668
9073.124254
9298.885840
9529.397426
9330.679218
9106.667633
8873.406047
8639.894461
8406.132875
8174.871289
7940.359703
7708.598117
7470.336531
9127.711011
8893.949425
8660.687839
8422.176253
8191.664668
7952.153082
7717.141496
7476.129910
7237.118324
8905.992804
8669.981218
8434.969632
8195.958046
7952.196460
7712.184874
7475.423288
7231.911702
6992.400117
8663.024597
8428.513011
8186.251425
7946.239839
7703.978253
7465.966667
7223.455081
6975.943495
6738.431909
8411.806390
8167.794804
7926.533218
7683.021632
7441.510046
7195.748460
6948.986874
6707.725288
6461.713702
8141.088182
7900.326596
7651.815010
7404.053424
7158.291839
6912.030253
6665.268667
6419.257081
6166.745495
7854.119975
7607.858389
7359.596803
7113.835217
6861.823631
6613.812045
6363.800459
6110.538874
5863.527288
7552.151768
7301.640182
7052.628596
6800.867010
6546.605424
6299.343838
6045.832252
5794.570666
5539.309080
7235.933561
6984.671975
6731.410389
6479.148803
6223.887217
5969.125631
5715.364045
5461.102459
5201.590873
6899.215353
6650.703767
6392.442181
6139.680595
5880.669010
5623.157424
5369.895838
5111.134252
4850.622666
6553.247146
6296.485560
6040.223974
5781.212388
5522.200802
5265.689216
5004.177630
4742.916045
4480.404459
6184.528939
5929.267353
5670.505767
5411.744181
5149.232595
4886.471009
4625.209423
4361.447837
4099.436251
5806.310732
5543.049146
5289.787560
5023.525974
4760.264388
4499.002802
4229.491216
3964.479630
3700.968044
5409.842524
5150.080938
4882.819352
4617.307767
4354.796181
4089.284595
3827.273009
3557.511423
3288.749837
4996.874317
4736.112731
4466.601145
4203.589559
3934.077973
3663.816387
3397.304801
3130.043216
2857.781630
4573.656110
4305.894524
4035.132938
3766.871352
3501.109766
3228.098180
2960.836594
2691.075008
2415.313422
4124.187903
3859.676317
3593.664731
3323.653145
3049.141559
2777.379973
2503.368387
2231.106801
1958.595215
3673.719695
3400.958109
3129.196523
2860.684938
2584.173352
2311.661766
2037.150180
1763.138594
1484.127008
3203.501488
2929.239902
2654.978316
2380.216730
2103.455144
1829.943558
1552.931973
1279.420387
997.158801
2713.283281
2441.771695
2167.760109
1891.998523
1613.986937
1336.225351
1055.463765
780.952179
497.440593
2214.065074
1938.803488
1661.041902
1382.030316
1099.518730
820.507144
545.745558
266.983972
-11.527614
1701.846866
1423.085280
1141.573695
862.812109
585.050523
302.788937
23.277351
-261.234235
-544.495821
1172.878659
892.617073
609.355487
329.093901
47.832315
-232.179271
-515.440856
-801.452442
-1082.464028
630.160452
349.898866
64.137280
-215.624306
-498.385892
-782.647478
-1070.909064
-1355.920650
-1639.432236
71.942245
-212.819341
-493.330927
-778.342513
-1061.854099
-1347.365685
-1631.377271
-1918.638857
-2210.150443
-495.525963
-777.037549
-1063.549134
-1348.310720
-1634.322306
-1923.083892
-2207.595478
-2495.607064
-2787.118650
-1073.994170
-1361.255756
-1648.767342
-1937.278928
-2225.790514
-2515.052099
-2800.563685
-3088.325271
-3380.336857
-1670.712377
-1954.723963
-2246.735549
-2530.497135
-2819.508721
-3108.770307
-3398.781893
-3692.543479
-3983.805065
-2273.930584
-2561.442170
-2854.203756
-3143.215342
-3429.726928
-3724.988514
-4015.750100
-4305.261686
-4597.023272
-2893.148792
-3181.910377
-3472.671963
-3765.433549
-4055.195135
-4347.456721
-4640.968307
-4931.979893
-5223.741479
-3518.366999
-3813.878585
-4102.890171
-4393.651757
-4690.663343
-4982.674928
-5274.436514
-5569.198100
-5865.209686
-4162.585206
-4454.846792
-4742.358378
-5037.119964
-5329.631550
-5624.893136
-5923.404722
-6218.666308
-6509.427893
-4809.303413
-5103.564999
-5397.576585
-5691.838171
-5988.349757
-6282.861343
-6577.372929
-6873.384515
-7168.146101
-5471.021621
-5766.283206
-6061.044792
-6354.556378
-6651.317964
-6949.079550
-7241.091136
-7541.352722
-7842.864308
-6142.489828
-6437.751414
-6731.013000
-7029.524586
-7326.036171
-7625.297757
-7921.809343
-8220.320929
-8520.082515
-6818.208035
-7116.469621
-7415.981207
-7711.242793
-8008.504379
-8306.765965
-8605.027551
-8903.789137
-9203.050722
-7508.176242
-7807.437828
-8107.449414
-8403.211000
-8701.722586
-9001.734172
-9300.495758
-9598.257344
-9901.018930
-8208.644449
-8510.406035
-8809.667621
-9104.679207
-9406.690793
-9703.202379
-10005.213965
-10305.225551
-10605.737137
-8914.112657
-9215.374243
-9512.135829
-9811.397415
-10112.409000
-10413.170586
-10716.432172
-11015.943758
-11316.955344
-9633.080864
-9934.092450
-10228.854036
-10535.115622
-10832.127208
-11130.388794
-11431.900380
-11736.411966
-12037.423551
-10350.299071
-10652.060657
-10953.072243
-11254.083829
-11557.595415
-11857.607001
-12160.868587
-12461.630173
-12764.391759
-11079.767278
-11380.778864
-11683.540450
-11983.052036
-12285.313622
-12590.575208
-12895.086794
-13195.348380
-13499.359966
-11819.485486
-12119.997072
-12421.508658
-12722.520244
-13024.031829
-13330.793415
-13629.055001
-13935.066587
-14238.578173
-12560.953693
-12863.965279
-13168.226865
-13470.988451
-13764.750037
-14074.011623
-14377.273209
-14683.034794
-14987.046380
-13309.921900
-13612.183486
-13914.945072
-14219.456658
-14526.468244
-14826.729830
-15127.241416
-15434.003002
-15738.764588
-14066.890107
-14369.151693
-14672.413279
-14976.924865
-15280.936451
-15583.448037
-15885.959623
-16192.471209
-16496.482795
-14823.608315
-15129.869901
-15433.381487
-15736.643072
-16036.654658
-16346.666244
-16650.427830
-16954.439416
-17259.951002
-15592.076522
-15892.338108
-16198.849694
-16500.361280
-16801.622866
-17112.884452
-17418.646038
-17725.157623
-18028.419209
-16359.544729
-16663.806315
-16970.067901
-17273.079487
-17577.341073
-17880.852659
-18190.114245
-18492.125831
-18800.887417
-17136.512936
-17439.024522
-17745.536108
-18046.547694
-18349.559280
-18656.820866
-18965.582452
-19269.844038
-19576.605624
-17913.731144
-18217.492730
-18521.504316
-18825.015901
-19133.777487
-19439.539073
-19741.800659
-20048.812245
-20352.073831
-18694.949351
-18999.460937
-19303.222523
-19605.734109
-19913.745695
-20218.757281
-20526.518866
-20829.280452
-21138.292038
-19478.417558
-19782.429144
-20088.690730
-20394.952316
-20701.713902
-21001.975488
-21314.237074
-21616.248660
-21924.510246
-20266.135765
-20567.897351
-20876.408937
-21182.670523
-21483.932109
-21793.193695
-22095.455281
-22404.716867
-22712.728453
-21058.603973
-21362.865559
-21664.627144
-21970.638730
-22279.400316
-22584.161902
-22889.673488
-23198.435074
-23502.696660
-21845.072180
-22155.083766
-22459.095352
-22766.856938
-23071.618524
-23373.880110
-23682.391695
-23989.153281
-24294.164867
-22644.290387
-22945.301973
-23252.063559
-23558.325145
-23865.336731
-24169.348317
-24478.109903
-24779.121489
-25085.633075
-23440.758594
-23742.020180
-24049.781766
-24354.043352
-24660.304938
-24964.316524
-25266.078110
-25574.589696
-25883.601282
-24234.976802
-24541.238388
-24843.749973
-25151.011559
-25456.273145
-25756.284731
-26068.796317
-26373.057903
-26680.569489
-25031.945009
-25338.706595
-25641.968181
-25945.729767
-26253.491353
-26558.002938
-26862.264524
-27171.026110
-27472.787696
-25829.913216
-26136.424802
-26441.436388
-26743.697974
-27048.459560
-27355.971146
-27659.232732
-27963.244318
-28272.755904
-26633.881423
-26937.143009
-27237.154595
-27542.916181
-27847.427767
-28153.439353
-28460.200939
-28766.212525
-29068.474111
-27427.599631
-27731.611216
-28040.122802
-28340.384388
-28645.395974
-28948.407560
-29256.669146
-29557.430732
-29861.692318
-28228.317838
-28531.329424
-28837.591010
-29141.102596
-29449.364182
-29747.375767
-30052.137353
-30350.148939
-30659.910525
-29026.036045
-29328.297631
-29632.059217
-29939.070803
-30242.832389
-30544.593975
-30848.605561
-31154.117147
-31455.878732
-29824.004252
-30127.015838
-30430.777424
-30728.539010
-31034.050596
-31338.812182
-31644.323768
-31945.835354
-32251.346940
-30619.472460
-30924.484045
-31224.495631
-31530.757217
-31827.268803
-32133.780389
-32435.041975
-32739.053561
-33041.815147
-31417.440667
-31717.202253
-32017.963839
-32319.725425
-32620.737010
-32924.248596
-33226.760182
-33530.021768
-33829.033354
-32206.908874
-32507.420460
-32813.182046
-33114.693632
-33413.955218
-33718.716804
-34019.478390
-34321.239976
-34625.001561
-33000.877081
-33299.638667
-33604.150253
-33904.161839
-34206.423425
-34509.185011
-34806.696597
-35107.458183
-35409.219769
-33786.095288
-34089.356874
-34390.868460
-34687.630046
-34992.141632
-35292.903218
-35591.164804
-35895.176390
-36195.937976
-34574.563496
-34876.825082
-35178.836668
-35475.098254
-35775.359839
-36074.121425
-36380.633011
-36679.144597
-36975.156183
-35360.781703
-35657.293289
-35958.054875
-36257.066461
-36559.578047
-36855.339633
-37157.601219
-37456.862805
-37756.874390
-36141.499910
-36444.261496
-36737.773082
-37039.284668
-37339.296254
-37636.557840
-37933.319426
-38237.331012
-38538.842598
-36920.218117
-37219.479703
-37520.241289
-37817.502875
-38112.764461
-38412.276047
-38716.787633
-39011.049219
-39312.810805
-37695.186325
-37993.197911
-38290.709497
-38594.221083
-38886.232668
-39189.244254
-39484.005840
-39784.517426
-40081.029012
-38469.404532
-38766.666118
-39066.177704
-39363.689290
-39660.450876
-39955.962462
-40254.224048
-40553.735633
-40850.497219
-39239.622739
-39535.884325
-39832.895911
-40128.157497
-40427.919083
-40724.430669
-41019.442255
-41318.953841
-41617.215427
-40007.090946
-40300.352532
-40596.864118
-40893.875704
-41189.137290
-41485.648876
-41778.660462
-42077.922048
-42371.433634
SCALARS stress_3 float
LOOKUP_TABLE default
1617.011006
56507.062134
55711.898995
54919.485856
54122.072716
53320.159577
52514.996438
51705.083299
50886.670160
50072.757021
49250.093882
48426.930743
47602.017604
46773.604465
45939.941325
45109.028186
44272.865047
43434.451908
42595.038769
41760.125630
40921.462491
40076.799352
39236.386213
38394.723074
37554.559934
36718.146795
35879.233656
35042.070517
34203.907378
33372.244239
32541.081100
31712.667961
30882.754822
30065.091683
29243.928543
28429.765404
27621.352265
26816.939126
26011.775987
25220.112848
24430.449709
23650.036570
22876.623431
22107.960292
21347.797152
20594.384013
19848.220874
19114.557735
18387.644596
17676.231457
16963.318318
16269.405179
15588.492040
14909.828901
14241.165761
13591.752622
12957.089483
12325.926344
11716.013205
11111.850066
10519.936927
9948.023788
9386.860649
8835.947510
8309.534370
7792.871231
7285.708092
6801.044953
6324.881814
5869.968675
5427.555536
5001.142397
4590.229258
4195.566119
3821.152980
3458.739840
3111.076701
2782.163562
2466.500423
2166.337284
1884.424145
53723.476167
-855.324961
-607.161822
-346.998682
-69.085543
227.327596
533.990735
860.153874
1205.817013
1565.480152
1943.643291
2335.056430
2744.219569
3168.632709
3610.295848
4069.708987
4540.122126
5027.035265
5531.198404
6050.361543
6586.774682
7134.687821
7698.350960
8271.514100
8865.177239
9468.340378
10084.753517
10718.666656
11358.329795
12016.742934
12680.906073
13359.569212
14050.482351
14750.895491
15462.558630
16183.221769
16913.634908
17651.048047
18400.211186
19159.874325
19923.787464
20695.950603
21475.363742
22264.276882
23060.940021
23856.853160
24663.016299
25475.929438
26286.342577
27104.255716
27928.168855
28758.331994
29585.995133
30420.408273
31260.821412
32097.734551
32932.147690
33779.810829
34623.723968
35467.137107
36314.300246
37158.963385
37998.626524
38846.789664
39695.202803
40535.865942
41378.779081
42219.692220
43058.855359
43900.268498
44732.431637
45568.344776
46396.257915
47225.921055
48048.584194
48868.247333
49690.160472
50506.323611
51312.736750
52123.649889
52924.813028
54002.884764
54280.293361
54559.701957
54839.110554
55115.769151
55393.177747
55670.836344
55949.994940
56228.653537
1362.602409
1115.443813
868.535216
620.126619
371.468023
129.559426
-120.849171
-365.007767
-607.666364
-363.753225
-117.094628
133.563968
381.972565
628.631162
879.039758
1126.948355
1378.106952
1631.765548
-97.340086
150.568511
396.977108
649.135704
898.294301
1150.952897
1404.111494
1658.520091
1911.428687
180.573053
430.481650
684.390247
937.298843
1189.707440
1440.116037
1696.774633
1954.183230
2204.841826
476.736192
729.644789
987.553386
1238.461982
1496.370579
1749.529176
2005.187772
2262.346369
2520.004966
787.899332
1047.557928
1303.216525
1560.375121
1816.783718
2071.942315
2331.600911
2586.759508
2845.668105
1118.812471
1375.221067
1631.129664
1891.038261
2152.696857
2411.605454
2668.264050
2934.922647
3193.581244
1467.975610
1723.884206
1979.042803
2241.451400
2503.109996
2769.268593
3027.427190
3290.335786
3553.744383
1826.138749
2089.797345
2345.705942
2613.614539
2874.023135
3136.431732
3401.590329
3667.998925
3932.407522
2203.801888
2466.210485
2732.119081
2992.277678
3257.436274
3524.344871
3790.503468
4055.912064
4324.320661
2599.215027
2862.123624
3130.032220
3395.190817
3658.599414
3927.008010
4194.416607
4463.575204
4731.733800
3010.628166
3275.536763
3539.945359
3813.103956
4078.512553
4347.671149
4614.829746
4886.238343
5157.896939
3438.291305
3703.949902
3973.858499
4240.517095
4509.925692
4777.584288
5053.992885
5325.651482
5597.560078
3878.704444
4146.113041
4416.271638
4692.930234
4960.588831
5233.747428
5506.156024
5779.814621
6052.473217
4339.117583
4606.776180
4879.684777
5156.593373
5424.751970
5694.910567
5972.069163
6247.977760
6522.886357
4810.280723
5083.689319
5355.847916
5630.006512
5906.165109
6178.823706
6457.482302
6732.890899
7012.799496
5300.193862
5573.602458
5849.511055
6123.419652
6402.578248
6679.736845
6956.145441
7231.554038
7510.712635
5808.357001
6080.765597
6357.674194
6635.082791
6912.241387
7188.649984
7470.058581
7749.217177
8026.375774
6325.020140
6606.178736
6880.087333
7159.745930
7437.904526
7716.563123
7996.471720
8276.630316
8558.038913
6858.433279
7141.091876
7418.750472
7698.909069
7977.817665
8258.226262
8541.384859
8821.543455
9103.702052
7409.096418
7690.755015
7970.413611
8253.322208
8531.230805
8811.639401
9098.047998
9379.456595
9664.365191
7974.009557
8253.918154
8535.326750
8817.735347
9100.393944
9386.302540
9670.461137
9952.119734
10236.778330
8551.922696
8836.831293
9116.739890
9400.648486
9684.057083
9966.715679
10252.624276
10538.032873
10823.941469
9143.835835
9423.744432
9712.653029
9992.061625
10282.220222
10566.128819
10854.037415
11139.196012
11426.604608
9752.248974
10035.407571
10319.566168
10603.724764
10891.633361
11174.541958
11462.700554
11752.109151
12039.767748
10371.162114
10653.820710
10940.979307
11224.637903
11509.296500
11797.455097
12091.863693
12376.022290
12664.930887
11002.575253
11286.733849
11573.392446
11861.051043
12146.209639
12436.618236
12725.526832
13014.685429
13301.344026
11643.738392
11930.646988
12217.555585
12507.464182
12796.372778
13081.531375
13372.189972
13660.848568
13953.507165
12302.651531
12589.310127
12877.968724
13163.127321
13455.285917
13744.944514
14036.353111
14325.511707
14615.420304
12969.814670
13257.973267
13548.131863
13835.790460
14123.949056
14417.607653
14707.766250
14999.924846
15291.333443
13651.977809
13938.886406
14230.545002
14518.203599
14804.612196
15099.270792
15391.679389
15684.087986
15976.496582
14338.390948
14630.549545
14919.958141
15209.366738
15500.525335
15789.433931
16084.092528
16377.001125
16672.659721
15043.054087
15333.712684
15622.121280
15910.529877
16206.938474
16497.847070
16791.005667
17086.664264
17379.322860
15751.717226
16043.875823
16336.034420
16626.443016
16918.351613
17213.510210
17507.418806
17798.827403
18093.735999
16474.880365
16768.038962
17057.947559
17350.606155
17644.514752
17940.673349
18233.581945
18526.240542
18822.649139
17206.543505
17497.202101
17787.360698
18082.519294
18377.177891
18669.836488
18965.245084
19262.153681
19557.562278
17947.456644
18239.615240
18532.773837
18823.932434
19118.841030
19415.249627
19711.908223
20005.566820
20301.225417
18693.869783
18985.778379
19280.936976
19572.845573
19869.004169
20165.412766
20459.571363
20753.229959
21052.388556
19451.532922
19743.941518
20039.600115
20334.008712
20629.167308
20925.075905
21219.984502
21516.893098
21811.301695
20217.446061
20510.854658
20805.513254
21098.921851
21397.830447
21691.989044
21988.647641
22282.306237
22578.214834
20990.109200
21287.517797
21581.676393
21878.584990
22170.493587
22465.152183
22758.560780
23055.969377
23353.127973
21770.772339
22064.430936
22360.839532
22654.748129
22950.156726
23244.065322
23540.723919
23839.132516
24136.541112
22557.185478
22852.844075
23145.002671
23441.411268
23740.069865
24034.728461
24330.137058
24624.545655
24923.454251
23349.598617
23647.507214
23940.665811
24235.574407
24532.233004
24828.641601
25125.550197
25421.458794
25716.117390
24149.761756
24445.920353
24741.578950
25033.987546
25330.396143
25624.554740
25923.213336
26217.121933
26518.030530
24955.924896
25250.083492
25548.242089
25841.900685
26133.809282
26432.467879
26724.376475
27026.285072
27323.193669
25768.088035
26057.996631
26355.905228
26652.313825
26945.472421
27248.131018
27538.039614
27834.948211
28132.606808
26579.001174
26875.909770
27171.068367
27466.476964
27762.635560
28053.794157
28356.202754
28651.111350
28950.519947
27402.664313
27695.572909
27991.731506
28284.140103
28582.548699
28879.707296
29173.615893
29471.774489
29767.683086
28226.577452
28513.486049
28811.144645
29106.553242
29405.711838
29700.870435
29995.029032
30291.937628
30589.596225
29047.990591
29347.649188
29640.557784
29934.966381
30229.874978
30525.533574
30819.442171
31118.350767
31419.259364
29880.653730
30176.062327
30470.970923
30766.129520
31059.288117
31359.696713
31653.355310
31947.513907
32244.422503
30715.066869
31010.475466
31303.634062
31601.042659
31891.701256
32188.359852
32483.768449
32780.427046
33076.335642
31550.730008
31845.888605
32139.047202
32433.705798
32728.864395
33024.772992
33319.431588
33615.090185
33907.248781
32390.893147
32684.051744
32976.710341
33270.618937
33567.277534
33858.436131
34156.344727
34453.003324
34746.911921
33231.306287
33527.714883
33817.123480
34112.782076
34404.940673
34702.849270
34992.757866
35288.916463
35581.075060
34074.719426
34368.378022
34657.286619
34953.695216
35245.603812
35539.512409
35832.421005
36129.079602
36420.988199
34917.132565
35206.291161
35498.949758
35796.608355
36087.516951
36381.925548
36674.834145
36967.742741
37261.901338
35759.545704
36050.204300
36341.112897
36634.521494
36932.180090
37223.588687
37519.747284
37807.905880
38102.314477
36602.458843
36895.367440
37189.276036
37478.684633
37772.593229
38064.501826
38357.910423
38650.069019
38947.977616
37449.871982
37739.780579
38031.939175
38321.597772
38615.256369
38906.164965
39198.823562
39494.982158
39787.390755
38295.285121
38584.693718
38874.602314
39168.510911
39459.669508
39752.078104
40041.486701
40336.145298
40626.553894
39141.448260
39429.856857
39719.765453
40009.674050
40301.082647
40589.991243
40884.399840
41176.558437
41469.467033
39980.111399
40270.019996
40565.678593
40851.337189
41144.745786
41436.904383
41726.062979
42015.721576
42308.130172
40824.774538
41116.183135
41402.841732
41695.250328
41985.658925
42274.317522
42564.226118
42855.134715
43146.543312
41666.187677
41954.846274
42245.754871
42533.163467
42825.322064
43114.980661
43406.889257
43697.047854
43982.456451
42509.100817
42795.259413
43084.668010
43375.826607
43661.735203
43950.143800
44243.552396
44529.960993
44818.869590
43348.513956
43635.922552
43924.581149
44210.489746
44499.898342
44785.306939
45074.965536
45365.374132
45653.282729
44184.427095
44472.085691
44756.744288
45048.402885
45334.311481
45622.220078
45908.628675
46196.037271
46486.445868
45016.840234
45306.498831
45589.657427
45881.316024
46165.724620
46455.633217
46738.791814
47027.700410
47314.109007
45853.753373
46139.411970
46422.820566
46710.229163
46995.637760
47282.796356
47568.454953
47853.113549
48142.522146
46683.916512
46964.825109
47252.483705
47538.142302
47824.050899
48109.459495
48396.118092
48682.526689
48964.685285
47508.579651
47792.238248
48082.146844
48364.805441
48649.214038
48935.122634
49218.531231
49499.939828
49785.348424
48332.742790
48614.901387
48899.309984
49184.218580
49467.377177
49751.785774
50037.194370
50320.602967
50603.511563
49152.655929
49435.814526
49721.973123
50001.381719
50288.540316
50572.698913
50852.357509
51134.016106
51420.424703
49976.069068
50251.227665
50538.386262
50816.294858
51104.203455
51382.862052
51667.770648
51948.429245
52234.837842
50785.482208
51069.890804
51347.549401
51632.207998
51913.616594
52195.525191
52473.683787
52759.592384
53043.000981
51595.895347
51877.303943
52159.462540
52440.621137
52721.779733
52999.688330
53279.596927
53562.255523
53846.414120
52401.058486
52677.717082
52960.125679
53240.034276
53522.192872
53806.351469
54080.760066
54363.668662
54643.077259
53207.971625
53483.380222
53761.788818
54043.697415
54323.606011
54597.764608
54879.173205
55155.831801
55436.740398
