# vtk DataFile Version 2.0
Generated volume Mesh
ASCII
DATASET UNSTRUCTURED_GRID
POINTS 891 float
0.005000 0.100000 0.000000
0.005000 0.000000 0.000000
0.005000 0.001250 0.000000
0.005000 0.002500 0.000000
0.005000 0.003750 0.000000
0.005000 0.005000 0.000000
0.005000 0.006250 0.000000
0.005000 0.007500 0.000000
0.005000 0.008750 0.000000
0.005000 0.010000 0.000000
0.005000 0.011250 0.000000
0.005000 0.012500 0.000000
0.005000 0.013750 0.000000
0.005000 0.015000 0.000000
0.005000 0.016250 0.000000
0.005000 0.017500 0.000000
0.005000 0.018750 0.000000
0.005000 0.020000 0.000000
0.005000 0.021250 0.000000
0.005000 0.022500 0.000000
0.005000 0.023750 0.000000
0.005000 0.025000 0.000000
0.005000 0.026250 0.000000
0.005000 0.027500 0.000000
0.005000 0.028750 0.000000
0.005000 0.030000 0.000000
0.005000 0.031250 0.000000
0.005000 0.032500 0.000000
0.005000 0.033750 0.000000
0.005000 0.035000 0.000000
0.005000 0.036250 0.000000
0.005000 0.037500 0.000000
0.005000 0.038750 0.000000
0.005000 0.040000 0.000000
0.005000 0.041250 0.000000
0.005000 0.042500 0.000000
0.005000 0.043750 0.000000
0.005000 0.045000 0.000000
0.005000 0.046250 0.000000
0.005000 0.047500 0.000000
0.005000 0.048750 0.000000
0.005000 0.050000 0.000000
0.005000 0.051250 0.000000
0.005000 0.052500 0.000000
0.005000 0.053750 0.000000
0.005000 0.055000 0.000000
0.005000 0.056250 0.000000
0.005000 0.057500 0.000000
0.005000 0.058750 0.000000
0.005000 0.060000 0.000000
0.005000 0.061250 0.000000
0.005000 0.062500 0.000000
0.005000 0.063750 0.000000
0.005000 0.065000 0.000000
0.005000 0.066250 0.000000
0.005000 0.067500 0.000000
0.005000 0.068750 0.000000
0.005000 0.070000 0.000000
0.005000 0.071250 0.000000
0.005000 0.072500 0.000000
0.005000 0.073750 0.000000
0.005000 0.075000 0.000000
0.005000 0.076250 0.000000
0.005000 0.077500 0.000000
0.005000 0.078750 0.000000
0.005000 0.080000 0.000000
0.005000 0.081250 0.000000
0.005000 0.082500 0.000000
0.005000 0.083750 0.000000
0.005000 0.085000 0.000000
0.005000 0.086250 0.000000
0.005000 0.087500 0.000000
0.005000 0.088750 0.000000
0.005000 0.090000 0.000000
0.005000 0.091250 0.000000
0.005000 0.092500 0.000000
0.005000 0.093750 0.000000
0.005000 0.095000 0.000000
0.005000 0.096250 0.000000
0.005000 0.097500 0.000000
0.005000 0.098750 0.000000
0.000000 0.000000 0.000000
0.000000 0.100000 0.000000
0.000000 0.098750 0.000000
0.000000 0.097500 0.000000
0.000000 0.096250 0.000000
0.000000 0.095000 0.000000
0.000000 0.093750 0.000000
0.000000 0.092500 0.000000
0.000000 0.091250 0.000000
0.000000 0.090000 0.000000
0.000000 0.088750 0.000000
0.000000 0.087500 0.000000
0.000000 0.086250 0.000000
0.000000 0.085000 0.000000
0.000000 0.083750 0.000000
0.000000 0.082500 0.000000
0.000000 0.081250 0.000000
0.000000 0.080000 0.000000
0.000000 0.078750 0.000000
0.000000 0.077500 0.000000
0.000000 0.076250 0.000000
0.000000 0.075000 0.000000
0.000000 0.073750 0.000000
0.000000 0.072500 0.000000
0.000000 0.071250 0.000000
0.000000 0.070000 0.000000
0.000000 0.068750 0.000000
0.000000 0.067500 0.000000
0.000000 0.066250 0.000000
0.000000 0.065000 0.000000
0.000000 0.063750 0.000000
0.000000 0.062500 0.000000
0.000000 0.061250 0.000000
0.000000 0.060000 0.000000
0.000000 0.058750 0.000000
0.000000 0.057500 0.000000
0.000000 0.056250 0.000000
0.000000 0.055000 0.000000
0.000000 0.053750 0.000000
0.000000 0.052500 0.000000
0.000000 0.051250 0.000000
0.000000 0.050000 0.000000
0.000000 0.048750 0.000000
0.000000 0.047500 0.000000
0.000000 0.046250 0.000000
0.000000 0.045000 0.000000
0.000000 0.043750 0.000000
0.000000 0.042500 0.000000
0.000000 0.041250 0.000000
0.000000 0.040000 0.000000
0.000000 0.038750 0.000000
0.000000 0.037500 0.000000
0.000000 0.036250 0.000000
0.000000 0.035000 0.000000
0.000000 0.033750 0.000000
0.000000 0.032500 0.000000
0.000000 0.031250 0.000000
0.000000 0.030000 0.000000
0.000000 0.028750 0.000000
0.000000 0.027500 0.000000
0.000000 0.026250 0.000000
0.000000 0.025000 0.000000
0.000000 0.023750 0.000000
0.000000 0.022500 0.000000
0.000000 0.021250 0.000000
0.000000 0.020000 0.000000
0.000000 0.018750 0.000000
0.000000 0.017500 0.000000
0.000000 0.016250 0.000000
0.000000 0.015000 0.000000
0.000000 0.013750 0.000000
0.000000 0.012500 0.000000
0.000000 0.011250 0.000000
0.000000 0.010000 0.000000
0.000000 0.008750 0.000000
0.000000 0.007500 0.000000
0.000000 0.006250 0.000000
0.000000 0.005000 0.000000
0.000000 0.003750 0.000000
0.000000 0.002500 0.000000
0.000000 0.001250 0.000000
0.000500 0.000000 0.000000
0.001000 0.000000 0.000000
0.001500 0.000000 0.000000
0.002000 0.000000 0.000000
0.002500 0.000000 0.000000
0.003000 0.000000 0.000000
0.003500 0.000000 0.000000
0.004000 0.000000 0.000000
0.004500 0.000000 0.000000
0.004500 0.100000 0.000000
0.004000 0.100000 0.000000
0.003500 0.100000 0.000000
0.003000 0.100000 0.000000
0.002500 0.100000 0.000000
0.002000 0.100000 0.000000
0.001500 0.100000 0.000000
0.001000 0.100000 0.000000
0.000500 0.100000 0.000000
0.000500 0.098750 0.000000
0.001000 0.098750 0.000000
0.001500 0.098750 0.000000
0.002000 0.098750 0.000000
0.002500 0.098750 0.000000
0.003000 0.098750 0.000000
0.003500 0.098750 0.000000
0.004000 0.098750 0.000000
0.004500 0.098750 0.000000
0.000500 0.097500 0.000000
0.001000 0.097500 0.000000
0.001500 0.097500 0.000000
0.002000 0.097500 0.000000
0.002500 0.097500 0.000000
0.003000 0.097500 0.000000
0.003500 0.097500 0.000000
0.004000 0.097500 0.000000
0.004500 0.097500 0.000000
0.000500 0.096250 0.000000
0.001000 0.096250 0.000000
0.001500 0.096250 0.000000
0.002000 0.096250 0.000000
0.002500 0.096250 0.000000
0.003000 0.096250 0.000000
0.003500 0.096250 0.000000
0.004000 0.096250 0.000000
0.004500 0.096250 0.000000
0.000500 0.095000 0.000000
0.001000 0.095000 0.000000
0.001500 0.095000 0.000000
0.002000 0.095000 0.000000
0.002500 0.095000 0.000000
0.003000 0.095000 0.000000
0.003500 0.095000 0.000000
0.004000 0.095000 0.000000
0.004500 0.095000 0.000000
0.000500 0.093750 0.000000
0.001000 0.093750 0.000000
0.001500 0.093750 0.000000
0.002000 0.093750 0.000000
0.002500 0.093750 0.000000
0.003000 0.093750 0.000000
0.003500 0.093750 0.000000
0.004000 0.093750 0.000000
0.004500 0.093750 0.000000
0.000500 0.092500 0.000000
0.001000 0.092500 0.000000
0.001500 0.092500 0.000000
0.002000 0.092500 0.000000
0.002500 0.092500 0.000000
0.003000 0.092500 0.000000
0.003500 0.092500 0.000000
0.004000 0.092500 0.000000
0.004500 0.092500 0.000000
0.000500 0.091250 0.000000
0.001000 0.091250 0.000000
0.001500 0.091250 0.000000
0.002000 0.091250 0.000000
0.002500 0.091250 0.000000
0.003000 0.091250 0.000000
0.003500 0.091250 0.000000
0.004000 0.091250 0.000000
0.004500 0.091250 0.000000
0.000500 0.090000 0.000000
0.001000 0.090000 0.000000
0.001500 0.090000 0.000000
0.002000 0.090000 0.000000
0.002500 0.090000 0.000000
0.003000 0.090000 0.000000
0.003500 0.090000 0.000000
0.004000 0.090000 0.000000
0.004500 0.090000 0.000000
0.000500 0.088750 0.000000
0.001000 0.088750 0.000000
0.001500 0.088750 0.000000
0.002000 0.088750 0.000000
0.002500 0.088750 0.000000
0.003000 0.088750 0.000000
0.003500 0.088750 0.000000
0.004000 0.088750 0.000000
0.004500 0.088750 0.000000
0.000500 0.087500 0.000000
0.001000 0.087500 0.000000
0.001500 0.087500 0.000000
0.002000 0.087500 0.000000
0.002500 0.087500 0.000000
0.003000 0.087500 0.000000
0.003500 0.087500 0.000000
0.004000 0.087500 0.000000
0.004500 0.087500 0.000000
0.000500 0.086250 0.000000
0.001000 0.086250 0.000000
0.001500 0.086250 0.000000
0.002000 0.086250 0.000000
0.002500 0.086250 0.000000
0.003000 0.086250 0.000000
0.003500 0.086250 0.000000
0.004000 0.086250 0.000000
0.004500 0.086250 0.000000
0.000500 0.085000 0.000000
0.001000 0.085000 0.000000
0.001500 0.085000 0.000000
0.002000 0.085000 0.000000
0.002500 0.085000 0.000000
0.003000 0.085000 0.000000
0.003500 0.085000 0.000000
0.004000 0.085000 0.000000
0.004500 0.085000 0.000000
0.000500 0.083750 0.000000
0.001000 0.083750 0.000000
0.001500 0.083750 0.000000
0.002000 0.083750 0.000000
0.002500 0.083750 0.000000
0.003000 0.083750 0.000000
0.003500 0.083750 0.000000
0.004000 0.083750 0.000000
0.004500 0.083750 0.000000
0.000500 0.082500 0.000000
0.001000 0.082500 0.000000
0.001500 0.082500 0.000000
0.002000 0.082500 0.000000
0.002500 0.082500 0.000000
0.003000 0.082500 0.000000
0.003500 0.082500 0.000000
0.004000 0.082500 0.000000
0.004500 0.082500 0.000000
0.000500 0.081250 0.000000
0.001000 0.081250 0.000000
0.001500 0.081250 0.000000
0.002000 0.081250 0.000000
0.002500 0.081250 0.000000
0.003000 0.081250 0.000000
0.003500 0.081250 0.000000
0.004000 0.081250 0.000000
0.004500 0.081250 0.000000
0.000500 0.080000 0.000000
0.001000 0.080000 0.000000
0.001500 0.080000 0.000000
0.002000 0.080000 0.000000
0.002500 0.080000 0.000000
0.003000 0.080000 0.000000
0.003500 0.080000 0.000000
0.004000 0.080000 0.000000
0.004500 0.080000 0.000000
0.000500 0.078750 0.000000
0.001000 0.078750 0.000000
0.001500 0.078750 0.000000
0.002000 0.078750 0.000000
0.002500 0.078750 0.000000
0.003000 0.078750 0.000000
0.003500 0.078750 0.000000
0.004000 0.078750 0.000000
0.004500 0.078750 0.000000
0.000500 0.077500 0.000000
0.001000 0.077500 0.000000
0.001500 0.077500 0.000000
0.002000 0.077500 0.000000
0.002500 0.077500 0.000000
0.003000 0.077500 0.000000
0.003500 0.077500 0.000000
0.004000 0.077500 0.000000
0.004500 0.077500 0.000000
0.000500 0.076250 0.000000
0.001000 0.076250 0.000000
0.001500 0.076250 0.000000
0.002000 0.076250 0.000000
0.002500 0.076250 0.000000
0.003000 0.076250 0.000000
0.003500 0.076250 0.000000
0.004000 0.076250 0.000000
0.004500 0.076250 0.000000
0.000500 0.075000 0.000000
0.001000 0.075000 0.000000
0.001500 0.075000 0.000000
0.002000 0.075000 0.000000
0.002500 0.075000 0.000000
0.003000 0.075000 0.000000
0.003500 0.075000 0.000000
0.004000 0.075000 0.000000
0.004500 0.075000 0.000000
0.000500 0.073750 0.000000
0.001000 0.073750 0.000000
0.001500 0.073750 0.000000
0.002000 0.073750 0.000000
0.002500 0.073750 0.000000
0.003000 0.073750 0.000000
0.003500 0.073750 0.000000
0.004000 0.073750 0.000000
0.004500 0.073750 0.000000
0.000500 0.072500 0.000000
0.001000 0.072500 0.000000
0.001500 0.072500 0.000000
0.002000 0.072500 0.000000
0.002500 0.072500 0.000000
0.003000 0.072500 0.000000
0.003500 0.072500 0.000000
0.004000 0.072500 0.000000
0.004500 0.072500 0.000000
0.000500 0.071250 0.000000
0.001000 0.071250 0.000000
0.001500 0.071250 0.000000
0.002000 0.071250 0.000000
0.002500 0.071250 0.000000
0.003000 0.071250 0.000000
0.003500 0.071250 0.000000
0.004000 0.071250 0.000000
0.004500 0.071250 0.000000
0.000500 0.070000 0.000000
0.001000 0.070000 0.000000
0.001500 0.070000 0.000000
0.002000 0.070000 0.000000
0.002500 0.070000 0.000000
0.003000 0.070000 0.000000
0.003500 0.070000 0.000000
0.004000 0.070000 0.000000
0.004500 0.070000 0.000000
0.000500 0.068750 0.000000
0.001000 0.068750 0.000000
0.001500 0.068750 0.000000
0.002000 0.068750 0.000000
0.002500 0.068750 0.000000
0.003000 0.068750 0.000000
0.003500 0.068750 0.000000
0.004000 0.068750 0.000000
0.004500 0.068750 0.000000
0.000500 0.067500 0.000000
0.001000 0.067500 0.000000
0.001500 0.067500 0.000000
0.002000 0.067500 0.000000
0.002500 0.067500 0.000000
0.003000 0.067500 0.000000
0.003500 0.067500 0.000000
0.004000 0.067500 0.000000
0.004500 0.067500 0.000000
0.000500 0.066250 0.000000
0.001000 0.066250 0.000000
0.001500 0.066250 0.000000
0.002000 0.066250 0.000000
0.002500 0.066250 0.000000
0.003000 0.066250 0.000000
0.003500 0.066250 0.000000
0.004000 0.066250 0.000000
0.004500 0.066250 0.000000
0.000500 0.065000 0.000000
0.001000 0.065000 0.000000
0.001500 0.065000 0.000000
0.002000 0.065000 0.000000
0.002500 0.065000 0.000000
0.003000 0.065000 0.000000
0.003500 0.065000 0.000000
0.004000 0.065000 0.000000
0.004500 0.065000 0.000000
0.000500 0.063750 0.000000
0.001000 0.063750 0.000000
0.001500 0.063750 0.000000
0.002000 0.063750 0.000000
0.002500 0.063750 0.000000
0.003000 0.063750 0.000000
0.003500 0.063750 0.000000
0.004000 0.063750 0.000000
0.004500 0.063750 0.000000
0.000500 0.062500 0.000000
0.001000 0.062500 0.000000
0.001500 0.062500 0.000000
0.002000 0.062500 0.000000
0.002500 0.062500 0.000000
0.003000 0.062500 0.000000
0.003500 0.062500 0.000000
0.004000 0.062500 0.000000
0.004500 0.062500 0.000000
0.000500 0.061250 0.000000
0.001000 0.061250 0.000000
0.001500 0.061250 0.000000
0.002000 0.061250 0.000000
0.002500 0.061250 0.000000
0.003000 0.061250 0.000000
0.003500 0.061250 0.000000
0.004000 0.061250 0.000000
0.004500 0.061250 0.000000
0.000500 0.060000 0.000000
0.001000 0.060000 0.000000
0.001500 0.060000 0.000000
0.002000 0.060000 0.000000
0.002500 0.060000 0.000000
0.003000 0.060000 0.000000
0.003500 0.060000 0.000000
0.004000 0.060000 0.000000
0.004500 0.060000 0.000000
0.000500 0.058750 0.000000
0.001000 0.058750 0.000000
0.001500 0.058750 0.000000
0.002000 0.058750 0.000000
0.002500 0.058750 0.000000
0.003000 0.058750 0.000000
0.003500 0.058750 0.000000
0.004000 0.058750 0.000000
0.004500 0.058750 0.000000
0.000500 0.057500 0.000000
0.001000 0.057500 0.000000
0.001500 0.057500 0.000000
0.002000 0.057500 0.000000
0.002500 0.057500 0.000000
0.003000 0.057500 0.000000
0.003500 0.057500 0.000000
0.004000 0.057500 0.000000
0.004500 0.057500 0.000000
0.000500 0.056250 0.000000
0.001000 0.056250 0.000000
0.001500 0.056250 0.000000
0.002000 0.056250 0.000000
0.002500 0.056250 0.000000
0.003000 0.056250 0.000000
0.003500 0.056250 0.000000
0.004000 0.056250 0.000000
0.004500 0.056250 0.000000
0.000500 0.055000 0.000000
0.001000 0.055000 0.000000
0.001500 0.055000 0.000000
0.002000 0.055000 0.000000
0.002500 0.055000 0.000000
0.003000 0.055000 0.000000
0.003500 0.055000 0.000000
0.004000 0.055000 0.000000
0.004500 0.055000 0.000000
0.000500 0.053750 0.000000
0.001000 0.053750 0.000000
0.001500 0.053750 0.000000
0.002000 0.053750 0.000000
0.002500 0.053750 0.000000
0.003000 0.053750 0.000000
0.003500 0.053750 0.000000
0.004000 0.053750 0.000000
0.004500 0.053750 0.000000
0.000500 0.052500 0.000000
0.001000 0.052500 0.000000
0.001500 0.052500 0.000000
0.002000 0.052500 0.000000
0.002500 0.052500 0.000000
0.003000 0.052500 0.000000
0.003500 0.052500 0.000000
0.004000 0.052500 0.000000
0.004500 0.052500 0.000000
0.000500 0.051250 0.000000
0.001000 0.051250 0.000000
0.001500 0.051250 0.000000
0.002000 0.051250 0.000000
0.002500 0.051250 0.000000
0.003000 0.051250 0.000000
0.003500 0.051250 0.000000
0.004000 0.051250 0.000000
0.004500 0.051250 0.000000
0.000500 0.050000 0.000000
0.001000 0.050000 0.000000
0.001500 0.050000 0.000000
0.002000 0.050000 0.000000
0.002500 0.050000 0.000000
0.003000 0.050000 0.000000
0.003500 0.050000 0.000000
0.004000 0.050000 0.000000
0.004500 0.050000 0.000000
0.000500 0.048750 0.000000
0.001000 0.048750 0.000000
0.001500 0.048750 0.000000
0.002000 0.048750 0.000000
0.002500 0.048750 0.000000
0.003000 0.048750 0.000000
0.003500 0.048750 0.000000
0.004000 0.048750 0.000000
0.004500 0.048750 0.000000
0.000500 0.047500 0.000000
0.001000 0.047500 0.000000
0.001500 0.047500 0.000000
0.002000 0.047500 0.000000
0.002500 0.047500 0.000000
0.003000 0.047500 0.000000
0.003500 0.047500 0.000000
0.004000 0.047500 0.000000
0.004500 0.047500 0.000000
0.000500 0.046250 0.000000
0.001000 0.046250 0.000000
0.001500 0.046250 0.000000
0.002000 0.046250 0.000000
0.002500 0.046250 0.000000
0.003000 0.046250 0.000000
0.003500 0.046250 0.000000
0.004000 0.046250 0.000000
0.004500 0.046250 0.000000
0.000500 0.045000 0.000000
0.001000 0.045000 0.000000
0.001500 0.045000 0.000000
0.002000 0.045000 0.000000
0.002500 0.045000 0.000000
0.003000 0.045000 0.000000
0.003500 0.045000 0.000000
0.004000 0.045000 0.000000
0.004500 0.045000 0.000000
0.000500 0.043750 0.000000
0.001000 0.043750 0.000000
0.001500 0.043750 0.000000
0.002000 0.043750 0.000000
0.002500 0.043750 0.000000
0.003000 0.043750 0.000000
0.003500 0.043750 0.000000
0.004000 0.043750 0.000000
0.004500 0.043750 0.000000
0.000500 0.042500 0.000000
0.001000 0.042500 0.000000
0.001500 0.042500 0.000000
0.002000 0.042500 0.000000
0.002500 0.042500 0.000000
0.003000 0.042500 0.000000
0.003500 0.042500 0.000000
0.004000 0.042500 0.000000
0.004500 0.042500 0.000000
0.000500 0.041250 0.000000
0.001000 0.041250 0.000000
0.001500 0.041250 0.000000
0.002000 0.041250 0.000000
0.002500 0.041250 0.000000
0.003000 0.041250 0.000000
0.003500 0.041250 0.000000
0.004000 0.041250 0.000000
0.004500 0.041250 0.000000
0.000500 0.040000 0.000000
0.001000 0.040000 0.000000
0.001500 0.040000 0.000000
0.002000 0.040000 0.000000
0.002500 0.040000 0.000000
0.003000 0.040000 0.000000
0.003500 0.040000 0.000000
0.004000 0.040000 0.000000
0.004500 0.040000 0.000000
0.000500 0.038750 0.000000
0.001000 0.038750 0.000000
0.001500 0.038750 0.000000
0.002000 0.038750 0.000000
0.002500 0.038750 0.000000
0.003000 0.038750 0.000000
0.003500 0.038750 0.000000
0.004000 0.038750 0.000000
0.004500 0.038750 0.000000
0.000500 0.037500 0.000000
0.001000 0.037500 0.000000
0.001500 0.037500 0.000000
0.002000 0.037500 0.000000
0.002500 0.037500 0.000000
0.003000 0.037500 0.000000
0.003500 0.037500 0.000000
0.004000 0.037500 0.000000
0.004500 0.037500 0.000000
0.000500 0.036250 0.000000
0.001000 0.036250 0.000000
0.001500 0.036250 0.000000
0.002000 0.036250 0.000000
0.002500 0.036250 0.000000
0.003000 0.036250 0.000000
0.003500 0.036250 0.000000
0.004000 0.036250 0.000000
0.004500 0.036250 0.000000
0.000500 0.035000 0.000000
0.001000 0.035000 0.000000
0.001500 0.035000 0.000000
0.002000 0.035000 0.000000
0.002500 0.035000 0.000000
0.003000 0.035000 0.000000
0.003500 0.035000 0.000000
0.004000 0.035000 0.000000
0.004500 0.035000 0.000000
0.000500 0.033750 0.000000
0.001000 0.033750 0.000000
0.001500 0.033750 0.000000
0.002000 0.033750 0.000000
0.002500 0.033750 0.000000
0.003000 0.033750 0.000000
0.003500 0.033750 0.000000
0.004000 0.033750 0.000000
0.004500 0.033750 0.000000
0.000500 0.032500 0.000000
0.001000 0.032500 0.000000
0.001500 0.032500 0.000000
0.002000 0.032500 0.000000
0.002500 0.032500 0.000000
0.003000 0.032500 0.000000
0.003500 0.032500 0.000000
0.004000 0.032500 0.000000
0.004500 0.032500 0.000000
0.000500 0.031250 0.000000
0.001000 0.031250 0.000000
0.001500 0.031250 0.000000
0.002000 0.031250 0.000000
0.002500 0.031250 0.000000
0.003000 0.031250 0.000000
0.003500 0.031250 0.000000
0.004000 0.031250 0.000000
0.004500 0.031250 0.000000
0.000500 0.030000 0.000000
0.001000 0.030000 0.000000
0.001500 0.030000 0.000000
0.002000 0.030000 0.000000
0.002500 0.030000 0.000000
0.003000 0.030000 0.000000
0.003500 0.030000 0.000000
0.004000 0.030000 0.000000
0.004500 0.030000 0.000000
0.000500 0.028750 0.000000
0.001000 0.028750 0.000000
0.001500 0.028750 0.000000
0.002000 0.028750 0.000000
0.002500 0.028750 0.000000
0.003000 0.028750 0.000000
0.003500 0.028750 0.000000
0.004000 0.028750 0.000000
0.004500 0.028750 0.000000
0.000500 0.027500 0.000000
0.001000 0.027500 0.000000
0.001500 0.027500 0.000000
0.002000 0.027500 0.000000
0.002500 0.027500 0.000000
0.003000 0.027500 0.000000
0.003500 0.027500 0.000000
0.004000 0.027500 0.000000
0.004500 0.027500 0.000000
0.000500 0.026250 0.000000
0.001000 0.026250 0.000000
0.001500 0.026250 0.000000
0.002000 0.026250 0.000000
0.002500 0.026250 0.000000
0.003000 0.026250 0.000000
0.003500 0.026250 0.000000
0.004000 0.026250 0.000000
0.004500 0.026250 0.000000
0.000500 0.025000 0.000000
0.001000 0.025000 0.000000
0.001500 0.025000 0.000000
0.002000 0.025000 0.000000
0.002500 0.025000 0.000000
0.003000 0.025000 0.000000
0.003500 0.025000 0.000000
0.004000 0.025000 0.000000
0.004500 0.025000 0.000000
0.000500 0.023750 0.000000
0.001000 0.023750 0.000000
0.001500 0.023750 0.000000
0.002000 0.023750 0.000000
0.002500 0.023750 0.000000
0.003000 0.023750 0.000000
0.003500 0.023750 0.000000
0.004000 0.023750 0.000000
0.004500 0.023750 0.000000
0.000500 0.022500 0.000000
0.001000 0.022500 0.000000
0.001500 0.022500 0.000000
0.002000 0.022500 0.000000
0.002500 0.022500 0.000000
0.003000 0.022500 0.000000
0.003500 0.022500 0.000000
0.004000 0.022500 0.000000
0.004500 0.022500 0.000000
0.000500 0.021250 0.000000
0.001000 0.021250 0.000000
0.001500 0.021250 0.000000
0.002000 0.021250 0.000000
0.002500 0.021250 0.000000
0.003000 0.021250 0.000000
0.003500 0.021250 0.000000
0.004000 0.021250 0.000000
0.004500 0.021250 0.000000
0.000500 0.020000 0.000000
0.001000 0.020000 0.000000
0.001500 0.020000 0.000000
0.002000 0.020000 0.000000
0.002500 0.020000 0.000000
0.003000 0.020000 0.000000
0.003500 0.020000 0.000000
0.004000 0.020000 0.000000
0.004500 0.020000 0.000000
0.000500 0.018750 0.000000
0.001000 0.018750 0.000000
0.001500 0.018750 0.000000
0.002000 0.018750 0.000000
0.002500 0.018750 0.000000
0.003000 0.018750 0.000000
0.003500 0.018750 0.000000
0.004000 0.018750 0.000000
0.004500 0.018750 0.000000
0.000500 0.017500 0.000000
0.001000 0.017500 0.000000
0.001500 0.017500 0.000000
0.002000 0.017500 0.000000
0.002500 0.017500 0.000000
0.003000 0.017500 0.000000
0.003500 0.017500 0.000000
0.004000 0.017500 0.000000
0.004500 0.017500 0.000000
0.000500 0.016250 0.000000
0.001000 0.016250 0.000000
0.001500 0.016250 0.000000
0.002000 0.016250 0.000000
0.002500 0.016250 0.000000
0.003000 0.016250 0.000000
0.003500 0.016250 0.000000
0.004000 0.016250 0.000000
0.004500 0.016250 0.000000
0.000500 0.015000 0.000000
0.001000 0.015000 0.000000
0.001500 0.015000 0.000000
0.002000 0.015000 0.000000
0.002500 0.015000 0.000000
0.003000 0.015000 0.000000
0.003500 0.015000 0.000000
0.004000 0.015000 0.000000
0.004500 0.015000 0.000000
0.000500 0.013750 0.000000
0.001000 0.013750 0.000000
0.001500 0.013750 0.000000
0.002000 0.013750 0.000000
0.002500 0.013750 0.000000
0.003000 0.013750 0.000000
0.003500 0.013750 0.000000
0.004000 0.013750 0.000000
0.004500 0.013750 0.000000
0.000500 0.012500 0.000000
0.001000 0.012500 0.000000
0.001500 0.012500 0.000000
0.002000 0.012500 0.000000
0.002500 0.012500 0.000000
0.003000 0.012500 0.000000
0.003500 0.012500 0.000000
0.004000 0.012500 0.000000
0.004500 0.012500 0.000000
0.000500 0.011250 0.000000
0.001000 0.011250 0.000000
0.001500 0.011250 0.000000
0.002000 0.011250 0.000000
0.002500 0.011250 0.000000
0.003000 0.011250 0.000000
0.003500 0.011250 0.000000
0.004000 0.011250 0.000000
0.004500 0.011250 0.000000
0.000500 0.010000 0.000000
0.001000 0.010000 0.000000
0.001500 0.010000 0.000000
0.002000 0.010000 0.000000
0.002500 0.010000 0.000000
0.003000 0.010000 0.000000
0.003500 0.010000 0.000000
0.004000 0.010000 0.000000
0.004500 0.010000 0.000000
0.000500 0.008750 0.000000
0.001000 0.008750 0.000000
0.001500 0.008750 0.000000
0.002000 0.008750 0.000000
0.002500 0.008750 0.000000
0.003000 0.008750 0.000000
0.003500 0.008750 0.000000
0.004000 0.008750 0.000000
0.004500 0.008750 0.000000
0.000500 0.007500 0.000000
0.001000 0.007500 0.000000
0.001500 0.007500 0.000000
0.002000 0.007500 0.000000
0.002500 0.007500 0.000000
0.003000 0.007500 0.000000
0.003500 0.007500 0.000000
0.004000 0.007500 0.000000
0.004500 0.007500 0.000000
0.000500 0.006250 0.000000
0.001000 0.006250 0.000000
0.001500 0.006250 0.000000
0.002000 0.006250 0.000000
0.002500 0.006250 0.000000
0.003000 0.006250 0.000000
0.003500 0.006250 0.000000
0.004000 0.006250 0.000000
0.004500 0.006250 0.000000
0.000500 0.005000 0.000000
0.001000 0.005000 0.000000
0.001500 0.005000 0.000000
0.002000 0.005000 0.000000
0.002500 0.005000 0.000000
0.003000 0.005000 0.000000
0.003500 0.005000 0.000000
0.004000 0.005000 0.000000
0.004500 0.005000 0.000000
0.000500 0.003750 0.000000
0.001000 0.003750 0.000000
0.001500 0.003750 0.000000
0.002000 0.003750 0.000000
0.002500 0.003750 0.000000
0.003000 0.003750 0.000000
0.003500 0.003750 0.000000
0.004000 0.003750 0.000000
0.004500 0.003750 0.000000
0.000500 0.002500 0.000000
0.001000 0.002500 0.000000
0.001500 0.002500 0.000000
0.002000 0.002500 0.000000
0.002500 0.002500 0.000000
0.003000 0.002500 0.000000
0.003500 0.002500 0.000000
0.004000 0.002500 0.000000
0.004500 0.002500 0.000000
0.000500 0.001250 0.000000
0.001000 0.001250 0.000000
0.001500 0.001250 0.000000
0.002000 0.001250 0.000000
0.002500 0.001250 0.000000
0.003000 0.001250 0.000000
0.003500 0.001250 0.000000
0.004000 0.001250 0.000000
0.004500 0.001250 0.000000
CELLS 800 4000
4 82 83 180 179
4 179 180 181 178
4 178 181 182 177
4 177 182 183 176
4 176 183 184 175
4 175 184 185 174
4 174 185 186 173
4 173 186 187 172
4 172 187 188 171
4 171 188 80 0
4 83 84 189 180
4 180 189 190 181
4 181 190 191 182
4 182 191 192 183
4 183 192 193 184
4 184 193 194 185
4 185 194 195 186
4 186 195 196 187
4 187 196 197 188
4 188 197 79 80
4 84 85 198 189
4 189 198 199 190
4 190 199 200 191
4 191 200 201 192
4 192 201 202 193
4 193 202 203 194
4 194 203 204 195
4 195 204 205 196
4 196 205 206 197
4 197 206 78 79
4 85 86 207 198
4 198 207 208 199
4 199 208 209 200
4 200 209 210 201
4 201 210 211 202
4 202 211 212 203
4 203 212 213 204
4 204 213 214 205
4 205 214 215 206
4 206 215 77 78
4 86 87 216 207
4 207 216 217 208
4 208 217 218 209
4 209 218 219 210
4 210 219 220 211
4 211 220 221 212
4 212 221 222 213
4 213 222 223 214
4 214 223 224 215
4 215 224 76 77
4 87 88 225 216
4 216 225 226 217
4 217 226 227 218
4 218 227 228 219
4 219 228 229 220
4 220 229 230 221
4 221 230 231 222
4 222 231 232 223
4 223 232 233 224
4 224 233 75 76
4 88 89 234 225
4 225 234 235 226
4 226 235 236 227
4 227 236 237 228
4 228 237 238 229
4 229 238 239 230
4 230 239 240 231
4 231 240 241 232
4 232 241 242 233
4 233 242 74 75
4 89 90 243 234
4 234 243 244 235
4 235 244 245 236
4 236 245 246 237
4 237 246 247 238
4 238 247 248 239
4 239 248 249 240
4 240 249 250 241
4 241 250 251 242
4 242 251 73 74
4 90 91 252 243
4 243 252 253 244
4 244 253 254 245
4 245 254 255 246
4 246 255 256 247
4 247 256 257 248
4 248 257 258 249
4 249 258 259 250
4 250 259 260 251
4 251 260 72 73
4 91 92 261 252
4 252 261 262 253
4 253 262 263 254
4 254 263 264 255
4 255 264 265 256
4 256 265 266 257
4 257 266 267 258
4 258 267 268 259
4 259 268 269 260
4 260 269 71 72
4 92 93 270 261
4 261 270 271 262
4 262 271 272 263
4 263 272 273 264
4 264 273 274 265
4 265 274 275 266
4 266 275 276 267
4 267 276 277 268
4 268 277 278 269
4 269 278 70 71
4 93 94 279 270
4 270 279 280 271
4 271 280 281 272
4 272 281 282 273
4 273 282 283 274
4 274 283 284 275
4 275 284 285 276
4 276 285 286 277
4 277 286 287 278
4 278 287 69 70
4 94 95 288 279
4 279 288 289 280
4 280 289 290 281
4 281 290 291 282
4 282 291 292 283
4 283 292 293 284
4 284 293 294 285
4 285 294 295 286
4 286 295 296 287
4 287 296 68 69
4 95 96 297 288
4 288 297 298 289
4 289 298 299 290
4 290 299 300 291
4 291 300 301 292
4 292 301 302 293
4 293 302 303 294
4 294 303 304 295
4 295 304 305 296
4 296 305 67 68
4 96 97 306 297
4 297 306 307 298
4 298 307 308 299
4 299 308 309 300
4 300 309 310 301
4 301 310 311 302
4 302 311 312 303
4 303 312 313 304
4 304 313 314 305
4 305 314 66 67
4 97 98 315 306
4 306 315 316 307
4 307 316 317 308
4 308 317 318 309
4 309 318 319 310
4 310 319 320 311
4 311 320 321 312
4 312 321 322 313
4 313 322 323 314
4 314 323 65 66
4 98 99 324 315
4 315 324 325 316
4 316 325 326 317
4 317 326 327 318
4 318 327 328 319
4 319 328 329 320
4 320 329 330 321
4 321 330 331 322
4 322 331 332 323
4 323 332 64 65
4 99 100 333 324
4 324 333 334 325
4 325 334 335 326
4 326 335 336 327
4 327 336 337 328
4 328 337 338 329
4 329 338 339 330
4 330 339 340 331
4 331 340 341 332
4 332 341 63 64
4 100 101 342 333
4 333 342 343 334
4 334 343 344 335
4 335 344 345 336
4 336 345 346 337
4 337 346 347 338
4 338 347 348 339
4 339 348 349 340
4 340 349 350 341
4 341 350 62 63
4 101 102 351 342
4 342 351 352 343
4 343 352 353 344
4 344 353 354 345
4 345 354 355 346
4 346 355 356 347
4 347 356 357 348
4 348 357 358 349
4 349 358 359 350
4 350 359 61 62
4 102 103 360 351
4 351 360 361 352
4 352 361 362 353
4 353 362 363 354
4 354 363 364 355
4 355 364 365 356
4 356 365 366 357
4 357 366 367 358
4 358 367 368 359
4 359 368 60 61
4 103 104 369 360
4 360 369 370 361
4 361 370 371 362
4 362 371 372 363
4 363 372 373 364
4 364 373 374 365
4 365 374 375 366
4 366 375 376 367
4 367 376 377 368
4 368 377 59 60
4 104 105 378 369
4 369 378 379 370
4 370 379 380 371
4 371 380 381 372
4 372 381 382 373
4 373 382 383 374
4 374 383 384 375
4 375 384 385 376
4 376 385 386 377
4 377 386 58 59
4 105 106 387 378
4 378 387 388 379
4 379 388 389 380
4 380 389 390 381
4 381 390 391 382
4 382 391 392 383
4 383 392 393 384
4 384 393 394 385
4 385 394 395 386
4 386 395 57 58
4 106 107 396 387
4 387 396 397 388
4 388 397 398 389
4 389 398 399 390
4 390 399 400 391
4 391 400 401 392
4 392 401 402 393
4 393 402 403 394
4 394 403 404 395
4 395 404 56 57
4 107 108 405 396
4 396 405 406 397
4 397 406 407 398
4 398 407 408 399
4 399 408 409 400
4 400 409 410 401
4 401 410 411 402
4 402 411 412 403
4 403 412 413 404
4 404 413 55 56
4 108 109 414 405
4 405 414 415 406
4 406 415 416 407
4 407 416 417 408
4 408 417 418 409
4 409 418 419 410
4 410 419 420 411
4 411 420 421 412
4 412 421 422 413
4 413 422 54 55
4 109 110 423 414
4 414 423 424 415
4 415 424 425 416
4 416 425 426 417
4 417 426 427 418
4 418 427 428 419
4 419 428 429 420
4 420 429 430 421
4 421 430 431 422
4 422 431 53 54
4 110 111 432 423
4 423 432 433 424
4 424 433 434 425
4 425 434 435 426
4 426 435 436 427
4 427 436 437 428
4 428 437 438 429
4 429 438 439 430
4 430 439 440 431
4 431 440 52 53
4 111 112 441 432
4 432 441 442 433
4 433 442 443 434
4 434 443 444 435
4 435 444 445 436
4 436 445 446 437
4 437 446 447 438
4 438 447 448 439
4 439 448 449 440
4 440 449 51 52
4 112 113 450 441
4 441 450 451 442
4 442 451 452 443
4 443 452 453 444
4 444 453 454 445
4 445 454 455 446
4 446 455 456 447
4 447 456 457 448
4 448 457 458 449
4 449 458 50 51
4 113 114 459 450
4 450 459 460 451
4 451 460 461 452
4 452 461 462 453
4 453 462 463 454
4 454 463 464 455
4 455 464 465 456
4 456 465 466 457
4 457 466 467 458
4 458 467 49 50
4 114 115 468 459
4 459 468 469 460
4 460 469 470 461
4 461 470 471 462
4 462 471 472 463
4 463 472 473 464
4 464 473 474 465
4 465 474 475 466
4 466 475 476 467
4 467 476 48 49
4 115 116 477 468
4 468 477 478 469
4 469 478 479 470
4 470 479 480 471
4 471 480 481 472
4 472 481 482 473
4 473 482 483 474
4 474 483 484 475
4 475 484 485 476
4 476 485 47 48
4 116 117 486 477
4 477 486 487 478
4 478 487 488 479
4 479 488 489 480
4 480 489 490 481
4 481 490 491 482
4 482 491 492 483
4 483 492 493 484
4 484 493 494 485
4 485 494 46 47
4 117 118 495 486
4 486 495 496 487
4 487 496 497 488
4 488 497 498 489
4 489 498 499 490
4 490 499 500 491
4 491 500 501 492
4 492 501 502 493
4 493 502 503 494
4 494 503 45 46
4 118 119 504 495
4 495 504 505 496
4 496 505 506 497
4 497 506 507 498
4 498 507 508 499
4 499 508 509 500
4 500 509 510 501
4 501 510 511 502
4 502 511 512 503
4 503 512 44 45
4 119 120 513 504
4 504 513 514 505
4 505 514 515 506
4 506 515 516 507
4 507 516 517 508
4 508 517 518 509
4 509 518 519 510
4 510 519 520 511
4 511 520 521 512
4 512 521 43 44
4 120 121 522 513
4 513 522 523 514
4 514 523 524 515
4 515 524 525 516
4 516 525 526 517
4 517 526 527 518
4 518 527 528 519
4 519 528 529 520
4 520 529 530 521
4 521 530 42 43
4 121 122 531 522
4 522 531 532 523
4 523 532 533 524
4 524 533 534 525
4 525 534 535 526
4 526 535 536 527
4 527 536 537 528
4 528 537 538 529
4 529 538 539 530
4 530 539 41 42
4 122 123 540 531
4 531 540 541 532
4 532 541 542 533
4 533 542 543 534
4 534 543 544 535
4 535 544 545 536
4 536 545 546 537
4 537 546 547 538
4 538 547 548 539
4 539 548 40 41
4 123 124 549 540
4 540 549 550 541
4 541 550 551 542
4 542 551 552 543
4 543 552 553 544
4 544 553 554 545
4 545 554 555 546
4 546 555 556 547
4 547 556 557 548
4 548 557 39 40
4 124 125 558 549
4 549 558 559 550
4 550 559 560 551
4 551 560 561 552
4 552 561 562 553
4 553 562 563 554
4 554 563 564 555
4 555 564 565 556
4 556 565 566 557
4 557 566 38 39
4 125 126 567 558
4 558 567 568 559
4 559 568 569 560
4 560 569 570 561
4 561 570 571 562
4 562 571 572 563
4 563 572 573 564
4 564 573 574 565
4 565 574 575 566
4 566 575 37 38
4 126 127 576 567
4 567 576 577 568
4 568 577 578 569
4 569 578 579 570
4 570 579 580 571
4 571 580 581 572
4 572 581 582 573
4 573 582 583 574
4 574 583 584 575
4 575 584 36 37
4 127 128 585 576
4 576 585 586 577
4 577 586 587 578
4 578 587 588 579
4 579 588 589 580
4 580 589 590 581
4 581 590 591 582
4 582 591 592 583
4 583 592 593 584
4 584 593 35 36
4 128 129 594 585
4 585 594 595 586
4 586 595 596 587
4 587 596 597 588
4 588 597 598 589
4 589 598 599 590
4 590 599 600 591
4 591 600 601 592
4 592 601 602 593
4 593 602 34 35
4 129 130 603 594
4 594 603 604 595
4 595 604 605 596
4 596 605 606 597
4 597 606 607 598
4 598 607 608 599
4 599 608 609 600
4 600 609 610 601
4 601 610 611 602
4 602 611 33 34
4 130 131 612 603
4 603 612 613 604
4 604 613 614 605
4 605 614 615 606
4 606 615 616 607
4 607 616 617 608
4 608 617 618 609
4 609 618 619 610
4 610 619 620 611
4 611 620 32 33
4 131 132 621 612
4 612 621 622 613
4 613 622 623 614
4 614 623 624 615
4 615 624 625 616
4 616 625 626 617
4 617 626 627 618
4 618 627 628 619
4 619 628 629 620
4 620 629 31 32
4 132 133 630 621
4 621 630 631 622
4 622 631 632 623
4 623 632 633 624
4 624 633 634 625
4 625 634 635 626
4 626 635 636 627
4 627 636 637 628
4 628 637 638 629
4 629 638 30 31
4 133 134 639 630
4 630 639 640 631
4 631 640 641 632
4 632 641 642 633
4 633 642 643 634
4 634 643 644 635
4 635 644 645 636
4 636 645 646 637
4 637 646 647 638
4 638 647 29 30
4 134 135 648 639
4 639 648 649 640
4 640 649 650 641
4 641 650 651 642
4 642 651 652 643
4 643 652 653 644
4 644 653 654 645
4 645 654 655 646
4 646 655 656 647
4 647 656 28 29
4 135 136 657 648
4 648 657 658 649
4 649 658 659 650
4 650 659 660 651
4 651 660 661 652
4 652 661 662 653
4 653 662 663 654
4 654 663 664 655
4 655 664 665 656
4 656 665 27 28
4 136 137 666 657
4 657 666 667 658
4 658 667 668 659
4 659 668 669 660
4 660 669 670 661
4 661 670 671 662
4 662 671 672 663
4 663 672 673 664
4 664 673 674 665
4 665 674 26 27
4 137 138 675 666
4 666 675 676 667
4 667 676 677 668
4 668 677 678 669
4 669 678 679 670
4 670 679 680 671
4 671 680 681 672
4 672 681 682 673
4 673 682 683 674
4 674 683 25 26
4 138 139 684 675
4 675 684 685 676
4 676 685 686 677
4 677 686 687 678
4 678 687 688 679
4 679 688 689 680
4 680 689 690 681
4 681 690 691 682
4 682 691 692 683
4 683 692 24 25
4 139 140 693 684
4 684 693 694 685
4 685 694 695 686
4 686 695 696 687
4 687 696 697 688
4 688 697 698 689
4 689 698 699 690
4 690 699 700 691
4 691 700 701 692
4 692 701 23 24
4 140 141 702 693
4 693 702 703 694
4 694 703 704 695
4 695 704 705 696
4 696 705 706 697
4 697 706 707 698
4 698 707 708 699
4 699 708 709 700
4 700 709 710 701
4 701 710 22 23
4 141 142 711 702
4 702 711 712 703
4 703 712 713 704
4 704 713 714 705
4 705 714 715 706
4 706 715 716 707
4 707 716 717 708
4 708 717 718 709
4 709 718 719 710
4 710 719 21 22
4 142 143 720 711
4 711 720 721 712
4 712 721 722 713
4 713 722 723 714
4 714 723 724 715
4 715 724 725 716
4 716 725 726 717
4 717 726 727 718
4 718 727 728 719
4 719 728 20 21
4 143 144 729 720
4 720 729 730 721
4 721 730 731 722
4 722 731 732 723
4 723 732 733 724
4 724 733 734 725
4 725 734 735 726
4 726 735 736 727
4 727 736 737 728
4 728 737 19 20
4 144 145 738 729
4 729 738 739 730
4 730 739 740 731
4 731 740 741 732
4 732 741 742 733
4 733 742 743 734
4 734 743 744 735
4 735 744 745 736
4 736 745 746 737
4 737 746 18 19
4 145 146 747 738
4 738 747 748 739
4 739 748 749 740
4 740 749 750 741
4 741 750 751 742
4 742 751 752 743
4 743 752 753 744
4 744 753 754 745
4 745 754 755 746
4 746 755 17 18
4 146 147 756 747
4 747 756 757 748
4 748 757 758 749
4 749 758 759 750
4 750 759 760 751
4 751 760 761 752
4 752 761 762 753
4 753 762 763 754
4 754 763 764 755
4 755 764 16 17
4 147 148 765 756
4 756 765 766 757
4 757 766 767 758
4 758 767 768 759
4 759 768 769 760
4 760 769 770 761
4 761 770 771 762
4 762 771 772 763
4 763 772 773 764
4 764 773 15 16
4 148 149 774 765
4 765 774 775 766
4 766 775 776 767
4 767 776 777 768
4 768 777 778 769
4 769 778 779 770
4 770 779 780 771
4 771 780 781 772
4 772 781 782 773
4 773 782 14 15
4 149 150 783 774
4 774 783 784 775
4 775 784 785 776
4 776 785 786 777
4 777 786 787 778
4 778 787 788 779
4 779 788 789 780
4 780 789 790 781
4 781 790 791 782
4 782 791 13 14
4 150 151 792 783
4 783 792 793 784
4 784 793 794 785
4 785 794 795 786
4 786 795 796 787
4 787 796 797 788
4 788 797 798 789
4 789 798 799 790
4 790 799 800 791
4 791 800 12 13
4 151 152 801 792
4 792 801 802 793
4 793 802 803 794
4 794 803 804 795
4 795 804 805 796
4 796 805 806 797
4 797 806 807 798
4 798 807 808 799
4 799 808 809 800
4 800 809 11 12
4 152 153 810 801
4 801 810 811 802
4 802 811 812 803
4 803 812 813 804
4 804 813 814 805
4 805 814 815 806
4 806 815 816 807
4 807 816 817 808
4 808 817 818 809
4 809 818 10 11
4 153 154 819 810
4 810 819 820 811
4 811 820 821 812
4 812 821 822 813
4 813 822 823 814
4 814 823 824 815
4 815 824 825 816
4 816 825 826 817
4 817 826 827 818
4 818 827 9 10
4 154 155 828 819
4 819 828 829 820
4 820 829 830 821
4 821 830 831 822
4 822 831 832 823
4 823 832 833 824
4 824 833 834 825
4 825 834 835 826
4 826 835 836 827
4 827 836 8 9
4 155 156 837 828
4 828 837 838 829
4 829 838 839 830
4 830 839 840 831
4 831 840 841 832
4 832 841 842 833
4 833 842 843 834
4 834 843 844 835
4 835 844 845 836
4 836 845 7 8
4 156 157 846 837
4 837 846 847 838
4 838 847 848 839
4 839 848 849 840
4 840 849 850 841
4 841 850 851 842
4 842 851 852 843
4 843 852 853 844
4 844 853 854 845
4 845 854 6 7
4 157 158 855 846
4 846 855 856 847
4 847 856 857 848
4 848 857 858 849
4 849 858 859 850
4 850 859 860 851
4 851 860 861 852
4 852 861 862 853
4 853 862 863 854
4 854 863 5 6
4 158 159 864 855
4 855 864 865 856
4 856 865 866 857
4 857 866 867 858
4 858 867 868 859
4 859 868 869 860
4 860 869 870 861
4 861 870 871 862
4 862 871 872 863
4 863 872 4 5
4 159 160 873 864
4 864 873 874 865
4 865 874 875 866
4 866 875 876 867
4 867 876 877 868
4 868 877 878 869
4 869 878 879 870
4 870 879 880 871
4 871 880 881 872
4 872 881 3 4
4 160 161 882 873
4 873 882 883 874
4 874 883 884 875
4 875 884 885 876
4 876 885 886 877
4 877 886 887 878
4 878 887 888 879
4 879 888 889 880
4 880 889 890 881
4 881 890 2 3
4 161 81 162 882
4 882 162 163 883
4 883 163 164 884
4 884 164 165 885
4 885 165 166 886
4 886 166 167 887
4 887 167 168 888
4 888 168 169 889
4 889 169 170 890
4 890 170 1 2
CELL_TYPES 800
9
9
9
9
9
9
9
9
9
9
9
9
9
9
9
9
9
9
9
9
9
9
9
9
9
9
9
9
9
9
9
9
9
9
9
9
9
9
9
9
9
9
9
9
9
9
9
9
9
9
9
9
9
9
9
9
9
9
9
9
9
9
9
9
9
9
9
9
9
9
9
9
9
9
9
9
9
9
9
9
9
9
9
9
9
9
9
9
9
9
9
9
9
9
9
9
9
9
9
9
9
9
9
9
9
9
9
9
9
9
9
9
9
9
9
9
9
9
9
9
9
9
9
9
9
9
9
9
9
9
9
9
9
9
9
9
9
9
9
9
9
9
9
9
9
9
9
9
9
9
9
9
9
9
9
9
9
9
9
9
9
9
9
9
9
9
9
9
9
9
9
9
9
9
9
9
9
9
9
9
9
9
9
9
9
9
9
9
9
9
9
9
9
9
9
9
9
9
9
9
9
9
9
9
9
9
9
9
9
9
9
9
9
9
9
9
9
9
9
9
9
9
9
9
9
9
9
9
9
9
9
9
9
9
9
9
9
9
9
9
9
9
9
9
9
9
9
9
9
9
9
9
9
9
9
9
9
9
9
9
9
9
9
9
9
9
9
9
9
9
9
9
9
9
9
9
9
9
9
9
9
9
9
9
9
9
9
9
9
9
9
9
9
9
9
9
9
9
9
9
9
9
9
9
9
9
9
9
9
9
9
9
9
9
9
9
9
9
9
9
9
9
9
9
9
9
9
9
9
9
9
9
9
9
9
9
9
9
9
9
9
9
9
9
9
9
9
9
9
9
9
9
9
9
9
9
9
9
9
9
9
9
9
9
9
9
9
9
9
9
9
9
9
9
9
9
9
9
9
9
9
9
9
9
9
9
9
9
9
9
9
9
9
9
9
9
9
9
9
9
9
9
9
9
9
9
9
9
9
9
9
9
9
9
9
9
9
9
9
9
9
9
9
9
9
9
9
9
9
9
9
9
9
9
9
9
9
9
9
9
9
9
9
9
9
9
9
9
9
9
9
9
9
9
9
9
9
9
9
9
9
9
9
9
9
9
9
9
9
9
9
9
9
9
9
9
9
9
9
9
9
9
9
9
9
9
9
9
9
9
9
9
9
9
9
9
9
9
9
9
9
9
9
9
9
9
9
9
9
9
9
9
9
9
9
9
9
9
9
9
9
9
9
9
9
9
9
9
9
9
9
9
9
9
9
9
9
9
9
9
9
9
9
9
9
9
9
9
9
9
9
9
9
9
9
9
9
9
9
9
9
9
9
9
9
9
9
9
9
9
9
9
9
9
9
9
9
9
9
9
9
9
9
9
9
9
9
9
9
9
9
9
9
9
9
9
9
9
9
9
9
9
9
9
9
9
9
9
9
9
9
9
9
9
9
9
9
9
9
9
9
9
9
9
9
9
9
9
9
9
9
9
9
9
9
9
9
9
9
9
9
9
9
9
9
9
9
9
9
9
9
9
9
9
9
9
9
9
9
9
9
9
9
9
9
9
9
9
9
9
9
9
9
9
9
9
9
9
9
9
9
9
9
9
9
9
9
9
9
9
9
9
9
9
9
9
9
9
9
9
9
9
9
9
9
9
9
9
9
9
9
9
9
9
9
9
9
9
9
9
9
9
9
9
9
9
9
9
9
9
9
9
9
9
9
9
9
9
9
9
9
9
9
9
9
9
9
9
9
9
9
9
9
9
9
9
9
9
9
9
9
9
9
9
9
9
9
9
9
9
9
9
9
9
9
9
9
9
9
9
9
9
9
9
9
9
9
9
9
9
9
9
9
9
9
9
9
9
9
9
POINT_DATA 891
SCALARS u1 float
LOOKUP_TABLE default
-3e-17
-5e-07
-5e-07
-5e-07
-5e-07
-5e-07
-5e-07
-5e-07
-5e-07
-5e-07
-5e-07
-5e-07
-5e-07
-5e-07
-5e-07
-5e-07
-5e-07
-5e-07
-5e-07
-5e-07
-5e-07
-5e-07
-5e-07
-5e-07
-5e-07
-5e-07
-5e-07
-5e-07
-5e-07
-5e-07
-5e-07
-5e-07
-5e-07
-5e-07
-5e-07
-5e-07
-5e-07
-5e-07
-5e-07
-5e-07
-5e-07
-5e-07
-5e-07
-5e-07
-5e-07
-5e-07
-5e-07
-5e-07
-5e-07
-5e-07
-5e-07
-5e-07
-5e-07
-5e-07
-5e-07
-5e-07
-5e-07
-5e-07
-5e-07
-5e-07
-5e-07
-5e-07
-5e-07
-5e-07
-5e-07
-5e-07
-5e-07
-5e-07
-5e-07
-5e-07
-5e-07
-5e-07
-5e-07
-5e-07
-5e-07
-5e-07
-5e-07
-5e-07
-5e-07
-5e-07
-4e-07
5e-07
-2e-17
4e-07
5e-07
5e-07
5e-07
5e-07
5e-07
5e-07
5e-07
5e-07
5e-07
5e-07
5e-07
5e-07
5e-07
5e-07
5e-07
5e-07
5e-07
5e-07
5e-07
5e-07
5e-07
5e-07
5e-07
5e-07
5e-07
5e-07
5e-07
5e-07
5e-07
5e-07
5e-07
5e-07
5e-07
5e-07
5e-07
5e-07
5e-07
5e-07
5e-07
5e-07
5e-07
5e-07
5e-07
5e-07
5e-07
5e-07
5e-07
5e-07
5e-07
5e-07
5e-07
5e-07
5e-07
5e-07
5e-07
5e-07
5e-07
5e-07
5e-07
5e-07
5e-07
5e-07
5e-07
5e-07
5e-07
5e-07
5e-07
5e-07
5e-07
5e-07
5e-07
5e-07
5e-07
5e-07
5e-07
5e-07
5e-07
5e-07
4e-07
3e-07
2e-07
1e-07
-2e-15
-1e-07
-2e-07
-3e-07
-4e-07
-2e-17
1e-17
3e-17
-7e-17
-6e-17
-1e-17
-1e-18
2e-18
-2e-17
3e-07
2e-07
1e-07
7e-08
6e-15
-7e-08
-1e-07
-2e-07
-3e-07
4e-07
3e-07
2e-07
1e-07
8e-15
-1e-07
-2e-07
-3e-07
-4e-07
4e-07
3e-07
2e-07
1e-07
1e-14
-1e-07
-2e-07
-3e-07
-4e-07
4e-07
3e-07
2e-07
1e-07
1e-14
-1e-07
-2e-07
-3e-07
-4e-07
4e-07
3e-07
2e-07
1e-07
9e-15
-1e-07
-2e-07
-3e-07
-4e-07
4e-07
3e-07
2e-07
1e-07
8e-15
-1e-07
-2e-07
-3e-07
-4e-07
4e-07
3e-07
2e-07
1e-07
7e-15
-1e-07
-2e-07
-3e-07
-4e-07
4e-07
3e-07
2e-07
1e-07
6e-15
-1e-07
-2e-07
-3e-07
-4e-07
4e-07
3e-07
2e-07
1e-07
5e-15
-1e-07
-2e-07
-3e-07
-4e-07
4e-07
3e-07
2e-07
1e-07
4e-15
-1e-07
-2e-07
-3e-07
-4e-07
4e-07
3e-07
2e-07
1e-07
3e-15
-1e-07
-2e-07
-3e-07
-4e-07
4e-07
3e-07
2e-07
1e-07
3e-15
-1e-07
-2e-07
-3e-07
-4e-07
4e-07
3e-07
2e-07
1e-07
2e-15
-1e-07
-2e-07
-3e-07
-4e-07
4e-07
3e-07
2e-07
1e-07
1e-15
-1e-07
-2e-07
-3e-07
-4e-07
4e-07
3e-07
2e-07
1e-07
7e-16
-1e-07
-2e-07
-3e-07
-4e-07
4e-07
3e-07
2e-07
1e-07
2e-16
-1e-07
-2e-07
-3e-07
-4e-07
4e-07
3e-07
2e-07
1e-07
-3e-16
-1e-07
-2e-07
-3e-07
-4e-07
4e-07
3e-07
2e-07
1e-07
-6e-16
-1e-07
-2e-07
-3e-07
-4e-07
4e-07
3e-07
2e-07
1e-07
-1e-15
-1e-07
-2e-07
-3e-07
-4e-07
4e-07
3e-07
2e-07
1e-07
-1e-15
-1e-07
-2e-07
-3e-07
-4e-07
4e-07
3e-07
2e-07
1e-07
-1e-15
-1e-07
-2e-07
-3e-07
-4e-07
4e-07
3e-07
2e-07
1e-07
-2e-15
-1e-07
-2e-07
-3e-07
-4e-07
4e-07
3e-07
2e-07
1e-07
-2e-15
-1e-07
-2e-07
-3e-07
-4e-07
4e-07
3e-07
2e-07
1e-07
-2e-15
-1e-07
-2e-07
-3e-07
-4e-07
4e-07
3e-07
2e-07
1e-07
-2e-15
-1e-07
-2e-07
-3e-07
-4e-07
4e-07
3e-07
2e-07
1e-07
-2e-15
-1e-07
-2e-07
-3e-07
-4e-07
4e-07
3e-07
2e-07
1e-07
-2e-15
-1e-07
-2e-07
-3e-07
-4e-07
4e-07
3e-07
2e-07
1e-07
-2e-15
-1e-07
-2e-07
-3e-07
-4e-07
4e-07
3e-07
2e-07
1e-07
-2e-15
-1e-07
-2e-07
-3e-07
-4e-07
4e-07
3e-07
2e-07
1e-07
-2e-15
-1e-07
-2e-07
-3e-07
-4e-07
4e-07
3e-07
2e-07
1e-07
-2e-15
-1e-07
-2e-07
-3e-07
-4e-07
4e-07
3e-07
2e-07
1e-07
-2e-15
-1e-07
-2e-07
-3e-07
-4e-07
4e-07
3e-07
2e-07
1e-07
-2e-15
-1e-07
-2e-07
-3e-07
-4e-07
4e-07
3e-07
2e-07
1e-07
-2e-15
-1e-07
-2e-07
-3e-07
-4e-07
4e-07
3e-07
2e-07
1e-07
-2e-15
-1e-07
-2e-07
-3e-07
-4e-07
4e-07
3e-07
2e-07
1e-07
-2e-15
-1e-07
-2e-07
-3e-07
-4e-07
4e-07
3e-07
2e-07
1e-07
-2e-15
-1e-07
-2e-07
-3e-07
-4e-07
4e-07
3e-07
2e-07
1e-07
-2e-15
-1e-07
-2e-07
-3e-07
-4e-07
4e-07
3e-07
2e-07
1e-07
-2e-15
-1e-07
-2e-07
-3e-07
-4e-07
4e-07
3e-07
2e-07
1e-07
-2e-15
-1e-07
-2e-07
-3e-07
-4e-07
4e-07
3e-07
2e-07
1e-07
-2e-15
-1e-07
-2e-07
-3e-07
-4e-07
4e-07
3e-07
2e-07
1e-07
-2e-15
-1e-07
-2e-07
-3e-07
-4e-07
4e-07
3e-07
2e-07
1e-07
-2e-15
-1e-07
-2e-07
-3e-07
-4e-07
4e-07
3e-07
2e-07
1e-07
-2e-15
-1e-07
-2e-07
-3e-07
-4e-07
4e-07
3e-07
2e-07
1e-07
-2e-15
-1e-07
-2e-07
-3e-07
-4e-07
4e-07
3e-07
2e-07
1e-07
-2e-15
-1e-07
-2e-07
-3e-07
-4e-07
4e-07
3e-07
2e-07
1e-07
-2e-15
-1e-07
-2e-07
-3e-07
-4e-07
4e-07
3e-07
2e-07
1e-07
-2e-15
-1e-07
-2e-07
-3e-07
-4e-07
4e-07
3e-07
2e-07
1e-07
-2e-15
-1e-07
-2e-07
-3e-07
-4e-07
4e-07
3e-07
2e-07
1e-07
-2e-15
-1e-07
-2e-07
-3e-07
-4e-07
4e-07
3e-07
2e-07
1e-07
-2e-15
-1e-07
-2e-07
-3e-07
-4e-07
4e-07
3e-07
2e-07
1e-07
-2e-15
-1e-07
-2e-07
-3e-07
-4e-07
4e-07
3e-07
2e-07
1e-07
-2e-15
-1e-07
-2e-07
-3e-07
-4e-07
4e-07
3e-07
2e-07
1e-07
-2e-15
-1e-07
-2e-07
-3e-07
-4e-07
4e-07
3e-07
2e-07
1e-07
-2e-15
-1e-07
-2e-07
-3e-07
-4e-07
4e-07
3e-07
2e-07
1e-07
-2e-15
-1e-07
-2e-07
-3e-07
-4e-07
4e-07
3e-07
2e-07
1e-07
-2e-15
-1e-07
-2e-07
-3e-07
-4e-07
4e-07
3e-07
2e-07
1e-07
-2e-15
-1e-07
-2e-07
-3e-07
-4e-07
4e-07
3e-07
2e-07
1e-07
-2e-15
-1e-07
-2e-07
-3e-07
-4e-07
4e-07
3e-07
2e-07
1e-07
-2e-15
-1e-07
-2e-07
-3e-07
-4e-07
4e-07
3e-07
2e-07
1e-07
-2e-15
-1e-07
-2e-07
-3e-07
-4e-07
4e-07
3e-07
2e-07
1e-07
-2e-15
-1e-07
-2e-07
-3e-07
-4e-07
4e-07
3e-07
2e-07
1e-07
-2e-15
-1e-07
-2e-07
-3e-07
-4e-07
4e-07
3e-07
2e-07
1e-07
-2e-15
-1e-07
-2e-07
-3e-07
-4e-07
4e-07
3e-07
2e-07
1e-07
-2e-15
-1e-07
-2e-07
-3e-07
-4e-07
4e-07
3e-07
2e-07
1e-07
-2e-15
-1e-07
-2e-07
-3e-07
-4e-07
4e-07
3e-07
2e-07
1e-07
-2e-15
-1e-07
-2e-07
-3e-07
-4e-07
4e-07
3e-07
2e-07
1e-07
-2e-15
-1e-07
-2e-07
-3e-07
-4e-07
4e-07
3e-07
2e-07
1e-07
-2e-15
-1e-07
-2e-07
-3e-07
-4e-07
4e-07
3e-07
2e-07
1e-07
-2e-15
-1e-07
-2e-07
-3e-07
-4e-07
4e-07
3e-07
2e-07
1e-07
-2e-15
-1e-07
-2e-07
-3e-07
-4e-07
4e-07
3e-07
2e-07
1e-07
-2e-15
-1e-07
-2e-07
-3e-07
-4e-07
4e-07
3e-07
2e-07
1e-07
-2e-15
-1e-07
-2e-07
-3e-07
-4e-07
4e-07
3e-07
2e-07
1e-07
-2e-15
-1e-07
-2e-07
-3e-07
-4e-07
4e-07
3e-07
2e-07
1e-07
-2e-15
-1e-07
-2e-07
-3e-07
-4e-07
4e-07
3e-07
2e-07
1e-07
-2e-15
-1e-07
-2e-07
-3e-07
-4e-07
4e-07
3e-07
2e-07
1e-07
-2e-15
-1e-07
-2e-07
-3e-07
-4e-07
4e-07
3e-07
2e-07
1e-07
-2e-15
-1e-07
-2e-07
-3e-07
-4e-07
4e-07
3e-07
2e-07
1e-07
-2e-15
-1e-07
-2e-07
-3e-07
-4e-07
SCALARS u2 float
LOOKUP_TABLE default
5e-17
-0.0002
-0.0002
-0.0001
-0.0001
-0.0001
-0.0001
-0.0001
-0.0001
-0.0001
-0.0001
-0.0001
-0.0001
-0.0001
-0.0001
-0.0001
-0.0001
-0.0001
-0.0001
-0.0001
-0.0001
-0.0001
-0.0001
-0.0001
-0.0001
-0.0001
-0.0001
-0.0001
-0.0001
-0.0001
-0.0001
-0.0001
-9e-05
-9e-05
-9e-05
-9e-05
-9e-05
-8e-05
-8e-05
-8e-05
-8e-05
-8e-05
-7e-05
-7e-05
-7e-05
-7e-05
-7e-05
-7e-05
-6e-05
-6e-05
-6e-05
-6e-05
-6e-05
-5e-05
-5e-05
-5e-05
-5e-05
-5e-05
-4e-05
-4e-05
-4e-05
-4e-05
-4e-05
-3e-05
-3e-05
-3e-05
-3e-05
-3e-05
-2e-05
-2e-05
-2e-05
-2e-05
-2e-05
-2e-05
-1e-05
-1e-05
-1e-05
-8e-06
-6e-06
-4e-06
-2e-06
-0.0002
-1e-16
-2e-06
-4e-06
-6e-06
-8e-06
-1e-05
-1e-05
-1e-05
-2e-05
-2e-05
-2e-05
-2e-05
-2e-05
-2e-05
-3e-05
-3e-05
-3e-05
-3e-05
-3e-05
-4e-05
-4e-05
-4e-05
-4e-05
-4e-05
-5e-05
-5e-05
-5e-05
-5e-05
-5e-05
-6e-05
-6e-05
-6e-05
-6e-05
-6e-05
-7e-05
-7e-05
-7e-05
-7e-05
-7e-05
-7e-05
-8e-05
-8e-05
-8e-05
-8e-05
-8e-05
-9e-05
-9e-05
-9e-05
-9e-05
-9e-05
-0.0001
-0.0001
-0.0001
-0.0001
-0.0001
-0.0001
-0.0001
-0.0001
-0.0001
-0.0001
-0.0001
-0.0001
-0.0001
-0.0001
-0.0001
-0.0001
-0.0001
-0.0001
-0.0001
-0.0001
-0.0001
-0.0001
-0.0001
-0.0001
-0.0001
-0.0001
-0.0001
-0.0001
-0.0001
-0.0002
-0.0002
-0.0002
-0.0002
-0.0002
-0.0002
-0.0002
-0.0002
-0.0002
-0.0002
8e-17
5e-17
-1e-16
-8e-17
3e-17
7e-17
2e-16
5e-17
-6e-17
-2e-06
-2e-06
-2e-06
-2e-06
-2e-06
-2e-06
-2e-06
-2e-06
-2e-06
-4e-06
-4e-06
-4e-06
-4e-06
-4e-06
-4e-06
-4e-06
-4e-06
-4e-06
-6e-06
-6e-06
-6e-06
-6e-06
-6e-06
-6e-06
-6e-06
-6e-06
-6e-06
-8e-06
-8e-06
-8e-06
-8e-06
-8e-06
-8e-06
-8e-06
-8e-06
-8e-06
-1e-05
-1e-05
-1e-05
-1e-05
-1e-05
-1e-05
-1e-05
-1e-05
-1e-05
-1e-05
-1e-05
-1e-05
-1e-05
-1e-05
-1e-05
-1e-05
-1e-05
-1e-05
-1e-05
-1e-05
-1e-05
-1e-05
-1e-05
-1e-05
-1e-05
-1e-05
-1e-05
-2e-05
-2e-05
-2e-05
-2e-05
-2e-05
-2e-05
-2e-05
-2e-05
-2e-05
-2e-05
-2e-05
-2e-05
-2e-05
-2e-05
-2e-05
-2e-05
-2e-05
-2e-05
-2e-05
-2e-05
-2e-05
-2e-05
-2e-05
-2e-05
-2e-05
-2e-05
-2e-05
-2e-05
-2e-05
-2e-05
-2e-05
-2e-05
-2e-05
-2e-05
-2e-05
-2e-05
-2e-05
-2e-05
-2e-05
-2e-05
-2e-05
-2e-05
-2e-05
-2e-05
-2e-05
-2e-05
-2e-05
-2e-05
-2e-05
-2e-05
-2e-05
-2e-05
-2e-05
-2e-05
-3e-05
-3e-05
-3e-05
-3e-05
-3e-05
-3e-05
-3e-05
-3e-05
-3e-05
-3e-05
-3e-05
-3e-05
-3e-05
-3e-05
-3e-05
-3e-05
-3e-05
-3e-05
-3e-05
-3e-05
-3e-05
-3e-05
-3e-05
-3e-05
-3e-05
-3e-05
-3e-05
-3e-05
-3e-05
-3e-05
-3e-05
-3e-05
-3e-05
-3e-05
-3e-05
-3e-05
-3e-05
-3e-05
-3e-05
-3e-05
-3e-05
-3e-05
-3e-05
-3e-05
-3e-05
-4e-05
-4e-05
-4e-05
-4e-05
-4e-05
-4e-05
-4e-05
-4e-05
-4e-05
-4e-05
-4e-05
-4e-05
-4e-05
-4e-05
-4e-05
-4e-05
-4e-05
-4e-05
-4e-05
-4e-05
-4e-05
-4e-05
-4e-05
-4e-05
-4e-05
-4e-05
-4e-05
-4e-05
-4e-05
-4e-05
-4e-05
-4e-05
-4e-05
-4e-05
-4e-05
-4e-05
-4e-05
-4e-05
-4e-05
-4e-05
-4e-05
-4e-05
-4e-05
-4e-05
-4e-05
-5e-05
-5e-05
-5e-05
-5e-05
-5e-05
-5e-05
-5e-05
-5e-05
-5e-05
-5e-05
-5e-05
-5e-05
-5e-05
-5e-05
-5e-05
-5e-05
-5e-05
-5e-05
-5e-05
-5e-05
-5e-05
-5e-05
-5e-05
-5e-05
-5e-05
-5e-05
-5e-05
-5e-05
-5e-05
-5e-05
-5e-05
-5e-05
-5e-05
-5e-05
-5e-05
-5e-05
-5e-05
-5e-05
-5e-05
-5e-05
-5e-05
-5e-05
-5e-05
-5e-05
-5e-05
-6e-05
-6e-05
-6e-05
-6e-05
-6e-05
-6e-05
-6e-05
-6e-05
-6e-05
-6e-05
-6e-05
-6e-05
-6e-05
-6e-05
-6e-05
-6e-05
-6e-05
-6e-05
-6e-05
-6e-05
-6e-05
-6e-05
-6e-05
-6e-05
-6e-05
-6e-05
-6e-05
-6e-05
-6e-05
-6e-05
-6e-05
-6e-05
-6e-05
-6e-05
-6e-05
-6e-05
-6e-05
-6e-05
-6e-05
-6e-05
-6e-05
-6e-05
-6e-05
-6e-05
-6e-05
-7e-05
-7e-05
-7e-05
-7e-05
-7e-05
-7e-05
-7e-05
-7e-05
-7e-05
-7e-05
-7e-05
-7e-05
-7e-05
-7e-05
-7e-05
-7e-05
-7e-05
-7e-05
-7e-05
-7e-05
-7e-05
-7e-05
-7e-05
-7e-05
-7e-05
-7e-05
-7e-05
-7e-05
-7e-05
-7e-05
-7e-05
-7e-05
-7e-05
-7e-05
-7e-05
-7e-05
-7e-05
-7e-05
-7e-05
-7e-05
-7e-05
-7e-05
-7e-05
-7e-05
-7e-05
-7e-05
-7e-05
-7e-05
-7e-05
-7e-05
-7e-05
-7e-05
-7e-05
-7e-05
-8e-05
-8e-05
-8e-05
-8e-05
-8e-05
-8e-05
-8e-05
-8e-05
-8e-05
-8e-05
-8e-05
-8e-05
-8e-05
-8e-05
-8e-05
-8e-05
-8e-05
-8e-05
-8e-05
-8e-05
-8e-05
-8e-05
-8e-05
-8e-05
-8e-05
-8e-05
-8e-05
-8e-05
-8e-05
-8e-05
-8e-05
-8e-05
-8e-05
-8e-05
-8e-05
-8e-05
-8e-05
-8e-05
-8e-05
-8e-05
-8e-05
-8e-05
-8e-05
-8e-05
-8e-05
-9e-05
-9e-05
-9e-05
-9e-05
-9e-05
-9e-05
-9e-05
-9e-05
-9e-05
-9e-05
-9e-05
-9e-05
-9e-05
-9e-05
-9e-05
-9e-05
-9e-05
-9e-05
-9e-05
-9e-05
-9e-05
-9e-05
-9e-05
-9e-05
-9e-05
-9e-05
-9e-05
-9e-05
-9e-05
-9e-05
-9e-05
-9e-05
-9e-05
-9e-05
-9e-05
-9e-05
-9e-05
-9e-05
-9e-05
-9e-05
-9e-05
-9e-05
-9e-05
-9e-05
-9e-05
-0.0001
-0.0001
-0.0001
-0.0001
-0.0001
-0.0001
-0.0001
-0.0001
-0.0001
-0.0001
-0.0001
-0.0001
-0.0001
-0.0001
-0.0001
-0.0001
-0.0001
-0.0001
-0.0001
-0.0001
-0.0001
-0.0001
-0.0001
-0.0001
-0.0001
-0.0001
-0.0001
-0.0001
-0.0001
-0.0001
-0.0001
-0.0001
-0.0001
-0.0001
-0.0001
-0.0001
-0.0001
-0.0001
-0.0001
-0.0001
-0.0001
-0.0001
-0.0001
-0.0001
-0.0001
-0.0001
-0.0001
-0.0001
-0.0001
-0.0001
-0.0001
-0.0001
-0.0001
-0.0001
-0.0001
-0.0001
-0.0001
-0.0001
-0.0001
-0.0001
-0.0001
-0.0001
-0.0001
-0.0001
-0.0001
-0.0001
-0.0001
-0.0001
-0.0001
-0.0001
-0.0001
-0.0001
-0.0001
-0.0001
-0.0001
-0.0001
-0.0001
-0.0001
-0.0001
-0.0001
-0.0001
-0.0001
-0.0001
-0.0001
-0.0001
-0.0001
-0.0001
-0.0001
-0.0001
-0.0001
-0.0001
-0.0001
-0.0001
-0.0001
-0.0001
-0.0001
-0.0001
-0.0001
-0.0001
-0.0001
-0.0001
-0.0001
-0.0001
-0.0001
-0.0001
-0.0001
-0.0001
-0.0001
-0.0001
-0.0001
-0.0001
-0.0001
-0.0001
-0.0001
-0.0001
-0.0001
-0.0001
-0.0001
-0.0001
-0.0001
-0.0001
-0.0001
-0.0001
-0.0001
-0.0001
-0.0001
-0.0001
-0.0001
-0.0001
-0.0001
-0.0001
-0.0001
-0.0001
-0.0001
-0.0001
-0.0001
-0.0001
-0.0001
-0.0001
-0.0001
-0.0001
-0.0001
-0.0001
-0.0001
-0.0001
-0.0001
-0.0001
-0.0001
-0.0001
-0.0001
-0.0001
-0.0001
-0.0001
-0.0001
-0.0001
-0.0001
-0.0001
-0.0001
-0.0001
-0.0001
-0.0001
-0.0001
-0.0001
-0.0001
-0.0001
-0.0001
-0.0001
-0.0001
-0.0001
-0.0001
-0.0001
-0.0001
-0.0001
-0.0001
-0.0001
-0.0001
-0.0001
-0.0001
-0.0001
-0.0001
-0.0001
-0.0001
-0.0001
-0.0001
-0.0001
-0.0001
-0.0001
-0.0001
-0.0001
-0.0001
-0.0001
-0.0001
-0.0001
-0.0001
-0.0001
-0.0001
-0.0001
-0.0001
-0.0001
-0.0001
-0.0001
-0.0001
-0.0001
-0.0001
-0.0001
-0.0001
-0.0001
-0.0001
-0.0001
-0.0001
-0.0001
-0.0001
-0.0001
-0.0001
-0.0001
-0.0001
-0.0001
-0.0001
-0.0001
-0.0001
-0.0001
-0.0001
-0.0001
-0.0001
-0.0001
-0.0001
-0.0001
-0.0001
-0.0001
-0.0001
-0.0001
-0.0001
-0.0001
-0.0001
-0.0001
-0.0001
-0.0001
-0.0001
-0.0001
-0.0001
-0.0001
-0.0001
-0.0001
-0.0001
-0.0001
-0.0001
-0.0001
-0.0001
-0.0001
-0.0001
-0.0001
-0.0001
-0.0001
-0.0001
-0.0001
-0.0001
-0.0001
-0.0001
-0.0001
-0.0001
-0.0001
-0.0002
-0.0002
-0.0002
-0.0002
-0.0002
-0.0002
-0.0002
-0.0002
-0.0002
SCALARS strain_1 float
LOOKUP_TABLE default
-0.000040
-0.062928
-0.061977
-0.061021
-0.060060
-0.059094
-0.058125
-0.057152
-0.056175
-0.055194
-0.054211
-0.053224
-0.052235
-0.051244
-0.050251
-0.049256
-0.048259
-0.047262
-0.046264
-0.045265
-0.044266
-0.043268
-0.042270
-0.041274
-0.040278
-0.039285
-0.038294
-0.037306
-0.036320
-0.035338
-0.034361
-0.033387
-0.032419
-0.031456
-0.030498
-0.029547
-0.028603
-0.027665
-0.026736
-0.025814
-0.024901
-0.023998
-0.023104
-0.022219
-0.021346
-0.020483
-0.019632
-0.018793
-0.017967
-0.017153
-0.016353
-0.015566
-0.014794
-0.014036
-0.013294
-0.012567
-0.011856
-0.011161
-0.010483
-0.009822
-0.009179
-0.008553
-0.007945
-0.007355
-0.006784
-0.006231
-0.005697
-0.005183
-0.004688
-0.004212
-0.003756
-0.003320
-0.002903
-0.002507
-0.002130
-0.001772
-0.001435
-0.001117
-0.000818
-0.000540
-0.000280
-0.062984
-0.000001
-0.000243
-0.000503
-0.000783
-0.001082
-0.001401
-0.001739
-0.002097
-0.002475
-0.002873
-0.003291
-0.003728
-0.004185
-0.004662
-0.005158
-0.005674
-0.006208
-0.006762
-0.007335
-0.007926
-0.008535
-0.009163
-0.009808
-0.010470
-0.011149
-0.011846
-0.012558
-0.013286
-0.014030
-0.014789
-0.015563
-0.016351
-0.017153
-0.017968
-0.018796
-0.019636
-0.020489
-0.021353
-0.022228
-0.023113
-0.024009
-0.024914
-0.025828
-0.026751
-0.027682
-0.028621
-0.029567
-0.030520
-0.031478
-0.032443
-0.033413
-0.034387
-0.035367
-0.036350
-0.037336
-0.038326
-0.039318
-0.040313
-0.041309
-0.042307
-0.043306
-0.044305
-0.045305
-0.046305
-0.047304
-0.048302
-0.049300
-0.050296
-0.051290
-0.052282
-0.053272
-0.054260
-0.055244
-0.056225
-0.057203
-0.058177
-0.059147
-0.060113
-0.061075
-0.062032
-0.062979
-0.062974
-0.062968
-0.062963
-0.062958
-0.062952
-0.062946
-0.062940
-0.062935
-0.000032
-0.000025
-0.000019
-0.000014
-0.000010
-0.000007
-0.000004
-0.000002
-0.000002
-0.000243
-0.000244
-0.000245
-0.000248
-0.000251
-0.000255
-0.000260
-0.000266
-0.000273
-0.000503
-0.000504
-0.000505
-0.000508
-0.000511
-0.000515
-0.000520
-0.000526
-0.000532
-0.000783
-0.000783
-0.000785
-0.000787
-0.000790
-0.000794
-0.000799
-0.000805
-0.000811
-0.001082
-0.001082
-0.001084
-0.001086
-0.001089
-0.001093
-0.001097
-0.001103
-0.001110
-0.001400
-0.001401
-0.001402
-0.001404
-0.001407
-0.001411
-0.001416
-0.001421
-0.001427
-0.001739
-0.001739
-0.001740
-0.001742
-0.001745
-0.001749
-0.001753
-0.001759
-0.001765
-0.002097
-0.002097
-0.002098
-0.002100
-0.002103
-0.002106
-0.002111
-0.002116
-0.002123
-0.002474
-0.002475
-0.002476
-0.002478
-0.002480
-0.002484
-0.002488
-0.002494
-0.002500
-0.002872
-0.002872
-0.002873
-0.002875
-0.002878
-0.002881
-0.002885
-0.002890
-0.002897
-0.003290
-0.003290
-0.003290
-0.003292
-0.003295
-0.003298
-0.003302
-0.003307
-0.003313
-0.003727
-0.003727
-0.003728
-0.003729
-0.003732
-0.003735
-0.003739
-0.003744
-0.003750
-0.004184
-0.004184
-0.004184
-0.004186
-0.004188
-0.004191
-0.004195
-0.004200
-0.004206
-0.004661
-0.004660
-0.004661
-0.004662
-0.004664
-0.004667
-0.004671
-0.004676
-0.004682
-0.005157
-0.005156
-0.005157
-0.005158
-0.005160
-0.005163
-0.005167
-0.005171
-0.005177
-0.005672
-0.005672
-0.005672
-0.005673
-0.005675
-0.005678
-0.005681
-0.005686
-0.005691
-0.006207
-0.006206
-0.006207
-0.006208
-0.006209
-0.006212
-0.006216
-0.006220
-0.006225
-0.006761
-0.006760
-0.006760
-0.006761
-0.006763
-0.006765
-0.006769
-0.006773
-0.006778
-0.007333
-0.007332
-0.007332
-0.007333
-0.007335
-0.007337
-0.007340
-0.007344
-0.007349
-0.007924
-0.007923
-0.007923
-0.007924
-0.007925
-0.007927
-0.007931
-0.007934
-0.007939
-0.008534
-0.008533
-0.008532
-0.008533
-0.008534
-0.008536
-0.008539
-0.008543
-0.008547
-0.009161
-0.009159
-0.009159
-0.009159
-0.009161
-0.009163
-0.009165
-0.009169
-0.009173
-0.009806
-0.009804
-0.009804
-0.009804
-0.009805
-0.009807
-0.009810
-0.009813
-0.009817
-0.010468
-0.010467
-0.010466
-0.010466
-0.010467
-0.010469
-0.010471
-0.010475
-0.010479
-0.011147
-0.011146
-0.011145
-0.011145
-0.011146
-0.011148
-0.011150
-0.011153
-0.011157
-0.011843
-0.011842
-0.011841
-0.011841
-0.011841
-0.011843
-0.011845
-0.011848
-0.011852
-0.012556
-0.012554
-0.012553
-0.012553
-0.012553
-0.012555
-0.012557
-0.012559
-0.012563
-0.013284
-0.013282
-0.013281
-0.013281
-0.013281
-0.013282
-0.013284
-0.013287
-0.013290
-0.014028
-0.014026
-0.014025
-0.014024
-0.014024
-0.014025
-0.014027
-0.014029
-0.014033
-0.014786
-0.014785
-0.014783
-0.014783
-0.014783
-0.014784
-0.014785
-0.014788
-0.014790
-0.015560
-0.015558
-0.015557
-0.015556
-0.015556
-0.015557
-0.015558
-0.015560
-0.015563
-0.016348
-0.016346
-0.016344
-0.016343
-0.016344
-0.016344
-0.016345
-0.016347
-0.016349
-0.017150
-0.017147
-0.017146
-0.017145
-0.017145
-0.017145
-0.017146
-0.017148
-0.017150
-0.017965
-0.017962
-0.017961
-0.017960
-0.017959
-0.017959
-0.017960
-0.017962
-0.017964
-0.018793
-0.018790
-0.018788
-0.018787
-0.018787
-0.018787
-0.018787
-0.018789
-0.018791
-0.019633
-0.019631
-0.019629
-0.019627
-0.019627
-0.019627
-0.019627
-0.019628
-0.019630
-0.020486
-0.020483
-0.020481
-0.020479
-0.020479
-0.020478
-0.020479
-0.020480
-0.020481
-0.021349
-0.021347
-0.021345
-0.021343
-0.021342
-0.021342
-0.021342
-0.021343
-0.021344
-0.022224
-0.022222
-0.022219
-0.022218
-0.022216
-0.022216
-0.022216
-0.022217
-0.022218
-0.023110
-0.023107
-0.023104
-0.023103
-0.023101
-0.023101
-0.023101
-0.023101
-0.023102
-0.024006
-0.024002
-0.024000
-0.023998
-0.023997
-0.023996
-0.023995
-0.023996
-0.023996
-0.024911
-0.024908
-0.024905
-0.024903
-0.024901
-0.024900
-0.024900
-0.024900
-0.024900
-0.025825
-0.025821
-0.025819
-0.025817
-0.025815
-0.025814
-0.025813
-0.025813
-0.025813
-0.026748
-0.026744
-0.026742
-0.026739
-0.026737
-0.026736
-0.026735
-0.026735
-0.026735
-0.027678
-0.027675
-0.027672
-0.027670
-0.027668
-0.027667
-0.027666
-0.027665
-0.027665
-0.028617
-0.028614
-0.028611
-0.028608
-0.028606
-0.028604
-0.028603
-0.028603
-0.028602
-0.029563
-0.029559
-0.029556
-0.029554
-0.029552
-0.029550
-0.029548
-0.029547
-0.029547
-0.030515
-0.030512
-0.030509
-0.030506
-0.030503
-0.030502
-0.030500
-0.030499
-0.030499
-0.031474
-0.031471
-0.031467
-0.031465
-0.031462
-0.031460
-0.031458
-0.031457
-0.031456
-0.032439
-0.032435
-0.032432
-0.032429
-0.032426
-0.032424
-0.032422
-0.032420
-0.032420
-0.033408
-0.033405
-0.033401
-0.033398
-0.033395
-0.033393
-0.033391
-0.033390
-0.033388
-0.034383
-0.034379
-0.034376
-0.034372
-0.034370
-0.034367
-0.034365
-0.034363
-0.034362
-0.035362
-0.035358
-0.035354
-0.035351
-0.035348
-0.035346
-0.035343
-0.035341
-0.035340
-0.036345
-0.036341
-0.036337
-0.036334
-0.036331
-0.036328
-0.036326
-0.036324
-0.036322
-0.037332
-0.037327
-0.037324
-0.037320
-0.037317
-0.037314
-0.037312
-0.037309
-0.037307
-0.038321
-0.038317
-0.038313
-0.038309
-0.038306
-0.038303
-0.038300
-0.038298
-0.038296
-0.039314
-0.039309
-0.039305
-0.039302
-0.039298
-0.039295
-0.039292
-0.039289
-0.039287
-0.040308
-0.040304
-0.040300
-0.040296
-0.040292
-0.040289
-0.040286
-0.040283
-0.040281
-0.041304
-0.041300
-0.041296
-0.041292
-0.041288
-0.041285
-0.041281
-0.041279
-0.041276
-0.042302
-0.042298
-0.042293
-0.042289
-0.042286
-0.042282
-0.042279
-0.042276
-0.042273
-0.043301
-0.043296
-0.043292
-0.043288
-0.043284
-0.043280
-0.043277
-0.043274
-0.043271
-0.044300
-0.044296
-0.044291
-0.044287
-0.044283
-0.044280
-0.044276
-0.044272
-0.044269
-0.045300
-0.045295
-0.045291
-0.045287
-0.045283
-0.045279
-0.045275
-0.045272
-0.045268
-0.046300
-0.046295
-0.046291
-0.046286
-0.046282
-0.046278
-0.046274
-0.046270
-0.046267
-0.047299
-0.047294
-0.047290
-0.047285
-0.047281
-0.047277
-0.047273
-0.047269
-0.047265
-0.048298
-0.048293
-0.048288
-0.048284
-0.048279
-0.048275
-0.048271
-0.048267
-0.048263
-0.049295
-0.049290
-0.049286
-0.049281
-0.049276
-0.049272
-0.049268
-0.049264
-0.049260
-0.050291
-0.050286
-0.050281
-0.050277
-0.050272
-0.050268
-0.050263
-0.050259
-0.050255
-0.051285
-0.051280
-0.051275
-0.051271
-0.051266
-0.051261
-0.051257
-0.051253
-0.051248
-0.052277
-0.052273
-0.052268
-0.052263
-0.052258
-0.052253
-0.052249
-0.052244
-0.052240
-0.053267
-0.053262
-0.053257
-0.053253
-0.053248
-0.053243
-0.053238
-0.053234
-0.053229
-0.054254
-0.054250
-0.054245
-0.054239
-0.054235
-0.054230
-0.054225
-0.054220
-0.054216
-0.055239
-0.055234
-0.055229
-0.055224
-0.055219
-0.055214
-0.055209
-0.055204
-0.055199
-0.056220
-0.056215
-0.056210
-0.056205
-0.056200
-0.056195
-0.056189
-0.056185
-0.056180
-0.057198
-0.057193
-0.057188
-0.057182
-0.057177
-0.057172
-0.057167
-0.057162
-0.057157
-0.058172
-0.058167
-0.058162
-0.058156
-0.058151
-0.058146
-0.058141
-0.058135
-0.058130
-0.059142
-0.059137
-0.059132
-0.059126
-0.059121
-0.059116
-0.059110
-0.059105
-0.059100
-0.060108
-0.060103
-0.060098
-0.060092
-0.060087
-0.060082
-0.060076
-0.060071
-0.060065
-0.061070
-0.061065
-0.061059
-0.061054
-0.061048
-0.061043
-0.061038
-0.061032
-0.061026
-0.062027
-0.062022
-0.062016
-0.062011
-0.062005
-0.062000
-0.061994
-0.061989
-0.061983
SCALARS strain_2 float
LOOKUP_TABLE default
0.000850
0.000530
0.000530
0.000530
0.000528
0.000529
0.000529
0.000529
0.000530
0.000530
0.000530
0.000531
0.000531
0.000531
0.000533
0.000532
0.000533
0.000535
0.000535
0.000537
0.000537
0.000539
0.000540
0.000540
0.000541
0.000544
0.000545
0.000547
0.000548
0.000551
0.000553
0.000555
0.000557
0.000560
0.000562
0.000564
0.000569
0.000571
0.000573
0.000577
0.000580
0.000583
0.000587
0.000592
0.000594
0.000599
0.000603
0.000608
0.000612
0.000617
0.000622
0.000625
0.000632
0.000636
0.000642
0.000648
0.000654
0.000661
0.000666
0.000672
0.000678
0.000685
0.000692
0.000700
0.000706
0.000713
0.000722
0.000729
0.000736
0.000745
0.000753
0.000761
0.000768
0.000778
0.000786
0.000794
0.000804
0.000812
0.000822
0.000831
0.000839
0.001595
0.001615
0.001616
0.001617
0.001617
0.001619
0.001619
0.001621
0.001622
0.001623
0.001625
0.001625
0.001626
0.001626
0.001628
0.001630
0.001630
0.001629
0.001629
0.001631
0.001632
0.001633
0.001633
0.001634
0.001634
0.001635
0.001636
0.001636
0.001636
0.001636
0.001637
0.001638
0.001637
0.001638
0.001638
0.001639
0.001638
0.001637
0.001637
0.001638
0.001638
0.001638
0.001638
0.001638
0.001637
0.001637
0.001636
0.001637
0.001636
0.001635
0.001636
0.001633
0.001633
0.001633
0.001632
0.001632
0.001630
0.001630
0.001629
0.001627
0.001627
0.001626
0.001625
0.001624
0.001623
0.001622
0.001620
0.001619
0.001618
0.001616
0.001614
0.001613
0.001610
0.001610
0.001608
0.001607
0.001604
0.001603
0.001601
0.001599
0.001596
0.001489
0.001381
0.001275
0.001168
0.001063
0.000956
0.000850
0.000742
0.000636
0.000925
0.001003
0.001080
0.001156
0.001233
0.001309
0.001385
0.001463
0.001538
0.001539
0.001461
0.001385
0.001306
0.001228
0.001152
0.001074
0.000996
0.000918
0.001539
0.001461
0.001380
0.001302
0.001224
0.001146
0.001067
0.000988
0.000911
0.001538
0.001459
0.001379
0.001300
0.001222
0.001140
0.001061
0.000981
0.000901
0.001538
0.001459
0.001378
0.001298
0.001215
0.001135
0.001055
0.000975
0.000893
0.001539
0.001458
0.001376
0.001293
0.001211
0.001130
0.001049
0.000967
0.000885
0.001539
0.001457
0.001374
0.001291
0.001208
0.001125
0.001042
0.000959
0.000878
0.001539
0.001455
0.001372
0.001289
0.001204
0.001120
0.001036
0.000952
0.000869
0.001538
0.001455
0.001371
0.001285
0.001201
0.001116
0.001031
0.000945
0.000861
0.001539
0.001453
0.001368
0.001282
0.001196
0.001111
0.001026
0.000939
0.000855
0.001538
0.001452
0.001365
0.001279
0.001193
0.001107
0.001020
0.000933
0.000846
0.001538
0.001451
0.001364
0.001277
0.001189
0.001102
0.001015
0.000927
0.000840
0.001538
0.001451
0.001362
0.001275
0.001186
0.001098
0.001009
0.000921
0.000832
0.001539
0.001450
0.001360
0.001270
0.001182
0.001094
0.001004
0.000914
0.000826
0.001539
0.001449
0.001359
0.001268
0.001178
0.001089
0.000998
0.000910
0.000819
0.001538
0.001448
0.001356
0.001266
0.001175
0.001084
0.000994
0.000903
0.000813
0.001538
0.001446
0.001355
0.001263
0.001172
0.001081
0.000989
0.000897
0.000805
0.001536
0.001445
0.001354
0.001261
0.001168
0.001075
0.000984
0.000891
0.000798
0.001539
0.001445
0.001352
0.001258
0.001165
0.001072
0.000978
0.000886
0.000791
0.001538
0.001443
0.001351
0.001256
0.001162
0.001068
0.000973
0.000879
0.000785
0.001538
0.001443
0.001349
0.001254
0.001159
0.001064
0.000969
0.000875
0.000780
0.001538
0.001443
0.001348
0.001252
0.001156
0.001060
0.000966
0.000869
0.000775
0.001537
0.001442
0.001346
0.001250
0.001153
0.001057
0.000961
0.000864
0.000769
0.001538
0.001440
0.001344
0.001247
0.001150
0.001053
0.000956
0.000860
0.000763
0.001537
0.001439
0.001342
0.001244
0.001147
0.001050
0.000953
0.000856
0.000757
0.001537
0.001439
0.001340
0.001243
0.001144
0.001047
0.000948
0.000849
0.000751
0.001538
0.001438
0.001339
0.001240
0.001142
0.001043
0.000944
0.000847
0.000746
0.001537
0.001437
0.001339
0.001239
0.001139
0.001040
0.000942
0.000842
0.000741
0.001537
0.001436
0.001336
0.001238
0.001137
0.001037
0.000936
0.000836
0.000737
0.001537
0.001436
0.001335
0.001234
0.001134
0.001033
0.000934
0.000834
0.000732
0.001536
0.001435
0.001335
0.001232
0.001132
0.001031
0.000930
0.000829
0.000728
0.001536
0.001433
0.001334
0.001231
0.001130
0.001028
0.000926
0.000825
0.000723
0.001536
0.001435
0.001331
0.001229
0.001127
0.001025
0.000923
0.000821
0.000719
0.001535
0.001433
0.001330
0.001228
0.001125
0.001022
0.000920
0.000817
0.000714
0.001534
0.001430
0.001329
0.001227
0.001122
0.001018
0.000916
0.000814
0.000710
0.001535
0.001432
0.001328
0.001225
0.001120
0.001017
0.000914
0.000810
0.000706
0.001534
0.001431
0.001326
0.001222
0.001118
0.001015
0.000910
0.000807
0.000703
0.001533
0.001430
0.001325
0.001221
0.001117
0.001012
0.000908
0.000804
0.000699
0.001534
0.001428
0.001323
0.001219
0.001114
0.001010
0.000906
0.000800
0.000696
0.001533
0.001428
0.001323
0.001218
0.001113
0.001007
0.000903
0.000797
0.000692
0.001533
0.001427
0.001321
0.001217
0.001111
0.001006
0.000900
0.000794
0.000690
0.001532
0.001426
0.001321
0.001215
0.001108
0.001003
0.000898
0.000792
0.000686
0.001532
0.001425
0.001319
0.001214
0.001106
0.001001
0.000895
0.000790
0.000683
0.001531
0.001424
0.001318
0.001212
0.001105
0.000997
0.000892
0.000787
0.000680
0.001530
0.001423
0.001317
0.001211
0.001104
0.000996
0.000891
0.000785
0.000677
0.001530
0.001423
0.001316
0.001209
0.001101
0.000995
0.000888
0.000782
0.000673
0.001529
0.001421
0.001315
0.001206
0.001101
0.000993
0.000886
0.000778
0.000672
0.001528
0.001421
0.001314
0.001207
0.001099
0.000991
0.000884
0.000777
0.000670
0.001528
0.001419
0.001313
0.001205
0.001097
0.000991
0.000883
0.000775
0.000667
0.001526
0.001419
0.001311
0.001204
0.001096
0.000989
0.000880
0.000772
0.000664
0.001526
0.001419
0.001310
0.001203
0.001095
0.000987
0.000880
0.000771
0.000662
0.001526
0.001417
0.001311
0.001201
0.001092
0.000985
0.000877
0.000769
0.000661
0.001524
0.001417
0.001308
0.001200
0.001092
0.000984
0.000876
0.000767
0.000659
0.001524
0.001415
0.001308
0.001199
0.001091
0.000982
0.000873
0.000765
0.000657
0.001524
0.001415
0.001307
0.001198
0.001089
0.000981
0.000872
0.000764
0.000656
0.001523
0.001414
0.001305
0.001197
0.001089
0.000979
0.000871
0.000763
0.000653
0.001521
0.001413
0.001305
0.001195
0.001086
0.000978
0.000870
0.000761
0.000653
0.001520
0.001412
0.001302
0.001195
0.001085
0.000977
0.000868
0.000760
0.000651
0.001519
0.001412
0.001303
0.001193
0.001085
0.000976
0.000868
0.000759
0.000650
0.001518
0.001410
0.001301
0.001193
0.001084
0.000974
0.000866
0.000757
0.000649
0.001519
0.001409
0.001301
0.001190
0.001083
0.000973
0.000864
0.000755
0.000646
0.001516
0.001408
0.001299
0.001190
0.001082
0.000972
0.000863
0.000756
0.000646
0.001515
0.001406
0.001297
0.001189
0.001080
0.000970
0.000862
0.000754
0.000645
0.001514
0.001406
0.001297
0.001187
0.001079
0.000970
0.000861
0.000753
0.000644
0.001511
0.001404
0.001295
0.001186
0.001078
0.000969
0.000861
0.000751
0.000643
0.001512
0.001402
0.001294
0.001185
0.001078
0.000968
0.000859
0.000750
0.000642
0.001510
0.001401
0.001293
0.001184
0.001075
0.000967
0.000860
0.000749
0.000641
0.001508
0.001401
0.001294
0.001183
0.001076
0.000965
0.000858
0.000749
0.000642
0.001508
0.001399
0.001291
0.001183
0.001072
0.000966
0.000858
0.000748
0.000639
0.001505
0.001399
0.001289
0.001181
0.001073
0.000964
0.000857
0.000749
0.000640
0.001504
0.001397
0.001288
0.001180
0.001072
0.000964
0.000855
0.000747
0.000639
0.001502
0.001396
0.001288
0.001180
0.001072
0.000963
0.000854
0.000747
0.000638
0.001502
0.001393
0.001285
0.001178
0.001070
0.000963
0.000854
0.000745
0.000638
0.001500
0.001392
0.001285
0.001176
0.001069
0.000962
0.000853
0.000746
0.000638
0.001498
0.001392
0.001284
0.001175
0.001067
0.000960
0.000853
0.000745
0.000637
0.001498
0.001389
0.001282
0.001175
0.001067
0.000959
0.000852
0.000745
0.000638
0.001495
0.001388
0.001279
0.001173
0.001067
0.000959
0.000852
0.000744
0.000636
0.001495
0.001387
0.001279
0.001172
0.001065
0.000958
0.000851
0.000745
0.000637
0.001492
0.001385
0.001277
0.001171
0.001063
0.000957
0.000850
0.000743
0.000636
0.001491
0.001383
0.001277
0.001169
0.001063
0.000957
0.000851
0.000743
0.000637
SCALARS strain_3 float
LOOKUP_TABLE default
0.000319
0.020609
0.020319
0.020027
0.019733
0.019437
0.019140
0.018843
0.018543
0.018242
0.017940
0.017638
0.017333
0.017027
0.016721
0.016415
0.016107
0.015798
0.015490
0.015181
0.014872
0.014562
0.014252
0.013942
0.013632
0.013323
0.013014
0.012705
0.012397
0.012090
0.011783
0.011477
0.011173
0.010869
0.010567
0.010265
0.009967
0.009670
0.009374
0.009081
0.008790
0.008500
0.008214
0.007930
0.007650
0.007371
0.007096
0.006823
0.006555
0.006290
0.006028
0.005770
0.005517
0.005267
0.005020
0.004779
0.004541
0.004309
0.004080
0.003858
0.003639
0.003425
0.003217
0.003014
0.002816
0.002624
0.002437
0.002255
0.002079
0.001909
0.001745
0.001585
0.001432
0.001286
0.001145
0.001008
0.000879
0.000755
0.000637
0.000525
0.000419
0.020074
-0.000170
-0.000074
0.000028
0.000136
0.000250
0.000369
0.000495
0.000627
0.000765
0.000909
0.001058
0.001215
0.001376
0.001543
0.001716
0.001895
0.002079
0.002270
0.002466
0.002666
0.002872
0.003083
0.003300
0.003521
0.003747
0.003979
0.004214
0.004455
0.004699
0.004948
0.005201
0.005458
0.005718
0.005983
0.006251
0.006523
0.006797
0.007075
0.007355
0.007639
0.007925
0.008213
0.008505
0.008798
0.009094
0.009390
0.009691
0.009992
0.010295
0.010597
0.010903
0.011210
0.011517
0.011825
0.012135
0.012444
0.012754
0.013064
0.013375
0.013686
0.013997
0.014307
0.014618
0.014928
0.015238
0.015548
0.015857
0.016165
0.016472
0.016779
0.017085
0.017389
0.017693
0.017996
0.018297
0.018597
0.018895
0.019193
0.019488
0.019782
0.020129
0.020182
0.020236
0.020290
0.020342
0.020396
0.020450
0.020503
0.020556
0.000269
0.000220
0.000170
0.000121
0.000072
0.000023
-0.000027
-0.000074
-0.000123
-0.000027
0.000022
0.000072
0.000121
0.000170
0.000219
0.000268
0.000319
0.000370
0.000076
0.000126
0.000174
0.000224
0.000273
0.000324
0.000373
0.000424
0.000475
0.000184
0.000234
0.000284
0.000333
0.000383
0.000434
0.000485
0.000535
0.000586
0.000299
0.000349
0.000398
0.000449
0.000499
0.000550
0.000601
0.000652
0.000704
0.000419
0.000469
0.000519
0.000570
0.000621
0.000672
0.000724
0.000775
0.000827
0.000546
0.000596
0.000646
0.000697
0.000749
0.000800
0.000852
0.000904
0.000956
0.000677
0.000729
0.000779
0.000831
0.000882
0.000934
0.000986
0.001039
0.001091
0.000816
0.000867
0.000918
0.000970
0.001021
0.001074
0.001127
0.001179
0.001232
0.000960
0.001012
0.001063
0.001115
0.001168
0.001220
0.001273
0.001326
0.001379
0.001110
0.001162
0.001214
0.001266
0.001319
0.001372
0.001425
0.001478
0.001532
0.001266
0.001318
0.001370
0.001423
0.001476
0.001529
0.001583
0.001636
0.001690
0.001429
0.001480
0.001533
0.001587
0.001639
0.001693
0.001746
0.001800
0.001855
0.001595
0.001649
0.001702
0.001755
0.001808
0.001862
0.001915
0.001970
0.002024
0.001768
0.001822
0.001875
0.001929
0.001982
0.002037
0.002091
0.002146
0.002200
0.001948
0.002002
0.002056
0.002109
0.002163
0.002217
0.002272
0.002326
0.002382
0.002133
0.002186
0.002240
0.002295
0.002348
0.002403
0.002457
0.002513
0.002568
0.002323
0.002377
0.002432
0.002486
0.002539
0.002594
0.002649
0.002705
0.002761
0.002519
0.002573
0.002627
0.002682
0.002737
0.002791
0.002848
0.002902
0.002959
0.002720
0.002774
0.002829
0.002883
0.002939
0.002994
0.003049
0.003105
0.003161
0.002927
0.002981
0.003036
0.003090
0.003147
0.003201
0.003258
0.003313
0.003369
0.003137
0.003193
0.003247
0.003303
0.003358
0.003414
0.003470
0.003527
0.003582
0.003354
0.003410
0.003465
0.003521
0.003576
0.003632
0.003688
0.003744
0.003801
0.003575
0.003631
0.003687
0.003743
0.003799
0.003855
0.003910
0.003968
0.004024
0.003803
0.003859
0.003914
0.003970
0.004026
0.004082
0.004138
0.004195
0.004252
0.004035
0.004090
0.004145
0.004202
0.004257
0.004313
0.004371
0.004428
0.004484
0.004270
0.004325
0.004381
0.004438
0.004493
0.004550
0.004607
0.004664
0.004722
0.004510
0.004566
0.004622
0.004678
0.004735
0.004792
0.004849
0.004905
0.004963
0.004755
0.004811
0.004867
0.004924
0.004980
0.005037
0.005093
0.005151
0.005209
0.005004
0.005060
0.005116
0.005173
0.005229
0.005286
0.005344
0.005402
0.005458
0.005257
0.005313
0.005370
0.005426
0.005483
0.005540
0.005598
0.005654
0.005713
0.005514
0.005570
0.005627
0.005683
0.005740
0.005798
0.005855
0.005912
0.005970
0.005775
0.005831
0.005888
0.005944
0.006001
0.006059
0.006116
0.006173
0.006232
0.006039
0.006096
0.006152
0.006210
0.006267
0.006324
0.006382
0.006439
0.006497
0.006306
0.006364
0.006422
0.006478
0.006535
0.006592
0.006650
0.006708
0.006766
0.006579
0.006635
0.006693
0.006750
0.006807
0.006865
0.006921
0.006980
0.007038
0.006853
0.006909
0.006968
0.007024
0.007082
0.007139
0.007197
0.007255
0.007313
0.007132
0.007188
0.007245
0.007303
0.007360
0.007417
0.007475
0.007533
0.007591
0.007412
0.007469
0.007526
0.007584
0.007641
0.007698
0.007757
0.007814
0.007872
0.007696
0.007753
0.007810
0.007868
0.007924
0.007982
0.008040
0.008098
0.008156
0.007982
0.008039
0.008096
0.008153
0.008210
0.008269
0.008327
0.008384
0.008442
0.008271
0.008327
0.008385
0.008442
0.008500
0.008557
0.008616
0.008673
0.008732
0.008562
0.008619
0.008676
0.008734
0.008791
0.008849
0.008907
0.008965
0.009023
0.008855
0.008913
0.008969
0.009027
0.009084
0.009142
0.009201
0.009259
0.009316
0.009151
0.009209
0.009265
0.009323
0.009380
0.009438
0.009496
0.009553
0.009611
0.009449
0.009505
0.009563
0.009620
0.009678
0.009736
0.009793
0.009851
0.009909
0.009747
0.009804
0.009862
0.009920
0.009977
0.010034
0.010093
0.010150
0.010208
0.010049
0.010106
0.010163
0.010220
0.010278
0.010335
0.010393
0.010451
0.010508
0.010352
0.010408
0.010465
0.010523
0.010580
0.010638
0.010696
0.010753
0.010811
0.010655
0.010711
0.010769
0.010827
0.010884
0.010941
0.010999
0.011057
0.011114
0.010959
0.011017
0.011075
0.011131
0.011189
0.011246
0.011304
0.011361
0.011419
0.011266
0.011323
0.011381
0.011438
0.011495
0.011553
0.011610
0.011668
0.011725
0.011573
0.011631
0.011688
0.011744
0.011802
0.011859
0.011917
0.011974
0.012032
0.011882
0.011939
0.011995
0.012053
0.012110
0.012167
0.012224
0.012282
0.012339
0.012190
0.012247
0.012304
0.012361
0.012419
0.012476
0.012533
0.012590
0.012648
0.012500
0.012557
0.012614
0.012671
0.012728
0.012785
0.012842
0.012899
0.012957
0.012810
0.012867
0.012924
0.012980
0.013037
0.013094
0.013151
0.013208
0.013267
0.013120
0.013177
0.013234
0.013291
0.013348
0.013404
0.013462
0.013518
0.013576
0.013431
0.013488
0.013544
0.013601
0.013658
0.013714
0.013772
0.013828
0.013886
0.013742
0.013799
0.013855
0.013912
0.013968
0.014025
0.014082
0.014138
0.014195
0.014053
0.014109
0.014165
0.014222
0.014278
0.014335
0.014391
0.014448
0.014505
0.014364
0.014420
0.014476
0.014533
0.014589
0.014645
0.014702
0.014758
0.014815
0.014674
0.014730
0.014786
0.014842
0.014899
0.014955
0.015012
0.015068
0.015124
0.014985
0.015041
0.015096
0.015152
0.015209
0.015265
0.015321
0.015377
0.015433
0.015294
0.015350
0.015406
0.015461
0.015518
0.015575
0.015630
0.015686
0.015743
0.015603
0.015660
0.015715
0.015771
0.015827
0.015882
0.015939
0.015995
0.016051
0.015912
0.015968
0.016024
0.016080
0.016135
0.016192
0.016247
0.016303
0.016358
0.016221
0.016276
0.016331
0.016388
0.016443
0.016499
0.016554
0.016610
0.016665
0.016528
0.016583
0.016638
0.016694
0.016749
0.016806
0.016861
0.016917
0.016972
0.016835
0.016890
0.016945
0.017000
0.017056
0.017111
0.017166
0.017222
0.017277
0.017140
0.017194
0.017250
0.017305
0.017360
0.017416
0.017472
0.017527
0.017581
0.017444
0.017499
0.017555
0.017609
0.017665
0.017720
0.017775
0.017829
0.017884
0.017748
0.017804
0.017858
0.017912
0.017967
0.018023
0.018078
0.018132
0.018187
0.018051
0.018105
0.018161
0.018215
0.018269
0.018324
0.018379
0.018433
0.018488
0.018351
0.018406
0.018461
0.018515
0.018570
0.018624
0.018679
0.018734
0.018788
0.018651
0.018706
0.018759
0.018815
0.018870
0.018923
0.018978
0.019032
0.019086
0.018950
0.019004
0.019058
0.019113
0.019167
0.019221
0.019275
0.019329
0.019383
0.019246
0.019301
0.019355
0.019409
0.019463
0.019518
0.019571
0.019625
0.019679
0.019542
0.019596
0.019650
0.019704
0.019758
0.019812
0.019865
0.019919
0.019973
0.019836
0.019889
0.019943
0.019998
0.020050
0.020105
0.020158
0.020212
0.020266
SCALARS stress_1 float
LOOKUP_TABLE default
14620.379987
-11996727.372663
-11815087.850755
-11632565.328847
-11449162.806939
-11264897.285031
-11079887.763123
-10894137.241215
-10707683.719307
-10520586.197398
-10332825.675490
-10144589.153582
-9955819.631674
-9766614.109766
-9577005.587858
-9387060.065950
-9196877.544042
-9006481.022133
-8815936.500225
-8625276.978317
-8434677.456409
-8244061.934501
-8053607.412593
-7863351.890685
-7673360.368776
-7483791.846868
-7294557.324960
-7105884.803052
-6917775.281144
-6730370.759236
-6543668.237328
-6357815.715420
-6172930.193511
-5989010.671603
-5806220.149695
-5624604.627787
-5444250.105879
-5265297.583971
-5087772.062063
-4911805.540155
-4737483.018246
-4564901.496338
-4394165.974430
-4225312.452522
-4058485.930614
-3893750.408706
-3731234.886798
-3570958.364890
-3413097.842981
-3257651.321073
-3104792.799165
-2954554.277257
-2807020.755349
-2662307.233441
-2520461.711533
-2381580.189625
-2245740.667716
-2112955.145808
-1983391.623900
-1857067.101992
-1734075.580084
-1614381.058176
-1498162.536268
-1385419.014360
-1276196.492451
-1170543.970543
-1068513.448635
-970138.926727
-875465.404819
-784480.882911
-697259.361003
-613776.839095
-534032.317186
-458078.795278
-385910.273370
-317500.751462
-252854.229554
-191970.707646
-134815.185738
-81332.663830
-31526.141921
-11979717.306002
43053.446648
-2990.075260
-52684.597168
-106014.119076
-163119.640984
-223889.162892
-288481.684801
-356774.206709
-428928.728617
-504841.250525
-584532.772433
-667981.294341
-755188.816249
-846191.338157
-940916.860066
-1039304.381974
-1141373.903882
-1247079.425790
-1356339.947698
-1469145.469606
-1585442.991514
-1705185.513422
-1828296.035331
-1954757.557239
-2084407.079147
-2217312.601055
-2353285.122963
-2492300.644871
-2634293.166779
-2779211.688687
-2926852.210596
-3077248.732504
-3230288.254412
-3385899.776320
-3543947.298228
-3704377.820136
-3867131.342044
-4032023.863952
-4199047.385861
-4368080.907769
-4539048.429677
-4711885.951585
-4886373.473493
-5062554.995401
-5240295.517309
-5419506.039218
-5600063.561126
-5781882.083034
-5964936.604942
-6149072.126850
-6334214.648758
-6520264.170666
-6707165.692574
-6894822.214483
-7083167.736391
-7272082.258299
-7461528.780207
-7651365.302115
-7841608.824023
-8032034.345931
-8222738.867839
-8413578.389748
-8604424.911656
-8795295.433564
-8986060.955472
-9176704.477380
-9367129.999288
-9557286.521196
-9747104.043104
-9936529.565013
-10125516.086921
-10313974.608829
-10501949.130737
-10689255.652645
-10875933.174553
-11061910.696461
-11247127.218369
-11431552.740278
-11615163.262186
-11797915.784094
-11981493.812668
-11983228.319334
-11984993.826000
-11986697.332667
-11988435.839333
-11990118.345999
-11991783.852665
-11993431.359331
-11995083.865997
18175.886653
21569.393319
24809.899985
27892.406651
30792.913317
33563.419984
36164.926650
38638.433316
40916.939982
-5135.581926
-7440.088592
-9906.595258
-12538.101925
-15302.608591
-18259.115257
-21303.621923
-24581.128589
-27949.635255
-54816.103834
-57153.610500
-59600.117167
-62229.623833
-65001.130499
-67951.637165
-71077.143831
-74323.650497
-77758.157163
-108172.625742
-110495.132408
-112993.639075
-115618.145741
-118415.652407
-121376.159073
-124472.665739
-127755.172405
-131214.679072
-165242.147650
-167584.654317
-170084.160983
-172715.667649
-175512.174315
-178505.680981
-181634.187647
-184921.694313
-188369.200980
-226051.669559
-228387.176225
-230904.682891
-233535.189557
-236363.696223
-239339.202889
-242487.709555
-245789.216222
-249248.722888
-290622.191467
-292999.698133
-295470.204799
-298156.711465
-300965.218131
-303978.724797
-307089.231464
-310392.738130
-313896.244796
-358986.713375
-361330.220041
-363831.726707
-366504.233373
-369351.740039
-372319.246706
-375474.753372
-378804.260038
-382265.766704
-431111.235283
-433453.741949
-435961.248615
-438645.755281
-441462.261948
-444464.768614
-447645.275280
-450990.781946
-454461.288612
-507049.757191
-509401.263857
-511892.770523
-514567.277190
-517400.783856
-520411.290522
-523566.797188
-526913.303854
-530384.810520
-586713.279099
-589079.785765
-591551.292432
-594289.799098
-597115.305764
-600124.812430
-603293.319096
-606628.825762
-610113.332428
-670220.801007
-672552.307673
-675063.814340
-677782.321006
-680591.827672
-683588.334338
-686755.841004
-690100.347670
-693600.854337
-757430.322915
-759787.829582
-762342.336248
-765009.842914
-767861.349580
-770838.856246
-774025.362912
-777342.869579
-780862.376245
-848406.844824
-850752.351490
-853295.858156
-855989.364822
-858835.871488
-861835.378154
-865008.884820
-868335.391487
-871831.898153
-943159.366732
-945457.873398
-948004.380064
-950683.886730
-953525.393396
-956542.900062
-959708.406729
-963050.913395
-966494.420061
-1041490.888640
-1043864.395306
-1046394.901972
-1049076.408638
-1051923.915304
-1054928.421971
-1058112.928637
-1061403.435303
-1064902.941969
-1143580.410548
-1145926.917214
-1148486.423880
-1151122.930546
-1153997.437213
-1157004.943879
-1160155.450545
-1163458.957211
-1166928.463877
-1249283.932456
-1251639.439122
-1254167.945788
-1256852.452455
-1259689.959121
-1262668.465787
-1265830.972453
-1269100.479119
-1272614.985785
-1358542.454364
-1360919.961030
-1363430.467697
-1366124.974363
-1368945.481029
-1371930.987695
-1375075.494361
-1378360.001027
-1381852.507693
-1471372.976272
-1473725.482939
-1476225.989605
-1478894.496271
-1481747.002937
-1484733.509603
-1487846.016269
-1491143.522935
-1494579.029602
-1587629.498180
-1590045.004847
-1592541.511513
-1595212.018179
-1598016.524845
-1600995.031511
-1604124.538177
-1607379.044844
-1610833.551510
-1707396.020089
-1709752.526755
-1712299.033421
-1714936.540087
-1717749.046753
-1720697.553419
-1723810.060085
-1727081.566752
-1730531.073418
-1830511.541997
-1832841.048663
-1835347.555329
-1838019.061995
-1840823.568661
-1843777.075327
-1846871.581994
-1850143.088660
-1853542.595326
-1956941.063905
-1959304.570571
-1961819.077237
-1964438.583903
-1967213.090569
-1970185.597236
-1973250.103902
-1976487.610568
-1979878.117234
-2086640.585813
-2088965.092479
-2091455.599145
-2094100.105811
-2096891.612478
-2099816.119144
-2102893.625810
-2106102.132476
-2109466.639142
-2219515.107721
-2221830.614387
-2224325.121053
-2226960.627720
-2229729.134386
-2232645.641052
-2235690.147718
-2238878.654384
-2242254.161050
-2355470.629629
-2357812.136295
-2360295.642962
-2362912.149628
-2365681.656294
-2368573.162960
-2371605.669626
-2374771.176292
-2378116.682958
-2494498.151537
-2496841.658204
-2499287.164870
-2501902.671536
-2504660.178202
-2507562.684868
-2510572.191534
-2513706.698200
-2517037.204867
-2636490.673446
-2638808.180112
-2641268.686778
-2643879.193444
-2646577.700110
-2649449.206776
-2652475.713442
-2655598.220109
-2658880.726775
-2781360.195354
-2783679.702020
-2786120.208686
-2788716.715352
-2791413.222018
-2794300.728684
-2797259.235351
-2800381.742017
-2803654.248683
-2929040.717262
-2931339.223928
-2933788.730594
-2936365.237260
-2939058.743926
-2941885.250592
-2944868.757259
-2947949.263925
-2951188.770591
-3079441.239170
-3081729.745836
-3084156.252502
-3086730.759168
-3089415.265834
-3092258.772501
-3095216.279167
-3098280.785833
-3101456.292499
-3232475.761078
-3234774.267744
-3237169.774410
-3239733.281076
-3242403.787743
-3245210.294409
-3248141.801075
-3251164.307741
-3254367.814407
-3388060.282986
-3390336.789652
-3392742.296318
-3395299.802985
-3397924.309651
-3400748.816317
-3403656.322983
-3406618.829649
-3409812.336315
-3546121.804894
-3548401.311560
-3550781.818227
-3553272.324893
-3555962.831559
-3558737.338225
-3561579.844891
-3564620.351557
-3567735.858223
-3706519.326802
-3708799.833469
-3711215.340135
-3713711.846801
-3716352.353467
-3719062.860133
-3721954.366799
-3724895.873465
-3728023.380132
-3869256.848711
-3871545.355377
-3873901.862043
-3876401.368709
-3879008.875375
-3881734.382041
-3884551.888707
-3887520.395374
-3890605.902040
-4034163.370619
-4036438.877285
-4038768.383951
-4041286.890617
-4043885.397283
-4046561.903949
-4049369.410616
-4052302.917282
-4055337.423948
-4201200.892527
-4203453.399193
-4205808.905859
-4208230.412525
-4210833.919191
-4213515.425858
-4216286.932524
-4219206.439190
-4222207.945856
-4370228.414435
-4372461.921101
-4374838.427767
-4377230.934433
-4379807.441099
-4382464.947766
-4385234.454432
-4388092.961098
-4391077.467764
-4541193.936343
-4543433.443009
-4545712.949675
-4548185.456341
-4550691.963008
-4553344.469674
-4556109.976340
-4558918.483006
-4561857.989672
-4713941.458251
-4716204.964917
-4718485.471583
-4720910.978250
-4723425.484916
-4726057.991582
-4728776.498248
-4731588.004914
-4734500.511580
-4888490.980159
-4890694.486825
-4892997.993492
-4895389.500158
-4897880.006824
-4900495.513490
-4903172.020156
-4905952.526822
-4908839.033488
-5064657.502067
-5066873.008734
-5069162.515400
-5071537.022066
-5073996.528732
-5076590.035398
-5079235.542064
-5081989.048730
-5084850.555397
-5242389.023976
-5244567.530642
-5246829.037308
-5249209.543974
-5251660.050640
-5254197.557306
-5256868.063972
-5259571.570639
-5262391.077305
-5421577.545884
-5423734.052550
-5425989.559216
-5428346.065882
-5430779.572548
-5433302.079214
-5435912.585881
-5438615.092547
-5441372.599213
-5602128.067792
-5604273.574458
-5606531.081124
-5608865.587790
-5611259.094456
-5613788.601123
-5616376.107789
-5618995.614455
-5621758.121121
-5783954.589700
-5786119.096366
-5788324.603032
-5790625.109698
-5793034.616364
-5795522.123031
-5798052.629697
-5800694.136363
-5803424.643029
-5966968.111608
-5969137.618274
-5971314.124940
-5973608.631606
-5975983.138273
-5978449.644939
-5980989.151605
-5983598.658271
-5986258.164937
-6151089.633516
-6153260.140182
-6155426.646848
-6157714.153515
-6160064.660181
-6162486.166847
-6164978.673513
-6167547.180179
-6170213.686845
-6336226.155424
-6338334.662090
-6340512.168757
-6342801.675423
-6345134.182089
-6347541.688755
-6350006.195421
-6352563.702087
-6355159.208753
-6522289.677332
-6524420.183999
-6526583.690665
-6528795.197331
-6531100.703997
-6533514.210663
-6535927.717329
-6538457.223995
-6541015.730662
-6709211.199241
-6711315.705907
-6713442.212573
-6715662.719239
-6717956.225905
-6720279.732571
-6722726.239237
-6725198.745904
-6727729.252570
-6896849.721149
-6898918.227815
-6901050.734481
-6903290.241147
-6905548.747813
-6907879.254479
-6910261.761146
-6912694.267812
-6915199.774478
-7085170.243057
-7087238.749723
-7089356.256389
-7091554.763055
-7093790.269721
-7096093.776388
-7098482.283054
-7100891.789720
-7103348.296386
-7274114.764965
-7276146.271631
-7278271.778297
-7280441.284963
-7282635.791630
-7284902.298296
-7287222.804962
-7289635.311628
-7292069.818294
-7463502.286873
-7465559.793539
-7467653.300205
-7469792.806871
-7472004.313538
-7474254.820204
-7476541.326870
-7478877.833536
-7481276.340202
-7653361.808781
-7655377.315447
-7657481.822113
-7659609.328780
-7661783.835446
-7663998.342112
-7666282.848778
-7668580.355444
-7670988.862110
-7843555.330689
-7845594.837355
-7847604.344022
-7849754.850688
-7851911.357354
-7854125.864020
-7856367.370686
-7858638.877352
-7860986.384018
-8034041.852597
-8036052.359264
-8038094.865930
-8040167.372596
-8042318.879262
-8044512.385928
-8046708.892594
-8048981.399260
-8051251.905927
-8224696.374506
-8226711.881172
-8228717.387838
-8230812.894504
-8232924.401170
-8235043.907836
-8237276.414502
-8239515.921169
-8241769.427835
-8415499.896414
-8417500.403080
-8419528.909746
-8421560.416412
-8423662.923078
-8425785.429744
-8427965.936411
-8430123.443077
-8432400.949743
-8606386.418322
-8608343.924988
-8610345.431654
-8612369.938320
-8614435.444986
-8616566.951653
-8618687.458319
-8620856.964985
-8623049.471651
-8797228.940230
-8799174.446896
-8801143.953562
-8803191.460228
-8805249.966895
-8807321.473561
-8809388.980227
-8811584.486893
-8813715.993559
-8987982.462138
-8989937.968804
-8991894.475470
-8993903.982137
-8995920.488803
-8997977.995469
-9000058.502135
-9002178.008801
-9004300.515467
-9178623.984046
-9180554.490712
-9182509.997378
-9184463.504045
-9186496.010711
-9188546.517377
-9190591.024043
-9192644.530709
-9194759.037375
-9369027.505954
-9370967.012620
-9372886.519287
-9374853.025953
-9376841.532619
-9378829.039285
-9380861.545951
-9382923.052617
-9384986.559283
-9559157.027862
-9561064.534529
-9562989.041195
-9564957.547861
-9566912.054527
-9568875.561193
-9570884.067859
-9572917.574525
-9574961.081192
-9748961.549771
-9750854.056437
-9752773.563103
-9754714.069769
-9756676.576435
-9758608.083101
-9760577.589767
-9762590.096434
-9764600.603100
-9938396.071679
-9940269.578345
-9942157.085011
-9944092.591677
-9946003.098343
-9947965.605009
-9949884.111676
-9951874.618342
-9953855.125008
-10127380.593587
-10129255.100253
-10131115.606919
-10133032.113585
-10134926.620251
-10136848.126918
-10138786.633584
-10140717.140250
-10142632.646916
-10315855.115495
-10317716.622161
-10319571.128827
-10321482.635493
-10323380.142160
-10325196.648826
-10327133.155492
-10329014.662158
-10330933.168824
-10503785.637403
-10505616.144069
-10507489.650735
-10509310.157402
-10511193.664068
-10513045.170734
-10514948.677400
-10516803.184066
-10518691.690732
-10691100.159311
-10692918.665977
-10694750.172643
-10696596.679310
-10698439.185976
-10700275.692642
-10702137.199308
-10703985.705974
-10705816.212640
-10877762.681219
-10879575.187885
-10881388.694552
-10883207.201218
-10885029.707884
-10886864.214550
-10888682.721216
-10890486.227882
-10892311.734549
-11063720.203127
-11065520.709794
-11067337.216460
-11069141.723126
-11070951.229792
-11072715.736458
-11074538.243124
-11076319.749790
-11078111.256457
-11248930.725036
-11250732.231702
-11252512.738368
-11254293.245034
-11256084.751700
-11257874.258366
-11259640.765032
-11261425.271699
-11263190.778365
-11433363.246944
-11435172.753610
-11436934.260276
-11438694.766942
-11440458.273608
-11442188.780274
-11443974.286941
-11445680.793607
-11447437.300273
-11616943.768852
-11618739.275518
-11620480.782184
-11622240.288850
-11624000.795516
-11625747.302183
-11627445.808849
-11629163.315515
-11630872.822181
-11799698.290760
-11801459.797426
-11803176.304092
-11804917.810758
-11806653.317425
-11808370.824091
-11810060.330757
-11811777.837423
-11813453.344089
SCALARS stress_2 float
LOOKUP_TABLE default
162640.230906
-1648500.071395
-1621812.817616
-1595365.563838
-1568518.310059
-1541591.056280
-1514519.802501
-1487656.548723
-1460329.294944
-1432826.041165
-1405818.787386
-1378203.533607
-1350204.279829
-1322701.026050
-1294989.772271
-1266990.518492
-1239119.264714
-1211600.010935
-1183472.757156
-1155473.503377
-1127506.249599
-1099506.995820
-1071507.742041
-1043284.488262
-1015669.234484
-987765.980705
-959830.726926
-932039.473147
-904312.219369
-876376.965590
-848729.711811
-821370.458032
-793947.204254
-766539.950475
-739596.696696
-712621.442917
-685662.189139
-658942.935360
-632671.681581
-606480.427802
-580513.174024
-554705.920245
-529170.666466
-503891.412687
-478660.158908
-453876.905130
-429589.651351
-405430.397572
-381351.143793
-357623.890015
-334584.636236
-311801.382457
-289290.128678
-267290.874900
-245547.621121
-224428.367342
-203517.113563
-182781.859785
-162926.606006
-143183.352227
-124352.098448
-105280.844670
-87089.590891
-69330.337112
-52339.083333
-35603.829555
-19300.575776
-3477.321997
11705.931782
26649.185560
40840.439339
54711.693118
67542.946897
80454.200675
92501.454454
103748.708233
115139.962012
125699.215791
135826.469569
145281.723348
154336.977127
-1446809.492658
309146.809643
302571.555864
295660.302085
287981.048307
279949.794528
271150.540749
261887.286970
252272.033191
241904.779413
231041.525634
219458.271855
207571.018076
195059.764298
181892.510519
168133.256740
153990.002961
139398.749183
123895.495404
108152.241625
91752.987846
74873.734068
57802.480289
39739.226510
21467.972731
2668.718953
-16434.534826
-36337.788605
-56609.042384
-77200.296162
-98111.549941
-119806.803720
-141198.057499
-163789.311277
-186300.565056
-209403.818835
-232475.072614
-256458.326392
-280457.580171
-304632.833950
-329464.087729
-354407.341508
-379542.595286
-405029.849065
-430789.102844
-456820.356623
-482963.610401
-509250.864180
-535698.117959
-562385.371738
-589424.625516
-616287.879295
-643887.133074
-671102.386853
-698717.640631
-726140.894410
-753916.148189
-781707.401968
-809578.655746
-837385.909525
-865321.163304
-893368.417083
-921479.670861
-949398.924640
-977350.178419
-1005397.432198
-1033540.685976
-1061523.939755
-1089539.193534
-1117554.447313
-1145393.701091
-1173168.954870
-1200960.208649
-1228575.462428
-1256382.716207
-1284029.969985
-1311357.223764
-1338492.477543
-1365515.731322
-1392778.985100
-1420090.238879
-1466788.150532
-1487182.808405
-1507177.466279
-1527236.124153
-1547614.782026
-1567609.439900
-1587892.097774
-1607918.755648
-1628329.413521
177130.888779
192085.546653
207040.204527
221578.862400
236325.520274
250928.178148
265562.836022
279989.493895
294464.151769
287888.897990
273014.240117
258475.582243
243744.924369
228966.266495
213915.608622
199024.950748
184070.292874
169435.635001
280705.644212
265958.986338
250908.328464
235921.670590
220855.012717
205804.354843
190817.696969
175527.039095
160236.381222
272978.390433
257799.732559
242909.074685
227602.416812
212343.758938
196973.101064
181874.443190
166487.785317
151037.127443
264675.136654
249304.478780
233837.820907
218547.163033
203016.505159
187661.847285
172179.189412
157000.531538
141245.873664
255747.882875
240249.225002
224782.567128
209171.909254
193849.251380
178126.593507
162323.935633
146473.277759
130750.619885
246292.629097
230777.971223
214751.313349
199156.655475
183369.997602
167535.339728
151684.681854
135834.023980
119919.366107
236261.375318
220650.717444
204688.059570
188597.401697
172490.743823
156704.085949
140565.428075
124602.770202
108736.112328
225750.121539
209755.463665
193712.805792
177430.147918
161755.490044
144928.832170
129174.174297
112859.516423
96752.858549
214710.867760
198508.209887
182417.552013
165846.894139
149644.236265
133409.578392
116710.920518
100508.262644
84081.604770
203031.613981
186716.956108
170242.298234
153815.640360
137356.982487
120818.324613
104103.666739
87773.008865
71010.350992
190872.360203
174317.702329
157859.044455
141336.386582
124605.728708
107891.070834
91064.412960
74125.755087
57603.097213
178233.106424
161534.448550
144755.790677
127801.132803
111166.474929
94003.817055
77081.159182
60558.501308
43555.843434
164905.852645
148351.194771
131108.536898
114329.879024
97375.221150
80276.563277
62969.905403
46095.247529
28948.589655
151418.598866
133919.940993
116949.283119
99882.625245
82671.967372
65653.309498
48346.651624
30927.993750
13765.335877
136747.345088
119584.687214
102198.029340
84843.371467
67936.713593
50470.055719
33051.397845
15616.739972
-1689.917902
121964.091309
104561.433435
87174.775561
69756.117688
52241.459814
34822.801940
17196.144067
-446.513807
-18057.171681
106444.837530
89010.179656
71431.521783
53612.863909
36114.206035
18647.548162
748.890288
-16925.767586
-34616.425460
90413.583751
73058.925878
55096.268004
37341.610130
19714.952257
1896.294383
-16082.363491
-33709.021365
-51415.679238
74318.329973
56371.672099
38537.014225
20542.356351
2755.698478
-15430.959396
-33313.617270
-51228.275143
-69238.933017
57279.076194
39268.418320
21337.760446
3343.102573
-14731.555301
-32870.213175
-51168.871048
-69067.528922
-87286.186796
39727.822415
21653.164541
3338.506668
-15008.151206
-33034.809080
-50965.466953
-69392.124827
-87578.782701
-105877.440575
21856.568636
3653.910763
-14596.747111
-33103.404985
-51594.062858
-69748.720732
-88207.378606
-106586.036480
-124932.694353
3265.314858
-15033.343016
-33700.000890
-51854.658764
-70521.316637
-88899.974511
-107134.632385
-125689.290258
-144067.948132
-15741.938921
-34360.596795
-52515.254669
-71117.912542
-89832.570416
-108275.228290
-127181.886163
-145672.544037
-164195.201911
-35085.192700
-53735.850574
-72626.508447
-90909.166321
-109495.824195
-128306.482068
-147085.139942
-165815.797816
-184626.455690
-54844.446479
-73447.104352
-92417.762226
-110876.420100
-130199.077974
-149009.735847
-167548.393721
-186503.051595
-205249.709468
-75163.700257
-94054.358131
-112993.016005
-131819.673879
-150710.331752
-169808.989626
-188667.647500
-207638.305373
-226496.963247
-95978.954036
-114869.611910
-133616.269784
-152842.927657
-171813.585531
-190896.243405
-209978.901278
-229029.559152
-247968.217026
-117034.207815
-136068.865689
-155247.523562
-174378.181436
-193428.839310
-212639.497184
-231754.155057
-251188.812931
-270015.470805
-138889.461594
-157876.119467
-176942.777341
-196313.435215
-215300.093089
-234558.750962
-254073.408836
-273028.066710
-292590.724583
-160472.715372
-180003.373246
-199102.031120
-218376.688994
-237683.346867
-257198.004741
-276568.662615
-295891.320488
-315373.978362
-183095.969151
-202386.627025
-221805.284899
-241287.942772
-260418.600646
-279821.258520
-299175.916394
-318962.574267
-338269.232141
-205607.222930
-225233.880804
-244540.538677
-264023.196551
-283601.854425
-303292.512299
-322631.170172
-342145.828046
-361788.485920
-228710.476709
-248241.134582
-268027.792456
-287494.450330
-307089.108204
-326667.766077
-346230.423951
-365857.081825
-385723.739698
-252437.730487
-271744.388361
-291531.046235
-311077.704109
-330960.361982
-350539.019856
-370165.677730
-390096.335604
-409658.993477
-276100.984266
-295807.642140
-315306.300014
-335252.957887
-355023.615761
-374618.273635
-394404.931509
-414079.589382
-434218.247256
-300308.238045
-320094.895919
-339833.553792
-359428.211666
-379230.869540
-399369.527414
-418964.185287
-438622.843161
-458649.501035
-324131.491824
-344366.149697
-364280.807571
-384259.465445
-403838.123319
-423864.781192
-443859.439066
-463966.096940
-483624.754814
-349234.745602
-369261.403476
-389064.061350
-409266.719224
-429101.377097
-448984.034971
-469202.692845
-488861.350719
-508808.008592
-374097.999381
-394236.657255
-414295.315129
-434257.973002
-454028.630876
-474151.288750
-494401.946624
-514348.604497
-534775.262371
-399841.253160
-419611.911034
-439462.568907
-459649.226781
-479883.884655
-499734.542529
-520049.200402
-539947.858276
-560310.516150
-425072.506939
-445147.164812
-465061.822686
-485472.480560
-505483.138434
-525845.796307
-545792.454181
-565963.112055
-586325.769929
-450911.760718
-471098.418591
-491189.076465
-511439.734339
-531786.392212
-552021.050086
-571903.707960
-592122.365834
-612181.023707
-476863.014496
-496889.672370
-517572.330244
-537630.988117
-557529.645991
-578116.303865
-598318.961739
-618537.619612
-638900.277486
-503038.268275
-523224.926149
-543747.584022
-563982.241896
-584008.899770
-604387.557644
-624430.215517
-645000.873391
-665523.531265
-529357.522054
-549944.179928
-570130.837801
-590333.495675
-610872.153549
-631106.811422
-651501.469296
-671960.127170
-692114.785044
-555964.775833
-576391.433706
-596594.091580
-616892.749454
-637527.407327
-657634.065201
-678268.723075
-698871.380949
-718994.038822
-583020.029611
-603366.687485
-623793.345359
-644108.003232
-664374.661106
-684929.318980
-705419.976854
-725702.634727
-746369.292601
-609883.283390
-630469.941264
-650624.599138
-671003.257011
-691477.914885
-712160.572759
-732683.230632
-752725.888506
-773440.546380
-637082.537169
-657573.195043
-677855.852916
-698154.510790
-718613.168664
-739199.826537
-759882.484411
-780165.142285
-800879.800159
-664201.790948
-684516.448821
-705071.106695
-725753.764569
-746212.422442
-766639.080316
-787129.738190
-807636.396064
-828303.053937
-691481.044726
-712163.702600
-732494.360474
-753417.018348
-773667.676221
-794126.334095
-814712.991969
-835187.649842
-855854.307716
-719128.298505
-739666.956379
-760253.614253
-780728.272126
-801234.930000
-821885.587874
-842568.245747
-863026.903621
-883597.561495
-746839.552284
-767170.210158
-787756.868031
-808247.525905
-828946.183779
-849580.841652
-869991.499526
-890514.157400
-911308.815274
-774406.806063
-795185.463936
-815676.121810
-836118.779684
-856705.437557
-877212.095431
-897942.753305
-918401.411179
-939260.069052
-802390.059841
-822976.717715
-843291.375589
-863878.033463
-884608.691336
-905067.349210
-925702.007084
-946304.664957
-966891.322831
-830181.313620
-850831.971494
-871210.629368
-891829.287241
-912463.945115
-933098.602989
-953877.260862
-974367.918736
-994810.576610
-858004.567399
-878623.225273
-899097.883146
-919636.541020
-940415.198894
-961081.856767
-981636.514641
-1002111.172515
-1022825.830389
-886099.821178
-906574.479051
-927097.136925
-947795.794799
-968382.452673
-988985.110546
-1009587.768420
-1030190.426294
-1050889.084167
-914035.074956
-934685.732830
-955336.390704
-975699.048578
-996205.706451
-1016744.364325
-1037699.022199
-1058285.680072
-1078920.337946
-942130.328735
-962492.986609
-982951.644483
-1003682.302356
-1024364.960230
-1045111.618104
-1065666.275977
-1086172.933851
-1106727.591725
-970001.582514
-990252.240388
-1011222.898261
-1031745.556135
-1052428.214009
-1072806.871883
-1093617.529756
-1114172.187630
-1134822.845504
-998176.836293
-1018747.494166
-1039190.152040
-1059664.809914
-1080427.467788
-1101110.125661
-1121824.783535
-1142347.441409
-1162806.099282
-1026224.090071
-1046490.747945
-1067125.405819
-1087792.063693
-1108186.721566
-1129061.379440
-1149568.037314
-1170010.695187
-1190869.353061
-1053903.343850
-1074650.001724
-1095156.659598
-1115871.317471
-1136345.975345
-1156980.633219
-1177407.291093
-1198441.948966
-1218500.606840
-1081998.597629
-1102729.255503
-1122995.913376
-1143726.571250
-1164297.229124
-1184771.886998
-1205390.544871
-1226185.202745
-1246515.860619
-1109901.851408
-1130392.509281
-1151155.167155
-1171629.825029
-1192440.482903
-1212579.140776
-1233261.798650
-1253640.456524
-1274531.114397
-1137725.105186
-1158359.763060
-1178914.420934
-1199469.078808
-1219767.736681
-1240674.394555
-1261165.052429
-1281607.710303
-1302210.368176
-1165900.358965
-1186311.016839
-1206625.674713
-1227244.332586
-1247814.990460
-1268449.648334
-1288956.306208
-1309366.964081
-1329841.621955
-1193339.612744
-1214054.270618
-1234928.928491
-1255211.586365
-1275510.244239
-1296032.902113
-1316347.559986
-1337078.217860
-1357520.875734
-1221274.866523
-1241797.524396
-1262208.182270
-1282538.840144
-1303381.498018
-1323712.155891
-1344122.813765
-1364661.471639
-1385072.129513
-1249162.120301
-1269460.778175
-1289855.436049
-1310298.093923
-1330804.751796
-1351103.409670
-1371386.067544
-1392020.725418
-1412719.383291
-1276505.374080
-1297348.031954
-1317486.689828
-1337769.347701
-1358228.005575
-1378878.663449
-1399129.321323
-1419603.979196
-1439774.637070
-1304248.627859
-1324403.285733
-1344797.943606
-1365064.601480
-1385731.259354
-1405725.917228
-1426360.575101
-1446707.232975
-1467117.890849
-1331447.881638
-1352050.539511
-1372381.197385
-1392391.855259
-1413026.513133
-1433101.171006
-1453431.828880
-1473874.486754
-1494205.144628
-1358695.135417
-1378945.793290
-1399564.451164
-1419703.109038
-1440113.766911
-1460316.424785
-1480647.082659
-1501041.740533
-1521340.398406
-1386070.389195
-1406273.047069
-1426667.704943
-1446934.362816
-1467137.020690
-1487371.678564
-1507462.336438
-1527984.994311
-1548187.652185
-1413157.642974
-1433168.300848
-1453466.958721
-1473845.616595
-1493952.274469
-1514458.932343
-1534517.590216
-1554688.248090
-1575050.905964
-1440148.896753
-1460575.554627
-1480490.212500
-1500884.870374
-1520959.528248
-1541242.186121
-1561220.843995
-1581599.501869
-1601642.159743
SCALARS stress_3 float
LOOKUP_TABLE default
52526.211196
3396369.377218
3348318.137643
3300090.898067
3251759.658492
3202980.418917
3154009.179342
3104869.939766
3055554.700191
3005967.460616
2956300.221040
2906240.981465
2856117.741890
2805810.502315
2755287.262739
2704828.023164
2654008.783589
2603229.544014
2552442.304438
2501455.064863
2450507.825288
2399432.585712
2348421.346137
2297234.106562
2246134.866987
2195219.627411
2144256.387836
2093357.148261
2042609.908685
1991958.669110
1941491.429535
1890992.189960
1840788.950384
1790817.710809
1740950.471234
1691459.231658
1642111.992083
1593124.752508
1544465.512933
1496150.273357
1448251.033782
1400679.794207
1353212.554632
1306561.315056
1260190.075481
1214402.835906
1168983.596330
1124076.356755
1079857.117180
1036101.877605
993010.638029
950519.398454
908636.158879
867528.919303
826893.679728
787146.440153
747927.200578
709651.961002
672120.721427
635333.481852
599322.242277
564239.002701
529771.763126
496304.523551
463781.283975
432106.044400
401222.804825
371299.565250
342272.325674
314301.086099
287113.846524
261054.606948
235875.367373
211536.127798
188092.888223
165745.648647
144558.409072
124155.169497
104759.929921
86372.690346
68945.450771
3308870.899194
-28100.266829
-12289.027254
4594.212322
22365.451897
41176.691472
60835.931048
81567.170623
103402.410198
125949.649773
149712.889349
174492.128924
200071.368499
226730.608075
254357.847650
282881.087225
312276.326800
342703.566376
373986.805951
406190.045526
439353.285102
473316.524677
508151.764252
543827.003827
580286.243403
617593.482978
655740.722553
694607.962128
734275.201704
774462.441279
815545.680854
857068.920430
899544.160005
942419.399580
985934.639155
1030241.878731
1074909.118306
1120208.357881
1165987.597457
1212286.837032
1258970.076607
1306085.316182
1353768.555758
1401731.795333
1450191.034908
1498962.274484
1547749.514059
1597144.753634
1646795.993209
1696719.232785
1746818.472360
1797029.711935
1847640.951510
1898284.191086
1948999.430661
1999986.670236
2051037.909812
2102089.149387
2153308.388962
2204439.628537
2255802.868113
2306870.107688
2358209.347263
2409396.586839
2460583.826414
2511603.065989
2562662.305564
2613561.545140
2664420.784715
2715024.024290
2765571.263866
2816078.503441
2866281.743016
2916340.982591
2966008.222167
3015819.461742
3065174.701317
3114553.940892
3163413.180468
3212176.420043
3260675.659618
3317647.146996
3326335.394798
3335063.642601
3343871.890403
3352696.138206
3361240.386008
3370056.633811
3378904.881613
3387449.129416
44157.963393
35941.715591
27909.467788
19805.219986
11644.972183
3652.724381
-4355.523421
-12251.771224
-20196.019026
-4360.779451
3783.468351
11719.716154
19751.963956
27760.211759
35984.459561
44232.707364
52408.955166
60593.202968
12610.460124
20634.707927
28506.955729
36795.203532
44915.451334
53067.699136
61435.946939
69700.194741
77932.442544
30469.699699
38565.947502
46710.195304
54766.443107
63126.690909
71366.938712
79671.186514
88047.434317
96383.682119
49288.939275
57369.187077
65529.434880
73761.682682
82089.930485
90490.178287
98898.426089
107234.673892
115698.921694
69052.178850
77252.426652
85548.674455
93884.922257
102341.170060
110533.417862
119125.665665
127509.913467
136014.161270
89959.418425
98095.666228
106359.914030
114768.161833
123160.409635
131744.657438
140216.905240
148729.153042
157353.400845
111610.658001
119882.905803
128283.153605
136819.401408
145259.649210
153723.897013
162324.144815
170780.392618
179580.640420
134373.897576
142822.145378
151126.393181
159726.640983
168158.888786
176799.136588
185495.384391
194143.632193
202751.879995
158233.137151
166537.384954
175145.632756
183633.880558
192274.128361
200858.376163
209538.623966
218130.871768
226955.119571
182900.376726
191332.624529
199924.872331
208517.120134
217173.367936
225901.615739
234493.863541
243382.111344
252078.359146
208591.616302
217087.864104
225632.111907
234432.359709
243176.607511
251704.855314
260561.103116
269489.350919
278225.598721
235274.855877
243827.103679
252659.351482
261171.599284
269955.847087
278684.094889
287564.342692
296492.590494
305284.838297
262918.095452
271534.343255
280270.591057
288918.838860
297775.086662
306719.334464
315559.582267
324367.830069
333320.077872
291353.335028
300233.582830
308777.830632
317698.078435
326530.326237
335426.574040
344402.821842
353227.069645
362307.317447
320908.574603
329708.822405
338421.070208
347397.318010
356261.565813
365213.813615
374174.061417
383150.309220
392190.557022
351375.814178
360328.061981
369056.309783
377896.557585
386952.805388
395753.053190
404825.300993
413937.548795
423041.796598
382739.053753
391563.301556
400635.549358
409379.797161
418380.044963
427324.292766
436428.540568
445492.788370
454693.036173
415014.293329
423942.541131
432862.788934
441735.036736
450871.284538
459743.532341
468927.780143
478008.027946
487024.275748
448281.532904
457089.780706
466034.028509
475130.276311
484026.524114
493130.771916
502331.019719
511411.267521
520611.515323
482244.772479
491181.020282
500157.268084
509269.515887
518293.763689
527390.011491
536510.259294
545646.507096
554878.754899
517096.012055
526056.259857
535072.507659
544232.755462
553305.003264
562417.251067
571569.498869
580737.746672
590025.994474
552827.251630
561843.499432
571051.747235
580035.995037
589116.242840
598324.490642
607508.738444
616780.986247
626077.234049
589478.491205
598374.739008
607478.986810
616599.234612
625775.482415
634927.730217
644191.978020
653432.225822
662832.473625
626577.730780
635881.978583
644778.226385
654082.474188
663282.721990
672498.969793
681771.217595
690907.465397
700331.713200
664820.970356
673909.218158
682957.465961
692101.713763
701629.961565
710662.209368
720014.457170
729254.704973
738686.952775
703688.209931
712864.457733
722064.705536
731152.953338
740561.201141
749785.448943
759041.696746
768425.944548
777762.192350
743355.449506
752459.697309
761691.945111
770868.192914
780116.440716
789468.688518
798804.936321
808085.184123
817485.431926
783606.689081
792742.936884
801927.184686
811287.432489
820543.680291
829903.928094
839104.175896
848496.423699
858024.671501
824713.928657
833834.176459
843282.424262
852274.672064
861578.919867
871019.167669
880379.415471
889803.663274
899179.911076
866397.168232
875533.416034
884789.663837
894189.911639
903470.159442
912734.407244
922110.655047
931630.902849
940967.150652
908720.407807
917968.655610
927248.903412
936601.151215
945777.399017
955321.646820
964777.894622
974146.142424
983586.390227
951675.647383
961035.895185
970156.142987
979572.390790
989020.638592
998228.886395
1007717.134197
1017117.382000
1026669.629802
995214.886958
1004503.134760
1013823.382563
1023247.630365
1032551.878168
1042096.125970
1051408.373773
1060904.621575
1070312.869377
1039450.126533
1048754.374336
1057986.622138
1067418.869940
1076859.117743
1086187.365545
1095659.613348
1105067.861150
1114700.108953
1084189.366108
1093477.613911
1102781.861713
1112318.109516
1121590.357318
1131070.605121
1140454.852923
1150031.100726
1159359.348528
1129528.605684
1138912.853486
1148177.101289
1157521.349091
1166833.596893
1176297.844696
1185882.092498
1195346.340301
1204834.588103
1175195.845259
1184572.093061
1194028.340864
1203292.588666
1212756.836469
1222253.084271
1231661.332074
1241109.579876
1250709.827679
1221607.084834
1230831.332637
1240231.580439
1249679.828242
1258968.076044
1268376.323846
1278064.571649
1287408.819451
1297017.067254
1268330.324410
1277698.572212
1287034.820014
1296355.067817
1305843.315619
1315235.563422
1324755.811224
1334276.059027
1343636.306829
1315437.563985
1324853.811787
1334158.059590
1343662.307392
1353094.555195
1362374.802997
1371839.050799
1381487.298602
1391103.546404
1363080.803560
1372353.051363
1381721.299165
1391233.546967
1400601.794770
1410130.042572
1419602.290375
1429146.538177
1438490.785980
1411132.043135
1420348.290938
1429732.538740
1439172.786543
1448525.034345
1458133.282148
1467733.529950
1477021.777752
1486614.025555
1459447.282711
1468895.530513
1478151.778316
1487616.026118
1497024.273920
1506584.521723
1516000.769525
1525529.017328
1535001.265130
1508330.522286
1517674.770088
1526827.017891
1536171.265693
1545843.513496
1555235.761298
1564604.009101
1574004.256903
1583644.504705
1557253.761861
1566518.009664
1575926.257466
1585454.505269
1594710.753071
1604319.000873
1613671.248676
1623167.496478
1632679.744281
1606577.001437
1615913.249239
1625241.497041
1634577.744844
1643993.992646
1653642.240449
1662914.488251
1672450.736054
1681954.983856
1656156.241012
1665540.488814
1674924.736617
1684228.984419
1693653.232222
1703197.480024
1712605.727826
1722085.975629
1731542.223431
1706039.480587
1715431.728390
1724711.976192
1734136.223994
1743488.471797
1752976.719599
1762376.967402
1771801.215204
1781297.463007
1756058.720162
1765514.967965
1774811.215767
1784147.463570
1793507.711372
1802955.959175
1812428.206977
1821884.454779
1831388.702582
1806429.959738
1815854.207540
1825086.455343
1834558.703145
1843742.950947
1853271.198750
1862759.446552
1872167.694355
1881495.942157
1856849.199313
1866137.447115
1875537.694918
1884969.942720
1894354.190523
1903698.438325
1913034.686128
1922554.933930
1932019.181732
1907508.438888
1916836.686691
1926164.934493
1935597.182296
1944893.430098
1954381.677900
1963693.925703
1973174.173505
1982518.421308
1958343.678463
1967711.926266
1977016.174068
1986448.421871
1995648.669673
2005056.917476
2014481.165278
2023889.413081
2033273.660883
2009322.918039
2018515.165841
2027939.413644
2037131.661446
2046603.909249
2055780.157051
2065292.404853
2074508.652656
2084084.900458
2060222.157614
2069486.405416
2078934.653219
2088174.901021
2097431.148824
2106767.396626
2116247.644429
2125511.892231
2134920.140034
2111281.397189
2120521.644992
2129905.892794
2139210.140597
2148506.388399
2157898.636202
2167242.884004
2176523.131806
2185899.379609
2162564.636765
2171780.884567
2181037.132369
2190293.380172
2199653.627974
2208805.875777
2218190.123579
2227566.371382
2236862.619184
2213855.876340
2222896.124142
2232216.371945
2241576.619747
2250784.867550
2260033.115352
2269313.363155
2278697.610957
2288033.858759
2264867.115915
2274043.363718
2283411.611520
2292707.859322
2301932.107125
2311252.354927
2320388.602730
2329724.850532
2339077.098335
2316190.355490
2325486.603293
2334606.851095
2343863.098898
2353111.346700
2362359.594503
2371567.842305
2380816.090108
2390200.337910
2367385.595066
2376601.842868
2385890.090671
2395122.338473
2404258.586275
2413434.834078
2422755.081880
2432003.329683
2441283.577485
2418500.834641
2427813.082443
2436989.330246
2446133.578048
2455277.825851
2464630.073653
2473774.321456
2483110.569258
2492310.817061
2469576.074216
2478888.322019
2488152.569821
2497200.817624
2506473.065426
2515617.313228
2524817.561031
2534001.808833
2543290.056636
2520875.313792
2529907.561594
2539203.809396
2548268.057199
2557476.305001
2566556.552804
2575740.800606
2585013.048409
2594173.296211
2571814.553367
2580958.801169
2589999.048972
2599183.296774
2608351.544577
2617439.792379
2626720.040181
2635760.287984
2645000.535786
2622721.792942
2631794.040745
2640954.288547
2650058.536349
2659058.784152
2668275.031954
2677395.279757
2686523.527559
2695651.775362
2673485.032517
2682605.280320
2691709.528122
2700685.775925
2709830.023727
2718974.271530
2728038.519332
2737102.767134
2746119.014937
2724040.272093
2733176.519895
2742328.767698
2751465.015500
2760401.263302
2769489.511105
2778513.758907
2787602.006710
2796642.254512
2774667.511668
2783571.759470
2792868.007273
2801780.255075
2810932.502878
2819884.750680
2828996.998483
2838029.246285
2847101.494087
2825086.751243
2834006.999046
2843063.246848
2852071.494651
2861167.742453
2870103.990255
2879200.238058
2888176.485860
2897248.733663
2875297.990819
2884122.238621
2893290.486423
2902194.734226
2911274.982028
2920211.229831
2929267.477633
2938187.725436
2947123.973238
2925325.230394
2934253.478196
2943277.725999
2952109.973801
2961158.221604
2970126.469406
2979150.717208
2988014.965011
2997047.212813
2975064.469969
2984040.717772
2993088.965574
3001929.213376
3010865.461179
3019849.708981
3028713.956784
3037634.204586
3046682.452389
3024779.709544
3033683.957347
3042524.205149
3051460.452952
3060476.700754
3069324.948557
3078301.196359
3087157.444161
3095981.691964
3074086.949120
3083007.196922
3091887.444725
3100791.692527
3109559.940329
3118720.188132
3127464.435934
3136360.683737
3145160.931539
3123274.188695
3132106.436497
3141042.684300
3149946.932102
3158827.179905
3167563.427707
3176571.675510
3185363.923312
3194108.171114
3172269.428270
3181045.676073
3189973.923875
3198814.171678
3207638.419480
3216406.667282
3225374.915085
3234135.162887
3242887.410690
3220936.667845
3229752.915648
3238609.163450
3247401.411253
3256241.659055
3265121.906858
3273858.154660
3282634.402463
3291362.650265
3269435.907421
3278196.155223
3286964.403026
3295772.650828
3304484.898631
3313333.146433
3322029.394235
3330853.642038
3339613.889840
