# vtk DataFile Version 2.0
Generated volume Mesh
ASCII
DATASET UNSTRUCTURED_GRID
POINTS 891 float
0.005000 0.100000 0.000000
0.005000 0.000000 0.000000
0.005000 0.001250 0.000000
0.005000 0.002500 0.000000
0.005000 0.003750 0.000000
0.005000 0.005000 0.000000
0.005000 0.006250 0.000000
0.005000 0.007500 0.000000
0.005000 0.008750 0.000000
0.005000 0.010000 0.000000
0.005000 0.011250 0.000000
0.005000 0.012500 0.000000
0.005000 0.013750 0.000000
0.005000 0.015000 0.000000
0.005000 0.016250 0.000000
0.005000 0.017500 0.000000
0.005000 0.018750 0.000000
0.005000 0.020000 0.000000
0.005000 0.021250 0.000000
0.005000 0.022500 0.000000
0.005000 0.023750 0.000000
0.005000 0.025000 0.000000
0.005000 0.026250 0.000000
0.005000 0.027500 0.000000
0.005000 0.028750 0.000000
0.005000 0.030000 0.000000
0.005000 0.031250 0.000000
0.005000 0.032500 0.000000
0.005000 0.033750 0.000000
0.005000 0.035000 0.000000
0.005000 0.036250 0.000000
0.005000 0.037500 0.000000
0.005000 0.038750 0.000000
0.005000 0.040000 0.000000
0.005000 0.041250 0.000000
0.005000 0.042500 0.000000
0.005000 0.043750 0.000000
0.005000 0.045000 0.000000
0.005000 0.046250 0.000000
0.005000 0.047500 0.000000
0.005000 0.048750 0.000000
0.005000 0.050000 0.000000
0.005000 0.051250 0.000000
0.005000 0.052500 0.000000
0.005000 0.053750 0.000000
0.005000 0.055000 0.000000
0.005000 0.056250 0.000000
0.005000 0.057500 0.000000
0.005000 0.058750 0.000000
0.005000 0.060000 0.000000
0.005000 0.061250 0.000000
0.005000 0.062500 0.000000
0.005000 0.063750 0.000000
0.005000 0.065000 0.000000
0.005000 0.066250 0.000000
0.005000 0.067500 0.000000
0.005000 0.068750 0.000000
0.005000 0.070000 0.000000
0.005000 0.071250 0.000000
0.005000 0.072500 0.000000
0.005000 0.073750 0.000000
0.005000 0.075000 0.000000
0.005000 0.076250 0.000000
0.005000 0.077500 0.000000
0.005000 0.078750 0.000000
0.005000 0.080000 0.000000
0.005000 0.081250 0.000000
0.005000 0.082500 0.000000
0.005000 0.083750 0.000000
0.005000 0.085000 0.000000
0.005000 0.086250 0.000000
0.005000 0.087500 0.000000
0.005000 0.088750 0.000000
0.005000 0.090000 0.000000
0.005000 0.091250 0.000000
0.005000 0.092500 0.000000
0.005000 0.093750 0.000000
0.005000 0.095000 0.000000
0.005000 0.096250 0.000000
0.005000 0.097500 0.000000
0.005000 0.098750 0.000000
0.000000 0.000000 0.000000
0.000000 0.100000 0.000000
0.000000 0.098750 0.000000
0.000000 0.097500 0.000000
0.000000 0.096250 0.000000
0.000000 0.095000 0.000000
0.000000 0.093750 0.000000
0.000000 0.092500 0.000000
0.000000 0.091250 0.000000
0.000000 0.090000 0.000000
0.000000 0.088750 0.000000
0.000000 0.087500 0.000000
0.000000 0.086250 0.000000
0.000000 0.085000 0.000000
0.000000 0.083750 0.000000
0.000000 0.082500 0.000000
0.000000 0.081250 0.000000
0.000000 0.080000 0.000000
0.000000 0.078750 0.000000
0.000000 0.077500 0.000000
0.000000 0.076250 0.000000
0.000000 0.075000 0.000000
0.000000 0.073750 0.000000
0.000000 0.072500 0.000000
0.000000 0.071250 0.000000
0.000000 0.070000 0.000000
0.000000 0.068750 0.000000
0.000000 0.067500 0.000000
0.000000 0.066250 0.000000
0.000000 0.065000 0.000000
0.000000 0.063750 0.000000
0.000000 0.062500 0.000000
0.000000 0.061250 0.000000
0.000000 0.060000 0.000000
0.000000 0.058750 0.000000
0.000000 0.057500 0.000000
0.000000 0.056250 0.000000
0.000000 0.055000 0.000000
0.000000 0.053750 0.000000
0.000000 0.052500 0.000000
0.000000 0.051250 0.000000
0.000000 0.050000 0.000000
0.000000 0.048750 0.000000
0.000000 0.047500 0.000000
0.000000 0.046250 0.000000
0.000000 0.045000 0.000000
0.000000 0.043750 0.000000
0.000000 0.042500 0.000000
0.000000 0.041250 0.000000
0.000000 0.040000 0.000000
0.000000 0.038750 0.000000
0.000000 0.037500 0.000000
0.000000 0.036250 0.000000
0.000000 0.035000 0.000000
0.000000 0.033750 0.000000
0.000000 0.032500 0.000000
0.000000 0.031250 0.000000
0.000000 0.030000 0.000000
0.000000 0.028750 0.000000
0.000000 0.027500 0.000000
0.000000 0.026250 0.000000
0.000000 0.025000 0.000000
0.000000 0.023750 0.000000
0.000000 0.022500 0.000000
0.000000 0.021250 0.000000
0.000000 0.020000 0.000000
0.000000 0.018750 0.000000
0.000000 0.017500 0.000000
0.000000 0.016250 0.000000
0.000000 0.015000 0.000000
0.000000 0.013750 0.000000
0.000000 0.012500 0.000000
0.000000 0.011250 0.000000
0.000000 0.010000 0.000000
0.000000 0.008750 0.000000
0.000000 0.007500 0.000000
0.000000 0.006250 0.000000
0.000000 0.005000 0.000000
0.000000 0.003750 0.000000
0.000000 0.002500 0.000000
0.000000 0.001250 0.000000
0.000500 0.000000 0.000000
0.001000 0.000000 0.000000
0.001500 0.000000 0.000000
0.002000 0.000000 0.000000
0.002500 0.000000 0.000000
0.003000 0.000000 0.000000
0.003500 0.000000 0.000000
0.004000 0.000000 0.000000
0.004500 0.000000 0.000000
0.004500 0.100000 0.000000
0.004000 0.100000 0.000000
0.003500 0.100000 0.000000
0.003000 0.100000 0.000000
0.002500 0.100000 0.000000
0.002000 0.100000 0.000000
0.001500 0.100000 0.000000
0.001000 0.100000 0.000000
0.000500 0.100000 0.000000
0.000500 0.098750 0.000000
0.001000 0.098750 0.000000
0.001500 0.098750 0.000000
0.002000 0.098750 0.000000
0.002500 0.098750 0.000000
0.003000 0.098750 0.000000
0.003500 0.098750 0.000000
0.004000 0.098750 0.000000
0.004500 0.098750 0.000000
0.000500 0.097500 0.000000
0.001000 0.097500 0.000000
0.001500 0.097500 0.000000
0.002000 0.097500 0.000000
0.002500 0.097500 0.000000
0.003000 0.097500 0.000000
0.003500 0.097500 0.000000
0.004000 0.097500 0.000000
0.004500 0.097500 0.000000
0.000500 0.096250 0.000000
0.001000 0.096250 0.000000
0.001500 0.096250 0.000000
0.002000 0.096250 0.000000
0.002500 0.096250 0.000000
0.003000 0.096250 0.000000
0.003500 0.096250 0.000000
0.004000 0.096250 0.000000
0.004500 0.096250 0.000000
0.000500 0.095000 0.000000
0.001000 0.095000 0.000000
0.001500 0.095000 0.000000
0.002000 0.095000 0.000000
0.002500 0.095000 0.000000
0.003000 0.095000 0.000000
0.003500 0.095000 0.000000
0.004000 0.095000 0.000000
0.004500 0.095000 0.000000
0.000500 0.093750 0.000000
0.001000 0.093750 0.000000
0.001500 0.093750 0.000000
0.002000 0.093750 0.000000
0.002500 0.093750 0.000000
0.003000 0.093750 0.000000
0.003500 0.093750 0.000000
0.004000 0.093750 0.000000
0.004500 0.093750 0.000000
0.000500 0.092500 0.000000
0.001000 0.092500 0.000000
0.001500 0.092500 0.000000
0.002000 0.092500 0.000000
0.002500 0.092500 0.000000
0.003000 0.092500 0.000000
0.003500 0.092500 0.000000
0.004000 0.092500 0.000000
0.004500 0.092500 0.000000
0.000500 0.091250 0.000000
0.001000 0.091250 0.000000
0.001500 0.091250 0.000000
0.002000 0.091250 0.000000
0.002500 0.091250 0.000000
0.003000 0.091250 0.000000
0.003500 0.091250 0.000000
0.004000 0.091250 0.000000
0.004500 0.091250 0.000000
0.000500 0.090000 0.000000
0.001000 0.090000 0.000000
0.001500 0.090000 0.000000
0.002000 0.090000 0.000000
0.002500 0.090000 0.000000
0.003000 0.090000 0.000000
0.003500 0.090000 0.000000
0.004000 0.090000 0.000000
0.004500 0.090000 0.000000
0.000500 0.088750 0.000000
0.001000 0.088750 0.000000
0.001500 0.088750 0.000000
0.002000 0.088750 0.000000
0.002500 0.088750 0.000000
0.003000 0.088750 0.000000
0.003500 0.088750 0.000000
0.004000 0.088750 0.000000
0.004500 0.088750 0.000000
0.000500 0.087500 0.000000
0.001000 0.087500 0.000000
0.001500 0.087500 0.000000
0.002000 0.087500 0.000000
0.002500 0.087500 0.000000
0.003000 0.087500 0.000000
0.003500 0.087500 0.000000
0.004000 0.087500 0.000000
0.004500 0.087500 0.000000
0.000500 0.086250 0.000000
0.001000 0.086250 0.000000
0.001500 0.086250 0.000000
0.002000 0.086250 0.000000
0.002500 0.086250 0.000000
0.003000 0.086250 0.000000
0.003500 0.086250 0.000000
0.004000 0.086250 0.000000
0.004500 0.086250 0.000000
0.000500 0.085000 0.000000
0.001000 0.085000 0.000000
0.001500 0.085000 0.000000
0.002000 0.085000 0.000000
0.002500 0.085000 0.000000
0.003000 0.085000 0.000000
0.003500 0.085000 0.000000
0.004000 0.085000 0.000000
0.004500 0.085000 0.000000
0.000500 0.083750 0.000000
0.001000 0.083750 0.000000
0.001500 0.083750 0.000000
0.002000 0.083750 0.000000
0.002500 0.083750 0.000000
0.003000 0.083750 0.000000
0.003500 0.083750 0.000000
0.004000 0.083750 0.000000
0.004500 0.083750 0.000000
0.000500 0.082500 0.000000
0.001000 0.082500 0.000000
0.001500 0.082500 0.000000
0.002000 0.082500 0.000000
0.002500 0.082500 0.000000
0.003000 0.082500 0.000000
0.003500 0.082500 0.000000
0.004000 0.082500 0.000000
0.004500 0.082500 0.000000
0.000500 0.081250 0.000000
0.001000 0.081250 0.000000
0.001500 0.081250 0.000000
0.002000 0.081250 0.000000
0.002500 0.081250 0.000000
0.003000 0.081250 0.000000
0.003500 0.081250 0.000000
0.004000 0.081250 0.000000
0.004500 0.081250 0.000000
0.000500 0.080000 0.000000
0.001000 0.080000 0.000000
0.001500 0.080000 0.000000
0.002000 0.080000 0.000000
0.002500 0.080000 0.000000
0.003000 0.080000 0.000000
0.003500 0.080000 0.000000
0.004000 0.080000 0.000000
0.004500 0.080000 0.000000
0.000500 0.078750 0.000000
0.001000 0.078750 0.000000
0.001500 0.078750 0.000000
0.002000 0.078750 0.000000
0.002500 0.078750 0.000000
0.003000 0.078750 0.000000
0.003500 0.078750 0.000000
0.004000 0.078750 0.000000
0.004500 0.078750 0.000000
0.000500 0.077500 0.000000
0.001000 0.077500 0.000000
0.001500 0.077500 0.000000
0.002000 0.077500 0.000000
0.002500 0.077500 0.000000
0.003000 0.077500 0.000000
0.003500 0.077500 0.000000
0.004000 0.077500 0.000000
0.004500 0.077500 0.000000
0.000500 0.076250 0.000000
0.001000 0.076250 0.000000
0.001500 0.076250 0.000000
0.002000 0.076250 0.000000
0.002500 0.076250 0.000000
0.003000 0.076250 0.000000
0.003500 0.076250 0.000000
0.004000 0.076250 0.000000
0.004500 0.076250 0.000000
0.000500 0.075000 0.000000
0.001000 0.075000 0.000000
0.001500 0.075000 0.000000
0.002000 0.075000 0.000000
0.002500 0.075000 0.000000
0.003000 0.075000 0.000000
0.003500 0.075000 0.000000
0.004000 0.075000 0.000000
0.004500 0.075000 0.000000
0.000500 0.073750 0.000000
0.001000 0.073750 0.000000
0.001500 0.073750 0.000000
0.002000 0.073750 0.000000
0.002500 0.073750 0.000000
0.003000 0.073750 0.000000
0.003500 0.073750 0.000000
0.004000 0.073750 0.000000
0.004500 0.073750 0.000000
0.000500 0.072500 0.000000
0.001000 0.072500 0.000000
0.001500 0.072500 0.000000
0.002000 0.072500 0.000000
0.002500 0.072500 0.000000
0.003000 0.072500 0.000000
0.003500 0.072500 0.000000
0.004000 0.072500 0.000000
0.004500 0.072500 0.000000
0.000500 0.071250 0.000000
0.001000 0.071250 0.000000
0.001500 0.071250 0.000000
0.002000 0.071250 0.000000
0.002500 0.071250 0.000000
0.003000 0.071250 0.000000
0.003500 0.071250 0.000000
0.004000 0.071250 0.000000
0.004500 0.071250 0.000000
0.000500 0.070000 0.000000
0.001000 0.070000 0.000000
0.001500 0.070000 0.000000
0.002000 0.070000 0.000000
0.002500 0.070000 0.000000
0.003000 0.070000 0.000000
0.003500 0.070000 0.000000
0.004000 0.070000 0.000000
0.004500 0.070000 0.000000
0.000500 0.068750 0.000000
0.001000 0.068750 0.000000
0.001500 0.068750 0.000000
0.002000 0.068750 0.000000
0.002500 0.068750 0.000000
0.003000 0.068750 0.000000
0.003500 0.068750 0.000000
0.004000 0.068750 0.000000
0.004500 0.068750 0.000000
0.000500 0.067500 0.000000
0.001000 0.067500 0.000000
0.001500 0.067500 0.000000
0.002000 0.067500 0.000000
0.002500 0.067500 0.000000
0.003000 0.067500 0.000000
0.003500 0.067500 0.000000
0.004000 0.067500 0.000000
0.004500 0.067500 0.000000
0.000500 0.066250 0.000000
0.001000 0.066250 0.000000
0.001500 0.066250 0.000000
0.002000 0.066250 0.000000
0.002500 0.066250 0.000000
0.003000 0.066250 0.000000
0.003500 0.066250 0.000000
0.004000 0.066250 0.000000
0.004500 0.066250 0.000000
0.000500 0.065000 0.000000
0.001000 0.065000 0.000000
0.001500 0.065000 0.000000
0.002000 0.065000 0.000000
0.002500 0.065000 0.000000
0.003000 0.065000 0.000000
0.003500 0.065000 0.000000
0.004000 0.065000 0.000000
0.004500 0.065000 0.000000
0.000500 0.063750 0.000000
0.001000 0.063750 0.000000
0.001500 0.063750 0.000000
0.002000 0.063750 0.000000
0.002500 0.063750 0.000000
0.003000 0.063750 0.000000
0.003500 0.063750 0.000000
0.004000 0.063750 0.000000
0.004500 0.063750 0.000000
0.000500 0.062500 0.000000
0.001000 0.062500 0.000000
0.001500 0.062500 0.000000
0.002000 0.062500 0.000000
0.002500 0.062500 0.000000
0.003000 0.062500 0.000000
0.003500 0.062500 0.000000
0.004000 0.062500 0.000000
0.004500 0.062500 0.000000
0.000500 0.061250 0.000000
0.001000 0.061250 0.000000
0.001500 0.061250 0.000000
0.002000 0.061250 0.000000
0.002500 0.061250 0.000000
0.003000 0.061250 0.000000
0.003500 0.061250 0.000000
0.004000 0.061250 0.000000
0.004500 0.061250 0.000000
0.000500 0.060000 0.000000
0.001000 0.060000 0.000000
0.001500 0.060000 0.000000
0.002000 0.060000 0.000000
0.002500 0.060000 0.000000
0.003000 0.060000 0.000000
0.003500 0.060000 0.000000
0.004000 0.060000 0.000000
0.004500 0.060000 0.000000
0.000500 0.058750 0.000000
0.001000 0.058750 0.000000
0.001500 0.058750 0.000000
0.002000 0.058750 0.000000
0.002500 0.058750 0.000000
0.003000 0.058750 0.000000
0.003500 0.058750 0.000000
0.004000 0.058750 0.000000
0.004500 0.058750 0.000000
0.000500 0.057500 0.000000
0.001000 0.057500 0.000000
0.001500 0.057500 0.000000
0.002000 0.057500 0.000000
0.002500 0.057500 0.000000
0.003000 0.057500 0.000000
0.003500 0.057500 0.000000
0.004000 0.057500 0.000000
0.004500 0.057500 0.000000
0.000500 0.056250 0.000000
0.001000 0.056250 0.000000
0.001500 0.056250 0.000000
0.002000 0.056250 0.000000
0.002500 0.056250 0.000000
0.003000 0.056250 0.000000
0.003500 0.056250 0.000000
0.004000 0.056250 0.000000
0.004500 0.056250 0.000000
0.000500 0.055000 0.000000
0.001000 0.055000 0.000000
0.001500 0.055000 0.000000
0.002000 0.055000 0.000000
0.002500 0.055000 0.000000
0.003000 0.055000 0.000000
0.003500 0.055000 0.000000
0.004000 0.055000 0.000000
0.004500 0.055000 0.000000
0.000500 0.053750 0.000000
0.001000 0.053750 0.000000
0.001500 0.053750 0.000000
0.002000 0.053750 0.000000
0.002500 0.053750 0.000000
0.003000 0.053750 0.000000
0.003500 0.053750 0.000000
0.004000 0.053750 0.000000
0.004500 0.053750 0.000000
0.000500 0.052500 0.000000
0.001000 0.052500 0.000000
0.001500 0.052500 0.000000
0.002000 0.052500 0.000000
0.002500 0.052500 0.000000
0.003000 0.052500 0.000000
0.003500 0.052500 0.000000
0.004000 0.052500 0.000000
0.004500 0.052500 0.000000
0.000500 0.051250 0.000000
0.001000 0.051250 0.000000
0.001500 0.051250 0.000000
0.002000 0.051250 0.000000
0.002500 0.051250 0.000000
0.003000 0.051250 0.000000
0.003500 0.051250 0.000000
0.004000 0.051250 0.000000
0.004500 0.051250 0.000000
0.000500 0.050000 0.000000
0.001000 0.050000 0.000000
0.001500 0.050000 0.000000
0.002000 0.050000 0.000000
0.002500 0.050000 0.000000
0.003000 0.050000 0.000000
0.003500 0.050000 0.000000
0.004000 0.050000 0.000000
0.004500 0.050000 0.000000
0.000500 0.048750 0.000000
0.001000 0.048750 0.000000
0.001500 0.048750 0.000000
0.002000 0.048750 0.000000
0.002500 0.048750 0.000000
0.003000 0.048750 0.000000
0.003500 0.048750 0.000000
0.004000 0.048750 0.000000
0.004500 0.048750 0.000000
0.000500 0.047500 0.000000
0.001000 0.047500 0.000000
0.001500 0.047500 0.000000
0.002000 0.047500 0.000000
0.002500 0.047500 0.000000
0.003000 0.047500 0.000000
0.003500 0.047500 0.000000
0.004000 0.047500 0.000000
0.004500 0.047500 0.000000
0.000500 0.046250 0.000000
0.001000 0.046250 0.000000
0.001500 0.046250 0.000000
0.002000 0.046250 0.000000
0.002500 0.046250 0.000000
0.003000 0.046250 0.000000
0.003500 0.046250 0.000000
0.004000 0.046250 0.000000
0.004500 0.046250 0.000000
0.000500 0.045000 0.000000
0.001000 0.045000 0.000000
0.001500 0.045000 0.000000
0.002000 0.045000 0.000000
0.002500 0.045000 0.000000
0.003000 0.045000 0.000000
0.003500 0.045000 0.000000
0.004000 0.045000 0.000000
0.004500 0.045000 0.000000
0.000500 0.043750 0.000000
0.001000 0.043750 0.000000
0.001500 0.043750 0.000000
0.002000 0.043750 0.000000
0.002500 0.043750 0.000000
0.003000 0.043750 0.000000
0.003500 0.043750 0.000000
0.004000 0.043750 0.000000
0.004500 0.043750 0.000000
0.000500 0.042500 0.000000
0.001000 0.042500 0.000000
0.001500 0.042500 0.000000
0.002000 0.042500 0.000000
0.002500 0.042500 0.000000
0.003000 0.042500 0.000000
0.003500 0.042500 0.000000
0.004000 0.042500 0.000000
0.004500 0.042500 0.000000
0.000500 0.041250 0.000000
0.001000 0.041250 0.000000
0.001500 0.041250 0.000000
0.002000 0.041250 0.000000
0.002500 0.041250 0.000000
0.003000 0.041250 0.000000
0.003500 0.041250 0.000000
0.004000 0.041250 0.000000
0.004500 0.041250 0.000000
0.000500 0.040000 0.000000
0.001000 0.040000 0.000000
0.001500 0.040000 0.000000
0.002000 0.040000 0.000000
0.002500 0.040000 0.000000
0.003000 0.040000 0.000000
0.003500 0.040000 0.000000
0.004000 0.040000 0.000000
0.004500 0.040000 0.000000
0.000500 0.038750 0.000000
0.001000 0.038750 0.000000
0.001500 0.038750 0.000000
0.002000 0.038750 0.000000
0.002500 0.038750 0.000000
0.003000 0.038750 0.000000
0.003500 0.038750 0.000000
0.004000 0.038750 0.000000
0.004500 0.038750 0.000000
0.000500 0.037500 0.000000
0.001000 0.037500 0.000000
0.001500 0.037500 0.000000
0.002000 0.037500 0.000000
0.002500 0.037500 0.000000
0.003000 0.037500 0.000000
0.003500 0.037500 0.000000
0.004000 0.037500 0.000000
0.004500 0.037500 0.000000
0.000500 0.036250 0.000000
0.001000 0.036250 0.000000
0.001500 0.036250 0.000000
0.002000 0.036250 0.000000
0.002500 0.036250 0.000000
0.003000 0.036250 0.000000
0.003500 0.036250 0.000000
0.004000 0.036250 0.000000
0.004500 0.036250 0.000000
0.000500 0.035000 0.000000
0.001000 0.035000 0.000000
0.001500 0.035000 0.000000
0.002000 0.035000 0.000000
0.002500 0.035000 0.000000
0.003000 0.035000 0.000000
0.003500 0.035000 0.000000
0.004000 0.035000 0.000000
0.004500 0.035000 0.000000
0.000500 0.033750 0.000000
0.001000 0.033750 0.000000
0.001500 0.033750 0.000000
0.002000 0.033750 0.000000
0.002500 0.033750 0.000000
0.003000 0.033750 0.000000
0.003500 0.033750 0.000000
0.004000 0.033750 0.000000
0.004500 0.033750 0.000000
0.000500 0.032500 0.000000
0.001000 0.032500 0.000000
0.001500 0.032500 0.000000
0.002000 0.032500 0.000000
0.002500 0.032500 0.000000
0.003000 0.032500 0.000000
0.003500 0.032500 0.000000
0.004000 0.032500 0.000000
0.004500 0.032500 0.000000
0.000500 0.031250 0.000000
0.001000 0.031250 0.000000
0.001500 0.031250 0.000000
0.002000 0.031250 0.000000
0.002500 0.031250 0.000000
0.003000 0.031250 0.000000
0.003500 0.031250 0.000000
0.004000 0.031250 0.000000
0.004500 0.031250 0.000000
0.000500 0.030000 0.000000
0.001000 0.030000 0.000000
0.001500 0.030000 0.000000
0.002000 0.030000 0.000000
0.002500 0.030000 0.000000
0.003000 0.030000 0.000000
0.003500 0.030000 0.000000
0.004000 0.030000 0.000000
0.004500 0.030000 0.000000
0.000500 0.028750 0.000000
0.001000 0.028750 0.000000
0.001500 0.028750 0.000000
0.002000 0.028750 0.000000
0.002500 0.028750 0.000000
0.003000 0.028750 0.000000
0.003500 0.028750 0.000000
0.004000 0.028750 0.000000
0.004500 0.028750 0.000000
0.000500 0.027500 0.000000
0.001000 0.027500 0.000000
0.001500 0.027500 0.000000
0.002000 0.027500 0.000000
0.002500 0.027500 0.000000
0.003000 0.027500 0.000000
0.003500 0.027500 0.000000
0.004000 0.027500 0.000000
0.004500 0.027500 0.000000
0.000500 0.026250 0.000000
0.001000 0.026250 0.000000
0.001500 0.026250 0.000000
0.002000 0.026250 0.000000
0.002500 0.026250 0.000000
0.003000 0.026250 0.000000
0.003500 0.026250 0.000000
0.004000 0.026250 0.000000
0.004500 0.026250 0.000000
0.000500 0.025000 0.000000
0.001000 0.025000 0.000000
0.001500 0.025000 0.000000
0.002000 0.025000 0.000000
0.002500 0.025000 0.000000
0.003000 0.025000 0.000000
0.003500 0.025000 0.000000
0.004000 0.025000 0.000000
0.004500 0.025000 0.000000
0.000500 0.023750 0.000000
0.001000 0.023750 0.000000
0.001500 0.023750 0.000000
0.002000 0.023750 0.000000
0.002500 0.023750 0.000000
0.003000 0.023750 0.000000
0.003500 0.023750 0.000000
0.004000 0.023750 0.000000
0.004500 0.023750 0.000000
0.000500 0.022500 0.000000
0.001000 0.022500 0.000000
0.001500 0.022500 0.000000
0.002000 0.022500 0.000000
0.002500 0.022500 0.000000
0.003000 0.022500 0.000000
0.003500 0.022500 0.000000
0.004000 0.022500 0.000000
0.004500 0.022500 0.000000
0.000500 0.021250 0.000000
0.001000 0.021250 0.000000
0.001500 0.021250 0.000000
0.002000 0.021250 0.000000
0.002500 0.021250 0.000000
0.003000 0.021250 0.000000
0.003500 0.021250 0.000000
0.004000 0.021250 0.000000
0.004500 0.021250 0.000000
0.000500 0.020000 0.000000
0.001000 0.020000 0.000000
0.001500 0.020000 0.000000
0.002000 0.020000 0.000000
0.002500 0.020000 0.000000
0.003000 0.020000 0.000000
0.003500 0.020000 0.000000
0.004000 0.020000 0.000000
0.004500 0.020000 0.000000
0.000500 0.018750 0.000000
0.001000 0.018750 0.000000
0.001500 0.018750 0.000000
0.002000 0.018750 0.000000
0.002500 0.018750 0.000000
0.003000 0.018750 0.000000
0.003500 0.018750 0.000000
0.004000 0.018750 0.000000
0.004500 0.018750 0.000000
0.000500 0.017500 0.000000
0.001000 0.017500 0.000000
0.001500 0.017500 0.000000
0.002000 0.017500 0.000000
0.002500 0.017500 0.000000
0.003000 0.017500 0.000000
0.003500 0.017500 0.000000
0.004000 0.017500 0.000000
0.004500 0.017500 0.000000
0.000500 0.016250 0.000000
0.001000 0.016250 0.000000
0.001500 0.016250 0.000000
0.002000 0.016250 0.000000
0.002500 0.016250 0.000000
0.003000 0.016250 0.000000
0.003500 0.016250 0.000000
0.004000 0.016250 0.000000
0.004500 0.016250 0.000000
0.000500 0.015000 0.000000
0.001000 0.015000 0.000000
0.001500 0.015000 0.000000
0.002000 0.015000 0.000000
0.002500 0.015000 0.000000
0.003000 0.015000 0.000000
0.003500 0.015000 0.000000
0.004000 0.015000 0.000000
0.004500 0.015000 0.000000
0.000500 0.013750 0.000000
0.001000 0.013750 0.000000
0.001500 0.013750 0.000000
0.002000 0.013750 0.000000
0.002500 0.013750 0.000000
0.003000 0.013750 0.000000
0.003500 0.013750 0.000000
0.004000 0.013750 0.000000
0.004500 0.013750 0.000000
0.000500 0.012500 0.000000
0.001000 0.012500 0.000000
0.001500 0.012500 0.000000
0.002000 0.012500 0.000000
0.002500 0.012500 0.000000
0.003000 0.012500 0.000000
0.003500 0.012500 0.000000
0.004000 0.012500 0.000000
0.004500 0.012500 0.000000
0.000500 0.011250 0.000000
0.001000 0.011250 0.000000
0.001500 0.011250 0.000000
0.002000 0.011250 0.000000
0.002500 0.011250 0.000000
0.003000 0.011250 0.000000
0.003500 0.011250 0.000000
0.004000 0.011250 0.000000
0.004500 0.011250 0.000000
0.000500 0.010000 0.000000
0.001000 0.010000 0.000000
0.001500 0.010000 0.000000
0.002000 0.010000 0.000000
0.002500 0.010000 0.000000
0.003000 0.010000 0.000000
0.003500 0.010000 0.000000
0.004000 0.010000 0.000000
0.004500 0.010000 0.000000
0.000500 0.008750 0.000000
0.001000 0.008750 0.000000
0.001500 0.008750 0.000000
0.002000 0.008750 0.000000
0.002500 0.008750 0.000000
0.003000 0.008750 0.000000
0.003500 0.008750 0.000000
0.004000 0.008750 0.000000
0.004500 0.008750 0.000000
0.000500 0.007500 0.000000
0.001000 0.007500 0.000000
0.001500 0.007500 0.000000
0.002000 0.007500 0.000000
0.002500 0.007500 0.000000
0.003000 0.007500 0.000000
0.003500 0.007500 0.000000
0.004000 0.007500 0.000000
0.004500 0.007500 0.000000
0.000500 0.006250 0.000000
0.001000 0.006250 0.000000
0.001500 0.006250 0.000000
0.002000 0.006250 0.000000
0.002500 0.006250 0.000000
0.003000 0.006250 0.000000
0.003500 0.006250 0.000000
0.004000 0.006250 0.000000
0.004500 0.006250 0.000000
0.000500 0.005000 0.000000
0.001000 0.005000 0.000000
0.001500 0.005000 0.000000
0.002000 0.005000 0.000000
0.002500 0.005000 0.000000
0.003000 0.005000 0.000000
0.003500 0.005000 0.000000
0.004000 0.005000 0.000000
0.004500 0.005000 0.000000
0.000500 0.003750 0.000000
0.001000 0.003750 0.000000
0.001500 0.003750 0.000000
0.002000 0.003750 0.000000
0.002500 0.003750 0.000000
0.003000 0.003750 0.000000
0.003500 0.003750 0.000000
0.004000 0.003750 0.000000
0.004500 0.003750 0.000000
0.000500 0.002500 0.000000
0.001000 0.002500 0.000000
0.001500 0.002500 0.000000
0.002000 0.002500 0.000000
0.002500 0.002500 0.000000
0.003000 0.002500 0.000000
0.003500 0.002500 0.000000
0.004000 0.002500 0.000000
0.004500 0.002500 0.000000
0.000500 0.001250 0.000000
0.001000 0.001250 0.000000
0.001500 0.001250 0.000000
0.002000 0.001250 0.000000
0.002500 0.001250 0.000000
0.003000 0.001250 0.000000
0.003500 0.001250 0.000000
0.004000 0.001250 0.000000
0.004500 0.001250 0.000000
CELLS 800 4000
4 82 83 180 179
4 179 180 181 178
4 178 181 182 177
4 177 182 183 176
4 176 183 184 175
4 175 184 185 174
4 174 185 186 173
4 173 186 187 172
4 172 187 188 171
4 171 188 80 0
4 83 84 189 180
4 180 189 190 181
4 181 190 191 182
4 182 191 192 183
4 183 192 193 184
4 184 193 194 185
4 185 194 195 186
4 186 195 196 187
4 187 196 197 188
4 188 197 79 80
4 84 85 198 189
4 189 198 199 190
4 190 199 200 191
4 191 200 201 192
4 192 201 202 193
4 193 202 203 194
4 194 203 204 195
4 195 204 205 196
4 196 205 206 197
4 197 206 78 79
4 85 86 207 198
4 198 207 208 199
4 199 208 209 200
4 200 209 210 201
4 201 210 211 202
4 202 211 212 203
4 203 212 213 204
4 204 213 214 205
4 205 214 215 206
4 206 215 77 78
4 86 87 216 207
4 207 216 217 208
4 208 217 218 209
4 209 218 219 210
4 210 219 220 211
4 211 220 221 212
4 212 221 222 213
4 213 222 223 214
4 214 223 224 215
4 215 224 76 77
4 87 88 225 216
4 216 225 226 217
4 217 226 227 218
4 218 227 228 219
4 219 228 229 220
4 220 229 230 221
4 221 230 231 222
4 222 231 232 223
4 223 232 233 224
4 224 233 75 76
4 88 89 234 225
4 225 234 235 226
4 226 235 236 227
4 227 236 237 228
4 228 237 238 229
4 229 238 239 230
4 230 239 240 231
4 231 240 241 232
4 232 241 242 233
4 233 242 74 75
4 89 90 243 234
4 234 243 244 235
4 235 244 245 236
4 236 245 246 237
4 237 246 247 238
4 238 247 248 239
4 239 248 249 240
4 240 249 250 241
4 241 250 251 242
4 242 251 73 74
4 90 91 252 243
4 243 252 253 244
4 244 253 254 245
4 245 254 255 246
4 246 255 256 247
4 247 256 257 248
4 248 257 258 249
4 249 258 259 250
4 250 259 260 251
4 251 260 72 73
4 91 92 261 252
4 252 261 262 253
4 253 262 263 254
4 254 263 264 255
4 255 264 265 256
4 256 265 266 257
4 257 266 267 258
4 258 267 268 259
4 259 268 269 260
4 260 269 71 72
4 92 93 270 261
4 261 270 271 262
4 262 271 272 263
4 263 272 273 264
4 264 273 274 265
4 265 274 275 266
4 266 275 276 267
4 267 276 277 268
4 268 277 278 269
4 269 278 70 71
4 93 94 279 270
4 270 279 280 271
4 271 280 281 272
4 272 281 282 273
4 273 282 283 274
4 274 283 284 275
4 275 284 285 276
4 276 285 286 277
4 277 286 287 278
4 278 287 69 70
4 94 95 288 279
4 279 288 289 280
4 280 289 290 281
4 281 290 291 282
4 282 291 292 283
4 283 292 293 284
4 284 293 294 285
4 285 294 295 286
4 286 295 296 287
4 287 296 68 69
4 95 96 297 288
4 288 297 298 289
4 289 298 299 290
4 290 299 300 291
4 291 300 301 292
4 292 301 302 293
4 293 302 303 294
4 294 303 304 295
4 295 304 305 296
4 296 305 67 68
4 96 97 306 297
4 297 306 307 298
4 298 307 308 299
4 299 308 309 300
4 300 309 310 301
4 301 310 311 302
4 302 311 312 303
4 303 312 313 304
4 304 313 314 305
4 305 314 66 67
4 97 98 315 306
4 306 315 316 307
4 307 316 317 308
4 308 317 318 309
4 309 318 319 310
4 310 319 320 311
4 311 320 321 312
4 312 321 322 313
4 313 322 323 314
4 314 323 65 66
4 98 99 324 315
4 315 324 325 316
4 316 325 326 317
4 317 326 327 318
4 318 327 328 319
4 319 328 329 320
4 320 329 330 321
4 321 330 331 322
4 322 331 332 323
4 323 332 64 65
4 99 100 333 324
4 324 333 334 325
4 325 334 335 326
4 326 335 336 327
4 327 336 337 328
4 328 337 338 329
4 329 338 339 330
4 330 339 340 331
4 331 340 341 332
4 332 341 63 64
4 100 101 342 333
4 333 342 343 334
4 334 343 344 335
4 335 344 345 336
4 336 345 346 337
4 337 346 347 338
4 338 347 348 339
4 339 348 349 340
4 340 349 350 341
4 341 350 62 63
4 101 102 351 342
4 342 351 352 343
4 343 352 353 344
4 344 353 354 345
4 345 354 355 346
4 346 355 356 347
4 347 356 357 348
4 348 357 358 349
4 349 358 359 350
4 350 359 61 62
4 102 103 360 351
4 351 360 361 352
4 352 361 362 353
4 353 362 363 354
4 354 363 364 355
4 355 364 365 356
4 356 365 366 357
4 357 366 367 358
4 358 367 368 359
4 359 368 60 61
4 103 104 369 360
4 360 369 370 361
4 361 370 371 362
4 362 371 372 363
4 363 372 373 364
4 364 373 374 365
4 365 374 375 366
4 366 375 376 367
4 367 376 377 368
4 368 377 59 60
4 104 105 378 369
4 369 378 379 370
4 370 379 380 371
4 371 380 381 372
4 372 381 382 373
4 373 382 383 374
4 374 383 384 375
4 375 384 385 376
4 376 385 386 377
4 377 386 58 59
4 105 106 387 378
4 378 387 388 379
4 379 388 389 380
4 380 389 390 381
4 381 390 391 382
4 382 391 392 383
4 383 392 393 384
4 384 393 394 385
4 385 394 395 386
4 386 395 57 58
4 106 107 396 387
4 387 396 397 388
4 388 397 398 389
4 389 398 399 390
4 390 399 400 391
4 391 400 401 392
4 392 401 402 393
4 393 402 403 394
4 394 403 404 395
4 395 404 56 57
4 107 108 405 396
4 396 405 406 397
4 397 406 407 398
4 398 407 408 399
4 399 408 409 400
4 400 409 410 401
4 401 410 411 402
4 402 411 412 403
4 403 412 413 404
4 404 413 55 56
4 108 109 414 405
4 405 414 415 406
4 406 415 416 407
4 407 416 417 408
4 408 417 418 409
4 409 418 419 410
4 410 419 420 411
4 411 420 421 412
4 412 421 422 413
4 413 422 54 55
4 109 110 423 414
4 414 423 424 415
4 415 424 425 416
4 416 425 426 417
4 417 426 427 418
4 418 427 428 419
4 419 428 429 420
4 420 429 430 421
4 421 430 431 422
4 422 431 53 54
4 110 111 432 423
4 423 432 433 424
4 424 433 434 425
4 425 434 435 426
4 426 435 436 427
4 427 436 437 428
4 428 437 438 429
4 429 438 439 430
4 430 439 440 431
4 431 440 52 53
4 111 112 441 432
4 432 441 442 433
4 433 442 443 434
4 434 443 444 435
4 435 444 445 436
4 436 445 446 437
4 437 446 447 438
4 438 447 448 439
4 439 448 449 440
4 440 449 51 52
4 112 113 450 441
4 441 450 451 442
4 442 451 452 443
4 443 452 453 444
4 444 453 454 445
4 445 454 455 446
4 446 455 456 447
4 447 456 457 448
4 448 457 458 449
4 449 458 50 51
4 113 114 459 450
4 450 459 460 451
4 451 460 461 452
4 452 461 462 453
4 453 462 463 454
4 454 463 464 455
4 455 464 465 456
4 456 465 466 457
4 457 466 467 458
4 458 467 49 50
4 114 115 468 459
4 459 468 469 460
4 460 469 470 461
4 461 470 471 462
4 462 471 472 463
4 463 472 473 464
4 464 473 474 465
4 465 474 475 466
4 466 475 476 467
4 467 476 48 49
4 115 116 477 468
4 468 477 478 469
4 469 478 479 470
4 470 479 480 471
4 471 480 481 472
4 472 481 482 473
4 473 482 483 474
4 474 483 484 475
4 475 484 485 476
4 476 485 47 48
4 116 117 486 477
4 477 486 487 478
4 478 487 488 479
4 479 488 489 480
4 480 489 490 481
4 481 490 491 482
4 482 491 492 483
4 483 492 493 484
4 484 493 494 485
4 485 494 46 47
4 117 118 495 486
4 486 495 496 487
4 487 496 497 488
4 488 497 498 489
4 489 498 499 490
4 490 499 500 491
4 491 500 501 492
4 492 501 502 493
4 493 502 503 494
4 494 503 45 46
4 118 119 504 495
4 495 504 505 496
4 496 505 506 497
4 497 506 507 498
4 498 507 508 499
4 499 508 509 500
4 500 509 510 501
4 501 510 511 502
4 502 511 512 503
4 503 512 44 45
4 119 120 513 504
4 504 513 514 505
4 505 514 515 506
4 506 515 516 507
4 507 516 517 508
4 508 517 518 509
4 509 518 519 510
4 510 519 520 511
4 511 520 521 512
4 512 521 43 44
4 120 121 522 513
4 513 522 523 514
4 514 523 524 515
4 515 524 525 516
4 516 525 526 517
4 517 526 527 518
4 518 527 528 519
4 519 528 529 520
4 520 529 530 521
4 521 530 42 43
4 121 122 531 522
4 522 531 532 523
4 523 532 533 524
4 524 533 534 525
4 525 534 535 526
4 526 535 536 527
4 527 536 537 528
4 528 537 538 529
4 529 538 539 530
4 530 539 41 42
4 122 123 540 531
4 531 540 541 532
4 532 541 542 533
4 533 542 543 534
4 534 543 544 535
4 535 544 545 536
4 536 545 546 537
4 537 546 547 538
4 538 547 548 539
4 539 548 40 41
4 123 124 549 540
4 540 549 550 541
4 541 550 551 542
4 542 551 552 543
4 543 552 553 544
4 544 553 554 545
4 545 554 555 546
4 546 555 556 547
4 547 556 557 548
4 548 557 39 40
4 124 125 558 549
4 549 558 559 550
4 550 559 560 551
4 551 560 561 552
4 552 561 562 553
4 553 562 563 554
4 554 563 564 555
4 555 564 565 556
4 556 565 566 557
4 557 566 38 39
4 125 126 567 558
4 558 567 568 559
4 559 568 569 560
4 560 569 570 561
4 561 570 571 562
4 562 571 572 563
4 563 572 573 564
4 564 573 574 565
4 565 574 575 566
4 566 575 37 38
4 126 127 576 567
4 567 576 577 568
4 568 577 578 569
4 569 578 579 570
4 570 579 580 571
4 571 580 581 572
4 572 581 582 573
4 573 582 583 574
4 574 583 584 575
4 575 584 36 37
4 127 128 585 576
4 576 585 586 577
4 577 586 587 578
4 578 587 588 579
4 579 588 589 580
4 580 589 590 581
4 581 590 591 582
4 582 591 592 583
4 583 592 593 584
4 584 593 35 36
4 128 129 594 585
4 585 594 595 586
4 586 595 596 587
4 587 596 597 588
4 588 597 598 589
4 589 598 599 590
4 590 599 600 591
4 591 600 601 592
4 592 601 602 593
4 593 602 34 35
4 129 130 603 594
4 594 603 604 595
4 595 604 605 596
4 596 605 606 597
4 597 606 607 598
4 598 607 608 599
4 599 608 609 600
4 600 609 610 601
4 601 610 611 602
4 602 611 33 34
4 130 131 612 603
4 603 612 613 604
4 604 613 614 605
4 605 614 615 606
4 606 615 616 607
4 607 616 617 608
4 608 617 618 609
4 609 618 619 610
4 610 619 620 611
4 611 620 32 33
4 131 132 621 612
4 612 621 622 613
4 613 622 623 614
4 614 623 624 615
4 615 624 625 616
4 616 625 626 617
4 617 626 627 618
4 618 627 628 619
4 619 628 629 620
4 620 629 31 32
4 132 133 630 621
4 621 630 631 622
4 622 631 632 623
4 623 632 633 624
4 624 633 634 625
4 625 634 635 626
4 626 635 636 627
4 627 636 637 628
4 628 637 638 629
4 629 638 30 31
4 133 134 639 630
4 630 639 640 631
4 631 640 641 632
4 632 641 642 633
4 633 642 643 634
4 634 643 644 635
4 635 644 645 636
4 636 645 646 637
4 637 646 647 638
4 638 647 29 30
4 134 135 648 639
4 639 648 649 640
4 640 649 650 641
4 641 650 651 642
4 642 651 652 643
4 643 652 653 644
4 644 653 654 645
4 645 654 655 646
4 646 655 656 647
4 647 656 28 29
4 135 136 657 648
4 648 657 658 649
4 649 658 659 650
4 650 659 660 651
4 651 660 661 652
4 652 661 662 653
4 653 662 663 654
4 654 663 664 655
4 655 664 665 656
4 656 665 27 28
4 136 137 666 657
4 657 666 667 658
4 658 667 668 659
4 659 668 669 660
4 660 669 670 661
4 661 670 671 662
4 662 671 672 663
4 663 672 673 664
4 664 673 674 665
4 665 674 26 27
4 137 138 675 666
4 666 675 676 667
4 667 676 677 668
4 668 677 678 669
4 669 678 679 670
4 670 679 680 671
4 671 680 681 672
4 672 681 682 673
4 673 682 683 674
4 674 683 25 26
4 138 139 684 675
4 675 684 685 676
4 676 685 686 677
4 677 686 687 678
4 678 687 688 679
4 679 688 689 680
4 680 689 690 681
4 681 690 691 682
4 682 691 692 683
4 683 692 24 25
4 139 140 693 684
4 684 693 694 685
4 685 694 695 686
4 686 695 696 687
4 687 696 697 688
4 688 697 698 689
4 689 698 699 690
4 690 699 700 691
4 691 700 701 692
4 692 701 23 24
4 140 141 702 693
4 693 702 703 694
4 694 703 704 695
4 695 704 705 696
4 696 705 706 697
4 697 706 707 698
4 698 707 708 699
4 699 708 709 700
4 700 709 710 701
4 701 710 22 23
4 141 142 711 702
4 702 711 712 703
4 703 712 713 704
4 704 713 714 705
4 705 714 715 706
4 706 715 716 707
4 707 716 717 708
4 708 717 718 709
4 709 718 719 710
4 710 719 21 22
4 142 143 720 711
4 711 720 721 712
4 712 721 722 713
4 713 722 723 714
4 714 723 724 715
4 715 724 725 716
4 716 725 726 717
4 717 726 727 718
4 718 727 728 719
4 719 728 20 21
4 143 144 729 720
4 720 729 730 721
4 721 730 731 722
4 722 731 732 723
4 723 732 733 724
4 724 733 734 725
4 725 734 735 726
4 726 735 736 727
4 727 736 737 728
4 728 737 19 20
4 144 145 738 729
4 729 738 739 730
4 730 739 740 731
4 731 740 741 732
4 732 741 742 733
4 733 742 743 734
4 734 743 744 735
4 735 744 745 736
4 736 745 746 737
4 737 746 18 19
4 145 146 747 738
4 738 747 748 739
4 739 748 749 740
4 740 749 750 741
4 741 750 751 742
4 742 751 752 743
4 743 752 753 744
4 744 753 754 745
4 745 754 755 746
4 746 755 17 18
4 146 147 756 747
4 747 756 757 748
4 748 757 758 749
4 749 758 759 750
4 750 759 760 751
4 751 760 761 752
4 752 761 762 753
4 753 762 763 754
4 754 763 764 755
4 755 764 16 17
4 147 148 765 756
4 756 765 766 757
4 757 766 767 758
4 758 767 768 759
4 759 768 769 760
4 760 769 770 761
4 761 770 771 762
4 762 771 772 763
4 763 772 773 764
4 764 773 15 16
4 148 149 774 765
4 765 774 775 766
4 766 775 776 767
4 767 776 777 768
4 768 777 778 769
4 769 778 779 770
4 770 779 780 771
4 771 780 781 772
4 772 781 782 773
4 773 782 14 15
4 149 150 783 774
4 774 783 784 775
4 775 784 785 776
4 776 785 786 777
4 777 786 787 778
4 778 787 788 779
4 779 788 789 780
4 780 789 790 781
4 781 790 791 782
4 782 791 13 14
4 150 151 792 783
4 783 792 793 784
4 784 793 794 785
4 785 794 795 786
4 786 795 796 787
4 787 796 797 788
4 788 797 798 789
4 789 798 799 790
4 790 799 800 791
4 791 800 12 13
4 151 152 801 792
4 792 801 802 793
4 793 802 803 794
4 794 803 804 795
4 795 804 805 796
4 796 805 806 797
4 797 806 807 798
4 798 807 808 799
4 799 808 809 800
4 800 809 11 12
4 152 153 810 801
4 801 810 811 802
4 802 811 812 803
4 803 812 813 804
4 804 813 814 805
4 805 814 815 806
4 806 815 816 807
4 807 816 817 808
4 808 817 818 809
4 809 818 10 11
4 153 154 819 810
4 810 819 820 811
4 811 820 821 812
4 812 821 822 813
4 813 822 823 814
4 814 823 824 815
4 815 824 825 816
4 816 825 826 817
4 817 826 827 818
4 818 827 9 10
4 154 155 828 819
4 819 828 829 820
4 820 829 830 821
4 821 830 831 822
4 822 831 832 823
4 823 832 833 824
4 824 833 834 825
4 825 834 835 826
4 826 835 836 827
4 827 836 8 9
4 155 156 837 828
4 828 837 838 829
4 829 838 839 830
4 830 839 840 831
4 831 840 841 832
4 832 841 842 833
4 833 842 843 834
4 834 843 844 835
4 835 844 845 836
4 836 845 7 8
4 156 157 846 837
4 837 846 847 838
4 838 847 848 839
4 839 848 849 840
4 840 849 850 841
4 841 850 851 842
4 842 851 852 843
4 843 852 853 844
4 844 853 854 845
4 845 854 6 7
4 157 158 855 846
4 846 855 856 847
4 847 856 857 848
4 848 857 858 849
4 849 858 859 850
4 850 859 860 851
4 851 860 861 852
4 852 861 862 853
4 853 862 863 854
4 854 863 5 6
4 158 159 864 855
4 855 864 865 856
4 856 865 866 857
4 857 866 867 858
4 858 867 868 859
4 859 868 869 860
4 860 869 870 861
4 861 870 871 862
4 862 871 872 863
4 863 872 4 5
4 159 160 873 864
4 864 873 874 865
4 865 874 875 866
4 866 875 876 867
4 867 876 877 868
4 868 877 878 869
4 869 878 879 870
4 870 879 880 871
4 871 880 881 872
4 872 881 3 4
4 160 161 882 873
4 873 882 883 874
4 874 883 884 875
4 875 884 885 876
4 876 885 886 877
4 877 886 887 878
4 878 887 888 879
4 879 888 889 880
4 880 889 890 881
4 881 890 2 3
4 161 81 162 882
4 882 162 163 883
4 883 163 164 884
4 884 164 165 885
4 885 165 166 886
4 886 166 167 887
4 887 167 168 888
4 888 168 169 889
4 889 169 170 890
4 890 170 1 2
CELL_TYPES 800
9
9
9
9
9
9
9
9
9
9
9
9
9
9
9
9
9
9
9
9
9
9
9
9
9
9
9
9
9
9
9
9
9
9
9
9
9
9
9
9
9
9
9
9
9
9
9
9
9
9
9
9
9
9
9
9
9
9
9
9
9
9
9
9
9
9
9
9
9
9
9
9
9
9
9
9
9
9
9
9
9
9
9
9
9
9
9
9
9
9
9
9
9
9
9
9
9
9
9
9
9
9
9
9
9
9
9
9
9
9
9
9
9
9
9
9
9
9
9
9
9
9
9
9
9
9
9
9
9
9
9
9
9
9
9
9
9
9
9
9
9
9
9
9
9
9
9
9
9
9
9
9
9
9
9
9
9
9
9
9
9
9
9
9
9
9
9
9
9
9
9
9
9
9
9
9
9
9
9
9
9
9
9
9
9
9
9
9
9
9
9
9
9
9
9
9
9
9
9
9
9
9
9
9
9
9
9
9
9
9
9
9
9
9
9
9
9
9
9
9
9
9
9
9
9
9
9
9
9
9
9
9
9
9
9
9
9
9
9
9
9
9
9
9
9
9
9
9
9
9
9
9
9
9
9
9
9
9
9
9
9
9
9
9
9
9
9
9
9
9
9
9
9
9
9
9
9
9
9
9
9
9
9
9
9
9
9
9
9
9
9
9
9
9
9
9
9
9
9
9
9
9
9
9
9
9
9
9
9
9
9
9
9
9
9
9
9
9
9
9
9
9
9
9
9
9
9
9
9
9
9
9
9
9
9
9
9
9
9
9
9
9
9
9
9
9
9
9
9
9
9
9
9
9
9
9
9
9
9
9
9
9
9
9
9
9
9
9
9
9
9
9
9
9
9
9
9
9
9
9
9
9
9
9
9
9
9
9
9
9
9
9
9
9
9
9
9
9
9
9
9
9
9
9
9
9
9
9
9
9
9
9
9
9
9
9
9
9
9
9
9
9
9
9
9
9
9
9
9
9
9
9
9
9
9
9
9
9
9
9
9
9
9
9
9
9
9
9
9
9
9
9
9
9
9
9
9
9
9
9
9
9
9
9
9
9
9
9
9
9
9
9
9
9
9
9
9
9
9
9
9
9
9
9
9
9
9
9
9
9
9
9
9
9
9
9
9
9
9
9
9
9
9
9
9
9
9
9
9
9
9
9
9
9
9
9
9
9
9
9
9
9
9
9
9
9
9
9
9
9
9
9
9
9
9
9
9
9
9
9
9
9
9
9
9
9
9
9
9
9
9
9
9
9
9
9
9
9
9
9
9
9
9
9
9
9
9
9
9
9
9
9
9
9
9
9
9
9
9
9
9
9
9
9
9
9
9
9
9
9
9
9
9
9
9
9
9
9
9
9
9
9
9
9
9
9
9
9
9
9
9
9
9
9
9
9
9
9
9
9
9
9
9
9
9
9
9
9
9
9
9
9
9
9
9
9
9
9
9
9
9
9
9
9
9
9
9
9
9
9
9
9
9
9
9
9
9
9
9
9
9
9
9
9
9
9
9
9
9
9
9
9
9
9
9
9
9
9
9
9
9
9
9
9
9
9
9
9
9
9
9
9
9
9
9
9
9
9
9
9
9
9
9
9
9
9
9
9
9
9
9
9
9
9
9
9
9
9
9
9
9
9
9
9
9
9
9
9
9
9
9
9
9
9
9
9
9
9
9
9
9
9
9
9
9
9
9
9
9
9
9
9
9
9
9
9
9
9
9
9
9
9
9
9
9
9
9
9
9
9
9
9
9
9
9
9
9
9
9
9
9
9
9
9
9
9
9
9
9
9
9
9
9
9
9
9
9
9
9
9
POINT_DATA 891
SCALARS u1 float
LOOKUP_TABLE default
-3e-16
-3e-06
-3e-06
-3e-06
-3e-06
-3e-06
-3e-06
-3e-06
-3e-06
-3e-06
-3e-06
-3e-06
-3e-06
-3e-06
-3e-06
-3e-06
-3e-06
-3e-06
-3e-06
-3e-06
-3e-06
-3e-06
-3e-06
-3e-06
-3e-06
-3e-06
-3e-06
-3e-06
-3e-06
-3e-06
-3e-06
-3e-06
-3e-06
-3e-06
-3e-06
-3e-06
-3e-06
-3e-06
-3e-06
-3e-06
-3e-06
-3e-06
-3e-06
-3e-06
-3e-06
-3e-06
-3e-06
-3e-06
-3e-06
-3e-06
-3e-06
-3e-06
-3e-06
-3e-06
-3e-06
-3e-06
-3e-06
-3e-06
-3e-06
-3e-06
-3e-06
-3e-06
-3e-06
-3e-06
-3e-06
-3e-06
-3e-06
-3e-06
-3e-06
-3e-06
-3e-06
-3e-06
-3e-06
-3e-06
-3e-06
-3e-06
-3e-06
-3e-06
-3e-06
-3e-06
-2e-06
3e-06
6e-16
2e-06
3e-06
3e-06
3e-06
3e-06
3e-06
3e-06
3e-06
3e-06
3e-06
3e-06
3e-06
3e-06
3e-06
3e-06
3e-06
3e-06
3e-06
3e-06
3e-06
3e-06
3e-06
3e-06
3e-06
3e-06
3e-06
3e-06
3e-06
3e-06
3e-06
3e-06
3e-06
3e-06
3e-06
3e-06
3e-06
3e-06
3e-06
3e-06
3e-06
3e-06
3e-06
3e-06
3e-06
3e-06
3e-06
3e-06
3e-06
3e-06
3e-06
3e-06
3e-06
3e-06
3e-06
3e-06
3e-06
3e-06
3e-06
3e-06
3e-06
3e-06
3e-06
3e-06
3e-06
3e-06
3e-06
3e-06
3e-06
3e-06
3e-06
3e-06
3e-06
3e-06
3e-06
3e-06
3e-06
3e-06
3e-06
3e-06
2e-06
2e-06
1e-06
6e-07
3e-14
-6e-07
-1e-06
-2e-06
-2e-06
-1e-15
7e-16
1e-15
1e-15
1e-15
-3e-16
-1e-15
-8e-16
1e-15
2e-06
1e-06
7e-07
4e-07
-3e-14
-4e-07
-7e-07
-1e-06
-2e-06
2e-06
2e-06
1e-06
6e-07
-6e-15
-6e-07
-1e-06
-2e-06
-2e-06
2e-06
2e-06
1e-06
6e-07
4e-15
-6e-07
-1e-06
-2e-06
-2e-06
2e-06
2e-06
1e-06
6e-07
1e-14
-6e-07
-1e-06
-2e-06
-2e-06
2e-06
2e-06
1e-06
6e-07
2e-14
-6e-07
-1e-06
-2e-06
-2e-06
2e-06
2e-06
1e-06
6e-07
2e-14
-6e-07
-1e-06
-2e-06
-2e-06
2e-06
2e-06
1e-06
6e-07
3e-14
-6e-07
-1e-06
-2e-06
-2e-06
2e-06
2e-06
1e-06
6e-07
3e-14
-6e-07
-1e-06
-2e-06
-2e-06
2e-06
2e-06
1e-06
6e-07
3e-14
-6e-07
-1e-06
-2e-06
-2e-06
2e-06
2e-06
1e-06
6e-07
3e-14
-6e-07
-1e-06
-2e-06
-2e-06
2e-06
2e-06
1e-06
6e-07
4e-14
-6e-07
-1e-06
-2e-06
-2e-06
2e-06
2e-06
1e-06
6e-07
4e-14
-6e-07
-1e-06
-2e-06
-2e-06
2e-06
2e-06
1e-06
6e-07
4e-14
-6e-07
-1e-06
-2e-06
-2e-06
2e-06
2e-06
1e-06
6e-07
4e-14
-6e-07
-1e-06
-2e-06
-2e-06
2e-06
2e-06
1e-06
6e-07
4e-14
-6e-07
-1e-06
-2e-06
-2e-06
2e-06
2e-06
1e-06
6e-07
4e-14
-6e-07
-1e-06
-2e-06
-2e-06
2e-06
2e-06
1e-06
6e-07
4e-14
-6e-07
-1e-06
-2e-06
-2e-06
2e-06
2e-06
1e-06
6e-07
3e-14
-6e-07
-1e-06
-2e-06
-2e-06
2e-06
2e-06
1e-06
6e-07
3e-14
-6e-07
-1e-06
-2e-06
-2e-06
2e-06
2e-06
1e-06
6e-07
3e-14
-6e-07
-1e-06
-2e-06
-2e-06
2e-06
2e-06
1e-06
6e-07
3e-14
-6e-07
-1e-06
-2e-06
-2e-06
2e-06
2e-06
1e-06
6e-07
3e-14
-6e-07
-1e-06
-2e-06
-2e-06
2e-06
2e-06
1e-06
6e-07
3e-14
-6e-07
-1e-06
-2e-06
-2e-06
2e-06
2e-06
1e-06
6e-07
3e-14
-6e-07
-1e-06
-2e-06
-2e-06
2e-06
2e-06
1e-06
6e-07
3e-14
-6e-07
-1e-06
-2e-06
-2e-06
2e-06
2e-06
1e-06
6e-07
3e-14
-6e-07
-1e-06
-2e-06
-2e-06
2e-06
2e-06
1e-06
6e-07
3e-14
-6e-07
-1e-06
-2e-06
-2e-06
2e-06
2e-06
1e-06
6e-07
3e-14
-6e-07
-1e-06
-2e-06
-2e-06
2e-06
2e-06
1e-06
6e-07
3e-14
-6e-07
-1e-06
-2e-06
-2e-06
2e-06
2e-06
1e-06
6e-07
3e-14
-6e-07
-1e-06
-2e-06
-2e-06
2e-06
2e-06
1e-06
6e-07
3e-14
-6e-07
-1e-06
-2e-06
-2e-06
2e-06
2e-06
1e-06
6e-07
3e-14
-6e-07
-1e-06
-2e-06
-2e-06
2e-06
2e-06
1e-06
6e-07
3e-14
-6e-07
-1e-06
-2e-06
-2e-06
2e-06
2e-06
1e-06
6e-07
3e-14
-6e-07
-1e-06
-2e-06
-2e-06
2e-06
2e-06
1e-06
6e-07
3e-14
-6e-07
-1e-06
-2e-06
-2e-06
2e-06
2e-06
1e-06
6e-07
3e-14
-6e-07
-1e-06
-2e-06
-2e-06
2e-06
2e-06
1e-06
6e-07
3e-14
-6e-07
-1e-06
-2e-06
-2e-06
2e-06
2e-06
1e-06
6e-07
3e-14
-6e-07
-1e-06
-2e-06
-2e-06
2e-06
2e-06
1e-06
6e-07
3e-14
-6e-07
-1e-06
-2e-06
-2e-06
2e-06
2e-06
1e-06
6e-07
3e-14
-6e-07
-1e-06
-2e-06
-2e-06
2e-06
2e-06
1e-06
6e-07
3e-14
-6e-07
-1e-06
-2e-06
-2e-06
2e-06
2e-06
1e-06
6e-07
3e-14
-6e-07
-1e-06
-2e-06
-2e-06
2e-06
2e-06
1e-06
6e-07
3e-14
-6e-07
-1e-06
-2e-06
-2e-06
2e-06
2e-06
1e-06
6e-07
3e-14
-6e-07
-1e-06
-2e-06
-2e-06
2e-06
2e-06
1e-06
6e-07
3e-14
-6e-07
-1e-06
-2e-06
-2e-06
2e-06
2e-06
1e-06
6e-07
3e-14
-6e-07
-1e-06
-2e-06
-2e-06
2e-06
2e-06
1e-06
6e-07
3e-14
-6e-07
-1e-06
-2e-06
-2e-06
2e-06
2e-06
1e-06
6e-07
3e-14
-6e-07
-1e-06
-2e-06
-2e-06
2e-06
2e-06
1e-06
6e-07
3e-14
-6e-07
-1e-06
-2e-06
-2e-06
2e-06
2e-06
1e-06
6e-07
3e-14
-6e-07
-1e-06
-2e-06
-2e-06
2e-06
2e-06
1e-06
6e-07
3e-14
-6e-07
-1e-06
-2e-06
-2e-06
2e-06
2e-06
1e-06
6e-07
3e-14
-6e-07
-1e-06
-2e-06
-2e-06
2e-06
2e-06
1e-06
6e-07
3e-14
-6e-07
-1e-06
-2e-06
-2e-06
2e-06
2e-06
1e-06
6e-07
3e-14
-6e-07
-1e-06
-2e-06
-2e-06
2e-06
2e-06
1e-06
6e-07
3e-14
-6e-07
-1e-06
-2e-06
-2e-06
2e-06
2e-06
1e-06
6e-07
3e-14
-6e-07
-1e-06
-2e-06
-2e-06
2e-06
2e-06
1e-06
6e-07
3e-14
-6e-07
-1e-06
-2e-06
-2e-06
2e-06
2e-06
1e-06
6e-07
3e-14
-6e-07
-1e-06
-2e-06
-2e-06
2e-06
2e-06
1e-06
6e-07
3e-14
-6e-07
-1e-06
-2e-06
-2e-06
2e-06
2e-06
1e-06
6e-07
3e-14
-6e-07
-1e-06
-2e-06
-2e-06
2e-06
2e-06
1e-06
6e-07
3e-14
-6e-07
-1e-06
-2e-06
-2e-06
2e-06
2e-06
1e-06
6e-07
3e-14
-6e-07
-1e-06
-2e-06
-2e-06
2e-06
2e-06
1e-06
6e-07
3e-14
-6e-07
-1e-06
-2e-06
-2e-06
2e-06
2e-06
1e-06
6e-07
3e-14
-6e-07
-1e-06
-2e-06
-2e-06
2e-06
2e-06
1e-06
6e-07
3e-14
-6e-07
-1e-06
-2e-06
-2e-06
2e-06
2e-06
1e-06
6e-07
3e-14
-6e-07
-1e-06
-2e-06
-2e-06
2e-06
2e-06
1e-06
6e-07
3e-14
-6e-07
-1e-06
-2e-06
-2e-06
2e-06
2e-06
1e-06
6e-07
3e-14
-6e-07
-1e-06
-2e-06
-2e-06
2e-06
2e-06
1e-06
6e-07
3e-14
-6e-07
-1e-06
-2e-06
-2e-06
2e-06
2e-06
1e-06
6e-07
3e-14
-6e-07
-1e-06
-2e-06
-2e-06
2e-06
2e-06
1e-06
6e-07
3e-14
-6e-07
-1e-06
-2e-06
-2e-06
2e-06
2e-06
1e-06
6e-07
3e-14
-6e-07
-1e-06
-2e-06
-2e-06
2e-06
2e-06
1e-06
6e-07
3e-14
-6e-07
-1e-06
-2e-06
-2e-06
2e-06
2e-06
1e-06
6e-07
3e-14
-6e-07
-1e-06
-2e-06
-2e-06
2e-06
2e-06
1e-06
6e-07
3e-14
-6e-07
-1e-06
-2e-06
-2e-06
2e-06
2e-06
1e-06
6e-07
3e-14
-6e-07
-1e-06
-2e-06
-2e-06
2e-06
2e-06
1e-06
6e-07
3e-14
-6e-07
-1e-06
-2e-06
-2e-06
2e-06
2e-06
1e-06
6e-07
3e-14
-6e-07
-1e-06
-2e-06
-2e-06
2e-06
2e-06
1e-06
6e-07
3e-14
-6e-07
-1e-06
-2e-06
-2e-06
SCALARS u2 float
LOOKUP_TABLE default
2e-16
-0.0004
-0.0003
-0.0003
-0.0003
-0.0003
-0.0003
-0.0003
-0.0003
-0.0003
-0.0003
-0.0003
-0.0003
-0.0003
-0.0003
-0.0003
-0.0003
-0.0003
-0.0003
-0.0003
-0.0003
-0.0003
-0.0003
-0.0003
-0.0003
-0.0002
-0.0002
-0.0002
-0.0002
-0.0002
-0.0002
-0.0002
-0.0002
-0.0002
-0.0002
-0.0002
-0.0002
-0.0002
-0.0002
-0.0002
-0.0002
-0.0002
-0.0002
-0.0002
-0.0002
-0.0002
-0.0002
-0.0001
-0.0001
-0.0001
-0.0001
-0.0001
-0.0001
-0.0001
-0.0001
-0.0001
-0.0001
-0.0001
-0.0001
-0.0001
-9e-05
-9e-05
-8e-05
-8e-05
-7e-05
-7e-05
-7e-05
-6e-05
-6e-05
-5e-05
-5e-05
-4e-05
-4e-05
-3e-05
-3e-05
-3e-05
-2e-05
-2e-05
-1e-05
-9e-06
-5e-06
-0.0004
3e-16
-5e-06
-9e-06
-1e-05
-2e-05
-2e-05
-3e-05
-3e-05
-3e-05
-4e-05
-4e-05
-5e-05
-5e-05
-6e-05
-6e-05
-7e-05
-7e-05
-7e-05
-8e-05
-8e-05
-9e-05
-9e-05
-0.0001
-0.0001
-0.0001
-0.0001
-0.0001
-0.0001
-0.0001
-0.0001
-0.0001
-0.0001
-0.0001
-0.0001
-0.0001
-0.0002
-0.0002
-0.0002
-0.0002
-0.0002
-0.0002
-0.0002
-0.0002
-0.0002
-0.0002
-0.0002
-0.0002
-0.0002
-0.0002
-0.0002
-0.0002
-0.0002
-0.0002
-0.0002
-0.0002
-0.0002
-0.0002
-0.0003
-0.0003
-0.0003
-0.0003
-0.0003
-0.0003
-0.0003
-0.0003
-0.0003
-0.0003
-0.0003
-0.0003
-0.0003
-0.0003
-0.0003
-0.0003
-0.0003
-0.0003
-0.0003
-0.0003
-0.0003
-0.0003
-0.0003
-0.0004
-0.0004
-0.0004
-0.0004
-0.0004
-0.0004
-0.0004
-0.0004
-0.0004
4e-16
2e-16
-3e-16
-9e-16
1e-16
4e-16
2e-16
1e-16
4e-16
-4e-06
-4e-06
-4e-06
-4e-06
-4e-06
-4e-06
-4e-06
-4e-06
-4e-06
-8e-06
-8e-06
-8e-06
-8e-06
-8e-06
-8e-06
-8e-06
-8e-06
-8e-06
-1e-05
-1e-05
-1e-05
-1e-05
-1e-05
-1e-05
-1e-05
-1e-05
-1e-05
-2e-05
-2e-05
-2e-05
-2e-05
-2e-05
-2e-05
-2e-05
-2e-05
-2e-05
-2e-05
-2e-05
-2e-05
-2e-05
-2e-05
-2e-05
-2e-05
-2e-05
-2e-05
-3e-05
-3e-05
-3e-05
-3e-05
-3e-05
-3e-05
-3e-05
-3e-05
-3e-05
-3e-05
-3e-05
-3e-05
-3e-05
-3e-05
-3e-05
-3e-05
-3e-05
-3e-05
-3e-05
-3e-05
-3e-05
-3e-05
-3e-05
-3e-05
-3e-05
-3e-05
-3e-05
-4e-05
-4e-05
-4e-05
-4e-05
-4e-05
-4e-05
-4e-05
-4e-05
-4e-05
-4e-05
-4e-05
-4e-05
-4e-05
-4e-05
-4e-05
-4e-05
-4e-05
-4e-05
-5e-05
-5e-05
-5e-05
-5e-05
-5e-05
-5e-05
-5e-05
-5e-05
-5e-05
-5e-05
-5e-05
-5e-05
-5e-05
-5e-05
-5e-05
-5e-05
-5e-05
-5e-05
-6e-05
-6e-05
-6e-05
-6e-05
-6e-05
-6e-05
-6e-05
-6e-05
-6e-05
-6e-05
-6e-05
-6e-05
-6e-05
-6e-05
-6e-05
-6e-05
-6e-05
-6e-05
-7e-05
-7e-05
-7e-05
-7e-05
-7e-05
-7e-05
-7e-05
-7e-05
-7e-05
-7e-05
-7e-05
-7e-05
-7e-05
-7e-05
-7e-05
-7e-05
-7e-05
-7e-05
-7e-05
-7e-05
-7e-05
-7e-05
-7e-05
-7e-05
-7e-05
-7e-05
-7e-05
-8e-05
-8e-05
-8e-05
-8e-05
-8e-05
-8e-05
-8e-05
-8e-05
-8e-05
-8e-05
-8e-05
-8e-05
-8e-05
-8e-05
-8e-05
-8e-05
-8e-05
-8e-05
-9e-05
-9e-05
-9e-05
-9e-05
-9e-05
-9e-05
-9e-05
-9e-05
-9e-05
-9e-05
-9e-05
-9e-05
-9e-05
-9e-05
-9e-05
-9e-05
-9e-05
-9e-05
-0.0001
-0.0001
-0.0001
-0.0001
-0.0001
-0.0001
-0.0001
-0.0001
-0.0001
-0.0001
-0.0001
-0.0001
-0.0001
-0.0001
-0.0001
-0.0001
-0.0001
-0.0001
-0.0001
-0.0001
-0.0001
-0.0001
-0.0001
-0.0001
-0.0001
-0.0001
-0.0001
-0.0001
-0.0001
-0.0001
-0.0001
-0.0001
-0.0001
-0.0001
-0.0001
-0.0001
-0.0001
-0.0001
-0.0001
-0.0001
-0.0001
-0.0001
-0.0001
-0.0001
-0.0001
-0.0001
-0.0001
-0.0001
-0.0001
-0.0001
-0.0001
-0.0001
-0.0001
-0.0001
-0.0001
-0.0001
-0.0001
-0.0001
-0.0001
-0.0001
-0.0001
-0.0001
-0.0001
-0.0001
-0.0001
-0.0001
-0.0001
-0.0001
-0.0001
-0.0001
-0.0001
-0.0001
-0.0001
-0.0001
-0.0001
-0.0001
-0.0001
-0.0001
-0.0001
-0.0001
-0.0001
-0.0001
-0.0001
-0.0001
-0.0001
-0.0001
-0.0001
-0.0001
-0.0001
-0.0001
-0.0001
-0.0001
-0.0001
-0.0001
-0.0001
-0.0001
-0.0001
-0.0001
-0.0001
-0.0001
-0.0001
-0.0001
-0.0001
-0.0001
-0.0001
-0.0001
-0.0001
-0.0001
-0.0001
-0.0001
-0.0001
-0.0001
-0.0001
-0.0001
-0.0001
-0.0001
-0.0001
-0.0002
-0.0002
-0.0002
-0.0002
-0.0002
-0.0002
-0.0002
-0.0002
-0.0002
-0.0002
-0.0002
-0.0002
-0.0002
-0.0002
-0.0002
-0.0002
-0.0002
-0.0002
-0.0002
-0.0002
-0.0002
-0.0002
-0.0002
-0.0002
-0.0002
-0.0002
-0.0002
-0.0002
-0.0002
-0.0002
-0.0002
-0.0002
-0.0002
-0.0002
-0.0002
-0.0002
-0.0002
-0.0002
-0.0002
-0.0002
-0.0002
-0.0002
-0.0002
-0.0002
-0.0002
-0.0002
-0.0002
-0.0002
-0.0002
-0.0002
-0.0002
-0.0002
-0.0002
-0.0002
-0.0002
-0.0002
-0.0002
-0.0002
-0.0002
-0.0002
-0.0002
-0.0002
-0.0002
-0.0002
-0.0002
-0.0002
-0.0002
-0.0002
-0.0002
-0.0002
-0.0002
-0.0002
-0.0002
-0.0002
-0.0002
-0.0002
-0.0002
-0.0002
-0.0002
-0.0002
-0.0002
-0.0002
-0.0002
-0.0002
-0.0002
-0.0002
-0.0002
-0.0002
-0.0002
-0.0002
-0.0002
-0.0002
-0.0002
-0.0002
-0.0002
-0.0002
-0.0002
-0.0002
-0.0002
-0.0002
-0.0002
-0.0002
-0.0002
-0.0002
-0.0002
-0.0002
-0.0002
-0.0002
-0.0002
-0.0002
-0.0002
-0.0002
-0.0002
-0.0002
-0.0002
-0.0002
-0.0002
-0.0002
-0.0002
-0.0002
-0.0002
-0.0002
-0.0002
-0.0002
-0.0002
-0.0002
-0.0002
-0.0002
-0.0002
-0.0002
-0.0002
-0.0002
-0.0002
-0.0002
-0.0002
-0.0002
-0.0002
-0.0002
-0.0002
-0.0002
-0.0002
-0.0002
-0.0002
-0.0002
-0.0002
-0.0002
-0.0002
-0.0002
-0.0002
-0.0002
-0.0002
-0.0002
-0.0002
-0.0002
-0.0002
-0.0002
-0.0002
-0.0002
-0.0002
-0.0002
-0.0002
-0.0002
-0.0002
-0.0002
-0.0002
-0.0002
-0.0002
-0.0002
-0.0002
-0.0002
-0.0002
-0.0002
-0.0002
-0.0002
-0.0002
-0.0002
-0.0002
-0.0002
-0.0002
-0.0002
-0.0002
-0.0002
-0.0002
-0.0002
-0.0002
-0.0002
-0.0002
-0.0002
-0.0002
-0.0002
-0.0002
-0.0002
-0.0002
-0.0002
-0.0002
-0.0002
-0.0002
-0.0002
-0.0003
-0.0003
-0.0003
-0.0003
-0.0003
-0.0003
-0.0003
-0.0003
-0.0003
-0.0003
-0.0003
-0.0003
-0.0003
-0.0003
-0.0003
-0.0003
-0.0003
-0.0003
-0.0003
-0.0003
-0.0003
-0.0003
-0.0003
-0.0003
-0.0003
-0.0003
-0.0003
-0.0003
-0.0003
-0.0003
-0.0003
-0.0003
-0.0003
-0.0003
-0.0003
-0.0003
-0.0003
-0.0003
-0.0003
-0.0003
-0.0003
-0.0003
-0.0003
-0.0003
-0.0003
-0.0003
-0.0003
-0.0003
-0.0003
-0.0003
-0.0003
-0.0003
-0.0003
-0.0003
-0.0003
-0.0003
-0.0003
-0.0003
-0.0003
-0.0003
-0.0003
-0.0003
-0.0003
-0.0003
-0.0003
-0.0003
-0.0003
-0.0003
-0.0003
-0.0003
-0.0003
-0.0003
-0.0003
-0.0003
-0.0003
-0.0003
-0.0003
-0.0003
-0.0003
-0.0003
-0.0003
-0.0003
-0.0003
-0.0003
-0.0003
-0.0003
-0.0003
-0.0003
-0.0003
-0.0003
-0.0003
-0.0003
-0.0003
-0.0003
-0.0003
-0.0003
-0.0003
-0.0003
-0.0003
-0.0003
-0.0003
-0.0003
-0.0003
-0.0003
-0.0003
-0.0003
-0.0003
-0.0003
-0.0003
-0.0003
-0.0003
-0.0003
-0.0003
-0.0003
-0.0003
-0.0003
-0.0003
-0.0003
-0.0003
-0.0003
-0.0003
-0.0003
-0.0003
-0.0003
-0.0003
-0.0003
-0.0003
-0.0003
-0.0003
-0.0003
-0.0003
-0.0003
-0.0003
-0.0003
-0.0003
-0.0003
-0.0003
-0.0003
-0.0003
-0.0003
-0.0003
-0.0003
-0.0003
-0.0003
-0.0003
-0.0003
-0.0003
-0.0003
-0.0003
-0.0003
-0.0003
-0.0003
-0.0003
-0.0003
-0.0003
-0.0003
-0.0003
-0.0003
-0.0003
-0.0003
-0.0003
-0.0003
-0.0003
-0.0003
-0.0003
-0.0003
-0.0003
-0.0003
-0.0003
-0.0003
-0.0003
-0.0003
-0.0003
-0.0003
-0.0003
-0.0003
-0.0003
-0.0003
-0.0003
-0.0003
-0.0003
-0.0003
-0.0003
-0.0003
-0.0003
-0.0003
-0.0003
-0.0003
-0.0003
-0.0003
-0.0003
-0.0003
-0.0003
-0.0003
-0.0003
-0.0003
-0.0003
-0.0003
-0.0003
-0.0003
-0.0003
-0.0003
-0.0003
-0.0003
-0.0003
-0.0003
-0.0003
SCALARS strain_1 float
LOOKUP_TABLE default
-0.000217
-0.346634
-0.341395
-0.336128
-0.330839
-0.325523
-0.320185
-0.314827
-0.309447
-0.304050
-0.298634
-0.293202
-0.287757
-0.282299
-0.276829
-0.271350
-0.265864
-0.260371
-0.254874
-0.249375
-0.243876
-0.238377
-0.232884
-0.227395
-0.221914
-0.216445
-0.210988
-0.205544
-0.200117
-0.194713
-0.189327
-0.183967
-0.178633
-0.173329
-0.168055
-0.162817
-0.157615
-0.152452
-0.147333
-0.142257
-0.137229
-0.132253
-0.127326
-0.122456
-0.117644
-0.112894
-0.108205
-0.103583
-0.099030
-0.094548
-0.090139
-0.085806
-0.081551
-0.077379
-0.073287
-0.069282
-0.065364
-0.061536
-0.057799
-0.054157
-0.050610
-0.047160
-0.043809
-0.040558
-0.037410
-0.034365
-0.031422
-0.028587
-0.025857
-0.023235
-0.020721
-0.018315
-0.016018
-0.013829
-0.011750
-0.009779
-0.007918
-0.006164
-0.004518
-0.002980
-0.001545
-0.346944
-0.000008
-0.001340
-0.002777
-0.004322
-0.005971
-0.007729
-0.009596
-0.011571
-0.013656
-0.015850
-0.018153
-0.020565
-0.023085
-0.025714
-0.028449
-0.031292
-0.034240
-0.037291
-0.040448
-0.043707
-0.047064
-0.050522
-0.054076
-0.057726
-0.061471
-0.065305
-0.069232
-0.073245
-0.077342
-0.081526
-0.085788
-0.090129
-0.094546
-0.099036
-0.103598
-0.108228
-0.112924
-0.117683
-0.122503
-0.127381
-0.132313
-0.137300
-0.142335
-0.147418
-0.152547
-0.157718
-0.162926
-0.168173
-0.173454
-0.178766
-0.184107
-0.189474
-0.194866
-0.200280
-0.205713
-0.211163
-0.216629
-0.222105
-0.227591
-0.233087
-0.238587
-0.244090
-0.249596
-0.255101
-0.260605
-0.266103
-0.271595
-0.277079
-0.282554
-0.288017
-0.293468
-0.298904
-0.304325
-0.309726
-0.315111
-0.320474
-0.325817
-0.331136
-0.336431
-0.341700
-0.346915
-0.346886
-0.346855
-0.346825
-0.346795
-0.346764
-0.346733
-0.346700
-0.346668
-0.000177
-0.000139
-0.000107
-0.000080
-0.000056
-0.000037
-0.000023
-0.000013
-0.000009
-0.001341
-0.001345
-0.001355
-0.001367
-0.001385
-0.001409
-0.001436
-0.001468
-0.001505
-0.002777
-0.002782
-0.002790
-0.002802
-0.002821
-0.002843
-0.002870
-0.002903
-0.002938
-0.004319
-0.004323
-0.004331
-0.004344
-0.004361
-0.004384
-0.004411
-0.004442
-0.004478
-0.005970
-0.005973
-0.005980
-0.005993
-0.006010
-0.006032
-0.006057
-0.006088
-0.006124
-0.007728
-0.007730
-0.007738
-0.007749
-0.007766
-0.007787
-0.007813
-0.007843
-0.007879
-0.009595
-0.009596
-0.009602
-0.009614
-0.009630
-0.009651
-0.009676
-0.009706
-0.009740
-0.011568
-0.011570
-0.011576
-0.011587
-0.011602
-0.011622
-0.011648
-0.011677
-0.011711
-0.013653
-0.013654
-0.013659
-0.013669
-0.013684
-0.013704
-0.013728
-0.013757
-0.013792
-0.015846
-0.015847
-0.015852
-0.015861
-0.015876
-0.015895
-0.015918
-0.015947
-0.015980
-0.018148
-0.018148
-0.018153
-0.018162
-0.018175
-0.018194
-0.018218
-0.018246
-0.018278
-0.020559
-0.020558
-0.020563
-0.020571
-0.020585
-0.020602
-0.020625
-0.020652
-0.020685
-0.023079
-0.023078
-0.023082
-0.023091
-0.023102
-0.023120
-0.023142
-0.023168
-0.023200
-0.025707
-0.025705
-0.025708
-0.025716
-0.025727
-0.025744
-0.025766
-0.025792
-0.025823
-0.028442
-0.028440
-0.028442
-0.028450
-0.028461
-0.028476
-0.028497
-0.028523
-0.028553
-0.031284
-0.031282
-0.031283
-0.031289
-0.031300
-0.031316
-0.031335
-0.031360
-0.031389
-0.034232
-0.034229
-0.034229
-0.034234
-0.034245
-0.034260
-0.034279
-0.034303
-0.034331
-0.037283
-0.037279
-0.037280
-0.037285
-0.037295
-0.037308
-0.037328
-0.037349
-0.037377
-0.040438
-0.040434
-0.040435
-0.040439
-0.040448
-0.040461
-0.040478
-0.040501
-0.040528
-0.043696
-0.043692
-0.043690
-0.043693
-0.043701
-0.043715
-0.043731
-0.043754
-0.043778
-0.047053
-0.047049
-0.047047
-0.047049
-0.047057
-0.047069
-0.047086
-0.047106
-0.047131
-0.050511
-0.050505
-0.050501
-0.050504
-0.050512
-0.050522
-0.050538
-0.050558
-0.050582
-0.054065
-0.054058
-0.054055
-0.054057
-0.054062
-0.054073
-0.054087
-0.054106
-0.054130
-0.057714
-0.057707
-0.057704
-0.057705
-0.057711
-0.057720
-0.057734
-0.057751
-0.057773
-0.061459
-0.061450
-0.061447
-0.061447
-0.061452
-0.061459
-0.061473
-0.061489
-0.061511
-0.065293
-0.065285
-0.065280
-0.065280
-0.065284
-0.065292
-0.065304
-0.065320
-0.065340
-0.069219
-0.069210
-0.069205
-0.069203
-0.069206
-0.069213
-0.069225
-0.069240
-0.069259
-0.073232
-0.073222
-0.073215
-0.073214
-0.073216
-0.073222
-0.073233
-0.073246
-0.073265
-0.077329
-0.077319
-0.077312
-0.077310
-0.077312
-0.077317
-0.077326
-0.077340
-0.077356
-0.081511
-0.081500
-0.081492
-0.081490
-0.081491
-0.081495
-0.081502
-0.081514
-0.081531
-0.085773
-0.085761
-0.085753
-0.085750
-0.085749
-0.085754
-0.085760
-0.085772
-0.085787
-0.090114
-0.090102
-0.090093
-0.090088
-0.090087
-0.090090
-0.090097
-0.090107
-0.090121
-0.094529
-0.094517
-0.094508
-0.094504
-0.094502
-0.094504
-0.094509
-0.094518
-0.094531
-0.099020
-0.099007
-0.098997
-0.098991
-0.098990
-0.098990
-0.098994
-0.099002
-0.099015
-0.103582
-0.103567
-0.103557
-0.103551
-0.103547
-0.103547
-0.103551
-0.103558
-0.103569
-0.108210
-0.108197
-0.108185
-0.108179
-0.108175
-0.108173
-0.108177
-0.108182
-0.108192
-0.112905
-0.112892
-0.112880
-0.112873
-0.112867
-0.112866
-0.112868
-0.112873
-0.112881
-0.117665
-0.117650
-0.117638
-0.117628
-0.117624
-0.117621
-0.117622
-0.117626
-0.117634
-0.122484
-0.122468
-0.122456
-0.122447
-0.122439
-0.122437
-0.122437
-0.122440
-0.122447
-0.127361
-0.127345
-0.127332
-0.127323
-0.127315
-0.127311
-0.127310
-0.127313
-0.127316
-0.132295
-0.132278
-0.132264
-0.132254
-0.132246
-0.132241
-0.132240
-0.132240
-0.132244
-0.137280
-0.137263
-0.137248
-0.137237
-0.137229
-0.137223
-0.137220
-0.137220
-0.137223
-0.142315
-0.142298
-0.142283
-0.142270
-0.142263
-0.142256
-0.142252
-0.142250
-0.142253
-0.147399
-0.147380
-0.147364
-0.147353
-0.147343
-0.147334
-0.147330
-0.147328
-0.147330
-0.152526
-0.152508
-0.152491
-0.152479
-0.152467
-0.152459
-0.152453
-0.152450
-0.152450
-0.157696
-0.157677
-0.157660
-0.157647
-0.157634
-0.157626
-0.157620
-0.157616
-0.157614
-0.162905
-0.162885
-0.162869
-0.162855
-0.162842
-0.162832
-0.162824
-0.162819
-0.162818
-0.168151
-0.168131
-0.168114
-0.168098
-0.168084
-0.168074
-0.168066
-0.168060
-0.168057
-0.173431
-0.173411
-0.173392
-0.173376
-0.173362
-0.173352
-0.173342
-0.173335
-0.173331
-0.178743
-0.178723
-0.178703
-0.178687
-0.178674
-0.178660
-0.178651
-0.178642
-0.178637
-0.184084
-0.184063
-0.184044
-0.184026
-0.184011
-0.183998
-0.183987
-0.183978
-0.183972
-0.189451
-0.189430
-0.189411
-0.189393
-0.189376
-0.189363
-0.189351
-0.189341
-0.189333
-0.194844
-0.194821
-0.194801
-0.194782
-0.194766
-0.194752
-0.194740
-0.194728
-0.194719
-0.200257
-0.200234
-0.200213
-0.200194
-0.200177
-0.200162
-0.200149
-0.200137
-0.200128
-0.205689
-0.205667
-0.205645
-0.205626
-0.205608
-0.205592
-0.205577
-0.205565
-0.205554
-0.211138
-0.211116
-0.211094
-0.211074
-0.211056
-0.211040
-0.211024
-0.211010
-0.210998
-0.216602
-0.216580
-0.216557
-0.216537
-0.216518
-0.216499
-0.216484
-0.216468
-0.216457
-0.222079
-0.222056
-0.222032
-0.222013
-0.221992
-0.221974
-0.221957
-0.221942
-0.221928
-0.227566
-0.227542
-0.227518
-0.227497
-0.227477
-0.227458
-0.227441
-0.227425
-0.227410
-0.233061
-0.233036
-0.233013
-0.232990
-0.232970
-0.232949
-0.232931
-0.232915
-0.232899
-0.238561
-0.238536
-0.238512
-0.238490
-0.238467
-0.238447
-0.238428
-0.238410
-0.238393
-0.244064
-0.244039
-0.244015
-0.243992
-0.243970
-0.243947
-0.243929
-0.243910
-0.243892
-0.249569
-0.249544
-0.249519
-0.249495
-0.249473
-0.249451
-0.249431
-0.249411
-0.249393
-0.255074
-0.255048
-0.255024
-0.255000
-0.254977
-0.254954
-0.254932
-0.254912
-0.254893
-0.260577
-0.260551
-0.260526
-0.260502
-0.260478
-0.260454
-0.260433
-0.260411
-0.260391
-0.266076
-0.266050
-0.266023
-0.265998
-0.265975
-0.265951
-0.265928
-0.265906
-0.265884
-0.271567
-0.271540
-0.271516
-0.271489
-0.271464
-0.271439
-0.271417
-0.271394
-0.271372
-0.277052
-0.277024
-0.276999
-0.276972
-0.276948
-0.276922
-0.276898
-0.276876
-0.276852
-0.282526
-0.282500
-0.282472
-0.282447
-0.282420
-0.282395
-0.282371
-0.282346
-0.282322
-0.287991
-0.287963
-0.287936
-0.287909
-0.287883
-0.287856
-0.287832
-0.287804
-0.287781
-0.293440
-0.293412
-0.293385
-0.293359
-0.293332
-0.293306
-0.293280
-0.293254
-0.293228
-0.298876
-0.298848
-0.298821
-0.298793
-0.298767
-0.298739
-0.298713
-0.298685
-0.298659
-0.304295
-0.304269
-0.304240
-0.304212
-0.304185
-0.304157
-0.304131
-0.304104
-0.304076
-0.309699
-0.309671
-0.309643
-0.309614
-0.309586
-0.309559
-0.309530
-0.309502
-0.309475
-0.315083
-0.315054
-0.315025
-0.314998
-0.314968
-0.314940
-0.314912
-0.314883
-0.314854
-0.320446
-0.320418
-0.320389
-0.320360
-0.320331
-0.320302
-0.320273
-0.320244
-0.320214
-0.325788
-0.325759
-0.325730
-0.325701
-0.325671
-0.325642
-0.325613
-0.325583
-0.325553
-0.331107
-0.331078
-0.331049
-0.331020
-0.330989
-0.330960
-0.330929
-0.330899
-0.330868
-0.336402
-0.336373
-0.336344
-0.336314
-0.336284
-0.336253
-0.336224
-0.336191
-0.336160
-0.341672
-0.341642
-0.341612
-0.341582
-0.341553
-0.341521
-0.341490
-0.341459
-0.341428
SCALARS strain_2 float
LOOKUP_TABLE default
-0.000462
-0.002138
-0.002152
-0.002154
-0.002156
-0.002151
-0.002148
-0.002152
-0.002146
-0.002150
-0.002144
-0.002148
-0.002143
-0.002142
-0.002143
-0.002140
-0.002138
-0.002126
-0.002133
-0.002126
-0.002111
-0.002117
-0.002111
-0.002099
-0.002088
-0.002088
-0.002077
-0.002070
-0.002061
-0.002054
-0.002041
-0.002027
-0.002022
-0.002008
-0.001995
-0.001987
-0.001965
-0.001949
-0.001933
-0.001924
-0.001901
-0.001881
-0.001867
-0.001845
-0.001821
-0.001804
-0.001785
-0.001761
-0.001741
-0.001710
-0.001681
-0.001657
-0.001632
-0.001607
-0.001577
-0.001540
-0.001509
-0.001480
-0.001448
-0.001412
-0.001381
-0.001349
-0.001306
-0.001274
-0.001233
-0.001199
-0.001156
-0.001117
-0.001076
-0.001036
-0.000989
-0.000948
-0.000903
-0.000859
-0.000803
-0.000764
-0.000714
-0.000667
-0.000615
-0.000570
-0.000513
0.003630
0.003719
0.003733
0.003742
0.003738
0.003747
0.003753
0.003755
0.003769
0.003767
0.003777
0.003777
0.003785
0.003782
0.003791
0.003793
0.003798
0.003796
0.003807
0.003812
0.003812
0.003812
0.003823
0.003828
0.003833
0.003836
0.003834
0.003840
0.003840
0.003836
0.003847
0.003847
0.003842
0.003850
0.003848
0.003847
0.003856
0.003855
0.003853
0.003847
0.003850
0.003857
0.003851
0.003844
0.003852
0.003834
0.003843
0.003845
0.003830
0.003839
0.003830
0.003828
0.003833
0.003829
0.003828
0.003823
0.003818
0.003807
0.003808
0.003800
0.003792
0.003791
0.003784
0.003784
0.003776
0.003768
0.003757
0.003749
0.003742
0.003743
0.003735
0.003720
0.003716
0.003708
0.003699
0.003699
0.003686
0.003674
0.003662
0.003652
0.003641
0.003056
0.002475
0.001904
0.001328
0.000745
0.000162
-0.000417
-0.000992
-0.001567
-0.000041
0.000375
0.000791
0.001216
0.001634
0.002046
0.002465
0.002892
0.003304
0.003311
0.002883
0.002456
0.002027
0.001612
0.001182
0.000756
0.000331
-0.000095
0.003311
0.002880
0.002440
0.002014
0.001585
0.001151
0.000723
0.000285
-0.000136
0.003300
0.002875
0.002436
0.001996
0.001562
0.001134
0.000685
0.000259
-0.000179
0.003305
0.002865
0.002422
0.001989
0.001535
0.001097
0.000655
0.000209
-0.000232
0.003306
0.002863
0.002423
0.001965
0.001521
0.001078
0.000621
0.000178
-0.000268
0.003305
0.002850
0.002399
0.001952
0.001501
0.001048
0.000589
0.000139
-0.000311
0.003302
0.002851
0.002397
0.001933
0.001478
0.001024
0.000561
0.000107
-0.000355
0.003299
0.002841
0.002382
0.001918
0.001455
0.000999
0.000538
0.000068
-0.000393
0.003309
0.002837
0.002371
0.001911
0.001433
0.000966
0.000498
0.000032
-0.000437
0.003306
0.002836
0.002359
0.001891
0.001413
0.000944
0.000476
-0.000001
-0.000477
0.003303
0.002830
0.002356
0.001877
0.001396
0.000922
0.000440
-0.000033
-0.000516
0.003300
0.002823
0.002342
0.001865
0.001378
0.000902
0.000412
-0.000064
-0.000554
0.003312
0.002812
0.002337
0.001840
0.001359
0.000868
0.000382
-0.000108
-0.000586
0.003312
0.002813
0.002323
0.001833
0.001339
0.000851
0.000360
-0.000133
-0.000628
0.003304
0.002812
0.002320
0.001818
0.001327
0.000825
0.000328
-0.000163
-0.000658
0.003304
0.002806
0.002309
0.001810
0.001308
0.000805
0.000305
-0.000200
-0.000704
0.003304
0.002795
0.002297
0.001793
0.001289
0.000784
0.000275
-0.000221
-0.000731
0.003307
0.002795
0.002289
0.001782
0.001273
0.000764
0.000248
-0.000256
-0.000763
0.003305
0.002795
0.002285
0.001766
0.001254
0.000740
0.000226
-0.000278
-0.000795
0.003307
0.002785
0.002275
0.001754
0.001239
0.000720
0.000210
-0.000313
-0.000831
0.003303
0.002781
0.002267
0.001735
0.001218
0.000699
0.000188
-0.000345
-0.000859
0.003299
0.002781
0.002258
0.001726
0.001208
0.000683
0.000161
-0.000368
-0.000887
0.003300
0.002776
0.002254
0.001712
0.001189
0.000659
0.000139
-0.000391
-0.000919
0.003299
0.002768
0.002237
0.001697
0.001175
0.000646
0.000116
-0.000420
-0.000947
0.003303
0.002769
0.002227
0.001700
0.001169
0.000627
0.000089
-0.000447
-0.000976
0.003305
0.002765
0.002218
0.001687
0.001141
0.000603
0.000064
-0.000472
-0.001011
0.003296
0.002753
0.002220
0.001676
0.001130
0.000597
0.000049
-0.000483
-0.001031
0.003291
0.002756
0.002210
0.001663
0.001118
0.000573
0.000027
-0.000511
-0.001059
0.003299
0.002745
0.002210
0.001657
0.001105
0.000560
0.000011
-0.000536
-0.001089
0.003294
0.002747
0.002193
0.001644
0.001093
0.000539
-0.000008
-0.000563
-0.001109
0.003304
0.002746
0.002184
0.001637
0.001076
0.000524
-0.000028
-0.000576
-0.001132
0.003293
0.002739
0.002185
0.001625
0.001066
0.000517
-0.000043
-0.000600
-0.001153
0.003288
0.002732
0.002178
0.001615
0.001059
0.000500
-0.000062
-0.000620
-0.001179
0.003288
0.002723
0.002170
0.001611
0.001046
0.000481
-0.000080
-0.000629
-0.001198
0.003291
0.002731
0.002159
0.001601
0.001034
0.000477
-0.000094
-0.000658
-0.001212
0.003288
0.002719
0.002161
0.001585
0.001027
0.000461
-0.000100
-0.000672
-0.001241
0.003285
0.002717
0.002158
0.001585
0.001015
0.000446
-0.000116
-0.000692
-0.001250
0.003281
0.002713
0.002149
0.001568
0.001007
0.000430
-0.000137
-0.000708
-0.001273
0.003276
0.002713
0.002139
0.001560
0.000996
0.000423
-0.000155
-0.000720
-0.001293
0.003277
0.002701
0.002129
0.001554
0.000980
0.000416
-0.000159
-0.000736
-0.001309
0.003287
0.002704
0.002120
0.001545
0.000976
0.000395
-0.000185
-0.000758
-0.001323
0.003276
0.002695
0.002119
0.001544
0.000970
0.000388
-0.000193
-0.000761
-0.001342
0.003268
0.002688
0.002113
0.001536
0.000956
0.000370
-0.000205
-0.000779
-0.001356
0.003270
0.002682
0.002101
0.001530
0.000945
0.000362
-0.000212
-0.000794
-0.001371
0.003261
0.002678
0.002110
0.001525
0.000941
0.000357
-0.000223
-0.000805
-0.001386
0.003259
0.002682
0.002097
0.001508
0.000932
0.000346
-0.000239
-0.000814
-0.001395
0.003259
0.002672
0.002095
0.001518
0.000924
0.000337
-0.000249
-0.000823
-0.001411
0.003248
0.002674
0.002084
0.001498
0.000911
0.000327
-0.000253
-0.000837
-0.001424
0.003256
0.002661
0.002085
0.001494
0.000913
0.000322
-0.000261
-0.000849
-0.001433
0.003249
0.002664
0.002069
0.001478
0.000899
0.000313
-0.000273
-0.000845
-0.001447
0.003244
0.002657
0.002071
0.001477
0.000886
0.000309
-0.000283
-0.000864
-0.001457
0.003239
0.002652
0.002063
0.001480
0.000886
0.000302
-0.000281
-0.000879
-0.001455
0.003232
0.002652
0.002062
0.001462
0.000881
0.000294
-0.000294
-0.000884
-0.001474
0.003233
0.002645
0.002050
0.001459
0.000874
0.000287
-0.000303
-0.000898
-0.001482
0.003221
0.002640
0.002052
0.001462
0.000866
0.000287
-0.000310
-0.000900
-0.001493
0.003219
0.002625
0.002041
0.001452
0.000868
0.000272
-0.000319
-0.000908
-0.001495
0.003216
0.002625
0.002041
0.001448
0.000861
0.000268
-0.000329
-0.000914
-0.001504
0.003217
0.002624
0.002035
0.001441
0.000855
0.000260
-0.000329
-0.000922
-0.001524
0.003208
0.002609
0.002030
0.001441
0.000843
0.000255
-0.000326
-0.000925
-0.001518
0.003206
0.002610
0.002030
0.001432
0.000838
0.000249
-0.000349
-0.000938
-0.001517
0.003193
0.002607
0.002014
0.001429
0.000836
0.000238
-0.000346
-0.000938
-0.001525
0.003196
0.002602
0.002007
0.001421
0.000830
0.000234
-0.000346
-0.000949
-0.001537
0.003183
0.002590
0.002003
0.001413
0.000821
0.000240
-0.000361
-0.000950
-0.001541
0.003179
0.002582
0.001992
0.001405
0.000816
0.000226
-0.000358
-0.000954
-0.001539
0.003174
0.002583
0.001991
0.001403
0.000816
0.000223
-0.000371
-0.000951
-0.001546
0.003169
0.002571
0.001986
0.001396
0.000803
0.000225
-0.000368
-0.000960
-0.001549
0.003157
0.002569
0.001984
0.001392
0.000806
0.000216
-0.000374
-0.000957
-0.001549
0.003151
0.002567
0.001975
0.001391
0.000798
0.000214
-0.000377
-0.000969
-0.001561
0.003140
0.002564
0.001960
0.001391
0.000793
0.000201
-0.000384
-0.000974
-0.001558
0.003144
0.002555
0.001961
0.001372
0.000794
0.000196
-0.000388
-0.000974
-0.001551
0.003137
0.002547
0.001959
0.001368
0.000783
0.000199
-0.000393
-0.000976
-0.001560
0.003125
0.002541
0.001958
0.001362
0.000778
0.000188
-0.000392
-0.000975
-0.001567
0.003118
0.002526
0.001950
0.001357
0.000779
0.000190
-0.000395
-0.000983
-0.001571
0.003105
0.002525
0.001936
0.001351
0.000773
0.000187
-0.000404
-0.000982
-0.001566
0.003102
0.002521
0.001928
0.001350
0.000765
0.000184
-0.000403
-0.000985
-0.001570
0.003093
0.002508
0.001936
0.001342
0.000760
0.000177
-0.000405
-0.000981
-0.001563
0.003087
0.002497
0.001921
0.001344
0.000751
0.000174
-0.000404
-0.000996
-0.001573
0.003073
0.002496
0.001918
0.001335
0.000750
0.000172
-0.000406
-0.000984
-0.001570
0.003068
0.002487
0.001910
0.001326
0.000743
0.000169
-0.000412
-0.000987
-0.001570
SCALARS strain_3 float
LOOKUP_TABLE default
0.001775
0.113865
0.112256
0.110640
0.109009
0.107375
0.105729
0.104082
0.102421
0.100756
0.099083
0.097403
0.095719
0.094034
0.092338
0.090640
0.088939
0.087234
0.085522
0.083813
0.082098
0.080387
0.078671
0.076960
0.075243
0.073530
0.071824
0.070118
0.068409
0.066710
0.065013
0.063327
0.061636
0.059960
0.058289
0.056628
0.054971
0.053329
0.051697
0.050075
0.048465
0.046872
0.045284
0.043720
0.042166
0.040632
0.039109
0.037603
0.036122
0.034655
0.033213
0.031794
0.030389
0.029007
0.027647
0.026315
0.025003
0.023724
0.022465
0.021236
0.020029
0.018851
0.017705
0.016586
0.015496
0.014433
0.013402
0.012408
0.011440
0.010499
0.009597
0.008719
0.007879
0.007068
0.006294
0.005551
0.004837
0.004160
0.003516
0.002902
0.002320
0.110911
-0.000928
-0.000403
0.000154
0.000746
0.001371
0.002028
0.002722
0.003441
0.004201
0.004987
0.005810
0.006670
0.007558
0.008479
0.009434
0.010413
0.011435
0.012481
0.013555
0.014663
0.015802
0.016965
0.018152
0.019378
0.020626
0.021900
0.023202
0.024525
0.025877
0.027253
0.028643
0.030065
0.031503
0.032964
0.034443
0.035942
0.037460
0.038992
0.040544
0.042111
0.043695
0.045286
0.046896
0.048522
0.050158
0.051795
0.053456
0.055120
0.056790
0.058469
0.060160
0.061850
0.063550
0.065258
0.066966
0.068679
0.070394
0.072108
0.073833
0.075549
0.077269
0.078990
0.080708
0.082426
0.084141
0.085857
0.087568
0.089271
0.090974
0.092670
0.094360
0.096046
0.097731
0.099406
0.101070
0.102732
0.104382
0.106028
0.107670
0.109294
0.111207
0.111507
0.111804
0.112101
0.112389
0.112688
0.112984
0.113279
0.113570
0.001498
0.001220
0.000948
0.000672
0.000406
0.000136
-0.000130
-0.000400
-0.000662
-0.000134
0.000133
0.000400
0.000668
0.000942
0.001215
0.001488
0.001763
0.002045
0.000426
0.000691
0.000965
0.001235
0.001511
0.001787
0.002062
0.002341
0.002624
0.001012
0.001289
0.001562
0.001837
0.002112
0.002390
0.002670
0.002948
0.003230
0.001642
0.001918
0.002189
0.002464
0.002746
0.003026
0.003309
0.003594
0.003878
0.002304
0.002578
0.002858
0.003133
0.003420
0.003699
0.003981
0.004264
0.004553
0.002995
0.003274
0.003549
0.003834
0.004117
0.004401
0.004685
0.004971
0.005263
0.003721
0.003998
0.004281
0.004567
0.004853
0.005134
0.005424
0.005711
0.006004
0.004480
0.004762
0.005045
0.005332
0.005618
0.005906
0.006192
0.006486
0.006779
0.005275
0.005559
0.005840
0.006128
0.006421
0.006705
0.006996
0.007289
0.007588
0.006100
0.006387
0.006670
0.006959
0.007250
0.007539
0.007833
0.008125
0.008423
0.006956
0.007247
0.007528
0.007820
0.008112
0.008407
0.008701
0.008999
0.009295
0.007847
0.008137
0.008425
0.008719
0.009015
0.009306
0.009603
0.009901
0.010199
0.008771
0.009058
0.009351
0.009647
0.009938
0.010240
0.010534
0.010837
0.011138
0.009726
0.010012
0.010310
0.010605
0.010902
0.011203
0.011501
0.011800
0.012099
0.010709
0.011001
0.011301
0.011595
0.011897
0.012191
0.012494
0.012799
0.013102
0.011724
0.012021
0.012317
0.012618
0.012919
0.013219
0.013519
0.013825
0.014128
0.012772
0.013073
0.013369
0.013672
0.013971
0.014272
0.014575
0.014881
0.015190
0.013853
0.014148
0.014446
0.014748
0.015057
0.015357
0.015666
0.015967
0.016273
0.014960
0.015261
0.015561
0.015865
0.016168
0.016474
0.016784
0.017083
0.017399
0.016102
0.016398
0.016702
0.017002
0.017312
0.017614
0.017923
0.018232
0.018542
0.017266
0.017567
0.017870
0.018177
0.018480
0.018790
0.019097
0.019408
0.019717
0.018462
0.018766
0.019067
0.019373
0.019681
0.019993
0.020299
0.020609
0.020921
0.019681
0.019987
0.020292
0.020595
0.020906
0.021216
0.021529
0.021838
0.022153
0.020930
0.021232
0.021547
0.021855
0.022162
0.022472
0.022782
0.023096
0.023411
0.022206
0.022512
0.022823
0.023133
0.023439
0.023752
0.024065
0.024375
0.024690
0.023506
0.023813
0.024121
0.024433
0.024746
0.025057
0.025366
0.025683
0.025994
0.024833
0.025142
0.025452
0.025762
0.026074
0.026387
0.026703
0.027017
0.027333
0.026186
0.026495
0.026802
0.027110
0.027428
0.027741
0.028058
0.028371
0.028690
0.027558
0.027866
0.028178
0.028496
0.028803
0.029116
0.029433
0.029749
0.030071
0.028955
0.029269
0.029572
0.029891
0.030203
0.030515
0.030836
0.031150
0.031476
0.030374
0.030683
0.030999
0.031310
0.031625
0.031942
0.032258
0.032575
0.032897
0.031813
0.032125
0.032440
0.032750
0.033063
0.033384
0.033699
0.034019
0.034340
0.033275
0.033587
0.033903
0.034214
0.034529
0.034847
0.035165
0.035480
0.035804
0.034757
0.035068
0.035381
0.035698
0.036011
0.036326
0.036649
0.036965
0.037283
0.036254
0.036571
0.036882
0.037197
0.037513
0.037828
0.038153
0.038466
0.038786
0.037772
0.038085
0.038399
0.038716
0.039036
0.039348
0.039664
0.039986
0.040305
0.039303
0.039620
0.039938
0.040254
0.040567
0.040885
0.041203
0.041522
0.041843
0.040858
0.041172
0.041490
0.041801
0.042121
0.042438
0.042755
0.043075
0.043395
0.042423
0.042741
0.043053
0.043374
0.043687
0.044008
0.044327
0.044646
0.044963
0.044008
0.044322
0.044636
0.044955
0.045269
0.045587
0.045910
0.046228
0.046549
0.045603
0.045916
0.046236
0.046550
0.046868
0.047182
0.047503
0.047824
0.048144
0.047218
0.047526
0.047842
0.048160
0.048475
0.048799
0.049114
0.049433
0.049754
0.048833
0.049153
0.049465
0.049780
0.050097
0.050419
0.050738
0.051057
0.051377
0.050468
0.050788
0.051101
0.051415
0.051733
0.052053
0.052366
0.052692
0.053011
0.052112
0.052430
0.052741
0.053061
0.053379
0.053695
0.054013
0.054332
0.054654
0.053769
0.054082
0.054394
0.054716
0.055035
0.055353
0.055668
0.055990
0.056309
0.055436
0.055747
0.056064
0.056382
0.056695
0.057012
0.057328
0.057650
0.057970
0.057106
0.057422
0.057729
0.058054
0.058371
0.058690
0.059001
0.059320
0.059638
0.058784
0.059100
0.059416
0.059738
0.060048
0.060364
0.060684
0.061002
0.061320
0.060473
0.060786
0.061104
0.061418
0.061735
0.062049
0.062366
0.062683
0.063006
0.062164
0.062486
0.062794
0.063110
0.063425
0.063742
0.064060
0.064381
0.064695
0.063868
0.064181
0.064498
0.064811
0.065124
0.065443
0.065757
0.066074
0.066392
0.065571
0.065882
0.066200
0.066512
0.066831
0.067147
0.067463
0.067777
0.068094
0.067281
0.067593
0.067909
0.068222
0.068531
0.068848
0.069165
0.069479
0.069800
0.068992
0.069303
0.069617
0.069935
0.070245
0.070558
0.070876
0.071191
0.071505
0.070707
0.071020
0.071331
0.071647
0.071960
0.072274
0.072590
0.072906
0.073220
0.072424
0.072738
0.073046
0.073357
0.073673
0.073987
0.074305
0.074613
0.074926
0.074141
0.074452
0.074763
0.075077
0.075389
0.075706
0.076020
0.076332
0.076644
0.075862
0.076174
0.076486
0.076793
0.077109
0.077418
0.077734
0.078046
0.078360
0.077581
0.077892
0.078201
0.078514
0.078822
0.079135
0.079451
0.079762
0.080074
0.079300
0.079612
0.079919
0.080231
0.080546
0.080857
0.081165
0.081474
0.081790
0.081018
0.081331
0.081639
0.081948
0.082260
0.082571
0.082881
0.083189
0.083505
0.082736
0.083043
0.083351
0.083662
0.083973
0.084281
0.084589
0.084903
0.085211
0.084449
0.084761
0.085068
0.085375
0.085684
0.086000
0.086301
0.086613
0.086923
0.086162
0.086473
0.086782
0.087084
0.087395
0.087707
0.088009
0.088323
0.088628
0.087869
0.088175
0.088488
0.088792
0.089103
0.089411
0.089714
0.090023
0.090325
0.089577
0.089886
0.090193
0.090499
0.090807
0.091110
0.091416
0.091719
0.092031
0.091275
0.091587
0.091891
0.092196
0.092503
0.092811
0.093115
0.093420
0.093728
0.092979
0.093280
0.093585
0.093889
0.094192
0.094502
0.094803
0.095112
0.095417
0.094670
0.094969
0.095276
0.095578
0.095887
0.096191
0.096490
0.096798
0.097099
0.096355
0.096652
0.096963
0.097261
0.097568
0.097871
0.098175
0.098478
0.098781
0.098030
0.098335
0.098636
0.098941
0.099241
0.099545
0.099845
0.100153
0.100449
0.099707
0.100007
0.100310
0.100610
0.100916
0.101218
0.101517
0.101814
0.102117
0.101373
0.101674
0.101974
0.102276
0.102578
0.102877
0.103177
0.103475
0.103778
0.103032
0.103335
0.103632
0.103930
0.104233
0.104532
0.104832
0.105128
0.105431
0.104684
0.104981
0.105277
0.105586
0.105877
0.106178
0.106478
0.106777
0.107076
0.106326
0.106628
0.106923
0.107225
0.107522
0.107819
0.108119
0.108413
0.108710
0.107963
0.108262
0.108560
0.108855
0.109153
0.109452
0.109751
0.110046
0.110341
0.109592
0.109887
0.110187
0.110478
0.110780
0.111074
0.111371
0.111663
0.111958
SCALARS stress_1 float
LOOKUP_TABLE default
-222807.898331
-97186507.460438
-95723362.015912
-94252024.571386
-92773135.126859
-91287461.682333
-89796540.237807
-88298194.793280
-86795881.348754
-85285759.904228
-83773334.459701
-82253741.015175
-80731459.570649
-79205978.126122
-77677040.681596
-76142215.237070
-74608925.792543
-73072436.348017
-71534410.903491
-69997025.458964
-68457720.014438
-66919694.569912
-65381925.125385
-63846715.680859
-62313170.236333
-60782952.791806
-59254015.347280
-57732501.902753
-56214188.458227
-54698947.013701
-53193433.569174
-51691632.124648
-50199558.680122
-48713117.235595
-47238963.791069
-45771594.346543
-44314976.902016
-42871031.457490
-41435790.012964
-40013476.568437
-38607419.123911
-37213393.679385
-35834088.234858
-34469758.790332
-33122197.345806
-31791659.901279
-30478402.456753
-29185113.012227
-27908335.567700
-26653062.123174
-25417500.678648
-24203443.234121
-23012425.789595
-21843808.345069
-20695286.900542
-19576333.456016
-18477092.011490
-17404986.566963
-16358737.122437
-15341159.677911
-14345598.233384
-13378452.788858
-12438699.344331
-11526593.899805
-10646232.455279
-9792623.010752
-8968197.566226
-8173596.121700
-7409714.677173
-6675913.232647
-5969247.788121
-5293302.343594
-4651148.899068
-4040099.454542
-3454266.010015
-2902736.565489
-2380391.120963
-1889405.676436
-1428500.231910
-996010.787384
-596417.342857
-96935254.031981
360349.530126
-11339.914400
-414389.358926
-845342.803453
-1307784.247979
-1799153.692505
-2322523.137032
-2876740.581558
-3461422.026084
-4072983.470611
-4721280.915137
-5396202.359664
-6104147.804190
-6840893.248716
-7608358.693243
-8404624.137769
-9230969.582295
-10088291.026822
-10975052.471348
-11889461.915874
-12829471.360401
-13801352.804927
-14799090.249453
-15821403.693980
-16872261.138506
-17947694.583032
-19051416.027559
-20177281.472085
-21326570.916611
-22501716.361138
-23699517.805664
-24916263.250190
-26158992.694717
-27417082.139243
-28697699.583769
-29998285.028296
-31316918.472822
-32650911.917348
-34003593.361875
-35374066.806401
-36757852.250927
-38157509.695454
-39571759.139980
-40999576.584506
-42436482.029033
-43887083.473559
-45350228.918086
-46820926.362612
-48303015.807138
-49793681.251665
-51291002.696191
-52798052.140717
-54310861.585244
-55830967.029770
-57353504.474296
-58883977.918823
-60417779.363349
-61950172.807875
-63489222.252402
-65031087.696928
-66575257.141454
-68117634.585981
-69661804.030507
-71204821.475033
-72746558.919560
-74289448.364086
-75829393.808612
-77363963.253139
-78899300.697665
-80430926.142191
-81958455.586718
-83479969.031244
-84999562.475770
-86511347.920297
-88019421.364823
-89521350.809349
-91020336.253876
-92507673.698402
-93988483.142928
-95466604.587455
-96960571.374827
-96987296.717673
-97013638.060518
-97036267.403364
-97063376.746210
-97087670.089056
-97114139.431901
-97138048.774747
-97162086.117593
-158194.555485
-97933.212640
-36263.869794
24893.473052
82338.815898
141832.158743
197101.501589
250322.844435
308024.187281
-65841.257246
-121110.600092
-176379.942937
-231521.285783
-288198.628629
-347691.971474
-408721.314320
-471030.657166
-530652.000012
-467482.701772
-521856.044618
-577893.387464
-633418.730309
-691760.073155
-749461.416001
-811258.758846
-872288.101692
-932805.444538
-898564.146298
-953705.489144
-1009742.831990
-1064756.174836
-1123225.517681
-1182334.860527
-1240804.203373
-1301961.546219
-1363758.889064
-1359469.590825
-1415250.933671
-1472824.276516
-1527325.619362
-1584130.962208
-1642728.305053
-1702221.647899
-1764402.990745
-1825304.333591
-1854551.035351
-1909436.378197
-1962017.721043
-2018695.063888
-2076140.406734
-2134097.749580
-2194103.092426
-2255772.435271
-2317953.778117
-2377536.479878
-2428709.822723
-2484619.165569
-2541808.508415
-2599125.851260
-2656571.194106
-2718112.536952
-2778757.879798
-2838507.222643
-2928425.924404
-2981647.267250
-3038580.610095
-3094873.952941
-3151039.295787
-3209636.638632
-3270153.981478
-3330287.324324
-3393236.667170
-3514259.368930
-3567224.711776
-3621214.054622
-3678531.397467
-3735208.740313
-3794446.083159
-3852275.426005
-3915736.768850
-3975870.111696
-4126972.813457
-4179938.156302
-4234951.499148
-4291628.841994
-4349586.184839
-4407927.527685
-4466524.870531
-4526786.213377
-4589095.556222
-4774630.257983
-4826059.600829
-4882864.943674
-4937878.286520
-4994171.629366
-5052000.972212
-5111494.315057
-5170475.657903
-5232017.000749
-5449423.702509
-5504949.045355
-5556250.388201
-5612799.731046
-5668325.073892
-5726410.416738
-5786415.759584
-5845653.102429
-5905530.445275
-6154809.147036
-6207902.489881
-6263043.832727
-6318313.175573
-6377166.518418
-6433075.861264
-6489497.204110
-6552446.546956
-6611427.889801
-6892962.591562
-6946055.934408
-6999661.277253
-7055314.620099
-7109431.962945
-7167261.305791
-7226754.648636
-7288551.991482
-7349325.334328
-7659148.036088
-7712241.378934
-7764694.721780
-7820348.064625
-7878433.407471
-7934470.750317
-7993964.093163
-8052945.436008
-8112438.778854
-8455541.480615
-8508506.823460
-8562112.166306
-8619045.509152
-8673162.851997
-8731504.194843
-8786517.537689
-8846010.880535
-8907168.223380
-9285086.925141
-9335364.267987
-9388201.610832
-9444366.953678
-9498484.296524
-9556825.639370
-9612862.982215
-9670948.325061
-9732105.667907
-10139336.369667
-10192045.712513
-10245651.055359
-10299384.398204
-10352861.741050
-10408643.083896
-10468904.426742
-10525709.769587
-10586867.112433
-11024305.814194
-11075351.157039
-11127292.499885
-11182433.842731
-11238727.185577
-11293228.528422
-11350545.871268
-11410551.214114
-11468636.556959
-11937947.258720
-11988096.601566
-12041573.944411
-12095947.287257
-12150064.630103
-12205589.972949
-12260987.315794
-12320352.658640
-12378822.001486
-12879492.703246
-12929898.046092
-12982095.388938
-13037108.731783
-13091354.074629
-13146495.417475
-13204196.760321
-13259978.103166
-13317807.446012
-13850350.147773
-13900883.490618
-13950776.833464
-14005534.176310
-14060419.519156
-14114792.862001
-14169806.204847
-14225587.547693
-14285592.890538
-14848599.592299
-14894396.935145
-14949410.277990
-14999943.620836
-15054316.963682
-15110738.306528
-15165623.649373
-15222812.992219
-15280386.335065
-15871425.036825
-15921318.379671
-15971851.722517
-16025841.065363
-16077782.408208
-16132539.751054
-16187297.093900
-16244486.436745
-16299243.779591
-16922026.481352
-16971407.824197
-17020661.167043
-17073626.509889
-17124031.852735
-17179429.195580
-17234826.538426
-17292271.881272
-17349077.224117
-17995411.925878
-18046073.268724
-18097374.611569
-18148419.954415
-18202793.297261
-18257038.640107
-18308339.982952
-18364377.325798
-18418878.668644
-19100029.370404
-19147874.713250
-19196488.056096
-19250477.398942
-19300498.741787
-19355128.084633
-19409117.427479
-19461314.770324
-19519400.113170
-20226022.814931
-20273228.157776
-20323249.500622
-20374166.843468
-20424444.186314
-20477921.529159
-20531782.872005
-20582700.214851
-20642961.557697
-21374928.259457
-21424693.602303
-21471770.945149
-21524608.287994
-21573861.630840
-21623754.973686
-21677360.316531
-21733525.659377
-21788667.002223
-22548537.703983
-22596383.046829
-22644996.389675
-22696169.732521
-22745935.075366
-22797108.418212
-22848793.761058
-22901119.103903
-22957156.446749
-23744675.148510
-23791240.491355
-23839725.834201
-23887315.177047
-23939128.519893
-23988765.862738
-24043523.205584
-24094952.548430
-24150861.891276
-24962060.593036
-25009393.935882
-25057367.278728
-25107132.621573
-25154977.964419
-25207303.307265
-25256556.650110
-25310417.992956
-25363511.335802
-26201718.037562
-26248539.380408
-26296896.723254
-26343462.066100
-26394507.408945
-26444784.751791
-26494038.094637
-26546491.437482
-26599072.780328
-27463135.482089
-27508548.824934
-27554986.167780
-27603599.510626
-27650164.853472
-27699674.196317
-27751999.539163
-27802916.882009
-27855370.224855
-28742984.926615
-28788910.269461
-28834579.612307
-28881016.955152
-28928862.297998
-28980803.640844
-29031208.983689
-29078670.326535
-29131123.669381
-30039986.371141
-30086807.713987
-30134525.056833
-30180962.399679
-30229063.742524
-30275629.085370
-30325138.428216
-30373623.771062
-30426333.113907
-31358747.815668
-31404289.158514
-31446758.501359
-31497291.844205
-31544497.187051
-31591574.529896
-31640699.872742
-31690337.215588
-31739462.558434
-32694789.260194
-32739562.603040
-32784079.945886
-32831413.288731
-32878746.631577
-32924415.974423
-32972773.317268
-33022922.660114
-33070512.002960
-34048366.704720
-34091476.047566
-34136633.390412
-34182302.733258
-34227972.076103
-34274025.418949
-34323150.761795
-34370228.104641
-34419609.447486
-35417176.149247
-35461053.492093
-35502882.834938
-35548040.177784
-35594605.520630
-35640658.863475
-35689016.206321
-35735069.549167
-35784962.892013
-36799553.593773
-36841766.936619
-36887564.279465
-36932081.622310
-36975830.965156
-37022524.308002
-37069473.650848
-37116166.993693
-37163116.336539
-38198571.038300
-38243088.381145
-38284533.723991
-38328667.066837
-38374976.409682
-38420133.752528
-38466059.095374
-38512112.438220
-38560853.781065
-39612308.482826
-39655161.825672
-39694943.168517
-39740228.511363
-39783337.854209
-39829391.197054
-39874548.539900
-39921241.882746
-39967935.225592
-41039869.927352
-41080291.270198
-41122120.613044
-41164589.955889
-41209875.298735
-41251320.641581
-41298653.984427
-41341251.327272
-41389352.670118
-42477927.371879
-42516556.714724
-42558770.057570
-42604823.400416
-42646396.743261
-42688098.086107
-42733639.428953
-42778796.771799
-42824594.114644
-43926608.816405
-43967414.159251
-44011803.502096
-44051456.844942
-44092646.187788
-44137931.530634
-44181040.873479
-44224790.216325
-44269435.559171
-45388474.260931
-45429279.603777
-45470212.946623
-45514474.289468
-45552975.632314
-45595444.975160
-45639962.318006
-45680639.660851
-45725029.003697
-46861731.705458
-46900617.048303
-46942958.391149
-46980947.733995
-47023929.076840
-47064222.419686
-47108483.762532
-47150697.105378
-47193166.448223
-48341773.149984
-48381810.492830
-48421207.835675
-48461373.178521
-48502050.521367
-48542983.864213
-48583789.207058
-48627538.549904
-48670903.892750
-49833334.594510
-49872347.937356
-49911361.280202
-49949350.623047
-49990411.965893
-50032241.308739
-50072918.651585
-50115515.994430
-50156705.337276
-51331680.039037
-51370949.381882
-51408170.724728
-51447312.067574
-51487093.410419
-51527258.753265
-51566400.096111
-51609765.438957
-51650954.781802
-52835401.483563
-52874030.826409
-52912276.169254
-52950137.512100
-52991198.854946
-53030596.197792
-53071273.540637
-53110158.883483
-53152116.226329
-54348850.928089
-54384408.270935
-54423421.613781
-54462050.956626
-54499528.299472
-54541485.642318
-54579986.985164
-54619896.328009
-54659805.670855
-55866524.372616
-55903617.715461
-55940711.058307
-55978316.401153
-56018353.743999
-56055319.086844
-56095100.429690
-56132961.772536
-56173255.115381
-57390085.817142
-57426539.159988
-57464528.502833
-57502005.845679
-57538331.188525
-57576704.531371
-57614309.874216
-57655115.217062
-57691824.559908
-58918383.261668
-58954196.604514
-58990777.947360
-59027231.290205
-59066500.633051
-59101545.975897
-59139663.318743
-59178804.661588
-59218074.004434
-60452312.706195
-60487486.049040
-60523043.391886
-60557576.734732
-60595054.077578
-60630611.420423
-60669880.763269
-60708510.106115
-60745731.448960
-61987778.150721
-62021159.493567
-62057868.836412
-62094962.179258
-62129751.522104
-62166588.864950
-62203170.207795
-62239623.550641
-62275948.893487
-63524395.595247
-63559568.938093
-63594358.280939
-63629915.623785
-63665216.966630
-63702566.309476
-63737099.652322
-63773296.995167
-63811414.338013
-65063701.039774
-65100282.382619
-65134559.725465
-65169605.068311
-65205034.411157
-65238543.754002
-65275509.096848
-65310298.439694
-65346751.782539
-66607998.484300
-66639715.827146
-66673865.169991
-66710574.512837
-66745235.855683
-66778617.198529
-66815070.541374
-66847555.884220
-66883753.227066
-68149223.928826
-68182861.271672
-68218418.614518
-68251031.957364
-68284413.300209
-68318178.643055
-68355015.985901
-68389165.328746
-68422802.671592
-69694801.373353
-69726518.716198
-69759516.059044
-69793537.401890
-69827814.744736
-69860812.087581
-69894833.430427
-69928854.773273
-69961596.116119
-71237050.817879
-71266976.160725
-71303557.503571
-71335786.846416
-71367888.189262
-71401397.532108
-71433114.874953
-71467008.217799
-71502437.560645
-72779044.262405
-72811785.605251
-72844910.948097
-72877396.290943
-72908345.633788
-72940702.976634
-72975620.319480
-73008361.662325
-73039439.005171
-74320141.706932
-74351987.049777
-74382808.392623
-74415421.735469
-74447395.078315
-74481544.421160
-74511981.764006
-74545363.106852
-74576312.449698
-75857911.151458
-75891036.494304
-75921601.837150
-75956263.179995
-75986188.522841
-76018545.865687
-76048215.208532
-76080572.551378
-76112161.894224
-77395808.595984
-77427781.938830
-77456171.281676
-77490192.624522
-77520373.967367
-77551451.310213
-77583808.653059
-77613093.995904
-77645707.338750
-78929738.040511
-78959919.383356
-78990868.726202
-79023098.069048
-79051743.411894
-79082692.754739
-79113130.097585
-79143183.440431
-79175796.783277
-80460467.485037
-80490648.827883
-80521086.170729
-80551907.513574
-80582600.856420
-80612270.199266
-80643091.542111
-80672632.884957
-80702686.227803
-81986716.929563
-82017026.272409
-82047207.615255
-82076108.958101
-82105778.300946
-82136983.643792
-82166652.986638
-82194274.329484
-82225479.672329
-83508998.374090
-83539819.716936
-83569361.059781
-83598774.402627
-83626395.745473
-83655937.088318
-83686758.431164
-83714507.774010
-83743921.116856
-85028335.818616
-85055189.161462
-85087290.504308
-85113759.847153
-85143685.189999
-85172202.532845
-85200079.875690
-85228085.218536
-85259418.561382
-86541273.263142
-86571070.605988
-86598819.948834
-86629001.291680
-86654446.634525
-86682451.977371
-86712889.320217
-86739742.663063
-86766468.005908
-88047554.707669
-88078248.050515
-88103565.393360
-88133746.736206
-88160984.079052
-88190781.421897
-88216482.764743
-88244104.107589
-88273261.450435
-89552812.152195
-89578257.495041
-89604982.837887
-89633884.180732
-89660865.523578
-89688358.866424
-89715468.209270
-89742449.552115
-89768662.894961
-91046549.596722
-91075450.939567
-91101920.282413
-91128773.625259
-91155242.968104
-91182480.310950
-91208053.653796
-91236314.996642
-91263040.339487
-92536191.041248
-92562532.384094
-92591689.726939
-92615087.069785
-92641556.412631
-92671097.755476
-92695903.098322
-92720580.441168
-92748329.784014
-94018024.485774
-94044493.828620
-94070707.171466
-94099864.514311
-94123133.857157
-94149091.200003
-94176840.542849
-94199469.885694
-94226451.228540
-95491665.930301
-95518519.273146
-95546908.615992
-95570689.958838
-95597927.301683
-95622604.644529
-95648049.987375
-95674391.330221
-95699068.673066
SCALARS stress_2 float
LOOKUP_TABLE default
27576.964566
-42174418.450548
-41543366.307859
-40907146.165170
-40270114.022481
-39629149.879792
-38985165.737103
-38338933.594414
-37689137.451725
-37037997.309036
-36383921.166347
-35728709.023658
-35071092.880969
-34411508.738281
-33750508.595592
-33089052.452903
-32425460.310214
-31761304.167525
-31096224.024836
-30431475.882147
-29765719.739458
-29100747.596769
-28436715.454080
-27771491.311391
-27108675.168702
-26445491.026014
-25784394.883325
-25124982.740636
-24467366.597947
-23811418.455258
-23158642.312569
-22508786.169880
-21861086.027191
-21217605.884502
-20578061.741813
-19941097.599124
-19309265.456435
-18682397.313747
-18060261.171058
-17444001.028369
-16830836.885680
-16225888.742991
-15626580.600302
-15033624.457613
-14448084.314924
-13868664.172235
-13297252.029546
-12733419.886857
-12178335.744168
-11631119.601480
-11092659.458791
-10563719.316102
-10043107.173413
-9533387.030724
-9031890.888035
-8541938.745346
-8061266.602657
-7591366.459968
-7133170.317279
-6686274.174590
-6250018.031902
-5826033.889213
-5413497.746524
-5012933.603835
-4624341.461146
-4247873.318457
-3884889.175768
-3533501.033079
-3194316.890390
-2869140.747701
-2556228.605012
-2256188.462323
-1971040.319635
-1696172.176946
-1435852.034257
-1188287.891568
-953491.748879
-731311.606190
-522559.463501
-325927.320812
-143287.178123
-40917707.299757
1099732.115356
940327.972667
767387.829978
581591.687290
383011.544601
171743.401912
-53352.740777
-291504.883466
-542613.026155
-807245.168844
-1084597.311533
-1376177.454222
-1680297.596911
-1997701.739600
-2328933.882289
-2672434.024977
-3028538.167666
-3397142.310355
-3778606.453044
-4172766.595733
-4579394.738422
-4997602.881111
-5428155.023800
-5869619.166489
-6322983.309178
-6786567.451867
-7263079.594556
-7747527.737244
-8244587.879933
-8751312.022622
-9267516.165311
-9792884.308000
-10327928.450689
-10871828.593378
-11424908.736067
-11985880.878756
-12554277.021445
-13131849.164134
-13714901.306823
-14306069.449511
-14904285.592200
-15508225.734889
-16119033.877578
-16734570.020267
-17356958.162956
-17982906.305645
-18614886.448334
-19250170.591023
-19890410.733712
-20534626.876401
-21181991.019090
-21832535.161778
-22486467.304467
-23142251.447156
-23800503.589845
-24461811.732534
-25123907.875223
-25787148.017912
-26453172.160601
-27118780.303290
-27785608.445979
-28453924.588668
-29119548.731356
-29787560.874045
-30454689.016734
-31120565.159423
-31786481.302112
-32451429.444801
-33114593.587490
-33777229.730179
-34437253.872868
-35096634.015557
-35753390.158246
-36408066.300935
-37059758.443623
-37710430.586312
-38357462.729001
-39002222.871690
-39643899.014379
-40282767.157068
-41043712.414836
-41169917.529915
-41296178.644994
-41421951.760073
-41547672.875152
-41673321.990231
-41798675.105310
-41924700.220389
-42049173.335468
137326.079645
246007.194724
355300.309803
462537.424882
570030.539961
676503.655040
783900.770119
889853.885198
995019.000277
833682.857588
727029.742509
620668.627430
512443.512351
404862.397272
296317.282193
186652.167114
77963.052035
-32262.063044
659490.714899
552013.599820
444184.484741
336215.369662
226426.254583
116969.139504
5964.024425
-103809.090654
-215102.205733
473910.572210
365261.457131
255884.342052
146007.226973
36526.111894
-74879.003185
-185836.118264
-298317.233343
-409914.348422
274602.429522
165061.314442
54364.199363
-56632.915716
-167438.030795
-279363.145874
-391756.260953
-504597.376032
-617546.491111
60774.286833
-48626.828246
-160479.943325
-272621.058405
-384822.173484
-497327.288563
-610456.403642
-724769.518721
-838478.633800
-164889.855856
-275622.970935
-388136.086014
-501153.201093
-613918.316173
-727399.431252
-842240.546331
-956945.661410
-1072010.776489
-403921.998545
-515767.113624
-629756.228703
-742141.343782
-857298.458861
-971879.573940
-1087112.689020
-1203129.804099
-1318182.919178
-655506.141234
-769247.256313
-883652.371392
-997793.486471
-1113542.601550
-1228851.716629
-1345120.831708
-1461441.946788
-1578355.061867
-921322.283923
-1034691.399002
-1150540.514081
-1266281.629160
-1382494.744239
-1499195.859318
-1616448.974397
-1733662.089476
-1851515.204555
-1200102.426612
-1314735.541691
-1431428.656770
-1547277.771849
-1664754.886928
-1782248.002007
-1900085.117086
-2018446.232165
-2137871.347244
-1492330.569301
-1607911.684380
-1723980.799459
-1842477.914538
-1959731.029617
-2077632.144696
-2196957.259775
-2316054.374854
-2435967.489933
-1796714.711990
-1914367.827069
-2032180.942148
-2150502.057227
-2268867.172306
-2388152.287385
-2507673.402464
-2627150.517543
-2748067.632622
-2115550.854679
-2233263.969758
-2351437.084837
-2471194.199916
-2590527.314995
-2710704.430074
-2829709.545153
-2951662.660232
-3073255.775311
-2446822.997368
-2566000.112447
-2684309.227526
-2804166.342605
-2924667.457684
-3045284.572763
-3166753.687842
-3288958.802921
-3410719.918000
-2791187.140057
-2910460.255136
-3030281.370215
-3150718.485294
-3271847.600373
-3393836.715452
-3515729.830531
-3637982.945610
-3761372.060689
-3148011.282745
-3268012.397825
-3388541.512904
-3510854.627983
-3632743.743062
-3754320.858141
-3877753.973220
-4000543.088299
-4124472.203378
-3518571.425434
-3639164.540513
-3760317.655592
-3881938.770672
-4005271.885751
-4127477.000830
-4251354.115909
-4375071.230988
-4499176.346067
-3899775.568123
-4021736.683202
-4144309.798281
-4266158.913360
-4389376.028439
-4513721.143519
-4637254.258598
-4762271.373677
-4886840.488756
-4294811.710812
-4416424.825891
-4540013.940970
-4663495.056049
-4787284.171128
-4911369.286207
-5036730.401287
-5161671.516366
-5287804.631445
-4702483.853501
-4824900.968580
-4947986.083659
-5071771.198738
-5196432.313817
-5321621.428896
-5446730.543975
-5572415.659054
-5698520.774134
-5120603.996190
-5244381.111269
-5368250.226348
-5493499.341427
-5618236.456506
-5743913.571585
-5869558.686664
-5995947.801743
-6122860.916822
-5551984.138879
-5675281.253958
-5800882.369037
-5925251.484116
-6051524.599195
-6177493.714274
-6303786.829353
-6430983.944432
-6558193.059511
-5993780.281568
-6118401.396647
-6244454.511726
-6369655.626805
-6496272.741884
-6622573.856963
-6750070.972042
-6876828.087121
-7005245.202200
-6447576.424257
-6572741.539336
-6698874.654415
-6825679.769494
-6952248.884573
-7079693.999652
-7207295.114731
-7335216.229810
-7463017.344889
-6911920.566946
-7038213.682025
-7164902.797104
-7291395.912183
-7418645.027262
-7547130.142341
-7674863.257420
-7803120.372499
-7932209.487578
-7388152.709635
-7515293.824714
-7640966.939793
-7769316.054872
-7896733.169951
-8024822.285030
-8153299.400109
-8281944.515188
-8411869.630267
-7875380.852324
-8001057.967403
-8129011.082482
-8256132.197561
-8384481.312640
-8513394.427719
-8642379.542798
-8772124.657877
-8901645.772956
-8371496.995012
-8499046.110091
-8626039.225171
-8754900.340250
-8883789.455329
-9012634.570408
-9142219.685487
-9271708.800566
-9401349.915645
-8877941.137701
-9005542.252780
-9134339.367859
-9262684.482939
-9391689.598018
-9521302.713097
-9651351.828176
-9781788.943255
-9912262.058334
-9395289.280390
-9523766.395469
-9652231.510548
-9780716.625627
-9909917.740706
-10039674.855786
-10170751.970865
-10300869.085944
-10430714.201023
-9921413.423079
-10050178.538158
-10179399.653237
-10308624.768316
-10438169.883395
-10568230.998474
-10698852.113554
-10829745.228633
-10960966.343712
-10456573.565768
-10585574.680847
-10714751.795926
-10844676.911005
-10974478.026084
-11105567.141163
-11236328.256242
-11367017.371321
-11499222.486401
-11001621.708457
-11130350.823536
-11260747.938615
-11389901.053694
-11520038.168773
-11651411.283852
-11782736.398931
-11914109.514010
-12046142.629089
-11554021.851146
-11683190.966225
-11813180.081304
-11943793.196383
-12074538.311462
-12205883.426541
-12336660.541620
-12468565.656699
-12601294.771778
-12115553.993835
-12245407.108914
-12375000.223993
-12505921.339072
-12637230.454151
-12768463.569230
-12900408.684309
-13032441.799388
-13164526.914467
-12684378.136524
-12814847.251603
-12945248.366682
-13075821.481761
-13207246.596840
-13338923.711919
-13470492.826998
-13603489.942077
-13735455.057156
-13262122.279213
-13391575.394292
-13522480.509371
-13653709.624450
-13785922.739529
-13917495.854608
-14049440.969687
-14181510.084766
-14314411.199845
-13845850.421902
-13976775.536981
-14108068.652060
-14238937.767139
-14370682.882218
-14503199.997297
-14634825.112376
-14767318.227455
-14900619.342534
-14436998.564591
-14568271.679670
-14698764.794749
-14830517.909828
-14962239.024907
-15094788.139986
-15227021.255065
-15360482.370144
-15493739.485223
-15035170.707279
-15166127.822358
-15297264.937438
-15429734.052517
-15561223.167596
-15693064.282675
-15826621.397754
-15959394.512833
-16092283.627912
-15639438.849968
-15770515.965047
-15902625.080126
-16034342.195205
-16166799.310285
-16298808.425364
-16432041.540443
-16564778.655522
-16698023.770601
-16249858.992657
-16381016.107736
-16513305.222815
-16645314.337894
-16777551.452973
-16910080.568053
-17042681.683132
-17176002.798211
-17309847.913290
-16866111.135346
-16997716.250425
-17129717.365504
-17262394.480583
-17394771.595662
-17526264.710741
-17660313.825820
-17793318.940900
-17926864.055979
-17488231.278035
-17619812.393114
-17750989.508193
-17883974.623272
-18015951.738351
-18149216.853430
-18282369.968509
-18415467.083588
-18548796.198668
-18114539.420724
-18246560.535803
-18377853.650882
-18510930.765961
-18643395.881040
-18776880.996119
-18908698.111198
-19042651.226277
-19176224.341356
-18746135.563413
-18877824.678492
-19010133.793571
-19142818.908650
-19275304.023729
-19408725.138808
-19540794.253887
-19674099.368966
-19808212.484045
-19381923.706102
-19514312.821181
-19646341.936260
-19778283.051339
-19910660.166418
-20044009.281497
-20177694.396576
-20310759.511655
-20443968.626734
-20021511.848791
-20153824.963870
-20286614.078949
-20418587.194028
-20551368.309107
-20684081.424186
-20817762.539265
-20950563.654344
-21084184.769423
-20666343.991480
-20798793.106559
-20930114.221638
-21063151.336717
-21195648.451796
-21328781.566875
-21461034.681954
-21593947.797033
-21728084.912112
-21313588.134169
-21445401.249248
-21578390.364327
-21710379.479406
-21842608.594485
-21976053.709564
-22108946.824643
-22242083.939722
-22375421.054801
-21964216.276857
-22096365.391937
-22228650.507016
-22360667.622095
-22493644.737174
-22625937.852253
-22759298.967332
-22892056.082411
-23025553.197490
-22617428.419546
-22750273.534625
-22882170.649705
-23014715.764784
-23146696.879863
-23279749.994942
-23411963.110021
-23545176.225100
-23678961.340179
-23274324.562235
-23405725.677314
-23537870.792393
-23670607.907472
-23802701.022552
-23935254.137631
-24068359.252710
-24201272.367789
-24333877.482868
-23933020.704924
-24063889.820003
-24195922.935082
-24328220.050161
-24461033.165240
-24593582.280320
-24725875.395399
-24859108.510478
-24992041.625557
-24593644.847613
-24724817.962692
-24857115.077771
-24989288.192850
-25120821.307929
-25253218.423008
-25386299.538087
-25518772.653167
-25651857.768246
-25255412.990302
-25387466.105381
-25519123.220460
-25650856.335539
-25783093.450618
-25915674.565697
-26047575.680776
-26180928.795855
-26312893.910934
-25918681.132991
-26051046.248070
-26182435.363149
-26314584.478228
-26446457.593307
-26578178.708386
-26710903.823465
-26842468.938544
-26975206.053623
-26583669.275680
-26715734.390759
-26847387.505838
-26979244.620917
-27111677.735996
-27242926.851075
-27375567.966154
-27507185.081233
-27638762.196312
-27250153.418369
-27381134.533448
-27513303.648527
-27644704.763606
-27776429.878685
-27907898.993764
-28040400.108843
-28171541.223922
-28303854.339001
-27916753.561058
-28047982.676137
-28179223.791216
-28310320.906295
-28441578.021374
-28572831.136453
-28704712.251532
-28837621.366611
-28968590.481690
-28583993.703747
-28715158.818826
-28846375.933905
-28976821.048984
-29108986.164063
-29239927.279142
-29371344.394221
-29503317.509300
-29634198.624379
-29250237.846436
-29381862.961515
-29512800.076594
-29643569.191673
-29774682.306752
-29906335.421831
-30037116.536910
-30168669.651989
-30300102.767068
-29917913.989124
-30049067.104204
-30179636.219283
-30310133.334362
-30441206.449441
-30572383.564520
-30703424.679599
-30834217.794678
-30965554.909757
-30584942.131813
-30714991.246892
-30846240.361971
-30975877.477051
-31107250.592130
-31238827.707209
-31369408.822288
-31499569.937367
-31630523.052446
-31251090.274502
-31381255.389581
-31511820.504660
-31642021.619739
-31772590.734819
-31903123.849898
-32033676.964977
-32164302.080056
-32295075.195135
-31916286.417191
-32046887.532270
-32176948.647349
-32306633.762428
-32437150.877507
-32567991.992586
-32697945.107666
-32827962.222745
-32957911.337824
-32580938.559880
-32710767.674959
-32840972.790038
-32970917.905117
-33100959.020196
-33230220.135275
-33360185.250354
-33490710.365434
-33620975.480513
-33245054.702569
-33374083.817648
-33503732.932727
-33633370.047806
-33762631.162885
-33892300.277964
-34022321.393043
-34152306.508122
-34281299.623201
-33906366.845258
-34035407.960337
-34165105.075416
-34294942.190495
-34423919.305574
-34553060.420653
-34681873.535732
-34812126.650811
-34941631.765890
-34567062.987947
-34695844.103026
-34824861.218105
-34953914.333184
-35083315.448263
-35212372.563342
-35341289.678421
-35470834.793500
-35599419.908579
-35225107.130636
-35354120.245715
-35483033.360794
-35611602.475873
-35740823.590952
-35869420.706031
-35998233.821110
-36127602.936189
-36255412.051268
-35882775.273325
-36010988.388404
-36138869.503483
-36267422.618562
-36395431.733641
-36524552.848720
-36653117.963799
-36781243.078878
-36909220.193957
-36536623.416014
-36664828.531093
-36793061.646172
-36921678.761251
-37049315.876330
-37177572.991409
-37305606.106488
-37433691.221567
-37561560.336646
-37188399.558703
-37316760.673782
-37444177.788861
-37572770.903940
-37700112.019019
-37827813.134098
-37955238.249177
-38083591.364256
-38210872.479335
-37838479.701391
-37966016.816471
-38093357.931550
-38221471.046629
-38349464.161708
-38476429.276787
-38603330.391866
-38730751.506945
-38858012.622024
-38484579.844080
-38612224.959159
-38739654.074238
-38867599.189318
-38995100.304397
-39121357.419476
-39248538.534555
-39375407.649634
-39502056.764713
-39129163.986769
-39256513.101848
-39383394.216927
-39510115.332006
-39637136.447085
-39763485.562165
-39890510.677244
-40017227.792323
-40143696.907402
-39770992.129458
-39897157.244537
-40024510.359616
-40150611.474695
-40277100.589774
-40403913.704853
-40529878.819933
-40655315.935012
-40782341.050091
-40409212.272147
-40535025.387226
-40660882.502305
-40787635.617384
-40914184.732463
-41040405.847542
-41165566.962621
-41292068.077700
-41417365.192780
SCALARS stress_3 float
LOOKUP_TABLE default
300482.714747
23359078.524121
23025988.476504
22692450.428886
22356800.381269
22019998.333652
21678332.286035
21336346.238418
20994744.190800
20648278.143183
20303604.095566
19953938.047949
19608816.000332
19258125.952715
18908203.905097
18552777.857480
18202471.809863
17849669.762246
17496227.714629
17142465.667012
16786271.619394
16436093.571777
16076955.524160
15722553.476543
15369239.428926
15012149.381308
14658707.333691
14304177.286074
13953999.238457
13601453.190840
13250059.143223
12898793.095605
12551495.047988
12203365.000371
11857282.952754
11515296.905137
11173502.857519
10832924.809902
10495098.762285
10159832.714668
9827702.667051
9496596.619434
9170354.571816
8846288.524199
8526638.476582
8211084.428965
7897770.381348
7587592.333731
7280550.286113
6978500.238496
6681058.190879
6391744.143262
6100574.095645
5818236.048027
5539418.000410
5266807.952793
4998101.905176
4733107.857559
4479569.809942
4226095.762324
3979789.714707
3739499.667090
3505865.619473
3278631.571856
3054789.524239
2839267.476621
2631553.429004
2428703.381387
2232829.333770
2042011.286153
1859449.238535
1683735.190918
1513909.143301
1352275.095684
1195313.048067
1048847.000450
906028.952832
769610.905215
643304.857598
523142.809981
406372.762364
23289576.919146
-181818.890228
-74904.842611
41417.205006
164267.252623
294605.300240
431279.347858
574865.395475
726387.443092
884501.490709
1048695.538326
1224409.585943
1402363.633561
1587677.681178
1777919.728795
1979553.776412
2185987.824029
2400677.871647
2619591.919264
2847145.966881
3077196.014498
3317742.062115
3563664.109732
3814450.157350
4071572.204967
4335286.252584
4602392.300201
4876602.347818
5156508.395435
5438398.443053
5728352.490670
6023746.538287
6322660.585904
6625606.633521
6934760.681139
7246154.728756
7561132.776373
7880078.823990
8204720.871607
8532306.919224
8862836.966842
9195351.014459
9531385.062076
9871771.109693
10213885.157310
10555743.204927
10905281.252545
11252579.300162
11603653.347779
11953127.395396
12307721.443013
12663339.490631
13020813.538248
13376303.585865
13733649.633482
14093363.681099
14455253.728716
14815095.776334
15177497.823951
15536955.871568
15897885.919185
16260927.966802
16619874.014420
16981636.062037
17341030.109654
17700552.157271
18059562.204888
18415692.252505
18775470.300123
19129552.347740
19485490.395357
19839764.442974
20190838.490591
20542168.538208
20891642.585826
21237980.633443
21586046.681060
21930336.728677
22272962.776294
22614628.823912
22952582.871529
23295509.479643
23304450.040141
23310126.600638
23318235.161136
23328071.721633
23333364.282131
23339168.842628
23345677.403126
23353465.963623
250902.154249
201641.593752
155133.033254
103376.472757
57507.912259
10487.351762
-40245.208736
-87329.769233
-135246.329731
-28460.282114
21120.278384
69932.838881
117273.399379
163845.959876
214130.520374
260767.080871
309003.641369
357624.201866
90421.765504
137314.326001
186574.886498
232827.446996
279336.007493
328084.567991
376321.128488
422765.688986
473178.249483
212503.813121
260676.373618
308720.934116
355357.494613
401866.055111
449590.615608
497763.176106
545935.736603
594940.297101
340793.860738
389030.421235
435474.981733
483391.542230
531820.102728
578072.663225
628357.223723
673777.784220
724062.344718
477211.908355
525576.468853
572533.029350
620705.589847
667086.150345
714618.710842
761703.271340
811347.831837
857792.392335
620925.955972
667626.516470
715031.076967
762371.637465
808176.197962
859228.758460
905545.318957
950965.879455
1003426.439952
773856.003589
819148.564087
867193.124584
913829.685082
958098.245579
1008702.806077
1054187.366574
1103255.927072
1149828.487569
930370.051207
976942.611704
1024539.172202
1068871.732699
1117172.293197
1164128.853694
1210509.414191
1257337.974689
1306534.535186
1096292.098824
1141008.659321
1186557.219819
1233129.780316
1280150.340814
1328386.901311
1373679.461809
1421532.022306
1467784.582804
1268230.146441
1311858.706938
1361503.267436
1406539.827933
1450360.388431
1496868.948928
1545105.509426
1591422.069923
1638506.630421
1445800.194058
1490132.754556
1536577.315053
1583277.875551
1628058.436048
1677190.996546
1720435.557043
1767008.117540
1813196.678038
1631306.241675
1675894.802173
1721635.362670
1768015.923168
1815100.483665
1859625.044163
1905685.604660
1953090.165158
1997998.725655
1826220.289292
1868376.849790
1914629.410287
1958897.970785
2004638.531282
2051211.091780
2095479.652277
2140644.212775
2186960.773272
2024782.336910
2067130.897407
2114791.457905
2157844.018402
2204800.578900
2250285.139397
2293081.699895
2337542.260392
2381682.820890
2231536.384527
2272860.945024
2320585.505522
2363318.066019
2407010.626517
2451727.187014
2497211.747512
2541160.308009
2587604.868507
2443282.432144
2485758.992641
2532203.553139
2573976.113636
2617476.674134
2663089.234631
2709277.795129
2752778.355626
2794614.916124
2662836.479761
2705569.040259
2750413.600756
2792314.161254
2835558.721751
2880339.282249
2924735.842746
2967020.403244
3010712.963741
2888406.527378
2931779.087876
2975791.648373
3016540.208871
3060488.769368
3102901.329866
3146337.890363
3189646.450861
3234683.011358
3119416.574996
3161829.135493
3206865.695990
3250174.256488
3289514.816985
3335127.377483
3376643.937980
3419760.498478
3462045.058975
3359194.622613
3402823.183110
3442995.743608
3486304.304105
3527372.864603
3570041.425100
3612709.985598
3655506.546095
3697663.106593
3603772.670230
3645993.230727
3686485.791225
3728642.351722
3770734.912220
3813659.472717
3852616.033215
3896116.593712
3936993.154210
3851550.717847
3894923.278345
3939191.838842
3977572.399340
4021520.959837
4058877.520334
4102826.080832
4144982.641329
4184963.201827
4113216.765464
4151725.325962
4189977.886459
4231302.446957
4272947.007454
4314527.567952
4354636.128449
4397176.688947
4436453.249444
4374818.813081
4413071.373579
4454203.934076
4493992.494574
4534933.055071
4573569.615569
4614254.176066
4654490.736564
4695943.297061
4641796.860699
4680113.421196
4722141.981694
4759562.542191
4799351.102689
4837475.663186
4879952.223683
4919996.784181
4958121.344678
4916198.908316
4954707.468813
4992512.029311
5031724.589808
5071769.150306
5110341.710803
5147762.271301
5187934.831798
5226571.392296
5193800.955933
5232053.516430
5269474.076928
5306190.637425
5345339.197923
5385319.758420
5422228.318918
5464320.879415
5500269.439913
5475371.003550
5515607.564048
5552644.124545
5589616.685043
5628509.245540
5667145.806038
5704246.366535
5740450.927033
5780431.487530
5765197.051167
5802297.611665
5840038.172162
5877458.732660
5915839.293157
5951147.853655
5989144.414152
6027460.974650
6064305.535147
6059887.098784
6095963.659282
6133320.219779
6169140.780277
6204961.340774
6244365.901272
6279290.461769
6316327.022267
6352083.582764
6359505.146402
6392765.706899
6429418.267397
6466326.827894
6503171.388392
6536815.948889
6574620.509387
6612425.069884
6645813.630382
6661683.194019
6695775.754516
6732556.315014
6767992.875511
6803685.436009
6836241.996506
6872510.557004
6908139.117501
6946327.677999
6969877.241636
7002305.802134
7038318.362631
7073626.923128
7107271.483626
7140532.044123
7176416.604621
7211085.165118
7245753.725616
7280759.289253
7315299.849751
7348176.410248
7381820.970746
7412905.531243
7451606.091741
7484354.652238
7518447.212736
7555355.773233
7595609.336870
7628101.897368
7662066.457865
7696159.018363
7730635.578860
7763128.139358
7795236.699855
7830225.260353
7865213.820850
7913979.384488
7948135.944985
7979284.505483
8014209.065980
8043053.626477
8079002.186975
8111750.747472
8142835.307970
8177631.868467
8236765.432105
8269065.992602
8301622.553100
8331939.113597
8364943.674095
8397756.234592
8430504.795090
8461461.355587
8493889.916085
8561535.479722
8596140.040219
8627544.600717
8657349.161214
8688625.721712
8721182.282209
8752330.842707
8783799.403204
8816739.963702
8892321.527339
8923214.087837
8958330.648334
8985639.208832
9017299.769329
9047616.329827
9080620.890324
9109849.450821
9140998.011319
9223875.574956
9256624.135454
9287196.695951
9317065.256449
9346549.816946
9376866.377444
9405710.937941
9437627.498439
9467816.058936
9563429.622573
9593234.183071
9619070.743568
9650219.304066
9679959.864563
9710084.425061
9738992.985558
9768221.546056
9796682.106553
9900295.670191
9928052.230688
9957664.791186
9986381.351683
10016889.912181
10043750.472678
10074707.033176
10101695.593673
10130412.154170
10242729.717808
10268886.278305
10296834.838803
10325935.399300
10353179.959798
10381512.520295
10410677.080793
10438689.641290
10466254.201788
10585995.765425
10611128.325922
10641636.886420
10669073.446917
10694398.007415
10723306.567912
10749719.128410
10776131.688907
10806000.249405
10932269.813042
10957850.373540
10985606.934037
11012915.494535
11039072.055032
11063372.615530
11091897.176027
11121445.736525
11145938.297022
11277007.860659
11306044.421157
11331816.981654
11357717.542152
11383746.102649
11410990.663147
11437211.223644
11461319.784142
11489460.344639
11628657.908277
11653086.468774
11679115.029271
11705527.589769
11729508.150266
11757072.710764
11782397.271261
11805417.831759
11833174.392256
11977171.955894
12002816.516391
12029997.076889
12053913.637386
12079558.197884
12102258.758381
12129439.318879
12154891.879376
12179832.439874
12333302.003511
12359650.564008
12379663.124506
12404731.685003
12428136.245501
12454676.805998
12479297.366496
12501101.926993
12527962.487491
12688472.051128
12711044.611626
12735153.172123
12758301.732620
12782474.293118
12807350.853615
12828067.414113
12852047.974610
12876092.535108
13043450.098745
13066470.659243
13088851.219740
13112703.780238
13134572.340735
13159000.901233
13180037.461730
13203570.022228
13225822.582725
13400668.146362
13422152.706860
13444853.267357
13464929.827855
13491406.388352
13512826.948850
13532583.509347
13556372.069845
13576256.630342
13756990.193980
13780650.754477
13802775.314975
13823299.875472
13847344.435970
13867676.996467
13888265.556964
13911158.117462
13931426.677959
14116192.241597
14138188.802094
14159289.362592
14180453.923089
14201234.483587
14220927.044084
14242923.604582
14262488.165079
14286852.725577
14476546.289214
14496750.849711
14516315.410209
14536839.970706
14558132.531204
14577633.091701
14598477.652199
14618810.212696
14639014.773194
14836580.336831
14855504.897329
14875517.457826
14895466.018324
14917014.578821
14934339.139319
14954415.699816
14975516.260313
14992072.820811
15195718.384448
15214514.944946
15235743.505443
15255884.065941
15274104.626438
15290917.186936
15309585.747433
15330174.307931
15348778.868428
15554792.432065
15576020.992563
15592129.553060
15612846.113558
15629530.674055
15649543.234553
15669235.795050
15686176.355548
15703116.916045
15913866.479683
15936631.040180
15953635.600678
15972688.161175
15987516.721673
16005929.282170
16023125.842668
16042434.403165
16059694.963663
16276780.527300
16295001.087797
16312517.648295
16331826.208792
16345630.769290
16364299.329787
16381367.890285
16397540.450782
16416145.011280
16636750.574917
16655547.135414
16671143.695912
16687060.256409
16704896.816907
16721965.377404
16737177.937902
16754566.498399
16772531.058897
16997872.622534
17013469.183032
17031241.743529
17045878.304027
17062434.864524
17078095.425022
17094587.985519
17110312.546017
17126165.106514
17355346.670151
17372031.230649
17388779.791146
17403224.351644
17420484.912141
17433585.472639
17450910.033136
17465866.593634
17479095.154131
17714932.717769
17732385.278266
17745933.838763
17761658.399261
17775526.959758
17791251.520256
17804864.080753
17820652.641251
17834777.201748
18074198.765386
18086275.325883
18101167.886381
18117916.446878
18133577.007376
18145013.567873
18161442.128371
18174542.688868
18189947.249366
18431608.813003
18447333.373500
18459409.933998
18474174.494495
18487275.054993
18499991.615490
18514948.175988
18529136.736485
18540573.296983
18789786.860620
18802631.421118
18817203.981615
18829280.542113
18841101.102610
18853241.663107
18866406.223605
18882002.784102
18893631.344600
19142332.908237
19155881.468735
19168022.029232
19183618.589730
19195247.150227
19209371.710725
19219208.271222
19233396.831720
19246369.392217
19498654.955854
19509771.516352
19523384.076849
19536932.637347
19547921.197844
19560573.758342
19572714.318839
19582358.879337
19597699.439834
19851329.003472
19863725.563969
19874266.124467
19887878.684964
19899507.245462
19911327.805959
19921804.366456
19933240.926954
19944421.487451
20202403.051089
20216399.611586
20227900.172084
20237992.732581
20247701.293079
20260545.853576
20270318.414074
20282586.974571
20291143.535069
20553989.098706
20566001.659203
20575710.219701
20585930.780198
20596727.340696
20607075.901193
20618128.461691
20626365.022188
20637417.582686
20904487.146323
20912531.706821
20923520.267318
20931564.827816
20943385.388313
20955269.948811
20963762.509308
20971615.069806
20982667.630303
21251273.193940
21260021.754438
21269986.314935
21280078.875433
21288059.435930
21298279.996428
21309332.556925
21320193.117423
21325741.677920
21596331.241557
21606359.802055
21617412.362552
21622832.923050
21632925.483547
21643082.044045
21650934.604542
21661475.165040
21667023.725537
21939277.289175
21948217.849672
21957222.410170
21967122.970667
21974847.531165
21983148.091662
21993496.652160
22000773.212657
22008625.773155
22282543.336792
22288923.897289
22298760.457787
22307253.018284
22315809.578782
22323150.139279
22331898.699777
22342119.260274
22346579.820772
22619601.384409
22628605.944906
22637290.505404
22646039.065901
22654339.626399
22661808.186896
22669852.747394
22676681.307891
22685557.868389
22959667.432026
22969183.992524
22976204.553021
22983993.113519
22991717.674016
22999890.234514
23005566.795011
23012587.355509
23019287.916006
