# vtk DataFile Version 2.0
Generated volume Mesh
ASCII
DATASET UNSTRUCTURED_GRID
POINTS 891 float
0.005000 0.100000 0.000000
0.005000 0.000000 0.000000
0.005000 0.001250 0.000000
0.005000 0.002500 0.000000
0.005000 0.003750 0.000000
0.005000 0.005000 0.000000
0.005000 0.006250 0.000000
0.005000 0.007500 0.000000
0.005000 0.008750 0.000000
0.005000 0.010000 0.000000
0.005000 0.011250 0.000000
0.005000 0.012500 0.000000
0.005000 0.013750 0.000000
0.005000 0.015000 0.000000
0.005000 0.016250 0.000000
0.005000 0.017500 0.000000
0.005000 0.018750 0.000000
0.005000 0.020000 0.000000
0.005000 0.021250 0.000000
0.005000 0.022500 0.000000
0.005000 0.023750 0.000000
0.005000 0.025000 0.000000
0.005000 0.026250 0.000000
0.005000 0.027500 0.000000
0.005000 0.028750 0.000000
0.005000 0.030000 0.000000
0.005000 0.031250 0.000000
0.005000 0.032500 0.000000
0.005000 0.033750 0.000000
0.005000 0.035000 0.000000
0.005000 0.036250 0.000000
0.005000 0.037500 0.000000
0.005000 0.038750 0.000000
0.005000 0.040000 0.000000
0.005000 0.041250 0.000000
0.005000 0.042500 0.000000
0.005000 0.043750 0.000000
0.005000 0.045000 0.000000
0.005000 0.046250 0.000000
0.005000 0.047500 0.000000
0.005000 0.048750 0.000000
0.005000 0.050000 0.000000
0.005000 0.051250 0.000000
0.005000 0.052500 0.000000
0.005000 0.053750 0.000000
0.005000 0.055000 0.000000
0.005000 0.056250 0.000000
0.005000 0.057500 0.000000
0.005000 0.058750 0.000000
0.005000 0.060000 0.000000
0.005000 0.061250 0.000000
0.005000 0.062500 0.000000
0.005000 0.063750 0.000000
0.005000 0.065000 0.000000
0.005000 0.066250 0.000000
0.005000 0.067500 0.000000
0.005000 0.068750 0.000000
0.005000 0.070000 0.000000
0.005000 0.071250 0.000000
0.005000 0.072500 0.000000
0.005000 0.073750 0.000000
0.005000 0.075000 0.000000
0.005000 0.076250 0.000000
0.005000 0.077500 0.000000
0.005000 0.078750 0.000000
0.005000 0.080000 0.000000
0.005000 0.081250 0.000000
0.005000 0.082500 0.000000
0.005000 0.083750 0.000000
0.005000 0.085000 0.000000
0.005000 0.086250 0.000000
0.005000 0.087500 0.000000
0.005000 0.088750 0.000000
0.005000 0.090000 0.000000
0.005000 0.091250 0.000000
0.005000 0.092500 0.000000
0.005000 0.093750 0.000000
0.005000 0.095000 0.000000
0.005000 0.096250 0.000000
0.005000 0.097500 0.000000
0.005000 0.098750 0.000000
0.000000 0.000000 0.000000
0.000000 0.100000 0.000000
0.000000 0.098750 0.000000
0.000000 0.097500 0.000000
0.000000 0.096250 0.000000
0.000000 0.095000 0.000000
0.000000 0.093750 0.000000
0.000000 0.092500 0.000000
0.000000 0.091250 0.000000
0.000000 0.090000 0.000000
0.000000 0.088750 0.000000
0.000000 0.087500 0.000000
0.000000 0.086250 0.000000
0.000000 0.085000 0.000000
0.000000 0.083750 0.000000
0.000000 0.082500 0.000000
0.000000 0.081250 0.000000
0.000000 0.080000 0.000000
0.000000 0.078750 0.000000
0.000000 0.077500 0.000000
0.000000 0.076250 0.000000
0.000000 0.075000 0.000000
0.000000 0.073750 0.000000
0.000000 0.072500 0.000000
0.000000 0.071250 0.000000
0.000000 0.070000 0.000000
0.000000 0.068750 0.000000
0.000000 0.067500 0.000000
0.000000 0.066250 0.000000
0.000000 0.065000 0.000000
0.000000 0.063750 0.000000
0.000000 0.062500 0.000000
0.000000 0.061250 0.000000
0.000000 0.060000 0.000000
0.000000 0.058750 0.000000
0.000000 0.057500 0.000000
0.000000 0.056250 0.000000
0.000000 0.055000 0.000000
0.000000 0.053750 0.000000
0.000000 0.052500 0.000000
0.000000 0.051250 0.000000
0.000000 0.050000 0.000000
0.000000 0.048750 0.000000
0.000000 0.047500 0.000000
0.000000 0.046250 0.000000
0.000000 0.045000 0.000000
0.000000 0.043750 0.000000
0.000000 0.042500 0.000000
0.000000 0.041250 0.000000
0.000000 0.040000 0.000000
0.000000 0.038750 0.000000
0.000000 0.037500 0.000000
0.000000 0.036250 0.000000
0.000000 0.035000 0.000000
0.000000 0.033750 0.000000
0.000000 0.032500 0.000000
0.000000 0.031250 0.000000
0.000000 0.030000 0.000000
0.000000 0.028750 0.000000
0.000000 0.027500 0.000000
0.000000 0.026250 0.000000
0.000000 0.025000 0.000000
0.000000 0.023750 0.000000
0.000000 0.022500 0.000000
0.000000 0.021250 0.000000
0.000000 0.020000 0.000000
0.000000 0.018750 0.000000
0.000000 0.017500 0.000000
0.000000 0.016250 0.000000
0.000000 0.015000 0.000000
0.000000 0.013750 0.000000
0.000000 0.012500 0.000000
0.000000 0.011250 0.000000
0.000000 0.010000 0.000000
0.000000 0.008750 0.000000
0.000000 0.007500 0.000000
0.000000 0.006250 0.000000
0.000000 0.005000 0.000000
0.000000 0.003750 0.000000
0.000000 0.002500 0.000000
0.000000 0.001250 0.000000
0.000500 0.000000 0.000000
0.001000 0.000000 0.000000
0.001500 0.000000 0.000000
0.002000 0.000000 0.000000
0.002500 0.000000 0.000000
0.003000 0.000000 0.000000
0.003500 0.000000 0.000000
0.004000 0.000000 0.000000
0.004500 0.000000 0.000000
0.004500 0.100000 0.000000
0.004000 0.100000 0.000000
0.003500 0.100000 0.000000
0.003000 0.100000 0.000000
0.002500 0.100000 0.000000
0.002000 0.100000 0.000000
0.001500 0.100000 0.000000
0.001000 0.100000 0.000000
0.000500 0.100000 0.000000
0.000500 0.098750 0.000000
0.001000 0.098750 0.000000
0.001500 0.098750 0.000000
0.002000 0.098750 0.000000
0.002500 0.098750 0.000000
0.003000 0.098750 0.000000
0.003500 0.098750 0.000000
0.004000 0.098750 0.000000
0.004500 0.098750 0.000000
0.000500 0.097500 0.000000
0.001000 0.097500 0.000000
0.001500 0.097500 0.000000
0.002000 0.097500 0.000000
0.002500 0.097500 0.000000
0.003000 0.097500 0.000000
0.003500 0.097500 0.000000
0.004000 0.097500 0.000000
0.004500 0.097500 0.000000
0.000500 0.096250 0.000000
0.001000 0.096250 0.000000
0.001500 0.096250 0.000000
0.002000 0.096250 0.000000
0.002500 0.096250 0.000000
0.003000 0.096250 0.000000
0.003500 0.096250 0.000000
0.004000 0.096250 0.000000
0.004500 0.096250 0.000000
0.000500 0.095000 0.000000
0.001000 0.095000 0.000000
0.001500 0.095000 0.000000
0.002000 0.095000 0.000000
0.002500 0.095000 0.000000
0.003000 0.095000 0.000000
0.003500 0.095000 0.000000
0.004000 0.095000 0.000000
0.004500 0.095000 0.000000
0.000500 0.093750 0.000000
0.001000 0.093750 0.000000
0.001500 0.093750 0.000000
0.002000 0.093750 0.000000
0.002500 0.093750 0.000000
0.003000 0.093750 0.000000
0.003500 0.093750 0.000000
0.004000 0.093750 0.000000
0.004500 0.093750 0.000000
0.000500 0.092500 0.000000
0.001000 0.092500 0.000000
0.001500 0.092500 0.000000
0.002000 0.092500 0.000000
0.002500 0.092500 0.000000
0.003000 0.092500 0.000000
0.003500 0.092500 0.000000
0.004000 0.092500 0.000000
0.004500 0.092500 0.000000
0.000500 0.091250 0.000000
0.001000 0.091250 0.000000
0.001500 0.091250 0.000000
0.002000 0.091250 0.000000
0.002500 0.091250 0.000000
0.003000 0.091250 0.000000
0.003500 0.091250 0.000000
0.004000 0.091250 0.000000
0.004500 0.091250 0.000000
0.000500 0.090000 0.000000
0.001000 0.090000 0.000000
0.001500 0.090000 0.000000
0.002000 0.090000 0.000000
0.002500 0.090000 0.000000
0.003000 0.090000 0.000000
0.003500 0.090000 0.000000
0.004000 0.090000 0.000000
0.004500 0.090000 0.000000
0.000500 0.088750 0.000000
0.001000 0.088750 0.000000
0.001500 0.088750 0.000000
0.002000 0.088750 0.000000
0.002500 0.088750 0.000000
0.003000 0.088750 0.000000
0.003500 0.088750 0.000000
0.004000 0.088750 0.000000
0.004500 0.088750 0.000000
0.000500 0.087500 0.000000
0.001000 0.087500 0.000000
0.001500 0.087500 0.000000
0.002000 0.087500 0.000000
0.002500 0.087500 0.000000
0.003000 0.087500 0.000000
0.003500 0.087500 0.000000
0.004000 0.087500 0.000000
0.004500 0.087500 0.000000
0.000500 0.086250 0.000000
0.001000 0.086250 0.000000
0.001500 0.086250 0.000000
0.002000 0.086250 0.000000
0.002500 0.086250 0.000000
0.003000 0.086250 0.000000
0.003500 0.086250 0.000000
0.004000 0.086250 0.000000
0.004500 0.086250 0.000000
0.000500 0.085000 0.000000
0.001000 0.085000 0.000000
0.001500 0.085000 0.000000
0.002000 0.085000 0.000000
0.002500 0.085000 0.000000
0.003000 0.085000 0.000000
0.003500 0.085000 0.000000
0.004000 0.085000 0.000000
0.004500 0.085000 0.000000
0.000500 0.083750 0.000000
0.001000 0.083750 0.000000
0.001500 0.083750 0.000000
0.002000 0.083750 0.000000
0.002500 0.083750 0.000000
0.003000 0.083750 0.000000
0.003500 0.083750 0.000000
0.004000 0.083750 0.000000
0.004500 0.083750 0.000000
0.000500 0.082500 0.000000
0.001000 0.082500 0.000000
0.001500 0.082500 0.000000
0.002000 0.082500 0.000000
0.002500 0.082500 0.000000
0.003000 0.082500 0.000000
0.003500 0.082500 0.000000
0.004000 0.082500 0.000000
0.004500 0.082500 0.000000
0.000500 0.081250 0.000000
0.001000 0.081250 0.000000
0.001500 0.081250 0.000000
0.002000 0.081250 0.000000
0.002500 0.081250 0.000000
0.003000 0.081250 0.000000
0.003500 0.081250 0.000000
0.004000 0.081250 0.000000
0.004500 0.081250 0.000000
0.000500 0.080000 0.000000
0.001000 0.080000 0.000000
0.001500 0.080000 0.000000
0.002000 0.080000 0.000000
0.002500 0.080000 0.000000
0.003000 0.080000 0.000000
0.003500 0.080000 0.000000
0.004000 0.080000 0.000000
0.004500 0.080000 0.000000
0.000500 0.078750 0.000000
0.001000 0.078750 0.000000
0.001500 0.078750 0.000000
0.002000 0.078750 0.000000
0.002500 0.078750 0.000000
0.003000 0.078750 0.000000
0.003500 0.078750 0.000000
0.004000 0.078750 0.000000
0.004500 0.078750 0.000000
0.000500 0.077500 0.000000
0.001000 0.077500 0.000000
0.001500 0.077500 0.000000
0.002000 0.077500 0.000000
0.002500 0.077500 0.000000
0.003000 0.077500 0.000000
0.003500 0.077500 0.000000
0.004000 0.077500 0.000000
0.004500 0.077500 0.000000
0.000500 0.076250 0.000000
0.001000 0.076250 0.000000
0.001500 0.076250 0.000000
0.002000 0.076250 0.000000
0.002500 0.076250 0.000000
0.003000 0.076250 0.000000
0.003500 0.076250 0.000000
0.004000 0.076250 0.000000
0.004500 0.076250 0.000000
0.000500 0.075000 0.000000
0.001000 0.075000 0.000000
0.001500 0.075000 0.000000
0.002000 0.075000 0.000000
0.002500 0.075000 0.000000
0.003000 0.075000 0.000000
0.003500 0.075000 0.000000
0.004000 0.075000 0.000000
0.004500 0.075000 0.000000
0.000500 0.073750 0.000000
0.001000 0.073750 0.000000
0.001500 0.073750 0.000000
0.002000 0.073750 0.000000
0.002500 0.073750 0.000000
0.003000 0.073750 0.000000
0.003500 0.073750 0.000000
0.004000 0.073750 0.000000
0.004500 0.073750 0.000000
0.000500 0.072500 0.000000
0.001000 0.072500 0.000000
0.001500 0.072500 0.000000
0.002000 0.072500 0.000000
0.002500 0.072500 0.000000
0.003000 0.072500 0.000000
0.003500 0.072500 0.000000
0.004000 0.072500 0.000000
0.004500 0.072500 0.000000
0.000500 0.071250 0.000000
0.001000 0.071250 0.000000
0.001500 0.071250 0.000000
0.002000 0.071250 0.000000
0.002500 0.071250 0.000000
0.003000 0.071250 0.000000
0.003500 0.071250 0.000000
0.004000 0.071250 0.000000
0.004500 0.071250 0.000000
0.000500 0.070000 0.000000
0.001000 0.070000 0.000000
0.001500 0.070000 0.000000
0.002000 0.070000 0.000000
0.002500 0.070000 0.000000
0.003000 0.070000 0.000000
0.003500 0.070000 0.000000
0.004000 0.070000 0.000000
0.004500 0.070000 0.000000
0.000500 0.068750 0.000000
0.001000 0.068750 0.000000
0.001500 0.068750 0.000000
0.002000 0.068750 0.000000
0.002500 0.068750 0.000000
0.003000 0.068750 0.000000
0.003500 0.068750 0.000000
0.004000 0.068750 0.000000
0.004500 0.068750 0.000000
0.000500 0.067500 0.000000
0.001000 0.067500 0.000000
0.001500 0.067500 0.000000
0.002000 0.067500 0.000000
0.002500 0.067500 0.000000
0.003000 0.067500 0.000000
0.003500 0.067500 0.000000
0.004000 0.067500 0.000000
0.004500 0.067500 0.000000
0.000500 0.066250 0.000000
0.001000 0.066250 0.000000
0.001500 0.066250 0.000000
0.002000 0.066250 0.000000
0.002500 0.066250 0.000000
0.003000 0.066250 0.000000
0.003500 0.066250 0.000000
0.004000 0.066250 0.000000
0.004500 0.066250 0.000000
0.000500 0.065000 0.000000
0.001000 0.065000 0.000000
0.001500 0.065000 0.000000
0.002000 0.065000 0.000000
0.002500 0.065000 0.000000
0.003000 0.065000 0.000000
0.003500 0.065000 0.000000
0.004000 0.065000 0.000000
0.004500 0.065000 0.000000
0.000500 0.063750 0.000000
0.001000 0.063750 0.000000
0.001500 0.063750 0.000000
0.002000 0.063750 0.000000
0.002500 0.063750 0.000000
0.003000 0.063750 0.000000
0.003500 0.063750 0.000000
0.004000 0.063750 0.000000
0.004500 0.063750 0.000000
0.000500 0.062500 0.000000
0.001000 0.062500 0.000000
0.001500 0.062500 0.000000
0.002000 0.062500 0.000000
0.002500 0.062500 0.000000
0.003000 0.062500 0.000000
0.003500 0.062500 0.000000
0.004000 0.062500 0.000000
0.004500 0.062500 0.000000
0.000500 0.061250 0.000000
0.001000 0.061250 0.000000
0.001500 0.061250 0.000000
0.002000 0.061250 0.000000
0.002500 0.061250 0.000000
0.003000 0.061250 0.000000
0.003500 0.061250 0.000000
0.004000 0.061250 0.000000
0.004500 0.061250 0.000000
0.000500 0.060000 0.000000
0.001000 0.060000 0.000000
0.001500 0.060000 0.000000
0.002000 0.060000 0.000000
0.002500 0.060000 0.000000
0.003000 0.060000 0.000000
0.003500 0.060000 0.000000
0.004000 0.060000 0.000000
0.004500 0.060000 0.000000
0.000500 0.058750 0.000000
0.001000 0.058750 0.000000
0.001500 0.058750 0.000000
0.002000 0.058750 0.000000
0.002500 0.058750 0.000000
0.003000 0.058750 0.000000
0.003500 0.058750 0.000000
0.004000 0.058750 0.000000
0.004500 0.058750 0.000000
0.000500 0.057500 0.000000
0.001000 0.057500 0.000000
0.001500 0.057500 0.000000
0.002000 0.057500 0.000000
0.002500 0.057500 0.000000
0.003000 0.057500 0.000000
0.003500 0.057500 0.000000
0.004000 0.057500 0.000000
0.004500 0.057500 0.000000
0.000500 0.056250 0.000000
0.001000 0.056250 0.000000
0.001500 0.056250 0.000000
0.002000 0.056250 0.000000
0.002500 0.056250 0.000000
0.003000 0.056250 0.000000
0.003500 0.056250 0.000000
0.004000 0.056250 0.000000
0.004500 0.056250 0.000000
0.000500 0.055000 0.000000
0.001000 0.055000 0.000000
0.001500 0.055000 0.000000
0.002000 0.055000 0.000000
0.002500 0.055000 0.000000
0.003000 0.055000 0.000000
0.003500 0.055000 0.000000
0.004000 0.055000 0.000000
0.004500 0.055000 0.000000
0.000500 0.053750 0.000000
0.001000 0.053750 0.000000
0.001500 0.053750 0.000000
0.002000 0.053750 0.000000
0.002500 0.053750 0.000000
0.003000 0.053750 0.000000
0.003500 0.053750 0.000000
0.004000 0.053750 0.000000
0.004500 0.053750 0.000000
0.000500 0.052500 0.000000
0.001000 0.052500 0.000000
0.001500 0.052500 0.000000
0.002000 0.052500 0.000000
0.002500 0.052500 0.000000
0.003000 0.052500 0.000000
0.003500 0.052500 0.000000
0.004000 0.052500 0.000000
0.004500 0.052500 0.000000
0.000500 0.051250 0.000000
0.001000 0.051250 0.000000
0.001500 0.051250 0.000000
0.002000 0.051250 0.000000
0.002500 0.051250 0.000000
0.003000 0.051250 0.000000
0.003500 0.051250 0.000000
0.004000 0.051250 0.000000
0.004500 0.051250 0.000000
0.000500 0.050000 0.000000
0.001000 0.050000 0.000000
0.001500 0.050000 0.000000
0.002000 0.050000 0.000000
0.002500 0.050000 0.000000
0.003000 0.050000 0.000000
0.003500 0.050000 0.000000
0.004000 0.050000 0.000000
0.004500 0.050000 0.000000
0.000500 0.048750 0.000000
0.001000 0.048750 0.000000
0.001500 0.048750 0.000000
0.002000 0.048750 0.000000
0.002500 0.048750 0.000000
0.003000 0.048750 0.000000
0.003500 0.048750 0.000000
0.004000 0.048750 0.000000
0.004500 0.048750 0.000000
0.000500 0.047500 0.000000
0.001000 0.047500 0.000000
0.001500 0.047500 0.000000
0.002000 0.047500 0.000000
0.002500 0.047500 0.000000
0.003000 0.047500 0.000000
0.003500 0.047500 0.000000
0.004000 0.047500 0.000000
0.004500 0.047500 0.000000
0.000500 0.046250 0.000000
0.001000 0.046250 0.000000
0.001500 0.046250 0.000000
0.002000 0.046250 0.000000
0.002500 0.046250 0.000000
0.003000 0.046250 0.000000
0.003500 0.046250 0.000000
0.004000 0.046250 0.000000
0.004500 0.046250 0.000000
0.000500 0.045000 0.000000
0.001000 0.045000 0.000000
0.001500 0.045000 0.000000
0.002000 0.045000 0.000000
0.002500 0.045000 0.000000
0.003000 0.045000 0.000000
0.003500 0.045000 0.000000
0.004000 0.045000 0.000000
0.004500 0.045000 0.000000
0.000500 0.043750 0.000000
0.001000 0.043750 0.000000
0.001500 0.043750 0.000000
0.002000 0.043750 0.000000
0.002500 0.043750 0.000000
0.003000 0.043750 0.000000
0.003500 0.043750 0.000000
0.004000 0.043750 0.000000
0.004500 0.043750 0.000000
0.000500 0.042500 0.000000
0.001000 0.042500 0.000000
0.001500 0.042500 0.000000
0.002000 0.042500 0.000000
0.002500 0.042500 0.000000
0.003000 0.042500 0.000000
0.003500 0.042500 0.000000
0.004000 0.042500 0.000000
0.004500 0.042500 0.000000
0.000500 0.041250 0.000000
0.001000 0.041250 0.000000
0.001500 0.041250 0.000000
0.002000 0.041250 0.000000
0.002500 0.041250 0.000000
0.003000 0.041250 0.000000
0.003500 0.041250 0.000000
0.004000 0.041250 0.000000
0.004500 0.041250 0.000000
0.000500 0.040000 0.000000
0.001000 0.040000 0.000000
0.001500 0.040000 0.000000
0.002000 0.040000 0.000000
0.002500 0.040000 0.000000
0.003000 0.040000 0.000000
0.003500 0.040000 0.000000
0.004000 0.040000 0.000000
0.004500 0.040000 0.000000
0.000500 0.038750 0.000000
0.001000 0.038750 0.000000
0.001500 0.038750 0.000000
0.002000 0.038750 0.000000
0.002500 0.038750 0.000000
0.003000 0.038750 0.000000
0.003500 0.038750 0.000000
0.004000 0.038750 0.000000
0.004500 0.038750 0.000000
0.000500 0.037500 0.000000
0.001000 0.037500 0.000000
0.001500 0.037500 0.000000
0.002000 0.037500 0.000000
0.002500 0.037500 0.000000
0.003000 0.037500 0.000000
0.003500 0.037500 0.000000
0.004000 0.037500 0.000000
0.004500 0.037500 0.000000
0.000500 0.036250 0.000000
0.001000 0.036250 0.000000
0.001500 0.036250 0.000000
0.002000 0.036250 0.000000
0.002500 0.036250 0.000000
0.003000 0.036250 0.000000
0.003500 0.036250 0.000000
0.004000 0.036250 0.000000
0.004500 0.036250 0.000000
0.000500 0.035000 0.000000
0.001000 0.035000 0.000000
0.001500 0.035000 0.000000
0.002000 0.035000 0.000000
0.002500 0.035000 0.000000
0.003000 0.035000 0.000000
0.003500 0.035000 0.000000
0.004000 0.035000 0.000000
0.004500 0.035000 0.000000
0.000500 0.033750 0.000000
0.001000 0.033750 0.000000
0.001500 0.033750 0.000000
0.002000 0.033750 0.000000
0.002500 0.033750 0.000000
0.003000 0.033750 0.000000
0.003500 0.033750 0.000000
0.004000 0.033750 0.000000
0.004500 0.033750 0.000000
0.000500 0.032500 0.000000
0.001000 0.032500 0.000000
0.001500 0.032500 0.000000
0.002000 0.032500 0.000000
0.002500 0.032500 0.000000
0.003000 0.032500 0.000000
0.003500 0.032500 0.000000
0.004000 0.032500 0.000000
0.004500 0.032500 0.000000
0.000500 0.031250 0.000000
0.001000 0.031250 0.000000
0.001500 0.031250 0.000000
0.002000 0.031250 0.000000
0.002500 0.031250 0.000000
0.003000 0.031250 0.000000
0.003500 0.031250 0.000000
0.004000 0.031250 0.000000
0.004500 0.031250 0.000000
0.000500 0.030000 0.000000
0.001000 0.030000 0.000000
0.001500 0.030000 0.000000
0.002000 0.030000 0.000000
0.002500 0.030000 0.000000
0.003000 0.030000 0.000000
0.003500 0.030000 0.000000
0.004000 0.030000 0.000000
0.004500 0.030000 0.000000
0.000500 0.028750 0.000000
0.001000 0.028750 0.000000
0.001500 0.028750 0.000000
0.002000 0.028750 0.000000
0.002500 0.028750 0.000000
0.003000 0.028750 0.000000
0.003500 0.028750 0.000000
0.004000 0.028750 0.000000
0.004500 0.028750 0.000000
0.000500 0.027500 0.000000
0.001000 0.027500 0.000000
0.001500 0.027500 0.000000
0.002000 0.027500 0.000000
0.002500 0.027500 0.000000
0.003000 0.027500 0.000000
0.003500 0.027500 0.000000
0.004000 0.027500 0.000000
0.004500 0.027500 0.000000
0.000500 0.026250 0.000000
0.001000 0.026250 0.000000
0.001500 0.026250 0.000000
0.002000 0.026250 0.000000
0.002500 0.026250 0.000000
0.003000 0.026250 0.000000
0.003500 0.026250 0.000000
0.004000 0.026250 0.000000
0.004500 0.026250 0.000000
0.000500 0.025000 0.000000
0.001000 0.025000 0.000000
0.001500 0.025000 0.000000
0.002000 0.025000 0.000000
0.002500 0.025000 0.000000
0.003000 0.025000 0.000000
0.003500 0.025000 0.000000
0.004000 0.025000 0.000000
0.004500 0.025000 0.000000
0.000500 0.023750 0.000000
0.001000 0.023750 0.000000
0.001500 0.023750 0.000000
0.002000 0.023750 0.000000
0.002500 0.023750 0.000000
0.003000 0.023750 0.000000
0.003500 0.023750 0.000000
0.004000 0.023750 0.000000
0.004500 0.023750 0.000000
0.000500 0.022500 0.000000
0.001000 0.022500 0.000000
0.001500 0.022500 0.000000
0.002000 0.022500 0.000000
0.002500 0.022500 0.000000
0.003000 0.022500 0.000000
0.003500 0.022500 0.000000
0.004000 0.022500 0.000000
0.004500 0.022500 0.000000
0.000500 0.021250 0.000000
0.001000 0.021250 0.000000
0.001500 0.021250 0.000000
0.002000 0.021250 0.000000
0.002500 0.021250 0.000000
0.003000 0.021250 0.000000
0.003500 0.021250 0.000000
0.004000 0.021250 0.000000
0.004500 0.021250 0.000000
0.000500 0.020000 0.000000
0.001000 0.020000 0.000000
0.001500 0.020000 0.000000
0.002000 0.020000 0.000000
0.002500 0.020000 0.000000
0.003000 0.020000 0.000000
0.003500 0.020000 0.000000
0.004000 0.020000 0.000000
0.004500 0.020000 0.000000
0.000500 0.018750 0.000000
0.001000 0.018750 0.000000
0.001500 0.018750 0.000000
0.002000 0.018750 0.000000
0.002500 0.018750 0.000000
0.003000 0.018750 0.000000
0.003500 0.018750 0.000000
0.004000 0.018750 0.000000
0.004500 0.018750 0.000000
0.000500 0.017500 0.000000
0.001000 0.017500 0.000000
0.001500 0.017500 0.000000
0.002000 0.017500 0.000000
0.002500 0.017500 0.000000
0.003000 0.017500 0.000000
0.003500 0.017500 0.000000
0.004000 0.017500 0.000000
0.004500 0.017500 0.000000
0.000500 0.016250 0.000000
0.001000 0.016250 0.000000
0.001500 0.016250 0.000000
0.002000 0.016250 0.000000
0.002500 0.016250 0.000000
0.003000 0.016250 0.000000
0.003500 0.016250 0.000000
0.004000 0.016250 0.000000
0.004500 0.016250 0.000000
0.000500 0.015000 0.000000
0.001000 0.015000 0.000000
0.001500 0.015000 0.000000
0.002000 0.015000 0.000000
0.002500 0.015000 0.000000
0.003000 0.015000 0.000000
0.003500 0.015000 0.000000
0.004000 0.015000 0.000000
0.004500 0.015000 0.000000
0.000500 0.013750 0.000000
0.001000 0.013750 0.000000
0.001500 0.013750 0.000000
0.002000 0.013750 0.000000
0.002500 0.013750 0.000000
0.003000 0.013750 0.000000
0.003500 0.013750 0.000000
0.004000 0.013750 0.000000
0.004500 0.013750 0.000000
0.000500 0.012500 0.000000
0.001000 0.012500 0.000000
0.001500 0.012500 0.000000
0.002000 0.012500 0.000000
0.002500 0.012500 0.000000
0.003000 0.012500 0.000000
0.003500 0.012500 0.000000
0.004000 0.012500 0.000000
0.004500 0.012500 0.000000
0.000500 0.011250 0.000000
0.001000 0.011250 0.000000
0.001500 0.011250 0.000000
0.002000 0.011250 0.000000
0.002500 0.011250 0.000000
0.003000 0.011250 0.000000
0.003500 0.011250 0.000000
0.004000 0.011250 0.000000
0.004500 0.011250 0.000000
0.000500 0.010000 0.000000
0.001000 0.010000 0.000000
0.001500 0.010000 0.000000
0.002000 0.010000 0.000000
0.002500 0.010000 0.000000
0.003000 0.010000 0.000000
0.003500 0.010000 0.000000
0.004000 0.010000 0.000000
0.004500 0.010000 0.000000
0.000500 0.008750 0.000000
0.001000 0.008750 0.000000
0.001500 0.008750 0.000000
0.002000 0.008750 0.000000
0.002500 0.008750 0.000000
0.003000 0.008750 0.000000
0.003500 0.008750 0.000000
0.004000 0.008750 0.000000
0.004500 0.008750 0.000000
0.000500 0.007500 0.000000
0.001000 0.007500 0.000000
0.001500 0.007500 0.000000
0.002000 0.007500 0.000000
0.002500 0.007500 0.000000
0.003000 0.007500 0.000000
0.003500 0.007500 0.000000
0.004000 0.007500 0.000000
0.004500 0.007500 0.000000
0.000500 0.006250 0.000000
0.001000 0.006250 0.000000
0.001500 0.006250 0.000000
0.002000 0.006250 0.000000
0.002500 0.006250 0.000000
0.003000 0.006250 0.000000
0.003500 0.006250 0.000000
0.004000 0.006250 0.000000
0.004500 0.006250 0.000000
0.000500 0.005000 0.000000
0.001000 0.005000 0.000000
0.001500 0.005000 0.000000
0.002000 0.005000 0.000000
0.002500 0.005000 0.000000
0.003000 0.005000 0.000000
0.003500 0.005000 0.000000
0.004000 0.005000 0.000000
0.004500 0.005000 0.000000
0.000500 0.003750 0.000000
0.001000 0.003750 0.000000
0.001500 0.003750 0.000000
0.002000 0.003750 0.000000
0.002500 0.003750 0.000000
0.003000 0.003750 0.000000
0.003500 0.003750 0.000000
0.004000 0.003750 0.000000
0.004500 0.003750 0.000000
0.000500 0.002500 0.000000
0.001000 0.002500 0.000000
0.001500 0.002500 0.000000
0.002000 0.002500 0.000000
0.002500 0.002500 0.000000
0.003000 0.002500 0.000000
0.003500 0.002500 0.000000
0.004000 0.002500 0.000000
0.004500 0.002500 0.000000
0.000500 0.001250 0.000000
0.001000 0.001250 0.000000
0.001500 0.001250 0.000000
0.002000 0.001250 0.000000
0.002500 0.001250 0.000000
0.003000 0.001250 0.000000
0.003500 0.001250 0.000000
0.004000 0.001250 0.000000
0.004500 0.001250 0.000000
CELLS 800 4000
4 82 83 180 179
4 179 180 181 178
4 178 181 182 177
4 177 182 183 176
4 176 183 184 175
4 175 184 185 174
4 174 185 186 173
4 173 186 187 172
4 172 187 188 171
4 171 188 80 0
4 83 84 189 180
4 180 189 190 181
4 181 190 191 182
4 182 191 192 183
4 183 192 193 184
4 184 193 194 185
4 185 194 195 186
4 186 195 196 187
4 187 196 197 188
4 188 197 79 80
4 84 85 198 189
4 189 198 199 190
4 190 199 200 191
4 191 200 201 192
4 192 201 202 193
4 193 202 203 194
4 194 203 204 195
4 195 204 205 196
4 196 205 206 197
4 197 206 78 79
4 85 86 207 198
4 198 207 208 199
4 199 208 209 200
4 200 209 210 201
4 201 210 211 202
4 202 211 212 203
4 203 212 213 204
4 204 213 214 205
4 205 214 215 206
4 206 215 77 78
4 86 87 216 207
4 207 216 217 208
4 208 217 218 209
4 209 218 219 210
4 210 219 220 211
4 211 220 221 212
4 212 221 222 213
4 213 222 223 214
4 214 223 224 215
4 215 224 76 77
4 87 88 225 216
4 216 225 226 217
4 217 226 227 218
4 218 227 228 219
4 219 228 229 220
4 220 229 230 221
4 221 230 231 222
4 222 231 232 223
4 223 232 233 224
4 224 233 75 76
4 88 89 234 225
4 225 234 235 226
4 226 235 236 227
4 227 236 237 228
4 228 237 238 229
4 229 238 239 230
4 230 239 240 231
4 231 240 241 232
4 232 241 242 233
4 233 242 74 75
4 89 90 243 234
4 234 243 244 235
4 235 244 245 236
4 236 245 246 237
4 237 246 247 238
4 238 247 248 239
4 239 248 249 240
4 240 249 250 241
4 241 250 251 242
4 242 251 73 74
4 90 91 252 243
4 243 252 253 244
4 244 253 254 245
4 245 254 255 246
4 246 255 256 247
4 247 256 257 248
4 248 257 258 249
4 249 258 259 250
4 250 259 260 251
4 251 260 72 73
4 91 92 261 252
4 252 261 262 253
4 253 262 263 254
4 254 263 264 255
4 255 264 265 256
4 256 265 266 257
4 257 266 267 258
4 258 267 268 259
4 259 268 269 260
4 260 269 71 72
4 92 93 270 261
4 261 270 271 262
4 262 271 272 263
4 263 272 273 264
4 264 273 274 265
4 265 274 275 266
4 266 275 276 267
4 267 276 277 268
4 268 277 278 269
4 269 278 70 71
4 93 94 279 270
4 270 279 280 271
4 271 280 281 272
4 272 281 282 273
4 273 282 283 274
4 274 283 284 275
4 275 284 285 276
4 276 285 286 277
4 277 286 287 278
4 278 287 69 70
4 94 95 288 279
4 279 288 289 280
4 280 289 290 281
4 281 290 291 282
4 282 291 292 283
4 283 292 293 284
4 284 293 294 285
4 285 294 295 286
4 286 295 296 287
4 287 296 68 69
4 95 96 297 288
4 288 297 298 289
4 289 298 299 290
4 290 299 300 291
4 291 300 301 292
4 292 301 302 293
4 293 302 303 294
4 294 303 304 295
4 295 304 305 296
4 296 305 67 68
4 96 97 306 297
4 297 306 307 298
4 298 307 308 299
4 299 308 309 300
4 300 309 310 301
4 301 310 311 302
4 302 311 312 303
4 303 312 313 304
4 304 313 314 305
4 305 314 66 67
4 97 98 315 306
4 306 315 316 307
4 307 316 317 308
4 308 317 318 309
4 309 318 319 310
4 310 319 320 311
4 311 320 321 312
4 312 321 322 313
4 313 322 323 314
4 314 323 65 66
4 98 99 324 315
4 315 324 325 316
4 316 325 326 317
4 317 326 327 318
4 318 327 328 319
4 319 328 329 320
4 320 329 330 321
4 321 330 331 322
4 322 331 332 323
4 323 332 64 65
4 99 100 333 324
4 324 333 334 325
4 325 334 335 326
4 326 335 336 327
4 327 336 337 328
4 328 337 338 329
4 329 338 339 330
4 330 339 340 331
4 331 340 341 332
4 332 341 63 64
4 100 101 342 333
4 333 342 343 334
4 334 343 344 335
4 335 344 345 336
4 336 345 346 337
4 337 346 347 338
4 338 347 348 339
4 339 348 349 340
4 340 349 350 341
4 341 350 62 63
4 101 102 351 342
4 342 351 352 343
4 343 352 353 344
4 344 353 354 345
4 345 354 355 346
4 346 355 356 347
4 347 356 357 348
4 348 357 358 349
4 349 358 359 350
4 350 359 61 62
4 102 103 360 351
4 351 360 361 352
4 352 361 362 353
4 353 362 363 354
4 354 363 364 355
4 355 364 365 356
4 356 365 366 357
4 357 366 367 358
4 358 367 368 359
4 359 368 60 61
4 103 104 369 360
4 360 369 370 361
4 361 370 371 362
4 362 371 372 363
4 363 372 373 364
4 364 373 374 365
4 365 374 375 366
4 366 375 376 367
4 367 376 377 368
4 368 377 59 60
4 104 105 378 369
4 369 378 379 370
4 370 379 380 371
4 371 380 381 372
4 372 381 382 373
4 373 382 383 374
4 374 383 384 375
4 375 384 385 376
4 376 385 386 377
4 377 386 58 59
4 105 106 387 378
4 378 387 388 379
4 379 388 389 380
4 380 389 390 381
4 381 390 391 382
4 382 391 392 383
4 383 392 393 384
4 384 393 394 385
4 385 394 395 386
4 386 395 57 58
4 106 107 396 387
4 387 396 397 388
4 388 397 398 389
4 389 398 399 390
4 390 399 400 391
4 391 400 401 392
4 392 401 402 393
4 393 402 403 394
4 394 403 404 395
4 395 404 56 57
4 107 108 405 396
4 396 405 406 397
4 397 406 407 398
4 398 407 408 399
4 399 408 409 400
4 400 409 410 401
4 401 410 411 402
4 402 411 412 403
4 403 412 413 404
4 404 413 55 56
4 108 109 414 405
4 405 414 415 406
4 406 415 416 407
4 407 416 417 408
4 408 417 418 409
4 409 418 419 410
4 410 419 420 411
4 411 420 421 412
4 412 421 422 413
4 413 422 54 55
4 109 110 423 414
4 414 423 424 415
4 415 424 425 416
4 416 425 426 417
4 417 426 427 418
4 418 427 428 419
4 419 428 429 420
4 420 429 430 421
4 421 430 431 422
4 422 431 53 54
4 110 111 432 423
4 423 432 433 424
4 424 433 434 425
4 425 434 435 426
4 426 435 436 427
4 427 436 437 428
4 428 437 438 429
4 429 438 439 430
4 430 439 440 431
4 431 440 52 53
4 111 112 441 432
4 432 441 442 433
4 433 442 443 434
4 434 443 444 435
4 435 444 445 436
4 436 445 446 437
4 437 446 447 438
4 438 447 448 439
4 439 448 449 440
4 440 449 51 52
4 112 113 450 441
4 441 450 451 442
4 442 451 452 443
4 443 452 453 444
4 444 453 454 445
4 445 454 455 446
4 446 455 456 447
4 447 456 457 448
4 448 457 458 449
4 449 458 50 51
4 113 114 459 450
4 450 459 460 451
4 451 460 461 452
4 452 461 462 453
4 453 462 463 454
4 454 463 464 455
4 455 464 465 456
4 456 465 466 457
4 457 466 467 458
4 458 467 49 50
4 114 115 468 459
4 459 468 469 460
4 460 469 470 461
4 461 470 471 462
4 462 471 472 463
4 463 472 473 464
4 464 473 474 465
4 465 474 475 466
4 466 475 476 467
4 467 476 48 49
4 115 116 477 468
4 468 477 478 469
4 469 478 479 470
4 470 479 480 471
4 471 480 481 472
4 472 481 482 473
4 473 482 483 474
4 474 483 484 475
4 475 484 485 476
4 476 485 47 48
4 116 117 486 477
4 477 486 487 478
4 478 487 488 479
4 479 488 489 480
4 480 489 490 481
4 481 490 491 482
4 482 491 492 483
4 483 492 493 484
4 484 493 494 485
4 485 494 46 47
4 117 118 495 486
4 486 495 496 487
4 487 496 497 488
4 488 497 498 489
4 489 498 499 490
4 490 499 500 491
4 491 500 501 492
4 492 501 502 493
4 493 502 503 494
4 494 503 45 46
4 118 119 504 495
4 495 504 505 496
4 496 505 506 497
4 497 506 507 498
4 498 507 508 499
4 499 508 509 500
4 500 509 510 501
4 501 510 511 502
4 502 511 512 503
4 503 512 44 45
4 119 120 513 504
4 504 513 514 505
4 505 514 515 506
4 506 515 516 507
4 507 516 517 508
4 508 517 518 509
4 509 518 519 510
4 510 519 520 511
4 511 520 521 512
4 512 521 43 44
4 120 121 522 513
4 513 522 523 514
4 514 523 524 515
4 515 524 525 516
4 516 525 526 517
4 517 526 527 518
4 518 527 528 519
4 519 528 529 520
4 520 529 530 521
4 521 530 42 43
4 121 122 531 522
4 522 531 532 523
4 523 532 533 524
4 524 533 534 525
4 525 534 535 526
4 526 535 536 527
4 527 536 537 528
4 528 537 538 529
4 529 538 539 530
4 530 539 41 42
4 122 123 540 531
4 531 540 541 532
4 532 541 542 533
4 533 542 543 534
4 534 543 544 535
4 535 544 545 536
4 536 545 546 537
4 537 546 547 538
4 538 547 548 539
4 539 548 40 41
4 123 124 549 540
4 540 549 550 541
4 541 550 551 542
4 542 551 552 543
4 543 552 553 544
4 544 553 554 545
4 545 554 555 546
4 546 555 556 547
4 547 556 557 548
4 548 557 39 40
4 124 125 558 549
4 549 558 559 550
4 550 559 560 551
4 551 560 561 552
4 552 561 562 553
4 553 562 563 554
4 554 563 564 555
4 555 564 565 556
4 556 565 566 557
4 557 566 38 39
4 125 126 567 558
4 558 567 568 559
4 559 568 569 560
4 560 569 570 561
4 561 570 571 562
4 562 571 572 563
4 563 572 573 564
4 564 573 574 565
4 565 574 575 566
4 566 575 37 38
4 126 127 576 567
4 567 576 577 568
4 568 577 578 569
4 569 578 579 570
4 570 579 580 571
4 571 580 581 572
4 572 581 582 573
4 573 582 583 574
4 574 583 584 575
4 575 584 36 37
4 127 128 585 576
4 576 585 586 577
4 577 586 587 578
4 578 587 588 579
4 579 588 589 580
4 580 589 590 581
4 581 590 591 582
4 582 591 592 583
4 583 592 593 584
4 584 593 35 36
4 128 129 594 585
4 585 594 595 586
4 586 595 596 587
4 587 596 597 588
4 588 597 598 589
4 589 598 599 590
4 590 599 600 591
4 591 600 601 592
4 592 601 602 593
4 593 602 34 35
4 129 130 603 594
4 594 603 604 595
4 595 604 605 596
4 596 605 606 597
4 597 606 607 598
4 598 607 608 599
4 599 608 609 600
4 600 609 610 601
4 601 610 611 602
4 602 611 33 34
4 130 131 612 603
4 603 612 613 604
4 604 613 614 605
4 605 614 615 606
4 606 615 616 607
4 607 616 617 608
4 608 617 618 609
4 609 618 619 610
4 610 619 620 611
4 611 620 32 33
4 131 132 621 612
4 612 621 622 613
4 613 622 623 614
4 614 623 624 615
4 615 624 625 616
4 616 625 626 617
4 617 626 627 618
4 618 627 628 619
4 619 628 629 620
4 620 629 31 32
4 132 133 630 621
4 621 630 631 622
4 622 631 632 623
4 623 632 633 624
4 624 633 634 625
4 625 634 635 626
4 626 635 636 627
4 627 636 637 628
4 628 637 638 629
4 629 638 30 31
4 133 134 639 630
4 630 639 640 631
4 631 640 641 632
4 632 641 642 633
4 633 642 643 634
4 634 643 644 635
4 635 644 645 636
4 636 645 646 637
4 637 646 647 638
4 638 647 29 30
4 134 135 648 639
4 639 648 649 640
4 640 649 650 641
4 641 650 651 642
4 642 651 652 643
4 643 652 653 644
4 644 653 654 645
4 645 654 655 646
4 646 655 656 647
4 647 656 28 29
4 135 136 657 648
4 648 657 658 649
4 649 658 659 650
4 650 659 660 651
4 651 660 661 652
4 652 661 662 653
4 653 662 663 654
4 654 663 664 655
4 655 664 665 656
4 656 665 27 28
4 136 137 666 657
4 657 666 667 658
4 658 667 668 659
4 659 668 669 660
4 660 669 670 661
4 661 670 671 662
4 662 671 672 663
4 663 672 673 664
4 664 673 674 665
4 665 674 26 27
4 137 138 675 666
4 666 675 676 667
4 667 676 677 668
4 668 677 678 669
4 669 678 679 670
4 670 679 680 671
4 671 680 681 672
4 672 681 682 673
4 673 682 683 674
4 674 683 25 26
4 138 139 684 675
4 675 684 685 676
4 676 685 686 677
4 677 686 687 678
4 678 687 688 679
4 679 688 689 680
4 680 689 690 681
4 681 690 691 682
4 682 691 692 683
4 683 692 24 25
4 139 140 693 684
4 684 693 694 685
4 685 694 695 686
4 686 695 696 687
4 687 696 697 688
4 688 697 698 689
4 689 698 699 690
4 690 699 700 691
4 691 700 701 692
4 692 701 23 24
4 140 141 702 693
4 693 702 703 694
4 694 703 704 695
4 695 704 705 696
4 696 705 706 697
4 697 706 707 698
4 698 707 708 699
4 699 708 709 700
4 700 709 710 701
4 701 710 22 23
4 141 142 711 702
4 702 711 712 703
4 703 712 713 704
4 704 713 714 705
4 705 714 715 706
4 706 715 716 707
4 707 716 717 708
4 708 717 718 709
4 709 718 719 710
4 710 719 21 22
4 142 143 720 711
4 711 720 721 712
4 712 721 722 713
4 713 722 723 714
4 714 723 724 715
4 715 724 725 716
4 716 725 726 717
4 717 726 727 718
4 718 727 728 719
4 719 728 20 21
4 143 144 729 720
4 720 729 730 721
4 721 730 731 722
4 722 731 732 723
4 723 732 733 724
4 724 733 734 725
4 725 734 735 726
4 726 735 736 727
4 727 736 737 728
4 728 737 19 20
4 144 145 738 729
4 729 738 739 730
4 730 739 740 731
4 731 740 741 732
4 732 741 742 733
4 733 742 743 734
4 734 743 744 735
4 735 744 745 736
4 736 745 746 737
4 737 746 18 19
4 145 146 747 738
4 738 747 748 739
4 739 748 749 740
4 740 749 750 741
4 741 750 751 742
4 742 751 752 743
4 743 752 753 744
4 744 753 754 745
4 745 754 755 746
4 746 755 17 18
4 146 147 756 747
4 747 756 757 748
4 748 757 758 749
4 749 758 759 750
4 750 759 760 751
4 751 760 761 752
4 752 761 762 753
4 753 762 763 754
4 754 763 764 755
4 755 764 16 17
4 147 148 765 756
4 756 765 766 757
4 757 766 767 758
4 758 767 768 759
4 759 768 769 760
4 760 769 770 761
4 761 770 771 762
4 762 771 772 763
4 763 772 773 764
4 764 773 15 16
4 148 149 774 765
4 765 774 775 766
4 766 775 776 767
4 767 776 777 768
4 768 777 778 769
4 769 778 779 770
4 770 779 780 771
4 771 780 781 772
4 772 781 782 773
4 773 782 14 15
4 149 150 783 774
4 774 783 784 775
4 775 784 785 776
4 776 785 786 777
4 777 786 787 778
4 778 787 788 779
4 779 788 789 780
4 780 789 790 781
4 781 790 791 782
4 782 791 13 14
4 150 151 792 783
4 783 792 793 784
4 784 793 794 785
4 785 794 795 786
4 786 795 796 787
4 787 796 797 788
4 788 797 798 789
4 789 798 799 790
4 790 799 800 791
4 791 800 12 13
4 151 152 801 792
4 792 801 802 793
4 793 802 803 794
4 794 803 804 795
4 795 804 805 796
4 796 805 806 797
4 797 806 807 798
4 798 807 808 799
4 799 808 809 800
4 800 809 11 12
4 152 153 810 801
4 801 810 811 802
4 802 811 812 803
4 803 812 813 804
4 804 813 814 805
4 805 814 815 806
4 806 815 816 807
4 807 816 817 808
4 808 817 818 809
4 809 818 10 11
4 153 154 819 810
4 810 819 820 811
4 811 820 821 812
4 812 821 822 813
4 813 822 823 814
4 814 823 824 815
4 815 824 825 816
4 816 825 826 817
4 817 826 827 818
4 818 827 9 10
4 154 155 828 819
4 819 828 829 820
4 820 829 830 821
4 821 830 831 822
4 822 831 832 823
4 823 832 833 824
4 824 833 834 825
4 825 834 835 826
4 826 835 836 827
4 827 836 8 9
4 155 156 837 828
4 828 837 838 829
4 829 838 839 830
4 830 839 840 831
4 831 840 841 832
4 832 841 842 833
4 833 842 843 834
4 834 843 844 835
4 835 844 845 836
4 836 845 7 8
4 156 157 846 837
4 837 846 847 838
4 838 847 848 839
4 839 848 849 840
4 840 849 850 841
4 841 850 851 842
4 842 851 852 843
4 843 852 853 844
4 844 853 854 845
4 845 854 6 7
4 157 158 855 846
4 846 855 856 847
4 847 856 857 848
4 848 857 858 849
4 849 858 859 850
4 850 859 860 851
4 851 860 861 852
4 852 861 862 853
4 853 862 863 854
4 854 863 5 6
4 158 159 864 855
4 855 864 865 856
4 856 865 866 857
4 857 866 867 858
4 858 867 868 859
4 859 868 869 860
4 860 869 870 861
4 861 870 871 862
4 862 871 872 863
4 863 872 4 5
4 159 160 873 864
4 864 873 874 865
4 865 874 875 866
4 866 875 876 867
4 867 876 877 868
4 868 877 878 869
4 869 878 879 870
4 870 879 880 871
4 871 880 881 872
4 872 881 3 4
4 160 161 882 873
4 873 882 883 874
4 874 883 884 875
4 875 884 885 876
4 876 885 886 877
4 877 886 887 878
4 878 887 888 879
4 879 888 889 880
4 880 889 890 881
4 881 890 2 3
4 161 81 162 882
4 882 162 163 883
4 883 163 164 884
4 884 164 165 885
4 885 165 166 886
4 886 166 167 887
4 887 167 168 888
4 888 168 169 889
4 889 169 170 890
4 890 170 1 2
CELL_TYPES 800
9
9
9
9
9
9
9
9
9
9
9
9
9
9
9
9
9
9
9
9
9
9
9
9
9
9
9
9
9
9
9
9
9
9
9
9
9
9
9
9
9
9
9
9
9
9
9
9
9
9
9
9
9
9
9
9
9
9
9
9
9
9
9
9
9
9
9
9
9
9
9
9
9
9
9
9
9
9
9
9
9
9
9
9
9
9
9
9
9
9
9
9
9
9
9
9
9
9
9
9
9
9
9
9
9
9
9
9
9
9
9
9
9
9
9
9
9
9
9
9
9
9
9
9
9
9
9
9
9
9
9
9
9
9
9
9
9
9
9
9
9
9
9
9
9
9
9
9
9
9
9
9
9
9
9
9
9
9
9
9
9
9
9
9
9
9
9
9
9
9
9
9
9
9
9
9
9
9
9
9
9
9
9
9
9
9
9
9
9
9
9
9
9
9
9
9
9
9
9
9
9
9
9
9
9
9
9
9
9
9
9
9
9
9
9
9
9
9
9
9
9
9
9
9
9
9
9
9
9
9
9
9
9
9
9
9
9
9
9
9
9
9
9
9
9
9
9
9
9
9
9
9
9
9
9
9
9
9
9
9
9
9
9
9
9
9
9
9
9
9
9
9
9
9
9
9
9
9
9
9
9
9
9
9
9
9
9
9
9
9
9
9
9
9
9
9
9
9
9
9
9
9
9
9
9
9
9
9
9
9
9
9
9
9
9
9
9
9
9
9
9
9
9
9
9
9
9
9
9
9
9
9
9
9
9
9
9
9
9
9
9
9
9
9
9
9
9
9
9
9
9
9
9
9
9
9
9
9
9
9
9
9
9
9
9
9
9
9
9
9
9
9
9
9
9
9
9
9
9
9
9
9
9
9
9
9
9
9
9
9
9
9
9
9
9
9
9
9
9
9
9
9
9
9
9
9
9
9
9
9
9
9
9
9
9
9
9
9
9
9
9
9
9
9
9
9
9
9
9
9
9
9
9
9
9
9
9
9
9
9
9
9
9
9
9
9
9
9
9
9
9
9
9
9
9
9
9
9
9
9
9
9
9
9
9
9
9
9
9
9
9
9
9
9
9
9
9
9
9
9
9
9
9
9
9
9
9
9
9
9
9
9
9
9
9
9
9
9
9
9
9
9
9
9
9
9
9
9
9
9
9
9
9
9
9
9
9
9
9
9
9
9
9
9
9
9
9
9
9
9
9
9
9
9
9
9
9
9
9
9
9
9
9
9
9
9
9
9
9
9
9
9
9
9
9
9
9
9
9
9
9
9
9
9
9
9
9
9
9
9
9
9
9
9
9
9
9
9
9
9
9
9
9
9
9
9
9
9
9
9
9
9
9
9
9
9
9
9
9
9
9
9
9
9
9
9
9
9
9
9
9
9
9
9
9
9
9
9
9
9
9
9
9
9
9
9
9
9
9
9
9
9
9
9
9
9
9
9
9
9
9
9
9
9
9
9
9
9
9
9
9
9
9
9
9
9
9
9
9
9
9
9
9
9
9
9
9
9
9
9
9
9
9
9
9
9
9
9
9
9
9
9
9
9
9
9
9
9
9
9
9
9
9
9
9
9
9
9
9
9
9
9
9
9
9
9
9
9
9
9
9
9
9
9
9
9
9
9
9
9
9
9
9
9
9
9
9
9
9
9
9
9
9
9
9
9
9
9
9
9
9
9
9
9
9
9
9
9
9
9
9
9
9
9
9
9
9
9
9
9
9
9
9
9
9
9
9
9
9
9
9
9
9
9
9
9
9
9
9
9
9
9
9
9
9
9
9
9
9
9
9
9
9
9
9
9
9
9
9
9
POINT_DATA 891
SCALARS u1 float
LOOKUP_TABLE default
4e-18
-2e-08
-2e-08
-2e-08
-2e-08
-2e-08
-2e-08
-2e-08
-2e-08
-2e-08
-2e-08
-2e-08
-2e-08
-2e-08
-2e-08
-2e-08
-2e-08
-2e-08
-2e-08
-2e-08
-2e-08
-2e-08
-2e-08
-2e-08
-2e-08
-2e-08
-2e-08
-2e-08
-2e-08
-2e-08
-2e-08
-2e-08
-2e-08
-2e-08
-2e-08
-2e-08
-2e-08
-2e-08
-2e-08
-2e-08
-2e-08
-2e-08
-2e-08
-2e-08
-2e-08
-2e-08
-2e-08
-2e-08
-2e-08
-2e-08
-2e-08
-2e-08
-2e-08
-2e-08
-2e-08
-2e-08
-2e-08
-2e-08
-2e-08
-2e-08
-2e-08
-2e-08
-2e-08
-2e-08
-2e-08
-2e-08
-2e-08
-2e-08
-2e-08
-2e-08
-2e-08
-2e-08
-2e-08
-2e-08
-2e-08
-2e-08
-2e-08
-2e-08
-2e-08
-2e-08
-1e-08
2e-08
1e-17
1e-08
2e-08
2e-08
2e-08
2e-08
2e-08
2e-08
2e-08
2e-08
2e-08
2e-08
2e-08
2e-08
2e-08
2e-08
2e-08
2e-08
2e-08
2e-08
2e-08
2e-08
2e-08
2e-08
2e-08
2e-08
2e-08
2e-08
2e-08
2e-08
2e-08
2e-08
2e-08
2e-08
2e-08
2e-08
2e-08
2e-08
2e-08
2e-08
2e-08
2e-08
2e-08
2e-08
2e-08
2e-08
2e-08
2e-08
2e-08
2e-08
2e-08
2e-08
2e-08
2e-08
2e-08
2e-08
2e-08
2e-08
2e-08
2e-08
2e-08
2e-08
2e-08
2e-08
2e-08
2e-08
2e-08
2e-08
2e-08
2e-08
2e-08
2e-08
2e-08
2e-08
2e-08
2e-08
2e-08
2e-08
2e-08
2e-08
1e-08
1e-08
7e-09
3e-09
-6e-14
-3e-09
-7e-09
-1e-08
-1e-08
3e-18
-6e-18
1e-17
-2e-17
-6e-18
1e-17
-2e-17
-2e-17
4e-18
1e-08
7e-09
4e-09
2e-09
-2e-14
-2e-09
-4e-09
-7e-09
-1e-08
1e-08
1e-08
6e-09
3e-09
-4e-14
-3e-09
-6e-09
-1e-08
-1e-08
1e-08
1e-08
7e-09
4e-09
-5e-14
-4e-09
-7e-09
-1e-08
-1e-08
1e-08
1e-08
7e-09
4e-09
-5e-14
-4e-09
-7e-09
-1e-08
-1e-08
1e-08
1e-08
7e-09
4e-09
-5e-14
-4e-09
-7e-09
-1e-08
-1e-08
1e-08
1e-08
7e-09
4e-09
-6e-14
-4e-09
-7e-09
-1e-08
-1e-08
1e-08
1e-08
7e-09
4e-09
-6e-14
-4e-09
-7e-09
-1e-08
-1e-08
1e-08
1e-08
7e-09
3e-09
-6e-14
-3e-09
-7e-09
-1e-08
-1e-08
1e-08
1e-08
7e-09
3e-09
-6e-14
-3e-09
-7e-09
-1e-08
-1e-08
1e-08
1e-08
7e-09
3e-09
-6e-14
-3e-09
-7e-09
-1e-08
-1e-08
1e-08
1e-08
7e-09
3e-09
-6e-14
-3e-09
-7e-09
-1e-08
-1e-08
1e-08
1e-08
7e-09
3e-09
-6e-14
-3e-09
-7e-09
-1e-08
-1e-08
1e-08
1e-08
7e-09
3e-09
-6e-14
-3e-09
-7e-09
-1e-08
-1e-08
1e-08
1e-08
7e-09
3e-09
-6e-14
-3e-09
-7e-09
-1e-08
-1e-08
1e-08
1e-08
7e-09
3e-09
-6e-14
-3e-09
-7e-09
-1e-08
-1e-08
1e-08
1e-08
7e-09
3e-09
-6e-14
-3e-09
-7e-09
-1e-08
-1e-08
1e-08
1e-08
7e-09
3e-09
-6e-14
-3e-09
-7e-09
-1e-08
-1e-08
1e-08
1e-08
7e-09
3e-09
-6e-14
-3e-09
-7e-09
-1e-08
-1e-08
1e-08
1e-08
7e-09
3e-09
-6e-14
-3e-09
-7e-09
-1e-08
-1e-08
1e-08
1e-08
7e-09
3e-09
-6e-14
-3e-09
-7e-09
-1e-08
-1e-08
1e-08
1e-08
7e-09
3e-09
-6e-14
-3e-09
-7e-09
-1e-08
-1e-08
1e-08
1e-08
7e-09
3e-09
-6e-14
-3e-09
-7e-09
-1e-08
-1e-08
1e-08
1e-08
7e-09
3e-09
-6e-14
-3e-09
-7e-09
-1e-08
-1e-08
1e-08
1e-08
7e-09
3e-09
-6e-14
-3e-09
-7e-09
-1e-08
-1e-08
1e-08
1e-08
7e-09
3e-09
-6e-14
-3e-09
-7e-09
-1e-08
-1e-08
1e-08
1e-08
7e-09
3e-09
-6e-14
-3e-09
-7e-09
-1e-08
-1e-08
1e-08
1e-08
7e-09
3e-09
-6e-14
-3e-09
-7e-09
-1e-08
-1e-08
1e-08
1e-08
7e-09
3e-09
-6e-14
-3e-09
-7e-09
-1e-08
-1e-08
1e-08
1e-08
7e-09
3e-09
-6e-14
-3e-09
-7e-09
-1e-08
-1e-08
1e-08
1e-08
7e-09
3e-09
-6e-14
-3e-09
-7e-09
-1e-08
-1e-08
1e-08
1e-08
7e-09
3e-09
-6e-14
-3e-09
-7e-09
-1e-08
-1e-08
1e-08
1e-08
7e-09
3e-09
-6e-14
-3e-09
-7e-09
-1e-08
-1e-08
1e-08
1e-08
7e-09
3e-09
-6e-14
-3e-09
-7e-09
-1e-08
-1e-08
1e-08
1e-08
7e-09
3e-09
-6e-14
-3e-09
-7e-09
-1e-08
-1e-08
1e-08
1e-08
7e-09
3e-09
-6e-14
-3e-09
-7e-09
-1e-08
-1e-08
1e-08
1e-08
7e-09
3e-09
-6e-14
-3e-09
-7e-09
-1e-08
-1e-08
1e-08
1e-08
7e-09
3e-09
-6e-14
-3e-09
-7e-09
-1e-08
-1e-08
1e-08
1e-08
7e-09
3e-09
-6e-14
-3e-09
-7e-09
-1e-08
-1e-08
1e-08
1e-08
7e-09
3e-09
-6e-14
-3e-09
-7e-09
-1e-08
-1e-08
1e-08
1e-08
7e-09
3e-09
-6e-14
-3e-09
-7e-09
-1e-08
-1e-08
1e-08
1e-08
7e-09
3e-09
-6e-14
-3e-09
-7e-09
-1e-08
-1e-08
1e-08
1e-08
7e-09
3e-09
-6e-14
-3e-09
-7e-09
-1e-08
-1e-08
1e-08
1e-08
7e-09
3e-09
-6e-14
-3e-09
-7e-09
-1e-08
-1e-08
1e-08
1e-08
7e-09
3e-09
-6e-14
-3e-09
-7e-09
-1e-08
-1e-08
1e-08
1e-08
7e-09
3e-09
-6e-14
-3e-09
-7e-09
-1e-08
-1e-08
1e-08
1e-08
7e-09
3e-09
-6e-14
-3e-09
-7e-09
-1e-08
-1e-08
1e-08
1e-08
7e-09
3e-09
-6e-14
-3e-09
-7e-09
-1e-08
-1e-08
1e-08
1e-08
7e-09
3e-09
-6e-14
-3e-09
-7e-09
-1e-08
-1e-08
1e-08
1e-08
7e-09
3e-09
-6e-14
-3e-09
-7e-09
-1e-08
-1e-08
1e-08
1e-08
7e-09
3e-09
-6e-14
-3e-09
-7e-09
-1e-08
-1e-08
1e-08
1e-08
7e-09
3e-09
-6e-14
-3e-09
-7e-09
-1e-08
-1e-08
1e-08
1e-08
7e-09
3e-09
-6e-14
-3e-09
-7e-09
-1e-08
-1e-08
1e-08
1e-08
7e-09
3e-09
-6e-14
-3e-09
-7e-09
-1e-08
-1e-08
1e-08
1e-08
7e-09
3e-09
-6e-14
-3e-09
-7e-09
-1e-08
-1e-08
1e-08
1e-08
7e-09
3e-09
-6e-14
-3e-09
-7e-09
-1e-08
-1e-08
1e-08
1e-08
7e-09
3e-09
-6e-14
-3e-09
-7e-09
-1e-08
-1e-08
1e-08
1e-08
7e-09
3e-09
-6e-14
-3e-09
-7e-09
-1e-08
-1e-08
1e-08
1e-08
7e-09
3e-09
-6e-14
-3e-09
-7e-09
-1e-08
-1e-08
1e-08
1e-08
7e-09
3e-09
-6e-14
-3e-09
-7e-09
-1e-08
-1e-08
1e-08
1e-08
7e-09
3e-09
-6e-14
-3e-09
-7e-09
-1e-08
-1e-08
1e-08
1e-08
7e-09
3e-09
-6e-14
-3e-09
-7e-09
-1e-08
-1e-08
1e-08
1e-08
7e-09
3e-09
-6e-14
-3e-09
-7e-09
-1e-08
-1e-08
1e-08
1e-08
7e-09
3e-09
-6e-14
-3e-09
-7e-09
-1e-08
-1e-08
1e-08
1e-08
7e-09
3e-09
-6e-14
-3e-09
-7e-09
-1e-08
-1e-08
1e-08
1e-08
7e-09
3e-09
-6e-14
-3e-09
-7e-09
-1e-08
-1e-08
1e-08
1e-08
7e-09
3e-09
-6e-14
-3e-09
-7e-09
-1e-08
-1e-08
1e-08
1e-08
7e-09
3e-09
-6e-14
-3e-09
-7e-09
-1e-08
-1e-08
1e-08
1e-08
7e-09
3e-09
-6e-14
-3e-09
-7e-09
-1e-08
-1e-08
1e-08
1e-08
7e-09
3e-09
-6e-14
-3e-09
-7e-09
-1e-08
-1e-08
1e-08
1e-08
7e-09
3e-09
-6e-14
-3e-09
-7e-09
-1e-08
-1e-08
1e-08
1e-08
7e-09
3e-09
-6e-14
-3e-09
-7e-09
-1e-08
-1e-08
1e-08
1e-08
7e-09
3e-09
-6e-14
-3e-09
-7e-09
-1e-08
-1e-08
1e-08
1e-08
7e-09
3e-09
-6e-14
-3e-09
-7e-09
-1e-08
-1e-08
1e-08
1e-08
7e-09
3e-09
-6e-14
-3e-09
-7e-09
-1e-08
-1e-08
1e-08
1e-08
7e-09
3e-09
-6e-14
-3e-09
-7e-09
-1e-08
-1e-08
1e-08
1e-08
7e-09
3e-09
-6e-14
-3e-09
-7e-09
-1e-08
-1e-08
1e-08
1e-08
7e-09
3e-09
-6e-14
-3e-09
-7e-09
-1e-08
-1e-08
1e-08
1e-08
7e-09
3e-09
-6e-14
-3e-09
-7e-09
-1e-08
-1e-08
1e-08
1e-08
7e-09
3e-09
-6e-14
-3e-09
-7e-09
-1e-08
-1e-08
SCALARS u2 float
LOOKUP_TABLE default
-2e-17
-5e-06
-5e-06
-5e-06
-5e-06
-5e-06
-5e-06
-5e-06
-5e-06
-4e-06
-4e-06
-4e-06
-4e-06
-4e-06
-4e-06
-4e-06
-4e-06
-4e-06
-4e-06
-4e-06
-4e-06
-4e-06
-4e-06
-4e-06
-4e-06
-3e-06
-3e-06
-3e-06
-3e-06
-3e-06
-3e-06
-3e-06
-3e-06
-3e-06
-3e-06
-3e-06
-3e-06
-3e-06
-3e-06
-3e-06
-3e-06
-2e-06
-2e-06
-2e-06
-2e-06
-2e-06
-2e-06
-2e-06
-2e-06
-2e-06
-2e-06
-2e-06
-2e-06
-2e-06
-2e-06
-2e-06
-2e-06
-1e-06
-1e-06
-1e-06
-1e-06
-1e-06
-1e-06
-1e-06
-1e-06
-1e-06
-9e-07
-9e-07
-8e-07
-7e-07
-7e-07
-6e-07
-6e-07
-5e-07
-4e-07
-4e-07
-3e-07
-2e-07
-2e-07
-1e-07
-6e-08
-5e-06
8e-17
-6e-08
-1e-07
-2e-07
-2e-07
-3e-07
-4e-07
-4e-07
-5e-07
-6e-07
-6e-07
-7e-07
-7e-07
-8e-07
-9e-07
-9e-07
-1e-06
-1e-06
-1e-06
-1e-06
-1e-06
-1e-06
-1e-06
-1e-06
-1e-06
-2e-06
-2e-06
-2e-06
-2e-06
-2e-06
-2e-06
-2e-06
-2e-06
-2e-06
-2e-06
-2e-06
-2e-06
-2e-06
-2e-06
-2e-06
-2e-06
-3e-06
-3e-06
-3e-06
-3e-06
-3e-06
-3e-06
-3e-06
-3e-06
-3e-06
-3e-06
-3e-06
-3e-06
-3e-06
-3e-06
-3e-06
-3e-06
-4e-06
-4e-06
-4e-06
-4e-06
-4e-06
-4e-06
-4e-06
-4e-06
-4e-06
-4e-06
-4e-06
-4e-06
-4e-06
-4e-06
-4e-06
-4e-06
-5e-06
-5e-06
-5e-06
-5e-06
-5e-06
-5e-06
-5e-06
-5e-06
-5e-06
-5e-06
-5e-06
-5e-06
-5e-06
-5e-06
-5e-06
-5e-06
4e-18
3e-18
-5e-17
4e-17
-2e-18
-4e-18
-5e-17
-5e-18
2e-17
-6e-08
-6e-08
-6e-08
-6e-08
-6e-08
-6e-08
-6e-08
-6e-08
-6e-08
-1e-07
-1e-07
-1e-07
-1e-07
-1e-07
-1e-07
-1e-07
-1e-07
-1e-07
-2e-07
-2e-07
-2e-07
-2e-07
-2e-07
-2e-07
-2e-07
-2e-07
-2e-07
-2e-07
-2e-07
-2e-07
-2e-07
-2e-07
-2e-07
-2e-07
-2e-07
-2e-07
-3e-07
-3e-07
-3e-07
-3e-07
-3e-07
-3e-07
-3e-07
-3e-07
-3e-07
-4e-07
-4e-07
-4e-07
-4e-07
-4e-07
-4e-07
-4e-07
-4e-07
-4e-07
-4e-07
-4e-07
-4e-07
-4e-07
-4e-07
-4e-07
-4e-07
-4e-07
-4e-07
-5e-07
-5e-07
-5e-07
-5e-07
-5e-07
-5e-07
-5e-07
-5e-07
-5e-07
-6e-07
-6e-07
-6e-07
-6e-07
-6e-07
-6e-07
-6e-07
-6e-07
-6e-07
-6e-07
-6e-07
-6e-07
-6e-07
-6e-07
-6e-07
-6e-07
-6e-07
-6e-07
-7e-07
-7e-07
-7e-07
-7e-07
-7e-07
-7e-07
-7e-07
-7e-07
-7e-07
-7e-07
-7e-07
-7e-07
-7e-07
-7e-07
-7e-07
-7e-07
-7e-07
-7e-07
-8e-07
-8e-07
-8e-07
-8e-07
-8e-07
-8e-07
-8e-07
-8e-07
-8e-07
-9e-07
-9e-07
-9e-07
-9e-07
-9e-07
-9e-07
-9e-07
-9e-07
-9e-07
-9e-07
-9e-07
-9e-07
-9e-07
-9e-07
-9e-07
-9e-07
-9e-07
-9e-07
-1e-06
-1e-06
-1e-06
-1e-06
-1e-06
-1e-06
-1e-06
-1e-06
-1e-06
-1e-06
-1e-06
-1e-06
-1e-06
-1e-06
-1e-06
-1e-06
-1e-06
-1e-06
-1e-06
-1e-06
-1e-06
-1e-06
-1e-06
-1e-06
-1e-06
-1e-06
-1e-06
-1e-06
-1e-06
-1e-06
-1e-06
-1e-06
-1e-06
-1e-06
-1e-06
-1e-06
-1e-06
-1e-06
-1e-06
-1e-06
-1e-06
-1e-06
-1e-06
-1e-06
-1e-06
-1e-06
-1e-06
-1e-06
-1e-06
-1e-06
-1e-06
-1e-06
-1e-06
-1e-06
-1e-06
-1e-06
-1e-06
-1e-06
-1e-06
-1e-06
-1e-06
-1e-06
-1e-06
-1e-06
-1e-06
-1e-06
-1e-06
-1e-06
-1e-06
-1e-06
-1e-06
-1e-06
-1e-06
-1e-06
-1e-06
-1e-06
-1e-06
-1e-06
-1e-06
-1e-06
-1e-06
-2e-06
-2e-06
-2e-06
-2e-06
-2e-06
-2e-06
-2e-06
-2e-06
-2e-06
-2e-06
-2e-06
-2e-06
-2e-06
-2e-06
-2e-06
-2e-06
-2e-06
-2e-06
-2e-06
-2e-06
-2e-06
-2e-06
-2e-06
-2e-06
-2e-06
-2e-06
-2e-06
-2e-06
-2e-06
-2e-06
-2e-06
-2e-06
-2e-06
-2e-06
-2e-06
-2e-06
-2e-06
-2e-06
-2e-06
-2e-06
-2e-06
-2e-06
-2e-06
-2e-06
-2e-06
-2e-06
-2e-06
-2e-06
-2e-06
-2e-06
-2e-06
-2e-06
-2e-06
-2e-06
-2e-06
-2e-06
-2e-06
-2e-06
-2e-06
-2e-06
-2e-06
-2e-06
-2e-06
-2e-06
-2e-06
-2e-06
-2e-06
-2e-06
-2e-06
-2e-06
-2e-06
-2e-06
-2e-06
-2e-06
-2e-06
-2e-06
-2e-06
-2e-06
-2e-06
-2e-06
-2e-06
-2e-06
-2e-06
-2e-06
-2e-06
-2e-06
-2e-06
-2e-06
-2e-06
-2e-06
-2e-06
-2e-06
-2e-06
-2e-06
-2e-06
-2e-06
-2e-06
-2e-06
-2e-06
-2e-06
-2e-06
-2e-06
-2e-06
-2e-06
-2e-06
-2e-06
-2e-06
-2e-06
-2e-06
-2e-06
-2e-06
-2e-06
-2e-06
-2e-06
-2e-06
-2e-06
-2e-06
-2e-06
-2e-06
-2e-06
-2e-06
-2e-06
-2e-06
-2e-06
-2e-06
-2e-06
-2e-06
-2e-06
-2e-06
-2e-06
-2e-06
-2e-06
-2e-06
-2e-06
-2e-06
-2e-06
-2e-06
-2e-06
-2e-06
-2e-06
-2e-06
-2e-06
-2e-06
-2e-06
-3e-06
-3e-06
-3e-06
-3e-06
-3e-06
-3e-06
-3e-06
-3e-06
-3e-06
-3e-06
-3e-06
-3e-06
-3e-06
-3e-06
-3e-06
-3e-06
-3e-06
-3e-06
-3e-06
-3e-06
-3e-06
-3e-06
-3e-06
-3e-06
-3e-06
-3e-06
-3e-06
-3e-06
-3e-06
-3e-06
-3e-06
-3e-06
-3e-06
-3e-06
-3e-06
-3e-06
-3e-06
-3e-06
-3e-06
-3e-06
-3e-06
-3e-06
-3e-06
-3e-06
-3e-06
-3e-06
-3e-06
-3e-06
-3e-06
-3e-06
-3e-06
-3e-06
-3e-06
-3e-06
-3e-06
-3e-06
-3e-06
-3e-06
-3e-06
-3e-06
-3e-06
-3e-06
-3e-06
-3e-06
-3e-06
-3e-06
-3e-06
-3e-06
-3e-06
-3e-06
-3e-06
-3e-06
-3e-06
-3e-06
-3e-06
-3e-06
-3e-06
-3e-06
-3e-06
-3e-06
-3e-06
-3e-06
-3e-06
-3e-06
-3e-06
-3e-06
-3e-06
-3e-06
-3e-06
-3e-06
-3e-06
-3e-06
-3e-06
-3e-06
-3e-06
-3e-06
-3e-06
-3e-06
-3e-06
-3e-06
-3e-06
-3e-06
-3e-06
-3e-06
-3e-06
-3e-06
-3e-06
-3e-06
-3e-06
-3e-06
-3e-06
-3e-06
-3e-06
-3e-06
-3e-06
-3e-06
-3e-06
-3e-06
-3e-06
-3e-06
-3e-06
-3e-06
-3e-06
-3e-06
-3e-06
-3e-06
-3e-06
-3e-06
-3e-06
-3e-06
-3e-06
-3e-06
-3e-06
-3e-06
-3e-06
-3e-06
-3e-06
-3e-06
-3e-06
-3e-06
-3e-06
-3e-06
-3e-06
-3e-06
-4e-06
-4e-06
-4e-06
-4e-06
-4e-06
-4e-06
-4e-06
-4e-06
-4e-06
-4e-06
-4e-06
-4e-06
-4e-06
-4e-06
-4e-06
-4e-06
-4e-06
-4e-06
-4e-06
-4e-06
-4e-06
-4e-06
-4e-06
-4e-06
-4e-06
-4e-06
-4e-06
-4e-06
-4e-06
-4e-06
-4e-06
-4e-06
-4e-06
-4e-06
-4e-06
-4e-06
-4e-06
-4e-06
-4e-06
-4e-06
-4e-06
-4e-06
-4e-06
-4e-06
-4e-06
-4e-06
-4e-06
-4e-06
-4e-06
-4e-06
-4e-06
-4e-06
-4e-06
-4e-06
-4e-06
-4e-06
-4e-06
-4e-06
-4e-06
-4e-06
-4e-06
-4e-06
-4e-06
-4e-06
-4e-06
-4e-06
-4e-06
-4e-06
-4e-06
-4e-06
-4e-06
-4e-06
-4e-06
-4e-06
-4e-06
-4e-06
-4e-06
-4e-06
-4e-06
-4e-06
-4e-06
-4e-06
-4e-06
-4e-06
-4e-06
-4e-06
-4e-06
-4e-06
-4e-06
-4e-06
-4e-06
-4e-06
-4e-06
-4e-06
-4e-06
-4e-06
-4e-06
-4e-06
-4e-06
-4e-06
-4e-06
-4e-06
-4e-06
-4e-06
-4e-06
-4e-06
-4e-06
-4e-06
-4e-06
-4e-06
-4e-06
-4e-06
-4e-06
-4e-06
-4e-06
-4e-06
-4e-06
-4e-06
-4e-06
-4e-06
-4e-06
-4e-06
-4e-06
-4e-06
-4e-06
-4e-06
-4e-06
-4e-06
-4e-06
-4e-06
-4e-06
-4e-06
-4e-06
-4e-06
-4e-06
-4e-06
-4e-06
-4e-06
-4e-06
-4e-06
-4e-06
-4e-06
-4e-06
-4e-06
-5e-06
-5e-06
-5e-06
-5e-06
-5e-06
-5e-06
-5e-06
-5e-06
-5e-06
-5e-06
-5e-06
-5e-06
-5e-06
-5e-06
-5e-06
-5e-06
-5e-06
-5e-06
-5e-06
-5e-06
-5e-06
-5e-06
-5e-06
-5e-06
-5e-06
-5e-06
-5e-06
-5e-06
-5e-06
-5e-06
-5e-06
-5e-06
-5e-06
-5e-06
-5e-06
-5e-06
-5e-06
-5e-06
-5e-06
-5e-06
-5e-06
-5e-06
-5e-06
-5e-06
-5e-06
-5e-06
-5e-06
-5e-06
-5e-06
-5e-06
-5e-06
-5e-06
-5e-06
-5e-06
-5e-06
-5e-06
-5e-06
-5e-06
-5e-06
-5e-06
-5e-06
-5e-06
-5e-06
SCALARS strain_1 float
LOOKUP_TABLE default
-0.000001
-0.002030
-0.001999
-0.001968
-0.001937
-0.001906
-0.001875
-0.001843
-0.001812
-0.001780
-0.001749
-0.001717
-0.001685
-0.001653
-0.001621
-0.001589
-0.001557
-0.001524
-0.001492
-0.001460
-0.001428
-0.001396
-0.001363
-0.001331
-0.001299
-0.001267
-0.001235
-0.001203
-0.001172
-0.001140
-0.001108
-0.001077
-0.001046
-0.001015
-0.000984
-0.000953
-0.000923
-0.000892
-0.000862
-0.000833
-0.000803
-0.000774
-0.000745
-0.000717
-0.000689
-0.000661
-0.000633
-0.000606
-0.000580
-0.000553
-0.000527
-0.000502
-0.000477
-0.000453
-0.000429
-0.000405
-0.000382
-0.000360
-0.000338
-0.000317
-0.000296
-0.000276
-0.000256
-0.000237
-0.000219
-0.000201
-0.000184
-0.000167
-0.000151
-0.000136
-0.000121
-0.000107
-0.000094
-0.000081
-0.000069
-0.000057
-0.000046
-0.000036
-0.000026
-0.000017
-0.000009
-0.002032
-0.000000
-0.000008
-0.000016
-0.000025
-0.000035
-0.000045
-0.000056
-0.000068
-0.000080
-0.000093
-0.000106
-0.000120
-0.000135
-0.000150
-0.000166
-0.000183
-0.000200
-0.000218
-0.000237
-0.000256
-0.000275
-0.000296
-0.000316
-0.000338
-0.000360
-0.000382
-0.000405
-0.000429
-0.000453
-0.000477
-0.000502
-0.000527
-0.000553
-0.000580
-0.000606
-0.000633
-0.000661
-0.000689
-0.000717
-0.000746
-0.000774
-0.000804
-0.000833
-0.000863
-0.000893
-0.000923
-0.000954
-0.000984
-0.001015
-0.001046
-0.001078
-0.001109
-0.001141
-0.001172
-0.001204
-0.001236
-0.001268
-0.001300
-0.001332
-0.001365
-0.001397
-0.001429
-0.001461
-0.001494
-0.001526
-0.001558
-0.001590
-0.001622
-0.001654
-0.001686
-0.001718
-0.001750
-0.001782
-0.001814
-0.001845
-0.001877
-0.001908
-0.001939
-0.001970
-0.002001
-0.002031
-0.002031
-0.002031
-0.002031
-0.002031
-0.002031
-0.002030
-0.002030
-0.002030
-0.000001
-0.000001
-0.000001
-0.000000
-0.000000
-0.000000
-0.000000
-0.000000
-0.000000
-0.000008
-0.000008
-0.000008
-0.000008
-0.000008
-0.000008
-0.000008
-0.000009
-0.000009
-0.000016
-0.000016
-0.000016
-0.000016
-0.000016
-0.000017
-0.000017
-0.000017
-0.000017
-0.000025
-0.000025
-0.000025
-0.000025
-0.000025
-0.000026
-0.000026
-0.000026
-0.000026
-0.000035
-0.000035
-0.000035
-0.000035
-0.000035
-0.000035
-0.000035
-0.000036
-0.000036
-0.000045
-0.000045
-0.000045
-0.000045
-0.000045
-0.000046
-0.000046
-0.000046
-0.000046
-0.000056
-0.000056
-0.000056
-0.000056
-0.000056
-0.000056
-0.000057
-0.000057
-0.000057
-0.000068
-0.000068
-0.000068
-0.000068
-0.000068
-0.000068
-0.000068
-0.000068
-0.000068
-0.000080
-0.000080
-0.000080
-0.000080
-0.000080
-0.000080
-0.000080
-0.000080
-0.000081
-0.000093
-0.000093
-0.000093
-0.000093
-0.000093
-0.000093
-0.000093
-0.000093
-0.000093
-0.000106
-0.000106
-0.000106
-0.000106
-0.000106
-0.000106
-0.000107
-0.000107
-0.000107
-0.000120
-0.000120
-0.000120
-0.000120
-0.000120
-0.000120
-0.000121
-0.000121
-0.000121
-0.000135
-0.000135
-0.000135
-0.000135
-0.000135
-0.000135
-0.000135
-0.000135
-0.000136
-0.000150
-0.000150
-0.000150
-0.000150
-0.000150
-0.000151
-0.000151
-0.000151
-0.000151
-0.000166
-0.000166
-0.000166
-0.000166
-0.000166
-0.000167
-0.000167
-0.000167
-0.000167
-0.000183
-0.000183
-0.000183
-0.000183
-0.000183
-0.000183
-0.000183
-0.000183
-0.000184
-0.000200
-0.000200
-0.000200
-0.000200
-0.000200
-0.000200
-0.000200
-0.000201
-0.000201
-0.000218
-0.000218
-0.000218
-0.000218
-0.000218
-0.000218
-0.000218
-0.000218
-0.000219
-0.000237
-0.000237
-0.000237
-0.000237
-0.000237
-0.000237
-0.000237
-0.000237
-0.000237
-0.000256
-0.000256
-0.000256
-0.000256
-0.000256
-0.000256
-0.000256
-0.000256
-0.000256
-0.000275
-0.000275
-0.000275
-0.000275
-0.000275
-0.000275
-0.000275
-0.000276
-0.000276
-0.000295
-0.000295
-0.000295
-0.000295
-0.000295
-0.000296
-0.000296
-0.000296
-0.000296
-0.000316
-0.000316
-0.000316
-0.000316
-0.000316
-0.000316
-0.000316
-0.000317
-0.000317
-0.000338
-0.000338
-0.000338
-0.000338
-0.000338
-0.000338
-0.000338
-0.000338
-0.000338
-0.000360
-0.000360
-0.000359
-0.000359
-0.000360
-0.000360
-0.000360
-0.000360
-0.000360
-0.000382
-0.000382
-0.000382
-0.000382
-0.000382
-0.000382
-0.000382
-0.000382
-0.000382
-0.000405
-0.000405
-0.000405
-0.000405
-0.000405
-0.000405
-0.000405
-0.000405
-0.000405
-0.000428
-0.000428
-0.000428
-0.000428
-0.000428
-0.000428
-0.000428
-0.000429
-0.000429
-0.000452
-0.000452
-0.000452
-0.000452
-0.000452
-0.000452
-0.000452
-0.000453
-0.000453
-0.000477
-0.000477
-0.000477
-0.000477
-0.000477
-0.000477
-0.000477
-0.000477
-0.000477
-0.000502
-0.000502
-0.000502
-0.000502
-0.000502
-0.000502
-0.000502
-0.000502
-0.000502
-0.000527
-0.000527
-0.000527
-0.000527
-0.000527
-0.000527
-0.000527
-0.000527
-0.000527
-0.000553
-0.000553
-0.000553
-0.000553
-0.000553
-0.000553
-0.000553
-0.000553
-0.000553
-0.000579
-0.000579
-0.000579
-0.000579
-0.000579
-0.000579
-0.000579
-0.000579
-0.000579
-0.000606
-0.000606
-0.000606
-0.000606
-0.000606
-0.000606
-0.000606
-0.000606
-0.000606
-0.000633
-0.000633
-0.000633
-0.000633
-0.000633
-0.000633
-0.000633
-0.000633
-0.000633
-0.000661
-0.000661
-0.000661
-0.000661
-0.000661
-0.000661
-0.000661
-0.000661
-0.000661
-0.000689
-0.000689
-0.000688
-0.000688
-0.000688
-0.000688
-0.000688
-0.000688
-0.000688
-0.000717
-0.000717
-0.000717
-0.000717
-0.000717
-0.000717
-0.000717
-0.000717
-0.000717
-0.000745
-0.000745
-0.000745
-0.000745
-0.000745
-0.000745
-0.000745
-0.000745
-0.000745
-0.000774
-0.000774
-0.000774
-0.000774
-0.000774
-0.000774
-0.000774
-0.000774
-0.000774
-0.000804
-0.000803
-0.000803
-0.000803
-0.000803
-0.000803
-0.000803
-0.000803
-0.000803
-0.000833
-0.000833
-0.000833
-0.000833
-0.000833
-0.000833
-0.000833
-0.000833
-0.000833
-0.000863
-0.000863
-0.000863
-0.000862
-0.000862
-0.000862
-0.000862
-0.000862
-0.000862
-0.000893
-0.000893
-0.000893
-0.000893
-0.000892
-0.000892
-0.000892
-0.000892
-0.000892
-0.000923
-0.000923
-0.000923
-0.000923
-0.000923
-0.000923
-0.000923
-0.000923
-0.000923
-0.000954
-0.000953
-0.000953
-0.000953
-0.000953
-0.000953
-0.000953
-0.000953
-0.000953
-0.000984
-0.000984
-0.000984
-0.000984
-0.000984
-0.000984
-0.000984
-0.000984
-0.000984
-0.001015
-0.001015
-0.001015
-0.001015
-0.001015
-0.001015
-0.001015
-0.001015
-0.001015
-0.001046
-0.001046
-0.001046
-0.001046
-0.001046
-0.001046
-0.001046
-0.001046
-0.001046
-0.001078
-0.001077
-0.001077
-0.001077
-0.001077
-0.001077
-0.001077
-0.001077
-0.001077
-0.001109
-0.001109
-0.001109
-0.001109
-0.001109
-0.001109
-0.001108
-0.001108
-0.001108
-0.001141
-0.001140
-0.001140
-0.001140
-0.001140
-0.001140
-0.001140
-0.001140
-0.001140
-0.001172
-0.001172
-0.001172
-0.001172
-0.001172
-0.001172
-0.001172
-0.001172
-0.001172
-0.001204
-0.001204
-0.001204
-0.001204
-0.001204
-0.001204
-0.001203
-0.001203
-0.001203
-0.001236
-0.001236
-0.001236
-0.001236
-0.001236
-0.001235
-0.001235
-0.001235
-0.001235
-0.001268
-0.001268
-0.001268
-0.001268
-0.001268
-0.001267
-0.001267
-0.001267
-0.001267
-0.001300
-0.001300
-0.001300
-0.001300
-0.001300
-0.001300
-0.001299
-0.001299
-0.001299
-0.001332
-0.001332
-0.001332
-0.001332
-0.001332
-0.001332
-0.001332
-0.001331
-0.001331
-0.001364
-0.001364
-0.001364
-0.001364
-0.001364
-0.001364
-0.001364
-0.001364
-0.001364
-0.001397
-0.001397
-0.001396
-0.001396
-0.001396
-0.001396
-0.001396
-0.001396
-0.001396
-0.001429
-0.001429
-0.001429
-0.001428
-0.001428
-0.001428
-0.001428
-0.001428
-0.001428
-0.001461
-0.001461
-0.001461
-0.001461
-0.001461
-0.001460
-0.001460
-0.001460
-0.001460
-0.001493
-0.001493
-0.001493
-0.001493
-0.001493
-0.001493
-0.001493
-0.001492
-0.001492
-0.001526
-0.001525
-0.001525
-0.001525
-0.001525
-0.001525
-0.001525
-0.001525
-0.001525
-0.001558
-0.001558
-0.001558
-0.001557
-0.001557
-0.001557
-0.001557
-0.001557
-0.001557
-0.001590
-0.001590
-0.001590
-0.001590
-0.001589
-0.001589
-0.001589
-0.001589
-0.001589
-0.001622
-0.001622
-0.001622
-0.001622
-0.001622
-0.001621
-0.001621
-0.001621
-0.001621
-0.001654
-0.001654
-0.001654
-0.001654
-0.001654
-0.001653
-0.001653
-0.001653
-0.001653
-0.001686
-0.001686
-0.001686
-0.001686
-0.001686
-0.001685
-0.001685
-0.001685
-0.001685
-0.001718
-0.001718
-0.001718
-0.001718
-0.001718
-0.001717
-0.001717
-0.001717
-0.001717
-0.001750
-0.001750
-0.001750
-0.001750
-0.001749
-0.001749
-0.001749
-0.001749
-0.001749
-0.001782
-0.001782
-0.001781
-0.001781
-0.001781
-0.001781
-0.001781
-0.001781
-0.001780
-0.001813
-0.001813
-0.001813
-0.001813
-0.001813
-0.001813
-0.001812
-0.001812
-0.001812
-0.001845
-0.001845
-0.001845
-0.001844
-0.001844
-0.001844
-0.001844
-0.001844
-0.001844
-0.001876
-0.001876
-0.001876
-0.001876
-0.001876
-0.001876
-0.001875
-0.001875
-0.001875
-0.001908
-0.001907
-0.001907
-0.001907
-0.001907
-0.001907
-0.001907
-0.001906
-0.001906
-0.001939
-0.001939
-0.001938
-0.001938
-0.001938
-0.001938
-0.001938
-0.001938
-0.001937
-0.001970
-0.001970
-0.001969
-0.001969
-0.001969
-0.001969
-0.001969
-0.001969
-0.001968
-0.002001
-0.002001
-0.002000
-0.002000
-0.002000
-0.002000
-0.002000
-0.001999
-0.001999
SCALARS strain_2 float
LOOKUP_TABLE default
0.000033
0.000026
0.000026
0.000026
0.000026
0.000026
0.000026
0.000026
0.000026
0.000026
0.000026
0.000026
0.000026
0.000026
0.000026
0.000026
0.000026
0.000026
0.000026
0.000026
0.000026
0.000026
0.000026
0.000026
0.000026
0.000026
0.000026
0.000026
0.000027
0.000027
0.000027
0.000027
0.000027
0.000027
0.000027
0.000027
0.000027
0.000027
0.000027
0.000027
0.000027
0.000027
0.000027
0.000027
0.000027
0.000027
0.000028
0.000028
0.000028
0.000028
0.000028
0.000028
0.000028
0.000028
0.000028
0.000029
0.000029
0.000029
0.000029
0.000029
0.000029
0.000029
0.000029
0.000030
0.000030
0.000030
0.000030
0.000030
0.000030
0.000031
0.000031
0.000031
0.000031
0.000031
0.000032
0.000032
0.000032
0.000032
0.000032
0.000033
0.000033
0.000051
0.000051
0.000051
0.000051
0.000051
0.000051
0.000051
0.000052
0.000052
0.000052
0.000052
0.000052
0.000052
0.000052
0.000052
0.000052
0.000052
0.000052
0.000052
0.000052
0.000052
0.000052
0.000052
0.000052
0.000052
0.000052
0.000052
0.000052
0.000052
0.000052
0.000052
0.000052
0.000052
0.000052
0.000052
0.000052
0.000052
0.000052
0.000052
0.000052
0.000052
0.000052
0.000052
0.000052
0.000052
0.000052
0.000052
0.000052
0.000052
0.000052
0.000052
0.000052
0.000052
0.000052
0.000052
0.000052
0.000052
0.000052
0.000052
0.000052
0.000052
0.000052
0.000052
0.000052
0.000052
0.000052
0.000052
0.000052
0.000052
0.000052
0.000052
0.000052
0.000051
0.000051
0.000051
0.000051
0.000051
0.000051
0.000051
0.000051
0.000051
0.000049
0.000046
0.000044
0.000041
0.000039
0.000036
0.000034
0.000031
0.000029
0.000035
0.000037
0.000039
0.000040
0.000042
0.000044
0.000046
0.000048
0.000050
0.000050
0.000048
0.000046
0.000044
0.000042
0.000040
0.000038
0.000037
0.000035
0.000050
0.000048
0.000046
0.000044
0.000042
0.000040
0.000038
0.000036
0.000034
0.000050
0.000048
0.000046
0.000044
0.000042
0.000040
0.000038
0.000036
0.000034
0.000050
0.000048
0.000046
0.000044
0.000042
0.000040
0.000038
0.000036
0.000034
0.000050
0.000048
0.000046
0.000044
0.000042
0.000040
0.000038
0.000036
0.000034
0.000050
0.000048
0.000046
0.000044
0.000042
0.000040
0.000038
0.000036
0.000034
0.000050
0.000048
0.000046
0.000044
0.000042
0.000040
0.000038
0.000036
0.000034
0.000050
0.000048
0.000046
0.000043
0.000041
0.000039
0.000037
0.000035
0.000033
0.000050
0.000048
0.000045
0.000043
0.000041
0.000039
0.000037
0.000035
0.000033
0.000050
0.000048
0.000045
0.000043
0.000041
0.000039
0.000037
0.000035
0.000033
0.000050
0.000047
0.000045
0.000043
0.000041
0.000039
0.000037
0.000035
0.000033
0.000050
0.000047
0.000045
0.000043
0.000041
0.000039
0.000037
0.000035
0.000033
0.000050
0.000047
0.000045
0.000043
0.000041
0.000039
0.000037
0.000035
0.000033
0.000050
0.000047
0.000045
0.000043
0.000041
0.000039
0.000037
0.000035
0.000032
0.000050
0.000047
0.000045
0.000043
0.000041
0.000039
0.000037
0.000034
0.000032
0.000050
0.000047
0.000045
0.000043
0.000041
0.000039
0.000036
0.000034
0.000032
0.000050
0.000047
0.000045
0.000043
0.000041
0.000039
0.000036
0.000034
0.000032
0.000050
0.000047
0.000045
0.000043
0.000041
0.000039
0.000036
0.000034
0.000032
0.000050
0.000047
0.000045
0.000043
0.000041
0.000038
0.000036
0.000034
0.000032
0.000050
0.000047
0.000045
0.000043
0.000041
0.000038
0.000036
0.000034
0.000032
0.000050
0.000047
0.000045
0.000043
0.000040
0.000038
0.000036
0.000034
0.000031
0.000050
0.000047
0.000045
0.000043
0.000040
0.000038
0.000036
0.000034
0.000031
0.000050
0.000047
0.000045
0.000043
0.000040
0.000038
0.000036
0.000034
0.000031
0.000050
0.000047
0.000045
0.000043
0.000040
0.000038
0.000036
0.000033
0.000031
0.000050
0.000047
0.000045
0.000043
0.000040
0.000038
0.000036
0.000033
0.000031
0.000050
0.000047
0.000045
0.000043
0.000040
0.000038
0.000036
0.000033
0.000031
0.000050
0.000047
0.000045
0.000043
0.000040
0.000038
0.000035
0.000033
0.000031
0.000050
0.000047
0.000045
0.000042
0.000040
0.000038
0.000035
0.000033
0.000031
0.000050
0.000047
0.000045
0.000042
0.000040
0.000038
0.000035
0.000033
0.000031
0.000050
0.000047
0.000045
0.000042
0.000040
0.000038
0.000035
0.000033
0.000030
0.000050
0.000047
0.000045
0.000042
0.000040
0.000038
0.000035
0.000033
0.000030
0.000050
0.000047
0.000045
0.000042
0.000040
0.000038
0.000035
0.000033
0.000030
0.000050
0.000047
0.000045
0.000042
0.000040
0.000037
0.000035
0.000033
0.000030
0.000050
0.000047
0.000045
0.000042
0.000040
0.000037
0.000035
0.000033
0.000030
0.000050
0.000047
0.000045
0.000042
0.000040
0.000037
0.000035
0.000032
0.000030
0.000050
0.000047
0.000045
0.000042
0.000040
0.000037
0.000035
0.000032
0.000030
0.000050
0.000047
0.000045
0.000042
0.000040
0.000037
0.000035
0.000032
0.000030
0.000050
0.000047
0.000045
0.000042
0.000040
0.000037
0.000035
0.000032
0.000030
0.000050
0.000047
0.000045
0.000042
0.000040
0.000037
0.000035
0.000032
0.000030
0.000050
0.000047
0.000045
0.000042
0.000040
0.000037
0.000035
0.000032
0.000030
0.000049
0.000047
0.000045
0.000042
0.000040
0.000037
0.000035
0.000032
0.000030
0.000050
0.000047
0.000045
0.000042
0.000039
0.000037
0.000035
0.000032
0.000030
0.000049
0.000047
0.000044
0.000042
0.000039
0.000037
0.000034
0.000032
0.000029
0.000049
0.000047
0.000044
0.000042
0.000039
0.000037
0.000034
0.000032
0.000029
0.000049
0.000047
0.000044
0.000042
0.000039
0.000037
0.000034
0.000032
0.000029
0.000049
0.000047
0.000044
0.000042
0.000039
0.000037
0.000034
0.000032
0.000029
0.000049
0.000047
0.000044
0.000042
0.000039
0.000037
0.000034
0.000032
0.000029
0.000049
0.000047
0.000044
0.000042
0.000039
0.000037
0.000034
0.000032
0.000029
0.000049
0.000047
0.000044
0.000042
0.000039
0.000037
0.000034
0.000032
0.000029
0.000049
0.000047
0.000044
0.000042
0.000039
0.000037
0.000034
0.000032
0.000029
0.000049
0.000047
0.000044
0.000042
0.000039
0.000037
0.000034
0.000032
0.000029
0.000049
0.000047
0.000044
0.000042
0.000039
0.000037
0.000034
0.000032
0.000029
0.000049
0.000047
0.000044
0.000042
0.000039
0.000037
0.000034
0.000032
0.000029
0.000049
0.000047
0.000044
0.000042
0.000039
0.000037
0.000034
0.000032
0.000029
0.000049
0.000047
0.000044
0.000042
0.000039
0.000037
0.000034
0.000032
0.000029
0.000049
0.000047
0.000044
0.000042
0.000039
0.000037
0.000034
0.000032
0.000029
0.000049
0.000047
0.000044
0.000042
0.000039
0.000037
0.000034
0.000031
0.000029
0.000049
0.000047
0.000044
0.000042
0.000039
0.000037
0.000034
0.000031
0.000029
0.000049
0.000047
0.000044
0.000042
0.000039
0.000037
0.000034
0.000031
0.000029
0.000049
0.000047
0.000044
0.000042
0.000039
0.000037
0.000034
0.000031
0.000029
0.000049
0.000047
0.000044
0.000042
0.000039
0.000036
0.000034
0.000031
0.000029
0.000049
0.000047
0.000044
0.000042
0.000039
0.000036
0.000034
0.000031
0.000029
0.000049
0.000047
0.000044
0.000042
0.000039
0.000036
0.000034
0.000031
0.000029
0.000049
0.000047
0.000044
0.000042
0.000039
0.000036
0.000034
0.000031
0.000029
0.000049
0.000047
0.000044
0.000041
0.000039
0.000036
0.000034
0.000031
0.000029
0.000049
0.000047
0.000044
0.000041
0.000039
0.000036
0.000034
0.000031
0.000029
0.000049
0.000047
0.000044
0.000041
0.000039
0.000036
0.000034
0.000031
0.000029
0.000049
0.000047
0.000044
0.000041
0.000039
0.000036
0.000034
0.000031
0.000029
0.000049
0.000046
0.000044
0.000041
0.000039
0.000036
0.000034
0.000031
0.000029
0.000049
0.000046
0.000044
0.000041
0.000039
0.000036
0.000034
0.000031
0.000029
0.000049
0.000046
0.000044
0.000041
0.000039
0.000036
0.000034
0.000031
0.000029
0.000049
0.000046
0.000044
0.000041
0.000039
0.000036
0.000034
0.000031
0.000029
0.000049
0.000046
0.000044
0.000041
0.000039
0.000036
0.000034
0.000031
0.000029
0.000049
0.000046
0.000044
0.000041
0.000039
0.000036
0.000034
0.000031
0.000029
0.000049
0.000046
0.000044
0.000041
0.000039
0.000036
0.000034
0.000031
0.000029
0.000049
0.000046
0.000044
0.000041
0.000039
0.000036
0.000034
0.000031
0.000029
0.000049
0.000046
0.000044
0.000041
0.000039
0.000036
0.000034
0.000031
0.000029
0.000049
0.000046
0.000044
0.000041
0.000039
0.000036
0.000034
0.000031
0.000029
0.000049
0.000046
0.000044
0.000041
0.000039
0.000036
0.000034
0.000031
0.000029
SCALARS strain_3 float
LOOKUP_TABLE default
0.000010
0.000512
0.000505
0.000498
0.000490
0.000483
0.000476
0.000468
0.000461
0.000453
0.000446
0.000438
0.000431
0.000423
0.000416
0.000408
0.000400
0.000393
0.000385
0.000377
0.000370
0.000362
0.000354
0.000347
0.000339
0.000331
0.000324
0.000316
0.000308
0.000301
0.000293
0.000286
0.000278
0.000270
0.000263
0.000255
0.000248
0.000241
0.000233
0.000226
0.000219
0.000212
0.000205
0.000198
0.000191
0.000184
0.000177
0.000170
0.000164
0.000157
0.000151
0.000144
0.000138
0.000132
0.000126
0.000120
0.000114
0.000108
0.000103
0.000097
0.000092
0.000086
0.000081
0.000076
0.000071
0.000067
0.000062
0.000058
0.000053
0.000049
0.000045
0.000041
0.000037
0.000034
0.000030
0.000027
0.000024
0.000021
0.000018
0.000015
0.000013
0.000495
-0.000005
-0.000003
-0.000001
0.000002
0.000005
0.000008
0.000011
0.000014
0.000017
0.000021
0.000024
0.000028
0.000032
0.000036
0.000040
0.000045
0.000049
0.000054
0.000059
0.000064
0.000069
0.000074
0.000079
0.000085
0.000090
0.000096
0.000102
0.000108
0.000114
0.000120
0.000126
0.000132
0.000139
0.000145
0.000152
0.000159
0.000165
0.000172
0.000179
0.000186
0.000193
0.000200
0.000208
0.000215
0.000222
0.000229
0.000237
0.000244
0.000252
0.000259
0.000267
0.000275
0.000282
0.000290
0.000297
0.000305
0.000313
0.000321
0.000328
0.000336
0.000344
0.000351
0.000359
0.000367
0.000375
0.000382
0.000390
0.000398
0.000405
0.000413
0.000420
0.000428
0.000436
0.000443
0.000451
0.000458
0.000465
0.000473
0.000480
0.000488
0.000497
0.000498
0.000500
0.000502
0.000503
0.000505
0.000507
0.000509
0.000510
0.000009
0.000007
0.000005
0.000004
0.000002
0.000001
-0.000001
-0.000002
-0.000004
-0.000002
-0.000000
0.000001
0.000003
0.000005
0.000006
0.000008
0.000009
0.000011
0.000001
0.000002
0.000004
0.000006
0.000007
0.000009
0.000010
0.000012
0.000014
0.000003
0.000005
0.000007
0.000008
0.000010
0.000011
0.000013
0.000015
0.000016
0.000006
0.000008
0.000009
0.000011
0.000013
0.000014
0.000016
0.000018
0.000019
0.000009
0.000011
0.000012
0.000014
0.000016
0.000017
0.000019
0.000021
0.000022
0.000012
0.000014
0.000015
0.000017
0.000019
0.000020
0.000022
0.000024
0.000025
0.000015
0.000017
0.000019
0.000020
0.000022
0.000024
0.000025
0.000027
0.000029
0.000019
0.000020
0.000022
0.000024
0.000025
0.000027
0.000029
0.000030
0.000032
0.000022
0.000024
0.000026
0.000027
0.000029
0.000031
0.000032
0.000034
0.000036
0.000026
0.000028
0.000029
0.000031
0.000033
0.000034
0.000036
0.000038
0.000039
0.000030
0.000031
0.000033
0.000035
0.000036
0.000038
0.000040
0.000042
0.000043
0.000034
0.000035
0.000037
0.000039
0.000040
0.000042
0.000044
0.000046
0.000047
0.000038
0.000039
0.000041
0.000043
0.000045
0.000046
0.000048
0.000050
0.000052
0.000042
0.000044
0.000045
0.000047
0.000049
0.000051
0.000052
0.000054
0.000056
0.000046
0.000048
0.000050
0.000052
0.000053
0.000055
0.000057
0.000059
0.000060
0.000051
0.000053
0.000054
0.000056
0.000058
0.000060
0.000061
0.000063
0.000065
0.000056
0.000057
0.000059
0.000061
0.000063
0.000064
0.000066
0.000068
0.000070
0.000060
0.000062
0.000064
0.000066
0.000067
0.000069
0.000071
0.000073
0.000074
0.000065
0.000067
0.000069
0.000071
0.000072
0.000074
0.000076
0.000078
0.000079
0.000070
0.000072
0.000074
0.000076
0.000077
0.000079
0.000081
0.000083
0.000085
0.000076
0.000077
0.000079
0.000081
0.000083
0.000084
0.000086
0.000088
0.000090
0.000081
0.000083
0.000084
0.000086
0.000088
0.000090
0.000092
0.000093
0.000095
0.000086
0.000088
0.000090
0.000092
0.000094
0.000095
0.000097
0.000099
0.000101
0.000092
0.000094
0.000095
0.000097
0.000099
0.000101
0.000103
0.000105
0.000106
0.000098
0.000099
0.000101
0.000103
0.000105
0.000107
0.000108
0.000110
0.000112
0.000103
0.000105
0.000107
0.000109
0.000111
0.000112
0.000114
0.000116
0.000118
0.000109
0.000111
0.000113
0.000115
0.000117
0.000118
0.000120
0.000122
0.000124
0.000115
0.000117
0.000119
0.000121
0.000123
0.000124
0.000126
0.000128
0.000130
0.000121
0.000123
0.000125
0.000127
0.000129
0.000131
0.000132
0.000134
0.000136
0.000128
0.000130
0.000131
0.000133
0.000135
0.000137
0.000139
0.000141
0.000142
0.000134
0.000136
0.000138
0.000140
0.000141
0.000143
0.000145
0.000147
0.000149
0.000140
0.000142
0.000144
0.000146
0.000148
0.000150
0.000152
0.000153
0.000155
0.000147
0.000149
0.000151
0.000153
0.000154
0.000156
0.000158
0.000160
0.000162
0.000154
0.000155
0.000157
0.000159
0.000161
0.000163
0.000165
0.000167
0.000168
0.000160
0.000162
0.000164
0.000166
0.000168
0.000170
0.000171
0.000173
0.000175
0.000167
0.000169
0.000171
0.000173
0.000175
0.000176
0.000178
0.000180
0.000182
0.000174
0.000176
0.000178
0.000180
0.000181
0.000183
0.000185
0.000187
0.000189
0.000181
0.000183
0.000185
0.000186
0.000188
0.000190
0.000192
0.000194
0.000196
0.000188
0.000190
0.000192
0.000193
0.000195
0.000197
0.000199
0.000201
0.000203
0.000195
0.000197
0.000199
0.000201
0.000202
0.000204
0.000206
0.000208
0.000210
0.000202
0.000204
0.000206
0.000208
0.000210
0.000211
0.000213
0.000215
0.000217
0.000209
0.000211
0.000213
0.000215
0.000217
0.000219
0.000221
0.000222
0.000224
0.000217
0.000218
0.000220
0.000222
0.000224
0.000226
0.000228
0.000230
0.000232
0.000224
0.000226
0.000228
0.000230
0.000231
0.000233
0.000235
0.000237
0.000239
0.000231
0.000233
0.000235
0.000237
0.000239
0.000241
0.000242
0.000244
0.000246
0.000239
0.000241
0.000242
0.000244
0.000246
0.000248
0.000250
0.000252
0.000254
0.000246
0.000248
0.000250
0.000252
0.000254
0.000255
0.000257
0.000259
0.000261
0.000254
0.000256
0.000257
0.000259
0.000261
0.000263
0.000265
0.000267
0.000269
0.000261
0.000263
0.000265
0.000267
0.000269
0.000270
0.000272
0.000274
0.000276
0.000269
0.000271
0.000272
0.000274
0.000276
0.000278
0.000280
0.000282
0.000284
0.000276
0.000278
0.000280
0.000282
0.000284
0.000286
0.000287
0.000289
0.000291
0.000284
0.000286
0.000288
0.000290
0.000291
0.000293
0.000295
0.000297
0.000299
0.000292
0.000293
0.000295
0.000297
0.000299
0.000301
0.000303
0.000305
0.000306
0.000299
0.000301
0.000303
0.000305
0.000307
0.000309
0.000310
0.000312
0.000314
0.000307
0.000309
0.000311
0.000313
0.000314
0.000316
0.000318
0.000320
0.000322
0.000315
0.000317
0.000318
0.000320
0.000322
0.000324
0.000326
0.000328
0.000329
0.000322
0.000324
0.000326
0.000328
0.000330
0.000332
0.000333
0.000335
0.000337
0.000330
0.000332
0.000334
0.000336
0.000337
0.000339
0.000341
0.000343
0.000345
0.000338
0.000340
0.000341
0.000343
0.000345
0.000347
0.000349
0.000351
0.000352
0.000346
0.000347
0.000349
0.000351
0.000353
0.000355
0.000356
0.000358
0.000360
0.000353
0.000355
0.000357
0.000359
0.000361
0.000362
0.000364
0.000366
0.000368
0.000361
0.000363
0.000365
0.000366
0.000368
0.000370
0.000372
0.000374
0.000376
0.000369
0.000370
0.000372
0.000374
0.000376
0.000378
0.000380
0.000381
0.000383
0.000376
0.000378
0.000380
0.000382
0.000384
0.000385
0.000387
0.000389
0.000391
0.000384
0.000386
0.000388
0.000389
0.000391
0.000393
0.000395
0.000397
0.000399
0.000392
0.000394
0.000395
0.000397
0.000399
0.000401
0.000403
0.000404
0.000406
0.000399
0.000401
0.000403
0.000405
0.000407
0.000408
0.000410
0.000412
0.000414
0.000407
0.000409
0.000411
0.000412
0.000414
0.000416
0.000418
0.000420
0.000421
0.000415
0.000416
0.000418
0.000420
0.000422
0.000424
0.000425
0.000427
0.000429
0.000422
0.000424
0.000426
0.000428
0.000429
0.000431
0.000433
0.000435
0.000437
0.000430
0.000432
0.000433
0.000435
0.000437
0.000439
0.000440
0.000442
0.000444
0.000437
0.000439
0.000441
0.000443
0.000444
0.000446
0.000448
0.000450
0.000452
0.000445
0.000447
0.000448
0.000450
0.000452
0.000454
0.000455
0.000457
0.000459
0.000452
0.000454
0.000456
0.000458
0.000459
0.000461
0.000463
0.000465
0.000466
0.000460
0.000462
0.000463
0.000465
0.000467
0.000469
0.000470
0.000472
0.000474
0.000467
0.000469
0.000471
0.000473
0.000474
0.000476
0.000478
0.000480
0.000481
0.000475
0.000476
0.000478
0.000480
0.000482
0.000483
0.000485
0.000487
0.000489
0.000482
0.000484
0.000485
0.000487
0.000489
0.000491
0.000492
0.000494
0.000496
0.000489
0.000491
0.000493
0.000495
0.000496
0.000498
0.000500
0.000501
0.000503
SCALARS stress_1 float
LOOKUP_TABLE default
1253.210290
-772187.558591
-760488.642730
-748732.664369
-736920.936008
-725055.145147
-713137.166786
-701173.313425
-689163.897564
-677115.606703
-665024.128342
-652898.462481
-640741.359120
-628555.505759
-616344.027398
-604113.486537
-591861.008176
-579598.967315
-567328.363954
-555050.198093
-542771.594732
-530499.241371
-518230.950510
-505979.847149
-493743.868788
-481530.702927
-469347.537066
-457196.433705
-445081.767844
-433009.851983
-420989.998622
-409021.520261
-397114.791900
-385270.563539
-373497.272678
-361803.231817
-350189.753456
-338664.775095
-327232.421734
-315901.068373
-304674.465012
-293561.924151
-282566.820790
-271693.842429
-260950.989068
-250343.510706
-239875.907345
-229558.616484
-219393.075623
-209384.284762
-199541.368901
-189866.953040
-180367.974679
-171049.996318
-161918.017957
-152973.602096
-144228.373735
-135679.582874
-127337.042013
-119205.251152
-111285.585291
-103582.231930
-96099.441069
-88842.712708
-81811.984347
-75012.630986
-68442.152625
-62111.861764
-56016.445903
-50160.467542
-44545.364181
-39172.948320
-34042.094959
-29155.179098
-24512.263237
-20109.659876
-15953.181515
-12033.890654
-8357.662293
-4916.183932
-1714.705571
-771587.436794
2749.019586
-216.833775
-3415.437136
-6854.290497
-10528.456358
-14444.059719
-18604.600580
-23005.766441
-27650.807302
-32539.410663
-37674.701524
-43051.304885
-48668.408246
-54529.886607
-60627.677468
-66967.530829
-73541.071690
-80348.425051
-87388.153412
-94653.569273
-102145.235134
-109856.400995
-117786.629356
-125931.357717
-134283.711078
-142839.814439
-151598.542800
-160554.896161
-169698.999522
-179028.040383
-188542.331244
-198228.309605
-208084.662966
-218105.703827
-228286.369688
-238620.785549
-249101.263910
-259722.929771
-270480.720632
-281368.573993
-292380.927354
-303509.593215
-314750.821576
-326097.174937
-337545.153298
-349087.506659
-360713.797520
-372427.025881
-384212.879242
-396073.670103
-407997.898464
-419980.689325
-432016.730186
-444107.333547
-456236.124408
-468404.290269
-480603.518630
-492830.371991
-505081.100352
-517349.266213
-529629.432074
-541919.847935
-554212.513796
-566503.492157
-578790.533018
-591069.261379
-603333.677240
-615578.468101
-627802.821462
-640004.049823
-652175.090684
-664313.006545
-676415.922406
-688480.275767
-700502.004128
-712480.544989
-724407.335850
-736288.001711
-748111.605072
-759879.520933
-771653.998974
-771717.748653
-771778.310833
-771840.560513
-771898.872692
-771959.934872
-772018.997052
-772075.434231
-772131.933911
1447.897469
1633.584649
1808.771829
1973.959008
2128.271188
2272.895868
2406.208047
2531.457727
2644.644907
-319.145954
-434.583134
-559.145314
-694.019993
-838.457173
-994.081853
-1159.581532
-1335.706212
-1520.018392
-3518.499315
-3634.686495
-3759.436175
-3894.810854
-4039.123034
-4193.622714
-4362.059893
-4535.372073
-4720.934253
-6957.227676
-7071.602356
-7195.664536
-7331.601715
-7474.976395
-7631.351075
-7797.913254
-7973.600434
-8160.475114
-10631.643537
-10745.580717
-10871.517897
-11006.830076
-11152.954756
-11306.204436
-11473.016615
-11651.516295
-11834.390975
-14550.746898
-14663.309078
-14788.496258
-14923.683437
-15068.933117
-15224.682797
-15392.744976
-15567.057156
-15753.119336
-18707.662759
-18822.537439
-18946.287119
-19081.724298
-19229.348978
-19380.036158
-19548.660837
-19725.848017
-19912.160197
-23110.328620
-23224.578300
-23347.140480
-23483.077659
-23628.389839
-23785.514519
-23951.014198
-24126.326378
-24314.263558
-27754.744481
-27868.931661
-27992.618841
-28129.306020
-28273.743200
-28428.055380
-28594.305059
-28770.929739
-28957.741919
-32645.285342
-32757.035022
-32882.097202
-33017.409381
-33161.096561
-33317.158741
-33482.158420
-33657.408100
-33844.970280
-37775.263703
-37891.763383
-38013.700563
-38148.950242
-38294.699922
-38449.387102
-38613.074281
-38789.136461
-38976.823641
-43153.242064
-43267.366744
-43389.491424
-43523.741103
-43667.115783
-43824.177963
-43987.115142
-44165.989822
-44349.927002
-48771.095425
-48884.470105
-49008.594785
-49141.844464
-49285.469144
-49439.156324
-49605.406003
-49778.093183
-49964.967863
-54631.698786
-54743.198466
-54866.635646
-55001.760325
-55141.947505
-55298.634685
-55462.009364
-55637.196544
-55819.696224
-60730.052147
-60844.051827
-60966.051507
-61097.426186
-61242.300866
-61394.488046
-61559.175225
-61731.674905
-61916.487085
-67068.905509
-67180.280188
-67302.779868
-67436.092047
-67576.841727
-67728.903907
-67894.028586
-68064.840766
-68250.027946
-73642.071370
-73754.821049
-73875.570729
-74007.445408
-74148.695088
-74301.194768
-74464.694447
-74636.756627
-74816.943807
-80448.924731
-80562.361910
-80680.549090
-80812.298769
-80954.673449
-81106.423129
-81267.235308
-81438.484988
-81619.859668
-87488.278092
-87598.090271
-87717.964951
-87849.527130
-87991.276810
-88141.838990
-88300.151169
-88471.275849
-88651.275529
-94752.131453
-94864.068632
-94984.318312
-95113.317991
-95253.005171
-95402.192351
-95562.567030
-95730.441710
-95912.316390
-102244.422314
-102355.109493
-102473.234173
-102601.733852
-102740.296032
-102891.358212
-103050.670391
-103216.795071
-103395.669751
-109956.088175
-110064.650354
-110184.337534
-110311.462213
-110448.149393
-110597.961573
-110755.461252
-110922.898432
-111098.210612
-117888.379036
-117993.441215
-118111.440895
-118239.378075
-118376.502754
-118524.377434
-118678.627113
-118845.314293
-119021.313973
-126029.919897
-126134.732076
-126251.919256
-126381.356436
-126514.106115
-126662.293295
-126817.917974
-126981.480154
-127155.104834
-134380.585758
-134488.147937
-134602.647617
-134729.022297
-134865.771976
-135009.521656
-135162.583835
-135326.771015
-135500.645695
-142937.189119
-143043.501298
-143160.063478
-143286.563158
-143419.937837
-143564.375017
-143715.624696
-143876.374376
-144049.124056
-151695.729980
-151801.229659
-151917.291839
-152039.791519
-152173.541198
-152315.540878
-152467.290557
-152627.477737
-152797.914917
-160650.333341
-160754.770520
-160869.457700
-160991.707380
-161124.019559
-161263.769239
-161414.268918
-161573.206098
-161739.580778
-169794.561702
-169899.311381
-170012.686061
-170135.685741
-170264.935420
-170404.185100
-170552.872279
-170710.309459
-170875.871639
-179126.915063
-179228.539742
-179340.601922
-179463.476602
-179592.413781
-179728.475961
-179874.288141
-180033.350320
-180196.662500
-188634.768424
-188740.455603
-188850.892783
-188969.704963
-189097.892142
-189233.766822
-189381.016502
-189534.453681
-189696.640861
-198321.496785
-198424.496464
-198536.058644
-198654.933324
-198782.308003
-198917.057683
-199059.744863
-199212.432042
-199371.744222
-208178.600146
-208280.912325
-208388.724505
-208507.161685
-208634.036364
-208768.661044
-208909.848224
-209060.785403
-209217.222583
-218201.391007
-218301.328186
-218409.265366
-218526.077546
-218652.452225
-218783.014405
-218922.326585
-219071.138764
-219228.013444
-228379.994368
-228479.494047
-228586.618727
-228702.368407
-228825.930586
-228958.117766
-229096.242446
-229244.367125
-229395.929305
-238711.410229
-238811.222408
-238919.784588
-239032.346768
-239154.596447
-239283.471127
-239418.720807
-239566.345486
-239717.532666
-249191.701090
-249291.700769
-249398.450449
-249508.825129
-249630.074808
-249756.949488
-249892.261668
-250036.636347
-250187.886027
-259816.554451
-259911.616630
-260016.866310
-260127.928490
-260248.928169
-260374.865349
-260506.677529
-260647.552208
-260796.426888
-270571.407812
-270668.344991
-270772.219671
-270882.781851
-271000.781530
-271124.468710
-271256.343390
-271395.530569
-271538.280249
-281458.823673
-281554.323352
-281656.135532
-281765.760212
-281882.634891
-282003.947071
-282135.321751
-282271.321430
-282414.696110
-292468.614534
-292563.614213
-292665.863893
-292773.488573
-292888.800752
-293010.050432
-293139.112612
-293272.299791
-293414.424471
-303596.842895
-303690.842574
-303790.342254
-303898.341934
-304012.966613
-304130.028793
-304259.090973
-304391.215652
-304530.652832
-314836.446256
-314930.633435
-315028.695615
-315136.132795
-315247.944974
-315366.194654
-315491.756834
-315620.444013
-315757.631193
-326185.362117
-326276.236796
-326376.048976
-326479.111156
-326590.173335
-326704.923015
-326828.360195
-326958.672374
-327091.297054
-337630.340478
-337722.527657
-337818.277337
-337922.339517
-338030.401696
-338145.463876
-338267.151056
-338394.400735
-338526.650415
-349171.318839
-349259.443518
-349357.880698
-349459.692878
-349567.255057
-349679.004737
-349799.941917
-349925.004096
-350055.378776
-360799.234700
-360887.296879
-360983.296559
-361085.296239
-361190.733418
-361300.858098
-361419.482778
-361541.919957
-361669.482137
-372510.525561
-372598.087740
-372693.649920
-372793.149600
-372896.774279
-373008.523959
-373121.648639
-373242.460818
-373366.710498
-384297.253922
-384386.628601
-384481.003281
-384578.877961
-384679.940140
-384788.252320
-384902.314500
-385019.064179
-385142.438859
-396155.794783
-396243.856962
-396336.731642
-396433.043822
-396534.231001
-396640.918181
-396752.167861
-396866.355040
-396989.854720
-408079.460644
-408165.460323
-408257.585003
-408353.584683
-408452.521862
-408559.084042
-408666.958722
-408780.083401
-408899.583081
-420062.189005
-420148.876184
-420237.250864
-420334.188044
-420430.125223
-420533.312403
-420641.749583
-420753.749262
-420869.748942
-432100.604866
-432185.042045
-432274.416725
-432364.666405
-432464.353584
-432565.665764
-432671.040444
-432779.227623
-432893.852303
-444185.895727
-444269.145406
-444356.957586
-444450.269766
-444544.706945
-444643.894125
-444746.143805
-444856.455984
-444966.580664
-456313.436588
-456397.873767
-456483.123447
-456575.123127
-456669.497806
-456765.997486
-456867.309666
-456973.559345
-457082.934025
-468482.227449
-468564.289628
-468649.539308
-468740.163988
-468831.351167
-468927.475847
-469027.663027
-469130.600206
-469239.099886
-480681.018310
-480762.330489
-480847.017669
-480935.329849
-481025.329528
-481121.079208
-481219.328888
-481320.328567
-481424.953247
-492908.809171
-492988.621350
-493070.683530
-493158.995710
-493248.682889
-493341.307569
-493438.119749
-493536.494428
-493639.681608
-505159.162532
-505237.537211
-505319.286891
-505407.786571
-505492.786250
-505586.160930
-505679.473110
-505778.097789
-505876.659969
-517427.390893
-517503.265572
-517586.827752
-517669.889932
-517757.327111
-517846.514291
-517938.638971
-518034.701150
-518132.075830
-529705.244254
-529783.618933
-529861.868613
-529946.618293
-530032.430472
-530120.492652
-530212.492332
-530305.554511
-530400.116691
-541995.347615
-542070.347294
-542152.096974
-542231.846654
-542317.908833
-542403.533513
-542490.595693
-542584.095372
-542677.032552
-554285.013476
-554362.200655
-554441.137835
-554521.387515
-554604.762194
-554690.011874
-554778.636554
-554867.198733
-554956.823413
-566577.241837
-566653.866516
-566729.491196
-566810.803376
-566891.428055
-566975.740235
-567059.927415
-567147.677094
-567236.739274
-578863.970198
-578939.094877
-579014.657057
-579094.094237
-579173.093916
-579254.531096
-579338.093276
-579424.030455
-579512.592635
-591142.261059
-591214.073238
-591288.635418
-591367.697598
-591446.447277
-591525.446957
-591607.384137
-591690.758816
-591777.258496
-603404.301920
-603476.489099
-603552.988779
-603627.238459
-603705.863138
-603783.425318
-603862.674998
-603944.112177
-604026.361857
-615648.780281
-615721.467460
-615795.654640
-615870.966820
-615946.716499
-616022.466179
-616102.403359
-616180.903038
-616261.027718
-627874.883642
-627944.570821
-628019.195501
-628092.070181
-628167.194860
-628242.569540
-628318.819220
-628398.756399
-628476.756079
-640072.487003
-640144.424182
-640215.611362
-640286.861042
-640361.798221
-640434.985401
-640511.172581
-640586.797260
-640665.234440
-652245.027864
-652314.402543
-652385.339723
-652456.901903
-652529.589082
-652599.213762
-652675.588442
-652748.275621
-652823.962801
-664382.568725
-664451.880904
-664520.880584
-664593.755264
-664664.442443
-664734.004623
-664806.629303
-664879.003982
-664951.003662
-676484.859586
-676553.984265
-676623.046445
-676693.358625
-676760.858304
-676831.357984
-676902.357664
-676971.357343
-677041.107023
-688549.712947
-688617.400126
-688685.212306
-688754.274486
-688819.461665
-688888.023845
-688958.961025
-689028.398204
-689095.460384
-700568.878808
-700638.628487
-700704.378167
-700772.315347
-700839.127526
-700905.939706
-700973.251886
-701040.189065
-701108.251245
-712546.919669
-712613.044348
-712679.856528
-712746.356208
-712813.043387
-712877.793067
-712942.355247
-713006.917426
-713074.104606
-724474.585530
-724540.897709
-724607.334889
-724670.459569
-724735.146748
-724800.896428
-724865.208608
-724927.208287
-724991.957967
-736352.876391
-736417.063570
-736483.250750
-736547.312930
-736609.312609
-736671.812289
-736734.936969
-736797.061648
-736860.436328
-748177.917252
-748241.604431
-748304.166611
-748367.166291
-748430.228470
-748492.353150
-748553.102830
-748614.040009
-748673.914689
-759946.395613
-760008.270292
-760071.457472
-760131.894652
-760196.206831
-760254.581511
-760314.331191
-760374.330870
-760431.393050
SCALARS stress_2 float
LOOKUP_TABLE default
12614.127775
-103898.599586
-102179.477994
-100438.356402
-98715.234810
-96973.113218
-95203.991626
-93447.870034
-91675.748442
-89904.626850
-88117.505258
-86325.383666
-84535.262074
-82747.140482
-80943.018890
-79130.897298
-77334.775706
-75511.654114
-73703.532522
-71891.410930
-70075.289338
-68270.167746
-66441.046154
-64635.924562
-62818.802970
-61003.681378
-59203.559786
-57400.438194
-55604.316602
-53808.195010
-52018.073418
-50252.951826
-48474.830234
-46704.708642
-44959.587050
-43222.465458
-41480.343866
-39767.222274
-38057.100682
-36363.979090
-34678.857498
-33019.735906
-31369.614314
-29727.492722
-28127.371130
-26533.249538
-24951.127946
-23398.006354
-21864.884762
-20351.763170
-18863.641578
-17408.519986
-15945.398394
-14545.276802
-13150.155210
-11792.033618
-10449.912025
-9142.790433
-7866.668841
-6615.547249
-5399.425657
-4205.304065
-3043.182473
-1921.060881
-835.939289
238.182303
1269.303895
2256.425487
3229.547079
4142.668671
5038.790263
5912.911855
6735.033447
7525.155039
8280.276631
9003.398223
9685.519815
10339.641407
10958.762999
11550.884591
12098.006183
-94554.877094
19649.850268
19226.728676
18761.607084
18262.485492
17741.363900
17163.242308
16566.120716
15929.999124
15245.877532
14536.755939
13791.634347
13002.512755
12187.391163
11326.269571
10425.147979
9508.026387
8553.904795
7555.783203
6520.661611
5448.540019
4355.418427
3221.296835
2068.175243
870.053651
-352.067941
-1612.189533
-2893.311125
-4211.432717
-5558.554309
-6923.675901
-8325.797493
-9747.919085
-11204.040677
-12681.162269
-14171.283861
-15696.405453
-17236.527045
-18806.648637
-20394.770229
-21999.891821
-23613.013413
-25261.135005
-26910.256597
-28585.378189
-30275.499781
-31980.621373
-33701.742965
-35410.864557
-37165.986149
-38899.107741
-40677.229333
-42441.350925
-44231.472517
-46018.594109
-47808.715701
-49593.837293
-51406.958885
-53211.080477
-55020.202069
-56841.323661
-58663.445253
-60479.566845
-62302.688437
-64124.810029
-65942.931621
-67762.053213
-69573.174805
-71394.296397
-73194.417989
-75019.539581
-76817.661173
-78624.782765
-80419.904357
-82217.025949
-83981.147541
-85780.269133
-87549.390725
-89313.512317
-91066.633910
-92820.755502
-95494.949343
-96430.021592
-97352.093841
-98299.166091
-99226.238340
-100163.310589
-101102.382838
-102030.455088
-102965.527337
13328.200024
14033.272273
14748.344523
15450.416772
16154.489021
16862.561271
17552.633520
18263.705769
18958.778018
18517.656426
17814.584177
17094.511928
16396.439679
15689.367429
14965.295180
14262.222931
13537.150681
12822.078432
18056.534834
17329.462585
16617.390336
15899.318086
15176.245837
14458.173588
13728.101339
13004.029089
12271.956840
17540.413242
16838.340993
16098.268744
15369.196494
14639.124245
13906.051996
13161.979747
12432.907497
11695.835248
17003.291650
16266.219401
15539.147152
14802.074902
14057.002653
13322.930404
12573.858155
11832.785905
11088.713656
16424.170058
15690.097809
14942.025560
14199.953310
13448.881061
12703.808812
11952.736563
11201.664313
10449.592064
15817.048466
15062.976217
14318.903968
13565.831718
12809.759469
12049.687220
11288.614971
10530.542721
9757.470472
15159.926874
14406.854625
13656.782376
12883.710126
12121.637877
11367.565628
10594.493379
9827.421129
9051.348880
14487.805282
13715.733033
12951.660784
12175.588534
11410.516285
10633.444036
9854.371787
9080.299537
8310.227288
13766.683690
12992.611441
12210.539192
11438.466942
10647.394693
9877.322444
9093.250195
8307.177945
7526.105696
13003.562098
12232.489849
11440.417600
10659.345350
9873.273101
9073.200852
8289.128603
7496.056353
6700.984104
12216.440506
11423.368257
10635.296008
9834.223758
9046.151509
8240.079260
7448.007011
6655.934761
5848.862512
11388.318914
10587.246665
9792.174416
8989.102166
8183.029917
7381.957668
6578.885419
5770.813169
4962.740920
10540.197322
9720.125073
8909.052824
8096.980574
7297.908325
6481.836076
5679.763827
4853.691577
4044.619328
9632.075730
8811.003481
8001.931232
7180.858982
6381.786733
5548.714484
4732.642234
3909.569985
3085.497736
8689.954138
7874.881889
7051.809640
6234.737390
5404.665141
4582.592892
3754.520642
2933.448393
2096.376144
7727.832546
6901.760297
6067.688048
5235.615798
4413.543549
3580.471300
2740.399050
1909.326801
1072.254552
6715.710954
5895.638705
5054.566456
4218.494206
3378.421957
2551.349708
1709.277458
851.205209
2.132960
5687.589362
4850.517113
4004.444864
3166.372614
2316.300365
1485.228116
628.155866
-212.916383
-1074.988632
4612.467770
3767.395521
2914.323272
2074.251022
1229.178773
369.106524
-474.965726
-1330.037975
-2185.110224
3515.346178
2655.273929
1804.201680
952.129430
94.057181
-755.015068
-1615.087318
-2481.159567
-3345.231816
2371.224586
1508.152337
654.080087
-204.992162
-1068.064411
-1922.136660
-2795.208910
-3661.281159
-4526.353408
1210.102994
341.030745
-516.041505
-1389.113754
-2258.186003
-3136.258252
-3997.330502
-4868.402751
-5739.475000
9.981402
-861.090847
-1736.163097
-2605.235346
-3479.307595
-4347.379844
-5223.452094
-6110.524343
-6985.596592
-1231.140190
-2101.212439
-2978.284689
-3851.356938
-4732.429187
-5616.501436
-6494.573686
-7376.645935
-8259.718184
-2485.261782
-3369.334031
-4253.406281
-5129.478530
-6008.550779
-6900.623028
-7793.695278
-8673.767527
-9562.839776
-3784.383374
-4662.455623
-5542.527873
-6433.600122
-7322.672371
-8222.744620
-9098.816870
-9994.889119
-10893.961368
-5113.504966
-5985.577215
-6881.649465
-7773.721714
-8672.793963
-9557.866212
-10458.938462
-11348.010711
-12246.082960
-6453.626558
-7340.698807
-8239.771057
-9135.843306
-10024.915555
-10933.987804
-11832.060054
-12732.132303
-13629.204552
-7817.748150
-8726.820399
-9623.892649
-10519.964898
-11436.037147
-12328.109396
-13232.181646
-14145.253895
-15042.326144
-9232.869742
-10121.941991
-11035.014241
-11936.086490
-12850.158739
-13760.230988
-14659.303238
-15565.375487
-16477.447736
-10649.991334
-11567.063583
-12476.135833
-13378.208082
-14296.280331
-15200.352580
-16121.424830
-17028.497079
-17938.569328
-12108.112926
-13027.185175
-13934.257425
-14845.329674
-15764.401923
-16680.474172
-17601.546422
-18513.618671
-19432.690920
-13585.234518
-14495.306767
-15418.379017
-16335.451266
-17252.523515
-18178.595765
-19105.668014
-20018.740263
-20941.812512
-15091.356110
-16022.428359
-16923.500609
-17852.572858
-18770.645107
-19702.717357
-20622.789606
-21537.861855
-22472.934104
-16620.477702
-17540.549951
-18463.622201
-19383.694450
-20311.766699
-21237.838949
-22170.911198
-23093.983447
-24023.055696
-18161.599294
-19089.671543
-20013.743793
-20947.816042
-21868.888291
-22795.960541
-23736.032790
-24663.105039
-25596.177288
-19731.720886
-20664.793135
-21586.865385
-22515.937634
-23444.009883
-24380.082133
-25316.154382
-26258.226631
-27178.298880
-21310.842478
-22239.914727
-23182.986977
-24111.059226
-25054.131475
-25981.203725
-26930.275974
-27872.348223
-28791.420472
-22924.964070
-23858.036319
-24792.108569
-25728.180818
-26660.253067
-27606.325317
-28547.397566
-29485.469815
-30420.542064
-24549.085662
-25491.157912
-26422.230161
-27355.302410
-28302.374659
-29248.446909
-30183.519158
-31129.591407
-32078.663656
-26199.207254
-27140.279504
-28078.351753
-29019.424002
-29956.496251
-30894.568501
-31847.640750
-32796.712999
-33733.785248
-27850.328846
-28790.401096
-29732.473345
-30680.545594
-31620.617843
-32565.690093
-33520.762342
-34464.834591
-35407.906840
-29532.450438
-30478.522688
-31424.594937
-32364.667186
-33311.739435
-34250.811685
-35202.883934
-36152.956183
-37105.028432
-31217.572030
-32164.644280
-33110.716529
-34062.788778
-35007.861027
-35952.933277
-36909.005526
-37854.077775
-38806.150024
-32926.693622
-33869.765872
-34812.838121
-35761.910370
-36716.982619
-37677.054869
-38619.127118
-39584.199367
-40533.271617
-34639.815214
-35594.887464
-36538.959713
-37498.031962
-38445.104211
-39400.176461
-40344.248710
-41308.320959
-42259.393209
-36370.936806
-37325.009056
-38269.081305
-39232.153554
-40180.225803
-41131.298053
-42091.370302
-43047.442551
-44002.514801
-38109.058398
-39075.130648
-40022.202897
-40976.275146
-41920.347395
-42884.419645
-43838.491894
-44801.564143
-45751.636393
-39873.179990
-40818.252240
-41773.324489
-42732.396738
-43689.468987
-44637.541237
-45600.613486
-46558.685735
-47513.757985
-41624.301582
-42577.373832
-43539.446081
-44499.518330
-45452.590579
-46404.662829
-47369.735078
-48323.807327
-49292.879577
-43408.423174
-44359.495424
-45307.567673
-46261.639922
-47229.712171
-48183.784421
-49149.856670
-50104.928919
-51069.001169
-45183.544766
-46136.617016
-47095.689265
-48051.761514
-49005.833764
-49965.906013
-50928.978262
-51878.050511
-52851.122761
-46955.666358
-47917.738608
-48885.810857
-49843.883106
-50793.955356
-51759.027605
-52720.099854
-53677.172103
-54642.244353
-48768.787950
-49714.860200
-50677.932449
-51634.004698
-52593.076948
-53552.149197
-54521.221446
-55471.293695
-56444.365945
-50557.909542
-51522.981792
-52476.054041
-53428.126290
-54403.198540
-55355.270789
-56312.343038
-57287.415287
-58236.487537
-52362.031134
-53324.103384
-54277.175633
-55243.247882
-56200.320132
-57159.392381
-58126.464630
-59098.536879
-60046.609129
-54172.152726
-55132.224976
-56091.297225
-57050.369474
-58025.441724
-58976.513973
-59932.586222
-60899.658471
-61857.730721
-55981.274318
-56944.346568
-57898.418817
-58863.491066
-59822.563316
-60779.635565
-61739.707814
-62713.780063
-63671.852313
-57802.395911
-58762.468160
-59723.540409
-60676.612658
-61643.684908
-62595.757157
-63565.829406
-64525.901655
-65483.973905
-59613.517503
-60578.589752
-61540.662001
-62499.734250
-63458.806500
-64416.878749
-65368.950998
-66342.023247
-67309.095497
-61439.639095
-62396.711344
-63361.783593
-64320.855842
-65276.928092
-66243.000341
-67189.072590
-68157.144839
-69118.217089
-63263.760687
-64217.832936
-65169.905185
-66136.977434
-67096.049684
-68051.121933
-69013.194182
-69959.266431
-70934.338681
-65086.882279
-66036.954528
-66989.026777
-67956.099026
-68908.171276
-69866.243525
-70819.315774
-71785.388023
-72743.460273
-66896.003871
-67861.076120
-68813.148369
-69762.220618
-70728.292868
-71688.365117
-72644.437366
-73594.509616
-74555.581865
-68715.125463
-69671.197712
-70618.269961
-71575.342210
-72549.414460
-73498.486709
-74456.558958
-75410.631208
-76381.703457
-70531.247055
-71484.319304
-72436.391553
-73391.463802
-74350.536052
-75302.608301
-76267.680550
-77225.752800
-78184.825049
-72341.368647
-73298.440896
-74255.513145
-75211.585394
-76167.657644
-77124.729893
-78077.802142
-79032.874392
-79991.946641
-74161.490239
-75110.562488
-76070.634737
-77023.706986
-77972.779236
-78930.851485
-79883.923734
-80837.995984
-81800.068233
-75963.611831
-76916.684080
-77870.756329
-78819.828578
-79782.900828
-80718.973077
-81687.045326
-82634.117576
-83590.189825
-77766.733423
-78718.805672
-79674.877921
-80622.950170
-81580.022420
-82533.094669
-83484.166918
-84430.239168
-85389.311417
-79569.855015
-80514.927264
-81476.999513
-82419.071763
-83371.144012
-84327.216261
-85264.288510
-86220.360760
-87167.433009
-81367.976607
-82317.048856
-83264.121105
-84206.193355
-85158.265604
-86112.337853
-87058.410102
-88007.482352
-88960.554601
-83151.098199
-84106.170448
-85042.242697
-85990.314947
-86949.387196
-87892.459445
-88839.531694
-89793.603944
-90736.676193
-84937.219791
-85884.292040
-86826.364289
-87778.436539
-88719.508788
-89664.581037
-90609.653286
-91554.725536
-92499.797785
-86719.341383
-87664.413632
-88602.485881
-89544.558131
-90495.630380
-91435.702629
-92378.774878
-93325.847128
-94268.919377
-88485.462975
-89425.535224
-90369.607473
-91313.679723
-92252.751972
-93194.824221
-94140.896470
-95087.968720
-96019.040969
-90243.584567
-91191.656816
-92131.729065
-93071.801315
-94014.873564
-94957.945813
-95892.018062
-96829.090312
-97773.162561
-91999.706159
-92945.778408
-93882.850657
-94816.922907
-95762.995156
-96694.067405
-97643.139654
-98567.211904
-99512.284153
-93760.827751
-94691.900000
-95629.972249
-96559.044499
-97497.116748
-98438.188997
-99381.261246
-100302.333496
-101239.405745
SCALARS stress_3 float
LOOKUP_TABLE default
3350.835165
168672.202953
166304.760855
163908.818758
161502.376661
159087.434563
156650.992466
154224.050369
151767.608271
149304.666174
146832.724077
144353.281979
141872.839882
139378.397785
136865.955687
134352.013590
131846.071492
129321.629395
126793.687298
124275.245200
121737.303103
119209.361006
116681.918908
114144.976811
111622.034714
109092.092616
106560.650519
104047.208422
101525.266324
99008.824227
96514.882130
94013.940032
91526.997935
89050.055837
86578.613740
84125.671643
81685.729545
79265.787448
76854.345351
74462.403253
72080.961156
69734.519059
67402.076961
65085.634864
62792.692767
60515.250669
58293.808572
56073.866475
53874.424377
51720.482280
49592.540182
47501.098085
45428.155988
43390.713890
41387.771793
39426.329696
37497.887598
35616.945501
33759.003404
31941.561306
30177.619209
28444.177112
26749.735014
25105.792917
23490.850820
21934.908722
20421.466625
18962.524528
17537.582430
16150.640333
14818.698235
13539.756138
12306.314041
11121.371943
9976.929846
8889.987749
7851.045651
6851.103554
5901.161457
5005.719359
4153.277262
162982.412261
-1802.455528
-1036.513430
-233.571333
634.870765
1532.312862
2479.754959
3483.697057
4534.139154
5642.081251
6789.523349
7995.965446
9238.407543
10535.349641
11885.791738
13283.233835
14715.675933
16199.618030
17729.560127
19318.502225
20939.944322
22598.386420
24307.328517
26054.770614
27849.212712
29688.154809
31552.096906
33471.039004
35417.481101
37383.423198
39410.865296
41468.307393
43552.749490
45674.691588
47818.633685
50003.075782
52210.517880
54445.959977
56703.902075
58990.344172
61301.786269
63630.728367
65984.670464
68360.612561
70759.554659
73149.496756
75587.438853
78024.880951
80490.823048
82951.265145
85433.707243
87921.149340
90423.591437
92940.533535
95459.475632
97979.417730
100513.359827
103048.301924
105583.244022
108125.186119
110677.128216
113211.570314
115755.012411
118296.454508
120833.896606
123364.338703
125910.780800
128441.222898
130955.664995
133473.107092
135983.549190
138493.491287
140983.433385
143468.375482
145952.317579
148406.259677
150870.201774
153320.143871
155749.585969
158182.528066
160588.470163
163563.891330
164127.370399
164696.349468
165275.828538
165835.307607
166408.786676
166975.765745
167541.744814
168113.723884
2833.356095
2304.377026
1788.397957
1263.918888
746.439819
236.960749
-272.018320
-785.497389
-1282.476458
-528.034361
-23.055292
493.423777
1010.402847
1519.881916
2055.360985
2575.840054
3098.319123
3618.298193
282.907736
795.886806
1321.865875
1839.844944
2358.324013
2879.803082
3408.782152
3942.761221
4461.740290
1144.849834
1663.328903
2188.807972
2713.787041
3239.266111
3767.245180
4291.724249
4830.703318
5365.182387
2053.291931
2569.771000
3097.250070
3627.229139
4160.208208
4695.687277
5227.666346
5759.145416
6312.624485
2999.234028
3534.713098
4063.192167
4605.671236
5133.150305
5676.629374
6210.608444
6750.087513
7302.066582
4019.176126
4544.655195
5076.634264
5617.113333
6156.092403
6700.571472
7238.550541
7792.529610
8335.508679
5077.118223
5607.597292
6155.576362
6690.555431
7232.034500
7776.013569
8319.992638
8871.471708
9430.450777
6170.560320
6712.039390
7253.518459
7802.497528
8358.976597
8903.455667
9461.934736
10003.413805
10560.892874
7337.502418
7874.981487
8428.960556
8978.439625
9516.918695
10078.897764
10629.376833
11182.855902
11747.834972
8541.944515
9090.923584
9640.402654
10186.381723
10737.360792
11303.839861
11860.818930
12413.298000
12972.777069
9785.886613
10338.865682
10893.344751
11449.823820
12000.802889
12571.281959
13129.761028
13694.240097
14254.719166
11085.328710
11650.307779
12202.286848
12759.265918
13317.244987
13882.724056
14443.703125
15013.682194
15587.161264
12429.270807
12994.249876
13558.228946
14114.208015
14677.687084
15249.166153
15814.645223
16385.624292
16961.103361
13837.712905
14393.191974
14958.171043
15527.150112
16084.629181
16664.608251
17232.087320
17802.566389
18380.045458
15279.155002
15835.634071
16407.113140
16983.092210
17549.071279
18118.550348
18691.029417
19263.008486
19845.487556
16761.097099
17320.576169
17906.055238
18465.034307
19054.513376
19612.492445
20205.471515
20780.950584
21362.429653
18310.539197
18873.018266
19443.497335
20008.476404
20590.455474
21173.934543
21747.413612
22333.892681
22918.371750
19883.481294
20452.960363
21020.439432
21599.918502
22188.397571
22769.376640
23340.855709
23933.834778
24521.313848
21504.423391
22071.902461
22661.381530
23237.360599
23817.839668
24405.318737
24992.297807
25578.776876
26159.255945
23170.365489
23753.344558
24333.823627
24916.302696
25495.281766
26085.260835
26672.739904
27257.718973
27845.198042
24881.807586
25464.786655
26041.265725
26623.244794
27219.723863
27804.702932
28395.182001
28982.161071
29580.640140
26639.749683
27224.728753
27808.707822
28388.186891
28978.665960
29562.645029
30161.624099
30761.103168
31350.582237
28434.191781
29017.670850
29606.149919
30188.628988
30780.108058
31369.587127
31976.066196
32560.545265
33162.024334
30264.133878
30851.112947
31432.592017
32033.571086
32622.550155
33220.529224
33821.508293
34412.487363
35009.966432
32135.075975
32724.555045
33323.534114
33915.013183
34511.492252
35111.471322
35696.450391
36303.429460
36898.408529
34048.518073
34643.997142
35231.476211
35831.955280
36429.934350
37025.413419
37620.892488
38219.371557
38820.350627
36000.960170
36592.939239
37187.918309
37784.397378
38381.876447
38980.355516
39587.834585
40188.813655
40791.792724
37989.402268
38582.381337
39177.360406
39776.839475
40382.318544
40970.797614
41577.276683
42180.255752
42778.234821
40009.344365
40597.823434
41199.802503
41802.781573
42405.260642
42998.739711
43606.218780
44210.197849
44817.676919
42066.286462
42660.765531
43258.744601
43857.723670
44465.702739
45067.681808
45671.160878
46270.139947
46875.619016
44156.728560
44752.207629
45347.186698
45951.165767
46553.644836
47162.623906
47769.602975
48371.082044
48978.561113
46269.670657
46870.649726
47478.628795
48072.607865
48681.086934
49286.566003
49893.045072
50495.024141
51116.003211
48421.112754
49021.091824
49620.070893
50226.049962
50835.529031
51449.008100
52047.487170
52648.966239
53270.445308
50605.554852
51199.033921
51804.012990
52404.992059
53010.971129
53621.950198
54228.429267
54842.908336
55459.387405
52813.996949
53409.976018
54014.955087
54614.934157
55233.913226
55833.892295
56445.871364
57056.350433
57668.829503
55039.439046
55642.418116
56257.397185
56849.876254
57464.355323
58071.834392
58679.813462
59292.792531
59907.771600
57303.881144
57906.860213
58514.839282
59117.318351
59729.797421
60331.776490
60950.255559
61567.234628
62174.213697
59594.823241
60195.302310
60803.781380
61419.760449
62016.739518
62630.718587
63252.197656
63854.176726
64473.155795
61900.765338
62509.244408
63120.723477
63722.202546
64337.681615
64939.160684
65564.639754
66167.118823
66777.097892
64237.707436
64844.686505
65446.165574
66056.644643
66662.623713
67277.602782
67886.581851
68499.060920
69115.539989
66589.649533
67188.128602
67802.607672
68406.086741
69020.065810
69633.544879
70245.523948
70860.503018
71456.482087
68959.091630
69570.570700
70176.049769
70779.028838
71395.007907
72004.986977
72620.966046
73241.445115
73844.924184
71355.533728
71965.012797
72569.991866
73180.470935
73788.450005
74394.929074
75014.908143
75629.887212
76239.366282
73763.975825
74374.954894
74975.433964
75587.413033
76197.892102
76801.371171
77423.350240
78029.829310
78651.808379
76194.917923
76792.396992
77409.876061
78018.355130
78625.834199
79241.313269
79849.292338
80459.771407
81084.750476
78630.860020
79244.339089
79849.318158
80455.297228
81068.276297
81676.255366
82287.734435
82894.213504
83514.692574
81089.802117
81693.281186
82307.760256
82925.739325
83516.218394
84136.197463
84745.676533
85354.155602
85967.134671
83553.744215
84160.723284
84771.702353
85382.181422
85991.660491
86598.639561
87204.618630
87828.597699
88435.076768
86040.186312
86645.665381
87259.144450
87857.123520
88472.102589
89082.581658
89694.060727
90305.539796
90903.018866
88527.128409
89143.107479
89748.086548
90352.565617
90963.544686
91569.523755
92177.502825
92788.481894
93401.460963
91032.570507
91633.549576
92246.028645
92854.007714
93456.486784
94061.465853
94677.444922
95282.423991
95901.403060
93538.512604
94140.491673
94759.970742
95360.449812
95968.428881
96568.907950
97180.887019
97789.866088
98404.845158
96066.454701
96667.433771
97274.912840
97882.891909
98485.870978
99092.350047
99697.329117
100300.808186
100917.787255
98589.896799
99188.875868
99790.354937
100393.334006
101005.313076
101606.792145
102219.771214
102830.250283
103435.729352
101114.338896
101712.817965
102321.797034
102932.776104
103524.255173
104128.734242
104744.713311
105356.692381
105955.671450
103655.280993
104248.260063
104864.739132
105457.718201
106056.197270
106671.176339
107266.155409
107881.634478
108487.613547
106190.223091
106778.702160
107391.681229
107988.660298
108596.639368
109204.618437
109797.097506
110413.576575
111015.555644
108725.665188
109320.144257
109926.623327
110535.602396
111139.081465
111728.560534
112334.539603
112943.018673
113545.497742
111266.107285
111863.086355
112466.565424
113065.044493
113668.523562
114269.502632
114869.981701
115483.960770
116078.939839
113809.549383
114401.528452
115000.507521
115606.986590
116197.465660
116802.444729
117406.423798
118009.902867
118611.381937
116346.491480
116941.970549
117542.449619
118144.428688
118743.907757
119343.386826
119941.865895
120533.844965
121141.824034
118890.933578
119487.912647
120085.391716
120677.870785
121283.849854
121875.328924
122476.307993
123071.787062
123667.766131
121433.375675
122022.354744
122618.833813
123207.312883
123806.791952
124408.771021
125002.250090
125607.729159
126200.208229
123968.317772
124555.796841
125155.775911
125749.754980
126349.734049
126942.713118
127537.692188
128132.671257
128721.650326
126492.759870
127087.738939
127681.718008
128276.697077
128874.676146
129469.655216
130065.134285
130653.613354
131249.592423
129022.201967
129615.681036
130211.660105
130802.639175
131398.118244
131990.597313
132573.076382
133174.055451
133764.534521
131550.644064
132130.623134
132736.102203
133330.081272
133908.060341
134499.039410
135093.518480
135688.997549
136281.476618
134057.086162
134651.565231
135246.544300
135831.023369
136425.002439
137011.981508
137604.960577
138191.439646
138787.418715
136579.028259
137155.007328
137749.986397
138339.965467
138921.944536
139513.423605
140100.402674
140690.381743
141278.860813
139073.970356
139662.449426
140254.428495
140840.407564
141419.886633
142013.365702
142593.844772
143174.323841
143765.302910
141577.912454
142154.391523
142732.870592
143329.849661
143906.828731
144495.807800
145078.286869
145669.765938
146245.745007
144051.354551
144641.833620
145225.812689
145808.791759
146382.270828
146973.749897
147559.228966
148137.708036
148726.187105
146528.296648
147121.275718
147692.754787
148273.233856
148860.212925
149443.691994
150027.671064
150605.650133
151183.129202
148993.238746
149578.217815
150160.196884
150732.175953
151316.655023
151903.134092
152479.613161
153064.092230
153642.071299
151452.180843
152029.659912
152608.638982
153190.118051
153770.597120
154347.076189
154922.555258
155503.534328
156079.513397
153897.622940
154475.102010
155050.581079
155622.560148
156218.039217
156784.018287
157358.497356
157929.976425
158512.955494
156333.065038
156900.044107
157487.023176
158057.002245
158633.981315
159203.960384
159793.939453
160352.418522
160929.397592
158749.007135
159324.486204
159894.965274
160470.944343
161052.423412
161624.402481
162192.381550
162761.360620
163344.339689
161166.949233
161729.428302
162303.907371
162877.886440
163450.865509
164017.844579
164590.823648
165167.302717
165727.781786
