# vtk DataFile Version 2.0
Generated volume Mesh
ASCII
DATASET UNSTRUCTURED_GRID
POINTS 891 float
0.005000 0.100000 0.000000
0.005000 0.000000 0.000000
0.005000 0.001250 0.000000
0.005000 0.002500 0.000000
0.005000 0.003750 0.000000
0.005000 0.005000 0.000000
0.005000 0.006250 0.000000
0.005000 0.007500 0.000000
0.005000 0.008750 0.000000
0.005000 0.010000 0.000000
0.005000 0.011250 0.000000
0.005000 0.012500 0.000000
0.005000 0.013750 0.000000
0.005000 0.015000 0.000000
0.005000 0.016250 0.000000
0.005000 0.017500 0.000000
0.005000 0.018750 0.000000
0.005000 0.020000 0.000000
0.005000 0.021250 0.000000
0.005000 0.022500 0.000000
0.005000 0.023750 0.000000
0.005000 0.025000 0.000000
0.005000 0.026250 0.000000
0.005000 0.027500 0.000000
0.005000 0.028750 0.000000
0.005000 0.030000 0.000000
0.005000 0.031250 0.000000
0.005000 0.032500 0.000000
0.005000 0.033750 0.000000
0.005000 0.035000 0.000000
0.005000 0.036250 0.000000
0.005000 0.037500 0.000000
0.005000 0.038750 0.000000
0.005000 0.040000 0.000000
0.005000 0.041250 0.000000
0.005000 0.042500 0.000000
0.005000 0.043750 0.000000
0.005000 0.045000 0.000000
0.005000 0.046250 0.000000
0.005000 0.047500 0.000000
0.005000 0.048750 0.000000
0.005000 0.050000 0.000000
0.005000 0.051250 0.000000
0.005000 0.052500 0.000000
0.005000 0.053750 0.000000
0.005000 0.055000 0.000000
0.005000 0.056250 0.000000
0.005000 0.057500 0.000000
0.005000 0.058750 0.000000
0.005000 0.060000 0.000000
0.005000 0.061250 0.000000
0.005000 0.062500 0.000000
0.005000 0.063750 0.000000
0.005000 0.065000 0.000000
0.005000 0.066250 0.000000
0.005000 0.067500 0.000000
0.005000 0.068750 0.000000
0.005000 0.070000 0.000000
0.005000 0.071250 0.000000
0.005000 0.072500 0.000000
0.005000 0.073750 0.000000
0.005000 0.075000 0.000000
0.005000 0.076250 0.000000
0.005000 0.077500 0.000000
0.005000 0.078750 0.000000
0.005000 0.080000 0.000000
0.005000 0.081250 0.000000
0.005000 0.082500 0.000000
0.005000 0.083750 0.000000
0.005000 0.085000 0.000000
0.005000 0.086250 0.000000
0.005000 0.087500 0.000000
0.005000 0.088750 0.000000
0.005000 0.090000 0.000000
0.005000 0.091250 0.000000
0.005000 0.092500 0.000000
0.005000 0.093750 0.000000
0.005000 0.095000 0.000000
0.005000 0.096250 0.000000
0.005000 0.097500 0.000000
0.005000 0.098750 0.000000
0.000000 0.000000 0.000000
0.000000 0.100000 0.000000
0.000000 0.098750 0.000000
0.000000 0.097500 0.000000
0.000000 0.096250 0.000000
0.000000 0.095000 0.000000
0.000000 0.093750 0.000000
0.000000 0.092500 0.000000
0.000000 0.091250 0.000000
0.000000 0.090000 0.000000
0.000000 0.088750 0.000000
0.000000 0.087500 0.000000
0.000000 0.086250 0.000000
0.000000 0.085000 0.000000
0.000000 0.083750 0.000000
0.000000 0.082500 0.000000
0.000000 0.081250 0.000000
0.000000 0.080000 0.000000
0.000000 0.078750 0.000000
0.000000 0.077500 0.000000
0.000000 0.076250 0.000000
0.000000 0.075000 0.000000
0.000000 0.073750 0.000000
0.000000 0.072500 0.000000
0.000000 0.071250 0.000000
0.000000 0.070000 0.000000
0.000000 0.068750 0.000000
0.000000 0.067500 0.000000
0.000000 0.066250 0.000000
0.000000 0.065000 0.000000
0.000000 0.063750 0.000000
0.000000 0.062500 0.000000
0.000000 0.061250 0.000000
0.000000 0.060000 0.000000
0.000000 0.058750 0.000000
0.000000 0.057500 0.000000
0.000000 0.056250 0.000000
0.000000 0.055000 0.000000
0.000000 0.053750 0.000000
0.000000 0.052500 0.000000
0.000000 0.051250 0.000000
0.000000 0.050000 0.000000
0.000000 0.048750 0.000000
0.000000 0.047500 0.000000
0.000000 0.046250 0.000000
0.000000 0.045000 0.000000
0.000000 0.043750 0.000000
0.000000 0.042500 0.000000
0.000000 0.041250 0.000000
0.000000 0.040000 0.000000
0.000000 0.038750 0.000000
0.000000 0.037500 0.000000
0.000000 0.036250 0.000000
0.000000 0.035000 0.000000
0.000000 0.033750 0.000000
0.000000 0.032500 0.000000
0.000000 0.031250 0.000000
0.000000 0.030000 0.000000
0.000000 0.028750 0.000000
0.000000 0.027500 0.000000
0.000000 0.026250 0.000000
0.000000 0.025000 0.000000
0.000000 0.023750 0.000000
0.000000 0.022500 0.000000
0.000000 0.021250 0.000000
0.000000 0.020000 0.000000
0.000000 0.018750 0.000000
0.000000 0.017500 0.000000
0.000000 0.016250 0.000000
0.000000 0.015000 0.000000
0.000000 0.013750 0.000000
0.000000 0.012500 0.000000
0.000000 0.011250 0.000000
0.000000 0.010000 0.000000
0.000000 0.008750 0.000000
0.000000 0.007500 0.000000
0.000000 0.006250 0.000000
0.000000 0.005000 0.000000
0.000000 0.003750 0.000000
0.000000 0.002500 0.000000
0.000000 0.001250 0.000000
0.000500 0.000000 0.000000
0.001000 0.000000 0.000000
0.001500 0.000000 0.000000
0.002000 0.000000 0.000000
0.002500 0.000000 0.000000
0.003000 0.000000 0.000000
0.003500 0.000000 0.000000
0.004000 0.000000 0.000000
0.004500 0.000000 0.000000
0.004500 0.100000 0.000000
0.004000 0.100000 0.000000
0.003500 0.100000 0.000000
0.003000 0.100000 0.000000
0.002500 0.100000 0.000000
0.002000 0.100000 0.000000
0.001500 0.100000 0.000000
0.001000 0.100000 0.000000
0.000500 0.100000 0.000000
0.000500 0.098750 0.000000
0.001000 0.098750 0.000000
0.001500 0.098750 0.000000
0.002000 0.098750 0.000000
0.002500 0.098750 0.000000
0.003000 0.098750 0.000000
0.003500 0.098750 0.000000
0.004000 0.098750 0.000000
0.004500 0.098750 0.000000
0.000500 0.097500 0.000000
0.001000 0.097500 0.000000
0.001500 0.097500 0.000000
0.002000 0.097500 0.000000
0.002500 0.097500 0.000000
0.003000 0.097500 0.000000
0.003500 0.097500 0.000000
0.004000 0.097500 0.000000
0.004500 0.097500 0.000000
0.000500 0.096250 0.000000
0.001000 0.096250 0.000000
0.001500 0.096250 0.000000
0.002000 0.096250 0.000000
0.002500 0.096250 0.000000
0.003000 0.096250 0.000000
0.003500 0.096250 0.000000
0.004000 0.096250 0.000000
0.004500 0.096250 0.000000
0.000500 0.095000 0.000000
0.001000 0.095000 0.000000
0.001500 0.095000 0.000000
0.002000 0.095000 0.000000
0.002500 0.095000 0.000000
0.003000 0.095000 0.000000
0.003500 0.095000 0.000000
0.004000 0.095000 0.000000
0.004500 0.095000 0.000000
0.000500 0.093750 0.000000
0.001000 0.093750 0.000000
0.001500 0.093750 0.000000
0.002000 0.093750 0.000000
0.002500 0.093750 0.000000
0.003000 0.093750 0.000000
0.003500 0.093750 0.000000
0.004000 0.093750 0.000000
0.004500 0.093750 0.000000
0.000500 0.092500 0.000000
0.001000 0.092500 0.000000
0.001500 0.092500 0.000000
0.002000 0.092500 0.000000
0.002500 0.092500 0.000000
0.003000 0.092500 0.000000
0.003500 0.092500 0.000000
0.004000 0.092500 0.000000
0.004500 0.092500 0.000000
0.000500 0.091250 0.000000
0.001000 0.091250 0.000000
0.001500 0.091250 0.000000
0.002000 0.091250 0.000000
0.002500 0.091250 0.000000
0.003000 0.091250 0.000000
0.003500 0.091250 0.000000
0.004000 0.091250 0.000000
0.004500 0.091250 0.000000
0.000500 0.090000 0.000000
0.001000 0.090000 0.000000
0.001500 0.090000 0.000000
0.002000 0.090000 0.000000
0.002500 0.090000 0.000000
0.003000 0.090000 0.000000
0.003500 0.090000 0.000000
0.004000 0.090000 0.000000
0.004500 0.090000 0.000000
0.000500 0.088750 0.000000
0.001000 0.088750 0.000000
0.001500 0.088750 0.000000
0.002000 0.088750 0.000000
0.002500 0.088750 0.000000
0.003000 0.088750 0.000000
0.003500 0.088750 0.000000
0.004000 0.088750 0.000000
0.004500 0.088750 0.000000
0.000500 0.087500 0.000000
0.001000 0.087500 0.000000
0.001500 0.087500 0.000000
0.002000 0.087500 0.000000
0.002500 0.087500 0.000000
0.003000 0.087500 0.000000
0.003500 0.087500 0.000000
0.004000 0.087500 0.000000
0.004500 0.087500 0.000000
0.000500 0.086250 0.000000
0.001000 0.086250 0.000000
0.001500 0.086250 0.000000
0.002000 0.086250 0.000000
0.002500 0.086250 0.000000
0.003000 0.086250 0.000000
0.003500 0.086250 0.000000
0.004000 0.086250 0.000000
0.004500 0.086250 0.000000
0.000500 0.085000 0.000000
0.001000 0.085000 0.000000
0.001500 0.085000 0.000000
0.002000 0.085000 0.000000
0.002500 0.085000 0.000000
0.003000 0.085000 0.000000
0.003500 0.085000 0.000000
0.004000 0.085000 0.000000
0.004500 0.085000 0.000000
0.000500 0.083750 0.000000
0.001000 0.083750 0.000000
0.001500 0.083750 0.000000
0.002000 0.083750 0.000000
0.002500 0.083750 0.000000
0.003000 0.083750 0.000000
0.003500 0.083750 0.000000
0.004000 0.083750 0.000000
0.004500 0.083750 0.000000
0.000500 0.082500 0.000000
0.001000 0.082500 0.000000
0.001500 0.082500 0.000000
0.002000 0.082500 0.000000
0.002500 0.082500 0.000000
0.003000 0.082500 0.000000
0.003500 0.082500 0.000000
0.004000 0.082500 0.000000
0.004500 0.082500 0.000000
0.000500 0.081250 0.000000
0.001000 0.081250 0.000000
0.001500 0.081250 0.000000
0.002000 0.081250 0.000000
0.002500 0.081250 0.000000
0.003000 0.081250 0.000000
0.003500 0.081250 0.000000
0.004000 0.081250 0.000000
0.004500 0.081250 0.000000
0.000500 0.080000 0.000000
0.001000 0.080000 0.000000
0.001500 0.080000 0.000000
0.002000 0.080000 0.000000
0.002500 0.080000 0.000000
0.003000 0.080000 0.000000
0.003500 0.080000 0.000000
0.004000 0.080000 0.000000
0.004500 0.080000 0.000000
0.000500 0.078750 0.000000
0.001000 0.078750 0.000000
0.001500 0.078750 0.000000
0.002000 0.078750 0.000000
0.002500 0.078750 0.000000
0.003000 0.078750 0.000000
0.003500 0.078750 0.000000
0.004000 0.078750 0.000000
0.004500 0.078750 0.000000
0.000500 0.077500 0.000000
0.001000 0.077500 0.000000
0.001500 0.077500 0.000000
0.002000 0.077500 0.000000
0.002500 0.077500 0.000000
0.003000 0.077500 0.000000
0.003500 0.077500 0.000000
0.004000 0.077500 0.000000
0.004500 0.077500 0.000000
0.000500 0.076250 0.000000
0.001000 0.076250 0.000000
0.001500 0.076250 0.000000
0.002000 0.076250 0.000000
0.002500 0.076250 0.000000
0.003000 0.076250 0.000000
0.003500 0.076250 0.000000
0.004000 0.076250 0.000000
0.004500 0.076250 0.000000
0.000500 0.075000 0.000000
0.001000 0.075000 0.000000
0.001500 0.075000 0.000000
0.002000 0.075000 0.000000
0.002500 0.075000 0.000000
0.003000 0.075000 0.000000
0.003500 0.075000 0.000000
0.004000 0.075000 0.000000
0.004500 0.075000 0.000000
0.000500 0.073750 0.000000
0.001000 0.073750 0.000000
0.001500 0.073750 0.000000
0.002000 0.073750 0.000000
0.002500 0.073750 0.000000
0.003000 0.073750 0.000000
0.003500 0.073750 0.000000
0.004000 0.073750 0.000000
0.004500 0.073750 0.000000
0.000500 0.072500 0.000000
0.001000 0.072500 0.000000
0.001500 0.072500 0.000000
0.002000 0.072500 0.000000
0.002500 0.072500 0.000000
0.003000 0.072500 0.000000
0.003500 0.072500 0.000000
0.004000 0.072500 0.000000
0.004500 0.072500 0.000000
0.000500 0.071250 0.000000
0.001000 0.071250 0.000000
0.001500 0.071250 0.000000
0.002000 0.071250 0.000000
0.002500 0.071250 0.000000
0.003000 0.071250 0.000000
0.003500 0.071250 0.000000
0.004000 0.071250 0.000000
0.004500 0.071250 0.000000
0.000500 0.070000 0.000000
0.001000 0.070000 0.000000
0.001500 0.070000 0.000000
0.002000 0.070000 0.000000
0.002500 0.070000 0.000000
0.003000 0.070000 0.000000
0.003500 0.070000 0.000000
0.004000 0.070000 0.000000
0.004500 0.070000 0.000000
0.000500 0.068750 0.000000
0.001000 0.068750 0.000000
0.001500 0.068750 0.000000
0.002000 0.068750 0.000000
0.002500 0.068750 0.000000
0.003000 0.068750 0.000000
0.003500 0.068750 0.000000
0.004000 0.068750 0.000000
0.004500 0.068750 0.000000
0.000500 0.067500 0.000000
0.001000 0.067500 0.000000
0.001500 0.067500 0.000000
0.002000 0.067500 0.000000
0.002500 0.067500 0.000000
0.003000 0.067500 0.000000
0.003500 0.067500 0.000000
0.004000 0.067500 0.000000
0.004500 0.067500 0.000000
0.000500 0.066250 0.000000
0.001000 0.066250 0.000000
0.001500 0.066250 0.000000
0.002000 0.066250 0.000000
0.002500 0.066250 0.000000
0.003000 0.066250 0.000000
0.003500 0.066250 0.000000
0.004000 0.066250 0.000000
0.004500 0.066250 0.000000
0.000500 0.065000 0.000000
0.001000 0.065000 0.000000
0.001500 0.065000 0.000000
0.002000 0.065000 0.000000
0.002500 0.065000 0.000000
0.003000 0.065000 0.000000
0.003500 0.065000 0.000000
0.004000 0.065000 0.000000
0.004500 0.065000 0.000000
0.000500 0.063750 0.000000
0.001000 0.063750 0.000000
0.001500 0.063750 0.000000
0.002000 0.063750 0.000000
0.002500 0.063750 0.000000
0.003000 0.063750 0.000000
0.003500 0.063750 0.000000
0.004000 0.063750 0.000000
0.004500 0.063750 0.000000
0.000500 0.062500 0.000000
0.001000 0.062500 0.000000
0.001500 0.062500 0.000000
0.002000 0.062500 0.000000
0.002500 0.062500 0.000000
0.003000 0.062500 0.000000
0.003500 0.062500 0.000000
0.004000 0.062500 0.000000
0.004500 0.062500 0.000000
0.000500 0.061250 0.000000
0.001000 0.061250 0.000000
0.001500 0.061250 0.000000
0.002000 0.061250 0.000000
0.002500 0.061250 0.000000
0.003000 0.061250 0.000000
0.003500 0.061250 0.000000
0.004000 0.061250 0.000000
0.004500 0.061250 0.000000
0.000500 0.060000 0.000000
0.001000 0.060000 0.000000
0.001500 0.060000 0.000000
0.002000 0.060000 0.000000
0.002500 0.060000 0.000000
0.003000 0.060000 0.000000
0.003500 0.060000 0.000000
0.004000 0.060000 0.000000
0.004500 0.060000 0.000000
0.000500 0.058750 0.000000
0.001000 0.058750 0.000000
0.001500 0.058750 0.000000
0.002000 0.058750 0.000000
0.002500 0.058750 0.000000
0.003000 0.058750 0.000000
0.003500 0.058750 0.000000
0.004000 0.058750 0.000000
0.004500 0.058750 0.000000
0.000500 0.057500 0.000000
0.001000 0.057500 0.000000
0.001500 0.057500 0.000000
0.002000 0.057500 0.000000
0.002500 0.057500 0.000000
0.003000 0.057500 0.000000
0.003500 0.057500 0.000000
0.004000 0.057500 0.000000
0.004500 0.057500 0.000000
0.000500 0.056250 0.000000
0.001000 0.056250 0.000000
0.001500 0.056250 0.000000
0.002000 0.056250 0.000000
0.002500 0.056250 0.000000
0.003000 0.056250 0.000000
0.003500 0.056250 0.000000
0.004000 0.056250 0.000000
0.004500 0.056250 0.000000
0.000500 0.055000 0.000000
0.001000 0.055000 0.000000
0.001500 0.055000 0.000000
0.002000 0.055000 0.000000
0.002500 0.055000 0.000000
0.003000 0.055000 0.000000
0.003500 0.055000 0.000000
0.004000 0.055000 0.000000
0.004500 0.055000 0.000000
0.000500 0.053750 0.000000
0.001000 0.053750 0.000000
0.001500 0.053750 0.000000
0.002000 0.053750 0.000000
0.002500 0.053750 0.000000
0.003000 0.053750 0.000000
0.003500 0.053750 0.000000
0.004000 0.053750 0.000000
0.004500 0.053750 0.000000
0.000500 0.052500 0.000000
0.001000 0.052500 0.000000
0.001500 0.052500 0.000000
0.002000 0.052500 0.000000
0.002500 0.052500 0.000000
0.003000 0.052500 0.000000
0.003500 0.052500 0.000000
0.004000 0.052500 0.000000
0.004500 0.052500 0.000000
0.000500 0.051250 0.000000
0.001000 0.051250 0.000000
0.001500 0.051250 0.000000
0.002000 0.051250 0.000000
0.002500 0.051250 0.000000
0.003000 0.051250 0.000000
0.003500 0.051250 0.000000
0.004000 0.051250 0.000000
0.004500 0.051250 0.000000
0.000500 0.050000 0.000000
0.001000 0.050000 0.000000
0.001500 0.050000 0.000000
0.002000 0.050000 0.000000
0.002500 0.050000 0.000000
0.003000 0.050000 0.000000
0.003500 0.050000 0.000000
0.004000 0.050000 0.000000
0.004500 0.050000 0.000000
0.000500 0.048750 0.000000
0.001000 0.048750 0.000000
0.001500 0.048750 0.000000
0.002000 0.048750 0.000000
0.002500 0.048750 0.000000
0.003000 0.048750 0.000000
0.003500 0.048750 0.000000
0.004000 0.048750 0.000000
0.004500 0.048750 0.000000
0.000500 0.047500 0.000000
0.001000 0.047500 0.000000
0.001500 0.047500 0.000000
0.002000 0.047500 0.000000
0.002500 0.047500 0.000000
0.003000 0.047500 0.000000
0.003500 0.047500 0.000000
0.004000 0.047500 0.000000
0.004500 0.047500 0.000000
0.000500 0.046250 0.000000
0.001000 0.046250 0.000000
0.001500 0.046250 0.000000
0.002000 0.046250 0.000000
0.002500 0.046250 0.000000
0.003000 0.046250 0.000000
0.003500 0.046250 0.000000
0.004000 0.046250 0.000000
0.004500 0.046250 0.000000
0.000500 0.045000 0.000000
0.001000 0.045000 0.000000
0.001500 0.045000 0.000000
0.002000 0.045000 0.000000
0.002500 0.045000 0.000000
0.003000 0.045000 0.000000
0.003500 0.045000 0.000000
0.004000 0.045000 0.000000
0.004500 0.045000 0.000000
0.000500 0.043750 0.000000
0.001000 0.043750 0.000000
0.001500 0.043750 0.000000
0.002000 0.043750 0.000000
0.002500 0.043750 0.000000
0.003000 0.043750 0.000000
0.003500 0.043750 0.000000
0.004000 0.043750 0.000000
0.004500 0.043750 0.000000
0.000500 0.042500 0.000000
0.001000 0.042500 0.000000
0.001500 0.042500 0.000000
0.002000 0.042500 0.000000
0.002500 0.042500 0.000000
0.003000 0.042500 0.000000
0.003500 0.042500 0.000000
0.004000 0.042500 0.000000
0.004500 0.042500 0.000000
0.000500 0.041250 0.000000
0.001000 0.041250 0.000000
0.001500 0.041250 0.000000
0.002000 0.041250 0.000000
0.002500 0.041250 0.000000
0.003000 0.041250 0.000000
0.003500 0.041250 0.000000
0.004000 0.041250 0.000000
0.004500 0.041250 0.000000
0.000500 0.040000 0.000000
0.001000 0.040000 0.000000
0.001500 0.040000 0.000000
0.002000 0.040000 0.000000
0.002500 0.040000 0.000000
0.003000 0.040000 0.000000
0.003500 0.040000 0.000000
0.004000 0.040000 0.000000
0.004500 0.040000 0.000000
0.000500 0.038750 0.000000
0.001000 0.038750 0.000000
0.001500 0.038750 0.000000
0.002000 0.038750 0.000000
0.002500 0.038750 0.000000
0.003000 0.038750 0.000000
0.003500 0.038750 0.000000
0.004000 0.038750 0.000000
0.004500 0.038750 0.000000
0.000500 0.037500 0.000000
0.001000 0.037500 0.000000
0.001500 0.037500 0.000000
0.002000 0.037500 0.000000
0.002500 0.037500 0.000000
0.003000 0.037500 0.000000
0.003500 0.037500 0.000000
0.004000 0.037500 0.000000
0.004500 0.037500 0.000000
0.000500 0.036250 0.000000
0.001000 0.036250 0.000000
0.001500 0.036250 0.000000
0.002000 0.036250 0.000000
0.002500 0.036250 0.000000
0.003000 0.036250 0.000000
0.003500 0.036250 0.000000
0.004000 0.036250 0.000000
0.004500 0.036250 0.000000
0.000500 0.035000 0.000000
0.001000 0.035000 0.000000
0.001500 0.035000 0.000000
0.002000 0.035000 0.000000
0.002500 0.035000 0.000000
0.003000 0.035000 0.000000
0.003500 0.035000 0.000000
0.004000 0.035000 0.000000
0.004500 0.035000 0.000000
0.000500 0.033750 0.000000
0.001000 0.033750 0.000000
0.001500 0.033750 0.000000
0.002000 0.033750 0.000000
0.002500 0.033750 0.000000
0.003000 0.033750 0.000000
0.003500 0.033750 0.000000
0.004000 0.033750 0.000000
0.004500 0.033750 0.000000
0.000500 0.032500 0.000000
0.001000 0.032500 0.000000
0.001500 0.032500 0.000000
0.002000 0.032500 0.000000
0.002500 0.032500 0.000000
0.003000 0.032500 0.000000
0.003500 0.032500 0.000000
0.004000 0.032500 0.000000
0.004500 0.032500 0.000000
0.000500 0.031250 0.000000
0.001000 0.031250 0.000000
0.001500 0.031250 0.000000
0.002000 0.031250 0.000000
0.002500 0.031250 0.000000
0.003000 0.031250 0.000000
0.003500 0.031250 0.000000
0.004000 0.031250 0.000000
0.004500 0.031250 0.000000
0.000500 0.030000 0.000000
0.001000 0.030000 0.000000
0.001500 0.030000 0.000000
0.002000 0.030000 0.000000
0.002500 0.030000 0.000000
0.003000 0.030000 0.000000
0.003500 0.030000 0.000000
0.004000 0.030000 0.000000
0.004500 0.030000 0.000000
0.000500 0.028750 0.000000
0.001000 0.028750 0.000000
0.001500 0.028750 0.000000
0.002000 0.028750 0.000000
0.002500 0.028750 0.000000
0.003000 0.028750 0.000000
0.003500 0.028750 0.000000
0.004000 0.028750 0.000000
0.004500 0.028750 0.000000
0.000500 0.027500 0.000000
0.001000 0.027500 0.000000
0.001500 0.027500 0.000000
0.002000 0.027500 0.000000
0.002500 0.027500 0.000000
0.003000 0.027500 0.000000
0.003500 0.027500 0.000000
0.004000 0.027500 0.000000
0.004500 0.027500 0.000000
0.000500 0.026250 0.000000
0.001000 0.026250 0.000000
0.001500 0.026250 0.000000
0.002000 0.026250 0.000000
0.002500 0.026250 0.000000
0.003000 0.026250 0.000000
0.003500 0.026250 0.000000
0.004000 0.026250 0.000000
0.004500 0.026250 0.000000
0.000500 0.025000 0.000000
0.001000 0.025000 0.000000
0.001500 0.025000 0.000000
0.002000 0.025000 0.000000
0.002500 0.025000 0.000000
0.003000 0.025000 0.000000
0.003500 0.025000 0.000000
0.004000 0.025000 0.000000
0.004500 0.025000 0.000000
0.000500 0.023750 0.000000
0.001000 0.023750 0.000000
0.001500 0.023750 0.000000
0.002000 0.023750 0.000000
0.002500 0.023750 0.000000
0.003000 0.023750 0.000000
0.003500 0.023750 0.000000
0.004000 0.023750 0.000000
0.004500 0.023750 0.000000
0.000500 0.022500 0.000000
0.001000 0.022500 0.000000
0.001500 0.022500 0.000000
0.002000 0.022500 0.000000
0.002500 0.022500 0.000000
0.003000 0.022500 0.000000
0.003500 0.022500 0.000000
0.004000 0.022500 0.000000
0.004500 0.022500 0.000000
0.000500 0.021250 0.000000
0.001000 0.021250 0.000000
0.001500 0.021250 0.000000
0.002000 0.021250 0.000000
0.002500 0.021250 0.000000
0.003000 0.021250 0.000000
0.003500 0.021250 0.000000
0.004000 0.021250 0.000000
0.004500 0.021250 0.000000
0.000500 0.020000 0.000000
0.001000 0.020000 0.000000
0.001500 0.020000 0.000000
0.002000 0.020000 0.000000
0.002500 0.020000 0.000000
0.003000 0.020000 0.000000
0.003500 0.020000 0.000000
0.004000 0.020000 0.000000
0.004500 0.020000 0.000000
0.000500 0.018750 0.000000
0.001000 0.018750 0.000000
0.001500 0.018750 0.000000
0.002000 0.018750 0.000000
0.002500 0.018750 0.000000
0.003000 0.018750 0.000000
0.003500 0.018750 0.000000
0.004000 0.018750 0.000000
0.004500 0.018750 0.000000
0.000500 0.017500 0.000000
0.001000 0.017500 0.000000
0.001500 0.017500 0.000000
0.002000 0.017500 0.000000
0.002500 0.017500 0.000000
0.003000 0.017500 0.000000
0.003500 0.017500 0.000000
0.004000 0.017500 0.000000
0.004500 0.017500 0.000000
0.000500 0.016250 0.000000
0.001000 0.016250 0.000000
0.001500 0.016250 0.000000
0.002000 0.016250 0.000000
0.002500 0.016250 0.000000
0.003000 0.016250 0.000000
0.003500 0.016250 0.000000
0.004000 0.016250 0.000000
0.004500 0.016250 0.000000
0.000500 0.015000 0.000000
0.001000 0.015000 0.000000
0.001500 0.015000 0.000000
0.002000 0.015000 0.000000
0.002500 0.015000 0.000000
0.003000 0.015000 0.000000
0.003500 0.015000 0.000000
0.004000 0.015000 0.000000
0.004500 0.015000 0.000000
0.000500 0.013750 0.000000
0.001000 0.013750 0.000000
0.001500 0.013750 0.000000
0.002000 0.013750 0.000000
0.002500 0.013750 0.000000
0.003000 0.013750 0.000000
0.003500 0.013750 0.000000
0.004000 0.013750 0.000000
0.004500 0.013750 0.000000
0.000500 0.012500 0.000000
0.001000 0.012500 0.000000
0.001500 0.012500 0.000000
0.002000 0.012500 0.000000
0.002500 0.012500 0.000000
0.003000 0.012500 0.000000
0.003500 0.012500 0.000000
0.004000 0.012500 0.000000
0.004500 0.012500 0.000000
0.000500 0.011250 0.000000
0.001000 0.011250 0.000000
0.001500 0.011250 0.000000
0.002000 0.011250 0.000000
0.002500 0.011250 0.000000
0.003000 0.011250 0.000000
0.003500 0.011250 0.000000
0.004000 0.011250 0.000000
0.004500 0.011250 0.000000
0.000500 0.010000 0.000000
0.001000 0.010000 0.000000
0.001500 0.010000 0.000000
0.002000 0.010000 0.000000
0.002500 0.010000 0.000000
0.003000 0.010000 0.000000
0.003500 0.010000 0.000000
0.004000 0.010000 0.000000
0.004500 0.010000 0.000000
0.000500 0.008750 0.000000
0.001000 0.008750 0.000000
0.001500 0.008750 0.000000
0.002000 0.008750 0.000000
0.002500 0.008750 0.000000
0.003000 0.008750 0.000000
0.003500 0.008750 0.000000
0.004000 0.008750 0.000000
0.004500 0.008750 0.000000
0.000500 0.007500 0.000000
0.001000 0.007500 0.000000
0.001500 0.007500 0.000000
0.002000 0.007500 0.000000
0.002500 0.007500 0.000000
0.003000 0.007500 0.000000
0.003500 0.007500 0.000000
0.004000 0.007500 0.000000
0.004500 0.007500 0.000000
0.000500 0.006250 0.000000
0.001000 0.006250 0.000000
0.001500 0.006250 0.000000
0.002000 0.006250 0.000000
0.002500 0.006250 0.000000
0.003000 0.006250 0.000000
0.003500 0.006250 0.000000
0.004000 0.006250 0.000000
0.004500 0.006250 0.000000
0.000500 0.005000 0.000000
0.001000 0.005000 0.000000
0.001500 0.005000 0.000000
0.002000 0.005000 0.000000
0.002500 0.005000 0.000000
0.003000 0.005000 0.000000
0.003500 0.005000 0.000000
0.004000 0.005000 0.000000
0.004500 0.005000 0.000000
0.000500 0.003750 0.000000
0.001000 0.003750 0.000000
0.001500 0.003750 0.000000
0.002000 0.003750 0.000000
0.002500 0.003750 0.000000
0.003000 0.003750 0.000000
0.003500 0.003750 0.000000
0.004000 0.003750 0.000000
0.004500 0.003750 0.000000
0.000500 0.002500 0.000000
0.001000 0.002500 0.000000
0.001500 0.002500 0.000000
0.002000 0.002500 0.000000
0.002500 0.002500 0.000000
0.003000 0.002500 0.000000
0.003500 0.002500 0.000000
0.004000 0.002500 0.000000
0.004500 0.002500 0.000000
0.000500 0.001250 0.000000
0.001000 0.001250 0.000000
0.001500 0.001250 0.000000
0.002000 0.001250 0.000000
0.002500 0.001250 0.000000
0.003000 0.001250 0.000000
0.003500 0.001250 0.000000
0.004000 0.001250 0.000000
0.004500 0.001250 0.000000
CELLS 800 4000
4 82 83 180 179
4 179 180 181 178
4 178 181 182 177
4 177 182 183 176
4 176 183 184 175
4 175 184 185 174
4 174 185 186 173
4 173 186 187 172
4 172 187 188 171
4 171 188 80 0
4 83 84 189 180
4 180 189 190 181
4 181 190 191 182
4 182 191 192 183
4 183 192 193 184
4 184 193 194 185
4 185 194 195 186
4 186 195 196 187
4 187 196 197 188
4 188 197 79 80
4 84 85 198 189
4 189 198 199 190
4 190 199 200 191
4 191 200 201 192
4 192 201 202 193
4 193 202 203 194
4 194 203 204 195
4 195 204 205 196
4 196 205 206 197
4 197 206 78 79
4 85 86 207 198
4 198 207 208 199
4 199 208 209 200
4 200 209 210 201
4 201 210 211 202
4 202 211 212 203
4 203 212 213 204
4 204 213 214 205
4 205 214 215 206
4 206 215 77 78
4 86 87 216 207
4 207 216 217 208
4 208 217 218 209
4 209 218 219 210
4 210 219 220 211
4 211 220 221 212
4 212 221 222 213
4 213 222 223 214
4 214 223 224 215
4 215 224 76 77
4 87 88 225 216
4 216 225 226 217
4 217 226 227 218
4 218 227 228 219
4 219 228 229 220
4 220 229 230 221
4 221 230 231 222
4 222 231 232 223
4 223 232 233 224
4 224 233 75 76
4 88 89 234 225
4 225 234 235 226
4 226 235 236 227
4 227 236 237 228
4 228 237 238 229
4 229 238 239 230
4 230 239 240 231
4 231 240 241 232
4 232 241 242 233
4 233 242 74 75
4 89 90 243 234
4 234 243 244 235
4 235 244 245 236
4 236 245 246 237
4 237 246 247 238
4 238 247 248 239
4 239 248 249 240
4 240 249 250 241
4 241 250 251 242
4 242 251 73 74
4 90 91 252 243
4 243 252 253 244
4 244 253 254 245
4 245 254 255 246
4 246 255 256 247
4 247 256 257 248
4 248 257 258 249
4 249 258 259 250
4 250 259 260 251
4 251 260 72 73
4 91 92 261 252
4 252 261 262 253
4 253 262 263 254
4 254 263 264 255
4 255 264 265 256
4 256 265 266 257
4 257 266 267 258
4 258 267 268 259
4 259 268 269 260
4 260 269 71 72
4 92 93 270 261
4 261 270 271 262
4 262 271 272 263
4 263 272 273 264
4 264 273 274 265
4 265 274 275 266
4 266 275 276 267
4 267 276 277 268
4 268 277 278 269
4 269 278 70 71
4 93 94 279 270
4 270 279 280 271
4 271 280 281 272
4 272 281 282 273
4 273 282 283 274
4 274 283 284 275
4 275 284 285 276
4 276 285 286 277
4 277 286 287 278
4 278 287 69 70
4 94 95 288 279
4 279 288 289 280
4 280 289 290 281
4 281 290 291 282
4 282 291 292 283
4 283 292 293 284
4 284 293 294 285
4 285 294 295 286
4 286 295 296 287
4 287 296 68 69
4 95 96 297 288
4 288 297 298 289
4 289 298 299 290
4 290 299 300 291
4 291 300 301 292
4 292 301 302 293
4 293 302 303 294
4 294 303 304 295
4 295 304 305 296
4 296 305 67 68
4 96 97 306 297
4 297 306 307 298
4 298 307 308 299
4 299 308 309 300
4 300 309 310 301
4 301 310 311 302
4 302 311 312 303
4 303 312 313 304
4 304 313 314 305
4 305 314 66 67
4 97 98 315 306
4 306 315 316 307
4 307 316 317 308
4 308 317 318 309
4 309 318 319 310
4 310 319 320 311
4 311 320 321 312
4 312 321 322 313
4 313 322 323 314
4 314 323 65 66
4 98 99 324 315
4 315 324 325 316
4 316 325 326 317
4 317 326 327 318
4 318 327 328 319
4 319 328 329 320
4 320 329 330 321
4 321 330 331 322
4 322 331 332 323
4 323 332 64 65
4 99 100 333 324
4 324 333 334 325
4 325 334 335 326
4 326 335 336 327
4 327 336 337 328
4 328 337 338 329
4 329 338 339 330
4 330 339 340 331
4 331 340 341 332
4 332 341 63 64
4 100 101 342 333
4 333 342 343 334
4 334 343 344 335
4 335 344 345 336
4 336 345 346 337
4 337 346 347 338
4 338 347 348 339
4 339 348 349 340
4 340 349 350 341
4 341 350 62 63
4 101 102 351 342
4 342 351 352 343
4 343 352 353 344
4 344 353 354 345
4 345 354 355 346
4 346 355 356 347
4 347 356 357 348
4 348 357 358 349
4 349 358 359 350
4 350 359 61 62
4 102 103 360 351
4 351 360 361 352
4 352 361 362 353
4 353 362 363 354
4 354 363 364 355
4 355 364 365 356
4 356 365 366 357
4 357 366 367 358
4 358 367 368 359
4 359 368 60 61
4 103 104 369 360
4 360 369 370 361
4 361 370 371 362
4 362 371 372 363
4 363 372 373 364
4 364 373 374 365
4 365 374 375 366
4 366 375 376 367
4 367 376 377 368
4 368 377 59 60
4 104 105 378 369
4 369 378 379 370
4 370 379 380 371
4 371 380 381 372
4 372 381 382 373
4 373 382 383 374
4 374 383 384 375
4 375 384 385 376
4 376 385 386 377
4 377 386 58 59
4 105 106 387 378
4 378 387 388 379
4 379 388 389 380
4 380 389 390 381
4 381 390 391 382
4 382 391 392 383
4 383 392 393 384
4 384 393 394 385
4 385 394 395 386
4 386 395 57 58
4 106 107 396 387
4 387 396 397 388
4 388 397 398 389
4 389 398 399 390
4 390 399 400 391
4 391 400 401 392
4 392 401 402 393
4 393 402 403 394
4 394 403 404 395
4 395 404 56 57
4 107 108 405 396
4 396 405 406 397
4 397 406 407 398
4 398 407 408 399
4 399 408 409 400
4 400 409 410 401
4 401 410 411 402
4 402 411 412 403
4 403 412 413 404
4 404 413 55 56
4 108 109 414 405
4 405 414 415 406
4 406 415 416 407
4 407 416 417 408
4 408 417 418 409
4 409 418 419 410
4 410 419 420 411
4 411 420 421 412
4 412 421 422 413
4 413 422 54 55
4 109 110 423 414
4 414 423 424 415
4 415 424 425 416
4 416 425 426 417
4 417 426 427 418
4 418 427 428 419
4 419 428 429 420
4 420 429 430 421
4 421 430 431 422
4 422 431 53 54
4 110 111 432 423
4 423 432 433 424
4 424 433 434 425
4 425 434 435 426
4 426 435 436 427
4 427 436 437 428
4 428 437 438 429
4 429 438 439 430
4 430 439 440 431
4 431 440 52 53
4 111 112 441 432
4 432 441 442 433
4 433 442 443 434
4 434 443 444 435
4 435 444 445 436
4 436 445 446 437
4 437 446 447 438
4 438 447 448 439
4 439 448 449 440
4 440 449 51 52
4 112 113 450 441
4 441 450 451 442
4 442 451 452 443
4 443 452 453 444
4 444 453 454 445
4 445 454 455 446
4 446 455 456 447
4 447 456 457 448
4 448 457 458 449
4 449 458 50 51
4 113 114 459 450
4 450 459 460 451
4 451 460 461 452
4 452 461 462 453
4 453 462 463 454
4 454 463 464 455
4 455 464 465 456
4 456 465 466 457
4 457 466 467 458
4 458 467 49 50
4 114 115 468 459
4 459 468 469 460
4 460 469 470 461
4 461 470 471 462
4 462 471 472 463
4 463 472 473 464
4 464 473 474 465
4 465 474 475 466
4 466 475 476 467
4 467 476 48 49
4 115 116 477 468
4 468 477 478 469
4 469 478 479 470
4 470 479 480 471
4 471 480 481 472
4 472 481 482 473
4 473 482 483 474
4 474 483 484 475
4 475 484 485 476
4 476 485 47 48
4 116 117 486 477
4 477 486 487 478
4 478 487 488 479
4 479 488 489 480
4 480 489 490 481
4 481 490 491 482
4 482 491 492 483
4 483 492 493 484
4 484 493 494 485
4 485 494 46 47
4 117 118 495 486
4 486 495 496 487
4 487 496 497 488
4 488 497 498 489
4 489 498 499 490
4 490 499 500 491
4 491 500 501 492
4 492 501 502 493
4 493 502 503 494
4 494 503 45 46
4 118 119 504 495
4 495 504 505 496
4 496 505 506 497
4 497 506 507 498
4 498 507 508 499
4 499 508 509 500
4 500 509 510 501
4 501 510 511 502
4 502 511 512 503
4 503 512 44 45
4 119 120 513 504
4 504 513 514 505
4 505 514 515 506
4 506 515 516 507
4 507 516 517 508
4 508 517 518 509
4 509 518 519 510
4 510 519 520 511
4 511 520 521 512
4 512 521 43 44
4 120 121 522 513
4 513 522 523 514
4 514 523 524 515
4 515 524 525 516
4 516 525 526 517
4 517 526 527 518
4 518 527 528 519
4 519 528 529 520
4 520 529 530 521
4 521 530 42 43
4 121 122 531 522
4 522 531 532 523
4 523 532 533 524
4 524 533 534 525
4 525 534 535 526
4 526 535 536 527
4 527 536 537 528
4 528 537 538 529
4 529 538 539 530
4 530 539 41 42
4 122 123 540 531
4 531 540 541 532
4 532 541 542 533
4 533 542 543 534
4 534 543 544 535
4 535 544 545 536
4 536 545 546 537
4 537 546 547 538
4 538 547 548 539
4 539 548 40 41
4 123 124 549 540
4 540 549 550 541
4 541 550 551 542
4 542 551 552 543
4 543 552 553 544
4 544 553 554 545
4 545 554 555 546
4 546 555 556 547
4 547 556 557 548
4 548 557 39 40
4 124 125 558 549
4 549 558 559 550
4 550 559 560 551
4 551 560 561 552
4 552 561 562 553
4 553 562 563 554
4 554 563 564 555
4 555 564 565 556
4 556 565 566 557
4 557 566 38 39
4 125 126 567 558
4 558 567 568 559
4 559 568 569 560
4 560 569 570 561
4 561 570 571 562
4 562 571 572 563
4 563 572 573 564
4 564 573 574 565
4 565 574 575 566
4 566 575 37 38
4 126 127 576 567
4 567 576 577 568
4 568 577 578 569
4 569 578 579 570
4 570 579 580 571
4 571 580 581 572
4 572 581 582 573
4 573 582 583 574
4 574 583 584 575
4 575 584 36 37
4 127 128 585 576
4 576 585 586 577
4 577 586 587 578
4 578 587 588 579
4 579 588 589 580
4 580 589 590 581
4 581 590 591 582
4 582 591 592 583
4 583 592 593 584
4 584 593 35 36
4 128 129 594 585
4 585 594 595 586
4 586 595 596 587
4 587 596 597 588
4 588 597 598 589
4 589 598 599 590
4 590 599 600 591
4 591 600 601 592
4 592 601 602 593
4 593 602 34 35
4 129 130 603 594
4 594 603 604 595
4 595 604 605 596
4 596 605 606 597
4 597 606 607 598
4 598 607 608 599
4 599 608 609 600
4 600 609 610 601
4 601 610 611 602
4 602 611 33 34
4 130 131 612 603
4 603 612 613 604
4 604 613 614 605
4 605 614 615 606
4 606 615 616 607
4 607 616 617 608
4 608 617 618 609
4 609 618 619 610
4 610 619 620 611
4 611 620 32 33
4 131 132 621 612
4 612 621 622 613
4 613 622 623 614
4 614 623 624 615
4 615 624 625 616
4 616 625 626 617
4 617 626 627 618
4 618 627 628 619
4 619 628 629 620
4 620 629 31 32
4 132 133 630 621
4 621 630 631 622
4 622 631 632 623
4 623 632 633 624
4 624 633 634 625
4 625 634 635 626
4 626 635 636 627
4 627 636 637 628
4 628 637 638 629
4 629 638 30 31
4 133 134 639 630
4 630 639 640 631
4 631 640 641 632
4 632 641 642 633
4 633 642 643 634
4 634 643 644 635
4 635 644 645 636
4 636 645 646 637
4 637 646 647 638
4 638 647 29 30
4 134 135 648 639
4 639 648 649 640
4 640 649 650 641
4 641 650 651 642
4 642 651 652 643
4 643 652 653 644
4 644 653 654 645
4 645 654 655 646
4 646 655 656 647
4 647 656 28 29
4 135 136 657 648
4 648 657 658 649
4 649 658 659 650
4 650 659 660 651
4 651 660 661 652
4 652 661 662 653
4 653 662 663 654
4 654 663 664 655
4 655 664 665 656
4 656 665 27 28
4 136 137 666 657
4 657 666 667 658
4 658 667 668 659
4 659 668 669 660
4 660 669 670 661
4 661 670 671 662
4 662 671 672 663
4 663 672 673 664
4 664 673 674 665
4 665 674 26 27
4 137 138 675 666
4 666 675 676 667
4 667 676 677 668
4 668 677 678 669
4 669 678 679 670
4 670 679 680 671
4 671 680 681 672
4 672 681 682 673
4 673 682 683 674
4 674 683 25 26
4 138 139 684 675
4 675 684 685 676
4 676 685 686 677
4 677 686 687 678
4 678 687 688 679
4 679 688 689 680
4 680 689 690 681
4 681 690 691 682
4 682 691 692 683
4 683 692 24 25
4 139 140 693 684
4 684 693 694 685
4 685 694 695 686
4 686 695 696 687
4 687 696 697 688
4 688 697 698 689
4 689 698 699 690
4 690 699 700 691
4 691 700 701 692
4 692 701 23 24
4 140 141 702 693
4 693 702 703 694
4 694 703 704 695
4 695 704 705 696
4 696 705 706 697
4 697 706 707 698
4 698 707 708 699
4 699 708 709 700
4 700 709 710 701
4 701 710 22 23
4 141 142 711 702
4 702 711 712 703
4 703 712 713 704
4 704 713 714 705
4 705 714 715 706
4 706 715 716 707
4 707 716 717 708
4 708 717 718 709
4 709 718 719 710
4 710 719 21 22
4 142 143 720 711
4 711 720 721 712
4 712 721 722 713
4 713 722 723 714
4 714 723 724 715
4 715 724 725 716
4 716 725 726 717
4 717 726 727 718
4 718 727 728 719
4 719 728 20 21
4 143 144 729 720
4 720 729 730 721
4 721 730 731 722
4 722 731 732 723
4 723 732 733 724
4 724 733 734 725
4 725 734 735 726
4 726 735 736 727
4 727 736 737 728
4 728 737 19 20
4 144 145 738 729
4 729 738 739 730
4 730 739 740 731
4 731 740 741 732
4 732 741 742 733
4 733 742 743 734
4 734 743 744 735
4 735 744 745 736
4 736 745 746 737
4 737 746 18 19
4 145 146 747 738
4 738 747 748 739
4 739 748 749 740
4 740 749 750 741
4 741 750 751 742
4 742 751 752 743
4 743 752 753 744
4 744 753 754 745
4 745 754 755 746
4 746 755 17 18
4 146 147 756 747
4 747 756 757 748
4 748 757 758 749
4 749 758 759 750
4 750 759 760 751
4 751 760 761 752
4 752 761 762 753
4 753 762 763 754
4 754 763 764 755
4 755 764 16 17
4 147 148 765 756
4 756 765 766 757
4 757 766 767 758
4 758 767 768 759
4 759 768 769 760
4 760 769 770 761
4 761 770 771 762
4 762 771 772 763
4 763 772 773 764
4 764 773 15 16
4 148 149 774 765
4 765 774 775 766
4 766 775 776 767
4 767 776 777 768
4 768 777 778 769
4 769 778 779 770
4 770 779 780 771
4 771 780 781 772
4 772 781 782 773
4 773 782 14 15
4 149 150 783 774
4 774 783 784 775
4 775 784 785 776
4 776 785 786 777
4 777 786 787 778
4 778 787 788 779
4 779 788 789 780
4 780 789 790 781
4 781 790 791 782
4 782 791 13 14
4 150 151 792 783
4 783 792 793 784
4 784 793 794 785
4 785 794 795 786
4 786 795 796 787
4 787 796 797 788
4 788 797 798 789
4 789 798 799 790
4 790 799 800 791
4 791 800 12 13
4 151 152 801 792
4 792 801 802 793
4 793 802 803 794
4 794 803 804 795
4 795 804 805 796
4 796 805 806 797
4 797 806 807 798
4 798 807 808 799
4 799 808 809 800
4 800 809 11 12
4 152 153 810 801
4 801 810 811 802
4 802 811 812 803
4 803 812 813 804
4 804 813 814 805
4 805 814 815 806
4 806 815 816 807
4 807 816 817 808
4 808 817 818 809
4 809 818 10 11
4 153 154 819 810
4 810 819 820 811
4 811 820 821 812
4 812 821 822 813
4 813 822 823 814
4 814 823 824 815
4 815 824 825 816
4 816 825 826 817
4 817 826 827 818
4 818 827 9 10
4 154 155 828 819
4 819 828 829 820
4 820 829 830 821
4 821 830 831 822
4 822 831 832 823
4 823 832 833 824
4 824 833 834 825
4 825 834 835 826
4 826 835 836 827
4 827 836 8 9
4 155 156 837 828
4 828 837 838 829
4 829 838 839 830
4 830 839 840 831
4 831 840 841 832
4 832 841 842 833
4 833 842 843 834
4 834 843 844 835
4 835 844 845 836
4 836 845 7 8
4 156 157 846 837
4 837 846 847 838
4 838 847 848 839
4 839 848 849 840
4 840 849 850 841
4 841 850 851 842
4 842 851 852 843
4 843 852 853 844
4 844 853 854 845
4 845 854 6 7
4 157 158 855 846
4 846 855 856 847
4 847 856 857 848
4 848 857 858 849
4 849 858 859 850
4 850 859 860 851
4 851 860 861 852
4 852 861 862 853
4 853 862 863 854
4 854 863 5 6
4 158 159 864 855
4 855 864 865 856
4 856 865 866 857
4 857 866 867 858
4 858 867 868 859
4 859 868 869 860
4 860 869 870 861
4 861 870 871 862
4 862 871 872 863
4 863 872 4 5
4 159 160 873 864
4 864 873 874 865
4 865 874 875 866
4 866 875 876 867
4 867 876 877 868
4 868 877 878 869
4 869 878 879 870
4 870 879 880 871
4 871 880 881 872
4 872 881 3 4
4 160 161 882 873
4 873 882 883 874
4 874 883 884 875
4 875 884 885 876
4 876 885 886 877
4 877 886 887 878
4 878 887 888 879
4 879 888 889 880
4 880 889 890 881
4 881 890 2 3
4 161 81 162 882
4 882 162 163 883
4 883 163 164 884
4 884 164 165 885
4 885 165 166 886
4 886 166 167 887
4 887 167 168 888
4 888 168 169 889
4 889 169 170 890
4 890 170 1 2
CELL_TYPES 800
9
9
9
9
9
9
9
9
9
9
9
9
9
9
9
9
9
9
9
9
9
9
9
9
9
9
9
9
9
9
9
9
9
9
9
9
9
9
9
9
9
9
9
9
9
9
9
9
9
9
9
9
9
9
9
9
9
9
9
9
9
9
9
9
9
9
9
9
9
9
9
9
9
9
9
9
9
9
9
9
9
9
9
9
9
9
9
9
9
9
9
9
9
9
9
9
9
9
9
9
9
9
9
9
9
9
9
9
9
9
9
9
9
9
9
9
9
9
9
9
9
9
9
9
9
9
9
9
9
9
9
9
9
9
9
9
9
9
9
9
9
9
9
9
9
9
9
9
9
9
9
9
9
9
9
9
9
9
9
9
9
9
9
9
9
9
9
9
9
9
9
9
9
9
9
9
9
9
9
9
9
9
9
9
9
9
9
9
9
9
9
9
9
9
9
9
9
9
9
9
9
9
9
9
9
9
9
9
9
9
9
9
9
9
9
9
9
9
9
9
9
9
9
9
9
9
9
9
9
9
9
9
9
9
9
9
9
9
9
9
9
9
9
9
9
9
9
9
9
9
9
9
9
9
9
9
9
9
9
9
9
9
9
9
9
9
9
9
9
9
9
9
9
9
9
9
9
9
9
9
9
9
9
9
9
9
9
9
9
9
9
9
9
9
9
9
9
9
9
9
9
9
9
9
9
9
9
9
9
9
9
9
9
9
9
9
9
9
9
9
9
9
9
9
9
9
9
9
9
9
9
9
9
9
9
9
9
9
9
9
9
9
9
9
9
9
9
9
9
9
9
9
9
9
9
9
9
9
9
9
9
9
9
9
9
9
9
9
9
9
9
9
9
9
9
9
9
9
9
9
9
9
9
9
9
9
9
9
9
9
9
9
9
9
9
9
9
9
9
9
9
9
9
9
9
9
9
9
9
9
9
9
9
9
9
9
9
9
9
9
9
9
9
9
9
9
9
9
9
9
9
9
9
9
9
9
9
9
9
9
9
9
9
9
9
9
9
9
9
9
9
9
9
9
9
9
9
9
9
9
9
9
9
9
9
9
9
9
9
9
9
9
9
9
9
9
9
9
9
9
9
9
9
9
9
9
9
9
9
9
9
9
9
9
9
9
9
9
9
9
9
9
9
9
9
9
9
9
9
9
9
9
9
9
9
9
9
9
9
9
9
9
9
9
9
9
9
9
9
9
9
9
9
9
9
9
9
9
9
9
9
9
9
9
9
9
9
9
9
9
9
9
9
9
9
9
9
9
9
9
9
9
9
9
9
9
9
9
9
9
9
9
9
9
9
9
9
9
9
9
9
9
9
9
9
9
9
9
9
9
9
9
9
9
9
9
9
9
9
9
9
9
9
9
9
9
9
9
9
9
9
9
9
9
9
9
9
9
9
9
9
9
9
9
9
9
9
9
9
9
9
9
9
9
9
9
9
9
9
9
9
9
9
9
9
9
9
9
9
9
9
9
9
9
9
9
9
9
9
9
9
9
9
9
9
9
9
9
9
9
9
9
9
9
9
9
9
9
9
9
9
9
9
9
9
9
9
9
9
9
9
9
9
9
9
9
9
9
9
9
9
9
9
9
9
9
9
9
9
9
9
9
9
9
9
9
9
9
9
9
9
9
9
9
9
9
9
9
9
9
9
9
9
9
9
9
9
9
9
9
9
9
9
9
9
9
9
9
9
9
9
9
9
9
9
9
9
9
9
9
9
9
9
9
9
9
9
9
9
9
9
9
9
9
9
9
9
9
9
9
9
9
9
9
9
9
9
9
9
9
9
9
9
9
9
9
9
9
9
9
POINT_DATA 891
SCALARS u1 float
LOOKUP_TABLE default
4e-16
-2e-06
-2e-06
-2e-06
-2e-06
-2e-06
-2e-06
-2e-06
-2e-06
-2e-06
-2e-06
-2e-06
-2e-06
-2e-06
-2e-06
-2e-06
-2e-06
-2e-06
-2e-06
-2e-06
-2e-06
-2e-06
-2e-06
-2e-06
-2e-06
-2e-06
-2e-06
-2e-06
-2e-06
-2e-06
-2e-06
-2e-06
-2e-06
-2e-06
-2e-06
-2e-06
-2e-06
-2e-06
-2e-06
-2e-06
-2e-06
-2e-06
-2e-06
-2e-06
-2e-06
-2e-06
-2e-06
-2e-06
-2e-06
-2e-06
-2e-06
-2e-06
-2e-06
-2e-06
-2e-06
-2e-06
-2e-06
-2e-06
-2e-06
-2e-06
-2e-06
-2e-06
-2e-06
-2e-06
-2e-06
-2e-06
-2e-06
-2e-06
-2e-06
-2e-06
-2e-06
-2e-06
-2e-06
-2e-06
-2e-06
-2e-06
-2e-06
-2e-06
-2e-06
-2e-06
-1e-06
2e-06
-9e-17
1e-06
2e-06
2e-06
2e-06
2e-06
2e-06
2e-06
2e-06
2e-06
2e-06
2e-06
2e-06
2e-06
2e-06
2e-06
2e-06
2e-06
2e-06
2e-06
2e-06
2e-06
2e-06
2e-06
2e-06
2e-06
2e-06
2e-06
2e-06
2e-06
2e-06
2e-06
2e-06
2e-06
2e-06
2e-06
2e-06
2e-06
2e-06
2e-06
2e-06
2e-06
2e-06
2e-06
2e-06
2e-06
2e-06
2e-06
2e-06
2e-06
2e-06
2e-06
2e-06
2e-06
2e-06
2e-06
2e-06
2e-06
2e-06
2e-06
2e-06
2e-06
2e-06
2e-06
2e-06
2e-06
2e-06
2e-06
2e-06
2e-06
2e-06
2e-06
2e-06
2e-06
2e-06
2e-06
2e-06
2e-06
2e-06
2e-06
2e-06
1e-06
8e-07
4e-07
-7e-16
-4e-07
-8e-07
-1e-06
-2e-06
-4e-16
-4e-17
-7e-16
-4e-16
-5e-16
-3e-16
2e-16
5e-16
-3e-16
1e-06
7e-07
5e-07
2e-07
2e-14
-2e-07
-5e-07
-7e-07
-1e-06
2e-06
1e-06
7e-07
4e-07
2e-14
-4e-07
-7e-07
-1e-06
-2e-06
2e-06
1e-06
8e-07
4e-07
3e-14
-4e-07
-8e-07
-1e-06
-2e-06
2e-06
1e-06
8e-07
4e-07
3e-14
-4e-07
-8e-07
-1e-06
-2e-06
2e-06
1e-06
8e-07
4e-07
3e-14
-4e-07
-8e-07
-1e-06
-2e-06
2e-06
1e-06
8e-07
4e-07
3e-14
-4e-07
-8e-07
-1e-06
-2e-06
2e-06
1e-06
8e-07
4e-07
3e-14
-4e-07
-8e-07
-1e-06
-2e-06
2e-06
1e-06
8e-07
4e-07
2e-14
-4e-07
-8e-07
-1e-06
-2e-06
2e-06
1e-06
8e-07
4e-07
2e-14
-4e-07
-8e-07
-1e-06
-2e-06
2e-06
1e-06
8e-07
4e-07
2e-14
-4e-07
-8e-07
-1e-06
-2e-06
2e-06
1e-06
8e-07
4e-07
2e-14
-4e-07
-8e-07
-1e-06
-2e-06
2e-06
1e-06
8e-07
4e-07
1e-14
-4e-07
-8e-07
-1e-06
-2e-06
2e-06
1e-06
8e-07
4e-07
1e-14
-4e-07
-8e-07
-1e-06
-2e-06
2e-06
1e-06
8e-07
4e-07
8e-15
-4e-07
-8e-07
-1e-06
-2e-06
2e-06
1e-06
8e-07
4e-07
6e-15
-4e-07
-8e-07
-1e-06
-2e-06
2e-06
1e-06
8e-07
4e-07
5e-15
-4e-07
-8e-07
-1e-06
-2e-06
2e-06
1e-06
8e-07
4e-07
3e-15
-4e-07
-8e-07
-1e-06
-2e-06
2e-06
1e-06
8e-07
4e-07
2e-15
-4e-07
-8e-07
-1e-06
-2e-06
2e-06
1e-06
8e-07
4e-07
1e-15
-4e-07
-8e-07
-1e-06
-2e-06
2e-06
1e-06
8e-07
4e-07
7e-16
-4e-07
-8e-07
-1e-06
-2e-06
2e-06
1e-06
8e-07
4e-07
2e-16
-4e-07
-8e-07
-1e-06
-2e-06
2e-06
1e-06
8e-07
4e-07
-1e-16
-4e-07
-8e-07
-1e-06
-2e-06
2e-06
1e-06
8e-07
4e-07
-4e-16
-4e-07
-8e-07
-1e-06
-2e-06
2e-06
1e-06
8e-07
4e-07
-6e-16
-4e-07
-8e-07
-1e-06
-2e-06
2e-06
1e-06
8e-07
4e-07
-7e-16
-4e-07
-8e-07
-1e-06
-2e-06
2e-06
1e-06
8e-07
4e-07
-8e-16
-4e-07
-8e-07
-1e-06
-2e-06
2e-06
1e-06
8e-07
4e-07
-8e-16
-4e-07
-8e-07
-1e-06
-2e-06
2e-06
1e-06
8e-07
4e-07
-9e-16
-4e-07
-8e-07
-1e-06
-2e-06
2e-06
1e-06
8e-07
4e-07
-9e-16
-4e-07
-8e-07
-1e-06
-2e-06
2e-06
1e-06
8e-07
4e-07
-9e-16
-4e-07
-8e-07
-1e-06
-2e-06
2e-06
1e-06
8e-07
4e-07
-8e-16
-4e-07
-8e-07
-1e-06
-2e-06
2e-06
1e-06
8e-07
4e-07
-8e-16
-4e-07
-8e-07
-1e-06
-2e-06
2e-06
1e-06
8e-07
4e-07
-8e-16
-4e-07
-8e-07
-1e-06
-2e-06
2e-06
1e-06
8e-07
4e-07
-8e-16
-4e-07
-8e-07
-1e-06
-2e-06
2e-06
1e-06
8e-07
4e-07
-8e-16
-4e-07
-8e-07
-1e-06
-2e-06
2e-06
1e-06
8e-07
4e-07
-7e-16
-4e-07
-8e-07
-1e-06
-2e-06
2e-06
1e-06
8e-07
4e-07
-7e-16
-4e-07
-8e-07
-1e-06
-2e-06
2e-06
1e-06
8e-07
4e-07
-7e-16
-4e-07
-8e-07
-1e-06
-2e-06
2e-06
1e-06
8e-07
4e-07
-7e-16
-4e-07
-8e-07
-1e-06
-2e-06
2e-06
1e-06
8e-07
4e-07
-7e-16
-4e-07
-8e-07
-1e-06
-2e-06
2e-06
1e-06
8e-07
4e-07
-7e-16
-4e-07
-8e-07
-1e-06
-2e-06
2e-06
1e-06
8e-07
4e-07
-7e-16
-4e-07
-8e-07
-1e-06
-2e-06
2e-06
1e-06
8e-07
4e-07
-7e-16
-4e-07
-8e-07
-1e-06
-2e-06
2e-06
1e-06
8e-07
4e-07
-7e-16
-4e-07
-8e-07
-1e-06
-2e-06
2e-06
1e-06
8e-07
4e-07
-7e-16
-4e-07
-8e-07
-1e-06
-2e-06
2e-06
1e-06
8e-07
4e-07
-7e-16
-4e-07
-8e-07
-1e-06
-2e-06
2e-06
1e-06
8e-07
4e-07
-7e-16
-4e-07
-8e-07
-1e-06
-2e-06
2e-06
1e-06
8e-07
4e-07
-7e-16
-4e-07
-8e-07
-1e-06
-2e-06
2e-06
1e-06
8e-07
4e-07
-7e-16
-4e-07
-8e-07
-1e-06
-2e-06
2e-06
1e-06
8e-07
4e-07
-7e-16
-4e-07
-8e-07
-1e-06
-2e-06
2e-06
1e-06
8e-07
4e-07
-7e-16
-4e-07
-8e-07
-1e-06
-2e-06
2e-06
1e-06
8e-07
4e-07
-7e-16
-4e-07
-8e-07
-1e-06
-2e-06
2e-06
1e-06
8e-07
4e-07
-7e-16
-4e-07
-8e-07
-1e-06
-2e-06
2e-06
1e-06
8e-07
4e-07
-7e-16
-4e-07
-8e-07
-1e-06
-2e-06
2e-06
1e-06
8e-07
4e-07
-7e-16
-4e-07
-8e-07
-1e-06
-2e-06
2e-06
1e-06
8e-07
4e-07
-7e-16
-4e-07
-8e-07
-1e-06
-2e-06
2e-06
1e-06
8e-07
4e-07
-7e-16
-4e-07
-8e-07
-1e-06
-2e-06
2e-06
1e-06
8e-07
4e-07
-7e-16
-4e-07
-8e-07
-1e-06
-2e-06
2e-06
1e-06
8e-07
4e-07
-7e-16
-4e-07
-8e-07
-1e-06
-2e-06
2e-06
1e-06
8e-07
4e-07
-7e-16
-4e-07
-8e-07
-1e-06
-2e-06
2e-06
1e-06
8e-07
4e-07
-7e-16
-4e-07
-8e-07
-1e-06
-2e-06
2e-06
1e-06
8e-07
4e-07
-7e-16
-4e-07
-8e-07
-1e-06
-2e-06
2e-06
1e-06
8e-07
4e-07
-7e-16
-4e-07
-8e-07
-1e-06
-2e-06
2e-06
1e-06
8e-07
4e-07
-7e-16
-4e-07
-8e-07
-1e-06
-2e-06
2e-06
1e-06
8e-07
4e-07
-7e-16
-4e-07
-8e-07
-1e-06
-2e-06
2e-06
1e-06
8e-07
4e-07
-7e-16
-4e-07
-8e-07
-1e-06
-2e-06
2e-06
1e-06
8e-07
4e-07
-7e-16
-4e-07
-8e-07
-1e-06
-2e-06
2e-06
1e-06
8e-07
4e-07
-7e-16
-4e-07
-8e-07
-1e-06
-2e-06
2e-06
1e-06
8e-07
4e-07
-7e-16
-4e-07
-8e-07
-1e-06
-2e-06
2e-06
1e-06
8e-07
4e-07
-7e-16
-4e-07
-8e-07
-1e-06
-2e-06
2e-06
1e-06
8e-07
4e-07
-7e-16
-4e-07
-8e-07
-1e-06
-2e-06
2e-06
1e-06
8e-07
4e-07
-7e-16
-4e-07
-8e-07
-1e-06
-2e-06
2e-06
1e-06
8e-07
4e-07
-7e-16
-4e-07
-8e-07
-1e-06
-2e-06
2e-06
1e-06
8e-07
4e-07
-7e-16
-4e-07
-8e-07
-1e-06
-2e-06
2e-06
1e-06
8e-07
4e-07
-7e-16
-4e-07
-8e-07
-1e-06
-2e-06
2e-06
1e-06
8e-07
4e-07
-7e-16
-4e-07
-8e-07
-1e-06
-2e-06
2e-06
1e-06
8e-07
4e-07
-7e-16
-4e-07
-8e-07
-1e-06
-2e-06
2e-06
1e-06
8e-07
4e-07
-7e-16
-4e-07
-8e-07
-1e-06
-2e-06
2e-06
1e-06
8e-07
4e-07
-7e-16
-4e-07
-8e-07
-1e-06
-2e-06
SCALARS u2 float
LOOKUP_TABLE default
-3e-16
-0.0003
-0.0002
-0.0002
-0.0002
-0.0002
-0.0002
-0.0002
-0.0002
-0.0002
-0.0002
-0.0002
-0.0002
-0.0002
-0.0002
-0.0002
-0.0002
-0.0002
-0.0002
-0.0002
-0.0002
-0.0002
-0.0002
-0.0002
-0.0002
-0.0002
-0.0002
-0.0002
-0.0002
-0.0002
-0.0002
-0.0002
-0.0002
-0.0002
-0.0001
-0.0001
-0.0001
-0.0001
-0.0001
-0.0001
-0.0001
-0.0001
-0.0001
-0.0001
-0.0001
-0.0001
-0.0001
-0.0001
-0.0001
-0.0001
-0.0001
-9e-05
-9e-05
-9e-05
-9e-05
-8e-05
-8e-05
-8e-05
-7e-05
-7e-05
-7e-05
-6e-05
-6e-05
-6e-05
-5e-05
-5e-05
-5e-05
-4e-05
-4e-05
-4e-05
-3e-05
-3e-05
-3e-05
-2e-05
-2e-05
-2e-05
-2e-05
-1e-05
-9e-06
-6e-06
-3e-06
-0.0003
5e-16
-3e-06
-6e-06
-9e-06
-1e-05
-2e-05
-2e-05
-2e-05
-2e-05
-3e-05
-3e-05
-3e-05
-4e-05
-4e-05
-4e-05
-5e-05
-5e-05
-5e-05
-6e-05
-6e-05
-6e-05
-7e-05
-7e-05
-7e-05
-8e-05
-8e-05
-8e-05
-9e-05
-9e-05
-9e-05
-9e-05
-0.0001
-0.0001
-0.0001
-0.0001
-0.0001
-0.0001
-0.0001
-0.0001
-0.0001
-0.0001
-0.0001
-0.0001
-0.0001
-0.0001
-0.0001
-0.0001
-0.0001
-0.0002
-0.0002
-0.0002
-0.0002
-0.0002
-0.0002
-0.0002
-0.0002
-0.0002
-0.0002
-0.0002
-0.0002
-0.0002
-0.0002
-0.0002
-0.0002
-0.0002
-0.0002
-0.0002
-0.0002
-0.0002
-0.0002
-0.0002
-0.0002
-0.0002
-0.0002
-0.0002
-0.0002
-0.0002
-0.0002
-0.0002
-0.0002
-0.0003
-0.0003
-0.0003
-0.0003
-0.0003
-0.0003
-0.0003
-0.0003
-0.0003
-1e-15
-1e-15
1e-15
8e-16
-6e-16
-9e-16
-6e-16
-3e-16
-1e-15
-3e-06
-3e-06
-3e-06
-3e-06
-3e-06
-3e-06
-3e-06
-3e-06
-3e-06
-6e-06
-6e-06
-6e-06
-6e-06
-6e-06
-6e-06
-6e-06
-6e-06
-6e-06
-9e-06
-9e-06
-9e-06
-9e-06
-9e-06
-9e-06
-9e-06
-9e-06
-9e-06
-1e-05
-1e-05
-1e-05
-1e-05
-1e-05
-1e-05
-1e-05
-1e-05
-1e-05
-2e-05
-2e-05
-2e-05
-2e-05
-2e-05
-2e-05
-2e-05
-2e-05
-2e-05
-2e-05
-2e-05
-2e-05
-2e-05
-2e-05
-2e-05
-2e-05
-2e-05
-2e-05
-2e-05
-2e-05
-2e-05
-2e-05
-2e-05
-2e-05
-2e-05
-2e-05
-2e-05
-2e-05
-2e-05
-2e-05
-2e-05
-2e-05
-2e-05
-2e-05
-2e-05
-2e-05
-3e-05
-3e-05
-3e-05
-3e-05
-3e-05
-3e-05
-3e-05
-3e-05
-3e-05
-3e-05
-3e-05
-3e-05
-3e-05
-3e-05
-3e-05
-3e-05
-3e-05
-3e-05
-3e-05
-3e-05
-3e-05
-3e-05
-3e-05
-3e-05
-3e-05
-3e-05
-3e-05
-4e-05
-4e-05
-4e-05
-4e-05
-4e-05
-4e-05
-4e-05
-4e-05
-4e-05
-4e-05
-4e-05
-4e-05
-4e-05
-4e-05
-4e-05
-4e-05
-4e-05
-4e-05
-4e-05
-4e-05
-4e-05
-4e-05
-4e-05
-4e-05
-4e-05
-4e-05
-4e-05
-5e-05
-5e-05
-5e-05
-5e-05
-5e-05
-5e-05
-5e-05
-5e-05
-5e-05
-5e-05
-5e-05
-5e-05
-5e-05
-5e-05
-5e-05
-5e-05
-5e-05
-5e-05
-5e-05
-5e-05
-5e-05
-5e-05
-5e-05
-5e-05
-5e-05
-5e-05
-5e-05
-6e-05
-6e-05
-6e-05
-6e-05
-6e-05
-6e-05
-6e-05
-6e-05
-6e-05
-6e-05
-6e-05
-6e-05
-6e-05
-6e-05
-6e-05
-6e-05
-6e-05
-6e-05
-6e-05
-6e-05
-6e-05
-6e-05
-6e-05
-6e-05
-6e-05
-6e-05
-6e-05
-7e-05
-7e-05
-7e-05
-7e-05
-7e-05
-7e-05
-7e-05
-7e-05
-7e-05
-7e-05
-7e-05
-7e-05
-7e-05
-7e-05
-7e-05
-7e-05
-7e-05
-7e-05
-7e-05
-7e-05
-7e-05
-7e-05
-7e-05
-7e-05
-7e-05
-7e-05
-7e-05
-8e-05
-8e-05
-8e-05
-8e-05
-8e-05
-8e-05
-8e-05
-8e-05
-8e-05
-8e-05
-8e-05
-8e-05
-8e-05
-8e-05
-8e-05
-8e-05
-8e-05
-8e-05
-8e-05
-8e-05
-8e-05
-8e-05
-8e-05
-8e-05
-8e-05
-8e-05
-8e-05
-9e-05
-9e-05
-9e-05
-9e-05
-9e-05
-9e-05
-9e-05
-9e-05
-9e-05
-9e-05
-9e-05
-9e-05
-9e-05
-9e-05
-9e-05
-9e-05
-9e-05
-9e-05
-9e-05
-9e-05
-9e-05
-9e-05
-9e-05
-9e-05
-9e-05
-9e-05
-9e-05
-9e-05
-9e-05
-9e-05
-9e-05
-9e-05
-9e-05
-9e-05
-9e-05
-9e-05
-0.0001
-0.0001
-0.0001
-0.0001
-0.0001
-0.0001
-0.0001
-0.0001
-0.0001
-0.0001
-0.0001
-0.0001
-0.0001
-0.0001
-0.0001
-0.0001
-0.0001
-0.0001
-0.0001
-0.0001
-0.0001
-0.0001
-0.0001
-0.0001
-0.0001
-0.0001
-0.0001
-0.0001
-0.0001
-0.0001
-0.0001
-0.0001
-0.0001
-0.0001
-0.0001
-0.0001
-0.0001
-0.0001
-0.0001
-0.0001
-0.0001
-0.0001
-0.0001
-0.0001
-0.0001
-0.0001
-0.0001
-0.0001
-0.0001
-0.0001
-0.0001
-0.0001
-0.0001
-0.0001
-0.0001
-0.0001
-0.0001
-0.0001
-0.0001
-0.0001
-0.0001
-0.0001
-0.0001
-0.0001
-0.0001
-0.0001
-0.0001
-0.0001
-0.0001
-0.0001
-0.0001
-0.0001
-0.0001
-0.0001
-0.0001
-0.0001
-0.0001
-0.0001
-0.0001
-0.0001
-0.0001
-0.0001
-0.0001
-0.0001
-0.0001
-0.0001
-0.0001
-0.0001
-0.0001
-0.0001
-0.0001
-0.0001
-0.0001
-0.0001
-0.0001
-0.0001
-0.0001
-0.0001
-0.0001
-0.0001
-0.0001
-0.0001
-0.0001
-0.0001
-0.0001
-0.0001
-0.0001
-0.0001
-0.0001
-0.0001
-0.0001
-0.0001
-0.0001
-0.0001
-0.0001
-0.0001
-0.0001
-0.0001
-0.0001
-0.0001
-0.0001
-0.0001
-0.0001
-0.0001
-0.0001
-0.0001
-0.0001
-0.0001
-0.0001
-0.0001
-0.0001
-0.0001
-0.0001
-0.0001
-0.0001
-0.0001
-0.0001
-0.0001
-0.0001
-0.0001
-0.0001
-0.0001
-0.0001
-0.0001
-0.0001
-0.0001
-0.0001
-0.0001
-0.0001
-0.0001
-0.0001
-0.0001
-0.0001
-0.0002
-0.0002
-0.0002
-0.0002
-0.0002
-0.0002
-0.0002
-0.0002
-0.0002
-0.0002
-0.0002
-0.0002
-0.0002
-0.0002
-0.0002
-0.0002
-0.0002
-0.0002
-0.0002
-0.0002
-0.0002
-0.0002
-0.0002
-0.0002
-0.0002
-0.0002
-0.0002
-0.0002
-0.0002
-0.0002
-0.0002
-0.0002
-0.0002
-0.0002
-0.0002
-0.0002
-0.0002
-0.0002
-0.0002
-0.0002
-0.0002
-0.0002
-0.0002
-0.0002
-0.0002
-0.0002
-0.0002
-0.0002
-0.0002
-0.0002
-0.0002
-0.0002
-0.0002
-0.0002
-0.0002
-0.0002
-0.0002
-0.0002
-0.0002
-0.0002
-0.0002
-0.0002
-0.0002
-0.0002
-0.0002
-0.0002
-0.0002
-0.0002
-0.0002
-0.0002
-0.0002
-0.0002
-0.0002
-0.0002
-0.0002
-0.0002
-0.0002
-0.0002
-0.0002
-0.0002
-0.0002
-0.0002
-0.0002
-0.0002
-0.0002
-0.0002
-0.0002
-0.0002
-0.0002
-0.0002
-0.0002
-0.0002
-0.0002
-0.0002
-0.0002
-0.0002
-0.0002
-0.0002
-0.0002
-0.0002
-0.0002
-0.0002
-0.0002
-0.0002
-0.0002
-0.0002
-0.0002
-0.0002
-0.0002
-0.0002
-0.0002
-0.0002
-0.0002
-0.0002
-0.0002
-0.0002
-0.0002
-0.0002
-0.0002
-0.0002
-0.0002
-0.0002
-0.0002
-0.0002
-0.0002
-0.0002
-0.0002
-0.0002
-0.0002
-0.0002
-0.0002
-0.0002
-0.0002
-0.0002
-0.0002
-0.0002
-0.0002
-0.0002
-0.0002
-0.0002
-0.0002
-0.0002
-0.0002
-0.0002
-0.0002
-0.0002
-0.0002
-0.0002
-0.0002
-0.0002
-0.0002
-0.0002
-0.0002
-0.0002
-0.0002
-0.0002
-0.0002
-0.0002
-0.0002
-0.0002
-0.0002
-0.0002
-0.0002
-0.0002
-0.0002
-0.0002
-0.0002
-0.0002
-0.0002
-0.0002
-0.0002
-0.0002
-0.0002
-0.0002
-0.0002
-0.0002
-0.0002
-0.0002
-0.0002
-0.0002
-0.0002
-0.0002
-0.0002
-0.0002
-0.0002
-0.0002
-0.0002
-0.0002
-0.0002
-0.0002
-0.0002
-0.0002
-0.0002
-0.0002
-0.0002
-0.0002
-0.0002
-0.0002
-0.0002
-0.0002
-0.0002
-0.0002
-0.0002
-0.0002
-0.0002
-0.0002
-0.0002
-0.0002
-0.0002
-0.0002
-0.0002
-0.0002
-0.0002
-0.0002
-0.0002
-0.0002
-0.0002
-0.0002
-0.0002
-0.0002
-0.0002
-0.0002
-0.0002
-0.0002
-0.0002
-0.0002
-0.0002
-0.0002
-0.0002
-0.0002
-0.0002
-0.0002
-0.0002
-0.0002
-0.0002
-0.0002
-0.0002
-0.0002
-0.0002
-0.0002
-0.0002
-0.0002
-0.0002
-0.0002
-0.0002
-0.0002
-0.0002
-0.0002
-0.0002
-0.0002
-0.0002
-0.0002
-0.0002
-0.0002
-0.0002
-0.0002
-0.0002
-0.0002
-0.0002
-0.0002
-0.0002
-0.0002
-0.0002
-0.0002
-0.0002
-0.0002
-0.0002
-0.0002
-0.0002
-0.0002
-0.0002
-0.0002
-0.0002
-0.0002
-0.0002
-0.0002
-0.0002
-0.0002
-0.0002
-0.0002
-0.0002
-0.0002
-0.0002
-0.0002
-0.0002
-0.0002
-0.0002
-0.0002
SCALARS strain_1 float
LOOKUP_TABLE default
-0.000140
-0.222309
-0.218948
-0.215571
-0.212177
-0.208770
-0.205346
-0.201909
-0.198460
-0.194997
-0.191525
-0.188042
-0.184549
-0.181049
-0.177542
-0.174028
-0.170509
-0.166986
-0.163461
-0.159934
-0.156408
-0.152882
-0.149358
-0.145838
-0.142324
-0.138817
-0.135316
-0.131824
-0.128345
-0.124878
-0.121424
-0.117987
-0.114567
-0.111164
-0.107782
-0.104423
-0.101087
-0.097777
-0.094493
-0.091237
-0.088013
-0.084821
-0.081662
-0.078539
-0.075452
-0.072406
-0.069399
-0.066435
-0.063515
-0.060640
-0.057812
-0.055033
-0.052305
-0.049628
-0.047004
-0.044436
-0.041923
-0.039468
-0.037071
-0.034736
-0.032461
-0.030248
-0.028099
-0.026014
-0.023994
-0.022040
-0.020155
-0.018336
-0.016585
-0.014903
-0.013291
-0.011748
-0.010275
-0.008870
-0.007538
-0.006273
-0.005079
-0.003954
-0.002898
-0.001911
-0.000991
-0.222507
-0.000005
-0.000859
-0.001782
-0.002772
-0.003831
-0.004957
-0.006156
-0.007423
-0.008759
-0.010167
-0.011644
-0.013191
-0.014807
-0.016493
-0.018248
-0.020070
-0.021962
-0.023919
-0.025943
-0.028033
-0.030187
-0.032404
-0.034684
-0.037025
-0.039426
-0.041886
-0.044404
-0.046978
-0.049606
-0.052288
-0.055022
-0.057807
-0.060639
-0.063518
-0.066444
-0.069413
-0.072426
-0.075477
-0.078568
-0.081697
-0.084861
-0.088059
-0.091288
-0.094548
-0.097837
-0.101153
-0.104493
-0.107858
-0.111244
-0.114652
-0.118077
-0.121519
-0.124977
-0.128449
-0.131934
-0.135428
-0.138933
-0.142446
-0.145964
-0.149488
-0.153015
-0.156545
-0.160077
-0.163606
-0.167135
-0.170662
-0.174183
-0.177701
-0.181213
-0.184716
-0.188213
-0.191699
-0.195174
-0.198638
-0.202092
-0.205531
-0.208958
-0.212368
-0.215764
-0.219144
-0.222488
-0.222469
-0.222450
-0.222431
-0.222411
-0.222391
-0.222371
-0.222350
-0.222330
-0.000113
-0.000088
-0.000068
-0.000051
-0.000037
-0.000024
-0.000015
-0.000009
-0.000006
-0.000859
-0.000863
-0.000868
-0.000877
-0.000889
-0.000903
-0.000921
-0.000942
-0.000965
-0.001782
-0.001784
-0.001789
-0.001798
-0.001809
-0.001824
-0.001841
-0.001862
-0.001885
-0.002771
-0.002773
-0.002779
-0.002787
-0.002797
-0.002812
-0.002830
-0.002849
-0.002872
-0.003829
-0.003830
-0.003836
-0.003844
-0.003855
-0.003869
-0.003886
-0.003905
-0.003929
-0.004957
-0.004958
-0.004962
-0.004971
-0.004981
-0.004995
-0.005011
-0.005031
-0.005053
-0.006153
-0.006155
-0.006160
-0.006167
-0.006177
-0.006190
-0.006206
-0.006225
-0.006249
-0.007421
-0.007421
-0.007425
-0.007432
-0.007442
-0.007455
-0.007471
-0.007490
-0.007512
-0.008757
-0.008758
-0.008761
-0.008768
-0.008778
-0.008789
-0.008806
-0.008825
-0.008846
-0.010164
-0.010164
-0.010167
-0.010174
-0.010183
-0.010196
-0.010211
-0.010228
-0.010250
-0.011641
-0.011641
-0.011643
-0.011650
-0.011658
-0.011670
-0.011685
-0.011703
-0.011724
-0.013187
-0.013187
-0.013189
-0.013195
-0.013203
-0.013215
-0.013229
-0.013246
-0.013268
-0.014803
-0.014803
-0.014805
-0.014810
-0.014817
-0.014830
-0.014843
-0.014860
-0.014881
-0.016488
-0.016488
-0.016490
-0.016494
-0.016502
-0.016513
-0.016526
-0.016543
-0.016563
-0.018243
-0.018242
-0.018244
-0.018247
-0.018254
-0.018265
-0.018278
-0.018294
-0.018313
-0.020066
-0.020063
-0.020065
-0.020069
-0.020076
-0.020086
-0.020099
-0.020114
-0.020133
-0.021956
-0.021954
-0.021954
-0.021958
-0.021965
-0.021975
-0.021986
-0.022002
-0.022020
-0.023913
-0.023911
-0.023911
-0.023915
-0.023920
-0.023929
-0.023941
-0.023956
-0.023974
-0.025937
-0.025934
-0.025934
-0.025937
-0.025943
-0.025951
-0.025962
-0.025976
-0.025993
-0.028026
-0.028023
-0.028023
-0.028026
-0.028031
-0.028038
-0.028049
-0.028063
-0.028079
-0.030180
-0.030177
-0.030176
-0.030177
-0.030182
-0.030190
-0.030200
-0.030213
-0.030230
-0.032397
-0.032393
-0.032391
-0.032393
-0.032398
-0.032404
-0.032414
-0.032427
-0.032442
-0.034677
-0.034672
-0.034670
-0.034671
-0.034676
-0.034682
-0.034692
-0.034703
-0.034718
-0.037018
-0.037013
-0.037010
-0.037011
-0.037014
-0.037021
-0.037029
-0.037041
-0.037054
-0.039418
-0.039413
-0.039411
-0.039410
-0.039413
-0.039420
-0.039428
-0.039438
-0.039452
-0.041878
-0.041873
-0.041869
-0.041869
-0.041872
-0.041878
-0.041884
-0.041895
-0.041907
-0.044395
-0.044390
-0.044387
-0.044385
-0.044387
-0.044391
-0.044399
-0.044408
-0.044422
-0.046969
-0.046963
-0.046959
-0.046957
-0.046960
-0.046963
-0.046969
-0.046978
-0.046991
-0.049597
-0.049590
-0.049586
-0.049585
-0.049586
-0.049589
-0.049595
-0.049604
-0.049615
-0.052278
-0.052271
-0.052267
-0.052266
-0.052266
-0.052269
-0.052274
-0.052281
-0.052292
-0.055012
-0.055004
-0.055000
-0.054998
-0.054997
-0.054999
-0.055005
-0.055011
-0.055021
-0.057797
-0.057788
-0.057783
-0.057780
-0.057780
-0.057782
-0.057786
-0.057792
-0.057801
-0.060628
-0.060620
-0.060614
-0.060611
-0.060610
-0.060611
-0.060615
-0.060621
-0.060629
-0.063508
-0.063500
-0.063494
-0.063489
-0.063488
-0.063489
-0.063492
-0.063497
-0.063505
-0.066433
-0.066425
-0.066418
-0.066414
-0.066412
-0.066412
-0.066414
-0.066420
-0.066425
-0.069402
-0.069394
-0.069387
-0.069382
-0.069379
-0.069378
-0.069381
-0.069385
-0.069391
-0.072414
-0.072404
-0.072396
-0.072392
-0.072389
-0.072389
-0.072389
-0.072393
-0.072398
-0.075466
-0.075456
-0.075448
-0.075443
-0.075439
-0.075438
-0.075438
-0.075441
-0.075446
-0.078557
-0.078547
-0.078538
-0.078532
-0.078529
-0.078526
-0.078526
-0.078529
-0.078533
-0.081685
-0.081675
-0.081666
-0.081660
-0.081654
-0.081652
-0.081652
-0.081653
-0.081656
-0.084848
-0.084838
-0.084829
-0.084821
-0.084817
-0.084814
-0.084812
-0.084813
-0.084816
-0.088045
-0.088034
-0.088025
-0.088018
-0.088013
-0.088009
-0.088007
-0.088008
-0.088009
-0.091275
-0.091264
-0.091254
-0.091246
-0.091240
-0.091236
-0.091234
-0.091233
-0.091234
-0.094535
-0.094523
-0.094514
-0.094505
-0.094499
-0.094493
-0.094491
-0.094490
-0.094491
-0.097823
-0.097812
-0.097801
-0.097793
-0.097785
-0.097780
-0.097777
-0.097776
-0.097774
-0.101139
-0.101127
-0.101115
-0.101107
-0.101100
-0.101093
-0.101090
-0.101087
-0.101086
-0.104479
-0.104467
-0.104456
-0.104446
-0.104439
-0.104432
-0.104427
-0.104425
-0.104423
-0.107844
-0.107831
-0.107820
-0.107810
-0.107802
-0.107795
-0.107789
-0.107786
-0.107784
-0.111230
-0.111217
-0.111206
-0.111195
-0.111186
-0.111179
-0.111173
-0.111168
-0.111166
-0.114637
-0.114624
-0.114611
-0.114600
-0.114592
-0.114584
-0.114577
-0.114573
-0.114569
-0.118062
-0.118048
-0.118036
-0.118025
-0.118016
-0.118007
-0.118001
-0.117994
-0.117990
-0.121504
-0.121490
-0.121478
-0.121466
-0.121456
-0.121448
-0.121440
-0.121434
-0.121428
-0.124962
-0.124948
-0.124935
-0.124923
-0.124912
-0.124903
-0.124895
-0.124888
-0.124882
-0.128434
-0.128419
-0.128406
-0.128394
-0.128384
-0.128373
-0.128365
-0.128357
-0.128351
-0.131918
-0.131903
-0.131890
-0.131877
-0.131866
-0.131855
-0.131846
-0.131838
-0.131831
-0.135413
-0.135398
-0.135384
-0.135372
-0.135359
-0.135349
-0.135339
-0.135330
-0.135322
-0.138917
-0.138903
-0.138888
-0.138875
-0.138862
-0.138851
-0.138841
-0.138832
-0.138823
-0.142429
-0.142414
-0.142399
-0.142385
-0.142373
-0.142361
-0.142351
-0.142341
-0.142333
-0.145948
-0.145932
-0.145918
-0.145904
-0.145891
-0.145878
-0.145868
-0.145857
-0.145848
-0.149472
-0.149456
-0.149441
-0.149427
-0.149413
-0.149401
-0.149389
-0.149378
-0.149368
-0.152999
-0.152983
-0.152967
-0.152953
-0.152939
-0.152927
-0.152914
-0.152903
-0.152892
-0.156528
-0.156513
-0.156497
-0.156482
-0.156467
-0.156454
-0.156442
-0.156430
-0.156418
-0.160059
-0.160043
-0.160026
-0.160012
-0.159998
-0.159984
-0.159970
-0.159958
-0.159946
-0.163589
-0.163573
-0.163558
-0.163541
-0.163526
-0.163512
-0.163499
-0.163487
-0.163473
-0.167119
-0.167101
-0.167085
-0.167070
-0.167055
-0.167040
-0.167025
-0.167012
-0.166999
-0.170644
-0.170627
-0.170611
-0.170595
-0.170580
-0.170565
-0.170550
-0.170536
-0.170521
-0.174166
-0.174150
-0.174133
-0.174117
-0.174101
-0.174086
-0.174070
-0.174055
-0.174041
-0.177684
-0.177666
-0.177650
-0.177633
-0.177617
-0.177601
-0.177586
-0.177571
-0.177556
-0.181195
-0.181178
-0.181161
-0.181144
-0.181127
-0.181111
-0.181096
-0.181079
-0.181064
-0.184699
-0.184681
-0.184663
-0.184647
-0.184630
-0.184614
-0.184597
-0.184581
-0.184565
-0.188194
-0.188176
-0.188159
-0.188141
-0.188124
-0.188108
-0.188090
-0.188074
-0.188058
-0.191681
-0.191662
-0.191645
-0.191627
-0.191610
-0.191592
-0.191576
-0.191559
-0.191542
-0.195156
-0.195139
-0.195120
-0.195103
-0.195085
-0.195067
-0.195050
-0.195033
-0.195015
-0.198620
-0.198603
-0.198585
-0.198566
-0.198549
-0.198531
-0.198513
-0.198495
-0.198477
-0.202074
-0.202055
-0.202037
-0.202019
-0.202000
-0.201983
-0.201964
-0.201946
-0.201928
-0.205513
-0.205495
-0.205477
-0.205458
-0.205439
-0.205421
-0.205402
-0.205383
-0.205365
-0.208939
-0.208920
-0.208902
-0.208883
-0.208865
-0.208845
-0.208827
-0.208807
-0.208789
-0.212351
-0.212331
-0.212313
-0.212294
-0.212275
-0.212255
-0.212237
-0.212217
-0.212197
-0.215745
-0.215727
-0.215708
-0.215689
-0.215670
-0.215650
-0.215631
-0.215611
-0.215591
-0.219126
-0.219107
-0.219088
-0.219068
-0.219049
-0.219029
-0.219009
-0.218990
-0.218970
SCALARS strain_2 float
LOOKUP_TABLE default
-0.000004
-0.001081
-0.001081
-0.001090
-0.001085
-0.001086
-0.001089
-0.001085
-0.001086
-0.001086
-0.001086
-0.001084
-0.001084
-0.001083
-0.001080
-0.001077
-0.001076
-0.001073
-0.001070
-0.001071
-0.001066
-0.001065
-0.001061
-0.001056
-0.001049
-0.001045
-0.001040
-0.001031
-0.001025
-0.001019
-0.001012
-0.001008
-0.001001
-0.000993
-0.000984
-0.000979
-0.000966
-0.000955
-0.000949
-0.000937
-0.000927
-0.000918
-0.000904
-0.000894
-0.000876
-0.000863
-0.000844
-0.000836
-0.000818
-0.000804
-0.000786
-0.000773
-0.000751
-0.000736
-0.000713
-0.000697
-0.000676
-0.000657
-0.000636
-0.000613
-0.000593
-0.000567
-0.000545
-0.000523
-0.000497
-0.000475
-0.000447
-0.000421
-0.000394
-0.000365
-0.000342
-0.000314
-0.000284
-0.000253
-0.000221
-0.000195
-0.000163
-0.000131
-0.000100
-0.000070
-0.000038
0.002627
0.002680
0.002686
0.002687
0.002694
0.002693
0.002697
0.002706
0.002705
0.002709
0.002711
0.002716
0.002716
0.002723
0.002725
0.002729
0.002729
0.002732
0.002734
0.002740
0.002741
0.002743
0.002746
0.002748
0.002748
0.002754
0.002755
0.002755
0.002762
0.002757
0.002760
0.002763
0.002762
0.002766
0.002763
0.002761
0.002765
0.002766
0.002761
0.002762
0.002762
0.002766
0.002762
0.002764
0.002760
0.002760
0.002759
0.002759
0.002760
0.002758
0.002752
0.002754
0.002750
0.002750
0.002745
0.002745
0.002740
0.002739
0.002736
0.002732
0.002730
0.002725
0.002723
0.002718
0.002714
0.002712
0.002701
0.002700
0.002699
0.002693
0.002688
0.002683
0.002675
0.002670
0.002665
0.002659
0.002650
0.002652
0.002642
0.002637
0.002628
0.002253
0.001884
0.001509
0.001139
0.000770
0.000403
0.000026
-0.000341
-0.000715
0.000268
0.000531
0.000805
0.001068
0.001341
0.001607
0.001879
0.002149
0.002412
0.002412
0.002142
0.001870
0.001595
0.001324
0.001050
0.000780
0.000510
0.000237
0.002411
0.002138
0.001864
0.001585
0.001312
0.001033
0.000758
0.000478
0.000207
0.002410
0.002133
0.001855
0.001573
0.001299
0.001021
0.000737
0.000456
0.000176
0.002413
0.002134
0.001849
0.001564
0.001284
0.000997
0.000716
0.000434
0.000151
0.002415
0.002133
0.001842
0.001558
0.001270
0.000981
0.000692
0.000408
0.000122
0.002413
0.002127
0.001839
0.001544
0.001252
0.000961
0.000677
0.000382
0.000095
0.002413
0.002119
0.001828
0.001540
0.001246
0.000950
0.000658
0.000364
0.000069
0.002415
0.002117
0.001822
0.001528
0.001228
0.000931
0.000634
0.000336
0.000042
0.002414
0.002116
0.001816
0.001521
0.001217
0.000914
0.000617
0.000316
0.000016
0.002415
0.002111
0.001806
0.001507
0.001204
0.000902
0.000594
0.000295
-0.000008
0.002416
0.002108
0.001802
0.001495
0.001195
0.000889
0.000576
0.000269
-0.000034
0.002416
0.002104
0.001794
0.001485
0.001176
0.000873
0.000560
0.000252
-0.000057
0.002414
0.002104
0.001789
0.001481
0.001164
0.000854
0.000544
0.000229
-0.000083
0.002413
0.002099
0.001786
0.001468
0.001153
0.000836
0.000523
0.000206
-0.000104
0.002413
0.002096
0.001778
0.001461
0.001137
0.000822
0.000505
0.000188
-0.000125
0.002414
0.002091
0.001773
0.001455
0.001132
0.000811
0.000489
0.000164
-0.000152
0.002412
0.002091
0.001765
0.001446
0.001118
0.000800
0.000475
0.000155
-0.000178
0.002416
0.002089
0.001762
0.001439
0.001108
0.000780
0.000453
0.000127
-0.000194
0.002413
0.002089
0.001756
0.001429
0.001104
0.000768
0.000441
0.000115
-0.000217
0.002413
0.002083
0.001749
0.001418
0.001089
0.000756
0.000425
0.000093
-0.000239
0.002412
0.002077
0.001739
0.001409
0.001080
0.000743
0.000411
0.000077
-0.000259
0.002414
0.002071
0.001743
0.001400
0.001067
0.000728
0.000395
0.000059
-0.000276
0.002413
0.002078
0.001738
0.001395
0.001058
0.000714
0.000384
0.000042
-0.000298
0.002412
0.002070
0.001730
0.001388
0.001046
0.000706
0.000367
0.000026
-0.000314
0.002412
0.002072
0.001726
0.001385
0.001038
0.000697
0.000354
0.000013
-0.000335
0.002411
0.002065
0.001720
0.001374
0.001031
0.000682
0.000340
-0.000004
-0.000355
0.002411
0.002061
0.001715
0.001366
0.001016
0.000673
0.000326
-0.000023
-0.000368
0.002407
0.002058
0.001710
0.001363
0.001010
0.000663
0.000314
-0.000033
-0.000384
0.002409
0.002057
0.001708
0.001354
0.001005
0.000653
0.000298
-0.000048
-0.000398
0.002411
0.002053
0.001702
0.001347
0.000997
0.000642
0.000291
-0.000066
-0.000414
0.002408
0.002050
0.001696
0.001347
0.000990
0.000633
0.000276
-0.000076
-0.000435
0.002404
0.002048
0.001696
0.001337
0.000978
0.000623
0.000265
-0.000088
-0.000447
0.002400
0.002045
0.001689
0.001331
0.000973
0.000614
0.000256
-0.000102
-0.000463
0.002402
0.002047
0.001684
0.001322
0.000967
0.000607
0.000244
-0.000113
-0.000478
0.002404
0.002043
0.001682
0.001318
0.000952
0.000598
0.000238
-0.000129
-0.000489
0.002402
0.002040
0.001675
0.001313
0.000950
0.000585
0.000224
-0.000140
-0.000500
0.002404
0.002040
0.001670
0.001309
0.000947
0.000577
0.000213
-0.000148
-0.000512
0.002401
0.002042
0.001668
0.001299
0.000940
0.000573
0.000207
-0.000163
-0.000523
0.002400
0.002030
0.001666
0.001299
0.000932
0.000570
0.000198
-0.000171
-0.000539
0.002398
0.002031
0.001659
0.001293
0.000927
0.000557
0.000190
-0.000178
-0.000547
0.002395
0.002023
0.001658
0.001286
0.000920
0.000554
0.000183
-0.000183
-0.000556
0.002394
0.002023
0.001653
0.001283
0.000910
0.000545
0.000172
-0.000198
-0.000569
0.002392
0.002023
0.001651
0.001275
0.000909
0.000536
0.000166
-0.000209
-0.000579
0.002385
0.002018
0.001643
0.001277
0.000903
0.000528
0.000159
-0.000214
-0.000586
0.002389
0.002017
0.001641
0.001270
0.000899
0.000525
0.000157
-0.000220
-0.000597
0.002385
0.002012
0.001639
0.001272
0.000892
0.000514
0.000144
-0.000228
-0.000607
0.002383
0.002008
0.001638
0.001261
0.000885
0.000510
0.000139
-0.000237
-0.000613
0.002387
0.002009
0.001634
0.001258
0.000881
0.000504
0.000134
-0.000248
-0.000623
0.002375
0.002006
0.001629
0.001253
0.000877
0.000505
0.000123
-0.000249
-0.000625
0.002375
0.002000
0.001626
0.001247
0.000871
0.000494
0.000121
-0.000257
-0.000632
0.002375
0.001996
0.001621
0.001239
0.000871
0.000486
0.000114
-0.000263
-0.000640
0.002368
0.001998
0.001617
0.001238
0.000861
0.000486
0.000113
-0.000269
-0.000644
0.002366
0.001994
0.001611
0.001240
0.000862
0.000481
0.000100
-0.000274
-0.000652
0.002365
0.001991
0.001607
0.001232
0.000857
0.000478
0.000099
-0.000277
-0.000652
0.002364
0.001984
0.001605
0.001231
0.000853
0.000470
0.000093
-0.000285
-0.000660
0.002360
0.001985
0.001607
0.001227
0.000847
0.000469
0.000091
-0.000289
-0.000667
0.002359
0.001979
0.001603
0.001221
0.000841
0.000462
0.000085
-0.000297
-0.000672
0.002355
0.001978
0.001595
0.001216
0.000837
0.000460
0.000080
-0.000299
-0.000673
0.002350
0.001974
0.001594
0.001215
0.000835
0.000460
0.000077
-0.000304
-0.000674
0.002349
0.001969
0.001593
0.001208
0.000830
0.000454
0.000071
-0.000306
-0.000684
0.002343
0.001963
0.001585
0.001212
0.000829
0.000451
0.000067
-0.000308
-0.000686
0.002341
0.001959
0.001581
0.001207
0.000825
0.000448
0.000066
-0.000308
-0.000689
0.002334
0.001954
0.001578
0.001199
0.000823
0.000444
0.000064
-0.000312
-0.000693
0.002331
0.001956
0.001578
0.001197
0.000820
0.000444
0.000060
-0.000322
-0.000697
0.002329
0.001950
0.001572
0.001193
0.000815
0.000436
0.000058
-0.000321
-0.000700
0.002326
0.001944
0.001569
0.001188
0.000812
0.000430
0.000055
-0.000322
-0.000699
0.002318
0.001939
0.001563
0.001185
0.000809
0.000430
0.000052
-0.000323
-0.000701
0.002311
0.001936
0.001561
0.001186
0.000805
0.000429
0.000050
-0.000329
-0.000703
0.002311
0.001934
0.001555
0.001181
0.000807
0.000428
0.000051
-0.000329
-0.000707
0.002305
0.001927
0.001552
0.001178
0.000800
0.000424
0.000045
-0.000330
-0.000704
0.002300
0.001925
0.001547
0.001172
0.000799
0.000420
0.000041
-0.000332
-0.000712
0.002296
0.001919
0.001543
0.001170
0.000792
0.000417
0.000040
-0.000341
-0.000707
0.002293
0.001915
0.001540
0.001164
0.000787
0.000414
0.000039
-0.000338
-0.000714
0.002284
0.001909
0.001536
0.001162
0.000789
0.000414
0.000035
-0.000335
-0.000713
0.002279
0.001908
0.001532
0.001158
0.000781
0.000409
0.000036
-0.000335
-0.000714
0.002271
0.001903
0.001526
0.001153
0.000782
0.000410
0.000037
-0.000340
-0.000715
0.002268
0.001896
0.001524
0.001154
0.000776
0.000407
0.000032
-0.000343
-0.000712
0.002264
0.001891
0.001520
0.001145
0.000779
0.000405
0.000030
-0.000346
-0.000715
0.002257
0.001884
0.001515
0.001145
0.000771
0.000401
0.000032
-0.000344
-0.000714
SCALARS strain_3 float
LOOKUP_TABLE default
0.001138
0.073005
0.071974
0.070935
0.069892
0.068846
0.067788
0.066732
0.065667
0.064601
0.063529
0.062454
0.061373
0.060289
0.059204
0.058116
0.057025
0.055930
0.054835
0.053740
0.052641
0.051544
0.050446
0.049345
0.048248
0.047151
0.046054
0.044958
0.043863
0.042774
0.041688
0.040605
0.039523
0.038450
0.037378
0.036312
0.035251
0.034196
0.033150
0.032111
0.031079
0.030055
0.029040
0.028035
0.027040
0.026055
0.025080
0.024115
0.023165
0.022224
0.021299
0.020385
0.019486
0.018602
0.017731
0.016877
0.016038
0.015214
0.014408
0.013620
0.012847
0.012091
0.011354
0.010639
0.009941
0.009260
0.008599
0.007958
0.007334
0.006735
0.006155
0.005595
0.005054
0.004536
0.004039
0.003560
0.003106
0.002670
0.002256
0.001861
0.001491
0.071112
-0.000594
-0.000258
0.000099
0.000478
0.000880
0.001302
0.001743
0.002209
0.002695
0.003202
0.003731
0.004276
0.004848
0.005441
0.006049
0.006682
0.007331
0.008003
0.008695
0.009404
0.010133
0.010880
0.011644
0.012426
0.013230
0.014045
0.014878
0.015728
0.016594
0.017474
0.018368
0.019276
0.020202
0.021137
0.022087
0.023047
0.024021
0.025002
0.025997
0.027003
0.028015
0.029039
0.030071
0.031112
0.032160
0.033213
0.034275
0.035339
0.036415
0.037491
0.038574
0.039661
0.040747
0.041842
0.042938
0.044032
0.045135
0.046236
0.047338
0.048439
0.049543
0.050646
0.051745
0.052849
0.053949
0.055045
0.056143
0.057238
0.058327
0.059416
0.060500
0.061579
0.062660
0.063732
0.064802
0.065865
0.066927
0.067981
0.069029
0.070070
0.071299
0.071490
0.071679
0.071869
0.072059
0.072248
0.072436
0.072626
0.072816
0.000963
0.000783
0.000611
0.000432
0.000260
0.000089
-0.000085
-0.000257
-0.000425
-0.000087
0.000085
0.000256
0.000432
0.000605
0.000781
0.000957
0.001133
0.001311
0.000272
0.000445
0.000620
0.000796
0.000970
0.001148
0.001323
0.001503
0.001682
0.000652
0.000826
0.001005
0.001178
0.001357
0.001535
0.001713
0.001893
0.002074
0.001055
0.001230
0.001406
0.001584
0.001764
0.001943
0.002124
0.002304
0.002485
0.001477
0.001655
0.001833
0.002010
0.002192
0.002371
0.002555
0.002738
0.002920
0.001923
0.002100
0.002281
0.002461
0.002640
0.002823
0.003006
0.003192
0.003377
0.002386
0.002567
0.002749
0.002931
0.003114
0.003297
0.003480
0.003666
0.003853
0.002874
0.003054
0.003237
0.003419
0.003604
0.003788
0.003974
0.004162
0.004350
0.003381
0.003564
0.003748
0.003930
0.004117
0.004303
0.004490
0.004677
0.004865
0.003912
0.004094
0.004280
0.004464
0.004649
0.004838
0.005025
0.005215
0.005405
0.004462
0.004645
0.004829
0.005018
0.005208
0.005393
0.005582
0.005771
0.005962
0.005033
0.005218
0.005404
0.005591
0.005781
0.005971
0.006158
0.006352
0.006542
0.005623
0.005809
0.005998
0.006187
0.006376
0.006566
0.006758
0.006950
0.007141
0.006236
0.006422
0.006611
0.006799
0.006991
0.007183
0.007375
0.007568
0.007762
0.006867
0.007058
0.007247
0.007438
0.007628
0.007821
0.008014
0.008209
0.008400
0.007518
0.007712
0.007900
0.008091
0.008285
0.008477
0.008670
0.008869
0.009062
0.008192
0.008383
0.008574
0.008769
0.008962
0.009155
0.009349
0.009545
0.009743
0.008884
0.009074
0.009270
0.009459
0.009656
0.009849
0.010044
0.010240
0.010440
0.009596
0.009790
0.009980
0.010174
0.010370
0.010566
0.010760
0.010959
0.011156
0.010325
0.010518
0.010712
0.010907
0.011101
0.011300
0.011496
0.011691
0.011893
0.011072
0.011266
0.011462
0.011658
0.011853
0.012052
0.012247
0.012447
0.012648
0.011839
0.012034
0.012226
0.012426
0.012620
0.012820
0.013019
0.013217
0.013417
0.012621
0.012820
0.013015
0.013210
0.013407
0.013605
0.013806
0.014006
0.014209
0.013422
0.013619
0.013815
0.014014
0.014212
0.014410
0.014610
0.014812
0.015013
0.014241
0.014439
0.014635
0.014835
0.015033
0.015231
0.015433
0.015634
0.015833
0.015076
0.015270
0.015471
0.015669
0.015868
0.016068
0.016268
0.016471
0.016673
0.015925
0.016121
0.016324
0.016520
0.016722
0.016922
0.017123
0.017326
0.017527
0.016793
0.016990
0.017188
0.017388
0.017589
0.017790
0.017992
0.018194
0.018398
0.017672
0.017870
0.018071
0.018271
0.018473
0.018673
0.018875
0.019079
0.019284
0.018568
0.018765
0.018967
0.019167
0.019369
0.019573
0.019773
0.019974
0.020180
0.019477
0.019676
0.019877
0.020079
0.020282
0.020483
0.020686
0.020891
0.021095
0.020399
0.020600
0.020801
0.021004
0.021205
0.021409
0.021609
0.021816
0.022018
0.021337
0.021538
0.021739
0.021940
0.022142
0.022345
0.022549
0.022755
0.022957
0.022287
0.022487
0.022689
0.022891
0.023091
0.023295
0.023502
0.023704
0.023909
0.023248
0.023450
0.023650
0.023851
0.024055
0.024257
0.024463
0.024668
0.024872
0.024220
0.024422
0.024622
0.024825
0.025029
0.025232
0.025436
0.025642
0.025848
0.025203
0.025405
0.025608
0.025810
0.026014
0.026217
0.026424
0.026628
0.026834
0.026201
0.026401
0.026604
0.026807
0.027009
0.027215
0.027419
0.027623
0.027830
0.027206
0.027408
0.027607
0.027811
0.028015
0.028219
0.028423
0.028628
0.028835
0.028218
0.028420
0.028624
0.028826
0.029030
0.029234
0.029438
0.029643
0.029850
0.029242
0.029443
0.029645
0.029847
0.030054
0.030259
0.030461
0.030667
0.030874
0.030272
0.030475
0.030678
0.030881
0.031084
0.031288
0.031497
0.031699
0.031903
0.031313
0.031516
0.031719
0.031919
0.032124
0.032327
0.032534
0.032738
0.032945
0.032360
0.032561
0.032763
0.032971
0.033172
0.033375
0.033579
0.033784
0.033991
0.033414
0.033616
0.033819
0.034022
0.034227
0.034431
0.034634
0.034839
0.035047
0.034475
0.034679
0.034881
0.035085
0.035287
0.035491
0.035697
0.035902
0.036104
0.035544
0.035744
0.035948
0.036149
0.036352
0.036557
0.036761
0.036965
0.037172
0.036615
0.036816
0.037019
0.037221
0.037427
0.037629
0.037833
0.038038
0.038243
0.037692
0.037893
0.038096
0.038299
0.038501
0.038707
0.038911
0.039115
0.039321
0.038775
0.038973
0.039179
0.039379
0.039583
0.039786
0.039992
0.040195
0.040399
0.039861
0.040060
0.040262
0.040463
0.040669
0.040873
0.041075
0.041280
0.041483
0.040949
0.041151
0.041351
0.041556
0.041758
0.041960
0.042164
0.042366
0.042571
0.042043
0.042245
0.042445
0.042646
0.042852
0.043053
0.043254
0.043458
0.043661
0.043138
0.043337
0.043540
0.043743
0.043943
0.044147
0.044350
0.044550
0.044756
0.044236
0.044437
0.044636
0.044839
0.045041
0.045242
0.045444
0.045648
0.045851
0.045336
0.045535
0.045736
0.045937
0.046138
0.046341
0.046540
0.046743
0.046947
0.046436
0.046636
0.046839
0.047039
0.047238
0.047442
0.047641
0.047844
0.048045
0.047537
0.047738
0.047937
0.048137
0.048336
0.048541
0.048741
0.048943
0.049143
0.048639
0.048840
0.049039
0.049241
0.049439
0.049641
0.049840
0.050043
0.050242
0.049742
0.049941
0.050142
0.050341
0.050541
0.050742
0.050943
0.051141
0.051343
0.050843
0.051041
0.051244
0.051441
0.051641
0.051841
0.052042
0.052242
0.052442
0.051946
0.052147
0.052347
0.052541
0.052742
0.052941
0.053141
0.053340
0.053539
0.053047
0.053244
0.053442
0.053641
0.053840
0.054039
0.054241
0.054439
0.054635
0.054147
0.054345
0.054542
0.054740
0.054938
0.055136
0.055336
0.055532
0.055732
0.055244
0.055441
0.055637
0.055836
0.056035
0.056231
0.056431
0.056628
0.056826
0.056340
0.056537
0.056735
0.056931
0.057126
0.057326
0.057524
0.057720
0.057920
0.057432
0.057629
0.057827
0.058023
0.058218
0.058418
0.058614
0.058809
0.059008
0.058523
0.058722
0.058916
0.059112
0.059310
0.059505
0.059701
0.059898
0.060092
0.059610
0.059809
0.060001
0.060197
0.060394
0.060588
0.060785
0.060981
0.061177
0.060695
0.060890
0.061086
0.061280
0.061476
0.061671
0.061868
0.062062
0.062257
0.061777
0.061971
0.062164
0.062360
0.062556
0.062749
0.062945
0.063140
0.063335
0.062851
0.063047
0.063242
0.063435
0.063630
0.063824
0.064019
0.064213
0.064407
0.063927
0.064118
0.064312
0.064507
0.064700
0.064895
0.065089
0.065282
0.065475
0.064993
0.065188
0.065380
0.065574
0.065768
0.065960
0.066151
0.066346
0.066541
0.066058
0.066252
0.066443
0.066636
0.066828
0.067022
0.067213
0.067404
0.067598
0.067116
0.067311
0.067501
0.067693
0.067886
0.068077
0.068270
0.068459
0.068652
0.068170
0.068361
0.068555
0.068745
0.068936
0.069130
0.069320
0.069511
0.069699
0.069221
0.069410
0.069602
0.069794
0.069985
0.070173
0.070364
0.070554
0.070745
0.070264
0.070454
0.070644
0.070834
0.071024
0.071214
0.071403
0.071595
0.071783
SCALARS stress_1 float
LOOKUP_TABLE default
-112651.978901
-65251146.250485
-64269291.872090
-63279757.493695
-62286959.115300
-61288848.736906
-60286578.358511
-59281043.980116
-58269493.601721
-57256343.223326
-56238904.844932
-55219034.466537
-54196348.088142
-53171485.709747
-52144127.331353
-51113952.952958
-50083074.574563
-49050916.196168
-48017733.817773
-46984295.439379
-45951113.060984
-44917546.682589
-43885708.304194
-42853485.925799
-41822415.547405
-40795569.169010
-39767762.790615
-38746420.412220
-37725334.033825
-36708279.655431
-35696153.277036
-34688506.898641
-33685212.520246
-32687742.141851
-31695519.763457
-30710529.385062
-29732323.006667
-28761796.628272
-27798566.249877
-26843719.871483
-25897897.493088
-24961355.114693
-24033772.736298
-23119054.357904
-22213487.979509
-21320081.601114
-20437299.222719
-19568596.844324
-18711670.465930
-17868568.087535
-17037817.709140
-16223195.330745
-15422204.952350
-14637918.573956
-13867072.195561
-13113633.817166
-12376899.438771
-11655845.060376
-10953158.681982
-10268520.303587
-9600393.925192
-8950635.546797
-8319501.168402
-7708014.790008
-7114704.411613
-6541618.033218
-5989459.654823
-5454453.276428
-4941718.898034
-4448056.519639
-3974042.141244
-3521531.762849
-3088413.384455
-2676095.006060
-2284768.627665
-1913154.249270
-1563939.870875
-1233477.492481
-921831.114086
-633928.735691
-363306.357296
-65101868.595665
240785.675918
-9100.702476
-278507.080871
-568393.459266
-879079.837661
-1210502.216056
-1561828.594450
-1933506.972845
-2324705.351240
-2738623.729635
-3171550.108030
-3626940.486424
-4100314.864819
-4594873.243214
-5112279.621609
-5645686.000004
-6202644.378398
-6777266.756793
-7371665.135188
-7985775.513583
-8618125.891978
-9269932.270372
-9939978.648767
-10628009.027162
-11333319.405557
-12056421.783951
-12797508.162346
-13552098.540741
-14325120.919136
-15113311.297531
-15917117.675925
-16735644.054320
-17568250.432715
-18413080.811110
-19273975.189505
-20147093.567899
-21032179.946294
-21929554.324689
-22837616.703084
-23757583.081479
-24687597.459873
-25626955.838268
-26575850.216663
-27535432.595058
-28501158.973453
-29473925.351847
-30456547.730242
-31446210.108637
-32440928.487032
-33440830.865427
-34448669.243821
-35458811.622216
-36475674.000611
-37496056.379006
-38517846.757400
-39545461.135795
-40573651.514190
-41604913.892585
-42638864.270980
-43674094.649374
-44711501.027769
-45747115.406164
-46784137.784559
-47819880.162954
-48855942.541348
-49891748.919743
-50925251.298138
-51958561.676533
-52988672.054928
-54015902.433322
-55043580.811717
-56064731.190112
-57086201.568507
-58101911.946902
-59113974.325296
-60123668.703691
-61129139.082086
-62128529.460481
-63124015.838876
-64116046.217270
-65117257.161147
-65132389.726629
-65148290.292111
-65164254.857593
-65179323.423075
-65192791.988557
-65208564.554039
-65223441.119521
-65237357.685003
-73711.413419
-36498.847937
2377.717545
37414.283027
73538.848508
109087.413990
142843.979472
176472.544954
209333.110436
-40105.267958
-73797.833440
-107874.398922
-140990.964404
-176539.529886
-212728.095368
-248212.660850
-285553.226332
-323469.791814
-311047.646353
-343652.211835
-377920.777317
-411869.342799
-446905.908281
-482134.473763
-519219.039245
-555535.604727
-593964.170209
-600550.024748
-632706.590230
-666847.155712
-702267.721194
-737496.286676
-772660.852158
-809041.417640
-845613.983122
-884490.548604
-911428.403143
-944224.968625
-978237.534107
-1012570.099589
-1046070.665071
-1083219.230553
-1117679.796035
-1156748.361517
-1194088.926999
-1242594.781538
-1274559.347020
-1307931.912502
-1342712.477984
-1376981.043465
-1411761.608947
-1449998.174429
-1487530.739911
-1524231.305393
-1593921.159932
-1626333.725414
-1658554.290896
-1693910.856378
-1728371.421860
-1763535.987342
-1800044.552824
-1836873.118306
-1875237.683788
-1964383.538327
-1998140.103809
-2031256.669291
-2064245.234773
-2098449.800255
-2134830.365737
-2171146.931219
-2208615.496701
-2246532.062183
-2356669.916722
-2388506.482204
-2423095.047686
-2456659.613168
-2491696.178650
-2526604.744132
-2562473.309614
-2600133.875096
-2638114.440578
-2769628.295117
-2802232.860599
-2835733.426081
-2869681.991563
-2904718.557045
-2939691.122527
-2975623.688009
-3012324.253491
-3050752.818973
-3203194.673512
-3235607.238994
-3269299.804476
-3302096.369957
-3337772.935439
-3371721.500921
-3409126.066403
-3446530.631885
-3483423.197367
-3657241.051906
-3688949.617388
-3723026.182870
-3755886.748352
-3790667.313834
-3825959.879316
-3861508.444798
-3898081.010280
-3936317.575762
-4131703.430301
-4163731.995783
-4196464.561265
-4230477.126747
-4265833.692229
-4299526.257711
-4335586.823193
-4371647.388675
-4409883.954157
-4626069.808696
-4659058.374178
-4690958.939660
-4723819.505142
-4759816.070624
-4794724.636106
-4830081.201588
-4866205.767070
-4903482.332552
-5141300.187091
-5173264.752573
-5206701.318055
-5237833.883537
-5272742.449019
-5307459.014501
-5343583.579983
-5380284.145465
-5417304.710947
-5677074.565486
-5709423.130968
-5740043.696449
-5774376.261931
-5807684.827413
-5842913.392895
-5878781.958377
-5914394.523859
-5950519.089341
-6231600.943880
-6263885.509362
-6294762.074844
-6329158.640326
-6362339.205808
-6396607.771290
-6431836.336772
-6468792.902254
-6504597.467736
-6807631.322275
-6838507.887757
-6871880.453239
-6903589.018721
-6936897.584203
-6970590.149685
-7006906.715167
-7041111.280649
-7078707.846131
-7401901.700670
-7432330.266152
-7464166.831634
-7497923.397116
-7530015.962598
-7564540.528080
-7599641.093562
-7635957.659044
-7670802.224526
-8015500.079065
-8045480.644547
-8078533.210029
-8109473.775511
-8144126.340993
-8177562.906475
-8212727.471957
-8247636.037439
-8283760.602920
-8647466.457459
-8679239.022941
-8710051.588423
-8742976.153905
-8776220.719387
-8809209.284869
-8843861.850351
-8878386.415833
-8914702.981315
-9300296.835854
-9329701.401336
-9360833.966818
-9393118.532300
-9426939.097782
-9460247.663264
-9492916.228746
-9528592.794228
-9562413.359710
-9969447.214249
-9999875.779731
-10030304.345213
-10062524.910695
-10095129.476177
-10128694.041659
-10162514.607141
-10196655.172623
-10231755.738105
-10657797.592644
-10686434.158126
-10718398.723608
-10749979.289090
-10783159.854572
-10814676.420054
-10848880.985536
-10882445.551018
-10917674.116500
-11363363.971039
-11392192.536521
-11422877.102003
-11454521.667485
-11486358.232967
-11519538.798449
-11551887.363931
-11586987.929412
-11620936.494894
-12085506.349433
-12114398.914915
-12145659.480397
-12176024.045879
-12207924.611361
-12240337.176843
-12273197.742325
-12307402.307807
-12341798.873289
-12824992.727828
-12854717.293310
-12883801.858792
-12914678.424274
-12947538.989756
-12977839.555238
-13011596.120720
-13045224.686202
-13078277.251684
-13579839.106223
-13609947.671705
-13640440.237187
-13670996.802669
-13702577.368151
-13733261.933633
-13766378.499115
-13800839.064597
-13833443.630079
-14352925.484618
-14382970.050100
-14411414.615582
-14443123.181064
-14474447.746546
-14505580.312028
-14537928.877510
-14568933.442992
-14602882.008474
-15140987.863013
-15170200.428495
-15199732.993977
-15228177.559459
-15260590.124941
-15290698.690422
-15323175.255904
-15356355.821386
-15389088.386868
-15944346.241407
-15972790.806889
-16002899.372371
-16032943.937853
-16062348.503335
-16092137.068817
-16124421.634299
-16156962.199781
-16190590.765263
-16762744.619802
-16791765.185284
-16820529.750766
-16849870.316248
-16878506.881730
-16909383.447212
-16941028.012694
-16972416.578176
-17005213.143658
-17595862.998197
-17622643.563679
-17651728.129161
-17681964.694643
-17710089.260125
-17740837.825607
-17772034.391089
-17804702.956571
-17835131.522053
-18440629.376592
-18469457.942074
-18497390.507556
-18526091.073038
-18556327.638520
-18586372.204002
-18614880.769484
-18647805.334966
-18679449.900448
-19301267.754987
-19328688.320469
-19357260.885951
-19384425.451433
-19414534.016914
-19443938.582396
-19474431.147878
-19504283.713360
-19536376.278842
-20174514.133381
-20201486.698863
-20229803.264345
-20256263.829827
-20285220.395309
-20314432.960791
-20344669.526273
-20375866.091755
-20405206.657237
-21058768.511776
-21085613.077258
-21113225.642740
-21140582.208222
-21169090.773704
-21199135.339186
-21227963.904668
-21258584.470150
-21289717.035632
-21956270.890171
-21982539.455653
-22008936.021135
-22037572.586617
-22064545.152099
-22093053.717581
-22122458.283063
-22152630.848545
-22183315.414027
-22863565.268566
-22890025.834048
-22917958.399530
-22944866.965012
-22971775.530494
-23000796.095976
-23029112.661458
-23058581.226940
-23088305.792422
-23781931.646961
-23809096.212443
-23834980.777925
-23862465.343406
-23889373.908888
-23917498.474370
-23945943.039852
-23976179.605334
-24004048.170816
-24711946.025355
-24738982.590837
-24765123.156319
-24790943.721801
-24818172.287283
-24845720.852765
-24874101.418247
-24902609.983729
-24931886.549211
-25650920.403750
-25677572.969232
-25703649.534714
-25729214.100196
-25756058.665678
-25785079.231160
-25812179.796642
-25840688.362124
-25869388.927606
-26601670.782145
-26626147.347627
-26651199.913109
-26677084.478591
-26704633.044073
-26731157.609555
-26758578.175037
-26786830.740519
-26815851.306001
-27558693.160540
-27584513.726022
-27608222.291504
-27633530.856986
-27661015.422468
-27687091.987950
-27714192.553432
-27742189.118914
-27769865.684396
-28524931.538935
-28549472.104416
-28574076.669898
-28600985.235380
-28625973.800862
-28651986.366344
-28679534.931826
-28705611.497308
-28731944.062790
-29499233.917329
-29522430.482811
-29547163.048293
-29573047.613775
-29598740.179257
-29624752.744739
-29650637.310221
-29677417.875703
-29703942.441185
-30480064.295724
-30504988.861206
-30529209.426688
-30554453.992170
-30578802.557652
-30603279.123134
-30630891.688616
-30656712.254098
-30684324.819580
-31469278.674119
-31490939.239601
-31517207.805083
-31541428.370565
-31566480.936047
-31591725.501529
-31616586.067011
-31643174.632493
-31669251.197975
-32462333.052514
-32486105.617996
-32510070.183478
-32535186.748960
-32560495.314442
-32584395.879924
-32609768.445406
-32635269.010888
-32661345.576369
-33463899.430908
-33487543.996390
-33511700.561872
-33535473.127354
-33559501.692836
-33584490.258318
-33609222.823800
-33633379.389282
-33660351.954764
-34470649.809303
-34493014.374785
-34516210.940267
-34541007.505749
-34563436.071231
-34588168.636713
-34613285.202195
-34638529.767677
-34662558.333159
-35481432.187698
-35503540.753180
-35527441.318662
-35549933.884144
-35574666.449626
-35598375.015108
-35621315.580590
-35646432.146072
-35672508.711554
-36498102.566093
-36520083.131575
-36543151.697057
-36565772.262539
-36588712.828021
-36612101.393503
-36637025.958985
-36659646.524467
-36683995.089949
-37517780.944488
-37538865.509970
-37562318.075452
-37583722.640934
-37608007.206416
-37630435.771898
-37653184.337379
-37677084.902861
-37701369.468343
-38540851.322882
-38562959.888364
-38584684.453846
-38607497.019328
-38628901.584810
-38652034.150292
-38674654.715774
-38699963.281256
-38721047.846738
-39566737.701277
-39588910.266759
-39609738.832241
-39631527.397723
-39654851.963205
-39676448.528687
-39700221.094169
-39722073.659651
-39745270.225133
-40595312.079672
-40616524.645154
-40637545.210636
-40660421.776118
-40681954.341600
-40704190.907082
-40726427.472564
-40749368.038046
-40772180.603528
-41626894.458067
-41647979.023549
-41669383.589031
-41690020.154513
-41711808.719995
-41733533.285477
-41755961.850959
-41777366.416441
-41800690.981923
-42660204.836462
-42682825.401944
-42701349.967426
-42723266.532908
-42744863.098390
-42766587.663871
-42787672.229353
-42809012.794835
-42831569.360317
-43695115.214856
-43716135.780338
-43736964.345820
-43757728.911302
-43777725.476784
-43798426.042266
-43819958.607748
-43841747.173230
-43862959.738712
-44729641.593251
-44750982.158733
-44772322.724215
-44791551.289697
-44812379.855179
-44833528.420661
-44854548.986143
-44874609.551625
-44896334.117107
-45767111.971646
-45786724.537128
-45806977.102610
-45826589.668092
-45846906.233574
-45867670.799056
-45888435.364538
-45909519.930020
-45929772.495502
-46803238.350041
-46822146.915523
-46842783.481005
-46863164.046487
-46882456.611969
-46902005.177451
-46923473.742933
-46943406.308415
-46963274.873897
-47840068.728436
-47859105.293918
-47878525.859400
-47897626.424882
-47918006.990363
-47938387.555845
-47958192.121327
-47977228.686809
-47997865.252291
-48875299.106830
-48894655.672312
-48913692.237794
-48932728.803276
-48952981.368758
-48970929.934240
-48992270.499722
-49011563.065204
-49031239.630686
-49910785.485225
-49929950.050707
-49948218.616189
-49967639.181671
-49986611.747153
-50005968.312635
-50024620.878117
-50043401.443599
-50064870.009081
-50944479.863620
-50963324.429102
-50981208.994584
-51001525.560066
-51018450.125548
-51038702.691030
-51057419.256512
-51074343.821994
-51095492.387476
-51975678.242015
-51994522.807497
-52012855.372979
-52031123.938461
-52050800.503943
-52069069.069425
-52087529.634907
-52106950.200389
-52124514.765871
-53006300.620410
-53023865.185892
-53042837.751373
-53061362.316855
-53078862.882337
-53098155.447819
-53115976.013301
-53134564.578783
-53152705.144265
-54034618.998804
-54053079.564286
-54070772.129768
-54088144.695250
-54106541.260732
-54124041.826214
-54143142.391696
-54161026.957178
-54177887.522660
-55059865.377199
-55076917.942681
-55094546.508163
-55113327.073645
-55131147.639127
-55148584.204609
-55166084.770091
-55184481.335573
-55202045.901055
-56083127.755594
-56100372.321076
-56117808.886558
-56135565.452040
-56153642.017522
-56169990.583004
-56187555.148486
-56204415.713968
-56221724.279450
-57103126.133989
-57120626.699471
-57137423.264953
-57153963.830435
-57170440.395917
-57188452.961399
-57205313.526881
-57222686.092363
-57239162.657845
-58117812.512384
-58135633.077865
-58153453.643347
-58170122.208829
-58185766.774311
-58203331.339793
-58221407.905275
-58237180.470757
-58253721.036239
-59131282.890778
-59148911.456260
-59164044.021742
-59181032.587224
-59198725.152706
-59214241.718188
-59230078.283670
-59248026.849152
-59263735.414634
-60139825.269173
-60157453.834655
-60173418.400137
-60190214.965619
-60205411.531101
-60222144.096583
-60237916.662065
-60254905.227547
-60270741.793029
-61145167.647568
-61160172.213050
-61177416.778532
-61194149.344014
-61209665.909496
-61225502.474978
-61242683.040460
-61257495.605942
-61274292.171424
-62145966.025963
-62160970.591445
-62176871.156927
-62193987.722409
-62209440.287891
-62223740.853373
-62240409.418855
-62256565.984337
-62271442.549818
-63140108.404357
-63156392.969839
-63172805.535321
-63187810.100803
-63204222.666285
-63220187.231767
-63234807.797249
-63250900.362731
-63265776.928213
-64132138.782752
-64147207.348234
-64162915.913716
-64177472.479198
-64193949.044680
-64208569.610162
-64225110.175644
-64239794.741126
-64253199.306608
SCALARS stress_2 float
LOOKUP_TABLE default
102754.997025
-25608431.980196
-25223662.542981
-24836909.105766
-24449323.668551
-24058602.231335
-23666440.794120
-23273607.356905
-22878853.919690
-22482148.482474
-22084291.045259
-21685185.608044
-21284800.170829
-20884318.733613
-20482205.296398
-20079003.859183
-19675354.421968
-19270872.984752
-18866487.547537
-18462262.110322
-18057428.673106
-17652819.235891
-17247441.798676
-16843696.361461
-16439438.924245
-16036525.487030
-15634060.049815
-15233002.612600
-14833001.175384
-14433703.738169
-14036902.300954
-13640772.863739
-13247011.426523
-12854977.989308
-12465312.552093
-12078463.114877
-11693277.677662
-11311292.240447
-10932794.803232
-10556857.366016
-10184663.928801
-9815990.491586
-9451093.054371
-9090067.617155
-8733202.179940
-8380720.742725
-8032431.305510
-7688941.868294
-7350668.431079
-7017386.993864
-6689065.556648
-6367336.119433
-6049638.682218
-5738341.245003
-5433987.807787
-5134146.370572
-4841632.933357
-4555743.496142
-4275742.058926
-4002684.621711
-3737243.184496
-3478201.747281
-3226488.310065
-2981654.872850
-2744533.435635
-2514995.998420
-2292850.561204
-2078513.123989
-1871663.686774
-1672590.249558
-1481004.812343
-1297675.375128
-1123177.937913
-954760.500697
-795111.063482
-643493.626267
-499908.189052
-363778.751836
-235521.314621
-115199.877406
-2782.440191
-24725782.348247
828092.628974
730875.191759
626521.754544
512952.317328
392854.880113
263925.442898
127892.005683
-16877.431533
-170030.868748
-330928.305963
-499665.743179
-676371.180394
-861396.617609
-1054518.054824
-1255223.492040
-1464504.929255
-1680730.366470
-1904763.803685
-2136765.240901
-2376318.678116
-2623744.115331
-2877953.552546
-3139170.989762
-3407620.426977
-3683685.864192
-3965031.301407
-4254376.738623
-4550058.175838
-4851563.613053
-5158733.050269
-5473166.487484
-5792847.924699
-6117553.361914
-6448786.799130
-6784404.236345
-7125333.673560
-7471287.110775
-7822072.547991
-8177657.985206
-8536987.422421
-8900348.859636
-9268158.296852
-9638655.734067
-10013185.171282
-10391202.608498
-10772804.045713
-11156453.482928
-11543302.920143
-11932200.357359
-12324169.794574
-12717835.231789
-13113260.669004
-13510766.106220
-13910607.543435
-14310960.980650
-14712146.417865
-15115123.855081
-15519317.292296
-15923702.729511
-16328888.166727
-16734585.603942
-17140347.041157
-17546812.478372
-17952221.915588
-18358591.352803
-18763968.790018
-19168738.227233
-19573475.664449
-19976741.101664
-20380614.538879
-20782151.976094
-21183017.413310
-21582698.850525
-21981484.287740
-22377869.724955
-22774031.162171
-23168240.599386
-23560114.036601
-23951091.473817
-24339540.911032
-24814575.311442
-24902920.274637
-24991425.237832
-25079610.201027
-25167731.164222
-25255692.127417
-25343877.090612
-25431838.053807
-25520311.017002
176763.960220
250612.923415
323277.886610
396614.849804
469535.812999
541688.776194
613841.739389
685642.702584
756739.665779
658530.228564
586601.265369
514096.302174
440855.338979
368030.375784
294789.412589
220268.449394
146995.486199
72538.523004
553152.791349
480615.828154
407054.864959
333397.901764
259420.938569
185027.975374
111083.012179
35826.048984
-39526.914211
439807.354133
366598.390938
292109.427744
217556.464549
143227.501354
67842.538159
-7638.425036
-83119.388231
-158920.351426
318685.916918
243876.953723
169227.990528
94387.027333
18842.064138
-57182.899057
-133239.862252
-209840.825446
-286889.788641
188892.479703
114147.516508
38154.553313
-37518.409882
-113831.373077
-190528.336272
-267577.299467
-344370.262662
-421739.225857
51931.042488
-24125.920707
-100918.883902
-177615.847097
-254152.810292
-331041.773487
-409050.736682
-486899.699877
-564716.663072
-93286.394728
-170175.357923
-246808.321118
-324849.284312
-401706.247507
-480579.210702
-558652.173897
-637717.137092
-716270.100287
-246727.831943
-324032.795138
-402521.758333
-479890.721528
-559115.684723
-636932.647918
-716477.611113
-795574.574308
-875535.537502
-408457.269158
-486338.232353
-565275.195548
-643668.158743
-722669.121938
-802502.085133
-881695.048328
-961624.011523
-1041808.974718
-577770.706373
-657027.669568
-736124.632763
-815125.595958
-894830.559153
-974663.522348
-1054912.485543
-1135737.448738
-1216754.411933
-754956.143589
-834917.106784
-914366.069979
-994807.033174
-1074895.996368
-1155816.959563
-1237057.922758
-1318170.885953
-1399699.849148
-941357.580804
-1020710.543999
-1101631.507194
-1182424.470389
-1263665.433584
-1345098.396779
-1425667.359974
-1508060.323169
-1590709.286364
-1134543.018019
-1215079.981214
-1295872.944409
-1377497.907604
-1459410.870799
-1540907.833994
-1623396.797189
-1705693.760384
-1788726.723579
-1336080.455235
-1417193.418429
-1499074.381624
-1581211.344819
-1663220.308014
-1745229.271209
-1828294.234404
-1911391.197599
-1994648.160794
-1545073.892450
-1627274.855645
-1709667.818840
-1791740.782035
-1874485.745230
-1957070.708424
-2041255.671619
-2124832.634814
-2208985.598009
-1762707.329665
-1844844.292860
-1927429.256055
-2010334.219250
-2094039.182445
-2177232.145640
-2261609.108835
-2346018.072030
-2429755.035225
-1987796.766880
-2070605.730075
-2153574.693270
-2237343.656465
-2321144.619660
-2405521.582855
-2490090.546050
-2574179.509245
-2658716.472440
-2220086.204096
-2303087.167291
-2387176.130485
-2471297.093680
-2555610.056875
-2640051.020070
-2725195.983265
-2810500.946460
-2896221.909655
-2459607.641311
-2543728.604506
-2628521.567701
-2712578.530896
-2797755.494091
-2882772.457286
-2968109.420480
-3053734.383675
-3140383.346870
-2707097.078526
-2791986.041721
-2876779.004916
-2961571.968111
-3047484.931306
-3132597.894501
-3218446.857696
-3305127.820891
-3391616.784086
-2962074.515741
-3047443.478936
-3132940.442131
-3217893.405326
-3303998.368521
-3389719.331716
-3476176.294911
-3562825.258106
-3649698.221301
-3223963.952957
-3309460.916152
-3395437.879347
-3480966.842541
-3567807.805736
-3654104.768931
-3740721.732126
-3827754.695321
-3915331.658516
-3492445.390172
-3578454.353367
-3664943.316562
-3751432.279757
-3838273.242952
-3925242.206147
-4012563.169342
-4100204.132536
-4187493.095731
-3769118.827387
-3855255.790582
-3941712.753777
-4028361.716972
-4115618.680167
-4202811.643362
-4291028.606557
-4379117.569752
-4467046.532947
-4051424.264602
-4138233.227797
-4225074.190992
-4312427.154187
-4400388.117382
-4487357.080577
-4576342.043772
-4664175.006967
-4752999.970162
-4340737.701818
-4427802.665013
-4515507.628208
-4603052.591403
-4690949.554597
-4778814.517792
-4867095.480987
-4956336.444182
-5044777.407377
-4637283.139033
-4723932.102228
-4811861.065423
-4899822.028618
-4988230.991813
-5076447.955008
-5165464.918203
-5254577.881398
-5343946.844592
-4938724.576248
-5026973.539443
-5114262.502638
-5202671.465833
-5291848.429028
-5380513.392223
-5469978.355418
-5559123.318613
-5648492.281808
-5246886.013463
-5335070.976658
-5423895.939853
-5512112.903048
-5601225.866243
-5690210.829438
-5780091.792633
-5869556.755828
-5959437.719023
-5560967.450679
-5649888.413874
-5738425.377069
-5828146.340264
-5916939.303459
-6005988.266653
-6096221.229848
-6186230.193043
-6275823.156238
-5880968.887894
-5969889.851089
-6059418.814284
-6147891.777479
-6238156.740674
-6328037.703869
-6417726.667064
-6507895.630259
-6598160.593454
-6206954.325109
-6295715.288304
-6385180.251499
-6474677.214694
-6564302.177889
-6654343.141084
-6744320.104279
-6835353.067474
-6926482.030669
-6537867.762325
-6627524.725520
-6716925.688714
-6806614.651909
-6896815.615104
-6986888.578299
-7077793.541494
-7168058.504689
-7259443.467884
-6874253.199540
-6963750.162735
-7053215.125930
-7143960.089125
-7234289.052320
-7324618.015515
-7415586.978709
-7506747.941904
-7597556.905099
-7215310.636755
-7305799.599950
-7395456.563145
-7485977.526340
-7576338.489535
-7666955.452730
-7758084.415925
-7849149.379120
-7940886.342315
-7561584.073970
-7651625.037165
-7741762.000360
-7832570.963555
-7922835.926750
-8014060.889945
-8105477.853140
-8197022.816335
-8288343.779530
-7912209.511186
-8002954.474381
-8093155.437576
-8183452.400770
-8274805.363965
-8365582.327160
-8457607.290355
-8549216.253550
-8641113.216745
-8267986.948401
-8358091.911596
-8448964.874791
-8539869.837986
-8630998.801181
-8722191.764376
-8814120.727571
-8905953.690765
-8997914.653960
-8627444.385616
-8717741.348811
-8808550.312006
-8899903.275201
-8991096.238396
-9082641.201591
-9174314.164786
-9266915.127981
-9358620.091176
-8990901.822831
-9081870.786026
-9172199.749221
-9264480.712416
-9355609.675611
-9447410.638806
-9539371.602001
-9631588.565196
-9723965.528391
-9358871.260047
-9449776.223242
-9540393.186437
-9632034.149632
-9724059.112826
-9815668.076021
-9907565.039216
-10000198.002411
-10092190.965606
-9730072.697262
-9821041.660457
-9912490.623652
-10003875.586847
-10095228.550042
-10187605.513237
-10279278.476432
-10371975.439627
-10464416.402821
-10105018.134477
-10196243.097672
-10287692.060867
-10378981.024062
-10470813.987257
-10562710.950452
-10654767.913647
-10747432.876842
-10840289.840037
-10482619.571692
-10573972.534887
-10665837.498082
-10757606.461277
-10849407.424472
-10941016.387667
-11034385.350862
-11126378.314057
-11219043.277252
-10863517.008908
-10955253.972103
-11046798.935298
-11138759.898493
-11230752.861688
-11322745.824882
-11414802.788077
-11507787.751272
-11600612.714467
-11247742.446123
-11339703.409318
-11431312.372513
-11523241.335708
-11615426.298903
-11708251.262098
-11800372.225293
-11892749.188488
-11984742.151683
-11634591.883338
-11726104.846533
-11817745.809728
-11910314.772923
-12002307.736118
-12094716.699313
-12187349.662508
-12279310.625703
-12372327.588898
-12024289.320554
-12115930.283748
-12207667.246943
-12299852.210138
-12392389.173333
-12484510.136528
-12576407.099723
-12669168.062918
-12762057.026113
-12415650.757769
-12507195.720964
-12599956.684159
-12691053.647354
-12784198.610549
-12875807.573744
-12968728.536938
-13061105.500133
-13154218.463328
-12809604.194984
-12901245.158179
-12993110.121374
-13084943.084569
-13177000.047764
-13269185.010959
-13362521.974154
-13455154.937349
-13548203.900544
-13204933.632199
-13296766.595394
-13388887.558589
-13481488.521784
-13573257.484979
-13665378.448174
-13758395.411369
-13850932.374564
-13944045.337759
-13602855.069415
-13694560.032610
-13786968.995804
-13878449.958999
-13971082.922194
-14063203.885389
-14156124.848584
-14247957.811779
-14341294.774974
-14001800.506630
-14093601.469825
-14185882.433020
-14277555.396215
-14370476.359410
-14462277.322605
-14554942.285800
-14647735.248994
-14739600.212189
-14402793.943845
-14494338.907040
-14586491.870235
-14678580.833430
-14770381.796625
-14863014.759820
-14955135.723015
-15047672.686210
-15140113.649405
-14804491.381060
-14895780.344255
-14988093.307450
-15079894.270645
-15172303.233840
-15264392.197035
-15356961.160230
-15448890.123425
-15542099.086620
-15207372.818276
-15298885.781471
-15390686.744666
-15482999.707860
-15574928.671055
-15666921.634250
-15759234.597445
-15851643.560640
-15944020.523835
-15610830.255491
-15702695.218686
-15794528.181881
-15886585.145076
-15978962.108271
-16070475.071466
-16163364.034661
-16255036.997856
-16347189.961050
-16015343.692706
-16107112.655901
-16198977.619096
-16290874.582291
-16382867.545486
-16474828.508681
-16567013.471876
-16659358.435071
-16751319.398266
-16420945.129921
-16512266.093116
-16604099.056311
-16695996.019506
-16787892.982701
-16879629.945896
-16972038.909091
-17063423.872286
-17155384.835481
-16826130.567137
-16917707.530332
-17009380.493527
-17101021.456722
-17192790.419916
-17284943.383111
-17376552.346306
-17468129.309501
-17560474.272696
-17231700.004352
-17323276.967547
-17414853.930742
-17506366.893937
-17598199.857132
-17690192.820327
-17781641.783522
-17873954.746717
-17965499.709912
-17637653.441567
-17729166.404762
-17820711.367957
-17912064.331152
-18003833.294347
-18095730.257542
-18187051.220737
-18278596.183932
-18370045.147127
-18043798.878783
-18135279.841977
-18226056.805172
-18317825.768367
-18409146.731562
-18500371.694757
-18592620.657952
-18683685.621147
-18775358.584342
-18449144.315998
-18540657.279193
-18631402.242388
-18723203.205583
-18814492.168778
-18905877.131972
-18996846.095167
-19088231.058362
-19180064.021557
-18854297.753213
-18946162.716408
-19037291.679603
-19128132.642798
-19219261.605993
-19309910.569188
-19401999.532383
-19492808.495578
-19583905.458773
-19259803.190428
-19350580.153623
-19441517.116818
-19532294.080013
-19623807.043208
-19714392.006403
-19805712.969598
-19897001.932793
-19987746.895988
-19663868.627644
-19754677.590839
-19845742.554033
-19936775.517228
-20027520.480423
-20118713.443618
-20209042.406813
-20299787.370008
-20390756.333203
-20067646.064859
-20158487.028054
-20249135.991249
-20340136.954444
-20430369.917639
-20521242.880834
-20611891.844028
-20702540.807223
-20793605.770418
-20470911.502074
-20560792.465269
-20651281.428464
-20742314.391659
-20832387.354854
-20923164.318049
-21014005.281244
-21104142.244439
-21194887.207634
-20872000.939289
-20962841.902484
-21053234.865679
-21143339.828874
-21234180.792069
-21324509.755264
-21414486.718459
-21504623.681654
-21594760.644849
-21273858.376505
-21363131.339700
-21454004.302895
-21543405.266089
-21633574.229284
-21724095.192479
-21814488.155674
-21904337.118869
-21994218.082064
-21672835.813720
-21762652.776915
-21852469.740110
-21942542.703305
-22032711.666500
-22122336.629695
-22212665.592890
-22302706.556084
-22392363.519279
-22071109.250935
-22160670.214130
-22250807.177325
-22340496.140520
-22430473.103715
-22519938.066910
-22610139.030105
-22699507.993300
-22789228.956495
-22467750.688150
-22557535.651345
-22647064.614540
-22736337.577735
-22826954.540930
-22915971.504125
-23005436.467320
-23094869.430515
-23184142.393710
-22863336.125366
-22953217.088561
-23042010.051756
-23131667.014951
-23220939.978145
-23310372.941340
-23399773.904535
-23488598.867730
-23578031.830925
-23257385.562581
-23345986.525776
-23435227.488971
-23524788.452166
-23614029.415361
-23702886.378556
-23792287.341751
-23881208.304946
-23969873.268140
-23649322.999796
-23738499.962991
-23827100.926186
-23916597.889381
-24005038.852576
-24093831.815771
-24182944.778966
-24271833.742161
-24360338.705356
-24040044.437011
-24128581.400206
-24216894.363401
-24306263.326596
-24395184.289791
-24483241.252986
-24571714.216181
-24660699.179376
-24748596.142571
-24428493.874227
-24516742.837422
-24605343.800617
-24694072.763812
-24782193.727007
-24870762.690201
-24959395.653396
-25046844.616591
-25135253.579786
SCALARS stress_3 float
LOOKUP_TABLE default
217517.779489
16407650.098179
16174353.044196
15940271.990212
15704270.936229
15467773.882245
15228700.828261
14989211.774278
14748586.720294
14505929.666310
14264504.612327
14020087.558343
13776806.504360
13531557.450376
13285524.396392
13038755.342409
12792178.288425
12543809.234441
12296112.180458
12048431.126474
11798878.072490
11550733.018507
11301803.964523
11053706.910540
10805401.856556
10556504.802572
10309079.748589
10059478.694605
9813637.640621
9566324.586638
9320499.532654
9075074.478671
8831569.424687
8586992.370703
8343967.316720
8103038.262736
7864493.208752
7625500.154769
7390907.100785
7155594.046802
6922184.992818
6689943.938834
6460598.884851
6233957.830867
6009844.776883
5786627.722900
5567298.668916
5349473.614933
5135520.560949
4925439.506965
4714814.452982
4509821.398998
4308220.345014
4108427.291031
3912666.237047
3720281.183064
3532088.129080
3346871.075096
3165942.021113
2989988.967129
2815587.913145
2647762.859162
2483553.805178
2321168.751195
2166591.697211
2014750.643227
1867245.589244
1723788.535260
1586443.481276
1452202.427293
1323833.373309
1197352.319326
1079255.265342
964646.211358
854645.157375
749364.103391
647955.049407
552737.995424
462064.941440
375695.887457
295630.833473
16258849.224980
-130067.093710
-53330.039727
29263.014257
113760.068240
204129.122224
299522.176208
400835.230191
506420.284175
616965.338159
731878.392142
851975.446126
976552.500109
1106937.554093
1241978.608077
1381387.662060
1525100.716044
1675693.770028
1826926.824011
1985615.877995
2147760.931978
2314321.985962
2486627.039946
2659940.093929
2841365.147913
3023190.201897
3210663.255880
3401816.309864
3596233.363847
3795850.417831
3995707.471815
4201884.525798
4410237.579782
4622110.633766
4836255.687749
5053440.741733
5274417.795716
5497218.849700
5722803.903684
5950100.957667
6180854.011651
6414231.065635
6649464.119618
6885081.173602
7123338.227586
7362523.281569
7605420.335553
7848781.389536
8091630.443520
8337695.497504
8583520.551487
8832081.605471
9079698.659455
9331123.713438
9581156.767422
9832133.821405
10082694.875389
10334327.929373
10585576.983356
10838586.037340
11091083.091324
11342268.145307
11595677.199291
11845566.253274
12096703.307258
12348848.361242
12600001.415225
12848770.469209
13099603.523193
13349076.577176
13596981.631160
13843286.685143
14089207.739127
14334616.793111
14579001.847094
14823370.901078
15065291.955062
15306765.009045
15546190.063029
15786111.117012
16021424.170996
16274132.512300
16288215.799620
16302715.086940
16319166.374260
16333265.661580
16349492.948900
16364200.236219
16378923.523539
16393598.810859
182666.492169
147847.204849
113955.917529
79120.630209
44365.342889
8010.055569
-25545.231751
-60252.519070
-94143.806390
-19182.752407
15140.534913
49351.822233
85179.109553
120942.396873
154465.684193
188948.971513
225688.258833
260443.546153
63266.301577
96709.588897
130648.876217
165500.163537
200271.450857
235826.738177
270646.025497
305705.312817
340860.600137
148147.355560
183030.642880
216249.930200
252637.217520
286208.504840
322403.792160
356551.079480
392506.366800
426493.654120
238404.409544
273927.696864
308154.984184
342414.271504
376897.558824
413060.846144
447688.133464
484027.420784
517406.708104
334453.463528
369000.750848
403500.038168
438367.325488
471730.612808
508517.900128
543881.187448
577916.474767
614175.762087
434118.517511
468745.804831
503517.092151
538512.379471
574035.666791
609030.954111
643018.241431
677709.528751
713616.816071
540023.571495
575034.858815
609246.146135
644449.433455
679236.720775
714040.008095
749163.295415
783102.582735
818849.870055
650584.625479
685387.912799
720831.200118
754834.487438
789429.774758
823737.062078
859628.349398
894767.636718
929746.924038
766825.679462
799580.966782
834944.254102
869699.541422
905494.828742
939130.116062
974141.403382
1008528.690702
1044227.978022
886618.733446
921822.020766
955025.308086
989284.595406
1023687.882726
1059723.170046
1092974.457366
1129489.744686
1164197.032006
1011051.787429
1045711.074749
1080002.362069
1113573.649389
1149448.936709
1184348.224029
1217359.511349
1252754.798669
1287718.085989
1141660.841413
1174720.128733
1209443.416053
1244150.703373
1278681.990693
1314093.278013
1347504.565333
1383763.852653
1417175.139973
1276029.895397
1309505.182717
1344292.470037
1377271.757357
1412459.044677
1447390.331997
1480945.619317
1517124.906636
1549848.193956
1415950.949380
1449090.236700
1482757.524020
1517256.811340
1552572.098660
1585663.385980
1621298.673300
1654485.960620
1689081.247940
1559664.003364
1592771.290684
1627622.578004
1660905.865324
1694845.152644
1728960.439964
1763635.727284
1797943.014604
1832938.301924
1707713.057348
1741300.344668
1774167.631988
1809914.919307
1842974.206627
1877489.493947
1912468.781267
1946472.068587
1981179.355907
1860626.111331
1894309.398651
1929144.685971
1962603.973291
1995663.260611
2030034.547931
2062757.835251
2097481.122571
2132428.409891
2018851.165315
2052950.452635
2085609.739955
2118637.027275
2153744.314595
2187219.601915
2220022.889235
2254458.176555
2288445.463875
2182340.219298
2214231.506618
2248074.793938
2279054.081258
2313313.368578
2348164.655898
2380983.943218
2414987.230538
2448782.517858
2346869.273282
2381160.560602
2413163.847922
2446079.135242
2481330.422562
2512085.709882
2547144.997202
2580940.284522
2613871.571842
2518630.327266
2552057.614586
2584236.901906
2617408.189226
2650291.476546
2681318.763866
2716858.051186
2749101.338505
2782912.625825
2693543.381249
2725690.668569
2759293.955889
2790993.243209
2824116.530529
2857511.817849
2890923.105169
2922878.392489
2956113.679809
2871192.435233
2905307.722553
2937439.009873
2970098.297193
3001397.584513
3035640.871833
3067036.159153
3100735.446473
3133330.733793
3055401.489217
3087292.776537
3119344.063857
3151731.351176
3183046.638496
3217145.925816
3249229.213136
3282000.500456
3313507.787776
3242874.543200
3274189.830520
3306337.117840
3338884.405160
3370135.692480
3401370.979800
3435326.267120
3466481.554440
3500932.841760
3432043.597184
3464110.884504
3497122.171824
3528405.459144
3560920.746464
3592092.033784
3624767.321104
3655906.608424
3688405.895744
3627340.651167
3658191.938487
3690467.225807
3721766.513127
3753641.800447
3784813.087767
3816736.375087
3848131.662407
3881030.949727
3826317.705151
3856656.992471
3888164.279791
3919735.567111
3950842.854431
3982078.141751
4013617.429071
4044900.716391
4077192.003711
4025582.759135
4058850.046455
4088821.333775
4119160.621095
4151115.908415
4182831.195735
4213890.483055
4245253.770375
4275817.057694
4233487.813118
4262051.100438
4293574.387758
4324601.675078
4354972.962398
4385056.249718
4417731.537038
4446534.824358
4479242.111678
4439456.867102
4470420.154422
4501143.441742
4531114.729062
4561742.016382
4593473.303702
4621924.591022
4654199.878342
4684347.165662
4651777.921086
4682229.208406
4710744.495726
4741931.783046
4772655.070365
4801538.357685
4833237.645005
4863096.932325
4893404.219645
4867202.975069
4894358.262389
4924601.549709
4956252.837029
4984560.124349
5016771.411669
5044646.698989
5075593.986309
5105309.273629
5083108.029053
5113399.316373
5141978.603693
5171741.891013
5201297.178333
5229732.465653
5260039.752973
5289275.040293
5319550.327613
5303541.083036
5332264.370356
5361275.657676
5390990.944996
5419234.232316
5450709.519636
5478056.806956
5509388.094276
5538207.381596
5525814.137020
5554297.424340
5584252.711660
5612271.998980
5642403.286300
5670198.573620
5699193.860940
5729261.148260
5758560.435580
5751175.191004
5779578.478324
5808861.765644
5837665.052964
5864900.340284
5894311.627604
5923210.914924
5952974.202244
5981377.489563
5978744.244987
6007643.532307
6035342.819627
6065490.106947
6091429.394267
6120552.681587
6147979.968907
6177471.256227
6204466.543547
6209433.298971
6236780.586291
6264623.873611
6292563.160931
6320582.448251
6349225.735571
6377613.022891
6405168.310211
6432515.597531
6442522.352955
6468269.640275
6496816.927595
6524900.214915
6551207.502234
6579306.789554
6606030.076874
6633873.364194
6662084.651514
6674843.406938
6703150.694258
6729793.981578
6757013.268898
6784424.556218
6812539.843538
6838223.130858
6866754.418178
6893781.705498
6911148.460922
6938559.748242
6965427.035562
6993574.322882
7019497.610202
7045596.897522
7073952.184842
7100419.472162
7127766.759482
7148861.514905
7175952.802225
7202708.089545
7229511.376865
7255146.664185
7283181.951505
7308625.238825
7336132.526145
7364071.813465
7389374.568889
7415681.856209
7442597.143529
7468376.430849
7495147.718169
7520495.005489
7546578.292809
7572821.580129
7600312.867449
7629583.622873
7656226.910193
7681862.197513
7708073.484833
7734524.772153
7760416.059473
7786355.346793
7812342.634113
7838329.921433
7872560.676856
7898563.964176
7924199.251496
7948762.538816
7975453.826136
8001361.113456
8027124.400776
8053015.688096
8077738.975416
8116865.730840
8142277.018160
8167592.305480
8192683.592800
8218526.880120
8244370.167440
8269973.454760
8295464.742080
8318556.029400
8362034.784824
8386822.072144
8413033.359464
8437612.646784
8461503.934103
8487923.221423
8512182.508743
8537769.796063
8562509.083383
8610099.838807
8633959.126127
8656858.413447
8683389.700767
8707440.988087
8733540.275407
8755287.562727
8781114.850047
8806126.137367
8857172.892791
8881336.180111
8904635.467431
8929870.754751
8953762.042071
8977797.329391
9002648.616711
9027003.904031
9050527.191351
9105941.946774
9127753.234094
9152476.521414
9176671.808734
9200387.096054
9225398.383374
9247481.670694
9271980.958014
9296560.245334
9354007.000758
9376890.288078
9401853.575398
9424848.862718
9448212.150038
9471767.437358
9495418.724678
9519150.011998
9543329.299318
9603320.054742
9626667.342062
9651070.629382
9674337.916702
9696293.204022
9720536.491342
9744283.778662
9766847.065982
9790514.353302
9853273.108725
9877596.396045
9899535.683365
9923282.970685
9946374.258005
9968953.545325
9992236.832645
10016160.119965
10037987.407285
10104810.162709
10127549.450029
10151408.737349
10171652.024669
10196695.311989
10217946.599309
10241741.886629
10263505.173949
10285796.461269
10356507.216693
10379694.504013
10400705.791333
10424309.078653
10445224.365973
10467515.653292
10490942.940612
10513010.227932
10534661.515252
10607996.270676
10630607.557996
10652098.845316
10674886.132636
10695593.419956
10719148.707276
10739519.994596
10759955.281916
10783446.569236
10860365.324660
10880992.611980
10902323.899300
10924615.186620
10945962.473940
10967869.761260
10988353.048580
11011284.335900
11032871.623220
11112030.378643
11133633.665963
11153780.953283
11175304.240603
11197179.527923
11218894.815243
11239714.102563
11261605.389883
11281144.677203
11364223.432627
11384162.719947
11403638.007267
11426041.294587
11446236.581907
11467727.869227
11488659.156547
11508982.443867
11530457.731187
11615088.486611
11636019.773931
11657399.061251
11679002.348571
11698813.635891
11718416.923211
11739444.210531
11758983.497851
11779850.785171
11866145.540594
11886996.827914
11907624.115234
11928187.402554
11948718.689874
11967889.977194
11987269.264514
12009512.551834
12027835.839154
12117682.594578
12137893.881898
12158249.169218
12179292.456538
12197903.743858
12217171.031178
12238070.318498
12257113.605818
12277180.893138
12368755.648562
12388758.935882
12408634.223202
12427565.510522
12447424.797842
12466900.085161
12487719.372481
12506410.659801
12525069.947121
12619684.702545
12638231.989865
12656827.277185
12677358.564505
12696897.851825
12715765.139145
12735048.426465
12754459.713785
12773551.001105
12869509.756529
12888185.043849
12906988.331169
12926671.618489
12944882.905809
12964726.193129
12982617.480449
13001404.767769
13019568.055089
13118614.810513
13136810.097832
13157565.385152
13175360.672472
13193523.959792
13212279.247112
13230170.534432
13248669.821752
13267985.109072
13366583.864496
13383867.151816
13403486.439136
13421345.726456
13440693.013776
13458520.301096
13476971.588416
13496846.875736
13514530.163056
13614616.918480
13632204.205800
13649775.493120
13669538.780440
13688374.067760
13706121.355080
13722652.642400
13739503.929720
13757187.217040
13861833.972463
13879277.259783
13897856.547103
13914627.834423
13932983.121743
13950762.409063
13968461.696383
13985296.983703
14004580.271023
14107755.026447
14125134.313767
14143265.601087
14161092.888407
14178840.175727
14196507.463047
14212510.750367
14230130.037687
14247381.325007
14352396.080431
14369823.367751
14388226.655071
14405493.942391
14421817.229711
14439084.517030
14456207.804350
14474771.091670
14491350.378990
14596861.134414
14614736.421734
14631779.709054
14648086.996374
14665370.283694
14682013.571014
14698576.858334
14716068.145654
14731111.432974
14839630.188398
14857633.475718
14872404.763038
14890824.050358
14907275.337678
14924782.624998
14939601.912318
14956869.199638
14972584.486958
15081663.242382
15098594.529701
15115381.817021
15130681.104341
15147404.391661
15164079.678981
15179986.966301
15196582.253621
15211545.540941
15323184.296365
15339283.583685
15354390.871005
15371066.158325
15387805.445645
15403536.732965
15418916.020285
15434311.307605
15451082.594925
15562657.350349
15578068.637669
15593895.924989
15609963.212309
15625966.499629
15641825.786949
15657797.074269
15672488.361589
15689307.648909
15800642.404332
15816933.691652
15832392.978972
15847996.266292
15862079.553612
15879074.840932
15894262.128252
15909753.415572
15923788.702892
16037235.458316
16052166.745636
16068282.032956
16084925.320276
16099312.607596
16114755.894916
16129239.182236
16144346.469556
16159517.756876
