# vtk DataFile Version 2.0
Generated volume Mesh
ASCII
DATASET UNSTRUCTURED_GRID
POINTS 891 float
0.005000 0.100000 0.000000
0.005000 0.000000 0.000000
0.005000 0.001250 0.000000
0.005000 0.002500 0.000000
0.005000 0.003750 0.000000
0.005000 0.005000 0.000000
0.005000 0.006250 0.000000
0.005000 0.007500 0.000000
0.005000 0.008750 0.000000
0.005000 0.010000 0.000000
0.005000 0.011250 0.000000
0.005000 0.012500 0.000000
0.005000 0.013750 0.000000
0.005000 0.015000 0.000000
0.005000 0.016250 0.000000
0.005000 0.017500 0.000000
0.005000 0.018750 0.000000
0.005000 0.020000 0.000000
0.005000 0.021250 0.000000
0.005000 0.022500 0.000000
0.005000 0.023750 0.000000
0.005000 0.025000 0.000000
0.005000 0.026250 0.000000
0.005000 0.027500 0.000000
0.005000 0.028750 0.000000
0.005000 0.030000 0.000000
0.005000 0.031250 0.000000
0.005000 0.032500 0.000000
0.005000 0.033750 0.000000
0.005000 0.035000 0.000000
0.005000 0.036250 0.000000
0.005000 0.037500 0.000000
0.005000 0.038750 0.000000
0.005000 0.040000 0.000000
0.005000 0.041250 0.000000
0.005000 0.042500 0.000000
0.005000 0.043750 0.000000
0.005000 0.045000 0.000000
0.005000 0.046250 0.000000
0.005000 0.047500 0.000000
0.005000 0.048750 0.000000
0.005000 0.050000 0.000000
0.005000 0.051250 0.000000
0.005000 0.052500 0.000000
0.005000 0.053750 0.000000
0.005000 0.055000 0.000000
0.005000 0.056250 0.000000
0.005000 0.057500 0.000000
0.005000 0.058750 0.000000
0.005000 0.060000 0.000000
0.005000 0.061250 0.000000
0.005000 0.062500 0.000000
0.005000 0.063750 0.000000
0.005000 0.065000 0.000000
0.005000 0.066250 0.000000
0.005000 0.067500 0.000000
0.005000 0.068750 0.000000
0.005000 0.070000 0.000000
0.005000 0.071250 0.000000
0.005000 0.072500 0.000000
0.005000 0.073750 0.000000
0.005000 0.075000 0.000000
0.005000 0.076250 0.000000
0.005000 0.077500 0.000000
0.005000 0.078750 0.000000
0.005000 0.080000 0.000000
0.005000 0.081250 0.000000
0.005000 0.082500 0.000000
0.005000 0.083750 0.000000
0.005000 0.085000 0.000000
0.005000 0.086250 0.000000
0.005000 0.087500 0.000000
0.005000 0.088750 0.000000
0.005000 0.090000 0.000000
0.005000 0.091250 0.000000
0.005000 0.092500 0.000000
0.005000 0.093750 0.000000
0.005000 0.095000 0.000000
0.005000 0.096250 0.000000
0.005000 0.097500 0.000000
0.005000 0.098750 0.000000
0.000000 0.000000 0.000000
0.000000 0.100000 0.000000
0.000000 0.098750 0.000000
0.000000 0.097500 0.000000
0.000000 0.096250 0.000000
0.000000 0.095000 0.000000
0.000000 0.093750 0.000000
0.000000 0.092500 0.000000
0.000000 0.091250 0.000000
0.000000 0.090000 0.000000
0.000000 0.088750 0.000000
0.000000 0.087500 0.000000
0.000000 0.086250 0.000000
0.000000 0.085000 0.000000
0.000000 0.083750 0.000000
0.000000 0.082500 0.000000
0.000000 0.081250 0.000000
0.000000 0.080000 0.000000
0.000000 0.078750 0.000000
0.000000 0.077500 0.000000
0.000000 0.076250 0.000000
0.000000 0.075000 0.000000
0.000000 0.073750 0.000000
0.000000 0.072500 0.000000
0.000000 0.071250 0.000000
0.000000 0.070000 0.000000
0.000000 0.068750 0.000000
0.000000 0.067500 0.000000
0.000000 0.066250 0.000000
0.000000 0.065000 0.000000
0.000000 0.063750 0.000000
0.000000 0.062500 0.000000
0.000000 0.061250 0.000000
0.000000 0.060000 0.000000
0.000000 0.058750 0.000000
0.000000 0.057500 0.000000
0.000000 0.056250 0.000000
0.000000 0.055000 0.000000
0.000000 0.053750 0.000000
0.000000 0.052500 0.000000
0.000000 0.051250 0.000000
0.000000 0.050000 0.000000
0.000000 0.048750 0.000000
0.000000 0.047500 0.000000
0.000000 0.046250 0.000000
0.000000 0.045000 0.000000
0.000000 0.043750 0.000000
0.000000 0.042500 0.000000
0.000000 0.041250 0.000000
0.000000 0.040000 0.000000
0.000000 0.038750 0.000000
0.000000 0.037500 0.000000
0.000000 0.036250 0.000000
0.000000 0.035000 0.000000
0.000000 0.033750 0.000000
0.000000 0.032500 0.000000
0.000000 0.031250 0.000000
0.000000 0.030000 0.000000
0.000000 0.028750 0.000000
0.000000 0.027500 0.000000
0.000000 0.026250 0.000000
0.000000 0.025000 0.000000
0.000000 0.023750 0.000000
0.000000 0.022500 0.000000
0.000000 0.021250 0.000000
0.000000 0.020000 0.000000
0.000000 0.018750 0.000000
0.000000 0.017500 0.000000
0.000000 0.016250 0.000000
0.000000 0.015000 0.000000
0.000000 0.013750 0.000000
0.000000 0.012500 0.000000
0.000000 0.011250 0.000000
0.000000 0.010000 0.000000
0.000000 0.008750 0.000000
0.000000 0.007500 0.000000
0.000000 0.006250 0.000000
0.000000 0.005000 0.000000
0.000000 0.003750 0.000000
0.000000 0.002500 0.000000
0.000000 0.001250 0.000000
0.000500 0.000000 0.000000
0.001000 0.000000 0.000000
0.001500 0.000000 0.000000
0.002000 0.000000 0.000000
0.002500 0.000000 0.000000
0.003000 0.000000 0.000000
0.003500 0.000000 0.000000
0.004000 0.000000 0.000000
0.004500 0.000000 0.000000
0.004500 0.100000 0.000000
0.004000 0.100000 0.000000
0.003500 0.100000 0.000000
0.003000 0.100000 0.000000
0.002500 0.100000 0.000000
0.002000 0.100000 0.000000
0.001500 0.100000 0.000000
0.001000 0.100000 0.000000
0.000500 0.100000 0.000000
0.000500 0.098750 0.000000
0.001000 0.098750 0.000000
0.001500 0.098750 0.000000
0.002000 0.098750 0.000000
0.002500 0.098750 0.000000
0.003000 0.098750 0.000000
0.003500 0.098750 0.000000
0.004000 0.098750 0.000000
0.004500 0.098750 0.000000
0.000500 0.097500 0.000000
0.001000 0.097500 0.000000
0.001500 0.097500 0.000000
0.002000 0.097500 0.000000
0.002500 0.097500 0.000000
0.003000 0.097500 0.000000
0.003500 0.097500 0.000000
0.004000 0.097500 0.000000
0.004500 0.097500 0.000000
0.000500 0.096250 0.000000
0.001000 0.096250 0.000000
0.001500 0.096250 0.000000
0.002000 0.096250 0.000000
0.002500 0.096250 0.000000
0.003000 0.096250 0.000000
0.003500 0.096250 0.000000
0.004000 0.096250 0.000000
0.004500 0.096250 0.000000
0.000500 0.095000 0.000000
0.001000 0.095000 0.000000
0.001500 0.095000 0.000000
0.002000 0.095000 0.000000
0.002500 0.095000 0.000000
0.003000 0.095000 0.000000
0.003500 0.095000 0.000000
0.004000 0.095000 0.000000
0.004500 0.095000 0.000000
0.000500 0.093750 0.000000
0.001000 0.093750 0.000000
0.001500 0.093750 0.000000
0.002000 0.093750 0.000000
0.002500 0.093750 0.000000
0.003000 0.093750 0.000000
0.003500 0.093750 0.000000
0.004000 0.093750 0.000000
0.004500 0.093750 0.000000
0.000500 0.092500 0.000000
0.001000 0.092500 0.000000
0.001500 0.092500 0.000000
0.002000 0.092500 0.000000
0.002500 0.092500 0.000000
0.003000 0.092500 0.000000
0.003500 0.092500 0.000000
0.004000 0.092500 0.000000
0.004500 0.092500 0.000000
0.000500 0.091250 0.000000
0.001000 0.091250 0.000000
0.001500 0.091250 0.000000
0.002000 0.091250 0.000000
0.002500 0.091250 0.000000
0.003000 0.091250 0.000000
0.003500 0.091250 0.000000
0.004000 0.091250 0.000000
0.004500 0.091250 0.000000
0.000500 0.090000 0.000000
0.001000 0.090000 0.000000
0.001500 0.090000 0.000000
0.002000 0.090000 0.000000
0.002500 0.090000 0.000000
0.003000 0.090000 0.000000
0.003500 0.090000 0.000000
0.004000 0.090000 0.000000
0.004500 0.090000 0.000000
0.000500 0.088750 0.000000
0.001000 0.088750 0.000000
0.001500 0.088750 0.000000
0.002000 0.088750 0.000000
0.002500 0.088750 0.000000
0.003000 0.088750 0.000000
0.003500 0.088750 0.000000
0.004000 0.088750 0.000000
0.004500 0.088750 0.000000
0.000500 0.087500 0.000000
0.001000 0.087500 0.000000
0.001500 0.087500 0.000000
0.002000 0.087500 0.000000
0.002500 0.087500 0.000000
0.003000 0.087500 0.000000
0.003500 0.087500 0.000000
0.004000 0.087500 0.000000
0.004500 0.087500 0.000000
0.000500 0.086250 0.000000
0.001000 0.086250 0.000000
0.001500 0.086250 0.000000
0.002000 0.086250 0.000000
0.002500 0.086250 0.000000
0.003000 0.086250 0.000000
0.003500 0.086250 0.000000
0.004000 0.086250 0.000000
0.004500 0.086250 0.000000
0.000500 0.085000 0.000000
0.001000 0.085000 0.000000
0.001500 0.085000 0.000000
0.002000 0.085000 0.000000
0.002500 0.085000 0.000000
0.003000 0.085000 0.000000
0.003500 0.085000 0.000000
0.004000 0.085000 0.000000
0.004500 0.085000 0.000000
0.000500 0.083750 0.000000
0.001000 0.083750 0.000000
0.001500 0.083750 0.000000
0.002000 0.083750 0.000000
0.002500 0.083750 0.000000
0.003000 0.083750 0.000000
0.003500 0.083750 0.000000
0.004000 0.083750 0.000000
0.004500 0.083750 0.000000
0.000500 0.082500 0.000000
0.001000 0.082500 0.000000
0.001500 0.082500 0.000000
0.002000 0.082500 0.000000
0.002500 0.082500 0.000000
0.003000 0.082500 0.000000
0.003500 0.082500 0.000000
0.004000 0.082500 0.000000
0.004500 0.082500 0.000000
0.000500 0.081250 0.000000
0.001000 0.081250 0.000000
0.001500 0.081250 0.000000
0.002000 0.081250 0.000000
0.002500 0.081250 0.000000
0.003000 0.081250 0.000000
0.003500 0.081250 0.000000
0.004000 0.081250 0.000000
0.004500 0.081250 0.000000
0.000500 0.080000 0.000000
0.001000 0.080000 0.000000
0.001500 0.080000 0.000000
0.002000 0.080000 0.000000
0.002500 0.080000 0.000000
0.003000 0.080000 0.000000
0.003500 0.080000 0.000000
0.004000 0.080000 0.000000
0.004500 0.080000 0.000000
0.000500 0.078750 0.000000
0.001000 0.078750 0.000000
0.001500 0.078750 0.000000
0.002000 0.078750 0.000000
0.002500 0.078750 0.000000
0.003000 0.078750 0.000000
0.003500 0.078750 0.000000
0.004000 0.078750 0.000000
0.004500 0.078750 0.000000
0.000500 0.077500 0.000000
0.001000 0.077500 0.000000
0.001500 0.077500 0.000000
0.002000 0.077500 0.000000
0.002500 0.077500 0.000000
0.003000 0.077500 0.000000
0.003500 0.077500 0.000000
0.004000 0.077500 0.000000
0.004500 0.077500 0.000000
0.000500 0.076250 0.000000
0.001000 0.076250 0.000000
0.001500 0.076250 0.000000
0.002000 0.076250 0.000000
0.002500 0.076250 0.000000
0.003000 0.076250 0.000000
0.003500 0.076250 0.000000
0.004000 0.076250 0.000000
0.004500 0.076250 0.000000
0.000500 0.075000 0.000000
0.001000 0.075000 0.000000
0.001500 0.075000 0.000000
0.002000 0.075000 0.000000
0.002500 0.075000 0.000000
0.003000 0.075000 0.000000
0.003500 0.075000 0.000000
0.004000 0.075000 0.000000
0.004500 0.075000 0.000000
0.000500 0.073750 0.000000
0.001000 0.073750 0.000000
0.001500 0.073750 0.000000
0.002000 0.073750 0.000000
0.002500 0.073750 0.000000
0.003000 0.073750 0.000000
0.003500 0.073750 0.000000
0.004000 0.073750 0.000000
0.004500 0.073750 0.000000
0.000500 0.072500 0.000000
0.001000 0.072500 0.000000
0.001500 0.072500 0.000000
0.002000 0.072500 0.000000
0.002500 0.072500 0.000000
0.003000 0.072500 0.000000
0.003500 0.072500 0.000000
0.004000 0.072500 0.000000
0.004500 0.072500 0.000000
0.000500 0.071250 0.000000
0.001000 0.071250 0.000000
0.001500 0.071250 0.000000
0.002000 0.071250 0.000000
0.002500 0.071250 0.000000
0.003000 0.071250 0.000000
0.003500 0.071250 0.000000
0.004000 0.071250 0.000000
0.004500 0.071250 0.000000
0.000500 0.070000 0.000000
0.001000 0.070000 0.000000
0.001500 0.070000 0.000000
0.002000 0.070000 0.000000
0.002500 0.070000 0.000000
0.003000 0.070000 0.000000
0.003500 0.070000 0.000000
0.004000 0.070000 0.000000
0.004500 0.070000 0.000000
0.000500 0.068750 0.000000
0.001000 0.068750 0.000000
0.001500 0.068750 0.000000
0.002000 0.068750 0.000000
0.002500 0.068750 0.000000
0.003000 0.068750 0.000000
0.003500 0.068750 0.000000
0.004000 0.068750 0.000000
0.004500 0.068750 0.000000
0.000500 0.067500 0.000000
0.001000 0.067500 0.000000
0.001500 0.067500 0.000000
0.002000 0.067500 0.000000
0.002500 0.067500 0.000000
0.003000 0.067500 0.000000
0.003500 0.067500 0.000000
0.004000 0.067500 0.000000
0.004500 0.067500 0.000000
0.000500 0.066250 0.000000
0.001000 0.066250 0.000000
0.001500 0.066250 0.000000
0.002000 0.066250 0.000000
0.002500 0.066250 0.000000
0.003000 0.066250 0.000000
0.003500 0.066250 0.000000
0.004000 0.066250 0.000000
0.004500 0.066250 0.000000
0.000500 0.065000 0.000000
0.001000 0.065000 0.000000
0.001500 0.065000 0.000000
0.002000 0.065000 0.000000
0.002500 0.065000 0.000000
0.003000 0.065000 0.000000
0.003500 0.065000 0.000000
0.004000 0.065000 0.000000
0.004500 0.065000 0.000000
0.000500 0.063750 0.000000
0.001000 0.063750 0.000000
0.001500 0.063750 0.000000
0.002000 0.063750 0.000000
0.002500 0.063750 0.000000
0.003000 0.063750 0.000000
0.003500 0.063750 0.000000
0.004000 0.063750 0.000000
0.004500 0.063750 0.000000
0.000500 0.062500 0.000000
0.001000 0.062500 0.000000
0.001500 0.062500 0.000000
0.002000 0.062500 0.000000
0.002500 0.062500 0.000000
0.003000 0.062500 0.000000
0.003500 0.062500 0.000000
0.004000 0.062500 0.000000
0.004500 0.062500 0.000000
0.000500 0.061250 0.000000
0.001000 0.061250 0.000000
0.001500 0.061250 0.000000
0.002000 0.061250 0.000000
0.002500 0.061250 0.000000
0.003000 0.061250 0.000000
0.003500 0.061250 0.000000
0.004000 0.061250 0.000000
0.004500 0.061250 0.000000
0.000500 0.060000 0.000000
0.001000 0.060000 0.000000
0.001500 0.060000 0.000000
0.002000 0.060000 0.000000
0.002500 0.060000 0.000000
0.003000 0.060000 0.000000
0.003500 0.060000 0.000000
0.004000 0.060000 0.000000
0.004500 0.060000 0.000000
0.000500 0.058750 0.000000
0.001000 0.058750 0.000000
0.001500 0.058750 0.000000
0.002000 0.058750 0.000000
0.002500 0.058750 0.000000
0.003000 0.058750 0.000000
0.003500 0.058750 0.000000
0.004000 0.058750 0.000000
0.004500 0.058750 0.000000
0.000500 0.057500 0.000000
0.001000 0.057500 0.000000
0.001500 0.057500 0.000000
0.002000 0.057500 0.000000
0.002500 0.057500 0.000000
0.003000 0.057500 0.000000
0.003500 0.057500 0.000000
0.004000 0.057500 0.000000
0.004500 0.057500 0.000000
0.000500 0.056250 0.000000
0.001000 0.056250 0.000000
0.001500 0.056250 0.000000
0.002000 0.056250 0.000000
0.002500 0.056250 0.000000
0.003000 0.056250 0.000000
0.003500 0.056250 0.000000
0.004000 0.056250 0.000000
0.004500 0.056250 0.000000
0.000500 0.055000 0.000000
0.001000 0.055000 0.000000
0.001500 0.055000 0.000000
0.002000 0.055000 0.000000
0.002500 0.055000 0.000000
0.003000 0.055000 0.000000
0.003500 0.055000 0.000000
0.004000 0.055000 0.000000
0.004500 0.055000 0.000000
0.000500 0.053750 0.000000
0.001000 0.053750 0.000000
0.001500 0.053750 0.000000
0.002000 0.053750 0.000000
0.002500 0.053750 0.000000
0.003000 0.053750 0.000000
0.003500 0.053750 0.000000
0.004000 0.053750 0.000000
0.004500 0.053750 0.000000
0.000500 0.052500 0.000000
0.001000 0.052500 0.000000
0.001500 0.052500 0.000000
0.002000 0.052500 0.000000
0.002500 0.052500 0.000000
0.003000 0.052500 0.000000
0.003500 0.052500 0.000000
0.004000 0.052500 0.000000
0.004500 0.052500 0.000000
0.000500 0.051250 0.000000
0.001000 0.051250 0.000000
0.001500 0.051250 0.000000
0.002000 0.051250 0.000000
0.002500 0.051250 0.000000
0.003000 0.051250 0.000000
0.003500 0.051250 0.000000
0.004000 0.051250 0.000000
0.004500 0.051250 0.000000
0.000500 0.050000 0.000000
0.001000 0.050000 0.000000
0.001500 0.050000 0.000000
0.002000 0.050000 0.000000
0.002500 0.050000 0.000000
0.003000 0.050000 0.000000
0.003500 0.050000 0.000000
0.004000 0.050000 0.000000
0.004500 0.050000 0.000000
0.000500 0.048750 0.000000
0.001000 0.048750 0.000000
0.001500 0.048750 0.000000
0.002000 0.048750 0.000000
0.002500 0.048750 0.000000
0.003000 0.048750 0.000000
0.003500 0.048750 0.000000
0.004000 0.048750 0.000000
0.004500 0.048750 0.000000
0.000500 0.047500 0.000000
0.001000 0.047500 0.000000
0.001500 0.047500 0.000000
0.002000 0.047500 0.000000
0.002500 0.047500 0.000000
0.003000 0.047500 0.000000
0.003500 0.047500 0.000000
0.004000 0.047500 0.000000
0.004500 0.047500 0.000000
0.000500 0.046250 0.000000
0.001000 0.046250 0.000000
0.001500 0.046250 0.000000
0.002000 0.046250 0.000000
0.002500 0.046250 0.000000
0.003000 0.046250 0.000000
0.003500 0.046250 0.000000
0.004000 0.046250 0.000000
0.004500 0.046250 0.000000
0.000500 0.045000 0.000000
0.001000 0.045000 0.000000
0.001500 0.045000 0.000000
0.002000 0.045000 0.000000
0.002500 0.045000 0.000000
0.003000 0.045000 0.000000
0.003500 0.045000 0.000000
0.004000 0.045000 0.000000
0.004500 0.045000 0.000000
0.000500 0.043750 0.000000
0.001000 0.043750 0.000000
0.001500 0.043750 0.000000
0.002000 0.043750 0.000000
0.002500 0.043750 0.000000
0.003000 0.043750 0.000000
0.003500 0.043750 0.000000
0.004000 0.043750 0.000000
0.004500 0.043750 0.000000
0.000500 0.042500 0.000000
0.001000 0.042500 0.000000
0.001500 0.042500 0.000000
0.002000 0.042500 0.000000
0.002500 0.042500 0.000000
0.003000 0.042500 0.000000
0.003500 0.042500 0.000000
0.004000 0.042500 0.000000
0.004500 0.042500 0.000000
0.000500 0.041250 0.000000
0.001000 0.041250 0.000000
0.001500 0.041250 0.000000
0.002000 0.041250 0.000000
0.002500 0.041250 0.000000
0.003000 0.041250 0.000000
0.003500 0.041250 0.000000
0.004000 0.041250 0.000000
0.004500 0.041250 0.000000
0.000500 0.040000 0.000000
0.001000 0.040000 0.000000
0.001500 0.040000 0.000000
0.002000 0.040000 0.000000
0.002500 0.040000 0.000000
0.003000 0.040000 0.000000
0.003500 0.040000 0.000000
0.004000 0.040000 0.000000
0.004500 0.040000 0.000000
0.000500 0.038750 0.000000
0.001000 0.038750 0.000000
0.001500 0.038750 0.000000
0.002000 0.038750 0.000000
0.002500 0.038750 0.000000
0.003000 0.038750 0.000000
0.003500 0.038750 0.000000
0.004000 0.038750 0.000000
0.004500 0.038750 0.000000
0.000500 0.037500 0.000000
0.001000 0.037500 0.000000
0.001500 0.037500 0.000000
0.002000 0.037500 0.000000
0.002500 0.037500 0.000000
0.003000 0.037500 0.000000
0.003500 0.037500 0.000000
0.004000 0.037500 0.000000
0.004500 0.037500 0.000000
0.000500 0.036250 0.000000
0.001000 0.036250 0.000000
0.001500 0.036250 0.000000
0.002000 0.036250 0.000000
0.002500 0.036250 0.000000
0.003000 0.036250 0.000000
0.003500 0.036250 0.000000
0.004000 0.036250 0.000000
0.004500 0.036250 0.000000
0.000500 0.035000 0.000000
0.001000 0.035000 0.000000
0.001500 0.035000 0.000000
0.002000 0.035000 0.000000
0.002500 0.035000 0.000000
0.003000 0.035000 0.000000
0.003500 0.035000 0.000000
0.004000 0.035000 0.000000
0.004500 0.035000 0.000000
0.000500 0.033750 0.000000
0.001000 0.033750 0.000000
0.001500 0.033750 0.000000
0.002000 0.033750 0.000000
0.002500 0.033750 0.000000
0.003000 0.033750 0.000000
0.003500 0.033750 0.000000
0.004000 0.033750 0.000000
0.004500 0.033750 0.000000
0.000500 0.032500 0.000000
0.001000 0.032500 0.000000
0.001500 0.032500 0.000000
0.002000 0.032500 0.000000
0.002500 0.032500 0.000000
0.003000 0.032500 0.000000
0.003500 0.032500 0.000000
0.004000 0.032500 0.000000
0.004500 0.032500 0.000000
0.000500 0.031250 0.000000
0.001000 0.031250 0.000000
0.001500 0.031250 0.000000
0.002000 0.031250 0.000000
0.002500 0.031250 0.000000
0.003000 0.031250 0.000000
0.003500 0.031250 0.000000
0.004000 0.031250 0.000000
0.004500 0.031250 0.000000
0.000500 0.030000 0.000000
0.001000 0.030000 0.000000
0.001500 0.030000 0.000000
0.002000 0.030000 0.000000
0.002500 0.030000 0.000000
0.003000 0.030000 0.000000
0.003500 0.030000 0.000000
0.004000 0.030000 0.000000
0.004500 0.030000 0.000000
0.000500 0.028750 0.000000
0.001000 0.028750 0.000000
0.001500 0.028750 0.000000
0.002000 0.028750 0.000000
0.002500 0.028750 0.000000
0.003000 0.028750 0.000000
0.003500 0.028750 0.000000
0.004000 0.028750 0.000000
0.004500 0.028750 0.000000
0.000500 0.027500 0.000000
0.001000 0.027500 0.000000
0.001500 0.027500 0.000000
0.002000 0.027500 0.000000
0.002500 0.027500 0.000000
0.003000 0.027500 0.000000
0.003500 0.027500 0.000000
0.004000 0.027500 0.000000
0.004500 0.027500 0.000000
0.000500 0.026250 0.000000
0.001000 0.026250 0.000000
0.001500 0.026250 0.000000
0.002000 0.026250 0.000000
0.002500 0.026250 0.000000
0.003000 0.026250 0.000000
0.003500 0.026250 0.000000
0.004000 0.026250 0.000000
0.004500 0.026250 0.000000
0.000500 0.025000 0.000000
0.001000 0.025000 0.000000
0.001500 0.025000 0.000000
0.002000 0.025000 0.000000
0.002500 0.025000 0.000000
0.003000 0.025000 0.000000
0.003500 0.025000 0.000000
0.004000 0.025000 0.000000
0.004500 0.025000 0.000000
0.000500 0.023750 0.000000
0.001000 0.023750 0.000000
0.001500 0.023750 0.000000
0.002000 0.023750 0.000000
0.002500 0.023750 0.000000
0.003000 0.023750 0.000000
0.003500 0.023750 0.000000
0.004000 0.023750 0.000000
0.004500 0.023750 0.000000
0.000500 0.022500 0.000000
0.001000 0.022500 0.000000
0.001500 0.022500 0.000000
0.002000 0.022500 0.000000
0.002500 0.022500 0.000000
0.003000 0.022500 0.000000
0.003500 0.022500 0.000000
0.004000 0.022500 0.000000
0.004500 0.022500 0.000000
0.000500 0.021250 0.000000
0.001000 0.021250 0.000000
0.001500 0.021250 0.000000
0.002000 0.021250 0.000000
0.002500 0.021250 0.000000
0.003000 0.021250 0.000000
0.003500 0.021250 0.000000
0.004000 0.021250 0.000000
0.004500 0.021250 0.000000
0.000500 0.020000 0.000000
0.001000 0.020000 0.000000
0.001500 0.020000 0.000000
0.002000 0.020000 0.000000
0.002500 0.020000 0.000000
0.003000 0.020000 0.000000
0.003500 0.020000 0.000000
0.004000 0.020000 0.000000
0.004500 0.020000 0.000000
0.000500 0.018750 0.000000
0.001000 0.018750 0.000000
0.001500 0.018750 0.000000
0.002000 0.018750 0.000000
0.002500 0.018750 0.000000
0.003000 0.018750 0.000000
0.003500 0.018750 0.000000
0.004000 0.018750 0.000000
0.004500 0.018750 0.000000
0.000500 0.017500 0.000000
0.001000 0.017500 0.000000
0.001500 0.017500 0.000000
0.002000 0.017500 0.000000
0.002500 0.017500 0.000000
0.003000 0.017500 0.000000
0.003500 0.017500 0.000000
0.004000 0.017500 0.000000
0.004500 0.017500 0.000000
0.000500 0.016250 0.000000
0.001000 0.016250 0.000000
0.001500 0.016250 0.000000
0.002000 0.016250 0.000000
0.002500 0.016250 0.000000
0.003000 0.016250 0.000000
0.003500 0.016250 0.000000
0.004000 0.016250 0.000000
0.004500 0.016250 0.000000
0.000500 0.015000 0.000000
0.001000 0.015000 0.000000
0.001500 0.015000 0.000000
0.002000 0.015000 0.000000
0.002500 0.015000 0.000000
0.003000 0.015000 0.000000
0.003500 0.015000 0.000000
0.004000 0.015000 0.000000
0.004500 0.015000 0.000000
0.000500 0.013750 0.000000
0.001000 0.013750 0.000000
0.001500 0.013750 0.000000
0.002000 0.013750 0.000000
0.002500 0.013750 0.000000
0.003000 0.013750 0.000000
0.003500 0.013750 0.000000
0.004000 0.013750 0.000000
0.004500 0.013750 0.000000
0.000500 0.012500 0.000000
0.001000 0.012500 0.000000
0.001500 0.012500 0.000000
0.002000 0.012500 0.000000
0.002500 0.012500 0.000000
0.003000 0.012500 0.000000
0.003500 0.012500 0.000000
0.004000 0.012500 0.000000
0.004500 0.012500 0.000000
0.000500 0.011250 0.000000
0.001000 0.011250 0.000000
0.001500 0.011250 0.000000
0.002000 0.011250 0.000000
0.002500 0.011250 0.000000
0.003000 0.011250 0.000000
0.003500 0.011250 0.000000
0.004000 0.011250 0.000000
0.004500 0.011250 0.000000
0.000500 0.010000 0.000000
0.001000 0.010000 0.000000
0.001500 0.010000 0.000000
0.002000 0.010000 0.000000
0.002500 0.010000 0.000000
0.003000 0.010000 0.000000
0.003500 0.010000 0.000000
0.004000 0.010000 0.000000
0.004500 0.010000 0.000000
0.000500 0.008750 0.000000
0.001000 0.008750 0.000000
0.001500 0.008750 0.000000
0.002000 0.008750 0.000000
0.002500 0.008750 0.000000
0.003000 0.008750 0.000000
0.003500 0.008750 0.000000
0.004000 0.008750 0.000000
0.004500 0.008750 0.000000
0.000500 0.007500 0.000000
0.001000 0.007500 0.000000
0.001500 0.007500 0.000000
0.002000 0.007500 0.000000
0.002500 0.007500 0.000000
0.003000 0.007500 0.000000
0.003500 0.007500 0.000000
0.004000 0.007500 0.000000
0.004500 0.007500 0.000000
0.000500 0.006250 0.000000
0.001000 0.006250 0.000000
0.001500 0.006250 0.000000
0.002000 0.006250 0.000000
0.002500 0.006250 0.000000
0.003000 0.006250 0.000000
0.003500 0.006250 0.000000
0.004000 0.006250 0.000000
0.004500 0.006250 0.000000
0.000500 0.005000 0.000000
0.001000 0.005000 0.000000
0.001500 0.005000 0.000000
0.002000 0.005000 0.000000
0.002500 0.005000 0.000000
0.003000 0.005000 0.000000
0.003500 0.005000 0.000000
0.004000 0.005000 0.000000
0.004500 0.005000 0.000000
0.000500 0.003750 0.000000
0.001000 0.003750 0.000000
0.001500 0.003750 0.000000
0.002000 0.003750 0.000000
0.002500 0.003750 0.000000
0.003000 0.003750 0.000000
0.003500 0.003750 0.000000
0.004000 0.003750 0.000000
0.004500 0.003750 0.000000
0.000500 0.002500 0.000000
0.001000 0.002500 0.000000
0.001500 0.002500 0.000000
0.002000 0.002500 0.000000
0.002500 0.002500 0.000000
0.003000 0.002500 0.000000
0.003500 0.002500 0.000000
0.004000 0.002500 0.000000
0.004500 0.002500 0.000000
0.000500 0.001250 0.000000
0.001000 0.001250 0.000000
0.001500 0.001250 0.000000
0.002000 0.001250 0.000000
0.002500 0.001250 0.000000
0.003000 0.001250 0.000000
0.003500 0.001250 0.000000
0.004000 0.001250 0.000000
0.004500 0.001250 0.000000
CELLS 800 4000
4 82 83 180 179
4 179 180 181 178
4 178 181 182 177
4 177 182 183 176
4 176 183 184 175
4 175 184 185 174
4 174 185 186 173
4 173 186 187 172
4 172 187 188 171
4 171 188 80 0
4 83 84 189 180
4 180 189 190 181
4 181 190 191 182
4 182 191 192 183
4 183 192 193 184
4 184 193 194 185
4 185 194 195 186
4 186 195 196 187
4 187 196 197 188
4 188 197 79 80
4 84 85 198 189
4 189 198 199 190
4 190 199 200 191
4 191 200 201 192
4 192 201 202 193
4 193 202 203 194
4 194 203 204 195
4 195 204 205 196
4 196 205 206 197
4 197 206 78 79
4 85 86 207 198
4 198 207 208 199
4 199 208 209 200
4 200 209 210 201
4 201 210 211 202
4 202 211 212 203
4 203 212 213 204
4 204 213 214 205
4 205 214 215 206
4 206 215 77 78
4 86 87 216 207
4 207 216 217 208
4 208 217 218 209
4 209 218 219 210
4 210 219 220 211
4 211 220 221 212
4 212 221 222 213
4 213 222 223 214
4 214 223 224 215
4 215 224 76 77
4 87 88 225 216
4 216 225 226 217
4 217 226 227 218
4 218 227 228 219
4 219 228 229 220
4 220 229 230 221
4 221 230 231 222
4 222 231 232 223
4 223 232 233 224
4 224 233 75 76
4 88 89 234 225
4 225 234 235 226
4 226 235 236 227
4 227 236 237 228
4 228 237 238 229
4 229 238 239 230
4 230 239 240 231
4 231 240 241 232
4 232 241 242 233
4 233 242 74 75
4 89 90 243 234
4 234 243 244 235
4 235 244 245 236
4 236 245 246 237
4 237 246 247 238
4 238 247 248 239
4 239 248 249 240
4 240 249 250 241
4 241 250 251 242
4 242 251 73 74
4 90 91 252 243
4 243 252 253 244
4 244 253 254 245
4 245 254 255 246
4 246 255 256 247
4 247 256 257 248
4 248 257 258 249
4 249 258 259 250
4 250 259 260 251
4 251 260 72 73
4 91 92 261 252
4 252 261 262 253
4 253 262 263 254
4 254 263 264 255
4 255 264 265 256
4 256 265 266 257
4 257 266 267 258
4 258 267 268 259
4 259 268 269 260
4 260 269 71 72
4 92 93 270 261
4 261 270 271 262
4 262 271 272 263
4 263 272 273 264
4 264 273 274 265
4 265 274 275 266
4 266 275 276 267
4 267 276 277 268
4 268 277 278 269
4 269 278 70 71
4 93 94 279 270
4 270 279 280 271
4 271 280 281 272
4 272 281 282 273
4 273 282 283 274
4 274 283 284 275
4 275 284 285 276
4 276 285 286 277
4 277 286 287 278
4 278 287 69 70
4 94 95 288 279
4 279 288 289 280
4 280 289 290 281
4 281 290 291 282
4 282 291 292 283
4 283 292 293 284
4 284 293 294 285
4 285 294 295 286
4 286 295 296 287
4 287 296 68 69
4 95 96 297 288
4 288 297 298 289
4 289 298 299 290
4 290 299 300 291
4 291 300 301 292
4 292 301 302 293
4 293 302 303 294
4 294 303 304 295
4 295 304 305 296
4 296 305 67 68
4 96 97 306 297
4 297 306 307 298
4 298 307 308 299
4 299 308 309 300
4 300 309 310 301
4 301 310 311 302
4 302 311 312 303
4 303 312 313 304
4 304 313 314 305
4 305 314 66 67
4 97 98 315 306
4 306 315 316 307
4 307 316 317 308
4 308 317 318 309
4 309 318 319 310
4 310 319 320 311
4 311 320 321 312
4 312 321 322 313
4 313 322 323 314
4 314 323 65 66
4 98 99 324 315
4 315 324 325 316
4 316 325 326 317
4 317 326 327 318
4 318 327 328 319
4 319 328 329 320
4 320 329 330 321
4 321 330 331 322
4 322 331 332 323
4 323 332 64 65
4 99 100 333 324
4 324 333 334 325
4 325 334 335 326
4 326 335 336 327
4 327 336 337 328
4 328 337 338 329
4 329 338 339 330
4 330 339 340 331
4 331 340 341 332
4 332 341 63 64
4 100 101 342 333
4 333 342 343 334
4 334 343 344 335
4 335 344 345 336
4 336 345 346 337
4 337 346 347 338
4 338 347 348 339
4 339 348 349 340
4 340 349 350 341
4 341 350 62 63
4 101 102 351 342
4 342 351 352 343
4 343 352 353 344
4 344 353 354 345
4 345 354 355 346
4 346 355 356 347
4 347 356 357 348
4 348 357 358 349
4 349 358 359 350
4 350 359 61 62
4 102 103 360 351
4 351 360 361 352
4 352 361 362 353
4 353 362 363 354
4 354 363 364 355
4 355 364 365 356
4 356 365 366 357
4 357 366 367 358
4 358 367 368 359
4 359 368 60 61
4 103 104 369 360
4 360 369 370 361
4 361 370 371 362
4 362 371 372 363
4 363 372 373 364
4 364 373 374 365
4 365 374 375 366
4 366 375 376 367
4 367 376 377 368
4 368 377 59 60
4 104 105 378 369
4 369 378 379 370
4 370 379 380 371
4 371 380 381 372
4 372 381 382 373
4 373 382 383 374
4 374 383 384 375
4 375 384 385 376
4 376 385 386 377
4 377 386 58 59
4 105 106 387 378
4 378 387 388 379
4 379 388 389 380
4 380 389 390 381
4 381 390 391 382
4 382 391 392 383
4 383 392 393 384
4 384 393 394 385
4 385 394 395 386
4 386 395 57 58
4 106 107 396 387
4 387 396 397 388
4 388 397 398 389
4 389 398 399 390
4 390 399 400 391
4 391 400 401 392
4 392 401 402 393
4 393 402 403 394
4 394 403 404 395
4 395 404 56 57
4 107 108 405 396
4 396 405 406 397
4 397 406 407 398
4 398 407 408 399
4 399 408 409 400
4 400 409 410 401
4 401 410 411 402
4 402 411 412 403
4 403 412 413 404
4 404 413 55 56
4 108 109 414 405
4 405 414 415 406
4 406 415 416 407
4 407 416 417 408
4 408 417 418 409
4 409 418 419 410
4 410 419 420 411
4 411 420 421 412
4 412 421 422 413
4 413 422 54 55
4 109 110 423 414
4 414 423 424 415
4 415 424 425 416
4 416 425 426 417
4 417 426 427 418
4 418 427 428 419
4 419 428 429 420
4 420 429 430 421
4 421 430 431 422
4 422 431 53 54
4 110 111 432 423
4 423 432 433 424
4 424 433 434 425
4 425 434 435 426
4 426 435 436 427
4 427 436 437 428
4 428 437 438 429
4 429 438 439 430
4 430 439 440 431
4 431 440 52 53
4 111 112 441 432
4 432 441 442 433
4 433 442 443 434
4 434 443 444 435
4 435 444 445 436
4 436 445 446 437
4 437 446 447 438
4 438 447 448 439
4 439 448 449 440
4 440 449 51 52
4 112 113 450 441
4 441 450 451 442
4 442 451 452 443
4 443 452 453 444
4 444 453 454 445
4 445 454 455 446
4 446 455 456 447
4 447 456 457 448
4 448 457 458 449
4 449 458 50 51
4 113 114 459 450
4 450 459 460 451
4 451 460 461 452
4 452 461 462 453
4 453 462 463 454
4 454 463 464 455
4 455 464 465 456
4 456 465 466 457
4 457 466 467 458
4 458 467 49 50
4 114 115 468 459
4 459 468 469 460
4 460 469 470 461
4 461 470 471 462
4 462 471 472 463
4 463 472 473 464
4 464 473 474 465
4 465 474 475 466
4 466 475 476 467
4 467 476 48 49
4 115 116 477 468
4 468 477 478 469
4 469 478 479 470
4 470 479 480 471
4 471 480 481 472
4 472 481 482 473
4 473 482 483 474
4 474 483 484 475
4 475 484 485 476
4 476 485 47 48
4 116 117 486 477
4 477 486 487 478
4 478 487 488 479
4 479 488 489 480
4 480 489 490 481
4 481 490 491 482
4 482 491 492 483
4 483 492 493 484
4 484 493 494 485
4 485 494 46 47
4 117 118 495 486
4 486 495 496 487
4 487 496 497 488
4 488 497 498 489
4 489 498 499 490
4 490 499 500 491
4 491 500 501 492
4 492 501 502 493
4 493 502 503 494
4 494 503 45 46
4 118 119 504 495
4 495 504 505 496
4 496 505 506 497
4 497 506 507 498
4 498 507 508 499
4 499 508 509 500
4 500 509 510 501
4 501 510 511 502
4 502 511 512 503
4 503 512 44 45
4 119 120 513 504
4 504 513 514 505
4 505 514 515 506
4 506 515 516 507
4 507 516 517 508
4 508 517 518 509
4 509 518 519 510
4 510 519 520 511
4 511 520 521 512
4 512 521 43 44
4 120 121 522 513
4 513 522 523 514
4 514 523 524 515
4 515 524 525 516
4 516 525 526 517
4 517 526 527 518
4 518 527 528 519
4 519 528 529 520
4 520 529 530 521
4 521 530 42 43
4 121 122 531 522
4 522 531 532 523
4 523 532 533 524
4 524 533 534 525
4 525 534 535 526
4 526 535 536 527
4 527 536 537 528
4 528 537 538 529
4 529 538 539 530
4 530 539 41 42
4 122 123 540 531
4 531 540 541 532
4 532 541 542 533
4 533 542 543 534
4 534 543 544 535
4 535 544 545 536
4 536 545 546 537
4 537 546 547 538
4 538 547 548 539
4 539 548 40 41
4 123 124 549 540
4 540 549 550 541
4 541 550 551 542
4 542 551 552 543
4 543 552 553 544
4 544 553 554 545
4 545 554 555 546
4 546 555 556 547
4 547 556 557 548
4 548 557 39 40
4 124 125 558 549
4 549 558 559 550
4 550 559 560 551
4 551 560 561 552
4 552 561 562 553
4 553 562 563 554
4 554 563 564 555
4 555 564 565 556
4 556 565 566 557
4 557 566 38 39
4 125 126 567 558
4 558 567 568 559
4 559 568 569 560
4 560 569 570 561
4 561 570 571 562
4 562 571 572 563
4 563 572 573 564
4 564 573 574 565
4 565 574 575 566
4 566 575 37 38
4 126 127 576 567
4 567 576 577 568
4 568 577 578 569
4 569 578 579 570
4 570 579 580 571
4 571 580 581 572
4 572 581 582 573
4 573 582 583 574
4 574 583 584 575
4 575 584 36 37
4 127 128 585 576
4 576 585 586 577
4 577 586 587 578
4 578 587 588 579
4 579 588 589 580
4 580 589 590 581
4 581 590 591 582
4 582 591 592 583
4 583 592 593 584
4 584 593 35 36
4 128 129 594 585
4 585 594 595 586
4 586 595 596 587
4 587 596 597 588
4 588 597 598 589
4 589 598 599 590
4 590 599 600 591
4 591 600 601 592
4 592 601 602 593
4 593 602 34 35
4 129 130 603 594
4 594 603 604 595
4 595 604 605 596
4 596 605 606 597
4 597 606 607 598
4 598 607 608 599
4 599 608 609 600
4 600 609 610 601
4 601 610 611 602
4 602 611 33 34
4 130 131 612 603
4 603 612 613 604
4 604 613 614 605
4 605 614 615 606
4 606 615 616 607
4 607 616 617 608
4 608 617 618 609
4 609 618 619 610
4 610 619 620 611
4 611 620 32 33
4 131 132 621 612
4 612 621 622 613
4 613 622 623 614
4 614 623 624 615
4 615 624 625 616
4 616 625 626 617
4 617 626 627 618
4 618 627 628 619
4 619 628 629 620
4 620 629 31 32
4 132 133 630 621
4 621 630 631 622
4 622 631 632 623
4 623 632 633 624
4 624 633 634 625
4 625 634 635 626
4 626 635 636 627
4 627 636 637 628
4 628 637 638 629
4 629 638 30 31
4 133 134 639 630
4 630 639 640 631
4 631 640 641 632
4 632 641 642 633
4 633 642 643 634
4 634 643 644 635
4 635 644 645 636
4 636 645 646 637
4 637 646 647 638
4 638 647 29 30
4 134 135 648 639
4 639 648 649 640
4 640 649 650 641
4 641 650 651 642
4 642 651 652 643
4 643 652 653 644
4 644 653 654 645
4 645 654 655 646
4 646 655 656 647
4 647 656 28 29
4 135 136 657 648
4 648 657 658 649
4 649 658 659 650
4 650 659 660 651
4 651 660 661 652
4 652 661 662 653
4 653 662 663 654
4 654 663 664 655
4 655 664 665 656
4 656 665 27 28
4 136 137 666 657
4 657 666 667 658
4 658 667 668 659
4 659 668 669 660
4 660 669 670 661
4 661 670 671 662
4 662 671 672 663
4 663 672 673 664
4 664 673 674 665
4 665 674 26 27
4 137 138 675 666
4 666 675 676 667
4 667 676 677 668
4 668 677 678 669
4 669 678 679 670
4 670 679 680 671
4 671 680 681 672
4 672 681 682 673
4 673 682 683 674
4 674 683 25 26
4 138 139 684 675
4 675 684 685 676
4 676 685 686 677
4 677 686 687 678
4 678 687 688 679
4 679 688 689 680
4 680 689 690 681
4 681 690 691 682
4 682 691 692 683
4 683 692 24 25
4 139 140 693 684
4 684 693 694 685
4 685 694 695 686
4 686 695 696 687
4 687 696 697 688
4 688 697 698 689
4 689 698 699 690
4 690 699 700 691
4 691 700 701 692
4 692 701 23 24
4 140 141 702 693
4 693 702 703 694
4 694 703 704 695
4 695 704 705 696
4 696 705 706 697
4 697 706 707 698
4 698 707 708 699
4 699 708 709 700
4 700 709 710 701
4 701 710 22 23
4 141 142 711 702
4 702 711 712 703
4 703 712 713 704
4 704 713 714 705
4 705 714 715 706
4 706 715 716 707
4 707 716 717 708
4 708 717 718 709
4 709 718 719 710
4 710 719 21 22
4 142 143 720 711
4 711 720 721 712
4 712 721 722 713
4 713 722 723 714
4 714 723 724 715
4 715 724 725 716
4 716 725 726 717
4 717 726 727 718
4 718 727 728 719
4 719 728 20 21
4 143 144 729 720
4 720 729 730 721
4 721 730 731 722
4 722 731 732 723
4 723 732 733 724
4 724 733 734 725
4 725 734 735 726
4 726 735 736 727
4 727 736 737 728
4 728 737 19 20
4 144 145 738 729
4 729 738 739 730
4 730 739 740 731
4 731 740 741 732
4 732 741 742 733
4 733 742 743 734
4 734 743 744 735
4 735 744 745 736
4 736 745 746 737
4 737 746 18 19
4 145 146 747 738
4 738 747 748 739
4 739 748 749 740
4 740 749 750 741
4 741 750 751 742
4 742 751 752 743
4 743 752 753 744
4 744 753 754 745
4 745 754 755 746
4 746 755 17 18
4 146 147 756 747
4 747 756 757 748
4 748 757 758 749
4 749 758 759 750
4 750 759 760 751
4 751 760 761 752
4 752 761 762 753
4 753 762 763 754
4 754 763 764 755
4 755 764 16 17
4 147 148 765 756
4 756 765 766 757
4 757 766 767 758
4 758 767 768 759
4 759 768 769 760
4 760 769 770 761
4 761 770 771 762
4 762 771 772 763
4 763 772 773 764
4 764 773 15 16
4 148 149 774 765
4 765 774 775 766
4 766 775 776 767
4 767 776 777 768
4 768 777 778 769
4 769 778 779 770
4 770 779 780 771
4 771 780 781 772
4 772 781 782 773
4 773 782 14 15
4 149 150 783 774
4 774 783 784 775
4 775 784 785 776
4 776 785 786 777
4 777 786 787 778
4 778 787 788 779
4 779 788 789 780
4 780 789 790 781
4 781 790 791 782
4 782 791 13 14
4 150 151 792 783
4 783 792 793 784
4 784 793 794 785
4 785 794 795 786
4 786 795 796 787
4 787 796 797 788
4 788 797 798 789
4 789 798 799 790
4 790 799 800 791
4 791 800 12 13
4 151 152 801 792
4 792 801 802 793
4 793 802 803 794
4 794 803 804 795
4 795 804 805 796
4 796 805 806 797
4 797 806 807 798
4 798 807 808 799
4 799 808 809 800
4 800 809 11 12
4 152 153 810 801
4 801 810 811 802
4 802 811 812 803
4 803 812 813 804
4 804 813 814 805
4 805 814 815 806
4 806 815 816 807
4 807 816 817 808
4 808 817 818 809
4 809 818 10 11
4 153 154 819 810
4 810 819 820 811
4 811 820 821 812
4 812 821 822 813
4 813 822 823 814
4 814 823 824 815
4 815 824 825 816
4 816 825 826 817
4 817 826 827 818
4 818 827 9 10
4 154 155 828 819
4 819 828 829 820
4 820 829 830 821
4 821 830 831 822
4 822 831 832 823
4 823 832 833 824
4 824 833 834 825
4 825 834 835 826
4 826 835 836 827
4 827 836 8 9
4 155 156 837 828
4 828 837 838 829
4 829 838 839 830
4 830 839 840 831
4 831 840 841 832
4 832 841 842 833
4 833 842 843 834
4 834 843 844 835
4 835 844 845 836
4 836 845 7 8
4 156 157 846 837
4 837 846 847 838
4 838 847 848 839
4 839 848 849 840
4 840 849 850 841
4 841 850 851 842
4 842 851 852 843
4 843 852 853 844
4 844 853 854 845
4 845 854 6 7
4 157 158 855 846
4 846 855 856 847
4 847 856 857 848
4 848 857 858 849
4 849 858 859 850
4 850 859 860 851
4 851 860 861 852
4 852 861 862 853
4 853 862 863 854
4 854 863 5 6
4 158 159 864 855
4 855 864 865 856
4 856 865 866 857
4 857 866 867 858
4 858 867 868 859
4 859 868 869 860
4 860 869 870 861
4 861 870 871 862
4 862 871 872 863
4 863 872 4 5
4 159 160 873 864
4 864 873 874 865
4 865 874 875 866
4 866 875 876 867
4 867 876 877 868
4 868 877 878 869
4 869 878 879 870
4 870 879 880 871
4 871 880 881 872
4 872 881 3 4
4 160 161 882 873
4 873 882 883 874
4 874 883 884 875
4 875 884 885 876
4 876 885 886 877
4 877 886 887 878
4 878 887 888 879
4 879 888 889 880
4 880 889 890 881
4 881 890 2 3
4 161 81 162 882
4 882 162 163 883
4 883 163 164 884
4 884 164 165 885
4 885 165 166 886
4 886 166 167 887
4 887 167 168 888
4 888 168 169 889
4 889 169 170 890
4 890 170 1 2
CELL_TYPES 800
9
9
9
9
9
9
9
9
9
9
9
9
9
9
9
9
9
9
9
9
9
9
9
9
9
9
9
9
9
9
9
9
9
9
9
9
9
9
9
9
9
9
9
9
9
9
9
9
9
9
9
9
9
9
9
9
9
9
9
9
9
9
9
9
9
9
9
9
9
9
9
9
9
9
9
9
9
9
9
9
9
9
9
9
9
9
9
9
9
9
9
9
9
9
9
9
9
9
9
9
9
9
9
9
9
9
9
9
9
9
9
9
9
9
9
9
9
9
9
9
9
9
9
9
9
9
9
9
9
9
9
9
9
9
9
9
9
9
9
9
9
9
9
9
9
9
9
9
9
9
9
9
9
9
9
9
9
9
9
9
9
9
9
9
9
9
9
9
9
9
9
9
9
9
9
9
9
9
9
9
9
9
9
9
9
9
9
9
9
9
9
9
9
9
9
9
9
9
9
9
9
9
9
9
9
9
9
9
9
9
9
9
9
9
9
9
9
9
9
9
9
9
9
9
9
9
9
9
9
9
9
9
9
9
9
9
9
9
9
9
9
9
9
9
9
9
9
9
9
9
9
9
9
9
9
9
9
9
9
9
9
9
9
9
9
9
9
9
9
9
9
9
9
9
9
9
9
9
9
9
9
9
9
9
9
9
9
9
9
9
9
9
9
9
9
9
9
9
9
9
9
9
9
9
9
9
9
9
9
9
9
9
9
9
9
9
9
9
9
9
9
9
9
9
9
9
9
9
9
9
9
9
9
9
9
9
9
9
9
9
9
9
9
9
9
9
9
9
9
9
9
9
9
9
9
9
9
9
9
9
9
9
9
9
9
9
9
9
9
9
9
9
9
9
9
9
9
9
9
9
9
9
9
9
9
9
9
9
9
9
9
9
9
9
9
9
9
9
9
9
9
9
9
9
9
9
9
9
9
9
9
9
9
9
9
9
9
9
9
9
9
9
9
9
9
9
9
9
9
9
9
9
9
9
9
9
9
9
9
9
9
9
9
9
9
9
9
9
9
9
9
9
9
9
9
9
9
9
9
9
9
9
9
9
9
9
9
9
9
9
9
9
9
9
9
9
9
9
9
9
9
9
9
9
9
9
9
9
9
9
9
9
9
9
9
9
9
9
9
9
9
9
9
9
9
9
9
9
9
9
9
9
9
9
9
9
9
9
9
9
9
9
9
9
9
9
9
9
9
9
9
9
9
9
9
9
9
9
9
9
9
9
9
9
9
9
9
9
9
9
9
9
9
9
9
9
9
9
9
9
9
9
9
9
9
9
9
9
9
9
9
9
9
9
9
9
9
9
9
9
9
9
9
9
9
9
9
9
9
9
9
9
9
9
9
9
9
9
9
9
9
9
9
9
9
9
9
9
9
9
9
9
9
9
9
9
9
9
9
9
9
9
9
9
9
9
9
9
9
9
9
9
9
9
9
9
9
9
9
9
9
9
9
9
9
9
9
9
9
9
9
9
9
9
9
9
9
9
9
9
9
9
9
9
9
9
9
9
9
9
9
9
9
9
9
9
9
9
9
9
9
9
9
9
9
9
9
9
9
9
9
9
9
9
9
9
9
9
9
9
9
9
9
9
9
9
9
9
9
9
9
9
9
9
9
9
9
9
9
9
9
9
9
9
9
9
9
9
9
9
9
9
9
9
9
9
9
9
9
9
9
9
9
9
9
9
9
9
9
9
9
9
9
9
9
9
9
9
9
9
9
9
9
9
9
9
9
9
9
9
9
9
9
9
9
9
9
9
9
9
9
9
9
9
9
9
9
9
9
9
9
9
9
9
9
9
9
9
9
9
POINT_DATA 891
SCALARS u1 float
LOOKUP_TABLE default
2e-15
-5e-06
-5e-06
-5e-06
-5e-06
-5e-06
-5e-06
-5e-06
-5e-06
-5e-06
-5e-06
-5e-06
-5e-06
-5e-06
-5e-06
-5e-06
-5e-06
-5e-06
-5e-06
-5e-06
-5e-06
-5e-06
-5e-06
-5e-06
-5e-06
-5e-06
-5e-06
-5e-06
-5e-06
-5e-06
-5e-06
-5e-06
-5e-06
-5e-06
-5e-06
-5e-06
-5e-06
-5e-06
-5e-06
-5e-06
-5e-06
-5e-06
-5e-06
-5e-06
-5e-06
-5e-06
-5e-06
-5e-06
-5e-06
-5e-06
-5e-06
-5e-06
-5e-06
-5e-06
-5e-06
-5e-06
-5e-06
-5e-06
-5e-06
-5e-06
-5e-06
-5e-06
-5e-06
-5e-06
-5e-06
-5e-06
-5e-06
-5e-06
-5e-06
-5e-06
-5e-06
-5e-06
-5e-06
-5e-06
-5e-06
-5e-06
-5e-06
-5e-06
-5e-06
-5e-06
-4e-06
5e-06
7e-16
4e-06
5e-06
5e-06
5e-06
5e-06
5e-06
5e-06
5e-06
5e-06
5e-06
5e-06
5e-06
5e-06
5e-06
5e-06
5e-06
5e-06
5e-06
5e-06
5e-06
5e-06
5e-06
5e-06
5e-06
5e-06
5e-06
5e-06
5e-06
5e-06
5e-06
5e-06
5e-06
5e-06
5e-06
5e-06
5e-06
5e-06
5e-06
5e-06
5e-06
5e-06
5e-06
5e-06
5e-06
5e-06
5e-06
5e-06
5e-06
5e-06
5e-06
5e-06
5e-06
5e-06
5e-06
5e-06
5e-06
5e-06
5e-06
5e-06
5e-06
5e-06
5e-06
5e-06
5e-06
5e-06
5e-06
5e-06
5e-06
5e-06
5e-06
5e-06
5e-06
5e-06
5e-06
5e-06
5e-06
5e-06
5e-06
5e-06
4e-06
3e-06
2e-06
1e-06
3e-14
-1e-06
-2e-06
-3e-06
-4e-06
-1e-16
1e-15
-5e-16
1e-16
4e-16
-9e-16
-2e-15
-1e-15
2e-15
3e-06
2e-06
1e-06
6e-07
9e-15
-6e-07
-1e-06
-2e-06
-3e-06
4e-06
3e-06
2e-06
9e-07
7e-15
-9e-07
-2e-06
-3e-06
-4e-06
4e-06
3e-06
2e-06
1e-06
7e-15
-1e-06
-2e-06
-3e-06
-4e-06
4e-06
3e-06
2e-06
1e-06
1e-14
-1e-06
-2e-06
-3e-06
-4e-06
4e-06
3e-06
2e-06
1e-06
2e-14
-1e-06
-2e-06
-3e-06
-4e-06
4e-06
3e-06
2e-06
1e-06
2e-14
-1e-06
-2e-06
-3e-06
-4e-06
4e-06
3e-06
2e-06
1e-06
2e-14
-1e-06
-2e-06
-3e-06
-4e-06
4e-06
3e-06
2e-06
1e-06
3e-14
-1e-06
-2e-06
-3e-06
-4e-06
4e-06
3e-06
2e-06
1e-06
3e-14
-1e-06
-2e-06
-3e-06
-4e-06
4e-06
3e-06
2e-06
1e-06
3e-14
-1e-06
-2e-06
-3e-06
-4e-06
4e-06
3e-06
2e-06
1e-06
3e-14
-1e-06
-2e-06
-3e-06
-4e-06
4e-06
3e-06
2e-06
1e-06
3e-14
-1e-06
-2e-06
-3e-06
-4e-06
4e-06
3e-06
2e-06
1e-06
3e-14
-1e-06
-2e-06
-3e-06
-4e-06
4e-06
3e-06
2e-06
1e-06
3e-14
-1e-06
-2e-06
-3e-06
-4e-06
4e-06
3e-06
2e-06
1e-06
3e-14
-1e-06
-2e-06
-3e-06
-4e-06
4e-06
3e-06
2e-06
1e-06
3e-14
-1e-06
-2e-06
-3e-06
-4e-06
4e-06
3e-06
2e-06
1e-06
3e-14
-1e-06
-2e-06
-3e-06
-4e-06
4e-06
3e-06
2e-06
1e-06
3e-14
-1e-06
-2e-06
-3e-06
-4e-06
4e-06
3e-06
2e-06
1e-06
3e-14
-1e-06
-2e-06
-3e-06
-4e-06
4e-06
3e-06
2e-06
1e-06
3e-14
-1e-06
-2e-06
-3e-06
-4e-06
4e-06
3e-06
2e-06
1e-06
3e-14
-1e-06
-2e-06
-3e-06
-4e-06
4e-06
3e-06
2e-06
1e-06
3e-14
-1e-06
-2e-06
-3e-06
-4e-06
4e-06
3e-06
2e-06
1e-06
3e-14
-1e-06
-2e-06
-3e-06
-4e-06
4e-06
3e-06
2e-06
1e-06
3e-14
-1e-06
-2e-06
-3e-06
-4e-06
4e-06
3e-06
2e-06
1e-06
3e-14
-1e-06
-2e-06
-3e-06
-4e-06
4e-06
3e-06
2e-06
1e-06
3e-14
-1e-06
-2e-06
-3e-06
-4e-06
4e-06
3e-06
2e-06
1e-06
3e-14
-1e-06
-2e-06
-3e-06
-4e-06
4e-06
3e-06
2e-06
1e-06
3e-14
-1e-06
-2e-06
-3e-06
-4e-06
4e-06
3e-06
2e-06
1e-06
3e-14
-1e-06
-2e-06
-3e-06
-4e-06
4e-06
3e-06
2e-06
1e-06
3e-14
-1e-06
-2e-06
-3e-06
-4e-06
4e-06
3e-06
2e-06
1e-06
3e-14
-1e-06
-2e-06
-3e-06
-4e-06
4e-06
3e-06
2e-06
1e-06
3e-14
-1e-06
-2e-06
-3e-06
-4e-06
4e-06
3e-06
2e-06
1e-06
3e-14
-1e-06
-2e-06
-3e-06
-4e-06
4e-06
3e-06
2e-06
1e-06
3e-14
-1e-06
-2e-06
-3e-06
-4e-06
4e-06
3e-06
2e-06
1e-06
3e-14
-1e-06
-2e-06
-3e-06
-4e-06
4e-06
3e-06
2e-06
1e-06
3e-14
-1e-06
-2e-06
-3e-06
-4e-06
4e-06
3e-06
2e-06
1e-06
3e-14
-1e-06
-2e-06
-3e-06
-4e-06
4e-06
3e-06
2e-06
1e-06
3e-14
-1e-06
-2e-06
-3e-06
-4e-06
4e-06
3e-06
2e-06
1e-06
3e-14
-1e-06
-2e-06
-3e-06
-4e-06
4e-06
3e-06
2e-06
1e-06
3e-14
-1e-06
-2e-06
-3e-06
-4e-06
4e-06
3e-06
2e-06
1e-06
3e-14
-1e-06
-2e-06
-3e-06
-4e-06
4e-06
3e-06
2e-06
1e-06
3e-14
-1e-06
-2e-06
-3e-06
-4e-06
4e-06
3e-06
2e-06
1e-06
3e-14
-1e-06
-2e-06
-3e-06
-4e-06
4e-06
3e-06
2e-06
1e-06
3e-14
-1e-06
-2e-06
-3e-06
-4e-06
4e-06
3e-06
2e-06
1e-06
3e-14
-1e-06
-2e-06
-3e-06
-4e-06
4e-06
3e-06
2e-06
1e-06
3e-14
-1e-06
-2e-06
-3e-06
-4e-06
4e-06
3e-06
2e-06
1e-06
3e-14
-1e-06
-2e-06
-3e-06
-4e-06
4e-06
3e-06
2e-06
1e-06
3e-14
-1e-06
-2e-06
-3e-06
-4e-06
4e-06
3e-06
2e-06
1e-06
3e-14
-1e-06
-2e-06
-3e-06
-4e-06
4e-06
3e-06
2e-06
1e-06
3e-14
-1e-06
-2e-06
-3e-06
-4e-06
4e-06
3e-06
2e-06
1e-06
3e-14
-1e-06
-2e-06
-3e-06
-4e-06
4e-06
3e-06
2e-06
1e-06
3e-14
-1e-06
-2e-06
-3e-06
-4e-06
4e-06
3e-06
2e-06
1e-06
3e-14
-1e-06
-2e-06
-3e-06
-4e-06
4e-06
3e-06
2e-06
1e-06
3e-14
-1e-06
-2e-06
-3e-06
-4e-06
4e-06
3e-06
2e-06
1e-06
3e-14
-1e-06
-2e-06
-3e-06
-4e-06
4e-06
3e-06
2e-06
1e-06
3e-14
-1e-06
-2e-06
-3e-06
-4e-06
4e-06
3e-06
2e-06
1e-06
3e-14
-1e-06
-2e-06
-3e-06
-4e-06
4e-06
3e-06
2e-06
1e-06
3e-14
-1e-06
-2e-06
-3e-06
-4e-06
4e-06
3e-06
2e-06
1e-06
3e-14
-1e-06
-2e-06
-3e-06
-4e-06
4e-06
3e-06
2e-06
1e-06
3e-14
-1e-06
-2e-06
-3e-06
-4e-06
4e-06
3e-06
2e-06
1e-06
3e-14
-1e-06
-2e-06
-3e-06
-4e-06
4e-06
3e-06
2e-06
1e-06
3e-14
-1e-06
-2e-06
-3e-06
-4e-06
4e-06
3e-06
2e-06
1e-06
3e-14
-1e-06
-2e-06
-3e-06
-4e-06
4e-06
3e-06
2e-06
1e-06
3e-14
-1e-06
-2e-06
-3e-06
-4e-06
4e-06
3e-06
2e-06
1e-06
3e-14
-1e-06
-2e-06
-3e-06
-4e-06
4e-06
3e-06
2e-06
1e-06
3e-14
-1e-06
-2e-06
-3e-06
-4e-06
4e-06
3e-06
2e-06
1e-06
3e-14
-1e-06
-2e-06
-3e-06
-4e-06
4e-06
3e-06
2e-06
1e-06
3e-14
-1e-06
-2e-06
-3e-06
-4e-06
4e-06
3e-06
2e-06
1e-06
3e-14
-1e-06
-2e-06
-3e-06
-4e-06
4e-06
3e-06
2e-06
1e-06
3e-14
-1e-06
-2e-06
-3e-06
-4e-06
4e-06
3e-06
2e-06
1e-06
3e-14
-1e-06
-2e-06
-3e-06
-4e-06
4e-06
3e-06
2e-06
1e-06
3e-14
-1e-06
-2e-06
-3e-06
-4e-06
4e-06
3e-06
2e-06
1e-06
3e-14
-1e-06
-2e-06
-3e-06
-4e-06
4e-06
3e-06
2e-06
1e-06
3e-14
-1e-06
-2e-06
-3e-06
-4e-06
4e-06
3e-06
2e-06
1e-06
3e-14
-1e-06
-2e-06
-3e-06
-4e-06
4e-06
3e-06
2e-06
1e-06
3e-14
-1e-06
-2e-06
-3e-06
-4e-06
4e-06
3e-06
2e-06
1e-06
3e-14
-1e-06
-2e-06
-3e-06
-4e-06
4e-06
3e-06
2e-06
1e-06
3e-14
-1e-06
-2e-06
-3e-06
-4e-06
4e-06
3e-06
2e-06
1e-06
3e-14
-1e-06
-2e-06
-3e-06
-4e-06
SCALARS u2 float
LOOKUP_TABLE default
-9e-16
-0.0005
-0.0005
-0.0005
-0.0005
-0.0005
-0.0005
-0.0005
-0.0005
-0.0004
-0.0004
-0.0004
-0.0004
-0.0004
-0.0004
-0.0004
-0.0004
-0.0004
-0.0004
-0.0004
-0.0004
-0.0004
-0.0004
-0.0004
-0.0004
-0.0003
-0.0003
-0.0003
-0.0003
-0.0003
-0.0003
-0.0003
-0.0003
-0.0003
-0.0003
-0.0003
-0.0003
-0.0003
-0.0003
-0.0003
-0.0003
-0.0002
-0.0002
-0.0002
-0.0002
-0.0002
-0.0002
-0.0002
-0.0002
-0.0002
-0.0002
-0.0002
-0.0002
-0.0002
-0.0002
-0.0002
-0.0002
-0.0001
-0.0001
-0.0001
-0.0001
-0.0001
-0.0001
-0.0001
-0.0001
-0.0001
-9e-05
-9e-05
-8e-05
-7e-05
-7e-05
-6e-05
-6e-05
-5e-05
-4e-05
-4e-05
-3e-05
-2e-05
-2e-05
-1e-05
-7e-06
-0.0005
-3e-16
-7e-06
-1e-05
-2e-05
-2e-05
-3e-05
-4e-05
-4e-05
-5e-05
-6e-05
-6e-05
-7e-05
-7e-05
-8e-05
-9e-05
-9e-05
-0.0001
-0.0001
-0.0001
-0.0001
-0.0001
-0.0001
-0.0001
-0.0001
-0.0001
-0.0002
-0.0002
-0.0002
-0.0002
-0.0002
-0.0002
-0.0002
-0.0002
-0.0002
-0.0002
-0.0002
-0.0002
-0.0002
-0.0002
-0.0002
-0.0002
-0.0003
-0.0003
-0.0003
-0.0003
-0.0003
-0.0003
-0.0003
-0.0003
-0.0003
-0.0003
-0.0003
-0.0003
-0.0003
-0.0003
-0.0003
-0.0003
-0.0004
-0.0004
-0.0004
-0.0004
-0.0004
-0.0004
-0.0004
-0.0004
-0.0004
-0.0004
-0.0004
-0.0004
-0.0004
-0.0004
-0.0004
-0.0004
-0.0005
-0.0005
-0.0005
-0.0005
-0.0005
-0.0005
-0.0005
-0.0005
-0.0005
-0.0005
-0.0005
-0.0005
-0.0005
-0.0005
-0.0005
-0.0005
-2e-15
7e-17
-2e-16
2e-17
3e-16
2e-15
-4e-16
-1e-15
-2e-15
-6e-06
-5e-06
-5e-06
-5e-06
-5e-06
-5e-06
-5e-06
-5e-06
-6e-06
-1e-05
-1e-05
-1e-05
-1e-05
-1e-05
-1e-05
-1e-05
-1e-05
-1e-05
-2e-05
-2e-05
-2e-05
-2e-05
-2e-05
-2e-05
-2e-05
-2e-05
-2e-05
-2e-05
-2e-05
-2e-05
-2e-05
-2e-05
-2e-05
-2e-05
-2e-05
-2e-05
-3e-05
-3e-05
-3e-05
-3e-05
-3e-05
-3e-05
-3e-05
-3e-05
-3e-05
-4e-05
-4e-05
-4e-05
-4e-05
-4e-05
-4e-05
-4e-05
-4e-05
-4e-05
-4e-05
-4e-05
-4e-05
-4e-05
-4e-05
-4e-05
-4e-05
-4e-05
-4e-05
-5e-05
-5e-05
-5e-05
-5e-05
-5e-05
-5e-05
-5e-05
-5e-05
-5e-05
-6e-05
-6e-05
-6e-05
-6e-05
-6e-05
-6e-05
-6e-05
-6e-05
-6e-05
-6e-05
-6e-05
-6e-05
-6e-05
-6e-05
-6e-05
-6e-05
-6e-05
-6e-05
-7e-05
-7e-05
-7e-05
-7e-05
-7e-05
-7e-05
-7e-05
-7e-05
-7e-05
-7e-05
-7e-05
-7e-05
-7e-05
-7e-05
-7e-05
-7e-05
-7e-05
-7e-05
-8e-05
-8e-05
-8e-05
-8e-05
-8e-05
-8e-05
-8e-05
-8e-05
-8e-05
-9e-05
-9e-05
-9e-05
-9e-05
-9e-05
-9e-05
-9e-05
-9e-05
-9e-05
-9e-05
-9e-05
-9e-05
-9e-05
-9e-05
-9e-05
-9e-05
-9e-05
-9e-05
-0.0001
-0.0001
-0.0001
-0.0001
-0.0001
-0.0001
-0.0001
-0.0001
-0.0001
-0.0001
-0.0001
-0.0001
-0.0001
-0.0001
-0.0001
-0.0001
-0.0001
-0.0001
-0.0001
-0.0001
-0.0001
-0.0001
-0.0001
-0.0001
-0.0001
-0.0001
-0.0001
-0.0001
-0.0001
-0.0001
-0.0001
-0.0001
-0.0001
-0.0001
-0.0001
-0.0001
-0.0001
-0.0001
-0.0001
-0.0001
-0.0001
-0.0001
-0.0001
-0.0001
-0.0001
-0.0001
-0.0001
-0.0001
-0.0001
-0.0001
-0.0001
-0.0001
-0.0001
-0.0001
-0.0001
-0.0001
-0.0001
-0.0001
-0.0001
-0.0001
-0.0001
-0.0001
-0.0001
-0.0001
-0.0001
-0.0001
-0.0001
-0.0001
-0.0001
-0.0001
-0.0001
-0.0001
-0.0001
-0.0001
-0.0001
-0.0001
-0.0001
-0.0001
-0.0001
-0.0001
-0.0001
-0.0002
-0.0002
-0.0002
-0.0002
-0.0002
-0.0002
-0.0002
-0.0002
-0.0002
-0.0002
-0.0002
-0.0002
-0.0002
-0.0002
-0.0002
-0.0002
-0.0002
-0.0002
-0.0002
-0.0002
-0.0002
-0.0002
-0.0002
-0.0002
-0.0002
-0.0002
-0.0002
-0.0002
-0.0002
-0.0002
-0.0002
-0.0002
-0.0002
-0.0002
-0.0002
-0.0002
-0.0002
-0.0002
-0.0002
-0.0002
-0.0002
-0.0002
-0.0002
-0.0002
-0.0002
-0.0002
-0.0002
-0.0002
-0.0002
-0.0002
-0.0002
-0.0002
-0.0002
-0.0002
-0.0002
-0.0002
-0.0002
-0.0002
-0.0002
-0.0002
-0.0002
-0.0002
-0.0002
-0.0002
-0.0002
-0.0002
-0.0002
-0.0002
-0.0002
-0.0002
-0.0002
-0.0002
-0.0002
-0.0002
-0.0002
-0.0002
-0.0002
-0.0002
-0.0002
-0.0002
-0.0002
-0.0002
-0.0002
-0.0002
-0.0002
-0.0002
-0.0002
-0.0002
-0.0002
-0.0002
-0.0002
-0.0002
-0.0002
-0.0002
-0.0002
-0.0002
-0.0002
-0.0002
-0.0002
-0.0002
-0.0002
-0.0002
-0.0002
-0.0002
-0.0002
-0.0002
-0.0002
-0.0002
-0.0002
-0.0002
-0.0002
-0.0002
-0.0002
-0.0002
-0.0002
-0.0002
-0.0002
-0.0002
-0.0002
-0.0002
-0.0002
-0.0002
-0.0002
-0.0002
-0.0002
-0.0002
-0.0002
-0.0002
-0.0002
-0.0002
-0.0002
-0.0002
-0.0002
-0.0002
-0.0002
-0.0002
-0.0002
-0.0002
-0.0002
-0.0002
-0.0002
-0.0002
-0.0002
-0.0002
-0.0003
-0.0003
-0.0003
-0.0003
-0.0003
-0.0003
-0.0003
-0.0003
-0.0003
-0.0003
-0.0003
-0.0003
-0.0003
-0.0003
-0.0003
-0.0003
-0.0003
-0.0003
-0.0003
-0.0003
-0.0003
-0.0003
-0.0003
-0.0003
-0.0003
-0.0003
-0.0003
-0.0003
-0.0003
-0.0003
-0.0003
-0.0003
-0.0003
-0.0003
-0.0003
-0.0003
-0.0003
-0.0003
-0.0003
-0.0003
-0.0003
-0.0003
-0.0003
-0.0003
-0.0003
-0.0003
-0.0003
-0.0003
-0.0003
-0.0003
-0.0003
-0.0003
-0.0003
-0.0003
-0.0003
-0.0003
-0.0003
-0.0003
-0.0003
-0.0003
-0.0003
-0.0003
-0.0003
-0.0003
-0.0003
-0.0003
-0.0003
-0.0003
-0.0003
-0.0003
-0.0003
-0.0003
-0.0003
-0.0003
-0.0003
-0.0003
-0.0003
-0.0003
-0.0003
-0.0003
-0.0003
-0.0003
-0.0003
-0.0003
-0.0003
-0.0003
-0.0003
-0.0003
-0.0003
-0.0003
-0.0003
-0.0003
-0.0003
-0.0003
-0.0003
-0.0003
-0.0003
-0.0003
-0.0003
-0.0003
-0.0003
-0.0003
-0.0003
-0.0003
-0.0003
-0.0003
-0.0003
-0.0003
-0.0003
-0.0003
-0.0003
-0.0003
-0.0003
-0.0003
-0.0003
-0.0003
-0.0003
-0.0003
-0.0003
-0.0003
-0.0003
-0.0003
-0.0003
-0.0003
-0.0003
-0.0003
-0.0003
-0.0003
-0.0003
-0.0003
-0.0003
-0.0003
-0.0003
-0.0003
-0.0003
-0.0003
-0.0003
-0.0003
-0.0003
-0.0003
-0.0003
-0.0003
-0.0003
-0.0003
-0.0004
-0.0004
-0.0004
-0.0004
-0.0004
-0.0004
-0.0004
-0.0004
-0.0004
-0.0004
-0.0004
-0.0004
-0.0004
-0.0004
-0.0004
-0.0004
-0.0004
-0.0004
-0.0004
-0.0004
-0.0004
-0.0004
-0.0004
-0.0004
-0.0004
-0.0004
-0.0004
-0.0004
-0.0004
-0.0004
-0.0004
-0.0004
-0.0004
-0.0004
-0.0004
-0.0004
-0.0004
-0.0004
-0.0004
-0.0004
-0.0004
-0.0004
-0.0004
-0.0004
-0.0004
-0.0004
-0.0004
-0.0004
-0.0004
-0.0004
-0.0004
-0.0004
-0.0004
-0.0004
-0.0004
-0.0004
-0.0004
-0.0004
-0.0004
-0.0004
-0.0004
-0.0004
-0.0004
-0.0004
-0.0004
-0.0004
-0.0004
-0.0004
-0.0004
-0.0004
-0.0004
-0.0004
-0.0004
-0.0004
-0.0004
-0.0004
-0.0004
-0.0004
-0.0004
-0.0004
-0.0004
-0.0004
-0.0004
-0.0004
-0.0004
-0.0004
-0.0004
-0.0004
-0.0004
-0.0004
-0.0004
-0.0004
-0.0004
-0.0004
-0.0004
-0.0004
-0.0004
-0.0004
-0.0004
-0.0004
-0.0004
-0.0004
-0.0004
-0.0004
-0.0004
-0.0004
-0.0004
-0.0004
-0.0004
-0.0004
-0.0004
-0.0004
-0.0004
-0.0004
-0.0004
-0.0004
-0.0004
-0.0004
-0.0004
-0.0004
-0.0004
-0.0004
-0.0004
-0.0004
-0.0004
-0.0004
-0.0004
-0.0004
-0.0004
-0.0004
-0.0004
-0.0004
-0.0004
-0.0004
-0.0004
-0.0004
-0.0004
-0.0004
-0.0004
-0.0004
-0.0004
-0.0004
-0.0004
-0.0004
-0.0005
-0.0005
-0.0005
-0.0005
-0.0005
-0.0005
-0.0005
-0.0005
-0.0005
-0.0005
-0.0005
-0.0005
-0.0005
-0.0005
-0.0005
-0.0005
-0.0005
-0.0005
-0.0005
-0.0005
-0.0005
-0.0005
-0.0005
-0.0005
-0.0005
-0.0005
-0.0005
-0.0005
-0.0005
-0.0005
-0.0005
-0.0005
-0.0005
-0.0005
-0.0005
-0.0005
-0.0005
-0.0005
-0.0005
-0.0005
-0.0005
-0.0005
-0.0005
-0.0005
-0.0005
-0.0005
-0.0005
-0.0005
-0.0005
-0.0005
-0.0005
-0.0005
-0.0005
-0.0005
-0.0005
-0.0005
-0.0005
-0.0005
-0.0005
-0.0005
-0.0005
-0.0005
-0.0005
SCALARS strain_1 float
LOOKUP_TABLE default
-0.000348
-0.554143
-0.545767
-0.537347
-0.528888
-0.520391
-0.511858
-0.503290
-0.494689
-0.486060
-0.477401
-0.468718
-0.460012
-0.451286
-0.442540
-0.433781
-0.425009
-0.416228
-0.407440
-0.398648
-0.389857
-0.381066
-0.372281
-0.363510
-0.354749
-0.346001
-0.337276
-0.328576
-0.319902
-0.311257
-0.302649
-0.294078
-0.285552
-0.277070
-0.268641
-0.260265
-0.251951
-0.243696
-0.235511
-0.227398
-0.219360
-0.211402
-0.203526
-0.195742
-0.188050
-0.180455
-0.172959
-0.165571
-0.158293
-0.151128
-0.144078
-0.137153
-0.130352
-0.123680
-0.117139
-0.110737
-0.104475
-0.098356
-0.092384
-0.086560
-0.080890
-0.075375
-0.070019
-0.064822
-0.059787
-0.054922
-0.050221
-0.045688
-0.041323
-0.037132
-0.033115
-0.029271
-0.025598
-0.022101
-0.018776
-0.015629
-0.012652
-0.009851
-0.007220
-0.004761
-0.002469
-0.554640
-0.000013
-0.002143
-0.004438
-0.006904
-0.009542
-0.012351
-0.015334
-0.018489
-0.021824
-0.025331
-0.029013
-0.032866
-0.036894
-0.041094
-0.045467
-0.050011
-0.054722
-0.059602
-0.064645
-0.069854
-0.075221
-0.080749
-0.086431
-0.092267
-0.098250
-0.104383
-0.110657
-0.117072
-0.123625
-0.130310
-0.137123
-0.144061
-0.151124
-0.158301
-0.165596
-0.172996
-0.180505
-0.188112
-0.195818
-0.203616
-0.211502
-0.219473
-0.227524
-0.235650
-0.243849
-0.252113
-0.260442
-0.268831
-0.277270
-0.285763
-0.294303
-0.302885
-0.311505
-0.320161
-0.328846
-0.337558
-0.346295
-0.355050
-0.363821
-0.372607
-0.381401
-0.390199
-0.399003
-0.407804
-0.416601
-0.425392
-0.434172
-0.442942
-0.451693
-0.460428
-0.469143
-0.477834
-0.486501
-0.495138
-0.503744
-0.512320
-0.520861
-0.529364
-0.537830
-0.546254
-0.554592
-0.554544
-0.554498
-0.554448
-0.554400
-0.554350
-0.554298
-0.554247
-0.554195
-0.000280
-0.000223
-0.000169
-0.000127
-0.000092
-0.000060
-0.000038
-0.000023
-0.000013
-0.002141
-0.002149
-0.002162
-0.002185
-0.002214
-0.002250
-0.002296
-0.002345
-0.002405
-0.004440
-0.004444
-0.004459
-0.004478
-0.004508
-0.004544
-0.004585
-0.004636
-0.004696
-0.006903
-0.006908
-0.006921
-0.006943
-0.006970
-0.007005
-0.007046
-0.007098
-0.007156
-0.009540
-0.009544
-0.009556
-0.009575
-0.009604
-0.009639
-0.009682
-0.009728
-0.009787
-0.012349
-0.012353
-0.012364
-0.012383
-0.012409
-0.012444
-0.012485
-0.012532
-0.012589
-0.015330
-0.015334
-0.015345
-0.015362
-0.015391
-0.015421
-0.015462
-0.015510
-0.015564
-0.018488
-0.018490
-0.018501
-0.018517
-0.018544
-0.018575
-0.018613
-0.018660
-0.018713
-0.021818
-0.021819
-0.021828
-0.021845
-0.021869
-0.021899
-0.021939
-0.021986
-0.022040
-0.025323
-0.025322
-0.025332
-0.025347
-0.025370
-0.025401
-0.025437
-0.025483
-0.025538
-0.029002
-0.029003
-0.029009
-0.029024
-0.029046
-0.029075
-0.029112
-0.029157
-0.029210
-0.032858
-0.032855
-0.032862
-0.032876
-0.032897
-0.032927
-0.032961
-0.033005
-0.033056
-0.036884
-0.036884
-0.036888
-0.036900
-0.036921
-0.036949
-0.036983
-0.037026
-0.037077
-0.041085
-0.041084
-0.041087
-0.041099
-0.041116
-0.041145
-0.041178
-0.041219
-0.041268
-0.045455
-0.045452
-0.045455
-0.045466
-0.045484
-0.045511
-0.045545
-0.045585
-0.045632
-0.049998
-0.049994
-0.049998
-0.050006
-0.050024
-0.050048
-0.050080
-0.050118
-0.050166
-0.054709
-0.054705
-0.054707
-0.054716
-0.054730
-0.054755
-0.054786
-0.054822
-0.054869
-0.059588
-0.059581
-0.059582
-0.059589
-0.059606
-0.059627
-0.059658
-0.059695
-0.059737
-0.064631
-0.064623
-0.064625
-0.064631
-0.064645
-0.064667
-0.064694
-0.064730
-0.064773
-0.069837
-0.069830
-0.069829
-0.069835
-0.069847
-0.069866
-0.069893
-0.069929
-0.069971
-0.075206
-0.075196
-0.075194
-0.075200
-0.075211
-0.075231
-0.075257
-0.075289
-0.075328
-0.080730
-0.080723
-0.080718
-0.080722
-0.080732
-0.080750
-0.080773
-0.080804
-0.080844
-0.086414
-0.086403
-0.086398
-0.086399
-0.086410
-0.086427
-0.086448
-0.086477
-0.086516
-0.092247
-0.092236
-0.092228
-0.092231
-0.092240
-0.092255
-0.092275
-0.092304
-0.092342
-0.098230
-0.098220
-0.098212
-0.098213
-0.098220
-0.098234
-0.098253
-0.098281
-0.098315
-0.104363
-0.104349
-0.104342
-0.104340
-0.104346
-0.104360
-0.104377
-0.104403
-0.104436
-0.110636
-0.110620
-0.110613
-0.110611
-0.110617
-0.110627
-0.110645
-0.110670
-0.110700
-0.117051
-0.117035
-0.117026
-0.117023
-0.117027
-0.117037
-0.117052
-0.117074
-0.117106
-0.123603
-0.123586
-0.123575
-0.123572
-0.123573
-0.123582
-0.123597
-0.123618
-0.123645
-0.130287
-0.130267
-0.130258
-0.130250
-0.130253
-0.130261
-0.130274
-0.130292
-0.130319
-0.137100
-0.137081
-0.137067
-0.137061
-0.137063
-0.137068
-0.137079
-0.137099
-0.137123
-0.144038
-0.144020
-0.144006
-0.143999
-0.143997
-0.144001
-0.144014
-0.144029
-0.144052
-0.151099
-0.151078
-0.151064
-0.151055
-0.151052
-0.151055
-0.151066
-0.151079
-0.151102
-0.158275
-0.158255
-0.158241
-0.158231
-0.158228
-0.158229
-0.158235
-0.158250
-0.158267
-0.165568
-0.165547
-0.165529
-0.165518
-0.165514
-0.165514
-0.165519
-0.165533
-0.165550
-0.172969
-0.172947
-0.172929
-0.172918
-0.172911
-0.172910
-0.172914
-0.172925
-0.172940
-0.180474
-0.180452
-0.180433
-0.180421
-0.180413
-0.180411
-0.180414
-0.180423
-0.180435
-0.188083
-0.188058
-0.188041
-0.188024
-0.188017
-0.188013
-0.188015
-0.188021
-0.188032
-0.195788
-0.195761
-0.195743
-0.195727
-0.195717
-0.195712
-0.195711
-0.195717
-0.195725
-0.203586
-0.203558
-0.203537
-0.203523
-0.203510
-0.203504
-0.203502
-0.203507
-0.203515
-0.211470
-0.211444
-0.211420
-0.211405
-0.211392
-0.211385
-0.211382
-0.211383
-0.211390
-0.219441
-0.219413
-0.219390
-0.219372
-0.219358
-0.219350
-0.219344
-0.219345
-0.219348
-0.227491
-0.227463
-0.227439
-0.227419
-0.227404
-0.227394
-0.227389
-0.227386
-0.227390
-0.235616
-0.235588
-0.235563
-0.235544
-0.235526
-0.235516
-0.235508
-0.235504
-0.235506
-0.243814
-0.243784
-0.243757
-0.243738
-0.243721
-0.243708
-0.243697
-0.243694
-0.243693
-0.252078
-0.252049
-0.252023
-0.251999
-0.251982
-0.251968
-0.251957
-0.251951
-0.251947
-0.260407
-0.260377
-0.260349
-0.260325
-0.260307
-0.260290
-0.260278
-0.260269
-0.260265
-0.268794
-0.268763
-0.268732
-0.268710
-0.268689
-0.268671
-0.268661
-0.268649
-0.268643
-0.277236
-0.277202
-0.277173
-0.277149
-0.277126
-0.277109
-0.277093
-0.277082
-0.277074
-0.285727
-0.285694
-0.285666
-0.285637
-0.285615
-0.285594
-0.285578
-0.285566
-0.285558
-0.294266
-0.294233
-0.294202
-0.294174
-0.294151
-0.294130
-0.294112
-0.294096
-0.294085
-0.302846
-0.302813
-0.302781
-0.302752
-0.302727
-0.302705
-0.302685
-0.302671
-0.302659
-0.311466
-0.311431
-0.311397
-0.311370
-0.311344
-0.311321
-0.311299
-0.311282
-0.311270
-0.320123
-0.320086
-0.320053
-0.320022
-0.319995
-0.319971
-0.319948
-0.319930
-0.319913
-0.328807
-0.328769
-0.328737
-0.328704
-0.328677
-0.328651
-0.328628
-0.328608
-0.328591
-0.337518
-0.337482
-0.337448
-0.337415
-0.337387
-0.337358
-0.337334
-0.337313
-0.337294
-0.346255
-0.346216
-0.346182
-0.346151
-0.346118
-0.346090
-0.346066
-0.346042
-0.346021
-0.355010
-0.354971
-0.354935
-0.354903
-0.354871
-0.354841
-0.354816
-0.354789
-0.354768
-0.363781
-0.363742
-0.363707
-0.363672
-0.363639
-0.363607
-0.363583
-0.363556
-0.363529
-0.372566
-0.372526
-0.372491
-0.372454
-0.372420
-0.372390
-0.372358
-0.372331
-0.372308
-0.381359
-0.381318
-0.381282
-0.381245
-0.381212
-0.381178
-0.381147
-0.381119
-0.381091
-0.390157
-0.390117
-0.390078
-0.390042
-0.390006
-0.389974
-0.389941
-0.389910
-0.389882
-0.398960
-0.398919
-0.398881
-0.398841
-0.398805
-0.398771
-0.398738
-0.398706
-0.398676
-0.407762
-0.407721
-0.407678
-0.407641
-0.407604
-0.407568
-0.407533
-0.407500
-0.407469
-0.416557
-0.416515
-0.416476
-0.416438
-0.416397
-0.416362
-0.416327
-0.416292
-0.416259
-0.425347
-0.425306
-0.425266
-0.425224
-0.425188
-0.425147
-0.425111
-0.425075
-0.425042
-0.434128
-0.434086
-0.434044
-0.434004
-0.433965
-0.433927
-0.433889
-0.433851
-0.433816
-0.442896
-0.442854
-0.442813
-0.442768
-0.442730
-0.442692
-0.442652
-0.442613
-0.442578
-0.451649
-0.451606
-0.451563
-0.451522
-0.451480
-0.451441
-0.451400
-0.451361
-0.451321
-0.460382
-0.460340
-0.460297
-0.460255
-0.460212
-0.460171
-0.460130
-0.460091
-0.460050
-0.469097
-0.469054
-0.469010
-0.468968
-0.468925
-0.468883
-0.468841
-0.468801
-0.468758
-0.477789
-0.477745
-0.477701
-0.477655
-0.477613
-0.477571
-0.477527
-0.477485
-0.477444
-0.486455
-0.486411
-0.486365
-0.486321
-0.486276
-0.486232
-0.486189
-0.486147
-0.486101
-0.495091
-0.495046
-0.495002
-0.494957
-0.494911
-0.494868
-0.494823
-0.494777
-0.494733
-0.503700
-0.503656
-0.503607
-0.503562
-0.503517
-0.503471
-0.503425
-0.503382
-0.503336
-0.512273
-0.512230
-0.512182
-0.512139
-0.512091
-0.512043
-0.511997
-0.511951
-0.511903
-0.520814
-0.520768
-0.520723
-0.520676
-0.520628
-0.520583
-0.520533
-0.520487
-0.520439
-0.529318
-0.529272
-0.529225
-0.529177
-0.529130
-0.529082
-0.529033
-0.528985
-0.528937
-0.537785
-0.537736
-0.537690
-0.537644
-0.537593
-0.537546
-0.537496
-0.537447
-0.537398
-0.546209
-0.546163
-0.546114
-0.546065
-0.546019
-0.545969
-0.545919
-0.545871
-0.545817
SCALARS strain_2 float
LOOKUP_TABLE default
-0.001417
-0.004101
-0.004092
-0.004100
-0.004095
-0.004096
-0.004094
-0.004106
-0.004099
-0.004095
-0.004089
-0.004100
-0.004082
-0.004093
-0.004091
-0.004078
-0.004071
-0.004068
-0.004070
-0.004057
-0.004048
-0.004034
-0.004027
-0.004023
-0.003999
-0.004007
-0.003985
-0.003972
-0.003956
-0.003942
-0.003926
-0.003902
-0.003889
-0.003872
-0.003851
-0.003823
-0.003807
-0.003778
-0.003758
-0.003730
-0.003705
-0.003672
-0.003645
-0.003611
-0.003581
-0.003546
-0.003508
-0.003462
-0.003434
-0.003393
-0.003358
-0.003309
-0.003263
-0.003224
-0.003176
-0.003129
-0.003086
-0.003025
-0.002979
-0.002932
-0.002869
-0.002815
-0.002757
-0.002712
-0.002639
-0.002575
-0.002514
-0.002449
-0.002381
-0.002315
-0.002243
-0.002179
-0.002098
-0.002025
-0.001953
-0.001884
-0.001801
-0.001732
-0.001655
-0.001571
-0.001501
0.005124
0.005253
0.005267
0.005278
0.005296
0.005293
0.005301
0.005321
0.005325
0.005337
0.005339
0.005349
0.005364
0.005364
0.005367
0.005388
0.005392
0.005399
0.005403
0.005407
0.005409
0.005418
0.005424
0.005416
0.005437
0.005440
0.005440
0.005454
0.005444
0.005447
0.005465
0.005465
0.005469
0.005460
0.005466
0.005468
0.005468
0.005461
0.005464
0.005470
0.005466
0.005473
0.005471
0.005468
0.005453
0.005463
0.005464
0.005457
0.005442
0.005452
0.005442
0.005437
0.005436
0.005429
0.005424
0.005415
0.005407
0.005402
0.005398
0.005380
0.005387
0.005374
0.005356
0.005354
0.005347
0.005328
0.005329
0.005307
0.005292
0.005289
0.005279
0.005271
0.005252
0.005246
0.005220
0.005205
0.005204
0.005185
0.005176
0.005150
0.005136
0.004199
0.003275
0.002363
0.001438
0.000513
-0.000400
-0.001326
-0.002248
-0.003170
-0.000746
-0.000077
0.000593
0.001266
0.001928
0.002583
0.003264
0.003920
0.004590
0.004596
0.003920
0.003238
0.002568
0.001888
0.001221
0.000541
-0.000142
-0.000815
0.004591
0.003908
0.003226
0.002552
0.001856
0.001170
0.000490
-0.000210
-0.000884
0.004595
0.003904
0.003200
0.002507
0.001822
0.001123
0.000439
-0.000260
-0.000955
0.004608
0.003893
0.003195
0.002493
0.001795
0.001085
0.000381
-0.000320
-0.001039
0.004599
0.003886
0.003171
0.002465
0.001752
0.001040
0.000325
-0.000379
-0.001096
0.004603
0.003866
0.003161
0.002434
0.001712
0.001000
0.000281
-0.000438
-0.001168
0.004602
0.003872
0.003150
0.002413
0.001690
0.000958
0.000219
-0.000499
-0.001227
0.004594
0.003860
0.003126
0.002386
0.001646
0.000926
0.000175
-0.000562
-0.001299
0.004599
0.003855
0.003105
0.002366
0.001620
0.000868
0.000138
-0.000612
-0.001361
0.004602
0.003849
0.003092
0.002345
0.001587
0.000840
0.000082
-0.000670
-0.001423
0.004596
0.003847
0.003078
0.002320
0.001556
0.000793
0.000035
-0.000724
-0.001487
0.004603
0.003830
0.003060
0.002293
0.001526
0.000756
-0.000005
-0.000777
-0.001548
0.004599
0.003817
0.003049
0.002268
0.001502
0.000712
-0.000057
-0.000834
-0.001601
0.004598
0.003810
0.003043
0.002259
0.001458
0.000674
-0.000105
-0.000881
-0.001656
0.004592
0.003814
0.003027
0.002223
0.001432
0.000659
-0.000136
-0.000932
-0.001723
0.004596
0.003794
0.003006
0.002198
0.001410
0.000617
-0.000181
-0.000978
-0.001782
0.004604
0.003784
0.002988
0.002176
0.001382
0.000585
-0.000233
-0.001034
-0.001831
0.004594
0.003790
0.002986
0.002162
0.001349
0.000541
-0.000252
-0.001079
-0.001886
0.004599
0.003786
0.002957
0.002142
0.001324
0.000514
-0.000307
-0.001119
-0.001942
0.004594
0.003767
0.002944
0.002125
0.001305
0.000484
-0.000344
-0.001168
-0.001992
0.004595
0.003766
0.002934
0.002106
0.001272
0.000448
-0.000376
-0.001210
-0.002036
0.004593
0.003759
0.002915
0.002085
0.001256
0.000417
-0.000415
-0.001248
-0.002084
0.004598
0.003760
0.002921
0.002065
0.001227
0.000383
-0.000468
-0.001301
-0.002137
0.004590
0.003742
0.002896
0.002041
0.001211
0.000351
-0.000494
-0.001340
-0.002185
0.004587
0.003747
0.002888
0.002037
0.001171
0.000334
-0.000531
-0.001377
-0.002224
0.004592
0.003732
0.002869
0.002012
0.001164
0.000296
-0.000555
-0.001417
-0.002273
0.004592
0.003721
0.002864
0.002007
0.001134
0.000272
-0.000592
-0.001454
-0.002324
0.004585
0.003717
0.002857
0.001978
0.001106
0.000250
-0.000623
-0.001490
-0.002365
0.004576
0.003710
0.002838
0.001967
0.001096
0.000223
-0.000657
-0.001530
-0.002402
0.004583
0.003702
0.002823
0.001943
0.001081
0.000189
-0.000687
-0.001565
-0.002425
0.004577
0.003701
0.002817
0.001935
0.001047
0.000168
-0.000702
-0.001589
-0.002472
0.004578
0.003688
0.002807
0.001916
0.001039
0.000149
-0.000740
-0.001625
-0.002506
0.004572
0.003691
0.002793
0.001898
0.001014
0.000126
-0.000770
-0.001660
-0.002553
0.004569
0.003679
0.002787
0.001893
0.001001
0.000108
-0.000800
-0.001689
-0.002575
0.004575
0.003672
0.002777
0.001879
0.000974
0.000070
-0.000827
-0.001713
-0.002601
0.004566
0.003670
0.002756
0.001857
0.000963
0.000061
-0.000839
-0.001737
-0.002646
0.004567
0.003655
0.002758
0.001850
0.000946
0.000041
-0.000860
-0.001773
-0.002672
0.004561
0.003658
0.002745
0.001834
0.000935
0.000018
-0.000895
-0.001802
-0.002703
0.004560
0.003640
0.002732
0.001817
0.000913
0.000004
-0.000916
-0.001825
-0.002734
0.004555
0.003645
0.002724
0.001809
0.000905
-0.000015
-0.000944
-0.001843
-0.002762
0.004554
0.003644
0.002713
0.001802
0.000886
-0.000040
-0.000950
-0.001864
-0.002782
0.004543
0.003624
0.002708
0.001796
0.000862
-0.000052
-0.000970
-0.001887
-0.002818
0.004532
0.003626
0.002699
0.001781
0.000858
-0.000067
-0.000988
-0.001910
-0.002842
0.004543
0.003615
0.002701
0.001760
0.000837
-0.000085
-0.001009
-0.001931
-0.002854
0.004527
0.003615
0.002679
0.001751
0.000818
-0.000105
-0.001026
-0.001950
-0.002874
0.004525
0.003596
0.002670
0.001746
0.000813
-0.000118
-0.001039
-0.001964
-0.002896
0.004521
0.003596
0.002667
0.001729
0.000799
-0.000129
-0.001054
-0.001990
-0.002919
0.004513
0.003591
0.002666
0.001725
0.000790
-0.000150
-0.001075
-0.002000
-0.002943
0.004515
0.003581
0.002644
0.001710
0.000771
-0.000152
-0.001089
-0.002028
-0.002961
0.004493
0.003578
0.002636
0.001705
0.000768
-0.000166
-0.001111
-0.002037
-0.002973
0.004503
0.003569
0.002628
0.001696
0.000753
-0.000179
-0.001107
-0.002049
-0.002989
0.004496
0.003568
0.002623
0.001679
0.000736
-0.000192
-0.001119
-0.002057
-0.003008
0.004486
0.003548
0.002614
0.001673
0.000736
-0.000203
-0.001137
-0.002079
-0.003025
0.004481
0.003543
0.002603
0.001677
0.000726
-0.000215
-0.001157
-0.002094
-0.003032
0.004475
0.003536
0.002601
0.001648
0.000719
-0.000224
-0.001163
-0.002101
-0.003050
0.004468
0.003527
0.002590
0.001643
0.000709
-0.000237
-0.001177
-0.002118
-0.003055
0.004460
0.003520
0.002581
0.001634
0.000692
-0.000242
-0.001196
-0.002122
-0.003071
0.004448
0.003513
0.002571
0.001625
0.000685
-0.000250
-0.001191
-0.002144
-0.003079
0.004443
0.003498
0.002553
0.001628
0.000670
-0.000264
-0.001202
-0.002156
-0.003090
0.004433
0.003489
0.002560
0.001610
0.000669
-0.000274
-0.001217
-0.002155
-0.003106
0.004417
0.003487
0.002541
0.001602
0.000659
-0.000292
-0.001218
-0.002167
-0.003109
0.004412
0.003476
0.002535
0.001595
0.000647
-0.000290
-0.001232
-0.002170
-0.003116
0.004404
0.003463
0.002528
0.001587
0.000644
-0.000288
-0.001245
-0.002181
-0.003125
0.004391
0.003460
0.002517
0.001582
0.000642
-0.000300
-0.001248
-0.002185
-0.003127
0.004386
0.003447
0.002510
0.001566
0.000626
-0.000318
-0.001256
-0.002195
-0.003135
0.004373
0.003428
0.002493
0.001558
0.000621
-0.000321
-0.001260
-0.002200
-0.003141
0.004367
0.003426
0.002491
0.001557
0.000612
-0.000334
-0.001273
-0.002209
-0.003147
0.004351
0.003406
0.002479
0.001539
0.000596
-0.000339
-0.001276
-0.002212
-0.003143
0.004341
0.003404
0.002478
0.001530
0.000590
-0.000341
-0.001270
-0.002216
-0.003150
0.004339
0.003395
0.002452
0.001536
0.000584
-0.000355
-0.001283
-0.002214
-0.003156
0.004320
0.003385
0.002446
0.001522
0.000574
-0.000352
-0.001289
-0.002232
-0.003154
0.004310
0.003373
0.002448
0.001506
0.000577
-0.000366
-0.001292
-0.002234
-0.003166
0.004297
0.003351
0.002430
0.001497
0.000571
-0.000361
-0.001304
-0.002238
-0.003164
0.004278
0.003356
0.002424
0.001492
0.000548
-0.000377
-0.001311
-0.002232
-0.003170
0.004273
0.003339
0.002409
0.001476
0.000545
-0.000376
-0.001307
-0.002243
-0.003169
0.004260
0.003329
0.002400
0.001468
0.000539
-0.000384
-0.001315
-0.002245
-0.003179
0.004244
0.003311
0.002385
0.001458
0.000541
-0.000393
-0.001312
-0.002249
-0.003180
0.004228
0.003306
0.002373
0.001452
0.000531
-0.000395
-0.001315
-0.002247
-0.003174
0.004216
0.003294
0.002363
0.001439
0.000519
-0.000409
-0.001319
-0.002241
-0.003172
SCALARS strain_3 float
LOOKUP_TABLE default
0.002836
0.181510
0.178946
0.176362
0.173769
0.171161
0.168545
0.165913
0.163267
0.160615
0.157947
0.155273
0.152587
0.149894
0.147192
0.144485
0.141766
0.139054
0.136328
0.133606
0.130877
0.128141
0.125408
0.122677
0.119948
0.117222
0.114494
0.111768
0.109057
0.106340
0.103627
0.100938
0.098257
0.095582
0.092918
0.090267
0.087635
0.085019
0.082405
0.079827
0.077260
0.074713
0.072187
0.069686
0.067219
0.064773
0.062341
0.059950
0.057582
0.055246
0.052941
0.050679
0.048438
0.046247
0.044075
0.041951
0.039868
0.037819
0.035813
0.033856
0.031944
0.030056
0.028228
0.026447
0.024707
0.023021
0.021372
0.019779
0.018230
0.016745
0.015298
0.013906
0.012567
0.011274
0.010041
0.008858
0.007722
0.006632
0.005613
0.004630
0.003707
0.176808
-0.001482
-0.000651
0.000243
0.001188
0.002183
0.003234
0.004329
0.005486
0.006693
0.007952
0.009266
0.010625
0.012048
0.013518
0.015030
0.016598
0.018223
0.019888
0.021612
0.023376
0.025180
0.027041
0.028941
0.030892
0.032870
0.034905
0.036987
0.039093
0.041242
0.043428
0.045663
0.047917
0.050213
0.052542
0.054901
0.057292
0.059707
0.062156
0.064628
0.067121
0.069647
0.072192
0.074752
0.077334
0.079942
0.082568
0.085200
0.087853
0.090517
0.093206
0.095890
0.098597
0.101306
0.104024
0.106748
0.109476
0.112212
0.114945
0.117684
0.120433
0.123165
0.125916
0.128650
0.131386
0.134125
0.136856
0.139580
0.142298
0.145015
0.147720
0.150413
0.153105
0.155784
0.158451
0.161112
0.163761
0.166396
0.169014
0.171628
0.174215
0.177275
0.177743
0.178223
0.178690
0.179159
0.179625
0.180097
0.180568
0.181042
0.002396
0.001952
0.001523
0.001086
0.000649
0.000224
-0.000215
-0.000639
-0.001064
-0.000220
0.000210
0.000640
0.001071
0.001501
0.001938
0.002376
0.002822
0.003263
0.000668
0.001103
0.001542
0.001969
0.002412
0.002853
0.003298
0.003735
0.004181
0.001621
0.002054
0.002490
0.002929
0.003374
0.003815
0.004260
0.004710
0.005155
0.002615
0.003059
0.003496
0.003938
0.004379
0.004828
0.005280
0.005726
0.006184
0.003668
0.004110
0.004551
0.005001
0.005442
0.005896
0.006353
0.006807
0.007264
0.004769
0.005213
0.005664
0.006114
0.006569
0.007016
0.007475
0.007933
0.008393
0.005930
0.006383
0.006821
0.007281
0.007739
0.008196
0.008652
0.009111
0.009576
0.007138
0.007590
0.008046
0.008495
0.008960
0.009416
0.009879
0.010339
0.010810
0.008403
0.008856
0.009309
0.009770
0.010228
0.010702
0.011159
0.011626
0.012104
0.009716
0.010183
0.010631
0.011090
0.011556
0.012028
0.012493
0.012960
0.013434
0.011087
0.011541
0.012008
0.012472
0.012944
0.013404
0.013875
0.014352
0.014827
0.012502
0.012967
0.013434
0.013894
0.014368
0.014834
0.015307
0.015782
0.016267
0.013974
0.014445
0.014902
0.015372
0.015852
0.016324
0.016803
0.017279
0.017748
0.015490
0.015959
0.016433
0.016903
0.017374
0.017858
0.018336
0.018816
0.019299
0.017064
0.017536
0.018014
0.018485
0.018960
0.019442
0.019923
0.020402
0.020893
0.018688
0.019159
0.019636
0.020115
0.020593
0.021073
0.021552
0.022039
0.022526
0.020362
0.020827
0.021311
0.021782
0.022278
0.022759
0.023235
0.023738
0.024211
0.022080
0.022547
0.023035
0.023514
0.023994
0.024481
0.024972
0.025457
0.025953
0.023844
0.024322
0.024812
0.025293
0.025771
0.026259
0.026749
0.027245
0.027725
0.025659
0.026137
0.026620
0.027105
0.027597
0.028084
0.028570
0.029069
0.029566
0.027511
0.027997
0.028490
0.028977
0.029464
0.029949
0.030444
0.030939
0.031435
0.029424
0.029906
0.030392
0.030883
0.031371
0.031862
0.032360
0.032858
0.033354
0.031364
0.031855
0.032339
0.032830
0.033328
0.033820
0.034315
0.034812
0.035317
0.033361
0.033843
0.034343
0.034830
0.035326
0.035818
0.036324
0.036817
0.037317
0.035397
0.035877
0.036373
0.036864
0.037358
0.037861
0.038361
0.038861
0.039364
0.037465
0.037957
0.038452
0.038948
0.039448
0.039935
0.040439
0.040937
0.041451
0.039587
0.040074
0.040565
0.041062
0.041566
0.042061
0.042560
0.043064
0.043563
0.041733
0.042229
0.042723
0.043216
0.043722
0.044223
0.044723
0.045230
0.045732
0.043927
0.044417
0.044914
0.045418
0.045919
0.046413
0.046928
0.047426
0.047930
0.046148
0.046644
0.047149
0.047648
0.048137
0.048645
0.049152
0.049656
0.050167
0.048416
0.048913
0.049408
0.049905
0.050408
0.050919
0.051421
0.051922
0.052439
0.050703
0.051211
0.051704
0.052205
0.052709
0.053214
0.053719
0.054225
0.054738
0.053033
0.053534
0.054040
0.054533
0.055046
0.055543
0.056051
0.056564
0.057068
0.055401
0.055893
0.056399
0.056897
0.057404
0.057903
0.058417
0.058926
0.059439
0.057782
0.058287
0.058786
0.059290
0.059795
0.060301
0.060807
0.061316
0.061827
0.060202
0.060707
0.061207
0.061710
0.062219
0.062729
0.063230
0.063735
0.064248
0.062655
0.063148
0.063659
0.064164
0.064667
0.065172
0.065679
0.066190
0.066706
0.065119
0.065625
0.066131
0.066636
0.067141
0.067644
0.068158
0.068672
0.069177
0.067622
0.068128
0.068628
0.069134
0.069639
0.070145
0.070660
0.071159
0.071686
0.070142
0.070649
0.071152
0.071651
0.072166
0.072668
0.073184
0.073690
0.074208
0.072694
0.073189
0.073693
0.074197
0.074708
0.075216
0.075725
0.076240
0.076747
0.075257
0.075757
0.076263
0.076765
0.077272
0.077783
0.078292
0.078802
0.079313
0.077843
0.078347
0.078846
0.079355
0.079857
0.080366
0.080882
0.081391
0.081899
0.080438
0.080947
0.081454
0.081956
0.082461
0.082975
0.083472
0.083987
0.084496
0.083066
0.083570
0.084066
0.084580
0.085081
0.085595
0.086102
0.086603
0.087119
0.085701
0.086210
0.086711
0.087211
0.087725
0.088223
0.088738
0.089241
0.089763
0.088359
0.088863
0.089360
0.089871
0.090378
0.090874
0.091392
0.091902
0.092409
0.091021
0.091527
0.092028
0.092538
0.093034
0.093540
0.094055
0.094561
0.095065
0.093698
0.094206
0.094701
0.095211
0.095719
0.096223
0.096731
0.097235
0.097748
0.096392
0.096891
0.097397
0.097903
0.098403
0.098911
0.099418
0.099927
0.100434
0.099091
0.099591
0.100100
0.100602
0.101114
0.101608
0.102112
0.102617
0.103135
0.101799
0.102309
0.102805
0.103309
0.103815
0.104316
0.104821
0.105322
0.105836
0.104516
0.105022
0.105525
0.106025
0.106523
0.107031
0.107534
0.108037
0.108548
0.107243
0.107741
0.108240
0.108750
0.109244
0.109749
0.110250
0.110759
0.111264
0.109975
0.110473
0.110974
0.111472
0.111979
0.112481
0.112981
0.113486
0.113984
0.112709
0.113204
0.113706
0.114205
0.114705
0.115198
0.115710
0.116210
0.116707
0.115444
0.115943
0.116435
0.116941
0.117441
0.117944
0.118438
0.118945
0.119440
0.118187
0.118681
0.119178
0.119677
0.120174
0.120673
0.121179
0.121673
0.122180
0.120922
0.121419
0.121917
0.122421
0.122915
0.123411
0.123913
0.124408
0.124916
0.123665
0.124162
0.124654
0.125152
0.125654
0.126146
0.126644
0.127153
0.127647
0.126413
0.126897
0.127401
0.127889
0.128389
0.128883
0.129378
0.129876
0.130377
0.129148
0.129642
0.130135
0.130625
0.131122
0.131625
0.132117
0.132611
0.133112
0.131886
0.132369
0.132872
0.133356
0.133855
0.134350
0.134844
0.135343
0.135836
0.134620
0.135113
0.135600
0.136086
0.136586
0.137075
0.137574
0.138070
0.138563
0.137345
0.137838
0.138328
0.138819
0.139313
0.139804
0.140299
0.140795
0.141282
0.140074
0.140560
0.141044
0.141542
0.142031
0.142523
0.143012
0.143505
0.143997
0.142790
0.143278
0.143767
0.144252
0.144748
0.145232
0.145729
0.146209
0.146705
0.145500
0.145988
0.146480
0.146960
0.147458
0.147944
0.148430
0.148916
0.149412
0.148200
0.148687
0.149179
0.149662
0.150153
0.150643
0.151123
0.151612
0.152102
0.150904
0.151387
0.151874
0.152354
0.152844
0.153333
0.153815
0.154303
0.154780
0.153592
0.154073
0.154562
0.155044
0.155524
0.156012
0.156497
0.156981
0.157460
0.156262
0.156746
0.157238
0.157713
0.158203
0.158678
0.159169
0.159648
0.160126
0.158935
0.159419
0.159892
0.160377
0.160862
0.161343
0.161824
0.162304
0.162785
0.161592
0.162073
0.162551
0.163034
0.163509
0.163994
0.164471
0.164951
0.165425
0.164235
0.164715
0.165196
0.165674
0.166153
0.166625
0.167109
0.167589
0.168066
0.166877
0.167350
0.167824
0.168305
0.168775
0.169256
0.169742
0.170210
0.170686
0.169495
0.169967
0.170443
0.170924
0.171394
0.171874
0.172346
0.172825
0.173293
0.172101
0.172582
0.173046
0.173522
0.173994
0.174469
0.174943
0.175421
0.175890
0.174694
0.175175
0.175642
0.176111
0.176591
0.177057
0.177533
0.178002
0.178474
SCALARS stress_1 float
LOOKUP_TABLE default
-426805.300792
-147830655.835846
-145606946.104158
-143367108.372470
-141122150.640782
-138865928.909094
-136596907.177406
-134322509.445717
-132036591.714029
-129742225.982341
-127444532.250653
-125134806.518965
-122819192.787276
-120497691.055588
-118174141.323900
-115845471.592212
-113511681.860524
-111175332.128836
-108834118.397147
-106500328.665459
-104162954.933771
-101821997.202083
-99486671.470395
-97151345.738706
-94821652.007018
-92492982.275330
-90172504.543642
-87854330.811954
-85540509.080266
-83244607.348577
-80957665.616889
-78673795.885201
-76400678.153513
-74146504.421825
-71899242.690136
-69670156.958448
-67456687.226760
-65259601.495072
-63080179.763384
-60918166.031696
-58778680.300007
-56660954.568319
-54562428.836631
-52491295.104943
-50438081.373255
-48418147.641567
-46422021.909878
-44452264.178190
-42513482.446502
-40606700.714814
-38725006.983126
-36886577.251437
-35070931.519749
-33295989.788061
-31551256.056373
-29844410.324685
-28179548.592997
-26545918.861308
-24959649.129620
-23404355.397932
-21895909.666244
-20424583.934556
-18996522.202867
-17612748.471179
-16273774.739491
-14976017.007803
-13722803.276115
-12516437.544427
-11353079.812738
-10239130.081050
-9161788.349362
-8143582.617674
-7160192.885986
-6230819.154298
-5342149.422609
-4501863.690921
-3708169.959233
-2964140.227545
-2260814.495857
-1605616.764168
-994195.032480
-147397029.507816
542117.027238
-22200.704450
-632342.436138
-1286260.167827
-1988817.899515
-2739503.631203
-3530381.362891
-4373227.094579
-5260104.826267
-6196134.557956
-7178244.289644
-8202338.021332
-9279167.753020
-10402589.484708
-11566203.216397
-12776920.948085
-14034998.679773
-15338132.411461
-16682738.143149
-18073423.874837
-19508653.606526
-20980747.338214
-22497641.069902
-24053958.801590
-25654308.533278
-27291522.264966
-28963295.996655
-30676797.728343
-32428699.460031
-34213881.191719
-36029782.923407
-37885876.655096
-39768594.386784
-41687664.118472
-43633869.850160
-45606443.581848
-47617161.313536
-49650151.045225
-51703108.776913
-53786786.508601
-55894016.240289
-58017373.971977
-60168891.703666
-62338329.435354
-64528247.167042
-66735572.898730
-68958514.630418
-71194256.362106
-73446126.093795
-75714891.825483
-77994921.557171
-80286983.288859
-82584165.020547
-84893890.752235
-87211296.483924
-89536126.215612
-91868891.947300
-94201657.678988
-96542103.410676
-98884085.142365
-101232466.874053
-103578032.605741
-105925390.337429
-108271468.069117
-110618825.800805
-112962087.532494
-115304325.264182
-117639138.995870
-119974208.727558
-122303134.459246
-124621820.190935
-126941273.922623
-129249207.654311
-131549205.385999
-133843059.117687
-136128208.849375
-138399790.581064
-140665228.312752
-142915306.044440
-145162823.776128
-147439726.540619
-147483191.573422
-147533312.606225
-147574217.639028
-147616914.671831
-147661147.704634
-147704356.737437
-147747309.770240
-147788214.803043
-323180.267989
-219043.235186
-117210.202383
-17681.169580
78519.863223
175488.896026
268361.928829
363794.961632
456411.994435
-110977.737253
-200010.770056
-293651.802859
-388316.835662
-484261.868465
-586606.901268
-683575.934071
-786432.966874
-890057.999677
-721119.468941
-814248.501744
-907377.534547
-1000506.567350
-1100035.600153
-1196492.632956
-1292693.665759
-1399902.698562
-1498919.731365
-1375549.200630
-1464838.233433
-1562575.266236
-1658008.299039
-1753441.331842
-1851178.364645
-1946867.397448
-2053052.430251
-2154373.463054
-2078874.932318
-2168931.965121
-2263084.997924
-2356470.030727
-2457535.063530
-2556040.096333
-2653777.129136
-2754074.161939
-2858723.194742
-2831096.664006
-2917825.696809
-3009418.729612
-3105107.762415
-3202076.795218
-3300837.828021
-3399342.860824
-3501943.893627
-3604032.926430
-3620438.395694
-3711519.428497
-3806184.461300
-3898801.494103
-3998330.526906
-4093763.559709
-4192780.592512
-4295125.625315
-4397726.658118
-4463028.127382
-4552573.160185
-4643654.192988
-4738319.225791
-4838360.258594
-4936865.291397
-5034346.324200
-5136947.357003
-5239036.389806
-5353233.859070
-5440218.891873
-5533859.924676
-5629548.957479
-5721909.990282
-5823743.023085
-5920712.055888
-6021265.088692
-6122586.121495
-6286447.590759
-6375480.623562
-6468353.656365
-6560458.689168
-6656659.721971
-6752348.754774
-6851621.787577
-6954990.820380
-7055543.853183
-7264973.322447
-7353238.355250
-7446111.388053
-7542824.420856
-7635953.453659
-7735994.486462
-7834755.519265
-7934028.552068
-8036629.584871
-8291627.054135
-8381940.086938
-8474557.119741
-8567942.152544
-8660303.185347
-8758040.218150
-8857825.250953
-8961450.283756
-9060723.316559
-9367432.785823
-9455441.818626
-9547290.851429
-9638627.884232
-9736108.917035
-9831541.949838
-9931838.982641
-10031880.015444
-10131665.048247
-10487014.517511
-10576303.550314
-10665080.583117
-10760001.615920
-10853898.648723
-10949331.681526
-11051676.714329
-11148901.747132
-11246382.779935
-11650884.249200
-11737869.282003
-11834326.314806
-11923871.347609
-12021096.380412
-12114993.413215
-12211962.446018
-12310211.478821
-12413068.511624
-12866977.980888
-12954731.013691
-13044276.046494
-13137661.079297
-13227718.112100
-13325711.144903
-13422936.177706
-13520673.210509
-13625578.243312
-14121215.712576
-14211528.745379
-14301585.778182
-14388570.810985
-14483747.843788
-14579948.876591
-14676149.909394
-14774398.942197
-14873415.975000
-15418973.444264
-15512614.477067
-15597551.509870
-15694264.542673
-15781505.575476
-15879754.608279
-15972627.641082
-16073948.673885
-16169637.706688
-16769467.175952
-16855172.208755
-16944461.241558
-17039638.274361
-17129695.307164
-17222568.339967
-17316721.372770
-17415226.405573
-17513219.438376
-18155032.907640
-18245089.940443
-18333354.973246
-18426228.006049
-18515005.038852
-18608902.071655
-18704591.104458
-18800024.137261
-18896993.170064
-19591030.639329
-19675455.672132
-19764744.704935
-19851729.737738
-19943322.770541
-20039267.803344
-20135980.836147
-20230389.868950
-20324798.901753
-21064148.371017
-21149853.403820
-21240166.436623
-21326639.469426
-21416696.502229
-21510081.535032
-21602698.567835
-21697619.600638
-21794076.633441
-22579762.102705
-22668027.135508
-22751684.168311
-22840717.201114
-22931542.233917
-23025439.266720
-23115752.299523
-23210161.332326
-23305594.365129
-24142223.834393
-24223832.867196
-24309537.899999
-24396778.932802
-24487347.965605
-24576124.998408
-24670022.031211
-24761359.064014
-24861656.096817
-25733869.566081
-25821110.598884
-25907327.631687
-25992264.664490
-26082577.697293
-26170586.730096
-26261411.762899
-26356076.795702
-26449717.828505
-27373131.297769
-27454996.330573
-27540189.363376
-27624358.396179
-27714927.428982
-27802424.461785
-27895553.494588
-27988426.527391
-28083603.560194
-29047465.029458
-29131634.062261
-29215547.095064
-29299460.127867
-29386445.160670
-29477782.193473
-29566559.226276
-29656104.259079
-29749489.291882
-30760454.761146
-30840015.793949
-30925720.826752
-31012449.859555
-31098922.892358
-31184883.925161
-31275452.957964
-31368069.990767
-31458383.023570
-32507236.492834
-32585773.525637
-32673014.558440
-32756415.591243
-32843912.624046
-32930129.656849
-33017882.689652
-33107939.722455
-33204652.755258
-34294466.224522
-34371723.257325
-34457684.290128
-34540317.322931
-34624486.355734
-34715823.388537
-34798456.421340
-34888513.454143
-34979338.486946
-36111647.956210
-36193256.989013
-36273330.021816
-36355707.054619
-36442692.087422
-36525325.120225
-36615382.153028
-36703647.185831
-36791912.218634
-37965949.687899
-38039878.720702
-38122255.753505
-38209240.786308
-38290337.819111
-38377322.851914
-38459955.884717
-38551804.917520
-38636229.950323
-39850459.419587
-39925924.452390
-40007021.485193
-40087350.517996
-40174079.550799
-40252872.583602
-40344721.616405
-40428634.649208
-40515875.682011
-41764665.151275
-41844226.184078
-41922763.216881
-42003348.249684
-42084189.282487
-42171942.315290
-42250991.348093
-42336952.380896
-42428033.413699
-43711382.882963
-43791199.915766
-43870504.948569
-43946225.981372
-44030651.014175
-44115844.046978
-44196941.079781
-44280342.112584
-44367071.145387
-45687284.614651
-45761981.647454
-45840518.680257
-45922127.713060
-45998104.745863
-46080993.778666
-46164906.811469
-46250099.844272
-46334524.877075
-47689810.346339
-47767067.379142
-47845348.411945
-47922605.444748
-48004470.477551
-48082495.510354
-48163336.543157
-48245969.575961
-48336282.608764
-49721520.078028
-49796217.110831
-49874242.143634
-49952779.176437
-50031572.209240
-50111645.242043
-50190950.274846
-50274095.307649
-50357240.340452
-51775501.809716
-51851734.842519
-51927711.875322
-52008040.908125
-52084273.940928
-52159226.973731
-52241860.006534
-52321933.039337
-52405078.072140
-53861739.541404
-53934132.574207
-54006781.607010
-54084806.639813
-54160015.672616
-54239576.705419
-54320417.738222
-54397930.771025
-54479027.803828
-55962057.273092
-56038034.305895
-56112219.338698
-56189988.371501
-56259309.404304
-56340406.437107
-56420479.469910
-56497224.502713
-56578065.535516
-58092327.004780
-58161392.037583
-58237625.070386
-58309762.103189
-58389323.135992
-58465044.168795
-58542045.201598
-58617254.234401
-58699887.267204
-60237700.736469
-60312397.769272
-60381718.802075
-60459487.834878
-60534184.867681
-60605297.900484
-60681530.933287
-60762371.966090
-60840396.998893
-62410466.468157
-62479019.500960
-62550388.533763
-62626877.566566
-62697734.599369
-62773967.632172
-62844824.664975
-62925665.697778
-63003434.730581
-64597312.199845
-64666377.232648
-64736466.265451
-64808603.298254
-64882276.331057
-64957741.363860
-65031158.396663
-65108927.429466
-65182344.462269
-66800285.931533
-66870374.964336
-66945327.997139
-67014905.029942
-67084226.062745
-67156107.095548
-67231572.128351
-67305501.161154
-67379430.193957
-69025531.663221
-69091012.696024
-69164941.728827
-69234518.761630
-69305375.794433
-69372904.827236
-69446577.860039
-69524346.892842
-69595203.925645
-71261273.394909
-71330850.427712
-71398123.460515
-71467700.493318
-71536509.526121
-71607366.558924
-71684367.591727
-71754200.624530
-71825057.657333
-73513655.126598
-73583488.159401
-73652809.192204
-73720594.225007
-73786587.257810
-73856932.290613
-73928045.323416
-74000694.356219
-74073343.389022
-75780116.858286
-75848925.891089
-75914662.923892
-75980655.956695
-76049720.989498
-76120834.022301
-76191691.055104
-76259732.087907
-76332125.120710
-78058354.589974
-78122299.622777
-78192644.655580
-78258381.688383
-78327958.721186
-78393951.753989
-78463528.786792
-78532849.819595
-78600378.852398
-80350672.321662
-80411545.354465
-80479330.387268
-80545579.420071
-80612084.452874
-80680125.485677
-80747910.518480
-80814671.551283
-80882712.584086
-82647086.053350
-82715383.086153
-82776768.118956
-82841737.151759
-82909266.184562
-82971419.217365
-83042532.250168
-83110317.282971
-83177078.315774
-84956043.785039
-85018964.817842
-85083165.850645
-85150694.883448
-85214639.916251
-85279096.949054
-85344833.981857
-85413899.014660
-85480660.047463
-87274217.516727
-87335602.549530
-87403387.582333
-87461444.615136
-87526925.647939
-87591382.680742
-87658399.713545
-87719272.746348
-87787569.779151
-89600839.248415
-89660432.281218
-89727449.314021
-89785762.346824
-89850987.379627
-89913908.412430
-89975293.445233
-90037702.478036
-90107023.510839
-91930020.980103
-91990382.012906
-92050487.045709
-92113408.078512
-92175049.111315
-92239762.144118
-92297307.176921
-92364836.209724
-92426989.242527
-94265602.711791
-94323403.744594
-94385556.777397
-94445661.810200
-94508582.843003
-94567407.875806
-94630584.908609
-94689921.941412
-94756682.974215
-96597600.443479
-96663337.476282
-96723698.509085
-96782267.541888
-96843908.574691
-96904013.607494
-96966678.640297
-97027807.673100
-97090216.705903
-98946238.175168
-99002759.207971
-99065168.240774
-99125017.273577
-99183842.306380
-99242923.339183
-99304052.371986
-99363645.404789
-99427590.437592
-101288987.906856
-101350116.939659
-101408941.972462
-101467511.005265
-101522240.038068
-101581321.070871
-101642450.103674
-101700507.136477
-101761892.169280
-103638649.638544
-103692354.671347
-103749899.704150
-103809492.736953
-103867293.769756
-103924838.802559
-103984943.835362
-104040440.868165
-104099009.900968
-105982167.370232
-106036640.403035
-106094441.435838
-106156338.468641
-106211323.501444
-106268100.534247
-106323597.567050
-106386518.599853
-106442015.632656
-108326197.101920
-108383486.134723
-108445127.167526
-108500880.200329
-108553817.233132
-108609314.265935
-108670955.298738
-108726964.331541
-108780413.364344
-110673810.833608
-110728539.866411
-110781476.899214
-110840813.932017
-110896822.964820
-110950783.997623
-111008073.030427
-111064850.063230
-111122395.096033
-113019632.565297
-113069497.598100
-113126530.630903
-113179467.663706
-113237524.696509
-113290973.729312
-113344934.762115
-113400175.794918
-113458488.827721
-115358030.296985
-115409943.329788
-115466208.362591
-115520425.395394
-115571058.428197
-115624763.461000
-115682564.493803
-115737805.526606
-115788950.559409
-117694124.028673
-117749365.061476
-117800510.094279
-117853191.127082
-117905616.159885
-117961369.192688
-118012770.225491
-118065963.258294
-118120180.291097
-120025609.760361
-120077522.793164
-120132251.825967
-120183908.858770
-120236333.891573
-120289270.924376
-120341951.957179
-120392840.989982
-120444498.022785
-122356327.492049
-122406960.524852
-122456825.557655
-122510018.590458
-122562443.623261
-122614868.656064
-122662173.688867
-122716134.721670
-122767279.754473
-124677573.223738
-124726926.256541
-124778839.289344
-124828704.322147
-124878825.354950
-124929202.387753
-124983163.420556
-125029444.453359
-125082125.486162
-126989346.955426
-127039467.988229
-127091125.021032
-127142526.053835
-127192135.086638
-127239952.119441
-127295193.152244
-127344034.185047
-127390059.217850
-129295488.687114
-129347657.719917
-129395986.752720
-129446363.785523
-129500836.818326
-129544045.851129
-129596982.883932
-129643775.916735
-129693896.949538
-131601118.418802
-131648423.451605
-131702640.484408
-131747129.517211
-131793410.550014
-131841739.582817
-131895188.615620
-131939165.648423
-131982630.681226
-133891388.150490
-133941253.183293
-133987790.216096
-134036119.248899
-134083424.281702
-134132777.314505
-134179314.347308
-134227131.380111
-134271108.412914
-136175769.882178
-136224354.914981
-136267563.947784
-136320244.980587
-136362942.013390
-136411527.046193
-136457552.078996
-136505369.111799
-136551906.144602
-138447095.613867
-138496448.646670
-138544521.679473
-138589778.712276
-138637083.745079
-138681828.777882
-138729389.810685
-138776950.843488
-138823231.876291
-140709205.345555
-140758814.378358
-140808167.411161
-140851632.443964
-140897401.476767
-140941890.509570
-140987403.542373
-141032148.575176
-141077405.607979
-142966451.077243
-143011964.110046
-143059013.142849
-143106830.175652
-143151831.208455
-143194272.241258
-143240553.274061
-143280946.306864
-143327995.339667
-145209872.808931
-145256153.841734
-145297570.874537
-145344107.907340
-145386292.940143
-145433341.972946
-145475527.005749
-145523088.038552
-145567065.071355
SCALARS stress_2 float
LOOKUP_TABLE default
-138820.246981
-70807550.385192
-69748237.658464
-68683996.931736
-67614124.205009
-66539483.478281
-65460010.751553
-64376730.024826
-63288425.298098
-62196472.571371
-61099367.844643
-60001271.117915
-58897990.391188
-57793813.664460
-56685988.937732
-55576724.211005
-54462947.484277
-53350706.757550
-52237442.030822
-51121841.304094
-50006592.577367
-48891439.850639
-47776319.123911
-46663822.397184
-45551581.670456
-44441676.943728
-43333244.217001
-42226475.490273
-41125274.763546
-40027178.036818
-38933209.310090
-37843464.583363
-36759095.856635
-35680199.129907
-34607478.403180
-33541189.676452
-32482644.949725
-31431140.222997
-30389299.496269
-29354722.769542
-28330002.042814
-27316129.316086
-26312208.589359
-25319967.862631
-24337007.135903
-23367518.409176
-22410285.682448
-21467100.955721
-20535820.228993
-19619867.502265
-18719018.775538
-17832410.048810
-16961257.322082
-16106936.595355
-15269927.868627
-14449015.141900
-13644166.415172
-12859829.688444
-12093092.961717
-11343988.234989
-10613443.508261
-9905394.781534
-9215266.054806
-8545265.328078
-7896704.601351
-7267887.874623
-6660383.147896
-6073774.421168
-5508253.694440
-4964620.967713
-4442780.240985
-3942059.514257
-3463898.787530
-3008170.060802
-2572345.334075
-2160168.607347
-1769559.880619
-1400135.153892
-1053366.427164
-726373.700436
-423060.973709
-68967031.477318
1480066.660893
1212241.934165
922561.207438
611920.480710
277919.753982
-77040.972745
-453889.699473
-853778.426201
-1275779.152928
-1719667.879656
-2185476.606383
-2673781.333111
-3183942.059839
-3716406.786566
-4271335.513294
-4847672.240022
-5445224.966749
-6063737.693477
-6704906.420205
-7364123.146932
-8046283.873660
-8748092.600387
-9469005.327115
-10209822.053843
-10970574.780570
-11749311.507298
-12546544.234026
-13361792.960753
-14193521.687481
-15042914.414208
-15908467.140936
-16790915.867664
-17687860.594391
-18601221.321119
-19527254.047847
-20468326.774574
-21421655.501302
-22389384.228030
-23368792.954757
-24358761.681485
-25362234.408212
-26375275.134940
-27398843.861668
-28431756.588395
-29474461.315123
-30524142.041851
-31583934.768578
-32649967.495306
-33722944.222033
-34802224.948761
-35887937.675489
-36978930.402216
-38074371.128944
-39176083.855672
-40279332.582399
-41386485.309127
-42496710.035855
-43610070.762582
-44725063.489310
-45841304.216037
-46958472.942765
-48077977.669493
-49196554.396220
-50314203.122948
-51433355.849676
-52549532.576403
-53664301.303131
-54778686.029858
-55891950.756586
-57001279.483314
-58109232.210041
-59212992.936769
-60313777.663497
-61410882.390224
-62505075.116952
-63592803.843680
-64678004.570407
-65758821.297135
-66833238.023862
-67903622.750590
-69152184.168105
-69336152.858892
-69520953.549680
-69704826.240467
-69888698.931255
-70073179.622042
-70256508.312829
-70439901.003617
-70623773.694404
26652.443806
191773.134594
355549.825381
518206.516168
680959.206956
842111.897743
1002976.588531
1163329.279318
1321537.970105
1052497.243378
891888.552590
730287.861803
568271.171016
404334.480228
241069.789441
77005.098653
-89491.592134
-255796.282921
760800.516650
598847.825863
435231.135075
272862.444288
106749.753501
-57666.937287
-224035.628074
-390212.318862
-558629.009649
448879.789923
284719.099135
120814.408348
-43890.282440
-211154.973227
-377811.664014
-544916.354802
-714165.045589
-881973.736377
113471.063195
-51393.627592
-217410.318380
-382883.009167
-550275.699955
-719812.390742
-888293.081529
-1058885.772317
-1228614.463104
-242705.663533
-409426.354320
-575411.045108
-744115.735895
-912564.426682
-1082773.117470
-1252821.808257
-1424598.499044
-1597623.189832
-620994.390260
-789123.081048
-957635.771835
-1127460.462623
-1297989.153410
-1467461.844197
-1640710.534985
-1813447.225772
-1986215.916560
-1022675.116988
-1190067.807775
-1360660.498563
-1531413.189350
-1703221.880138
-1874902.570925
-2048983.261712
-2222999.952500
-2397016.643287
-1444707.843716
-1614596.534503
-1787429.225290
-1957989.916078
-2130630.606865
-2304583.297653
-2478759.988440
-2655016.679227
-2830953.370015
-1889172.570443
-2061269.261231
-2234101.952018
-2406294.642805
-2581751.333593
-2756184.024380
-2931672.715168
-3108089.405955
-3286554.096742
-2357413.297171
-2530181.987958
-2703590.678746
-2877639.369533
-3053096.060320
-3230184.751108
-3406313.441895
-3583818.132683
-3764458.823470
-2847126.023899
-3020310.714686
-3195351.405473
-3371672.096261
-3548472.787048
-3725785.477835
-3902938.168623
-4081690.859410
-4262875.550198
-3358278.750626
-3533799.441414
-3709192.132201
-3887048.822988
-4064041.513776
-4242282.204563
-4422506.895351
-4601579.586138
-4783244.276925
-3891991.477354
-4068760.168141
-4246232.858929
-4423193.549716
-4602042.240503
-4781978.931291
-4962459.622078
-5143068.312866
-5325181.003653
-4446920.204081
-4625096.894869
-4803305.585656
-4982250.276444
-5162410.967231
-5342507.658018
-5524972.348806
-5706637.039593
-5889165.730381
-5026200.930809
-5203257.621596
-5382618.312384
-5562619.003171
-5743291.693959
-5925628.384746
-6107837.075533
-6291517.766321
-6475646.457108
-5623369.657537
-5803242.348324
-5983467.039111
-6165163.729899
-6345932.420686
-6529741.111474
-6712173.802261
-6896462.493048
-7082063.183836
-6242874.384264
-6424827.075052
-6604155.765839
-6786780.456626
-6969885.147414
-7153085.838201
-7337502.528989
-7524127.219776
-7709535.910563
-6884107.110992
-7065195.801779
-7248812.492567
-7431565.183354
-7614477.874142
-7799310.564929
-7983919.255716
-8171087.946504
-8357328.637291
-7547163.837720
-7729020.528507
-7911965.219294
-8096829.910082
-8281022.600869
-8466079.291657
-8652351.982444
-8838240.673231
-9026817.364019
-8228268.564447
-8412429.255235
-8595565.946022
-8780174.636809
-8965103.327597
-9152400.018384
-9340784.709172
-9527729.399959
-9715474.090746
-8931293.291175
-9115389.981962
-9300574.672750
-9486111.363537
-9672000.054324
-9859424.745112
-10047137.435899
-10236034.126687
-10425186.817474
-9652814.017902
-9838254.708690
-10024047.399477
-10210512.090265
-10397104.781052
-10585393.471839
-10774034.162627
-10963346.853414
-11153843.544202
-10395454.744630
-10581727.435417
-10766848.126205
-10954560.816992
-11141665.507780
-11331458.198567
-11520322.889354
-11710563.580142
-11901572.270929
-11156687.471358
-11343472.162145
-11530128.852933
-11717361.543720
-11906642.234507
-12096434.925295
-12284979.616082
-12475924.306869
-12667636.997657
-11936032.198085
-12123648.888873
-12310177.579660
-12499394.270448
-12688514.961235
-12877667.652022
-13068612.342810
-13260325.033597
-13453285.724385
-12732688.924813
-12921009.615600
-13111058.306388
-13298290.997175
-13488435.687963
-13679252.378750
-13870357.069537
-14063413.760325
-14255478.451112
-13550081.651541
-13737698.342328
-13927171.033115
-14116739.723903
-14306916.414690
-14498085.105478
-14690597.796265
-14881830.487052
-15074887.177840
-14381522.378268
-14571827.069056
-14760883.759843
-14950964.450630
-15142773.141418
-15333973.832205
-15524918.522993
-15719767.213780
-15913495.904567
-15231651.104996
-15422211.795783
-15612164.486571
-15803109.177358
-15993701.868145
-16185638.558933
-16378855.249720
-16571431.940508
-16767080.631295
-16098355.831724
-16288116.522511
-16478645.213298
-16670805.904086
-16862134.594873
-17055351.285660
-17248503.976448
-17442808.667235
-17636377.358023
-16980260.558451
-17171589.249239
-17362149.940026
-17554246.630813
-17746279.321601
-17940264.012388
-18133640.703176
-18327401.393963
-18522506.084750
-17878293.285179
-18070453.975966
-18261526.666754
-18452919.357541
-18646616.048328
-18840408.739116
-19033977.429903
-19228506.120691
-19424122.811478
-18791654.011906
-18983206.702694
-19175239.393481
-19367080.084269
-19559688.775056
-19754057.465843
-19948906.156631
-20143882.847418
-20339691.538206
-19718518.738634
-19909079.429421
-20102744.120209
-20295224.810996
-20488569.501784
-20683258.192571
-20877818.883358
-21075035.574146
-21269628.264933
-20660455.465362
-20852648.156149
-21043752.846936
-21238505.537724
-21431178.228511
-21627466.919299
-21820747.610086
-22017420.300873
-22214220.991661
-21614456.192089
-21807352.882877
-22000217.573664
-22193914.264451
-22387546.955239
-22582875.646026
-22777532.336814
-22974205.027601
-23170973.718388
-22580936.918817
-22774313.609604
-22968074.300392
-23161578.991179
-23355883.681966
-23550988.372754
-23747117.063541
-23942317.754329
-24139566.445116
-23561689.645545
-23755162.336332
-23948187.027119
-24142939.717907
-24336860.408694
-24532733.099482
-24729373.790269
-24924958.481056
-25120863.171844
-24552298.372272
-24746475.063060
-24939307.753847
-25134316.444634
-25329613.135422
-25525101.826209
-25721070.516997
-25918639.207784
-26114319.898571
-25554971.099000
-25749275.789787
-25942556.480575
-26137629.171362
-26333405.862149
-26528542.552937
-26725311.243724
-26922015.934512
-27118144.625299
-26569035.825727
-26762988.516515
-26957933.207302
-27152141.898090
-27346286.588877
-27543407.279664
-27739471.970452
-27935664.661239
-28132337.352027
-27591484.552455
-27786205.243242
-27980733.934030
-28175422.624817
-28371487.315605
-28567680.006392
-28763488.697179
-28959745.387967
-29156802.078754
-28624685.279183
-28820461.969970
-29014350.660757
-29208559.351545
-29405680.042332
-29600432.733120
-29797009.423907
-29993874.114694
-30190674.805482
-29667774.005910
-29862526.696698
-30056735.387485
-30252224.078273
-30448064.769060
-30644065.459847
-30839746.150635
-31036482.841422
-31234467.532210
-30718318.732638
-30912687.423425
-31108272.114213
-31304880.805000
-31498865.495788
-31694290.186575
-31890610.877362
-32087891.568150
-32284852.258937
-31777119.459366
-31972512.150153
-32167168.840940
-32362145.531728
-32557570.222515
-32753154.913303
-32949859.604090
-33147012.294877
-33343620.985665
-32843728.186093
-33038736.876881
-33234033.567668
-33428530.258455
-33624594.949243
-33819059.640030
-34016788.330818
-34212853.021605
-34409621.712392
-33916672.912821
-34111137.603608
-34305986.294396
-34501506.985183
-34696867.675970
-34893380.366758
-35088517.057545
-35286277.748333
-35482694.439120
-34996721.639548
-35190674.330336
-35385267.021123
-35579571.711911
-35776660.402698
-35972533.093485
-36168245.784273
-36364950.475060
-36562135.165848
-36081986.366276
-36275747.057064
-36470627.747851
-36665444.438638
-36861413.129426
-37058245.820213
-37252774.511000
-37449543.201788
-37645767.892575
-37172563.093004
-37367379.783791
-37561140.474579
-37757653.165366
-37952149.856153
-38147542.546941
-38343351.237728
-38539575.928516
-38735864.619303
-38268867.819731
-38462852.510519
-38657477.201306
-38852005.892094
-39046630.582881
-39242599.273668
-39438663.964456
-39634184.655243
-39829737.346031
-39369492.546459
-39562869.237246
-39757525.928034
-39952470.618821
-40146615.309609
-40341944.000396
-40538296.691183
-40733273.381971
-40929178.072758
-40473189.273187
-40666821.963974
-40861190.654761
-41055303.345549
-41250280.036336
-41445512.727124
-41640041.417911
-41835498.108698
-42032298.799486
-41579829.999914
-41773590.690702
-41968631.381489
-42163160.072276
-42356120.763064
-42551321.453851
-42746522.144639
-42942682.835426
-43136763.526213
-42691366.726642
-42883655.417429
-43077544.108217
-43271560.799004
-43466537.489791
-43660714.180579
-43856042.871366
-44050923.562154
-44244940.252941
-43802999.453370
-43997176.144157
-44191096.834944
-44384889.525732
-44578842.216519
-44772570.907307
-44966619.598094
-45162300.288881
-45356828.979669
-44918120.180097
-45110664.870885
-45304713.561672
-45498410.252459
-45692202.943247
-45886667.634034
-46080588.324822
-46275213.015609
-46469197.706396
-46034808.906825
-46228121.597612
-46420058.288400
-46614522.979187
-46807899.669974
-47000668.360762
-47195741.051549
-47388445.742337
-47582430.433124
-47151849.633552
-47343914.324340
-47537707.015127
-47729899.705915
-47924236.396702
-48117101.087489
-48309677.778277
-48503182.469064
-48698063.159852
-48269274.360280
-48461947.051067
-48654875.741855
-48848412.432642
-49040893.123430
-49232957.814217
-49426782.505004
-49620127.195792
-49813023.886579
-49389035.087008
-49580203.777795
-49773004.468582
-49964557.159370
-50158413.850157
-50350190.540945
-50542895.231732
-50735503.922519
-50928592.613307
-50506267.813735
-50698716.504523
-50890621.195310
-51082525.886098
-51275390.576885
-51468159.267672
-51658783.958460
-51850912.649247
-52044417.340034
-51623596.540463
-51815757.231250
-52007149.922038
-52199598.612825
-52390735.303613
-52583727.994400
-52773936.685187
-52966961.375975
-53158706.066762
-52740061.267191
-52932477.957978
-53124158.648765
-53314687.339553
-53506016.030340
-53697344.721128
-53890593.411915
-54081058.102702
-54271938.793490
-53856941.993918
-54047470.684706
-54238575.375493
-54428592.066280
-54620240.757068
-54811889.447855
-55002962.138643
-55192946.829430
-55385299.520217
-54969470.720646
-55161279.411433
-55351648.102221
-55541888.793008
-55733569.483795
-55922402.174583
-56113090.865370
-56304035.556158
-56495172.246945
-56081295.447373
-56272048.138161
-56462064.828948
-56652337.519736
-56842898.210523
-57033202.901310
-57222419.592098
-57413236.282885
-57603796.973673
-57192032.174101
-57381280.864889
-57571937.555676
-57761186.246463
-57950690.937251
-58140547.628038
-58330756.318825
-58519813.009613
-58708965.700400
-58298224.900829
-58487729.591616
-58676882.282404
-58865874.973191
-59055475.663978
-59244852.354766
-59434133.045553
-59623093.736341
-59812182.427128
-59402017.627556
-59591042.318344
-59779107.009131
-59968867.699919
-60156868.390706
-60346245.081493
-60534181.772281
-60723110.463068
-60911335.153856
-60502226.354284
-60690579.045071
-60879379.735859
-61067284.426646
-61255381.117434
-61444661.808221
-61633398.499008
-61820439.189796
-62009079.880583
-61599779.081012
-61787043.771799
-61975044.462586
-62163749.153374
-62350181.844161
-62539398.534949
-62726311.225736
-62914055.916523
-63100520.607311
-62691123.807739
-62879796.498527
-63067605.189314
-63254069.880101
-63441238.570889
-63629335.261676
-63815191.952464
-64002616.643251
-64189849.334038
-63780708.534467
-63967781.225254
-64154309.916042
-64341382.606829
-64528103.297616
-64716999.988404
-64901672.679191
-65087817.369979
-65273098.060766
-64865077.261195
-65051541.951982
-65237910.642769
-65423671.333557
-65610872.024344
-65795928.715132
-65983033.405919
-66167770.096706
-66354938.787494
-65944549.987922
-66130278.678710
-66315943.369497
-66503304.060284
-66687304.751072
-66873065.441859
-67058506.132647
-67244202.823434
-67429995.514221
-67019222.714650
-67204631.405437
-67388824.096225
-67574744.787012
-67762041.477799
-67945114.168587
-68130330.859374
-68315259.550162
-68499868.240949
-68087783.441377
-68272840.132165
-68458216.822952
-68643593.513740
-68826762.204527
-69012234.895314
-69196971.586102
-69381036.276889
-69564460.967677
SCALARS stress_3 float
LOOKUP_TABLE default
413280.041052
33351650.343926
32878027.915140
32403509.486354
31916447.057568
31440392.628782
30948722.199996
30461787.771210
29972677.342424
29477038.913638
28982552.484852
28483714.056066
27988843.627281
27487573.198495
26980798.769709
26484136.340923
25977489.912137
25464571.483351
24965221.054565
24461134.625779
23949240.196993
23443873.768207
22929547.339421
22426484.910635
21916126.481849
21407688.053064
20902065.624278
20396059.195492
19891588.766706
19389550.337920
18876247.909134
18379073.480348
17885099.051562
17384340.622776
16893950.193990
16396903.765204
15910481.336418
15425722.907633
14942628.478847
14460558.050061
13990519.621275
13512673.192489
13049418.763703
12578228.334917
12125341.906131
11671175.477345
11223537.048559
10780634.619773
10343236.190987
9914157.762201
9490071.333416
9068160.904630
8654698.475844
8253012.047058
7859133.618272
7465895.189486
7081488.760700
6706810.331914
6340067.903128
5981261.474342
5630775.045556
5292448.616770
4953994.187984
4628467.759199
4312925.330413
4005702.901627
3711536.472841
3421594.044055
3140099.615269
2873325.186483
2617430.757697
2367168.328911
2124969.900125
1894675.471339
1672445.042553
1459046.613767
1265616.184982
1072953.756196
893987.327410
720780.898624
559222.469838
33517605.935802
-258268.367072
-105413.938286
55760.490500
236518.919286
423293.348072
616979.776858
828586.205644
1043904.634430
1270743.063216
1512045.492002
1758467.920788
2014490.349574
2287408.778360
2569287.207145
2854749.635931
3149684.064717
3456778.493503
3772576.922289
4099383.351075
4439245.779861
4777700.208647
5130490.637433
5492241.066219
5865767.495005
6242493.923791
6632660.352576
7027562.781362
7430017.210148
7839639.638934
8252718.067720
8683460.496506
9113434.925292
9550321.354078
9993223.782864
10444062.211650
10898100.640436
11361611.069222
11827169.498008
12298359.926793
12769934.355579
13253412.784365
13739323.213151
14226641.641937
14724072.070723
15218942.499509
15717780.928295
16220971.357081
16723777.785867
17227736.214653
17738350.643439
18253957.072225
18763675.501010
19282225.929796
19800136.358582
20311902.787368
20833781.216154
21349131.644940
21868578.073726
22388024.502512
22907982.931298
23426789.360084
23949179.788870
24466578.217656
24983080.646442
25499967.075227
26012117.504013
26530667.932799
27046786.361585
27557656.790371
28066991.219157
28574789.647943
29075676.076729
29587186.505515
30085640.934301
30579615.363087
31076277.791873
31571660.220658
32062178.649444
32553721.078230
33036559.507016
33501202.376615
33489534.817427
33475051.258239
33460055.699052
33439940.139864
33422000.580676
33410205.021489
33388681.462301
33372021.903113
340595.600240
276103.159427
208538.718615
140846.277803
74945.836990
9429.396178
-55575.044634
-126723.485447
-190447.926259
-39641.497473
32274.943339
98431.384151
161643.824964
226648.265776
294468.706588
360497.147401
426781.588213
492554.029026
122812.931313
192553.372125
261269.812937
325378.253750
391278.694562
456795.135374
520263.576187
591796.016999
653600.457811
306515.360099
370239.800911
431788.241723
498840.682536
565765.123348
626545.564160
691806.004973
763082.445785
824118.886597
487145.788884
555606.229697
620226.670509
684591.111322
747035.552134
812935.992946
878324.433759
947424.874571
1006669.315383
690560.217670
751212.658483
815961.099295
877893.540107
941873.980920
1005342.421732
1068554.862545
1136759.303357
1198307.744169
893206.646456
954371.087269
1019887.528081
1079515.968893
1142856.409706
1208628.850518
1269025.291330
1332877.732143
1400570.172955
1109421.075242
1167129.516055
1235845.956867
1296498.397679
1364574.838492
1424331.279304
1485751.720116
1546788.160929
1613968.601741
1336131.504028
1393839.944841
1455388.385653
1524616.826465
1587701.267278
1642721.708090
1706190.148902
1771066.589715
1829799.030527
1574489.932814
1635270.373626
1694258.814439
1754143.255251
1815179.696064
1879160.136876
1936612.577688
2000593.018501
2066877.459313
1819120.361600
1877212.802412
1937481.243225
2002869.684037
2063010.124849
2123918.565662
2181243.006474
2240103.447286
2303955.888099
2078726.790386
2137459.231198
2192223.672011
2256332.112823
2317752.553635
2374308.994448
2434449.435260
2494077.876072
2559594.316885
2340893.219172
2403081.659984
2460406.100797
2518882.541609
2581326.982421
2638523.423234
2697895.864046
2756500.304858
2816000.745671
2626227.647958
2681120.088770
2733708.529582
2795128.970395
2855269.411207
2914001.852020
2972094.292832
3028906.733644
3085463.174457
2910922.076744
2966198.517556
3022626.958368
3081871.399181
3134075.839993
3192808.280805
3252564.721618
3307841.162430
3367085.603243
3204704.505530
3263180.946342
3319225.387154
3370533.827967
3430290.268779
3484286.709591
3541483.150404
3598423.591216
3649604.032028
3513334.934316
3569379.375128
3621327.815940
3679036.256753
3731368.697565
3787157.138377
3844225.579190
3899246.020002
3951962.460814
3829005.363101
3883641.803914
3936998.244726
3990610.685539
4045503.126351
4094891.567163
4146072.007976
4207748.448788
4260848.889600
4153763.791887
4208528.232700
4255356.673512
4310633.114324
4363733.555137
4412353.995949
4473390.436761
4521626.877574
4575751.318386
4487226.220673
4538406.661486
4590355.102298
4641279.543110
4692331.983923
4745816.424735
4795588.865547
4845361.306360
4902813.747172
4826704.649459
4884925.090272
4931625.531084
4982933.971896
5035394.412709
5083630.853521
5132891.294333
5183559.735146
5236276.175958
5181415.078245
5232723.519058
5285439.959870
5332908.400682
5379352.841495
5434117.282307
5482993.723119
5531614.163932
5578186.604744
5543421.507031
5590761.947843
5635670.388656
5688002.829468
5737391.270280
5785243.711093
5833352.151905
5881332.592718
5931617.033530
5916051.935817
5959552.376629
6010604.817442
6054361.258254
6105541.699066
6149426.139879
6201118.580691
6245387.021503
6292215.462316
6295722.364603
6336534.805415
6383747.246228
6429679.687040
6474716.127852
6524360.568665
6567349.009477
6613665.450289
6660365.891102
6675904.793389
6722605.234201
6767385.675014
6810758.115826
6858994.556638
6904798.997451
6947659.438263
6987831.879075
7035428.319888
7071447.222175
7115459.662987
7161008.103799
7204892.544612
7245320.985424
7291509.426237
7335393.867049
7378126.307861
7423290.748674
7471469.650961
7512794.091773
7559622.532585
7601074.973398
7639967.414210
7686283.855022
7731064.295835
7766628.736647
7813585.177459
7881860.079747
7922800.520559
7964508.961371
8004425.402184
8045749.842996
8089634.283808
8126094.724621
8165627.165433
8212967.606245
8295834.508533
8335366.949345
8380019.390157
8420191.830970
8454220.271782
8498872.712594
8537765.153407
8580497.594219
8617982.035031
8719664.937318
8761117.378131
8800137.818943
8836854.259755
8877282.700568
8910287.141380
8953275.582193
8989992.023005
9032084.463817
9150535.366104
9190451.806917
9223456.247729
9257868.688541
9300985.129354
9341157.570166
9373650.010978
9412158.451791
9452842.892603
9587421.794890
9622730.235703
9662902.676515
9696035.117327
9731471.558140
9767547.998952
9803880.439764
9837652.880577
9875649.321389
10030708.223676
10062048.664489
10100045.105301
10135993.546113
10167717.986926
10206738.427738
10242814.868550
10278507.309363
10307543.750175
10479114.652462
10514679.093274
10547171.534087
10579279.974899
10616508.415712
10647592.856524
10682389.297336
10714625.738149
10743406.178961
10933409.081248
10960909.522060
10998777.962873
11034854.403685
11061458.844497
11094719.285310
11129387.726122
11156632.166935
11189380.607747
11392823.510034
11424035.950846
11452176.391659
11483388.832471
11518697.273283
11544149.714096
11582274.154908
11607982.595720
11637275.036533
11858637.938820
11884730.379632
11916454.820445
11949843.261257
11976831.702069
12004972.142882
12038232.583694
12067781.024506
12095025.465319
12325348.367606
12358096.808418
12387261.249231
12413481.690043
12441494.130855
12472706.571668
12504047.012480
12523611.453292
12552007.894105
12805114.796392
12828263.237204
12855379.678016
12884160.118829
12908972.559641
12938009.000453
12965509.441266
12993009.882078
13018974.322891
13277841.225178
13307517.665990
13332202.106802
13356118.547615
13385410.988427
13410479.429239
13437723.870052
13465352.310864
13486324.751676
13765671.653964
13788308.094776
13811456.535588
13839468.976401
13859673.417213
13887941.858025
13911986.298838
13935518.739650
13958027.180462
14250814.082750
14280106.523562
14299542.964374
14323715.405187
14347375.845999
14370652.286811
14394184.727624
14418101.168436
14437153.609248
14744276.511535
14766656.952348
14789549.393160
14811161.833972
14829574.274785
14850290.715597
14874847.156410
14896587.597222
14915640.038034
15236074.940321
15258839.381134
15276867.821946
15303728.262758
15320092.703571
15340681.144383
15363573.585195
15381218.026008
15405006.466820
15739393.369107
15756525.809920
15775194.250732
15792454.691544
15813171.132357
15832991.573169
15854092.013981
15870584.454794
15892964.895606
16236183.797893
16255620.238706
16270448.679518
16291421.120330
16310729.561143
16327222.001955
16345762.442767
16361486.883580
16381307.324392
16739886.226679
16754458.667491
16775943.108304
16793331.549116
16811231.989929
16822476.430741
16845624.871553
16863653.312366
16873105.753178
17249732.655465
17259441.096277
17277725.537090
17293577.977902
17308150.418714
17324514.859527
17340495.300339
17356987.741151
17371432.181964
17757275.084251
17770823.525063
17781555.965876
17798816.406688
17817100.847500
17827961.288313
17842149.729125
17851474.169937
17868862.610750
18268657.513037
18279773.953849
18292170.394662
18302134.835474
18316451.276286
18328463.717099
18345468.157911
18357224.598723
18367573.039536
18777095.941823
18790772.382635
18805088.823447
18814285.264260
18826297.705072
18839974.145885
18848402.586697
18859263.027509
18872811.468322
19293214.370609
19304970.811421
19311223.252233
19326179.693046
19330128.133858
19344828.574670
19353769.015483
19363989.456295
19372801.897108
19811636.799395
19818017.240207
19825549.681019
19833722.121832
19843046.562644
19852371.003456
19862207.444269
19873067.885081
19884184.325893
20324683.228181
20327351.668993
20340516.109805
20346640.550618
20358652.991430
20368617.432242
20376021.873055
20377026.313867
20384942.754679
20840673.656966
20846414.097779
20852154.538591
20863270.979404
20869779.420216
20879871.861028
20878572.301841
20892760.742653
20895813.183465
21356536.085752
21364068.526565
21373904.967377
21376701.408189
21379753.849002
21389718.289814
21391874.730627
21400943.171439
21404635.612251
21874702.514538
21883130.955351
21885415.396163
21888083.836975
21894080.277788
21901100.718600
21900313.159412
21906949.600225
21915634.041037
22399652.943324
22397457.384137
22400637.824949
22400874.265761
22407510.706574
22411971.147386
22419759.588198
22418716.029011
22422536.469823
22912315.372110
22913831.812923
22921492.253735
22919424.694547
22923501.135360
22926425.576172
22927174.016984
22931634.457797
22930078.898609
23431249.800896
23428030.241708
23432874.682521
23431319.123333
23440387.564145
23434352.004958
23439068.445770
23440200.886583
23439797.327395
23950184.229682
23948372.670494
23946433.111307
23947053.552119
23950617.992931
23949318.433744
23949298.874556
23948895.315368
23950539.756181
24463102.658468
24467051.099280
24470359.540093
24463299.980905
24460976.421717
24463388.862530
24460425.303342
24461813.744154
24456162.184967
24979861.087254
24982145.528066
24980845.968879
24980442.409691
24973766.850503
24978867.291316
24973087.732128
24972044.172940
24967672.613753
25497643.516040
25492631.956852
25487492.397664
25491056.838477
25488477.279289
25485129.720102
25480374.160914
25476386.601726
25478159.042539
26015041.944826
26009262.385638
26005274.826450
26004999.267263
26000115.708075
25993952.148887
25993548.589700
25988281.030512
25979941.471324
26526040.373612
26523460.814424
26519729.255236
26508829.696049
26509706.136861
26504182.577673
26493411.018486
26494287.459298
26485947.900110
27038190.802398
27030875.243210
27024071.684022
27027124.124835
27016992.565647
27013645.006459
27004537.447272
26994661.888084
26994770.328896
27543813.231183
27541361.671996
27541470.112808
27529674.553621
27524278.994433
27512867.435245
27504015.876058
27502332.316870
27497448.757682
28053659.659969
28049672.100782
28043764.541594
28034784.982406
28029005.423219
28020665.864031
28015910.304843
28003346.745656
27994495.186468
28568114.088755
28555550.529568
28548362.970380
28538231.411192
28531299.852005
28522192.292817
28513724.733629
28499369.174442
28491925.615254
29067720.517541
29062964.958354
29051553.399166
29041933.839978
29031290.280791
29023590.721603
29018195.162415
29006015.603228
28990124.044040
29575646.946327
29560907.387139
29555767.827952
29543844.268764
29533968.709577
29521277.150389
29512297.591201
29499862.032014
29487810.472826
30073845.375113
30060001.815925
30050126.256738
30039610.697550
30028327.138362
30018963.579175
30002944.019987
29995372.460800
29979864.901612
30570763.803899
30561400.244711
30543588.685524
30539089.126336
30523197.567148
30514090.007961
30502294.448773
30488834.889585
30477039.330398
31070370.232685
31053582.673497
31045371.114310
31028071.555122
31016147.995934
31003456.436747
30988844.877559
30978585.318371
30964485.759184
31560760.661471
31543205.102283
31539857.543096
31519485.983908
31508714.424720
31493206.865533
31482563.306345
31465135.747157
31449628.187970
32051279.090257
32034747.531069
32024999.971881
32009620.412694
31994368.853506
31983085.294319
31967065.735131
31953990.175943
31934258.616756
32540773.519043
32523089.959855
32508094.400667
32499626.841480
32483863.282292
32466307.723104
32449520.163917
32437852.604729
32416201.045541
33018747.947829
33012200.388641
32990804.829453
32974401.270266
32963757.711078
32945434.151890
32925702.592703
32916083.033515
32894175.474327
