# vtk DataFile Version 2.0
Generated volume Mesh
ASCII
DATASET UNSTRUCTURED_GRID
POINTS 891 float
0.005000 0.100000 0.000000
0.005000 0.000000 0.000000
0.005000 0.001250 0.000000
0.005000 0.002500 0.000000
0.005000 0.003750 0.000000
0.005000 0.005000 0.000000
0.005000 0.006250 0.000000
0.005000 0.007500 0.000000
0.005000 0.008750 0.000000
0.005000 0.010000 0.000000
0.005000 0.011250 0.000000
0.005000 0.012500 0.000000
0.005000 0.013750 0.000000
0.005000 0.015000 0.000000
0.005000 0.016250 0.000000
0.005000 0.017500 0.000000
0.005000 0.018750 0.000000
0.005000 0.020000 0.000000
0.005000 0.021250 0.000000
0.005000 0.022500 0.000000
0.005000 0.023750 0.000000
0.005000 0.025000 0.000000
0.005000 0.026250 0.000000
0.005000 0.027500 0.000000
0.005000 0.028750 0.000000
0.005000 0.030000 0.000000
0.005000 0.031250 0.000000
0.005000 0.032500 0.000000
0.005000 0.033750 0.000000
0.005000 0.035000 0.000000
0.005000 0.036250 0.000000
0.005000 0.037500 0.000000
0.005000 0.038750 0.000000
0.005000 0.040000 0.000000
0.005000 0.041250 0.000000
0.005000 0.042500 0.000000
0.005000 0.043750 0.000000
0.005000 0.045000 0.000000
0.005000 0.046250 0.000000
0.005000 0.047500 0.000000
0.005000 0.048750 0.000000
0.005000 0.050000 0.000000
0.005000 0.051250 0.000000
0.005000 0.052500 0.000000
0.005000 0.053750 0.000000
0.005000 0.055000 0.000000
0.005000 0.056250 0.000000
0.005000 0.057500 0.000000
0.005000 0.058750 0.000000
0.005000 0.060000 0.000000
0.005000 0.061250 0.000000
0.005000 0.062500 0.000000
0.005000 0.063750 0.000000
0.005000 0.065000 0.000000
0.005000 0.066250 0.000000
0.005000 0.067500 0.000000
0.005000 0.068750 0.000000
0.005000 0.070000 0.000000
0.005000 0.071250 0.000000
0.005000 0.072500 0.000000
0.005000 0.073750 0.000000
0.005000 0.075000 0.000000
0.005000 0.076250 0.000000
0.005000 0.077500 0.000000
0.005000 0.078750 0.000000
0.005000 0.080000 0.000000
0.005000 0.081250 0.000000
0.005000 0.082500 0.000000
0.005000 0.083750 0.000000
0.005000 0.085000 0.000000
0.005000 0.086250 0.000000
0.005000 0.087500 0.000000
0.005000 0.088750 0.000000
0.005000 0.090000 0.000000
0.005000 0.091250 0.000000
0.005000 0.092500 0.000000
0.005000 0.093750 0.000000
0.005000 0.095000 0.000000
0.005000 0.096250 0.000000
0.005000 0.097500 0.000000
0.005000 0.098750 0.000000
0.000000 0.000000 0.000000
0.000000 0.100000 0.000000
0.000000 0.098750 0.000000
0.000000 0.097500 0.000000
0.000000 0.096250 0.000000
0.000000 0.095000 0.000000
0.000000 0.093750 0.000000
0.000000 0.092500 0.000000
0.000000 0.091250 0.000000
0.000000 0.090000 0.000000
0.000000 0.088750 0.000000
0.000000 0.087500 0.000000
0.000000 0.086250 0.000000
0.000000 0.085000 0.000000
0.000000 0.083750 0.000000
0.000000 0.082500 0.000000
0.000000 0.081250 0.000000
0.000000 0.080000 0.000000
0.000000 0.078750 0.000000
0.000000 0.077500 0.000000
0.000000 0.076250 0.000000
0.000000 0.075000 0.000000
0.000000 0.073750 0.000000
0.000000 0.072500 0.000000
0.000000 0.071250 0.000000
0.000000 0.070000 0.000000
0.000000 0.068750 0.000000
0.000000 0.067500 0.000000
0.000000 0.066250 0.000000
0.000000 0.065000 0.000000
0.000000 0.063750 0.000000
0.000000 0.062500 0.000000
0.000000 0.061250 0.000000
0.000000 0.060000 0.000000
0.000000 0.058750 0.000000
0.000000 0.057500 0.000000
0.000000 0.056250 0.000000
0.000000 0.055000 0.000000
0.000000 0.053750 0.000000
0.000000 0.052500 0.000000
0.000000 0.051250 0.000000
0.000000 0.050000 0.000000
0.000000 0.048750 0.000000
0.000000 0.047500 0.000000
0.000000 0.046250 0.000000
0.000000 0.045000 0.000000
0.000000 0.043750 0.000000
0.000000 0.042500 0.000000
0.000000 0.041250 0.000000
0.000000 0.040000 0.000000
0.000000 0.038750 0.000000
0.000000 0.037500 0.000000
0.000000 0.036250 0.000000
0.000000 0.035000 0.000000
0.000000 0.033750 0.000000
0.000000 0.032500 0.000000
0.000000 0.031250 0.000000
0.000000 0.030000 0.000000
0.000000 0.028750 0.000000
0.000000 0.027500 0.000000
0.000000 0.026250 0.000000
0.000000 0.025000 0.000000
0.000000 0.023750 0.000000
0.000000 0.022500 0.000000
0.000000 0.021250 0.000000
0.000000 0.020000 0.000000
0.000000 0.018750 0.000000
0.000000 0.017500 0.000000
0.000000 0.016250 0.000000
0.000000 0.015000 0.000000
0.000000 0.013750 0.000000
0.000000 0.012500 0.000000
0.000000 0.011250 0.000000
0.000000 0.010000 0.000000
0.000000 0.008750 0.000000
0.000000 0.007500 0.000000
0.000000 0.006250 0.000000
0.000000 0.005000 0.000000
0.000000 0.003750 0.000000
0.000000 0.002500 0.000000
0.000000 0.001250 0.000000
0.000500 0.000000 0.000000
0.001000 0.000000 0.000000
0.001500 0.000000 0.000000
0.002000 0.000000 0.000000
0.002500 0.000000 0.000000
0.003000 0.000000 0.000000
0.003500 0.000000 0.000000
0.004000 0.000000 0.000000
0.004500 0.000000 0.000000
0.004500 0.100000 0.000000
0.004000 0.100000 0.000000
0.003500 0.100000 0.000000
0.003000 0.100000 0.000000
0.002500 0.100000 0.000000
0.002000 0.100000 0.000000
0.001500 0.100000 0.000000
0.001000 0.100000 0.000000
0.000500 0.100000 0.000000
0.000500 0.098750 0.000000
0.001000 0.098750 0.000000
0.001500 0.098750 0.000000
0.002000 0.098750 0.000000
0.002500 0.098750 0.000000
0.003000 0.098750 0.000000
0.003500 0.098750 0.000000
0.004000 0.098750 0.000000
0.004500 0.098750 0.000000
0.000500 0.097500 0.000000
0.001000 0.097500 0.000000
0.001500 0.097500 0.000000
0.002000 0.097500 0.000000
0.002500 0.097500 0.000000
0.003000 0.097500 0.000000
0.003500 0.097500 0.000000
0.004000 0.097500 0.000000
0.004500 0.097500 0.000000
0.000500 0.096250 0.000000
0.001000 0.096250 0.000000
0.001500 0.096250 0.000000
0.002000 0.096250 0.000000
0.002500 0.096250 0.000000
0.003000 0.096250 0.000000
0.003500 0.096250 0.000000
0.004000 0.096250 0.000000
0.004500 0.096250 0.000000
0.000500 0.095000 0.000000
0.001000 0.095000 0.000000
0.001500 0.095000 0.000000
0.002000 0.095000 0.000000
0.002500 0.095000 0.000000
0.003000 0.095000 0.000000
0.003500 0.095000 0.000000
0.004000 0.095000 0.000000
0.004500 0.095000 0.000000
0.000500 0.093750 0.000000
0.001000 0.093750 0.000000
0.001500 0.093750 0.000000
0.002000 0.093750 0.000000
0.002500 0.093750 0.000000
0.003000 0.093750 0.000000
0.003500 0.093750 0.000000
0.004000 0.093750 0.000000
0.004500 0.093750 0.000000
0.000500 0.092500 0.000000
0.001000 0.092500 0.000000
0.001500 0.092500 0.000000
0.002000 0.092500 0.000000
0.002500 0.092500 0.000000
0.003000 0.092500 0.000000
0.003500 0.092500 0.000000
0.004000 0.092500 0.000000
0.004500 0.092500 0.000000
0.000500 0.091250 0.000000
0.001000 0.091250 0.000000
0.001500 0.091250 0.000000
0.002000 0.091250 0.000000
0.002500 0.091250 0.000000
0.003000 0.091250 0.000000
0.003500 0.091250 0.000000
0.004000 0.091250 0.000000
0.004500 0.091250 0.000000
0.000500 0.090000 0.000000
0.001000 0.090000 0.000000
0.001500 0.090000 0.000000
0.002000 0.090000 0.000000
0.002500 0.090000 0.000000
0.003000 0.090000 0.000000
0.003500 0.090000 0.000000
0.004000 0.090000 0.000000
0.004500 0.090000 0.000000
0.000500 0.088750 0.000000
0.001000 0.088750 0.000000
0.001500 0.088750 0.000000
0.002000 0.088750 0.000000
0.002500 0.088750 0.000000
0.003000 0.088750 0.000000
0.003500 0.088750 0.000000
0.004000 0.088750 0.000000
0.004500 0.088750 0.000000
0.000500 0.087500 0.000000
0.001000 0.087500 0.000000
0.001500 0.087500 0.000000
0.002000 0.087500 0.000000
0.002500 0.087500 0.000000
0.003000 0.087500 0.000000
0.003500 0.087500 0.000000
0.004000 0.087500 0.000000
0.004500 0.087500 0.000000
0.000500 0.086250 0.000000
0.001000 0.086250 0.000000
0.001500 0.086250 0.000000
0.002000 0.086250 0.000000
0.002500 0.086250 0.000000
0.003000 0.086250 0.000000
0.003500 0.086250 0.000000
0.004000 0.086250 0.000000
0.004500 0.086250 0.000000
0.000500 0.085000 0.000000
0.001000 0.085000 0.000000
0.001500 0.085000 0.000000
0.002000 0.085000 0.000000
0.002500 0.085000 0.000000
0.003000 0.085000 0.000000
0.003500 0.085000 0.000000
0.004000 0.085000 0.000000
0.004500 0.085000 0.000000
0.000500 0.083750 0.000000
0.001000 0.083750 0.000000
0.001500 0.083750 0.000000
0.002000 0.083750 0.000000
0.002500 0.083750 0.000000
0.003000 0.083750 0.000000
0.003500 0.083750 0.000000
0.004000 0.083750 0.000000
0.004500 0.083750 0.000000
0.000500 0.082500 0.000000
0.001000 0.082500 0.000000
0.001500 0.082500 0.000000
0.002000 0.082500 0.000000
0.002500 0.082500 0.000000
0.003000 0.082500 0.000000
0.003500 0.082500 0.000000
0.004000 0.082500 0.000000
0.004500 0.082500 0.000000
0.000500 0.081250 0.000000
0.001000 0.081250 0.000000
0.001500 0.081250 0.000000
0.002000 0.081250 0.000000
0.002500 0.081250 0.000000
0.003000 0.081250 0.000000
0.003500 0.081250 0.000000
0.004000 0.081250 0.000000
0.004500 0.081250 0.000000
0.000500 0.080000 0.000000
0.001000 0.080000 0.000000
0.001500 0.080000 0.000000
0.002000 0.080000 0.000000
0.002500 0.080000 0.000000
0.003000 0.080000 0.000000
0.003500 0.080000 0.000000
0.004000 0.080000 0.000000
0.004500 0.080000 0.000000
0.000500 0.078750 0.000000
0.001000 0.078750 0.000000
0.001500 0.078750 0.000000
0.002000 0.078750 0.000000
0.002500 0.078750 0.000000
0.003000 0.078750 0.000000
0.003500 0.078750 0.000000
0.004000 0.078750 0.000000
0.004500 0.078750 0.000000
0.000500 0.077500 0.000000
0.001000 0.077500 0.000000
0.001500 0.077500 0.000000
0.002000 0.077500 0.000000
0.002500 0.077500 0.000000
0.003000 0.077500 0.000000
0.003500 0.077500 0.000000
0.004000 0.077500 0.000000
0.004500 0.077500 0.000000
0.000500 0.076250 0.000000
0.001000 0.076250 0.000000
0.001500 0.076250 0.000000
0.002000 0.076250 0.000000
0.002500 0.076250 0.000000
0.003000 0.076250 0.000000
0.003500 0.076250 0.000000
0.004000 0.076250 0.000000
0.004500 0.076250 0.000000
0.000500 0.075000 0.000000
0.001000 0.075000 0.000000
0.001500 0.075000 0.000000
0.002000 0.075000 0.000000
0.002500 0.075000 0.000000
0.003000 0.075000 0.000000
0.003500 0.075000 0.000000
0.004000 0.075000 0.000000
0.004500 0.075000 0.000000
0.000500 0.073750 0.000000
0.001000 0.073750 0.000000
0.001500 0.073750 0.000000
0.002000 0.073750 0.000000
0.002500 0.073750 0.000000
0.003000 0.073750 0.000000
0.003500 0.073750 0.000000
0.004000 0.073750 0.000000
0.004500 0.073750 0.000000
0.000500 0.072500 0.000000
0.001000 0.072500 0.000000
0.001500 0.072500 0.000000
0.002000 0.072500 0.000000
0.002500 0.072500 0.000000
0.003000 0.072500 0.000000
0.003500 0.072500 0.000000
0.004000 0.072500 0.000000
0.004500 0.072500 0.000000
0.000500 0.071250 0.000000
0.001000 0.071250 0.000000
0.001500 0.071250 0.000000
0.002000 0.071250 0.000000
0.002500 0.071250 0.000000
0.003000 0.071250 0.000000
0.003500 0.071250 0.000000
0.004000 0.071250 0.000000
0.004500 0.071250 0.000000
0.000500 0.070000 0.000000
0.001000 0.070000 0.000000
0.001500 0.070000 0.000000
0.002000 0.070000 0.000000
0.002500 0.070000 0.000000
0.003000 0.070000 0.000000
0.003500 0.070000 0.000000
0.004000 0.070000 0.000000
0.004500 0.070000 0.000000
0.000500 0.068750 0.000000
0.001000 0.068750 0.000000
0.001500 0.068750 0.000000
0.002000 0.068750 0.000000
0.002500 0.068750 0.000000
0.003000 0.068750 0.000000
0.003500 0.068750 0.000000
0.004000 0.068750 0.000000
0.004500 0.068750 0.000000
0.000500 0.067500 0.000000
0.001000 0.067500 0.000000
0.001500 0.067500 0.000000
0.002000 0.067500 0.000000
0.002500 0.067500 0.000000
0.003000 0.067500 0.000000
0.003500 0.067500 0.000000
0.004000 0.067500 0.000000
0.004500 0.067500 0.000000
0.000500 0.066250 0.000000
0.001000 0.066250 0.000000
0.001500 0.066250 0.000000
0.002000 0.066250 0.000000
0.002500 0.066250 0.000000
0.003000 0.066250 0.000000
0.003500 0.066250 0.000000
0.004000 0.066250 0.000000
0.004500 0.066250 0.000000
0.000500 0.065000 0.000000
0.001000 0.065000 0.000000
0.001500 0.065000 0.000000
0.002000 0.065000 0.000000
0.002500 0.065000 0.000000
0.003000 0.065000 0.000000
0.003500 0.065000 0.000000
0.004000 0.065000 0.000000
0.004500 0.065000 0.000000
0.000500 0.063750 0.000000
0.001000 0.063750 0.000000
0.001500 0.063750 0.000000
0.002000 0.063750 0.000000
0.002500 0.063750 0.000000
0.003000 0.063750 0.000000
0.003500 0.063750 0.000000
0.004000 0.063750 0.000000
0.004500 0.063750 0.000000
0.000500 0.062500 0.000000
0.001000 0.062500 0.000000
0.001500 0.062500 0.000000
0.002000 0.062500 0.000000
0.002500 0.062500 0.000000
0.003000 0.062500 0.000000
0.003500 0.062500 0.000000
0.004000 0.062500 0.000000
0.004500 0.062500 0.000000
0.000500 0.061250 0.000000
0.001000 0.061250 0.000000
0.001500 0.061250 0.000000
0.002000 0.061250 0.000000
0.002500 0.061250 0.000000
0.003000 0.061250 0.000000
0.003500 0.061250 0.000000
0.004000 0.061250 0.000000
0.004500 0.061250 0.000000
0.000500 0.060000 0.000000
0.001000 0.060000 0.000000
0.001500 0.060000 0.000000
0.002000 0.060000 0.000000
0.002500 0.060000 0.000000
0.003000 0.060000 0.000000
0.003500 0.060000 0.000000
0.004000 0.060000 0.000000
0.004500 0.060000 0.000000
0.000500 0.058750 0.000000
0.001000 0.058750 0.000000
0.001500 0.058750 0.000000
0.002000 0.058750 0.000000
0.002500 0.058750 0.000000
0.003000 0.058750 0.000000
0.003500 0.058750 0.000000
0.004000 0.058750 0.000000
0.004500 0.058750 0.000000
0.000500 0.057500 0.000000
0.001000 0.057500 0.000000
0.001500 0.057500 0.000000
0.002000 0.057500 0.000000
0.002500 0.057500 0.000000
0.003000 0.057500 0.000000
0.003500 0.057500 0.000000
0.004000 0.057500 0.000000
0.004500 0.057500 0.000000
0.000500 0.056250 0.000000
0.001000 0.056250 0.000000
0.001500 0.056250 0.000000
0.002000 0.056250 0.000000
0.002500 0.056250 0.000000
0.003000 0.056250 0.000000
0.003500 0.056250 0.000000
0.004000 0.056250 0.000000
0.004500 0.056250 0.000000
0.000500 0.055000 0.000000
0.001000 0.055000 0.000000
0.001500 0.055000 0.000000
0.002000 0.055000 0.000000
0.002500 0.055000 0.000000
0.003000 0.055000 0.000000
0.003500 0.055000 0.000000
0.004000 0.055000 0.000000
0.004500 0.055000 0.000000
0.000500 0.053750 0.000000
0.001000 0.053750 0.000000
0.001500 0.053750 0.000000
0.002000 0.053750 0.000000
0.002500 0.053750 0.000000
0.003000 0.053750 0.000000
0.003500 0.053750 0.000000
0.004000 0.053750 0.000000
0.004500 0.053750 0.000000
0.000500 0.052500 0.000000
0.001000 0.052500 0.000000
0.001500 0.052500 0.000000
0.002000 0.052500 0.000000
0.002500 0.052500 0.000000
0.003000 0.052500 0.000000
0.003500 0.052500 0.000000
0.004000 0.052500 0.000000
0.004500 0.052500 0.000000
0.000500 0.051250 0.000000
0.001000 0.051250 0.000000
0.001500 0.051250 0.000000
0.002000 0.051250 0.000000
0.002500 0.051250 0.000000
0.003000 0.051250 0.000000
0.003500 0.051250 0.000000
0.004000 0.051250 0.000000
0.004500 0.051250 0.000000
0.000500 0.050000 0.000000
0.001000 0.050000 0.000000
0.001500 0.050000 0.000000
0.002000 0.050000 0.000000
0.002500 0.050000 0.000000
0.003000 0.050000 0.000000
0.003500 0.050000 0.000000
0.004000 0.050000 0.000000
0.004500 0.050000 0.000000
0.000500 0.048750 0.000000
0.001000 0.048750 0.000000
0.001500 0.048750 0.000000
0.002000 0.048750 0.000000
0.002500 0.048750 0.000000
0.003000 0.048750 0.000000
0.003500 0.048750 0.000000
0.004000 0.048750 0.000000
0.004500 0.048750 0.000000
0.000500 0.047500 0.000000
0.001000 0.047500 0.000000
0.001500 0.047500 0.000000
0.002000 0.047500 0.000000
0.002500 0.047500 0.000000
0.003000 0.047500 0.000000
0.003500 0.047500 0.000000
0.004000 0.047500 0.000000
0.004500 0.047500 0.000000
0.000500 0.046250 0.000000
0.001000 0.046250 0.000000
0.001500 0.046250 0.000000
0.002000 0.046250 0.000000
0.002500 0.046250 0.000000
0.003000 0.046250 0.000000
0.003500 0.046250 0.000000
0.004000 0.046250 0.000000
0.004500 0.046250 0.000000
0.000500 0.045000 0.000000
0.001000 0.045000 0.000000
0.001500 0.045000 0.000000
0.002000 0.045000 0.000000
0.002500 0.045000 0.000000
0.003000 0.045000 0.000000
0.003500 0.045000 0.000000
0.004000 0.045000 0.000000
0.004500 0.045000 0.000000
0.000500 0.043750 0.000000
0.001000 0.043750 0.000000
0.001500 0.043750 0.000000
0.002000 0.043750 0.000000
0.002500 0.043750 0.000000
0.003000 0.043750 0.000000
0.003500 0.043750 0.000000
0.004000 0.043750 0.000000
0.004500 0.043750 0.000000
0.000500 0.042500 0.000000
0.001000 0.042500 0.000000
0.001500 0.042500 0.000000
0.002000 0.042500 0.000000
0.002500 0.042500 0.000000
0.003000 0.042500 0.000000
0.003500 0.042500 0.000000
0.004000 0.042500 0.000000
0.004500 0.042500 0.000000
0.000500 0.041250 0.000000
0.001000 0.041250 0.000000
0.001500 0.041250 0.000000
0.002000 0.041250 0.000000
0.002500 0.041250 0.000000
0.003000 0.041250 0.000000
0.003500 0.041250 0.000000
0.004000 0.041250 0.000000
0.004500 0.041250 0.000000
0.000500 0.040000 0.000000
0.001000 0.040000 0.000000
0.001500 0.040000 0.000000
0.002000 0.040000 0.000000
0.002500 0.040000 0.000000
0.003000 0.040000 0.000000
0.003500 0.040000 0.000000
0.004000 0.040000 0.000000
0.004500 0.040000 0.000000
0.000500 0.038750 0.000000
0.001000 0.038750 0.000000
0.001500 0.038750 0.000000
0.002000 0.038750 0.000000
0.002500 0.038750 0.000000
0.003000 0.038750 0.000000
0.003500 0.038750 0.000000
0.004000 0.038750 0.000000
0.004500 0.038750 0.000000
0.000500 0.037500 0.000000
0.001000 0.037500 0.000000
0.001500 0.037500 0.000000
0.002000 0.037500 0.000000
0.002500 0.037500 0.000000
0.003000 0.037500 0.000000
0.003500 0.037500 0.000000
0.004000 0.037500 0.000000
0.004500 0.037500 0.000000
0.000500 0.036250 0.000000
0.001000 0.036250 0.000000
0.001500 0.036250 0.000000
0.002000 0.036250 0.000000
0.002500 0.036250 0.000000
0.003000 0.036250 0.000000
0.003500 0.036250 0.000000
0.004000 0.036250 0.000000
0.004500 0.036250 0.000000
0.000500 0.035000 0.000000
0.001000 0.035000 0.000000
0.001500 0.035000 0.000000
0.002000 0.035000 0.000000
0.002500 0.035000 0.000000
0.003000 0.035000 0.000000
0.003500 0.035000 0.000000
0.004000 0.035000 0.000000
0.004500 0.035000 0.000000
0.000500 0.033750 0.000000
0.001000 0.033750 0.000000
0.001500 0.033750 0.000000
0.002000 0.033750 0.000000
0.002500 0.033750 0.000000
0.003000 0.033750 0.000000
0.003500 0.033750 0.000000
0.004000 0.033750 0.000000
0.004500 0.033750 0.000000
0.000500 0.032500 0.000000
0.001000 0.032500 0.000000
0.001500 0.032500 0.000000
0.002000 0.032500 0.000000
0.002500 0.032500 0.000000
0.003000 0.032500 0.000000
0.003500 0.032500 0.000000
0.004000 0.032500 0.000000
0.004500 0.032500 0.000000
0.000500 0.031250 0.000000
0.001000 0.031250 0.000000
0.001500 0.031250 0.000000
0.002000 0.031250 0.000000
0.002500 0.031250 0.000000
0.003000 0.031250 0.000000
0.003500 0.031250 0.000000
0.004000 0.031250 0.000000
0.004500 0.031250 0.000000
0.000500 0.030000 0.000000
0.001000 0.030000 0.000000
0.001500 0.030000 0.000000
0.002000 0.030000 0.000000
0.002500 0.030000 0.000000
0.003000 0.030000 0.000000
0.003500 0.030000 0.000000
0.004000 0.030000 0.000000
0.004500 0.030000 0.000000
0.000500 0.028750 0.000000
0.001000 0.028750 0.000000
0.001500 0.028750 0.000000
0.002000 0.028750 0.000000
0.002500 0.028750 0.000000
0.003000 0.028750 0.000000
0.003500 0.028750 0.000000
0.004000 0.028750 0.000000
0.004500 0.028750 0.000000
0.000500 0.027500 0.000000
0.001000 0.027500 0.000000
0.001500 0.027500 0.000000
0.002000 0.027500 0.000000
0.002500 0.027500 0.000000
0.003000 0.027500 0.000000
0.003500 0.027500 0.000000
0.004000 0.027500 0.000000
0.004500 0.027500 0.000000
0.000500 0.026250 0.000000
0.001000 0.026250 0.000000
0.001500 0.026250 0.000000
0.002000 0.026250 0.000000
0.002500 0.026250 0.000000
0.003000 0.026250 0.000000
0.003500 0.026250 0.000000
0.004000 0.026250 0.000000
0.004500 0.026250 0.000000
0.000500 0.025000 0.000000
0.001000 0.025000 0.000000
0.001500 0.025000 0.000000
0.002000 0.025000 0.000000
0.002500 0.025000 0.000000
0.003000 0.025000 0.000000
0.003500 0.025000 0.000000
0.004000 0.025000 0.000000
0.004500 0.025000 0.000000
0.000500 0.023750 0.000000
0.001000 0.023750 0.000000
0.001500 0.023750 0.000000
0.002000 0.023750 0.000000
0.002500 0.023750 0.000000
0.003000 0.023750 0.000000
0.003500 0.023750 0.000000
0.004000 0.023750 0.000000
0.004500 0.023750 0.000000
0.000500 0.022500 0.000000
0.001000 0.022500 0.000000
0.001500 0.022500 0.000000
0.002000 0.022500 0.000000
0.002500 0.022500 0.000000
0.003000 0.022500 0.000000
0.003500 0.022500 0.000000
0.004000 0.022500 0.000000
0.004500 0.022500 0.000000
0.000500 0.021250 0.000000
0.001000 0.021250 0.000000
0.001500 0.021250 0.000000
0.002000 0.021250 0.000000
0.002500 0.021250 0.000000
0.003000 0.021250 0.000000
0.003500 0.021250 0.000000
0.004000 0.021250 0.000000
0.004500 0.021250 0.000000
0.000500 0.020000 0.000000
0.001000 0.020000 0.000000
0.001500 0.020000 0.000000
0.002000 0.020000 0.000000
0.002500 0.020000 0.000000
0.003000 0.020000 0.000000
0.003500 0.020000 0.000000
0.004000 0.020000 0.000000
0.004500 0.020000 0.000000
0.000500 0.018750 0.000000
0.001000 0.018750 0.000000
0.001500 0.018750 0.000000
0.002000 0.018750 0.000000
0.002500 0.018750 0.000000
0.003000 0.018750 0.000000
0.003500 0.018750 0.000000
0.004000 0.018750 0.000000
0.004500 0.018750 0.000000
0.000500 0.017500 0.000000
0.001000 0.017500 0.000000
0.001500 0.017500 0.000000
0.002000 0.017500 0.000000
0.002500 0.017500 0.000000
0.003000 0.017500 0.000000
0.003500 0.017500 0.000000
0.004000 0.017500 0.000000
0.004500 0.017500 0.000000
0.000500 0.016250 0.000000
0.001000 0.016250 0.000000
0.001500 0.016250 0.000000
0.002000 0.016250 0.000000
0.002500 0.016250 0.000000
0.003000 0.016250 0.000000
0.003500 0.016250 0.000000
0.004000 0.016250 0.000000
0.004500 0.016250 0.000000
0.000500 0.015000 0.000000
0.001000 0.015000 0.000000
0.001500 0.015000 0.000000
0.002000 0.015000 0.000000
0.002500 0.015000 0.000000
0.003000 0.015000 0.000000
0.003500 0.015000 0.000000
0.004000 0.015000 0.000000
0.004500 0.015000 0.000000
0.000500 0.013750 0.000000
0.001000 0.013750 0.000000
0.001500 0.013750 0.000000
0.002000 0.013750 0.000000
0.002500 0.013750 0.000000
0.003000 0.013750 0.000000
0.003500 0.013750 0.000000
0.004000 0.013750 0.000000
0.004500 0.013750 0.000000
0.000500 0.012500 0.000000
0.001000 0.012500 0.000000
0.001500 0.012500 0.000000
0.002000 0.012500 0.000000
0.002500 0.012500 0.000000
0.003000 0.012500 0.000000
0.003500 0.012500 0.000000
0.004000 0.012500 0.000000
0.004500 0.012500 0.000000
0.000500 0.011250 0.000000
0.001000 0.011250 0.000000
0.001500 0.011250 0.000000
0.002000 0.011250 0.000000
0.002500 0.011250 0.000000
0.003000 0.011250 0.000000
0.003500 0.011250 0.000000
0.004000 0.011250 0.000000
0.004500 0.011250 0.000000
0.000500 0.010000 0.000000
0.001000 0.010000 0.000000
0.001500 0.010000 0.000000
0.002000 0.010000 0.000000
0.002500 0.010000 0.000000
0.003000 0.010000 0.000000
0.003500 0.010000 0.000000
0.004000 0.010000 0.000000
0.004500 0.010000 0.000000
0.000500 0.008750 0.000000
0.001000 0.008750 0.000000
0.001500 0.008750 0.000000
0.002000 0.008750 0.000000
0.002500 0.008750 0.000000
0.003000 0.008750 0.000000
0.003500 0.008750 0.000000
0.004000 0.008750 0.000000
0.004500 0.008750 0.000000
0.000500 0.007500 0.000000
0.001000 0.007500 0.000000
0.001500 0.007500 0.000000
0.002000 0.007500 0.000000
0.002500 0.007500 0.000000
0.003000 0.007500 0.000000
0.003500 0.007500 0.000000
0.004000 0.007500 0.000000
0.004500 0.007500 0.000000
0.000500 0.006250 0.000000
0.001000 0.006250 0.000000
0.001500 0.006250 0.000000
0.002000 0.006250 0.000000
0.002500 0.006250 0.000000
0.003000 0.006250 0.000000
0.003500 0.006250 0.000000
0.004000 0.006250 0.000000
0.004500 0.006250 0.000000
0.000500 0.005000 0.000000
0.001000 0.005000 0.000000
0.001500 0.005000 0.000000
0.002000 0.005000 0.000000
0.002500 0.005000 0.000000
0.003000 0.005000 0.000000
0.003500 0.005000 0.000000
0.004000 0.005000 0.000000
0.004500 0.005000 0.000000
0.000500 0.003750 0.000000
0.001000 0.003750 0.000000
0.001500 0.003750 0.000000
0.002000 0.003750 0.000000
0.002500 0.003750 0.000000
0.003000 0.003750 0.000000
0.003500 0.003750 0.000000
0.004000 0.003750 0.000000
0.004500 0.003750 0.000000
0.000500 0.002500 0.000000
0.001000 0.002500 0.000000
0.001500 0.002500 0.000000
0.002000 0.002500 0.000000
0.002500 0.002500 0.000000
0.003000 0.002500 0.000000
0.003500 0.002500 0.000000
0.004000 0.002500 0.000000
0.004500 0.002500 0.000000
0.000500 0.001250 0.000000
0.001000 0.001250 0.000000
0.001500 0.001250 0.000000
0.002000 0.001250 0.000000
0.002500 0.001250 0.000000
0.003000 0.001250 0.000000
0.003500 0.001250 0.000000
0.004000 0.001250 0.000000
0.004500 0.001250 0.000000
CELLS 800 4000
4 82 83 180 179
4 179 180 181 178
4 178 181 182 177
4 177 182 183 176
4 176 183 184 175
4 175 184 185 174
4 174 185 186 173
4 173 186 187 172
4 172 187 188 171
4 171 188 80 0
4 83 84 189 180
4 180 189 190 181
4 181 190 191 182
4 182 191 192 183
4 183 192 193 184
4 184 193 194 185
4 185 194 195 186
4 186 195 196 187
4 187 196 197 188
4 188 197 79 80
4 84 85 198 189
4 189 198 199 190
4 190 199 200 191
4 191 200 201 192
4 192 201 202 193
4 193 202 203 194
4 194 203 204 195
4 195 204 205 196
4 196 205 206 197
4 197 206 78 79
4 85 86 207 198
4 198 207 208 199
4 199 208 209 200
4 200 209 210 201
4 201 210 211 202
4 202 211 212 203
4 203 212 213 204
4 204 213 214 205
4 205 214 215 206
4 206 215 77 78
4 86 87 216 207
4 207 216 217 208
4 208 217 218 209
4 209 218 219 210
4 210 219 220 211
4 211 220 221 212
4 212 221 222 213
4 213 222 223 214
4 214 223 224 215
4 215 224 76 77
4 87 88 225 216
4 216 225 226 217
4 217 226 227 218
4 218 227 228 219
4 219 228 229 220
4 220 229 230 221
4 221 230 231 222
4 222 231 232 223
4 223 232 233 224
4 224 233 75 76
4 88 89 234 225
4 225 234 235 226
4 226 235 236 227
4 227 236 237 228
4 228 237 238 229
4 229 238 239 230
4 230 239 240 231
4 231 240 241 232
4 232 241 242 233
4 233 242 74 75
4 89 90 243 234
4 234 243 244 235
4 235 244 245 236
4 236 245 246 237
4 237 246 247 238
4 238 247 248 239
4 239 248 249 240
4 240 249 250 241
4 241 250 251 242
4 242 251 73 74
4 90 91 252 243
4 243 252 253 244
4 244 253 254 245
4 245 254 255 246
4 246 255 256 247
4 247 256 257 248
4 248 257 258 249
4 249 258 259 250
4 250 259 260 251
4 251 260 72 73
4 91 92 261 252
4 252 261 262 253
4 253 262 263 254
4 254 263 264 255
4 255 264 265 256
4 256 265 266 257
4 257 266 267 258
4 258 267 268 259
4 259 268 269 260
4 260 269 71 72
4 92 93 270 261
4 261 270 271 262
4 262 271 272 263
4 263 272 273 264
4 264 273 274 265
4 265 274 275 266
4 266 275 276 267
4 267 276 277 268
4 268 277 278 269
4 269 278 70 71
4 93 94 279 270
4 270 279 280 271
4 271 280 281 272
4 272 281 282 273
4 273 282 283 274
4 274 283 284 275
4 275 284 285 276
4 276 285 286 277
4 277 286 287 278
4 278 287 69 70
4 94 95 288 279
4 279 288 289 280
4 280 289 290 281
4 281 290 291 282
4 282 291 292 283
4 283 292 293 284
4 284 293 294 285
4 285 294 295 286
4 286 295 296 287
4 287 296 68 69
4 95 96 297 288
4 288 297 298 289
4 289 298 299 290
4 290 299 300 291
4 291 300 301 292
4 292 301 302 293
4 293 302 303 294
4 294 303 304 295
4 295 304 305 296
4 296 305 67 68
4 96 97 306 297
4 297 306 307 298
4 298 307 308 299
4 299 308 309 300
4 300 309 310 301
4 301 310 311 302
4 302 311 312 303
4 303 312 313 304
4 304 313 314 305
4 305 314 66 67
4 97 98 315 306
4 306 315 316 307
4 307 316 317 308
4 308 317 318 309
4 309 318 319 310
4 310 319 320 311
4 311 320 321 312
4 312 321 322 313
4 313 322 323 314
4 314 323 65 66
4 98 99 324 315
4 315 324 325 316
4 316 325 326 317
4 317 326 327 318
4 318 327 328 319
4 319 328 329 320
4 320 329 330 321
4 321 330 331 322
4 322 331 332 323
4 323 332 64 65
4 99 100 333 324
4 324 333 334 325
4 325 334 335 326
4 326 335 336 327
4 327 336 337 328
4 328 337 338 329
4 329 338 339 330
4 330 339 340 331
4 331 340 341 332
4 332 341 63 64
4 100 101 342 333
4 333 342 343 334
4 334 343 344 335
4 335 344 345 336
4 336 345 346 337
4 337 346 347 338
4 338 347 348 339
4 339 348 349 340
4 340 349 350 341
4 341 350 62 63
4 101 102 351 342
4 342 351 352 343
4 343 352 353 344
4 344 353 354 345
4 345 354 355 346
4 346 355 356 347
4 347 356 357 348
4 348 357 358 349
4 349 358 359 350
4 350 359 61 62
4 102 103 360 351
4 351 360 361 352
4 352 361 362 353
4 353 362 363 354
4 354 363 364 355
4 355 364 365 356
4 356 365 366 357
4 357 366 367 358
4 358 367 368 359
4 359 368 60 61
4 103 104 369 360
4 360 369 370 361
4 361 370 371 362
4 362 371 372 363
4 363 372 373 364
4 364 373 374 365
4 365 374 375 366
4 366 375 376 367
4 367 376 377 368
4 368 377 59 60
4 104 105 378 369
4 369 378 379 370
4 370 379 380 371
4 371 380 381 372
4 372 381 382 373
4 373 382 383 374
4 374 383 384 375
4 375 384 385 376
4 376 385 386 377
4 377 386 58 59
4 105 106 387 378
4 378 387 388 379
4 379 388 389 380
4 380 389 390 381
4 381 390 391 382
4 382 391 392 383
4 383 392 393 384
4 384 393 394 385
4 385 394 395 386
4 386 395 57 58
4 106 107 396 387
4 387 396 397 388
4 388 397 398 389
4 389 398 399 390
4 390 399 400 391
4 391 400 401 392
4 392 401 402 393
4 393 402 403 394
4 394 403 404 395
4 395 404 56 57
4 107 108 405 396
4 396 405 406 397
4 397 406 407 398
4 398 407 408 399
4 399 408 409 400
4 400 409 410 401
4 401 410 411 402
4 402 411 412 403
4 403 412 413 404
4 404 413 55 56
4 108 109 414 405
4 405 414 415 406
4 406 415 416 407
4 407 416 417 408
4 408 417 418 409
4 409 418 419 410
4 410 419 420 411
4 411 420 421 412
4 412 421 422 413
4 413 422 54 55
4 109 110 423 414
4 414 423 424 415
4 415 424 425 416
4 416 425 426 417
4 417 426 427 418
4 418 427 428 419
4 419 428 429 420
4 420 429 430 421
4 421 430 431 422
4 422 431 53 54
4 110 111 432 423
4 423 432 433 424
4 424 433 434 425
4 425 434 435 426
4 426 435 436 427
4 427 436 437 428
4 428 437 438 429
4 429 438 439 430
4 430 439 440 431
4 431 440 52 53
4 111 112 441 432
4 432 441 442 433
4 433 442 443 434
4 434 443 444 435
4 435 444 445 436
4 436 445 446 437
4 437 446 447 438
4 438 447 448 439
4 439 448 449 440
4 440 449 51 52
4 112 113 450 441
4 441 450 451 442
4 442 451 452 443
4 443 452 453 444
4 444 453 454 445
4 445 454 455 446
4 446 455 456 447
4 447 456 457 448
4 448 457 458 449
4 449 458 50 51
4 113 114 459 450
4 450 459 460 451
4 451 460 461 452
4 452 461 462 453
4 453 462 463 454
4 454 463 464 455
4 455 464 465 456
4 456 465 466 457
4 457 466 467 458
4 458 467 49 50
4 114 115 468 459
4 459 468 469 460
4 460 469 470 461
4 461 470 471 462
4 462 471 472 463
4 463 472 473 464
4 464 473 474 465
4 465 474 475 466
4 466 475 476 467
4 467 476 48 49
4 115 116 477 468
4 468 477 478 469
4 469 478 479 470
4 470 479 480 471
4 471 480 481 472
4 472 481 482 473
4 473 482 483 474
4 474 483 484 475
4 475 484 485 476
4 476 485 47 48
4 116 117 486 477
4 477 486 487 478
4 478 487 488 479
4 479 488 489 480
4 480 489 490 481
4 481 490 491 482
4 482 491 492 483
4 483 492 493 484
4 484 493 494 485
4 485 494 46 47
4 117 118 495 486
4 486 495 496 487
4 487 496 497 488
4 488 497 498 489
4 489 498 499 490
4 490 499 500 491
4 491 500 501 492
4 492 501 502 493
4 493 502 503 494
4 494 503 45 46
4 118 119 504 495
4 495 504 505 496
4 496 505 506 497
4 497 506 507 498
4 498 507 508 499
4 499 508 509 500
4 500 509 510 501
4 501 510 511 502
4 502 511 512 503
4 503 512 44 45
4 119 120 513 504
4 504 513 514 505
4 505 514 515 506
4 506 515 516 507
4 507 516 517 508
4 508 517 518 509
4 509 518 519 510
4 510 519 520 511
4 511 520 521 512
4 512 521 43 44
4 120 121 522 513
4 513 522 523 514
4 514 523 524 515
4 515 524 525 516
4 516 525 526 517
4 517 526 527 518
4 518 527 528 519
4 519 528 529 520
4 520 529 530 521
4 521 530 42 43
4 121 122 531 522
4 522 531 532 523
4 523 532 533 524
4 524 533 534 525
4 525 534 535 526
4 526 535 536 527
4 527 536 537 528
4 528 537 538 529
4 529 538 539 530
4 530 539 41 42
4 122 123 540 531
4 531 540 541 532
4 532 541 542 533
4 533 542 543 534
4 534 543 544 535
4 535 544 545 536
4 536 545 546 537
4 537 546 547 538
4 538 547 548 539
4 539 548 40 41
4 123 124 549 540
4 540 549 550 541
4 541 550 551 542
4 542 551 552 543
4 543 552 553 544
4 544 553 554 545
4 545 554 555 546
4 546 555 556 547
4 547 556 557 548
4 548 557 39 40
4 124 125 558 549
4 549 558 559 550
4 550 559 560 551
4 551 560 561 552
4 552 561 562 553
4 553 562 563 554
4 554 563 564 555
4 555 564 565 556
4 556 565 566 557
4 557 566 38 39
4 125 126 567 558
4 558 567 568 559
4 559 568 569 560
4 560 569 570 561
4 561 570 571 562
4 562 571 572 563
4 563 572 573 564
4 564 573 574 565
4 565 574 575 566
4 566 575 37 38
4 126 127 576 567
4 567 576 577 568
4 568 577 578 569
4 569 578 579 570
4 570 579 580 571
4 571 580 581 572
4 572 581 582 573
4 573 582 583 574
4 574 583 584 575
4 575 584 36 37
4 127 128 585 576
4 576 585 586 577
4 577 586 587 578
4 578 587 588 579
4 579 588 589 580
4 580 589 590 581
4 581 590 591 582
4 582 591 592 583
4 583 592 593 584
4 584 593 35 36
4 128 129 594 585
4 585 594 595 586
4 586 595 596 587
4 587 596 597 588
4 588 597 598 589
4 589 598 599 590
4 590 599 600 591
4 591 600 601 592
4 592 601 602 593
4 593 602 34 35
4 129 130 603 594
4 594 603 604 595
4 595 604 605 596
4 596 605 606 597
4 597 606 607 598
4 598 607 608 599
4 599 608 609 600
4 600 609 610 601
4 601 610 611 602
4 602 611 33 34
4 130 131 612 603
4 603 612 613 604
4 604 613 614 605
4 605 614 615 606
4 606 615 616 607
4 607 616 617 608
4 608 617 618 609
4 609 618 619 610
4 610 619 620 611
4 611 620 32 33
4 131 132 621 612
4 612 621 622 613
4 613 622 623 614
4 614 623 624 615
4 615 624 625 616
4 616 625 626 617
4 617 626 627 618
4 618 627 628 619
4 619 628 629 620
4 620 629 31 32
4 132 133 630 621
4 621 630 631 622
4 622 631 632 623
4 623 632 633 624
4 624 633 634 625
4 625 634 635 626
4 626 635 636 627
4 627 636 637 628
4 628 637 638 629
4 629 638 30 31
4 133 134 639 630
4 630 639 640 631
4 631 640 641 632
4 632 641 642 633
4 633 642 643 634
4 634 643 644 635
4 635 644 645 636
4 636 645 646 637
4 637 646 647 638
4 638 647 29 30
4 134 135 648 639
4 639 648 649 640
4 640 649 650 641
4 641 650 651 642
4 642 651 652 643
4 643 652 653 644
4 644 653 654 645
4 645 654 655 646
4 646 655 656 647
4 647 656 28 29
4 135 136 657 648
4 648 657 658 649
4 649 658 659 650
4 650 659 660 651
4 651 660 661 652
4 652 661 662 653
4 653 662 663 654
4 654 663 664 655
4 655 664 665 656
4 656 665 27 28
4 136 137 666 657
4 657 666 667 658
4 658 667 668 659
4 659 668 669 660
4 660 669 670 661
4 661 670 671 662
4 662 671 672 663
4 663 672 673 664
4 664 673 674 665
4 665 674 26 27
4 137 138 675 666
4 666 675 676 667
4 667 676 677 668
4 668 677 678 669
4 669 678 679 670
4 670 679 680 671
4 671 680 681 672
4 672 681 682 673
4 673 682 683 674
4 674 683 25 26
4 138 139 684 675
4 675 684 685 676
4 676 685 686 677
4 677 686 687 678
4 678 687 688 679
4 679 688 689 680
4 680 689 690 681
4 681 690 691 682
4 682 691 692 683
4 683 692 24 25
4 139 140 693 684
4 684 693 694 685
4 685 694 695 686
4 686 695 696 687
4 687 696 697 688
4 688 697 698 689
4 689 698 699 690
4 690 699 700 691
4 691 700 701 692
4 692 701 23 24
4 140 141 702 693
4 693 702 703 694
4 694 703 704 695
4 695 704 705 696
4 696 705 706 697
4 697 706 707 698
4 698 707 708 699
4 699 708 709 700
4 700 709 710 701
4 701 710 22 23
4 141 142 711 702
4 702 711 712 703
4 703 712 713 704
4 704 713 714 705
4 705 714 715 706
4 706 715 716 707
4 707 716 717 708
4 708 717 718 709
4 709 718 719 710
4 710 719 21 22
4 142 143 720 711
4 711 720 721 712
4 712 721 722 713
4 713 722 723 714
4 714 723 724 715
4 715 724 725 716
4 716 725 726 717
4 717 726 727 718
4 718 727 728 719
4 719 728 20 21
4 143 144 729 720
4 720 729 730 721
4 721 730 731 722
4 722 731 732 723
4 723 732 733 724
4 724 733 734 725
4 725 734 735 726
4 726 735 736 727
4 727 736 737 728
4 728 737 19 20
4 144 145 738 729
4 729 738 739 730
4 730 739 740 731
4 731 740 741 732
4 732 741 742 733
4 733 742 743 734
4 734 743 744 735
4 735 744 745 736
4 736 745 746 737
4 737 746 18 19
4 145 146 747 738
4 738 747 748 739
4 739 748 749 740
4 740 749 750 741
4 741 750 751 742
4 742 751 752 743
4 743 752 753 744
4 744 753 754 745
4 745 754 755 746
4 746 755 17 18
4 146 147 756 747
4 747 756 757 748
4 748 757 758 749
4 749 758 759 750
4 750 759 760 751
4 751 760 761 752
4 752 761 762 753
4 753 762 763 754
4 754 763 764 755
4 755 764 16 17
4 147 148 765 756
4 756 765 766 757
4 757 766 767 758
4 758 767 768 759
4 759 768 769 760
4 760 769 770 761
4 761 770 771 762
4 762 771 772 763
4 763 772 773 764
4 764 773 15 16
4 148 149 774 765
4 765 774 775 766
4 766 775 776 767
4 767 776 777 768
4 768 777 778 769
4 769 778 779 770
4 770 779 780 771
4 771 780 781 772
4 772 781 782 773
4 773 782 14 15
4 149 150 783 774
4 774 783 784 775
4 775 784 785 776
4 776 785 786 777
4 777 786 787 778
4 778 787 788 779
4 779 788 789 780
4 780 789 790 781
4 781 790 791 782
4 782 791 13 14
4 150 151 792 783
4 783 792 793 784
4 784 793 794 785
4 785 794 795 786
4 786 795 796 787
4 787 796 797 788
4 788 797 798 789
4 789 798 799 790
4 790 799 800 791
4 791 800 12 13
4 151 152 801 792
4 792 801 802 793
4 793 802 803 794
4 794 803 804 795
4 795 804 805 796
4 796 805 806 797
4 797 806 807 798
4 798 807 808 799
4 799 808 809 800
4 800 809 11 12
4 152 153 810 801
4 801 810 811 802
4 802 811 812 803
4 803 812 813 804
4 804 813 814 805
4 805 814 815 806
4 806 815 816 807
4 807 816 817 808
4 808 817 818 809
4 809 818 10 11
4 153 154 819 810
4 810 819 820 811
4 811 820 821 812
4 812 821 822 813
4 813 822 823 814
4 814 823 824 815
4 815 824 825 816
4 816 825 826 817
4 817 826 827 818
4 818 827 9 10
4 154 155 828 819
4 819 828 829 820
4 820 829 830 821
4 821 830 831 822
4 822 831 832 823
4 823 832 833 824
4 824 833 834 825
4 825 834 835 826
4 826 835 836 827
4 827 836 8 9
4 155 156 837 828
4 828 837 838 829
4 829 838 839 830
4 830 839 840 831
4 831 840 841 832
4 832 841 842 833
4 833 842 843 834
4 834 843 844 835
4 835 844 845 836
4 836 845 7 8
4 156 157 846 837
4 837 846 847 838
4 838 847 848 839
4 839 848 849 840
4 840 849 850 841
4 841 850 851 842
4 842 851 852 843
4 843 852 853 844
4 844 853 854 845
4 845 854 6 7
4 157 158 855 846
4 846 855 856 847
4 847 856 857 848
4 848 857 858 849
4 849 858 859 850
4 850 859 860 851
4 851 860 861 852
4 852 861 862 853
4 853 862 863 854
4 854 863 5 6
4 158 159 864 855
4 855 864 865 856
4 856 865 866 857
4 857 866 867 858
4 858 867 868 859
4 859 868 869 860
4 860 869 870 861
4 861 870 871 862
4 862 871 872 863
4 863 872 4 5
4 159 160 873 864
4 864 873 874 865
4 865 874 875 866
4 866 875 876 867
4 867 876 877 868
4 868 877 878 869
4 869 878 879 870
4 870 879 880 871
4 871 880 881 872
4 872 881 3 4
4 160 161 882 873
4 873 882 883 874
4 874 883 884 875
4 875 884 885 876
4 876 885 886 877
4 877 886 887 878
4 878 887 888 879
4 879 888 889 880
4 880 889 890 881
4 881 890 2 3
4 161 81 162 882
4 882 162 163 883
4 883 163 164 884
4 884 164 165 885
4 885 165 166 886
4 886 166 167 887
4 887 167 168 888
4 888 168 169 889
4 889 169 170 890
4 890 170 1 2
CELL_TYPES 800
9
9
9
9
9
9
9
9
9
9
9
9
9
9
9
9
9
9
9
9
9
9
9
9
9
9
9
9
9
9
9
9
9
9
9
9
9
9
9
9
9
9
9
9
9
9
9
9
9
9
9
9
9
9
9
9
9
9
9
9
9
9
9
9
9
9
9
9
9
9
9
9
9
9
9
9
9
9
9
9
9
9
9
9
9
9
9
9
9
9
9
9
9
9
9
9
9
9
9
9
9
9
9
9
9
9
9
9
9
9
9
9
9
9
9
9
9
9
9
9
9
9
9
9
9
9
9
9
9
9
9
9
9
9
9
9
9
9
9
9
9
9
9
9
9
9
9
9
9
9
9
9
9
9
9
9
9
9
9
9
9
9
9
9
9
9
9
9
9
9
9
9
9
9
9
9
9
9
9
9
9
9
9
9
9
9
9
9
9
9
9
9
9
9
9
9
9
9
9
9
9
9
9
9
9
9
9
9
9
9
9
9
9
9
9
9
9
9
9
9
9
9
9
9
9
9
9
9
9
9
9
9
9
9
9
9
9
9
9
9
9
9
9
9
9
9
9
9
9
9
9
9
9
9
9
9
9
9
9
9
9
9
9
9
9
9
9
9
9
9
9
9
9
9
9
9
9
9
9
9
9
9
9
9
9
9
9
9
9
9
9
9
9
9
9
9
9
9
9
9
9
9
9
9
9
9
9
9
9
9
9
9
9
9
9
9
9
9
9
9
9
9
9
9
9
9
9
9
9
9
9
9
9
9
9
9
9
9
9
9
9
9
9
9
9
9
9
9
9
9
9
9
9
9
9
9
9
9
9
9
9
9
9
9
9
9
9
9
9
9
9
9
9
9
9
9
9
9
9
9
9
9
9
9
9
9
9
9
9
9
9
9
9
9
9
9
9
9
9
9
9
9
9
9
9
9
9
9
9
9
9
9
9
9
9
9
9
9
9
9
9
9
9
9
9
9
9
9
9
9
9
9
9
9
9
9
9
9
9
9
9
9
9
9
9
9
9
9
9
9
9
9
9
9
9
9
9
9
9
9
9
9
9
9
9
9
9
9
9
9
9
9
9
9
9
9
9
9
9
9
9
9
9
9
9
9
9
9
9
9
9
9
9
9
9
9
9
9
9
9
9
9
9
9
9
9
9
9
9
9
9
9
9
9
9
9
9
9
9
9
9
9
9
9
9
9
9
9
9
9
9
9
9
9
9
9
9
9
9
9
9
9
9
9
9
9
9
9
9
9
9
9
9
9
9
9
9
9
9
9
9
9
9
9
9
9
9
9
9
9
9
9
9
9
9
9
9
9
9
9
9
9
9
9
9
9
9
9
9
9
9
9
9
9
9
9
9
9
9
9
9
9
9
9
9
9
9
9
9
9
9
9
9
9
9
9
9
9
9
9
9
9
9
9
9
9
9
9
9
9
9
9
9
9
9
9
9
9
9
9
9
9
9
9
9
9
9
9
9
9
9
9
9
9
9
9
9
9
9
9
9
9
9
9
9
9
9
9
9
9
9
9
9
9
9
9
9
9
9
9
9
9
9
9
9
9
9
9
9
9
9
9
9
9
9
9
9
9
9
9
9
9
9
9
9
9
9
9
9
9
9
9
9
9
9
9
9
9
9
9
9
9
9
9
9
9
9
9
9
9
9
9
9
9
9
9
9
9
9
9
9
9
9
9
9
9
9
9
9
9
9
9
9
9
9
9
9
9
9
9
9
9
9
9
9
9
9
9
9
9
9
9
9
9
9
9
9
9
9
9
9
9
9
9
9
9
9
9
9
9
9
9
9
9
9
9
9
9
9
9
POINT_DATA 891
SCALARS u1 float
LOOKUP_TABLE default
7e-16
-2e-06
-2e-06
-2e-06
-2e-06
-2e-06
-2e-06
-2e-06
-2e-06
-2e-06
-2e-06
-2e-06
-2e-06
-2e-06
-2e-06
-2e-06
-2e-06
-2e-06
-2e-06
-2e-06
-2e-06
-2e-06
-2e-06
-2e-06
-2e-06
-2e-06
-2e-06
-2e-06
-2e-06
-2e-06
-2e-06
-2e-06
-2e-06
-2e-06
-2e-06
-2e-06
-2e-06
-2e-06
-2e-06
-2e-06
-2e-06
-2e-06
-2e-06
-2e-06
-2e-06
-2e-06
-2e-06
-2e-06
-2e-06
-2e-06
-2e-06
-2e-06
-2e-06
-2e-06
-2e-06
-2e-06
-2e-06
-2e-06
-2e-06
-2e-06
-2e-06
-2e-06
-2e-06
-2e-06
-2e-06
-2e-06
-2e-06
-2e-06
-2e-06
-2e-06
-2e-06
-2e-06
-2e-06
-2e-06
-2e-06
-2e-06
-2e-06
-2e-06
-2e-06
-2e-06
-2e-06
2e-06
-2e-16
2e-06
2e-06
2e-06
2e-06
2e-06
2e-06
2e-06
2e-06
2e-06
2e-06
2e-06
2e-06
2e-06
2e-06
2e-06
2e-06
2e-06
2e-06
2e-06
2e-06
2e-06
2e-06
2e-06
2e-06
2e-06
2e-06
2e-06
2e-06
2e-06
2e-06
2e-06
2e-06
2e-06
2e-06
2e-06
2e-06
2e-06
2e-06
2e-06
2e-06
2e-06
2e-06
2e-06
2e-06
2e-06
2e-06
2e-06
2e-06
2e-06
2e-06
2e-06
2e-06
2e-06
2e-06
2e-06
2e-06
2e-06
2e-06
2e-06
2e-06
2e-06
2e-06
2e-06
2e-06
2e-06
2e-06
2e-06
2e-06
2e-06
2e-06
2e-06
2e-06
2e-06
2e-06
2e-06
2e-06
2e-06
2e-06
2e-06
2e-06
1e-06
1e-06
5e-07
5e-14
-5e-07
-1e-06
-1e-06
-2e-06
5e-16
-7e-16
-2e-16
-2e-16
1e-15
1e-15
-7e-16
-6e-16
-1e-16
1e-06
9e-07
6e-07
3e-07
2e-14
-3e-07
-6e-07
-9e-07
-1e-06
2e-06
1e-06
9e-07
5e-07
2e-14
-5e-07
-9e-07
-1e-06
-2e-06
2e-06
2e-06
1e-06
5e-07
4e-14
-5e-07
-1e-06
-2e-06
-2e-06
2e-06
2e-06
1e-06
5e-07
5e-14
-5e-07
-1e-06
-2e-06
-2e-06
2e-06
1e-06
1e-06
5e-07
5e-14
-5e-07
-1e-06
-1e-06
-2e-06
2e-06
1e-06
1e-06
5e-07
6e-14
-5e-07
-1e-06
-1e-06
-2e-06
2e-06
1e-06
1e-06
5e-07
6e-14
-5e-07
-1e-06
-1e-06
-2e-06
2e-06
1e-06
1e-06
5e-07
7e-14
-5e-07
-1e-06
-1e-06
-2e-06
2e-06
1e-06
1e-06
5e-07
7e-14
-5e-07
-1e-06
-1e-06
-2e-06
2e-06
1e-06
1e-06
5e-07
7e-14
-5e-07
-1e-06
-1e-06
-2e-06
2e-06
1e-06
1e-06
5e-07
7e-14
-5e-07
-1e-06
-1e-06
-2e-06
2e-06
1e-06
1e-06
5e-07
7e-14
-5e-07
-1e-06
-1e-06
-2e-06
2e-06
1e-06
1e-06
5e-07
6e-14
-5e-07
-1e-06
-1e-06
-2e-06
2e-06
1e-06
1e-06
5e-07
6e-14
-5e-07
-1e-06
-1e-06
-2e-06
2e-06
1e-06
1e-06
5e-07
6e-14
-5e-07
-1e-06
-1e-06
-2e-06
2e-06
1e-06
1e-06
5e-07
6e-14
-5e-07
-1e-06
-1e-06
-2e-06
2e-06
1e-06
1e-06
5e-07
6e-14
-5e-07
-1e-06
-1e-06
-2e-06
2e-06
1e-06
1e-06
5e-07
6e-14
-5e-07
-1e-06
-1e-06
-2e-06
2e-06
1e-06
1e-06
5e-07
6e-14
-5e-07
-1e-06
-1e-06
-2e-06
2e-06
1e-06
1e-06
5e-07
6e-14
-5e-07
-1e-06
-1e-06
-2e-06
2e-06
1e-06
1e-06
5e-07
6e-14
-5e-07
-1e-06
-1e-06
-2e-06
2e-06
1e-06
1e-06
5e-07
6e-14
-5e-07
-1e-06
-1e-06
-2e-06
2e-06
1e-06
1e-06
5e-07
5e-14
-5e-07
-1e-06
-1e-06
-2e-06
2e-06
1e-06
1e-06
5e-07
5e-14
-5e-07
-1e-06
-1e-06
-2e-06
2e-06
1e-06
1e-06
5e-07
5e-14
-5e-07
-1e-06
-1e-06
-2e-06
2e-06
1e-06
1e-06
5e-07
5e-14
-5e-07
-1e-06
-1e-06
-2e-06
2e-06
1e-06
1e-06
5e-07
5e-14
-5e-07
-1e-06
-1e-06
-2e-06
2e-06
1e-06
1e-06
5e-07
5e-14
-5e-07
-1e-06
-1e-06
-2e-06
2e-06
1e-06
1e-06
5e-07
5e-14
-5e-07
-1e-06
-1e-06
-2e-06
2e-06
1e-06
1e-06
5e-07
5e-14
-5e-07
-1e-06
-1e-06
-2e-06
2e-06
1e-06
1e-06
5e-07
5e-14
-5e-07
-1e-06
-1e-06
-2e-06
2e-06
1e-06
1e-06
5e-07
5e-14
-5e-07
-1e-06
-1e-06
-2e-06
2e-06
1e-06
1e-06
5e-07
5e-14
-5e-07
-1e-06
-1e-06
-2e-06
2e-06
1e-06
1e-06
5e-07
5e-14
-5e-07
-1e-06
-1e-06
-2e-06
2e-06
1e-06
1e-06
5e-07
5e-14
-5e-07
-1e-06
-1e-06
-2e-06
2e-06
1e-06
1e-06
5e-07
5e-14
-5e-07
-1e-06
-1e-06
-2e-06
2e-06
1e-06
1e-06
5e-07
5e-14
-5e-07
-1e-06
-1e-06
-2e-06
2e-06
1e-06
1e-06
5e-07
5e-14
-5e-07
-1e-06
-1e-06
-2e-06
2e-06
1e-06
1e-06
5e-07
5e-14
-5e-07
-1e-06
-1e-06
-2e-06
2e-06
1e-06
1e-06
5e-07
5e-14
-5e-07
-1e-06
-1e-06
-2e-06
2e-06
1e-06
1e-06
5e-07
5e-14
-5e-07
-1e-06
-1e-06
-2e-06
2e-06
1e-06
1e-06
5e-07
5e-14
-5e-07
-1e-06
-1e-06
-2e-06
2e-06
1e-06
1e-06
5e-07
5e-14
-5e-07
-1e-06
-1e-06
-2e-06
2e-06
1e-06
1e-06
5e-07
5e-14
-5e-07
-1e-06
-1e-06
-2e-06
2e-06
1e-06
1e-06
5e-07
5e-14
-5e-07
-1e-06
-1e-06
-2e-06
2e-06
1e-06
1e-06
5e-07
5e-14
-5e-07
-1e-06
-1e-06
-2e-06
2e-06
1e-06
1e-06
5e-07
5e-14
-5e-07
-1e-06
-1e-06
-2e-06
2e-06
1e-06
1e-06
5e-07
5e-14
-5e-07
-1e-06
-1e-06
-2e-06
2e-06
1e-06
1e-06
5e-07
5e-14
-5e-07
-1e-06
-1e-06
-2e-06
2e-06
1e-06
1e-06
5e-07
5e-14
-5e-07
-1e-06
-1e-06
-2e-06
2e-06
1e-06
1e-06
5e-07
5e-14
-5e-07
-1e-06
-1e-06
-2e-06
2e-06
1e-06
1e-06
5e-07
5e-14
-5e-07
-1e-06
-1e-06
-2e-06
2e-06
1e-06
1e-06
5e-07
5e-14
-5e-07
-1e-06
-1e-06
-2e-06
2e-06
1e-06
1e-06
5e-07
5e-14
-5e-07
-1e-06
-1e-06
-2e-06
2e-06
1e-06
1e-06
5e-07
5e-14
-5e-07
-1e-06
-1e-06
-2e-06
2e-06
1e-06
1e-06
5e-07
5e-14
-5e-07
-1e-06
-1e-06
-2e-06
2e-06
1e-06
1e-06
5e-07
5e-14
-5e-07
-1e-06
-1e-06
-2e-06
2e-06
1e-06
1e-06
5e-07
5e-14
-5e-07
-1e-06
-1e-06
-2e-06
2e-06
1e-06
1e-06
5e-07
5e-14
-5e-07
-1e-06
-1e-06
-2e-06
2e-06
1e-06
1e-06
5e-07
5e-14
-5e-07
-1e-06
-1e-06
-2e-06
2e-06
1e-06
1e-06
5e-07
5e-14
-5e-07
-1e-06
-1e-06
-2e-06
2e-06
1e-06
1e-06
5e-07
5e-14
-5e-07
-1e-06
-1e-06
-2e-06
2e-06
1e-06
1e-06
5e-07
5e-14
-5e-07
-1e-06
-1e-06
-2e-06
2e-06
1e-06
1e-06
5e-07
5e-14
-5e-07
-1e-06
-1e-06
-2e-06
2e-06
1e-06
1e-06
5e-07
5e-14
-5e-07
-1e-06
-1e-06
-2e-06
2e-06
1e-06
1e-06
5e-07
5e-14
-5e-07
-1e-06
-1e-06
-2e-06
2e-06
1e-06
1e-06
5e-07
5e-14
-5e-07
-1e-06
-1e-06
-2e-06
2e-06
1e-06
1e-06
5e-07
5e-14
-5e-07
-1e-06
-1e-06
-2e-06
2e-06
1e-06
1e-06
5e-07
5e-14
-5e-07
-1e-06
-1e-06
-2e-06
2e-06
1e-06
1e-06
5e-07
5e-14
-5e-07
-1e-06
-1e-06
-2e-06
2e-06
1e-06
1e-06
5e-07
5e-14
-5e-07
-1e-06
-1e-06
-2e-06
2e-06
1e-06
1e-06
5e-07
5e-14
-5e-07
-1e-06
-1e-06
-2e-06
2e-06
1e-06
1e-06
5e-07
5e-14
-5e-07
-1e-06
-1e-06
-2e-06
2e-06
1e-06
1e-06
5e-07
5e-14
-5e-07
-1e-06
-1e-06
-2e-06
2e-06
1e-06
1e-06
5e-07
5e-14
-5e-07
-1e-06
-1e-06
-2e-06
2e-06
1e-06
1e-06
5e-07
5e-14
-5e-07
-1e-06
-1e-06
-2e-06
2e-06
1e-06
1e-06
5e-07
5e-14
-5e-07
-1e-06
-1e-06
-2e-06
2e-06
1e-06
1e-06
5e-07
5e-14
-5e-07
-1e-06
-1e-06
-2e-06
2e-06
1e-06
1e-06
5e-07
5e-14
-5e-07
-1e-06
-1e-06
-2e-06
SCALARS u2 float
LOOKUP_TABLE default
-8e-16
-0.0003
-0.0003
-0.0003
-0.0003
-0.0003
-0.0003
-0.0003
-0.0003
-0.0003
-0.0003
-0.0003
-0.0003
-0.0003
-0.0003
-0.0002
-0.0002
-0.0002
-0.0002
-0.0002
-0.0002
-0.0002
-0.0002
-0.0002
-0.0002
-0.0002
-0.0002
-0.0002
-0.0002
-0.0002
-0.0002
-0.0002
-0.0002
-0.0002
-0.0002
-0.0002
-0.0002
-0.0002
-0.0002
-0.0002
-0.0002
-0.0002
-0.0001
-0.0001
-0.0001
-0.0001
-0.0001
-0.0001
-0.0001
-0.0001
-0.0001
-0.0001
-0.0001
-0.0001
-0.0001
-0.0001
-9e-05
-9e-05
-9e-05
-8e-05
-8e-05
-8e-05
-7e-05
-7e-05
-6e-05
-6e-05
-6e-05
-5e-05
-5e-05
-4e-05
-4e-05
-4e-05
-3e-05
-3e-05
-3e-05
-2e-05
-2e-05
-1e-05
-1e-05
-7e-06
-4e-06
-0.0003
-4e-16
-4e-06
-7e-06
-1e-05
-1e-05
-2e-05
-2e-05
-3e-05
-3e-05
-3e-05
-4e-05
-4e-05
-4e-05
-5e-05
-5e-05
-6e-05
-6e-05
-6e-05
-7e-05
-7e-05
-8e-05
-8e-05
-8e-05
-9e-05
-9e-05
-9e-05
-0.0001
-0.0001
-0.0001
-0.0001
-0.0001
-0.0001
-0.0001
-0.0001
-0.0001
-0.0001
-0.0001
-0.0001
-0.0001
-0.0001
-0.0002
-0.0002
-0.0002
-0.0002
-0.0002
-0.0002
-0.0002
-0.0002
-0.0002
-0.0002
-0.0002
-0.0002
-0.0002
-0.0002
-0.0002
-0.0002
-0.0002
-0.0002
-0.0002
-0.0002
-0.0002
-0.0002
-0.0002
-0.0002
-0.0002
-0.0002
-0.0002
-0.0003
-0.0003
-0.0003
-0.0003
-0.0003
-0.0003
-0.0003
-0.0003
-0.0003
-0.0003
-0.0003
-0.0003
-0.0003
-0.0003
-0.0003
-0.0003
-0.0003
-0.0003
-0.0003
-0.0003
-0.0003
-0.0003
2e-16
3e-16
-3e-16
-1e-15
-2e-16
-5e-16
5e-16
-9e-17
-9e-16
-4e-06
-3e-06
-3e-06
-3e-06
-3e-06
-3e-06
-3e-06
-3e-06
-4e-06
-7e-06
-7e-06
-7e-06
-7e-06
-7e-06
-7e-06
-7e-06
-7e-06
-7e-06
-1e-05
-1e-05
-1e-05
-1e-05
-1e-05
-1e-05
-1e-05
-1e-05
-1e-05
-1e-05
-1e-05
-1e-05
-1e-05
-1e-05
-1e-05
-1e-05
-1e-05
-1e-05
-2e-05
-2e-05
-2e-05
-2e-05
-2e-05
-2e-05
-2e-05
-2e-05
-2e-05
-2e-05
-2e-05
-2e-05
-2e-05
-2e-05
-2e-05
-2e-05
-2e-05
-2e-05
-3e-05
-3e-05
-3e-05
-3e-05
-3e-05
-3e-05
-3e-05
-3e-05
-3e-05
-3e-05
-3e-05
-3e-05
-3e-05
-3e-05
-3e-05
-3e-05
-3e-05
-3e-05
-3e-05
-3e-05
-3e-05
-3e-05
-3e-05
-3e-05
-3e-05
-3e-05
-3e-05
-4e-05
-4e-05
-4e-05
-4e-05
-4e-05
-4e-05
-4e-05
-4e-05
-4e-05
-4e-05
-4e-05
-4e-05
-4e-05
-4e-05
-4e-05
-4e-05
-4e-05
-4e-05
-4e-05
-4e-05
-4e-05
-4e-05
-4e-05
-4e-05
-4e-05
-4e-05
-4e-05
-5e-05
-5e-05
-5e-05
-5e-05
-5e-05
-5e-05
-5e-05
-5e-05
-5e-05
-5e-05
-5e-05
-5e-05
-5e-05
-5e-05
-5e-05
-5e-05
-5e-05
-5e-05
-6e-05
-6e-05
-6e-05
-6e-05
-6e-05
-6e-05
-6e-05
-6e-05
-6e-05
-6e-05
-6e-05
-6e-05
-6e-05
-6e-05
-6e-05
-6e-05
-6e-05
-6e-05
-6e-05
-6e-05
-6e-05
-6e-05
-6e-05
-6e-05
-6e-05
-6e-05
-6e-05
-7e-05
-7e-05
-7e-05
-7e-05
-7e-05
-7e-05
-7e-05
-7e-05
-7e-05
-7e-05
-7e-05
-7e-05
-7e-05
-7e-05
-7e-05
-7e-05
-7e-05
-7e-05
-8e-05
-8e-05
-8e-05
-8e-05
-8e-05
-8e-05
-8e-05
-8e-05
-8e-05
-8e-05
-8e-05
-8e-05
-8e-05
-8e-05
-8e-05
-8e-05
-8e-05
-8e-05
-8e-05
-8e-05
-8e-05
-8e-05
-8e-05
-8e-05
-8e-05
-8e-05
-8e-05
-9e-05
-9e-05
-9e-05
-9e-05
-9e-05
-9e-05
-9e-05
-9e-05
-9e-05
-9e-05
-9e-05
-9e-05
-9e-05
-9e-05
-9e-05
-9e-05
-9e-05
-9e-05
-9e-05
-9e-05
-9e-05
-9e-05
-9e-05
-9e-05
-9e-05
-9e-05
-9e-05
-0.0001
-0.0001
-0.0001
-0.0001
-0.0001
-0.0001
-0.0001
-0.0001
-0.0001
-0.0001
-0.0001
-0.0001
-0.0001
-0.0001
-0.0001
-0.0001
-0.0001
-0.0001
-0.0001
-0.0001
-0.0001
-0.0001
-0.0001
-0.0001
-0.0001
-0.0001
-0.0001
-0.0001
-0.0001
-0.0001
-0.0001
-0.0001
-0.0001
-0.0001
-0.0001
-0.0001
-0.0001
-0.0001
-0.0001
-0.0001
-0.0001
-0.0001
-0.0001
-0.0001
-0.0001
-0.0001
-0.0001
-0.0001
-0.0001
-0.0001
-0.0001
-0.0001
-0.0001
-0.0001
-0.0001
-0.0001
-0.0001
-0.0001
-0.0001
-0.0001
-0.0001
-0.0001
-0.0001
-0.0001
-0.0001
-0.0001
-0.0001
-0.0001
-0.0001
-0.0001
-0.0001
-0.0001
-0.0001
-0.0001
-0.0001
-0.0001
-0.0001
-0.0001
-0.0001
-0.0001
-0.0001
-0.0001
-0.0001
-0.0001
-0.0001
-0.0001
-0.0001
-0.0001
-0.0001
-0.0001
-0.0001
-0.0001
-0.0001
-0.0001
-0.0001
-0.0001
-0.0001
-0.0001
-0.0001
-0.0001
-0.0001
-0.0001
-0.0001
-0.0001
-0.0001
-0.0001
-0.0001
-0.0001
-0.0001
-0.0001
-0.0001
-0.0001
-0.0001
-0.0001
-0.0001
-0.0001
-0.0001
-0.0001
-0.0001
-0.0001
-0.0001
-0.0001
-0.0001
-0.0001
-0.0001
-0.0001
-0.0002
-0.0002
-0.0002
-0.0002
-0.0002
-0.0002
-0.0002
-0.0002
-0.0002
-0.0002
-0.0002
-0.0002
-0.0002
-0.0002
-0.0002
-0.0002
-0.0002
-0.0002
-0.0002
-0.0002
-0.0002
-0.0002
-0.0002
-0.0002
-0.0002
-0.0002
-0.0002
-0.0002
-0.0002
-0.0002
-0.0002
-0.0002
-0.0002
-0.0002
-0.0002
-0.0002
-0.0002
-0.0002
-0.0002
-0.0002
-0.0002
-0.0002
-0.0002
-0.0002
-0.0002
-0.0002
-0.0002
-0.0002
-0.0002
-0.0002
-0.0002
-0.0002
-0.0002
-0.0002
-0.0002
-0.0002
-0.0002
-0.0002
-0.0002
-0.0002
-0.0002
-0.0002
-0.0002
-0.0002
-0.0002
-0.0002
-0.0002
-0.0002
-0.0002
-0.0002
-0.0002
-0.0002
-0.0002
-0.0002
-0.0002
-0.0002
-0.0002
-0.0002
-0.0002
-0.0002
-0.0002
-0.0002
-0.0002
-0.0002
-0.0002
-0.0002
-0.0002
-0.0002
-0.0002
-0.0002
-0.0002
-0.0002
-0.0002
-0.0002
-0.0002
-0.0002
-0.0002
-0.0002
-0.0002
-0.0002
-0.0002
-0.0002
-0.0002
-0.0002
-0.0002
-0.0002
-0.0002
-0.0002
-0.0002
-0.0002
-0.0002
-0.0002
-0.0002
-0.0002
-0.0002
-0.0002
-0.0002
-0.0002
-0.0002
-0.0002
-0.0002
-0.0002
-0.0002
-0.0002
-0.0002
-0.0002
-0.0002
-0.0002
-0.0002
-0.0002
-0.0002
-0.0002
-0.0002
-0.0002
-0.0002
-0.0002
-0.0002
-0.0002
-0.0002
-0.0002
-0.0002
-0.0002
-0.0002
-0.0002
-0.0002
-0.0002
-0.0002
-0.0002
-0.0002
-0.0002
-0.0002
-0.0002
-0.0002
-0.0002
-0.0002
-0.0002
-0.0002
-0.0002
-0.0002
-0.0002
-0.0002
-0.0002
-0.0002
-0.0002
-0.0002
-0.0002
-0.0002
-0.0002
-0.0002
-0.0002
-0.0002
-0.0002
-0.0002
-0.0002
-0.0002
-0.0002
-0.0002
-0.0002
-0.0002
-0.0002
-0.0002
-0.0002
-0.0002
-0.0002
-0.0002
-0.0002
-0.0002
-0.0002
-0.0002
-0.0002
-0.0002
-0.0002
-0.0002
-0.0002
-0.0002
-0.0002
-0.0002
-0.0002
-0.0002
-0.0002
-0.0002
-0.0002
-0.0002
-0.0002
-0.0002
-0.0002
-0.0002
-0.0002
-0.0002
-0.0002
-0.0002
-0.0002
-0.0002
-0.0002
-0.0002
-0.0002
-0.0002
-0.0002
-0.0002
-0.0002
-0.0002
-0.0002
-0.0002
-0.0002
-0.0002
-0.0002
-0.0002
-0.0002
-0.0002
-0.0002
-0.0002
-0.0002
-0.0002
-0.0002
-0.0002
-0.0002
-0.0002
-0.0002
-0.0002
-0.0002
-0.0002
-0.0002
-0.0002
-0.0003
-0.0003
-0.0003
-0.0003
-0.0003
-0.0003
-0.0003
-0.0003
-0.0003
-0.0003
-0.0003
-0.0003
-0.0003
-0.0003
-0.0003
-0.0003
-0.0003
-0.0003
-0.0003
-0.0003
-0.0003
-0.0003
-0.0003
-0.0003
-0.0003
-0.0003
-0.0003
-0.0003
-0.0003
-0.0003
-0.0003
-0.0003
-0.0003
-0.0003
-0.0003
-0.0003
-0.0003
-0.0003
-0.0003
-0.0003
-0.0003
-0.0003
-0.0003
-0.0003
-0.0003
-0.0003
-0.0003
-0.0003
-0.0003
-0.0003
-0.0003
-0.0003
-0.0003
-0.0003
-0.0003
-0.0003
-0.0003
-0.0003
-0.0003
-0.0003
-0.0003
-0.0003
-0.0003
-0.0003
-0.0003
-0.0003
-0.0003
-0.0003
-0.0003
-0.0003
-0.0003
-0.0003
-0.0003
-0.0003
-0.0003
-0.0003
-0.0003
-0.0003
-0.0003
-0.0003
-0.0003
-0.0003
-0.0003
-0.0003
-0.0003
-0.0003
-0.0003
-0.0003
-0.0003
-0.0003
-0.0003
-0.0003
-0.0003
-0.0003
-0.0003
-0.0003
-0.0003
-0.0003
-0.0003
-0.0003
-0.0003
-0.0003
-0.0003
-0.0003
-0.0003
-0.0003
-0.0003
-0.0003
-0.0003
-0.0003
-0.0003
-0.0003
-0.0003
-0.0003
-0.0003
-0.0003
-0.0003
SCALARS strain_1 float
LOOKUP_TABLE default
-0.000178
-0.282792
-0.278518
-0.274222
-0.269906
-0.265569
-0.261214
-0.256842
-0.252455
-0.248051
-0.243632
-0.239202
-0.234760
-0.230306
-0.225843
-0.221375
-0.216899
-0.212417
-0.207933
-0.203446
-0.198961
-0.194475
-0.189993
-0.185516
-0.181045
-0.176582
-0.172130
-0.167690
-0.163263
-0.158852
-0.154460
-0.150087
-0.145736
-0.141407
-0.137106
-0.132831
-0.128588
-0.124377
-0.120199
-0.116059
-0.111957
-0.107895
-0.103878
-0.099905
-0.095980
-0.092103
-0.088280
-0.084509
-0.080793
-0.077136
-0.073540
-0.070005
-0.066534
-0.063129
-0.059792
-0.056523
-0.053328
-0.050205
-0.047157
-0.044185
-0.041291
-0.038477
-0.035742
-0.033091
-0.030521
-0.028037
-0.025637
-0.023324
-0.021096
-0.018957
-0.016906
-0.014943
-0.013069
-0.011284
-0.009587
-0.007979
-0.006460
-0.005030
-0.003687
-0.002431
-0.001261
-0.283046
-0.000006
-0.001093
-0.002266
-0.003526
-0.004872
-0.006307
-0.007829
-0.009441
-0.011141
-0.012932
-0.014811
-0.016779
-0.018836
-0.020979
-0.023212
-0.025530
-0.027936
-0.030426
-0.033000
-0.035659
-0.038398
-0.041219
-0.044119
-0.047097
-0.050151
-0.053281
-0.056483
-0.059758
-0.063102
-0.066513
-0.069991
-0.073532
-0.077135
-0.080799
-0.084520
-0.088298
-0.092128
-0.096010
-0.099943
-0.103922
-0.107946
-0.112015
-0.116124
-0.120271
-0.124454
-0.128671
-0.132921
-0.137201
-0.141510
-0.145844
-0.150201
-0.154579
-0.158979
-0.163395
-0.167828
-0.172273
-0.176731
-0.181199
-0.185676
-0.190159
-0.194645
-0.199135
-0.203628
-0.208118
-0.212608
-0.217093
-0.221574
-0.226048
-0.230514
-0.234972
-0.239419
-0.243853
-0.248275
-0.252683
-0.257075
-0.261451
-0.265808
-0.270148
-0.274467
-0.278767
-0.283021
-0.282997
-0.282973
-0.282947
-0.282923
-0.282897
-0.282872
-0.282845
-0.282819
-0.000144
-0.000114
-0.000087
-0.000066
-0.000046
-0.000031
-0.000019
-0.000011
-0.000007
-0.001094
-0.001098
-0.001106
-0.001116
-0.001131
-0.001150
-0.001171
-0.001198
-0.001228
-0.002265
-0.002270
-0.002277
-0.002287
-0.002301
-0.002320
-0.002342
-0.002368
-0.002397
-0.003525
-0.003528
-0.003535
-0.003544
-0.003559
-0.003577
-0.003599
-0.003625
-0.003653
-0.004872
-0.004873
-0.004880
-0.004890
-0.004904
-0.004921
-0.004942
-0.004967
-0.004997
-0.006305
-0.006307
-0.006312
-0.006323
-0.006337
-0.006353
-0.006374
-0.006400
-0.006428
-0.007828
-0.007829
-0.007834
-0.007844
-0.007856
-0.007874
-0.007895
-0.007919
-0.007948
-0.009439
-0.009440
-0.009446
-0.009454
-0.009466
-0.009484
-0.009503
-0.009527
-0.009555
-0.011140
-0.011140
-0.011145
-0.011153
-0.011167
-0.011182
-0.011201
-0.011225
-0.011252
-0.012929
-0.012929
-0.012933
-0.012941
-0.012953
-0.012968
-0.012987
-0.013011
-0.013039
-0.014806
-0.014807
-0.014811
-0.014818
-0.014830
-0.014844
-0.014864
-0.014887
-0.014913
-0.016775
-0.016773
-0.016777
-0.016784
-0.016795
-0.016809
-0.016827
-0.016849
-0.016876
-0.018831
-0.018830
-0.018832
-0.018839
-0.018849
-0.018863
-0.018882
-0.018903
-0.018929
-0.020975
-0.020972
-0.020975
-0.020981
-0.020991
-0.021004
-0.021022
-0.021043
-0.021068
-0.023205
-0.023204
-0.023206
-0.023211
-0.023220
-0.023233
-0.023251
-0.023271
-0.023295
-0.025524
-0.025521
-0.025523
-0.025529
-0.025537
-0.025549
-0.025566
-0.025586
-0.025610
-0.027929
-0.027926
-0.027927
-0.027931
-0.027940
-0.027952
-0.027967
-0.027987
-0.028009
-0.030419
-0.030415
-0.030416
-0.030420
-0.030428
-0.030439
-0.030455
-0.030472
-0.030495
-0.032994
-0.032989
-0.032990
-0.032993
-0.033000
-0.033010
-0.033025
-0.033043
-0.033064
-0.035650
-0.035646
-0.035645
-0.035649
-0.035656
-0.035665
-0.035679
-0.035697
-0.035718
-0.038390
-0.038385
-0.038384
-0.038386
-0.038392
-0.038401
-0.038415
-0.038432
-0.038452
-0.041210
-0.041205
-0.041203
-0.041205
-0.041211
-0.041219
-0.041233
-0.041248
-0.041268
-0.044110
-0.044104
-0.044102
-0.044103
-0.044108
-0.044117
-0.044128
-0.044144
-0.044162
-0.047088
-0.047081
-0.047079
-0.047079
-0.047083
-0.047092
-0.047102
-0.047117
-0.047135
-0.050142
-0.050135
-0.050133
-0.050132
-0.050136
-0.050143
-0.050153
-0.050167
-0.050185
-0.053272
-0.053263
-0.053260
-0.053260
-0.053262
-0.053269
-0.053279
-0.053292
-0.053308
-0.056473
-0.056466
-0.056461
-0.056460
-0.056462
-0.056467
-0.056477
-0.056489
-0.056505
-0.059746
-0.059738
-0.059734
-0.059732
-0.059734
-0.059738
-0.059747
-0.059760
-0.059774
-0.063089
-0.063081
-0.063077
-0.063074
-0.063075
-0.063079
-0.063087
-0.063097
-0.063112
-0.066500
-0.066491
-0.066486
-0.066483
-0.066484
-0.066487
-0.066495
-0.066505
-0.066518
-0.069978
-0.069969
-0.069963
-0.069959
-0.069958
-0.069961
-0.069968
-0.069977
-0.069989
-0.073519
-0.073510
-0.073502
-0.073498
-0.073497
-0.073500
-0.073506
-0.073513
-0.073526
-0.077122
-0.077112
-0.077105
-0.077100
-0.077099
-0.077100
-0.077105
-0.077113
-0.077122
-0.080785
-0.080774
-0.080766
-0.080762
-0.080760
-0.080761
-0.080765
-0.080771
-0.080781
-0.084506
-0.084495
-0.084486
-0.084481
-0.084479
-0.084479
-0.084482
-0.084488
-0.084497
-0.088283
-0.088271
-0.088263
-0.088257
-0.088253
-0.088253
-0.088255
-0.088261
-0.088269
-0.092114
-0.092102
-0.092093
-0.092086
-0.092083
-0.092081
-0.092083
-0.092087
-0.092094
-0.095997
-0.095984
-0.095974
-0.095967
-0.095962
-0.095960
-0.095961
-0.095965
-0.095971
-0.099928
-0.099916
-0.099904
-0.099897
-0.099892
-0.099890
-0.099890
-0.099892
-0.099897
-0.103907
-0.103894
-0.103883
-0.103875
-0.103868
-0.103866
-0.103864
-0.103867
-0.103871
-0.107932
-0.107918
-0.107907
-0.107898
-0.107891
-0.107887
-0.107886
-0.107887
-0.107891
-0.111998
-0.111984
-0.111973
-0.111964
-0.111957
-0.111953
-0.111950
-0.111951
-0.111953
-0.116106
-0.116092
-0.116079
-0.116070
-0.116063
-0.116057
-0.116054
-0.116054
-0.116054
-0.120253
-0.120239
-0.120226
-0.120216
-0.120207
-0.120202
-0.120198
-0.120196
-0.120196
-0.124437
-0.124422
-0.124409
-0.124397
-0.124388
-0.124381
-0.124378
-0.124375
-0.124375
-0.128655
-0.128638
-0.128625
-0.128613
-0.128604
-0.128597
-0.128591
-0.128588
-0.128587
-0.132904
-0.132888
-0.132875
-0.132862
-0.132852
-0.132843
-0.132838
-0.132834
-0.132832
-0.137184
-0.137167
-0.137153
-0.137140
-0.137130
-0.137121
-0.137114
-0.137109
-0.137107
-0.141491
-0.141474
-0.141460
-0.141447
-0.141435
-0.141426
-0.141418
-0.141413
-0.141410
-0.145824
-0.145807
-0.145792
-0.145779
-0.145768
-0.145757
-0.145749
-0.145742
-0.145738
-0.150181
-0.150164
-0.150149
-0.150135
-0.150123
-0.150112
-0.150102
-0.150096
-0.150091
-0.154560
-0.154543
-0.154527
-0.154512
-0.154500
-0.154489
-0.154479
-0.154471
-0.154465
-0.158959
-0.158942
-0.158925
-0.158910
-0.158896
-0.158884
-0.158874
-0.158865
-0.158858
-0.163376
-0.163357
-0.163340
-0.163326
-0.163311
-0.163298
-0.163288
-0.163278
-0.163270
-0.167808
-0.167789
-0.167772
-0.167756
-0.167741
-0.167729
-0.167716
-0.167705
-0.167697
-0.172253
-0.172233
-0.172218
-0.172200
-0.172186
-0.172172
-0.172160
-0.172148
-0.172139
-0.176711
-0.176692
-0.176674
-0.176657
-0.176642
-0.176627
-0.176614
-0.176602
-0.176592
-0.181179
-0.181160
-0.181141
-0.181124
-0.181108
-0.181093
-0.181080
-0.181067
-0.181055
-0.185655
-0.185636
-0.185616
-0.185598
-0.185582
-0.185567
-0.185553
-0.185539
-0.185527
-0.190137
-0.190117
-0.190098
-0.190080
-0.190063
-0.190047
-0.190033
-0.190018
-0.190006
-0.194625
-0.194604
-0.194585
-0.194567
-0.194549
-0.194532
-0.194516
-0.194501
-0.194488
-0.199115
-0.199094
-0.199074
-0.199055
-0.199038
-0.199020
-0.199004
-0.198989
-0.198974
-0.203605
-0.203584
-0.203565
-0.203545
-0.203527
-0.203509
-0.203494
-0.203476
-0.203461
-0.208097
-0.208075
-0.208055
-0.208036
-0.208017
-0.207998
-0.207981
-0.207965
-0.207948
-0.212586
-0.212565
-0.212544
-0.212524
-0.212504
-0.212486
-0.212468
-0.212450
-0.212434
-0.217070
-0.217049
-0.217029
-0.217009
-0.216989
-0.216969
-0.216951
-0.216932
-0.216915
-0.221552
-0.221531
-0.221509
-0.221489
-0.221468
-0.221447
-0.221429
-0.221410
-0.221393
-0.226025
-0.226004
-0.225982
-0.225962
-0.225941
-0.225921
-0.225900
-0.225882
-0.225863
-0.230492
-0.230470
-0.230449
-0.230427
-0.230406
-0.230386
-0.230366
-0.230345
-0.230325
-0.234949
-0.234927
-0.234905
-0.234882
-0.234862
-0.234840
-0.234820
-0.234799
-0.234779
-0.239395
-0.239374
-0.239351
-0.239329
-0.239307
-0.239285
-0.239265
-0.239243
-0.239223
-0.243831
-0.243808
-0.243785
-0.243763
-0.243741
-0.243719
-0.243697
-0.243675
-0.243654
-0.248252
-0.248229
-0.248206
-0.248184
-0.248162
-0.248139
-0.248117
-0.248094
-0.248072
-0.252660
-0.252637
-0.252613
-0.252591
-0.252568
-0.252545
-0.252521
-0.252499
-0.252477
-0.257052
-0.257028
-0.257006
-0.256982
-0.256959
-0.256935
-0.256913
-0.256889
-0.256867
-0.261427
-0.261404
-0.261381
-0.261356
-0.261333
-0.261309
-0.261285
-0.261262
-0.261238
-0.265785
-0.265762
-0.265738
-0.265714
-0.265690
-0.265666
-0.265642
-0.265617
-0.265594
-0.270125
-0.270101
-0.270077
-0.270053
-0.270029
-0.270004
-0.269979
-0.269955
-0.269930
-0.274444
-0.274420
-0.274395
-0.274372
-0.274348
-0.274323
-0.274297
-0.274272
-0.274247
-0.278743
-0.278719
-0.278695
-0.278671
-0.278646
-0.278620
-0.278595
-0.278569
-0.278544
SCALARS strain_2 float
LOOKUP_TABLE default
-0.000215
-0.001589
-0.001591
-0.001590
-0.001590
-0.001589
-0.001589
-0.001593
-0.001592
-0.001589
-0.001590
-0.001585
-0.001584
-0.001584
-0.001581
-0.001582
-0.001577
-0.001574
-0.001568
-0.001568
-0.001561
-0.001558
-0.001553
-0.001548
-0.001544
-0.001540
-0.001530
-0.001525
-0.001515
-0.001509
-0.001498
-0.001493
-0.001482
-0.001474
-0.001461
-0.001450
-0.001436
-0.001422
-0.001411
-0.001398
-0.001387
-0.001369
-0.001355
-0.001336
-0.001323
-0.001309
-0.001286
-0.001269
-0.001249
-0.001230
-0.001207
-0.001187
-0.001167
-0.001144
-0.001119
-0.001093
-0.001069
-0.001044
-0.001016
-0.000988
-0.000960
-0.000934
-0.000901
-0.000870
-0.000839
-0.000813
-0.000780
-0.000745
-0.000714
-0.000676
-0.000646
-0.000604
-0.000569
-0.000531
-0.000494
-0.000459
-0.000418
-0.000376
-0.000336
-0.000293
-0.000253
0.003125
0.003205
0.003206
0.003211
0.003216
0.003223
0.003229
0.003234
0.003236
0.003240
0.003247
0.003248
0.003251
0.003255
0.003261
0.003264
0.003268
0.003274
0.003271
0.003275
0.003279
0.003281
0.003285
0.003285
0.003292
0.003295
0.003293
0.003300
0.003298
0.003303
0.003303
0.003306
0.003305
0.003311
0.003305
0.003307
0.003312
0.003309
0.003308
0.003312
0.003307
0.003307
0.003312
0.003307
0.003308
0.003304
0.003302
0.003303
0.003302
0.003296
0.003299
0.003294
0.003296
0.003294
0.003287
0.003285
0.003285
0.003276
0.003276
0.003268
0.003265
0.003262
0.003258
0.003252
0.003243
0.003244
0.003234
0.003230
0.003221
0.003220
0.003211
0.003210
0.003199
0.003198
0.003184
0.003180
0.003172
0.003164
0.003155
0.003148
0.003143
0.002655
0.002186
0.001715
0.001246
0.000772
0.000296
-0.000175
-0.000645
-0.001117
0.000128
0.000472
0.000812
0.001155
0.001500
0.001839
0.002182
0.002521
0.002864
0.002864
0.002520
0.002175
0.001822
0.001478
0.001133
0.000783
0.000440
0.000093
0.002864
0.002510
0.002161
0.001806
0.001459
0.001108
0.000758
0.000406
0.000052
0.002863
0.002508
0.002158
0.001795
0.001444
0.001081
0.000733
0.000376
0.000018
0.002867
0.002505
0.002141
0.001779
0.001424
0.001064
0.000704
0.000344
-0.000015
0.002864
0.002502
0.002133
0.001770
0.001407
0.001048
0.000680
0.000309
-0.000052
0.002860
0.002493
0.002128
0.001759
0.001388
0.001020
0.000648
0.000285
-0.000089
0.002865
0.002490
0.002119
0.001747
0.001372
0.000994
0.000622
0.000251
-0.000121
0.002859
0.002489
0.002109
0.001732
0.001360
0.000981
0.000596
0.000221
-0.000159
0.002862
0.002481
0.002105
0.001725
0.001339
0.000958
0.000575
0.000195
-0.000189
0.002859
0.002481
0.002090
0.001708
0.001325
0.000939
0.000551
0.000166
-0.000219
0.002866
0.002475
0.002088
0.001701
0.001311
0.000914
0.000529
0.000139
-0.000253
0.002866
0.002474
0.002078
0.001685
0.001290
0.000894
0.000508
0.000110
-0.000282
0.002862
0.002464
0.002069
0.001673
0.001277
0.000879
0.000483
0.000081
-0.000316
0.002864
0.002466
0.002065
0.001664
0.001259
0.000860
0.000457
0.000059
-0.000344
0.002861
0.002454
0.002056
0.001651
0.001242
0.000843
0.000435
0.000031
-0.000375
0.002865
0.002454
0.002048
0.001639
0.001233
0.000819
0.000416
0.000006
-0.000399
0.002866
0.002457
0.002040
0.001626
0.001216
0.000807
0.000391
-0.000021
-0.000429
0.002865
0.002446
0.002034
0.001613
0.001199
0.000785
0.000372
-0.000041
-0.000462
0.002866
0.002445
0.002026
0.001607
0.001189
0.000769
0.000353
-0.000067
-0.000481
0.002859
0.002440
0.002018
0.001600
0.001178
0.000754
0.000329
-0.000089
-0.000513
0.002864
0.002439
0.002013
0.001589
0.001165
0.000736
0.000313
-0.000112
-0.000536
0.002863
0.002435
0.002008
0.001574
0.001153
0.000721
0.000294
-0.000134
-0.000560
0.002861
0.002429
0.001998
0.001572
0.001138
0.000707
0.000279
-0.000155
-0.000588
0.002860
0.002424
0.001990
0.001560
0.001130
0.000692
0.000260
-0.000174
-0.000612
0.002859
0.002422
0.001984
0.001551
0.001115
0.000679
0.000242
-0.000192
-0.000631
0.002863
0.002422
0.001984
0.001541
0.001104
0.000663
0.000222
-0.000215
-0.000655
0.002855
0.002421
0.001978
0.001533
0.001087
0.000651
0.000207
-0.000235
-0.000676
0.002856
0.002412
0.001967
0.001527
0.001081
0.000636
0.000192
-0.000253
-0.000697
0.002858
0.002412
0.001966
0.001517
0.001068
0.000623
0.000172
-0.000272
-0.000718
0.002856
0.002406
0.001957
0.001506
0.001056
0.000610
0.000157
-0.000286
-0.000738
0.002851
0.002405
0.001952
0.001500
0.001052
0.000601
0.000145
-0.000306
-0.000760
0.002848
0.002402
0.001950
0.001492
0.001041
0.000588
0.000134
-0.000328
-0.000779
0.002849
0.002399
0.001940
0.001490
0.001027
0.000571
0.000117
-0.000338
-0.000794
0.002852
0.002395
0.001934
0.001475
0.001021
0.000558
0.000101
-0.000354
-0.000816
0.002851
0.002391
0.001931
0.001475
0.001006
0.000550
0.000091
-0.000366
-0.000825
0.002848
0.002385
0.001925
0.001463
0.001004
0.000544
0.000078
-0.000381
-0.000845
0.002850
0.002385
0.001920
0.001456
0.000990
0.000531
0.000065
-0.000394
-0.000859
0.002842
0.002383
0.001916
0.001448
0.000985
0.000525
0.000056
-0.000409
-0.000877
0.002843
0.002377
0.001911
0.001443
0.000976
0.000512
0.000044
-0.000420
-0.000889
0.002846
0.002379
0.001905
0.001436
0.000969
0.000497
0.000030
-0.000435
-0.000906
0.002838
0.002371
0.001898
0.001429
0.000960
0.000496
0.000024
-0.000446
-0.000916
0.002838
0.002365
0.001892
0.001427
0.000954
0.000486
0.000016
-0.000457
-0.000928
0.002837
0.002363
0.001888
0.001420
0.000946
0.000472
0.000003
-0.000470
-0.000944
0.002834
0.002359
0.001889
0.001408
0.000941
0.000468
-0.000007
-0.000478
-0.000950
0.002825
0.002357
0.001886
0.001406
0.000932
0.000458
-0.000020
-0.000487
-0.000967
0.002828
0.002354
0.001876
0.001404
0.000922
0.000454
-0.000027
-0.000498
-0.000977
0.002828
0.002349
0.001876
0.001395
0.000922
0.000439
-0.000034
-0.000507
-0.000983
0.002823
0.002345
0.001869
0.001388
0.000918
0.000432
-0.000042
-0.000514
-0.000994
0.002818
0.002339
0.001864
0.001385
0.000906
0.000431
-0.000047
-0.000524
-0.001006
0.002819
0.002336
0.001858
0.001380
0.000901
0.000428
-0.000053
-0.000533
-0.001011
0.002814
0.002332
0.001853
0.001375
0.000894
0.000418
-0.000061
-0.000543
-0.001024
0.002809
0.002331
0.001852
0.001371
0.000887
0.000411
-0.000066
-0.000552
-0.001030
0.002806
0.002330
0.001848
0.001365
0.000884
0.000402
-0.000075
-0.000553
-0.001039
0.002801
0.002324
0.001843
0.001362
0.000882
0.000402
-0.000079
-0.000565
-0.001044
0.002800
0.002319
0.001836
0.001356
0.000874
0.000398
-0.000086
-0.000569
-0.001051
0.002797
0.002316
0.001830
0.001349
0.000874
0.000392
-0.000094
-0.000573
-0.001053
0.002792
0.002314
0.001825
0.001345
0.000861
0.000383
-0.000098
-0.000578
-0.001062
0.002792
0.002305
0.001823
0.001345
0.000864
0.000379
-0.000109
-0.000584
-0.001067
0.002788
0.002302
0.001815
0.001339
0.000855
0.000375
-0.000111
-0.000589
-0.001074
0.002782
0.002294
0.001817
0.001332
0.000848
0.000368
-0.000113
-0.000588
-0.001076
0.002775
0.002295
0.001812
0.001327
0.000845
0.000366
-0.000115
-0.000598
-0.001078
0.002771
0.002288
0.001807
0.001322
0.000840
0.000358
-0.000124
-0.000604
-0.001088
0.002762
0.002284
0.001802
0.001320
0.000837
0.000356
-0.000127
-0.000610
-0.001092
0.002760
0.002274
0.001802
0.001314
0.000836
0.000353
-0.000128
-0.000611
-0.001097
0.002753
0.002268
0.001791
0.001315
0.000832
0.000347
-0.000132
-0.000614
-0.001096
0.002748
0.002269
0.001788
0.001308
0.000828
0.000345
-0.000138
-0.000614
-0.001101
0.002737
0.002264
0.001784
0.001300
0.000818
0.000345
-0.000137
-0.000617
-0.001098
0.002742
0.002256
0.001782
0.001296
0.000819
0.000338
-0.000142
-0.000626
-0.001104
0.002737
0.002253
0.001774
0.001297
0.000816
0.000331
-0.000149
-0.000626
-0.001105
0.002730
0.002248
0.001764
0.001289
0.000811
0.000330
-0.000148
-0.000625
-0.001108
0.002719
0.002242
0.001760
0.001279
0.000805
0.000330
-0.000153
-0.000632
-0.001110
0.002716
0.002238
0.001759
0.001283
0.000799
0.000326
-0.000157
-0.000632
-0.001111
0.002706
0.002226
0.001752
0.001275
0.000801
0.000320
-0.000160
-0.000634
-0.001111
0.002700
0.002227
0.001750
0.001267
0.000792
0.000318
-0.000162
-0.000633
-0.001115
0.002696
0.002219
0.001745
0.001270
0.000792
0.000315
-0.000163
-0.000638
-0.001115
0.002690
0.002216
0.001740
0.001261
0.000787
0.000314
-0.000160
-0.000637
-0.001115
0.002681
0.002210
0.001736
0.001258
0.000787
0.000310
-0.000166
-0.000642
-0.001118
0.002671
0.002199
0.001724
0.001251
0.000783
0.000306
-0.000166
-0.000642
-0.001114
0.002667
0.002194
0.001725
0.001247
0.000779
0.000302
-0.000168
-0.000644
-0.001120
SCALARS strain_3 float
LOOKUP_TABLE default
0.001448
0.092917
0.091602
0.090283
0.088953
0.087623
0.086278
0.084935
0.083578
0.082224
0.080856
0.079487
0.078113
0.076731
0.075356
0.073967
0.072576
0.071184
0.069788
0.068395
0.066998
0.065599
0.064200
0.062802
0.061406
0.060006
0.058613
0.057214
0.055828
0.054439
0.053055
0.051679
0.050301
0.048931
0.047569
0.046212
0.044864
0.043520
0.042190
0.040865
0.039552
0.038247
0.036956
0.035679
0.034412
0.033159
0.031918
0.030694
0.029479
0.028284
0.027106
0.025942
0.024800
0.023672
0.022565
0.021478
0.020406
0.019359
0.018335
0.017331
0.016346
0.015387
0.014450
0.013538
0.012646
0.011784
0.010944
0.010124
0.009337
0.008567
0.007831
0.007119
0.006435
0.005771
0.005140
0.004532
0.003952
0.003397
0.002874
0.002369
0.001894
0.090509
-0.000757
-0.000328
0.000129
0.000614
0.001119
0.001659
0.002219
0.002808
0.003429
0.004073
0.004747
0.005444
0.006173
0.006922
0.007698
0.008500
0.009333
0.010184
0.011063
0.011966
0.012895
0.013847
0.014819
0.015815
0.016834
0.017876
0.018935
0.020017
0.021118
0.022240
0.023379
0.024532
0.025713
0.026901
0.028110
0.029334
0.030571
0.031820
0.033088
0.034362
0.035659
0.036961
0.038272
0.039593
0.040928
0.042271
0.043622
0.044980
0.046345
0.047714
0.049096
0.050477
0.051866
0.053256
0.054651
0.056048
0.057445
0.058848
0.060250
0.061653
0.063057
0.064461
0.065861
0.067266
0.068663
0.070062
0.071457
0.072849
0.074238
0.075624
0.077005
0.078382
0.079755
0.081117
0.082479
0.083833
0.085182
0.086526
0.087862
0.089189
0.090753
0.090994
0.091230
0.091473
0.091716
0.091955
0.092197
0.092438
0.092680
0.001224
0.000998
0.000776
0.000551
0.000334
0.000112
-0.000109
-0.000323
-0.000541
-0.000113
0.000106
0.000328
0.000548
0.000768
0.000993
0.001218
0.001439
0.001667
0.000346
0.000562
0.000789
0.001011
0.001232
0.001457
0.001683
0.001912
0.002141
0.000832
0.001053
0.001276
0.001502
0.001724
0.001954
0.002183
0.002410
0.002638
0.001341
0.001564
0.001791
0.002014
0.002241
0.002472
0.002699
0.002929
0.003165
0.001879
0.002104
0.002332
0.002561
0.002788
0.003020
0.003250
0.003485
0.003714
0.002447
0.002672
0.002902
0.003132
0.003360
0.003592
0.003825
0.004060
0.004293
0.003039
0.003267
0.003499
0.003730
0.003958
0.004195
0.004427
0.004665
0.004900
0.003657
0.003889
0.004121
0.004352
0.004587
0.004822
0.005059
0.005293
0.005533
0.004306
0.004533
0.004768
0.005002
0.005240
0.005476
0.005714
0.005951
0.006195
0.004976
0.005211
0.005446
0.005681
0.005918
0.006158
0.006394
0.006633
0.006876
0.005678
0.005912
0.006147
0.006385
0.006622
0.006863
0.007105
0.007344
0.007588
0.006404
0.006639
0.006876
0.007116
0.007355
0.007595
0.007835
0.008080
0.008326
0.007158
0.007397
0.007634
0.007871
0.008114
0.008356
0.008599
0.008845
0.009089
0.007937
0.008174
0.008416
0.008657
0.008897
0.009140
0.009388
0.009630
0.009879
0.008741
0.008979
0.009223
0.009465
0.009707
0.009955
0.010197
0.010445
0.010691
0.009572
0.009813
0.010054
0.010299
0.010544
0.010788
0.011037
0.011283
0.011532
0.010430
0.010666
0.010912
0.011156
0.011400
0.011647
0.011894
0.012147
0.012397
0.011307
0.011548
0.011793
0.012041
0.012286
0.012535
0.012782
0.013033
0.013285
0.012209
0.012454
0.012701
0.012948
0.013198
0.013444
0.013692
0.013943
0.014195
0.013138
0.013384
0.013634
0.013880
0.014126
0.014375
0.014631
0.014878
0.015132
0.014090
0.014339
0.014581
0.014832
0.015082
0.015331
0.015589
0.015838
0.016093
0.015068
0.015313
0.015564
0.015813
0.016061
0.016313
0.016567
0.016816
0.017074
0.016064
0.016310
0.016563
0.016810
0.017066
0.017320
0.017569
0.017823
0.018079
0.017082
0.017332
0.017581
0.017833
0.018088
0.018341
0.018593
0.018848
0.019102
0.018124
0.018374
0.018624
0.018878
0.019130
0.019383
0.019638
0.019894
0.020154
0.019187
0.019436
0.019686
0.019941
0.020196
0.020450
0.020703
0.020960
0.021218
0.020266
0.020520
0.020774
0.021024
0.021279
0.021533
0.021792
0.022046
0.022303
0.021370
0.021620
0.021877
0.022128
0.022382
0.022641
0.022897
0.023153
0.023412
0.022494
0.022744
0.022994
0.023251
0.023505
0.023764
0.024020
0.024279
0.024539
0.023631
0.023885
0.024141
0.024392
0.024644
0.024907
0.025166
0.025422
0.025683
0.024789
0.025040
0.025296
0.025550
0.025811
0.026065
0.026326
0.026586
0.026845
0.025964
0.026217
0.026472
0.026729
0.026988
0.027245
0.027504
0.027762
0.028022
0.027155
0.027410
0.027669
0.027925
0.028181
0.028440
0.028701
0.028959
0.029217
0.028363
0.028619
0.028876
0.029132
0.029387
0.029649
0.029907
0.030171
0.030427
0.029585
0.029842
0.030100
0.030357
0.030613
0.030876
0.031135
0.031391
0.031653
0.030827
0.031083
0.031340
0.031596
0.031854
0.032113
0.032372
0.032634
0.032891
0.032080
0.032334
0.032592
0.032847
0.033106
0.033365
0.033629
0.033890
0.034147
0.033342
0.033600
0.033857
0.034113
0.034371
0.034634
0.034894
0.035154
0.035416
0.034619
0.034880
0.035134
0.035395
0.035652
0.035914
0.036173
0.036433
0.036695
0.035918
0.036171
0.036426
0.036686
0.036945
0.037204
0.037464
0.037726
0.037991
0.037218
0.037475
0.037729
0.037987
0.038248
0.038505
0.038769
0.039028
0.039292
0.038531
0.038786
0.039043
0.039304
0.039563
0.039822
0.040079
0.040342
0.040603
0.039853
0.040111
0.040369
0.040627
0.040887
0.041145
0.041405
0.041668
0.041929
0.041186
0.041441
0.041701
0.041960
0.042220
0.042478
0.042738
0.042998
0.043260
0.042527
0.042785
0.043041
0.043302
0.043560
0.043816
0.044081
0.044337
0.044600
0.043877
0.044135
0.044394
0.044652
0.044911
0.045171
0.045430
0.045687
0.045952
0.045236
0.045492
0.045753
0.046006
0.046268
0.046525
0.046787
0.047045
0.047307
0.046599
0.046857
0.047116
0.047374
0.047632
0.047890
0.048149
0.048409
0.048671
0.047973
0.048229
0.048488
0.048745
0.048999
0.049263
0.049519
0.049781
0.050039
0.049351
0.049608
0.049863
0.050122
0.050377
0.050639
0.050896
0.051155
0.051417
0.050732
0.050990
0.051243
0.051501
0.051761
0.052017
0.052277
0.052536
0.052796
0.052117
0.052376
0.052631
0.052890
0.053146
0.053405
0.053661
0.053921
0.054181
0.053509
0.053766
0.054021
0.054278
0.054534
0.054793
0.055053
0.055310
0.055569
0.054901
0.055158
0.055417
0.055672
0.055930
0.056185
0.056445
0.056702
0.056961
0.056303
0.056557
0.056811
0.057070
0.057325
0.057582
0.057841
0.058094
0.058355
0.057702
0.057956
0.058210
0.058466
0.058721
0.058982
0.059235
0.059492
0.059750
0.059102
0.059354
0.059612
0.059869
0.060121
0.060377
0.060631
0.060891
0.061148
0.060503
0.060757
0.061013
0.061267
0.061519
0.061776
0.062032
0.062291
0.062547
0.061907
0.062162
0.062415
0.062671
0.062928
0.063180
0.063435
0.063689
0.063947
0.063313
0.063567
0.063814
0.064073
0.064327
0.064581
0.064832
0.065089
0.065344
0.064711
0.064968
0.065221
0.065473
0.065729
0.065979
0.066237
0.066493
0.066742
0.066116
0.066371
0.066621
0.066874
0.067123
0.067377
0.067633
0.067890
0.068141
0.067515
0.067770
0.068022
0.068273
0.068525
0.068779
0.069029
0.069285
0.069538
0.068913
0.069170
0.069418
0.069674
0.069924
0.070174
0.070428
0.070676
0.070935
0.070310
0.070562
0.070816
0.071068
0.071319
0.071573
0.071823
0.072072
0.072323
0.071709
0.071954
0.072208
0.072459
0.072709
0.072960
0.073214
0.073464
0.073714
0.073101
0.073347
0.073600
0.073849
0.074099
0.074351
0.074600
0.074849
0.075101
0.074487
0.074735
0.074985
0.075233
0.075483
0.075737
0.075987
0.076237
0.076485
0.075874
0.076117
0.076366
0.076615
0.076868
0.077119
0.077368
0.077615
0.077862
0.077254
0.077499
0.077748
0.077994
0.078243
0.078491
0.078742
0.078991
0.079241
0.078627
0.078876
0.079124
0.079369
0.079619
0.079864
0.080113
0.080364
0.080609
0.079998
0.080246
0.080492
0.080738
0.080987
0.081233
0.081479
0.081725
0.081975
0.081363
0.081611
0.081853
0.082102
0.082351
0.082596
0.082841
0.083090
0.083336
0.082724
0.082970
0.083214
0.083459
0.083707
0.083952
0.084198
0.084442
0.084686
0.084079
0.084319
0.084568
0.084813
0.085058
0.085300
0.085548
0.085791
0.086036
0.085426
0.085669
0.085913
0.086156
0.086403
0.086646
0.086888
0.087133
0.087378
0.086769
0.087010
0.087256
0.087501
0.087742
0.087983
0.088225
0.088473
0.088711
0.088102
0.088343
0.088591
0.088830
0.089072
0.089315
0.089557
0.089799
0.090041
0.089431
0.089672
0.089913
0.090154
0.090399
0.090640
0.090880
0.091122
0.091360
SCALARS stress_1 float
LOOKUP_TABLE default
-162571.128157
-80983221.117780
-79767780.592910
-78541716.068040
-77306435.543169
-76069619.018299
-74826018.493429
-73578577.968558
-72325761.443688
-71067184.918818
-69806560.393948
-68538639.869077
-67269055.344207
-65998190.819337
-64722334.294466
-63446861.769596
-62166397.244726
-60886956.719856
-59603932.194985
-58324363.670115
-57039291.145245
-55756778.620375
-54476698.095504
-53198025.570634
-51918841.045764
-50644008.520893
-49368151.996023
-48099719.471153
-46834102.946283
-45571430.421412
-44315669.896542
-43066181.371672
-41821300.846801
-40581924.321931
-39351891.797061
-38130819.272191
-36917554.747320
-35711458.222450
-34516369.697580
-33330753.172709
-32158320.647839
-30996768.122969
-29846863.598099
-28711935.073228
-27588014.548358
-26478302.023488
-25383565.498617
-24305340.973747
-23241324.448877
-22195611.924007
-21166795.399136
-20152442.874266
-19160874.349396
-18186713.824525
-17231881.299655
-16296632.774785
-15379688.249915
-14488343.725044
-13615559.200174
-12763126.675304
-11936294.150433
-11130197.625563
-10349317.100693
-9587636.575823
-8853732.050952
-8142483.526082
-7456451.001212
-6790770.476341
-6154913.951471
-5543249.426601
-4956416.901731
-4393520.376860
-3856991.851990
-3346063.327120
-2860350.802249
-2399470.277379
-1965341.752509
-1553229.227639
-1169916.702768
-809772.177898
-474459.653028
-80786612.753973
298869.235649
-10203.289221
-346411.814091
-705148.338962
-1090892.863832
-1498653.388702
-1937133.913572
-2398014.438443
-2884750.963313
-3396959.488183
-3934128.013054
-4498176.537924
-5088977.062794
-5703201.587664
-6340722.112535
-7004994.637405
-7694483.162275
-8408931.687146
-9148468.212016
-9909380.736886
-10694101.261756
-11502885.786627
-12335094.311497
-13187014.836367
-14064279.361238
-14961767.886108
-15878328.410978
-16817800.935848
-17776601.460719
-18754089.985589
-19751802.510459
-20766795.035330
-21800219.560200
-22850284.085070
-23917500.609940
-25000845.134811
-26099805.659681
-27212334.184551
-28341758.709421
-29481167.234292
-30636063.759162
-31801840.284032
-32981568.808903
-34168337.333773
-35369441.858643
-36578226.383513
-37796354.908384
-39022035.433254
-40258467.958124
-41499124.482995
-42748101.007865
-44004117.532735
-45263590.057605
-46531382.582476
-47798151.107346
-49074135.632216
-50352296.157087
-51631480.681957
-52913225.206827
-54199193.731697
-55484138.256568
-56770618.781438
-58057739.306308
-59344603.831179
-60628524.356049
-61912956.880919
-63197005.405789
-64478237.930660
-65756398.455530
-67033406.980400
-68303759.505271
-69575904.030141
-70840624.555011
-72101633.079881
-73359057.604752
-74609570.129622
-75857778.654492
-77098691.179363
-78333331.704233
-79563748.229103
-80805390.390354
-80828264.026735
-80850497.663115
-80868123.299496
-80888820.935877
-80908878.572257
-80928424.208638
-80946561.845019
-80967131.481400
-113073.491777
-63319.855396
-15614.219015
31067.417365
80565.053746
126990.690127
169320.326507
213953.962888
257307.599269
-52916.925602
-94734.561982
-140776.198363
-183873.834744
-231707.471124
-279029.107505
-324302.743886
-375080.380266
-423554.016647
-388869.450472
-430815.086853
-477368.723233
-520338.359614
-568043.995995
-613573.632375
-660895.268756
-710136.905137
-759634.541517
-746069.975342
-790575.611723
-835465.248104
-879842.884484
-926652.520865
-973334.157246
-1021295.793626
-1069129.430007
-1118115.066388
-1132710.500213
-1176704.136593
-1222105.772974
-1266227.409355
-1311245.045735
-1356518.682116
-1405248.318497
-1454873.954877
-1503987.591258
-1542391.025083
-1587152.661463
-1629098.297844
-1674499.934225
-1720157.570606
-1767479.206986
-1815952.843367
-1864170.479748
-1912644.116128
-1979335.549953
-2022433.186334
-2067450.822714
-2108628.459095
-2156462.095476
-2203015.731856
-2250849.368237
-2299323.004618
-2347156.640999
-2438936.074823
-2482929.711204
-2525899.347585
-2573220.983965
-2617854.620346
-2663896.256727
-2709553.893107
-2758539.529488
-2810085.165869
-2926952.599694
-2969666.236074
-3013403.872455
-3058165.508836
-3102287.145216
-3149736.781597
-3197186.417978
-3246940.054358
-3295925.690739
-3439289.124564
-3482130.760945
-3525484.397325
-3570246.033706
-3616671.670087
-3661945.306467
-3708498.942848
-3757740.579229
-3808774.215609
-3975561.649434
-4020451.285815
-4063420.922196
-4106518.558576
-4151920.194957
-4198217.831338
-4246179.467718
-4294397.104099
-4343766.740480
-4539866.174305
-4582323.810685
-4625805.447066
-4670311.083447
-4716352.719827
-4761242.356208
-4808051.992589
-4856269.628969
-4905895.265350
-5128746.699175
-5170308.335555
-5215453.971936
-5258167.608317
-5302929.244698
-5348202.881078
-5396932.517459
-5445150.153840
-5493495.790220
-5742587.224045
-5784020.860426
-5829294.496806
-5872776.133187
-5916897.769568
-5962043.405948
-6010389.042329
-6057966.678710
-6106824.315091
-6383307.748915
-6424357.385296
-6467711.021677
-6510808.658057
-6555442.294438
-6601099.930819
-6646757.567199
-6694207.203580
-6743320.839961
-7046940.273786
-7088373.910166
-7131471.546547
-7175209.182928
-7219330.819308
-7264476.455689
-7311670.092070
-7358351.728450
-7405673.364831
-7736940.798656
-7777990.435037
-7820320.071417
-7862137.707798
-7907155.344179
-7953964.980559
-7999366.616940
-8046176.253321
-8093625.889701
-8449725.323526
-8491798.959907
-8532592.596288
-8576330.232668
-8620067.869049
-8664189.505430
-8711383.141810
-8756016.778191
-8806026.414572
-9186829.848396
-9226471.484777
-9270081.121158
-9313562.757539
-9356916.393919
-9400654.030300
-9445799.666681
-9492481.303061
-9540058.939442
-9950686.373267
-9989688.009647
-10031121.646028
-10072427.282409
-10115012.918789
-10161054.555170
-10207096.191551
-10254289.827932
-10299051.464312
-10735022.898137
-10774280.534518
-10818018.170898
-10858427.807279
-10901653.443660
-10945007.080040
-10989640.716421
-11036066.352802
-11081851.989182
-11542399.423007
-11580505.059388
-11621682.695769
-11665932.332149
-11707877.968530
-11753279.604911
-11796505.241291
-11843058.877672
-11888204.514053
-12374095.947878
-12411817.584258
-12454531.220639
-12495708.857020
-12539830.493400
-12580624.129781
-12625769.766162
-12670275.402542
-12717469.038923
-13226784.472748
-13266298.109129
-13306963.745509
-13348397.381890
-13391367.018271
-13433952.654651
-13476154.291032
-13522835.927413
-13567853.563793
-14101872.997618
-14142026.633999
-14182180.270380
-14224125.906760
-14263639.543141
-14307505.179522
-14351882.815902
-14396644.452283
-14439742.088664
-14998209.522488
-15039387.158869
-15076340.795250
-15118670.431631
-15160872.068011
-15202817.704392
-15248475.340773
-15290292.977153
-15335566.613534
-15917330.047359
-15957483.683739
-15995077.320120
-16036894.956501
-16076408.592881
-16118994.229262
-16161835.865643
-16207621.502024
-16249567.138404
-16855266.572229
-16895036.208610
-16933013.844990
-16974447.481371
-17011913.117752
-17056802.754132
-17098492.390513
-17140950.026894
-17185839.663274
-17813555.097099
-17852812.733480
-17891814.369861
-17929536.006241
-17971737.642622
-18013171.279003
-18056780.915383
-18097830.551764
-18140288.188145
-18790787.621970
-18830045.258350
-18868790.894731
-18908048.531112
-18948074.167492
-18989507.803873
-19030941.440254
-19073783.076634
-19116496.713015
-19787092.146840
-19827117.783221
-19865223.419601
-19903841.055982
-19944634.692363
-19983508.328743
-20025965.965124
-20068039.601505
-20109601.237885
-20803492.671710
-20839934.308091
-20880343.944472
-20918833.580852
-20956427.217233
-20998244.853614
-21036990.489994
-21078936.126375
-21121905.762756
-21836917.196580
-21873742.832961
-21911464.469342
-21947778.105722
-21990107.742103
-22028853.378484
-22068495.014865
-22110568.651245
-22153410.287626
-22887237.721451
-22923039.357831
-22961656.994212
-22999634.630593
-23038636.266973
-23076869.903354
-23116767.539735
-23158841.176115
-23200146.812496
-23951638.246321
-23990127.882702
-24027593.519082
-24061987.155463
-24103292.791844
-24142294.428224
-24181296.064605
-24221705.700986
-24263011.337366
-25036134.771191
-25071296.407572
-25109658.043953
-25145843.680333
-25184333.316714
-25222566.953095
-25261184.589475
-25301466.225856
-25342899.862237
-26135095.296062
-26170256.932442
-26206954.568823
-26242372.205204
-26279965.841584
-26318071.477965
-26355665.114346
-26396970.750726
-26436612.387107
-27248263.820932
-27282913.457313
-27318331.093693
-27355540.730074
-27393262.366455
-27430216.002835
-27467553.639216
-27508987.275597
-27546708.911977
-28376024.345802
-28410289.982183
-28443915.618564
-28480101.254944
-28517566.891325
-28554904.527706
-28593778.164086
-28630091.800467
-28669861.436848
-29516456.870672
-29550850.507053
-29584732.143434
-29620917.779814
-29655439.416195
-29694057.052576
-29730498.688957
-29768732.325337
-29807349.961718
-30668025.395543
-30703699.031923
-30737452.668304
-30772870.304685
-30808927.941065
-30845625.577446
-30880531.213827
-30917740.850207
-30957766.486588
-31836489.920413
-31868323.556794
-31901949.193174
-31936982.829555
-31972784.465936
-32009226.102316
-32045923.738697
-32082365.375078
-32120087.011458
-33013146.445283
-33044852.081664
-33079373.718045
-33115047.354425
-33149824.990806
-33185754.627187
-33219124.263567
-33255949.899948
-33294055.536329
-34200682.970154
-34233412.606534
-34267550.242915
-34300919.879296
-34336593.515676
-34370987.152057
-34407172.788438
-34443742.424818
-34479288.061199
-35400379.495024
-35431701.131405
-35464686.767785
-35499208.404166
-35533474.040547
-35567483.676927
-35601237.313308
-35639342.949689
-35676040.586069
-36609932.019894
-36641125.656275
-36673727.292656
-36707992.929036
-36740722.565417
-36775500.201798
-36810661.838178
-36844799.474559
-36880729.110940
-37826908.544764
-37858614.181145
-37891343.817526
-37924073.453906
-37957443.090287
-37990556.726668
-38026102.363049
-38059215.999429
-38095401.635810
-39052205.069635
-39084166.706015
-39116128.342396
-39148601.978777
-39180307.615157
-39213293.251538
-39248966.887919
-39283360.524299
-39319162.160680
-40286461.594505
-40320343.230886
-40350000.867266
-40381706.503647
-40416484.140028
-40448957.776408
-40481047.412789
-40515057.049170
-40547914.685550
-41529166.119375
-41561127.755756
-41592449.392137
-41623131.028517
-41653428.664898
-41688078.301279
-41719911.937659
-41753793.574040
-41787163.210421
-42778014.644246
-42808824.280626
-42840017.917007
-42871979.553388
-42902789.189768
-42935646.826149
-42965176.462530
-42999058.098910
-43031915.735291
-44033391.169116
-44063048.805497
-44092706.441877
-44124156.078258
-44155477.714639
-44186415.351019
-44219016.987400
-44251106.623781
-44284092.260161
-45292223.693986
-45323801.330367
-45353202.966747
-45382476.603128
-45414566.239509
-45444991.875890
-45477081.512270
-45507891.148651
-45541132.785032
-46560912.218856
-46587625.855237
-46618435.491618
-46647709.127998
-46676854.764379
-46710096.400760
-46739114.037140
-46770307.673521
-46802397.309902
-47829216.743727
-47857210.380107
-47888148.016488
-47916653.652869
-47946311.289249
-47976224.925630
-48007418.562011
-48037716.198391
-48069037.834772
-49101489.268597
-49131018.904978
-49159140.541358
-49188670.177739
-49218199.814120
-49249905.450500
-49277771.086881
-49307940.723262
-49340030.359642
-50380033.793467
-50406747.429848
-50436789.066229
-50466190.702609
-50494568.338990
-50522433.975371
-50552475.611751
-50583157.248132
-50612558.884513
-51657810.318338
-51686571.954718
-51715717.591099
-51742943.227480
-51771832.863860
-51800722.500241
-51830252.136622
-51858117.773002
-51889183.409383
-52942882.843208
-52969852.479589
-52997590.115969
-53025839.752350
-53052297.388731
-53081315.025111
-53110588.661492
-53138454.297873
-53167343.934253
-54224371.368078
-54252493.004459
-54280358.640839
-54306048.277220
-54333657.913601
-54364211.549982
-54391181.186362
-54419174.822743
-54448320.459124
-55512387.892948
-55537821.529329
-55564407.165710
-55589456.802090
-55620138.438471
-55645060.074852
-55674589.711232
-55702711.347613
-55731472.983994
-56796180.417819
-56822382.054199
-56849991.690580
-56875041.326961
-56901882.963341
-56931028.599722
-56957230.236103
-56985223.872483
-57011425.508864
-58083684.942689
-58108862.579070
-58135448.215450
-58162161.851831
-58187979.488212
-58213925.124592
-58240382.760973
-58269400.397354
-58294706.033734
-59367477.467559
-59394447.103940
-59420520.740321
-59446466.376701
-59473436.013082
-59498869.649463
-59526991.285843
-59552040.922224
-59577218.558605
-60655237.992430
-60680031.628810
-60705209.265191
-60730258.901572
-60756076.537952
-60781766.174333
-60808863.810714
-60834681.447094
-60861011.083475
-61939158.517300
-61963184.153681
-61987849.790061
-62013795.426442
-62039101.062823
-62064790.699203
-62090864.335584
-62115529.971965
-62139811.608345
-63220007.042170
-63244160.678551
-63270490.314931
-63295923.951312
-63320461.587693
-63345767.224073
-63370560.860454
-63395738.496835
-63420660.133216
-64500855.567040
-64524881.203421
-64551722.839802
-64574468.476182
-64600030.112563
-64624311.748944
-64648849.385324
-64673643.021705
-64697796.658086
-65780168.091911
-65804577.728291
-65827067.364672
-65853397.001053
-65877678.637433
-65901192.273814
-65925345.910195
-65948603.546575
-65973909.182956
-67055256.616781
-67080818.253162
-67103947.889542
-67127461.525923
-67150079.162304
-67175512.798684
-67199026.435065
-67223948.071446
-67245797.707826
-68327913.141651
-68351682.778032
-68377244.414413
-68398198.050793
-68421327.687174
-68446377.323555
-68469378.959935
-68492764.596316
-68516278.232697
-69595833.666522
-69621395.302902
-69644140.939283
-69666886.575664
-69689888.212044
-69713273.848425
-69735891.484806
-69759533.121186
-69782406.757567
-70864522.191392
-70886499.827772
-70910013.464153
-70931223.100534
-70953712.736915
-70977994.373295
-71000612.009676
-71021949.646057
-71044439.282437
-72124506.716262
-72147124.352643
-72168717.989023
-72190055.625404
-72213825.261785
-72236570.898165
-72258932.534546
-72281934.170927
-72302887.807308
-73380779.241132
-73402884.877513
-73424606.513894
-73447224.150274
-73468049.786655
-73491307.423036
-73511877.059416
-73534622.695797
-73557624.332178
-74631803.766003
-74654805.402383
-74675887.038764
-74696840.675145
-74720226.311525
-74741051.947906
-74763669.584287
-74784623.220667
-74806728.857048
-75879628.290873
-75901093.927254
-75922815.563634
-75943769.200015
-75965234.836396
-75984524.472776
-76006886.109157
-76028735.745538
-76049433.381918
-77121052.815743
-77140214.452124
-77162448.088505
-77185449.724885
-77205251.361266
-77224924.997647
-77247030.634027
-77266704.270408
-77287913.906789
-78356205.340613
-78376646.976994
-78396064.613375
-78419450.249756
-78438483.886136
-78458541.522517
-78481671.158898
-78499808.795278
-78520634.431659
-79583677.865484
-79605527.501864
-79625201.138245
-79646794.774626
-79668004.411007
-79687294.047387
-79707863.683768
-79726897.320149
-79745290.956529
SCALARS stress_2 float
LOOKUP_TABLE default
69779.551955
-33591456.446477
-33087967.196497
-32582189.946516
-32073676.696536
-31562139.446556
-31048714.196575
-30533160.946595
-30016263.696614
-29496758.446634
-28975941.196654
-28452083.946673
-27928402.696693
-27402993.446712
-26875952.196732
-26348382.946752
-25818813.696771
-25289868.446791
-24760235.196810
-24230201.946830
-23699960.696849
-23168407.446869
-22638822.196889
-22109700.946908
-21580195.696928
-21052482.446947
-20525761.196967
-20000175.946987
-19475454.697006
-18953309.447026
-18431772.197045
-17913802.947065
-17398057.697085
-16884488.447104
-16373527.197124
-15866789.947143
-15362916.697163
-14862819.447183
-14366674.197202
-13874240.947222
-13387183.697241
-12904542.447261
-12426013.197281
-11953163.947300
-11485930.697320
-11024985.447339
-10568744.197359
-10118790.947379
-9675221.697398
-9239444.447418
-8810387.197437
-8387345.947457
-7972272.697477
-7565519.447496
-7167022.197516
-6775356.947535
-6392539.697555
-6017626.447575
-5651401.197594
-5294583.947614
-4946422.697633
-4607749.447653
-4278164.197673
-3958962.947692
-3648433.697712
-3348096.447731
-3058191.197751
-2777597.947771
-2507212.697790
-2247211.447810
-1997114.197829
-1757656.947849
-1528551.697869
-1309638.447888
-1101397.197908
-903331.947927
-714994.697947
-537681.447967
-371280.197986
-213966.948006
-67309.698025
-32523141.354752
966414.643680
838557.393699
700540.143719
552778.893739
394889.643758
226408.393778
47863.143797
-142122.106183
-342379.356163
-553532.606144
-774893.856124
-1006463.106105
-1249168.356085
-1502065.606065
-1765378.856046
-2038980.106026
-2323189.356007
-2617046.605987
-2921623.855967
-3234841.105948
-3559034.355928
-3892923.605909
-4235372.855889
-4587022.105869
-4948047.355850
-5318560.605830
-5697041.855811
-6084067.105791
-6479700.355771
-6882437.605752
-7294150.855732
-7713224.105713
-8140185.355693
-8573290.605673
-9013595.855654
-9460957.105634
-9914078.355615
-10373503.605595
-10839440.855575
-11310434.105556
-11786771.355536
-12267860.605517
-12754869.855497
-13245479.105478
-13741448.355458
-14240505.605438
-14743978.855419
-15250364.105399
-15761069.355380
-16273982.605360
-16789775.855340
-17308561.105321
-17829922.355301
-18352947.605282
-18878036.855262
-19404342.105242
-19932567.355223
-20461160.605203
-20991849.855184
-21522395.105164
-22054060.355144
-22586109.605125
-23116862.855105
-23649616.105086
-24181649.355066
-24712802.605046
-25243331.855027
-25773813.105007
-26301942.354988
-26830503.604968
-27356712.854948
-27882730.104929
-28406107.354909
-28928108.604890
-29447405.854870
-29966191.104850
-30482304.354831
-30996113.604811
-31506994.854792
-32016804.104772
-32630432.063925
-32738058.773097
-32844437.482270
-32951440.191442
-33058778.900615
-33165077.609787
-33271664.318960
-33378379.028132
-33484853.737305
160462.261128
252232.970300
342867.679473
432542.388645
522585.097817
612483.806990
701070.516162
790249.225335
878723.934507
749362.684527
661111.975354
571341.266182
481058.557010
390999.847837
300621.138665
208610.429492
116759.720320
24845.011147
612065.434547
521526.725374
431148.016202
339697.307029
249206.597857
156811.888684
64449.179512
-28057.529661
-120804.238833
463248.184566
372197.475394
280554.766221
188448.057049
96133.347876
3674.638704
-89200.070469
-182378.779641
-276917.488814
303982.934586
211588.225413
119561.516241
26926.807068
-66411.902104
-159158.611277
-253793.320449
-348076.029622
-443286.738794
134333.684605
41250.975433
-52007.733740
-145250.442912
-239245.152085
-333879.861257
-428706.570430
-525181.279602
-619319.988774
-45859.565375
-139134.274548
-233400.983720
-328115.692892
-423134.402065
-518745.111237
-613859.820410
-709662.529582
-805913.238755
-236292.815355
-330271.524528
-425626.233700
-520996.942873
-616879.652045
-713018.361218
-809365.070390
-906351.779563
-1003322.488735
-437046.065336
-532736.774508
-628507.483681
-723782.192853
-821008.902026
-917899.611198
-1015590.320371
-1112913.029543
-1211643.738716
-648967.315316
-744802.024489
-841340.733661
-938503.442834
-1035554.152006
-1133196.861179
-1231559.570351
-1330146.279524
-1430124.988696
-870952.565297
-968467.274469
-1065421.983642
-1163176.692814
-1260323.401987
-1359438.111159
-1458696.820332
-1558067.529504
-1657934.238676
-1104057.815277
-1201172.524450
-1299455.233622
-1397785.942795
-1497124.651967
-1596255.361139
-1695898.070312
-1795332.779484
-1896063.488657
-1346747.065257
-1445365.774430
-1543792.483602
-1643243.192775
-1743285.901947
-1843296.611120
-1943691.320292
-2044566.029465
-2145328.738637
-1600780.315238
-1699911.024410
-1799217.733583
-1899116.442755
-1999079.151928
-2099921.861100
-2201244.570273
-2303367.279445
-2405489.988618
-1865245.565218
-1964728.274391
-2065522.983563
-2165261.692736
-2266344.401908
-2368179.111081
-2469341.820253
-2572104.529426
-2674435.238598
-2139086.815199
-2238937.524371
-2340324.233544
-2441598.942716
-2543513.651889
-2645380.361061
-2747807.070234
-2850825.779406
-2953780.488578
-2423584.065179
-2524378.774352
-2626645.483524
-2728352.192697
-2830282.901869
-2933189.611041
-3036288.320214
-3140203.029386
-3243893.738559
-2718129.315160
-2820412.024332
-2922518.733504
-3024625.442677
-3128108.151849
-3231254.861022
-3334593.570194
-3439036.279367
-3544134.988539
-3022962.565140
-3125309.274312
-3228647.983485
-3331154.692657
-3434557.401830
-3539176.111002
-3643986.820175
-3747821.529347
-3853640.238520
-3338115.815120
-3440814.524293
-3544201.233465
-3648163.942638
-3752222.651810
-3856377.360983
-3961524.070155
-4067054.779328
-4172713.488500
-3661557.065101
-3765599.774273
-3869610.483446
-3973381.192618
-4078319.901791
-4184298.610963
-4288325.320136
-4395088.029308
-4501850.738480
-3996118.315081
-4100273.024254
-4204139.733426
-4309894.442599
-4414481.151771
-4520571.860943
-4626374.570116
-4732769.279288
-4838955.988461
-4339287.565062
-4444114.274234
-4548684.983406
-4654151.692579
-4760594.401751
-4866061.110924
-4972903.820096
-5079522.529269
-5187597.238441
-4691976.815042
-4797203.524214
-4902478.233387
-5008488.942559
-5114835.651732
-5220766.360904
-5327849.070077
-5435587.779249
-5544014.488422
-5053130.065022
-5159300.774195
-5264447.483367
-5371770.192540
-5478500.901712
-5585487.610885
-5692730.320057
-5800597.029230
-5908575.738402
-5424379.315003
-5529062.024175
-5636640.733348
-5743579.442520
-5850710.151693
-5958192.860865
-6066075.570038
-6174166.279210
-6283104.988383
-5803244.564983
-5909511.274156
-6016481.983328
-6124316.692501
-6232071.401673
-6340322.110845
-6447596.820018
-6556727.529190
-6665858.238363
-6190301.814964
-6297400.524136
-6405235.233308
-6512685.942481
-6621048.651653
-6729171.360826
-6837502.069998
-6947016.779171
-7056083.488343
-6586847.064944
-6693417.774116
-6802004.483289
-6910591.192461
-7018681.901634
-7126676.610806
-7236559.319979
-7345610.029151
-7455076.738324
-6990976.314924
-7098203.024097
-7206965.733269
-7315168.442442
-7423867.151614
-7533637.860787
-7642528.569959
-7752347.279132
-7862997.988304
-7402465.564905
-7510908.274077
-7619366.983250
-7727729.692422
-7836700.401595
-7946471.110767
-8056433.819940
-8167020.529112
-8277751.238285
-7821650.814885
-7930077.524058
-8039400.233230
-8148946.942403
-8257693.651575
-8367784.360748
-8478371.069920
-8588973.779092
-8699608.488265
-8248900.064866
-8357182.774038
-8466377.483210
-8575748.192383
-8685742.901555
-8795801.610728
-8906964.319900
-9017247.029073
-9128185.738245
-8682357.314846
-8791472.024018
-8901130.733191
-9011141.442363
-9120976.151536
-9231130.860708
-9342133.569881
-9452720.279053
-9563594.988226
-9122998.564826
-9233201.273999
-9342523.983171
-9452630.692344
-9563105.401516
-9673676.110689
-9784518.819861
-9895505.529034
-10007116.238206
-9570343.814807
-9679650.523979
-9789821.233152
-9900631.942324
-10011138.651497
-10122317.360669
-10232568.069842
-10344786.779014
-10456637.488187
-10024121.064787
-10134787.773960
-10244142.483132
-10354825.192305
-10465843.901477
-10577262.610650
-10688361.319822
-10799284.028994
-10911486.738167
-10483450.314768
-10593797.023940
-10704687.733113
-10816042.442285
-10925845.151457
-11038159.860630
-11149322.569802
-11261317.278975
-11372911.988147
-10950315.564748
-11060054.273920
-11170496.983093
-11281547.692265
-11392582.401438
-11504785.110610
-11616507.819783
-11728422.528955
-11840641.238128
-11420380.814728
-11531511.523901
-11642370.233073
-11753276.942246
-11864567.651418
-11976738.360591
-12088701.069763
-12201479.778936
-12313138.488108
-11897566.064709
-12008520.773881
-12119587.483054
-12230334.192226
-12342200.901399
-12454131.610571
-12565918.319744
-12678377.028916
-12790819.738089
-12379487.314689
-12490410.023862
-12600980.733034
-12712175.442207
-12825034.151379
-12937044.860552
-13049135.569724
-13161482.278896
-13274388.988069
-12865472.564670
-12976827.273842
-13088197.983015
-13200064.692187
-13311515.401359
-13424070.110532
-13536768.819704
-13648843.528877
-13761302.238049
-13357201.814650
-13468796.523822
-13580295.232995
-13691985.942167
-13803244.651340
-13915607.360512
-14028434.069685
-14140636.778857
-14253623.488030
-13852963.064630
-13963581.773803
-14075320.482975
-14187411.192148
-14299197.901320
-14412728.610493
-14523891.319665
-14636542.028838
-14749304.738010
-14352420.314611
-14463583.023783
-14574953.732956
-14686820.442128
-14798959.151301
-14911769.860473
-15023844.569646
-15137007.278818
-15249817.987991
-14855093.564591
-14966416.273764
-15078250.982936
-15189909.692109
-15302928.401281
-15416123.110454
-15528117.819626
-15640368.528799
-15753163.237971
-15362214.814572
-15474449.523744
-15585948.232917
-15697526.942089
-15810193.651261
-15922732.360434
-16034839.069606
-16148161.778779
-16260796.487951
-15872152.064552
-15984082.773724
-16096381.482897
-16207720.192069
-16320450.901242
-16433085.610414
-16545256.319587
-16658195.028759
-16771517.737932
-16385737.314532
-16497460.023705
-16609198.732877
-16721145.442050
-16833764.151222
-16946702.860395
-17058569.569567
-17171364.278740
-17284350.987912
-16901210.564513
-17013333.273685
-17125391.982858
-17238026.692030
-17349989.401203
-17462208.110375
-17574762.819548
-17688197.528720
-17800592.237893
-17420091.814493
-17531094.523666
-17643649.232838
-17756443.942011
-17869126.651183
-17980849.360356
-18093724.069528
-18206054.778701
-18318737.487873
-17941325.064474
-18052999.773646
-18165330.482819
-18276877.191991
-18389367.901164
-18501362.610336
-18614493.319508
-18726984.028681
-18839922.737853
-18464734.314454
-18575673.023626
-18688259.732799
-18799598.441971
-18911881.151144
-19024867.860316
-19136462.569489
-19249577.278661
-19362627.987834
-18989279.564434
-19101178.273607
-19212660.982779
-19324863.691952
-19436442.401124
-19548997.110297
-19662399.819469
-19774138.528642
-19886693.237814
-19515488.814415
-19627579.523587
-19739430.232760
-19851392.941932
-19962971.651105
-20075478.360277
-20187857.069450
-20299595.778622
-20412230.487795
-20043394.064395
-20155292.773568
-20266487.482740
-20378674.191913
-20491052.901085
-20602839.610258
-20714882.319430
-20827709.028603
-20939239.737775
-20572579.314376
-20683838.023548
-20795912.732721
-20908243.441893
-21019822.151066
-21131576.860238
-21244291.569410
-21355694.278583
-21467960.987755
-21103348.564356
-21214463.273529
-21326313.982701
-21437156.691873
-21549311.401046
-21660986.110218
-21772868.819391
-21885167.528563
-21997770.237736
-21633701.814336
-21744800.523509
-21856027.232681
-21967909.941854
-22080128.651026
-22192011.360199
-22302918.069371
-22415264.778544
-22526939.487716
-22165127.064317
-22275985.773489
-22388124.482662
-22499431.191834
-22610033.901007
-22722044.610179
-22833559.319352
-22945186.028524
-23057772.737697
-22696728.314297
-22808179.023470
-22919693.732642
-23030200.441815
-23141619.150987
-23253517.860160
-23364536.569332
-23476499.278505
-23587501.987677
-23228041.564278
-23339876.273450
-23450702.982623
-23561593.691795
-23672692.400968
-23784815.110140
-23895465.819312
-24006420.528485
-24118847.237657
-23760234.814258
-23871749.523431
-23981376.232603
-24093898.941775
-24204453.650948
-24315200.360120
-24427163.069293
-24537797.778465
-24648768.487638
-24291980.064238
-24402646.773411
-24513137.482583
-24623676.191756
-24734870.900928
-24846161.610101
-24956476.319273
-25067527.028446
-25179025.737618
-24823165.314219
-24933336.023391
-25044450.732564
-25154445.441736
-25265144.150909
-25376306.860081
-25487997.569254
-25597512.278426
-25708514.987599
-25353726.564199
-25463497.273372
-25574083.982544
-25685054.691717
-25794985.400889
-25906148.110062
-26015982.819234
-26126489.528407
-26237428.237579
-25883679.814180
-25993754.523352
-26103781.232525
-26213615.941697
-26324410.650870
-26433957.360042
-26545408.069214
-26655386.778387
-26765093.487559
-26412625.064160
-26522763.773333
-26632022.482505
-26741937.191677
-26852043.900850
-26962934.610022
-27072209.319195
-27182620.028367
-27292214.737540
-26939938.314140
-27049725.023313
-27159559.732485
-27268434.441658
-27379437.150830
-27488951.860003
-27599058.569175
-27708669.278348
-27818359.987520
-27466355.564121
-27575598.273293
-27685672.982466
-27794851.691638
-27904734.400811
-28014425.109983
-28123795.819156
-28233598.528328
-28343097.237501
-27991684.814101
-28100591.523274
-28209738.232446
-28319188.941619
-28428959.650791
-28538090.359964
-28647445.069136
-28757263.778309
-28866250.487481
-28515398.064082
-28623792.773254
-28733403.482427
-28842150.191599
-28950912.900772
-29060459.609944
-29169894.319117
-29278465.028289
-29387307.737461
-29036359.314062
-29145298.023235
-29254492.732407
-29363367.441579
-29471906.150752
-29580988.859924
-29689623.569097
-29798386.278269
-29906860.987442
-29556664.564042
-29665315.273215
-29773533.982387
-29882568.691560
-29990707.400732
-30099790.109905
-30208104.819077
-30316803.528250
-30425198.237422
-30074873.814023
-30182948.523195
-30290975.232368
-30398745.941540
-30507268.650713
-30616319.359885
-30725066.069058
-30833140.778230
-30941247.487403
-30590107.064003
-30698021.773176
-30806960.482348
-30914699.191521
-31022821.900693
-31130576.609866
-31238315.319038
-31346950.028211
-31454848.737383
-31104844.313984
-31212023.023156
-31319473.732329
-31427164.441501
-31535319.150674
-31643265.859846
-31750796.569019
-31858071.278191
-31966209.987363
-31615485.563964
-31722712.273137
-31830290.982309
-31937949.691482
-32045928.400654
-32153283.109826
-32260109.818999
-32367128.528171
-32474707.237344
-32124734.813944
-32231593.523117
-32338980.232289
-32446110.941462
-32553001.650634
-32661028.359807
-32768047.068979
-32874761.778152
-32981044.487324
SCALARS stress_3 float
LOOKUP_TABLE default
259544.999352
19907093.211082
19621939.258436
19337265.305789
19052943.353142
18763501.400496
18472939.447849
18183721.495202
17889927.542556
17597957.589909
17302595.637262
17009313.684616
16711231.731969
16414013.779323
16115099.826676
15815705.874029
15515479.921383
15213621.968736
14914356.016089
14613842.063443
14308944.110796
14007342.158150
13705036.205503
13404394.252856
13102792.300210
12799622.347563
12499012.394916
12196578.442270
11896928.489623
11596382.536977
11298460.584330
10999418.631683
10703384.679037
10407126.726390
10114612.773743
9821650.821097
9530576.868450
9240910.915804
8955180.963157
8669419.010510
8384393.057864
8103783.105217
7825541.152570
7547555.199924
7276641.247277
7007903.294630
6740605.341984
6476571.389337
6217337.436691
5960759.484044
5706453.531397
5457747.578751
5211377.626104
4971279.673457
4733485.720811
4500651.768164
4272009.815518
4046919.862871
3828069.910224
3614147.957578
3404002.004931
3197952.052284
2998974.099638
2804604.146991
2615610.194345
2432120.241698
2253302.289051
2078644.336405
1912498.383758
1751408.431111
1593454.478465
1443820.525818
1301738.573172
1160328.620525
1027398.667878
900612.715232
779778.762585
662944.809938
553054.857292
449628.904645
352250.951999
19786146.585832
-156697.625898
-63639.673251
35242.279395
138476.232042
250702.184689
365040.137335
489202.089982
617524.042628
751285.995275
891447.947922
1038777.900568
1190555.853215
1347901.805862
1511295.758508
1682529.711155
1855715.663801
2038885.616448
2225767.569095
2417001.521741
2616011.474388
2818189.427035
3025071.379681
3240817.332328
3457555.284975
3680213.237621
3908247.190268
4140633.142914
4379195.095561
4620957.048208
4865695.000854
5115200.953501
5367906.906148
5626788.858794
5888390.811441
6152904.764087
6419754.716734
6692908.669381
6968814.622027
7246288.574674
7525650.527321
7810068.479967
8094838.432614
8383064.385260
8671578.337907
8964220.290554
9259934.243200
9556736.195847
9854530.148494
10151492.101140
10453190.053787
10757128.006433
11057001.959080
11360171.911727
11665197.864373
11971247.817020
12278609.769667
12582867.722313
12890421.674960
13196919.627606
13502137.580253
13809307.532900
14116029.485546
14422975.438193
14727905.390840
15033699.343486
15337989.296133
15642887.248780
15945033.201426
16249099.154073
16552493.106719
16852207.059366
17151665.012013
17450610.964659
17747348.917306
18042966.869953
18337720.822599
18632282.775246
18921788.727892
19211998.680539
19499776.633186
19798807.648357
19812236.710882
19824673.773407
19835350.835932
19846283.898457
19859360.960982
19870326.023507
19883563.086032
19893760.148557
216195.936827
175246.874302
134809.811777
92484.749252
52559.686727
7930.624202
-31578.438323
-74735.500848
-114532.563373
-23074.610726
19026.451799
60519.514324
102524.576849
143953.639374
184454.701899
227547.764424
268240.826949
309413.889474
75967.341920
114996.404445
157993.466970
199838.529495
240019.592020
282024.654545
324125.717070
367026.779595
408103.842120
179169.294567
222038.357092
262027.419617
302976.482142
345877.544667
385994.607192
429439.669717
469812.732242
512073.794767
289923.247214
331320.309739
372877.372264
413698.434789
454487.497313
496972.559838
538657.622363
580438.684888
621291.747413
406917.199860
448378.262385
488207.324910
530468.387435
571385.449960
611854.512485
655203.575010
695960.637535
737357.700060
529607.152507
568764.215032
610065.277557
651334.340082
692891.402607
733872.465132
776037.527657
818298.590182
858703.652707
656041.105153
697182.167678
739155.230203
780456.292728
820061.355253
862450.417778
903623.480303
946524.542828
986769.605353
790219.057800
832704.120325
871189.182850
915882.245375
953727.307900
995476.370425
1036521.432950
1078654.495475
1118483.558000
930861.010447
971426.072972
1012951.135497
1052012.198022
1095233.260547
1133686.323072
1175371.385597
1216704.448122
1257845.510647
1077422.963093
1117124.025618
1158969.088143
1196270.150668
1239683.213193
1280568.275718
1320301.338243
1360706.400768
1403703.463293
1229424.915740
1269253.978265
1309019.040790
1350320.103315
1391781.165840
1430810.228365
1472335.290890
1512612.353415
1552473.415940
1387314.868387
1428455.930912
1467484.993437
1508338.055962
1547751.118487
1587772.181011
1628689.243536
1669446.306061
1709179.368586
1550964.821033
1590409.883558
1631326.946083
1672404.008608
1710537.071133
1751102.133658
1791763.196183
1831112.258708
1871677.321233
1720150.773680
1760011.836205
1800064.898730
1839797.961255
1879435.023780
1919744.086305
1961365.148830
1999434.211355
2038175.273880
1896600.726326
1934733.788851
1974274.851376
2014199.913901
2052908.976426
2092450.038951
2134679.101476
2174796.164001
2212737.226526
2076634.678973
2114543.741498
2155332.804023
2193721.866548
2232334.929073
2272323.991598
2312793.054123
2352718.116648
2391331.179173
2264092.631620
2303697.694145
2339814.756670
2381819.819195
2418672.881720
2457893.944245
2497563.006770
2536720.069295
2576549.131820
2455646.584266
2494739.646791
2531464.709316
2571261.771841
2611826.834366
2648071.896891
2688028.959416
2726322.021941
2765255.084466
2653568.536913
2690773.599438
2729450.661963
2766847.724488
2806484.787013
2845609.849538
2883902.912063
2920051.974588
2958825.037113
2855682.489560
2894903.552085
2932044.614610
2970625.677135
3006518.739660
3045643.802185
3083392.864710
3121941.927234
3160970.989759
3063364.442206
3100185.504731
3138382.567256
3177027.629781
3213496.692306
3251469.754831
3289154.817356
3327191.879881
3365740.942406
3278086.394853
3312827.457378
3350960.519903
3386917.582428
3426106.644953
3462863.707478
3500388.770003
3537465.832528
3573998.895053
3495848.347499
3529405.410024
3568562.472549
3604359.535074
3642236.597599
3678161.660124
3715782.722649
3751963.785174
3789936.847699
3716138.300146
3753279.362671
3789684.425196
3827017.487721
3864542.550246
3899219.612771
3935976.675296
3974141.737821
4008434.800346
3944812.252793
3981153.315318
4016630.377843
4053099.440368
4089664.502893
4125941.565418
4161578.627943
4196191.690468
4233524.752993
4176878.205439
4212611.267964
4249464.330489
4282317.393014
4320450.455539
4354583.518064
4391788.580589
4428417.643114
4464278.705639
4412592.158086
4447813.220611
4484250.283136
4518287.345661
4554372.408186
4590041.470711
4625422.533236
4660611.595761
4696920.658286
4654770.110733
4689703.173258
4724220.235783
4758193.298308
4793446.360833
4828699.423358
4862320.485883
4899333.548408
4934778.610932
4900308.063379
4935753.125904
4969054.188429
5002771.250954
5038056.313479
5074013.376004
5106034.438529
5141031.501054
5176028.563579
5148438.016026
5181835.078551
5219104.141076
5251669.203601
5283914.266126
5319167.328651
5354452.391176
5388841.453701
5422942.516226
5402295.968673
5435629.031197
5469794.093722
5502775.156247
5536268.218772
5571233.281297
5606646.343822
5638955.406347
5673312.468872
5659961.921319
5693710.983844
5727652.046369
5759577.108894
5791918.171419
5826563.233944
5859672.296469
5893965.358994
5926530.421519
5921211.873966
5951568.936491
5986277.999016
6019963.061541
6052496.124066
6085669.186591
6117914.249116
6150703.311641
6183076.374166
6184221.826612
6217490.889137
6251399.951662
6281309.014187
6315794.076712
6348167.139237
6380092.201762
6411409.264287
6444230.326812
6451903.779259
6485460.841784
6518249.904309
6549438.966834
6580436.029359
6613001.091884
6643038.154409
6677107.216934
6709544.279459
6724097.731906
6755542.794431
6788011.856956
6816896.919481
6851861.982006
6880843.044531
6913536.107056
6943989.169581
6975338.232106
6999107.684552
7028728.747077
7059821.809602
7091394.872127
7121815.934652
7152812.997177
7183426.059702
7215863.122227
7247244.184752
7276101.637199
7307066.699724
7336975.762249
7366788.824774
7397369.887299
7427086.949824
7458276.012349
7490105.074874
7518446.137399
7556679.589846
7585692.652371
7616529.714896
7644166.777420
7675003.839945
7705552.902470
7736037.964995
7766683.027520
7798224.090045
7839081.542492
7868862.605017
7896243.667542
7926952.730067
7955421.792592
7985042.855117
8017959.917642
8044604.980167
8075570.042692
8123307.495139
8152064.557664
8181621.620189
8210538.682714
8239583.745239
8268340.807764
8298537.870289
8327646.932814
8356083.995339
8412973.447785
8440322.510310
8467991.572835
8496108.635360
8525089.697885
8553718.760410
8582603.822935
8609472.885460
8638773.947985
8702063.400432
8729316.462957
8758329.525482
8784590.588007
8812323.650532
8841336.713057
8869837.775582
8897410.838107
8924727.900632
8991121.353079
9019334.415604
9046043.478129
9075152.540654
9102533.603179
9130810.665704
9159535.728229
9185476.790754
9214169.853279
9286355.305725
9312680.368250
9341245.430775
9366386.493300
9395303.555825
9421212.618350
9449585.680875
9475430.743400
9503899.805925
9581973.258372
9609802.320897
9635679.383422
9662004.445947
9690697.508472
9714718.570997
9742035.633522
9767528.696047
9794557.758572
9878903.211019
9905516.273544
9932929.336069
9957718.398594
9983499.461118
10009568.523643
10036533.586168
10063434.648693
10087903.711218
10176697.163665
10203534.226190
10229091.288715
10254936.351240
10280717.413765
10305026.476290
10332247.538815
10358092.601340
10382721.663865
10477531.116312
10501328.178837
10526597.241362
10552922.303887
10577551.366412
10603748.428937
10629689.491462
10652910.553987
10679555.616512
10780157.068958
10802866.131483
10829031.194008
10854780.256533
10877073.319058
10904038.381583
10927099.444108
10949936.506633
10975013.569158
11082047.021605
11103956.084130
11128745.146655
11154174.209180
11178259.271705
11202408.334230
11225085.396755
11251218.459280
11274439.521805
11384832.974252
11409206.036777
11432491.099302
11455520.161827
11479957.224352
11503082.286877
11525727.349402
11549844.411927
11573801.474452
11688322.926898
11712151.989423
11735085.051948
11757698.114473
11781591.176998
11805548.239523
11828705.302048
11849302.364573
11875179.427098
11993956.879545
12016345.942070
12038639.004595
12060836.067120
12083161.129645
12107662.192170
12131043.254695
12152312.317220
12174413.379745
12298502.832192
12321499.894717
12341616.957242
12365702.019767
12386459.082292
12410736.144817
12430789.207341
12455098.269866
12477583.332391
12603592.784838
12625405.847363
12649202.909888
12668359.972413
12691901.034938
12712466.097463
12735559.159988
12756060.222513
12778481.285038
12910250.737485
12932031.800010
12953876.862535
12974249.925060
12997374.987585
13017428.050110
13038281.112635
13057822.175160
13079251.237685
13216972.690131
13237633.752656
13258806.815181
13280043.877706
13300992.940231
13321206.002756
13342507.065281
13363616.127806
13383701.190331
13523214.642778
13543939.705303
13564120.767828
13584525.830353
13607330.892878
13625079.955403
13644301.017928
13667138.080453
13686295.142978
13830384.595425
13849669.657950
13870010.720475
13889519.783000
13909188.845525
13928953.908050
13949934.970575
13969860.033100
13989625.095625
14135602.548071
14156103.610596
14174748.673121
14196497.735646
14214118.798171
14232155.860696
14253328.923221
14272645.985746
14288859.048271
14440852.500718
14460681.563243
14480222.625768
14500531.688293
14517480.750818
14537469.813343
14555858.875868
14574567.938393
14593981.000918
14748694.453365
14764587.515890
14784736.578415
14804981.640940
14822794.703465
14839359.765990
14858100.828515
14878057.891039
14894558.953564
15050808.406011
15071725.468536
15089122.531061
15106711.593586
15124876.656111
15143329.718636
15161430.781161
15179787.843686
15197248.906211
15356378.358658
15375119.421183
15392548.483708
15410265.546233
15428302.608758
15446467.671283
15462392.733808
15480173.796333
15498818.858858
15660732.311305
15679185.373829
15695046.436354
15714235.498879
15729968.561404
15748197.623929
15764570.686454
15780367.748979
15797188.811504
15964382.263951
15979443.326476
15998376.389001
16014909.451526
16030770.514051
16048039.576576
16065404.639101
16082641.701626
16097542.764151
16266336.216598
16282997.279123
16299946.341648
16315807.404173
16332500.466698
16348297.529223
16365854.591748
16381395.654273
16397320.716798
16569090.169244
16582327.231769
16598444.294294
16617249.356819
16632246.419344
16647979.481869
16664000.544394
16681205.606919
16695786.669444
16868292.121891
16884025.184416
16900046.246941
16914819.309466
16930648.371991
16947693.434516
16960514.497041
16976183.559566
16991628.622091
17168326.074538
17183387.137063
17197200.199588
17214053.262113
17229818.324638
17243599.387163
17258148.449688
17272409.512213
17288878.574738
17465704.027184
17479549.089709
17494802.152234
17509127.214759
17527516.277284
17540241.339809
17554726.402334
17569115.464859
17583728.527384
17762313.979831
17776191.042356
17792180.104881
17806441.167406
17822366.229931
17834579.292456
17848808.354981
17863741.417506
17876082.480031
18056619.932478
18070592.995003
18086166.057527
18099755.120052
18112864.182577
18128725.245102
18141706.307627
18156223.370152
18169364.432677
18352845.885124
18365986.947649
18379288.010174
18393485.072699
18405954.135224
18421431.197749
18433548.260274
18448801.322799
18461078.385324
18643983.837771
18657060.900296
18671577.962821
18686607.025346
18697412.087871
18711193.150396
18725870.212921
18738499.275446
18751640.337971
18935121.790417
18949478.852942
18962875.915467
18975440.977992
18987142.040517
19003163.103042
19013712.165567
19025157.228092
19039546.290617
19223987.743064
19237512.805589
19250493.868114
19263730.930639
19275367.993164
19290013.055689
19299858.118214
19311943.180739
19324892.243264
19513365.695711
19526634.758236
19538047.820761
19549748.883286
19564137.945811
19574911.008336
19586356.070861
19598409.133386
19609950.195911
