# vtk DataFile Version 2.0
Generated volume Mesh
ASCII
DATASET UNSTRUCTURED_GRID
POINTS 891 float
0.005000 0.100000 0.000000
0.005000 0.000000 0.000000
0.005000 0.001250 0.000000
0.005000 0.002500 0.000000
0.005000 0.003750 0.000000
0.005000 0.005000 0.000000
0.005000 0.006250 0.000000
0.005000 0.007500 0.000000
0.005000 0.008750 0.000000
0.005000 0.010000 0.000000
0.005000 0.011250 0.000000
0.005000 0.012500 0.000000
0.005000 0.013750 0.000000
0.005000 0.015000 0.000000
0.005000 0.016250 0.000000
0.005000 0.017500 0.000000
0.005000 0.018750 0.000000
0.005000 0.020000 0.000000
0.005000 0.021250 0.000000
0.005000 0.022500 0.000000
0.005000 0.023750 0.000000
0.005000 0.025000 0.000000
0.005000 0.026250 0.000000
0.005000 0.027500 0.000000
0.005000 0.028750 0.000000
0.005000 0.030000 0.000000
0.005000 0.031250 0.000000
0.005000 0.032500 0.000000
0.005000 0.033750 0.000000
0.005000 0.035000 0.000000
0.005000 0.036250 0.000000
0.005000 0.037500 0.000000
0.005000 0.038750 0.000000
0.005000 0.040000 0.000000
0.005000 0.041250 0.000000
0.005000 0.042500 0.000000
0.005000 0.043750 0.000000
0.005000 0.045000 0.000000
0.005000 0.046250 0.000000
0.005000 0.047500 0.000000
0.005000 0.048750 0.000000
0.005000 0.050000 0.000000
0.005000 0.051250 0.000000
0.005000 0.052500 0.000000
0.005000 0.053750 0.000000
0.005000 0.055000 0.000000
0.005000 0.056250 0.000000
0.005000 0.057500 0.000000
0.005000 0.058750 0.000000
0.005000 0.060000 0.000000
0.005000 0.061250 0.000000
0.005000 0.062500 0.000000
0.005000 0.063750 0.000000
0.005000 0.065000 0.000000
0.005000 0.066250 0.000000
0.005000 0.067500 0.000000
0.005000 0.068750 0.000000
0.005000 0.070000 0.000000
0.005000 0.071250 0.000000
0.005000 0.072500 0.000000
0.005000 0.073750 0.000000
0.005000 0.075000 0.000000
0.005000 0.076250 0.000000
0.005000 0.077500 0.000000
0.005000 0.078750 0.000000
0.005000 0.080000 0.000000
0.005000 0.081250 0.000000
0.005000 0.082500 0.000000
0.005000 0.083750 0.000000
0.005000 0.085000 0.000000
0.005000 0.086250 0.000000
0.005000 0.087500 0.000000
0.005000 0.088750 0.000000
0.005000 0.090000 0.000000
0.005000 0.091250 0.000000
0.005000 0.092500 0.000000
0.005000 0.093750 0.000000
0.005000 0.095000 0.000000
0.005000 0.096250 0.000000
0.005000 0.097500 0.000000
0.005000 0.098750 0.000000
0.000000 0.000000 0.000000
0.000000 0.100000 0.000000
0.000000 0.098750 0.000000
0.000000 0.097500 0.000000
0.000000 0.096250 0.000000
0.000000 0.095000 0.000000
0.000000 0.093750 0.000000
0.000000 0.092500 0.000000
0.000000 0.091250 0.000000
0.000000 0.090000 0.000000
0.000000 0.088750 0.000000
0.000000 0.087500 0.000000
0.000000 0.086250 0.000000
0.000000 0.085000 0.000000
0.000000 0.083750 0.000000
0.000000 0.082500 0.000000
0.000000 0.081250 0.000000
0.000000 0.080000 0.000000
0.000000 0.078750 0.000000
0.000000 0.077500 0.000000
0.000000 0.076250 0.000000
0.000000 0.075000 0.000000
0.000000 0.073750 0.000000
0.000000 0.072500 0.000000
0.000000 0.071250 0.000000
0.000000 0.070000 0.000000
0.000000 0.068750 0.000000
0.000000 0.067500 0.000000
0.000000 0.066250 0.000000
0.000000 0.065000 0.000000
0.000000 0.063750 0.000000
0.000000 0.062500 0.000000
0.000000 0.061250 0.000000
0.000000 0.060000 0.000000
0.000000 0.058750 0.000000
0.000000 0.057500 0.000000
0.000000 0.056250 0.000000
0.000000 0.055000 0.000000
0.000000 0.053750 0.000000
0.000000 0.052500 0.000000
0.000000 0.051250 0.000000
0.000000 0.050000 0.000000
0.000000 0.048750 0.000000
0.000000 0.047500 0.000000
0.000000 0.046250 0.000000
0.000000 0.045000 0.000000
0.000000 0.043750 0.000000
0.000000 0.042500 0.000000
0.000000 0.041250 0.000000
0.000000 0.040000 0.000000
0.000000 0.038750 0.000000
0.000000 0.037500 0.000000
0.000000 0.036250 0.000000
0.000000 0.035000 0.000000
0.000000 0.033750 0.000000
0.000000 0.032500 0.000000
0.000000 0.031250 0.000000
0.000000 0.030000 0.000000
0.000000 0.028750 0.000000
0.000000 0.027500 0.000000
0.000000 0.026250 0.000000
0.000000 0.025000 0.000000
0.000000 0.023750 0.000000
0.000000 0.022500 0.000000
0.000000 0.021250 0.000000
0.000000 0.020000 0.000000
0.000000 0.018750 0.000000
0.000000 0.017500 0.000000
0.000000 0.016250 0.000000
0.000000 0.015000 0.000000
0.000000 0.013750 0.000000
0.000000 0.012500 0.000000
0.000000 0.011250 0.000000
0.000000 0.010000 0.000000
0.000000 0.008750 0.000000
0.000000 0.007500 0.000000
0.000000 0.006250 0.000000
0.000000 0.005000 0.000000
0.000000 0.003750 0.000000
0.000000 0.002500 0.000000
0.000000 0.001250 0.000000
0.000500 0.000000 0.000000
0.001000 0.000000 0.000000
0.001500 0.000000 0.000000
0.002000 0.000000 0.000000
0.002500 0.000000 0.000000
0.003000 0.000000 0.000000
0.003500 0.000000 0.000000
0.004000 0.000000 0.000000
0.004500 0.000000 0.000000
0.004500 0.100000 0.000000
0.004000 0.100000 0.000000
0.003500 0.100000 0.000000
0.003000 0.100000 0.000000
0.002500 0.100000 0.000000
0.002000 0.100000 0.000000
0.001500 0.100000 0.000000
0.001000 0.100000 0.000000
0.000500 0.100000 0.000000
0.000500 0.098750 0.000000
0.001000 0.098750 0.000000
0.001500 0.098750 0.000000
0.002000 0.098750 0.000000
0.002500 0.098750 0.000000
0.003000 0.098750 0.000000
0.003500 0.098750 0.000000
0.004000 0.098750 0.000000
0.004500 0.098750 0.000000
0.000500 0.097500 0.000000
0.001000 0.097500 0.000000
0.001500 0.097500 0.000000
0.002000 0.097500 0.000000
0.002500 0.097500 0.000000
0.003000 0.097500 0.000000
0.003500 0.097500 0.000000
0.004000 0.097500 0.000000
0.004500 0.097500 0.000000
0.000500 0.096250 0.000000
0.001000 0.096250 0.000000
0.001500 0.096250 0.000000
0.002000 0.096250 0.000000
0.002500 0.096250 0.000000
0.003000 0.096250 0.000000
0.003500 0.096250 0.000000
0.004000 0.096250 0.000000
0.004500 0.096250 0.000000
0.000500 0.095000 0.000000
0.001000 0.095000 0.000000
0.001500 0.095000 0.000000
0.002000 0.095000 0.000000
0.002500 0.095000 0.000000
0.003000 0.095000 0.000000
0.003500 0.095000 0.000000
0.004000 0.095000 0.000000
0.004500 0.095000 0.000000
0.000500 0.093750 0.000000
0.001000 0.093750 0.000000
0.001500 0.093750 0.000000
0.002000 0.093750 0.000000
0.002500 0.093750 0.000000
0.003000 0.093750 0.000000
0.003500 0.093750 0.000000
0.004000 0.093750 0.000000
0.004500 0.093750 0.000000
0.000500 0.092500 0.000000
0.001000 0.092500 0.000000
0.001500 0.092500 0.000000
0.002000 0.092500 0.000000
0.002500 0.092500 0.000000
0.003000 0.092500 0.000000
0.003500 0.092500 0.000000
0.004000 0.092500 0.000000
0.004500 0.092500 0.000000
0.000500 0.091250 0.000000
0.001000 0.091250 0.000000
0.001500 0.091250 0.000000
0.002000 0.091250 0.000000
0.002500 0.091250 0.000000
0.003000 0.091250 0.000000
0.003500 0.091250 0.000000
0.004000 0.091250 0.000000
0.004500 0.091250 0.000000
0.000500 0.090000 0.000000
0.001000 0.090000 0.000000
0.001500 0.090000 0.000000
0.002000 0.090000 0.000000
0.002500 0.090000 0.000000
0.003000 0.090000 0.000000
0.003500 0.090000 0.000000
0.004000 0.090000 0.000000
0.004500 0.090000 0.000000
0.000500 0.088750 0.000000
0.001000 0.088750 0.000000
0.001500 0.088750 0.000000
0.002000 0.088750 0.000000
0.002500 0.088750 0.000000
0.003000 0.088750 0.000000
0.003500 0.088750 0.000000
0.004000 0.088750 0.000000
0.004500 0.088750 0.000000
0.000500 0.087500 0.000000
0.001000 0.087500 0.000000
0.001500 0.087500 0.000000
0.002000 0.087500 0.000000
0.002500 0.087500 0.000000
0.003000 0.087500 0.000000
0.003500 0.087500 0.000000
0.004000 0.087500 0.000000
0.004500 0.087500 0.000000
0.000500 0.086250 0.000000
0.001000 0.086250 0.000000
0.001500 0.086250 0.000000
0.002000 0.086250 0.000000
0.002500 0.086250 0.000000
0.003000 0.086250 0.000000
0.003500 0.086250 0.000000
0.004000 0.086250 0.000000
0.004500 0.086250 0.000000
0.000500 0.085000 0.000000
0.001000 0.085000 0.000000
0.001500 0.085000 0.000000
0.002000 0.085000 0.000000
0.002500 0.085000 0.000000
0.003000 0.085000 0.000000
0.003500 0.085000 0.000000
0.004000 0.085000 0.000000
0.004500 0.085000 0.000000
0.000500 0.083750 0.000000
0.001000 0.083750 0.000000
0.001500 0.083750 0.000000
0.002000 0.083750 0.000000
0.002500 0.083750 0.000000
0.003000 0.083750 0.000000
0.003500 0.083750 0.000000
0.004000 0.083750 0.000000
0.004500 0.083750 0.000000
0.000500 0.082500 0.000000
0.001000 0.082500 0.000000
0.001500 0.082500 0.000000
0.002000 0.082500 0.000000
0.002500 0.082500 0.000000
0.003000 0.082500 0.000000
0.003500 0.082500 0.000000
0.004000 0.082500 0.000000
0.004500 0.082500 0.000000
0.000500 0.081250 0.000000
0.001000 0.081250 0.000000
0.001500 0.081250 0.000000
0.002000 0.081250 0.000000
0.002500 0.081250 0.000000
0.003000 0.081250 0.000000
0.003500 0.081250 0.000000
0.004000 0.081250 0.000000
0.004500 0.081250 0.000000
0.000500 0.080000 0.000000
0.001000 0.080000 0.000000
0.001500 0.080000 0.000000
0.002000 0.080000 0.000000
0.002500 0.080000 0.000000
0.003000 0.080000 0.000000
0.003500 0.080000 0.000000
0.004000 0.080000 0.000000
0.004500 0.080000 0.000000
0.000500 0.078750 0.000000
0.001000 0.078750 0.000000
0.001500 0.078750 0.000000
0.002000 0.078750 0.000000
0.002500 0.078750 0.000000
0.003000 0.078750 0.000000
0.003500 0.078750 0.000000
0.004000 0.078750 0.000000
0.004500 0.078750 0.000000
0.000500 0.077500 0.000000
0.001000 0.077500 0.000000
0.001500 0.077500 0.000000
0.002000 0.077500 0.000000
0.002500 0.077500 0.000000
0.003000 0.077500 0.000000
0.003500 0.077500 0.000000
0.004000 0.077500 0.000000
0.004500 0.077500 0.000000
0.000500 0.076250 0.000000
0.001000 0.076250 0.000000
0.001500 0.076250 0.000000
0.002000 0.076250 0.000000
0.002500 0.076250 0.000000
0.003000 0.076250 0.000000
0.003500 0.076250 0.000000
0.004000 0.076250 0.000000
0.004500 0.076250 0.000000
0.000500 0.075000 0.000000
0.001000 0.075000 0.000000
0.001500 0.075000 0.000000
0.002000 0.075000 0.000000
0.002500 0.075000 0.000000
0.003000 0.075000 0.000000
0.003500 0.075000 0.000000
0.004000 0.075000 0.000000
0.004500 0.075000 0.000000
0.000500 0.073750 0.000000
0.001000 0.073750 0.000000
0.001500 0.073750 0.000000
0.002000 0.073750 0.000000
0.002500 0.073750 0.000000
0.003000 0.073750 0.000000
0.003500 0.073750 0.000000
0.004000 0.073750 0.000000
0.004500 0.073750 0.000000
0.000500 0.072500 0.000000
0.001000 0.072500 0.000000
0.001500 0.072500 0.000000
0.002000 0.072500 0.000000
0.002500 0.072500 0.000000
0.003000 0.072500 0.000000
0.003500 0.072500 0.000000
0.004000 0.072500 0.000000
0.004500 0.072500 0.000000
0.000500 0.071250 0.000000
0.001000 0.071250 0.000000
0.001500 0.071250 0.000000
0.002000 0.071250 0.000000
0.002500 0.071250 0.000000
0.003000 0.071250 0.000000
0.003500 0.071250 0.000000
0.004000 0.071250 0.000000
0.004500 0.071250 0.000000
0.000500 0.070000 0.000000
0.001000 0.070000 0.000000
0.001500 0.070000 0.000000
0.002000 0.070000 0.000000
0.002500 0.070000 0.000000
0.003000 0.070000 0.000000
0.003500 0.070000 0.000000
0.004000 0.070000 0.000000
0.004500 0.070000 0.000000
0.000500 0.068750 0.000000
0.001000 0.068750 0.000000
0.001500 0.068750 0.000000
0.002000 0.068750 0.000000
0.002500 0.068750 0.000000
0.003000 0.068750 0.000000
0.003500 0.068750 0.000000
0.004000 0.068750 0.000000
0.004500 0.068750 0.000000
0.000500 0.067500 0.000000
0.001000 0.067500 0.000000
0.001500 0.067500 0.000000
0.002000 0.067500 0.000000
0.002500 0.067500 0.000000
0.003000 0.067500 0.000000
0.003500 0.067500 0.000000
0.004000 0.067500 0.000000
0.004500 0.067500 0.000000
0.000500 0.066250 0.000000
0.001000 0.066250 0.000000
0.001500 0.066250 0.000000
0.002000 0.066250 0.000000
0.002500 0.066250 0.000000
0.003000 0.066250 0.000000
0.003500 0.066250 0.000000
0.004000 0.066250 0.000000
0.004500 0.066250 0.000000
0.000500 0.065000 0.000000
0.001000 0.065000 0.000000
0.001500 0.065000 0.000000
0.002000 0.065000 0.000000
0.002500 0.065000 0.000000
0.003000 0.065000 0.000000
0.003500 0.065000 0.000000
0.004000 0.065000 0.000000
0.004500 0.065000 0.000000
0.000500 0.063750 0.000000
0.001000 0.063750 0.000000
0.001500 0.063750 0.000000
0.002000 0.063750 0.000000
0.002500 0.063750 0.000000
0.003000 0.063750 0.000000
0.003500 0.063750 0.000000
0.004000 0.063750 0.000000
0.004500 0.063750 0.000000
0.000500 0.062500 0.000000
0.001000 0.062500 0.000000
0.001500 0.062500 0.000000
0.002000 0.062500 0.000000
0.002500 0.062500 0.000000
0.003000 0.062500 0.000000
0.003500 0.062500 0.000000
0.004000 0.062500 0.000000
0.004500 0.062500 0.000000
0.000500 0.061250 0.000000
0.001000 0.061250 0.000000
0.001500 0.061250 0.000000
0.002000 0.061250 0.000000
0.002500 0.061250 0.000000
0.003000 0.061250 0.000000
0.003500 0.061250 0.000000
0.004000 0.061250 0.000000
0.004500 0.061250 0.000000
0.000500 0.060000 0.000000
0.001000 0.060000 0.000000
0.001500 0.060000 0.000000
0.002000 0.060000 0.000000
0.002500 0.060000 0.000000
0.003000 0.060000 0.000000
0.003500 0.060000 0.000000
0.004000 0.060000 0.000000
0.004500 0.060000 0.000000
0.000500 0.058750 0.000000
0.001000 0.058750 0.000000
0.001500 0.058750 0.000000
0.002000 0.058750 0.000000
0.002500 0.058750 0.000000
0.003000 0.058750 0.000000
0.003500 0.058750 0.000000
0.004000 0.058750 0.000000
0.004500 0.058750 0.000000
0.000500 0.057500 0.000000
0.001000 0.057500 0.000000
0.001500 0.057500 0.000000
0.002000 0.057500 0.000000
0.002500 0.057500 0.000000
0.003000 0.057500 0.000000
0.003500 0.057500 0.000000
0.004000 0.057500 0.000000
0.004500 0.057500 0.000000
0.000500 0.056250 0.000000
0.001000 0.056250 0.000000
0.001500 0.056250 0.000000
0.002000 0.056250 0.000000
0.002500 0.056250 0.000000
0.003000 0.056250 0.000000
0.003500 0.056250 0.000000
0.004000 0.056250 0.000000
0.004500 0.056250 0.000000
0.000500 0.055000 0.000000
0.001000 0.055000 0.000000
0.001500 0.055000 0.000000
0.002000 0.055000 0.000000
0.002500 0.055000 0.000000
0.003000 0.055000 0.000000
0.003500 0.055000 0.000000
0.004000 0.055000 0.000000
0.004500 0.055000 0.000000
0.000500 0.053750 0.000000
0.001000 0.053750 0.000000
0.001500 0.053750 0.000000
0.002000 0.053750 0.000000
0.002500 0.053750 0.000000
0.003000 0.053750 0.000000
0.003500 0.053750 0.000000
0.004000 0.053750 0.000000
0.004500 0.053750 0.000000
0.000500 0.052500 0.000000
0.001000 0.052500 0.000000
0.001500 0.052500 0.000000
0.002000 0.052500 0.000000
0.002500 0.052500 0.000000
0.003000 0.052500 0.000000
0.003500 0.052500 0.000000
0.004000 0.052500 0.000000
0.004500 0.052500 0.000000
0.000500 0.051250 0.000000
0.001000 0.051250 0.000000
0.001500 0.051250 0.000000
0.002000 0.051250 0.000000
0.002500 0.051250 0.000000
0.003000 0.051250 0.000000
0.003500 0.051250 0.000000
0.004000 0.051250 0.000000
0.004500 0.051250 0.000000
0.000500 0.050000 0.000000
0.001000 0.050000 0.000000
0.001500 0.050000 0.000000
0.002000 0.050000 0.000000
0.002500 0.050000 0.000000
0.003000 0.050000 0.000000
0.003500 0.050000 0.000000
0.004000 0.050000 0.000000
0.004500 0.050000 0.000000
0.000500 0.048750 0.000000
0.001000 0.048750 0.000000
0.001500 0.048750 0.000000
0.002000 0.048750 0.000000
0.002500 0.048750 0.000000
0.003000 0.048750 0.000000
0.003500 0.048750 0.000000
0.004000 0.048750 0.000000
0.004500 0.048750 0.000000
0.000500 0.047500 0.000000
0.001000 0.047500 0.000000
0.001500 0.047500 0.000000
0.002000 0.047500 0.000000
0.002500 0.047500 0.000000
0.003000 0.047500 0.000000
0.003500 0.047500 0.000000
0.004000 0.047500 0.000000
0.004500 0.047500 0.000000
0.000500 0.046250 0.000000
0.001000 0.046250 0.000000
0.001500 0.046250 0.000000
0.002000 0.046250 0.000000
0.002500 0.046250 0.000000
0.003000 0.046250 0.000000
0.003500 0.046250 0.000000
0.004000 0.046250 0.000000
0.004500 0.046250 0.000000
0.000500 0.045000 0.000000
0.001000 0.045000 0.000000
0.001500 0.045000 0.000000
0.002000 0.045000 0.000000
0.002500 0.045000 0.000000
0.003000 0.045000 0.000000
0.003500 0.045000 0.000000
0.004000 0.045000 0.000000
0.004500 0.045000 0.000000
0.000500 0.043750 0.000000
0.001000 0.043750 0.000000
0.001500 0.043750 0.000000
0.002000 0.043750 0.000000
0.002500 0.043750 0.000000
0.003000 0.043750 0.000000
0.003500 0.043750 0.000000
0.004000 0.043750 0.000000
0.004500 0.043750 0.000000
0.000500 0.042500 0.000000
0.001000 0.042500 0.000000
0.001500 0.042500 0.000000
0.002000 0.042500 0.000000
0.002500 0.042500 0.000000
0.003000 0.042500 0.000000
0.003500 0.042500 0.000000
0.004000 0.042500 0.000000
0.004500 0.042500 0.000000
0.000500 0.041250 0.000000
0.001000 0.041250 0.000000
0.001500 0.041250 0.000000
0.002000 0.041250 0.000000
0.002500 0.041250 0.000000
0.003000 0.041250 0.000000
0.003500 0.041250 0.000000
0.004000 0.041250 0.000000
0.004500 0.041250 0.000000
0.000500 0.040000 0.000000
0.001000 0.040000 0.000000
0.001500 0.040000 0.000000
0.002000 0.040000 0.000000
0.002500 0.040000 0.000000
0.003000 0.040000 0.000000
0.003500 0.040000 0.000000
0.004000 0.040000 0.000000
0.004500 0.040000 0.000000
0.000500 0.038750 0.000000
0.001000 0.038750 0.000000
0.001500 0.038750 0.000000
0.002000 0.038750 0.000000
0.002500 0.038750 0.000000
0.003000 0.038750 0.000000
0.003500 0.038750 0.000000
0.004000 0.038750 0.000000
0.004500 0.038750 0.000000
0.000500 0.037500 0.000000
0.001000 0.037500 0.000000
0.001500 0.037500 0.000000
0.002000 0.037500 0.000000
0.002500 0.037500 0.000000
0.003000 0.037500 0.000000
0.003500 0.037500 0.000000
0.004000 0.037500 0.000000
0.004500 0.037500 0.000000
0.000500 0.036250 0.000000
0.001000 0.036250 0.000000
0.001500 0.036250 0.000000
0.002000 0.036250 0.000000
0.002500 0.036250 0.000000
0.003000 0.036250 0.000000
0.003500 0.036250 0.000000
0.004000 0.036250 0.000000
0.004500 0.036250 0.000000
0.000500 0.035000 0.000000
0.001000 0.035000 0.000000
0.001500 0.035000 0.000000
0.002000 0.035000 0.000000
0.002500 0.035000 0.000000
0.003000 0.035000 0.000000
0.003500 0.035000 0.000000
0.004000 0.035000 0.000000
0.004500 0.035000 0.000000
0.000500 0.033750 0.000000
0.001000 0.033750 0.000000
0.001500 0.033750 0.000000
0.002000 0.033750 0.000000
0.002500 0.033750 0.000000
0.003000 0.033750 0.000000
0.003500 0.033750 0.000000
0.004000 0.033750 0.000000
0.004500 0.033750 0.000000
0.000500 0.032500 0.000000
0.001000 0.032500 0.000000
0.001500 0.032500 0.000000
0.002000 0.032500 0.000000
0.002500 0.032500 0.000000
0.003000 0.032500 0.000000
0.003500 0.032500 0.000000
0.004000 0.032500 0.000000
0.004500 0.032500 0.000000
0.000500 0.031250 0.000000
0.001000 0.031250 0.000000
0.001500 0.031250 0.000000
0.002000 0.031250 0.000000
0.002500 0.031250 0.000000
0.003000 0.031250 0.000000
0.003500 0.031250 0.000000
0.004000 0.031250 0.000000
0.004500 0.031250 0.000000
0.000500 0.030000 0.000000
0.001000 0.030000 0.000000
0.001500 0.030000 0.000000
0.002000 0.030000 0.000000
0.002500 0.030000 0.000000
0.003000 0.030000 0.000000
0.003500 0.030000 0.000000
0.004000 0.030000 0.000000
0.004500 0.030000 0.000000
0.000500 0.028750 0.000000
0.001000 0.028750 0.000000
0.001500 0.028750 0.000000
0.002000 0.028750 0.000000
0.002500 0.028750 0.000000
0.003000 0.028750 0.000000
0.003500 0.028750 0.000000
0.004000 0.028750 0.000000
0.004500 0.028750 0.000000
0.000500 0.027500 0.000000
0.001000 0.027500 0.000000
0.001500 0.027500 0.000000
0.002000 0.027500 0.000000
0.002500 0.027500 0.000000
0.003000 0.027500 0.000000
0.003500 0.027500 0.000000
0.004000 0.027500 0.000000
0.004500 0.027500 0.000000
0.000500 0.026250 0.000000
0.001000 0.026250 0.000000
0.001500 0.026250 0.000000
0.002000 0.026250 0.000000
0.002500 0.026250 0.000000
0.003000 0.026250 0.000000
0.003500 0.026250 0.000000
0.004000 0.026250 0.000000
0.004500 0.026250 0.000000
0.000500 0.025000 0.000000
0.001000 0.025000 0.000000
0.001500 0.025000 0.000000
0.002000 0.025000 0.000000
0.002500 0.025000 0.000000
0.003000 0.025000 0.000000
0.003500 0.025000 0.000000
0.004000 0.025000 0.000000
0.004500 0.025000 0.000000
0.000500 0.023750 0.000000
0.001000 0.023750 0.000000
0.001500 0.023750 0.000000
0.002000 0.023750 0.000000
0.002500 0.023750 0.000000
0.003000 0.023750 0.000000
0.003500 0.023750 0.000000
0.004000 0.023750 0.000000
0.004500 0.023750 0.000000
0.000500 0.022500 0.000000
0.001000 0.022500 0.000000
0.001500 0.022500 0.000000
0.002000 0.022500 0.000000
0.002500 0.022500 0.000000
0.003000 0.022500 0.000000
0.003500 0.022500 0.000000
0.004000 0.022500 0.000000
0.004500 0.022500 0.000000
0.000500 0.021250 0.000000
0.001000 0.021250 0.000000
0.001500 0.021250 0.000000
0.002000 0.021250 0.000000
0.002500 0.021250 0.000000
0.003000 0.021250 0.000000
0.003500 0.021250 0.000000
0.004000 0.021250 0.000000
0.004500 0.021250 0.000000
0.000500 0.020000 0.000000
0.001000 0.020000 0.000000
0.001500 0.020000 0.000000
0.002000 0.020000 0.000000
0.002500 0.020000 0.000000
0.003000 0.020000 0.000000
0.003500 0.020000 0.000000
0.004000 0.020000 0.000000
0.004500 0.020000 0.000000
0.000500 0.018750 0.000000
0.001000 0.018750 0.000000
0.001500 0.018750 0.000000
0.002000 0.018750 0.000000
0.002500 0.018750 0.000000
0.003000 0.018750 0.000000
0.003500 0.018750 0.000000
0.004000 0.018750 0.000000
0.004500 0.018750 0.000000
0.000500 0.017500 0.000000
0.001000 0.017500 0.000000
0.001500 0.017500 0.000000
0.002000 0.017500 0.000000
0.002500 0.017500 0.000000
0.003000 0.017500 0.000000
0.003500 0.017500 0.000000
0.004000 0.017500 0.000000
0.004500 0.017500 0.000000
0.000500 0.016250 0.000000
0.001000 0.016250 0.000000
0.001500 0.016250 0.000000
0.002000 0.016250 0.000000
0.002500 0.016250 0.000000
0.003000 0.016250 0.000000
0.003500 0.016250 0.000000
0.004000 0.016250 0.000000
0.004500 0.016250 0.000000
0.000500 0.015000 0.000000
0.001000 0.015000 0.000000
0.001500 0.015000 0.000000
0.002000 0.015000 0.000000
0.002500 0.015000 0.000000
0.003000 0.015000 0.000000
0.003500 0.015000 0.000000
0.004000 0.015000 0.000000
0.004500 0.015000 0.000000
0.000500 0.013750 0.000000
0.001000 0.013750 0.000000
0.001500 0.013750 0.000000
0.002000 0.013750 0.000000
0.002500 0.013750 0.000000
0.003000 0.013750 0.000000
0.003500 0.013750 0.000000
0.004000 0.013750 0.000000
0.004500 0.013750 0.000000
0.000500 0.012500 0.000000
0.001000 0.012500 0.000000
0.001500 0.012500 0.000000
0.002000 0.012500 0.000000
0.002500 0.012500 0.000000
0.003000 0.012500 0.000000
0.003500 0.012500 0.000000
0.004000 0.012500 0.000000
0.004500 0.012500 0.000000
0.000500 0.011250 0.000000
0.001000 0.011250 0.000000
0.001500 0.011250 0.000000
0.002000 0.011250 0.000000
0.002500 0.011250 0.000000
0.003000 0.011250 0.000000
0.003500 0.011250 0.000000
0.004000 0.011250 0.000000
0.004500 0.011250 0.000000
0.000500 0.010000 0.000000
0.001000 0.010000 0.000000
0.001500 0.010000 0.000000
0.002000 0.010000 0.000000
0.002500 0.010000 0.000000
0.003000 0.010000 0.000000
0.003500 0.010000 0.000000
0.004000 0.010000 0.000000
0.004500 0.010000 0.000000
0.000500 0.008750 0.000000
0.001000 0.008750 0.000000
0.001500 0.008750 0.000000
0.002000 0.008750 0.000000
0.002500 0.008750 0.000000
0.003000 0.008750 0.000000
0.003500 0.008750 0.000000
0.004000 0.008750 0.000000
0.004500 0.008750 0.000000
0.000500 0.007500 0.000000
0.001000 0.007500 0.000000
0.001500 0.007500 0.000000
0.002000 0.007500 0.000000
0.002500 0.007500 0.000000
0.003000 0.007500 0.000000
0.003500 0.007500 0.000000
0.004000 0.007500 0.000000
0.004500 0.007500 0.000000
0.000500 0.006250 0.000000
0.001000 0.006250 0.000000
0.001500 0.006250 0.000000
0.002000 0.006250 0.000000
0.002500 0.006250 0.000000
0.003000 0.006250 0.000000
0.003500 0.006250 0.000000
0.004000 0.006250 0.000000
0.004500 0.006250 0.000000
0.000500 0.005000 0.000000
0.001000 0.005000 0.000000
0.001500 0.005000 0.000000
0.002000 0.005000 0.000000
0.002500 0.005000 0.000000
0.003000 0.005000 0.000000
0.003500 0.005000 0.000000
0.004000 0.005000 0.000000
0.004500 0.005000 0.000000
0.000500 0.003750 0.000000
0.001000 0.003750 0.000000
0.001500 0.003750 0.000000
0.002000 0.003750 0.000000
0.002500 0.003750 0.000000
0.003000 0.003750 0.000000
0.003500 0.003750 0.000000
0.004000 0.003750 0.000000
0.004500 0.003750 0.000000
0.000500 0.002500 0.000000
0.001000 0.002500 0.000000
0.001500 0.002500 0.000000
0.002000 0.002500 0.000000
0.002500 0.002500 0.000000
0.003000 0.002500 0.000000
0.003500 0.002500 0.000000
0.004000 0.002500 0.000000
0.004500 0.002500 0.000000
0.000500 0.001250 0.000000
0.001000 0.001250 0.000000
0.001500 0.001250 0.000000
0.002000 0.001250 0.000000
0.002500 0.001250 0.000000
0.003000 0.001250 0.000000
0.003500 0.001250 0.000000
0.004000 0.001250 0.000000
0.004500 0.001250 0.000000
CELLS 800 4000
4 82 83 180 179
4 179 180 181 178
4 178 181 182 177
4 177 182 183 176
4 176 183 184 175
4 175 184 185 174
4 174 185 186 173
4 173 186 187 172
4 172 187 188 171
4 171 188 80 0
4 83 84 189 180
4 180 189 190 181
4 181 190 191 182
4 182 191 192 183
4 183 192 193 184
4 184 193 194 185
4 185 194 195 186
4 186 195 196 187
4 187 196 197 188
4 188 197 79 80
4 84 85 198 189
4 189 198 199 190
4 190 199 200 191
4 191 200 201 192
4 192 201 202 193
4 193 202 203 194
4 194 203 204 195
4 195 204 205 196
4 196 205 206 197
4 197 206 78 79
4 85 86 207 198
4 198 207 208 199
4 199 208 209 200
4 200 209 210 201
4 201 210 211 202
4 202 211 212 203
4 203 212 213 204
4 204 213 214 205
4 205 214 215 206
4 206 215 77 78
4 86 87 216 207
4 207 216 217 208
4 208 217 218 209
4 209 218 219 210
4 210 219 220 211
4 211 220 221 212
4 212 221 222 213
4 213 222 223 214
4 214 223 224 215
4 215 224 76 77
4 87 88 225 216
4 216 225 226 217
4 217 226 227 218
4 218 227 228 219
4 219 228 229 220
4 220 229 230 221
4 221 230 231 222
4 222 231 232 223
4 223 232 233 224
4 224 233 75 76
4 88 89 234 225
4 225 234 235 226
4 226 235 236 227
4 227 236 237 228
4 228 237 238 229
4 229 238 239 230
4 230 239 240 231
4 231 240 241 232
4 232 241 242 233
4 233 242 74 75
4 89 90 243 234
4 234 243 244 235
4 235 244 245 236
4 236 245 246 237
4 237 246 247 238
4 238 247 248 239
4 239 248 249 240
4 240 249 250 241
4 241 250 251 242
4 242 251 73 74
4 90 91 252 243
4 243 252 253 244
4 244 253 254 245
4 245 254 255 246
4 246 255 256 247
4 247 256 257 248
4 248 257 258 249
4 249 258 259 250
4 250 259 260 251
4 251 260 72 73
4 91 92 261 252
4 252 261 262 253
4 253 262 263 254
4 254 263 264 255
4 255 264 265 256
4 256 265 266 257
4 257 266 267 258
4 258 267 268 259
4 259 268 269 260
4 260 269 71 72
4 92 93 270 261
4 261 270 271 262
4 262 271 272 263
4 263 272 273 264
4 264 273 274 265
4 265 274 275 266
4 266 275 276 267
4 267 276 277 268
4 268 277 278 269
4 269 278 70 71
4 93 94 279 270
4 270 279 280 271
4 271 280 281 272
4 272 281 282 273
4 273 282 283 274
4 274 283 284 275
4 275 284 285 276
4 276 285 286 277
4 277 286 287 278
4 278 287 69 70
4 94 95 288 279
4 279 288 289 280
4 280 289 290 281
4 281 290 291 282
4 282 291 292 283
4 283 292 293 284
4 284 293 294 285
4 285 294 295 286
4 286 295 296 287
4 287 296 68 69
4 95 96 297 288
4 288 297 298 289
4 289 298 299 290
4 290 299 300 291
4 291 300 301 292
4 292 301 302 293
4 293 302 303 294
4 294 303 304 295
4 295 304 305 296
4 296 305 67 68
4 96 97 306 297
4 297 306 307 298
4 298 307 308 299
4 299 308 309 300
4 300 309 310 301
4 301 310 311 302
4 302 311 312 303
4 303 312 313 304
4 304 313 314 305
4 305 314 66 67
4 97 98 315 306
4 306 315 316 307
4 307 316 317 308
4 308 317 318 309
4 309 318 319 310
4 310 319 320 311
4 311 320 321 312
4 312 321 322 313
4 313 322 323 314
4 314 323 65 66
4 98 99 324 315
4 315 324 325 316
4 316 325 326 317
4 317 326 327 318
4 318 327 328 319
4 319 328 329 320
4 320 329 330 321
4 321 330 331 322
4 322 331 332 323
4 323 332 64 65
4 99 100 333 324
4 324 333 334 325
4 325 334 335 326
4 326 335 336 327
4 327 336 337 328
4 328 337 338 329
4 329 338 339 330
4 330 339 340 331
4 331 340 341 332
4 332 341 63 64
4 100 101 342 333
4 333 342 343 334
4 334 343 344 335
4 335 344 345 336
4 336 345 346 337
4 337 346 347 338
4 338 347 348 339
4 339 348 349 340
4 340 349 350 341
4 341 350 62 63
4 101 102 351 342
4 342 351 352 343
4 343 352 353 344
4 344 353 354 345
4 345 354 355 346
4 346 355 356 347
4 347 356 357 348
4 348 357 358 349
4 349 358 359 350
4 350 359 61 62
4 102 103 360 351
4 351 360 361 352
4 352 361 362 353
4 353 362 363 354
4 354 363 364 355
4 355 364 365 356
4 356 365 366 357
4 357 366 367 358
4 358 367 368 359
4 359 368 60 61
4 103 104 369 360
4 360 369 370 361
4 361 370 371 362
4 362 371 372 363
4 363 372 373 364
4 364 373 374 365
4 365 374 375 366
4 366 375 376 367
4 367 376 377 368
4 368 377 59 60
4 104 105 378 369
4 369 378 379 370
4 370 379 380 371
4 371 380 381 372
4 372 381 382 373
4 373 382 383 374
4 374 383 384 375
4 375 384 385 376
4 376 385 386 377
4 377 386 58 59
4 105 106 387 378
4 378 387 388 379
4 379 388 389 380
4 380 389 390 381
4 381 390 391 382
4 382 391 392 383
4 383 392 393 384
4 384 393 394 385
4 385 394 395 386
4 386 395 57 58
4 106 107 396 387
4 387 396 397 388
4 388 397 398 389
4 389 398 399 390
4 390 399 400 391
4 391 400 401 392
4 392 401 402 393
4 393 402 403 394
4 394 403 404 395
4 395 404 56 57
4 107 108 405 396
4 396 405 406 397
4 397 406 407 398
4 398 407 408 399
4 399 408 409 400
4 400 409 410 401
4 401 410 411 402
4 402 411 412 403
4 403 412 413 404
4 404 413 55 56
4 108 109 414 405
4 405 414 415 406
4 406 415 416 407
4 407 416 417 408
4 408 417 418 409
4 409 418 419 410
4 410 419 420 411
4 411 420 421 412
4 412 421 422 413
4 413 422 54 55
4 109 110 423 414
4 414 423 424 415
4 415 424 425 416
4 416 425 426 417
4 417 426 427 418
4 418 427 428 419
4 419 428 429 420
4 420 429 430 421
4 421 430 431 422
4 422 431 53 54
4 110 111 432 423
4 423 432 433 424
4 424 433 434 425
4 425 434 435 426
4 426 435 436 427
4 427 436 437 428
4 428 437 438 429
4 429 438 439 430
4 430 439 440 431
4 431 440 52 53
4 111 112 441 432
4 432 441 442 433
4 433 442 443 434
4 434 443 444 435
4 435 444 445 436
4 436 445 446 437
4 437 446 447 438
4 438 447 448 439
4 439 448 449 440
4 440 449 51 52
4 112 113 450 441
4 441 450 451 442
4 442 451 452 443
4 443 452 453 444
4 444 453 454 445
4 445 454 455 446
4 446 455 456 447
4 447 456 457 448
4 448 457 458 449
4 449 458 50 51
4 113 114 459 450
4 450 459 460 451
4 451 460 461 452
4 452 461 462 453
4 453 462 463 454
4 454 463 464 455
4 455 464 465 456
4 456 465 466 457
4 457 466 467 458
4 458 467 49 50
4 114 115 468 459
4 459 468 469 460
4 460 469 470 461
4 461 470 471 462
4 462 471 472 463
4 463 472 473 464
4 464 473 474 465
4 465 474 475 466
4 466 475 476 467
4 467 476 48 49
4 115 116 477 468
4 468 477 478 469
4 469 478 479 470
4 470 479 480 471
4 471 480 481 472
4 472 481 482 473
4 473 482 483 474
4 474 483 484 475
4 475 484 485 476
4 476 485 47 48
4 116 117 486 477
4 477 486 487 478
4 478 487 488 479
4 479 488 489 480
4 480 489 490 481
4 481 490 491 482
4 482 491 492 483
4 483 492 493 484
4 484 493 494 485
4 485 494 46 47
4 117 118 495 486
4 486 495 496 487
4 487 496 497 488
4 488 497 498 489
4 489 498 499 490
4 490 499 500 491
4 491 500 501 492
4 492 501 502 493
4 493 502 503 494
4 494 503 45 46
4 118 119 504 495
4 495 504 505 496
4 496 505 506 497
4 497 506 507 498
4 498 507 508 499
4 499 508 509 500
4 500 509 510 501
4 501 510 511 502
4 502 511 512 503
4 503 512 44 45
4 119 120 513 504
4 504 513 514 505
4 505 514 515 506
4 506 515 516 507
4 507 516 517 508
4 508 517 518 509
4 509 518 519 510
4 510 519 520 511
4 511 520 521 512
4 512 521 43 44
4 120 121 522 513
4 513 522 523 514
4 514 523 524 515
4 515 524 525 516
4 516 525 526 517
4 517 526 527 518
4 518 527 528 519
4 519 528 529 520
4 520 529 530 521
4 521 530 42 43
4 121 122 531 522
4 522 531 532 523
4 523 532 533 524
4 524 533 534 525
4 525 534 535 526
4 526 535 536 527
4 527 536 537 528
4 528 537 538 529
4 529 538 539 530
4 530 539 41 42
4 122 123 540 531
4 531 540 541 532
4 532 541 542 533
4 533 542 543 534
4 534 543 544 535
4 535 544 545 536
4 536 545 546 537
4 537 546 547 538
4 538 547 548 539
4 539 548 40 41
4 123 124 549 540
4 540 549 550 541
4 541 550 551 542
4 542 551 552 543
4 543 552 553 544
4 544 553 554 545
4 545 554 555 546
4 546 555 556 547
4 547 556 557 548
4 548 557 39 40
4 124 125 558 549
4 549 558 559 550
4 550 559 560 551
4 551 560 561 552
4 552 561 562 553
4 553 562 563 554
4 554 563 564 555
4 555 564 565 556
4 556 565 566 557
4 557 566 38 39
4 125 126 567 558
4 558 567 568 559
4 559 568 569 560
4 560 569 570 561
4 561 570 571 562
4 562 571 572 563
4 563 572 573 564
4 564 573 574 565
4 565 574 575 566
4 566 575 37 38
4 126 127 576 567
4 567 576 577 568
4 568 577 578 569
4 569 578 579 570
4 570 579 580 571
4 571 580 581 572
4 572 581 582 573
4 573 582 583 574
4 574 583 584 575
4 575 584 36 37
4 127 128 585 576
4 576 585 586 577
4 577 586 587 578
4 578 587 588 579
4 579 588 589 580
4 580 589 590 581
4 581 590 591 582
4 582 591 592 583
4 583 592 593 584
4 584 593 35 36
4 128 129 594 585
4 585 594 595 586
4 586 595 596 587
4 587 596 597 588
4 588 597 598 589
4 589 598 599 590
4 590 599 600 591
4 591 600 601 592
4 592 601 602 593
4 593 602 34 35
4 129 130 603 594
4 594 603 604 595
4 595 604 605 596
4 596 605 606 597
4 597 606 607 598
4 598 607 608 599
4 599 608 609 600
4 600 609 610 601
4 601 610 611 602
4 602 611 33 34
4 130 131 612 603
4 603 612 613 604
4 604 613 614 605
4 605 614 615 606
4 606 615 616 607
4 607 616 617 608
4 608 617 618 609
4 609 618 619 610
4 610 619 620 611
4 611 620 32 33
4 131 132 621 612
4 612 621 622 613
4 613 622 623 614
4 614 623 624 615
4 615 624 625 616
4 616 625 626 617
4 617 626 627 618
4 618 627 628 619
4 619 628 629 620
4 620 629 31 32
4 132 133 630 621
4 621 630 631 622
4 622 631 632 623
4 623 632 633 624
4 624 633 634 625
4 625 634 635 626
4 626 635 636 627
4 627 636 637 628
4 628 637 638 629
4 629 638 30 31
4 133 134 639 630
4 630 639 640 631
4 631 640 641 632
4 632 641 642 633
4 633 642 643 634
4 634 643 644 635
4 635 644 645 636
4 636 645 646 637
4 637 646 647 638
4 638 647 29 30
4 134 135 648 639
4 639 648 649 640
4 640 649 650 641
4 641 650 651 642
4 642 651 652 643
4 643 652 653 644
4 644 653 654 645
4 645 654 655 646
4 646 655 656 647
4 647 656 28 29
4 135 136 657 648
4 648 657 658 649
4 649 658 659 650
4 650 659 660 651
4 651 660 661 652
4 652 661 662 653
4 653 662 663 654
4 654 663 664 655
4 655 664 665 656
4 656 665 27 28
4 136 137 666 657
4 657 666 667 658
4 658 667 668 659
4 659 668 669 660
4 660 669 670 661
4 661 670 671 662
4 662 671 672 663
4 663 672 673 664
4 664 673 674 665
4 665 674 26 27
4 137 138 675 666
4 666 675 676 667
4 667 676 677 668
4 668 677 678 669
4 669 678 679 670
4 670 679 680 671
4 671 680 681 672
4 672 681 682 673
4 673 682 683 674
4 674 683 25 26
4 138 139 684 675
4 675 684 685 676
4 676 685 686 677
4 677 686 687 678
4 678 687 688 679
4 679 688 689 680
4 680 689 690 681
4 681 690 691 682
4 682 691 692 683
4 683 692 24 25
4 139 140 693 684
4 684 693 694 685
4 685 694 695 686
4 686 695 696 687
4 687 696 697 688
4 688 697 698 689
4 689 698 699 690
4 690 699 700 691
4 691 700 701 692
4 692 701 23 24
4 140 141 702 693
4 693 702 703 694
4 694 703 704 695
4 695 704 705 696
4 696 705 706 697
4 697 706 707 698
4 698 707 708 699
4 699 708 709 700
4 700 709 710 701
4 701 710 22 23
4 141 142 711 702
4 702 711 712 703
4 703 712 713 704
4 704 713 714 705
4 705 714 715 706
4 706 715 716 707
4 707 716 717 708
4 708 717 718 709
4 709 718 719 710
4 710 719 21 22
4 142 143 720 711
4 711 720 721 712
4 712 721 722 713
4 713 722 723 714
4 714 723 724 715
4 715 724 725 716
4 716 725 726 717
4 717 726 727 718
4 718 727 728 719
4 719 728 20 21
4 143 144 729 720
4 720 729 730 721
4 721 730 731 722
4 722 731 732 723
4 723 732 733 724
4 724 733 734 725
4 725 734 735 726
4 726 735 736 727
4 727 736 737 728
4 728 737 19 20
4 144 145 738 729
4 729 738 739 730
4 730 739 740 731
4 731 740 741 732
4 732 741 742 733
4 733 742 743 734
4 734 743 744 735
4 735 744 745 736
4 736 745 746 737
4 737 746 18 19
4 145 146 747 738
4 738 747 748 739
4 739 748 749 740
4 740 749 750 741
4 741 750 751 742
4 742 751 752 743
4 743 752 753 744
4 744 753 754 745
4 745 754 755 746
4 746 755 17 18
4 146 147 756 747
4 747 756 757 748
4 748 757 758 749
4 749 758 759 750
4 750 759 760 751
4 751 760 761 752
4 752 761 762 753
4 753 762 763 754
4 754 763 764 755
4 755 764 16 17
4 147 148 765 756
4 756 765 766 757
4 757 766 767 758
4 758 767 768 759
4 759 768 769 760
4 760 769 770 761
4 761 770 771 762
4 762 771 772 763
4 763 772 773 764
4 764 773 15 16
4 148 149 774 765
4 765 774 775 766
4 766 775 776 767
4 767 776 777 768
4 768 777 778 769
4 769 778 779 770
4 770 779 780 771
4 771 780 781 772
4 772 781 782 773
4 773 782 14 15
4 149 150 783 774
4 774 783 784 775
4 775 784 785 776
4 776 785 786 777
4 777 786 787 778
4 778 787 788 779
4 779 788 789 780
4 780 789 790 781
4 781 790 791 782
4 782 791 13 14
4 150 151 792 783
4 783 792 793 784
4 784 793 794 785
4 785 794 795 786
4 786 795 796 787
4 787 796 797 788
4 788 797 798 789
4 789 798 799 790
4 790 799 800 791
4 791 800 12 13
4 151 152 801 792
4 792 801 802 793
4 793 802 803 794
4 794 803 804 795
4 795 804 805 796
4 796 805 806 797
4 797 806 807 798
4 798 807 808 799
4 799 808 809 800
4 800 809 11 12
4 152 153 810 801
4 801 810 811 802
4 802 811 812 803
4 803 812 813 804
4 804 813 814 805
4 805 814 815 806
4 806 815 816 807
4 807 816 817 808
4 808 817 818 809
4 809 818 10 11
4 153 154 819 810
4 810 819 820 811
4 811 820 821 812
4 812 821 822 813
4 813 822 823 814
4 814 823 824 815
4 815 824 825 816
4 816 825 826 817
4 817 826 827 818
4 818 827 9 10
4 154 155 828 819
4 819 828 829 820
4 820 829 830 821
4 821 830 831 822
4 822 831 832 823
4 823 832 833 824
4 824 833 834 825
4 825 834 835 826
4 826 835 836 827
4 827 836 8 9
4 155 156 837 828
4 828 837 838 829
4 829 838 839 830
4 830 839 840 831
4 831 840 841 832
4 832 841 842 833
4 833 842 843 834
4 834 843 844 835
4 835 844 845 836
4 836 845 7 8
4 156 157 846 837
4 837 846 847 838
4 838 847 848 839
4 839 848 849 840
4 840 849 850 841
4 841 850 851 842
4 842 851 852 843
4 843 852 853 844
4 844 853 854 845
4 845 854 6 7
4 157 158 855 846
4 846 855 856 847
4 847 856 857 848
4 848 857 858 849
4 849 858 859 850
4 850 859 860 851
4 851 860 861 852
4 852 861 862 853
4 853 862 863 854
4 854 863 5 6
4 158 159 864 855
4 855 864 865 856
4 856 865 866 857
4 857 866 867 858
4 858 867 868 859
4 859 868 869 860
4 860 869 870 861
4 861 870 871 862
4 862 871 872 863
4 863 872 4 5
4 159 160 873 864
4 864 873 874 865
4 865 874 875 866
4 866 875 876 867
4 867 876 877 868
4 868 877 878 869
4 869 878 879 870
4 870 879 880 871
4 871 880 881 872
4 872 881 3 4
4 160 161 882 873
4 873 882 883 874
4 874 883 884 875
4 875 884 885 876
4 876 885 886 877
4 877 886 887 878
4 878 887 888 879
4 879 888 889 880
4 880 889 890 881
4 881 890 2 3
4 161 81 162 882
4 882 162 163 883
4 883 163 164 884
4 884 164 165 885
4 885 165 166 886
4 886 166 167 887
4 887 167 168 888
4 888 168 169 889
4 889 169 170 890
4 890 170 1 2
CELL_TYPES 800
9
9
9
9
9
9
9
9
9
9
9
9
9
9
9
9
9
9
9
9
9
9
9
9
9
9
9
9
9
9
9
9
9
9
9
9
9
9
9
9
9
9
9
9
9
9
9
9
9
9
9
9
9
9
9
9
9
9
9
9
9
9
9
9
9
9
9
9
9
9
9
9
9
9
9
9
9
9
9
9
9
9
9
9
9
9
9
9
9
9
9
9
9
9
9
9
9
9
9
9
9
9
9
9
9
9
9
9
9
9
9
9
9
9
9
9
9
9
9
9
9
9
9
9
9
9
9
9
9
9
9
9
9
9
9
9
9
9
9
9
9
9
9
9
9
9
9
9
9
9
9
9
9
9
9
9
9
9
9
9
9
9
9
9
9
9
9
9
9
9
9
9
9
9
9
9
9
9
9
9
9
9
9
9
9
9
9
9
9
9
9
9
9
9
9
9
9
9
9
9
9
9
9
9
9
9
9
9
9
9
9
9
9
9
9
9
9
9
9
9
9
9
9
9
9
9
9
9
9
9
9
9
9
9
9
9
9
9
9
9
9
9
9
9
9
9
9
9
9
9
9
9
9
9
9
9
9
9
9
9
9
9
9
9
9
9
9
9
9
9
9
9
9
9
9
9
9
9
9
9
9
9
9
9
9
9
9
9
9
9
9
9
9
9
9
9
9
9
9
9
9
9
9
9
9
9
9
9
9
9
9
9
9
9
9
9
9
9
9
9
9
9
9
9
9
9
9
9
9
9
9
9
9
9
9
9
9
9
9
9
9
9
9
9
9
9
9
9
9
9
9
9
9
9
9
9
9
9
9
9
9
9
9
9
9
9
9
9
9
9
9
9
9
9
9
9
9
9
9
9
9
9
9
9
9
9
9
9
9
9
9
9
9
9
9
9
9
9
9
9
9
9
9
9
9
9
9
9
9
9
9
9
9
9
9
9
9
9
9
9
9
9
9
9
9
9
9
9
9
9
9
9
9
9
9
9
9
9
9
9
9
9
9
9
9
9
9
9
9
9
9
9
9
9
9
9
9
9
9
9
9
9
9
9
9
9
9
9
9
9
9
9
9
9
9
9
9
9
9
9
9
9
9
9
9
9
9
9
9
9
9
9
9
9
9
9
9
9
9
9
9
9
9
9
9
9
9
9
9
9
9
9
9
9
9
9
9
9
9
9
9
9
9
9
9
9
9
9
9
9
9
9
9
9
9
9
9
9
9
9
9
9
9
9
9
9
9
9
9
9
9
9
9
9
9
9
9
9
9
9
9
9
9
9
9
9
9
9
9
9
9
9
9
9
9
9
9
9
9
9
9
9
9
9
9
9
9
9
9
9
9
9
9
9
9
9
9
9
9
9
9
9
9
9
9
9
9
9
9
9
9
9
9
9
9
9
9
9
9
9
9
9
9
9
9
9
9
9
9
9
9
9
9
9
9
9
9
9
9
9
9
9
9
9
9
9
9
9
9
9
9
9
9
9
9
9
9
9
9
9
9
9
9
9
9
9
9
9
9
9
9
9
9
9
9
9
9
9
9
9
9
9
9
9
9
9
9
9
9
9
9
9
9
9
9
9
9
9
9
9
9
9
9
9
9
9
9
9
9
9
9
9
9
9
9
9
9
9
9
9
9
9
9
9
9
9
9
9
9
9
9
9
9
9
9
9
9
9
9
9
9
9
9
9
9
9
9
9
9
9
9
9
9
9
9
9
9
9
9
9
9
9
9
9
9
9
9
9
9
9
9
9
9
9
9
9
9
9
9
9
9
9
9
9
9
9
9
9
9
9
9
9
9
9
9
9
9
9
9
9
POINT_DATA 891
SCALARS u1 float
LOOKUP_TABLE default
-4e-16
-6e-07
-6e-07
-6e-07
-6e-07
-6e-07
-6e-07
-6e-07
-6e-07
-6e-07
-6e-07
-6e-07
-6e-07
-6e-07
-6e-07
-6e-07
-6e-07
-6e-07
-6e-07
-6e-07
-6e-07
-6e-07
-6e-07
-6e-07
-6e-07
-6e-07
-6e-07
-6e-07
-6e-07
-6e-07
-6e-07
-6e-07
-6e-07
-6e-07
-6e-07
-6e-07
-6e-07
-6e-07
-6e-07
-6e-07
-6e-07
-6e-07
-6e-07
-6e-07
-6e-07
-6e-07
-6e-07
-6e-07
-6e-07
-6e-07
-6e-07
-6e-07
-6e-07
-6e-07
-6e-07
-6e-07
-6e-07
-6e-07
-6e-07
-6e-07
-6e-07
-6e-07
-6e-07
-6e-07
-6e-07
-6e-07
-6e-07
-6e-07
-6e-07
-6e-07
-6e-07
-6e-07
-6e-07
-6e-07
-6e-07
-6e-07
-6e-07
-6e-07
-6e-07
-6e-07
-5e-07
6e-07
7e-18
5e-07
6e-07
6e-07
6e-07
6e-07
6e-07
6e-07
6e-07
6e-07
6e-07
6e-07
6e-07
6e-07
6e-07
6e-07
6e-07
6e-07
6e-07
6e-07
6e-07
6e-07
6e-07
6e-07
6e-07
6e-07
6e-07
6e-07
6e-07
6e-07
6e-07
6e-07
6e-07
6e-07
6e-07
6e-07
6e-07
6e-07
6e-07
6e-07
6e-07
6e-07
6e-07
6e-07
6e-07
6e-07
6e-07
6e-07
6e-07
6e-07
6e-07
6e-07
6e-07
6e-07
6e-07
6e-07
6e-07
6e-07
6e-07
6e-07
6e-07
6e-07
6e-07
6e-07
6e-07
6e-07
6e-07
6e-07
6e-07
6e-07
6e-07
6e-07
6e-07
6e-07
6e-07
6e-07
6e-07
6e-07
6e-07
6e-07
5e-07
4e-07
2e-07
1e-07
3e-16
-1e-07
-2e-07
-4e-07
-5e-07
-6e-16
8e-17
4e-16
5e-16
-6e-16
-2e-16
1e-15
9e-17
1e-16
3e-07
2e-07
1e-07
7e-08
1e-14
-7e-08
-1e-07
-2e-07
-3e-07
5e-07
3e-07
2e-07
1e-07
1e-14
-1e-07
-2e-07
-3e-07
-5e-07
5e-07
4e-07
2e-07
1e-07
9e-15
-1e-07
-2e-07
-4e-07
-5e-07
5e-07
4e-07
2e-07
1e-07
8e-15
-1e-07
-2e-07
-4e-07
-5e-07
5e-07
4e-07
2e-07
1e-07
5e-15
-1e-07
-2e-07
-4e-07
-5e-07
5e-07
4e-07
2e-07
1e-07
2e-15
-1e-07
-2e-07
-4e-07
-5e-07
5e-07
4e-07
2e-07
1e-07
-7e-16
-1e-07
-2e-07
-4e-07
-5e-07
5e-07
4e-07
2e-07
1e-07
-3e-15
-1e-07
-2e-07
-4e-07
-5e-07
5e-07
4e-07
2e-07
1e-07
-4e-15
-1e-07
-2e-07
-4e-07
-5e-07
5e-07
4e-07
2e-07
1e-07
-4e-15
-1e-07
-2e-07
-4e-07
-5e-07
5e-07
4e-07
2e-07
1e-07
-4e-15
-1e-07
-2e-07
-4e-07
-5e-07
5e-07
4e-07
2e-07
1e-07
-4e-15
-1e-07
-2e-07
-4e-07
-5e-07
5e-07
4e-07
2e-07
1e-07
-3e-15
-1e-07
-2e-07
-4e-07
-5e-07
5e-07
4e-07
2e-07
1e-07
-3e-15
-1e-07
-2e-07
-4e-07
-5e-07
5e-07
4e-07
2e-07
1e-07
-2e-15
-1e-07
-2e-07
-4e-07
-5e-07
5e-07
4e-07
2e-07
1e-07
-2e-15
-1e-07
-2e-07
-4e-07
-5e-07
5e-07
4e-07
2e-07
1e-07
-1e-15
-1e-07
-2e-07
-4e-07
-5e-07
5e-07
4e-07
2e-07
1e-07
-8e-16
-1e-07
-2e-07
-4e-07
-5e-07
5e-07
4e-07
2e-07
1e-07
-5e-16
-1e-07
-2e-07
-4e-07
-5e-07
5e-07
4e-07
2e-07
1e-07
-3e-16
-1e-07
-2e-07
-4e-07
-5e-07
5e-07
4e-07
2e-07
1e-07
-2e-16
-1e-07
-2e-07
-4e-07
-5e-07
5e-07
4e-07
2e-07
1e-07
-3e-17
-1e-07
-2e-07
-4e-07
-5e-07
5e-07
4e-07
2e-07
1e-07
6e-17
-1e-07
-2e-07
-4e-07
-5e-07
5e-07
4e-07
2e-07
1e-07
1e-16
-1e-07
-2e-07
-4e-07
-5e-07
5e-07
4e-07
2e-07
1e-07
2e-16
-1e-07
-2e-07
-4e-07
-5e-07
5e-07
4e-07
2e-07
1e-07
2e-16
-1e-07
-2e-07
-4e-07
-5e-07
5e-07
4e-07
2e-07
1e-07
2e-16
-1e-07
-2e-07
-4e-07
-5e-07
5e-07
4e-07
2e-07
1e-07
2e-16
-1e-07
-2e-07
-4e-07
-5e-07
5e-07
4e-07
2e-07
1e-07
3e-16
-1e-07
-2e-07
-4e-07
-5e-07
5e-07
4e-07
2e-07
1e-07
3e-16
-1e-07
-2e-07
-4e-07
-5e-07
5e-07
4e-07
2e-07
1e-07
3e-16
-1e-07
-2e-07
-4e-07
-5e-07
5e-07
4e-07
2e-07
1e-07
3e-16
-1e-07
-2e-07
-4e-07
-5e-07
5e-07
4e-07
2e-07
1e-07
3e-16
-1e-07
-2e-07
-4e-07
-5e-07
5e-07
4e-07
2e-07
1e-07
3e-16
-1e-07
-2e-07
-4e-07
-5e-07
5e-07
4e-07
2e-07
1e-07
3e-16
-1e-07
-2e-07
-4e-07
-5e-07
5e-07
4e-07
2e-07
1e-07
3e-16
-1e-07
-2e-07
-4e-07
-5e-07
5e-07
4e-07
2e-07
1e-07
3e-16
-1e-07
-2e-07
-4e-07
-5e-07
5e-07
4e-07
2e-07
1e-07
3e-16
-1e-07
-2e-07
-4e-07
-5e-07
5e-07
4e-07
2e-07
1e-07
3e-16
-1e-07
-2e-07
-4e-07
-5e-07
5e-07
4e-07
2e-07
1e-07
3e-16
-1e-07
-2e-07
-4e-07
-5e-07
5e-07
4e-07
2e-07
1e-07
3e-16
-1e-07
-2e-07
-4e-07
-5e-07
5e-07
4e-07
2e-07
1e-07
3e-16
-1e-07
-2e-07
-4e-07
-5e-07
5e-07
4e-07
2e-07
1e-07
3e-16
-1e-07
-2e-07
-4e-07
-5e-07
5e-07
4e-07
2e-07
1e-07
3e-16
-1e-07
-2e-07
-4e-07
-5e-07
5e-07
4e-07
2e-07
1e-07
3e-16
-1e-07
-2e-07
-4e-07
-5e-07
5e-07
4e-07
2e-07
1e-07
3e-16
-1e-07
-2e-07
-4e-07
-5e-07
5e-07
4e-07
2e-07
1e-07
3e-16
-1e-07
-2e-07
-4e-07
-5e-07
5e-07
4e-07
2e-07
1e-07
3e-16
-1e-07
-2e-07
-4e-07
-5e-07
5e-07
4e-07
2e-07
1e-07
3e-16
-1e-07
-2e-07
-4e-07
-5e-07
5e-07
4e-07
2e-07
1e-07
3e-16
-1e-07
-2e-07
-4e-07
-5e-07
5e-07
4e-07
2e-07
1e-07
3e-16
-1e-07
-2e-07
-4e-07
-5e-07
5e-07
4e-07
2e-07
1e-07
3e-16
-1e-07
-2e-07
-4e-07
-5e-07
5e-07
4e-07
2e-07
1e-07
3e-16
-1e-07
-2e-07
-4e-07
-5e-07
5e-07
4e-07
2e-07
1e-07
3e-16
-1e-07
-2e-07
-4e-07
-5e-07
5e-07
4e-07
2e-07
1e-07
3e-16
-1e-07
-2e-07
-4e-07
-5e-07
5e-07
4e-07
2e-07
1e-07
3e-16
-1e-07
-2e-07
-4e-07
-5e-07
5e-07
4e-07
2e-07
1e-07
3e-16
-1e-07
-2e-07
-4e-07
-5e-07
5e-07
4e-07
2e-07
1e-07
3e-16
-1e-07
-2e-07
-4e-07
-5e-07
5e-07
4e-07
2e-07
1e-07
3e-16
-1e-07
-2e-07
-4e-07
-5e-07
5e-07
4e-07
2e-07
1e-07
3e-16
-1e-07
-2e-07
-4e-07
-5e-07
5e-07
4e-07
2e-07
1e-07
3e-16
-1e-07
-2e-07
-4e-07
-5e-07
5e-07
4e-07
2e-07
1e-07
3e-16
-1e-07
-2e-07
-4e-07
-5e-07
5e-07
4e-07
2e-07
1e-07
3e-16
-1e-07
-2e-07
-4e-07
-5e-07
5e-07
4e-07
2e-07
1e-07
3e-16
-1e-07
-2e-07
-4e-07
-5e-07
5e-07
4e-07
2e-07
1e-07
3e-16
-1e-07
-2e-07
-4e-07
-5e-07
5e-07
4e-07
2e-07
1e-07
3e-16
-1e-07
-2e-07
-4e-07
-5e-07
5e-07
4e-07
2e-07
1e-07
3e-16
-1e-07
-2e-07
-4e-07
-5e-07
5e-07
4e-07
2e-07
1e-07
3e-16
-1e-07
-2e-07
-4e-07
-5e-07
5e-07
4e-07
2e-07
1e-07
3e-16
-1e-07
-2e-07
-4e-07
-5e-07
5e-07
4e-07
2e-07
1e-07
3e-16
-1e-07
-2e-07
-4e-07
-5e-07
5e-07
4e-07
2e-07
1e-07
3e-16
-1e-07
-2e-07
-4e-07
-5e-07
5e-07
4e-07
2e-07
1e-07
3e-16
-1e-07
-2e-07
-4e-07
-5e-07
5e-07
4e-07
2e-07
1e-07
3e-16
-1e-07
-2e-07
-4e-07
-5e-07
5e-07
4e-07
2e-07
1e-07
3e-16
-1e-07
-2e-07
-4e-07
-5e-07
5e-07
4e-07
2e-07
1e-07
3e-16
-1e-07
-2e-07
-4e-07
-5e-07
5e-07
4e-07
2e-07
1e-07
3e-16
-1e-07
-2e-07
-4e-07
-5e-07
5e-07
4e-07
2e-07
1e-07
3e-16
-1e-07
-2e-07
-4e-07
-5e-07
5e-07
4e-07
2e-07
1e-07
3e-16
-1e-07
-2e-07
-4e-07
-5e-07
5e-07
4e-07
2e-07
1e-07
3e-16
-1e-07
-2e-07
-4e-07
-5e-07
SCALARS u2 float
LOOKUP_TABLE default
-9e-18
-0.0001
-0.0001
-0.0001
-0.0001
-0.0001
-0.0001
-0.0001
-9e-05
-9e-05
-9e-05
-9e-05
-9e-05
-9e-05
-9e-05
-9e-05
-8e-05
-8e-05
-8e-05
-8e-05
-8e-05
-8e-05
-8e-05
-8e-05
-7e-05
-7e-05
-7e-05
-7e-05
-7e-05
-7e-05
-7e-05
-6e-05
-6e-05
-6e-05
-6e-05
-6e-05
-6e-05
-6e-05
-6e-05
-5e-05
-5e-05
-5e-05
-5e-05
-5e-05
-5e-05
-5e-05
-5e-05
-4e-05
-4e-05
-4e-05
-4e-05
-4e-05
-4e-05
-4e-05
-4e-05
-3e-05
-3e-05
-3e-05
-3e-05
-3e-05
-3e-05
-3e-05
-2e-05
-2e-05
-2e-05
-2e-05
-2e-05
-2e-05
-2e-05
-2e-05
-1e-05
-1e-05
-1e-05
-1e-05
-9e-06
-8e-06
-6e-06
-5e-06
-4e-06
-3e-06
-1e-06
-0.0001
-4e-17
-1e-06
-3e-06
-4e-06
-5e-06
-6e-06
-8e-06
-9e-06
-1e-05
-1e-05
-1e-05
-1e-05
-2e-05
-2e-05
-2e-05
-2e-05
-2e-05
-2e-05
-2e-05
-2e-05
-3e-05
-3e-05
-3e-05
-3e-05
-3e-05
-3e-05
-3e-05
-4e-05
-4e-05
-4e-05
-4e-05
-4e-05
-4e-05
-4e-05
-4e-05
-5e-05
-5e-05
-5e-05
-5e-05
-5e-05
-5e-05
-5e-05
-5e-05
-6e-05
-6e-05
-6e-05
-6e-05
-6e-05
-6e-05
-6e-05
-6e-05
-7e-05
-7e-05
-7e-05
-7e-05
-7e-05
-7e-05
-7e-05
-8e-05
-8e-05
-8e-05
-8e-05
-8e-05
-8e-05
-8e-05
-8e-05
-9e-05
-9e-05
-9e-05
-9e-05
-9e-05
-9e-05
-9e-05
-9e-05
-0.0001
-0.0001
-0.0001
-0.0001
-0.0001
-0.0001
-0.0001
-0.0001
-0.0001
-0.0001
-0.0001
-0.0001
-0.0001
-0.0001
-0.0001
-6e-16
-1e-16
-2e-17
-2e-16
-2e-16
-5e-17
3e-16
5e-16
1e-17
-1e-06
-1e-06
-1e-06
-1e-06
-1e-06
-1e-06
-1e-06
-1e-06
-1e-06
-3e-06
-3e-06
-3e-06
-3e-06
-2e-06
-3e-06
-3e-06
-3e-06
-3e-06
-4e-06
-4e-06
-4e-06
-4e-06
-4e-06
-4e-06
-4e-06
-4e-06
-4e-06
-5e-06
-5e-06
-5e-06
-5e-06
-5e-06
-5e-06
-5e-06
-5e-06
-5e-06
-6e-06
-6e-06
-6e-06
-6e-06
-6e-06
-6e-06
-6e-06
-6e-06
-6e-06
-8e-06
-8e-06
-8e-06
-8e-06
-8e-06
-8e-06
-8e-06
-8e-06
-8e-06
-9e-06
-9e-06
-9e-06
-9e-06
-9e-06
-9e-06
-9e-06
-9e-06
-9e-06
-1e-05
-1e-05
-1e-05
-1e-05
-1e-05
-1e-05
-1e-05
-1e-05
-1e-05
-1e-05
-1e-05
-1e-05
-1e-05
-1e-05
-1e-05
-1e-05
-1e-05
-1e-05
-1e-05
-1e-05
-1e-05
-1e-05
-1e-05
-1e-05
-1e-05
-1e-05
-1e-05
-1e-05
-1e-05
-1e-05
-1e-05
-1e-05
-1e-05
-1e-05
-1e-05
-1e-05
-2e-05
-2e-05
-2e-05
-2e-05
-2e-05
-2e-05
-2e-05
-2e-05
-2e-05
-2e-05
-2e-05
-2e-05
-2e-05
-2e-05
-2e-05
-2e-05
-2e-05
-2e-05
-2e-05
-2e-05
-2e-05
-2e-05
-2e-05
-2e-05
-2e-05
-2e-05
-2e-05
-2e-05
-2e-05
-2e-05
-2e-05
-2e-05
-2e-05
-2e-05
-2e-05
-2e-05
-2e-05
-2e-05
-2e-05
-2e-05
-2e-05
-2e-05
-2e-05
-2e-05
-2e-05
-2e-05
-2e-05
-2e-05
-2e-05
-2e-05
-2e-05
-2e-05
-2e-05
-2e-05
-2e-05
-2e-05
-2e-05
-2e-05
-2e-05
-2e-05
-2e-05
-2e-05
-2e-05
-2e-05
-2e-05
-2e-05
-2e-05
-2e-05
-2e-05
-2e-05
-2e-05
-2e-05
-3e-05
-3e-05
-3e-05
-3e-05
-3e-05
-3e-05
-3e-05
-3e-05
-3e-05
-3e-05
-3e-05
-3e-05
-3e-05
-3e-05
-3e-05
-3e-05
-3e-05
-3e-05
-3e-05
-3e-05
-3e-05
-3e-05
-3e-05
-3e-05
-3e-05
-3e-05
-3e-05
-3e-05
-3e-05
-3e-05
-3e-05
-3e-05
-3e-05
-3e-05
-3e-05
-3e-05
-3e-05
-3e-05
-3e-05
-3e-05
-3e-05
-3e-05
-3e-05
-3e-05
-3e-05
-3e-05
-3e-05
-3e-05
-3e-05
-3e-05
-3e-05
-3e-05
-3e-05
-3e-05
-3e-05
-3e-05
-3e-05
-3e-05
-3e-05
-3e-05
-3e-05
-3e-05
-3e-05
-4e-05
-4e-05
-4e-05
-4e-05
-4e-05
-4e-05
-4e-05
-4e-05
-4e-05
-4e-05
-4e-05
-4e-05
-4e-05
-4e-05
-4e-05
-4e-05
-4e-05
-4e-05
-4e-05
-4e-05
-4e-05
-4e-05
-4e-05
-4e-05
-4e-05
-4e-05
-4e-05
-4e-05
-4e-05
-4e-05
-4e-05
-4e-05
-4e-05
-4e-05
-4e-05
-4e-05
-4e-05
-4e-05
-4e-05
-4e-05
-4e-05
-4e-05
-4e-05
-4e-05
-4e-05
-4e-05
-4e-05
-4e-05
-4e-05
-4e-05
-4e-05
-4e-05
-4e-05
-4e-05
-4e-05
-4e-05
-4e-05
-4e-05
-4e-05
-4e-05
-4e-05
-4e-05
-4e-05
-4e-05
-4e-05
-4e-05
-4e-05
-4e-05
-4e-05
-4e-05
-4e-05
-4e-05
-5e-05
-5e-05
-5e-05
-5e-05
-5e-05
-5e-05
-5e-05
-5e-05
-5e-05
-5e-05
-5e-05
-5e-05
-5e-05
-5e-05
-5e-05
-5e-05
-5e-05
-5e-05
-5e-05
-5e-05
-5e-05
-5e-05
-5e-05
-5e-05
-5e-05
-5e-05
-5e-05
-5e-05
-5e-05
-5e-05
-5e-05
-5e-05
-5e-05
-5e-05
-5e-05
-5e-05
-5e-05
-5e-05
-5e-05
-5e-05
-5e-05
-5e-05
-5e-05
-5e-05
-5e-05
-5e-05
-5e-05
-5e-05
-5e-05
-5e-05
-5e-05
-5e-05
-5e-05
-5e-05
-5e-05
-5e-05
-5e-05
-5e-05
-5e-05
-5e-05
-5e-05
-5e-05
-5e-05
-5e-05
-5e-05
-5e-05
-5e-05
-5e-05
-5e-05
-5e-05
-5e-05
-5e-05
-6e-05
-6e-05
-6e-05
-6e-05
-6e-05
-6e-05
-6e-05
-6e-05
-6e-05
-6e-05
-6e-05
-6e-05
-6e-05
-6e-05
-6e-05
-6e-05
-6e-05
-6e-05
-6e-05
-6e-05
-6e-05
-6e-05
-6e-05
-6e-05
-6e-05
-6e-05
-6e-05
-6e-05
-6e-05
-6e-05
-6e-05
-6e-05
-6e-05
-6e-05
-6e-05
-6e-05
-6e-05
-6e-05
-6e-05
-6e-05
-6e-05
-6e-05
-6e-05
-6e-05
-6e-05
-6e-05
-6e-05
-6e-05
-6e-05
-6e-05
-6e-05
-6e-05
-6e-05
-6e-05
-6e-05
-6e-05
-6e-05
-6e-05
-6e-05
-6e-05
-6e-05
-6e-05
-6e-05
-6e-05
-6e-05
-6e-05
-6e-05
-6e-05
-6e-05
-6e-05
-6e-05
-6e-05
-7e-05
-7e-05
-7e-05
-7e-05
-7e-05
-7e-05
-7e-05
-7e-05
-7e-05
-7e-05
-7e-05
-7e-05
-7e-05
-7e-05
-7e-05
-7e-05
-7e-05
-7e-05
-7e-05
-7e-05
-7e-05
-7e-05
-7e-05
-7e-05
-7e-05
-7e-05
-7e-05
-7e-05
-7e-05
-7e-05
-7e-05
-7e-05
-7e-05
-7e-05
-7e-05
-7e-05
-7e-05
-7e-05
-7e-05
-7e-05
-7e-05
-7e-05
-7e-05
-7e-05
-7e-05
-7e-05
-7e-05
-7e-05
-7e-05
-7e-05
-7e-05
-7e-05
-7e-05
-7e-05
-7e-05
-7e-05
-7e-05
-7e-05
-7e-05
-7e-05
-7e-05
-7e-05
-7e-05
-8e-05
-8e-05
-8e-05
-8e-05
-8e-05
-8e-05
-8e-05
-8e-05
-8e-05
-8e-05
-8e-05
-8e-05
-8e-05
-8e-05
-8e-05
-8e-05
-8e-05
-8e-05
-8e-05
-8e-05
-8e-05
-8e-05
-8e-05
-8e-05
-8e-05
-8e-05
-8e-05
-8e-05
-8e-05
-8e-05
-8e-05
-8e-05
-8e-05
-8e-05
-8e-05
-8e-05
-8e-05
-8e-05
-8e-05
-8e-05
-8e-05
-8e-05
-8e-05
-8e-05
-8e-05
-8e-05
-8e-05
-8e-05
-8e-05
-8e-05
-8e-05
-8e-05
-8e-05
-8e-05
-8e-05
-8e-05
-8e-05
-8e-05
-8e-05
-8e-05
-8e-05
-8e-05
-8e-05
-8e-05
-8e-05
-8e-05
-8e-05
-8e-05
-8e-05
-8e-05
-8e-05
-8e-05
-9e-05
-9e-05
-9e-05
-9e-05
-9e-05
-9e-05
-9e-05
-9e-05
-9e-05
-9e-05
-9e-05
-9e-05
-9e-05
-9e-05
-9e-05
-9e-05
-9e-05
-9e-05
-9e-05
-9e-05
-9e-05
-9e-05
-9e-05
-9e-05
-9e-05
-9e-05
-9e-05
-9e-05
-9e-05
-9e-05
-9e-05
-9e-05
-9e-05
-9e-05
-9e-05
-9e-05
-9e-05
-9e-05
-9e-05
-9e-05
-9e-05
-9e-05
-9e-05
-9e-05
-9e-05
-9e-05
-9e-05
-9e-05
-9e-05
-9e-05
-9e-05
-9e-05
-9e-05
-9e-05
-9e-05
-9e-05
-9e-05
-9e-05
-9e-05
-9e-05
-9e-05
-9e-05
-9e-05
-9e-05
-9e-05
-9e-05
-9e-05
-9e-05
-9e-05
-9e-05
-9e-05
-9e-05
-0.0001
-0.0001
-0.0001
-0.0001
-0.0001
-0.0001
-0.0001
-0.0001
-0.0001
-0.0001
-0.0001
-0.0001
-0.0001
-0.0001
-0.0001
-0.0001
-0.0001
-0.0001
-0.0001
-0.0001
-0.0001
-0.0001
-0.0001
-0.0001
-0.0001
-0.0001
-0.0001
-0.0001
-0.0001
-0.0001
-0.0001
-0.0001
-0.0001
-0.0001
-0.0001
-0.0001
-0.0001
-0.0001
-0.0001
-0.0001
-0.0001
-0.0001
-0.0001
-0.0001
-0.0001
-0.0001
-0.0001
-0.0001
-0.0001
-0.0001
-0.0001
-0.0001
-0.0001
-0.0001
SCALARS strain_1 float
LOOKUP_TABLE default
-0.000043
-0.068146
-0.067116
-0.066080
-0.065040
-0.063995
-0.062946
-0.061892
-0.060835
-0.059774
-0.058709
-0.057641
-0.056571
-0.055497
-0.054422
-0.053345
-0.052266
-0.051186
-0.050106
-0.049025
-0.047943
-0.046863
-0.045783
-0.044704
-0.043626
-0.042551
-0.041478
-0.040408
-0.039341
-0.038278
-0.037219
-0.036166
-0.035117
-0.034074
-0.033038
-0.032008
-0.030985
-0.029970
-0.028964
-0.027966
-0.026977
-0.025999
-0.025031
-0.024073
-0.023127
-0.022193
-0.021271
-0.020363
-0.019468
-0.018586
-0.017720
-0.016868
-0.016032
-0.015211
-0.014407
-0.013620
-0.012849
-0.012097
-0.011362
-0.010646
-0.009949
-0.009271
-0.008612
-0.007973
-0.007354
-0.006755
-0.006177
-0.005620
-0.005083
-0.004567
-0.004073
-0.003600
-0.003149
-0.002718
-0.002310
-0.001922
-0.001557
-0.001212
-0.000888
-0.000585
-0.000304
-0.068207
-0.000001
-0.000263
-0.000546
-0.000850
-0.001174
-0.001519
-0.001886
-0.002275
-0.002685
-0.003116
-0.003568
-0.004043
-0.004538
-0.005055
-0.005592
-0.006151
-0.006731
-0.007331
-0.007951
-0.008592
-0.009252
-0.009931
-0.010631
-0.011348
-0.012084
-0.012838
-0.013610
-0.014399
-0.015204
-0.016026
-0.016864
-0.017718
-0.018586
-0.019469
-0.020366
-0.021276
-0.022199
-0.023135
-0.024082
-0.025041
-0.026011
-0.026991
-0.027981
-0.028980
-0.029989
-0.031005
-0.032029
-0.033061
-0.034099
-0.035143
-0.036193
-0.037249
-0.038309
-0.039373
-0.040441
-0.041512
-0.042587
-0.043663
-0.044742
-0.045822
-0.046904
-0.047986
-0.049068
-0.050150
-0.051232
-0.052313
-0.053393
-0.054471
-0.055548
-0.056621
-0.057693
-0.058762
-0.059828
-0.060890
-0.061948
-0.063003
-0.064053
-0.065098
-0.066140
-0.067176
-0.068201
-0.068195
-0.068189
-0.068183
-0.068177
-0.068171
-0.068165
-0.068159
-0.068152
-0.000035
-0.000027
-0.000021
-0.000016
-0.000011
-0.000007
-0.000005
-0.000003
-0.000002
-0.000264
-0.000264
-0.000266
-0.000269
-0.000272
-0.000277
-0.000282
-0.000289
-0.000296
-0.000546
-0.000547
-0.000548
-0.000551
-0.000554
-0.000559
-0.000564
-0.000571
-0.000578
-0.000849
-0.000850
-0.000851
-0.000854
-0.000858
-0.000862
-0.000867
-0.000873
-0.000880
-0.001173
-0.001174
-0.001176
-0.001178
-0.001181
-0.001186
-0.001191
-0.001197
-0.001204
-0.001519
-0.001519
-0.001521
-0.001523
-0.001527
-0.001531
-0.001536
-0.001542
-0.001548
-0.001886
-0.001886
-0.001888
-0.001890
-0.001893
-0.001897
-0.001902
-0.001908
-0.001915
-0.002274
-0.002274
-0.002276
-0.002278
-0.002281
-0.002285
-0.002290
-0.002295
-0.002302
-0.002684
-0.002684
-0.002685
-0.002687
-0.002690
-0.002694
-0.002699
-0.002705
-0.002711
-0.003115
-0.003115
-0.003116
-0.003118
-0.003121
-0.003124
-0.003129
-0.003135
-0.003141
-0.003568
-0.003568
-0.003568
-0.003570
-0.003573
-0.003577
-0.003581
-0.003586
-0.003593
-0.004041
-0.004041
-0.004042
-0.004044
-0.004047
-0.004050
-0.004055
-0.004060
-0.004066
-0.004537
-0.004537
-0.004537
-0.004539
-0.004541
-0.004545
-0.004549
-0.004554
-0.004561
-0.005053
-0.005053
-0.005054
-0.005055
-0.005057
-0.005061
-0.005065
-0.005070
-0.005076
-0.005591
-0.005591
-0.005591
-0.005592
-0.005595
-0.005598
-0.005602
-0.005607
-0.005613
-0.006150
-0.006149
-0.006150
-0.006151
-0.006153
-0.006156
-0.006160
-0.006165
-0.006170
-0.006729
-0.006729
-0.006729
-0.006730
-0.006732
-0.006735
-0.006738
-0.006743
-0.006749
-0.007329
-0.007328
-0.007328
-0.007329
-0.007331
-0.007334
-0.007337
-0.007342
-0.007348
-0.007949
-0.007948
-0.007948
-0.007949
-0.007951
-0.007954
-0.007957
-0.007961
-0.007967
-0.008590
-0.008589
-0.008589
-0.008589
-0.008591
-0.008593
-0.008597
-0.008601
-0.008606
-0.009250
-0.009249
-0.009248
-0.009249
-0.009250
-0.009253
-0.009256
-0.009260
-0.009265
-0.009930
-0.009928
-0.009928
-0.009928
-0.009930
-0.009932
-0.009935
-0.009939
-0.009943
-0.010628
-0.010627
-0.010626
-0.010627
-0.010628
-0.010630
-0.010633
-0.010636
-0.010641
-0.011346
-0.011344
-0.011343
-0.011344
-0.011345
-0.011346
-0.011349
-0.011353
-0.011357
-0.012082
-0.012080
-0.012079
-0.012079
-0.012080
-0.012082
-0.012084
-0.012088
-0.012092
-0.012836
-0.012834
-0.012833
-0.012833
-0.012834
-0.012835
-0.012837
-0.012841
-0.012845
-0.013607
-0.013605
-0.013604
-0.013604
-0.013605
-0.013606
-0.013609
-0.013611
-0.013615
-0.014396
-0.014394
-0.014393
-0.014392
-0.014393
-0.014394
-0.014396
-0.014399
-0.014403
-0.015202
-0.015200
-0.015198
-0.015198
-0.015198
-0.015199
-0.015201
-0.015204
-0.015207
-0.016024
-0.016021
-0.016020
-0.016019
-0.016019
-0.016020
-0.016022
-0.016024
-0.016028
-0.016861
-0.016859
-0.016858
-0.016857
-0.016857
-0.016858
-0.016859
-0.016861
-0.016864
-0.017715
-0.017712
-0.017710
-0.017710
-0.017710
-0.017710
-0.017711
-0.017714
-0.017716
-0.018583
-0.018580
-0.018579
-0.018578
-0.018577
-0.018578
-0.018579
-0.018581
-0.018583
-0.019466
-0.019463
-0.019461
-0.019460
-0.019460
-0.019460
-0.019461
-0.019462
-0.019465
-0.020362
-0.020360
-0.020358
-0.020356
-0.020356
-0.020356
-0.020357
-0.020358
-0.020360
-0.021272
-0.021270
-0.021268
-0.021266
-0.021265
-0.021265
-0.021266
-0.021267
-0.021269
-0.022195
-0.022193
-0.022190
-0.022189
-0.022188
-0.022188
-0.022188
-0.022189
-0.022191
-0.023131
-0.023128
-0.023126
-0.023124
-0.023123
-0.023123
-0.023123
-0.023124
-0.023125
-0.024079
-0.024076
-0.024073
-0.024071
-0.024070
-0.024069
-0.024069
-0.024070
-0.024071
-0.025037
-0.025034
-0.025032
-0.025030
-0.025028
-0.025028
-0.025027
-0.025028
-0.025029
-0.026007
-0.026004
-0.026001
-0.025999
-0.025997
-0.025997
-0.025996
-0.025996
-0.025997
-0.026987
-0.026984
-0.026981
-0.026979
-0.026977
-0.026976
-0.026975
-0.026976
-0.026976
-0.027977
-0.027974
-0.027971
-0.027968
-0.027967
-0.027965
-0.027965
-0.027964
-0.027965
-0.028976
-0.028973
-0.028970
-0.028967
-0.028965
-0.028964
-0.028963
-0.028963
-0.028963
-0.029984
-0.029981
-0.029978
-0.029975
-0.029973
-0.029972
-0.029970
-0.029970
-0.029970
-0.031001
-0.030997
-0.030994
-0.030991
-0.030989
-0.030987
-0.030986
-0.030985
-0.030985
-0.032025
-0.032021
-0.032018
-0.032015
-0.032012
-0.032011
-0.032009
-0.032008
-0.032008
-0.033056
-0.033052
-0.033049
-0.033046
-0.033043
-0.033041
-0.033040
-0.033039
-0.033038
-0.034094
-0.034090
-0.034087
-0.034084
-0.034081
-0.034079
-0.034077
-0.034076
-0.034075
-0.035139
-0.035135
-0.035131
-0.035127
-0.035125
-0.035122
-0.035120
-0.035119
-0.035118
-0.036189
-0.036184
-0.036181
-0.036177
-0.036175
-0.036172
-0.036170
-0.036168
-0.036167
-0.037244
-0.037240
-0.037236
-0.037232
-0.037229
-0.037226
-0.037224
-0.037222
-0.037221
-0.038304
-0.038299
-0.038296
-0.038292
-0.038289
-0.038286
-0.038283
-0.038281
-0.038280
-0.039368
-0.039364
-0.039360
-0.039356
-0.039353
-0.039350
-0.039347
-0.039345
-0.039343
-0.040436
-0.040432
-0.040427
-0.040424
-0.040420
-0.040417
-0.040414
-0.040412
-0.040409
-0.041507
-0.041503
-0.041499
-0.041495
-0.041491
-0.041488
-0.041485
-0.041482
-0.041480
-0.042582
-0.042577
-0.042573
-0.042569
-0.042565
-0.042562
-0.042558
-0.042556
-0.042553
-0.043658
-0.043654
-0.043649
-0.043645
-0.043641
-0.043638
-0.043634
-0.043631
-0.043629
-0.044737
-0.044732
-0.044728
-0.044723
-0.044720
-0.044716
-0.044712
-0.044709
-0.044706
-0.045817
-0.045812
-0.045808
-0.045803
-0.045799
-0.045796
-0.045792
-0.045788
-0.045785
-0.046899
-0.046894
-0.046889
-0.046884
-0.046880
-0.046876
-0.046873
-0.046869
-0.046866
-0.047981
-0.047976
-0.047971
-0.047966
-0.047962
-0.047958
-0.047954
-0.047950
-0.047947
-0.049063
-0.049058
-0.049053
-0.049048
-0.049044
-0.049040
-0.049036
-0.049032
-0.049028
-0.050145
-0.050140
-0.050135
-0.050130
-0.050126
-0.050122
-0.050117
-0.050113
-0.050109
-0.051227
-0.051222
-0.051217
-0.051212
-0.051207
-0.051203
-0.051199
-0.051194
-0.051190
-0.052308
-0.052303
-0.052298
-0.052293
-0.052288
-0.052283
-0.052279
-0.052275
-0.052270
-0.053388
-0.053382
-0.053377
-0.053372
-0.053367
-0.053363
-0.053358
-0.053354
-0.053349
-0.054466
-0.054460
-0.054455
-0.054450
-0.054445
-0.054440
-0.054436
-0.054431
-0.054427
-0.055542
-0.055537
-0.055532
-0.055527
-0.055521
-0.055516
-0.055511
-0.055507
-0.055502
-0.056616
-0.056611
-0.056605
-0.056600
-0.056595
-0.056590
-0.056585
-0.056580
-0.056575
-0.057687
-0.057682
-0.057677
-0.057672
-0.057667
-0.057661
-0.057656
-0.057651
-0.057646
-0.058757
-0.058751
-0.058746
-0.058740
-0.058735
-0.058730
-0.058724
-0.058719
-0.058714
-0.059822
-0.059817
-0.059811
-0.059806
-0.059800
-0.059795
-0.059790
-0.059784
-0.059779
-0.060884
-0.060878
-0.060873
-0.060868
-0.060862
-0.060857
-0.060851
-0.060846
-0.060840
-0.061943
-0.061937
-0.061931
-0.061926
-0.061920
-0.061915
-0.061909
-0.061904
-0.061898
-0.062997
-0.062991
-0.062986
-0.062980
-0.062974
-0.062969
-0.062963
-0.062957
-0.062951
-0.064047
-0.064042
-0.064036
-0.064030
-0.064024
-0.064019
-0.064013
-0.064007
-0.064001
-0.065093
-0.065087
-0.065082
-0.065076
-0.065070
-0.065064
-0.065058
-0.065052
-0.065046
-0.066134
-0.066128
-0.066122
-0.066116
-0.066111
-0.066105
-0.066099
-0.066093
-0.066087
-0.067170
-0.067164
-0.067158
-0.067152
-0.067147
-0.067140
-0.067134
-0.067128
-0.067122
SCALARS strain_2 float
LOOKUP_TABLE default
0.000293
-0.000036
-0.000036
-0.000036
-0.000035
-0.000035
-0.000035
-0.000035
-0.000036
-0.000034
-0.000035
-0.000034
-0.000034
-0.000035
-0.000034
-0.000033
-0.000033
-0.000033
-0.000031
-0.000030
-0.000029
-0.000028
-0.000026
-0.000026
-0.000024
-0.000022
-0.000021
-0.000019
-0.000017
-0.000016
-0.000012
-0.000012
-0.000009
-0.000007
-0.000004
-0.000001
0.000002
0.000005
0.000007
0.000010
0.000013
0.000017
0.000022
0.000024
0.000029
0.000032
0.000038
0.000041
0.000045
0.000051
0.000056
0.000062
0.000067
0.000073
0.000077
0.000083
0.000090
0.000095
0.000102
0.000108
0.000115
0.000123
0.000129
0.000136
0.000143
0.000150
0.000160
0.000166
0.000174
0.000184
0.000192
0.000200
0.000208
0.000217
0.000226
0.000235
0.000244
0.000253
0.000262
0.000273
0.000282
0.001084
0.001103
0.001103
0.001104
0.001107
0.001107
0.001107
0.001110
0.001109
0.001111
0.001112
0.001114
0.001114
0.001115
0.001115
0.001116
0.001118
0.001119
0.001119
0.001120
0.001120
0.001121
0.001122
0.001122
0.001123
0.001124
0.001125
0.001125
0.001125
0.001125
0.001125
0.001127
0.001127
0.001127
0.001128
0.001127
0.001127
0.001129
0.001127
0.001127
0.001127
0.001127
0.001127
0.001127
0.001127
0.001127
0.001127
0.001126
0.001126
0.001124
0.001125
0.001124
0.001123
0.001122
0.001122
0.001122
0.001120
0.001118
0.001119
0.001118
0.001115
0.001116
0.001114
0.001113
0.001111
0.001110
0.001108
0.001108
0.001106
0.001104
0.001104
0.001103
0.001100
0.001099
0.001097
0.001095
0.001095
0.001093
0.001090
0.001088
0.001086
0.000973
0.000861
0.000748
0.000636
0.000524
0.000412
0.000300
0.000189
0.000076
0.000374
0.000455
0.000537
0.000617
0.000698
0.000778
0.000860
0.000941
0.001022
0.001021
0.000939
0.000857
0.000776
0.000692
0.000611
0.000529
0.000446
0.000365
0.001021
0.000938
0.000856
0.000771
0.000688
0.000606
0.000522
0.000440
0.000356
0.001021
0.000938
0.000853
0.000769
0.000685
0.000601
0.000517
0.000432
0.000348
0.001022
0.000936
0.000851
0.000766
0.000681
0.000596
0.000509
0.000424
0.000340
0.001021
0.000935
0.000850
0.000762
0.000677
0.000590
0.000504
0.000418
0.000330
0.001020
0.000935
0.000847
0.000759
0.000672
0.000585
0.000497
0.000410
0.000322
0.001021
0.000934
0.000845
0.000756
0.000668
0.000581
0.000492
0.000404
0.000315
0.001021
0.000933
0.000843
0.000754
0.000664
0.000575
0.000486
0.000396
0.000306
0.001022
0.000931
0.000841
0.000751
0.000660
0.000569
0.000480
0.000389
0.000298
0.001021
0.000931
0.000839
0.000749
0.000656
0.000566
0.000474
0.000382
0.000291
0.001022
0.000929
0.000837
0.000745
0.000653
0.000559
0.000468
0.000376
0.000284
0.001022
0.000928
0.000835
0.000742
0.000649
0.000555
0.000463
0.000370
0.000276
0.001022
0.000928
0.000833
0.000740
0.000645
0.000551
0.000457
0.000362
0.000268
0.001020
0.000927
0.000832
0.000736
0.000642
0.000547
0.000451
0.000357
0.000262
0.001022
0.000927
0.000830
0.000734
0.000637
0.000542
0.000446
0.000351
0.000255
0.001023
0.000925
0.000828
0.000732
0.000635
0.000538
0.000440
0.000345
0.000247
0.001023
0.000925
0.000826
0.000729
0.000632
0.000534
0.000436
0.000337
0.000240
0.001022
0.000924
0.000826
0.000726
0.000629
0.000531
0.000432
0.000333
0.000235
0.001021
0.000923
0.000822
0.000723
0.000625
0.000525
0.000427
0.000327
0.000228
0.001021
0.000922
0.000823
0.000721
0.000622
0.000521
0.000422
0.000322
0.000222
0.001021
0.000921
0.000821
0.000719
0.000618
0.000517
0.000417
0.000317
0.000215
0.001021
0.000920
0.000819
0.000717
0.000615
0.000514
0.000412
0.000311
0.000209
0.001021
0.000919
0.000816
0.000714
0.000612
0.000511
0.000408
0.000306
0.000205
0.001021
0.000918
0.000816
0.000712
0.000610
0.000507
0.000404
0.000301
0.000200
0.001021
0.000918
0.000813
0.000710
0.000606
0.000504
0.000400
0.000295
0.000192
0.001020
0.000916
0.000812
0.000708
0.000604
0.000499
0.000396
0.000292
0.000186
0.001020
0.000916
0.000811
0.000706
0.000601
0.000496
0.000393
0.000287
0.000183
0.001020
0.000915
0.000809
0.000704
0.000598
0.000494
0.000388
0.000281
0.000178
0.001020
0.000915
0.000809
0.000703
0.000596
0.000490
0.000383
0.000279
0.000173
0.001020
0.000913
0.000806
0.000701
0.000593
0.000488
0.000381
0.000274
0.000167
0.001020
0.000913
0.000806
0.000699
0.000591
0.000484
0.000377
0.000270
0.000163
0.001019
0.000912
0.000804
0.000697
0.000589
0.000482
0.000373
0.000267
0.000158
0.001019
0.000912
0.000804
0.000695
0.000587
0.000479
0.000370
0.000262
0.000154
0.001018
0.000910
0.000801
0.000691
0.000584
0.000476
0.000368
0.000259
0.000151
0.001018
0.000909
0.000801
0.000691
0.000582
0.000474
0.000364
0.000255
0.000145
0.001017
0.000909
0.000799
0.000690
0.000580
0.000471
0.000362
0.000252
0.000142
0.001017
0.000908
0.000798
0.000688
0.000578
0.000469
0.000358
0.000249
0.000139
0.001018
0.000908
0.000798
0.000687
0.000575
0.000465
0.000356
0.000246
0.000136
0.001016
0.000907
0.000796
0.000685
0.000574
0.000465
0.000353
0.000241
0.000132
0.001016
0.000905
0.000794
0.000684
0.000573
0.000461
0.000351
0.000240
0.000128
0.001017
0.000905
0.000793
0.000681
0.000570
0.000460
0.000347
0.000237
0.000126
0.001015
0.000903
0.000792
0.000679
0.000568
0.000458
0.000345
0.000234
0.000123
0.001015
0.000904
0.000790
0.000680
0.000567
0.000454
0.000343
0.000231
0.000118
0.001014
0.000901
0.000789
0.000676
0.000565
0.000453
0.000341
0.000229
0.000117
0.001014
0.000901
0.000788
0.000676
0.000564
0.000451
0.000339
0.000226
0.000114
0.001013
0.000900
0.000788
0.000675
0.000562
0.000449
0.000338
0.000223
0.000112
0.001013
0.000899
0.000786
0.000675
0.000560
0.000447
0.000334
0.000222
0.000109
0.001012
0.000898
0.000786
0.000672
0.000559
0.000447
0.000332
0.000219
0.000105
0.001011
0.000897
0.000785
0.000670
0.000557
0.000444
0.000330
0.000217
0.000104
0.001010
0.000897
0.000783
0.000669
0.000557
0.000443
0.000329
0.000216
0.000103
0.001009
0.000896
0.000782
0.000668
0.000554
0.000441
0.000327
0.000213
0.000099
0.001009
0.000895
0.000781
0.000668
0.000553
0.000440
0.000327
0.000212
0.000098
0.001008
0.000894
0.000781
0.000667
0.000552
0.000438
0.000324
0.000211
0.000096
0.001007
0.000894
0.000779
0.000665
0.000550
0.000438
0.000323
0.000209
0.000094
0.001006
0.000892
0.000778
0.000665
0.000550
0.000436
0.000322
0.000207
0.000094
0.001004
0.000891
0.000777
0.000663
0.000548
0.000435
0.000320
0.000206
0.000091
0.001004
0.000890
0.000776
0.000662
0.000546
0.000433
0.000318
0.000205
0.000092
0.001003
0.000889
0.000775
0.000661
0.000545
0.000431
0.000317
0.000204
0.000089
0.001003
0.000888
0.000773
0.000659
0.000545
0.000431
0.000315
0.000202
0.000087
0.001000
0.000886
0.000773
0.000659
0.000543
0.000430
0.000315
0.000201
0.000086
0.001000
0.000885
0.000771
0.000657
0.000543
0.000429
0.000313
0.000200
0.000084
0.001000
0.000884
0.000770
0.000656
0.000542
0.000427
0.000314
0.000199
0.000085
0.000999
0.000884
0.000769
0.000656
0.000542
0.000426
0.000312
0.000198
0.000083
0.000996
0.000883
0.000767
0.000654
0.000540
0.000425
0.000311
0.000196
0.000082
0.000995
0.000881
0.000767
0.000653
0.000538
0.000425
0.000311
0.000196
0.000083
0.000993
0.000880
0.000767
0.000651
0.000538
0.000424
0.000309
0.000197
0.000081
0.000992
0.000878
0.000765
0.000650
0.000538
0.000423
0.000310
0.000196
0.000081
0.000991
0.000877
0.000764
0.000649
0.000536
0.000421
0.000308
0.000194
0.000079
0.000990
0.000876
0.000764
0.000648
0.000535
0.000420
0.000307
0.000193
0.000078
0.000988
0.000874
0.000761
0.000648
0.000535
0.000421
0.000306
0.000193
0.000079
0.000987
0.000872
0.000760
0.000646
0.000533
0.000419
0.000306
0.000192
0.000079
0.000985
0.000873
0.000758
0.000645
0.000532
0.000417
0.000304
0.000191
0.000079
0.000984
0.000872
0.000757
0.000645
0.000531
0.000418
0.000304
0.000191
0.000078
0.000982
0.000869
0.000755
0.000643
0.000530
0.000416
0.000304
0.000191
0.000077
0.000981
0.000869
0.000755
0.000641
0.000530
0.000416
0.000303
0.000191
0.000076
0.000979
0.000866
0.000753
0.000641
0.000529
0.000415
0.000303
0.000190
0.000077
0.000977
0.000865
0.000752
0.000639
0.000527
0.000415
0.000303
0.000190
0.000078
0.000976
0.000865
0.000752
0.000638
0.000527
0.000414
0.000301
0.000189
0.000078
0.000974
0.000862
0.000749
0.000637
0.000526
0.000414
0.000301
0.000190
0.000078
SCALARS strain_3 float
LOOKUP_TABLE default
0.000348
0.021989
0.021678
0.021366
0.021052
0.020736
0.020419
0.020100
0.019781
0.019459
0.019137
0.018813
0.018487
0.018162
0.017835
0.017507
0.017179
0.016850
0.016520
0.016190
0.015860
0.015529
0.015198
0.014867
0.014537
0.014206
0.013876
0.013546
0.013217
0.012889
0.012562
0.012235
0.011910
0.011587
0.011264
0.010944
0.010624
0.010306
0.009991
0.009679
0.009368
0.009060
0.008754
0.008451
0.008152
0.007856
0.007560
0.007272
0.006984
0.006701
0.006423
0.006148
0.005877
0.005610
0.005348
0.005091
0.004838
0.004591
0.004347
0.004109
0.003877
0.003650
0.003428
0.003212
0.003001
0.002796
0.002597
0.002404
0.002216
0.002036
0.001861
0.001692
0.001529
0.001373
0.001222
0.001079
0.000942
0.000810
0.000685
0.000567
0.000454
0.021407
-0.000183
-0.000082
0.000027
0.000141
0.000262
0.000389
0.000522
0.000662
0.000809
0.000961
0.001120
0.001286
0.001457
0.001635
0.001819
0.002009
0.002206
0.002408
0.002616
0.002830
0.003049
0.003274
0.003504
0.003740
0.003981
0.004227
0.004479
0.004735
0.004995
0.005260
0.005529
0.005803
0.006081
0.006363
0.006649
0.006939
0.007232
0.007528
0.007826
0.008129
0.008434
0.008742
0.009053
0.009366
0.009681
0.009999
0.010318
0.010640
0.010963
0.011286
0.011612
0.011940
0.012268
0.012597
0.012927
0.013257
0.013588
0.013919
0.014251
0.014583
0.014915
0.015247
0.015579
0.015910
0.016241
0.016572
0.016902
0.017231
0.017559
0.017887
0.018213
0.018539
0.018863
0.019186
0.019508
0.019829
0.020148
0.020465
0.020781
0.021094
0.021465
0.021524
0.021582
0.021641
0.021699
0.021757
0.021814
0.021873
0.021930
0.000294
0.000239
0.000186
0.000132
0.000080
0.000026
-0.000027
-0.000079
-0.000131
-0.000029
0.000023
0.000077
0.000130
0.000183
0.000237
0.000291
0.000344
0.000399
0.000080
0.000132
0.000186
0.000239
0.000293
0.000348
0.000402
0.000457
0.000511
0.000194
0.000248
0.000301
0.000355
0.000409
0.000465
0.000519
0.000574
0.000630
0.000315
0.000369
0.000423
0.000478
0.000532
0.000588
0.000643
0.000699
0.000754
0.000443
0.000497
0.000551
0.000606
0.000661
0.000716
0.000773
0.000829
0.000884
0.000577
0.000631
0.000686
0.000741
0.000796
0.000853
0.000909
0.000965
0.001022
0.000717
0.000772
0.000827
0.000883
0.000939
0.000995
0.001052
0.001109
0.001165
0.000864
0.000919
0.000975
0.001031
0.001087
0.001144
0.001201
0.001257
0.001316
0.001017
0.001073
0.001129
0.001185
0.001241
0.001298
0.001355
0.001414
0.001471
0.001176
0.001233
0.001289
0.001346
0.001403
0.001460
0.001518
0.001575
0.001633
0.001342
0.001399
0.001455
0.001513
0.001570
0.001627
0.001685
0.001744
0.001802
0.001514
0.001570
0.001628
0.001685
0.001743
0.001801
0.001859
0.001918
0.001977
0.001692
0.001749
0.001807
0.001865
0.001923
0.001981
0.002039
0.002098
0.002157
0.001877
0.001934
0.001992
0.002050
0.002108
0.002167
0.002225
0.002285
0.002344
0.002067
0.002125
0.002182
0.002241
0.002299
0.002359
0.002417
0.002477
0.002537
0.002263
0.002321
0.002380
0.002439
0.002497
0.002557
0.002616
0.002676
0.002736
0.002466
0.002524
0.002583
0.002643
0.002700
0.002761
0.002821
0.002880
0.002940
0.002674
0.002733
0.002792
0.002851
0.002910
0.002970
0.003030
0.003090
0.003151
0.002888
0.002947
0.003006
0.003066
0.003125
0.003186
0.003246
0.003306
0.003367
0.003108
0.003167
0.003227
0.003287
0.003346
0.003406
0.003467
0.003527
0.003588
0.003333
0.003392
0.003452
0.003513
0.003572
0.003633
0.003693
0.003754
0.003815
0.003564
0.003624
0.003683
0.003744
0.003803
0.003865
0.003926
0.003987
0.004048
0.003800
0.003860
0.003920
0.003980
0.004041
0.004102
0.004163
0.004224
0.004287
0.004041
0.004101
0.004162
0.004223
0.004283
0.004344
0.004405
0.004466
0.004528
0.004288
0.004348
0.004408
0.004469
0.004530
0.004592
0.004653
0.004715
0.004777
0.004538
0.004599
0.004660
0.004721
0.004782
0.004844
0.004905
0.004967
0.005029
0.004795
0.004855
0.004916
0.004977
0.005038
0.005101
0.005162
0.005224
0.005286
0.005056
0.005117
0.005178
0.005239
0.005300
0.005362
0.005424
0.005486
0.005548
0.005321
0.005381
0.005443
0.005505
0.005566
0.005628
0.005690
0.005752
0.005815
0.005590
0.005651
0.005712
0.005774
0.005837
0.005898
0.005961
0.006023
0.006085
0.005864
0.005926
0.005988
0.006049
0.006111
0.006173
0.006235
0.006298
0.006360
0.006143
0.006204
0.006265
0.006328
0.006389
0.006451
0.006514
0.006576
0.006639
0.006424
0.006486
0.006548
0.006609
0.006671
0.006733
0.006796
0.006859
0.006922
0.006711
0.006772
0.006833
0.006895
0.006958
0.007020
0.007083
0.007144
0.007208
0.006999
0.007061
0.007123
0.007185
0.007248
0.007310
0.007372
0.007435
0.007498
0.007292
0.007354
0.007416
0.007478
0.007541
0.007604
0.007666
0.007729
0.007792
0.007589
0.007650
0.007713
0.007775
0.007837
0.007900
0.007962
0.008026
0.008089
0.007888
0.007950
0.008013
0.008075
0.008137
0.008200
0.008262
0.008325
0.008388
0.008191
0.008252
0.008315
0.008377
0.008439
0.008502
0.008565
0.008628
0.008691
0.008496
0.008558
0.008620
0.008682
0.008745
0.008808
0.008871
0.008933
0.008996
0.008804
0.008867
0.008928
0.008992
0.009053
0.009116
0.009179
0.009241
0.009304
0.009115
0.009177
0.009239
0.009301
0.009364
0.009426
0.009490
0.009553
0.009615
0.009429
0.009490
0.009552
0.009615
0.009677
0.009740
0.009802
0.009866
0.009929
0.009743
0.009806
0.009868
0.009930
0.009992
0.010055
0.010118
0.010181
0.010244
0.010061
0.010123
0.010185
0.010247
0.010310
0.010373
0.010436
0.010498
0.010561
0.010380
0.010442
0.010504
0.010567
0.010629
0.010692
0.010755
0.010817
0.010880
0.010702
0.010763
0.010826
0.010887
0.010950
0.011013
0.011076
0.011138
0.011201
0.011024
0.011087
0.011148
0.011211
0.011273
0.011336
0.011398
0.011461
0.011524
0.011348
0.011411
0.011473
0.011535
0.011597
0.011660
0.011722
0.011785
0.011848
0.011674
0.011736
0.011798
0.011861
0.011923
0.011986
0.012047
0.012110
0.012173
0.012001
0.012063
0.012125
0.012188
0.012249
0.012312
0.012374
0.012437
0.012499
0.012329
0.012391
0.012454
0.012516
0.012578
0.012639
0.012701
0.012763
0.012827
0.012659
0.012720
0.012783
0.012844
0.012906
0.012968
0.013030
0.013093
0.013155
0.012988
0.013049
0.013112
0.013173
0.013236
0.013298
0.013360
0.013421
0.013485
0.013318
0.013380
0.013442
0.013504
0.013565
0.013627
0.013690
0.013751
0.013814
0.013649
0.013711
0.013772
0.013835
0.013897
0.013957
0.014020
0.014082
0.014144
0.013981
0.014042
0.014104
0.014166
0.014227
0.014289
0.014351
0.014413
0.014474
0.014313
0.014374
0.014435
0.014497
0.014558
0.014620
0.014682
0.014744
0.014805
0.014644
0.014706
0.014767
0.014828
0.014890
0.014951
0.015013
0.015075
0.015136
0.014976
0.015038
0.015099
0.015160
0.015221
0.015283
0.015344
0.015406
0.015468
0.015308
0.015369
0.015430
0.015491
0.015552
0.015614
0.015676
0.015737
0.015798
0.015640
0.015701
0.015761
0.015823
0.015884
0.015945
0.016007
0.016067
0.016129
0.015970
0.016032
0.016093
0.016154
0.016215
0.016276
0.016336
0.016398
0.016460
0.016301
0.016363
0.016423
0.016484
0.016545
0.016606
0.016667
0.016728
0.016790
0.016632
0.016693
0.016753
0.016815
0.016875
0.016936
0.016997
0.017057
0.017118
0.016962
0.017023
0.017083
0.017144
0.017204
0.017265
0.017326
0.017386
0.017447
0.017292
0.017352
0.017413
0.017472
0.017533
0.017593
0.017654
0.017714
0.017774
0.017619
0.017680
0.017740
0.017800
0.017860
0.017921
0.017981
0.018042
0.018102
0.017947
0.018007
0.018067
0.018127
0.018188
0.018247
0.018308
0.018368
0.018428
0.018274
0.018333
0.018393
0.018453
0.018513
0.018573
0.018633
0.018692
0.018753
0.018598
0.018658
0.018718
0.018778
0.018838
0.018897
0.018957
0.019017
0.019077
0.018923
0.018982
0.019042
0.019101
0.019161
0.019221
0.019281
0.019340
0.019399
0.019246
0.019305
0.019364
0.019424
0.019483
0.019543
0.019602
0.019662
0.019721
0.019567
0.019627
0.019686
0.019745
0.019805
0.019864
0.019923
0.019982
0.020042
0.019888
0.019947
0.020005
0.020065
0.020124
0.020183
0.020242
0.020301
0.020360
0.020206
0.020265
0.020324
0.020383
0.020442
0.020501
0.020560
0.020619
0.020678
0.020524
0.020583
0.020642
0.020700
0.020759
0.020818
0.020876
0.020934
0.020994
0.020839
0.020898
0.020957
0.021015
0.021074
0.021132
0.021191
0.021249
0.021308
0.021154
0.021212
0.021270
0.021328
0.021387
0.021445
0.021503
0.021562
0.021620
SCALARS stress_1 float
LOOKUP_TABLE default
-8333.237137
-22324086.069445
-21986842.959041
-21647807.848637
-21307588.738233
-20965497.627829
-20622190.517425
-20277347.407022
-19931080.296618
-19583661.186214
-19235106.075810
-18885590.965406
-18535131.855002
-18183776.744598
-17831493.634195
-17478954.523791
-17125407.413387
-16772148.302983
-16418057.192579
-16063982.082175
-15709906.971772
-15355895.861368
-15002108.750964
-14648273.640560
-14295702.530156
-13943419.419752
-13592048.309349
-13241413.198945
-12891850.088541
-12543582.978137
-12196803.867733
-11851528.757329
-11507949.646925
-11166082.536522
-10826487.426118
-10489020.315714
-10153921.205310
-9821510.094906
-9491546.984502
-9164639.874099
-8840404.763695
-8519497.653291
-8202494.542887
-7888467.432483
-7578744.322079
-7272381.211676
-6970242.101272
-6672614.990868
-6379227.880464
-6090480.770060
-5806293.659656
-5526778.549252
-5252687.438849
-4983396.328445
-4719913.218041
-4462126.107637
-4209442.997233
-3962919.886829
-3721852.776426
-3486721.666022
-3258422.555618
-3035803.445214
-2820096.334810
-2610581.224406
-2407306.114003
-2210943.003599
-2021443.893195
-1838424.782791
-1662461.672387
-1493586.561983
-1331447.451579
-1176220.341176
-1028081.230772
-887078.120368
-752603.009964
-625775.899560
-505476.789156
-392265.678753
-286222.568349
-186867.457945
-94200.347541
-22286247.402302
81937.430005
-3625.680398
-96020.790802
-195359.901206
-301787.011610
-414822.122014
-535361.232418
-662652.342821
-796903.453225
-938498.563629
-1086717.674033
-1242264.784437
-1404595.894841
-1574191.005244
-1750442.115648
-1933621.226052
-2123648.336456
-2320619.446860
-2524022.557264
-2734417.667668
-2950876.778071
-3173847.888475
-3402962.998879
-3638462.109283
-3879657.219687
-4127236.330091
-4380495.440494
-4639210.550898
-4903765.661302
-5173600.771706
-5448331.882110
-5728518.992514
-6013362.102918
-6302781.213321
-6597272.323725
-6895987.434129
-7198942.544533
-7505785.654937
-7816932.765341
-8131391.875744
-8449738.986148
-8771382.096552
-9096193.206956
-9424092.317360
-9754631.427764
-10088162.538167
-10424061.648571
-10762360.758975
-11102931.869379
-11445566.979783
-11790074.090187
-12136661.200591
-12484160.310994
-12833179.421398
-13183494.531802
-13534945.642206
-13887564.752610
-14240487.863014
-14594130.973417
-14948846.083821
-15303193.194225
-15658052.304629
-16012879.415033
-16367786.525437
-16722645.635840
-17077040.746244
-17431243.856648
-17784774.967052
-18137410.077456
-18489517.187860
-18840888.298264
-19191139.408667
-19540494.519071
-19888665.629475
-20235684.739879
-20581343.850283
-20925562.960687
-21268150.071090
-21609025.181494
-21948604.291898
-22290495.269016
-22294039.135730
-22298095.002445
-22301990.869159
-22305646.735873
-22309366.602588
-22313214.469302
-22316838.336016
-22320462.202730
1914.629577
11890.496291
21626.363006
31026.229720
40122.096434
49185.963148
57769.829863
66049.696577
74105.563291
-11729.547113
-19737.413827
-28001.280541
-36777.147255
-45441.013970
-54776.880684
-64032.747398
-73992.614112
-84016.480827
-104508.657516
-111940.524231
-120668.390945
-129204.257659
-138204.124374
-147411.991088
-156955.857802
-166547.724516
-176411.591231
-203223.767920
-211519.634635
-219975.501349
-228687.368063
-237367.234777
-246767.101492
-256262.968206
-265838.834920
-275894.701634
-309954.878324
-317674.745038
-326066.611753
-334890.478467
-343586.345181
-352874.211895
-362530.078610
-371769.945324
-382049.812038
-423005.988728
-431237.855442
-439341.722157
-447861.588871
-456925.455585
-465989.322299
-475325.189014
-485141.055728
-495356.922442
-542857.099132
-551072.965846
-559736.832560
-568192.699275
-577096.565989
-586464.432703
-595784.299417
-605360.166132
-615416.032846
-670196.209536
-678380.076250
-686755.942964
-695483.809678
-704259.676393
-713323.543107
-722659.409821
-732523.276536
-742659.143250
-804655.319940
-812775.186654
-820927.053368
-829558.920082
-838286.786797
-847814.653511
-856910.520225
-866902.386939
-876718.253654
-945850.430343
-953954.297058
-962186.163772
-970690.030486
-979769.897200
-988785.763915
-998025.630629
-1008145.497343
-1017961.364057
-1094277.540747
-1102461.407461
-1110581.274176
-1119197.140890
-1128005.007604
-1136860.874319
-1146564.741033
-1156156.607747
-1166276.474461
-1249696.651151
-1257880.517865
-1266000.384580
-1274488.251294
-1283360.118008
-1292327.984722
-1301855.851437
-1311399.718151
-1321135.584865
-1412123.761555
-1420163.628269
-1428219.494983
-1437043.361698
-1445387.228412
-1454643.095126
-1464122.961840
-1473378.828555
-1483434.695269
-1581750.871959
-1589438.738673
-1598054.605387
-1606206.472102
-1615062.338816
-1623982.205530
-1633270.072244
-1642509.938959
-1652661.805673
-1757857.982363
-1765993.849077
-1773777.715791
-1782377.582505
-1791089.449220
-1800057.315934
-1809201.182648
-1818553.049362
-1828688.916077
-1941229.092766
-1949172.959481
-1957148.826195
-1965604.692909
-1974268.559623
-1983236.426338
-1992348.293052
-2001876.159766
-2011500.026481
-2131192.203170
-2138976.069885
-2146983.936599
-2155519.803313
-2164279.670027
-2172911.536742
-2181991.403456
-2191551.270170
-2201239.136884
-2328131.313574
-2335803.180288
-2343907.047003
-2352266.913717
-2360434.780431
-2369546.647145
-2378450.513860
-2387770.380574
-2397410.247288
-2531630.423978
-2539142.290692
-2547150.157406
-2555510.024121
-2564125.890835
-2572549.757549
-2581837.624264
-2591397.490978
-2600573.357692
-2741337.534382
-2749281.401096
-2757097.267810
-2765457.134525
-2773753.001239
-2782256.867953
-2791512.734667
-2800464.601382
-2810216.468096
-2958052.644786
-2965580.511500
-2973508.378214
-2981692.244928
-2989988.111643
-2998955.978357
-3007747.845071
-3016843.711786
-3026355.578500
-3180671.755189
-3188631.621904
-3196319.488618
-3204455.355332
-3212655.222047
-3221479.088761
-3230206.955475
-3239590.822189
-3248750.688904
-3410266.865593
-3417666.732308
-3425226.599022
-3433810.465736
-3441754.332450
-3450306.199165
-3459210.065879
-3468145.932593
-3477593.799307
-3645781.975997
-3653197.842711
-3660837.709426
-3668797.576140
-3676757.442854
-3685581.309569
-3694373.176283
-3703005.042997
-3712452.909711
-3887041.086401
-3894408.953115
-3901904.819830
-3909976.686544
-3918160.553258
-3926536.419972
-3935088.286687
-3944200.153401
-3953456.020115
-4134508.196805
-4141556.063519
-4149355.930233
-4157075.796948
-4165435.663662
-4173363.530376
-4182251.397090
-4191235.263805
-4200283.130519
-4387399.307209
-4394431.173923
-4402343.040637
-4410302.907352
-4418134.774066
-4426686.640780
-4435110.507494
-4443758.374209
-4452790.240923
-4646322.417613
-4653578.284327
-4661298.151041
-4668874.017755
-4676801.884470
-4685049.751184
-4693553.617898
-4702265.484612
-4711073.351327
-4910797.528016
-4917813.394731
-4925389.261445
-4932741.128159
-4940956.994873
-4949044.861588
-4957196.728302
-4965716.595016
-4974684.461731
-5180232.638420
-5187440.505135
-5194792.371849
-5202256.238563
-5210024.105277
-5218287.971992
-5226583.838706
-5234863.705420
-5243847.572134
-5455219.748824
-5462171.615538
-5469667.482253
-5477115.348967
-5484851.215681
-5492795.082395
-5501042.949110
-5509226.815824
-5518354.682538
-5735374.859228
-5742182.725942
-5749214.592656
-5756966.459371
-5764606.326085
-5772278.192799
-5780670.059514
-5788917.926228
-5797325.792942
-6020137.969632
-6027105.836346
-6034025.703060
-6041425.569775
-6049193.436489
-6056945.303203
-6065065.169917
-6073089.036632
-6081768.903346
-6309701.080036
-6316700.946750
-6323588.813464
-6330876.680178
-6338484.546893
-6346076.413607
-6354148.280321
-6362172.147035
-6370644.013750
-6603824.190439
-6610888.057154
-6617599.923868
-6624935.790582
-6632127.657297
-6639895.524011
-6647887.390725
-6655751.257439
-6664095.124154
-6902411.300843
-6909315.167558
-6916011.034272
-6923346.900986
-6930762.767700
-6938498.634415
-6946314.501129
-6953746.367843
-6962026.234557
-7205318.411247
-7212254.277961
-7218966.144676
-7225758.011390
-7233157.878104
-7240669.744818
-7248341.611533
-7256301.478247
-7264213.344961
-7512273.521651
-7518777.388365
-7525441.255080
-7532729.121794
-7540080.988508
-7547144.855222
-7554832.721937
-7562808.588651
-7570368.455365
-7823084.632055
-7829732.498769
-7836316.365483
-7843108.232198
-7850492.098912
-7857539.965626
-7865067.832340
-7872963.699055
-7880603.565769
-8137783.742459
-8144431.609173
-8150919.475887
-8157727.342601
-8164839.209316
-8171823.076030
-8179158.942744
-8186782.809459
-8194438.676173
-8455762.852863
-8462138.719577
-8468882.586291
-8475690.453005
-8482754.319720
-8489642.186434
-8496978.053148
-8504281.919862
-8511937.786577
-8777533.963266
-8783797.829981
-8790333.696695
-8797013.563409
-8803869.430123
-8810645.296838
-8818093.163552
-8825429.030266
-8832908.896980
-9102233.073670
-9108272.940384
-9115032.807099
-9121568.673813
-9128136.540527
-9135312.407242
-9142168.273956
-9149632.140670
-9156744.007384
-9430132.184074
-9436332.050788
-9442563.917503
-9449019.784217
-9455571.650931
-9462603.517645
-9469619.384360
-9476779.251074
-9484147.117788
-9760719.294478
-9766903.161192
-9773071.027906
-9779558.894621
-9786222.761335
-9793142.628049
-9799662.494763
-9806662.361478
-9814398.228192
-10094186.404882
-10100258.271596
-10106346.138310
-10113058.005025
-10119177.871739
-10125953.738453
-10132601.605167
-10139649.471882
-10146601.338596
-10429813.515286
-10436093.382000
-10442149.248714
-10448349.115428
-10454916.982143
-10461516.848857
-10468372.715571
-10475100.582285
-10482052.449000
-10768256.625689
-10774024.492404
-10780224.359118
-10786552.225832
-10792960.092546
-10799383.959261
-10806191.825975
-10812743.692689
-10819647.559404
-11108987.736093
-11114883.602808
-11120667.469522
-11127043.336236
-11133339.202950
-11139715.069665
-11145722.936379
-11152562.803093
-11159194.669807
-11451270.846497
-11457390.713211
-11463270.579926
-11469278.446640
-11475222.313354
-11481822.180068
-11487910.046783
-11494701.913497
-11501077.780211
-11795713.956901
-11801481.823615
-11807425.690329
-11813305.557044
-11819489.423758
-11825497.290472
-11831553.157187
-11838377.023901
-11844768.890615
-12142045.067305
-12147700.934019
-12153372.800733
-12159220.667448
-12165244.534162
-12171396.400876
-12177628.267590
-12183844.134305
-12190284.001019
-12489672.177709
-12495552.044423
-12500871.911137
-12506703.777851
-12512807.644566
-12518559.511280
-12524727.377994
-12530719.244708
-12537079.111423
-12838419.288112
-12843947.154827
-12849827.021541
-12855514.888255
-12861442.754970
-12867370.621684
-12873282.488398
-12879306.355112
-12885538.221827
-13189086.398516
-13194438.265231
-13199966.131945
-13205653.998659
-13211197.865373
-13217253.732088
-13223309.598802
-13229093.465516
-13235101.332230
-13540473.508920
-13545457.375634
-13551017.242349
-13556657.109063
-13562408.975777
-13568176.842491
-13574056.709206
-13579904.575920
-13585864.442634
-13892740.619324
-13898044.486038
-13903380.352753
-13908764.219467
-13914388.086181
-13920123.952895
-13925843.819610
-13931627.686324
-13937683.553038
-14245647.729728
-14250999.596442
-14256207.463156
-14261703.329871
-14266943.196585
-14272727.063299
-14278318.930013
-14284198.796728
-14289870.663442
-14599402.840132
-14604818.706846
-14610010.573560
-14615122.440274
-14620714.306989
-14626114.173703
-14631578.040417
-14636929.907132
-14642985.773846
-14953845.950536
-14958845.817250
-14963829.683964
-14969213.550678
-14974357.417393
-14979917.284107
-14985509.150821
-14990957.017535
-14996372.884250
-15308081.060939
-15313464.927654
-15318480.794368
-15323432.661082
-15328656.527796
-15334168.394511
-15339376.261225
-15344744.127939
-15350319.994653
-15663068.171343
-15668004.038057
-15673115.904772
-15678051.771486
-15683419.638200
-15688483.504915
-15693915.371629
-15699139.238343
-15704219.105057
-16017895.281747
-16022607.148461
-16027879.015176
-16032814.881890
-16037910.748604
-16043134.615318
-16048150.482033
-16053710.348747
-16058646.215461
-16372674.392151
-16377434.258865
-16382514.125579
-16387673.992294
-16392481.859008
-16397481.725722
-16402449.592436
-16407641.459151
-16412625.325865
-16727581.502555
-16732325.369269
-16736989.235983
-16742069.102698
-16746892.969412
-16751860.836126
-16756924.702840
-16761620.569555
-16766940.436269
-17081880.612959
-17086528.479673
-17091064.346387
-17096064.213101
-17100696.079816
-17105759.946530
-17110759.813244
-17115535.679958
-17120455.546673
-17435939.723362
-17440475.590077
-17445171.456791
-17449883.323505
-17454579.190219
-17459579.056934
-17464354.923648
-17469002.790362
-17473922.657077
-17789166.833766
-17793862.700481
-17798462.567195
-17803382.433909
-17807790.300623
-17812342.167338
-17817166.034052
-17822245.900766
-17826637.767480
-18142073.944170
-18146721.810884
-18151401.677599
-18155681.544313
-18159929.411027
-18165121.277741
-18169673.144456
-18174273.011170
-18178968.877884
-18493973.054574
-18498620.921288
-18503444.788002
-18507612.654717
-18512084.521431
-18516684.388145
-18521396.254860
-18525676.121574
-18530371.988288
-18845184.164978
-18849992.031692
-18854063.898406
-18858983.765121
-18863135.631835
-18867687.498549
-18872271.365263
-18876727.231978
-18881103.098692
-19195659.275382
-19200195.142096
-19204459.008810
-19208850.875524
-19213194.742239
-19217362.608953
-19221978.475667
-19226498.342381
-19230938.209096
-19544902.385785
-19549374.252500
-19553830.119214
-19557581.985928
-19562261.852643
-19566493.719357
-19570757.586071
-19575021.452785
-19579269.319500
-19893057.496189
-19897193.362904
-19901361.229618
-19905897.096332
-19909776.963046
-19914040.829761
-19918512.696475
-19922632.563189
-19926752.429903
-20239708.606593
-20244196.473307
-20248156.340022
-20252356.206736
-20256540.073450
-20260723.940164
-20264715.806879
-20269123.673593
-20273163.540307
-20585543.716997
-20589743.583711
-20593751.450426
-20597695.317140
-20601911.183854
-20605999.050568
-20610246.917283
-20614270.783997
-20618214.650711
-20929218.827401
-20933690.694115
-20937666.560829
-20941882.427544
-20945794.294258
-20949962.160972
-20953602.027686
-20957977.894401
-20961745.761115
-21271981.937805
-21275973.804519
-21280269.671233
-21284085.537947
-21288205.404662
-21292229.271376
-21295693.138090
-21300069.004805
-21303964.871519
-21613177.048209
-21617248.914923
-21621128.781637
-21625040.648351
-21629000.515066
-21633104.381780
-21636920.248494
-21640384.115208
-21644215.981923
-21952516.158612
-21956396.025327
-21960611.892041
-21964203.758755
-21968131.625469
-21972299.492184
-21975555.358898
-21979483.225612
-21983411.092327
SCALARS stress_2 float
LOOKUP_TABLE default
124380.333796
-6482308.957137
-6383929.141000
-6284701.324863
-6185457.508727
-6086021.692590
-5985337.876453
-5884846.060317
-5783426.244180
-5682198.428043
-5580458.611907
-5478110.795770
-5375746.979633
-5273367.163497
-5170267.347360
-5067407.531223
-4964275.715087
-4860455.898950
-4757052.082814
-4653568.266677
-4549988.450540
-4446024.634404
-4342316.818267
-4239345.002130
-4135829.185994
-4032393.369857
-3929501.553720
-3826433.737584
-3724165.921447
-3622170.105310
-3520302.289174
-3419154.473037
-3318054.656900
-3217754.840764
-3117839.024627
-3018499.208490
-2919863.392354
-2821963.576217
-2725119.760080
-2628483.943944
-2533048.127807
-2438524.311670
-2345008.495534
-2252420.679397
-2160792.863260
-2070077.047124
-1980817.230987
-1892757.414850
-1805913.598714
-1719997.782577
-1635665.966440
-1552710.150304
-1471386.334167
-1391230.518030
-1312914.701894
-1235638.885757
-1160443.069620
-1086335.253484
-1014307.437347
-944103.621210
-875323.805074
-808719.988937
-743524.172801
-680264.356664
-618860.540527
-559552.724391
-502068.908254
-446297.092117
-392445.275981
-341025.459844
-291157.643707
-243545.827571
-197534.011434
-153858.195297
-112230.379161
-72378.563024
-34862.746887
909.069249
34728.885386
66692.701523
96384.517659
-6150693.743584
375451.547349
350671.731212
323891.915076
295032.098939
264460.282802
232048.466666
197076.650529
160248.834392
121229.018256
80641.202119
37541.385983
-7526.430154
-54850.246291
-103646.062427
-155145.878564
-208037.694701
-263393.510837
-320877.326974
-379401.143111
-440756.959247
-503328.775384
-568444.591521
-634968.407657
-703332.223794
-773664.039931
-845643.856067
-919447.672204
-994787.488341
-1071359.304477
-1149659.120614
-1229990.936751
-1311650.752887
-1394142.569024
-1478858.385161
-1564534.201297
-1651538.017434
-1739565.833571
-1829033.649707
-1919845.465844
-2011633.281981
-2104189.098117
-2197752.914254
-2292740.730391
-2388272.546527
-2484652.362664
-2582200.178801
-2680147.994937
-2778911.811074
-2878203.627211
-2977895.443347
-3078659.259484
-3179743.075621
-3281914.891757
-3383382.707894
-3485794.524030
-3588366.340167
-3691402.156304
-3794437.972440
-3897953.788577
-4001277.604714
-4105081.420850
-4208645.236987
-4312881.053124
-4416508.869260
-4520424.685397
-4623860.501534
-4727536.317670
-4831084.133807
-4934407.949944
-5037347.766080
-5140303.582217
-5243115.398354
-5345367.214490
-5447491.030627
-5549166.846764
-5650266.662900
-5751366.479037
-5851682.295174
-5951854.111310
-6051737.927447
-6184124.064939
-6216818.386294
-6249992.707650
-6282959.029005
-6316485.350360
-6349547.671715
-6382609.993071
-6415944.314426
-6449118.635781
149538.655151
175368.976507
200287.297862
225845.619217
251243.940573
276130.261928
300712.583283
325694.904638
350725.225994
325689.409857
300723.088502
275388.767147
249990.445791
224784.124436
199353.803081
173395.481725
147837.160370
122390.839015
298557.593720
272999.272365
247680.951010
221802.629655
196628.308299
170573.986944
144583.665589
118817.344233
92635.022878
269713.777584
243851.456228
218085.134873
192270.813518
166248.492163
139970.170807
113787.849452
87573.528097
61055.206741
239157.961447
212543.640092
186409.318737
160274.997381
134316.676026
107798.354671
80880.033315
54505.711960
27763.390605
205338.145310
179107.823955
152957.502600
126087.181245
99920.859889
73098.538534
46276.217179
19453.895823
-7592.425532
170766.329174
143832.007819
117073.686463
90235.365108
63093.043753
36446.722397
9736.401042
-17741.920313
-45012.241669
133554.513037
106476.191682
79413.870327
52431.548971
25353.227616
-1885.093739
-29891.415095
-56905.736450
-84560.057805
94438.696901
67040.375545
39770.054190
12355.732835
-15186.588521
-42552.909876
-70639.231231
-98181.552587
-126219.873942
52954.880764
25732.559409
-1825.761947
-29624.083302
-57454.404657
-85556.726013
-113515.047368
-141265.368723
-169655.690079
9855.064627
-17911.256728
-45789.578083
-73795.899439
-102122.220794
-130048.542149
-158310.863505
-186125.184860
-214883.506215
-35484.751509
-63267.072865
-91513.394220
-119679.715575
-148182.036931
-176476.358286
-205314.679641
-233657.000997
-262687.322352
-82824.567646
-110942.889001
-139413.210357
-167947.531712
-196481.853067
-225448.174423
-253870.495778
-282708.817133
-311931.138489
-132212.383783
-160810.705138
-189425.026493
-218199.347849
-247133.669204
-276179.990559
-305242.311915
-334208.633270
-363142.954625
-183744.199919
-212294.521275
-241276.842630
-270435.163985
-299497.485341
-328719.806696
-357990.128051
-387308.449407
-416898.770762
-237100.016056
-266194.337411
-295464.658767
-324750.980122
-353765.301477
-383243.622833
-413009.944188
-442264.265543
-472158.586899
-292471.832193
-321742.153548
-351012.474903
-380778.796259
-410225.117614
-440039.438969
-469613.760325
-499588.081680
-529674.403035
-349731.648329
-379481.969685
-409152.291040
-438774.612395
-468604.933751
-498451.255106
-528585.576461
-558463.897817
-588758.219172
-409103.464466
-438981.785821
-468732.107177
-498450.428532
-528952.749887
-558975.071243
-589333.392598
-619451.713953
-649890.035309
-470251.280603
-500321.601958
-530615.923313
-560510.244669
-591012.566024
-621258.887379
-651649.208735
-681959.530090
-712893.851445
-533351.096739
-563869.418095
-593891.739450
-624522.060805
-655072.382161
-685478.703516
-716221.024871
-746851.346227
-777641.667582
-598658.912876
-628905.234231
-659519.555587
-690101.876942
-720748.198297
-751554.519653
-782296.841008
-812943.162363
-844181.483719
-665406.729013
-695973.050368
-727003.371723
-757905.693079
-788408.014434
-819326.335789
-850388.657145
-881578.978500
-912801.299855
-734090.545149
-765264.866505
-795895.187860
-827165.509215
-858035.830571
-888826.151926
-920304.473281
-951430.794637
-982909.115992
-804358.361286
-835452.682641
-866547.003997
-897737.325352
-929071.646707
-960245.968063
-991772.289418
-1023394.610773
-1054888.932129
-876434.177423
-907736.498778
-939086.820133
-970101.141489
-1002027.462844
-1033313.784199
-1064824.105555
-1096718.426910
-1128436.748265
-950493.993559
-982036.314915
-1013626.636270
-1045008.957625
-1076407.278981
-1108269.600336
-1139987.921691
-1171962.243047
-1203680.564402
-1025737.809696
-1057488.131051
-1088982.452407
-1120572.773762
-1152547.095117
-1184153.416473
-1216335.737828
-1248518.059183
-1280412.380538
-1103061.625833
-1134603.947188
-1166418.268543
-1198488.589899
-1230318.911254
-1262261.232609
-1294619.553965
-1326545.875320
-1358856.196675
-1181793.441969
-1213559.763325
-1245278.084680
-1277572.406035
-1309674.727391
-1341953.048746
-1374119.370101
-1406381.691456
-1438868.012812
-1261805.258106
-1293715.579461
-1325881.900817
-1357872.222172
-1390294.543527
-1422956.864883
-1454963.186238
-1487785.507593
-1520063.828948
-1343305.074243
-1375711.395598
-1407781.716953
-1440508.038309
-1472754.359664
-1505544.681019
-1537663.002374
-1570341.323730
-1602987.645085
-1426388.890379
-1458635.211735
-1491105.533090
-1523751.854445
-1556398.175801
-1589060.497156
-1621690.818511
-1653921.139866
-1687207.461222
-1511120.706516
-1543559.027871
-1576333.349227
-1608675.670582
-1641385.991937
-1674144.313293
-1706998.634648
-1739692.956003
-1772835.277358
-1596892.522653
-1629538.844008
-1662185.165363
-1695055.486719
-1727813.808074
-1760668.129429
-1793634.450784
-1826648.772140
-1859455.093495
-1683752.338789
-1716846.660145
-1749604.981500
-1782091.302855
-1815249.624211
-1848359.945566
-1881374.266921
-1914436.588276
-1947674.909632
-1772100.154926
-1805162.476281
-1838208.797637
-1871191.118992
-1904109.440347
-1937059.761702
-1970506.083058
-2003472.404413
-2037078.725768
-1861839.971063
-1895030.292418
-1928140.613773
-1961090.935129
-1994105.256484
-2027247.577839
-2060469.899194
-2093964.220550
-2127186.541905
-1952827.787199
-1985906.108555
-2018856.429910
-2051934.751265
-2085301.072620
-2118299.393976
-2151953.715331
-2185272.036686
-2218798.358042
-2044535.603336
-2077677.924691
-2110964.246047
-2144218.567402
-2177504.888757
-2210759.210112
-2244365.531468
-2278115.852823
-2311386.174178
-2137235.419473
-2170761.740828
-2204000.062183
-2237286.383539
-2270604.704894
-2304147.026249
-2337769.347604
-2371247.668960
-2404789.990315
-2231247.235609
-2264405.556965
-2297947.878320
-2331522.199675
-2365112.521030
-2398446.842386
-2432085.163741
-2465595.485096
-2499345.806452
-2326075.051746
-2359313.373101
-2392839.694457
-2426414.015812
-2459956.337167
-2493546.658522
-2527456.979878
-2561015.301233
-2594989.622588
-2421910.867883
-2455277.189238
-2488803.510593
-2522665.831948
-2556016.153304
-2589750.474659
-2623596.796014
-2657267.117370
-2691241.438725
-2518034.684019
-2551881.005375
-2585599.326730
-2619045.648085
-2652875.969440
-2686402.290796
-2720408.612151
-2754094.933506
-2788149.254862
-2615726.500156
-2649428.821511
-2682811.142866
-2716577.464222
-2750327.785577
-2784078.106932
-2818228.428288
-2852202.749643
-2886097.070998
-2713722.316293
-2747280.637648
-2781190.959003
-2815085.280358
-2848787.601714
-2882937.923069
-2916304.244424
-2950518.565780
-2984572.887135
-2812470.132429
-2846076.453784
-2880194.775140
-2913801.096495
-2947919.417850
-2981765.739206
-3015660.060561
-3049778.381916
-3083960.703272
-2912001.948566
-2945880.269921
-2979630.591276
-3013508.912632
-3047403.233987
-3081601.555342
-3115703.876698
-3149566.198053
-3183540.519408
-3011981.764703
-3045924.086058
-3079690.407413
-3113424.728768
-3147703.050124
-3181837.371479
-3215715.692834
-3249802.014190
-3283792.335545
-3112409.580839
-3146255.902194
-3180470.223550
-3214284.544905
-3248418.866260
-3282473.187616
-3316495.508971
-3350709.830326
-3384844.151682
-3213733.396976
-3247707.718331
-3281522.039686
-3315496.361042
-3349694.682397
-3383509.003752
-3417819.325108
-3452033.646463
-3486151.967818
-3315009.213112
-3349063.534468
-3383101.855823
-3417316.177178
-3451338.498534
-3485280.819889
-3519703.141244
-3553677.462600
-3587763.783955
-3417149.029249
-3451315.350604
-3485401.671960
-3519199.993315
-3553334.314670
-3587516.636026
-3621378.957381
-3655993.278736
-3689855.600092
-3519656.845386
-3553775.166741
-3587733.488096
-3621771.809452
-3655954.130807
-3689896.452162
-3724446.773518
-3758357.094873
-3792411.416228
-3622308.661522
-3656506.982878
-3690561.304233
-3724647.625588
-3758461.946944
-3792644.268299
-3826970.589654
-3861104.911010
-3895303.232365
-3724960.477659
-3759142.799014
-3793469.120370
-3827763.441725
-3861673.763080
-3895856.084436
-3929766.405791
-3963932.727146
-3998371.048502
-3828460.293796
-3862498.615151
-3896392.936506
-3930927.257862
-3964805.579217
-3999067.900572
-4033138.221928
-4067336.543283
-4101646.864638
-3932008.109932
-3965982.431288
-3999812.752643
-4033851.073998
-4068161.395354
-4102503.716709
-4136382.038064
-4170836.359420
-4204810.680775
-4035747.926069
-4069578.247424
-4103632.568780
-4137590.890135
-4172173.211490
-4206019.532846
-4240057.854201
-4274208.175556
-4308822.496912
-4139455.742206
-4173206.063561
-4207100.384916
-4241442.706272
-4275385.027627
-4309599.348982
-4343493.670338
-4377595.991693
-4412050.313048
-4242811.558342
-4277025.879698
-4311128.201053
-4345086.522408
-4378932.843764
-4413147.165119
-4447217.486474
-4481591.807830
-4515502.129185
-4346951.374479
-4380877.695834
-4414660.017190
-4448810.338545
-4482688.659900
-4517046.981256
-4551021.302611
-4585187.623966
-4619481.945322
-4450467.190616
-4484553.511971
-4518591.833326
-4552518.154682
-4586572.476037
-4620530.797392
-4654905.118748
-4688879.440103
-4723109.761458
-4554095.006752
-4588117.328108
-4622075.649463
-4655825.970818
-4690360.292174
-4724254.613529
-4758228.934884
-4792363.256240
-4826049.577595
-4658090.822889
-4691889.144244
-4725815.465600
-4759949.786955
-4794180.108310
-4827642.429666
-4862080.751021
-4895959.072376
-4929917.393732
-4761574.639026
-4795468.960381
-4829267.281736
-4863545.603092
-4897423.924447
-4931398.245802
-4965484.567158
-4999154.888513
-5033113.209868
-4865010.455162
-4899016.776518
-4932975.097873
-4966549.419228
-5000459.740584
-5034482.061939
-5068552.383294
-5102478.704650
-5136325.026005
-4968398.271299
-5002276.592654
-5036058.914010
-5070001.235365
-5103831.556720
-5137581.878076
-5171476.199431
-5205418.520786
-5239376.842141
-5071194.087436
-5105344.408791
-5139046.730146
-5172957.051502
-5206819.372857
-5240633.694212
-5274256.015568
-5308054.336923
-5342092.658278
-5173973.903572
-5207836.224928
-5241890.546283
-5275448.867638
-5309295.188994
-5342981.510349
-5376811.831704
-5410738.153060
-5444488.474415
-5276945.719709
-5310424.041064
-5343982.362420
-5377732.683775
-5411643.005130
-5445393.326486
-5479079.647841
-5512909.969196
-5546452.290551
-5379069.535846
-5412499.857201
-5446330.178556
-5479904.499912
-5513430.821267
-5547437.142622
-5581091.463978
-5614857.785333
-5648256.106688
-5481257.351982
-5514527.673338
-5548165.994693
-5581612.316048
-5615602.637404
-5649288.958759
-5682703.280114
-5716565.601469
-5750331.922825
-5582549.168119
-5616203.489474
-5649681.810830
-5683448.132185
-5716926.453540
-5750484.774896
-5784139.096251
-5817681.417606
-5851095.738961
-5683952.984256
-5717607.305611
-5751197.626966
-5784227.948322
-5818058.269677
-5851376.591032
-5884982.912387
-5918557.233743
-5951987.555098
-5784780.800392
-5817971.121748
-5851609.443103
-5885247.764458
-5918566.085814
-5951804.407169
-5985282.728524
-6018521.049879
-6052287.371235
-5885416.616529
-5918686.937884
-5951701.259240
-5985403.580595
-6018673.901950
-6052104.223306
-6085422.544661
-6118676.866016
-6152123.187371
-5985028.432666
-6018170.754021
-6051761.075376
-6084999.396732
-6118573.718087
-6151588.039442
-6185050.360797
-6218208.682153
-6251463.003508
-6084752.248802
-6117990.570158
-6151052.891513
-6184563.212868
-6217865.534224
-6251007.855579
-6283718.176934
-6317372.498289
-6350498.819645
SCALARS stress_3 float
LOOKUP_TABLE default
86869.439737
5953005.714612
5868856.111176
5783834.507741
5698700.904305
5613047.300869
5526937.697433
5440420.093997
5353222.490561
5266008.887125
5178411.283689
5090413.680253
5002264.076817
4913466.473381
4824788.869945
4735719.266509
4646409.663073
4557060.059637
4467654.456201
4378104.852765
4288171.249329
4198213.645894
4108200.042458
4018466.439022
3928676.835586
3839007.232150
3749385.628714
3659764.025278
3570366.421842
3481328.818406
3392355.214970
3303821.611534
3215392.008098
3127474.404662
3039940.801226
2952767.197790
2866361.594354
2780451.990918
2694694.387482
2609696.784047
2525451.180611
2441909.577175
2358855.973739
2276890.370303
2195372.766867
2114671.163431
2035321.559995
1956467.956559
1878918.353123
1802072.749687
1726683.146251
1652085.542815
1578999.939379
1506530.335943
1435796.732507
1366031.129071
1297561.525636
1230459.922200
1164718.318764
1100512.715328
1037611.111892
975925.508456
916271.905020
857682.301584
800780.698148
745319.094712
691881.491276
639627.887840
589126.284404
540400.680968
493331.077532
447573.474096
403967.870660
361794.267224
321404.663789
282799.060353
245809.456917
210603.853481
177174.250045
145432.646609
115323.043173
5834951.472518
-48608.802358
-21195.198922
8346.404514
39184.007950
71757.611386
106443.214822
142608.818258
180438.421694
220196.025130
261705.628566
305087.232002
349692.835438
396658.438874
445488.042310
495133.645746
546835.249182
600296.852618
655238.456053
711932.059489
770201.662925
829735.266361
891060.869797
953994.473233
1018496.076669
1084189.680105
1151123.283541
1219776.886977
1289342.490413
1360644.093849
1432841.697285
1506199.300721
1580868.904157
1656738.507593
1733584.111029
1811325.714465
1890331.317900
1970008.921336
2051222.524772
2132828.128208
2215481.731644
2298623.335080
2382804.938516
2467562.541952
2552736.145388
2639093.748824
2725419.352260
2813000.955696
2900150.559132
2988364.162568
3076929.766004
3165871.369440
3254796.972876
3344482.576312
3433864.179747
3524133.783183
3614115.386619
3704648.990055
3795046.593491
3885148.196927
3975841.800363
4066551.403799
4156773.007235
4247178.610671
4337888.214107
4427917.817543
4518051.420979
4608001.024415
4697718.627851
4787028.231287
4876409.834723
4965383.438159
5054037.041594
5142330.645030
5230312.248466
5317749.851902
5405179.455338
5492193.058774
5578406.662210
5664380.265646
5750009.869082
5846738.496727
5858765.520937
5870472.545146
5882387.569356
5894342.593565
5905929.617775
5917820.641984
5929639.666194
5941426.690403
73002.415527
59375.391318
45412.367109
31953.342899
18638.318690
4867.294480
-8423.729729
-22034.753939
-35133.778148
-7376.174712
5874.849497
19013.873707
33016.897916
46043.922126
59982.946335
73641.970545
87276.994754
101792.018963
21533.428724
35032.452933
48875.477143
62206.501352
76065.525562
89940.549771
103711.573980
117506.598190
131581.622399
52707.032160
66382.056369
80025.080579
93756.104788
107455.128998
121426.153207
135069.177416
149376.201626
163115.225835
85568.635596
99227.659805
112694.684015
126409.708224
140660.732433
154239.756643
168298.780852
182301.805062
196664.829271
120014.239032
133865.263241
147412.287451
161639.311660
175354.335869
189461.360079
203352.384288
217563.408498
231646.432707
156307.842468
170198.866677
183953.890886
198004.915096
211743.939305
226050.963515
240325.987724
254377.011934
268732.036143
194393.445904
208316.470113
222191.494322
236146.518532
250485.542741
264392.566951
278555.591160
292846.615370
307393.639579
234303.049339
248130.073549
262125.097758
276160.121968
290427.146177
304598.170387
318833.194596
333268.218806
347487.243015
275844.652775
289735.676985
303786.701194
317853.725404
332112.749613
346315.773823
360582.798032
375145.822242
389428.846451
319146.256211
333133.280421
347248.304630
361435.328840
375758.353049
389889.377259
404260.401468
418911.425677
433194.449887
363703.859647
378114.883857
392509.908066
406520.932276
420979.956485
435350.980695
449562.004904
464109.029113
478712.053323
410653.463083
424760.487293
439043.511502
453422.535712
467793.559921
482172.584130
496679.608340
511074.632549
525653.656759
459083.066519
473222.090729
487489.114938
502076.139148
516455.163357
530922.187566
545381.211776
559928.235985
574627.260195
509384.669955
523707.694165
537854.718374
552113.742583
566588.766793
581063.791002
595994.815212
610189.839421
624736.863631
560942.273391
575385.297601
589732.321810
604175.346019
618602.370229
632933.394438
647832.418648
662459.442857
676926.467067
614643.876827
628838.901036
643217.925246
657740.949455
672391.973665
686778.997874
701086.022084
716073.046293
730988.070503
669689.480263
683804.504472
698231.528682
712778.552891
727189.577101
741936.601310
756747.625520
771206.649729
786009.673939
726415.083699
740498.107908
755109.132118
769568.156327
784195.180537
798622.204746
813513.228956
827924.253165
843047.277374
784372.687135
798791.711344
813322.735554
827757.759763
842568.783973
857235.808182
871894.832392
886401.856601
901156.880810
844234.290571
858397.314780
873192.338990
887467.363199
902382.387409
916961.411618
931924.435827
946607.460037
961234.484246
905767.894007
920162.918216
934701.942426
949096.966635
963627.990845
978375.015054
992946.039263
1007805.063473
1022560.087682
968525.497443
982920.521652
997355.545862
1012198.570071
1026561.594280
1041220.618490
1055831.642699
1070866.666909
1085725.691118
1032419.100879
1047246.125088
1061641.149297
1076388.173507
1090775.197716
1105666.221926
1120269.246135
1134992.270345
1150131.294554
1098384.704315
1112963.728524
1127390.752733
1142033.776943
1156604.801152
1171495.825362
1186330.849571
1200717.873781
1215568.897990
1165582.307750
1180097.331960
1194420.356169
1209255.380379
1223858.404588
1238397.428798
1253440.453007
1268163.477217
1282654.501426
1234003.911186
1248446.935396
1263129.959605
1277540.983815
1292040.008024
1306955.032234
1321590.056443
1336265.080653
1351196.104862
1303761.514622
1318116.538832
1332711.563041
1347450.587251
1362245.611460
1376416.635670
1391291.659879
1406158.684089
1420649.708298
1374975.118058
1389298.142268
1403877.166477
1418400.190687
1432763.214896
1447598.239106
1462209.263315
1477028.287524
1491767.311734
1447404.721494
1461447.745704
1476202.769913
1490589.794123
1505112.818332
1519827.842542
1534758.866751
1549153.890960
1563836.915170
1520634.324930
1535045.349140
1549768.373349
1564147.397559
1578446.421768
1593337.445977
1607700.470187
1622423.494396
1637474.518606
1595415.928366
1609626.952576
1624181.976785
1638673.000994
1653316.025204
1667927.049413
1682490.073623
1697141.097832
1711856.122042
1670893.531802
1685376.556012
1699979.580221
1714502.604430
1728809.628640
1743604.652849
1758191.677059
1772818.701268
1787613.725478
1747883.135238
1762350.159447
1776881.183657
1791292.207866
1805807.232076
1820322.256285
1834885.280495
1849552.304704
1864275.328914
1825880.738674
1840315.762883
1854534.787093
1869081.811302
1883604.835512
1898303.859721
1912778.883931
1927173.908140
1941984.932350
1904654.342110
1919249.366319
1933484.390529
1947783.414738
1962314.438948
1976701.463157
1991312.487367
2006067.511576
2020694.535786
1984659.945546
1998926.969755
2013377.993965
2027661.018174
2042232.042384
2056531.066593
2071222.090803
2085761.115012
2100300.139221
2065497.548982
2079652.573191
2094007.597401
2108418.621610
2122949.645820
2137152.670029
2151835.694238
2166198.718448
2180857.742657
2147167.152418
2161266.176627
2175493.200837
2189936.225046
2204427.249256
2218678.273465
2233201.297674
2247548.321884
2261943.346093
2229660.755854
2243847.780063
2257746.804273
2272253.828482
2286704.852691
2300859.876901
2315702.901110
2329825.925320
2344460.949529
2312770.359290
2326957.383499
2341016.407709
2355339.431918
2369702.456127
2383945.480337
2398468.504546
2412727.528756
2427234.552965
2397031.962726
2410914.986935
2425238.011144
2439393.035354
2453556.059563
2468079.083773
2482338.107982
2496125.132192
2510864.156401
2481357.566162
2495784.590371
2509907.614580
2523846.638790
2538441.662999
2552404.687209
2566631.711418
2580874.735628
2595053.759837
2566891.169597
2581094.193807
2595025.218016
2609052.242226
2623311.266435
2637666.290645
2651869.314854
2666208.339064
2680171.363273
2652896.773033
2667131.797243
2681182.821452
2694833.845662
2709460.869871
2723447.894081
2737474.918290
2751501.942500
2765784.966709
2739582.376469
2753441.400679
2767292.424888
2781655.449098
2795514.473307
2809541.497517
2823472.521726
2837827.545935
2852142.570145
2826555.979905
2840471.004115
2854482.028324
2868485.052534
2882520.076743
2896419.100953
2910326.125162
2924745.149371
2938660.173581
2914201.583341
2927932.607551
2941967.631760
2955890.655970
2969829.680179
2983904.704388
2997939.728598
3012102.752807
3025977.777017
3001783.186777
3015922.210987
3029933.235196
3043960.259406
3057627.283615
3071494.307824
3085585.332034
3099556.356243
3113687.380453
3090564.790213
3104607.814423
3118106.838632
3132013.862841
3146016.887051
3159955.911260
3173790.935470
3187713.959679
3201108.983889
3179106.393649
3193117.417859
3207016.442068
3220675.466277
3234542.490487
3248321.514696
3262076.538906
3275975.563115
3289650.587325
3268455.997085
3282547.021294
3295910.045504
3309713.069713
3323500.093923
3337391.118132
3351074.142342
3364757.166551
3378288.190761
3358101.600521
3371512.624730
3385491.648940
3399198.673149
3412633.697359
3426332.721568
3440135.745778
3453810.769987
3467597.794197
3447539.203957
3461270.228166
3474601.252376
3488412.276585
3501991.300795
3515690.325004
3529421.349214
3542928.373423
3557051.397632
3537736.807393
3551291.831602
3564654.855812
3578337.880021
3591564.904231
3605407.928440
3618722.952650
3632533.976859
3645961.001068
3627550.410829
3641105.435038
3654716.459248
3668087.483457
3681602.507667
3695213.531876
3708616.556085
3722355.580295
3735958.604504
3717724.014265
3731423.038474
3744610.062684
3757949.086893
3771600.111103
3785027.135312
3798726.159521
3811753.183731
3825324.207940
3808329.617701
3821540.641910
3834959.666120
3848378.690329
3861645.714538
3875264.738748
3888539.762957
3901878.787167
3915417.811376
3898735.221137
3912034.245346
3925293.269556
3938616.293765
3952147.317974
3964998.342184
3978433.366393
3991900.390603
4005303.414812
3989236.824573
4002199.848782
4015594.872991
4028717.897201
4042056.921410
4055323.945620
4068718.969829
4081825.994039
4095421.018248
4079298.428009
4092629.452218
4105872.476427
4118963.500637
4131990.524846
4145793.549056
4158676.573265
4172071.597475
4185018.621684
4170024.031444
4182867.055654
4196350.079863
4209441.104073
4222316.128282
4235631.152492
4248866.176701
4261485.200911
4274960.225120
4260357.634880
4273328.659090
4286427.683299
4299574.707509
4312705.731718
4325788.755928
4338839.780137
4351914.804347
4364693.828556
4350515.238316
4363502.262526
4376673.286735
4389812.310945
4402559.335154
4415674.359364
4428533.383573
4441464.407782
4454491.431992
4440896.841752
4453691.865962
4466734.890171
4479329.914381
4492780.938590
4505527.962800
4518418.987009
4531142.011218
4544081.035428
4530918.445188
4543505.469398
4556628.493607
4569495.517817
4582130.542026
4595237.566235
4608000.590445
4621155.614654
4633438.638864
4620788.048624
4633439.072834
4646290.097043
4659197.121253
4672000.145462
4685003.169671
4697582.193881
4710025.218090
4722948.242300
4710529.652060
4723052.676270
4735847.700479
4748786.724688
4761325.748898
4773808.773107
4786651.797317
4799342.821526
4812089.845736
4800055.255496
4812354.279706
4825125.303915
4837632.328124
4850451.352334
4863374.376543
4875785.400753
4888124.424962
4901095.449172
4889044.858932
4901583.883141
4914178.907351
4926845.931560
4939480.955770
4951915.979979
4964495.004189
4976882.028398
4989373.052608
4977786.462368
4990461.486577
5002984.510787
5015291.534996
5027766.559206
5040393.583415
5053060.607625
5065335.631834
5077962.656044
5066368.065804
5078723.090013
5091494.114223
5103825.138432
5116356.162642
5128623.186851
5141090.211061
5153365.235270
5165912.259479
5154405.669240
5166792.693449
5179403.717659
5191894.741868
5204169.766078
5216620.790287
5228871.814497
5241266.838706
5253837.862915
5242443.272676
5255046.296885
5267097.321095
5279588.345304
5291959.369514
5304266.393723
5316677.417932
5328904.442142
5340971.466351
5330232.876112
5342459.900321
5354926.924531
5366977.948740
5379524.972950
5391639.997159
5403595.021368
5415782.045578
5428001.069787
5417398.479548
5429665.503757
5441812.527967
5453671.552176
5466106.576385
5478269.600595
5490488.624804
5502387.649014
5514726.673223
5504308.082984
5516183.107193
5528266.131403
5540501.155612
5552616.179821
5564547.204031
5576638.228240
5589137.252450
5600716.276659
5590449.686420
5602500.710629
5614671.734838
5626762.759048
5639053.783257
5650784.807467
5662667.831676
5674646.855886
5686745.880095
5676199.289856
5688314.314065
5700157.338274
5712440.362484
5724363.386693
5736286.410903
5748217.435112
5760292.459322
5772055.483531
5761844.893291
5773671.917501
5785610.941710
5797869.965920
5809792.990129
5821276.014339
5833279.038548
5845026.062758
5856893.086967
