# vtk DataFile Version 2.0
Generated volume Mesh
ASCII
DATASET UNSTRUCTURED_GRID
POINTS 891 float
0.005000 0.100000 0.000000
0.005000 0.000000 0.000000
0.005000 0.001250 0.000000
0.005000 0.002500 0.000000
0.005000 0.003750 0.000000
0.005000 0.005000 0.000000
0.005000 0.006250 0.000000
0.005000 0.007500 0.000000
0.005000 0.008750 0.000000
0.005000 0.010000 0.000000
0.005000 0.011250 0.000000
0.005000 0.012500 0.000000
0.005000 0.013750 0.000000
0.005000 0.015000 0.000000
0.005000 0.016250 0.000000
0.005000 0.017500 0.000000
0.005000 0.018750 0.000000
0.005000 0.020000 0.000000
0.005000 0.021250 0.000000
0.005000 0.022500 0.000000
0.005000 0.023750 0.000000
0.005000 0.025000 0.000000
0.005000 0.026250 0.000000
0.005000 0.027500 0.000000
0.005000 0.028750 0.000000
0.005000 0.030000 0.000000
0.005000 0.031250 0.000000
0.005000 0.032500 0.000000
0.005000 0.033750 0.000000
0.005000 0.035000 0.000000
0.005000 0.036250 0.000000
0.005000 0.037500 0.000000
0.005000 0.038750 0.000000
0.005000 0.040000 0.000000
0.005000 0.041250 0.000000
0.005000 0.042500 0.000000
0.005000 0.043750 0.000000
0.005000 0.045000 0.000000
0.005000 0.046250 0.000000
0.005000 0.047500 0.000000
0.005000 0.048750 0.000000
0.005000 0.050000 0.000000
0.005000 0.051250 0.000000
0.005000 0.052500 0.000000
0.005000 0.053750 0.000000
0.005000 0.055000 0.000000
0.005000 0.056250 0.000000
0.005000 0.057500 0.000000
0.005000 0.058750 0.000000
0.005000 0.060000 0.000000
0.005000 0.061250 0.000000
0.005000 0.062500 0.000000
0.005000 0.063750 0.000000
0.005000 0.065000 0.000000
0.005000 0.066250 0.000000
0.005000 0.067500 0.000000
0.005000 0.068750 0.000000
0.005000 0.070000 0.000000
0.005000 0.071250 0.000000
0.005000 0.072500 0.000000
0.005000 0.073750 0.000000
0.005000 0.075000 0.000000
0.005000 0.076250 0.000000
0.005000 0.077500 0.000000
0.005000 0.078750 0.000000
0.005000 0.080000 0.000000
0.005000 0.081250 0.000000
0.005000 0.082500 0.000000
0.005000 0.083750 0.000000
0.005000 0.085000 0.000000
0.005000 0.086250 0.000000
0.005000 0.087500 0.000000
0.005000 0.088750 0.000000
0.005000 0.090000 0.000000
0.005000 0.091250 0.000000
0.005000 0.092500 0.000000
0.005000 0.093750 0.000000
0.005000 0.095000 0.000000
0.005000 0.096250 0.000000
0.005000 0.097500 0.000000
0.005000 0.098750 0.000000
0.000000 0.000000 0.000000
0.000000 0.100000 0.000000
0.000000 0.098750 0.000000
0.000000 0.097500 0.000000
0.000000 0.096250 0.000000
0.000000 0.095000 0.000000
0.000000 0.093750 0.000000
0.000000 0.092500 0.000000
0.000000 0.091250 0.000000
0.000000 0.090000 0.000000
0.000000 0.088750 0.000000
0.000000 0.087500 0.000000
0.000000 0.086250 0.000000
0.000000 0.085000 0.000000
0.000000 0.083750 0.000000
0.000000 0.082500 0.000000
0.000000 0.081250 0.000000
0.000000 0.080000 0.000000
0.000000 0.078750 0.000000
0.000000 0.077500 0.000000
0.000000 0.076250 0.000000
0.000000 0.075000 0.000000
0.000000 0.073750 0.000000
0.000000 0.072500 0.000000
0.000000 0.071250 0.000000
0.000000 0.070000 0.000000
0.000000 0.068750 0.000000
0.000000 0.067500 0.000000
0.000000 0.066250 0.000000
0.000000 0.065000 0.000000
0.000000 0.063750 0.000000
0.000000 0.062500 0.000000
0.000000 0.061250 0.000000
0.000000 0.060000 0.000000
0.000000 0.058750 0.000000
0.000000 0.057500 0.000000
0.000000 0.056250 0.000000
0.000000 0.055000 0.000000
0.000000 0.053750 0.000000
0.000000 0.052500 0.000000
0.000000 0.051250 0.000000
0.000000 0.050000 0.000000
0.000000 0.048750 0.000000
0.000000 0.047500 0.000000
0.000000 0.046250 0.000000
0.000000 0.045000 0.000000
0.000000 0.043750 0.000000
0.000000 0.042500 0.000000
0.000000 0.041250 0.000000
0.000000 0.040000 0.000000
0.000000 0.038750 0.000000
0.000000 0.037500 0.000000
0.000000 0.036250 0.000000
0.000000 0.035000 0.000000
0.000000 0.033750 0.000000
0.000000 0.032500 0.000000
0.000000 0.031250 0.000000
0.000000 0.030000 0.000000
0.000000 0.028750 0.000000
0.000000 0.027500 0.000000
0.000000 0.026250 0.000000
0.000000 0.025000 0.000000
0.000000 0.023750 0.000000
0.000000 0.022500 0.000000
0.000000 0.021250 0.000000
0.000000 0.020000 0.000000
0.000000 0.018750 0.000000
0.000000 0.017500 0.000000
0.000000 0.016250 0.000000
0.000000 0.015000 0.000000
0.000000 0.013750 0.000000
0.000000 0.012500 0.000000
0.000000 0.011250 0.000000
0.000000 0.010000 0.000000
0.000000 0.008750 0.000000
0.000000 0.007500 0.000000
0.000000 0.006250 0.000000
0.000000 0.005000 0.000000
0.000000 0.003750 0.000000
0.000000 0.002500 0.000000
0.000000 0.001250 0.000000
0.000500 0.000000 0.000000
0.001000 0.000000 0.000000
0.001500 0.000000 0.000000
0.002000 0.000000 0.000000
0.002500 0.000000 0.000000
0.003000 0.000000 0.000000
0.003500 0.000000 0.000000
0.004000 0.000000 0.000000
0.004500 0.000000 0.000000
0.004500 0.100000 0.000000
0.004000 0.100000 0.000000
0.003500 0.100000 0.000000
0.003000 0.100000 0.000000
0.002500 0.100000 0.000000
0.002000 0.100000 0.000000
0.001500 0.100000 0.000000
0.001000 0.100000 0.000000
0.000500 0.100000 0.000000
0.000500 0.098750 0.000000
0.001000 0.098750 0.000000
0.001500 0.098750 0.000000
0.002000 0.098750 0.000000
0.002500 0.098750 0.000000
0.003000 0.098750 0.000000
0.003500 0.098750 0.000000
0.004000 0.098750 0.000000
0.004500 0.098750 0.000000
0.000500 0.097500 0.000000
0.001000 0.097500 0.000000
0.001500 0.097500 0.000000
0.002000 0.097500 0.000000
0.002500 0.097500 0.000000
0.003000 0.097500 0.000000
0.003500 0.097500 0.000000
0.004000 0.097500 0.000000
0.004500 0.097500 0.000000
0.000500 0.096250 0.000000
0.001000 0.096250 0.000000
0.001500 0.096250 0.000000
0.002000 0.096250 0.000000
0.002500 0.096250 0.000000
0.003000 0.096250 0.000000
0.003500 0.096250 0.000000
0.004000 0.096250 0.000000
0.004500 0.096250 0.000000
0.000500 0.095000 0.000000
0.001000 0.095000 0.000000
0.001500 0.095000 0.000000
0.002000 0.095000 0.000000
0.002500 0.095000 0.000000
0.003000 0.095000 0.000000
0.003500 0.095000 0.000000
0.004000 0.095000 0.000000
0.004500 0.095000 0.000000
0.000500 0.093750 0.000000
0.001000 0.093750 0.000000
0.001500 0.093750 0.000000
0.002000 0.093750 0.000000
0.002500 0.093750 0.000000
0.003000 0.093750 0.000000
0.003500 0.093750 0.000000
0.004000 0.093750 0.000000
0.004500 0.093750 0.000000
0.000500 0.092500 0.000000
0.001000 0.092500 0.000000
0.001500 0.092500 0.000000
0.002000 0.092500 0.000000
0.002500 0.092500 0.000000
0.003000 0.092500 0.000000
0.003500 0.092500 0.000000
0.004000 0.092500 0.000000
0.004500 0.092500 0.000000
0.000500 0.091250 0.000000
0.001000 0.091250 0.000000
0.001500 0.091250 0.000000
0.002000 0.091250 0.000000
0.002500 0.091250 0.000000
0.003000 0.091250 0.000000
0.003500 0.091250 0.000000
0.004000 0.091250 0.000000
0.004500 0.091250 0.000000
0.000500 0.090000 0.000000
0.001000 0.090000 0.000000
0.001500 0.090000 0.000000
0.002000 0.090000 0.000000
0.002500 0.090000 0.000000
0.003000 0.090000 0.000000
0.003500 0.090000 0.000000
0.004000 0.090000 0.000000
0.004500 0.090000 0.000000
0.000500 0.088750 0.000000
0.001000 0.088750 0.000000
0.001500 0.088750 0.000000
0.002000 0.088750 0.000000
0.002500 0.088750 0.000000
0.003000 0.088750 0.000000
0.003500 0.088750 0.000000
0.004000 0.088750 0.000000
0.004500 0.088750 0.000000
0.000500 0.087500 0.000000
0.001000 0.087500 0.000000
0.001500 0.087500 0.000000
0.002000 0.087500 0.000000
0.002500 0.087500 0.000000
0.003000 0.087500 0.000000
0.003500 0.087500 0.000000
0.004000 0.087500 0.000000
0.004500 0.087500 0.000000
0.000500 0.086250 0.000000
0.001000 0.086250 0.000000
0.001500 0.086250 0.000000
0.002000 0.086250 0.000000
0.002500 0.086250 0.000000
0.003000 0.086250 0.000000
0.003500 0.086250 0.000000
0.004000 0.086250 0.000000
0.004500 0.086250 0.000000
0.000500 0.085000 0.000000
0.001000 0.085000 0.000000
0.001500 0.085000 0.000000
0.002000 0.085000 0.000000
0.002500 0.085000 0.000000
0.003000 0.085000 0.000000
0.003500 0.085000 0.000000
0.004000 0.085000 0.000000
0.004500 0.085000 0.000000
0.000500 0.083750 0.000000
0.001000 0.083750 0.000000
0.001500 0.083750 0.000000
0.002000 0.083750 0.000000
0.002500 0.083750 0.000000
0.003000 0.083750 0.000000
0.003500 0.083750 0.000000
0.004000 0.083750 0.000000
0.004500 0.083750 0.000000
0.000500 0.082500 0.000000
0.001000 0.082500 0.000000
0.001500 0.082500 0.000000
0.002000 0.082500 0.000000
0.002500 0.082500 0.000000
0.003000 0.082500 0.000000
0.003500 0.082500 0.000000
0.004000 0.082500 0.000000
0.004500 0.082500 0.000000
0.000500 0.081250 0.000000
0.001000 0.081250 0.000000
0.001500 0.081250 0.000000
0.002000 0.081250 0.000000
0.002500 0.081250 0.000000
0.003000 0.081250 0.000000
0.003500 0.081250 0.000000
0.004000 0.081250 0.000000
0.004500 0.081250 0.000000
0.000500 0.080000 0.000000
0.001000 0.080000 0.000000
0.001500 0.080000 0.000000
0.002000 0.080000 0.000000
0.002500 0.080000 0.000000
0.003000 0.080000 0.000000
0.003500 0.080000 0.000000
0.004000 0.080000 0.000000
0.004500 0.080000 0.000000
0.000500 0.078750 0.000000
0.001000 0.078750 0.000000
0.001500 0.078750 0.000000
0.002000 0.078750 0.000000
0.002500 0.078750 0.000000
0.003000 0.078750 0.000000
0.003500 0.078750 0.000000
0.004000 0.078750 0.000000
0.004500 0.078750 0.000000
0.000500 0.077500 0.000000
0.001000 0.077500 0.000000
0.001500 0.077500 0.000000
0.002000 0.077500 0.000000
0.002500 0.077500 0.000000
0.003000 0.077500 0.000000
0.003500 0.077500 0.000000
0.004000 0.077500 0.000000
0.004500 0.077500 0.000000
0.000500 0.076250 0.000000
0.001000 0.076250 0.000000
0.001500 0.076250 0.000000
0.002000 0.076250 0.000000
0.002500 0.076250 0.000000
0.003000 0.076250 0.000000
0.003500 0.076250 0.000000
0.004000 0.076250 0.000000
0.004500 0.076250 0.000000
0.000500 0.075000 0.000000
0.001000 0.075000 0.000000
0.001500 0.075000 0.000000
0.002000 0.075000 0.000000
0.002500 0.075000 0.000000
0.003000 0.075000 0.000000
0.003500 0.075000 0.000000
0.004000 0.075000 0.000000
0.004500 0.075000 0.000000
0.000500 0.073750 0.000000
0.001000 0.073750 0.000000
0.001500 0.073750 0.000000
0.002000 0.073750 0.000000
0.002500 0.073750 0.000000
0.003000 0.073750 0.000000
0.003500 0.073750 0.000000
0.004000 0.073750 0.000000
0.004500 0.073750 0.000000
0.000500 0.072500 0.000000
0.001000 0.072500 0.000000
0.001500 0.072500 0.000000
0.002000 0.072500 0.000000
0.002500 0.072500 0.000000
0.003000 0.072500 0.000000
0.003500 0.072500 0.000000
0.004000 0.072500 0.000000
0.004500 0.072500 0.000000
0.000500 0.071250 0.000000
0.001000 0.071250 0.000000
0.001500 0.071250 0.000000
0.002000 0.071250 0.000000
0.002500 0.071250 0.000000
0.003000 0.071250 0.000000
0.003500 0.071250 0.000000
0.004000 0.071250 0.000000
0.004500 0.071250 0.000000
0.000500 0.070000 0.000000
0.001000 0.070000 0.000000
0.001500 0.070000 0.000000
0.002000 0.070000 0.000000
0.002500 0.070000 0.000000
0.003000 0.070000 0.000000
0.003500 0.070000 0.000000
0.004000 0.070000 0.000000
0.004500 0.070000 0.000000
0.000500 0.068750 0.000000
0.001000 0.068750 0.000000
0.001500 0.068750 0.000000
0.002000 0.068750 0.000000
0.002500 0.068750 0.000000
0.003000 0.068750 0.000000
0.003500 0.068750 0.000000
0.004000 0.068750 0.000000
0.004500 0.068750 0.000000
0.000500 0.067500 0.000000
0.001000 0.067500 0.000000
0.001500 0.067500 0.000000
0.002000 0.067500 0.000000
0.002500 0.067500 0.000000
0.003000 0.067500 0.000000
0.003500 0.067500 0.000000
0.004000 0.067500 0.000000
0.004500 0.067500 0.000000
0.000500 0.066250 0.000000
0.001000 0.066250 0.000000
0.001500 0.066250 0.000000
0.002000 0.066250 0.000000
0.002500 0.066250 0.000000
0.003000 0.066250 0.000000
0.003500 0.066250 0.000000
0.004000 0.066250 0.000000
0.004500 0.066250 0.000000
0.000500 0.065000 0.000000
0.001000 0.065000 0.000000
0.001500 0.065000 0.000000
0.002000 0.065000 0.000000
0.002500 0.065000 0.000000
0.003000 0.065000 0.000000
0.003500 0.065000 0.000000
0.004000 0.065000 0.000000
0.004500 0.065000 0.000000
0.000500 0.063750 0.000000
0.001000 0.063750 0.000000
0.001500 0.063750 0.000000
0.002000 0.063750 0.000000
0.002500 0.063750 0.000000
0.003000 0.063750 0.000000
0.003500 0.063750 0.000000
0.004000 0.063750 0.000000
0.004500 0.063750 0.000000
0.000500 0.062500 0.000000
0.001000 0.062500 0.000000
0.001500 0.062500 0.000000
0.002000 0.062500 0.000000
0.002500 0.062500 0.000000
0.003000 0.062500 0.000000
0.003500 0.062500 0.000000
0.004000 0.062500 0.000000
0.004500 0.062500 0.000000
0.000500 0.061250 0.000000
0.001000 0.061250 0.000000
0.001500 0.061250 0.000000
0.002000 0.061250 0.000000
0.002500 0.061250 0.000000
0.003000 0.061250 0.000000
0.003500 0.061250 0.000000
0.004000 0.061250 0.000000
0.004500 0.061250 0.000000
0.000500 0.060000 0.000000
0.001000 0.060000 0.000000
0.001500 0.060000 0.000000
0.002000 0.060000 0.000000
0.002500 0.060000 0.000000
0.003000 0.060000 0.000000
0.003500 0.060000 0.000000
0.004000 0.060000 0.000000
0.004500 0.060000 0.000000
0.000500 0.058750 0.000000
0.001000 0.058750 0.000000
0.001500 0.058750 0.000000
0.002000 0.058750 0.000000
0.002500 0.058750 0.000000
0.003000 0.058750 0.000000
0.003500 0.058750 0.000000
0.004000 0.058750 0.000000
0.004500 0.058750 0.000000
0.000500 0.057500 0.000000
0.001000 0.057500 0.000000
0.001500 0.057500 0.000000
0.002000 0.057500 0.000000
0.002500 0.057500 0.000000
0.003000 0.057500 0.000000
0.003500 0.057500 0.000000
0.004000 0.057500 0.000000
0.004500 0.057500 0.000000
0.000500 0.056250 0.000000
0.001000 0.056250 0.000000
0.001500 0.056250 0.000000
0.002000 0.056250 0.000000
0.002500 0.056250 0.000000
0.003000 0.056250 0.000000
0.003500 0.056250 0.000000
0.004000 0.056250 0.000000
0.004500 0.056250 0.000000
0.000500 0.055000 0.000000
0.001000 0.055000 0.000000
0.001500 0.055000 0.000000
0.002000 0.055000 0.000000
0.002500 0.055000 0.000000
0.003000 0.055000 0.000000
0.003500 0.055000 0.000000
0.004000 0.055000 0.000000
0.004500 0.055000 0.000000
0.000500 0.053750 0.000000
0.001000 0.053750 0.000000
0.001500 0.053750 0.000000
0.002000 0.053750 0.000000
0.002500 0.053750 0.000000
0.003000 0.053750 0.000000
0.003500 0.053750 0.000000
0.004000 0.053750 0.000000
0.004500 0.053750 0.000000
0.000500 0.052500 0.000000
0.001000 0.052500 0.000000
0.001500 0.052500 0.000000
0.002000 0.052500 0.000000
0.002500 0.052500 0.000000
0.003000 0.052500 0.000000
0.003500 0.052500 0.000000
0.004000 0.052500 0.000000
0.004500 0.052500 0.000000
0.000500 0.051250 0.000000
0.001000 0.051250 0.000000
0.001500 0.051250 0.000000
0.002000 0.051250 0.000000
0.002500 0.051250 0.000000
0.003000 0.051250 0.000000
0.003500 0.051250 0.000000
0.004000 0.051250 0.000000
0.004500 0.051250 0.000000
0.000500 0.050000 0.000000
0.001000 0.050000 0.000000
0.001500 0.050000 0.000000
0.002000 0.050000 0.000000
0.002500 0.050000 0.000000
0.003000 0.050000 0.000000
0.003500 0.050000 0.000000
0.004000 0.050000 0.000000
0.004500 0.050000 0.000000
0.000500 0.048750 0.000000
0.001000 0.048750 0.000000
0.001500 0.048750 0.000000
0.002000 0.048750 0.000000
0.002500 0.048750 0.000000
0.003000 0.048750 0.000000
0.003500 0.048750 0.000000
0.004000 0.048750 0.000000
0.004500 0.048750 0.000000
0.000500 0.047500 0.000000
0.001000 0.047500 0.000000
0.001500 0.047500 0.000000
0.002000 0.047500 0.000000
0.002500 0.047500 0.000000
0.003000 0.047500 0.000000
0.003500 0.047500 0.000000
0.004000 0.047500 0.000000
0.004500 0.047500 0.000000
0.000500 0.046250 0.000000
0.001000 0.046250 0.000000
0.001500 0.046250 0.000000
0.002000 0.046250 0.000000
0.002500 0.046250 0.000000
0.003000 0.046250 0.000000
0.003500 0.046250 0.000000
0.004000 0.046250 0.000000
0.004500 0.046250 0.000000
0.000500 0.045000 0.000000
0.001000 0.045000 0.000000
0.001500 0.045000 0.000000
0.002000 0.045000 0.000000
0.002500 0.045000 0.000000
0.003000 0.045000 0.000000
0.003500 0.045000 0.000000
0.004000 0.045000 0.000000
0.004500 0.045000 0.000000
0.000500 0.043750 0.000000
0.001000 0.043750 0.000000
0.001500 0.043750 0.000000
0.002000 0.043750 0.000000
0.002500 0.043750 0.000000
0.003000 0.043750 0.000000
0.003500 0.043750 0.000000
0.004000 0.043750 0.000000
0.004500 0.043750 0.000000
0.000500 0.042500 0.000000
0.001000 0.042500 0.000000
0.001500 0.042500 0.000000
0.002000 0.042500 0.000000
0.002500 0.042500 0.000000
0.003000 0.042500 0.000000
0.003500 0.042500 0.000000
0.004000 0.042500 0.000000
0.004500 0.042500 0.000000
0.000500 0.041250 0.000000
0.001000 0.041250 0.000000
0.001500 0.041250 0.000000
0.002000 0.041250 0.000000
0.002500 0.041250 0.000000
0.003000 0.041250 0.000000
0.003500 0.041250 0.000000
0.004000 0.041250 0.000000
0.004500 0.041250 0.000000
0.000500 0.040000 0.000000
0.001000 0.040000 0.000000
0.001500 0.040000 0.000000
0.002000 0.040000 0.000000
0.002500 0.040000 0.000000
0.003000 0.040000 0.000000
0.003500 0.040000 0.000000
0.004000 0.040000 0.000000
0.004500 0.040000 0.000000
0.000500 0.038750 0.000000
0.001000 0.038750 0.000000
0.001500 0.038750 0.000000
0.002000 0.038750 0.000000
0.002500 0.038750 0.000000
0.003000 0.038750 0.000000
0.003500 0.038750 0.000000
0.004000 0.038750 0.000000
0.004500 0.038750 0.000000
0.000500 0.037500 0.000000
0.001000 0.037500 0.000000
0.001500 0.037500 0.000000
0.002000 0.037500 0.000000
0.002500 0.037500 0.000000
0.003000 0.037500 0.000000
0.003500 0.037500 0.000000
0.004000 0.037500 0.000000
0.004500 0.037500 0.000000
0.000500 0.036250 0.000000
0.001000 0.036250 0.000000
0.001500 0.036250 0.000000
0.002000 0.036250 0.000000
0.002500 0.036250 0.000000
0.003000 0.036250 0.000000
0.003500 0.036250 0.000000
0.004000 0.036250 0.000000
0.004500 0.036250 0.000000
0.000500 0.035000 0.000000
0.001000 0.035000 0.000000
0.001500 0.035000 0.000000
0.002000 0.035000 0.000000
0.002500 0.035000 0.000000
0.003000 0.035000 0.000000
0.003500 0.035000 0.000000
0.004000 0.035000 0.000000
0.004500 0.035000 0.000000
0.000500 0.033750 0.000000
0.001000 0.033750 0.000000
0.001500 0.033750 0.000000
0.002000 0.033750 0.000000
0.002500 0.033750 0.000000
0.003000 0.033750 0.000000
0.003500 0.033750 0.000000
0.004000 0.033750 0.000000
0.004500 0.033750 0.000000
0.000500 0.032500 0.000000
0.001000 0.032500 0.000000
0.001500 0.032500 0.000000
0.002000 0.032500 0.000000
0.002500 0.032500 0.000000
0.003000 0.032500 0.000000
0.003500 0.032500 0.000000
0.004000 0.032500 0.000000
0.004500 0.032500 0.000000
0.000500 0.031250 0.000000
0.001000 0.031250 0.000000
0.001500 0.031250 0.000000
0.002000 0.031250 0.000000
0.002500 0.031250 0.000000
0.003000 0.031250 0.000000
0.003500 0.031250 0.000000
0.004000 0.031250 0.000000
0.004500 0.031250 0.000000
0.000500 0.030000 0.000000
0.001000 0.030000 0.000000
0.001500 0.030000 0.000000
0.002000 0.030000 0.000000
0.002500 0.030000 0.000000
0.003000 0.030000 0.000000
0.003500 0.030000 0.000000
0.004000 0.030000 0.000000
0.004500 0.030000 0.000000
0.000500 0.028750 0.000000
0.001000 0.028750 0.000000
0.001500 0.028750 0.000000
0.002000 0.028750 0.000000
0.002500 0.028750 0.000000
0.003000 0.028750 0.000000
0.003500 0.028750 0.000000
0.004000 0.028750 0.000000
0.004500 0.028750 0.000000
0.000500 0.027500 0.000000
0.001000 0.027500 0.000000
0.001500 0.027500 0.000000
0.002000 0.027500 0.000000
0.002500 0.027500 0.000000
0.003000 0.027500 0.000000
0.003500 0.027500 0.000000
0.004000 0.027500 0.000000
0.004500 0.027500 0.000000
0.000500 0.026250 0.000000
0.001000 0.026250 0.000000
0.001500 0.026250 0.000000
0.002000 0.026250 0.000000
0.002500 0.026250 0.000000
0.003000 0.026250 0.000000
0.003500 0.026250 0.000000
0.004000 0.026250 0.000000
0.004500 0.026250 0.000000
0.000500 0.025000 0.000000
0.001000 0.025000 0.000000
0.001500 0.025000 0.000000
0.002000 0.025000 0.000000
0.002500 0.025000 0.000000
0.003000 0.025000 0.000000
0.003500 0.025000 0.000000
0.004000 0.025000 0.000000
0.004500 0.025000 0.000000
0.000500 0.023750 0.000000
0.001000 0.023750 0.000000
0.001500 0.023750 0.000000
0.002000 0.023750 0.000000
0.002500 0.023750 0.000000
0.003000 0.023750 0.000000
0.003500 0.023750 0.000000
0.004000 0.023750 0.000000
0.004500 0.023750 0.000000
0.000500 0.022500 0.000000
0.001000 0.022500 0.000000
0.001500 0.022500 0.000000
0.002000 0.022500 0.000000
0.002500 0.022500 0.000000
0.003000 0.022500 0.000000
0.003500 0.022500 0.000000
0.004000 0.022500 0.000000
0.004500 0.022500 0.000000
0.000500 0.021250 0.000000
0.001000 0.021250 0.000000
0.001500 0.021250 0.000000
0.002000 0.021250 0.000000
0.002500 0.021250 0.000000
0.003000 0.021250 0.000000
0.003500 0.021250 0.000000
0.004000 0.021250 0.000000
0.004500 0.021250 0.000000
0.000500 0.020000 0.000000
0.001000 0.020000 0.000000
0.001500 0.020000 0.000000
0.002000 0.020000 0.000000
0.002500 0.020000 0.000000
0.003000 0.020000 0.000000
0.003500 0.020000 0.000000
0.004000 0.020000 0.000000
0.004500 0.020000 0.000000
0.000500 0.018750 0.000000
0.001000 0.018750 0.000000
0.001500 0.018750 0.000000
0.002000 0.018750 0.000000
0.002500 0.018750 0.000000
0.003000 0.018750 0.000000
0.003500 0.018750 0.000000
0.004000 0.018750 0.000000
0.004500 0.018750 0.000000
0.000500 0.017500 0.000000
0.001000 0.017500 0.000000
0.001500 0.017500 0.000000
0.002000 0.017500 0.000000
0.002500 0.017500 0.000000
0.003000 0.017500 0.000000
0.003500 0.017500 0.000000
0.004000 0.017500 0.000000
0.004500 0.017500 0.000000
0.000500 0.016250 0.000000
0.001000 0.016250 0.000000
0.001500 0.016250 0.000000
0.002000 0.016250 0.000000
0.002500 0.016250 0.000000
0.003000 0.016250 0.000000
0.003500 0.016250 0.000000
0.004000 0.016250 0.000000
0.004500 0.016250 0.000000
0.000500 0.015000 0.000000
0.001000 0.015000 0.000000
0.001500 0.015000 0.000000
0.002000 0.015000 0.000000
0.002500 0.015000 0.000000
0.003000 0.015000 0.000000
0.003500 0.015000 0.000000
0.004000 0.015000 0.000000
0.004500 0.015000 0.000000
0.000500 0.013750 0.000000
0.001000 0.013750 0.000000
0.001500 0.013750 0.000000
0.002000 0.013750 0.000000
0.002500 0.013750 0.000000
0.003000 0.013750 0.000000
0.003500 0.013750 0.000000
0.004000 0.013750 0.000000
0.004500 0.013750 0.000000
0.000500 0.012500 0.000000
0.001000 0.012500 0.000000
0.001500 0.012500 0.000000
0.002000 0.012500 0.000000
0.002500 0.012500 0.000000
0.003000 0.012500 0.000000
0.003500 0.012500 0.000000
0.004000 0.012500 0.000000
0.004500 0.012500 0.000000
0.000500 0.011250 0.000000
0.001000 0.011250 0.000000
0.001500 0.011250 0.000000
0.002000 0.011250 0.000000
0.002500 0.011250 0.000000
0.003000 0.011250 0.000000
0.003500 0.011250 0.000000
0.004000 0.011250 0.000000
0.004500 0.011250 0.000000
0.000500 0.010000 0.000000
0.001000 0.010000 0.000000
0.001500 0.010000 0.000000
0.002000 0.010000 0.000000
0.002500 0.010000 0.000000
0.003000 0.010000 0.000000
0.003500 0.010000 0.000000
0.004000 0.010000 0.000000
0.004500 0.010000 0.000000
0.000500 0.008750 0.000000
0.001000 0.008750 0.000000
0.001500 0.008750 0.000000
0.002000 0.008750 0.000000
0.002500 0.008750 0.000000
0.003000 0.008750 0.000000
0.003500 0.008750 0.000000
0.004000 0.008750 0.000000
0.004500 0.008750 0.000000
0.000500 0.007500 0.000000
0.001000 0.007500 0.000000
0.001500 0.007500 0.000000
0.002000 0.007500 0.000000
0.002500 0.007500 0.000000
0.003000 0.007500 0.000000
0.003500 0.007500 0.000000
0.004000 0.007500 0.000000
0.004500 0.007500 0.000000
0.000500 0.006250 0.000000
0.001000 0.006250 0.000000
0.001500 0.006250 0.000000
0.002000 0.006250 0.000000
0.002500 0.006250 0.000000
0.003000 0.006250 0.000000
0.003500 0.006250 0.000000
0.004000 0.006250 0.000000
0.004500 0.006250 0.000000
0.000500 0.005000 0.000000
0.001000 0.005000 0.000000
0.001500 0.005000 0.000000
0.002000 0.005000 0.000000
0.002500 0.005000 0.000000
0.003000 0.005000 0.000000
0.003500 0.005000 0.000000
0.004000 0.005000 0.000000
0.004500 0.005000 0.000000
0.000500 0.003750 0.000000
0.001000 0.003750 0.000000
0.001500 0.003750 0.000000
0.002000 0.003750 0.000000
0.002500 0.003750 0.000000
0.003000 0.003750 0.000000
0.003500 0.003750 0.000000
0.004000 0.003750 0.000000
0.004500 0.003750 0.000000
0.000500 0.002500 0.000000
0.001000 0.002500 0.000000
0.001500 0.002500 0.000000
0.002000 0.002500 0.000000
0.002500 0.002500 0.000000
0.003000 0.002500 0.000000
0.003500 0.002500 0.000000
0.004000 0.002500 0.000000
0.004500 0.002500 0.000000
0.000500 0.001250 0.000000
0.001000 0.001250 0.000000
0.001500 0.001250 0.000000
0.002000 0.001250 0.000000
0.002500 0.001250 0.000000
0.003000 0.001250 0.000000
0.003500 0.001250 0.000000
0.004000 0.001250 0.000000
0.004500 0.001250 0.000000
CELLS 800 4000
4 82 83 180 179
4 179 180 181 178
4 178 181 182 177
4 177 182 183 176
4 176 183 184 175
4 175 184 185 174
4 174 185 186 173
4 173 186 187 172
4 172 187 188 171
4 171 188 80 0
4 83 84 189 180
4 180 189 190 181
4 181 190 191 182
4 182 191 192 183
4 183 192 193 184
4 184 193 194 185
4 185 194 195 186
4 186 195 196 187
4 187 196 197 188
4 188 197 79 80
4 84 85 198 189
4 189 198 199 190
4 190 199 200 191
4 191 200 201 192
4 192 201 202 193
4 193 202 203 194
4 194 203 204 195
4 195 204 205 196
4 196 205 206 197
4 197 206 78 79
4 85 86 207 198
4 198 207 208 199
4 199 208 209 200
4 200 209 210 201
4 201 210 211 202
4 202 211 212 203
4 203 212 213 204
4 204 213 214 205
4 205 214 215 206
4 206 215 77 78
4 86 87 216 207
4 207 216 217 208
4 208 217 218 209
4 209 218 219 210
4 210 219 220 211
4 211 220 221 212
4 212 221 222 213
4 213 222 223 214
4 214 223 224 215
4 215 224 76 77
4 87 88 225 216
4 216 225 226 217
4 217 226 227 218
4 218 227 228 219
4 219 228 229 220
4 220 229 230 221
4 221 230 231 222
4 222 231 232 223
4 223 232 233 224
4 224 233 75 76
4 88 89 234 225
4 225 234 235 226
4 226 235 236 227
4 227 236 237 228
4 228 237 238 229
4 229 238 239 230
4 230 239 240 231
4 231 240 241 232
4 232 241 242 233
4 233 242 74 75
4 89 90 243 234
4 234 243 244 235
4 235 244 245 236
4 236 245 246 237
4 237 246 247 238
4 238 247 248 239
4 239 248 249 240
4 240 249 250 241
4 241 250 251 242
4 242 251 73 74
4 90 91 252 243
4 243 252 253 244
4 244 253 254 245
4 245 254 255 246
4 246 255 256 247
4 247 256 257 248
4 248 257 258 249
4 249 258 259 250
4 250 259 260 251
4 251 260 72 73
4 91 92 261 252
4 252 261 262 253
4 253 262 263 254
4 254 263 264 255
4 255 264 265 256
4 256 265 266 257
4 257 266 267 258
4 258 267 268 259
4 259 268 269 260
4 260 269 71 72
4 92 93 270 261
4 261 270 271 262
4 262 271 272 263
4 263 272 273 264
4 264 273 274 265
4 265 274 275 266
4 266 275 276 267
4 267 276 277 268
4 268 277 278 269
4 269 278 70 71
4 93 94 279 270
4 270 279 280 271
4 271 280 281 272
4 272 281 282 273
4 273 282 283 274
4 274 283 284 275
4 275 284 285 276
4 276 285 286 277
4 277 286 287 278
4 278 287 69 70
4 94 95 288 279
4 279 288 289 280
4 280 289 290 281
4 281 290 291 282
4 282 291 292 283
4 283 292 293 284
4 284 293 294 285
4 285 294 295 286
4 286 295 296 287
4 287 296 68 69
4 95 96 297 288
4 288 297 298 289
4 289 298 299 290
4 290 299 300 291
4 291 300 301 292
4 292 301 302 293
4 293 302 303 294
4 294 303 304 295
4 295 304 305 296
4 296 305 67 68
4 96 97 306 297
4 297 306 307 298
4 298 307 308 299
4 299 308 309 300
4 300 309 310 301
4 301 310 311 302
4 302 311 312 303
4 303 312 313 304
4 304 313 314 305
4 305 314 66 67
4 97 98 315 306
4 306 315 316 307
4 307 316 317 308
4 308 317 318 309
4 309 318 319 310
4 310 319 320 311
4 311 320 321 312
4 312 321 322 313
4 313 322 323 314
4 314 323 65 66
4 98 99 324 315
4 315 324 325 316
4 316 325 326 317
4 317 326 327 318
4 318 327 328 319
4 319 328 329 320
4 320 329 330 321
4 321 330 331 322
4 322 331 332 323
4 323 332 64 65
4 99 100 333 324
4 324 333 334 325
4 325 334 335 326
4 326 335 336 327
4 327 336 337 328
4 328 337 338 329
4 329 338 339 330
4 330 339 340 331
4 331 340 341 332
4 332 341 63 64
4 100 101 342 333
4 333 342 343 334
4 334 343 344 335
4 335 344 345 336
4 336 345 346 337
4 337 346 347 338
4 338 347 348 339
4 339 348 349 340
4 340 349 350 341
4 341 350 62 63
4 101 102 351 342
4 342 351 352 343
4 343 352 353 344
4 344 353 354 345
4 345 354 355 346
4 346 355 356 347
4 347 356 357 348
4 348 357 358 349
4 349 358 359 350
4 350 359 61 62
4 102 103 360 351
4 351 360 361 352
4 352 361 362 353
4 353 362 363 354
4 354 363 364 355
4 355 364 365 356
4 356 365 366 357
4 357 366 367 358
4 358 367 368 359
4 359 368 60 61
4 103 104 369 360
4 360 369 370 361
4 361 370 371 362
4 362 371 372 363
4 363 372 373 364
4 364 373 374 365
4 365 374 375 366
4 366 375 376 367
4 367 376 377 368
4 368 377 59 60
4 104 105 378 369
4 369 378 379 370
4 370 379 380 371
4 371 380 381 372
4 372 381 382 373
4 373 382 383 374
4 374 383 384 375
4 375 384 385 376
4 376 385 386 377
4 377 386 58 59
4 105 106 387 378
4 378 387 388 379
4 379 388 389 380
4 380 389 390 381
4 381 390 391 382
4 382 391 392 383
4 383 392 393 384
4 384 393 394 385
4 385 394 395 386
4 386 395 57 58
4 106 107 396 387
4 387 396 397 388
4 388 397 398 389
4 389 398 399 390
4 390 399 400 391
4 391 400 401 392
4 392 401 402 393
4 393 402 403 394
4 394 403 404 395
4 395 404 56 57
4 107 108 405 396
4 396 405 406 397
4 397 406 407 398
4 398 407 408 399
4 399 408 409 400
4 400 409 410 401
4 401 410 411 402
4 402 411 412 403
4 403 412 413 404
4 404 413 55 56
4 108 109 414 405
4 405 414 415 406
4 406 415 416 407
4 407 416 417 408
4 408 417 418 409
4 409 418 419 410
4 410 419 420 411
4 411 420 421 412
4 412 421 422 413
4 413 422 54 55
4 109 110 423 414
4 414 423 424 415
4 415 424 425 416
4 416 425 426 417
4 417 426 427 418
4 418 427 428 419
4 419 428 429 420
4 420 429 430 421
4 421 430 431 422
4 422 431 53 54
4 110 111 432 423
4 423 432 433 424
4 424 433 434 425
4 425 434 435 426
4 426 435 436 427
4 427 436 437 428
4 428 437 438 429
4 429 438 439 430
4 430 439 440 431
4 431 440 52 53
4 111 112 441 432
4 432 441 442 433
4 433 442 443 434
4 434 443 444 435
4 435 444 445 436
4 436 445 446 437
4 437 446 447 438
4 438 447 448 439
4 439 448 449 440
4 440 449 51 52
4 112 113 450 441
4 441 450 451 442
4 442 451 452 443
4 443 452 453 444
4 444 453 454 445
4 445 454 455 446
4 446 455 456 447
4 447 456 457 448
4 448 457 458 449
4 449 458 50 51
4 113 114 459 450
4 450 459 460 451
4 451 460 461 452
4 452 461 462 453
4 453 462 463 454
4 454 463 464 455
4 455 464 465 456
4 456 465 466 457
4 457 466 467 458
4 458 467 49 50
4 114 115 468 459
4 459 468 469 460
4 460 469 470 461
4 461 470 471 462
4 462 471 472 463
4 463 472 473 464
4 464 473 474 465
4 465 474 475 466
4 466 475 476 467
4 467 476 48 49
4 115 116 477 468
4 468 477 478 469
4 469 478 479 470
4 470 479 480 471
4 471 480 481 472
4 472 481 482 473
4 473 482 483 474
4 474 483 484 475
4 475 484 485 476
4 476 485 47 48
4 116 117 486 477
4 477 486 487 478
4 478 487 488 479
4 479 488 489 480
4 480 489 490 481
4 481 490 491 482
4 482 491 492 483
4 483 492 493 484
4 484 493 494 485
4 485 494 46 47
4 117 118 495 486
4 486 495 496 487
4 487 496 497 488
4 488 497 498 489
4 489 498 499 490
4 490 499 500 491
4 491 500 501 492
4 492 501 502 493
4 493 502 503 494
4 494 503 45 46
4 118 119 504 495
4 495 504 505 496
4 496 505 506 497
4 497 506 507 498
4 498 507 508 499
4 499 508 509 500
4 500 509 510 501
4 501 510 511 502
4 502 511 512 503
4 503 512 44 45
4 119 120 513 504
4 504 513 514 505
4 505 514 515 506
4 506 515 516 507
4 507 516 517 508
4 508 517 518 509
4 509 518 519 510
4 510 519 520 511
4 511 520 521 512
4 512 521 43 44
4 120 121 522 513
4 513 522 523 514
4 514 523 524 515
4 515 524 525 516
4 516 525 526 517
4 517 526 527 518
4 518 527 528 519
4 519 528 529 520
4 520 529 530 521
4 521 530 42 43
4 121 122 531 522
4 522 531 532 523
4 523 532 533 524
4 524 533 534 525
4 525 534 535 526
4 526 535 536 527
4 527 536 537 528
4 528 537 538 529
4 529 538 539 530
4 530 539 41 42
4 122 123 540 531
4 531 540 541 532
4 532 541 542 533
4 533 542 543 534
4 534 543 544 535
4 535 544 545 536
4 536 545 546 537
4 537 546 547 538
4 538 547 548 539
4 539 548 40 41
4 123 124 549 540
4 540 549 550 541
4 541 550 551 542
4 542 551 552 543
4 543 552 553 544
4 544 553 554 545
4 545 554 555 546
4 546 555 556 547
4 547 556 557 548
4 548 557 39 40
4 124 125 558 549
4 549 558 559 550
4 550 559 560 551
4 551 560 561 552
4 552 561 562 553
4 553 562 563 554
4 554 563 564 555
4 555 564 565 556
4 556 565 566 557
4 557 566 38 39
4 125 126 567 558
4 558 567 568 559
4 559 568 569 560
4 560 569 570 561
4 561 570 571 562
4 562 571 572 563
4 563 572 573 564
4 564 573 574 565
4 565 574 575 566
4 566 575 37 38
4 126 127 576 567
4 567 576 577 568
4 568 577 578 569
4 569 578 579 570
4 570 579 580 571
4 571 580 581 572
4 572 581 582 573
4 573 582 583 574
4 574 583 584 575
4 575 584 36 37
4 127 128 585 576
4 576 585 586 577
4 577 586 587 578
4 578 587 588 579
4 579 588 589 580
4 580 589 590 581
4 581 590 591 582
4 582 591 592 583
4 583 592 593 584
4 584 593 35 36
4 128 129 594 585
4 585 594 595 586
4 586 595 596 587
4 587 596 597 588
4 588 597 598 589
4 589 598 599 590
4 590 599 600 591
4 591 600 601 592
4 592 601 602 593
4 593 602 34 35
4 129 130 603 594
4 594 603 604 595
4 595 604 605 596
4 596 605 606 597
4 597 606 607 598
4 598 607 608 599
4 599 608 609 600
4 600 609 610 601
4 601 610 611 602
4 602 611 33 34
4 130 131 612 603
4 603 612 613 604
4 604 613 614 605
4 605 614 615 606
4 606 615 616 607
4 607 616 617 608
4 608 617 618 609
4 609 618 619 610
4 610 619 620 611
4 611 620 32 33
4 131 132 621 612
4 612 621 622 613
4 613 622 623 614
4 614 623 624 615
4 615 624 625 616
4 616 625 626 617
4 617 626 627 618
4 618 627 628 619
4 619 628 629 620
4 620 629 31 32
4 132 133 630 621
4 621 630 631 622
4 622 631 632 623
4 623 632 633 624
4 624 633 634 625
4 625 634 635 626
4 626 635 636 627
4 627 636 637 628
4 628 637 638 629
4 629 638 30 31
4 133 134 639 630
4 630 639 640 631
4 631 640 641 632
4 632 641 642 633
4 633 642 643 634
4 634 643 644 635
4 635 644 645 636
4 636 645 646 637
4 637 646 647 638
4 638 647 29 30
4 134 135 648 639
4 639 648 649 640
4 640 649 650 641
4 641 650 651 642
4 642 651 652 643
4 643 652 653 644
4 644 653 654 645
4 645 654 655 646
4 646 655 656 647
4 647 656 28 29
4 135 136 657 648
4 648 657 658 649
4 649 658 659 650
4 650 659 660 651
4 651 660 661 652
4 652 661 662 653
4 653 662 663 654
4 654 663 664 655
4 655 664 665 656
4 656 665 27 28
4 136 137 666 657
4 657 666 667 658
4 658 667 668 659
4 659 668 669 660
4 660 669 670 661
4 661 670 671 662
4 662 671 672 663
4 663 672 673 664
4 664 673 674 665
4 665 674 26 27
4 137 138 675 666
4 666 675 676 667
4 667 676 677 668
4 668 677 678 669
4 669 678 679 670
4 670 679 680 671
4 671 680 681 672
4 672 681 682 673
4 673 682 683 674
4 674 683 25 26
4 138 139 684 675
4 675 684 685 676
4 676 685 686 677
4 677 686 687 678
4 678 687 688 679
4 679 688 689 680
4 680 689 690 681
4 681 690 691 682
4 682 691 692 683
4 683 692 24 25
4 139 140 693 684
4 684 693 694 685
4 685 694 695 686
4 686 695 696 687
4 687 696 697 688
4 688 697 698 689
4 689 698 699 690
4 690 699 700 691
4 691 700 701 692
4 692 701 23 24
4 140 141 702 693
4 693 702 703 694
4 694 703 704 695
4 695 704 705 696
4 696 705 706 697
4 697 706 707 698
4 698 707 708 699
4 699 708 709 700
4 700 709 710 701
4 701 710 22 23
4 141 142 711 702
4 702 711 712 703
4 703 712 713 704
4 704 713 714 705
4 705 714 715 706
4 706 715 716 707
4 707 716 717 708
4 708 717 718 709
4 709 718 719 710
4 710 719 21 22
4 142 143 720 711
4 711 720 721 712
4 712 721 722 713
4 713 722 723 714
4 714 723 724 715
4 715 724 725 716
4 716 725 726 717
4 717 726 727 718
4 718 727 728 719
4 719 728 20 21
4 143 144 729 720
4 720 729 730 721
4 721 730 731 722
4 722 731 732 723
4 723 732 733 724
4 724 733 734 725
4 725 734 735 726
4 726 735 736 727
4 727 736 737 728
4 728 737 19 20
4 144 145 738 729
4 729 738 739 730
4 730 739 740 731
4 731 740 741 732
4 732 741 742 733
4 733 742 743 734
4 734 743 744 735
4 735 744 745 736
4 736 745 746 737
4 737 746 18 19
4 145 146 747 738
4 738 747 748 739
4 739 748 749 740
4 740 749 750 741
4 741 750 751 742
4 742 751 752 743
4 743 752 753 744
4 744 753 754 745
4 745 754 755 746
4 746 755 17 18
4 146 147 756 747
4 747 756 757 748
4 748 757 758 749
4 749 758 759 750
4 750 759 760 751
4 751 760 761 752
4 752 761 762 753
4 753 762 763 754
4 754 763 764 755
4 755 764 16 17
4 147 148 765 756
4 756 765 766 757
4 757 766 767 758
4 758 767 768 759
4 759 768 769 760
4 760 769 770 761
4 761 770 771 762
4 762 771 772 763
4 763 772 773 764
4 764 773 15 16
4 148 149 774 765
4 765 774 775 766
4 766 775 776 767
4 767 776 777 768
4 768 777 778 769
4 769 778 779 770
4 770 779 780 771
4 771 780 781 772
4 772 781 782 773
4 773 782 14 15
4 149 150 783 774
4 774 783 784 775
4 775 784 785 776
4 776 785 786 777
4 777 786 787 778
4 778 787 788 779
4 779 788 789 780
4 780 789 790 781
4 781 790 791 782
4 782 791 13 14
4 150 151 792 783
4 783 792 793 784
4 784 793 794 785
4 785 794 795 786
4 786 795 796 787
4 787 796 797 788
4 788 797 798 789
4 789 798 799 790
4 790 799 800 791
4 791 800 12 13
4 151 152 801 792
4 792 801 802 793
4 793 802 803 794
4 794 803 804 795
4 795 804 805 796
4 796 805 806 797
4 797 806 807 798
4 798 807 808 799
4 799 808 809 800
4 800 809 11 12
4 152 153 810 801
4 801 810 811 802
4 802 811 812 803
4 803 812 813 804
4 804 813 814 805
4 805 814 815 806
4 806 815 816 807
4 807 816 817 808
4 808 817 818 809
4 809 818 10 11
4 153 154 819 810
4 810 819 820 811
4 811 820 821 812
4 812 821 822 813
4 813 822 823 814
4 814 823 824 815
4 815 824 825 816
4 816 825 826 817
4 817 826 827 818
4 818 827 9 10
4 154 155 828 819
4 819 828 829 820
4 820 829 830 821
4 821 830 831 822
4 822 831 832 823
4 823 832 833 824
4 824 833 834 825
4 825 834 835 826
4 826 835 836 827
4 827 836 8 9
4 155 156 837 828
4 828 837 838 829
4 829 838 839 830
4 830 839 840 831
4 831 840 841 832
4 832 841 842 833
4 833 842 843 834
4 834 843 844 835
4 835 844 845 836
4 836 845 7 8
4 156 157 846 837
4 837 846 847 838
4 838 847 848 839
4 839 848 849 840
4 840 849 850 841
4 841 850 851 842
4 842 851 852 843
4 843 852 853 844
4 844 853 854 845
4 845 854 6 7
4 157 158 855 846
4 846 855 856 847
4 847 856 857 848
4 848 857 858 849
4 849 858 859 850
4 850 859 860 851
4 851 860 861 852
4 852 861 862 853
4 853 862 863 854
4 854 863 5 6
4 158 159 864 855
4 855 864 865 856
4 856 865 866 857
4 857 866 867 858
4 858 867 868 859
4 859 868 869 860
4 860 869 870 861
4 861 870 871 862
4 862 871 872 863
4 863 872 4 5
4 159 160 873 864
4 864 873 874 865
4 865 874 875 866
4 866 875 876 867
4 867 876 877 868
4 868 877 878 869
4 869 878 879 870
4 870 879 880 871
4 871 880 881 872
4 872 881 3 4
4 160 161 882 873
4 873 882 883 874
4 874 883 884 875
4 875 884 885 876
4 876 885 886 877
4 877 886 887 878
4 878 887 888 879
4 879 888 889 880
4 880 889 890 881
4 881 890 2 3
4 161 81 162 882
4 882 162 163 883
4 883 163 164 884
4 884 164 165 885
4 885 165 166 886
4 886 166 167 887
4 887 167 168 888
4 888 168 169 889
4 889 169 170 890
4 890 170 1 2
CELL_TYPES 800
9
9
9
9
9
9
9
9
9
9
9
9
9
9
9
9
9
9
9
9
9
9
9
9
9
9
9
9
9
9
9
9
9
9
9
9
9
9
9
9
9
9
9
9
9
9
9
9
9
9
9
9
9
9
9
9
9
9
9
9
9
9
9
9
9
9
9
9
9
9
9
9
9
9
9
9
9
9
9
9
9
9
9
9
9
9
9
9
9
9
9
9
9
9
9
9
9
9
9
9
9
9
9
9
9
9
9
9
9
9
9
9
9
9
9
9
9
9
9
9
9
9
9
9
9
9
9
9
9
9
9
9
9
9
9
9
9
9
9
9
9
9
9
9
9
9
9
9
9
9
9
9
9
9
9
9
9
9
9
9
9
9
9
9
9
9
9
9
9
9
9
9
9
9
9
9
9
9
9
9
9
9
9
9
9
9
9
9
9
9
9
9
9
9
9
9
9
9
9
9
9
9
9
9
9
9
9
9
9
9
9
9
9
9
9
9
9
9
9
9
9
9
9
9
9
9
9
9
9
9
9
9
9
9
9
9
9
9
9
9
9
9
9
9
9
9
9
9
9
9
9
9
9
9
9
9
9
9
9
9
9
9
9
9
9
9
9
9
9
9
9
9
9
9
9
9
9
9
9
9
9
9
9
9
9
9
9
9
9
9
9
9
9
9
9
9
9
9
9
9
9
9
9
9
9
9
9
9
9
9
9
9
9
9
9
9
9
9
9
9
9
9
9
9
9
9
9
9
9
9
9
9
9
9
9
9
9
9
9
9
9
9
9
9
9
9
9
9
9
9
9
9
9
9
9
9
9
9
9
9
9
9
9
9
9
9
9
9
9
9
9
9
9
9
9
9
9
9
9
9
9
9
9
9
9
9
9
9
9
9
9
9
9
9
9
9
9
9
9
9
9
9
9
9
9
9
9
9
9
9
9
9
9
9
9
9
9
9
9
9
9
9
9
9
9
9
9
9
9
9
9
9
9
9
9
9
9
9
9
9
9
9
9
9
9
9
9
9
9
9
9
9
9
9
9
9
9
9
9
9
9
9
9
9
9
9
9
9
9
9
9
9
9
9
9
9
9
9
9
9
9
9
9
9
9
9
9
9
9
9
9
9
9
9
9
9
9
9
9
9
9
9
9
9
9
9
9
9
9
9
9
9
9
9
9
9
9
9
9
9
9
9
9
9
9
9
9
9
9
9
9
9
9
9
9
9
9
9
9
9
9
9
9
9
9
9
9
9
9
9
9
9
9
9
9
9
9
9
9
9
9
9
9
9
9
9
9
9
9
9
9
9
9
9
9
9
9
9
9
9
9
9
9
9
9
9
9
9
9
9
9
9
9
9
9
9
9
9
9
9
9
9
9
9
9
9
9
9
9
9
9
9
9
9
9
9
9
9
9
9
9
9
9
9
9
9
9
9
9
9
9
9
9
9
9
9
9
9
9
9
9
9
9
9
9
9
9
9
9
9
9
9
9
9
9
9
9
9
9
9
9
9
9
9
9
9
9
9
9
9
9
9
9
9
9
9
9
9
9
9
9
9
9
9
9
9
9
9
9
9
9
9
9
9
9
9
9
9
9
9
9
9
9
9
9
9
9
9
9
9
9
9
9
9
9
9
9
9
9
9
9
9
9
9
9
9
9
9
9
9
9
9
9
9
9
9
9
9
9
9
9
9
9
9
9
9
9
9
9
9
9
9
9
9
9
9
9
9
9
9
9
9
9
9
9
9
9
9
9
9
9
9
9
9
9
9
9
9
9
9
9
9
9
9
9
9
9
9
9
9
9
9
9
9
9
9
9
9
9
9
POINT_DATA 891
SCALARS u1 float
LOOKUP_TABLE default
6e-17
-1e-06
-1e-06
-1e-06
-1e-06
-1e-06
-1e-06
-1e-06
-1e-06
-1e-06
-1e-06
-1e-06
-1e-06
-1e-06
-1e-06
-1e-06
-1e-06
-1e-06
-1e-06
-1e-06
-1e-06
-1e-06
-1e-06
-1e-06
-1e-06
-1e-06
-1e-06
-1e-06
-1e-06
-1e-06
-1e-06
-1e-06
-1e-06
-1e-06
-1e-06
-1e-06
-1e-06
-1e-06
-1e-06
-1e-06
-1e-06
-1e-06
-1e-06
-1e-06
-1e-06
-1e-06
-1e-06
-1e-06
-1e-06
-1e-06
-1e-06
-1e-06
-1e-06
-1e-06
-1e-06
-1e-06
-1e-06
-1e-06
-1e-06
-1e-06
-1e-06
-1e-06
-1e-06
-1e-06
-1e-06
-1e-06
-1e-06
-1e-06
-1e-06
-1e-06
-1e-06
-1e-06
-1e-06
-1e-06
-1e-06
-1e-06
-1e-06
-1e-06
-1e-06
-1e-06
-8e-07
1e-06
-3e-17
8e-07
1e-06
1e-06
1e-06
1e-06
1e-06
1e-06
1e-06
1e-06
1e-06
1e-06
1e-06
1e-06
1e-06
1e-06
1e-06
1e-06
1e-06
1e-06
1e-06
1e-06
1e-06
1e-06
1e-06
1e-06
1e-06
1e-06
1e-06
1e-06
1e-06
1e-06
1e-06
1e-06
1e-06
1e-06
1e-06
1e-06
1e-06
1e-06
1e-06
1e-06
1e-06
1e-06
1e-06
1e-06
1e-06
1e-06
1e-06
1e-06
1e-06
1e-06
1e-06
1e-06
1e-06
1e-06
1e-06
1e-06
1e-06
1e-06
1e-06
1e-06
1e-06
1e-06
1e-06
1e-06
1e-06
1e-06
1e-06
1e-06
1e-06
1e-06
1e-06
1e-06
1e-06
1e-06
1e-06
1e-06
1e-06
1e-06
8e-07
6e-07
4e-07
2e-07
-1e-13
-2e-07
-4e-07
-6e-07
-8e-07
-1e-16
2e-16
1e-15
-3e-16
-5e-16
-7e-17
2e-16
5e-16
-3e-16
6e-07
4e-07
2e-07
1e-07
-1e-14
-1e-07
-2e-07
-4e-07
-6e-07
8e-07
6e-07
4e-07
2e-07
-5e-14
-2e-07
-4e-07
-6e-07
-8e-07
8e-07
6e-07
4e-07
2e-07
-8e-14
-2e-07
-4e-07
-6e-07
-8e-07
8e-07
6e-07
4e-07
2e-07
-9e-14
-2e-07
-4e-07
-6e-07
-8e-07
8e-07
6e-07
4e-07
2e-07
-1e-13
-2e-07
-4e-07
-6e-07
-8e-07
8e-07
6e-07
4e-07
2e-07
-1e-13
-2e-07
-4e-07
-6e-07
-8e-07
8e-07
6e-07
4e-07
2e-07
-1e-13
-2e-07
-4e-07
-6e-07
-8e-07
8e-07
6e-07
4e-07
2e-07
-1e-13
-2e-07
-4e-07
-6e-07
-8e-07
8e-07
6e-07
4e-07
2e-07
-1e-13
-2e-07
-4e-07
-6e-07
-8e-07
8e-07
6e-07
4e-07
2e-07
-1e-13
-2e-07
-4e-07
-6e-07
-8e-07
8e-07
6e-07
4e-07
2e-07
-1e-13
-2e-07
-4e-07
-6e-07
-8e-07
8e-07
6e-07
4e-07
2e-07
-1e-13
-2e-07
-4e-07
-6e-07
-8e-07
8e-07
6e-07
4e-07
2e-07
-1e-13
-2e-07
-4e-07
-6e-07
-8e-07
8e-07
6e-07
4e-07
2e-07
-1e-13
-2e-07
-4e-07
-6e-07
-8e-07
8e-07
6e-07
4e-07
2e-07
-1e-13
-2e-07
-4e-07
-6e-07
-8e-07
8e-07
6e-07
4e-07
2e-07
-1e-13
-2e-07
-4e-07
-6e-07
-8e-07
8e-07
6e-07
4e-07
2e-07
-1e-13
-2e-07
-4e-07
-6e-07
-8e-07
8e-07
6e-07
4e-07
2e-07
-1e-13
-2e-07
-4e-07
-6e-07
-8e-07
8e-07
6e-07
4e-07
2e-07
-1e-13
-2e-07
-4e-07
-6e-07
-8e-07
8e-07
6e-07
4e-07
2e-07
-1e-13
-2e-07
-4e-07
-6e-07
-8e-07
8e-07
6e-07
4e-07
2e-07
-1e-13
-2e-07
-4e-07
-6e-07
-8e-07
8e-07
6e-07
4e-07
2e-07
-1e-13
-2e-07
-4e-07
-6e-07
-8e-07
8e-07
6e-07
4e-07
2e-07
-1e-13
-2e-07
-4e-07
-6e-07
-8e-07
8e-07
6e-07
4e-07
2e-07
-1e-13
-2e-07
-4e-07
-6e-07
-8e-07
8e-07
6e-07
4e-07
2e-07
-1e-13
-2e-07
-4e-07
-6e-07
-8e-07
8e-07
6e-07
4e-07
2e-07
-1e-13
-2e-07
-4e-07
-6e-07
-8e-07
8e-07
6e-07
4e-07
2e-07
-1e-13
-2e-07
-4e-07
-6e-07
-8e-07
8e-07
6e-07
4e-07
2e-07
-1e-13
-2e-07
-4e-07
-6e-07
-8e-07
8e-07
6e-07
4e-07
2e-07
-1e-13
-2e-07
-4e-07
-6e-07
-8e-07
8e-07
6e-07
4e-07
2e-07
-1e-13
-2e-07
-4e-07
-6e-07
-8e-07
8e-07
6e-07
4e-07
2e-07
-1e-13
-2e-07
-4e-07
-6e-07
-8e-07
8e-07
6e-07
4e-07
2e-07
-1e-13
-2e-07
-4e-07
-6e-07
-8e-07
8e-07
6e-07
4e-07
2e-07
-1e-13
-2e-07
-4e-07
-6e-07
-8e-07
8e-07
6e-07
4e-07
2e-07
-1e-13
-2e-07
-4e-07
-6e-07
-8e-07
8e-07
6e-07
4e-07
2e-07
-1e-13
-2e-07
-4e-07
-6e-07
-8e-07
8e-07
6e-07
4e-07
2e-07
-1e-13
-2e-07
-4e-07
-6e-07
-8e-07
8e-07
6e-07
4e-07
2e-07
-1e-13
-2e-07
-4e-07
-6e-07
-8e-07
8e-07
6e-07
4e-07
2e-07
-1e-13
-2e-07
-4e-07
-6e-07
-8e-07
8e-07
6e-07
4e-07
2e-07
-1e-13
-2e-07
-4e-07
-6e-07
-8e-07
8e-07
6e-07
4e-07
2e-07
-1e-13
-2e-07
-4e-07
-6e-07
-8e-07
8e-07
6e-07
4e-07
2e-07
-1e-13
-2e-07
-4e-07
-6e-07
-8e-07
8e-07
6e-07
4e-07
2e-07
-1e-13
-2e-07
-4e-07
-6e-07
-8e-07
8e-07
6e-07
4e-07
2e-07
-1e-13
-2e-07
-4e-07
-6e-07
-8e-07
8e-07
6e-07
4e-07
2e-07
-1e-13
-2e-07
-4e-07
-6e-07
-8e-07
8e-07
6e-07
4e-07
2e-07
-1e-13
-2e-07
-4e-07
-6e-07
-8e-07
8e-07
6e-07
4e-07
2e-07
-1e-13
-2e-07
-4e-07
-6e-07
-8e-07
8e-07
6e-07
4e-07
2e-07
-1e-13
-2e-07
-4e-07
-6e-07
-8e-07
8e-07
6e-07
4e-07
2e-07
-1e-13
-2e-07
-4e-07
-6e-07
-8e-07
8e-07
6e-07
4e-07
2e-07
-1e-13
-2e-07
-4e-07
-6e-07
-8e-07
8e-07
6e-07
4e-07
2e-07
-1e-13
-2e-07
-4e-07
-6e-07
-8e-07
8e-07
6e-07
4e-07
2e-07
-1e-13
-2e-07
-4e-07
-6e-07
-8e-07
8e-07
6e-07
4e-07
2e-07
-1e-13
-2e-07
-4e-07
-6e-07
-8e-07
8e-07
6e-07
4e-07
2e-07
-1e-13
-2e-07
-4e-07
-6e-07
-8e-07
8e-07
6e-07
4e-07
2e-07
-1e-13
-2e-07
-4e-07
-6e-07
-8e-07
8e-07
6e-07
4e-07
2e-07
-1e-13
-2e-07
-4e-07
-6e-07
-8e-07
8e-07
6e-07
4e-07
2e-07
-1e-13
-2e-07
-4e-07
-6e-07
-8e-07
8e-07
6e-07
4e-07
2e-07
-1e-13
-2e-07
-4e-07
-6e-07
-8e-07
8e-07
6e-07
4e-07
2e-07
-1e-13
-2e-07
-4e-07
-6e-07
-8e-07
8e-07
6e-07
4e-07
2e-07
-1e-13
-2e-07
-4e-07
-6e-07
-8e-07
8e-07
6e-07
4e-07
2e-07
-1e-13
-2e-07
-4e-07
-6e-07
-8e-07
8e-07
6e-07
4e-07
2e-07
-1e-13
-2e-07
-4e-07
-6e-07
-8e-07
8e-07
6e-07
4e-07
2e-07
-1e-13
-2e-07
-4e-07
-6e-07
-8e-07
8e-07
6e-07
4e-07
2e-07
-1e-13
-2e-07
-4e-07
-6e-07
-8e-07
8e-07
6e-07
4e-07
2e-07
-1e-13
-2e-07
-4e-07
-6e-07
-8e-07
8e-07
6e-07
4e-07
2e-07
-1e-13
-2e-07
-4e-07
-6e-07
-8e-07
8e-07
6e-07
4e-07
2e-07
-1e-13
-2e-07
-4e-07
-6e-07
-8e-07
8e-07
6e-07
4e-07
2e-07
-1e-13
-2e-07
-4e-07
-6e-07
-8e-07
8e-07
6e-07
4e-07
2e-07
-1e-13
-2e-07
-4e-07
-6e-07
-8e-07
8e-07
6e-07
4e-07
2e-07
-1e-13
-2e-07
-4e-07
-6e-07
-8e-07
8e-07
6e-07
4e-07
2e-07
-1e-13
-2e-07
-4e-07
-6e-07
-8e-07
8e-07
6e-07
4e-07
2e-07
-1e-13
-2e-07
-4e-07
-6e-07
-8e-07
8e-07
6e-07
4e-07
2e-07
-1e-13
-2e-07
-4e-07
-6e-07
-8e-07
8e-07
6e-07
4e-07
2e-07
-1e-13
-2e-07
-4e-07
-6e-07
-8e-07
8e-07
6e-07
4e-07
2e-07
-1e-13
-2e-07
-4e-07
-6e-07
-8e-07
8e-07
6e-07
4e-07
2e-07
-1e-13
-2e-07
-4e-07
-6e-07
-8e-07
8e-07
6e-07
4e-07
2e-07
-1e-13
-2e-07
-4e-07
-6e-07
-8e-07
8e-07
6e-07
4e-07
2e-07
-1e-13
-2e-07
-4e-07
-6e-07
-8e-07
8e-07
6e-07
4e-07
2e-07
-1e-13
-2e-07
-4e-07
-6e-07
-8e-07
8e-07
6e-07
4e-07
2e-07
-1e-13
-2e-07
-4e-07
-6e-07
-8e-07
SCALARS u2 float
LOOKUP_TABLE default
-2e-16
-0.0002
-0.0002
-0.0001
-0.0001
-0.0001
-0.0001
-0.0001
-0.0001
-0.0001
-0.0001
-0.0001
-0.0001
-0.0001
-0.0001
-0.0001
-0.0001
-0.0001
-0.0001
-0.0001
-0.0001
-0.0001
-0.0001
-0.0001
-0.0001
-0.0001
-0.0001
-0.0001
-0.0001
-0.0001
-0.0001
-0.0001
-9e-05
-9e-05
-9e-05
-9e-05
-9e-05
-8e-05
-8e-05
-8e-05
-8e-05
-8e-05
-7e-05
-7e-05
-7e-05
-7e-05
-7e-05
-7e-05
-6e-05
-6e-05
-6e-05
-6e-05
-6e-05
-5e-05
-5e-05
-5e-05
-5e-05
-5e-05
-4e-05
-4e-05
-4e-05
-4e-05
-4e-05
-3e-05
-3e-05
-3e-05
-3e-05
-3e-05
-2e-05
-2e-05
-2e-05
-2e-05
-2e-05
-2e-05
-1e-05
-1e-05
-9e-06
-8e-06
-6e-06
-4e-06
-2e-06
-0.0002
8e-17
-2e-06
-4e-06
-6e-06
-8e-06
-9e-06
-1e-05
-1e-05
-2e-05
-2e-05
-2e-05
-2e-05
-2e-05
-2e-05
-3e-05
-3e-05
-3e-05
-3e-05
-3e-05
-4e-05
-4e-05
-4e-05
-4e-05
-4e-05
-5e-05
-5e-05
-5e-05
-5e-05
-5e-05
-6e-05
-6e-05
-6e-05
-6e-05
-6e-05
-7e-05
-7e-05
-7e-05
-7e-05
-7e-05
-7e-05
-8e-05
-8e-05
-8e-05
-8e-05
-8e-05
-9e-05
-9e-05
-9e-05
-9e-05
-9e-05
-0.0001
-0.0001
-0.0001
-0.0001
-0.0001
-0.0001
-0.0001
-0.0001
-0.0001
-0.0001
-0.0001
-0.0001
-0.0001
-0.0001
-0.0001
-0.0001
-0.0001
-0.0001
-0.0001
-0.0001
-0.0001
-0.0001
-0.0001
-0.0001
-0.0001
-0.0001
-0.0001
-0.0001
-0.0001
-0.0002
-0.0002
-0.0002
-0.0002
-0.0002
-0.0002
-0.0002
-0.0002
-0.0002
-0.0002
4e-16
2e-16
-1e-16
2e-16
-2e-16
2e-16
-1e-16
1e-16
3e-16
-2e-06
-2e-06
-2e-06
-2e-06
-2e-06
-2e-06
-2e-06
-2e-06
-2e-06
-4e-06
-4e-06
-4e-06
-4e-06
-4e-06
-4e-06
-4e-06
-4e-06
-4e-06
-6e-06
-6e-06
-6e-06
-6e-06
-6e-06
-6e-06
-6e-06
-6e-06
-6e-06
-8e-06
-8e-06
-8e-06
-8e-06
-8e-06
-8e-06
-8e-06
-8e-06
-8e-06
-9e-06
-9e-06
-9e-06
-9e-06
-9e-06
-9e-06
-9e-06
-9e-06
-9e-06
-1e-05
-1e-05
-1e-05
-1e-05
-1e-05
-1e-05
-1e-05
-1e-05
-1e-05
-1e-05
-1e-05
-1e-05
-1e-05
-1e-05
-1e-05
-1e-05
-1e-05
-1e-05
-2e-05
-2e-05
-2e-05
-2e-05
-2e-05
-2e-05
-2e-05
-2e-05
-2e-05
-2e-05
-2e-05
-2e-05
-2e-05
-2e-05
-2e-05
-2e-05
-2e-05
-2e-05
-2e-05
-2e-05
-2e-05
-2e-05
-2e-05
-2e-05
-2e-05
-2e-05
-2e-05
-2e-05
-2e-05
-2e-05
-2e-05
-2e-05
-2e-05
-2e-05
-2e-05
-2e-05
-2e-05
-2e-05
-2e-05
-2e-05
-2e-05
-2e-05
-2e-05
-2e-05
-2e-05
-2e-05
-2e-05
-2e-05
-2e-05
-2e-05
-2e-05
-2e-05
-2e-05
-2e-05
-3e-05
-3e-05
-3e-05
-3e-05
-3e-05
-3e-05
-3e-05
-3e-05
-3e-05
-3e-05
-3e-05
-3e-05
-3e-05
-3e-05
-3e-05
-3e-05
-3e-05
-3e-05
-3e-05
-3e-05
-3e-05
-3e-05
-3e-05
-3e-05
-3e-05
-3e-05
-3e-05
-3e-05
-3e-05
-3e-05
-3e-05
-3e-05
-3e-05
-3e-05
-3e-05
-3e-05
-3e-05
-3e-05
-3e-05
-3e-05
-3e-05
-3e-05
-3e-05
-3e-05
-3e-05
-4e-05
-4e-05
-4e-05
-4e-05
-4e-05
-4e-05
-4e-05
-4e-05
-4e-05
-4e-05
-4e-05
-4e-05
-4e-05
-4e-05
-4e-05
-4e-05
-4e-05
-4e-05
-4e-05
-4e-05
-4e-05
-4e-05
-4e-05
-4e-05
-4e-05
-4e-05
-4e-05
-4e-05
-4e-05
-4e-05
-4e-05
-4e-05
-4e-05
-4e-05
-4e-05
-4e-05
-4e-05
-4e-05
-4e-05
-4e-05
-4e-05
-4e-05
-4e-05
-4e-05
-4e-05
-5e-05
-5e-05
-5e-05
-5e-05
-5e-05
-5e-05
-5e-05
-5e-05
-5e-05
-5e-05
-5e-05
-5e-05
-5e-05
-5e-05
-5e-05
-5e-05
-5e-05
-5e-05
-5e-05
-5e-05
-5e-05
-5e-05
-5e-05
-5e-05
-5e-05
-5e-05
-5e-05
-5e-05
-5e-05
-5e-05
-5e-05
-5e-05
-5e-05
-5e-05
-5e-05
-5e-05
-5e-05
-5e-05
-5e-05
-5e-05
-5e-05
-5e-05
-5e-05
-5e-05
-5e-05
-6e-05
-6e-05
-6e-05
-6e-05
-6e-05
-6e-05
-6e-05
-6e-05
-6e-05
-6e-05
-6e-05
-6e-05
-6e-05
-6e-05
-6e-05
-6e-05
-6e-05
-6e-05
-6e-05
-6e-05
-6e-05
-6e-05
-6e-05
-6e-05
-6e-05
-6e-05
-6e-05
-6e-05
-6e-05
-6e-05
-6e-05
-6e-05
-6e-05
-6e-05
-6e-05
-6e-05
-6e-05
-6e-05
-6e-05
-6e-05
-6e-05
-6e-05
-6e-05
-6e-05
-6e-05
-7e-05
-7e-05
-7e-05
-7e-05
-7e-05
-7e-05
-7e-05
-7e-05
-7e-05
-7e-05
-7e-05
-7e-05
-7e-05
-7e-05
-7e-05
-7e-05
-7e-05
-7e-05
-7e-05
-7e-05
-7e-05
-7e-05
-7e-05
-7e-05
-7e-05
-7e-05
-7e-05
-7e-05
-7e-05
-7e-05
-7e-05
-7e-05
-7e-05
-7e-05
-7e-05
-7e-05
-7e-05
-7e-05
-7e-05
-7e-05
-7e-05
-7e-05
-7e-05
-7e-05
-7e-05
-7e-05
-7e-05
-7e-05
-7e-05
-7e-05
-7e-05
-7e-05
-7e-05
-7e-05
-8e-05
-8e-05
-8e-05
-8e-05
-8e-05
-8e-05
-8e-05
-8e-05
-8e-05
-8e-05
-8e-05
-8e-05
-8e-05
-8e-05
-8e-05
-8e-05
-8e-05
-8e-05
-8e-05
-8e-05
-8e-05
-8e-05
-8e-05
-8e-05
-8e-05
-8e-05
-8e-05
-8e-05
-8e-05
-8e-05
-8e-05
-8e-05
-8e-05
-8e-05
-8e-05
-8e-05
-8e-05
-8e-05
-8e-05
-8e-05
-8e-05
-8e-05
-8e-05
-8e-05
-8e-05
-9e-05
-9e-05
-9e-05
-9e-05
-9e-05
-9e-05
-9e-05
-9e-05
-9e-05
-9e-05
-9e-05
-9e-05
-9e-05
-9e-05
-9e-05
-9e-05
-9e-05
-9e-05
-9e-05
-9e-05
-9e-05
-9e-05
-9e-05
-9e-05
-9e-05
-9e-05
-9e-05
-9e-05
-9e-05
-9e-05
-9e-05
-9e-05
-9e-05
-9e-05
-9e-05
-9e-05
-9e-05
-9e-05
-9e-05
-9e-05
-9e-05
-9e-05
-9e-05
-9e-05
-9e-05
-0.0001
-0.0001
-0.0001
-0.0001
-0.0001
-0.0001
-0.0001
-0.0001
-0.0001
-0.0001
-0.0001
-0.0001
-0.0001
-0.0001
-0.0001
-0.0001
-0.0001
-0.0001
-0.0001
-0.0001
-0.0001
-0.0001
-0.0001
-0.0001
-0.0001
-0.0001
-0.0001
-0.0001
-0.0001
-0.0001
-0.0001
-0.0001
-0.0001
-0.0001
-0.0001
-0.0001
-0.0001
-0.0001
-0.0001
-0.0001
-0.0001
-0.0001
-0.0001
-0.0001
-0.0001
-0.0001
-0.0001
-0.0001
-0.0001
-0.0001
-0.0001
-0.0001
-0.0001
-0.0001
-0.0001
-0.0001
-0.0001
-0.0001
-0.0001
-0.0001
-0.0001
-0.0001
-0.0001
-0.0001
-0.0001
-0.0001
-0.0001
-0.0001
-0.0001
-0.0001
-0.0001
-0.0001
-0.0001
-0.0001
-0.0001
-0.0001
-0.0001
-0.0001
-0.0001
-0.0001
-0.0001
-0.0001
-0.0001
-0.0001
-0.0001
-0.0001
-0.0001
-0.0001
-0.0001
-0.0001
-0.0001
-0.0001
-0.0001
-0.0001
-0.0001
-0.0001
-0.0001
-0.0001
-0.0001
-0.0001
-0.0001
-0.0001
-0.0001
-0.0001
-0.0001
-0.0001
-0.0001
-0.0001
-0.0001
-0.0001
-0.0001
-0.0001
-0.0001
-0.0001
-0.0001
-0.0001
-0.0001
-0.0001
-0.0001
-0.0001
-0.0001
-0.0001
-0.0001
-0.0001
-0.0001
-0.0001
-0.0001
-0.0001
-0.0001
-0.0001
-0.0001
-0.0001
-0.0001
-0.0001
-0.0001
-0.0001
-0.0001
-0.0001
-0.0001
-0.0001
-0.0001
-0.0001
-0.0001
-0.0001
-0.0001
-0.0001
-0.0001
-0.0001
-0.0001
-0.0001
-0.0001
-0.0001
-0.0001
-0.0001
-0.0001
-0.0001
-0.0001
-0.0001
-0.0001
-0.0001
-0.0001
-0.0001
-0.0001
-0.0001
-0.0001
-0.0001
-0.0001
-0.0001
-0.0001
-0.0001
-0.0001
-0.0001
-0.0001
-0.0001
-0.0001
-0.0001
-0.0001
-0.0001
-0.0001
-0.0001
-0.0001
-0.0001
-0.0001
-0.0001
-0.0001
-0.0001
-0.0001
-0.0001
-0.0001
-0.0001
-0.0001
-0.0001
-0.0001
-0.0001
-0.0001
-0.0001
-0.0001
-0.0001
-0.0001
-0.0001
-0.0001
-0.0001
-0.0001
-0.0001
-0.0001
-0.0001
-0.0001
-0.0001
-0.0001
-0.0001
-0.0001
-0.0001
-0.0001
-0.0001
-0.0001
-0.0001
-0.0001
-0.0001
-0.0001
-0.0001
-0.0001
-0.0001
-0.0001
-0.0001
-0.0001
-0.0001
-0.0001
-0.0001
-0.0001
-0.0001
-0.0001
-0.0001
-0.0001
-0.0001
-0.0001
-0.0001
-0.0001
-0.0001
-0.0001
-0.0001
-0.0001
-0.0001
-0.0001
-0.0001
-0.0001
-0.0001
-0.0001
-0.0001
-0.0001
-0.0001
-0.0001
-0.0001
-0.0001
-0.0001
-0.0001
-0.0001
-0.0001
-0.0001
-0.0001
-0.0001
-0.0001
-0.0002
-0.0002
-0.0002
-0.0002
-0.0002
-0.0002
-0.0002
-0.0002
-0.0002
SCALARS strain_1 float
LOOKUP_TABLE default
-0.000071
-0.114020
-0.112297
-0.110564
-0.108824
-0.107076
-0.105320
-0.103557
-0.101788
-0.100012
-0.098231
-0.096445
-0.094653
-0.092858
-0.091059
-0.089257
-0.087452
-0.085645
-0.083837
-0.082028
-0.080219
-0.078411
-0.076604
-0.074799
-0.072996
-0.071197
-0.069402
-0.067612
-0.065827
-0.064048
-0.062277
-0.060514
-0.058759
-0.057014
-0.055280
-0.053557
-0.051846
-0.050148
-0.048464
-0.046794
-0.045140
-0.043503
-0.041883
-0.040281
-0.038698
-0.037136
-0.035593
-0.034073
-0.032575
-0.031101
-0.029651
-0.028225
-0.026826
-0.025453
-0.024108
-0.022790
-0.021501
-0.020242
-0.019013
-0.017815
-0.016648
-0.015513
-0.014411
-0.013342
-0.012306
-0.011304
-0.010337
-0.009404
-0.008506
-0.007644
-0.006816
-0.006025
-0.005269
-0.004549
-0.003866
-0.003217
-0.002605
-0.002028
-0.001486
-0.000980
-0.000509
-0.114121
-0.000002
-0.000441
-0.000914
-0.001422
-0.001965
-0.002543
-0.003157
-0.003807
-0.004493
-0.005214
-0.005972
-0.006765
-0.007594
-0.008459
-0.009359
-0.010294
-0.011263
-0.012267
-0.013306
-0.014377
-0.015482
-0.016619
-0.017788
-0.018989
-0.020221
-0.021482
-0.022774
-0.024094
-0.025442
-0.026818
-0.028220
-0.029647
-0.031100
-0.032577
-0.034078
-0.035601
-0.037145
-0.038711
-0.040296
-0.041900
-0.043523
-0.045164
-0.046820
-0.048492
-0.050179
-0.051879
-0.053593
-0.055318
-0.057056
-0.058803
-0.060560
-0.062326
-0.064099
-0.065880
-0.067666
-0.069459
-0.071257
-0.073059
-0.074863
-0.076671
-0.078480
-0.080290
-0.082101
-0.083912
-0.085722
-0.087530
-0.089337
-0.091141
-0.092942
-0.094739
-0.096532
-0.098320
-0.100103
-0.101880
-0.103651
-0.105415
-0.107172
-0.108922
-0.110663
-0.112397
-0.114112
-0.114102
-0.114093
-0.114083
-0.114072
-0.114062
-0.114052
-0.114041
-0.114031
-0.000058
-0.000046
-0.000035
-0.000026
-0.000018
-0.000012
-0.000008
-0.000005
-0.000003
-0.000441
-0.000443
-0.000445
-0.000450
-0.000456
-0.000463
-0.000473
-0.000483
-0.000495
-0.000913
-0.000915
-0.000918
-0.000922
-0.000928
-0.000935
-0.000944
-0.000954
-0.000967
-0.001421
-0.001422
-0.001425
-0.001429
-0.001435
-0.001442
-0.001451
-0.001461
-0.001473
-0.001964
-0.001965
-0.001967
-0.001972
-0.001977
-0.001984
-0.001993
-0.002003
-0.002014
-0.002542
-0.002543
-0.002546
-0.002549
-0.002555
-0.002562
-0.002570
-0.002580
-0.002592
-0.003156
-0.003157
-0.003159
-0.003163
-0.003168
-0.003174
-0.003183
-0.003193
-0.003204
-0.003806
-0.003806
-0.003808
-0.003812
-0.003817
-0.003824
-0.003832
-0.003841
-0.003853
-0.004491
-0.004491
-0.004494
-0.004497
-0.004502
-0.004508
-0.004516
-0.004526
-0.004537
-0.005213
-0.005213
-0.005215
-0.005218
-0.005223
-0.005229
-0.005237
-0.005246
-0.005257
-0.005970
-0.005970
-0.005972
-0.005974
-0.005979
-0.005985
-0.005993
-0.006002
-0.006013
-0.006763
-0.006763
-0.006764
-0.006767
-0.006771
-0.006778
-0.006785
-0.006794
-0.006804
-0.007592
-0.007592
-0.007593
-0.007596
-0.007600
-0.007606
-0.007613
-0.007621
-0.007632
-0.008456
-0.008456
-0.008457
-0.008459
-0.008463
-0.008469
-0.008476
-0.008484
-0.008495
-0.009356
-0.009356
-0.009356
-0.009359
-0.009362
-0.009367
-0.009374
-0.009383
-0.009392
-0.010291
-0.010290
-0.010291
-0.010293
-0.010296
-0.010301
-0.010308
-0.010316
-0.010326
-0.011261
-0.011260
-0.011260
-0.011262
-0.011265
-0.011270
-0.011276
-0.011284
-0.011293
-0.012265
-0.012263
-0.012263
-0.012265
-0.012268
-0.012273
-0.012279
-0.012286
-0.012296
-0.013303
-0.013301
-0.013301
-0.013303
-0.013305
-0.013310
-0.013316
-0.013323
-0.013332
-0.014374
-0.014372
-0.014372
-0.014374
-0.014376
-0.014380
-0.014386
-0.014393
-0.014401
-0.015479
-0.015476
-0.015476
-0.015477
-0.015480
-0.015483
-0.015488
-0.015495
-0.015504
-0.016616
-0.016613
-0.016613
-0.016614
-0.016616
-0.016619
-0.016624
-0.016631
-0.016639
-0.017785
-0.017782
-0.017782
-0.017782
-0.017784
-0.017787
-0.017793
-0.017798
-0.017806
-0.018986
-0.018983
-0.018982
-0.018983
-0.018984
-0.018987
-0.018991
-0.018997
-0.019005
-0.020217
-0.020214
-0.020213
-0.020213
-0.020214
-0.020217
-0.020221
-0.020227
-0.020234
-0.021478
-0.021475
-0.021474
-0.021474
-0.021475
-0.021478
-0.021481
-0.021487
-0.021494
-0.022769
-0.022766
-0.022765
-0.022764
-0.022765
-0.022767
-0.022771
-0.022776
-0.022783
-0.024089
-0.024086
-0.024084
-0.024083
-0.024084
-0.024086
-0.024090
-0.024094
-0.024100
-0.025438
-0.025433
-0.025432
-0.025431
-0.025431
-0.025433
-0.025436
-0.025441
-0.025447
-0.026813
-0.026809
-0.026806
-0.026805
-0.026806
-0.026808
-0.026810
-0.026814
-0.026820
-0.028215
-0.028211
-0.028208
-0.028207
-0.028207
-0.028208
-0.028211
-0.028214
-0.028219
-0.029642
-0.029638
-0.029636
-0.029634
-0.029634
-0.029635
-0.029637
-0.029641
-0.029645
-0.031095
-0.031091
-0.031088
-0.031086
-0.031085
-0.031086
-0.031088
-0.031091
-0.031095
-0.032572
-0.032568
-0.032564
-0.032562
-0.032562
-0.032562
-0.032564
-0.032566
-0.032570
-0.034072
-0.034068
-0.034064
-0.034062
-0.034061
-0.034061
-0.034063
-0.034065
-0.034069
-0.035595
-0.035590
-0.035587
-0.035584
-0.035583
-0.035583
-0.035584
-0.035586
-0.035589
-0.037140
-0.037135
-0.037131
-0.037128
-0.037127
-0.037126
-0.037127
-0.037129
-0.037131
-0.038705
-0.038700
-0.038696
-0.038693
-0.038691
-0.038691
-0.038691
-0.038693
-0.038695
-0.040290
-0.040285
-0.040281
-0.040278
-0.040276
-0.040275
-0.040275
-0.040276
-0.040278
-0.041894
-0.041889
-0.041885
-0.041882
-0.041879
-0.041878
-0.041878
-0.041878
-0.041880
-0.043517
-0.043512
-0.043507
-0.043504
-0.043501
-0.043499
-0.043499
-0.043499
-0.043500
-0.045157
-0.045151
-0.045146
-0.045143
-0.045140
-0.045138
-0.045138
-0.045137
-0.045139
-0.046813
-0.046808
-0.046802
-0.046798
-0.046796
-0.046794
-0.046792
-0.046792
-0.046792
-0.048485
-0.048479
-0.048474
-0.048470
-0.048467
-0.048464
-0.048463
-0.048462
-0.048462
-0.050172
-0.050166
-0.050160
-0.050156
-0.050153
-0.050150
-0.050148
-0.050147
-0.050147
-0.051872
-0.051866
-0.051860
-0.051856
-0.051852
-0.051850
-0.051847
-0.051846
-0.051845
-0.053586
-0.053579
-0.053574
-0.053569
-0.053565
-0.053562
-0.053559
-0.053558
-0.053557
-0.055311
-0.055305
-0.055299
-0.055294
-0.055290
-0.055286
-0.055284
-0.055282
-0.055280
-0.057048
-0.057042
-0.057036
-0.057030
-0.057025
-0.057022
-0.057019
-0.057017
-0.057015
-0.058795
-0.058788
-0.058783
-0.058777
-0.058772
-0.058768
-0.058765
-0.058762
-0.058760
-0.060552
-0.060545
-0.060539
-0.060533
-0.060528
-0.060524
-0.060520
-0.060517
-0.060515
-0.062318
-0.062311
-0.062304
-0.062298
-0.062293
-0.062289
-0.062285
-0.062282
-0.062279
-0.064091
-0.064084
-0.064077
-0.064071
-0.064066
-0.064061
-0.064057
-0.064053
-0.064051
-0.065872
-0.065864
-0.065858
-0.065852
-0.065846
-0.065841
-0.065836
-0.065833
-0.065829
-0.067659
-0.067651
-0.067644
-0.067638
-0.067632
-0.067627
-0.067622
-0.067618
-0.067614
-0.069451
-0.069444
-0.069436
-0.069430
-0.069424
-0.069419
-0.069413
-0.069409
-0.069405
-0.071248
-0.071241
-0.071234
-0.071227
-0.071221
-0.071215
-0.071210
-0.071205
-0.071201
-0.073050
-0.073042
-0.073035
-0.073028
-0.073022
-0.073015
-0.073010
-0.073005
-0.073000
-0.074855
-0.074847
-0.074839
-0.074832
-0.074825
-0.074819
-0.074813
-0.074808
-0.074803
-0.076662
-0.076654
-0.076646
-0.076639
-0.076632
-0.076625
-0.076620
-0.076614
-0.076609
-0.078471
-0.078463
-0.078455
-0.078448
-0.078441
-0.078434
-0.078428
-0.078421
-0.078416
-0.080281
-0.080273
-0.080265
-0.080257
-0.080250
-0.080244
-0.080237
-0.080230
-0.080225
-0.082092
-0.082084
-0.082076
-0.082068
-0.082061
-0.082053
-0.082047
-0.082040
-0.082034
-0.083903
-0.083895
-0.083887
-0.083878
-0.083871
-0.083864
-0.083856
-0.083850
-0.083844
-0.085713
-0.085705
-0.085696
-0.085688
-0.085680
-0.085673
-0.085666
-0.085658
-0.085652
-0.087522
-0.087513
-0.087504
-0.087496
-0.087488
-0.087481
-0.087473
-0.087466
-0.087459
-0.089328
-0.089319
-0.089311
-0.089302
-0.089294
-0.089286
-0.089278
-0.089271
-0.089264
-0.091132
-0.091123
-0.091114
-0.091106
-0.091098
-0.091090
-0.091082
-0.091074
-0.091066
-0.092933
-0.092924
-0.092915
-0.092906
-0.092898
-0.092890
-0.092882
-0.092873
-0.092865
-0.094730
-0.094721
-0.094712
-0.094703
-0.094695
-0.094686
-0.094678
-0.094670
-0.094661
-0.096522
-0.096514
-0.096504
-0.096496
-0.096487
-0.096478
-0.096470
-0.096462
-0.096453
-0.098311
-0.098301
-0.098292
-0.098283
-0.098275
-0.098266
-0.098257
-0.098248
-0.098240
-0.100093
-0.100084
-0.100075
-0.100066
-0.100057
-0.100048
-0.100039
-0.100030
-0.100021
-0.101870
-0.101862
-0.101852
-0.101843
-0.101833
-0.101824
-0.101815
-0.101806
-0.101797
-0.103641
-0.103632
-0.103623
-0.103613
-0.103604
-0.103595
-0.103585
-0.103576
-0.103566
-0.105406
-0.105396
-0.105387
-0.105377
-0.105368
-0.105358
-0.105349
-0.105339
-0.105330
-0.107162
-0.107153
-0.107144
-0.107134
-0.107124
-0.107115
-0.107105
-0.107095
-0.107085
-0.108912
-0.108903
-0.108893
-0.108884
-0.108873
-0.108864
-0.108854
-0.108844
-0.108834
-0.110654
-0.110644
-0.110635
-0.110625
-0.110615
-0.110605
-0.110595
-0.110585
-0.110575
-0.112387
-0.112377
-0.112368
-0.112358
-0.112348
-0.112338
-0.112328
-0.112318
-0.112307
SCALARS strain_2 float
LOOKUP_TABLE default
0.000260
-0.000290
-0.000292
-0.000291
-0.000291
-0.000291
-0.000290
-0.000292
-0.000291
-0.000289
-0.000290
-0.000289
-0.000290
-0.000290
-0.000289
-0.000286
-0.000286
-0.000285
-0.000284
-0.000284
-0.000280
-0.000278
-0.000277
-0.000274
-0.000275
-0.000270
-0.000267
-0.000265
-0.000262
-0.000258
-0.000254
-0.000252
-0.000248
-0.000246
-0.000238
-0.000236
-0.000232
-0.000226
-0.000221
-0.000214
-0.000211
-0.000204
-0.000197
-0.000192
-0.000185
-0.000175
-0.000169
-0.000160
-0.000155
-0.000146
-0.000138
-0.000129
-0.000121
-0.000113
-0.000101
-0.000092
-0.000083
-0.000071
-0.000061
-0.000051
-0.000038
-0.000026
-0.000015
-0.000004
0.000011
0.000020
0.000035
0.000050
0.000062
0.000076
0.000091
0.000104
0.000119
0.000134
0.000151
0.000164
0.000182
0.000196
0.000212
0.000229
0.000244
0.001602
0.001631
0.001633
0.001634
0.001637
0.001639
0.001639
0.001643
0.001643
0.001645
0.001648
0.001650
0.001653
0.001654
0.001653
0.001653
0.001656
0.001658
0.001659
0.001662
0.001662
0.001665
0.001664
0.001666
0.001666
0.001667
0.001669
0.001669
0.001669
0.001668
0.001671
0.001671
0.001673
0.001674
0.001673
0.001672
0.001672
0.001671
0.001674
0.001675
0.001674
0.001674
0.001671
0.001672
0.001671
0.001673
0.001670
0.001669
0.001669
0.001668
0.001666
0.001666
0.001664
0.001665
0.001663
0.001663
0.001663
0.001660
0.001657
0.001656
0.001656
0.001655
0.001649
0.001651
0.001649
0.001645
0.001644
0.001642
0.001637
0.001635
0.001634
0.001631
0.001629
0.001626
0.001622
0.001620
0.001618
0.001614
0.001612
0.001608
0.001603
0.001412
0.001221
0.001033
0.000843
0.000654
0.000467
0.000274
0.000086
-0.000101
0.000399
0.000535
0.000673
0.000810
0.000947
0.001084
0.001220
0.001358
0.001494
0.001495
0.001356
0.001216
0.001075
0.000938
0.000801
0.000662
0.000522
0.000385
0.001494
0.001352
0.001213
0.001074
0.000934
0.000794
0.000651
0.000510
0.000369
0.001493
0.001352
0.001209
0.001067
0.000925
0.000779
0.000639
0.000495
0.000355
0.001496
0.001351
0.001208
0.001063
0.000919
0.000774
0.000629
0.000484
0.000340
0.001494
0.001350
0.001202
0.001057
0.000911
0.000767
0.000617
0.000471
0.000327
0.001494
0.001348
0.001199
0.001051
0.000903
0.000756
0.000609
0.000459
0.000313
0.001495
0.001346
0.001197
0.001047
0.000898
0.000748
0.000597
0.000449
0.000297
0.001494
0.001344
0.001193
0.001039
0.000892
0.000741
0.000587
0.000436
0.000284
0.001496
0.001342
0.001188
0.001038
0.000885
0.000730
0.000578
0.000427
0.000273
0.001494
0.001340
0.001186
0.001031
0.000877
0.000723
0.000567
0.000413
0.000258
0.001494
0.001338
0.001183
0.001025
0.000871
0.000714
0.000558
0.000402
0.000245
0.001496
0.001337
0.001180
0.001024
0.000866
0.000706
0.000549
0.000390
0.000235
0.001492
0.001334
0.001176
0.001016
0.000857
0.000700
0.000540
0.000379
0.000219
0.001495
0.001335
0.001172
0.001012
0.000854
0.000692
0.000531
0.000370
0.000209
0.001498
0.001332
0.001170
0.001008
0.000845
0.000685
0.000522
0.000359
0.000199
0.001495
0.001331
0.001168
0.001003
0.000840
0.000677
0.000513
0.000348
0.000184
0.001495
0.001329
0.001166
0.001000
0.000835
0.000669
0.000504
0.000340
0.000177
0.001495
0.001328
0.001163
0.000997
0.000830
0.000665
0.000497
0.000329
0.000162
0.001493
0.001327
0.001157
0.000990
0.000823
0.000656
0.000488
0.000318
0.000153
0.001495
0.001324
0.001155
0.000987
0.000818
0.000650
0.000479
0.000312
0.000141
0.001494
0.001323
0.001153
0.000983
0.000812
0.000641
0.000472
0.000303
0.000131
0.001493
0.001323
0.001151
0.000979
0.000808
0.000636
0.000463
0.000293
0.000122
0.001493
0.001320
0.001147
0.000975
0.000802
0.000629
0.000456
0.000284
0.000113
0.001493
0.001320
0.001145
0.000971
0.000797
0.000624
0.000450
0.000277
0.000104
0.001493
0.001317
0.001145
0.000969
0.000793
0.000617
0.000445
0.000268
0.000093
0.001491
0.001315
0.001139
0.000964
0.000786
0.000613
0.000436
0.000260
0.000083
0.001493
0.001314
0.001139
0.000960
0.000786
0.000606
0.000430
0.000251
0.000077
0.001494
0.001315
0.001136
0.000958
0.000780
0.000603
0.000424
0.000244
0.000069
0.001491
0.001313
0.001133
0.000955
0.000777
0.000595
0.000416
0.000236
0.000061
0.001492
0.001310
0.001133
0.000951
0.000771
0.000591
0.000410
0.000234
0.000050
0.001490
0.001310
0.001129
0.000948
0.000768
0.000586
0.000404
0.000224
0.000044
0.001491
0.001307
0.001127
0.000943
0.000762
0.000582
0.000399
0.000217
0.000035
0.001490
0.001310
0.001124
0.000941
0.000759
0.000576
0.000392
0.000211
0.000027
0.001489
0.001306
0.001124
0.000939
0.000756
0.000570
0.000388
0.000204
0.000022
0.001490
0.001304
0.001122
0.000936
0.000752
0.000566
0.000384
0.000198
0.000015
0.001488
0.001303
0.001119
0.000933
0.000748
0.000562
0.000378
0.000193
0.000010
0.001488
0.001302
0.001117
0.000930
0.000745
0.000559
0.000373
0.000187
0.000001
0.001488
0.001299
0.001114
0.000929
0.000741
0.000555
0.000368
0.000181
-0.000006
0.001488
0.001300
0.001113
0.000924
0.000738
0.000551
0.000365
0.000178
-0.000009
0.001486
0.001298
0.001111
0.000922
0.000736
0.000547
0.000360
0.000171
-0.000015
0.001485
0.001295
0.001107
0.000919
0.000731
0.000543
0.000356
0.000167
-0.000022
0.001483
0.001298
0.001106
0.000918
0.000730
0.000538
0.000351
0.000164
-0.000026
0.001482
0.001294
0.001103
0.000913
0.000726
0.000536
0.000347
0.000159
-0.000032
0.001483
0.001293
0.001103
0.000914
0.000724
0.000532
0.000342
0.000153
-0.000037
0.001484
0.001290
0.001103
0.000909
0.000720
0.000530
0.000340
0.000148
-0.000039
0.001479
0.001290
0.001101
0.000909
0.000717
0.000527
0.000337
0.000147
-0.000043
0.001478
0.001289
0.001096
0.000906
0.000715
0.000525
0.000333
0.000143
-0.000050
0.001477
0.001287
0.001095
0.000904
0.000712
0.000521
0.000329
0.000139
-0.000053
0.001476
0.001286
0.001094
0.000904
0.000710
0.000518
0.000326
0.000135
-0.000057
0.001476
0.001281
0.001091
0.000898
0.000708
0.000516
0.000324
0.000134
-0.000059
0.001475
0.001280
0.001089
0.000897
0.000703
0.000511
0.000321
0.000128
-0.000062
0.001474
0.001280
0.001088
0.000895
0.000703
0.000510
0.000318
0.000124
-0.000066
0.001471
0.001279
0.001087
0.000894
0.000700
0.000508
0.000316
0.000124
-0.000069
0.001468
0.001276
0.001085
0.000890
0.000700
0.000506
0.000314
0.000122
-0.000072
0.001467
0.001275
0.001083
0.000888
0.000697
0.000505
0.000312
0.000118
-0.000074
0.001468
0.001274
0.001082
0.000887
0.000693
0.000502
0.000307
0.000114
-0.000077
0.001465
0.001273
0.001079
0.000886
0.000694
0.000500
0.000307
0.000113
-0.000081
0.001462
0.001271
0.001077
0.000882
0.000690
0.000497
0.000304
0.000112
-0.000084
0.001460
0.001267
0.001074
0.000884
0.000689
0.000495
0.000303
0.000109
-0.000084
0.001461
0.001266
0.001073
0.000881
0.000688
0.000495
0.000301
0.000107
-0.000087
0.001458
0.001265
0.001071
0.000879
0.000685
0.000492
0.000298
0.000105
-0.000086
0.001457
0.001261
0.001072
0.000875
0.000685
0.000491
0.000296
0.000107
-0.000089
0.001455
0.001263
0.001067
0.000876
0.000683
0.000490
0.000295
0.000101
-0.000090
0.001453
0.001261
0.001069
0.000875
0.000679
0.000488
0.000295
0.000099
-0.000092
0.001452
0.001255
0.001064
0.000872
0.000681
0.000486
0.000291
0.000101
-0.000095
0.001448
0.001254
0.001063
0.000870
0.000676
0.000484
0.000293
0.000097
-0.000094
0.001447
0.001252
0.001064
0.000868
0.000674
0.000483
0.000291
0.000097
-0.000095
0.001442
0.001251
0.001059
0.000866
0.000674
0.000479
0.000288
0.000094
-0.000096
0.001442
0.001248
0.001056
0.000865
0.000673
0.000480
0.000289
0.000093
-0.000098
0.001440
0.001247
0.001056
0.000862
0.000669
0.000477
0.000286
0.000094
-0.000099
0.001437
0.001243
0.001049
0.000862
0.000667
0.000476
0.000284
0.000091
-0.000099
0.001434
0.001243
0.001049
0.000859
0.000666
0.000474
0.000284
0.000091
-0.000102
0.001431
0.001242
0.001047
0.000857
0.000665
0.000475
0.000283
0.000092
-0.000101
0.001427
0.001239
0.001047
0.000857
0.000664
0.000473
0.000281
0.000091
-0.000100
0.001426
0.001234
0.001041
0.000854
0.000662
0.000471
0.000281
0.000088
-0.000101
0.001423
0.001232
0.001042
0.000851
0.000662
0.000470
0.000280
0.000092
-0.000100
0.001420
0.001229
0.001041
0.000849
0.000659
0.000470
0.000279
0.000089
-0.000101
0.001420
0.001227
0.001038
0.000847
0.000658
0.000468
0.000278
0.000087
-0.000102
0.001415
0.001225
0.001036
0.000845
0.000658
0.000465
0.000277
0.000089
-0.000101
SCALARS strain_3 float
LOOKUP_TABLE default
0.000583
0.037198
0.036672
0.036143
0.035611
0.035078
0.034541
0.034002
0.033461
0.032918
0.032371
0.031822
0.031273
0.030722
0.030167
0.029614
0.029058
0.028502
0.027944
0.027385
0.026825
0.026265
0.025705
0.025145
0.024587
0.024027
0.023469
0.022911
0.022354
0.021799
0.021245
0.020693
0.020142
0.019594
0.019049
0.018507
0.017966
0.017429
0.016896
0.016366
0.015840
0.015319
0.014802
0.014290
0.013782
0.013280
0.012784
0.012293
0.011807
0.011330
0.010858
0.010393
0.009935
0.009484
0.009041
0.008605
0.008179
0.007758
0.007347
0.006944
0.006551
0.006166
0.005791
0.005425
0.005070
0.004722
0.004386
0.004060
0.003743
0.003437
0.003141
0.002855
0.002580
0.002316
0.002062
0.001818
0.001586
0.001363
0.001152
0.000952
0.000763
0.036225
-0.000305
-0.000133
0.000049
0.000241
0.000446
0.000660
0.000886
0.001123
0.001371
0.001630
0.001898
0.002178
0.002469
0.002769
0.003081
0.003402
0.003734
0.004076
0.004428
0.004790
0.005161
0.005542
0.005931
0.006331
0.006738
0.007154
0.007580
0.008014
0.008453
0.008904
0.009357
0.009822
0.010291
0.010768
0.011252
0.011741
0.012237
0.012738
0.013246
0.013756
0.014272
0.014795
0.015321
0.015850
0.016383
0.016921
0.017460
0.018005
0.018550
0.019099
0.019651
0.020203
0.020759
0.021316
0.021875
0.022434
0.022994
0.023555
0.024115
0.024678
0.025239
0.025801
0.026362
0.026923
0.027483
0.028042
0.028601
0.029157
0.029713
0.030269
0.030821
0.031372
0.031920
0.032467
0.033011
0.033554
0.034092
0.034630
0.035165
0.035697
0.036323
0.036420
0.036516
0.036613
0.036712
0.036809
0.036907
0.037003
0.037101
0.000492
0.000403
0.000311
0.000222
0.000133
0.000045
-0.000045
-0.000131
-0.000219
-0.000046
0.000042
0.000130
0.000219
0.000308
0.000398
0.000488
0.000578
0.000670
0.000137
0.000226
0.000314
0.000404
0.000494
0.000585
0.000676
0.000768
0.000861
0.000331
0.000421
0.000510
0.000601
0.000691
0.000783
0.000874
0.000967
0.001060
0.000535
0.000626
0.000717
0.000808
0.000898
0.000991
0.001084
0.001176
0.001270
0.000751
0.000841
0.000933
0.001025
0.001118
0.001210
0.001303
0.001396
0.001491
0.000978
0.001070
0.001161
0.001254
0.001347
0.001440
0.001534
0.001627
0.001723
0.001215
0.001307
0.001400
0.001494
0.001587
0.001681
0.001775
0.001869
0.001966
0.001463
0.001556
0.001648
0.001743
0.001837
0.001931
0.002027
0.002123
0.002218
0.001723
0.001815
0.001909
0.002003
0.002100
0.002194
0.002290
0.002385
0.002483
0.001991
0.002085
0.002180
0.002275
0.002371
0.002467
0.002563
0.002660
0.002758
0.002273
0.002367
0.002462
0.002558
0.002653
0.002750
0.002848
0.002945
0.003043
0.002563
0.002658
0.002754
0.002850
0.002947
0.003044
0.003141
0.003239
0.003337
0.002865
0.002961
0.003057
0.003153
0.003250
0.003349
0.003446
0.003543
0.003643
0.003176
0.003272
0.003369
0.003465
0.003564
0.003663
0.003760
0.003860
0.003959
0.003498
0.003596
0.003693
0.003792
0.003889
0.003988
0.004086
0.004185
0.004287
0.003833
0.003928
0.004027
0.004124
0.004223
0.004322
0.004422
0.004522
0.004623
0.004173
0.004272
0.004370
0.004468
0.004566
0.004666
0.004767
0.004867
0.004969
0.004525
0.004624
0.004723
0.004822
0.004922
0.005021
0.005122
0.005223
0.005324
0.004888
0.004987
0.005086
0.005185
0.005285
0.005386
0.005486
0.005587
0.005690
0.005259
0.005358
0.005458
0.005558
0.005658
0.005759
0.005861
0.005963
0.006065
0.005641
0.005740
0.005841
0.005941
0.006041
0.006142
0.006244
0.006347
0.006448
0.006031
0.006131
0.006231
0.006333
0.006434
0.006534
0.006636
0.006739
0.006842
0.006431
0.006531
0.006631
0.006732
0.006834
0.006936
0.007038
0.007140
0.007243
0.006839
0.006939
0.007040
0.007142
0.007243
0.007345
0.007449
0.007550
0.007654
0.007255
0.007357
0.007458
0.007559
0.007662
0.007763
0.007867
0.007971
0.008074
0.007680
0.007782
0.007883
0.007986
0.008087
0.008190
0.008294
0.008397
0.008501
0.008114
0.008215
0.008317
0.008419
0.008522
0.008625
0.008728
0.008832
0.008936
0.008555
0.008657
0.008759
0.008860
0.008965
0.009068
0.009171
0.009275
0.009380
0.009004
0.009105
0.009207
0.009310
0.009414
0.009517
0.009622
0.009725
0.009831
0.009460
0.009563
0.009665
0.009768
0.009872
0.009975
0.010079
0.010183
0.010286
0.009923
0.010026
0.010128
0.010233
0.010336
0.010439
0.010544
0.010647
0.010753
0.010393
0.010496
0.010600
0.010704
0.010807
0.010911
0.011015
0.011120
0.011225
0.010871
0.010974
0.011077
0.011180
0.011285
0.011388
0.011493
0.011598
0.011703
0.011356
0.011458
0.011561
0.011665
0.011769
0.011873
0.011978
0.012082
0.012188
0.011844
0.011947
0.012051
0.012155
0.012259
0.012363
0.012468
0.012573
0.012679
0.012340
0.012443
0.012546
0.012651
0.012756
0.012859
0.012965
0.013070
0.013174
0.012841
0.012945
0.013048
0.013152
0.013257
0.013362
0.013466
0.013571
0.013678
0.013348
0.013452
0.013555
0.013659
0.013763
0.013868
0.013973
0.014079
0.014185
0.013860
0.013962
0.014067
0.014171
0.014276
0.014380
0.014485
0.014590
0.014697
0.014377
0.014480
0.014584
0.014689
0.014793
0.014897
0.015003
0.015108
0.015214
0.014899
0.015002
0.015104
0.015209
0.015315
0.015419
0.015524
0.015631
0.015736
0.015424
0.015527
0.015631
0.015736
0.015840
0.015945
0.016050
0.016155
0.016261
0.015953
0.016056
0.016161
0.016264
0.016371
0.016475
0.016579
0.016685
0.016792
0.016487
0.016591
0.016695
0.016800
0.016903
0.017008
0.017113
0.017217
0.017324
0.017024
0.017127
0.017232
0.017337
0.017441
0.017545
0.017650
0.017756
0.017861
0.017565
0.017668
0.017772
0.017877
0.017981
0.018086
0.018190
0.018295
0.018400
0.018108
0.018212
0.018315
0.018419
0.018523
0.018629
0.018733
0.018838
0.018943
0.018654
0.018758
0.018862
0.018966
0.019069
0.019175
0.019280
0.019384
0.019490
0.019203
0.019306
0.019411
0.019514
0.019620
0.019723
0.019828
0.019932
0.020037
0.019754
0.019858
0.019961
0.020066
0.020169
0.020274
0.020379
0.020483
0.020589
0.020307
0.020411
0.020514
0.020619
0.020723
0.020826
0.020931
0.021036
0.021140
0.020862
0.020966
0.021070
0.021174
0.021277
0.021381
0.021486
0.021589
0.021694
0.021418
0.021522
0.021625
0.021730
0.021833
0.021938
0.022041
0.022146
0.022250
0.021976
0.022081
0.022185
0.022287
0.022390
0.022494
0.022598
0.022703
0.022807
0.022536
0.022639
0.022742
0.022846
0.022949
0.023054
0.023156
0.023261
0.023364
0.023096
0.023199
0.023301
0.023406
0.023510
0.023612
0.023716
0.023820
0.023923
0.023657
0.023759
0.023862
0.023967
0.024069
0.024172
0.024277
0.024379
0.024483
0.024218
0.024320
0.024423
0.024527
0.024631
0.024733
0.024836
0.024939
0.025043
0.024781
0.024881
0.024986
0.025088
0.025191
0.025294
0.025397
0.025498
0.025603
0.025342
0.025443
0.025547
0.025649
0.025751
0.025854
0.025957
0.026060
0.026163
0.025903
0.026005
0.026107
0.026209
0.026312
0.026415
0.026518
0.026621
0.026722
0.026465
0.026566
0.026668
0.026770
0.026873
0.026975
0.027077
0.027179
0.027282
0.027025
0.027126
0.027228
0.027331
0.027432
0.027533
0.027636
0.027739
0.027841
0.027584
0.027686
0.027788
0.027890
0.027991
0.028093
0.028195
0.028297
0.028399
0.028143
0.028245
0.028346
0.028448
0.028550
0.028651
0.028753
0.028855
0.028956
0.028702
0.028803
0.028905
0.029006
0.029107
0.029209
0.029309
0.029411
0.029512
0.029260
0.029359
0.029461
0.029561
0.029662
0.029765
0.029864
0.029966
0.030068
0.029814
0.029915
0.030016
0.030117
0.030217
0.030318
0.030420
0.030519
0.030621
0.030368
0.030469
0.030569
0.030670
0.030770
0.030870
0.030972
0.031072
0.031172
0.030920
0.031020
0.031122
0.031222
0.031322
0.031422
0.031522
0.031623
0.031722
0.031472
0.031571
0.031671
0.031772
0.031871
0.031971
0.032071
0.032171
0.032272
0.032019
0.032120
0.032218
0.032319
0.032418
0.032518
0.032618
0.032717
0.032817
0.032567
0.032666
0.032765
0.032865
0.032964
0.033063
0.033162
0.033262
0.033361
0.033111
0.033209
0.033308
0.033407
0.033506
0.033606
0.033706
0.033804
0.033903
0.033653
0.033750
0.033850
0.033949
0.034048
0.034146
0.034246
0.034344
0.034443
0.034191
0.034289
0.034390
0.034487
0.034586
0.034685
0.034782
0.034882
0.034979
0.034729
0.034827
0.034925
0.035023
0.035121
0.035220
0.035318
0.035417
0.035514
0.035263
0.035360
0.035458
0.035556
0.035655
0.035753
0.035851
0.035948
0.036046
0.035795
0.035891
0.035989
0.036088
0.036184
0.036282
0.036380
0.036478
0.036575
SCALARS stress_1 float
LOOKUP_TABLE default
-33521.116887
-35706055.044748
-35167501.170650
-34626163.296552
-34081945.422453
-33535167.548355
-32986629.674257
-32435083.800159
-31881745.926060
-31326552.051962
-30769598.177864
-30210948.303766
-29650474.429667
-29089008.555569
-28525910.681471
-27962204.807372
-27397826.933274
-26832329.059176
-26266639.185078
-25701141.310979
-25135035.436881
-24569153.562783
-24003175.688685
-23438861.814586
-22874419.940488
-22310778.066390
-21749504.192291
-21188838.318193
-20630348.444095
-20073138.569997
-19518584.695898
-18966942.821800
-18417476.947702
-17871211.073604
-17328337.199505
-16788887.325407
-16253373.451309
-15721315.577210
-15193769.703112
-14671567.829014
-14153525.954916
-13640188.080817
-13133410.206719
-12631624.332621
-12136014.458523
-11646324.584424
-11163514.710326
-10687264.836228
-10218278.962129
-9756653.088031
-9302035.213933
-8856025.339835
-8417311.465736
-7987269.591638
-7565675.717540
-7152753.843442
-6749687.969343
-6354846.095245
-5970212.221147
-5594698.347048
-5229040.472950
-4873686.598852
-4528060.724754
-4192802.850655
-3868488.976557
-3554447.102459
-3251509.228361
-2958907.354262
-2677345.480164
-2407495.606066
-2147757.731968
-1899795.857869
-1663257.983771
-1437856.109673
-1223046.235574
-1019788.361476
-827730.487378
-646872.613280
-477086.739181
-318820.865083
-171018.990985
-35638141.318773
132088.609089
-5313.265009
-153211.139108
-311925.013206
-481934.887304
-662792.761402
-855650.635501
-1059068.509599
-1273782.383697
-1500016.257795
-1737226.131894
-1986212.005992
-2245853.880090
-2516727.754189
-2798705.628287
-3091371.502385
-3396133.376483
-3710239.250582
-4036121.124680
-4372018.998778
-4718924.872876
-5075430.746975
-5441824.621073
-5818202.495171
-6204628.369270
-6600142.243368
-7005352.117466
-7419521.991564
-7842043.865663
-8273717.739761
-8713519.613859
-9161449.487957
-9616579.362056
-10080349.236154
-10550583.110252
-11028144.984351
-11512682.858449
-12003748.732547
-12500958.606645
-13004216.480744
-13513298.354842
-14027660.228940
-14546886.103038
-15071199.977137
-15600473.851235
-16133939.725333
-16671341.599432
-17211911.473530
-17757249.347628
-18304859.221726
-18855477.095825
-19409102.969923
-19965224.844021
-20523682.718119
-21083868.592218
-21646038.466316
-22209200.340414
-22774602.214513
-23339716.088611
-23906621.962709
-24473079.836807
-25040657.710906
-25608171.585004
-26175717.459102
-26743263.333200
-27309913.207299
-27875923.081397
-28441036.955495
-29005478.829594
-29568384.703692
-30129786.577790
-30690132.451888
-31248622.325987
-31805608.200085
-32359234.074183
-32912603.948281
-33462581.822380
-34009967.696478
-34555689.570576
-35098883.444675
-35644923.091370
-35652440.863968
-35659734.636565
-35666228.409163
-35673650.181761
-35680207.954358
-35686669.726956
-35693739.499553
-35700009.272151
-14867.344289
3338.428309
20712.200906
37701.973504
54339.746101
70913.518699
86655.291296
102397.063894
116666.836491
-19903.037607
-35068.810204
-50714.582802
-66776.355400
-82806.127997
-99251.900595
-116753.673192
-133999.445790
-151469.218387
-167480.911705
-183030.684303
-198708.456900
-214130.229498
-230864.002095
-247341.774693
-264299.547290
-281705.319888
-300199.092486
-327090.785803
-341456.558401
-357422.330999
-373420.103596
-389641.876194
-406055.648791
-423365.421389
-440739.193986
-459008.966584
-496812.659902
-511434.432499
-527112.205097
-543141.977694
-559203.750292
-575937.522889
-593023.295487
-610749.068085
-628378.840682
-677894.534000
-693060.306598
-708450.079195
-723647.851793
-740317.624390
-757083.396988
-773721.169585
-791382.942183
-809268.714780
-870112.408098
-884798.180696
-900059.953293
-915993.725891
-932247.498488
-949045.271086
-966099.043684
-983376.816281
-1001934.588879
-1073434.282196
-1088792.054794
-1103541.827392
-1119219.599989
-1135825.372587
-1152783.145184
-1169452.917782
-1186698.690379
-1204840.462977
-1288564.156295
-1303377.928892
-1318543.701490
-1333997.474087
-1350443.246685
-1367145.019283
-1383974.791880
-1401540.564478
-1419394.337075
-1514702.030393
-1529003.802991
-1544297.575588
-1560327.348186
-1576517.120783
-1592610.893381
-1609760.665978
-1626974.438576
-1644956.211173
-1751367.904491
-1766341.677089
-1781539.449686
-1797057.222284
-1813566.994881
-1829660.767479
-1847034.540077
-1864152.312674
-1882390.085272
-2000161.778590
-2015199.551187
-2030013.323785
-2045659.096382
-2061592.868980
-2078006.641577
-2095028.414175
-2112434.186772
-2129967.959370
-2259963.652688
-2274681.425285
-2289623.197883
-2305108.970480
-2321170.743078
-2337968.515676
-2354446.288273
-2371724.060871
-2389449.833468
-2530805.526786
-2545491.299384
-2560561.071981
-2576014.844579
-2591852.617176
-2608106.389774
-2624744.162371
-2642053.934969
-2659811.707567
-2812783.400884
-2827085.173482
-2842346.946079
-2857480.718677
-2873254.491275
-2889732.263872
-2906338.036470
-2923519.809067
-2941533.581665
-3105481.274983
-3120167.047580
-3135460.820178
-3150498.592775
-3166400.365373
-3182430.137970
-3199195.910568
-3216473.683165
-3233143.455763
-3409827.149081
-3424288.921678
-3438686.694276
-3453980.466874
-3469690.239471
-3486072.012069
-3501941.784666
-3519379.557264
-3536561.329861
-3724317.023179
-3738874.795777
-3753848.568374
-3768630.340972
-3784788.113569
-3800465.886167
-3816719.658764
-3833709.431362
-3850475.203960
-4049302.897277
-4064596.669875
-4078898.442473
-4094416.215070
-4109773.987668
-4125323.760265
-4141865.532863
-4158343.305460
-4175653.078058
-4386256.771376
-4399566.543973
-4414924.316571
-4429866.089168
-4444871.861766
-4460933.634363
-4477123.406961
-4493377.179559
-4510814.952156
-4732074.645474
-4746376.418072
-4760774.190669
-4775875.963267
-4790977.735864
-4807007.508462
-4823325.281059
-4838907.053657
-4856056.826254
-5088836.519572
-5102402.292170
-5117472.064767
-5131997.837365
-5146715.609962
-5162841.382560
-5178999.155158
-5194868.927755
-5211986.700353
-5455166.393671
-5469436.166268
-5483385.938866
-5498551.711463
-5512821.484061
-5528787.256658
-5544465.029256
-5560718.801853
-5577964.574451
-5831640.267769
-5845334.040366
-5859859.812964
-5873937.585561
-5889135.358159
-5904781.130757
-5919818.903354
-5936936.675952
-5953638.448549
-6217586.141867
-6231087.914465
-6245677.687062
-6259819.459660
-6274857.232257
-6289767.004855
-6305700.777452
-6322210.550050
-6338272.322647
-6613484.015965
-6626889.788563
-6640999.561160
-6655397.333758
-6669763.106356
-6685632.878953
-6700638.651551
-6716540.424148
-6732570.196746
-7017925.890064
-7032131.662661
-7045569.435259
-7060031.207856
-7074172.980454
-7089210.753051
-7105144.525649
-7120566.298246
-7136596.070844
-7432255.764162
-7445277.536759
-7459803.309357
-7473209.081955
-7488118.854552
-7502324.627150
-7517170.399747
-7533616.172345
-7549997.944942
-7854681.638260
-7868439.410858
-7881621.183455
-7895730.956053
-7910256.728650
-7924878.501248
-7939724.273845
-7955882.046443
-7971815.819041
-8286227.512358
-8299953.284956
-8312719.057554
-8326956.830151
-8340874.602749
-8355880.375346
-8370662.147944
-8385827.920541
-8401537.693139
-8725997.386457
-8739211.159054
-8752328.931652
-8765926.704249
-8779844.476847
-8794434.249444
-8809056.022042
-8824157.794640
-8840155.567237
-9173703.260555
-9186373.033153
-9199938.805750
-9213248.578348
-9227230.350945
-9241596.123543
-9255993.896140
-9271159.668738
-9286453.441335
-9629281.134653
-9641950.907251
-9655740.679848
-9668666.452446
-9682264.225043
-9696309.997641
-9711443.770239
-9725777.542836
-9741135.315434
-10092571.008752
-10104792.781349
-10118102.553947
-10131284.326544
-10144978.099142
-10159279.871739
-10173581.644337
-10188363.416934
-10203177.189532
-10563220.882850
-10575890.655447
-10588592.428045
-10601230.200642
-10615435.973240
-10629225.745838
-10642759.518435
-10657541.291033
-10672387.063630
-11040430.756948
-11053068.529546
-11065610.302143
-11078952.074741
-11092389.847338
-11105667.619936
-11119745.392533
-11133791.165131
-11148540.937728
-11525512.631046
-11537158.403644
-11550052.176241
-11562785.948839
-11575935.721437
-11589309.494034
-11603547.266632
-11616761.039229
-11631798.811827
-12015618.505145
-12027648.277742
-12039998.050340
-12053339.822937
-12066265.595535
-12079543.368132
-12092693.140730
-12107474.913327
-12121040.685925
-12513084.379243
-12525562.151840
-12537079.924438
-12549557.697036
-12562675.469633
-12576241.242231
-12589327.014828
-12602668.787426
-12616842.560023
-13015958.253341
-13027796.025939
-13040209.798536
-13052751.571134
-13065101.343731
-13078443.116329
-13091944.888926
-13105414.661524
-13119268.434122
-13524784.127439
-13536589.900037
-13548619.672635
-13561193.445232
-13573575.217830
-13586308.990427
-13600034.763025
-13613312.535622
-13626878.308220
-14039082.001538
-14050663.774135
-14062213.546733
-14075139.319330
-14087297.091928
-14099806.864525
-14113180.637123
-14126074.409721
-14140120.182318
-14558595.875636
-14570305.648234
-14581727.420831
-14593789.193429
-14606458.966026
-14618872.738624
-14631478.511221
-14644596.283819
-14657938.056416
-15082749.749734
-15093723.522332
-15106009.294929
-15117591.067527
-15130100.840124
-15141618.612722
-15154672.385320
-15167790.157917
-15180907.930515
-15611383.623833
-15623029.396430
-15634579.169028
-15646224.941625
-15658062.714223
-15670284.486820
-15682826.259418
-15695080.032015
-15708197.804613
-16144849.497931
-16155663.270528
-16166957.043126
-16179018.815723
-16190728.588321
-16202630.360919
-16214724.133516
-16227777.906114
-16240031.678711
-16682379.372029
-16693065.144627
-16704262.917224
-16715108.689822
-16726882.462419
-16739136.235017
-16751390.007614
-16763963.780212
-16776377.552809
-17223237.246127
-17233795.018725
-17245024.791322
-17256382.563920
-17267484.336518
-17279258.109115
-17291415.881713
-17303573.654310
-17315827.426908
-17766975.120226
-17778364.892823
-17788890.665421
-17800472.438018
-17811830.210616
-17823123.983213
-17835441.755811
-17846959.528408
-17858957.301006
-18315352.994324
-18325654.766921
-18336468.539519
-18347730.312117
-18358832.084714
-18370605.857312
-18381867.629909
-18393321.402507
-18405447.175104
-18865906.868422
-18876624.641020
-18887214.413617
-18898252.186215
-18909129.958812
-18920103.731410
-18931781.504007
-18943267.276605
-18955329.049203
-19419436.742520
-19430314.515118
-19440616.287716
-19450950.060313
-19461955.832911
-19472929.605508
-19484095.378106
-19496125.150703
-19507514.923301
-19975142.616619
-19985604.389216
-19996002.161814
-20006559.934411
-20017341.707009
-20027899.479606
-20039257.252204
-20050455.024802
-20061524.797399
-20533664.490717
-20543646.263315
-20554236.035912
-20564473.808510
-20575095.581107
-20585525.353705
-20596339.126302
-20607760.898900
-20619054.671497
-21094042.364815
-21103768.137413
-21114037.910010
-21124531.682608
-21134609.455205
-21144815.227803
-21155789.000401
-21166954.772998
-21177096.545596
-21655732.238914
-21665394.011511
-21676271.784109
-21685773.556706
-21695595.329304
-21706473.101901
-21716710.874499
-21727428.647096
-21738626.419694
-22219182.113012
-22228779.885609
-22238633.658207
-22248359.430804
-22258597.203402
-22268610.976000
-22279264.748597
-22289726.521195
-22300572.293792
-22783271.987110
-22793477.759708
-22802563.532305
-22812481.304903
-22822687.077500
-22832604.850098
-22843130.622695
-22853208.395293
-22863894.167890
-23349153.861208
-23358463.633806
-23368605.406403
-23378203.179001
-23387800.951599
-23398166.724196
-23407764.496794
-23417490.269391
-23427728.041989
-23915227.735307
-23924857.507904
-23934263.280502
-23944245.053099
-23954130.825697
-23963472.598294
-23973486.370892
-23982956.143489
-23993097.916087
-24482005.609405
-24491315.382002
-24501169.154600
-24510510.927198
-24519884.699795
-24529226.472393
-24539560.244990
-24548902.017588
-24558851.790185
-25049743.483503
-25058765.256101
-25068555.028698
-25077448.801296
-25086278.573893
-25096516.346491
-25106018.119088
-25115007.891686
-25125021.664284
-25617545.357601
-25626343.130199
-25635716.902797
-25644738.675394
-25653408.447992
-25662654.220589
-25672123.993187
-25681977.765784
-25691511.538382
-26184643.231700
-26193345.004297
-26202430.776895
-26211996.549492
-26220538.322090
-26229720.094687
-26239349.867285
-26247827.639883
-26257425.412480
-26751965.105798
-26760410.878396
-26769272.650993
-26778038.423591
-26787156.196188
-26796145.968786
-26805455.741383
-26814605.513981
-26823531.286578
-27317942.979896
-27326900.752494
-27335474.525091
-27344592.297689
-27352974.070286
-27362731.842884
-27371657.615482
-27380007.388079
-27388741.160677
-27884624.853995
-27892430.626592
-27901548.399190
-27910506.171787
-27919015.944385
-27927493.716982
-27936003.489580
-27944961.262177
-27953599.034775
-28449514.728093
-28458088.500690
-28466694.273288
-28474564.045885
-28483265.818483
-28491679.591081
-28500413.363678
-28509211.136276
-28517464.908873
-29013892.602191
-29021986.374789
-29030624.147386
-29038909.919984
-29046715.692581
-29055065.465179
-29063895.237776
-29072245.010374
-29080402.782971
-29577150.476289
-29584508.248887
-29592922.021484
-29601559.794082
-29609685.566680
-29617811.339277
-29626353.111875
-29634126.884472
-29642604.657070
-30137688.350388
-30146262.122985
-30154067.895583
-30162577.668180
-30170575.440778
-30178221.213375
-30186730.985973
-30195016.758570
-30202662.531168
-30697906.224486
-30706031.997083
-30714125.769681
-30722155.542279
-30729897.314876
-30738055.087474
-30746084.860071
-30753634.632669
-30761792.405266
-31256620.098584
-31264073.871182
-31271783.643779
-31279845.416377
-31288355.188974
-31296000.961572
-31303582.734169
-31310972.506767
-31318874.279365
-31812613.972682
-31821123.745280
-31828545.517878
-31836127.290475
-31843933.063073
-31851834.835670
-31858936.608268
-31866902.380865
-31874356.153463
-32367135.846781
-32375261.619378
-32382587.391976
-32390265.164573
-32397910.937171
-32405396.709768
-32412882.482366
-32420432.254964
-32428014.027561
-32919897.720879
-32927223.493477
-32934869.266074
-32942259.038672
-32949840.811269
-32956942.583867
-32964812.356464
-32971850.129062
-32979367.901659
-33469779.594977
-33477169.367575
-33484431.140172
-33491884.912770
-33499306.685367
-33506536.457965
-33513894.230563
-33521156.003160
-33528161.775758
-34017677.469076
-34025419.241673
-34032169.014271
-34039878.786868
-34046820.559466
-34054626.332063
-34061088.104661
-34068189.877258
-34075483.649856
-34563047.343174
-34569829.115771
-34577250.888369
-34584544.660966
-34591486.433564
-34598524.206162
-34605881.978759
-34612727.751357
-34619189.523954
-35105409.217272
-35112606.989870
-35119612.762467
-35127002.535065
-35133656.307662
-35140502.080260
-35147315.852857
-35154513.625455
-35161391.398052
SCALARS stress_2 float
LOOKUP_TABLE default
133549.283084
-11887498.607196
-11707945.508568
-11527784.409939
-11346919.311311
-11164678.212682
-10982149.114054
-10798308.015425
-10614274.916797
-10429825.818168
-10243712.719540
-10057407.620911
-9870846.522283
-9683997.423654
-9495996.325026
-9307739.226397
-9119674.127769
-8931225.029140
-8742423.930512
-8553558.831883
-8364661.733255
-8175732.634626
-7986867.535998
-7798290.437369
-7610001.338741
-7422160.240112
-7234095.141484
-7047182.042855
-6860268.944227
-6674219.845598
-6488138.746970
-6303913.648341
-6119784.549713
-5936775.451084
-5755302.352456
-5574213.253827
-5394852.155199
-5216131.056570
-5039585.957942
-4863872.859313
-4690207.760685
-4517854.662056
-4347293.563428
-4178588.464799
-4011803.366171
-3846874.267542
-3684409.168914
-3523992.070285
-3365910.971657
-3210293.873028
-3056436.774400
-2905523.675771
-2757586.577143
-2611569.478514
-2469136.379886
-2329007.281257
-2192366.182629
-2058221.084000
-1927467.985372
-1799146.886743
-1675113.788115
-1553384.689486
-1435239.590858
-1320230.492229
-1208933.393601
-1101028.294972
-997027.196344
-896290.097715
-799168.999087
-705087.900458
-615294.801830
-529501.703201
-446204.604573
-367387.505944
-291930.407316
-220441.308687
-152216.210059
-87895.111430
-27062.012802
29931.085827
83308.184455
-11373727.310536
533720.579743
488535.481115
439734.382486
387189.283858
330932.185229
271539.086601
208369.987972
140848.889344
69935.790715
-5137.307913
-83570.406542
-166067.505170
-252436.603798
-341781.702427
-434998.801055
-532343.899684
-633336.998312
-736698.096941
-845435.195569
-957212.294198
-1071709.392826
-1190910.491455
-1311903.590083
-1437184.688712
-1565377.787340
-1696770.885969
-1831139.984597
-1969157.083226
-2108870.181854
-2252807.280483
-2398472.379111
-2547209.477740
-2698858.576368
-2853515.674997
-3009228.773625
-3168397.872254
-3329518.970882
-3492784.069511
-3657969.168139
-3824754.266768
-3994835.365396
-4165716.464025
-4338901.562653
-4513494.661282
-4688855.759910
-4867384.858539
-5045849.957167
-5226267.055796
-5407324.154424
-5590141.253053
-5772990.351681
-5957791.450310
-6142816.548938
-6329217.647567
-6515970.746195
-6703171.844824
-6890372.943452
-7079078.042081
-7267879.140709
-7456808.239338
-7646089.337966
-7835242.436595
-8024715.535223
-8213420.633852
-8402637.732480
-8592174.831109
-8780911.929737
-8969681.028366
-9158226.126994
-9345939.225623
-9533780.324251
-9720309.422880
-9907190.521508
-10093239.620137
-10278456.718765
-10463161.817394
-10647130.916022
-10830236.014651
-11012221.113279
-11194110.211908
-11425818.040202
-11477652.769868
-11528591.499534
-11579946.229200
-11631236.958866
-11682431.688532
-11733690.418198
-11785077.147864
-11836239.877530
174024.012750
214466.742416
255581.472082
295768.201747
335506.931413
375597.661079
415368.390745
455363.120411
494717.850077
449052.751449
409314.021783
368423.292117
328812.562451
287825.832785
247223.103119
206428.373453
165601.643787
124422.914121
399611.652820
359232.923154
318278.193488
277995.463822
237200.734156
195670.004491
154491.274825
112832.545159
71461.815493
347290.554192
305983.824526
264997.094860
223466.365194
182255.635528
140564.905862
98426.176196
57023.446530
15108.716864
290265.455563
248958.725897
207395.996231
165673.266565
123758.536900
81523.807234
39289.077568
-3009.652098
-45244.381764
230168.356935
187741.627269
145570.897603
103752.167937
61869.438271
19186.708605
-23368.021061
-66754.750727
-108989.480393
165527.258306
123452.528640
81665.798974
38599.069309
-3731.660357
-47374.390023
-90089.119689
-133955.849355
-177086.579021
98006.159678
55355.430012
12320.700346
-30394.029320
-73972.758986
-116911.488652
-160394.218318
-204580.947984
-248415.677650
26773.061049
-16453.668616
-59872.398282
-103195.127948
-146837.857614
-190640.587280
-234667.316946
-278630.046612
-322912.776278
-48172.037579
-91558.767245
-136001.496911
-179900.226577
-223382.956243
-268049.685909
-312748.415575
-356999.145241
-401889.874907
-127597.136207
-171655.865873
-216034.595539
-259933.325205
-304248.054871
-349266.784537
-393933.514203
-438664.243869
-483618.973535
-210510.234836
-254728.964502
-299331.694168
-343678.423834
-389113.153500
-433875.883166
-479054.612832
-524393.342498
-569348.072164
-296431.333464
-341258.063130
-386660.792796
-431487.522462
-476986.252128
-522324.981794
-567567.711460
-613194.441126
-658757.170792
-386768.432093
-431723.161759
-477445.891425
-522752.621091
-568699.350757
-613942.080423
-659792.810089
-706251.539755
-752998.269421
-480721.530721
-526028.260387
-571494.990053
-617825.719719
-663612.449385
-709655.179051
-756465.908717
-802764.638383
-849575.368049
-578578.629350
-624269.359016
-670152.088682
-716034.818348
-762973.548014
-809208.277680
-855923.007346
-902669.737012
-950024.466678
-679187.727978
-725454.457644
-771881.187310
-818947.916976
-865214.646642
-912089.376308
-959412.105974
-1006254.835640
-1053993.565306
-784084.826607
-830831.556273
-877162.285939
-924741.015605
-971935.745271
-1018426.474937
-1066101.204603
-1113839.934269
-1161066.663935
-892501.925235
-939376.654901
-986539.384567
-1033894.114233
-1081184.843899
-1128763.573565
-1176214.303231
-1224433.032897
-1272171.762563
-1004023.023864
-1051505.753530
-1098604.483196
-1146535.212862
-1194145.942528
-1242044.672194
-1289943.401860
-1338610.131526
-1386348.861192
-1119288.122492
-1167154.852158
-1214797.581824
-1262824.311490
-1310595.041156
-1358781.770822
-1407096.500488
-1455699.230154
-1504589.959820
-1237849.221121
-1286035.950787
-1333710.680453
-1382537.410119
-1430084.139785
-1479326.869451
-1527929.599117
-1576180.328783
-1625455.058449
-1360186.319749
-1408277.049415
-1456079.779081
-1505386.508747
-1553797.238413
-1602303.968079
-1651482.697745
-1700373.427411
-1749296.157077
-1485115.418378
-1534294.148044
-1582512.877710
-1631371.607376
-1680070.337042
-1729121.066708
-1778459.796374
-1827766.526040
-1877489.255706
-1613788.517006
-1662583.246672
-1710993.976338
-1761100.706004
-1810119.435670
-1859234.165336
-1908732.895002
-1958135.624668
-2007762.354334
-1745597.615635
-1794360.345301
-1844179.074967
-1893389.804633
-1942504.534299
-1992515.263965
-2042493.993631
-2091480.723297
-2141907.452963
-1880478.714263
-1929177.443929
-1979284.173595
-2028750.903261
-2078441.632927
-2128228.362593
-2178303.092259
-2228089.821925
-2278644.551591
-2018207.812892
-2067834.542558
-2117525.272224
-2166832.001890
-2217610.731556
-2267269.461222
-2317408.190888
-2367898.920554
-2418517.650220
-2158912.911520
-2209115.641186
-2258454.370852
-2308497.100518
-2358731.830184
-2409414.559850
-2459809.289516
-2510524.019182
-2561654.748848
-2302658.010149
-2352412.739815
-2402743.469481
-2452626.199147
-2503884.928813
-2553575.658479
-2605090.388145
-2655549.117811
-2706775.847477
-2448451.108777
-2499005.838443
-2548984.568109
-2599699.297775
-2650510.027441
-2701192.757107
-2752035.486773
-2803358.216439
-2854424.946105
-2597764.207406
-2648158.937072
-2698489.666738
-2749460.396404
-2800847.126070
-2851561.855736
-2902564.585402
-2953887.315068
-3005018.044734
-2749797.306034
-2800320.035700
-2850810.765366
-2901621.495032
-2953168.224698
-3003562.954364
-3055397.684030
-3107072.413696
-3158491.143362
-2903558.404663
-2954593.134329
-3005531.863995
-3056374.593661
-3108113.323327
-3159596.052993
-3210374.782659
-3261953.512325
-3313788.241991
-3060039.503291
-3111266.232957
-3162780.962623
-3213815.692289
-3264978.421955
-3317197.151621
-3368327.881287
-3420482.610953
-3472061.340619
-3219272.601920
-3270339.331586
-3322078.061252
-3373048.790918
-3425267.520584
-3476398.250250
-3528104.979916
-3580291.709582
-3632638.439248
-3380777.700548
-3431844.430214
-3483423.159880
-3535065.889546
-3586836.619212
-3638415.348878
-3690602.078544
-3742596.808210
-3794687.537876
-3544362.799177
-3595621.528843
-3647328.258509
-3698938.988175
-3751093.717841
-3802608.447507
-3855371.177173
-3907429.906839
-3959296.636505
-3709451.897805
-3760998.627471
-3813057.357137
-3864636.086803
-3917110.816469
-3968849.546135
-4021548.275801
-4073991.005467
-4126401.735133
-3877068.996434
-3928615.726100
-3980706.455766
-4033469.185432
-4085015.915098
-4137298.644764
-4189741.374430
-4242088.104096
-4294690.833762
-4046766.095062
-4098696.824728
-4150691.554394
-4203102.284060
-4255289.013726
-4307059.743392
-4359950.473058
-4412457.202724
-4465219.932390
-4217743.193691
-4270121.923357
-4321988.653023
-4374591.382689
-4426938.112355
-4478868.842021
-4531791.571687
-4584554.301353
-4637349.031019
-4391056.292319
-4443019.021985
-4495333.751651
-4548096.481317
-4600283.210983
-4652469.940649
-4705904.670315
-4757963.399981
-4811046.129647
-4566161.390948
-4618028.120614
-4671046.850280
-4722881.579946
-4775324.309612
-4828215.039278
-4880337.768944
-4932588.498610
-4987015.228276
-4741970.489576
-4794157.219242
-4846375.948908
-4899426.678574
-4951997.408240
-5004760.137906
-5057554.867572
-5110221.597238
-5163272.326904
-4919987.588205
-4971918.317871
-5024553.047537
-5076643.777203
-5129598.506869
-5182265.236535
-5235603.966201
-5288590.695867
-5341449.425533
-5098164.686833
-5150959.416499
-5203370.146165
-5256388.875831
-5309343.605497
-5362106.335163
-5415221.064829
-5468271.794495
-5521322.524161
-5278421.785462
-5331216.515128
-5384171.244794
-5436517.974460
-5489472.704126
-5542811.433792
-5595318.163458
-5648976.893124
-5701387.622790
-5460278.884090
-5512561.613756
-5565452.343422
-5618343.073088
-5670817.802754
-5724540.532420
-5777367.262086
-5830737.991752
-5883916.721418
-5642263.982719
-5695122.712385
-5747821.442051
-5800904.171717
-5853858.901383
-5907005.631049
-5959928.360715
-6013427.090381
-6066445.820047
-5825881.081347
-5878899.811013
-5931790.540679
-5984873.270345
-6037796.000011
-6090750.729677
-6143769.459343
-6197364.189009
-6250478.918675
-6010810.179976
-6063156.909642
-6116431.639308
-6169258.368974
-6221829.098640
-6275231.828306
-6328762.557972
-6381557.287638
-6435088.017304
-6196091.278604
-6248886.008270
-6301488.737936
-6354123.467602
-6407974.197268
-6460128.926934
-6513883.656600
-6566966.386266
-6620305.115932
-6381948.377233
-6435159.106899
-6487377.836565
-6540748.566231
-6593799.295897
-6646754.025563
-6700508.755229
-6753591.484895
-6806418.214561
-6568477.475861
-6621752.205527
-6674354.935193
-6727309.664859
-6780680.394525
-6833763.124191
-6887357.853857
-6940632.583523
-6993523.313189
-6755934.574490
-6808857.304156
-6861812.033822
-6914862.763488
-6967977.493154
-7021220.222820
-7074302.952486
-7127769.682152
-7180756.411818
-6943519.673118
-6996826.402784
-7049365.132450
-7102543.862116
-7155786.591782
-7209253.321448
-7262240.051114
-7314842.780780
-7369109.510446
-7132192.771747
-7184539.501413
-7238038.231079
-7291120.960745
-7344427.690411
-7397286.420077
-7450305.149743
-7503483.879409
-7557142.609075
-7320321.870375
-7373564.600041
-7426487.329707
-7479506.059373
-7533004.789039
-7585863.518705
-7638850.248371
-7691900.978037
-7745271.707703
-7509474.969004
-7561693.698670
-7615352.428336
-7668531.158002
-7721325.887668
-7774376.617334
-7827555.347000
-7880766.076666
-7933560.806332
-7698372.067632
-7751902.797298
-7804441.526964
-7857140.256630
-7910222.986296
-7963273.715962
-8016356.445628
-8069439.175294
-8122905.904960
-7888165.166261
-7940447.895927
-7994042.625593
-8046421.355259
-8099632.084925
-8152490.814591
-8205605.544257
-8258816.273923
-8311771.003589
-8076966.264889
-8130304.994555
-8182907.724221
-8235254.453887
-8288977.183553
-8341323.913219
-8394662.642885
-8447937.372551
-8500540.102217
-8266183.363518
-8319234.093184
-8371996.822850
-8424951.552516
-8478194.282182
-8530445.011848
-8583719.741514
-8636482.471180
-8689405.200846
-8456072.462146
-8508003.191812
-8561309.921478
-8614168.651144
-8667027.380810
-8719854.110476
-8772072.840142
-8825603.569808
-8878590.299474
-8644905.560775
-8697700.290441
-8750463.020107
-8802905.749773
-8856020.479439
-8908623.209105
-8961321.938771
-9013892.668437
-9066847.398103
-8833578.659403
-8886565.389069
-8938944.118735
-8991770.848401
-9044725.578067
-9096720.307733
-9149515.037399
-9202021.767065
-9255360.496731
-9022187.758032
-9074822.487698
-9127873.217364
-9180091.947030
-9232598.676696
-9285777.406362
-9338092.136028
-9390566.865694
-9443713.595360
-9210924.856660
-9263015.586326
-9315138.315992
-9367869.045658
-9420919.775324
-9473554.504990
-9525837.234656
-9578631.964322
-9631010.693988
-9398573.955289
-9451080.684955
-9503683.414621
-9555902.144287
-9608120.873953
-9660563.603619
-9713422.333285
-9765673.062951
-9818531.792617
-9586351.053917
-9638697.783583
-9690500.513249
-9742591.242915
-9795353.972581
-9847668.702247
-9899951.431913
-9952522.161579
-10005060.891245
-9772816.152546
-9824874.882212
-9877637.611878
-9929728.341544
-9982139.071210
-10034325.800876
-10086448.530542
-10138603.260208
-10191461.989874
-9959633.251174
-10011051.980840
-10063750.710506
-10115713.440172
-10167516.169838
-10220566.899504
-10272689.629170
-10324876.358836
-10377255.088502
-10145330.349803
-10197229.079469
-10249383.809135
-10301378.538801
-10353949.268467
-10406167.998133
-10458162.727799
-10509933.457465
-10562248.187131
-10329971.448431
-10382158.178097
-10434536.907763
-10486435.637429
-10538430.367095
-10590553.096761
-10642611.826427
-10694318.556093
-10746761.285759
-10514772.547060
-10566671.276726
-10618954.006392
-10670692.736058
-10722623.465724
-10774650.195390
-10826516.925056
-10877967.654722
-10930250.384388
-10698485.645688
-10750576.375354
-10802763.105020
-10854565.834686
-10905824.564352
-10958011.294018
-11009430.023684
-11060720.753350
-11112747.483016
-10881942.744317
-10933425.473983
-10985388.203649
-11036806.933315
-11088641.662981
-11139772.392647
-11192119.122313
-11243281.851979
-11295340.581645
-11064087.842945
-11115250.572611
-11166957.302277
-11218280.031943
-11270082.761609
-11322045.491275
-11373368.220941
-11424946.950607
-11476269.680273
-11245336.941574
-11297075.671240
-11348718.400906
-11399945.130572
-11451459.860238
-11502110.589904
-11553689.319570
-11605300.049236
-11656750.778902
SCALARS stress_3 float
LOOKUP_TABLE default
131482.695984
9376890.617417
9243799.118399
9109691.619381
8975664.120363
8840580.621345
8704577.122327
8567957.623309
8430490.124291
8293430.625273
8155283.126256
8015927.627238
7876716.128220
7737416.629202
7597341.130184
7456441.631166
7315534.132148
7174106.633130
7033335.134112
6891627.635094
6750408.136076
6608620.637058
6466345.138041
6325157.639023
6182874.140005
6041750.640987
5900403.141969
5758495.642951
5617612.143933
5477280.644915
5336541.145897
5197217.646879
5058414.147861
4918834.648844
4780935.149826
4643523.650808
4507240.151790
4370820.652772
4236033.153754
4102173.654736
3969522.155718
3836878.656700
3706131.157682
3577103.658664
3448964.159647
3321976.660629
3197069.161611
3072545.662593
2950006.163575
2829530.664557
2710175.165539
2592907.666521
2477024.167503
2363764.668485
2252065.169467
2141373.670449
2034106.171432
1928638.672414
1824931.173396
1723455.674378
1624884.175360
1528176.676342
1433717.177324
1341513.678306
1252254.179288
1165178.680270
1080391.181252
999147.682235
918984.183217
842836.684199
769073.185181
697429.686163
628506.187145
562358.688127
499371.189109
438015.690091
380316.191073
325000.692055
273045.193038
223297.694020
176206.195002
9227141.820128
-75034.101305
-31830.602287
14412.896731
63440.395749
115051.894766
169319.393784
226866.892802
286486.391820
349833.890838
414461.389856
482824.888874
554492.387892
627391.886910
704339.385928
783774.884946
864994.383964
950213.882981
1036705.381999
1126332.881017
1218408.380035
1313011.879053
1409759.378071
1509258.877089
1610790.376107
1715305.875125
1820253.374143
1929432.873161
2039012.372178
2151991.871196
2266283.370214
2382358.869232
2500890.368250
2620917.867268
2742697.366286
2865604.865304
2991072.364322
3116555.863340
3245303.362358
3374026.861375
3505014.360393
3636345.859411
3769181.358429
3903664.857447
4038676.356465
4174807.855483
4311675.354501
4449542.853519
4588018.352537
4727437.851555
4867393.350573
5008116.849590
5149608.348608
5291147.847626
5432879.346644
5575138.845662
5717614.344680
5860105.843698
6003477.342716
6146208.841734
6289204.340752
6432103.839770
6575707.338787
6718886.837805
6861450.336823
7004197.835841
7146649.334859
7288892.833877
7430416.332895
7571507.831913
7713087.330931
7853226.829949
7993454.328967
8133185.827984
8272237.327002
8410384.826020
8548188.325038
8685343.824056
8821987.323074
8957686.822092
9092754.321110
9241952.699857
9256867.579586
9272086.459314
9287409.339043
9302036.218772
9317207.098501
9332705.978230
9347076.857959
9362391.737688
111183.816255
89908.936526
69082.056797
48087.177068
27036.297339
6769.417610
-14217.462118
-33988.341847
-54455.221576
-11563.722558
9367.157171
29618.036899
51068.916628
71231.796357
92434.676086
113053.555815
133592.435544
154331.315273
34967.776460
55426.656188
76197.535917
96816.415646
118083.295375
138750.175104
159553.054833
180787.934562
202198.814291
83779.275477
104582.155206
125625.034935
146347.914664
167334.794393
188241.674122
209316.553851
230335.433580
251202.313309
135622.774495
156257.654224
177300.533953
198447.413682
218938.293411
240629.173140
261304.052869
282634.932598
304437.812327
189546.273513
210981.153242
231376.032971
252770.912700
273741.792429
295176.672158
316603.551887
337758.431616
359281.311344
247253.772531
268168.652260
288915.531989
310038.411718
331489.291447
353084.171176
373863.050905
394785.930633
416964.810362
307441.271549
328244.151278
349319.031007
370505.910736
392084.790465
412639.670194
435130.549922
455453.429651
477400.309380
369724.770567
391375.650296
412434.530025
433533.409754
454840.289483
476171.169212
497414.048940
519128.928669
540523.808398
435424.269585
457283.149314
477414.029043
499064.908772
520483.788501
542182.668229
563233.547958
585252.427687
607023.307416
504395.768603
525214.648332
546985.528061
567764.407790
588791.287518
610634.167247
632645.046976
653903.926705
675314.806434
575303.267621
596842.147350
617389.027079
638191.906807
660298.786536
681861.666265
703208.545994
725683.425723
746726.305452
648690.766639
669917.646368
691656.526096
712931.405825
734518.285554
755977.165283
776948.045012
799110.924741
821137.804470
725622.265657
747121.145385
768244.025114
789926.904843
810633.784572
832204.664301
854071.544030
876002.423759
897541.303488
804769.764675
826076.644403
847079.524132
868578.403861
890181.283590
911440.163319
933451.043048
955077.922777
977112.802506
886253.263692
907792.143421
929507.023150
950613.902879
972240.782608
993211.662337
1015486.542066
1037161.421795
1059132.301524
970880.762710
992147.642439
1013550.522168
1034849.401897
1056356.281626
1078327.161355
1100226.041084
1121836.920813
1143647.800541
1058260.261728
1079119.141457
1100538.021186
1121788.900915
1143423.780644
1165898.660373
1187165.540102
1208448.419831
1230403.299559
1147631.760746
1168962.640475
1190341.520204
1212000.399933
1233331.279662
1254262.159391
1276721.039120
1298123.918848
1319966.798577
1239827.259764
1261030.139493
1281617.019222
1303683.898951
1324990.778680
1346873.658409
1368180.538137
1389919.417866
1412034.297595
1333998.758782
1355273.638511
1376900.518240
1398431.397969
1420138.277698
1441421.157426
1462608.037155
1484026.916884
1505781.796613
1431026.257800
1452597.137529
1473080.017258
1495026.896987
1516525.776715
1537928.656444
1559355.536173
1580926.415902
1602689.295631
1530445.756818
1551304.636547
1572971.516276
1594046.396004
1615577.275733
1637364.155462
1658455.035191
1680177.914920
1701708.794649
1631593.255836
1652836.135565
1675047.015293
1695473.895022
1717492.774751
1738831.654480
1760106.534209
1781261.413938
1803040.293667
1735908.754854
1757359.634583
1778266.514311
1799341.394040
1821072.273769
1841915.153498
1863582.033227
1885120.912956
1906323.792685
1842320.253872
1862603.133600
1884214.013329
1905392.893058
1926643.772787
1947998.652516
1969753.532245
1990932.411974
2012839.291703
1950627.752889
1971014.632618
1992393.512347
2013788.392076
2034247.271805
2056050.151534
2077413.031263
2098183.910992
2120498.790721
2060399.251907
2081090.131636
2102557.011365
2123431.891094
2145002.770823
2166085.650552
2187464.530281
2209043.410010
2229990.289739
2173034.750925
2193549.630654
2214936.510383
2235747.390112
2256814.269841
2278393.149570
2299404.029299
2320470.909028
2341345.788756
2287662.249943
2308289.129672
2328996.009401
2349862.889130
2371257.768859
2392124.648588
2413023.528317
2434946.408045
2455941.287774
2403769.748961
2423692.628690
2445103.508419
2466298.388148
2486885.267877
2507912.147606
2528875.027334
2549957.907063
2571192.786792
2521693.247979
2542176.127708
2563395.007437
2584021.887166
2605000.766895
2625987.646623
2646718.526352
2667801.406081
2689412.285810
2641504.746997
2662603.626726
2683054.506455
2702745.386184
2724244.265912
2745319.145641
2766346.025370
2787396.905099
2807975.784828
2763396.246015
2783335.125744
2804026.005473
2825004.885202
2846167.764930
2866546.644659
2887453.524388
2909000.404117
2929355.283846
2886527.745033
2906994.624762
2927205.504491
2947952.384219
2968235.263948
2989262.143677
3010233.023406
3030835.903135
3051934.782864
3011091.244051
3031334.123780
3051929.003508
3072091.883237
3093246.762966
3113433.642695
3134108.522424
3154935.402153
3175986.281882
3137854.743069
3157817.622797
3178052.502526
3198519.382255
3219138.261984
3239285.141713
3259600.021442
3280226.901171
3301365.780900
3265338.242086
3285421.121815
3304936.001544
3325818.881273
3345973.761002
3366320.640731
3386987.520460
3408094.400189
3428057.279918
3394325.741104
3414048.620833
3435147.500562
3454726.380291
3474809.260020
3495548.139749
3515935.019478
3536417.899207
3556396.778936
3524745.240122
3544844.119851
3564782.999580
3585033.879309
3604708.759038
3625703.638767
3645834.518496
3665733.398225
3686320.277953
3656588.739140
3676143.618869
3696130.498598
3716925.378327
3736296.258056
3756419.137785
3776846.017514
3797040.897242
3816715.776971
3789216.238158
3809387.117887
3828941.997616
3849288.877345
3868595.757074
3888502.636803
3908769.516531
3928460.396260
3949503.275989
3923443.737176
3943030.616905
3963001.496634
3982868.376363
4002391.256092
4022578.135820
4042661.015549
4062295.895278
4081954.775007
4058199.236194
4078450.115923
4097116.995652
4117687.875381
4137066.755110
4157101.634838
4176624.514567
4196771.394296
4216390.274025
4194354.735212
4213885.614941
4233536.494670
4253003.374399
4272358.254127
4292001.133856
4311556.013585
4331342.893314
4351417.773043
4331350.234230
4350569.113959
4370299.993688
4389390.873416
4408945.753145
4428596.632874
4448239.512603
4468090.392332
4487325.272061
4469049.733248
4487660.612977
4507983.492705
4527250.372434
4546277.252163
4565672.131892
4584963.011621
4604709.891350
4624008.771079
4607093.232266
4626680.111994
4645994.991723
4665285.871452
4684688.751181
4703867.630910
4722798.510639
4742753.390368
4761220.270097
4746848.731283
4766019.611012
4785326.490741
4803977.370470
4822804.250199
4842151.129928
4861186.009657
4880380.889386
4899975.769115
4886316.230301
4905487.110030
4924361.989759
4943612.869488
4962631.749217
4981602.628946
5000373.508675
5019616.388404
5038195.268133
5026799.729319
5045642.609048
5064509.488777
5083320.368506
5102155.248235
5121174.127964
5140273.007693
5159011.887422
5178030.767150
5168299.228337
5186766.108066
5205688.987795
5224003.867524
5242414.747253
5261729.626982
5279996.506711
5299623.386439
5318330.266168
5309662.727355
5328073.607084
5346900.486813
5365903.366542
5383986.246271
5402757.126000
5421384.005729
5439938.885457
5458381.765186
5450986.226373
5469693.106102
5488247.985831
5506626.865560
5525325.745289
5543352.625018
5562243.504746
5580230.384475
5599705.264204
5593469.725391
5612176.605120
5630107.484849
5648670.364578
5666785.244307
5685020.124035
5703831.003764
5721961.883493
5740212.763222
5735985.224409
5754036.104138
5772550.983867
5790121.863596
5808780.743324
5827367.623053
5845066.502782
5863621.382511
5881840.262240
5878628.723427
5896887.603156
5914162.482885
5932709.362613
5950928.242342
5968859.122071
5986806.001800
6005440.881529
6023771.761258
6021392.222445
6038979.102174
6056861.981902
6075248.861631
6093099.741360
6111318.621089
6129081.500818
6147404.380547
6165495.260276
6164459.721463
6182134.601191
6200081.480920
6217268.360649
6235647.240378
6253562.120107
6271484.999836
6289055.879565
6307090.759294
6307415.220481
6324650.100209
6342556.979938
6360391.859667
6378090.739396
6395541.619125
6413048.498854
6431571.378583
6449054.258312
6450138.719498
6467669.599227
6484968.478956
6503027.358685
6520630.238414
6537913.118143
6556235.997872
6573838.877601
6591145.757330
6593150.218516
6610625.098245
6628243.977974
6645454.857703
6662657.737432
6680180.617161
6697975.496890
6715370.376619
6732869.256347
6735769.717534
6753700.597263
6770655.476992
6787866.356721
6805309.236450
6822720.116179
6839946.995908
6857029.875637
6874944.755365
6879037.216552
6895656.096281
6912762.976010
6929973.855739
6947144.735468
6964539.615197
6981670.494926
6999161.374654
7016124.254383
7021048.715570
7038811.595299
7055422.475028
7072097.354757
7089940.234486
7106007.114215
7123649.993943
7140508.873672
7157919.753401
7163364.214588
7180447.094317
7197321.974046
7214132.853775
7231735.733504
7248314.613232
7265253.492961
7281984.372690
7298739.252419
7305863.713606
7322626.593335
7339277.473064
7355528.352793
7372907.232521
7390118.112250
7406552.991979
7423363.871708
7439510.751437
7447179.212624
7463798.092353
7480672.972082
7497027.851810
7513782.731539
7530857.611268
7547004.490997
7563631.370726
7580378.250455
7588710.711642
7605097.591371
7621212.471100
7638175.350828
7654250.230557
7671117.110286
7688223.990015
7704642.869744
7720733.749473
7729154.210660
7745917.090389
7762119.970117
7778514.849846
7795237.729575
7811360.609304
7827851.489033
7844118.368762
7859953.248491
7870029.709678
7885800.589406
7902219.469135
7918254.348864
7935217.228593
7951244.108322
7967606.988051
7983649.867780
7999868.747509
8009617.208695
8025428.088424
8041958.968153
8058881.847882
8074612.727611
8090935.607340
8106554.487069
8122957.366798
8138608.246527
8149188.707713
8164927.587442
8181282.467171
8197069.346900
8213864.226629
8229499.106358
8245205.986087
8261528.865816
8277051.745545
8288152.206731
8303899.086460
8320045.966189
8335744.845918
8351539.725647
8367630.605376
8383649.485105
8399396.364834
8414951.244562
8426507.705749
8442182.585478
8458369.465207
8473804.344936
8489615.224665
8505410.104394
8521396.984123
8536655.863851
8552466.743580
8564423.204767
8579426.084496
8595236.964225
8611407.843954
8626418.723683
8642373.603412
8657936.483140
8673443.362869
8688646.242598
8701090.703785
8716581.583514
8732152.463243
8748251.342972
8763558.222701
8778681.102429
8794227.982158
8809438.861887
8825049.741616
8837326.202803
8853089.082532
8868483.962261
8883598.841990
8898833.721718
8914332.601447
8929839.481176
8945298.360905
8960765.240634
8972889.701821
8988396.581550
9003535.461279
9018986.341008
9034461.220736
9048944.100465
9064714.980194
9079917.859923
9095136.739652
9107565.200839
9123128.080568
9138738.960297
9153533.840025
9168760.719754
9184019.599483
9199022.479212
9214089.358941
9228884.238670
