# vtk DataFile Version 2.0
Generated volume Mesh
ASCII
DATASET UNSTRUCTURED_GRID
POINTS 891 float
0.005000 0.100000 0.000000
0.005000 0.000000 0.000000
0.005000 0.001250 0.000000
0.005000 0.002500 0.000000
0.005000 0.003750 0.000000
0.005000 0.005000 0.000000
0.005000 0.006250 0.000000
0.005000 0.007500 0.000000
0.005000 0.008750 0.000000
0.005000 0.010000 0.000000
0.005000 0.011250 0.000000
0.005000 0.012500 0.000000
0.005000 0.013750 0.000000
0.005000 0.015000 0.000000
0.005000 0.016250 0.000000
0.005000 0.017500 0.000000
0.005000 0.018750 0.000000
0.005000 0.020000 0.000000
0.005000 0.021250 0.000000
0.005000 0.022500 0.000000
0.005000 0.023750 0.000000
0.005000 0.025000 0.000000
0.005000 0.026250 0.000000
0.005000 0.027500 0.000000
0.005000 0.028750 0.000000
0.005000 0.030000 0.000000
0.005000 0.031250 0.000000
0.005000 0.032500 0.000000
0.005000 0.033750 0.000000
0.005000 0.035000 0.000000
0.005000 0.036250 0.000000
0.005000 0.037500 0.000000
0.005000 0.038750 0.000000
0.005000 0.040000 0.000000
0.005000 0.041250 0.000000
0.005000 0.042500 0.000000
0.005000 0.043750 0.000000
0.005000 0.045000 0.000000
0.005000 0.046250 0.000000
0.005000 0.047500 0.000000
0.005000 0.048750 0.000000
0.005000 0.050000 0.000000
0.005000 0.051250 0.000000
0.005000 0.052500 0.000000
0.005000 0.053750 0.000000
0.005000 0.055000 0.000000
0.005000 0.056250 0.000000
0.005000 0.057500 0.000000
0.005000 0.058750 0.000000
0.005000 0.060000 0.000000
0.005000 0.061250 0.000000
0.005000 0.062500 0.000000
0.005000 0.063750 0.000000
0.005000 0.065000 0.000000
0.005000 0.066250 0.000000
0.005000 0.067500 0.000000
0.005000 0.068750 0.000000
0.005000 0.070000 0.000000
0.005000 0.071250 0.000000
0.005000 0.072500 0.000000
0.005000 0.073750 0.000000
0.005000 0.075000 0.000000
0.005000 0.076250 0.000000
0.005000 0.077500 0.000000
0.005000 0.078750 0.000000
0.005000 0.080000 0.000000
0.005000 0.081250 0.000000
0.005000 0.082500 0.000000
0.005000 0.083750 0.000000
0.005000 0.085000 0.000000
0.005000 0.086250 0.000000
0.005000 0.087500 0.000000
0.005000 0.088750 0.000000
0.005000 0.090000 0.000000
0.005000 0.091250 0.000000
0.005000 0.092500 0.000000
0.005000 0.093750 0.000000
0.005000 0.095000 0.000000
0.005000 0.096250 0.000000
0.005000 0.097500 0.000000
0.005000 0.098750 0.000000
0.000000 0.000000 0.000000
0.000000 0.100000 0.000000
0.000000 0.098750 0.000000
0.000000 0.097500 0.000000
0.000000 0.096250 0.000000
0.000000 0.095000 0.000000
0.000000 0.093750 0.000000
0.000000 0.092500 0.000000
0.000000 0.091250 0.000000
0.000000 0.090000 0.000000
0.000000 0.088750 0.000000
0.000000 0.087500 0.000000
0.000000 0.086250 0.000000
0.000000 0.085000 0.000000
0.000000 0.083750 0.000000
0.000000 0.082500 0.000000
0.000000 0.081250 0.000000
0.000000 0.080000 0.000000
0.000000 0.078750 0.000000
0.000000 0.077500 0.000000
0.000000 0.076250 0.000000
0.000000 0.075000 0.000000
0.000000 0.073750 0.000000
0.000000 0.072500 0.000000
0.000000 0.071250 0.000000
0.000000 0.070000 0.000000
0.000000 0.068750 0.000000
0.000000 0.067500 0.000000
0.000000 0.066250 0.000000
0.000000 0.065000 0.000000
0.000000 0.063750 0.000000
0.000000 0.062500 0.000000
0.000000 0.061250 0.000000
0.000000 0.060000 0.000000
0.000000 0.058750 0.000000
0.000000 0.057500 0.000000
0.000000 0.056250 0.000000
0.000000 0.055000 0.000000
0.000000 0.053750 0.000000
0.000000 0.052500 0.000000
0.000000 0.051250 0.000000
0.000000 0.050000 0.000000
0.000000 0.048750 0.000000
0.000000 0.047500 0.000000
0.000000 0.046250 0.000000
0.000000 0.045000 0.000000
0.000000 0.043750 0.000000
0.000000 0.042500 0.000000
0.000000 0.041250 0.000000
0.000000 0.040000 0.000000
0.000000 0.038750 0.000000
0.000000 0.037500 0.000000
0.000000 0.036250 0.000000
0.000000 0.035000 0.000000
0.000000 0.033750 0.000000
0.000000 0.032500 0.000000
0.000000 0.031250 0.000000
0.000000 0.030000 0.000000
0.000000 0.028750 0.000000
0.000000 0.027500 0.000000
0.000000 0.026250 0.000000
0.000000 0.025000 0.000000
0.000000 0.023750 0.000000
0.000000 0.022500 0.000000
0.000000 0.021250 0.000000
0.000000 0.020000 0.000000
0.000000 0.018750 0.000000
0.000000 0.017500 0.000000
0.000000 0.016250 0.000000
0.000000 0.015000 0.000000
0.000000 0.013750 0.000000
0.000000 0.012500 0.000000
0.000000 0.011250 0.000000
0.000000 0.010000 0.000000
0.000000 0.008750 0.000000
0.000000 0.007500 0.000000
0.000000 0.006250 0.000000
0.000000 0.005000 0.000000
0.000000 0.003750 0.000000
0.000000 0.002500 0.000000
0.000000 0.001250 0.000000
0.000500 0.000000 0.000000
0.001000 0.000000 0.000000
0.001500 0.000000 0.000000
0.002000 0.000000 0.000000
0.002500 0.000000 0.000000
0.003000 0.000000 0.000000
0.003500 0.000000 0.000000
0.004000 0.000000 0.000000
0.004500 0.000000 0.000000
0.004500 0.100000 0.000000
0.004000 0.100000 0.000000
0.003500 0.100000 0.000000
0.003000 0.100000 0.000000
0.002500 0.100000 0.000000
0.002000 0.100000 0.000000
0.001500 0.100000 0.000000
0.001000 0.100000 0.000000
0.000500 0.100000 0.000000
0.000500 0.098750 0.000000
0.001000 0.098750 0.000000
0.001500 0.098750 0.000000
0.002000 0.098750 0.000000
0.002500 0.098750 0.000000
0.003000 0.098750 0.000000
0.003500 0.098750 0.000000
0.004000 0.098750 0.000000
0.004500 0.098750 0.000000
0.000500 0.097500 0.000000
0.001000 0.097500 0.000000
0.001500 0.097500 0.000000
0.002000 0.097500 0.000000
0.002500 0.097500 0.000000
0.003000 0.097500 0.000000
0.003500 0.097500 0.000000
0.004000 0.097500 0.000000
0.004500 0.097500 0.000000
0.000500 0.096250 0.000000
0.001000 0.096250 0.000000
0.001500 0.096250 0.000000
0.002000 0.096250 0.000000
0.002500 0.096250 0.000000
0.003000 0.096250 0.000000
0.003500 0.096250 0.000000
0.004000 0.096250 0.000000
0.004500 0.096250 0.000000
0.000500 0.095000 0.000000
0.001000 0.095000 0.000000
0.001500 0.095000 0.000000
0.002000 0.095000 0.000000
0.002500 0.095000 0.000000
0.003000 0.095000 0.000000
0.003500 0.095000 0.000000
0.004000 0.095000 0.000000
0.004500 0.095000 0.000000
0.000500 0.093750 0.000000
0.001000 0.093750 0.000000
0.001500 0.093750 0.000000
0.002000 0.093750 0.000000
0.002500 0.093750 0.000000
0.003000 0.093750 0.000000
0.003500 0.093750 0.000000
0.004000 0.093750 0.000000
0.004500 0.093750 0.000000
0.000500 0.092500 0.000000
0.001000 0.092500 0.000000
0.001500 0.092500 0.000000
0.002000 0.092500 0.000000
0.002500 0.092500 0.000000
0.003000 0.092500 0.000000
0.003500 0.092500 0.000000
0.004000 0.092500 0.000000
0.004500 0.092500 0.000000
0.000500 0.091250 0.000000
0.001000 0.091250 0.000000
0.001500 0.091250 0.000000
0.002000 0.091250 0.000000
0.002500 0.091250 0.000000
0.003000 0.091250 0.000000
0.003500 0.091250 0.000000
0.004000 0.091250 0.000000
0.004500 0.091250 0.000000
0.000500 0.090000 0.000000
0.001000 0.090000 0.000000
0.001500 0.090000 0.000000
0.002000 0.090000 0.000000
0.002500 0.090000 0.000000
0.003000 0.090000 0.000000
0.003500 0.090000 0.000000
0.004000 0.090000 0.000000
0.004500 0.090000 0.000000
0.000500 0.088750 0.000000
0.001000 0.088750 0.000000
0.001500 0.088750 0.000000
0.002000 0.088750 0.000000
0.002500 0.088750 0.000000
0.003000 0.088750 0.000000
0.003500 0.088750 0.000000
0.004000 0.088750 0.000000
0.004500 0.088750 0.000000
0.000500 0.087500 0.000000
0.001000 0.087500 0.000000
0.001500 0.087500 0.000000
0.002000 0.087500 0.000000
0.002500 0.087500 0.000000
0.003000 0.087500 0.000000
0.003500 0.087500 0.000000
0.004000 0.087500 0.000000
0.004500 0.087500 0.000000
0.000500 0.086250 0.000000
0.001000 0.086250 0.000000
0.001500 0.086250 0.000000
0.002000 0.086250 0.000000
0.002500 0.086250 0.000000
0.003000 0.086250 0.000000
0.003500 0.086250 0.000000
0.004000 0.086250 0.000000
0.004500 0.086250 0.000000
0.000500 0.085000 0.000000
0.001000 0.085000 0.000000
0.001500 0.085000 0.000000
0.002000 0.085000 0.000000
0.002500 0.085000 0.000000
0.003000 0.085000 0.000000
0.003500 0.085000 0.000000
0.004000 0.085000 0.000000
0.004500 0.085000 0.000000
0.000500 0.083750 0.000000
0.001000 0.083750 0.000000
0.001500 0.083750 0.000000
0.002000 0.083750 0.000000
0.002500 0.083750 0.000000
0.003000 0.083750 0.000000
0.003500 0.083750 0.000000
0.004000 0.083750 0.000000
0.004500 0.083750 0.000000
0.000500 0.082500 0.000000
0.001000 0.082500 0.000000
0.001500 0.082500 0.000000
0.002000 0.082500 0.000000
0.002500 0.082500 0.000000
0.003000 0.082500 0.000000
0.003500 0.082500 0.000000
0.004000 0.082500 0.000000
0.004500 0.082500 0.000000
0.000500 0.081250 0.000000
0.001000 0.081250 0.000000
0.001500 0.081250 0.000000
0.002000 0.081250 0.000000
0.002500 0.081250 0.000000
0.003000 0.081250 0.000000
0.003500 0.081250 0.000000
0.004000 0.081250 0.000000
0.004500 0.081250 0.000000
0.000500 0.080000 0.000000
0.001000 0.080000 0.000000
0.001500 0.080000 0.000000
0.002000 0.080000 0.000000
0.002500 0.080000 0.000000
0.003000 0.080000 0.000000
0.003500 0.080000 0.000000
0.004000 0.080000 0.000000
0.004500 0.080000 0.000000
0.000500 0.078750 0.000000
0.001000 0.078750 0.000000
0.001500 0.078750 0.000000
0.002000 0.078750 0.000000
0.002500 0.078750 0.000000
0.003000 0.078750 0.000000
0.003500 0.078750 0.000000
0.004000 0.078750 0.000000
0.004500 0.078750 0.000000
0.000500 0.077500 0.000000
0.001000 0.077500 0.000000
0.001500 0.077500 0.000000
0.002000 0.077500 0.000000
0.002500 0.077500 0.000000
0.003000 0.077500 0.000000
0.003500 0.077500 0.000000
0.004000 0.077500 0.000000
0.004500 0.077500 0.000000
0.000500 0.076250 0.000000
0.001000 0.076250 0.000000
0.001500 0.076250 0.000000
0.002000 0.076250 0.000000
0.002500 0.076250 0.000000
0.003000 0.076250 0.000000
0.003500 0.076250 0.000000
0.004000 0.076250 0.000000
0.004500 0.076250 0.000000
0.000500 0.075000 0.000000
0.001000 0.075000 0.000000
0.001500 0.075000 0.000000
0.002000 0.075000 0.000000
0.002500 0.075000 0.000000
0.003000 0.075000 0.000000
0.003500 0.075000 0.000000
0.004000 0.075000 0.000000
0.004500 0.075000 0.000000
0.000500 0.073750 0.000000
0.001000 0.073750 0.000000
0.001500 0.073750 0.000000
0.002000 0.073750 0.000000
0.002500 0.073750 0.000000
0.003000 0.073750 0.000000
0.003500 0.073750 0.000000
0.004000 0.073750 0.000000
0.004500 0.073750 0.000000
0.000500 0.072500 0.000000
0.001000 0.072500 0.000000
0.001500 0.072500 0.000000
0.002000 0.072500 0.000000
0.002500 0.072500 0.000000
0.003000 0.072500 0.000000
0.003500 0.072500 0.000000
0.004000 0.072500 0.000000
0.004500 0.072500 0.000000
0.000500 0.071250 0.000000
0.001000 0.071250 0.000000
0.001500 0.071250 0.000000
0.002000 0.071250 0.000000
0.002500 0.071250 0.000000
0.003000 0.071250 0.000000
0.003500 0.071250 0.000000
0.004000 0.071250 0.000000
0.004500 0.071250 0.000000
0.000500 0.070000 0.000000
0.001000 0.070000 0.000000
0.001500 0.070000 0.000000
0.002000 0.070000 0.000000
0.002500 0.070000 0.000000
0.003000 0.070000 0.000000
0.003500 0.070000 0.000000
0.004000 0.070000 0.000000
0.004500 0.070000 0.000000
0.000500 0.068750 0.000000
0.001000 0.068750 0.000000
0.001500 0.068750 0.000000
0.002000 0.068750 0.000000
0.002500 0.068750 0.000000
0.003000 0.068750 0.000000
0.003500 0.068750 0.000000
0.004000 0.068750 0.000000
0.004500 0.068750 0.000000
0.000500 0.067500 0.000000
0.001000 0.067500 0.000000
0.001500 0.067500 0.000000
0.002000 0.067500 0.000000
0.002500 0.067500 0.000000
0.003000 0.067500 0.000000
0.003500 0.067500 0.000000
0.004000 0.067500 0.000000
0.004500 0.067500 0.000000
0.000500 0.066250 0.000000
0.001000 0.066250 0.000000
0.001500 0.066250 0.000000
0.002000 0.066250 0.000000
0.002500 0.066250 0.000000
0.003000 0.066250 0.000000
0.003500 0.066250 0.000000
0.004000 0.066250 0.000000
0.004500 0.066250 0.000000
0.000500 0.065000 0.000000
0.001000 0.065000 0.000000
0.001500 0.065000 0.000000
0.002000 0.065000 0.000000
0.002500 0.065000 0.000000
0.003000 0.065000 0.000000
0.003500 0.065000 0.000000
0.004000 0.065000 0.000000
0.004500 0.065000 0.000000
0.000500 0.063750 0.000000
0.001000 0.063750 0.000000
0.001500 0.063750 0.000000
0.002000 0.063750 0.000000
0.002500 0.063750 0.000000
0.003000 0.063750 0.000000
0.003500 0.063750 0.000000
0.004000 0.063750 0.000000
0.004500 0.063750 0.000000
0.000500 0.062500 0.000000
0.001000 0.062500 0.000000
0.001500 0.062500 0.000000
0.002000 0.062500 0.000000
0.002500 0.062500 0.000000
0.003000 0.062500 0.000000
0.003500 0.062500 0.000000
0.004000 0.062500 0.000000
0.004500 0.062500 0.000000
0.000500 0.061250 0.000000
0.001000 0.061250 0.000000
0.001500 0.061250 0.000000
0.002000 0.061250 0.000000
0.002500 0.061250 0.000000
0.003000 0.061250 0.000000
0.003500 0.061250 0.000000
0.004000 0.061250 0.000000
0.004500 0.061250 0.000000
0.000500 0.060000 0.000000
0.001000 0.060000 0.000000
0.001500 0.060000 0.000000
0.002000 0.060000 0.000000
0.002500 0.060000 0.000000
0.003000 0.060000 0.000000
0.003500 0.060000 0.000000
0.004000 0.060000 0.000000
0.004500 0.060000 0.000000
0.000500 0.058750 0.000000
0.001000 0.058750 0.000000
0.001500 0.058750 0.000000
0.002000 0.058750 0.000000
0.002500 0.058750 0.000000
0.003000 0.058750 0.000000
0.003500 0.058750 0.000000
0.004000 0.058750 0.000000
0.004500 0.058750 0.000000
0.000500 0.057500 0.000000
0.001000 0.057500 0.000000
0.001500 0.057500 0.000000
0.002000 0.057500 0.000000
0.002500 0.057500 0.000000
0.003000 0.057500 0.000000
0.003500 0.057500 0.000000
0.004000 0.057500 0.000000
0.004500 0.057500 0.000000
0.000500 0.056250 0.000000
0.001000 0.056250 0.000000
0.001500 0.056250 0.000000
0.002000 0.056250 0.000000
0.002500 0.056250 0.000000
0.003000 0.056250 0.000000
0.003500 0.056250 0.000000
0.004000 0.056250 0.000000
0.004500 0.056250 0.000000
0.000500 0.055000 0.000000
0.001000 0.055000 0.000000
0.001500 0.055000 0.000000
0.002000 0.055000 0.000000
0.002500 0.055000 0.000000
0.003000 0.055000 0.000000
0.003500 0.055000 0.000000
0.004000 0.055000 0.000000
0.004500 0.055000 0.000000
0.000500 0.053750 0.000000
0.001000 0.053750 0.000000
0.001500 0.053750 0.000000
0.002000 0.053750 0.000000
0.002500 0.053750 0.000000
0.003000 0.053750 0.000000
0.003500 0.053750 0.000000
0.004000 0.053750 0.000000
0.004500 0.053750 0.000000
0.000500 0.052500 0.000000
0.001000 0.052500 0.000000
0.001500 0.052500 0.000000
0.002000 0.052500 0.000000
0.002500 0.052500 0.000000
0.003000 0.052500 0.000000
0.003500 0.052500 0.000000
0.004000 0.052500 0.000000
0.004500 0.052500 0.000000
0.000500 0.051250 0.000000
0.001000 0.051250 0.000000
0.001500 0.051250 0.000000
0.002000 0.051250 0.000000
0.002500 0.051250 0.000000
0.003000 0.051250 0.000000
0.003500 0.051250 0.000000
0.004000 0.051250 0.000000
0.004500 0.051250 0.000000
0.000500 0.050000 0.000000
0.001000 0.050000 0.000000
0.001500 0.050000 0.000000
0.002000 0.050000 0.000000
0.002500 0.050000 0.000000
0.003000 0.050000 0.000000
0.003500 0.050000 0.000000
0.004000 0.050000 0.000000
0.004500 0.050000 0.000000
0.000500 0.048750 0.000000
0.001000 0.048750 0.000000
0.001500 0.048750 0.000000
0.002000 0.048750 0.000000
0.002500 0.048750 0.000000
0.003000 0.048750 0.000000
0.003500 0.048750 0.000000
0.004000 0.048750 0.000000
0.004500 0.048750 0.000000
0.000500 0.047500 0.000000
0.001000 0.047500 0.000000
0.001500 0.047500 0.000000
0.002000 0.047500 0.000000
0.002500 0.047500 0.000000
0.003000 0.047500 0.000000
0.003500 0.047500 0.000000
0.004000 0.047500 0.000000
0.004500 0.047500 0.000000
0.000500 0.046250 0.000000
0.001000 0.046250 0.000000
0.001500 0.046250 0.000000
0.002000 0.046250 0.000000
0.002500 0.046250 0.000000
0.003000 0.046250 0.000000
0.003500 0.046250 0.000000
0.004000 0.046250 0.000000
0.004500 0.046250 0.000000
0.000500 0.045000 0.000000
0.001000 0.045000 0.000000
0.001500 0.045000 0.000000
0.002000 0.045000 0.000000
0.002500 0.045000 0.000000
0.003000 0.045000 0.000000
0.003500 0.045000 0.000000
0.004000 0.045000 0.000000
0.004500 0.045000 0.000000
0.000500 0.043750 0.000000
0.001000 0.043750 0.000000
0.001500 0.043750 0.000000
0.002000 0.043750 0.000000
0.002500 0.043750 0.000000
0.003000 0.043750 0.000000
0.003500 0.043750 0.000000
0.004000 0.043750 0.000000
0.004500 0.043750 0.000000
0.000500 0.042500 0.000000
0.001000 0.042500 0.000000
0.001500 0.042500 0.000000
0.002000 0.042500 0.000000
0.002500 0.042500 0.000000
0.003000 0.042500 0.000000
0.003500 0.042500 0.000000
0.004000 0.042500 0.000000
0.004500 0.042500 0.000000
0.000500 0.041250 0.000000
0.001000 0.041250 0.000000
0.001500 0.041250 0.000000
0.002000 0.041250 0.000000
0.002500 0.041250 0.000000
0.003000 0.041250 0.000000
0.003500 0.041250 0.000000
0.004000 0.041250 0.000000
0.004500 0.041250 0.000000
0.000500 0.040000 0.000000
0.001000 0.040000 0.000000
0.001500 0.040000 0.000000
0.002000 0.040000 0.000000
0.002500 0.040000 0.000000
0.003000 0.040000 0.000000
0.003500 0.040000 0.000000
0.004000 0.040000 0.000000
0.004500 0.040000 0.000000
0.000500 0.038750 0.000000
0.001000 0.038750 0.000000
0.001500 0.038750 0.000000
0.002000 0.038750 0.000000
0.002500 0.038750 0.000000
0.003000 0.038750 0.000000
0.003500 0.038750 0.000000
0.004000 0.038750 0.000000
0.004500 0.038750 0.000000
0.000500 0.037500 0.000000
0.001000 0.037500 0.000000
0.001500 0.037500 0.000000
0.002000 0.037500 0.000000
0.002500 0.037500 0.000000
0.003000 0.037500 0.000000
0.003500 0.037500 0.000000
0.004000 0.037500 0.000000
0.004500 0.037500 0.000000
0.000500 0.036250 0.000000
0.001000 0.036250 0.000000
0.001500 0.036250 0.000000
0.002000 0.036250 0.000000
0.002500 0.036250 0.000000
0.003000 0.036250 0.000000
0.003500 0.036250 0.000000
0.004000 0.036250 0.000000
0.004500 0.036250 0.000000
0.000500 0.035000 0.000000
0.001000 0.035000 0.000000
0.001500 0.035000 0.000000
0.002000 0.035000 0.000000
0.002500 0.035000 0.000000
0.003000 0.035000 0.000000
0.003500 0.035000 0.000000
0.004000 0.035000 0.000000
0.004500 0.035000 0.000000
0.000500 0.033750 0.000000
0.001000 0.033750 0.000000
0.001500 0.033750 0.000000
0.002000 0.033750 0.000000
0.002500 0.033750 0.000000
0.003000 0.033750 0.000000
0.003500 0.033750 0.000000
0.004000 0.033750 0.000000
0.004500 0.033750 0.000000
0.000500 0.032500 0.000000
0.001000 0.032500 0.000000
0.001500 0.032500 0.000000
0.002000 0.032500 0.000000
0.002500 0.032500 0.000000
0.003000 0.032500 0.000000
0.003500 0.032500 0.000000
0.004000 0.032500 0.000000
0.004500 0.032500 0.000000
0.000500 0.031250 0.000000
0.001000 0.031250 0.000000
0.001500 0.031250 0.000000
0.002000 0.031250 0.000000
0.002500 0.031250 0.000000
0.003000 0.031250 0.000000
0.003500 0.031250 0.000000
0.004000 0.031250 0.000000
0.004500 0.031250 0.000000
0.000500 0.030000 0.000000
0.001000 0.030000 0.000000
0.001500 0.030000 0.000000
0.002000 0.030000 0.000000
0.002500 0.030000 0.000000
0.003000 0.030000 0.000000
0.003500 0.030000 0.000000
0.004000 0.030000 0.000000
0.004500 0.030000 0.000000
0.000500 0.028750 0.000000
0.001000 0.028750 0.000000
0.001500 0.028750 0.000000
0.002000 0.028750 0.000000
0.002500 0.028750 0.000000
0.003000 0.028750 0.000000
0.003500 0.028750 0.000000
0.004000 0.028750 0.000000
0.004500 0.028750 0.000000
0.000500 0.027500 0.000000
0.001000 0.027500 0.000000
0.001500 0.027500 0.000000
0.002000 0.027500 0.000000
0.002500 0.027500 0.000000
0.003000 0.027500 0.000000
0.003500 0.027500 0.000000
0.004000 0.027500 0.000000
0.004500 0.027500 0.000000
0.000500 0.026250 0.000000
0.001000 0.026250 0.000000
0.001500 0.026250 0.000000
0.002000 0.026250 0.000000
0.002500 0.026250 0.000000
0.003000 0.026250 0.000000
0.003500 0.026250 0.000000
0.004000 0.026250 0.000000
0.004500 0.026250 0.000000
0.000500 0.025000 0.000000
0.001000 0.025000 0.000000
0.001500 0.025000 0.000000
0.002000 0.025000 0.000000
0.002500 0.025000 0.000000
0.003000 0.025000 0.000000
0.003500 0.025000 0.000000
0.004000 0.025000 0.000000
0.004500 0.025000 0.000000
0.000500 0.023750 0.000000
0.001000 0.023750 0.000000
0.001500 0.023750 0.000000
0.002000 0.023750 0.000000
0.002500 0.023750 0.000000
0.003000 0.023750 0.000000
0.003500 0.023750 0.000000
0.004000 0.023750 0.000000
0.004500 0.023750 0.000000
0.000500 0.022500 0.000000
0.001000 0.022500 0.000000
0.001500 0.022500 0.000000
0.002000 0.022500 0.000000
0.002500 0.022500 0.000000
0.003000 0.022500 0.000000
0.003500 0.022500 0.000000
0.004000 0.022500 0.000000
0.004500 0.022500 0.000000
0.000500 0.021250 0.000000
0.001000 0.021250 0.000000
0.001500 0.021250 0.000000
0.002000 0.021250 0.000000
0.002500 0.021250 0.000000
0.003000 0.021250 0.000000
0.003500 0.021250 0.000000
0.004000 0.021250 0.000000
0.004500 0.021250 0.000000
0.000500 0.020000 0.000000
0.001000 0.020000 0.000000
0.001500 0.020000 0.000000
0.002000 0.020000 0.000000
0.002500 0.020000 0.000000
0.003000 0.020000 0.000000
0.003500 0.020000 0.000000
0.004000 0.020000 0.000000
0.004500 0.020000 0.000000
0.000500 0.018750 0.000000
0.001000 0.018750 0.000000
0.001500 0.018750 0.000000
0.002000 0.018750 0.000000
0.002500 0.018750 0.000000
0.003000 0.018750 0.000000
0.003500 0.018750 0.000000
0.004000 0.018750 0.000000
0.004500 0.018750 0.000000
0.000500 0.017500 0.000000
0.001000 0.017500 0.000000
0.001500 0.017500 0.000000
0.002000 0.017500 0.000000
0.002500 0.017500 0.000000
0.003000 0.017500 0.000000
0.003500 0.017500 0.000000
0.004000 0.017500 0.000000
0.004500 0.017500 0.000000
0.000500 0.016250 0.000000
0.001000 0.016250 0.000000
0.001500 0.016250 0.000000
0.002000 0.016250 0.000000
0.002500 0.016250 0.000000
0.003000 0.016250 0.000000
0.003500 0.016250 0.000000
0.004000 0.016250 0.000000
0.004500 0.016250 0.000000
0.000500 0.015000 0.000000
0.001000 0.015000 0.000000
0.001500 0.015000 0.000000
0.002000 0.015000 0.000000
0.002500 0.015000 0.000000
0.003000 0.015000 0.000000
0.003500 0.015000 0.000000
0.004000 0.015000 0.000000
0.004500 0.015000 0.000000
0.000500 0.013750 0.000000
0.001000 0.013750 0.000000
0.001500 0.013750 0.000000
0.002000 0.013750 0.000000
0.002500 0.013750 0.000000
0.003000 0.013750 0.000000
0.003500 0.013750 0.000000
0.004000 0.013750 0.000000
0.004500 0.013750 0.000000
0.000500 0.012500 0.000000
0.001000 0.012500 0.000000
0.001500 0.012500 0.000000
0.002000 0.012500 0.000000
0.002500 0.012500 0.000000
0.003000 0.012500 0.000000
0.003500 0.012500 0.000000
0.004000 0.012500 0.000000
0.004500 0.012500 0.000000
0.000500 0.011250 0.000000
0.001000 0.011250 0.000000
0.001500 0.011250 0.000000
0.002000 0.011250 0.000000
0.002500 0.011250 0.000000
0.003000 0.011250 0.000000
0.003500 0.011250 0.000000
0.004000 0.011250 0.000000
0.004500 0.011250 0.000000
0.000500 0.010000 0.000000
0.001000 0.010000 0.000000
0.001500 0.010000 0.000000
0.002000 0.010000 0.000000
0.002500 0.010000 0.000000
0.003000 0.010000 0.000000
0.003500 0.010000 0.000000
0.004000 0.010000 0.000000
0.004500 0.010000 0.000000
0.000500 0.008750 0.000000
0.001000 0.008750 0.000000
0.001500 0.008750 0.000000
0.002000 0.008750 0.000000
0.002500 0.008750 0.000000
0.003000 0.008750 0.000000
0.003500 0.008750 0.000000
0.004000 0.008750 0.000000
0.004500 0.008750 0.000000
0.000500 0.007500 0.000000
0.001000 0.007500 0.000000
0.001500 0.007500 0.000000
0.002000 0.007500 0.000000
0.002500 0.007500 0.000000
0.003000 0.007500 0.000000
0.003500 0.007500 0.000000
0.004000 0.007500 0.000000
0.004500 0.007500 0.000000
0.000500 0.006250 0.000000
0.001000 0.006250 0.000000
0.001500 0.006250 0.000000
0.002000 0.006250 0.000000
0.002500 0.006250 0.000000
0.003000 0.006250 0.000000
0.003500 0.006250 0.000000
0.004000 0.006250 0.000000
0.004500 0.006250 0.000000
0.000500 0.005000 0.000000
0.001000 0.005000 0.000000
0.001500 0.005000 0.000000
0.002000 0.005000 0.000000
0.002500 0.005000 0.000000
0.003000 0.005000 0.000000
0.003500 0.005000 0.000000
0.004000 0.005000 0.000000
0.004500 0.005000 0.000000
0.000500 0.003750 0.000000
0.001000 0.003750 0.000000
0.001500 0.003750 0.000000
0.002000 0.003750 0.000000
0.002500 0.003750 0.000000
0.003000 0.003750 0.000000
0.003500 0.003750 0.000000
0.004000 0.003750 0.000000
0.004500 0.003750 0.000000
0.000500 0.002500 0.000000
0.001000 0.002500 0.000000
0.001500 0.002500 0.000000
0.002000 0.002500 0.000000
0.002500 0.002500 0.000000
0.003000 0.002500 0.000000
0.003500 0.002500 0.000000
0.004000 0.002500 0.000000
0.004500 0.002500 0.000000
0.000500 0.001250 0.000000
0.001000 0.001250 0.000000
0.001500 0.001250 0.000000
0.002000 0.001250 0.000000
0.002500 0.001250 0.000000
0.003000 0.001250 0.000000
0.003500 0.001250 0.000000
0.004000 0.001250 0.000000
0.004500 0.001250 0.000000
CELLS 800 4000
4 82 83 180 179
4 179 180 181 178
4 178 181 182 177
4 177 182 183 176
4 176 183 184 175
4 175 184 185 174
4 174 185 186 173
4 173 186 187 172
4 172 187 188 171
4 171 188 80 0
4 83 84 189 180
4 180 189 190 181
4 181 190 191 182
4 182 191 192 183
4 183 192 193 184
4 184 193 194 185
4 185 194 195 186
4 186 195 196 187
4 187 196 197 188
4 188 197 79 80
4 84 85 198 189
4 189 198 199 190
4 190 199 200 191
4 191 200 201 192
4 192 201 202 193
4 193 202 203 194
4 194 203 204 195
4 195 204 205 196
4 196 205 206 197
4 197 206 78 79
4 85 86 207 198
4 198 207 208 199
4 199 208 209 200
4 200 209 210 201
4 201 210 211 202
4 202 211 212 203
4 203 212 213 204
4 204 213 214 205
4 205 214 215 206
4 206 215 77 78
4 86 87 216 207
4 207 216 217 208
4 208 217 218 209
4 209 218 219 210
4 210 219 220 211
4 211 220 221 212
4 212 221 222 213
4 213 222 223 214
4 214 223 224 215
4 215 224 76 77
4 87 88 225 216
4 216 225 226 217
4 217 226 227 218
4 218 227 228 219
4 219 228 229 220
4 220 229 230 221
4 221 230 231 222
4 222 231 232 223
4 223 232 233 224
4 224 233 75 76
4 88 89 234 225
4 225 234 235 226
4 226 235 236 227
4 227 236 237 228
4 228 237 238 229
4 229 238 239 230
4 230 239 240 231
4 231 240 241 232
4 232 241 242 233
4 233 242 74 75
4 89 90 243 234
4 234 243 244 235
4 235 244 245 236
4 236 245 246 237
4 237 246 247 238
4 238 247 248 239
4 239 248 249 240
4 240 249 250 241
4 241 250 251 242
4 242 251 73 74
4 90 91 252 243
4 243 252 253 244
4 244 253 254 245
4 245 254 255 246
4 246 255 256 247
4 247 256 257 248
4 248 257 258 249
4 249 258 259 250
4 250 259 260 251
4 251 260 72 73
4 91 92 261 252
4 252 261 262 253
4 253 262 263 254
4 254 263 264 255
4 255 264 265 256
4 256 265 266 257
4 257 266 267 258
4 258 267 268 259
4 259 268 269 260
4 260 269 71 72
4 92 93 270 261
4 261 270 271 262
4 262 271 272 263
4 263 272 273 264
4 264 273 274 265
4 265 274 275 266
4 266 275 276 267
4 267 276 277 268
4 268 277 278 269
4 269 278 70 71
4 93 94 279 270
4 270 279 280 271
4 271 280 281 272
4 272 281 282 273
4 273 282 283 274
4 274 283 284 275
4 275 284 285 276
4 276 285 286 277
4 277 286 287 278
4 278 287 69 70
4 94 95 288 279
4 279 288 289 280
4 280 289 290 281
4 281 290 291 282
4 282 291 292 283
4 283 292 293 284
4 284 293 294 285
4 285 294 295 286
4 286 295 296 287
4 287 296 68 69
4 95 96 297 288
4 288 297 298 289
4 289 298 299 290
4 290 299 300 291
4 291 300 301 292
4 292 301 302 293
4 293 302 303 294
4 294 303 304 295
4 295 304 305 296
4 296 305 67 68
4 96 97 306 297
4 297 306 307 298
4 298 307 308 299
4 299 308 309 300
4 300 309 310 301
4 301 310 311 302
4 302 311 312 303
4 303 312 313 304
4 304 313 314 305
4 305 314 66 67
4 97 98 315 306
4 306 315 316 307
4 307 316 317 308
4 308 317 318 309
4 309 318 319 310
4 310 319 320 311
4 311 320 321 312
4 312 321 322 313
4 313 322 323 314
4 314 323 65 66
4 98 99 324 315
4 315 324 325 316
4 316 325 326 317
4 317 326 327 318
4 318 327 328 319
4 319 328 329 320
4 320 329 330 321
4 321 330 331 322
4 322 331 332 323
4 323 332 64 65
4 99 100 333 324
4 324 333 334 325
4 325 334 335 326
4 326 335 336 327
4 327 336 337 328
4 328 337 338 329
4 329 338 339 330
4 330 339 340 331
4 331 340 341 332
4 332 341 63 64
4 100 101 342 333
4 333 342 343 334
4 334 343 344 335
4 335 344 345 336
4 336 345 346 337
4 337 346 347 338
4 338 347 348 339
4 339 348 349 340
4 340 349 350 341
4 341 350 62 63
4 101 102 351 342
4 342 351 352 343
4 343 352 353 344
4 344 353 354 345
4 345 354 355 346
4 346 355 356 347
4 347 356 357 348
4 348 357 358 349
4 349 358 359 350
4 350 359 61 62
4 102 103 360 351
4 351 360 361 352
4 352 361 362 353
4 353 362 363 354
4 354 363 364 355
4 355 364 365 356
4 356 365 366 357
4 357 366 367 358
4 358 367 368 359
4 359 368 60 61
4 103 104 369 360
4 360 369 370 361
4 361 370 371 362
4 362 371 372 363
4 363 372 373 364
4 364 373 374 365
4 365 374 375 366
4 366 375 376 367
4 367 376 377 368
4 368 377 59 60
4 104 105 378 369
4 369 378 379 370
4 370 379 380 371
4 371 380 381 372
4 372 381 382 373
4 373 382 383 374
4 374 383 384 375
4 375 384 385 376
4 376 385 386 377
4 377 386 58 59
4 105 106 387 378
4 378 387 388 379
4 379 388 389 380
4 380 389 390 381
4 381 390 391 382
4 382 391 392 383
4 383 392 393 384
4 384 393 394 385
4 385 394 395 386
4 386 395 57 58
4 106 107 396 387
4 387 396 397 388
4 388 397 398 389
4 389 398 399 390
4 390 399 400 391
4 391 400 401 392
4 392 401 402 393
4 393 402 403 394
4 394 403 404 395
4 395 404 56 57
4 107 108 405 396
4 396 405 406 397
4 397 406 407 398
4 398 407 408 399
4 399 408 409 400
4 400 409 410 401
4 401 410 411 402
4 402 411 412 403
4 403 412 413 404
4 404 413 55 56
4 108 109 414 405
4 405 414 415 406
4 406 415 416 407
4 407 416 417 408
4 408 417 418 409
4 409 418 419 410
4 410 419 420 411
4 411 420 421 412
4 412 421 422 413
4 413 422 54 55
4 109 110 423 414
4 414 423 424 415
4 415 424 425 416
4 416 425 426 417
4 417 426 427 418
4 418 427 428 419
4 419 428 429 420
4 420 429 430 421
4 421 430 431 422
4 422 431 53 54
4 110 111 432 423
4 423 432 433 424
4 424 433 434 425
4 425 434 435 426
4 426 435 436 427
4 427 436 437 428
4 428 437 438 429
4 429 438 439 430
4 430 439 440 431
4 431 440 52 53
4 111 112 441 432
4 432 441 442 433
4 433 442 443 434
4 434 443 444 435
4 435 444 445 436
4 436 445 446 437
4 437 446 447 438
4 438 447 448 439
4 439 448 449 440
4 440 449 51 52
4 112 113 450 441
4 441 450 451 442
4 442 451 452 443
4 443 452 453 444
4 444 453 454 445
4 445 454 455 446
4 446 455 456 447
4 447 456 457 448
4 448 457 458 449
4 449 458 50 51
4 113 114 459 450
4 450 459 460 451
4 451 460 461 452
4 452 461 462 453
4 453 462 463 454
4 454 463 464 455
4 455 464 465 456
4 456 465 466 457
4 457 466 467 458
4 458 467 49 50
4 114 115 468 459
4 459 468 469 460
4 460 469 470 461
4 461 470 471 462
4 462 471 472 463
4 463 472 473 464
4 464 473 474 465
4 465 474 475 466
4 466 475 476 467
4 467 476 48 49
4 115 116 477 468
4 468 477 478 469
4 469 478 479 470
4 470 479 480 471
4 471 480 481 472
4 472 481 482 473
4 473 482 483 474
4 474 483 484 475
4 475 484 485 476
4 476 485 47 48
4 116 117 486 477
4 477 486 487 478
4 478 487 488 479
4 479 488 489 480
4 480 489 490 481
4 481 490 491 482
4 482 491 492 483
4 483 492 493 484
4 484 493 494 485
4 485 494 46 47
4 117 118 495 486
4 486 495 496 487
4 487 496 497 488
4 488 497 498 489
4 489 498 499 490
4 490 499 500 491
4 491 500 501 492
4 492 501 502 493
4 493 502 503 494
4 494 503 45 46
4 118 119 504 495
4 495 504 505 496
4 496 505 506 497
4 497 506 507 498
4 498 507 508 499
4 499 508 509 500
4 500 509 510 501
4 501 510 511 502
4 502 511 512 503
4 503 512 44 45
4 119 120 513 504
4 504 513 514 505
4 505 514 515 506
4 506 515 516 507
4 507 516 517 508
4 508 517 518 509
4 509 518 519 510
4 510 519 520 511
4 511 520 521 512
4 512 521 43 44
4 120 121 522 513
4 513 522 523 514
4 514 523 524 515
4 515 524 525 516
4 516 525 526 517
4 517 526 527 518
4 518 527 528 519
4 519 528 529 520
4 520 529 530 521
4 521 530 42 43
4 121 122 531 522
4 522 531 532 523
4 523 532 533 524
4 524 533 534 525
4 525 534 535 526
4 526 535 536 527
4 527 536 537 528
4 528 537 538 529
4 529 538 539 530
4 530 539 41 42
4 122 123 540 531
4 531 540 541 532
4 532 541 542 533
4 533 542 543 534
4 534 543 544 535
4 535 544 545 536
4 536 545 546 537
4 537 546 547 538
4 538 547 548 539
4 539 548 40 41
4 123 124 549 540
4 540 549 550 541
4 541 550 551 542
4 542 551 552 543
4 543 552 553 544
4 544 553 554 545
4 545 554 555 546
4 546 555 556 547
4 547 556 557 548
4 548 557 39 40
4 124 125 558 549
4 549 558 559 550
4 550 559 560 551
4 551 560 561 552
4 552 561 562 553
4 553 562 563 554
4 554 563 564 555
4 555 564 565 556
4 556 565 566 557
4 557 566 38 39
4 125 126 567 558
4 558 567 568 559
4 559 568 569 560
4 560 569 570 561
4 561 570 571 562
4 562 571 572 563
4 563 572 573 564
4 564 573 574 565
4 565 574 575 566
4 566 575 37 38
4 126 127 576 567
4 567 576 577 568
4 568 577 578 569
4 569 578 579 570
4 570 579 580 571
4 571 580 581 572
4 572 581 582 573
4 573 582 583 574
4 574 583 584 575
4 575 584 36 37
4 127 128 585 576
4 576 585 586 577
4 577 586 587 578
4 578 587 588 579
4 579 588 589 580
4 580 589 590 581
4 581 590 591 582
4 582 591 592 583
4 583 592 593 584
4 584 593 35 36
4 128 129 594 585
4 585 594 595 586
4 586 595 596 587
4 587 596 597 588
4 588 597 598 589
4 589 598 599 590
4 590 599 600 591
4 591 600 601 592
4 592 601 602 593
4 593 602 34 35
4 129 130 603 594
4 594 603 604 595
4 595 604 605 596
4 596 605 606 597
4 597 606 607 598
4 598 607 608 599
4 599 608 609 600
4 600 609 610 601
4 601 610 611 602
4 602 611 33 34
4 130 131 612 603
4 603 612 613 604
4 604 613 614 605
4 605 614 615 606
4 606 615 616 607
4 607 616 617 608
4 608 617 618 609
4 609 618 619 610
4 610 619 620 611
4 611 620 32 33
4 131 132 621 612
4 612 621 622 613
4 613 622 623 614
4 614 623 624 615
4 615 624 625 616
4 616 625 626 617
4 617 626 627 618
4 618 627 628 619
4 619 628 629 620
4 620 629 31 32
4 132 133 630 621
4 621 630 631 622
4 622 631 632 623
4 623 632 633 624
4 624 633 634 625
4 625 634 635 626
4 626 635 636 627
4 627 636 637 628
4 628 637 638 629
4 629 638 30 31
4 133 134 639 630
4 630 639 640 631
4 631 640 641 632
4 632 641 642 633
4 633 642 643 634
4 634 643 644 635
4 635 644 645 636
4 636 645 646 637
4 637 646 647 638
4 638 647 29 30
4 134 135 648 639
4 639 648 649 640
4 640 649 650 641
4 641 650 651 642
4 642 651 652 643
4 643 652 653 644
4 644 653 654 645
4 645 654 655 646
4 646 655 656 647
4 647 656 28 29
4 135 136 657 648
4 648 657 658 649
4 649 658 659 650
4 650 659 660 651
4 651 660 661 652
4 652 661 662 653
4 653 662 663 654
4 654 663 664 655
4 655 664 665 656
4 656 665 27 28
4 136 137 666 657
4 657 666 667 658
4 658 667 668 659
4 659 668 669 660
4 660 669 670 661
4 661 670 671 662
4 662 671 672 663
4 663 672 673 664
4 664 673 674 665
4 665 674 26 27
4 137 138 675 666
4 666 675 676 667
4 667 676 677 668
4 668 677 678 669
4 669 678 679 670
4 670 679 680 671
4 671 680 681 672
4 672 681 682 673
4 673 682 683 674
4 674 683 25 26
4 138 139 684 675
4 675 684 685 676
4 676 685 686 677
4 677 686 687 678
4 678 687 688 679
4 679 688 689 680
4 680 689 690 681
4 681 690 691 682
4 682 691 692 683
4 683 692 24 25
4 139 140 693 684
4 684 693 694 685
4 685 694 695 686
4 686 695 696 687
4 687 696 697 688
4 688 697 698 689
4 689 698 699 690
4 690 699 700 691
4 691 700 701 692
4 692 701 23 24
4 140 141 702 693
4 693 702 703 694
4 694 703 704 695
4 695 704 705 696
4 696 705 706 697
4 697 706 707 698
4 698 707 708 699
4 699 708 709 700
4 700 709 710 701
4 701 710 22 23
4 141 142 711 702
4 702 711 712 703
4 703 712 713 704
4 704 713 714 705
4 705 714 715 706
4 706 715 716 707
4 707 716 717 708
4 708 717 718 709
4 709 718 719 710
4 710 719 21 22
4 142 143 720 711
4 711 720 721 712
4 712 721 722 713
4 713 722 723 714
4 714 723 724 715
4 715 724 725 716
4 716 725 726 717
4 717 726 727 718
4 718 727 728 719
4 719 728 20 21
4 143 144 729 720
4 720 729 730 721
4 721 730 731 722
4 722 731 732 723
4 723 732 733 724
4 724 733 734 725
4 725 734 735 726
4 726 735 736 727
4 727 736 737 728
4 728 737 19 20
4 144 145 738 729
4 729 738 739 730
4 730 739 740 731
4 731 740 741 732
4 732 741 742 733
4 733 742 743 734
4 734 743 744 735
4 735 744 745 736
4 736 745 746 737
4 737 746 18 19
4 145 146 747 738
4 738 747 748 739
4 739 748 749 740
4 740 749 750 741
4 741 750 751 742
4 742 751 752 743
4 743 752 753 744
4 744 753 754 745
4 745 754 755 746
4 746 755 17 18
4 146 147 756 747
4 747 756 757 748
4 748 757 758 749
4 749 758 759 750
4 750 759 760 751
4 751 760 761 752
4 752 761 762 753
4 753 762 763 754
4 754 763 764 755
4 755 764 16 17
4 147 148 765 756
4 756 765 766 757
4 757 766 767 758
4 758 767 768 759
4 759 768 769 760
4 760 769 770 761
4 761 770 771 762
4 762 771 772 763
4 763 772 773 764
4 764 773 15 16
4 148 149 774 765
4 765 774 775 766
4 766 775 776 767
4 767 776 777 768
4 768 777 778 769
4 769 778 779 770
4 770 779 780 771
4 771 780 781 772
4 772 781 782 773
4 773 782 14 15
4 149 150 783 774
4 774 783 784 775
4 775 784 785 776
4 776 785 786 777
4 777 786 787 778
4 778 787 788 779
4 779 788 789 780
4 780 789 790 781
4 781 790 791 782
4 782 791 13 14
4 150 151 792 783
4 783 792 793 784
4 784 793 794 785
4 785 794 795 786
4 786 795 796 787
4 787 796 797 788
4 788 797 798 789
4 789 798 799 790
4 790 799 800 791
4 791 800 12 13
4 151 152 801 792
4 792 801 802 793
4 793 802 803 794
4 794 803 804 795
4 795 804 805 796
4 796 805 806 797
4 797 806 807 798
4 798 807 808 799
4 799 808 809 800
4 800 809 11 12
4 152 153 810 801
4 801 810 811 802
4 802 811 812 803
4 803 812 813 804
4 804 813 814 805
4 805 814 815 806
4 806 815 816 807
4 807 816 817 808
4 808 817 818 809
4 809 818 10 11
4 153 154 819 810
4 810 819 820 811
4 811 820 821 812
4 812 821 822 813
4 813 822 823 814
4 814 823 824 815
4 815 824 825 816
4 816 825 826 817
4 817 826 827 818
4 818 827 9 10
4 154 155 828 819
4 819 828 829 820
4 820 829 830 821
4 821 830 831 822
4 822 831 832 823
4 823 832 833 824
4 824 833 834 825
4 825 834 835 826
4 826 835 836 827
4 827 836 8 9
4 155 156 837 828
4 828 837 838 829
4 829 838 839 830
4 830 839 840 831
4 831 840 841 832
4 832 841 842 833
4 833 842 843 834
4 834 843 844 835
4 835 844 845 836
4 836 845 7 8
4 156 157 846 837
4 837 846 847 838
4 838 847 848 839
4 839 848 849 840
4 840 849 850 841
4 841 850 851 842
4 842 851 852 843
4 843 852 853 844
4 844 853 854 845
4 845 854 6 7
4 157 158 855 846
4 846 855 856 847
4 847 856 857 848
4 848 857 858 849
4 849 858 859 850
4 850 859 860 851
4 851 860 861 852
4 852 861 862 853
4 853 862 863 854
4 854 863 5 6
4 158 159 864 855
4 855 864 865 856
4 856 865 866 857
4 857 866 867 858
4 858 867 868 859
4 859 868 869 860
4 860 869 870 861
4 861 870 871 862
4 862 871 872 863
4 863 872 4 5
4 159 160 873 864
4 864 873 874 865
4 865 874 875 866
4 866 875 876 867
4 867 876 877 868
4 868 877 878 869
4 869 878 879 870
4 870 879 880 871
4 871 880 881 872
4 872 881 3 4
4 160 161 882 873
4 873 882 883 874
4 874 883 884 875
4 875 884 885 876
4 876 885 886 877
4 877 886 887 878
4 878 887 888 879
4 879 888 889 880
4 880 889 890 881
4 881 890 2 3
4 161 81 162 882
4 882 162 163 883
4 883 163 164 884
4 884 164 165 885
4 885 165 166 886
4 886 166 167 887
4 887 167 168 888
4 888 168 169 889
4 889 169 170 890
4 890 170 1 2
CELL_TYPES 800
9
9
9
9
9
9
9
9
9
9
9
9
9
9
9
9
9
9
9
9
9
9
9
9
9
9
9
9
9
9
9
9
9
9
9
9
9
9
9
9
9
9
9
9
9
9
9
9
9
9
9
9
9
9
9
9
9
9
9
9
9
9
9
9
9
9
9
9
9
9
9
9
9
9
9
9
9
9
9
9
9
9
9
9
9
9
9
9
9
9
9
9
9
9
9
9
9
9
9
9
9
9
9
9
9
9
9
9
9
9
9
9
9
9
9
9
9
9
9
9
9
9
9
9
9
9
9
9
9
9
9
9
9
9
9
9
9
9
9
9
9
9
9
9
9
9
9
9
9
9
9
9
9
9
9
9
9
9
9
9
9
9
9
9
9
9
9
9
9
9
9
9
9
9
9
9
9
9
9
9
9
9
9
9
9
9
9
9
9
9
9
9
9
9
9
9
9
9
9
9
9
9
9
9
9
9
9
9
9
9
9
9
9
9
9
9
9
9
9
9
9
9
9
9
9
9
9
9
9
9
9
9
9
9
9
9
9
9
9
9
9
9
9
9
9
9
9
9
9
9
9
9
9
9
9
9
9
9
9
9
9
9
9
9
9
9
9
9
9
9
9
9
9
9
9
9
9
9
9
9
9
9
9
9
9
9
9
9
9
9
9
9
9
9
9
9
9
9
9
9
9
9
9
9
9
9
9
9
9
9
9
9
9
9
9
9
9
9
9
9
9
9
9
9
9
9
9
9
9
9
9
9
9
9
9
9
9
9
9
9
9
9
9
9
9
9
9
9
9
9
9
9
9
9
9
9
9
9
9
9
9
9
9
9
9
9
9
9
9
9
9
9
9
9
9
9
9
9
9
9
9
9
9
9
9
9
9
9
9
9
9
9
9
9
9
9
9
9
9
9
9
9
9
9
9
9
9
9
9
9
9
9
9
9
9
9
9
9
9
9
9
9
9
9
9
9
9
9
9
9
9
9
9
9
9
9
9
9
9
9
9
9
9
9
9
9
9
9
9
9
9
9
9
9
9
9
9
9
9
9
9
9
9
9
9
9
9
9
9
9
9
9
9
9
9
9
9
9
9
9
9
9
9
9
9
9
9
9
9
9
9
9
9
9
9
9
9
9
9
9
9
9
9
9
9
9
9
9
9
9
9
9
9
9
9
9
9
9
9
9
9
9
9
9
9
9
9
9
9
9
9
9
9
9
9
9
9
9
9
9
9
9
9
9
9
9
9
9
9
9
9
9
9
9
9
9
9
9
9
9
9
9
9
9
9
9
9
9
9
9
9
9
9
9
9
9
9
9
9
9
9
9
9
9
9
9
9
9
9
9
9
9
9
9
9
9
9
9
9
9
9
9
9
9
9
9
9
9
9
9
9
9
9
9
9
9
9
9
9
9
9
9
9
9
9
9
9
9
9
9
9
9
9
9
9
9
9
9
9
9
9
9
9
9
9
9
9
9
9
9
9
9
9
9
9
9
9
9
9
9
9
9
9
9
9
9
9
9
9
9
9
9
9
9
9
9
9
9
9
9
9
9
9
9
9
9
9
9
9
9
9
9
9
9
9
9
9
9
9
9
9
9
9
9
9
9
9
9
9
9
9
9
9
9
9
9
9
9
9
9
9
9
9
9
9
9
9
9
9
9
9
9
9
9
9
9
9
9
9
9
9
9
9
9
9
9
9
9
9
9
9
9
9
9
9
9
9
9
9
9
9
9
9
9
9
9
9
9
9
9
9
9
9
9
9
9
9
9
9
9
9
9
9
9
9
9
9
9
9
9
9
9
9
9
9
9
9
9
9
9
POINT_DATA 891
SCALARS u1 float
LOOKUP_TABLE default
-4e-16
-1e-06
-1e-06
-1e-06
-1e-06
-1e-06
-1e-06
-1e-06
-1e-06
-1e-06
-1e-06
-1e-06
-1e-06
-1e-06
-1e-06
-1e-06
-1e-06
-1e-06
-1e-06
-1e-06
-1e-06
-1e-06
-1e-06
-1e-06
-1e-06
-1e-06
-1e-06
-1e-06
-1e-06
-1e-06
-1e-06
-1e-06
-1e-06
-1e-06
-1e-06
-1e-06
-1e-06
-1e-06
-1e-06
-1e-06
-1e-06
-1e-06
-1e-06
-1e-06
-1e-06
-1e-06
-1e-06
-1e-06
-1e-06
-1e-06
-1e-06
-1e-06
-1e-06
-1e-06
-1e-06
-1e-06
-1e-06
-1e-06
-1e-06
-1e-06
-1e-06
-1e-06
-1e-06
-1e-06
-1e-06
-1e-06
-1e-06
-1e-06
-1e-06
-1e-06
-1e-06
-1e-06
-1e-06
-1e-06
-1e-06
-1e-06
-1e-06
-1e-06
-1e-06
-1e-06
-1e-06
1e-06
4e-16
1e-06
1e-06
1e-06
1e-06
1e-06
1e-06
1e-06
1e-06
1e-06
1e-06
1e-06
1e-06
1e-06
1e-06
1e-06
1e-06
1e-06
1e-06
1e-06
1e-06
1e-06
1e-06
1e-06
1e-06
1e-06
1e-06
1e-06
1e-06
1e-06
1e-06
1e-06
1e-06
1e-06
1e-06
1e-06
1e-06
1e-06
1e-06
1e-06
1e-06
1e-06
1e-06
1e-06
1e-06
1e-06
1e-06
1e-06
1e-06
1e-06
1e-06
1e-06
1e-06
1e-06
1e-06
1e-06
1e-06
1e-06
1e-06
1e-06
1e-06
1e-06
1e-06
1e-06
1e-06
1e-06
1e-06
1e-06
1e-06
1e-06
1e-06
1e-06
1e-06
1e-06
1e-06
1e-06
1e-06
1e-06
1e-06
1e-06
1e-06
9e-07
6e-07
3e-07
-7e-14
-3e-07
-6e-07
-9e-07
-1e-06
-9e-16
-9e-17
7e-16
1e-16
1e-15
3e-17
-4e-16
3e-16
-2e-16
8e-07
6e-07
3e-07
2e-07
-1e-14
-2e-07
-3e-07
-6e-07
-8e-07
1e-06
8e-07
6e-07
3e-07
-6e-15
-3e-07
-6e-07
-8e-07
-1e-06
1e-06
9e-07
6e-07
3e-07
-2e-14
-3e-07
-6e-07
-9e-07
-1e-06
1e-06
9e-07
6e-07
3e-07
-2e-14
-3e-07
-6e-07
-9e-07
-1e-06
1e-06
9e-07
6e-07
3e-07
-3e-14
-3e-07
-6e-07
-9e-07
-1e-06
1e-06
9e-07
6e-07
3e-07
-4e-14
-3e-07
-6e-07
-9e-07
-1e-06
1e-06
9e-07
6e-07
3e-07
-4e-14
-3e-07
-6e-07
-9e-07
-1e-06
1e-06
9e-07
6e-07
3e-07
-5e-14
-3e-07
-6e-07
-9e-07
-1e-06
1e-06
9e-07
6e-07
3e-07
-6e-14
-3e-07
-6e-07
-9e-07
-1e-06
1e-06
9e-07
6e-07
3e-07
-6e-14
-3e-07
-6e-07
-9e-07
-1e-06
1e-06
9e-07
6e-07
3e-07
-6e-14
-3e-07
-6e-07
-9e-07
-1e-06
1e-06
9e-07
6e-07
3e-07
-7e-14
-3e-07
-6e-07
-9e-07
-1e-06
1e-06
9e-07
6e-07
3e-07
-7e-14
-3e-07
-6e-07
-9e-07
-1e-06
1e-06
9e-07
6e-07
3e-07
-7e-14
-3e-07
-6e-07
-9e-07
-1e-06
1e-06
9e-07
6e-07
3e-07
-7e-14
-3e-07
-6e-07
-9e-07
-1e-06
1e-06
9e-07
6e-07
3e-07
-7e-14
-3e-07
-6e-07
-9e-07
-1e-06
1e-06
9e-07
6e-07
3e-07
-7e-14
-3e-07
-6e-07
-9e-07
-1e-06
1e-06
9e-07
6e-07
3e-07
-7e-14
-3e-07
-6e-07
-9e-07
-1e-06
1e-06
9e-07
6e-07
3e-07
-7e-14
-3e-07
-6e-07
-9e-07
-1e-06
1e-06
9e-07
6e-07
3e-07
-8e-14
-3e-07
-6e-07
-9e-07
-1e-06
1e-06
9e-07
6e-07
3e-07
-8e-14
-3e-07
-6e-07
-9e-07
-1e-06
1e-06
9e-07
6e-07
3e-07
-8e-14
-3e-07
-6e-07
-9e-07
-1e-06
1e-06
9e-07
6e-07
3e-07
-8e-14
-3e-07
-6e-07
-9e-07
-1e-06
1e-06
9e-07
6e-07
3e-07
-8e-14
-3e-07
-6e-07
-9e-07
-1e-06
1e-06
9e-07
6e-07
3e-07
-8e-14
-3e-07
-6e-07
-9e-07
-1e-06
1e-06
9e-07
6e-07
3e-07
-8e-14
-3e-07
-6e-07
-9e-07
-1e-06
1e-06
9e-07
6e-07
3e-07
-7e-14
-3e-07
-6e-07
-9e-07
-1e-06
1e-06
9e-07
6e-07
3e-07
-7e-14
-3e-07
-6e-07
-9e-07
-1e-06
1e-06
9e-07
6e-07
3e-07
-7e-14
-3e-07
-6e-07
-9e-07
-1e-06
1e-06
9e-07
6e-07
3e-07
-7e-14
-3e-07
-6e-07
-9e-07
-1e-06
1e-06
9e-07
6e-07
3e-07
-7e-14
-3e-07
-6e-07
-9e-07
-1e-06
1e-06
9e-07
6e-07
3e-07
-7e-14
-3e-07
-6e-07
-9e-07
-1e-06
1e-06
9e-07
6e-07
3e-07
-7e-14
-3e-07
-6e-07
-9e-07
-1e-06
1e-06
9e-07
6e-07
3e-07
-7e-14
-3e-07
-6e-07
-9e-07
-1e-06
1e-06
9e-07
6e-07
3e-07
-7e-14
-3e-07
-6e-07
-9e-07
-1e-06
1e-06
9e-07
6e-07
3e-07
-7e-14
-3e-07
-6e-07
-9e-07
-1e-06
1e-06
9e-07
6e-07
3e-07
-7e-14
-3e-07
-6e-07
-9e-07
-1e-06
1e-06
9e-07
6e-07
3e-07
-7e-14
-3e-07
-6e-07
-9e-07
-1e-06
1e-06
9e-07
6e-07
3e-07
-7e-14
-3e-07
-6e-07
-9e-07
-1e-06
1e-06
9e-07
6e-07
3e-07
-7e-14
-3e-07
-6e-07
-9e-07
-1e-06
1e-06
9e-07
6e-07
3e-07
-7e-14
-3e-07
-6e-07
-9e-07
-1e-06
1e-06
9e-07
6e-07
3e-07
-7e-14
-3e-07
-6e-07
-9e-07
-1e-06
1e-06
9e-07
6e-07
3e-07
-7e-14
-3e-07
-6e-07
-9e-07
-1e-06
1e-06
9e-07
6e-07
3e-07
-7e-14
-3e-07
-6e-07
-9e-07
-1e-06
1e-06
9e-07
6e-07
3e-07
-7e-14
-3e-07
-6e-07
-9e-07
-1e-06
1e-06
9e-07
6e-07
3e-07
-7e-14
-3e-07
-6e-07
-9e-07
-1e-06
1e-06
9e-07
6e-07
3e-07
-7e-14
-3e-07
-6e-07
-9e-07
-1e-06
1e-06
9e-07
6e-07
3e-07
-7e-14
-3e-07
-6e-07
-9e-07
-1e-06
1e-06
9e-07
6e-07
3e-07
-7e-14
-3e-07
-6e-07
-9e-07
-1e-06
1e-06
9e-07
6e-07
3e-07
-7e-14
-3e-07
-6e-07
-9e-07
-1e-06
1e-06
9e-07
6e-07
3e-07
-7e-14
-3e-07
-6e-07
-9e-07
-1e-06
1e-06
9e-07
6e-07
3e-07
-7e-14
-3e-07
-6e-07
-9e-07
-1e-06
1e-06
9e-07
6e-07
3e-07
-7e-14
-3e-07
-6e-07
-9e-07
-1e-06
1e-06
9e-07
6e-07
3e-07
-7e-14
-3e-07
-6e-07
-9e-07
-1e-06
1e-06
9e-07
6e-07
3e-07
-7e-14
-3e-07
-6e-07
-9e-07
-1e-06
1e-06
9e-07
6e-07
3e-07
-7e-14
-3e-07
-6e-07
-9e-07
-1e-06
1e-06
9e-07
6e-07
3e-07
-7e-14
-3e-07
-6e-07
-9e-07
-1e-06
1e-06
9e-07
6e-07
3e-07
-7e-14
-3e-07
-6e-07
-9e-07
-1e-06
1e-06
9e-07
6e-07
3e-07
-7e-14
-3e-07
-6e-07
-9e-07
-1e-06
1e-06
9e-07
6e-07
3e-07
-7e-14
-3e-07
-6e-07
-9e-07
-1e-06
1e-06
9e-07
6e-07
3e-07
-7e-14
-3e-07
-6e-07
-9e-07
-1e-06
1e-06
9e-07
6e-07
3e-07
-7e-14
-3e-07
-6e-07
-9e-07
-1e-06
1e-06
9e-07
6e-07
3e-07
-7e-14
-3e-07
-6e-07
-9e-07
-1e-06
1e-06
9e-07
6e-07
3e-07
-7e-14
-3e-07
-6e-07
-9e-07
-1e-06
1e-06
9e-07
6e-07
3e-07
-7e-14
-3e-07
-6e-07
-9e-07
-1e-06
1e-06
9e-07
6e-07
3e-07
-7e-14
-3e-07
-6e-07
-9e-07
-1e-06
1e-06
9e-07
6e-07
3e-07
-7e-14
-3e-07
-6e-07
-9e-07
-1e-06
1e-06
9e-07
6e-07
3e-07
-7e-14
-3e-07
-6e-07
-9e-07
-1e-06
1e-06
9e-07
6e-07
3e-07
-7e-14
-3e-07
-6e-07
-9e-07
-1e-06
1e-06
9e-07
6e-07
3e-07
-7e-14
-3e-07
-6e-07
-9e-07
-1e-06
1e-06
9e-07
6e-07
3e-07
-7e-14
-3e-07
-6e-07
-9e-07
-1e-06
1e-06
9e-07
6e-07
3e-07
-7e-14
-3e-07
-6e-07
-9e-07
-1e-06
1e-06
9e-07
6e-07
3e-07
-7e-14
-3e-07
-6e-07
-9e-07
-1e-06
1e-06
9e-07
6e-07
3e-07
-7e-14
-3e-07
-6e-07
-9e-07
-1e-06
1e-06
9e-07
6e-07
3e-07
-7e-14
-3e-07
-6e-07
-9e-07
-1e-06
1e-06
9e-07
6e-07
3e-07
-7e-14
-3e-07
-6e-07
-9e-07
-1e-06
1e-06
9e-07
6e-07
3e-07
-7e-14
-3e-07
-6e-07
-9e-07
-1e-06
1e-06
9e-07
6e-07
3e-07
-7e-14
-3e-07
-6e-07
-9e-07
-1e-06
1e-06
9e-07
6e-07
3e-07
-7e-14
-3e-07
-6e-07
-9e-07
-1e-06
SCALARS u2 float
LOOKUP_TABLE default
6e-17
-0.0002
-0.0002
-0.0002
-0.0002
-0.0002
-0.0002
-0.0002
-0.0002
-0.0002
-0.0002
-0.0002
-0.0002
-0.0002
-0.0002
-0.0002
-0.0002
-0.0002
-0.0002
-0.0002
-0.0002
-0.0002
-0.0001
-0.0001
-0.0001
-0.0001
-0.0001
-0.0001
-0.0001
-0.0001
-0.0001
-0.0001
-0.0001
-0.0001
-0.0001
-0.0001
-0.0001
-0.0001
-0.0001
-0.0001
-0.0001
-0.0001
-0.0001
-0.0001
-9e-05
-9e-05
-9e-05
-9e-05
-8e-05
-8e-05
-8e-05
-8e-05
-7e-05
-7e-05
-7e-05
-7e-05
-6e-05
-6e-05
-6e-05
-6e-05
-5e-05
-5e-05
-5e-05
-5e-05
-4e-05
-4e-05
-4e-05
-4e-05
-3e-05
-3e-05
-3e-05
-3e-05
-2e-05
-2e-05
-2e-05
-2e-05
-1e-05
-1e-05
-7e-06
-5e-06
-3e-06
-0.0002
7e-16
-3e-06
-5e-06
-7e-06
-1e-05
-1e-05
-2e-05
-2e-05
-2e-05
-2e-05
-3e-05
-3e-05
-3e-05
-3e-05
-4e-05
-4e-05
-4e-05
-4e-05
-5e-05
-5e-05
-5e-05
-5e-05
-6e-05
-6e-05
-6e-05
-6e-05
-7e-05
-7e-05
-7e-05
-7e-05
-8e-05
-8e-05
-8e-05
-8e-05
-9e-05
-9e-05
-9e-05
-9e-05
-0.0001
-0.0001
-0.0001
-0.0001
-0.0001
-0.0001
-0.0001
-0.0001
-0.0001
-0.0001
-0.0001
-0.0001
-0.0001
-0.0001
-0.0001
-0.0001
-0.0001
-0.0001
-0.0001
-0.0001
-0.0001
-0.0001
-0.0002
-0.0002
-0.0002
-0.0002
-0.0002
-0.0002
-0.0002
-0.0002
-0.0002
-0.0002
-0.0002
-0.0002
-0.0002
-0.0002
-0.0002
-0.0002
-0.0002
-0.0002
-0.0002
-0.0002
-0.0002
-0.0002
-0.0002
-0.0002
-0.0002
-0.0002
-0.0002
-0.0002
-0.0002
6e-16
-7e-16
2e-16
2e-16
7e-16
-2e-15
-1e-15
8e-16
4e-16
-2e-06
-2e-06
-2e-06
-2e-06
-2e-06
-2e-06
-2e-06
-2e-06
-2e-06
-5e-06
-5e-06
-5e-06
-5e-06
-5e-06
-5e-06
-5e-06
-5e-06
-5e-06
-7e-06
-7e-06
-7e-06
-7e-06
-7e-06
-7e-06
-7e-06
-7e-06
-7e-06
-1e-05
-1e-05
-1e-05
-1e-05
-1e-05
-1e-05
-1e-05
-1e-05
-1e-05
-1e-05
-1e-05
-1e-05
-1e-05
-1e-05
-1e-05
-1e-05
-1e-05
-1e-05
-2e-05
-2e-05
-2e-05
-2e-05
-2e-05
-2e-05
-2e-05
-2e-05
-2e-05
-2e-05
-2e-05
-2e-05
-2e-05
-2e-05
-2e-05
-2e-05
-2e-05
-2e-05
-2e-05
-2e-05
-2e-05
-2e-05
-2e-05
-2e-05
-2e-05
-2e-05
-2e-05
-2e-05
-2e-05
-2e-05
-2e-05
-2e-05
-2e-05
-2e-05
-2e-05
-2e-05
-3e-05
-3e-05
-3e-05
-3e-05
-3e-05
-3e-05
-3e-05
-3e-05
-3e-05
-3e-05
-3e-05
-3e-05
-3e-05
-3e-05
-3e-05
-3e-05
-3e-05
-3e-05
-3e-05
-3e-05
-3e-05
-3e-05
-3e-05
-3e-05
-3e-05
-3e-05
-3e-05
-3e-05
-3e-05
-3e-05
-3e-05
-3e-05
-3e-05
-3e-05
-3e-05
-3e-05
-4e-05
-4e-05
-4e-05
-4e-05
-4e-05
-4e-05
-4e-05
-4e-05
-4e-05
-4e-05
-4e-05
-4e-05
-4e-05
-4e-05
-4e-05
-4e-05
-4e-05
-4e-05
-4e-05
-4e-05
-4e-05
-4e-05
-4e-05
-4e-05
-4e-05
-4e-05
-4e-05
-4e-05
-4e-05
-4e-05
-4e-05
-4e-05
-4e-05
-4e-05
-4e-05
-4e-05
-5e-05
-5e-05
-5e-05
-5e-05
-5e-05
-5e-05
-5e-05
-5e-05
-5e-05
-5e-05
-5e-05
-5e-05
-5e-05
-5e-05
-5e-05
-5e-05
-5e-05
-5e-05
-5e-05
-5e-05
-5e-05
-5e-05
-5e-05
-5e-05
-5e-05
-5e-05
-5e-05
-5e-05
-5e-05
-5e-05
-5e-05
-5e-05
-5e-05
-5e-05
-5e-05
-5e-05
-6e-05
-6e-05
-6e-05
-6e-05
-6e-05
-6e-05
-6e-05
-6e-05
-6e-05
-6e-05
-6e-05
-6e-05
-6e-05
-6e-05
-6e-05
-6e-05
-6e-05
-6e-05
-6e-05
-6e-05
-6e-05
-6e-05
-6e-05
-6e-05
-6e-05
-6e-05
-6e-05
-6e-05
-6e-05
-6e-05
-6e-05
-6e-05
-6e-05
-6e-05
-6e-05
-6e-05
-7e-05
-7e-05
-7e-05
-7e-05
-7e-05
-7e-05
-7e-05
-7e-05
-7e-05
-7e-05
-7e-05
-7e-05
-7e-05
-7e-05
-7e-05
-7e-05
-7e-05
-7e-05
-7e-05
-7e-05
-7e-05
-7e-05
-7e-05
-7e-05
-7e-05
-7e-05
-7e-05
-7e-05
-7e-05
-7e-05
-7e-05
-7e-05
-7e-05
-7e-05
-7e-05
-7e-05
-8e-05
-8e-05
-8e-05
-8e-05
-8e-05
-8e-05
-8e-05
-8e-05
-8e-05
-8e-05
-8e-05
-8e-05
-8e-05
-8e-05
-8e-05
-8e-05
-8e-05
-8e-05
-8e-05
-8e-05
-8e-05
-8e-05
-8e-05
-8e-05
-8e-05
-8e-05
-8e-05
-8e-05
-8e-05
-8e-05
-8e-05
-8e-05
-8e-05
-8e-05
-8e-05
-8e-05
-9e-05
-9e-05
-9e-05
-9e-05
-9e-05
-9e-05
-9e-05
-9e-05
-9e-05
-9e-05
-9e-05
-9e-05
-9e-05
-9e-05
-9e-05
-9e-05
-9e-05
-9e-05
-9e-05
-9e-05
-9e-05
-9e-05
-9e-05
-9e-05
-9e-05
-9e-05
-9e-05
-9e-05
-9e-05
-9e-05
-9e-05
-9e-05
-9e-05
-9e-05
-9e-05
-9e-05
-0.0001
-0.0001
-0.0001
-0.0001
-0.0001
-0.0001
-0.0001
-0.0001
-0.0001
-0.0001
-0.0001
-0.0001
-0.0001
-0.0001
-0.0001
-0.0001
-0.0001
-0.0001
-0.0001
-0.0001
-0.0001
-0.0001
-0.0001
-0.0001
-0.0001
-0.0001
-0.0001
-0.0001
-0.0001
-0.0001
-0.0001
-0.0001
-0.0001
-0.0001
-0.0001
-0.0001
-0.0001
-0.0001
-0.0001
-0.0001
-0.0001
-0.0001
-0.0001
-0.0001
-0.0001
-0.0001
-0.0001
-0.0001
-0.0001
-0.0001
-0.0001
-0.0001
-0.0001
-0.0001
-0.0001
-0.0001
-0.0001
-0.0001
-0.0001
-0.0001
-0.0001
-0.0001
-0.0001
-0.0001
-0.0001
-0.0001
-0.0001
-0.0001
-0.0001
-0.0001
-0.0001
-0.0001
-0.0001
-0.0001
-0.0001
-0.0001
-0.0001
-0.0001
-0.0001
-0.0001
-0.0001
-0.0001
-0.0001
-0.0001
-0.0001
-0.0001
-0.0001
-0.0001
-0.0001
-0.0001
-0.0001
-0.0001
-0.0001
-0.0001
-0.0001
-0.0001
-0.0001
-0.0001
-0.0001
-0.0001
-0.0001
-0.0001
-0.0001
-0.0001
-0.0001
-0.0001
-0.0001
-0.0001
-0.0001
-0.0001
-0.0001
-0.0001
-0.0001
-0.0001
-0.0001
-0.0001
-0.0001
-0.0001
-0.0001
-0.0001
-0.0001
-0.0001
-0.0001
-0.0001
-0.0001
-0.0001
-0.0001
-0.0001
-0.0001
-0.0001
-0.0001
-0.0001
-0.0001
-0.0001
-0.0001
-0.0001
-0.0001
-0.0001
-0.0001
-0.0001
-0.0001
-0.0001
-0.0001
-0.0001
-0.0001
-0.0001
-0.0001
-0.0001
-0.0001
-0.0001
-0.0001
-0.0001
-0.0001
-0.0001
-0.0001
-0.0001
-0.0001
-0.0001
-0.0001
-0.0001
-0.0001
-0.0001
-0.0001
-0.0001
-0.0001
-0.0001
-0.0001
-0.0001
-0.0001
-0.0001
-0.0001
-0.0001
-0.0001
-0.0001
-0.0001
-0.0001
-0.0001
-0.0001
-0.0001
-0.0001
-0.0001
-0.0001
-0.0001
-0.0001
-0.0001
-0.0001
-0.0001
-0.0001
-0.0001
-0.0001
-0.0001
-0.0001
-0.0001
-0.0001
-0.0001
-0.0001
-0.0001
-0.0001
-0.0002
-0.0002
-0.0002
-0.0002
-0.0002
-0.0002
-0.0002
-0.0002
-0.0002
-0.0002
-0.0002
-0.0002
-0.0002
-0.0002
-0.0002
-0.0002
-0.0002
-0.0002
-0.0002
-0.0002
-0.0002
-0.0002
-0.0002
-0.0002
-0.0002
-0.0002
-0.0002
-0.0002
-0.0002
-0.0002
-0.0002
-0.0002
-0.0002
-0.0002
-0.0002
-0.0002
-0.0002
-0.0002
-0.0002
-0.0002
-0.0002
-0.0002
-0.0002
-0.0002
-0.0002
-0.0002
-0.0002
-0.0002
-0.0002
-0.0002
-0.0002
-0.0002
-0.0002
-0.0002
-0.0002
-0.0002
-0.0002
-0.0002
-0.0002
-0.0002
-0.0002
-0.0002
-0.0002
-0.0002
-0.0002
-0.0002
-0.0002
-0.0002
-0.0002
-0.0002
-0.0002
-0.0002
-0.0002
-0.0002
-0.0002
-0.0002
-0.0002
-0.0002
-0.0002
-0.0002
-0.0002
-0.0002
-0.0002
-0.0002
-0.0002
-0.0002
-0.0002
-0.0002
-0.0002
-0.0002
-0.0002
-0.0002
-0.0002
-0.0002
-0.0002
-0.0002
-0.0002
-0.0002
-0.0002
-0.0002
-0.0002
-0.0002
-0.0002
-0.0002
-0.0002
-0.0002
-0.0002
-0.0002
-0.0002
-0.0002
-0.0002
-0.0002
-0.0002
-0.0002
-0.0002
-0.0002
-0.0002
-0.0002
-0.0002
-0.0002
-0.0002
-0.0002
-0.0002
-0.0002
-0.0002
-0.0002
-0.0002
-0.0002
-0.0002
-0.0002
-0.0002
-0.0002
-0.0002
-0.0002
-0.0002
-0.0002
-0.0002
-0.0002
-0.0002
-0.0002
-0.0002
-0.0002
-0.0002
-0.0002
-0.0002
-0.0002
-0.0002
-0.0002
-0.0002
-0.0002
-0.0002
-0.0002
-0.0002
-0.0002
-0.0002
-0.0002
-0.0002
-0.0002
-0.0002
-0.0002
-0.0002
-0.0002
-0.0002
-0.0002
-0.0002
-0.0002
-0.0002
-0.0002
-0.0002
-0.0002
-0.0002
-0.0002
-0.0002
-0.0002
-0.0002
-0.0002
-0.0002
-0.0002
-0.0002
-0.0002
SCALARS strain_1 float
LOOKUP_TABLE default
-0.000104
-0.165784
-0.163278
-0.160759
-0.158229
-0.155687
-0.153134
-0.150571
-0.147998
-0.145417
-0.142827
-0.140230
-0.137625
-0.135015
-0.132399
-0.129779
-0.127155
-0.124528
-0.121899
-0.119269
-0.116639
-0.114009
-0.111382
-0.108757
-0.106137
-0.103520
-0.100910
-0.098307
-0.095712
-0.093127
-0.090551
-0.087987
-0.085437
-0.082900
-0.080377
-0.077872
-0.075384
-0.072915
-0.070467
-0.068039
-0.065635
-0.063254
-0.060898
-0.058569
-0.056268
-0.053995
-0.051754
-0.049543
-0.047365
-0.045222
-0.043113
-0.041041
-0.039006
-0.037010
-0.035053
-0.033138
-0.031264
-0.029433
-0.027646
-0.025904
-0.024207
-0.022557
-0.020954
-0.019400
-0.017893
-0.016437
-0.015031
-0.013674
-0.012369
-0.011114
-0.009912
-0.008761
-0.007662
-0.006616
-0.005621
-0.004678
-0.003787
-0.002949
-0.002161
-0.001425
-0.000739
-0.165931
-0.000004
-0.000641
-0.001328
-0.002067
-0.002857
-0.003698
-0.004590
-0.005535
-0.006532
-0.007582
-0.008683
-0.009837
-0.011042
-0.012300
-0.013608
-0.014968
-0.016377
-0.017838
-0.019347
-0.020905
-0.022511
-0.024165
-0.025865
-0.027611
-0.029402
-0.031237
-0.033114
-0.035033
-0.036994
-0.038993
-0.041032
-0.043108
-0.045221
-0.047368
-0.049550
-0.051764
-0.054010
-0.056287
-0.058591
-0.060924
-0.063284
-0.065669
-0.068077
-0.070508
-0.072960
-0.075433
-0.077925
-0.080434
-0.082959
-0.085500
-0.088055
-0.090622
-0.093200
-0.095789
-0.098387
-0.100994
-0.103608
-0.106227
-0.108851
-0.111479
-0.114109
-0.116742
-0.119375
-0.122008
-0.124639
-0.127269
-0.129896
-0.132519
-0.135137
-0.137750
-0.140357
-0.142956
-0.145549
-0.148132
-0.150707
-0.153272
-0.155827
-0.158370
-0.160904
-0.163423
-0.165918
-0.165903
-0.165889
-0.165875
-0.165860
-0.165845
-0.165830
-0.165815
-0.165799
-0.000084
-0.000067
-0.000051
-0.000038
-0.000027
-0.000018
-0.000011
-0.000007
-0.000004
-0.000641
-0.000644
-0.000648
-0.000654
-0.000663
-0.000673
-0.000687
-0.000702
-0.000720
-0.001328
-0.001331
-0.001334
-0.001341
-0.001349
-0.001360
-0.001373
-0.001388
-0.001406
-0.002066
-0.002068
-0.002072
-0.002079
-0.002087
-0.002097
-0.002110
-0.002125
-0.002142
-0.002855
-0.002858
-0.002861
-0.002866
-0.002875
-0.002885
-0.002898
-0.002913
-0.002929
-0.003697
-0.003698
-0.003701
-0.003707
-0.003714
-0.003725
-0.003738
-0.003752
-0.003769
-0.004589
-0.004590
-0.004593
-0.004599
-0.004606
-0.004617
-0.004628
-0.004643
-0.004659
-0.005534
-0.005535
-0.005538
-0.005543
-0.005550
-0.005560
-0.005571
-0.005586
-0.005602
-0.006531
-0.006531
-0.006534
-0.006539
-0.006546
-0.006555
-0.006567
-0.006581
-0.006597
-0.007580
-0.007580
-0.007582
-0.007587
-0.007594
-0.007603
-0.007615
-0.007628
-0.007644
-0.008681
-0.008681
-0.008683
-0.008688
-0.008694
-0.008703
-0.008714
-0.008728
-0.008743
-0.009834
-0.009834
-0.009836
-0.009840
-0.009847
-0.009855
-0.009866
-0.009879
-0.009894
-0.011040
-0.011039
-0.011041
-0.011044
-0.011050
-0.011059
-0.011069
-0.011082
-0.011097
-0.012296
-0.012296
-0.012297
-0.012300
-0.012307
-0.012314
-0.012324
-0.012337
-0.012352
-0.013605
-0.013604
-0.013605
-0.013608
-0.013614
-0.013621
-0.013631
-0.013643
-0.013657
-0.014964
-0.014963
-0.014963
-0.014966
-0.014972
-0.014979
-0.014988
-0.015000
-0.015014
-0.016374
-0.016372
-0.016373
-0.016375
-0.016380
-0.016387
-0.016397
-0.016408
-0.016422
-0.017834
-0.017832
-0.017832
-0.017834
-0.017839
-0.017846
-0.017854
-0.017865
-0.017879
-0.019343
-0.019340
-0.019340
-0.019343
-0.019347
-0.019353
-0.019361
-0.019372
-0.019385
-0.020900
-0.020898
-0.020898
-0.020899
-0.020903
-0.020909
-0.020917
-0.020928
-0.020940
-0.022507
-0.022504
-0.022503
-0.022504
-0.022508
-0.022514
-0.022522
-0.022532
-0.022543
-0.024160
-0.024158
-0.024156
-0.024157
-0.024160
-0.024165
-0.024173
-0.024182
-0.024194
-0.025860
-0.025856
-0.025855
-0.025856
-0.025859
-0.025864
-0.025871
-0.025880
-0.025891
-0.027606
-0.027602
-0.027600
-0.027601
-0.027603
-0.027608
-0.027614
-0.027623
-0.027634
-0.029396
-0.029392
-0.029390
-0.029390
-0.029392
-0.029397
-0.029403
-0.029411
-0.029421
-0.031230
-0.031226
-0.031224
-0.031224
-0.031225
-0.031230
-0.031235
-0.031243
-0.031252
-0.033108
-0.033103
-0.033101
-0.033100
-0.033101
-0.033105
-0.033110
-0.033118
-0.033126
-0.035026
-0.035022
-0.035020
-0.035018
-0.035019
-0.035022
-0.035027
-0.035034
-0.035043
-0.036986
-0.036981
-0.036979
-0.036977
-0.036978
-0.036981
-0.036985
-0.036991
-0.037000
-0.038987
-0.038981
-0.038978
-0.038976
-0.038977
-0.038979
-0.038983
-0.038988
-0.038996
-0.041025
-0.041019
-0.041016
-0.041014
-0.041014
-0.041016
-0.041019
-0.041025
-0.041032
-0.043101
-0.043095
-0.043091
-0.043089
-0.043088
-0.043090
-0.043093
-0.043098
-0.043105
-0.045213
-0.045207
-0.045203
-0.045200
-0.045200
-0.045200
-0.045203
-0.045208
-0.045214
-0.047360
-0.047354
-0.047350
-0.047347
-0.047346
-0.047346
-0.047349
-0.047352
-0.047359
-0.049541
-0.049535
-0.049531
-0.049527
-0.049526
-0.049526
-0.049527
-0.049532
-0.049537
-0.051756
-0.051749
-0.051744
-0.051740
-0.051738
-0.051738
-0.051740
-0.051742
-0.051747
-0.054002
-0.053994
-0.053989
-0.053985
-0.053983
-0.053982
-0.053983
-0.053986
-0.053990
-0.056278
-0.056270
-0.056265
-0.056261
-0.056258
-0.056257
-0.056257
-0.056260
-0.056263
-0.058583
-0.058575
-0.058569
-0.058565
-0.058562
-0.058560
-0.058560
-0.058562
-0.058565
-0.060916
-0.060908
-0.060902
-0.060897
-0.060893
-0.060892
-0.060891
-0.060892
-0.060894
-0.063275
-0.063267
-0.063260
-0.063255
-0.063251
-0.063249
-0.063248
-0.063249
-0.063251
-0.065659
-0.065651
-0.065644
-0.065639
-0.065635
-0.065631
-0.065630
-0.065630
-0.065631
-0.068067
-0.068059
-0.068051
-0.068046
-0.068042
-0.068038
-0.068036
-0.068036
-0.068037
-0.070498
-0.070490
-0.070482
-0.070476
-0.070472
-0.070468
-0.070465
-0.070465
-0.070465
-0.072950
-0.072941
-0.072934
-0.072927
-0.072922
-0.072919
-0.072916
-0.072914
-0.072915
-0.075423
-0.075414
-0.075406
-0.075399
-0.075394
-0.075389
-0.075387
-0.075385
-0.075384
-0.077915
-0.077905
-0.077897
-0.077890
-0.077884
-0.077879
-0.077876
-0.077874
-0.077872
-0.080423
-0.080414
-0.080405
-0.080398
-0.080391
-0.080386
-0.080383
-0.080380
-0.080378
-0.082949
-0.082939
-0.082930
-0.082923
-0.082916
-0.082911
-0.082906
-0.082903
-0.082900
-0.085489
-0.085479
-0.085471
-0.085462
-0.085455
-0.085450
-0.085445
-0.085441
-0.085438
-0.088043
-0.088033
-0.088024
-0.088016
-0.088008
-0.088002
-0.087997
-0.087993
-0.087989
-0.090610
-0.090600
-0.090591
-0.090582
-0.090574
-0.090568
-0.090562
-0.090558
-0.090554
-0.093189
-0.093178
-0.093169
-0.093160
-0.093152
-0.093145
-0.093139
-0.093134
-0.093130
-0.095778
-0.095767
-0.095757
-0.095748
-0.095740
-0.095733
-0.095727
-0.095721
-0.095716
-0.098376
-0.098365
-0.098355
-0.098346
-0.098338
-0.098330
-0.098323
-0.098317
-0.098312
-0.100982
-0.100972
-0.100961
-0.100952
-0.100943
-0.100934
-0.100928
-0.100921
-0.100915
-0.103596
-0.103584
-0.103574
-0.103564
-0.103555
-0.103546
-0.103539
-0.103531
-0.103526
-0.106215
-0.106204
-0.106192
-0.106182
-0.106173
-0.106164
-0.106157
-0.106149
-0.106142
-0.108839
-0.108827
-0.108817
-0.108806
-0.108796
-0.108787
-0.108779
-0.108771
-0.108764
-0.111467
-0.111454
-0.111443
-0.111433
-0.111423
-0.111414
-0.111405
-0.111397
-0.111389
-0.114097
-0.114085
-0.114074
-0.114063
-0.114053
-0.114043
-0.114034
-0.114025
-0.114017
-0.116729
-0.116717
-0.116705
-0.116694
-0.116684
-0.116674
-0.116665
-0.116656
-0.116647
-0.119362
-0.119350
-0.119338
-0.119327
-0.119316
-0.119306
-0.119296
-0.119286
-0.119278
-0.121995
-0.121982
-0.121970
-0.121959
-0.121948
-0.121937
-0.121927
-0.121917
-0.121907
-0.124626
-0.124614
-0.124602
-0.124590
-0.124579
-0.124568
-0.124557
-0.124547
-0.124537
-0.127256
-0.127244
-0.127231
-0.127219
-0.127207
-0.127196
-0.127185
-0.127175
-0.127164
-0.129882
-0.129870
-0.129858
-0.129845
-0.129834
-0.129822
-0.129811
-0.129800
-0.129789
-0.132505
-0.132493
-0.132480
-0.132468
-0.132455
-0.132444
-0.132432
-0.132421
-0.132410
-0.135124
-0.135111
-0.135098
-0.135086
-0.135072
-0.135061
-0.135049
-0.135037
-0.135026
-0.137736
-0.137723
-0.137710
-0.137698
-0.137685
-0.137673
-0.137661
-0.137649
-0.137637
-0.140343
-0.140330
-0.140317
-0.140304
-0.140291
-0.140279
-0.140266
-0.140254
-0.140242
-0.142943
-0.142930
-0.142917
-0.142903
-0.142890
-0.142878
-0.142865
-0.142852
-0.142839
-0.145535
-0.145522
-0.145508
-0.145495
-0.145482
-0.145469
-0.145456
-0.145442
-0.145430
-0.148119
-0.148105
-0.148092
-0.148079
-0.148065
-0.148051
-0.148039
-0.148025
-0.148012
-0.150693
-0.150681
-0.150667
-0.150653
-0.150639
-0.150626
-0.150612
-0.150599
-0.150584
-0.153259
-0.153245
-0.153231
-0.153217
-0.153203
-0.153189
-0.153176
-0.153162
-0.153148
-0.155813
-0.155800
-0.155786
-0.155772
-0.155758
-0.155744
-0.155730
-0.155715
-0.155701
-0.158358
-0.158344
-0.158329
-0.158315
-0.158301
-0.158287
-0.158273
-0.158258
-0.158243
-0.160890
-0.160876
-0.160861
-0.160847
-0.160833
-0.160819
-0.160804
-0.160790
-0.160774
-0.163410
-0.163396
-0.163381
-0.163367
-0.163353
-0.163338
-0.163324
-0.163308
-0.163293
SCALARS strain_2 float
LOOKUP_TABLE default
0.000156
-0.000653
-0.000650
-0.000651
-0.000650
-0.000654
-0.000653
-0.000652
-0.000651
-0.000648
-0.000652
-0.000650
-0.000647
-0.000649
-0.000644
-0.000647
-0.000646
-0.000642
-0.000639
-0.000639
-0.000636
-0.000633
-0.000634
-0.000628
-0.000622
-0.000622
-0.000616
-0.000614
-0.000611
-0.000605
-0.000599
-0.000592
-0.000589
-0.000582
-0.000574
-0.000567
-0.000561
-0.000553
-0.000547
-0.000540
-0.000535
-0.000522
-0.000513
-0.000502
-0.000491
-0.000487
-0.000470
-0.000462
-0.000451
-0.000441
-0.000424
-0.000415
-0.000400
-0.000387
-0.000377
-0.000360
-0.000347
-0.000332
-0.000313
-0.000298
-0.000284
-0.000264
-0.000247
-0.000229
-0.000213
-0.000191
-0.000174
-0.000157
-0.000137
-0.000114
-0.000092
-0.000073
-0.000056
-0.000032
-0.000008
0.000012
0.000039
0.000060
0.000083
0.000106
0.000129
0.002110
0.002158
0.002158
0.002163
0.002163
0.002168
0.002173
0.002171
0.002173
0.002177
0.002181
0.002181
0.002184
0.002185
0.002187
0.002191
0.002193
0.002196
0.002200
0.002200
0.002199
0.002203
0.002206
0.002205
0.002210
0.002208
0.002209
0.002209
0.002211
0.002210
0.002211
0.002214
0.002215
0.002219
0.002219
0.002215
0.002217
0.002217
0.002218
0.002216
0.002216
0.002214
0.002217
0.002215
0.002215
0.002217
0.002213
0.002212
0.002211
0.002209
0.002210
0.002209
0.002204
0.002204
0.002207
0.002202
0.002200
0.002199
0.002196
0.002194
0.002192
0.002190
0.002187
0.002182
0.002177
0.002176
0.002173
0.002171
0.002166
0.002161
0.002156
0.002155
0.002149
0.002148
0.002143
0.002138
0.002131
0.002131
0.002126
0.002118
0.002116
0.001834
0.001560
0.001284
0.001006
0.000728
0.000454
0.000176
-0.000099
-0.000376
0.000356
0.000555
0.000756
0.000955
0.001155
0.001358
0.001558
0.001759
0.001961
0.001957
0.001750
0.001550
0.001349
0.001143
0.000944
0.000738
0.000539
0.000333
0.001952
0.001753
0.001544
0.001342
0.001137
0.000928
0.000726
0.000517
0.000311
0.001957
0.001750
0.001542
0.001333
0.001127
0.000918
0.000707
0.000501
0.000293
0.001958
0.001744
0.001534
0.001324
0.001113
0.000904
0.000694
0.000483
0.000271
0.001958
0.001745
0.001533
0.001319
0.001103
0.000887
0.000677
0.000463
0.000250
0.001956
0.001741
0.001529
0.001310
0.001090
0.000877
0.000664
0.000447
0.000230
0.001957
0.001739
0.001520
0.001300
0.001084
0.000868
0.000648
0.000430
0.000210
0.001957
0.001737
0.001514
0.001296
0.001072
0.000851
0.000633
0.000411
0.000191
0.001960
0.001732
0.001512
0.001289
0.001065
0.000844
0.000618
0.000395
0.000171
0.001952
0.001729
0.001508
0.001277
0.001054
0.000832
0.000605
0.000376
0.000154
0.001957
0.001728
0.001502
0.001274
0.001046
0.000816
0.000591
0.000363
0.000133
0.001956
0.001727
0.001495
0.001267
0.001035
0.000807
0.000574
0.000345
0.000113
0.001957
0.001727
0.001490
0.001259
0.001028
0.000796
0.000562
0.000330
0.000097
0.001956
0.001718
0.001487
0.001253
0.001017
0.000784
0.000550
0.000316
0.000078
0.001955
0.001719
0.001483
0.001244
0.001012
0.000773
0.000537
0.000298
0.000059
0.001955
0.001719
0.001478
0.001238
0.000999
0.000762
0.000524
0.000285
0.000049
0.001956
0.001716
0.001474
0.001233
0.000993
0.000751
0.000513
0.000268
0.000031
0.001956
0.001713
0.001471
0.001228
0.000984
0.000743
0.000500
0.000255
0.000011
0.001957
0.001710
0.001466
0.001222
0.000974
0.000733
0.000489
0.000242
-0.000001
0.001952
0.001709
0.001461
0.001215
0.000968
0.000728
0.000474
0.000231
-0.000018
0.001953
0.001707
0.001460
0.001210
0.000959
0.000713
0.000464
0.000216
-0.000034
0.001954
0.001704
0.001450
0.001202
0.000953
0.000703
0.000454
0.000202
-0.000050
0.001956
0.001701
0.001452
0.001196
0.000947
0.000693
0.000441
0.000186
-0.000060
0.001953
0.001698
0.001448
0.001191
0.000938
0.000683
0.000430
0.000177
-0.000074
0.001952
0.001699
0.001444
0.001187
0.000931
0.000679
0.000422
0.000166
-0.000088
0.001954
0.001697
0.001437
0.001185
0.000925
0.000668
0.000411
0.000154
-0.000104
0.001954
0.001692
0.001437
0.001178
0.000919
0.000662
0.000400
0.000142
-0.000116
0.001953
0.001694
0.001432
0.001173
0.000913
0.000651
0.000390
0.000132
-0.000126
0.001953
0.001690
0.001428
0.001170
0.000906
0.000647
0.000385
0.000123
-0.000139
0.001953
0.001690
0.001427
0.001163
0.000901
0.000637
0.000372
0.000114
-0.000149
0.001952
0.001689
0.001421
0.001159
0.000894
0.000629
0.000366
0.000103
-0.000165
0.001950
0.001685
0.001421
0.001158
0.000885
0.000619
0.000355
0.000089
-0.000173
0.001951
0.001681
0.001417
0.001151
0.000884
0.000613
0.000348
0.000084
-0.000182
0.001947
0.001681
0.001409
0.001146
0.000876
0.000609
0.000342
0.000072
-0.000196
0.001950
0.001679
0.001410
0.001141
0.000874
0.000603
0.000333
0.000066
-0.000202
0.001946
0.001675
0.001406
0.001136
0.000870
0.000596
0.000325
0.000056
-0.000214
0.001946
0.001678
0.001403
0.001131
0.000861
0.000591
0.000316
0.000046
-0.000223
0.001945
0.001671
0.001398
0.001130
0.000858
0.000584
0.000313
0.000039
-0.000229
0.001944
0.001671
0.001397
0.001125
0.000853
0.000577
0.000305
0.000034
-0.000239
0.001945
0.001670
0.001395
0.001122
0.000848
0.000574
0.000298
0.000025
-0.000250
0.001940
0.001667
0.001391
0.001117
0.000843
0.000566
0.000292
0.000018
-0.000256
0.001939
0.001665
0.001391
0.001117
0.000840
0.000560
0.000289
0.000011
-0.000261
0.001941
0.001662
0.001386
0.001108
0.000835
0.000558
0.000279
0.000005
-0.000269
0.001937
0.001660
0.001385
0.001108
0.000827
0.000552
0.000274
-0.000002
-0.000282
0.001937
0.001657
0.001379
0.001105
0.000827
0.000549
0.000269
-0.000005
-0.000285
0.001935
0.001659
0.001379
0.001099
0.000823
0.000543
0.000267
-0.000013
-0.000292
0.001936
0.001654
0.001379
0.001098
0.000822
0.000537
0.000261
-0.000014
-0.000296
0.001932
0.001653
0.001371
0.001091
0.000813
0.000535
0.000254
-0.000023
-0.000305
0.001932
0.001649
0.001372
0.001091
0.000810
0.000533
0.000249
-0.000028
-0.000311
0.001925
0.001650
0.001369
0.001087
0.000808
0.000525
0.000246
-0.000034
-0.000313
0.001925
0.001648
0.001363
0.001083
0.000805
0.000522
0.000241
-0.000037
-0.000320
0.001922
0.001644
0.001361
0.001080
0.000801
0.000523
0.000242
-0.000043
-0.000323
0.001920
0.001644
0.001363
0.001078
0.000801
0.000517
0.000234
-0.000047
-0.000330
0.001923
0.001639
0.001357
0.001077
0.000797
0.000513
0.000231
-0.000049
-0.000331
0.001919
0.001637
0.001355
0.001076
0.000790
0.000507
0.000230
-0.000052
-0.000336
0.001918
0.001631
0.001350
0.001070
0.000791
0.000509
0.000225
-0.000057
-0.000337
0.001912
0.001630
0.001348
0.001068
0.000782
0.000503
0.000223
-0.000061
-0.000344
0.001914
0.001633
0.001347
0.001065
0.000782
0.000502
0.000219
-0.000065
-0.000345
0.001905
0.001626
0.001344
0.001064
0.000782
0.000499
0.000211
-0.000068
-0.000348
0.001906
0.001623
0.001340
0.001060
0.000777
0.000496
0.000215
-0.000067
-0.000353
0.001906
0.001622
0.001339
0.001059
0.000774
0.000491
0.000214
-0.000073
-0.000354
0.001901
0.001620
0.001337
0.001055
0.000772
0.000494
0.000208
-0.000074
-0.000355
0.001898
0.001617
0.001333
0.001053
0.000770
0.000490
0.000205
-0.000073
-0.000356
0.001895
0.001612
0.001331
0.001052
0.000767
0.000487
0.000206
-0.000079
-0.000360
0.001891
0.001612
0.001328
0.001046
0.000767
0.000483
0.000198
-0.000083
-0.000361
0.001891
0.001607
0.001328
0.001043
0.000764
0.000479
0.000200
-0.000083
-0.000365
0.001886
0.001605
0.001324
0.001044
0.000763
0.000479
0.000198
-0.000085
-0.000366
0.001887
0.001599
0.001320
0.001041
0.000760
0.000476
0.000194
-0.000088
-0.000366
0.001878
0.001602
0.001319
0.001038
0.000756
0.000476
0.000196
-0.000089
-0.000369
0.001875
0.001594
0.001313
0.001031
0.000754
0.000473
0.000190
-0.000086
-0.000367
0.001870
0.001589
0.001315
0.001029
0.000752
0.000470
0.000189
-0.000091
-0.000371
0.001867
0.001589
0.001309
0.001027
0.000749
0.000472
0.000190
-0.000092
-0.000371
0.001862
0.001586
0.001306
0.001026
0.000744
0.000466
0.000187
-0.000090
-0.000375
0.001862
0.001584
0.001303
0.001025
0.000745
0.000462
0.000184
-0.000094
-0.000370
0.001855
0.001577
0.001300
0.001021
0.000739
0.000464
0.000183
-0.000096
-0.000371
0.001849
0.001572
0.001299
0.001018
0.000740
0.000461
0.000183
-0.000098
-0.000372
0.001848
0.001571
0.001292
0.001013
0.000743
0.000458
0.000180
-0.000097
-0.000373
0.001840
0.001567
0.001291
0.001012
0.000735
0.000457
0.000181
-0.000097
-0.000375
0.001838
0.001561
0.001286
0.001009
0.000735
0.000457
0.000182
-0.000095
-0.000375
SCALARS strain_3 float
LOOKUP_TABLE default
0.000851
0.054339
0.053568
0.052798
0.052022
0.051241
0.050456
0.049668
0.048877
0.048080
0.047285
0.046483
0.045681
0.044873
0.044067
0.043257
0.042445
0.041631
0.040817
0.039999
0.039183
0.038365
0.037547
0.036730
0.035911
0.035094
0.034280
0.033464
0.032652
0.031841
0.031030
0.030222
0.029420
0.028619
0.027823
0.027030
0.026238
0.025456
0.024676
0.023902
0.023134
0.022372
0.021617
0.020869
0.020127
0.019395
0.018668
0.017950
0.017246
0.016544
0.015856
0.015175
0.014507
0.013848
0.013200
0.012565
0.011940
0.011327
0.010728
0.010139
0.009566
0.009002
0.008454
0.007920
0.007400
0.006894
0.006400
0.005925
0.005461
0.005015
0.004581
0.004167
0.003764
0.003377
0.003007
0.002650
0.002315
0.001990
0.001680
0.001386
0.001111
0.052926
-0.000446
-0.000195
0.000073
0.000355
0.000653
0.000967
0.001298
0.001643
0.002005
0.002382
0.002776
0.003183
0.003609
0.004047
0.004504
0.004973
0.005456
0.005954
0.006470
0.006999
0.007542
0.008097
0.008667
0.009250
0.009844
0.010454
0.011074
0.011705
0.012351
0.013005
0.013671
0.014347
0.015036
0.015732
0.016438
0.017153
0.017875
0.018611
0.019349
0.020098
0.020851
0.021612
0.022382
0.023155
0.023935
0.024719
0.025509
0.026302
0.027100
0.027902
0.028707
0.029518
0.030328
0.031142
0.031957
0.032772
0.033592
0.034409
0.035232
0.036051
0.036871
0.037695
0.038514
0.039333
0.040151
0.040968
0.041784
0.042600
0.043409
0.044220
0.045027
0.045831
0.046633
0.047432
0.048229
0.049021
0.049810
0.050593
0.051376
0.052152
0.053066
0.053208
0.053349
0.053490
0.053632
0.053771
0.053914
0.054055
0.054196
0.000716
0.000587
0.000455
0.000324
0.000194
0.000065
-0.000063
-0.000191
-0.000317
-0.000066
0.000063
0.000191
0.000320
0.000450
0.000581
0.000711
0.000845
0.000976
0.000202
0.000330
0.000462
0.000590
0.000723
0.000852
0.000987
0.001118
0.001254
0.000485
0.000616
0.000747
0.000877
0.001010
0.001142
0.001277
0.001409
0.001544
0.000787
0.000915
0.001046
0.001179
0.001313
0.001446
0.001583
0.001715
0.001853
0.001098
0.001231
0.001364
0.001498
0.001632
0.001766
0.001901
0.002038
0.002174
0.001427
0.001561
0.001695
0.001832
0.001967
0.002101
0.002241
0.002375
0.002513
0.001776
0.001910
0.002047
0.002181
0.002318
0.002454
0.002591
0.002729
0.002867
0.002138
0.002272
0.002409
0.002546
0.002684
0.002821
0.002960
0.003098
0.003236
0.002516
0.002654
0.002787
0.002926
0.003064
0.003201
0.003343
0.003484
0.003622
0.002910
0.003046
0.003184
0.003320
0.003462
0.003602
0.003743
0.003882
0.004024
0.003319
0.003459
0.003596
0.003734
0.003875
0.004015
0.004153
0.004298
0.004440
0.003746
0.003883
0.004022
0.004163
0.004303
0.004446
0.004584
0.004729
0.004871
0.004185
0.004324
0.004465
0.004605
0.004747
0.004889
0.005029
0.005174
0.005318
0.004641
0.004781
0.004923
0.005066
0.005203
0.005347
0.005491
0.005636
0.005779
0.005112
0.005254
0.005394
0.005536
0.005678
0.005823
0.005965
0.006112
0.006255
0.005598
0.005738
0.005881
0.006024
0.006167
0.006311
0.006454
0.006601
0.006746
0.006096
0.006241
0.006382
0.006528
0.006671
0.006816
0.006960
0.007105
0.007252
0.006613
0.006754
0.006898
0.007041
0.007188
0.007332
0.007479
0.007624
0.007772
0.007141
0.007285
0.007429
0.007573
0.007717
0.007866
0.008010
0.008161
0.008306
0.007685
0.007829
0.007973
0.008119
0.008265
0.008410
0.008558
0.008705
0.008854
0.008240
0.008386
0.008532
0.008677
0.008822
0.008970
0.009118
0.009268
0.009416
0.008810
0.008956
0.009102
0.009249
0.009395
0.009543
0.009692
0.009840
0.009990
0.009396
0.009541
0.009687
0.009834
0.009980
0.010128
0.010277
0.010426
0.010576
0.009992
0.010137
0.010283
0.010432
0.010579
0.010728
0.010875
0.011026
0.011177
0.010601
0.010746
0.010892
0.011042
0.011188
0.011337
0.011488
0.011638
0.011790
0.011220
0.011365
0.011514
0.011664
0.011810
0.011963
0.012112
0.012262
0.012412
0.011853
0.012000
0.012148
0.012298
0.012446
0.012597
0.012746
0.012896
0.013049
0.012497
0.012646
0.012794
0.012942
0.013093
0.013242
0.013392
0.013544
0.013695
0.013153
0.013302
0.013450
0.013601
0.013749
0.013901
0.014052
0.014203
0.014353
0.013818
0.013969
0.014117
0.014267
0.014417
0.014568
0.014718
0.014870
0.015024
0.014497
0.014646
0.014795
0.014946
0.015095
0.015247
0.015397
0.015549
0.015704
0.015184
0.015334
0.015483
0.015635
0.015783
0.015935
0.016087
0.016237
0.016391
0.015880
0.016032
0.016181
0.016329
0.016480
0.016633
0.016786
0.016938
0.017091
0.016586
0.016737
0.016887
0.017038
0.017188
0.017340
0.017493
0.017645
0.017799
0.017303
0.017453
0.017604
0.017753
0.017906
0.018058
0.018210
0.018362
0.018517
0.018026
0.018178
0.018328
0.018479
0.018630
0.018782
0.018935
0.019086
0.019241
0.018759
0.018910
0.019060
0.019212
0.019363
0.019516
0.019668
0.019822
0.019975
0.019499
0.019650
0.019802
0.019954
0.020104
0.020256
0.020408
0.020561
0.020716
0.020248
0.020398
0.020549
0.020700
0.020851
0.021006
0.021155
0.021311
0.021464
0.021001
0.021151
0.021303
0.021457
0.021607
0.021758
0.021913
0.022066
0.022218
0.021764
0.021913
0.022065
0.022217
0.022370
0.022520
0.022674
0.022827
0.022981
0.022530
0.022683
0.022835
0.022986
0.023136
0.023290
0.023442
0.023595
0.023748
0.023306
0.023457
0.023608
0.023757
0.023911
0.024063
0.024216
0.024369
0.024522
0.024086
0.024234
0.024388
0.024539
0.024691
0.024843
0.024997
0.025148
0.025303
0.024870
0.025021
0.025170
0.025324
0.025475
0.025630
0.025779
0.025934
0.026084
0.025659
0.025812
0.025962
0.026114
0.026264
0.026419
0.026570
0.026720
0.026875
0.026453
0.026603
0.026754
0.026905
0.027059
0.027210
0.027362
0.027516
0.027669
0.027251
0.027403
0.027554
0.027705
0.027855
0.028008
0.028161
0.028315
0.028465
0.028055
0.028203
0.028355
0.028506
0.028658
0.028809
0.028963
0.029112
0.029266
0.028859
0.029010
0.029161
0.029310
0.029463
0.029617
0.029765
0.029919
0.030070
0.029665
0.029817
0.029967
0.030120
0.030270
0.030423
0.030573
0.030725
0.030876
0.030476
0.030627
0.030779
0.030929
0.031080
0.031230
0.031385
0.031535
0.031688
0.031290
0.031442
0.031593
0.031743
0.031893
0.032046
0.032195
0.032347
0.032500
0.032105
0.032254
0.032407
0.032556
0.032709
0.032858
0.033010
0.033162
0.033312
0.032924
0.033073
0.033223
0.033374
0.033523
0.033672
0.033826
0.033978
0.034127
0.033739
0.033891
0.034041
0.034192
0.034341
0.034491
0.034642
0.034792
0.034942
0.034561
0.034709
0.034860
0.035009
0.035161
0.035309
0.035460
0.035611
0.035762
0.035380
0.035530
0.035682
0.035829
0.035979
0.036129
0.036280
0.036428
0.036579
0.036203
0.036350
0.036499
0.036651
0.036798
0.036948
0.037097
0.037246
0.037398
0.037022
0.037171
0.037320
0.037468
0.037618
0.037768
0.037915
0.038066
0.038214
0.037842
0.037988
0.038140
0.038286
0.038436
0.038584
0.038735
0.038883
0.039032
0.038661
0.038810
0.038959
0.039103
0.039255
0.039402
0.039552
0.039702
0.039851
0.039482
0.039627
0.039777
0.039926
0.040073
0.040221
0.040372
0.040518
0.040667
0.040299
0.040446
0.040594
0.040743
0.040891
0.041038
0.041187
0.041333
0.041483
0.041115
0.041262
0.041409
0.041558
0.041705
0.041854
0.042001
0.042149
0.042296
0.041934
0.042078
0.042223
0.042371
0.042520
0.042668
0.042814
0.042961
0.043109
0.042743
0.042891
0.043038
0.043185
0.043332
0.043478
0.043625
0.043773
0.043919
0.043556
0.043703
0.043848
0.043995
0.044140
0.044289
0.044435
0.044582
0.044728
0.044365
0.044511
0.044659
0.044803
0.044950
0.045096
0.045242
0.045386
0.045534
0.045171
0.045319
0.045463
0.045610
0.045756
0.045902
0.046047
0.046193
0.046337
0.045975
0.046123
0.046268
0.046411
0.046558
0.046702
0.046849
0.046995
0.047140
0.046779
0.046922
0.047067
0.047214
0.047358
0.047502
0.047648
0.047791
0.047937
0.047578
0.047721
0.047865
0.048010
0.048156
0.048299
0.048443
0.048588
0.048731
0.048374
0.048516
0.048658
0.048804
0.048947
0.049093
0.049237
0.049380
0.049525
0.049164
0.049308
0.049451
0.049595
0.049738
0.049883
0.050026
0.050169
0.050313
0.049954
0.050095
0.050237
0.050382
0.050523
0.050669
0.050810
0.050954
0.051097
0.050736
0.050879
0.051022
0.051164
0.051308
0.051452
0.051592
0.051733
0.051878
0.051517
0.051659
0.051801
0.051945
0.052085
0.052229
0.052371
0.052514
0.052655
0.052293
0.052435
0.052578
0.052720
0.052861
0.053000
0.053145
0.053285
0.053426
SCALARS stress_1 float
LOOKUP_TABLE default
-68964.985330
-50103077.138743
-49347592.336825
-48586987.534908
-47823630.732990
-47058353.931072
-46288725.129155
-45514232.327237
-44738267.525319
-43960190.723402
-43178593.921484
-42395013.119566
-41609320.317649
-40822027.515731
-40032622.713813
-39241297.911896
-38449717.109978
-37657496.308060
-36864059.506143
-36070302.704225
-35275201.902307
-34482149.100390
-33688904.298472
-32897131.496554
-32105934.694637
-31316017.892719
-30528277.090801
-29741944.288884
-28958043.486966
-28176894.685048
-27400033.883131
-26625349.081213
-25855016.279295
-25087819.477378
-24326830.675460
-23570833.873542
-22819829.071625
-22072792.269707
-21333307.467789
-20600286.665872
-19873537.863954
-19154021.062036
-18442696.260119
-17739115.458201
-17044494.656283
-16357297.854366
-15679893.052448
-15012472.250530
-14353691.448613
-13706366.646695
-13069409.844777
-12442757.042860
-11827944.240942
-11224971.439024
-10633326.637107
-10055249.835189
-9487925.033271
-8935128.231354
-8395451.429436
-7868766.627518
-7354881.825601
-6857893.023683
-6373128.221765
-5902891.419848
-5447758.617930
-5007473.816012
-4582293.014095
-4172536.212177
-3777563.410259
-3398654.608342
-3034721.806424
-2686981.004506
-2355048.202589
-2038027.400671
-1737774.598753
-1452369.796836
-1182516.994918
-929048.193000
-690619.391083
-468190.589165
-261377.787247
-49996276.600293
185099.553120
-7441.248798
-214702.050715
-437962.852633
-675751.654551
-930180.456468
-1199073.258386
-1485054.060304
-1786394.862221
-2103543.664139
-2436244.466057
-2784369.267974
-3149454.069892
-3529962.871810
-3925511.673727
-4337060.475645
-4762881.277563
-5205022.079480
-5662586.881398
-6133975.683316
-6619700.485233
-7119377.287151
-7634350.089069
-8161738.890986
-8703271.692904
-9258820.494822
-9827041.296739
-10407486.098657
-11002138.900575
-11606839.702492
-12224212.504410
-12852145.306328
-13491982.108245
-14141546.910163
-14802503.712081
-15472484.513998
-16152129.315916
-16840222.117834
-17538362.919751
-18244567.721669
-18957684.523587
-19680337.325504
-20410094.127422
-21144970.929340
-21886695.731257
-22635076.533175
-23388833.335093
-24147902.137010
-24911770.938928
-25681463.740846
-26453588.542763
-27230385.344681
-28010766.146599
-28794218.948516
-29580551.750434
-30368932.552352
-31158401.354269
-31951390.156187
-32744506.958105
-33539351.760022
-34334772.561940
-35130193.363858
-35926766.165775
-36723146.967693
-37518631.769611
-38314116.571528
-39107617.373446
-39900990.175364
-40692570.977281
-41481847.779199
-42269780.581117
-43055921.383034
-43838798.184952
-44620138.986870
-45397703.788787
-46171876.590705
-46944449.392623
-47713246.194540
-48477818.996458
-49238743.798376
-50007142.254138
-50017367.907983
-50028809.561828
-50039867.215673
-50050732.869518
-50060702.523363
-50071504.177208
-50081153.831053
-50091315.484898
-40755.331485
-13121.677640
13999.976205
40097.630050
65427.283895
90948.937740
115190.591585
139368.245430
162585.899275
-29506.902643
-52980.556488
-77350.210333
-101463.864178
-127497.518023
-151931.171867
-178860.825712
-205150.479557
-233360.133402
-237151.704560
-260753.358405
-283907.012250
-308340.666095
-333542.319940
-359831.973785
-385737.627630
-413371.281475
-440364.935320
-460348.506478
-482990.160323
-506975.814168
-531729.468013
-557315.121858
-582900.775703
-608806.429548
-634904.083393
-662857.737238
-698073.308396
-721162.962241
-745852.616086
-770158.269931
-794719.923776
-820689.577620
-846659.231465
-873652.885310
-900774.539155
-952758.110313
-975847.764158
-1000281.418003
-1023691.071848
-1048956.725693
-1074414.379538
-1100832.033383
-1128849.687228
-1154883.341073
-1222482.912231
-1245316.566076
-1268662.219921
-1293863.873766
-1318745.527611
-1344651.181456
-1370172.835301
-1395886.489146
-1425312.142991
-1507823.714149
-1530593.367994
-1554323.021839
-1579076.675684
-1603638.329529
-1629543.983373
-1654745.637218
-1681995.291063
-1708796.944908
-1808396.516066
-1831230.169911
-1855343.823756
-1879457.477601
-1904915.131446
-1929732.785291
-1956918.439136
-1982824.092981
-2009817.746826
-2126633.317984
-2148634.971829
-2171788.625674
-2196542.279519
-2221231.933364
-2246177.587209
-2273299.241054
-2299780.894899
-2327030.548744
-2459078.119902
-2481271.773747
-2505449.427592
-2529435.081437
-2554444.735282
-2579134.389126
-2605616.042971
-2631713.696816
-2658131.350661
-2806946.921819
-2831316.575664
-2853766.229509
-2877687.883354
-2902377.537199
-2928795.191044
-2953484.844889
-2980030.498734
-3006256.152579
-3171327.723737
-3194801.377582
-3218147.031427
-3241428.685272
-3266822.339117
-3291703.992962
-3317609.646807
-3343899.300652
-3371212.954497
-3551772.525655
-3573966.179500
-3598335.833345
-3622385.487190
-3647011.141035
-3671252.794879
-3697542.448724
-3723512.102569
-3749865.756414
-3947321.327572
-3970410.981417
-3992924.635262
-4017294.289107
-4041727.942952
-4066289.596797
-4091171.250642
-4118228.904487
-4145030.558332
-4359190.129490
-4380871.783335
-4405113.437180
-4428011.091025
-4451740.744870
-4477646.398715
-4501760.052560
-4528881.706405
-4555683.360250
-4785266.931408
-4808484.585253
-4830102.239098
-4853511.892943
-4877817.546788
-4903275.200632
-4928220.854477
-4953934.508322
-4980992.162167
-5227151.733325
-5249153.387170
-5271795.041015
-5295588.694860
-5320086.348705
-5343432.002550
-5367993.656395
-5394667.310240
-5421468.964085
-5682284.535243
-5705182.189088
-5728271.842933
-5750785.496778
-5775347.150623
-5799844.804468
-5824470.458313
-5849864.112158
-5876089.766003
-6154953.337161
-6176634.991006
-6198956.644851
-6221470.298696
-6246351.952541
-6269953.606385
-6295155.260230
-6321252.914075
-6346262.567920
-6640742.139078
-6661975.792923
-6685065.446768
-6707579.100613
-6731820.754458
-6754718.408303
-6779920.062148
-6804801.715993
-6830899.369838
-7140354.940996
-7161972.594841
-7184358.248686
-7206551.902531
-7229705.556376
-7254523.210221
-7279020.864066
-7303902.517911
-7330320.171756
-7655327.742914
-7675793.396759
-7698243.050604
-7721524.704449
-7743846.358294
-7768280.012138
-7793033.665983
-7816955.319828
-7842284.973673
-8183996.544831
-8204014.198676
-8226655.852521
-8248785.506366
-8271875.160211
-8295348.814056
-8319718.467901
-8345304.121746
-8369737.775591
-8724953.346749
-8746187.000594
-8767996.654439
-8789870.308284
-8812639.962129
-8836625.615974
-8860163.269819
-8885364.923664
-8909222.577509
-9279862.148667
-9300775.802512
-9322073.456357
-9344395.110202
-9367164.764047
-9390958.417891
-9414880.071736
-9438033.725581
-9463235.379426
-9847634.950584
-9868996.604429
-9890166.258274
-9912103.912119
-9935001.565964
-9957771.219809
-9980796.873654
-10005230.527499
-10029216.181344
-10429039.752502
-10448865.406347
-10470675.060192
-10491844.714037
-10515062.367882
-10537320.021727
-10560665.675572
-10584907.329417
-10609468.983262
-11021836.554420
-11042174.208265
-11062255.862110
-11085473.515955
-11106835.169800
-11129156.823644
-11152758.477489
-11175848.131334
-11199705.785179
-11626857.356337
-11647707.010182
-11668044.664027
-11689790.317872
-11710895.971717
-11733473.625562
-11756499.279407
-11780036.933252
-11804086.587097
-12242758.158255
-12263223.812100
-12284841.465945
-12306459.119790
-12327500.773635
-12350270.427480
-12372016.081325
-12395617.735170
-12418963.389015
-12871714.960173
-12891284.614018
-12911558.267863
-12933559.921708
-12954537.575553
-12976603.229397
-12999628.883242
-13022270.537087
-13044656.190932
-13510911.762090
-13530929.415935
-13550499.069780
-13571604.723625
-13593542.377470
-13614328.031315
-13636521.685160
-13659227.339005
-13682828.992850
-14160860.564008
-14180302.217853
-14200383.871698
-14221937.525543
-14242339.179388
-14263060.833233
-14285702.487078
-14307640.140923
-14330473.794768
-14821113.365926
-14840683.019771
-14859868.673616
-14881102.327461
-14901631.981306
-14923057.635150
-14943907.288995
-14965972.942840
-14989510.596685
-15490454.167843
-15509703.821688
-15530425.475533
-15550251.129378
-15570844.783223
-15591630.437068
-15613696.090913
-15634993.744758
-15657123.398603
-16170354.969761
-16189796.623606
-16208534.277451
-16228359.931296
-16249465.585141
-16269611.238986
-16291740.892831
-16312462.546676
-16335424.200521
-16859599.771679
-16878721.425524
-16896819.079369
-16917028.733214
-16937110.387059
-16958152.040903
-16977977.694748
-17000043.348593
-17021149.002438
-17556460.573596
-17575006.227441
-17594703.881286
-17613889.535131
-17633459.188976
-17653988.842821
-17675286.496666
-17694600.150511
-17717817.804356
-18262537.375514
-18281659.029359
-18298860.683204
-18318750.337049
-18338767.990894
-18358721.644739
-18379443.298584
-18400292.952429
-18421270.606274
-18976422.177432
-18994519.831277
-19013961.485122
-19031931.138967
-19050796.792812
-19071390.446656
-19091920.100501
-19112193.754346
-19133171.408191
-19697730.979349
-19716276.633194
-19734438.287039
-19753239.940884
-19772489.594729
-19792123.248574
-19811500.902419
-19832286.556264
-19853648.210109
-20427039.781267
-20443665.435112
-20462275.088957
-20481396.742802
-20500838.396647
-20518936.050492
-20538889.704337
-20558843.358182
-20578989.012027
-21162364.583185
-21179630.237030
-21197535.890875
-21214737.544720
-21235395.198565
-21253236.852409
-21273446.506254
-21292376.160099
-21312521.813944
-21903449.385102
-21921419.038947
-21939068.692792
-21957742.346637
-21976224.000482
-21995345.654327
-22013187.308172
-22033396.962017
-22053542.615862
-22651510.187020
-22668839.840865
-22686745.494710
-22705419.148555
-22723132.802400
-22742062.456245
-22760672.110090
-22779601.763935
-22799683.417780
-23405778.988938
-23422596.642783
-23439734.296628
-23458663.950473
-23476057.604318
-23494027.258162
-23512636.912007
-23531630.565852
-23550240.219697
-24164207.790855
-24181345.444700
-24198803.098545
-24216260.752390
-24233142.406235
-24252456.060080
-24269913.713925
-24288651.367770
-24308093.021615
-24928396.592773
-24945662.246618
-24962351.900463
-24979361.554308
-24997715.208153
-25015428.861998
-25032438.515843
-25051368.169688
-25068889.823533
-25697705.394691
-25713115.048536
-25730700.702381
-25747070.356226
-25764912.010071
-25782241.663915
-25800275.317760
-25818180.971605
-25836086.625450
-26469766.196608
-26485495.850453
-26503785.504298
-26519579.158143
-26536268.811988
-26553534.465833
-26571696.119678
-26589153.773523
-26607635.427368
-27245602.998526
-27262676.652371
-27278150.306216
-27295863.960061
-27311593.613906
-27328859.267751
-27346060.921596
-27362942.575441
-27381616.229286
-28026623.800444
-28041713.454289
-28058467.108134
-28074644.761979
-28090950.415824
-28108024.069668
-28125993.723513
-28141915.377358
-28159757.031203
-28809180.602361
-28825422.256206
-28840959.910051
-28857713.563896
-28873187.217741
-28890068.871586
-28906758.525431
-28923576.179276
-28940265.833121
-29595449.404279
-29610795.058124
-29626844.711969
-29642126.365814
-29658688.019659
-29675121.673504
-29690595.327349
-29707284.981194
-29724358.635039
-30382358.206197
-30399239.860042
-30415033.513887
-30430443.167732
-30445404.821576
-30462094.475421
-30477952.129266
-30494513.783111
-30510435.436956
-31173235.008114
-31188708.661959
-31203862.315804
-31219719.969649
-31235641.623494
-31251115.277339
-31266716.931184
-31282638.585029
-31299456.238874
-31966223.810032
-31980353.463877
-31995635.117722
-32010596.771567
-32026326.425412
-32041288.079257
-32057721.733102
-32074283.386947
-32089053.040792
-32759596.611950
-32774366.265795
-32788367.919640
-32804289.573485
-32819251.227329
-32834468.881174
-32849814.535019
-32865288.188864
-32880953.842709
-33553993.413867
-33568315.067712
-33583148.721557
-33597534.375402
-33613008.029247
-33628097.683092
-33642291.336937
-33658788.990782
-33673302.644627
-34349158.215785
-34363991.869630
-34378121.523475
-34392507.177320
-34406892.831165
-34422558.485010
-34436880.138855
-34452097.792700
-34466867.446545
-35145475.017703
-35159028.671548
-35173606.325393
-35187927.979238
-35201545.633083
-35217275.286927
-35231276.940772
-35245726.594617
-35261392.248462
-35940319.819620
-35954513.473465
-35968963.127310
-35982836.781155
-35997414.435000
-36011800.088845
-36026505.742690
-36040507.396535
-36055469.050380
-36737596.621538
-36751534.275383
-36764639.929228
-36778513.583073
-36792131.236918
-36806452.890763
-36820838.544608
-36835032.198453
-36849033.852298
-37532761.423456
-37546635.077301
-37560188.731146
-37573742.384991
-37587488.038835
-37601233.692680
-37615043.346525
-37629301.000370
-37643366.654215
-38327990.225373
-38340455.879218
-38354777.533063
-38367883.186908
-38381500.840753
-38395566.494598
-38408480.148443
-38422161.802288
-38435971.456133
-39121235.027291
-39134468.681136
-39147830.334981
-39161255.988826
-39174553.642671
-39187723.296516
-39200956.950361
-39215022.604206
-39227616.258051
-39913647.829209
-39926625.483054
-39940307.136899
-39953540.790744
-39965750.444588
-39979496.098433
-39993625.752278
-40005387.406123
-40019517.059968
-40704972.631126
-40718526.284971
-40731439.938816
-40744033.592661
-40757459.246506
-40769092.900351
-40783158.554196
-40796008.208041
-40808793.861886
-41494825.433044
-41507419.086889
-41520652.740734
-41533438.394579
-41545968.048424
-41558881.702269
-41571603.356114
-41584645.009959
-41596470.663804
-42282630.234962
-42294583.888807
-42307497.542652
-42320219.196497
-42331404.850341
-42345470.504186
-42358192.158031
-42370913.811876
-42383443.465721
-43067939.036879
-43079892.690724
-43093062.344569
-43105079.998414
-43117609.652259
-43130075.306104
-43141964.959949
-43154878.613794
-43166576.267639
-43851007.838797
-43862833.492642
-43875619.146487
-43888084.800332
-43900038.454177
-43910648.108022
-43924009.761867
-43936155.415712
-43949005.069557
-44631644.640715
-44643662.294560
-44656255.948405
-44667633.602250
-44679395.256094
-44691284.909939
-44703814.563784
-44715064.217629
-44726825.871474
-45409081.442632
-45421675.096477
-45432860.750322
-45446030.404167
-45456512.058012
-45469041.711857
-45480547.365702
-45491989.019547
-45503686.673392
-46184726.244550
-46196423.898395
-46207673.552240
-46219691.206085
-46230812.859930
-46242702.513775
-46253952.167620
-46265713.821465
-46276899.475310
-46955315.046468
-46967524.700313
-46980054.354158
-46990920.008003
-47001529.661847
-47013035.315692
-47023708.969537
-47035918.623382
-47046784.277227
-47724687.848385
-47735809.502230
-47747123.156075
-47758564.809920
-47768726.463765
-47780360.117610
-47791097.771455
-47801899.425300
-47813917.079145
-48488748.650303
-48500830.304148
-48511887.957993
-48521473.611838
-48533363.265683
-48544868.919528
-48555414.573373
-48565512.227218
-48576377.881063
-49250057.452221
-49261115.106066
-49271980.759911
-49282462.413756
-49293968.067600
-49304577.721445
-49315251.375290
-49325861.029135
-49337302.682980
SCALARS stress_2 float
LOOKUP_TABLE default
124444.583415
-18327517.750347
-18051952.221175
-17775394.692003
-17496821.162831
-17216839.633659
-16935706.104487
-16653452.575315
-16370655.046143
-16086033.516971
-15800771.987799
-15514838.458627
-15227848.929455
-14940539.400283
-14652109.871111
-14362816.341939
-14073618.812767
-13783941.283595
-13493847.754423
-13203594.225251
-12913116.696079
-12623119.166907
-12332897.637735
-12042932.108563
-11753478.579391
-11464057.050219
-11175819.521046
-10887869.991874
-10601136.462702
-10314978.933530
-10029717.404358
-9746119.875186
-9463482.346014
-9182540.816842
-8902335.287670
-8624945.758498
-8349444.229326
-8076022.700154
-7803721.170982
-7533883.641810
-7267118.112638
-7003328.583466
-6740659.054294
-6482149.525122
-6225687.995950
-5972682.466778
-5723036.937606
-5476111.408434
-5233921.879262
-4994324.350090
-4758566.820918
-4527033.291746
-4299947.762574
-4076766.233402
-3857776.704230
-3642755.175058
-3433237.645886
-3226824.116714
-3026234.587542
-2830381.058370
-2639487.529198
-2452946.000026
-2272164.470854
-2096566.941682
-1925897.412510
-1760827.883338
-1601006.354166
-1447040.824994
-1298099.295822
-1155749.766649
-1017368.237477
-885706.708305
-759197.179133
-638063.649961
-523490.120789
-413972.591617
-310055.062445
-212345.533273
-119500.004101
-32670.474929
48463.054243
-17630737.527310
684552.806452
614395.277280
539053.748108
459008.218936
372274.689764
280581.160592
182295.631420
79018.102248
-30467.426924
-146064.956096
-267230.485268
-393708.014440
-526105.543612
-664327.072784
-807828.601956
-957730.131128
-1112815.660300
-1273053.189472
-1439690.718644
-1610776.247816
-1787653.776989
-1969939.306161
-2157344.835333
-2350254.364505
-2547163.893677
-2749129.422849
-2956566.952021
-3167780.481193
-3384018.010365
-3604607.539537
-3829101.068709
-4058330.597881
-4292136.127053
-4528533.656225
-4768995.185397
-5013232.714569
-5261790.243741
-5512843.772913
-5767129.302085
-6024902.831257
-6284948.360429
-6548577.889601
-6814735.418773
-7082748.947945
-7353802.477117
-7626936.006289
-7901541.535461
-8179219.064633
-8458624.593805
-8738990.122977
-9021691.652149
-9303977.181321
-9589718.710493
-9875844.239665
-10162353.768837
-10450879.298009
-10739276.827181
-11029018.356353
-11319047.885525
-11609557.414697
-11899714.943869
-12190960.473041
-12482686.002213
-12773067.531386
-13064121.060558
-13355142.589730
-13645428.118902
-13935521.648074
-14225135.177246
-14514012.706418
-14802442.235590
-15089687.764762
-15376037.293934
-15661874.823106
-15946624.352278
-16230541.881450
-16513371.410622
-16794472.939794
-17074710.468966
-17352995.998138
-17700713.149614
-17770720.771917
-17840376.394221
-17909520.016525
-17979847.638828
-18049407.261132
-18118582.883436
-18188590.505740
-18258278.128043
181780.205718
239051.828022
294915.450326
350779.072630
407666.694933
462730.317237
518881.939541
574329.561845
629585.184148
558787.654976
503116.032672
447796.410369
390940.788065
335077.165761
277581.543458
221141.921154
163934.298850
106022.676546
483350.125804
427358.503500
370054.881197
313455.258893
256631.636589
198848.014286
141256.391982
84112.769678
25529.147374
402504.596632
345456.974328
287289.352025
230337.729721
172522.107417
114450.485114
56378.862810
-2620.759494
-60788.381798
315291.067460
257187.445156
199051.822853
141556.200549
83260.578245
24740.955942
-34642.666362
-93482.288666
-152641.910970
222509.538288
163477.915984
106078.293681
46726.671377
-11888.950927
-71016.573230
-130816.195534
-190647.817838
-250671.440142
123520.009116
65256.386812
6128.764509
-52902.857795
-112702.480099
-172662.102402
-232813.724706
-292965.347010
-353500.969314
19602.479944
-39461.142360
-99004.764663
-159444.386967
-218828.009271
-279459.631575
-340475.253878
-401426.876182
-461866.498486
-90235.049228
-150514.671532
-210122.293835
-270721.916139
-331193.538443
-392465.160747
-453288.783050
-515360.405354
-576632.027658
-205608.578400
-266720.200704
-326551.823007
-388335.445311
-449191.067615
-511294.689919
-572342.312222
-634637.934526
-696997.556830
-327126.107572
-388045.729876
-450117.352179
-510812.974483
-573556.596787
-635436.219091
-697411.841394
-759643.463698
-822803.086002
-454403.636744
-515995.259048
-578098.881351
-640170.503655
-702306.125959
-765433.748263
-828273.370566
-891176.992870
-954048.615174
-587793.165916
-649992.788220
-712448.410523
-774872.032827
-837871.655131
-900359.277435
-963518.899738
-1027158.522042
-1090542.144346
-726334.695088
-789014.317392
-852141.939695
-914565.561999
-977917.184303
-1042100.806607
-1105324.428910
-1169892.051214
-1233371.673518
-870988.224260
-933859.846564
-997435.468868
-1060531.091171
-1124458.713475
-1188674.335779
-1252825.958082
-1317617.580386
-1382025.202690
-1020729.753432
-1084401.375736
-1147976.998040
-1211680.620343
-1276856.242647
-1340719.864951
-1405031.487254
-1471487.109558
-1536246.731862
-1176071.282604
-1240638.904908
-1305078.527212
-1368846.149515
-1433701.771819
-1498781.394123
-1564085.016426
-1630092.638730
-1694724.261034
-1337588.811776
-1402444.434080
-1466436.056384
-1531579.678687
-1596563.300991
-1662346.923295
-1727778.545598
-1793946.167902
-1859729.790206
-1504482.340948
-1568633.963252
-1633745.585556
-1699689.207859
-1764704.830163
-1830936.452467
-1896976.074770
-1963175.697074
-2029727.319378
-1675919.870120
-1741639.492424
-1806879.114728
-1872822.737031
-1938734.359335
-2005349.981639
-2071485.603943
-2138549.226246
-2205516.848550
-1853469.399292
-1918837.021596
-1985196.643900
-2051652.266203
-2117979.888507
-2185075.510811
-2251467.133115
-2317794.755418
-2385818.377722
-2036426.928464
-2102242.550768
-2168346.173072
-2234961.795375
-2302057.417679
-2368705.039983
-2435992.662287
-2503312.284590
-2571463.906894
-2223672.457636
-2290032.079940
-2357095.702244
-2424095.324547
-2491094.946851
-2558702.569155
-2626214.191459
-2693821.813762
-2761429.436066
-2416165.986808
-2483517.609112
-2550453.231416
-2617516.853719
-2685380.476023
-2753244.098327
-2820883.720631
-2889675.342934
-2958178.965238
-2614419.515980
-2681611.138284
-2749058.760588
-2816922.382891
-2884178.005195
-2952745.627499
-3020801.249803
-3089784.872106
-3158128.494410
-2816225.045152
-2884184.667456
-2952432.289760
-3020071.912063
-3088159.534367
-3156951.156671
-3225198.778975
-3294086.401278
-3363134.023582
-3023630.574324
-3091526.196628
-3159901.818932
-3228661.441236
-3297005.063539
-3365956.685843
-3434716.308147
-3503987.930450
-3573387.552754
-3235612.103496
-3303891.725800
-3372395.348104
-3441346.970408
-3510586.592711
-3579058.215015
-3648425.837319
-3717921.459622
-3787577.081926
-3452745.632668
-3520961.254972
-3590168.877276
-3658416.499580
-3727976.121883
-3797663.744187
-3866327.366491
-3936046.988794
-4007014.611098
-3673143.161840
-3741518.784144
-3811718.406448
-3880510.028752
-3949493.651055
-4019053.273359
-4089284.895663
-4159068.517966
-4229236.140270
-3898212.691012
-3967004.313316
-4036787.935620
-4106923.557924
-4175715.180227
-4245914.802531
-4315986.424835
-4386346.047138
-4456705.669442
-4127506.220184
-4196937.842488
-4266401.464792
-4336665.087096
-4406224.709399
-4476616.331703
-4546495.954007
-4617463.576311
-4688431.198614
-4361119.749357
-4430711.371660
-4500590.993964
-4570630.616268
-4640702.238571
-4711061.860875
-4781229.483179
-4852485.105483
-4923868.727786
-4597997.278529
-4668100.900832
-4738076.523136
-4808660.145440
-4878891.767743
-4949635.390047
-5020507.012351
-5091282.634655
-5162410.256958
-4839610.807701
-4909170.430004
-4979850.052308
-5050401.674612
-5120953.296915
-5191344.919219
-5262600.541523
-5333600.163827
-5405143.786130
-5083432.336873
-5154687.959176
-5224503.581480
-5295727.203784
-5365958.826087
-5437470.448391
-5508822.070695
-5579885.692999
-5650981.315302
-5331701.866045
-5402573.488348
-5473669.110652
-5543740.732956
-5615316.355259
-5685899.977563
-5757155.599867
-5829211.222171
-5900498.844474
-5583043.395217
-5654171.017520
-5724466.639824
-5795818.262128
-5867457.884431
-5938681.506735
-6010225.129039
-6081800.751343
-6153408.373646
-5838544.924389
-5908680.546692
-5980064.168996
-6050807.791300
-6122287.413604
-6194119.035907
-6265694.658211
-6337750.280515
-6409485.902818
-6096158.453561
-6167286.075864
-6237773.698168
-6309285.320472
-6381052.942776
-6452564.565079
-6524364.187383
-6596291.809687
-6668475.431990
-6356363.982733
-6427555.605036
-6498587.227340
-6570674.849644
-6641994.471948
-6713762.094251
-6786265.716555
-6858001.338859
-6930152.961162
-6619993.511905
-6691089.134208
-6762504.756512
-6834240.378816
-6906552.001120
-6977807.623423
-7050215.245727
-7121918.868031
-7194966.490334
-6886055.041077
-6957278.663380
-7028886.285684
-7100845.907988
-7172805.530292
-7244989.152595
-7317172.774899
-7389388.397203
-7461796.019506
-7154292.570249
-7226124.192552
-7297795.814856
-7369371.437160
-7441555.059464
-7513866.681767
-7586210.304071
-7658617.926375
-7731281.548678
-7424834.099421
-7496857.721724
-7568945.344028
-7640456.966332
-7713216.588636
-7785784.210939
-7857327.833243
-7929991.455547
-8002879.077851
-7698607.628593
-7770311.250897
-7842238.873200
-7914422.495504
-7986446.117808
-8059269.740111
-8131325.362415
-8204532.984719
-8276972.607023
-7973437.157765
-8045428.780069
-8117868.402372
-8189796.024676
-8262075.646980
-8334867.269283
-8407274.891587
-8479810.513891
-8552634.136195
-8251498.686937
-8322914.309241
-8395225.931544
-8467153.553848
-8539785.176152
-8612064.798455
-8684728.420759
-8757552.043063
-8830055.665367
-8529720.216109
-8601903.838413
-8674151.460716
-8746495.083020
-8818838.705324
-8891918.327627
-8964133.949931
-9036957.572235
-9109557.194539
-8810853.745281
-8883101.367585
-8954804.989888
-9027884.612192
-9099652.234496
-9172123.856799
-9245459.479103
-9317163.101407
-9390594.723711
-9092723.274453
-9164554.896757
-9237826.519060
-9310138.141364
-9382001.763668
-9454985.385972
-9527585.008275
-9599864.630579
-9673040.252883
-9376512.803625
-9448984.425929
-9520880.048232
-9593415.670536
-9665759.292840
-9739254.915144
-9811566.537447
-9884230.159751
-9957149.782055
-9661198.332797
-9733957.955101
-9805917.577404
-9879189.199708
-9951244.822012
-10023396.444316
-10095804.066619
-10169235.688923
-10241867.311227
-9947803.861969
-10020275.484273
-10092555.106576
-10165026.728880
-10237082.351184
-10309521.973488
-10382505.595791
-10455201.218095
-10527896.840399
-10235369.391141
-10306913.013445
-10379704.635748
-10451760.258052
-10524263.880356
-10596831.502660
-10669847.124963
-10742510.747267
-10814918.369571
-10523318.920313
-10595214.542617
-10666790.164920
-10740221.787224
-10812373.409528
-10885197.031832
-10957252.654135
-11030492.276439
-11103155.898743
-10811556.449485
-10883900.071789
-10956243.694092
-11028875.316396
-11101506.938700
-11173498.561004
-11246322.183307
-11318409.805611
-11391713.427915
-11101009.978657
-11173417.600961
-11246145.223265
-11318360.845568
-11390736.467872
-11462792.090176
-11535999.712479
-11608087.334783
-11681006.957087
-11391071.507829
-11463127.130133
-11535406.752437
-11608006.374740
-11680189.997044
-11752533.619348
-11825581.241651
-11897092.863955
-11970396.486259
-11681901.037001
-11754084.659305
-11826332.281609
-11898579.903912
-11970379.526216
-12043299.148520
-12115738.770823
-12187410.393127
-12260810.015431
-11972058.566173
-12044946.188477
-12116329.810781
-12188577.433084
-12261785.055388
-12333424.677692
-12405544.299995
-12478495.922299
-12550135.544603
-12263336.095345
-12335455.717649
-12407735.339953
-12479406.962256
-12551366.584560
-12623806.206864
-12696309.829167
-12768269.451471
-12840901.073775
-12553973.624517
-12626061.246821
-12698500.869125
-12770428.491428
-12842132.113732
-12914859.736036
-12986691.358340
-13059482.980643
-13131250.602947
-12845283.153689
-12917722.775993
-12989362.398297
-13060906.020600
-13133153.642904
-13205657.265208
-13277040.887512
-13349704.509815
-13421440.132119
-13136272.682861
-13208136.305165
-13279743.927469
-13351607.549772
-13423311.172076
-13495718.794380
-13567998.416684
-13640278.038987
-13711917.661291
-13426558.212033
-13498325.834337
-13570157.456641
-13641989.078944
-13714140.701248
-13786036.323552
-13857675.945856
-13930051.568159
-14001499.190463
-13717131.741205
-13788803.363509
-13860058.985813
-13932626.608116
-14004010.230420
-14075713.852724
-14147353.475028
-14219025.097331
-14291304.719635
-14006937.270377
-14078736.892681
-14150088.514985
-14221952.137288
-14293175.759592
-14365615.381896
-14437223.004200
-14508158.626503
-14579894.248807
-14296006.799549
-14367806.421853
-14439094.044157
-14510989.666460
-14582661.288764
-14653724.911068
-14725396.533372
-14797452.155675
-14868387.777979
-14585044.328721
-14656363.951025
-14728067.573329
-14798875.195633
-14871026.817936
-14941866.440240
-15013602.062544
-15084697.684847
-15155953.307151
-14873217.857893
-14944697.480197
-15015857.102501
-15087208.724805
-15158304.347108
-15229207.969412
-15300815.591716
-15372551.214019
-15443838.836323
-15160847.387065
-15232295.009369
-15302942.631673
-15374390.253977
-15445325.876280
-15516229.498584
-15587741.120888
-15658900.743191
-15730124.365495
-15447132.916237
-15517940.538541
-15589260.160845
-15660515.783149
-15731195.405452
-15802675.027756
-15873226.650060
-15944610.272363
-16015481.894667
-15733162.445409
-15803458.067713
-15874521.690017
-15945617.312321
-16016712.934624
-16086880.556928
-16158264.179232
-16228815.801535
-16299847.423839
-16017399.974581
-16088463.596885
-16159111.219189
-16229374.841493
-16300470.463796
-16371278.086100
-16441765.708404
-16512829.330707
-16583348.953011
-16301253.503753
-16371773.126057
-16442612.748361
-16513132.370665
-16583619.992968
-16654203.615272
-16724787.237576
-16795274.859880
-16865570.482183
-16583347.032926
-16654122.655229
-16724386.277533
-16794905.899837
-16865265.522140
-16935369.144444
-17005696.766748
-17076376.389052
-17146576.011355
-16864576.562098
-16934968.184401
-17004911.806705
-17075079.429009
-17145727.051312
-17215734.673616
-17286318.295920
-17355781.918224
-17426045.540527
-17144878.091270
-17215013.713573
-17284765.335877
-17355092.958181
-17425036.580484
-17494884.202788
-17565499.825092
-17634931.447396
-17705227.069699
-17423835.620442
-17493075.242745
-17563402.865049
-17633666.487353
-17702362.109656
-17772401.731960
-17842473.354264
-17912096.976568
-17982296.598871
SCALARS stress_3 float
LOOKUP_TABLE default
176652.454114
12885427.721700
12701994.955855
12518348.190010
12332557.424165
12147430.658321
11960827.892476
11772119.126631
11583494.360786
11394139.594941
11204178.829096
11013030.063252
10822363.297407
10629566.531562
10435861.765717
10243272.999872
10049518.234028
9855163.468183
9661294.702338
9466405.936493
9270827.170648
9075282.404803
8880245.638959
8686210.873114
8491270.107269
8296355.341424
8100852.575579
7907711.809735
7711967.043890
7519522.278045
7326453.512200
7133444.746355
6942031.980510
6751979.214666
6561326.448821
6373057.682976
6184094.917131
5996838.151286
5812099.385442
5627204.619597
5444729.853752
5263111.087907
5083402.322062
4905081.556218
4728678.790373
4554558.024528
4382835.258683
4211422.492838
4043049.726993
3877130.961149
3713352.195304
3551953.429459
3392722.663614
3236661.897769
3083021.131925
2931618.366080
2783007.600235
2638796.834390
2496928.068545
2357835.302700
2222334.536856
2088245.771011
1959341.005166
1832892.239321
1711109.473476
1591664.707632
1475105.941787
1362069.175942
1254546.410097
1149157.644252
1047702.878407
949816.112563
855701.346718
765072.580873
678439.815028
595271.049183
515854.283339
440367.517494
368588.751649
300211.985804
235681.219959
12724824.251593
-102149.015993
-41920.250148
21198.515697
87449.281542
158988.047387
233726.813231
312813.579076
395512.344921
482201.110766
572831.876611
667166.642455
764609.408300
866690.174145
971714.939990
1081363.705835
1193704.471680
1309473.237524
1430480.003369
1553624.769214
1681115.535059
1810344.300904
1945621.066748
2082383.832593
2223126.598438
2365637.364283
2512078.130128
2661292.895973
2814075.661817
2969152.427662
3127035.193507
3287265.959352
3450310.725197
3616143.491041
3783042.256886
3954009.022731
4126571.788576
4300674.554421
4477045.320266
4656478.086110
4835548.851955
5016925.617800
5201242.383645
5386799.149490
5572473.915334
5760506.681179
5949463.447024
6138464.212869
6331236.978714
6522891.744559
6715776.510403
6909825.276248
7103936.042093
7299584.807938
7496179.573783
7692194.339627
7887451.105472
8085337.871317
8281818.637162
8480459.403007
8676770.168852
8874286.934696
9071729.700541
9267664.466386
9465277.232231
9663089.998076
9858870.763920
10054475.529765
10249682.295610
10445581.061455
10639271.827300
10832508.593145
11025619.358989
11218414.124834
11409956.890679
11599745.656524
11790614.422369
11979249.188213
12167229.954058
12354242.719903
12539697.485748
12740318.198603
12757446.145614
12773828.092625
12789646.039636
12805921.986646
12821531.933657
12838147.880668
12854527.827678
12870209.774689
147660.507104
119938.560093
91302.613082
64202.666072
35810.719061
8382.772050
-19871.174961
-47491.121971
-74089.068982
-14336.303137
12223.643874
40643.590884
67617.537895
96291.484906
124449.431916
152233.378927
180267.325938
208187.272949
47588.462708
76620.409718
103700.356729
130968.303740
159610.250751
187894.197761
216072.144772
244272.091783
272542.038793
116565.228552
143509.175563
171577.122574
199321.069585
227035.016595
255840.963606
282906.910617
311498.857627
339624.804638
187103.994397
215601.941408
242717.888419
271127.835429
297699.782440
326705.729451
355845.676462
383219.623472
411721.570483
261734.760242
289068.707253
318026.654264
345510.601274
373806.548285
402746.495296
430438.442306
459046.389317
487182.336328
341727.526087
368877.473098
396691.420108
424751.367119
453467.314130
481369.261141
509779.208151
537449.155162
567039.102173
423786.291932
451436.238942
479074.185953
507704.132964
535710.079975
564696.026985
593887.973996
621081.921007
649171.868017
509637.057777
538333.004787
566210.951798
594366.898809
621906.845819
650580.792830
679092.739841
707940.686852
735890.633862
600227.823621
627823.770632
656677.717643
684071.664654
712653.611664
740839.558675
769715.505686
798513.452696
826813.399707
694754.589466
722850.536477
751110.483488
778610.430498
807206.377509
835378.324520
864068.271530
891586.218541
920634.165552
792135.355311
820235.302322
849301.249332
876281.196343
905813.143354
933815.090365
961871.037375
989420.984386
1018092.931397
895032.121156
921920.068167
950446.015177
978687.962188
1006969.909199
1034791.856209
1063003.803220
1092531.750231
1119499.697242
1000332.887001
1027268.834011
1055948.781022
1083966.728033
1111252.675044
1140004.622054
1169312.569065
1197280.516076
1225168.463086
1109069.652845
1136965.599856
1163535.546867
1192423.493878
1220659.440888
1249223.387899
1277397.334910
1304989.281920
1334243.228931
1222242.418690
1249960.365701
1276784.312712
1306318.259722
1332756.206733
1360906.153744
1390102.100755
1417490.047765
1446785.994776
1337709.184535
1365609.131546
1393833.078557
1421207.025567
1450136.972578
1477476.919589
1505800.866599
1533538.813610
1562626.760621
1458559.950380
1485509.897391
1513377.844401
1540519.791412
1569397.738423
1598483.685434
1626173.632444
1653225.579455
1682093.526466
1581292.716225
1609474.663235
1636044.610246
1664760.557257
1692934.504268
1721094.451278
1748882.398289
1777044.345300
1804764.292310
1707041.482070
1735197.429080
1763675.376091
1790099.323102
1819549.270112
1846881.217123
1874481.164134
1902473.111145
1932107.058155
1838304.247914
1866346.194925
1893904.141936
1921222.088947
1949776.035957
1976543.982968
2004735.929979
2032693.876989
2060591.824000
1971943.013759
1999984.960770
2027766.907781
2053944.854791
2082614.801802
2110120.748813
2137856.695823
2166016.642834
2193196.589845
2109363.779604
2137147.726615
2164559.673625
2190781.620636
2218151.567647
2246091.514658
2273813.461668
2302289.408679
2328853.355690
2249500.545449
2276572.492460
2304014.439470
2330938.386481
2358238.333492
2386748.280502
2413294.227513
2442028.174524
2469674.121535
2392985.311294
2419581.258304
2446767.205315
2474309.152326
2501727.099337
2528201.046347
2556006.993358
2583288.940369
2611040.887379
2539014.077138
2565522.024149
2593769.971160
2619751.918171
2647483.865181
2673991.812192
2701903.759203
2729697.706213
2756759.653224
2688168.842983
2715472.789994
2741824.737005
2769248.684015
2796372.631026
2823684.578037
2850322.525048
2877426.472058
2905192.419069
2840497.608828
2867443.555839
2892715.502850
2920567.449860
2947155.396871
2973447.343882
3001341.290892
3028183.237903
3055275.184914
2995428.374673
3021960.321684
3048104.268694
3076026.215705
3101674.162716
3128686.109726
3155232.056737
3182468.003748
3209415.950759
3153037.140518
3178679.087528
3206073.034539
3232578.981550
3259206.928561
3285500.875571
3312292.822582
3339208.769593
3365142.716603
3313053.906363
3340205.853373
3365627.800384
3392869.747395
3418837.694405
3445057.641416
3471749.588427
3498521.535438
3524599.482448
3476652.672207
3502254.619218
3528136.566229
3556072.513240
3581836.460250
3606798.407261
3634074.354272
3659906.301282
3685722.248293
3642081.438052
3668389.385063
3693371.332074
3719453.279084
3745779.226095
3771599.173106
3797759.120116
3823779.067127
3850391.014138
3809136.203897
3835250.150908
3862048.097918
3886088.044929
3912961.991940
3939297.938951
3964623.885961
3990299.832972
4016973.779983
3978936.969742
4004898.916753
4031022.863763
4055142.810774
4081918.757785
4108306.704795
4133212.651806
4159658.598817
4185504.545828
4152335.735587
4177019.682597
4201541.629608
4227875.576619
4253043.523629
4279433.470640
4304709.417651
4330197.364662
4355867.311672
4326532.501431
4350668.448442
4376534.395453
4402096.342464
4426958.289474
4451372.236485
4476668.183496
4503500.130506
4528354.077517
4501481.267276
4527241.214287
4551491.161298
4578897.108308
4601339.055319
4626897.002330
4652966.949341
4678428.896351
4702694.843362
4680884.033121
4705295.980132
4729203.927143
4754613.874153
4779677.821164
4804659.768175
4829117.715185
4854907.662196
4879745.609207
4860188.798966
4884678.745977
4909352.692987
4933382.639998
4958568.587009
4983962.534019
5008132.481030
5033826.428041
5058698.375052
5041845.564811
5066273.511821
5090515.458832
5115521.405843
5140227.352854
5164039.299864
5189289.246875
5213361.193886
5238147.140896
5225436.330656
5249580.277666
5274306.224677
5297784.171688
5321646.118698
5345706.065709
5371456.012720
5395505.959731
5419987.906741
5409407.096500
5434233.043511
5458078.990522
5482358.937532
5506270.884543
5530296.831554
5554752.778565
5578852.725575
5603088.672586
5596439.862345
5620605.809356
5643147.756367
5668061.703377
5691411.650388
5716573.597399
5739139.544409
5763565.491420
5787825.438431
5782930.628190
5807798.575201
5831158.522211
5854248.469222
5878380.416233
5901438.363244
5925986.310254
5949634.257265
5973696.204276
5972883.394035
5995413.341046
6019691.288056
6042657.235067
6065981.182078
6089887.129088
6113623.076099
6137463.023110
6161028.970121
6161602.159880
6186092.106890
6209182.053901
6232602.000912
6255697.947922
6279065.894933
6303533.841944
6325347.788955
6348649.735965
6353172.925724
6376392.872735
6399196.819746
6422566.766757
6445280.713767
6469010.660778
6491076.607789
6514802.554799
6538198.501810
6545817.691569
6568859.638580
6590849.585591
6613879.532601
6636677.479612
6659211.426623
6682003.373634
6705295.320644
6728563.267655
6739214.457414
6761568.404425
6782574.351435
6806838.298446
6828760.245457
6851432.192468
6875016.139478
6896828.086489
6919976.033500
6932499.223259
6955489.170270
6976527.117280
6999197.064291
7022457.011302
7044526.958312
7066842.905323
7089922.852334
7111156.799345
7126239.989104
7148211.936114
7170209.883125
7193005.830136
7215173.777147
7237271.724157
7260087.671168
7281659.618179
7304235.565189
7322366.754949
7343470.701959
7365590.648970
7387128.595981
7409478.542991
7430830.490002
7453044.437013
7476128.384024
7497482.331034
7516697.520793
7537677.467804
7560587.414815
7582343.361825
7603711.308836
7626159.255847
7647185.202858
7669021.149868
7690697.096879
7712922.286638
7734068.233649
7756148.180660
7777788.127670
7799104.074681
7820308.021692
7842705.968702
7864431.915713
7885739.862724
7909849.052483
7931216.999494
7952578.946504
7974102.893515
7995332.840526
8016798.787537
8036200.734547
8058566.681558
8079728.628569
8106221.818328
8127761.765339
8149203.712349
8169713.659360
8190209.606371
8212299.553381
8233059.500392
8253917.447403
8275583.394414
8303360.584173
8323606.531183
8345386.478194
8365522.425205
8386712.372215
8407712.319226
8428154.266237
8449282.213248
8470108.160258
8500539.350017
8520727.297028
8542127.244039
8563127.191050
8582799.138060
8603209.085071
8624503.032082
8645392.979092
8665650.926103
8697994.115862
8718720.062873
8737622.009884
8758849.956894
8778901.903905
8799483.850916
8819931.797927
8840295.744937
8860983.691948
8895286.881707
8915090.828718
8935670.775728
8955854.722739
8975968.669750
8996234.616761
9015016.563771
9036048.510782
9055192.457793
9092409.647552
9112233.594563
9131253.541573
9150611.488584
9171767.435595
9191861.382605
9211145.329616
9231541.276627
9250785.223638
9288922.413397
9308056.360407
9327932.307418
9348044.254429
9367612.201440
9387506.148450
9407578.095461
9426730.042472
9446645.989482
9485829.179242
9505079.126252
9523917.073263
9544003.020274
9563086.967284
9583238.914295
9603690.861306
9621904.808317
9641744.755327
9681969.945086
9700919.892097
9720661.839108
9740047.786118
9759719.733129
9778135.680140
9797199.627151
9817537.574161
9835541.521172
9878502.710931
9897178.657942
9915804.604953
9935266.551963
9954234.498974
9973368.445985
9991458.392995
10011466.340006
10030900.287017
10074151.476776
10093159.423787
10111669.370797
10129257.317808
10149899.264819
10168395.211830
10186597.158840
10205875.105851
10224523.052862
10269622.242621
10287450.189631
10305672.136642
10325108.083653
10343590.030664
10361707.977674
10380801.924685
10399517.871696
10417719.818706
10463687.008466
10482010.955476
10500858.902487
10519360.849498
10537432.796508
10556142.743519
10574780.690530
10592444.637541
10610686.584551
10657725.774310
10675367.721321
10694571.668332
10712465.615343
10731083.562353
10749193.509364
10767529.456375
10784259.403385
10803207.350396
10850736.540155
10869336.487166
10886524.434177
10905292.381187
10923278.328198
10942830.275209
10958896.222220
10977866.169230
10995154.116241
11043405.306000
11061607.253011
11079499.200021
11098359.147032
11116753.094043
11133149.041054
11151272.988064
11169180.935075
11186350.882086
11235876.071845
11253714.018856
11271049.965866
11288597.912877
11306307.859888
11324905.806898
11341989.753909
11358863.700920
11376183.647931
11427542.837690
11445050.784700
11462888.731711
11480580.678722
11497690.625733
11514536.572743
11531978.519754
11548342.466765
11565794.413775
11617515.603534
11634795.550545
11653207.497556
11670081.444567
11687159.391577
11703807.338588
11720801.285599
11738999.232609
11755181.179620
11808518.369379
11824906.316390
11841814.263401
11859184.210411
11876180.157422
11893082.104433
11909294.051444
11926845.998454
11942455.945465
11996023.135224
12013865.082235
12030539.029246
12048324.976256
12063620.923267
12080328.870278
12096854.817288
12114516.764299
12130580.711310
12183641.901069
12201147.848080
12217305.795090
12234649.742101
12250613.689112
12267353.636123
12284905.583133
12300239.530144
12316909.477155
12370204.666914
12387960.613924
12403658.560935
12420556.507946
12437226.454957
12453440.401967
12469550.348978
12485910.295989
12501658.242999
12557163.432759
12573225.379769
12589111.326780
12605207.273791
12621909.220801
12638705.167812
12654419.114823
12670637.061834
12686221.008844
