# vtk DataFile Version 2.0
Generated volume Mesh
ASCII
DATASET UNSTRUCTURED_GRID
POINTS 891 float
0.005000 0.100000 0.000000
0.005000 0.000000 0.000000
0.005000 0.001250 0.000000
0.005000 0.002500 0.000000
0.005000 0.003750 0.000000
0.005000 0.005000 0.000000
0.005000 0.006250 0.000000
0.005000 0.007500 0.000000
0.005000 0.008750 0.000000
0.005000 0.010000 0.000000
0.005000 0.011250 0.000000
0.005000 0.012500 0.000000
0.005000 0.013750 0.000000
0.005000 0.015000 0.000000
0.005000 0.016250 0.000000
0.005000 0.017500 0.000000
0.005000 0.018750 0.000000
0.005000 0.020000 0.000000
0.005000 0.021250 0.000000
0.005000 0.022500 0.000000
0.005000 0.023750 0.000000
0.005000 0.025000 0.000000
0.005000 0.026250 0.000000
0.005000 0.027500 0.000000
0.005000 0.028750 0.000000
0.005000 0.030000 0.000000
0.005000 0.031250 0.000000
0.005000 0.032500 0.000000
0.005000 0.033750 0.000000
0.005000 0.035000 0.000000
0.005000 0.036250 0.000000
0.005000 0.037500 0.000000
0.005000 0.038750 0.000000
0.005000 0.040000 0.000000
0.005000 0.041250 0.000000
0.005000 0.042500 0.000000
0.005000 0.043750 0.000000
0.005000 0.045000 0.000000
0.005000 0.046250 0.000000
0.005000 0.047500 0.000000
0.005000 0.048750 0.000000
0.005000 0.050000 0.000000
0.005000 0.051250 0.000000
0.005000 0.052500 0.000000
0.005000 0.053750 0.000000
0.005000 0.055000 0.000000
0.005000 0.056250 0.000000
0.005000 0.057500 0.000000
0.005000 0.058750 0.000000
0.005000 0.060000 0.000000
0.005000 0.061250 0.000000
0.005000 0.062500 0.000000
0.005000 0.063750 0.000000
0.005000 0.065000 0.000000
0.005000 0.066250 0.000000
0.005000 0.067500 0.000000
0.005000 0.068750 0.000000
0.005000 0.070000 0.000000
0.005000 0.071250 0.000000
0.005000 0.072500 0.000000
0.005000 0.073750 0.000000
0.005000 0.075000 0.000000
0.005000 0.076250 0.000000
0.005000 0.077500 0.000000
0.005000 0.078750 0.000000
0.005000 0.080000 0.000000
0.005000 0.081250 0.000000
0.005000 0.082500 0.000000
0.005000 0.083750 0.000000
0.005000 0.085000 0.000000
0.005000 0.086250 0.000000
0.005000 0.087500 0.000000
0.005000 0.088750 0.000000
0.005000 0.090000 0.000000
0.005000 0.091250 0.000000
0.005000 0.092500 0.000000
0.005000 0.093750 0.000000
0.005000 0.095000 0.000000
0.005000 0.096250 0.000000
0.005000 0.097500 0.000000
0.005000 0.098750 0.000000
0.000000 0.000000 0.000000
0.000000 0.100000 0.000000
0.000000 0.098750 0.000000
0.000000 0.097500 0.000000
0.000000 0.096250 0.000000
0.000000 0.095000 0.000000
0.000000 0.093750 0.000000
0.000000 0.092500 0.000000
0.000000 0.091250 0.000000
0.000000 0.090000 0.000000
0.000000 0.088750 0.000000
0.000000 0.087500 0.000000
0.000000 0.086250 0.000000
0.000000 0.085000 0.000000
0.000000 0.083750 0.000000
0.000000 0.082500 0.000000
0.000000 0.081250 0.000000
0.000000 0.080000 0.000000
0.000000 0.078750 0.000000
0.000000 0.077500 0.000000
0.000000 0.076250 0.000000
0.000000 0.075000 0.000000
0.000000 0.073750 0.000000
0.000000 0.072500 0.000000
0.000000 0.071250 0.000000
0.000000 0.070000 0.000000
0.000000 0.068750 0.000000
0.000000 0.067500 0.000000
0.000000 0.066250 0.000000
0.000000 0.065000 0.000000
0.000000 0.063750 0.000000
0.000000 0.062500 0.000000
0.000000 0.061250 0.000000
0.000000 0.060000 0.000000
0.000000 0.058750 0.000000
0.000000 0.057500 0.000000
0.000000 0.056250 0.000000
0.000000 0.055000 0.000000
0.000000 0.053750 0.000000
0.000000 0.052500 0.000000
0.000000 0.051250 0.000000
0.000000 0.050000 0.000000
0.000000 0.048750 0.000000
0.000000 0.047500 0.000000
0.000000 0.046250 0.000000
0.000000 0.045000 0.000000
0.000000 0.043750 0.000000
0.000000 0.042500 0.000000
0.000000 0.041250 0.000000
0.000000 0.040000 0.000000
0.000000 0.038750 0.000000
0.000000 0.037500 0.000000
0.000000 0.036250 0.000000
0.000000 0.035000 0.000000
0.000000 0.033750 0.000000
0.000000 0.032500 0.000000
0.000000 0.031250 0.000000
0.000000 0.030000 0.000000
0.000000 0.028750 0.000000
0.000000 0.027500 0.000000
0.000000 0.026250 0.000000
0.000000 0.025000 0.000000
0.000000 0.023750 0.000000
0.000000 0.022500 0.000000
0.000000 0.021250 0.000000
0.000000 0.020000 0.000000
0.000000 0.018750 0.000000
0.000000 0.017500 0.000000
0.000000 0.016250 0.000000
0.000000 0.015000 0.000000
0.000000 0.013750 0.000000
0.000000 0.012500 0.000000
0.000000 0.011250 0.000000
0.000000 0.010000 0.000000
0.000000 0.008750 0.000000
0.000000 0.007500 0.000000
0.000000 0.006250 0.000000
0.000000 0.005000 0.000000
0.000000 0.003750 0.000000
0.000000 0.002500 0.000000
0.000000 0.001250 0.000000
0.000500 0.000000 0.000000
0.001000 0.000000 0.000000
0.001500 0.000000 0.000000
0.002000 0.000000 0.000000
0.002500 0.000000 0.000000
0.003000 0.000000 0.000000
0.003500 0.000000 0.000000
0.004000 0.000000 0.000000
0.004500 0.000000 0.000000
0.004500 0.100000 0.000000
0.004000 0.100000 0.000000
0.003500 0.100000 0.000000
0.003000 0.100000 0.000000
0.002500 0.100000 0.000000
0.002000 0.100000 0.000000
0.001500 0.100000 0.000000
0.001000 0.100000 0.000000
0.000500 0.100000 0.000000
0.000500 0.098750 0.000000
0.001000 0.098750 0.000000
0.001500 0.098750 0.000000
0.002000 0.098750 0.000000
0.002500 0.098750 0.000000
0.003000 0.098750 0.000000
0.003500 0.098750 0.000000
0.004000 0.098750 0.000000
0.004500 0.098750 0.000000
0.000500 0.097500 0.000000
0.001000 0.097500 0.000000
0.001500 0.097500 0.000000
0.002000 0.097500 0.000000
0.002500 0.097500 0.000000
0.003000 0.097500 0.000000
0.003500 0.097500 0.000000
0.004000 0.097500 0.000000
0.004500 0.097500 0.000000
0.000500 0.096250 0.000000
0.001000 0.096250 0.000000
0.001500 0.096250 0.000000
0.002000 0.096250 0.000000
0.002500 0.096250 0.000000
0.003000 0.096250 0.000000
0.003500 0.096250 0.000000
0.004000 0.096250 0.000000
0.004500 0.096250 0.000000
0.000500 0.095000 0.000000
0.001000 0.095000 0.000000
0.001500 0.095000 0.000000
0.002000 0.095000 0.000000
0.002500 0.095000 0.000000
0.003000 0.095000 0.000000
0.003500 0.095000 0.000000
0.004000 0.095000 0.000000
0.004500 0.095000 0.000000
0.000500 0.093750 0.000000
0.001000 0.093750 0.000000
0.001500 0.093750 0.000000
0.002000 0.093750 0.000000
0.002500 0.093750 0.000000
0.003000 0.093750 0.000000
0.003500 0.093750 0.000000
0.004000 0.093750 0.000000
0.004500 0.093750 0.000000
0.000500 0.092500 0.000000
0.001000 0.092500 0.000000
0.001500 0.092500 0.000000
0.002000 0.092500 0.000000
0.002500 0.092500 0.000000
0.003000 0.092500 0.000000
0.003500 0.092500 0.000000
0.004000 0.092500 0.000000
0.004500 0.092500 0.000000
0.000500 0.091250 0.000000
0.001000 0.091250 0.000000
0.001500 0.091250 0.000000
0.002000 0.091250 0.000000
0.002500 0.091250 0.000000
0.003000 0.091250 0.000000
0.003500 0.091250 0.000000
0.004000 0.091250 0.000000
0.004500 0.091250 0.000000
0.000500 0.090000 0.000000
0.001000 0.090000 0.000000
0.001500 0.090000 0.000000
0.002000 0.090000 0.000000
0.002500 0.090000 0.000000
0.003000 0.090000 0.000000
0.003500 0.090000 0.000000
0.004000 0.090000 0.000000
0.004500 0.090000 0.000000
0.000500 0.088750 0.000000
0.001000 0.088750 0.000000
0.001500 0.088750 0.000000
0.002000 0.088750 0.000000
0.002500 0.088750 0.000000
0.003000 0.088750 0.000000
0.003500 0.088750 0.000000
0.004000 0.088750 0.000000
0.004500 0.088750 0.000000
0.000500 0.087500 0.000000
0.001000 0.087500 0.000000
0.001500 0.087500 0.000000
0.002000 0.087500 0.000000
0.002500 0.087500 0.000000
0.003000 0.087500 0.000000
0.003500 0.087500 0.000000
0.004000 0.087500 0.000000
0.004500 0.087500 0.000000
0.000500 0.086250 0.000000
0.001000 0.086250 0.000000
0.001500 0.086250 0.000000
0.002000 0.086250 0.000000
0.002500 0.086250 0.000000
0.003000 0.086250 0.000000
0.003500 0.086250 0.000000
0.004000 0.086250 0.000000
0.004500 0.086250 0.000000
0.000500 0.085000 0.000000
0.001000 0.085000 0.000000
0.001500 0.085000 0.000000
0.002000 0.085000 0.000000
0.002500 0.085000 0.000000
0.003000 0.085000 0.000000
0.003500 0.085000 0.000000
0.004000 0.085000 0.000000
0.004500 0.085000 0.000000
0.000500 0.083750 0.000000
0.001000 0.083750 0.000000
0.001500 0.083750 0.000000
0.002000 0.083750 0.000000
0.002500 0.083750 0.000000
0.003000 0.083750 0.000000
0.003500 0.083750 0.000000
0.004000 0.083750 0.000000
0.004500 0.083750 0.000000
0.000500 0.082500 0.000000
0.001000 0.082500 0.000000
0.001500 0.082500 0.000000
0.002000 0.082500 0.000000
0.002500 0.082500 0.000000
0.003000 0.082500 0.000000
0.003500 0.082500 0.000000
0.004000 0.082500 0.000000
0.004500 0.082500 0.000000
0.000500 0.081250 0.000000
0.001000 0.081250 0.000000
0.001500 0.081250 0.000000
0.002000 0.081250 0.000000
0.002500 0.081250 0.000000
0.003000 0.081250 0.000000
0.003500 0.081250 0.000000
0.004000 0.081250 0.000000
0.004500 0.081250 0.000000
0.000500 0.080000 0.000000
0.001000 0.080000 0.000000
0.001500 0.080000 0.000000
0.002000 0.080000 0.000000
0.002500 0.080000 0.000000
0.003000 0.080000 0.000000
0.003500 0.080000 0.000000
0.004000 0.080000 0.000000
0.004500 0.080000 0.000000
0.000500 0.078750 0.000000
0.001000 0.078750 0.000000
0.001500 0.078750 0.000000
0.002000 0.078750 0.000000
0.002500 0.078750 0.000000
0.003000 0.078750 0.000000
0.003500 0.078750 0.000000
0.004000 0.078750 0.000000
0.004500 0.078750 0.000000
0.000500 0.077500 0.000000
0.001000 0.077500 0.000000
0.001500 0.077500 0.000000
0.002000 0.077500 0.000000
0.002500 0.077500 0.000000
0.003000 0.077500 0.000000
0.003500 0.077500 0.000000
0.004000 0.077500 0.000000
0.004500 0.077500 0.000000
0.000500 0.076250 0.000000
0.001000 0.076250 0.000000
0.001500 0.076250 0.000000
0.002000 0.076250 0.000000
0.002500 0.076250 0.000000
0.003000 0.076250 0.000000
0.003500 0.076250 0.000000
0.004000 0.076250 0.000000
0.004500 0.076250 0.000000
0.000500 0.075000 0.000000
0.001000 0.075000 0.000000
0.001500 0.075000 0.000000
0.002000 0.075000 0.000000
0.002500 0.075000 0.000000
0.003000 0.075000 0.000000
0.003500 0.075000 0.000000
0.004000 0.075000 0.000000
0.004500 0.075000 0.000000
0.000500 0.073750 0.000000
0.001000 0.073750 0.000000
0.001500 0.073750 0.000000
0.002000 0.073750 0.000000
0.002500 0.073750 0.000000
0.003000 0.073750 0.000000
0.003500 0.073750 0.000000
0.004000 0.073750 0.000000
0.004500 0.073750 0.000000
0.000500 0.072500 0.000000
0.001000 0.072500 0.000000
0.001500 0.072500 0.000000
0.002000 0.072500 0.000000
0.002500 0.072500 0.000000
0.003000 0.072500 0.000000
0.003500 0.072500 0.000000
0.004000 0.072500 0.000000
0.004500 0.072500 0.000000
0.000500 0.071250 0.000000
0.001000 0.071250 0.000000
0.001500 0.071250 0.000000
0.002000 0.071250 0.000000
0.002500 0.071250 0.000000
0.003000 0.071250 0.000000
0.003500 0.071250 0.000000
0.004000 0.071250 0.000000
0.004500 0.071250 0.000000
0.000500 0.070000 0.000000
0.001000 0.070000 0.000000
0.001500 0.070000 0.000000
0.002000 0.070000 0.000000
0.002500 0.070000 0.000000
0.003000 0.070000 0.000000
0.003500 0.070000 0.000000
0.004000 0.070000 0.000000
0.004500 0.070000 0.000000
0.000500 0.068750 0.000000
0.001000 0.068750 0.000000
0.001500 0.068750 0.000000
0.002000 0.068750 0.000000
0.002500 0.068750 0.000000
0.003000 0.068750 0.000000
0.003500 0.068750 0.000000
0.004000 0.068750 0.000000
0.004500 0.068750 0.000000
0.000500 0.067500 0.000000
0.001000 0.067500 0.000000
0.001500 0.067500 0.000000
0.002000 0.067500 0.000000
0.002500 0.067500 0.000000
0.003000 0.067500 0.000000
0.003500 0.067500 0.000000
0.004000 0.067500 0.000000
0.004500 0.067500 0.000000
0.000500 0.066250 0.000000
0.001000 0.066250 0.000000
0.001500 0.066250 0.000000
0.002000 0.066250 0.000000
0.002500 0.066250 0.000000
0.003000 0.066250 0.000000
0.003500 0.066250 0.000000
0.004000 0.066250 0.000000
0.004500 0.066250 0.000000
0.000500 0.065000 0.000000
0.001000 0.065000 0.000000
0.001500 0.065000 0.000000
0.002000 0.065000 0.000000
0.002500 0.065000 0.000000
0.003000 0.065000 0.000000
0.003500 0.065000 0.000000
0.004000 0.065000 0.000000
0.004500 0.065000 0.000000
0.000500 0.063750 0.000000
0.001000 0.063750 0.000000
0.001500 0.063750 0.000000
0.002000 0.063750 0.000000
0.002500 0.063750 0.000000
0.003000 0.063750 0.000000
0.003500 0.063750 0.000000
0.004000 0.063750 0.000000
0.004500 0.063750 0.000000
0.000500 0.062500 0.000000
0.001000 0.062500 0.000000
0.001500 0.062500 0.000000
0.002000 0.062500 0.000000
0.002500 0.062500 0.000000
0.003000 0.062500 0.000000
0.003500 0.062500 0.000000
0.004000 0.062500 0.000000
0.004500 0.062500 0.000000
0.000500 0.061250 0.000000
0.001000 0.061250 0.000000
0.001500 0.061250 0.000000
0.002000 0.061250 0.000000
0.002500 0.061250 0.000000
0.003000 0.061250 0.000000
0.003500 0.061250 0.000000
0.004000 0.061250 0.000000
0.004500 0.061250 0.000000
0.000500 0.060000 0.000000
0.001000 0.060000 0.000000
0.001500 0.060000 0.000000
0.002000 0.060000 0.000000
0.002500 0.060000 0.000000
0.003000 0.060000 0.000000
0.003500 0.060000 0.000000
0.004000 0.060000 0.000000
0.004500 0.060000 0.000000
0.000500 0.058750 0.000000
0.001000 0.058750 0.000000
0.001500 0.058750 0.000000
0.002000 0.058750 0.000000
0.002500 0.058750 0.000000
0.003000 0.058750 0.000000
0.003500 0.058750 0.000000
0.004000 0.058750 0.000000
0.004500 0.058750 0.000000
0.000500 0.057500 0.000000
0.001000 0.057500 0.000000
0.001500 0.057500 0.000000
0.002000 0.057500 0.000000
0.002500 0.057500 0.000000
0.003000 0.057500 0.000000
0.003500 0.057500 0.000000
0.004000 0.057500 0.000000
0.004500 0.057500 0.000000
0.000500 0.056250 0.000000
0.001000 0.056250 0.000000
0.001500 0.056250 0.000000
0.002000 0.056250 0.000000
0.002500 0.056250 0.000000
0.003000 0.056250 0.000000
0.003500 0.056250 0.000000
0.004000 0.056250 0.000000
0.004500 0.056250 0.000000
0.000500 0.055000 0.000000
0.001000 0.055000 0.000000
0.001500 0.055000 0.000000
0.002000 0.055000 0.000000
0.002500 0.055000 0.000000
0.003000 0.055000 0.000000
0.003500 0.055000 0.000000
0.004000 0.055000 0.000000
0.004500 0.055000 0.000000
0.000500 0.053750 0.000000
0.001000 0.053750 0.000000
0.001500 0.053750 0.000000
0.002000 0.053750 0.000000
0.002500 0.053750 0.000000
0.003000 0.053750 0.000000
0.003500 0.053750 0.000000
0.004000 0.053750 0.000000
0.004500 0.053750 0.000000
0.000500 0.052500 0.000000
0.001000 0.052500 0.000000
0.001500 0.052500 0.000000
0.002000 0.052500 0.000000
0.002500 0.052500 0.000000
0.003000 0.052500 0.000000
0.003500 0.052500 0.000000
0.004000 0.052500 0.000000
0.004500 0.052500 0.000000
0.000500 0.051250 0.000000
0.001000 0.051250 0.000000
0.001500 0.051250 0.000000
0.002000 0.051250 0.000000
0.002500 0.051250 0.000000
0.003000 0.051250 0.000000
0.003500 0.051250 0.000000
0.004000 0.051250 0.000000
0.004500 0.051250 0.000000
0.000500 0.050000 0.000000
0.001000 0.050000 0.000000
0.001500 0.050000 0.000000
0.002000 0.050000 0.000000
0.002500 0.050000 0.000000
0.003000 0.050000 0.000000
0.003500 0.050000 0.000000
0.004000 0.050000 0.000000
0.004500 0.050000 0.000000
0.000500 0.048750 0.000000
0.001000 0.048750 0.000000
0.001500 0.048750 0.000000
0.002000 0.048750 0.000000
0.002500 0.048750 0.000000
0.003000 0.048750 0.000000
0.003500 0.048750 0.000000
0.004000 0.048750 0.000000
0.004500 0.048750 0.000000
0.000500 0.047500 0.000000
0.001000 0.047500 0.000000
0.001500 0.047500 0.000000
0.002000 0.047500 0.000000
0.002500 0.047500 0.000000
0.003000 0.047500 0.000000
0.003500 0.047500 0.000000
0.004000 0.047500 0.000000
0.004500 0.047500 0.000000
0.000500 0.046250 0.000000
0.001000 0.046250 0.000000
0.001500 0.046250 0.000000
0.002000 0.046250 0.000000
0.002500 0.046250 0.000000
0.003000 0.046250 0.000000
0.003500 0.046250 0.000000
0.004000 0.046250 0.000000
0.004500 0.046250 0.000000
0.000500 0.045000 0.000000
0.001000 0.045000 0.000000
0.001500 0.045000 0.000000
0.002000 0.045000 0.000000
0.002500 0.045000 0.000000
0.003000 0.045000 0.000000
0.003500 0.045000 0.000000
0.004000 0.045000 0.000000
0.004500 0.045000 0.000000
0.000500 0.043750 0.000000
0.001000 0.043750 0.000000
0.001500 0.043750 0.000000
0.002000 0.043750 0.000000
0.002500 0.043750 0.000000
0.003000 0.043750 0.000000
0.003500 0.043750 0.000000
0.004000 0.043750 0.000000
0.004500 0.043750 0.000000
0.000500 0.042500 0.000000
0.001000 0.042500 0.000000
0.001500 0.042500 0.000000
0.002000 0.042500 0.000000
0.002500 0.042500 0.000000
0.003000 0.042500 0.000000
0.003500 0.042500 0.000000
0.004000 0.042500 0.000000
0.004500 0.042500 0.000000
0.000500 0.041250 0.000000
0.001000 0.041250 0.000000
0.001500 0.041250 0.000000
0.002000 0.041250 0.000000
0.002500 0.041250 0.000000
0.003000 0.041250 0.000000
0.003500 0.041250 0.000000
0.004000 0.041250 0.000000
0.004500 0.041250 0.000000
0.000500 0.040000 0.000000
0.001000 0.040000 0.000000
0.001500 0.040000 0.000000
0.002000 0.040000 0.000000
0.002500 0.040000 0.000000
0.003000 0.040000 0.000000
0.003500 0.040000 0.000000
0.004000 0.040000 0.000000
0.004500 0.040000 0.000000
0.000500 0.038750 0.000000
0.001000 0.038750 0.000000
0.001500 0.038750 0.000000
0.002000 0.038750 0.000000
0.002500 0.038750 0.000000
0.003000 0.038750 0.000000
0.003500 0.038750 0.000000
0.004000 0.038750 0.000000
0.004500 0.038750 0.000000
0.000500 0.037500 0.000000
0.001000 0.037500 0.000000
0.001500 0.037500 0.000000
0.002000 0.037500 0.000000
0.002500 0.037500 0.000000
0.003000 0.037500 0.000000
0.003500 0.037500 0.000000
0.004000 0.037500 0.000000
0.004500 0.037500 0.000000
0.000500 0.036250 0.000000
0.001000 0.036250 0.000000
0.001500 0.036250 0.000000
0.002000 0.036250 0.000000
0.002500 0.036250 0.000000
0.003000 0.036250 0.000000
0.003500 0.036250 0.000000
0.004000 0.036250 0.000000
0.004500 0.036250 0.000000
0.000500 0.035000 0.000000
0.001000 0.035000 0.000000
0.001500 0.035000 0.000000
0.002000 0.035000 0.000000
0.002500 0.035000 0.000000
0.003000 0.035000 0.000000
0.003500 0.035000 0.000000
0.004000 0.035000 0.000000
0.004500 0.035000 0.000000
0.000500 0.033750 0.000000
0.001000 0.033750 0.000000
0.001500 0.033750 0.000000
0.002000 0.033750 0.000000
0.002500 0.033750 0.000000
0.003000 0.033750 0.000000
0.003500 0.033750 0.000000
0.004000 0.033750 0.000000
0.004500 0.033750 0.000000
0.000500 0.032500 0.000000
0.001000 0.032500 0.000000
0.001500 0.032500 0.000000
0.002000 0.032500 0.000000
0.002500 0.032500 0.000000
0.003000 0.032500 0.000000
0.003500 0.032500 0.000000
0.004000 0.032500 0.000000
0.004500 0.032500 0.000000
0.000500 0.031250 0.000000
0.001000 0.031250 0.000000
0.001500 0.031250 0.000000
0.002000 0.031250 0.000000
0.002500 0.031250 0.000000
0.003000 0.031250 0.000000
0.003500 0.031250 0.000000
0.004000 0.031250 0.000000
0.004500 0.031250 0.000000
0.000500 0.030000 0.000000
0.001000 0.030000 0.000000
0.001500 0.030000 0.000000
0.002000 0.030000 0.000000
0.002500 0.030000 0.000000
0.003000 0.030000 0.000000
0.003500 0.030000 0.000000
0.004000 0.030000 0.000000
0.004500 0.030000 0.000000
0.000500 0.028750 0.000000
0.001000 0.028750 0.000000
0.001500 0.028750 0.000000
0.002000 0.028750 0.000000
0.002500 0.028750 0.000000
0.003000 0.028750 0.000000
0.003500 0.028750 0.000000
0.004000 0.028750 0.000000
0.004500 0.028750 0.000000
0.000500 0.027500 0.000000
0.001000 0.027500 0.000000
0.001500 0.027500 0.000000
0.002000 0.027500 0.000000
0.002500 0.027500 0.000000
0.003000 0.027500 0.000000
0.003500 0.027500 0.000000
0.004000 0.027500 0.000000
0.004500 0.027500 0.000000
0.000500 0.026250 0.000000
0.001000 0.026250 0.000000
0.001500 0.026250 0.000000
0.002000 0.026250 0.000000
0.002500 0.026250 0.000000
0.003000 0.026250 0.000000
0.003500 0.026250 0.000000
0.004000 0.026250 0.000000
0.004500 0.026250 0.000000
0.000500 0.025000 0.000000
0.001000 0.025000 0.000000
0.001500 0.025000 0.000000
0.002000 0.025000 0.000000
0.002500 0.025000 0.000000
0.003000 0.025000 0.000000
0.003500 0.025000 0.000000
0.004000 0.025000 0.000000
0.004500 0.025000 0.000000
0.000500 0.023750 0.000000
0.001000 0.023750 0.000000
0.001500 0.023750 0.000000
0.002000 0.023750 0.000000
0.002500 0.023750 0.000000
0.003000 0.023750 0.000000
0.003500 0.023750 0.000000
0.004000 0.023750 0.000000
0.004500 0.023750 0.000000
0.000500 0.022500 0.000000
0.001000 0.022500 0.000000
0.001500 0.022500 0.000000
0.002000 0.022500 0.000000
0.002500 0.022500 0.000000
0.003000 0.022500 0.000000
0.003500 0.022500 0.000000
0.004000 0.022500 0.000000
0.004500 0.022500 0.000000
0.000500 0.021250 0.000000
0.001000 0.021250 0.000000
0.001500 0.021250 0.000000
0.002000 0.021250 0.000000
0.002500 0.021250 0.000000
0.003000 0.021250 0.000000
0.003500 0.021250 0.000000
0.004000 0.021250 0.000000
0.004500 0.021250 0.000000
0.000500 0.020000 0.000000
0.001000 0.020000 0.000000
0.001500 0.020000 0.000000
0.002000 0.020000 0.000000
0.002500 0.020000 0.000000
0.003000 0.020000 0.000000
0.003500 0.020000 0.000000
0.004000 0.020000 0.000000
0.004500 0.020000 0.000000
0.000500 0.018750 0.000000
0.001000 0.018750 0.000000
0.001500 0.018750 0.000000
0.002000 0.018750 0.000000
0.002500 0.018750 0.000000
0.003000 0.018750 0.000000
0.003500 0.018750 0.000000
0.004000 0.018750 0.000000
0.004500 0.018750 0.000000
0.000500 0.017500 0.000000
0.001000 0.017500 0.000000
0.001500 0.017500 0.000000
0.002000 0.017500 0.000000
0.002500 0.017500 0.000000
0.003000 0.017500 0.000000
0.003500 0.017500 0.000000
0.004000 0.017500 0.000000
0.004500 0.017500 0.000000
0.000500 0.016250 0.000000
0.001000 0.016250 0.000000
0.001500 0.016250 0.000000
0.002000 0.016250 0.000000
0.002500 0.016250 0.000000
0.003000 0.016250 0.000000
0.003500 0.016250 0.000000
0.004000 0.016250 0.000000
0.004500 0.016250 0.000000
0.000500 0.015000 0.000000
0.001000 0.015000 0.000000
0.001500 0.015000 0.000000
0.002000 0.015000 0.000000
0.002500 0.015000 0.000000
0.003000 0.015000 0.000000
0.003500 0.015000 0.000000
0.004000 0.015000 0.000000
0.004500 0.015000 0.000000
0.000500 0.013750 0.000000
0.001000 0.013750 0.000000
0.001500 0.013750 0.000000
0.002000 0.013750 0.000000
0.002500 0.013750 0.000000
0.003000 0.013750 0.000000
0.003500 0.013750 0.000000
0.004000 0.013750 0.000000
0.004500 0.013750 0.000000
0.000500 0.012500 0.000000
0.001000 0.012500 0.000000
0.001500 0.012500 0.000000
0.002000 0.012500 0.000000
0.002500 0.012500 0.000000
0.003000 0.012500 0.000000
0.003500 0.012500 0.000000
0.004000 0.012500 0.000000
0.004500 0.012500 0.000000
0.000500 0.011250 0.000000
0.001000 0.011250 0.000000
0.001500 0.011250 0.000000
0.002000 0.011250 0.000000
0.002500 0.011250 0.000000
0.003000 0.011250 0.000000
0.003500 0.011250 0.000000
0.004000 0.011250 0.000000
0.004500 0.011250 0.000000
0.000500 0.010000 0.000000
0.001000 0.010000 0.000000
0.001500 0.010000 0.000000
0.002000 0.010000 0.000000
0.002500 0.010000 0.000000
0.003000 0.010000 0.000000
0.003500 0.010000 0.000000
0.004000 0.010000 0.000000
0.004500 0.010000 0.000000
0.000500 0.008750 0.000000
0.001000 0.008750 0.000000
0.001500 0.008750 0.000000
0.002000 0.008750 0.000000
0.002500 0.008750 0.000000
0.003000 0.008750 0.000000
0.003500 0.008750 0.000000
0.004000 0.008750 0.000000
0.004500 0.008750 0.000000
0.000500 0.007500 0.000000
0.001000 0.007500 0.000000
0.001500 0.007500 0.000000
0.002000 0.007500 0.000000
0.002500 0.007500 0.000000
0.003000 0.007500 0.000000
0.003500 0.007500 0.000000
0.004000 0.007500 0.000000
0.004500 0.007500 0.000000
0.000500 0.006250 0.000000
0.001000 0.006250 0.000000
0.001500 0.006250 0.000000
0.002000 0.006250 0.000000
0.002500 0.006250 0.000000
0.003000 0.006250 0.000000
0.003500 0.006250 0.000000
0.004000 0.006250 0.000000
0.004500 0.006250 0.000000
0.000500 0.005000 0.000000
0.001000 0.005000 0.000000
0.001500 0.005000 0.000000
0.002000 0.005000 0.000000
0.002500 0.005000 0.000000
0.003000 0.005000 0.000000
0.003500 0.005000 0.000000
0.004000 0.005000 0.000000
0.004500 0.005000 0.000000
0.000500 0.003750 0.000000
0.001000 0.003750 0.000000
0.001500 0.003750 0.000000
0.002000 0.003750 0.000000
0.002500 0.003750 0.000000
0.003000 0.003750 0.000000
0.003500 0.003750 0.000000
0.004000 0.003750 0.000000
0.004500 0.003750 0.000000
0.000500 0.002500 0.000000
0.001000 0.002500 0.000000
0.001500 0.002500 0.000000
0.002000 0.002500 0.000000
0.002500 0.002500 0.000000
0.003000 0.002500 0.000000
0.003500 0.002500 0.000000
0.004000 0.002500 0.000000
0.004500 0.002500 0.000000
0.000500 0.001250 0.000000
0.001000 0.001250 0.000000
0.001500 0.001250 0.000000
0.002000 0.001250 0.000000
0.002500 0.001250 0.000000
0.003000 0.001250 0.000000
0.003500 0.001250 0.000000
0.004000 0.001250 0.000000
0.004500 0.001250 0.000000
CELLS 800 4000
4 82 83 180 179
4 179 180 181 178
4 178 181 182 177
4 177 182 183 176
4 176 183 184 175
4 175 184 185 174
4 174 185 186 173
4 173 186 187 172
4 172 187 188 171
4 171 188 80 0
4 83 84 189 180
4 180 189 190 181
4 181 190 191 182
4 182 191 192 183
4 183 192 193 184
4 184 193 194 185
4 185 194 195 186
4 186 195 196 187
4 187 196 197 188
4 188 197 79 80
4 84 85 198 189
4 189 198 199 190
4 190 199 200 191
4 191 200 201 192
4 192 201 202 193
4 193 202 203 194
4 194 203 204 195
4 195 204 205 196
4 196 205 206 197
4 197 206 78 79
4 85 86 207 198
4 198 207 208 199
4 199 208 209 200
4 200 209 210 201
4 201 210 211 202
4 202 211 212 203
4 203 212 213 204
4 204 213 214 205
4 205 214 215 206
4 206 215 77 78
4 86 87 216 207
4 207 216 217 208
4 208 217 218 209
4 209 218 219 210
4 210 219 220 211
4 211 220 221 212
4 212 221 222 213
4 213 222 223 214
4 214 223 224 215
4 215 224 76 77
4 87 88 225 216
4 216 225 226 217
4 217 226 227 218
4 218 227 228 219
4 219 228 229 220
4 220 229 230 221
4 221 230 231 222
4 222 231 232 223
4 223 232 233 224
4 224 233 75 76
4 88 89 234 225
4 225 234 235 226
4 226 235 236 227
4 227 236 237 228
4 228 237 238 229
4 229 238 239 230
4 230 239 240 231
4 231 240 241 232
4 232 241 242 233
4 233 242 74 75
4 89 90 243 234
4 234 243 244 235
4 235 244 245 236
4 236 245 246 237
4 237 246 247 238
4 238 247 248 239
4 239 248 249 240
4 240 249 250 241
4 241 250 251 242
4 242 251 73 74
4 90 91 252 243
4 243 252 253 244
4 244 253 254 245
4 245 254 255 246
4 246 255 256 247
4 247 256 257 248
4 248 257 258 249
4 249 258 259 250
4 250 259 260 251
4 251 260 72 73
4 91 92 261 252
4 252 261 262 253
4 253 262 263 254
4 254 263 264 255
4 255 264 265 256
4 256 265 266 257
4 257 266 267 258
4 258 267 268 259
4 259 268 269 260
4 260 269 71 72
4 92 93 270 261
4 261 270 271 262
4 262 271 272 263
4 263 272 273 264
4 264 273 274 265
4 265 274 275 266
4 266 275 276 267
4 267 276 277 268
4 268 277 278 269
4 269 278 70 71
4 93 94 279 270
4 270 279 280 271
4 271 280 281 272
4 272 281 282 273
4 273 282 283 274
4 274 283 284 275
4 275 284 285 276
4 276 285 286 277
4 277 286 287 278
4 278 287 69 70
4 94 95 288 279
4 279 288 289 280
4 280 289 290 281
4 281 290 291 282
4 282 291 292 283
4 283 292 293 284
4 284 293 294 285
4 285 294 295 286
4 286 295 296 287
4 287 296 68 69
4 95 96 297 288
4 288 297 298 289
4 289 298 299 290
4 290 299 300 291
4 291 300 301 292
4 292 301 302 293
4 293 302 303 294
4 294 303 304 295
4 295 304 305 296
4 296 305 67 68
4 96 97 306 297
4 297 306 307 298
4 298 307 308 299
4 299 308 309 300
4 300 309 310 301
4 301 310 311 302
4 302 311 312 303
4 303 312 313 304
4 304 313 314 305
4 305 314 66 67
4 97 98 315 306
4 306 315 316 307
4 307 316 317 308
4 308 317 318 309
4 309 318 319 310
4 310 319 320 311
4 311 320 321 312
4 312 321 322 313
4 313 322 323 314
4 314 323 65 66
4 98 99 324 315
4 315 324 325 316
4 316 325 326 317
4 317 326 327 318
4 318 327 328 319
4 319 328 329 320
4 320 329 330 321
4 321 330 331 322
4 322 331 332 323
4 323 332 64 65
4 99 100 333 324
4 324 333 334 325
4 325 334 335 326
4 326 335 336 327
4 327 336 337 328
4 328 337 338 329
4 329 338 339 330
4 330 339 340 331
4 331 340 341 332
4 332 341 63 64
4 100 101 342 333
4 333 342 343 334
4 334 343 344 335
4 335 344 345 336
4 336 345 346 337
4 337 346 347 338
4 338 347 348 339
4 339 348 349 340
4 340 349 350 341
4 341 350 62 63
4 101 102 351 342
4 342 351 352 343
4 343 352 353 344
4 344 353 354 345
4 345 354 355 346
4 346 355 356 347
4 347 356 357 348
4 348 357 358 349
4 349 358 359 350
4 350 359 61 62
4 102 103 360 351
4 351 360 361 352
4 352 361 362 353
4 353 362 363 354
4 354 363 364 355
4 355 364 365 356
4 356 365 366 357
4 357 366 367 358
4 358 367 368 359
4 359 368 60 61
4 103 104 369 360
4 360 369 370 361
4 361 370 371 362
4 362 371 372 363
4 363 372 373 364
4 364 373 374 365
4 365 374 375 366
4 366 375 376 367
4 367 376 377 368
4 368 377 59 60
4 104 105 378 369
4 369 378 379 370
4 370 379 380 371
4 371 380 381 372
4 372 381 382 373
4 373 382 383 374
4 374 383 384 375
4 375 384 385 376
4 376 385 386 377
4 377 386 58 59
4 105 106 387 378
4 378 387 388 379
4 379 388 389 380
4 380 389 390 381
4 381 390 391 382
4 382 391 392 383
4 383 392 393 384
4 384 393 394 385
4 385 394 395 386
4 386 395 57 58
4 106 107 396 387
4 387 396 397 388
4 388 397 398 389
4 389 398 399 390
4 390 399 400 391
4 391 400 401 392
4 392 401 402 393
4 393 402 403 394
4 394 403 404 395
4 395 404 56 57
4 107 108 405 396
4 396 405 406 397
4 397 406 407 398
4 398 407 408 399
4 399 408 409 400
4 400 409 410 401
4 401 410 411 402
4 402 411 412 403
4 403 412 413 404
4 404 413 55 56
4 108 109 414 405
4 405 414 415 406
4 406 415 416 407
4 407 416 417 408
4 408 417 418 409
4 409 418 419 410
4 410 419 420 411
4 411 420 421 412
4 412 421 422 413
4 413 422 54 55
4 109 110 423 414
4 414 423 424 415
4 415 424 425 416
4 416 425 426 417
4 417 426 427 418
4 418 427 428 419
4 419 428 429 420
4 420 429 430 421
4 421 430 431 422
4 422 431 53 54
4 110 111 432 423
4 423 432 433 424
4 424 433 434 425
4 425 434 435 426
4 426 435 436 427
4 427 436 437 428
4 428 437 438 429
4 429 438 439 430
4 430 439 440 431
4 431 440 52 53
4 111 112 441 432
4 432 441 442 433
4 433 442 443 434
4 434 443 444 435
4 435 444 445 436
4 436 445 446 437
4 437 446 447 438
4 438 447 448 439
4 439 448 449 440
4 440 449 51 52
4 112 113 450 441
4 441 450 451 442
4 442 451 452 443
4 443 452 453 444
4 444 453 454 445
4 445 454 455 446
4 446 455 456 447
4 447 456 457 448
4 448 457 458 449
4 449 458 50 51
4 113 114 459 450
4 450 459 460 451
4 451 460 461 452
4 452 461 462 453
4 453 462 463 454
4 454 463 464 455
4 455 464 465 456
4 456 465 466 457
4 457 466 467 458
4 458 467 49 50
4 114 115 468 459
4 459 468 469 460
4 460 469 470 461
4 461 470 471 462
4 462 471 472 463
4 463 472 473 464
4 464 473 474 465
4 465 474 475 466
4 466 475 476 467
4 467 476 48 49
4 115 116 477 468
4 468 477 478 469
4 469 478 479 470
4 470 479 480 471
4 471 480 481 472
4 472 481 482 473
4 473 482 483 474
4 474 483 484 475
4 475 484 485 476
4 476 485 47 48
4 116 117 486 477
4 477 486 487 478
4 478 487 488 479
4 479 488 489 480
4 480 489 490 481
4 481 490 491 482
4 482 491 492 483
4 483 492 493 484
4 484 493 494 485
4 485 494 46 47
4 117 118 495 486
4 486 495 496 487
4 487 496 497 488
4 488 497 498 489
4 489 498 499 490
4 490 499 500 491
4 491 500 501 492
4 492 501 502 493
4 493 502 503 494
4 494 503 45 46
4 118 119 504 495
4 495 504 505 496
4 496 505 506 497
4 497 506 507 498
4 498 507 508 499
4 499 508 509 500
4 500 509 510 501
4 501 510 511 502
4 502 511 512 503
4 503 512 44 45
4 119 120 513 504
4 504 513 514 505
4 505 514 515 506
4 506 515 516 507
4 507 516 517 508
4 508 517 518 509
4 509 518 519 510
4 510 519 520 511
4 511 520 521 512
4 512 521 43 44
4 120 121 522 513
4 513 522 523 514
4 514 523 524 515
4 515 524 525 516
4 516 525 526 517
4 517 526 527 518
4 518 527 528 519
4 519 528 529 520
4 520 529 530 521
4 521 530 42 43
4 121 122 531 522
4 522 531 532 523
4 523 532 533 524
4 524 533 534 525
4 525 534 535 526
4 526 535 536 527
4 527 536 537 528
4 528 537 538 529
4 529 538 539 530
4 530 539 41 42
4 122 123 540 531
4 531 540 541 532
4 532 541 542 533
4 533 542 543 534
4 534 543 544 535
4 535 544 545 536
4 536 545 546 537
4 537 546 547 538
4 538 547 548 539
4 539 548 40 41
4 123 124 549 540
4 540 549 550 541
4 541 550 551 542
4 542 551 552 543
4 543 552 553 544
4 544 553 554 545
4 545 554 555 546
4 546 555 556 547
4 547 556 557 548
4 548 557 39 40
4 124 125 558 549
4 549 558 559 550
4 550 559 560 551
4 551 560 561 552
4 552 561 562 553
4 553 562 563 554
4 554 563 564 555
4 555 564 565 556
4 556 565 566 557
4 557 566 38 39
4 125 126 567 558
4 558 567 568 559
4 559 568 569 560
4 560 569 570 561
4 561 570 571 562
4 562 571 572 563
4 563 572 573 564
4 564 573 574 565
4 565 574 575 566
4 566 575 37 38
4 126 127 576 567
4 567 576 577 568
4 568 577 578 569
4 569 578 579 570
4 570 579 580 571
4 571 580 581 572
4 572 581 582 573
4 573 582 583 574
4 574 583 584 575
4 575 584 36 37
4 127 128 585 576
4 576 585 586 577
4 577 586 587 578
4 578 587 588 579
4 579 588 589 580
4 580 589 590 581
4 581 590 591 582
4 582 591 592 583
4 583 592 593 584
4 584 593 35 36
4 128 129 594 585
4 585 594 595 586
4 586 595 596 587
4 587 596 597 588
4 588 597 598 589
4 589 598 599 590
4 590 599 600 591
4 591 600 601 592
4 592 601 602 593
4 593 602 34 35
4 129 130 603 594
4 594 603 604 595
4 595 604 605 596
4 596 605 606 597
4 597 606 607 598
4 598 607 608 599
4 599 608 609 600
4 600 609 610 601
4 601 610 611 602
4 602 611 33 34
4 130 131 612 603
4 603 612 613 604
4 604 613 614 605
4 605 614 615 606
4 606 615 616 607
4 607 616 617 608
4 608 617 618 609
4 609 618 619 610
4 610 619 620 611
4 611 620 32 33
4 131 132 621 612
4 612 621 622 613
4 613 622 623 614
4 614 623 624 615
4 615 624 625 616
4 616 625 626 617
4 617 626 627 618
4 618 627 628 619
4 619 628 629 620
4 620 629 31 32
4 132 133 630 621
4 621 630 631 622
4 622 631 632 623
4 623 632 633 624
4 624 633 634 625
4 625 634 635 626
4 626 635 636 627
4 627 636 637 628
4 628 637 638 629
4 629 638 30 31
4 133 134 639 630
4 630 639 640 631
4 631 640 641 632
4 632 641 642 633
4 633 642 643 634
4 634 643 644 635
4 635 644 645 636
4 636 645 646 637
4 637 646 647 638
4 638 647 29 30
4 134 135 648 639
4 639 648 649 640
4 640 649 650 641
4 641 650 651 642
4 642 651 652 643
4 643 652 653 644
4 644 653 654 645
4 645 654 655 646
4 646 655 656 647
4 647 656 28 29
4 135 136 657 648
4 648 657 658 649
4 649 658 659 650
4 650 659 660 651
4 651 660 661 652
4 652 661 662 653
4 653 662 663 654
4 654 663 664 655
4 655 664 665 656
4 656 665 27 28
4 136 137 666 657
4 657 666 667 658
4 658 667 668 659
4 659 668 669 660
4 660 669 670 661
4 661 670 671 662
4 662 671 672 663
4 663 672 673 664
4 664 673 674 665
4 665 674 26 27
4 137 138 675 666
4 666 675 676 667
4 667 676 677 668
4 668 677 678 669
4 669 678 679 670
4 670 679 680 671
4 671 680 681 672
4 672 681 682 673
4 673 682 683 674
4 674 683 25 26
4 138 139 684 675
4 675 684 685 676
4 676 685 686 677
4 677 686 687 678
4 678 687 688 679
4 679 688 689 680
4 680 689 690 681
4 681 690 691 682
4 682 691 692 683
4 683 692 24 25
4 139 140 693 684
4 684 693 694 685
4 685 694 695 686
4 686 695 696 687
4 687 696 697 688
4 688 697 698 689
4 689 698 699 690
4 690 699 700 691
4 691 700 701 692
4 692 701 23 24
4 140 141 702 693
4 693 702 703 694
4 694 703 704 695
4 695 704 705 696
4 696 705 706 697
4 697 706 707 698
4 698 707 708 699
4 699 708 709 700
4 700 709 710 701
4 701 710 22 23
4 141 142 711 702
4 702 711 712 703
4 703 712 713 704
4 704 713 714 705
4 705 714 715 706
4 706 715 716 707
4 707 716 717 708
4 708 717 718 709
4 709 718 719 710
4 710 719 21 22
4 142 143 720 711
4 711 720 721 712
4 712 721 722 713
4 713 722 723 714
4 714 723 724 715
4 715 724 725 716
4 716 725 726 717
4 717 726 727 718
4 718 727 728 719
4 719 728 20 21
4 143 144 729 720
4 720 729 730 721
4 721 730 731 722
4 722 731 732 723
4 723 732 733 724
4 724 733 734 725
4 725 734 735 726
4 726 735 736 727
4 727 736 737 728
4 728 737 19 20
4 144 145 738 729
4 729 738 739 730
4 730 739 740 731
4 731 740 741 732
4 732 741 742 733
4 733 742 743 734
4 734 743 744 735
4 735 744 745 736
4 736 745 746 737
4 737 746 18 19
4 145 146 747 738
4 738 747 748 739
4 739 748 749 740
4 740 749 750 741
4 741 750 751 742
4 742 751 752 743
4 743 752 753 744
4 744 753 754 745
4 745 754 755 746
4 746 755 17 18
4 146 147 756 747
4 747 756 757 748
4 748 757 758 749
4 749 758 759 750
4 750 759 760 751
4 751 760 761 752
4 752 761 762 753
4 753 762 763 754
4 754 763 764 755
4 755 764 16 17
4 147 148 765 756
4 756 765 766 757
4 757 766 767 758
4 758 767 768 759
4 759 768 769 760
4 760 769 770 761
4 761 770 771 762
4 762 771 772 763
4 763 772 773 764
4 764 773 15 16
4 148 149 774 765
4 765 774 775 766
4 766 775 776 767
4 767 776 777 768
4 768 777 778 769
4 769 778 779 770
4 770 779 780 771
4 771 780 781 772
4 772 781 782 773
4 773 782 14 15
4 149 150 783 774
4 774 783 784 775
4 775 784 785 776
4 776 785 786 777
4 777 786 787 778
4 778 787 788 779
4 779 788 789 780
4 780 789 790 781
4 781 790 791 782
4 782 791 13 14
4 150 151 792 783
4 783 792 793 784
4 784 793 794 785
4 785 794 795 786
4 786 795 796 787
4 787 796 797 788
4 788 797 798 789
4 789 798 799 790
4 790 799 800 791
4 791 800 12 13
4 151 152 801 792
4 792 801 802 793
4 793 802 803 794
4 794 803 804 795
4 795 804 805 796
4 796 805 806 797
4 797 806 807 798
4 798 807 808 799
4 799 808 809 800
4 800 809 11 12
4 152 153 810 801
4 801 810 811 802
4 802 811 812 803
4 803 812 813 804
4 804 813 814 805
4 805 814 815 806
4 806 815 816 807
4 807 816 817 808
4 808 817 818 809
4 809 818 10 11
4 153 154 819 810
4 810 819 820 811
4 811 820 821 812
4 812 821 822 813
4 813 822 823 814
4 814 823 824 815
4 815 824 825 816
4 816 825 826 817
4 817 826 827 818
4 818 827 9 10
4 154 155 828 819
4 819 828 829 820
4 820 829 830 821
4 821 830 831 822
4 822 831 832 823
4 823 832 833 824
4 824 833 834 825
4 825 834 835 826
4 826 835 836 827
4 827 836 8 9
4 155 156 837 828
4 828 837 838 829
4 829 838 839 830
4 830 839 840 831
4 831 840 841 832
4 832 841 842 833
4 833 842 843 834
4 834 843 844 835
4 835 844 845 836
4 836 845 7 8
4 156 157 846 837
4 837 846 847 838
4 838 847 848 839
4 839 848 849 840
4 840 849 850 841
4 841 850 851 842
4 842 851 852 843
4 843 852 853 844
4 844 853 854 845
4 845 854 6 7
4 157 158 855 846
4 846 855 856 847
4 847 856 857 848
4 848 857 858 849
4 849 858 859 850
4 850 859 860 851
4 851 860 861 852
4 852 861 862 853
4 853 862 863 854
4 854 863 5 6
4 158 159 864 855
4 855 864 865 856
4 856 865 866 857
4 857 866 867 858
4 858 867 868 859
4 859 868 869 860
4 860 869 870 861
4 861 870 871 862
4 862 871 872 863
4 863 872 4 5
4 159 160 873 864
4 864 873 874 865
4 865 874 875 866
4 866 875 876 867
4 867 876 877 868
4 868 877 878 869
4 869 878 879 870
4 870 879 880 871
4 871 880 881 872
4 872 881 3 4
4 160 161 882 873
4 873 882 883 874
4 874 883 884 875
4 875 884 885 876
4 876 885 886 877
4 877 886 887 878
4 878 887 888 879
4 879 888 889 880
4 880 889 890 881
4 881 890 2 3
4 161 81 162 882
4 882 162 163 883
4 883 163 164 884
4 884 164 165 885
4 885 165 166 886
4 886 166 167 887
4 887 167 168 888
4 888 168 169 889
4 889 169 170 890
4 890 170 1 2
CELL_TYPES 800
9
9
9
9
9
9
9
9
9
9
9
9
9
9
9
9
9
9
9
9
9
9
9
9
9
9
9
9
9
9
9
9
9
9
9
9
9
9
9
9
9
9
9
9
9
9
9
9
9
9
9
9
9
9
9
9
9
9
9
9
9
9
9
9
9
9
9
9
9
9
9
9
9
9
9
9
9
9
9
9
9
9
9
9
9
9
9
9
9
9
9
9
9
9
9
9
9
9
9
9
9
9
9
9
9
9
9
9
9
9
9
9
9
9
9
9
9
9
9
9
9
9
9
9
9
9
9
9
9
9
9
9
9
9
9
9
9
9
9
9
9
9
9
9
9
9
9
9
9
9
9
9
9
9
9
9
9
9
9
9
9
9
9
9
9
9
9
9
9
9
9
9
9
9
9
9
9
9
9
9
9
9
9
9
9
9
9
9
9
9
9
9
9
9
9
9
9
9
9
9
9
9
9
9
9
9
9
9
9
9
9
9
9
9
9
9
9
9
9
9
9
9
9
9
9
9
9
9
9
9
9
9
9
9
9
9
9
9
9
9
9
9
9
9
9
9
9
9
9
9
9
9
9
9
9
9
9
9
9
9
9
9
9
9
9
9
9
9
9
9
9
9
9
9
9
9
9
9
9
9
9
9
9
9
9
9
9
9
9
9
9
9
9
9
9
9
9
9
9
9
9
9
9
9
9
9
9
9
9
9
9
9
9
9
9
9
9
9
9
9
9
9
9
9
9
9
9
9
9
9
9
9
9
9
9
9
9
9
9
9
9
9
9
9
9
9
9
9
9
9
9
9
9
9
9
9
9
9
9
9
9
9
9
9
9
9
9
9
9
9
9
9
9
9
9
9
9
9
9
9
9
9
9
9
9
9
9
9
9
9
9
9
9
9
9
9
9
9
9
9
9
9
9
9
9
9
9
9
9
9
9
9
9
9
9
9
9
9
9
9
9
9
9
9
9
9
9
9
9
9
9
9
9
9
9
9
9
9
9
9
9
9
9
9
9
9
9
9
9
9
9
9
9
9
9
9
9
9
9
9
9
9
9
9
9
9
9
9
9
9
9
9
9
9
9
9
9
9
9
9
9
9
9
9
9
9
9
9
9
9
9
9
9
9
9
9
9
9
9
9
9
9
9
9
9
9
9
9
9
9
9
9
9
9
9
9
9
9
9
9
9
9
9
9
9
9
9
9
9
9
9
9
9
9
9
9
9
9
9
9
9
9
9
9
9
9
9
9
9
9
9
9
9
9
9
9
9
9
9
9
9
9
9
9
9
9
9
9
9
9
9
9
9
9
9
9
9
9
9
9
9
9
9
9
9
9
9
9
9
9
9
9
9
9
9
9
9
9
9
9
9
9
9
9
9
9
9
9
9
9
9
9
9
9
9
9
9
9
9
9
9
9
9
9
9
9
9
9
9
9
9
9
9
9
9
9
9
9
9
9
9
9
9
9
9
9
9
9
9
9
9
9
9
9
9
9
9
9
9
9
9
9
9
9
9
9
9
9
9
9
9
9
9
9
9
9
9
9
9
9
9
9
9
9
9
9
9
9
9
9
9
9
9
9
9
9
9
9
9
9
9
9
9
9
9
9
9
9
9
9
9
9
9
9
9
9
9
9
9
9
9
9
9
9
9
9
9
9
9
9
9
9
9
9
9
9
9
9
9
9
9
9
9
9
9
9
9
9
9
9
9
9
9
9
9
9
9
9
9
9
9
9
9
9
9
9
9
9
9
9
9
9
9
9
9
9
9
9
9
9
9
9
9
9
9
9
9
9
9
9
9
9
9
9
9
9
9
9
9
9
POINT_DATA 891
SCALARS u1 float
LOOKUP_TABLE default
-7e-17
-3e-07
-3e-07
-3e-07
-3e-07
-3e-07
-3e-07
-3e-07
-3e-07
-3e-07
-3e-07
-3e-07
-3e-07
-3e-07
-3e-07
-3e-07
-3e-07
-3e-07
-3e-07
-3e-07
-3e-07
-3e-07
-3e-07
-3e-07
-3e-07
-3e-07
-3e-07
-3e-07
-3e-07
-3e-07
-3e-07
-3e-07
-3e-07
-3e-07
-3e-07
-3e-07
-3e-07
-3e-07
-3e-07
-3e-07
-3e-07
-3e-07
-3e-07
-3e-07
-3e-07
-3e-07
-3e-07
-3e-07
-3e-07
-3e-07
-3e-07
-3e-07
-3e-07
-3e-07
-3e-07
-3e-07
-3e-07
-3e-07
-3e-07
-3e-07
-3e-07
-3e-07
-3e-07
-3e-07
-3e-07
-3e-07
-3e-07
-3e-07
-3e-07
-3e-07
-3e-07
-3e-07
-3e-07
-3e-07
-3e-07
-3e-07
-3e-07
-3e-07
-3e-07
-2e-07
-2e-07
3e-07
1e-16
2e-07
2e-07
3e-07
3e-07
3e-07
3e-07
3e-07
3e-07
3e-07
3e-07
3e-07
3e-07
3e-07
3e-07
3e-07
3e-07
3e-07
3e-07
3e-07
3e-07
3e-07
3e-07
3e-07
3e-07
3e-07
3e-07
3e-07
3e-07
3e-07
3e-07
3e-07
3e-07
3e-07
3e-07
3e-07
3e-07
3e-07
3e-07
3e-07
3e-07
3e-07
3e-07
3e-07
3e-07
3e-07
3e-07
3e-07
3e-07
3e-07
3e-07
3e-07
3e-07
3e-07
3e-07
3e-07
3e-07
3e-07
3e-07
3e-07
3e-07
3e-07
3e-07
3e-07
3e-07
3e-07
3e-07
3e-07
3e-07
3e-07
3e-07
3e-07
3e-07
3e-07
3e-07
3e-07
3e-07
3e-07
3e-07
3e-07
2e-07
2e-07
1e-07
5e-08
7e-15
-5e-08
-1e-07
-2e-07
-2e-07
-4e-16
-2e-16
2e-16
4e-16
1e-16
-1e-16
-1e-16
-1e-17
1e-16
1e-07
1e-07
6e-08
3e-08
-9e-15
-3e-08
-6e-08
-1e-07
-1e-07
2e-07
1e-07
1e-07
5e-08
-4e-14
-5e-08
-1e-07
-1e-07
-2e-07
2e-07
2e-07
1e-07
5e-08
-3e-14
-5e-08
-1e-07
-2e-07
-2e-07
2e-07
2e-07
1e-07
5e-08
-2e-14
-5e-08
-1e-07
-2e-07
-2e-07
2e-07
2e-07
1e-07
5e-08
-2e-14
-5e-08
-1e-07
-2e-07
-2e-07
2e-07
2e-07
1e-07
5e-08
-1e-14
-5e-08
-1e-07
-2e-07
-2e-07
2e-07
2e-07
1e-07
5e-08
-5e-15
-5e-08
-1e-07
-2e-07
-2e-07
2e-07
2e-07
1e-07
5e-08
-1e-15
-5e-08
-1e-07
-2e-07
-2e-07
2e-07
2e-07
1e-07
5e-08
1e-15
-5e-08
-1e-07
-2e-07
-2e-07
2e-07
2e-07
1e-07
5e-08
3e-15
-5e-08
-1e-07
-2e-07
-2e-07
2e-07
2e-07
1e-07
5e-08
5e-15
-5e-08
-1e-07
-2e-07
-2e-07
2e-07
2e-07
1e-07
5e-08
6e-15
-5e-08
-1e-07
-2e-07
-2e-07
2e-07
2e-07
1e-07
5e-08
6e-15
-5e-08
-1e-07
-2e-07
-2e-07
2e-07
2e-07
1e-07
5e-08
7e-15
-5e-08
-1e-07
-2e-07
-2e-07
2e-07
2e-07
1e-07
5e-08
7e-15
-5e-08
-1e-07
-2e-07
-2e-07
2e-07
2e-07
1e-07
5e-08
7e-15
-5e-08
-1e-07
-2e-07
-2e-07
2e-07
2e-07
1e-07
5e-08
7e-15
-5e-08
-1e-07
-2e-07
-2e-07
2e-07
2e-07
1e-07
5e-08
7e-15
-5e-08
-1e-07
-2e-07
-2e-07
2e-07
2e-07
1e-07
5e-08
7e-15
-5e-08
-1e-07
-2e-07
-2e-07
2e-07
2e-07
1e-07
5e-08
7e-15
-5e-08
-1e-07
-2e-07
-2e-07
2e-07
2e-07
1e-07
5e-08
7e-15
-5e-08
-1e-07
-2e-07
-2e-07
2e-07
2e-07
1e-07
5e-08
7e-15
-5e-08
-1e-07
-2e-07
-2e-07
2e-07
2e-07
1e-07
5e-08
7e-15
-5e-08
-1e-07
-2e-07
-2e-07
2e-07
2e-07
1e-07
5e-08
7e-15
-5e-08
-1e-07
-2e-07
-2e-07
2e-07
2e-07
1e-07
5e-08
7e-15
-5e-08
-1e-07
-2e-07
-2e-07
2e-07
2e-07
1e-07
5e-08
7e-15
-5e-08
-1e-07
-2e-07
-2e-07
2e-07
2e-07
1e-07
5e-08
7e-15
-5e-08
-1e-07
-2e-07
-2e-07
2e-07
2e-07
1e-07
5e-08
7e-15
-5e-08
-1e-07
-2e-07
-2e-07
2e-07
2e-07
1e-07
5e-08
7e-15
-5e-08
-1e-07
-2e-07
-2e-07
2e-07
2e-07
1e-07
5e-08
7e-15
-5e-08
-1e-07
-2e-07
-2e-07
2e-07
2e-07
1e-07
5e-08
7e-15
-5e-08
-1e-07
-2e-07
-2e-07
2e-07
2e-07
1e-07
5e-08
7e-15
-5e-08
-1e-07
-2e-07
-2e-07
2e-07
2e-07
1e-07
5e-08
7e-15
-5e-08
-1e-07
-2e-07
-2e-07
2e-07
2e-07
1e-07
5e-08
7e-15
-5e-08
-1e-07
-2e-07
-2e-07
2e-07
2e-07
1e-07
5e-08
7e-15
-5e-08
-1e-07
-2e-07
-2e-07
2e-07
2e-07
1e-07
5e-08
7e-15
-5e-08
-1e-07
-2e-07
-2e-07
2e-07
2e-07
1e-07
5e-08
7e-15
-5e-08
-1e-07
-2e-07
-2e-07
2e-07
2e-07
1e-07
5e-08
7e-15
-5e-08
-1e-07
-2e-07
-2e-07
2e-07
2e-07
1e-07
5e-08
7e-15
-5e-08
-1e-07
-2e-07
-2e-07
2e-07
2e-07
1e-07
5e-08
7e-15
-5e-08
-1e-07
-2e-07
-2e-07
2e-07
2e-07
1e-07
5e-08
7e-15
-5e-08
-1e-07
-2e-07
-2e-07
2e-07
2e-07
1e-07
5e-08
7e-15
-5e-08
-1e-07
-2e-07
-2e-07
2e-07
2e-07
1e-07
5e-08
7e-15
-5e-08
-1e-07
-2e-07
-2e-07
2e-07
2e-07
1e-07
5e-08
7e-15
-5e-08
-1e-07
-2e-07
-2e-07
2e-07
2e-07
1e-07
5e-08
7e-15
-5e-08
-1e-07
-2e-07
-2e-07
2e-07
2e-07
1e-07
5e-08
7e-15
-5e-08
-1e-07
-2e-07
-2e-07
2e-07
2e-07
1e-07
5e-08
7e-15
-5e-08
-1e-07
-2e-07
-2e-07
2e-07
2e-07
1e-07
5e-08
7e-15
-5e-08
-1e-07
-2e-07
-2e-07
2e-07
2e-07
1e-07
5e-08
7e-15
-5e-08
-1e-07
-2e-07
-2e-07
2e-07
2e-07
1e-07
5e-08
7e-15
-5e-08
-1e-07
-2e-07
-2e-07
2e-07
2e-07
1e-07
5e-08
7e-15
-5e-08
-1e-07
-2e-07
-2e-07
2e-07
2e-07
1e-07
5e-08
7e-15
-5e-08
-1e-07
-2e-07
-2e-07
2e-07
2e-07
1e-07
5e-08
7e-15
-5e-08
-1e-07
-2e-07
-2e-07
2e-07
2e-07
1e-07
5e-08
7e-15
-5e-08
-1e-07
-2e-07
-2e-07
2e-07
2e-07
1e-07
5e-08
7e-15
-5e-08
-1e-07
-2e-07
-2e-07
2e-07
2e-07
1e-07
5e-08
7e-15
-5e-08
-1e-07
-2e-07
-2e-07
2e-07
2e-07
1e-07
5e-08
7e-15
-5e-08
-1e-07
-2e-07
-2e-07
2e-07
2e-07
1e-07
5e-08
7e-15
-5e-08
-1e-07
-2e-07
-2e-07
2e-07
2e-07
1e-07
5e-08
7e-15
-5e-08
-1e-07
-2e-07
-2e-07
2e-07
2e-07
1e-07
5e-08
7e-15
-5e-08
-1e-07
-2e-07
-2e-07
2e-07
2e-07
1e-07
5e-08
7e-15
-5e-08
-1e-07
-2e-07
-2e-07
2e-07
2e-07
1e-07
5e-08
7e-15
-5e-08
-1e-07
-2e-07
-2e-07
2e-07
2e-07
1e-07
5e-08
7e-15
-5e-08
-1e-07
-2e-07
-2e-07
2e-07
2e-07
1e-07
5e-08
7e-15
-5e-08
-1e-07
-2e-07
-2e-07
2e-07
2e-07
1e-07
5e-08
7e-15
-5e-08
-1e-07
-2e-07
-2e-07
2e-07
2e-07
1e-07
5e-08
7e-15
-5e-08
-1e-07
-2e-07
-2e-07
2e-07
2e-07
1e-07
5e-08
7e-15
-5e-08
-1e-07
-2e-07
-2e-07
2e-07
2e-07
1e-07
5e-08
7e-15
-5e-08
-1e-07
-2e-07
-2e-07
2e-07
2e-07
1e-07
5e-08
7e-15
-5e-08
-1e-07
-2e-07
-2e-07
2e-07
2e-07
1e-07
5e-08
7e-15
-5e-08
-1e-07
-2e-07
-2e-07
2e-07
2e-07
1e-07
5e-08
7e-15
-5e-08
-1e-07
-2e-07
-2e-07
2e-07
2e-07
1e-07
5e-08
7e-15
-5e-08
-1e-07
-2e-07
-2e-07
2e-07
2e-07
1e-07
5e-08
7e-15
-5e-08
-1e-07
-2e-07
-2e-07
2e-07
2e-07
1e-07
5e-08
7e-15
-5e-08
-1e-07
-2e-07
-2e-07
2e-07
2e-07
1e-07
5e-08
7e-15
-5e-08
-1e-07
-2e-07
-2e-07
2e-07
2e-07
1e-07
5e-08
7e-15
-5e-08
-1e-07
-2e-07
-2e-07
2e-07
2e-07
1e-07
5e-08
7e-15
-5e-08
-1e-07
-2e-07
-2e-07
2e-07
2e-07
1e-07
5e-08
7e-15
-5e-08
-1e-07
-2e-07
-2e-07
2e-07
2e-07
1e-07
5e-08
7e-15
-5e-08
-1e-07
-2e-07
-2e-07
SCALARS u2 float
LOOKUP_TABLE default
2e-16
-5e-05
-5e-05
-5e-05
-5e-05
-5e-05
-5e-05
-5e-05
-5e-05
-5e-05
-5e-05
-5e-05
-5e-05
-5e-05
-5e-05
-4e-05
-4e-05
-4e-05
-4e-05
-4e-05
-4e-05
-4e-05
-4e-05
-4e-05
-4e-05
-4e-05
-4e-05
-4e-05
-4e-05
-4e-05
-3e-05
-3e-05
-3e-05
-3e-05
-3e-05
-3e-05
-3e-05
-3e-05
-3e-05
-3e-05
-3e-05
-3e-05
-3e-05
-3e-05
-3e-05
-2e-05
-2e-05
-2e-05
-2e-05
-2e-05
-2e-05
-2e-05
-2e-05
-2e-05
-2e-05
-2e-05
-2e-05
-2e-05
-2e-05
-1e-05
-1e-05
-1e-05
-1e-05
-1e-05
-1e-05
-1e-05
-1e-05
-1e-05
-9e-06
-8e-06
-7e-06
-7e-06
-6e-06
-5e-06
-5e-06
-4e-06
-3e-06
-3e-06
-2e-06
-1e-06
-7e-07
-5e-05
5e-17
-7e-07
-1e-06
-2e-06
-3e-06
-3e-06
-4e-06
-5e-06
-5e-06
-6e-06
-7e-06
-7e-06
-8e-06
-9e-06
-1e-05
-1e-05
-1e-05
-1e-05
-1e-05
-1e-05
-1e-05
-1e-05
-1e-05
-2e-05
-2e-05
-2e-05
-2e-05
-2e-05
-2e-05
-2e-05
-2e-05
-2e-05
-2e-05
-2e-05
-2e-05
-2e-05
-2e-05
-3e-05
-3e-05
-3e-05
-3e-05
-3e-05
-3e-05
-3e-05
-3e-05
-3e-05
-3e-05
-3e-05
-3e-05
-3e-05
-3e-05
-3e-05
-4e-05
-4e-05
-4e-05
-4e-05
-4e-05
-4e-05
-4e-05
-4e-05
-4e-05
-4e-05
-4e-05
-4e-05
-4e-05
-4e-05
-4e-05
-5e-05
-5e-05
-5e-05
-5e-05
-5e-05
-5e-05
-5e-05
-5e-05
-5e-05
-5e-05
-5e-05
-5e-05
-5e-05
-5e-05
-5e-05
-5e-05
-5e-05
-5e-05
-5e-05
-5e-05
-5e-05
-5e-05
7e-16
-2e-17
-2e-16
-5e-17
-9e-18
8e-17
6e-17
-2e-16
1e-16
-7e-07
-7e-07
-6e-07
-6e-07
-6e-07
-6e-07
-6e-07
-7e-07
-7e-07
-1e-06
-1e-06
-1e-06
-1e-06
-1e-06
-1e-06
-1e-06
-1e-06
-1e-06
-2e-06
-2e-06
-2e-06
-2e-06
-2e-06
-2e-06
-2e-06
-2e-06
-2e-06
-3e-06
-3e-06
-3e-06
-3e-06
-3e-06
-3e-06
-3e-06
-3e-06
-3e-06
-3e-06
-3e-06
-3e-06
-3e-06
-3e-06
-3e-06
-3e-06
-3e-06
-3e-06
-4e-06
-4e-06
-4e-06
-4e-06
-4e-06
-4e-06
-4e-06
-4e-06
-4e-06
-5e-06
-5e-06
-5e-06
-5e-06
-5e-06
-5e-06
-5e-06
-5e-06
-5e-06
-5e-06
-5e-06
-5e-06
-5e-06
-5e-06
-5e-06
-5e-06
-5e-06
-5e-06
-6e-06
-6e-06
-6e-06
-6e-06
-6e-06
-6e-06
-6e-06
-6e-06
-6e-06
-7e-06
-7e-06
-7e-06
-7e-06
-7e-06
-7e-06
-7e-06
-7e-06
-7e-06
-7e-06
-7e-06
-7e-06
-7e-06
-7e-06
-7e-06
-7e-06
-7e-06
-7e-06
-8e-06
-8e-06
-8e-06
-8e-06
-8e-06
-8e-06
-8e-06
-8e-06
-8e-06
-9e-06
-9e-06
-9e-06
-9e-06
-9e-06
-9e-06
-9e-06
-9e-06
-9e-06
-1e-05
-1e-05
-1e-05
-1e-05
-1e-05
-1e-05
-1e-05
-1e-05
-1e-05
-1e-05
-1e-05
-1e-05
-1e-05
-1e-05
-1e-05
-1e-05
-1e-05
-1e-05
-1e-05
-1e-05
-1e-05
-1e-05
-1e-05
-1e-05
-1e-05
-1e-05
-1e-05
-1e-05
-1e-05
-1e-05
-1e-05
-1e-05
-1e-05
-1e-05
-1e-05
-1e-05
-1e-05
-1e-05
-1e-05
-1e-05
-1e-05
-1e-05
-1e-05
-1e-05
-1e-05
-1e-05
-1e-05
-1e-05
-1e-05
-1e-05
-1e-05
-1e-05
-1e-05
-1e-05
-1e-05
-1e-05
-1e-05
-1e-05
-1e-05
-1e-05
-1e-05
-1e-05
-1e-05
-1e-05
-1e-05
-1e-05
-1e-05
-1e-05
-1e-05
-1e-05
-1e-05
-1e-05
-1e-05
-1e-05
-1e-05
-1e-05
-1e-05
-1e-05
-1e-05
-1e-05
-1e-05
-2e-05
-2e-05
-2e-05
-2e-05
-2e-05
-2e-05
-2e-05
-2e-05
-2e-05
-2e-05
-2e-05
-2e-05
-2e-05
-2e-05
-2e-05
-2e-05
-2e-05
-2e-05
-2e-05
-2e-05
-2e-05
-2e-05
-2e-05
-2e-05
-2e-05
-2e-05
-2e-05
-2e-05
-2e-05
-2e-05
-2e-05
-2e-05
-2e-05
-2e-05
-2e-05
-2e-05
-2e-05
-2e-05
-2e-05
-2e-05
-2e-05
-2e-05
-2e-05
-2e-05
-2e-05
-2e-05
-2e-05
-2e-05
-2e-05
-2e-05
-2e-05
-2e-05
-2e-05
-2e-05
-2e-05
-2e-05
-2e-05
-2e-05
-2e-05
-2e-05
-2e-05
-2e-05
-2e-05
-2e-05
-2e-05
-2e-05
-2e-05
-2e-05
-2e-05
-2e-05
-2e-05
-2e-05
-2e-05
-2e-05
-2e-05
-2e-05
-2e-05
-2e-05
-2e-05
-2e-05
-2e-05
-2e-05
-2e-05
-2e-05
-2e-05
-2e-05
-2e-05
-2e-05
-2e-05
-2e-05
-2e-05
-2e-05
-2e-05
-2e-05
-2e-05
-2e-05
-2e-05
-2e-05
-2e-05
-2e-05
-2e-05
-2e-05
-2e-05
-2e-05
-2e-05
-2e-05
-2e-05
-2e-05
-2e-05
-2e-05
-2e-05
-2e-05
-2e-05
-2e-05
-2e-05
-2e-05
-2e-05
-2e-05
-2e-05
-2e-05
-2e-05
-2e-05
-2e-05
-2e-05
-2e-05
-2e-05
-3e-05
-3e-05
-3e-05
-3e-05
-3e-05
-3e-05
-3e-05
-3e-05
-3e-05
-3e-05
-3e-05
-3e-05
-3e-05
-3e-05
-3e-05
-3e-05
-3e-05
-3e-05
-3e-05
-3e-05
-3e-05
-3e-05
-3e-05
-3e-05
-3e-05
-3e-05
-3e-05
-3e-05
-3e-05
-3e-05
-3e-05
-3e-05
-3e-05
-3e-05
-3e-05
-3e-05
-3e-05
-3e-05
-3e-05
-3e-05
-3e-05
-3e-05
-3e-05
-3e-05
-3e-05
-3e-05
-3e-05
-3e-05
-3e-05
-3e-05
-3e-05
-3e-05
-3e-05
-3e-05
-3e-05
-3e-05
-3e-05
-3e-05
-3e-05
-3e-05
-3e-05
-3e-05
-3e-05
-3e-05
-3e-05
-3e-05
-3e-05
-3e-05
-3e-05
-3e-05
-3e-05
-3e-05
-3e-05
-3e-05
-3e-05
-3e-05
-3e-05
-3e-05
-3e-05
-3e-05
-3e-05
-3e-05
-3e-05
-3e-05
-3e-05
-3e-05
-3e-05
-3e-05
-3e-05
-3e-05
-3e-05
-3e-05
-3e-05
-3e-05
-3e-05
-3e-05
-3e-05
-3e-05
-3e-05
-3e-05
-3e-05
-3e-05
-3e-05
-3e-05
-3e-05
-3e-05
-3e-05
-3e-05
-3e-05
-3e-05
-3e-05
-3e-05
-3e-05
-3e-05
-3e-05
-3e-05
-3e-05
-3e-05
-3e-05
-3e-05
-3e-05
-3e-05
-3e-05
-3e-05
-3e-05
-3e-05
-3e-05
-3e-05
-3e-05
-3e-05
-3e-05
-3e-05
-3e-05
-3e-05
-3e-05
-4e-05
-4e-05
-4e-05
-4e-05
-4e-05
-4e-05
-4e-05
-4e-05
-4e-05
-4e-05
-4e-05
-4e-05
-4e-05
-4e-05
-4e-05
-4e-05
-4e-05
-4e-05
-4e-05
-4e-05
-4e-05
-4e-05
-4e-05
-4e-05
-4e-05
-4e-05
-4e-05
-4e-05
-4e-05
-4e-05
-4e-05
-4e-05
-4e-05
-4e-05
-4e-05
-4e-05
-4e-05
-4e-05
-4e-05
-4e-05
-4e-05
-4e-05
-4e-05
-4e-05
-4e-05
-4e-05
-4e-05
-4e-05
-4e-05
-4e-05
-4e-05
-4e-05
-4e-05
-4e-05
-4e-05
-4e-05
-4e-05
-4e-05
-4e-05
-4e-05
-4e-05
-4e-05
-4e-05
-4e-05
-4e-05
-4e-05
-4e-05
-4e-05
-4e-05
-4e-05
-4e-05
-4e-05
-4e-05
-4e-05
-4e-05
-4e-05
-4e-05
-4e-05
-4e-05
-4e-05
-4e-05
-4e-05
-4e-05
-4e-05
-4e-05
-4e-05
-4e-05
-4e-05
-4e-05
-4e-05
-4e-05
-4e-05
-4e-05
-4e-05
-4e-05
-4e-05
-4e-05
-4e-05
-4e-05
-4e-05
-4e-05
-4e-05
-4e-05
-4e-05
-4e-05
-4e-05
-4e-05
-4e-05
-4e-05
-4e-05
-4e-05
-4e-05
-4e-05
-4e-05
-4e-05
-4e-05
-4e-05
-4e-05
-4e-05
-4e-05
-4e-05
-4e-05
-4e-05
-4e-05
-4e-05
-4e-05
-4e-05
-4e-05
-4e-05
-4e-05
-4e-05
-4e-05
-4e-05
-4e-05
-4e-05
-5e-05
-5e-05
-5e-05
-5e-05
-5e-05
-5e-05
-5e-05
-5e-05
-5e-05
-5e-05
-5e-05
-5e-05
-5e-05
-5e-05
-5e-05
-5e-05
-5e-05
-5e-05
-5e-05
-5e-05
-5e-05
-5e-05
-5e-05
-5e-05
-5e-05
-5e-05
-5e-05
-5e-05
-5e-05
-5e-05
-5e-05
-5e-05
-5e-05
-5e-05
-5e-05
-5e-05
-5e-05
-5e-05
-5e-05
-5e-05
-5e-05
-5e-05
-5e-05
-5e-05
-5e-05
-5e-05
-5e-05
-5e-05
-5e-05
-5e-05
-5e-05
-5e-05
-5e-05
-5e-05
-5e-05
-5e-05
-5e-05
-5e-05
-5e-05
-5e-05
-5e-05
-5e-05
-5e-05
-5e-05
-5e-05
-5e-05
-5e-05
-5e-05
-5e-05
-5e-05
-5e-05
-5e-05
-5e-05
-5e-05
-5e-05
-5e-05
-5e-05
-5e-05
-5e-05
-5e-05
-5e-05
-5e-05
-5e-05
-5e-05
-5e-05
-5e-05
-5e-05
-5e-05
-5e-05
-5e-05
-5e-05
-5e-05
-5e-05
-5e-05
-5e-05
-5e-05
-5e-05
-5e-05
-5e-05
-5e-05
-5e-05
-5e-05
-5e-05
-5e-05
-5e-05
-5e-05
-5e-05
-5e-05
-5e-05
-5e-05
-5e-05
-5e-05
-5e-05
-5e-05
-5e-05
-5e-05
-5e-05
SCALARS strain_1 float
LOOKUP_TABLE default
-0.000019
-0.029858
-0.029406
-0.028952
-0.028497
-0.028039
-0.027579
-0.027117
-0.026654
-0.026189
-0.025722
-0.025255
-0.024785
-0.024315
-0.023844
-0.023372
-0.022899
-0.022426
-0.021953
-0.021479
-0.021005
-0.020532
-0.020058
-0.019586
-0.019113
-0.018642
-0.018172
-0.017703
-0.017236
-0.016770
-0.016306
-0.015845
-0.015385
-0.014928
-0.014474
-0.014023
-0.013575
-0.013130
-0.012689
-0.012252
-0.011819
-0.011390
-0.010966
-0.010546
-0.010132
-0.009722
-0.009319
-0.008920
-0.008528
-0.008142
-0.007762
-0.007389
-0.007023
-0.006663
-0.006311
-0.005966
-0.005629
-0.005299
-0.004977
-0.004663
-0.004358
-0.004061
-0.003772
-0.003492
-0.003221
-0.002959
-0.002706
-0.002461
-0.002226
-0.002001
-0.001784
-0.001577
-0.001379
-0.001191
-0.001012
-0.000842
-0.000682
-0.000531
-0.000389
-0.000257
-0.000133
-0.029884
-0.000001
-0.000115
-0.000239
-0.000372
-0.000514
-0.000665
-0.000826
-0.000996
-0.001176
-0.001365
-0.001563
-0.001771
-0.001988
-0.002214
-0.002450
-0.002694
-0.002948
-0.003211
-0.003483
-0.003763
-0.004053
-0.004350
-0.004657
-0.004971
-0.005293
-0.005624
-0.005962
-0.006307
-0.006660
-0.007021
-0.007388
-0.007762
-0.008142
-0.008529
-0.008922
-0.009321
-0.009725
-0.010135
-0.010550
-0.010970
-0.011395
-0.011825
-0.012258
-0.012696
-0.013138
-0.013583
-0.014032
-0.014484
-0.014939
-0.015396
-0.015857
-0.016319
-0.016783
-0.017250
-0.017718
-0.018187
-0.018658
-0.019130
-0.019602
-0.020076
-0.020550
-0.021024
-0.021498
-0.021972
-0.022446
-0.022920
-0.023393
-0.023865
-0.024337
-0.024808
-0.025277
-0.025746
-0.026213
-0.026678
-0.027142
-0.027604
-0.028064
-0.028522
-0.028978
-0.029432
-0.029882
-0.029879
-0.029876
-0.029874
-0.029871
-0.029869
-0.029866
-0.029863
-0.029860
-0.000015
-0.000012
-0.000009
-0.000007
-0.000005
-0.000003
-0.000002
-0.000001
-0.000001
-0.000115
-0.000116
-0.000117
-0.000118
-0.000119
-0.000121
-0.000124
-0.000126
-0.000129
-0.000239
-0.000239
-0.000240
-0.000241
-0.000243
-0.000245
-0.000247
-0.000250
-0.000253
-0.000372
-0.000372
-0.000373
-0.000374
-0.000376
-0.000377
-0.000380
-0.000382
-0.000385
-0.000514
-0.000514
-0.000515
-0.000516
-0.000517
-0.000519
-0.000521
-0.000524
-0.000527
-0.000665
-0.000666
-0.000666
-0.000667
-0.000669
-0.000670
-0.000673
-0.000675
-0.000678
-0.000826
-0.000826
-0.000827
-0.000828
-0.000829
-0.000831
-0.000833
-0.000836
-0.000839
-0.000996
-0.000996
-0.000997
-0.000998
-0.000999
-0.001001
-0.001003
-0.001005
-0.001008
-0.001175
-0.001176
-0.001176
-0.001177
-0.001178
-0.001180
-0.001182
-0.001184
-0.001187
-0.001364
-0.001364
-0.001365
-0.001366
-0.001367
-0.001368
-0.001371
-0.001373
-0.001376
-0.001563
-0.001563
-0.001563
-0.001564
-0.001565
-0.001566
-0.001568
-0.001571
-0.001574
-0.001770
-0.001770
-0.001770
-0.001771
-0.001772
-0.001774
-0.001776
-0.001778
-0.001781
-0.001987
-0.001987
-0.001987
-0.001988
-0.001989
-0.001991
-0.001992
-0.001995
-0.001998
-0.002213
-0.002213
-0.002213
-0.002214
-0.002215
-0.002217
-0.002218
-0.002221
-0.002223
-0.002449
-0.002449
-0.002449
-0.002450
-0.002451
-0.002452
-0.002454
-0.002456
-0.002458
-0.002694
-0.002693
-0.002693
-0.002694
-0.002695
-0.002696
-0.002698
-0.002700
-0.002703
-0.002948
-0.002947
-0.002947
-0.002948
-0.002949
-0.002950
-0.002952
-0.002954
-0.002956
-0.003210
-0.003210
-0.003210
-0.003210
-0.003211
-0.003212
-0.003214
-0.003216
-0.003218
-0.003482
-0.003482
-0.003482
-0.003482
-0.003483
-0.003484
-0.003485
-0.003487
-0.003490
-0.003763
-0.003762
-0.003762
-0.003762
-0.003763
-0.003764
-0.003766
-0.003767
-0.003770
-0.004052
-0.004051
-0.004051
-0.004051
-0.004052
-0.004053
-0.004054
-0.004056
-0.004058
-0.004349
-0.004349
-0.004349
-0.004349
-0.004350
-0.004350
-0.004352
-0.004353
-0.004356
-0.004655
-0.004655
-0.004655
-0.004655
-0.004655
-0.004656
-0.004658
-0.004659
-0.004661
-0.004970
-0.004969
-0.004969
-0.004969
-0.004969
-0.004970
-0.004972
-0.004973
-0.004975
-0.005292
-0.005292
-0.005291
-0.005291
-0.005292
-0.005292
-0.005293
-0.005295
-0.005297
-0.005623
-0.005622
-0.005622
-0.005621
-0.005622
-0.005622
-0.005623
-0.005625
-0.005627
-0.005961
-0.005960
-0.005959
-0.005959
-0.005960
-0.005960
-0.005961
-0.005962
-0.005964
-0.006306
-0.006305
-0.006305
-0.006305
-0.006305
-0.006305
-0.006306
-0.006308
-0.006309
-0.006659
-0.006658
-0.006658
-0.006658
-0.006658
-0.006658
-0.006659
-0.006660
-0.006662
-0.007019
-0.007018
-0.007018
-0.007017
-0.007018
-0.007018
-0.007018
-0.007020
-0.007021
-0.007386
-0.007385
-0.007385
-0.007384
-0.007384
-0.007385
-0.007385
-0.007386
-0.007388
-0.007760
-0.007759
-0.007758
-0.007758
-0.007758
-0.007758
-0.007759
-0.007760
-0.007761
-0.008141
-0.008140
-0.008139
-0.008138
-0.008138
-0.008138
-0.008139
-0.008140
-0.008141
-0.008527
-0.008526
-0.008525
-0.008525
-0.008525
-0.008525
-0.008525
-0.008526
-0.008527
-0.008920
-0.008919
-0.008918
-0.008918
-0.008917
-0.008917
-0.008918
-0.008918
-0.008919
-0.009319
-0.009318
-0.009317
-0.009316
-0.009316
-0.009316
-0.009316
-0.009317
-0.009317
-0.009723
-0.009722
-0.009721
-0.009721
-0.009720
-0.009720
-0.009720
-0.009721
-0.009721
-0.010133
-0.010132
-0.010131
-0.010130
-0.010130
-0.010130
-0.010130
-0.010130
-0.010131
-0.010549
-0.010547
-0.010546
-0.010545
-0.010545
-0.010544
-0.010544
-0.010545
-0.010545
-0.010969
-0.010967
-0.010966
-0.010965
-0.010965
-0.010964
-0.010964
-0.010964
-0.010965
-0.011394
-0.011392
-0.011391
-0.011390
-0.011389
-0.011389
-0.011389
-0.011389
-0.011389
-0.011823
-0.011821
-0.011820
-0.011819
-0.011818
-0.011818
-0.011818
-0.011818
-0.011818
-0.012257
-0.012255
-0.012254
-0.012253
-0.012252
-0.012252
-0.012251
-0.012251
-0.012251
-0.012694
-0.012693
-0.012692
-0.012691
-0.012690
-0.012689
-0.012689
-0.012688
-0.012689
-0.013136
-0.013135
-0.013133
-0.013132
-0.013131
-0.013130
-0.013130
-0.013130
-0.013130
-0.013581
-0.013580
-0.013578
-0.013577
-0.013576
-0.013575
-0.013575
-0.013574
-0.013574
-0.014030
-0.014028
-0.014027
-0.014026
-0.014025
-0.014024
-0.014023
-0.014023
-0.014023
-0.014482
-0.014480
-0.014479
-0.014478
-0.014476
-0.014475
-0.014475
-0.014474
-0.014474
-0.014937
-0.014935
-0.014934
-0.014932
-0.014931
-0.014930
-0.014929
-0.014929
-0.014928
-0.015394
-0.015393
-0.015391
-0.015390
-0.015388
-0.015387
-0.015386
-0.015386
-0.015385
-0.015855
-0.015853
-0.015851
-0.015850
-0.015848
-0.015847
-0.015846
-0.015845
-0.015845
-0.016317
-0.016315
-0.016313
-0.016312
-0.016311
-0.016309
-0.016308
-0.016307
-0.016307
-0.016781
-0.016779
-0.016778
-0.016776
-0.016775
-0.016774
-0.016772
-0.016771
-0.016771
-0.017248
-0.017246
-0.017244
-0.017242
-0.017241
-0.017240
-0.017238
-0.017237
-0.017236
-0.017716
-0.017714
-0.017712
-0.017710
-0.017709
-0.017707
-0.017706
-0.017705
-0.017704
-0.018185
-0.018183
-0.018181
-0.018180
-0.018178
-0.018176
-0.018175
-0.018174
-0.018173
-0.018656
-0.018654
-0.018652
-0.018650
-0.018648
-0.018647
-0.018646
-0.018644
-0.018643
-0.019128
-0.019126
-0.019124
-0.019122
-0.019120
-0.019118
-0.019117
-0.019116
-0.019115
-0.019600
-0.019598
-0.019596
-0.019594
-0.019592
-0.019591
-0.019589
-0.019588
-0.019587
-0.020073
-0.020071
-0.020069
-0.020067
-0.020066
-0.020064
-0.020062
-0.020061
-0.020059
-0.020547
-0.020545
-0.020543
-0.020541
-0.020539
-0.020538
-0.020536
-0.020534
-0.020533
-0.021021
-0.021019
-0.021017
-0.021015
-0.021013
-0.021012
-0.021010
-0.021008
-0.021007
-0.021496
-0.021493
-0.021491
-0.021489
-0.021487
-0.021485
-0.021484
-0.021482
-0.021480
-0.021970
-0.021968
-0.021965
-0.021963
-0.021962
-0.021959
-0.021958
-0.021956
-0.021954
-0.022444
-0.022442
-0.022439
-0.022437
-0.022435
-0.022433
-0.022431
-0.022430
-0.022428
-0.022917
-0.022915
-0.022913
-0.022911
-0.022909
-0.022907
-0.022905
-0.022903
-0.022901
-0.023391
-0.023388
-0.023386
-0.023384
-0.023382
-0.023380
-0.023378
-0.023376
-0.023374
-0.023863
-0.023861
-0.023858
-0.023856
-0.023854
-0.023852
-0.023850
-0.023848
-0.023846
-0.024335
-0.024332
-0.024330
-0.024328
-0.024326
-0.024323
-0.024321
-0.024319
-0.024317
-0.024805
-0.024803
-0.024801
-0.024798
-0.024796
-0.024794
-0.024792
-0.024790
-0.024787
-0.025275
-0.025273
-0.025270
-0.025268
-0.025266
-0.025263
-0.025261
-0.025259
-0.025257
-0.025743
-0.025741
-0.025738
-0.025736
-0.025734
-0.025731
-0.025729
-0.025727
-0.025725
-0.026210
-0.026208
-0.026205
-0.026203
-0.026201
-0.026198
-0.026196
-0.026194
-0.026191
-0.026675
-0.026673
-0.026671
-0.026668
-0.026666
-0.026663
-0.026661
-0.026659
-0.026656
-0.027139
-0.027137
-0.027134
-0.027132
-0.027130
-0.027127
-0.027125
-0.027122
-0.027120
-0.027601
-0.027599
-0.027597
-0.027594
-0.027591
-0.027589
-0.027586
-0.027584
-0.027581
-0.028062
-0.028059
-0.028057
-0.028054
-0.028052
-0.028049
-0.028046
-0.028044
-0.028041
-0.028520
-0.028517
-0.028515
-0.028512
-0.028510
-0.028507
-0.028505
-0.028502
-0.028499
-0.028976
-0.028973
-0.028971
-0.028968
-0.028966
-0.028963
-0.028960
-0.028958
-0.028955
-0.029430
-0.029427
-0.029425
-0.029422
-0.029420
-0.029417
-0.029414
-0.029412
-0.029409
SCALARS strain_2 float
LOOKUP_TABLE default
0.000232
0.000093
0.000093
0.000093
0.000093
0.000093
0.000093
0.000093
0.000093
0.000093
0.000093
0.000093
0.000094
0.000093
0.000093
0.000094
0.000094
0.000094
0.000095
0.000095
0.000096
0.000096
0.000097
0.000097
0.000098
0.000099
0.000099
0.000099
0.000100
0.000101
0.000102
0.000103
0.000104
0.000105
0.000106
0.000107
0.000108
0.000109
0.000111
0.000112
0.000114
0.000115
0.000117
0.000119
0.000120
0.000122
0.000123
0.000125
0.000127
0.000130
0.000132
0.000134
0.000136
0.000138
0.000141
0.000143
0.000145
0.000148
0.000151
0.000154
0.000157
0.000159
0.000163
0.000165
0.000169
0.000171
0.000175
0.000178
0.000182
0.000185
0.000189
0.000192
0.000196
0.000200
0.000203
0.000208
0.000211
0.000215
0.000219
0.000223
0.000228
0.000566
0.000575
0.000575
0.000576
0.000576
0.000577
0.000577
0.000578
0.000578
0.000578
0.000579
0.000579
0.000580
0.000580
0.000580
0.000581
0.000581
0.000581
0.000582
0.000582
0.000582
0.000583
0.000583
0.000583
0.000584
0.000584
0.000584
0.000584
0.000584
0.000585
0.000584
0.000585
0.000585
0.000585
0.000585
0.000585
0.000585
0.000585
0.000585
0.000585
0.000585
0.000585
0.000585
0.000585
0.000585
0.000585
0.000585
0.000585
0.000584
0.000584
0.000584
0.000584
0.000584
0.000582
0.000583
0.000583
0.000582
0.000582
0.000581
0.000581
0.000581
0.000580
0.000579
0.000579
0.000580
0.000578
0.000578
0.000577
0.000576
0.000576
0.000575
0.000575
0.000574
0.000573
0.000573
0.000571
0.000571
0.000570
0.000569
0.000569
0.000567
0.000519
0.000472
0.000425
0.000378
0.000330
0.000283
0.000235
0.000188
0.000140
0.000266
0.000301
0.000335
0.000369
0.000403
0.000437
0.000472
0.000506
0.000541
0.000541
0.000505
0.000471
0.000437
0.000401
0.000366
0.000332
0.000297
0.000263
0.000541
0.000505
0.000471
0.000435
0.000400
0.000365
0.000329
0.000294
0.000259
0.000541
0.000505
0.000469
0.000433
0.000398
0.000363
0.000327
0.000291
0.000255
0.000541
0.000505
0.000469
0.000432
0.000396
0.000360
0.000324
0.000287
0.000251
0.000541
0.000504
0.000468
0.000431
0.000395
0.000358
0.000321
0.000285
0.000248
0.000541
0.000504
0.000467
0.000430
0.000393
0.000356
0.000319
0.000282
0.000245
0.000541
0.000503
0.000466
0.000428
0.000391
0.000354
0.000316
0.000278
0.000241
0.000540
0.000503
0.000465
0.000427
0.000389
0.000351
0.000313
0.000275
0.000237
0.000541
0.000503
0.000465
0.000426
0.000387
0.000349
0.000311
0.000273
0.000234
0.000540
0.000501
0.000463
0.000425
0.000386
0.000347
0.000308
0.000270
0.000231
0.000541
0.000502
0.000462
0.000424
0.000384
0.000345
0.000306
0.000267
0.000228
0.000541
0.000501
0.000462
0.000422
0.000383
0.000343
0.000304
0.000264
0.000225
0.000540
0.000501
0.000461
0.000421
0.000381
0.000341
0.000301
0.000261
0.000221
0.000540
0.000500
0.000460
0.000420
0.000379
0.000340
0.000299
0.000259
0.000219
0.000540
0.000500
0.000459
0.000419
0.000378
0.000337
0.000297
0.000257
0.000215
0.000540
0.000500
0.000458
0.000418
0.000376
0.000336
0.000295
0.000253
0.000213
0.000541
0.000500
0.000458
0.000417
0.000375
0.000334
0.000293
0.000251
0.000210
0.000541
0.000499
0.000457
0.000416
0.000374
0.000332
0.000290
0.000249
0.000207
0.000541
0.000499
0.000456
0.000414
0.000373
0.000330
0.000288
0.000246
0.000204
0.000541
0.000498
0.000455
0.000413
0.000372
0.000328
0.000286
0.000244
0.000202
0.000540
0.000498
0.000455
0.000413
0.000370
0.000327
0.000285
0.000242
0.000199
0.000540
0.000497
0.000455
0.000412
0.000369
0.000325
0.000283
0.000239
0.000197
0.000540
0.000497
0.000454
0.000411
0.000367
0.000324
0.000281
0.000237
0.000194
0.000540
0.000496
0.000453
0.000410
0.000366
0.000322
0.000279
0.000236
0.000191
0.000540
0.000496
0.000452
0.000409
0.000365
0.000321
0.000277
0.000233
0.000189
0.000540
0.000496
0.000452
0.000408
0.000364
0.000320
0.000275
0.000231
0.000187
0.000540
0.000495
0.000451
0.000407
0.000362
0.000318
0.000274
0.000229
0.000185
0.000540
0.000496
0.000450
0.000406
0.000361
0.000317
0.000272
0.000228
0.000183
0.000540
0.000495
0.000450
0.000405
0.000361
0.000315
0.000271
0.000226
0.000181
0.000540
0.000495
0.000449
0.000404
0.000359
0.000314
0.000269
0.000225
0.000178
0.000539
0.000494
0.000449
0.000403
0.000359
0.000313
0.000268
0.000222
0.000177
0.000539
0.000494
0.000448
0.000403
0.000357
0.000312
0.000266
0.000221
0.000175
0.000539
0.000493
0.000448
0.000402
0.000356
0.000311
0.000265
0.000219
0.000173
0.000539
0.000493
0.000447
0.000401
0.000355
0.000310
0.000264
0.000217
0.000171
0.000539
0.000493
0.000447
0.000400
0.000354
0.000308
0.000262
0.000216
0.000170
0.000538
0.000493
0.000446
0.000400
0.000354
0.000307
0.000260
0.000215
0.000168
0.000539
0.000492
0.000445
0.000400
0.000353
0.000306
0.000260
0.000213
0.000167
0.000539
0.000492
0.000445
0.000399
0.000352
0.000305
0.000258
0.000212
0.000165
0.000539
0.000492
0.000445
0.000398
0.000351
0.000304
0.000257
0.000210
0.000163
0.000538
0.000491
0.000444
0.000397
0.000350
0.000303
0.000257
0.000209
0.000162
0.000538
0.000491
0.000444
0.000397
0.000350
0.000302
0.000255
0.000208
0.000161
0.000537
0.000490
0.000443
0.000396
0.000348
0.000301
0.000254
0.000207
0.000159
0.000537
0.000490
0.000442
0.000395
0.000348
0.000301
0.000253
0.000205
0.000158
0.000537
0.000490
0.000442
0.000395
0.000347
0.000299
0.000252
0.000205
0.000157
0.000537
0.000490
0.000442
0.000394
0.000346
0.000299
0.000251
0.000203
0.000156
0.000537
0.000490
0.000441
0.000394
0.000346
0.000297
0.000251
0.000203
0.000155
0.000536
0.000489
0.000441
0.000393
0.000345
0.000298
0.000250
0.000201
0.000154
0.000536
0.000488
0.000440
0.000393
0.000344
0.000297
0.000248
0.000201
0.000153
0.000536
0.000488
0.000440
0.000392
0.000344
0.000296
0.000248
0.000200
0.000152
0.000536
0.000487
0.000440
0.000391
0.000343
0.000295
0.000248
0.000199
0.000151
0.000535
0.000487
0.000439
0.000391
0.000343
0.000295
0.000247
0.000199
0.000150
0.000535
0.000487
0.000438
0.000390
0.000342
0.000294
0.000246
0.000198
0.000149
0.000534
0.000486
0.000438
0.000390
0.000341
0.000293
0.000245
0.000197
0.000149
0.000534
0.000486
0.000438
0.000390
0.000341
0.000293
0.000245
0.000196
0.000148
0.000534
0.000486
0.000438
0.000389
0.000341
0.000292
0.000244
0.000196
0.000147
0.000533
0.000485
0.000437
0.000388
0.000340
0.000292
0.000244
0.000194
0.000146
0.000533
0.000485
0.000436
0.000388
0.000339
0.000292
0.000242
0.000195
0.000146
0.000533
0.000484
0.000436
0.000388
0.000339
0.000290
0.000242
0.000194
0.000145
0.000533
0.000484
0.000436
0.000387
0.000338
0.000291
0.000242
0.000193
0.000145
0.000532
0.000483
0.000435
0.000386
0.000338
0.000290
0.000241
0.000193
0.000145
0.000532
0.000483
0.000434
0.000386
0.000338
0.000289
0.000241
0.000192
0.000144
0.000531
0.000482
0.000434
0.000386
0.000337
0.000289
0.000240
0.000192
0.000144
0.000531
0.000482
0.000433
0.000385
0.000337
0.000289
0.000240
0.000192
0.000143
0.000530
0.000482
0.000433
0.000384
0.000336
0.000289
0.000240
0.000191
0.000143
0.000529
0.000481
0.000432
0.000384
0.000336
0.000288
0.000239
0.000191
0.000142
0.000529
0.000481
0.000432
0.000384
0.000336
0.000287
0.000239
0.000191
0.000143
0.000528
0.000480
0.000432
0.000383
0.000335
0.000287
0.000239
0.000191
0.000142
0.000527
0.000480
0.000431
0.000383
0.000334
0.000287
0.000238
0.000190
0.000141
0.000527
0.000479
0.000431
0.000383
0.000334
0.000286
0.000238
0.000190
0.000142
0.000526
0.000478
0.000431
0.000382
0.000334
0.000286
0.000238
0.000189
0.000141
0.000526
0.000478
0.000430
0.000382
0.000334
0.000286
0.000237
0.000189
0.000141
0.000525
0.000477
0.000429
0.000381
0.000333
0.000285
0.000237
0.000189
0.000141
0.000525
0.000477
0.000428
0.000380
0.000333
0.000284
0.000237
0.000189
0.000141
0.000524
0.000476
0.000428
0.000380
0.000332
0.000285
0.000237
0.000188
0.000140
0.000523
0.000476
0.000428
0.000380
0.000332
0.000284
0.000236
0.000188
0.000141
0.000522
0.000475
0.000428
0.000379
0.000331
0.000284
0.000236
0.000189
0.000141
0.000522
0.000474
0.000427
0.000379
0.000331
0.000283
0.000235
0.000188
0.000140
0.000521
0.000474
0.000426
0.000379
0.000330
0.000283
0.000236
0.000188
0.000141
0.000520
0.000473
0.000425
0.000378
0.000330
0.000284
0.000236
0.000188
0.000140
SCALARS strain_3 float
LOOKUP_TABLE default
0.000152
0.009321
0.009189
0.009057
0.008924
0.008790
0.008656
0.008521
0.008386
0.008250
0.008113
0.007976
0.007838
0.007700
0.007562
0.007422
0.007284
0.007144
0.007005
0.006865
0.006725
0.006585
0.006444
0.006304
0.006164
0.006024
0.005884
0.005745
0.005605
0.005466
0.005327
0.005190
0.005052
0.004915
0.004778
0.004642
0.004507
0.004372
0.004239
0.004106
0.003974
0.003844
0.003714
0.003586
0.003459
0.003334
0.003209
0.003086
0.002965
0.002845
0.002727
0.002610
0.002496
0.002383
0.002271
0.002162
0.002056
0.001950
0.001847
0.001747
0.001648
0.001552
0.001457
0.001366
0.001277
0.001190
0.001105
0.001024
0.000944
0.000867
0.000793
0.000722
0.000653
0.000586
0.000523
0.000462
0.000403
0.000348
0.000295
0.000245
0.000197
0.009066
-0.000080
-0.000037
0.000009
0.000057
0.000108
0.000162
0.000218
0.000278
0.000340
0.000404
0.000471
0.000542
0.000615
0.000690
0.000768
0.000848
0.000931
0.001017
0.001105
0.001196
0.001289
0.001384
0.001481
0.001581
0.001683
0.001788
0.001894
0.002003
0.002113
0.002225
0.002339
0.002455
0.002574
0.002693
0.002814
0.002936
0.003060
0.003186
0.003313
0.003441
0.003570
0.003700
0.003832
0.003965
0.004098
0.004233
0.004369
0.004504
0.004641
0.004779
0.004916
0.005055
0.005194
0.005333
0.005473
0.005613
0.005753
0.005894
0.006034
0.006175
0.006315
0.006456
0.006597
0.006737
0.006877
0.007017
0.007157
0.007297
0.007436
0.007575
0.007713
0.007851
0.007988
0.008125
0.008261
0.008397
0.008532
0.008667
0.008801
0.008934
0.009091
0.009117
0.009142
0.009168
0.009194
0.009219
0.009245
0.009270
0.009296
0.000128
0.000105
0.000081
0.000058
0.000034
0.000011
-0.000012
-0.000035
-0.000058
-0.000015
0.000009
0.000032
0.000055
0.000079
0.000102
0.000126
0.000149
0.000173
0.000031
0.000055
0.000078
0.000102
0.000125
0.000149
0.000172
0.000196
0.000221
0.000080
0.000104
0.000127
0.000151
0.000174
0.000198
0.000222
0.000247
0.000270
0.000131
0.000155
0.000179
0.000202
0.000226
0.000251
0.000275
0.000299
0.000324
0.000186
0.000209
0.000233
0.000257
0.000281
0.000306
0.000330
0.000354
0.000379
0.000242
0.000266
0.000290
0.000314
0.000339
0.000363
0.000388
0.000412
0.000437
0.000302
0.000326
0.000350
0.000374
0.000399
0.000423
0.000448
0.000473
0.000498
0.000364
0.000388
0.000413
0.000437
0.000462
0.000486
0.000511
0.000536
0.000561
0.000428
0.000453
0.000478
0.000502
0.000527
0.000552
0.000577
0.000602
0.000628
0.000496
0.000521
0.000546
0.000570
0.000595
0.000621
0.000646
0.000671
0.000696
0.000566
0.000591
0.000616
0.000641
0.000666
0.000691
0.000717
0.000742
0.000767
0.000639
0.000664
0.000689
0.000714
0.000740
0.000765
0.000790
0.000816
0.000842
0.000715
0.000740
0.000765
0.000790
0.000816
0.000841
0.000867
0.000893
0.000918
0.000793
0.000818
0.000843
0.000869
0.000894
0.000920
0.000946
0.000971
0.000998
0.000874
0.000899
0.000924
0.000950
0.000975
0.001002
0.001027
0.001053
0.001079
0.000957
0.000982
0.001008
0.001034
0.001059
0.001085
0.001111
0.001137
0.001163
0.001043
0.001068
0.001093
0.001120
0.001146
0.001172
0.001198
0.001224
0.001251
0.001131
0.001157
0.001182
0.001208
0.001234
0.001260
0.001287
0.001313
0.001339
0.001221
0.001248
0.001273
0.001299
0.001325
0.001352
0.001378
0.001404
0.001431
0.001314
0.001340
0.001366
0.001393
0.001419
0.001445
0.001472
0.001499
0.001525
0.001410
0.001436
0.001462
0.001488
0.001515
0.001541
0.001568
0.001595
0.001621
0.001508
0.001534
0.001560
0.001586
0.001613
0.001639
0.001666
0.001693
0.001719
0.001607
0.001634
0.001660
0.001686
0.001713
0.001740
0.001767
0.001794
0.001820
0.001710
0.001736
0.001763
0.001789
0.001816
0.001842
0.001869
0.001896
0.001923
0.001814
0.001840
0.001867
0.001894
0.001920
0.001947
0.001974
0.002001
0.002028
0.001921
0.001947
0.001974
0.002000
0.002027
0.002054
0.002081
0.002108
0.002135
0.002029
0.002055
0.002082
0.002109
0.002136
0.002163
0.002190
0.002217
0.002244
0.002139
0.002166
0.002193
0.002220
0.002247
0.002274
0.002301
0.002328
0.002355
0.002252
0.002279
0.002305
0.002332
0.002359
0.002387
0.002413
0.002441
0.002468
0.002366
0.002393
0.002420
0.002447
0.002474
0.002501
0.002528
0.002556
0.002583
0.002482
0.002509
0.002536
0.002563
0.002590
0.002617
0.002644
0.002672
0.002699
0.002600
0.002627
0.002654
0.002681
0.002708
0.002735
0.002763
0.002790
0.002817
0.002720
0.002746
0.002773
0.002801
0.002828
0.002855
0.002882
0.002910
0.002937
0.002841
0.002868
0.002895
0.002922
0.002949
0.002976
0.003004
0.003031
0.003059
0.002963
0.002990
0.003017
0.003044
0.003072
0.003099
0.003127
0.003154
0.003182
0.003087
0.003115
0.003141
0.003169
0.003196
0.003223
0.003251
0.003278
0.003306
0.003213
0.003240
0.003267
0.003294
0.003322
0.003349
0.003377
0.003404
0.003432
0.003339
0.003367
0.003394
0.003421
0.003448
0.003476
0.003504
0.003531
0.003559
0.003468
0.003495
0.003522
0.003549
0.003577
0.003604
0.003631
0.003659
0.003687
0.003597
0.003625
0.003651
0.003679
0.003706
0.003734
0.003761
0.003789
0.003816
0.003728
0.003755
0.003782
0.003809
0.003837
0.003864
0.003892
0.003919
0.003947
0.003859
0.003887
0.003914
0.003941
0.003969
0.003996
0.004023
0.004051
0.004079
0.003992
0.004019
0.004046
0.004074
0.004101
0.004129
0.004156
0.004184
0.004211
0.004126
0.004153
0.004180
0.004207
0.004234
0.004262
0.004290
0.004317
0.004345
0.004260
0.004287
0.004314
0.004342
0.004369
0.004396
0.004424
0.004452
0.004479
0.004395
0.004423
0.004450
0.004477
0.004504
0.004532
0.004560
0.004587
0.004614
0.004531
0.004559
0.004586
0.004613
0.004640
0.004668
0.004695
0.004723
0.004750
0.004668
0.004695
0.004723
0.004750
0.004777
0.004805
0.004832
0.004859
0.004887
0.004805
0.004833
0.004860
0.004887
0.004915
0.004942
0.004969
0.004996
0.005024
0.004943
0.004971
0.004998
0.005025
0.005052
0.005080
0.005107
0.005134
0.005162
0.005082
0.005110
0.005137
0.005164
0.005191
0.005218
0.005245
0.005273
0.005300
0.005221
0.005248
0.005275
0.005302
0.005330
0.005357
0.005384
0.005411
0.005439
0.005361
0.005388
0.005415
0.005442
0.005469
0.005496
0.005523
0.005550
0.005578
0.005500
0.005527
0.005554
0.005581
0.005608
0.005635
0.005663
0.005690
0.005717
0.005640
0.005667
0.005694
0.005721
0.005749
0.005776
0.005803
0.005830
0.005857
0.005780
0.005807
0.005834
0.005861
0.005889
0.005915
0.005943
0.005970
0.005997
0.005921
0.005948
0.005974
0.006002
0.006029
0.006056
0.006083
0.006110
0.006137
0.006061
0.006088
0.006115
0.006142
0.006169
0.006196
0.006223
0.006250
0.006277
0.006202
0.006229
0.006256
0.006282
0.006309
0.006336
0.006364
0.006391
0.006417
0.006343
0.006369
0.006396
0.006423
0.006450
0.006477
0.006504
0.006531
0.006558
0.006483
0.006510
0.006537
0.006563
0.006590
0.006617
0.006644
0.006670
0.006698
0.006623
0.006650
0.006677
0.006704
0.006730
0.006757
0.006784
0.006811
0.006838
0.006764
0.006791
0.006817
0.006844
0.006871
0.006897
0.006924
0.006951
0.006977
0.006904
0.006930
0.006958
0.006984
0.007011
0.007037
0.007064
0.007090
0.007117
0.007044
0.007070
0.007097
0.007124
0.007150
0.007177
0.007204
0.007230
0.007257
0.007184
0.007210
0.007237
0.007263
0.007290
0.007317
0.007343
0.007369
0.007396
0.007323
0.007350
0.007376
0.007403
0.007429
0.007455
0.007482
0.007508
0.007535
0.007462
0.007489
0.007515
0.007541
0.007568
0.007594
0.007621
0.007647
0.007673
0.007601
0.007627
0.007653
0.007680
0.007706
0.007733
0.007759
0.007786
0.007812
0.007739
0.007766
0.007792
0.007818
0.007844
0.007871
0.007897
0.007923
0.007949
0.007877
0.007903
0.007930
0.007956
0.007982
0.008008
0.008034
0.008060
0.008087
0.008014
0.008041
0.008067
0.008093
0.008119
0.008145
0.008171
0.008197
0.008223
0.008151
0.008177
0.008203
0.008230
0.008255
0.008281
0.008307
0.008333
0.008360
0.008288
0.008313
0.008340
0.008365
0.008391
0.008417
0.008443
0.008469
0.008495
0.008423
0.008449
0.008475
0.008501
0.008526
0.008553
0.008579
0.008604
0.008630
0.008558
0.008584
0.008610
0.008636
0.008662
0.008687
0.008713
0.008739
0.008764
0.008693
0.008718
0.008744
0.008770
0.008796
0.008821
0.008847
0.008873
0.008898
0.008826
0.008852
0.008878
0.008904
0.008929
0.008955
0.008980
0.009006
0.009032
0.008959
0.008985
0.009011
0.009036
0.009062
0.009088
0.009113
0.009138
0.009164
SCALARS stress_1 float
LOOKUP_TABLE default
3902.427321
-10390554.677379
-10233418.213570
-10075577.749761
-9916949.285952
-9757584.822144
-9597508.358335
-9436883.894526
-9275623.430717
-9113690.966909
-8951310.503100
-8788462.039291
-8625145.575482
-8461501.111674
-8297416.647865
-8132996.184056
-7968543.720248
-7803835.256439
-7638878.792630
-7473990.328821
-7308993.865013
-7144133.401204
-6979328.937395
-6814672.473586
-6650284.009778
-6486175.545969
-6322535.082160
-6159210.618351
-5996402.154543
-5834185.690734
-5672613.226925
-5511828.763116
-5351752.299308
-5192659.835499
-5034467.371690
-4877222.907881
-4721198.444073
-4566225.980264
-4412593.516455
-4260285.052647
-4109436.588838
-3960024.125029
-3812211.661220
-3666115.197412
-3521746.733603
-3379134.269794
-3238477.805985
-3099693.342177
-2963072.878368
-2828488.414559
-2696291.950750
-2566211.486942
-2438479.023133
-2313198.559324
-2190382.095515
-2070229.631707
-1952621.167898
-1837676.704089
-1725476.240280
-1616203.776472
-1509707.312663
-1406090.848854
-1305562.385046
-1207889.921237
-1113365.457428
-1021932.993619
-933608.529811
-848444.066002
-766499.602193
-687787.138384
-612230.674576
-539990.210767
-471061.746958
-405221.283149
-342784.819341
-283584.355532
-227599.891723
-174931.427914
-125494.964106
-79182.500297
-36034.036488
-10375889.187786
37675.916913
-2048.546895
-45137.010704
-91373.474513
-140909.938322
-193542.402130
-249518.865939
-308827.329748
-371327.793557
-437120.257365
-506144.721174
-578541.184983
-654133.648792
-733034.112600
-815154.576409
-900363.040218
-988851.504027
-1080459.967835
-1175164.431644
-1273024.895453
-1373801.359261
-1477585.823070
-1584310.286879
-1693786.750688
-1806167.214496
-1921407.678305
-2039208.142114
-2159724.605923
-2282733.069731
-2408297.533540
-2536213.997349
-2666594.461158
-2799306.924966
-2934035.388775
-3070987.852584
-3209980.316393
-3351000.780201
-3493945.244010
-3638601.707819
-3784990.171628
-3933174.635436
-4082867.099245
-4234055.563054
-4386796.026862
-4540704.490671
-4695792.954480
-4852341.418289
-5009845.882097
-5168330.345906
-5327942.809715
-5488223.273524
-5649403.737332
-5811264.201141
-5973812.664950
-6136905.128759
-6300553.592567
-6464662.056376
-6628974.520185
-6793714.983994
-6958619.447802
-7123843.911611
-7288972.375420
-7454340.839229
-7619493.303037
-7784685.766846
-7949714.230655
-8114558.694463
-8279243.158272
-8443575.622081
-8607552.085890
-8771176.549698
-8934277.013507
-9096961.477316
-9259065.941125
-9420642.404933
-9581650.868742
-9741971.332551
-9901487.796360
-10060432.260168
-10218540.723977
-10377403.336745
-10378977.485704
-10380379.634664
-10381909.783623
-10383423.932582
-10384862.081542
-10386372.230501
-10387710.379460
-10389124.528419
7896.576280
11746.725239
15368.874198
19039.023158
22453.172117
25827.321076
28949.470035
31995.618995
34985.767954
-4822.695855
-7868.844814
-10962.993773
-14065.142733
-17451.291692
-20905.440651
-24435.589610
-28185.738570
-32051.887529
-47999.159663
-50897.308623
-54011.457582
-57185.606541
-60487.755501
-64021.904460
-67500.053419
-71330.202378
-75124.351338
-94211.623472
-97153.772431
-100243.921391
-103486.070350
-106780.219309
-110238.368269
-113816.517228
-117522.666187
-121448.815146
-143652.087281
-146638.236240
-149716.385199
-152902.534159
-156248.683118
-159746.832077
-163340.981037
-166975.129996
-170869.278955
-196456.551090
-199274.700049
-202472.849008
-205578.997968
-208957.146927
-212391.295886
-216033.444845
-219747.593805
-223573.742764
-252401.014898
-255323.163858
-258329.312817
-261555.461776
-264949.610736
-268411.759695
-271977.908654
-275696.057613
-279554.206573
-311645.478707
-314531.627666
-317541.776626
-320835.925585
-324142.074544
-327596.223504
-331138.372463
-334904.521422
-338782.670381
-374077.942516
-377056.091475
-380074.240434
-383216.389394
-386590.538353
-390080.687312
-393654.836272
-397372.985231
-401223.134190
-439802.406325
-442816.555284
-445906.704243
-449104.853202
-452379.002162
-455777.151121
-459359.300080
-463173.449040
-466939.597999
-508978.870133
-511865.019093
-514911.168052
-518113.317011
-521395.465970
-524929.614930
-528443.763889
-532149.912848
-535980.061808
-581375.333942
-584229.482901
-587251.631861
-590445.780820
-593727.929779
-597206.078738
-600772.227698
-604402.376657
-608224.525616
-656967.797751
-659813.946710
-662744.095669
-665990.244629
-669324.393588
-672698.542547
-676260.691507
-679986.840466
-683772.989425
-735896.261560
-738662.410519
-741720.559478
-744834.708437
-748104.857397
-751515.006356
-755089.155315
-758775.304275
-762513.453234
-817824.725368
-820766.874328
-823769.023287
-826935.172246
-830129.321205
-833487.470165
-837089.619124
-840759.768083
-844569.917043
-903109.189177
-905939.338136
-908957.487096
-912175.636055
-915389.785014
-918819.933973
-922310.082933
-925972.231892
-929730.380851
-991609.652986
-994435.801945
-997425.950904
-1000564.099864
-1003818.248823
-1007136.397782
-1010618.546741
-1014292.695701
-1018038.844660
-1083126.116795
-1085976.265754
-1089042.414713
-1092036.563672
-1095330.712632
-1098648.861591
-1102163.010550
-1105769.159509
-1109507.308469
-1177934.580603
-1180724.729563
-1183678.878522
-1186705.027481
-1189979.176440
-1193361.325400
-1196759.474359
-1200353.623318
-1204071.772278
-1275659.044412
-1278533.193371
-1281399.342331
-1284449.491290
-1287671.640249
-1290933.789208
-1294415.938168
-1298018.087127
-1301672.236086
-1376399.508221
-1379269.657180
-1382151.806139
-1385201.955099
-1388400.104058
-1391706.253017
-1395160.401976
-1398650.550936
-1402356.699895
-1480183.972029
-1482986.120989
-1485896.269948
-1488886.418907
-1492000.567867
-1495338.716826
-1498720.865785
-1502227.014744
-1505901.163704
-1586976.435838
-1589626.584798
-1592568.733757
-1595550.882716
-1598753.031675
-1601875.180635
-1605297.329594
-1608795.478553
-1612497.627512
-1696504.899647
-1699215.048606
-1702105.197566
-1705119.346525
-1708173.495484
-1711379.644443
-1714777.793403
-1718239.942362
-1721754.091321
-1808893.363456
-1811567.512415
-1814393.661374
-1817327.810334
-1820489.959293
-1823656.108252
-1827050.257211
-1830416.406171
-1833930.555130
-1923969.827264
-1926599.976224
-1929470.125183
-1932488.274142
-1935530.423102
-1938632.572061
-1942006.721020
-1945372.869979
-1949035.018939
-2041786.291073
-2044496.440032
-2047338.588992
-2050168.737951
-2053262.886910
-2056405.035870
-2059763.184829
-2063177.333788
-2066559.482747
-2162222.754882
-2164948.903841
-2167735.052800
-2170629.201760
-2173651.350719
-2176797.499678
-2179955.648638
-2183365.797597
-2186831.946556
-2285275.218691
-2287937.367650
-2290679.516609
-2293613.665569
-2296551.814528
-2299681.963487
-2302868.112446
-2306226.261406
-2309632.410365
-2410835.682499
-2413425.831459
-2416199.980418
-2419054.129377
-2422052.278337
-2425038.427296
-2428276.576255
-2431534.725214
-2435020.874174
-2538692.146308
-2541370.295267
-2544132.444227
-2546822.593186
-2549880.742145
-2552902.891105
-2556033.040064
-2559343.189023
-2562701.337982
-2669020.610117
-2671602.759076
-2674396.908035
-2677195.056995
-2680125.205954
-2683155.354913
-2686221.503873
-2689407.652832
-2692809.801791
-2801713.073926
-2804235.222885
-2806893.371844
-2809711.520803
-2812629.669763
-2815579.818722
-2818621.967681
-2821904.116641
-2825082.265600
-2936481.537734
-2939055.686694
-2941685.835653
-2944459.984612
-2947354.133571
-2950284.282531
-2953298.431490
-2956496.580449
-2959710.729409
-3073374.001543
-3075984.150502
-3078602.299462
-3081272.448421
-3084126.597380
-3087004.746339
-3090114.895299
-3093181.044258
-3096459.193217
-3212446.465352
-3214980.614311
-3217470.763270
-3220148.912230
-3223031.061189
-3225865.210148
-3228903.359108
-3232037.508067
-3235255.657026
-3353430.929161
-3355829.078120
-3358391.227079
-3361165.376038
-3363911.524998
-3366785.673957
-3369735.822916
-3372721.971876
-3375896.120835
-3496279.392969
-3498733.541929
-3501267.690888
-3503905.839847
-3506707.988806
-3509454.137766
-3512340.286725
-3515394.435684
-3518536.584644
-3640927.856778
-3643450.005737
-3645968.154697
-3648458.303656
-3651196.452615
-3654078.601574
-3656956.750534
-3659886.899493
-3662981.048452
-3787432.320587
-3789858.469546
-3792340.618505
-3794866.767465
-3797528.916424
-3800255.065383
-3803193.214342
-3806123.363302
-3809205.512261
-3935500.784396
-3937882.933355
-3940369.082314
-3942947.231273
-3945613.380233
-3948295.529192
-3951133.678151
-3953951.827110
-3956941.976070
-4085153.248204
-4087527.397164
-4090013.546123
-4092567.695082
-4095101.844041
-4097859.993001
-4100662.141960
-4103444.290919
-4106506.439879
-4236385.712013
-4238743.860972
-4241090.009932
-4243616.158891
-4246194.307850
-4248904.456809
-4251598.605769
-4254452.754728
-4257302.903687
-4389042.175822
-4391268.324781
-4393726.473740
-4396160.622700
-4398730.771659
-4401336.920618
-4404007.069577
-4406861.218537
-4409703.367496
-4542918.639630
-4545248.788590
-4547586.937549
-4550133.086508
-4552595.235468
-4555149.384427
-4557799.533386
-4560613.682345
-4563399.831305
-4698107.103439
-4700425.252399
-4702767.401358
-4705181.550317
-4707635.699276
-4710225.848236
-4712791.997195
-4715526.146154
-4718232.295113
-4854511.567248
-4856793.716207
-4859055.865167
-4861490.014126
-4863968.163085
-4866410.312044
-4868984.461004
-4871722.609963
-4874440.758922
-5011996.031057
-5014278.180016
-5016468.328975
-5018890.477935
-5021300.626894
-5023862.775853
-5026320.924812
-5029019.073772
-5031673.222731
-5170512.494865
-5172762.643825
-5175040.792784
-5177342.941743
-5179789.090703
-5182163.239662
-5184709.388621
-5187255.537580
-5189941.686540
-5330012.958674
-5332199.107633
-5334469.256593
-5336707.405552
-5339065.554511
-5341479.703471
-5343985.852430
-5346512.001389
-5349122.150348
-5490337.422483
-5492495.571442
-5494729.720401
-5496975.869361
-5499350.018320
-5501672.167279
-5504146.316239
-5506672.465198
-5509254.614157
-5651513.886292
-5653624.035251
-5655814.184210
-5658100.333170
-5660382.482129
-5662772.631088
-5665098.780047
-5667488.929007
-5670023.077966
-5813366.350100
-5815440.499060
-5817666.648019
-5819848.796978
-5822010.945938
-5824385.094897
-5826787.243856
-5829209.392815
-5831743.541775
-5975906.813909
-5977952.962868
-5980071.111828
-5982273.260787
-5984567.409746
-5986753.558706
-5989107.707665
-5991465.856624
-5993968.005583
-6138899.277718
-6140941.426677
-6143079.575636
-6145281.724596
-6147463.873555
-6149810.022514
-6152016.171474
-6154394.320433
-6156864.469392
-6302523.741527
-6304617.890486
-6306744.039445
-6308774.188404
-6310988.337364
-6313198.486323
-6315412.635282
-6317802.784242
-6320092.933201
-6466540.205335
-6468654.354295
-6470636.503254
-6472746.652213
-6474848.801172
-6477070.950132
-6479301.099091
-6481607.248050
-6483885.397010
-6630928.669144
-6632982.818103
-6635032.967063
-6637103.116022
-6639173.264981
-6641351.413941
-6643501.562900
-6645787.711859
-6647997.860818
-6795677.132953
-6797591.281912
-6799605.430871
-6801723.579831
-6803769.728790
-6805923.877749
-6808030.026709
-6810264.175668
-6812438.324627
-6960589.596762
-6962515.745721
-6964557.894680
-6966556.043639
-6968626.192599
-6970692.341558
-6972742.490517
-6974920.639477
-6977110.788436
-7125650.060570
-7127664.209530
-7129614.358489
-7131632.507448
-7133606.656407
-7135608.805367
-7137686.954326
-7139853.103285
-7142027.252245
-7290978.524379
-7292860.673338
-7294774.822298
-7296748.971257
-7298691.120216
-7300677.269175
-7302755.418135
-7304781.567094
-7306883.716053
-7456214.988188
-7458053.137147
-7459923.286106
-7461929.435066
-7463811.584025
-7465817.732984
-7467779.881943
-7469826.030903
-7471880.179862
-7621367.451997
-7623265.600956
-7625155.749915
-7627033.898874
-7629032.047834
-7630898.196793
-7632888.345752
-7634878.494711
-7636848.643671
-7786527.915805
-7788338.064765
-7790216.213724
-7792102.362683
-7794024.511642
-7795954.660602
-7797872.809561
-7799778.958520
-7801777.107480
-7951516.379614
-7953370.528573
-7955208.677533
-7957086.826492
-7958868.975451
-7960843.124410
-7962737.273370
-7964687.422329
-7966605.571288
-8116392.843423
-8118302.992382
-8119981.141341
-8121863.290301
-8123697.439260
-8125547.588219
-8127465.737178
-8129335.886138
-8131190.035097
-8280933.307232
-8282743.456191
-8284621.605150
-8286331.754109
-8288209.903069
-8290000.052028
-8291802.200987
-8293696.349946
-8295558.498906
-8445305.771040
-8447059.920000
-8448918.068959
-8450556.217918
-8452426.366877
-8454208.515837
-8456022.664796
-8457816.813755
-8459650.962714
-8609214.234849
-8611060.383808
-8612726.532768
-8614492.681727
-8616274.830686
-8618080.979645
-8619775.128605
-8621517.277564
-8623363.426523
-8772850.698658
-8774592.847617
-8776190.996576
-8778097.145536
-8779695.294495
-8781505.443454
-8783163.592413
-8784937.741373
-8786671.890332
-8935999.162466
-8937717.311426
-8939371.460385
-8941097.609344
-8942735.758304
-8944409.907263
-8946232.056222
-8947994.205181
-8949568.354141
-9098687.626275
-9100273.775234
-9101991.924194
-9103686.073153
-9105340.222112
-9106950.371072
-9108692.520031
-9110410.668990
-9112064.817949
-9260720.090084
-9262398.239043
-9264100.388002
-9265730.536962
-9267360.685921
-9268938.834880
-9270664.983840
-9272379.132799
-9273885.281758
-9422260.553893
-9423974.702852
-9425636.851811
-9427223.000771
-9428813.149730
-9430527.298689
-9432041.447648
-9433551.596608
-9435281.745567
-9583273.017701
-9584819.166661
-9586409.315620
-9588055.464579
-9589661.613539
-9591331.762498
-9592845.911457
-9594452.060416
-9595978.209376
-9743505.481510
-9745111.630469
-9746717.779429
-9748339.928388
-9749810.077347
-9751440.226307
-9752958.375266
-9754476.524225
-9756090.673184
-9903137.945319
-9904696.094278
-9906326.243237
-9907796.392197
-9909302.541156
-9910892.690115
-9912434.839075
-9913928.988034
-9915431.136993
-10061990.409128
-10063568.558087
-10065102.707046
-10066660.856005
-10068191.004965
-10069709.153924
-10071139.302883
-10072681.451843
-10074083.600802
-10220126.872936
-10221665.021896
-10223155.170855
-10224641.319814
-10226143.468773
-10227629.617733
-10229139.766692
-10230601.915651
-10232040.064611
SCALARS stress_2 float
LOOKUP_TABLE default
90060.353644
-2399404.097675
-2362584.392034
-2325444.686392
-2288032.980751
-2250685.275109
-2212745.569468
-2175013.863826
-2137170.158185
-2099134.452543
-2060762.746902
-2022519.041260
-1984019.335619
-1945519.629977
-1906843.924336
-1868184.218694
-1829236.513053
-1790416.807411
-1751549.101770
-1712617.396128
-1673685.690487
-1634785.984845
-1595934.279204
-1556890.573562
-1518166.867921
-1479347.162279
-1440575.456638
-1402027.750996
-1363480.045355
-1325124.339713
-1286832.634072
-1248860.928431
-1210681.222789
-1172965.517148
-1135441.811506
-1098126.105865
-1061050.400223
-1024118.694582
-987666.988940
-951503.283299
-915419.577657
-879959.872016
-844420.166374
-809888.460733
-775324.755091
-741209.049450
-707541.343808
-674193.638167
-641613.932525
-609290.226884
-577350.521242
-546226.815601
-515343.109959
-485147.404318
-455495.698676
-426451.993035
-398064.287393
-370076.581752
-342936.876110
-316213.170469
-290257.464827
-265021.759186
-240522.053544
-216486.347903
-193426.642261
-170574.936620
-148907.230979
-127783.525337
-107347.819696
-87712.114054
-68796.408413
-50680.702771
-33204.997130
-16529.291488
-557.585847
14614.119795
29129.825436
42669.531078
55649.236719
67892.942361
79400.648002
-2243027.301606
205461.149713
196289.444072
186269.738430
175562.032789
164006.327147
151938.621506
138814.915864
125115.210223
110535.504581
95283.798940
79248.093298
62268.387657
44584.682015
26196.976374
7121.270732
-12770.434909
-33590.140551
-54729.846192
-76877.551834
-99825.257475
-123492.963117
-147832.668758
-172668.374400
-198320.080041
-224643.785683
-251655.491324
-279243.196966
-307550.902607
-336242.608249
-365798.313890
-395626.019532
-426125.725173
-457377.430815
-489029.136456
-521208.842097
-553692.547739
-586896.253380
-620403.959022
-654215.664663
-688763.370305
-723519.075946
-758546.781588
-794310.487229
-830042.192871
-866365.898512
-902897.604154
-939605.309795
-976553.015437
-1013884.721078
-1051296.426720
-1089028.132361
-1127047.838003
-1165163.543644
-1203343.249286
-1241714.954927
-1280406.660569
-1318970.366210
-1357598.071852
-1396641.777493
-1435445.483135
-1474409.188776
-1513484.894418
-1552320.600059
-1591332.305701
-1630200.011342
-1669355.716984
-1708111.422625
-1747139.128267
-1785990.833908
-1824586.539549
-1863358.245191
-1901713.950832
-1940277.656474
-1978809.362115
-2016877.067757
-2054848.773398
-2092884.479040
-2130632.184681
-2168219.890323
-2205679.595964
-2258592.981213
-2274238.660820
-2289964.340427
-2305578.020034
-2321127.699640
-2336853.379247
-2352547.058854
-2368272.738461
-2383854.418068
101754.033251
113495.712858
125013.392465
136691.072071
148192.751678
159822.431285
171372.110892
182793.790499
194119.470106
184643.764465
173094.084858
161720.405251
150010.725644
138189.046037
126575.366430
114689.686823
103060.007216
91158.327609
174608.058823
162802.379216
151044.699609
139367.020002
127625.340395
115499.660788
103805.981182
91760.301575
79858.621968
163724.353182
151838.673575
140016.993968
127939.314361
116021.634754
104135.955147
91994.275540
79932.595933
67742.916326
152168.647540
140058.967933
128093.288326
116047.608719
103873.929112
91636.249506
79494.569899
67384.890292
54907.210685
139796.941899
127511.262292
115513.582685
103099.903078
91006.223471
78464.543864
66226.864257
53845.184650
41399.505043
126641.236257
114339.556650
102005.877043
89672.197436
77066.517829
64732.838223
52143.158616
39793.479009
27107.799402
112797.530616
100319.851009
87826.171402
75204.491795
62614.812188
50009.132581
37307.452974
24749.773367
12192.093760
97977.824974
85468.145367
72910.465760
60224.786153
47395.106547
34693.426940
21879.747333
9050.067726
-3747.611881
82566.119333
69928.439726
56986.760119
44285.080512
31519.400905
18657.721298
5732.041691
-7209.637916
-20231.317523
66194.413691
53396.734084
40503.054477
27769.374870
14811.695264
1550.015657
-11359.663950
-24237.343557
-37499.023164
49358.708050
36289.028443
23363.348836
10309.669229
-2728.010378
-15989.689985
-29171.369592
-42433.049199
-55582.728806
31515.002408
18589.322801
5375.643194
-7774.036413
-21163.716019
-34361.395626
-47687.075233
-60836.754840
-74290.434447
13079.296767
-166.382840
-13524.062447
-26897.742054
-40287.421661
-53549.101268
-66842.780875
-80264.460482
-93830.140089
-6220.408875
-19754.088482
-32935.768089
-46437.447695
-59763.127302
-73552.806909
-86846.486516
-100540.166123
-114089.845730
-26240.114516
-39853.794123
-53259.473730
-66777.153337
-80278.832944
-93940.512551
-107586.192158
-121263.871765
-135053.551372
-47059.820158
-60545.499765
-74367.179372
-87868.858978
-101690.538585
-115352.218192
-129237.897799
-142787.577406
-156929.257013
-68631.525799
-82325.205406
-96018.885013
-109840.564620
-123582.244227
-137467.923834
-151401.603441
-165271.283048
-179364.962655
-90763.231441
-104552.911048
-118534.590654
-132324.270261
-146273.949868
-160159.629475
-174301.309082
-188378.988689
-202328.668296
-113662.937082
-127740.616689
-141530.296296
-155639.975903
-169765.655510
-183843.335117
-197857.014724
-212094.694331
-226252.373938
-137346.642724
-151472.322331
-165422.001937
-179723.681544
-193769.361151
-208039.040758
-222292.720365
-236434.399972
-250848.079579
-161926.348365
-176004.027972
-190129.707579
-204383.387186
-218541.066793
-232938.746400
-247144.426007
-261526.105614
-275875.785221
-186874.054007
-201143.733614
-215317.413220
-229731.092827
-244032.772434
-258398.452041
-272908.131648
-287225.811255
-301911.490862
-212653.759648
-226891.439255
-241481.118862
-255718.798469
-270212.478076
-284626.157683
-299231.837290
-313789.516897
-328283.196503
-239105.465290
-253519.144896
-267772.824503
-282506.504110
-297016.183717
-311429.863324
-326051.542931
-340753.222538
-355566.902145
-266213.170931
-280674.850538
-295248.530145
-309758.209752
-324475.889359
-339001.568966
-353815.248573
-368484.928180
-383362.607786
-293752.876573
-308486.556179
-323060.235786
-337681.915393
-352383.595000
-367197.274607
-381898.954214
-396792.633821
-411670.313428
-322092.582214
-336762.261821
-351575.941428
-366293.621035
-381123.300642
-395968.980249
-410814.659856
-425740.339462
-440698.019069
-351072.287855
-365709.967462
-380555.647069
-395449.326676
-410279.006283
-425268.685890
-440242.365497
-455040.045104
-470221.724711
-380531.993497
-395489.673104
-410447.352711
-425069.032318
-440170.711925
-455256.391532
-470118.071139
-485251.750745
-500273.430352
-410567.699138
-425461.378745
-440547.058352
-455520.737959
-470446.417566
-485548.097173
-500745.776780
-515783.456387
-531013.135994
-441275.404780
-456169.084387
-471318.763994
-486388.443601
-501410.123208
-516591.802815
-531773.482422
-547019.162028
-562200.841635
-472447.110421
-487436.790028
-502490.469635
-517752.149242
-532933.828849
-548179.508456
-563473.188063
-578686.867670
-593884.547277
-504082.816063
-519152.495670
-534398.175277
-549643.854884
-564825.534491
-580039.214098
-595476.893704
-610754.573311
-626080.252918
-536150.521704
-551524.201311
-566817.880918
-581999.560525
-597325.240132
-612666.919739
-628136.599346
-643478.278953
-658915.958560
-568954.227346
-584311.906953
-599573.586560
-614883.266167
-630288.945774
-645630.625381
-661100.304987
-676505.984594
-692087.664201
-602205.932987
-617435.612594
-632793.292201
-648374.971808
-663668.651415
-679010.331022
-694640.010629
-710061.690236
-725643.369843
-635729.638629
-651071.318236
-666540.997843
-681930.677450
-697464.357057
-713046.036663
-728387.716270
-743969.395877
-759679.075484
-669877.344270
-685219.023877
-700656.703484
-716190.383091
-731868.062698
-747305.742305
-762871.421912
-778341.101519
-794178.781126
-704313.049912
-719750.729519
-735332.409126
-750818.088733
-766511.768340
-782045.447946
-797643.127553
-813112.807160
-828934.486767
-739052.755553
-754378.435160
-770088.114767
-785829.794374
-801379.473981
-817153.153588
-832846.833195
-848428.512802
-864202.192409
-774144.461195
-789774.140802
-805579.820409
-821097.500016
-836807.179623
-852516.859229
-868146.538836
-884048.218443
-899645.898050
-809812.166836
-825441.846443
-841023.526050
-856813.205657
-872538.885264
-888280.564871
-903926.244478
-919843.924085
-935633.603692
-845719.872478
-861381.552085
-877171.231692
-892848.911299
-908462.590905
-924476.270512
-940233.950119
-956023.629726
-971861.309333
-881995.578119
-897705.257726
-913334.937333
-929076.616940
-945010.296547
-960767.976154
-976717.655761
-992443.335368
-1008233.014975
-918559.283761
-934252.963368
-950138.642975
-965848.322582
-981590.002188
-997667.681795
-1013441.361402
-1029327.041009
-1045260.720616
-955234.989402
-971072.669009
-986958.348616
-1002716.028223
-1018617.707830
-1034503.387437
-1050357.067044
-1066354.746651
-1082240.426258
-992422.695044
-1008228.374651
-1023954.054258
-1039951.733864
-1055837.413471
-1071659.093078
-1087512.772685
-1103350.452292
-1119636.131899
-1029706.400685
-1045528.080292
-1061429.759899
-1077011.439506
-1093249.119113
-1109102.798720
-1125052.478327
-1140970.157934
-1156967.837541
-1067310.106327
-1083163.785934
-1099001.465541
-1114935.145147
-1130788.824754
-1146770.504361
-1162752.183968
-1178669.863575
-1194795.543182
-1104849.811968
-1121007.491575
-1137021.171182
-1152778.850789
-1168664.530396
-1184646.210003
-1200611.889610
-1216673.569217
-1232607.248824
-1142965.517610
-1158995.197217
-1174848.876824
-1190814.556430
-1206876.236037
-1222777.915644
-1238743.595251
-1254661.274858
-1270818.954465
-1181065.223251
-1197110.902858
-1212964.582465
-1228882.262072
-1244943.941679
-1260941.621286
-1276955.300893
-1292984.980500
-1308998.660107
-1219324.928893
-1235274.608500
-1251208.288106
-1267237.967713
-1283283.647320
-1299361.326927
-1315263.006534
-1331308.686141
-1347434.365748
-1257888.634534
-1273790.314141
-1289787.993748
-1305721.673355
-1321591.352962
-1337749.032569
-1353730.712176
-1369824.391783
-1386094.071390
-1296324.340176
-1312258.019783
-1328351.699389
-1344301.378996
-1360379.058603
-1376408.738210
-1392342.417817
-1408676.097424
-1424609.777031
-1335016.045817
-1351029.725424
-1366979.405031
-1382993.084638
-1398926.764245
-1415068.443852
-1431162.123459
-1447159.803066
-1463317.482672
-1373755.751459
-1389673.431066
-1405623.110672
-1421780.790279
-1437842.469886
-1453808.149493
-1469869.829100
-1486059.508707
-1501929.188314
-1412639.457100
-1428525.136707
-1444618.816314
-1460632.495921
-1476806.175528
-1492675.855135
-1508785.534742
-1524815.214349
-1540924.893955
-1451459.162742
-1467552.842348
-1483406.521955
-1499484.201562
-1515609.881169
-1531447.560776
-1547589.240383
-1563666.919990
-1579760.599597
-1490390.868383
-1506468.547990
-1522370.227597
-1538367.907204
-1554525.586811
-1570491.266418
-1586584.946025
-1602502.625632
-1618756.305238
-1529274.574025
-1545336.253631
-1561381.933238
-1577475.612845
-1593441.292452
-1609422.972059
-1625372.651666
-1641546.331273
-1657592.010880
-1568414.279666
-1584443.959273
-1600441.638880
-1616295.318487
-1632244.998094
-1648274.677701
-1664480.357308
-1680494.036914
-1696619.716521
-1607489.985307
-1623295.664914
-1639373.344521
-1655387.024128
-1671416.703735
-1687302.383342
-1703476.062949
-1719617.742556
-1735551.422163
-1646245.690949
-1662275.370556
-1678257.050163
-1694270.729770
-1710268.409377
-1726314.088984
-1742231.768591
-1758293.448197
-1774371.127804
-1685321.396590
-1701255.076197
-1717172.755804
-1733186.435411
-1749200.115018
-1765261.794625
-1781147.474232
-1797161.153839
-1813286.833446
-1724093.102232
-1740298.781839
-1756056.461446
-1772166.141053
-1788099.820660
-1804113.500267
-1819967.179873
-1836076.859480
-1852026.539087
-1762928.807873
-1779086.487480
-1794844.167087
-1810969.846694
-1826855.526301
-1842933.205908
-1858866.885515
-1874800.565122
-1890766.244729
-1801876.513515
-1817746.193122
-1833679.872729
-1849725.552336
-1865595.231943
-1881768.911550
-1897542.591156
-1913332.270763
-1929505.950370
-1840520.219156
-1856533.898763
-1872339.578370
-1888369.257977
-1904350.937584
-1920348.617191
-1936170.296798
-1952167.976405
-1968245.656012
-1879131.924798
-1895033.604405
-1910967.284012
-1927044.963619
-1942866.643226
-1958672.322833
-1974798.002439
-1990667.682046
-2006697.361653
-1917807.630439
-1933677.310046
-1949594.989653
-1965352.669260
-1981222.348867
-1997188.028474
-2013105.708081
-2029103.387688
-2045005.067295
-1956099.336081
-1971969.015688
-1988014.695295
-2003644.374902
-2019610.054509
-2035511.734115
-2051477.413722
-2067267.093329
-2083312.772936
-1994423.041722
-2010132.721329
-2026066.400936
-2041920.080543
-2057837.760150
-2073739.439757
-2089609.119364
-2105398.798971
-2121284.478578
-2032682.747364
-2048472.426971
-2064278.106578
-2080099.786185
-2095969.465792
-2111951.145398
-2127532.825005
-2143610.504612
-2159272.184219
-2070830.453005
-2086492.132612
-2102281.812219
-2118103.491826
-2134005.171433
-2149810.851040
-2165504.530647
-2181422.210254
-2197147.889861
-2108738.158647
-2124287.838254
-2140125.517861
-2155979.197468
-2171768.877075
-2187478.556681
-2203124.236288
-2219073.915895
-2234927.595502
-2146341.864288
-2162163.543895
-2177873.223502
-2193566.903109
-2209356.582716
-2225082.262323
-2240903.941930
-2256533.621537
-2272307.301144
-2183913.569930
-2199639.249537
-2215412.929144
-2231058.608751
-2246784.288357
-2262605.967964
-2278299.647571
-2293881.327178
-2309687.006785
-2221517.275571
-2237130.955178
-2252728.634785
-2268422.314392
-2284179.993999
-2299809.673606
-2315535.353213
-2331245.032820
-2346970.712427
SCALARS stress_3 float
LOOKUP_TABLE default
42946.339427
2751192.419038
2712400.743043
2673209.067048
2633801.391053
2594369.715058
2554594.039063
2514714.363067
2474602.687072
2434379.011077
2394075.335082
2353379.659087
2312715.983092
2271876.307097
2230924.631101
2189884.955106
2148621.279111
2107325.603116
2066189.927121
2024726.251126
1983254.575131
1941926.899136
1900615.223140
1859095.547145
1817671.871150
1776352.195155
1734896.519160
1693648.843165
1652321.167170
1611265.491174
1570377.815179
1529434.139184
1488714.463189
1448074.787194
1407763.111199
1367683.435204
1327715.759208
1287932.083213
1248420.407218
1209276.731223
1170445.055228
1131781.379233
1093549.703238
1055678.027242
1018054.351247
980982.675252
944214.999257
907815.323262
871999.647267
836631.971272
801808.295277
767424.619281
733416.943286
700177.267291
667377.591296
635209.915301
603602.239306
572458.563311
542234.887315
512523.211320
483387.535325
454947.859330
427204.183335
400292.507340
373900.831345
348277.155349
323445.479354
299285.803359
275902.127364
253414.451369
231414.775374
210407.099379
190087.423384
170495.747388
151872.071393
133904.395398
116808.719403
100433.043408
84825.367413
69969.691418
56082.015422
2684401.583422
-23364.496189
-10684.820194
2826.855801
17034.531796
32106.207791
48017.883787
64793.559782
82249.235777
100704.911772
119528.587767
139512.263762
160207.939757
181679.615753
204031.291748
227134.967743
250982.643738
275398.319733
300685.995728
326925.671723
353733.347719
381269.023714
409348.699709
438220.375704
467852.051699
498091.727694
528915.403689
560331.079684
592546.755680
625154.431675
658466.107670
692273.783665
726609.459660
761529.135655
796832.811650
832656.487646
869072.163641
905815.839636
942887.515631
980631.191626
1018502.867621
1056790.543616
1095470.219612
1134349.895607
1173685.571602
1213229.247597
1253124.923592
1293140.599587
1333500.275582
1374107.951578
1414795.627573
1455523.303568
1496650.979563
1537954.655558
1579082.331553
1620482.007548
1661961.683543
1703481.359539
1745065.035534
1786712.711529
1828392.387524
1869944.063519
1911719.739514
1953279.415509
1994983.091505
2036406.767500
2078014.443495
2119294.119490
2160565.795485
2201853.471480
2242901.147475
2283748.823471
2324828.499466
2365332.175461
2405795.851456
2446235.527451
2486451.203446
2526434.879441
2566290.555436
2605930.231432
2645225.907427
2691168.666984
2697935.750545
2704630.834107
2711061.917668
2717909.001230
2724588.084792
2731235.168353
2738002.251915
2744569.335477
36139.255866
29308.172304
22493.088742
16038.005181
9414.921619
2799.838057
-3767.245504
-10310.329066
-16893.412627
-4229.736632
2393.346929
9016.430491
15639.514053
22326.597614
28909.681176
35692.764737
42515.848299
49114.931861
9305.939363
16057.022924
22552.106486
29295.190048
36086.273609
42701.357171
49564.440733
56331.524294
63170.607856
23721.615358
30336.698920
37119.782481
43742.866043
50469.949604
57341.033166
64204.116728
71043.200289
77762.283851
38849.291353
45600.374915
52271.458476
58982.542038
65941.625600
72628.709161
79635.792723
86378.876285
93329.959846
54728.967348
61536.050910
68247.134471
75142.218033
81965.301595
88916.385156
95803.468718
102754.552280
109777.635841
71528.643343
78247.726905
85142.810467
91965.894028
98956.977590
105812.061152
112851.144713
119810.228275
126873.311836
88936.319338
95903.402900
102846.486462
109765.570023
116596.653585
123707.737147
130626.820708
137585.904270
144848.987832
107439.995334
114327.078895
121270.162457
128277.246019
135172.329580
142091.413142
149210.496703
156273.580265
163424.663827
126535.671329
133382.754890
140349.838452
147532.922014
154500.005575
161523.089137
168594.172699
175649.256260
182896.339822
146487.347324
153486.430886
160589.514447
167476.598009
174547.681570
181730.765132
188849.848694
195912.932255
203200.015817
167095.023319
174150.106881
181333.190442
188220.274004
195459.357566
202490.441127
209705.524689
216928.608251
224207.691812
188758.699314
195693.782876
202868.866437
209971.949999
217083.033561
224354.117122
231489.200684
238792.284246
245903.367807
211174.375309
218133.458871
225124.542433
232347.625994
239522.709556
246905.793118
253928.876679
261343.960241
268551.043802
234014.051304
241317.134866
248436.218428
255563.301989
262866.385551
270049.469113
277352.552674
284671.636236
292014.719798
258005.727300
265028.810861
272355.894423
279586.977985
286762.061546
294017.145108
301400.228669
308639.312231
316014.395793
282677.403295
289676.486856
296891.570418
304258.653980
311433.737541
318856.821103
326183.904665
333518.988226
340974.071788
307989.079290
315172.162852
322459.246413
329794.329975
337097.413536
344168.497098
351671.580660
359118.664221
366373.747783
334020.755285
341267.838847
348570.922408
355906.005970
363073.089532
370648.173093
377879.256655
385190.340216
392717.423778
360892.431280
368115.514842
375370.598403
382833.681965
390136.765527
397455.849088
404870.932650
412326.016212
419781.099773
388460.107275
395659.190837
402890.274399
410345.357960
417600.441522
425039.525083
432462.608645
439933.692207
447404.775768
416707.783270
424010.866832
431313.950394
438649.033955
446000.117517
453431.201079
460974.284640
468301.368202
475916.451764
445675.459266
452866.542827
460153.626389
467664.709950
475031.793512
482478.877074
489933.960635
497413.044197
504788.127759
475099.135261
482498.218822
489921.302384
497272.385946
504631.469507
512118.553069
519637.636631
527156.720192
534611.803754
505474.811256
512769.894817
520152.978379
527584.061941
534951.145502
542494.229064
550021.312626
557492.396187
564883.479749
536226.487251
543689.570813
551000.654374
558519.737936
565950.821498
573341.905059
580852.988621
588356.072182
595979.155744
567898.163246
575145.246808
582528.330369
589991.413931
597430.497493
604933.581054
612540.664616
620019.748178
627642.831739
600033.839241
607248.922803
614672.006365
622223.089926
629638.173488
637037.257049
644556.340611
652243.424173
659786.507734
632593.515236
639984.598798
647503.682360
654830.765921
662309.849483
669972.933045
677396.016606
684875.100168
692546.183729
665881.191232
673200.274793
680703.358355
688166.441916
695717.525478
703212.609040
710755.692601
718322.776163
725969.859725
699680.867227
707111.950788
714431.034350
722134.117912
729549.201473
736996.285035
744627.368596
752202.452158
759721.535720
733968.543222
741391.626783
748942.710345
756437.793907
763820.877468
771443.961030
778931.044592
786618.128153
794169.211715
769000.219217
776319.302779
783838.386340
791413.469902
798804.553463
806387.637025
813754.720587
821441.804148
829032.887710
804207.895212
811718.978774
819102.062335
826693.145897
834156.229459
841611.313020
849218.396582
856921.480144
864464.563705
840135.571207
847478.654769
855061.738330
862564.821892
869971.905454
877458.989015
885002.072577
892633.156139
900272.239700
876551.247202
883942.330764
891429.414326
898796.497887
906323.581449
914010.665011
921513.748572
929160.832134
936583.915695
913142.923197
920614.006759
928093.090321
935612.173882
943147.257444
950650.341006
958161.424567
965672.508129
973359.591691
950366.599193
957757.682754
965292.766316
972787.849878
980258.933439
987730.017001
995345.100562
1002944.184124
1010535.267686
987902.275188
995309.358749
1002796.442311
1010323.525873
1017722.609434
1025249.692996
1033016.776558
1040479.860119
1048126.943681
1025837.951183
1033261.034745
1040780.118306
1048235.201868
1055674.285429
1063209.368991
1070856.452553
1078263.536114
1086006.619676
1064133.627178
1071652.710740
1079067.794301
1086498.877863
1094097.961425
1101521.044986
1109176.128548
1116607.212109
1124278.295671
1102757.303173
1110244.386735
1117731.470296
1125202.553858
1132849.637420
1140088.720981
1147591.804543
1155190.888105
1162805.971666
1141876.979168
1149212.062730
1156667.146292
1164114.229853
1171577.313415
1179008.396976
1186615.480538
1194142.564100
1201677.647661
1181140.655163
1188563.738725
1196010.822287
1203305.905848
1210840.989410
1218400.072972
1225879.156533
1233390.240095
1240877.323657
1220660.331159
1228083.414720
1235490.498282
1242985.581844
1250448.665405
1257911.748967
1265382.832528
1272853.916090
1280428.999652
1260412.007154
1267851.090715
1275346.174277
1282713.257839
1290208.341400
1297615.424962
1305102.508524
1312637.592085
1320228.675647
1300675.683149
1307938.766711
1315385.850272
1322744.933834
1330208.017395
1337847.100957
1345014.184519
1352485.268080
1360036.351642
1340923.359144
1348178.442706
1355593.526267
1363008.609829
1370431.693391
1377958.776952
1385381.860514
1392684.944075
1400444.027637
1381315.035139
1388722.118701
1396025.202262
1403504.285824
1410879.369386
1418270.452947
1425613.536509
1433236.620071
1440827.703632
1422154.711134
1429369.794696
1436728.878258
1444271.961819
1451687.045381
1459078.128942
1466373.212504
1473892.296066
1481171.379627
1462962.387129
1470345.470691
1477632.554253
1484879.637814
1492526.721376
1499749.804938
1507100.888499
1514619.972061
1522131.055623
1504002.063125
1511313.146686
1518512.230248
1525943.313809
1533390.397371
1540725.480933
1548012.564494
1555523.648056
1562986.731618
1545033.739120
1552480.822681
1559751.906243
1567070.989805
1574542.073366
1581925.156928
1589156.240490
1596643.324051
1603962.407613
1586297.415115
1593680.498676
1600879.582238
1608206.665800
1615597.749361
1623028.832923
1630267.916485
1637835.000046
1645066.083608
1627753.091110
1635120.174672
1642311.258233
1649710.341795
1656885.425357
1664268.508918
1671507.592480
1679050.676041
1686281.759603
1669200.767105
1676495.850667
1683694.934228
1690990.017790
1698429.101352
1705708.184913
1712987.268475
1720346.352037
1727577.435598
1710600.443100
1717999.526662
1725254.610224
1732485.693785
1739788.777347
1747107.860908
1754394.944470
1761634.028032
1768993.111593
1752352.119095
1759479.202657
1766750.286219
1774013.369780
1781236.453342
1788587.536904
1795826.620465
1803217.704027
1810384.787588
1793967.795091
1801102.878652
1808317.962214
1815637.045775
1822844.129337
1830091.212899
1837282.296460
1844657.380022
1851864.463584
1835487.471086
1842830.554647
1850037.638209
1857172.721771
1864507.805332
1871650.888894
1878897.972455
1886033.056017
1893304.139579
1877047.147081
1884430.230642
1891701.314204
1898700.397766
1906115.481327
1913202.564889
1920505.648451
1927576.732012
1934775.815574
1918838.823076
1926077.906638
1933172.990199
1940340.073761
1947523.157322
1954602.240884
1961841.324446
1969160.408007
1976295.491569
1960470.499071
1967597.582633
1974700.666194
1981875.749756
1989042.833318
1996217.916879
2003369.000441
2010448.084003
2017591.167564
2002134.175066
2009029.258628
2016252.342189
2023283.425751
2030498.509313
2037745.592874
2044784.676436
2051903.759998
2059054.843559
2043477.851061
2050676.934623
2057684.018185
2064739.101746
2071994.185308
2079041.268870
2086112.352431
2093223.435993
2100406.519554
2085013.527056
2092036.610618
2099251.694180
2106178.777741
2113209.861303
2120496.944865
2127480.028426
2134607.111988
2141622.195550
2126381.203052
2133324.286613
2140491.370175
2147522.453737
2154545.537298
2161632.620860
2168655.704421
2175734.787983
2182725.871545
2167556.879047
2174643.962608
2181723.046170
2188794.129732
2195785.213293
2202784.296855
2209791.380417
2216870.463978
2223837.547540
2208740.555042
2215811.638604
2222762.722165
2229777.805727
2236776.889288
2243983.972850
2250767.056412
2257846.139973
2264725.223535
2249932.231037
2256747.314599
2263834.398160
2270761.481722
2277856.565284
2284807.648845
2291670.732407
2298805.815968
2305748.899530
2290987.907032
2297818.990594
2304746.074155
2311697.157717
2318552.241279
2325583.324840
2332662.408402
2339477.491964
2346468.575525
2331643.583027
2338418.666589
2345433.750151
2352464.833712
2359279.917274
2366295.000835
2373246.084397
2380213.167959
2387084.251520
2372283.259022
2379098.342584
2386201.426146
2393128.509707
2399999.593269
2406814.676831
2413621.760392
2420692.843954
2427459.927516
2412730.935018
2419658.018579
2426577.102141
2433392.185702
2440295.269264
2447126.352826
2454117.436387
2460956.519949
2467771.603511
2453138.611013
2459897.694574
2466856.778136
2473695.861698
2480422.945259
2487446.028821
2494213.112383
2501044.195944
2507827.279506
2493306.287008
2500017.370569
2507064.454131
2513711.537693
2520678.621254
2527493.704816
2534204.788378
2541099.871939
2547898.955501
2533361.963003
2540113.046565
2546872.130126
2553655.213688
2560502.297250
2567365.380811
2574028.464373
2580875.547934
2587674.631496
2573177.638998
2579800.722560
2586679.806121
2593270.889683
2600213.973245
2606877.056806
2613708.140368
2620395.223930
2627178.307491
2612649.314993
2619344.398555
2626191.482117
2633054.565678
2639493.649240
2646396.732801
2653099.816363
2659794.899925
2666561.983486
2652056.990988
2658720.074550
2665455.158112
2672190.241673
2678917.325235
2685628.408797
2692251.492358
2698938.575920
2705745.659482
