# vtk DataFile Version 2.0
Generated volume Mesh
ASCII
DATASET UNSTRUCTURED_GRID
POINTS 891 float
0.005000 0.100000 0.000000
0.005000 0.000000 0.000000
0.005000 0.001250 0.000000
0.005000 0.002500 0.000000
0.005000 0.003750 0.000000
0.005000 0.005000 0.000000
0.005000 0.006250 0.000000
0.005000 0.007500 0.000000
0.005000 0.008750 0.000000
0.005000 0.010000 0.000000
0.005000 0.011250 0.000000
0.005000 0.012500 0.000000
0.005000 0.013750 0.000000
0.005000 0.015000 0.000000
0.005000 0.016250 0.000000
0.005000 0.017500 0.000000
0.005000 0.018750 0.000000
0.005000 0.020000 0.000000
0.005000 0.021250 0.000000
0.005000 0.022500 0.000000
0.005000 0.023750 0.000000
0.005000 0.025000 0.000000
0.005000 0.026250 0.000000
0.005000 0.027500 0.000000
0.005000 0.028750 0.000000
0.005000 0.030000 0.000000
0.005000 0.031250 0.000000
0.005000 0.032500 0.000000
0.005000 0.033750 0.000000
0.005000 0.035000 0.000000
0.005000 0.036250 0.000000
0.005000 0.037500 0.000000
0.005000 0.038750 0.000000
0.005000 0.040000 0.000000
0.005000 0.041250 0.000000
0.005000 0.042500 0.000000
0.005000 0.043750 0.000000
0.005000 0.045000 0.000000
0.005000 0.046250 0.000000
0.005000 0.047500 0.000000
0.005000 0.048750 0.000000
0.005000 0.050000 0.000000
0.005000 0.051250 0.000000
0.005000 0.052500 0.000000
0.005000 0.053750 0.000000
0.005000 0.055000 0.000000
0.005000 0.056250 0.000000
0.005000 0.057500 0.000000
0.005000 0.058750 0.000000
0.005000 0.060000 0.000000
0.005000 0.061250 0.000000
0.005000 0.062500 0.000000
0.005000 0.063750 0.000000
0.005000 0.065000 0.000000
0.005000 0.066250 0.000000
0.005000 0.067500 0.000000
0.005000 0.068750 0.000000
0.005000 0.070000 0.000000
0.005000 0.071250 0.000000
0.005000 0.072500 0.000000
0.005000 0.073750 0.000000
0.005000 0.075000 0.000000
0.005000 0.076250 0.000000
0.005000 0.077500 0.000000
0.005000 0.078750 0.000000
0.005000 0.080000 0.000000
0.005000 0.081250 0.000000
0.005000 0.082500 0.000000
0.005000 0.083750 0.000000
0.005000 0.085000 0.000000
0.005000 0.086250 0.000000
0.005000 0.087500 0.000000
0.005000 0.088750 0.000000
0.005000 0.090000 0.000000
0.005000 0.091250 0.000000
0.005000 0.092500 0.000000
0.005000 0.093750 0.000000
0.005000 0.095000 0.000000
0.005000 0.096250 0.000000
0.005000 0.097500 0.000000
0.005000 0.098750 0.000000
0.000000 0.000000 0.000000
0.000000 0.100000 0.000000
0.000000 0.098750 0.000000
0.000000 0.097500 0.000000
0.000000 0.096250 0.000000
0.000000 0.095000 0.000000
0.000000 0.093750 0.000000
0.000000 0.092500 0.000000
0.000000 0.091250 0.000000
0.000000 0.090000 0.000000
0.000000 0.088750 0.000000
0.000000 0.087500 0.000000
0.000000 0.086250 0.000000
0.000000 0.085000 0.000000
0.000000 0.083750 0.000000
0.000000 0.082500 0.000000
0.000000 0.081250 0.000000
0.000000 0.080000 0.000000
0.000000 0.078750 0.000000
0.000000 0.077500 0.000000
0.000000 0.076250 0.000000
0.000000 0.075000 0.000000
0.000000 0.073750 0.000000
0.000000 0.072500 0.000000
0.000000 0.071250 0.000000
0.000000 0.070000 0.000000
0.000000 0.068750 0.000000
0.000000 0.067500 0.000000
0.000000 0.066250 0.000000
0.000000 0.065000 0.000000
0.000000 0.063750 0.000000
0.000000 0.062500 0.000000
0.000000 0.061250 0.000000
0.000000 0.060000 0.000000
0.000000 0.058750 0.000000
0.000000 0.057500 0.000000
0.000000 0.056250 0.000000
0.000000 0.055000 0.000000
0.000000 0.053750 0.000000
0.000000 0.052500 0.000000
0.000000 0.051250 0.000000
0.000000 0.050000 0.000000
0.000000 0.048750 0.000000
0.000000 0.047500 0.000000
0.000000 0.046250 0.000000
0.000000 0.045000 0.000000
0.000000 0.043750 0.000000
0.000000 0.042500 0.000000
0.000000 0.041250 0.000000
0.000000 0.040000 0.000000
0.000000 0.038750 0.000000
0.000000 0.037500 0.000000
0.000000 0.036250 0.000000
0.000000 0.035000 0.000000
0.000000 0.033750 0.000000
0.000000 0.032500 0.000000
0.000000 0.031250 0.000000
0.000000 0.030000 0.000000
0.000000 0.028750 0.000000
0.000000 0.027500 0.000000
0.000000 0.026250 0.000000
0.000000 0.025000 0.000000
0.000000 0.023750 0.000000
0.000000 0.022500 0.000000
0.000000 0.021250 0.000000
0.000000 0.020000 0.000000
0.000000 0.018750 0.000000
0.000000 0.017500 0.000000
0.000000 0.016250 0.000000
0.000000 0.015000 0.000000
0.000000 0.013750 0.000000
0.000000 0.012500 0.000000
0.000000 0.011250 0.000000
0.000000 0.010000 0.000000
0.000000 0.008750 0.000000
0.000000 0.007500 0.000000
0.000000 0.006250 0.000000
0.000000 0.005000 0.000000
0.000000 0.003750 0.000000
0.000000 0.002500 0.000000
0.000000 0.001250 0.000000
0.000500 0.000000 0.000000
0.001000 0.000000 0.000000
0.001500 0.000000 0.000000
0.002000 0.000000 0.000000
0.002500 0.000000 0.000000
0.003000 0.000000 0.000000
0.003500 0.000000 0.000000
0.004000 0.000000 0.000000
0.004500 0.000000 0.000000
0.004500 0.100000 0.000000
0.004000 0.100000 0.000000
0.003500 0.100000 0.000000
0.003000 0.100000 0.000000
0.002500 0.100000 0.000000
0.002000 0.100000 0.000000
0.001500 0.100000 0.000000
0.001000 0.100000 0.000000
0.000500 0.100000 0.000000
0.000500 0.098750 0.000000
0.001000 0.098750 0.000000
0.001500 0.098750 0.000000
0.002000 0.098750 0.000000
0.002500 0.098750 0.000000
0.003000 0.098750 0.000000
0.003500 0.098750 0.000000
0.004000 0.098750 0.000000
0.004500 0.098750 0.000000
0.000500 0.097500 0.000000
0.001000 0.097500 0.000000
0.001500 0.097500 0.000000
0.002000 0.097500 0.000000
0.002500 0.097500 0.000000
0.003000 0.097500 0.000000
0.003500 0.097500 0.000000
0.004000 0.097500 0.000000
0.004500 0.097500 0.000000
0.000500 0.096250 0.000000
0.001000 0.096250 0.000000
0.001500 0.096250 0.000000
0.002000 0.096250 0.000000
0.002500 0.096250 0.000000
0.003000 0.096250 0.000000
0.003500 0.096250 0.000000
0.004000 0.096250 0.000000
0.004500 0.096250 0.000000
0.000500 0.095000 0.000000
0.001000 0.095000 0.000000
0.001500 0.095000 0.000000
0.002000 0.095000 0.000000
0.002500 0.095000 0.000000
0.003000 0.095000 0.000000
0.003500 0.095000 0.000000
0.004000 0.095000 0.000000
0.004500 0.095000 0.000000
0.000500 0.093750 0.000000
0.001000 0.093750 0.000000
0.001500 0.093750 0.000000
0.002000 0.093750 0.000000
0.002500 0.093750 0.000000
0.003000 0.093750 0.000000
0.003500 0.093750 0.000000
0.004000 0.093750 0.000000
0.004500 0.093750 0.000000
0.000500 0.092500 0.000000
0.001000 0.092500 0.000000
0.001500 0.092500 0.000000
0.002000 0.092500 0.000000
0.002500 0.092500 0.000000
0.003000 0.092500 0.000000
0.003500 0.092500 0.000000
0.004000 0.092500 0.000000
0.004500 0.092500 0.000000
0.000500 0.091250 0.000000
0.001000 0.091250 0.000000
0.001500 0.091250 0.000000
0.002000 0.091250 0.000000
0.002500 0.091250 0.000000
0.003000 0.091250 0.000000
0.003500 0.091250 0.000000
0.004000 0.091250 0.000000
0.004500 0.091250 0.000000
0.000500 0.090000 0.000000
0.001000 0.090000 0.000000
0.001500 0.090000 0.000000
0.002000 0.090000 0.000000
0.002500 0.090000 0.000000
0.003000 0.090000 0.000000
0.003500 0.090000 0.000000
0.004000 0.090000 0.000000
0.004500 0.090000 0.000000
0.000500 0.088750 0.000000
0.001000 0.088750 0.000000
0.001500 0.088750 0.000000
0.002000 0.088750 0.000000
0.002500 0.088750 0.000000
0.003000 0.088750 0.000000
0.003500 0.088750 0.000000
0.004000 0.088750 0.000000
0.004500 0.088750 0.000000
0.000500 0.087500 0.000000
0.001000 0.087500 0.000000
0.001500 0.087500 0.000000
0.002000 0.087500 0.000000
0.002500 0.087500 0.000000
0.003000 0.087500 0.000000
0.003500 0.087500 0.000000
0.004000 0.087500 0.000000
0.004500 0.087500 0.000000
0.000500 0.086250 0.000000
0.001000 0.086250 0.000000
0.001500 0.086250 0.000000
0.002000 0.086250 0.000000
0.002500 0.086250 0.000000
0.003000 0.086250 0.000000
0.003500 0.086250 0.000000
0.004000 0.086250 0.000000
0.004500 0.086250 0.000000
0.000500 0.085000 0.000000
0.001000 0.085000 0.000000
0.001500 0.085000 0.000000
0.002000 0.085000 0.000000
0.002500 0.085000 0.000000
0.003000 0.085000 0.000000
0.003500 0.085000 0.000000
0.004000 0.085000 0.000000
0.004500 0.085000 0.000000
0.000500 0.083750 0.000000
0.001000 0.083750 0.000000
0.001500 0.083750 0.000000
0.002000 0.083750 0.000000
0.002500 0.083750 0.000000
0.003000 0.083750 0.000000
0.003500 0.083750 0.000000
0.004000 0.083750 0.000000
0.004500 0.083750 0.000000
0.000500 0.082500 0.000000
0.001000 0.082500 0.000000
0.001500 0.082500 0.000000
0.002000 0.082500 0.000000
0.002500 0.082500 0.000000
0.003000 0.082500 0.000000
0.003500 0.082500 0.000000
0.004000 0.082500 0.000000
0.004500 0.082500 0.000000
0.000500 0.081250 0.000000
0.001000 0.081250 0.000000
0.001500 0.081250 0.000000
0.002000 0.081250 0.000000
0.002500 0.081250 0.000000
0.003000 0.081250 0.000000
0.003500 0.081250 0.000000
0.004000 0.081250 0.000000
0.004500 0.081250 0.000000
0.000500 0.080000 0.000000
0.001000 0.080000 0.000000
0.001500 0.080000 0.000000
0.002000 0.080000 0.000000
0.002500 0.080000 0.000000
0.003000 0.080000 0.000000
0.003500 0.080000 0.000000
0.004000 0.080000 0.000000
0.004500 0.080000 0.000000
0.000500 0.078750 0.000000
0.001000 0.078750 0.000000
0.001500 0.078750 0.000000
0.002000 0.078750 0.000000
0.002500 0.078750 0.000000
0.003000 0.078750 0.000000
0.003500 0.078750 0.000000
0.004000 0.078750 0.000000
0.004500 0.078750 0.000000
0.000500 0.077500 0.000000
0.001000 0.077500 0.000000
0.001500 0.077500 0.000000
0.002000 0.077500 0.000000
0.002500 0.077500 0.000000
0.003000 0.077500 0.000000
0.003500 0.077500 0.000000
0.004000 0.077500 0.000000
0.004500 0.077500 0.000000
0.000500 0.076250 0.000000
0.001000 0.076250 0.000000
0.001500 0.076250 0.000000
0.002000 0.076250 0.000000
0.002500 0.076250 0.000000
0.003000 0.076250 0.000000
0.003500 0.076250 0.000000
0.004000 0.076250 0.000000
0.004500 0.076250 0.000000
0.000500 0.075000 0.000000
0.001000 0.075000 0.000000
0.001500 0.075000 0.000000
0.002000 0.075000 0.000000
0.002500 0.075000 0.000000
0.003000 0.075000 0.000000
0.003500 0.075000 0.000000
0.004000 0.075000 0.000000
0.004500 0.075000 0.000000
0.000500 0.073750 0.000000
0.001000 0.073750 0.000000
0.001500 0.073750 0.000000
0.002000 0.073750 0.000000
0.002500 0.073750 0.000000
0.003000 0.073750 0.000000
0.003500 0.073750 0.000000
0.004000 0.073750 0.000000
0.004500 0.073750 0.000000
0.000500 0.072500 0.000000
0.001000 0.072500 0.000000
0.001500 0.072500 0.000000
0.002000 0.072500 0.000000
0.002500 0.072500 0.000000
0.003000 0.072500 0.000000
0.003500 0.072500 0.000000
0.004000 0.072500 0.000000
0.004500 0.072500 0.000000
0.000500 0.071250 0.000000
0.001000 0.071250 0.000000
0.001500 0.071250 0.000000
0.002000 0.071250 0.000000
0.002500 0.071250 0.000000
0.003000 0.071250 0.000000
0.003500 0.071250 0.000000
0.004000 0.071250 0.000000
0.004500 0.071250 0.000000
0.000500 0.070000 0.000000
0.001000 0.070000 0.000000
0.001500 0.070000 0.000000
0.002000 0.070000 0.000000
0.002500 0.070000 0.000000
0.003000 0.070000 0.000000
0.003500 0.070000 0.000000
0.004000 0.070000 0.000000
0.004500 0.070000 0.000000
0.000500 0.068750 0.000000
0.001000 0.068750 0.000000
0.001500 0.068750 0.000000
0.002000 0.068750 0.000000
0.002500 0.068750 0.000000
0.003000 0.068750 0.000000
0.003500 0.068750 0.000000
0.004000 0.068750 0.000000
0.004500 0.068750 0.000000
0.000500 0.067500 0.000000
0.001000 0.067500 0.000000
0.001500 0.067500 0.000000
0.002000 0.067500 0.000000
0.002500 0.067500 0.000000
0.003000 0.067500 0.000000
0.003500 0.067500 0.000000
0.004000 0.067500 0.000000
0.004500 0.067500 0.000000
0.000500 0.066250 0.000000
0.001000 0.066250 0.000000
0.001500 0.066250 0.000000
0.002000 0.066250 0.000000
0.002500 0.066250 0.000000
0.003000 0.066250 0.000000
0.003500 0.066250 0.000000
0.004000 0.066250 0.000000
0.004500 0.066250 0.000000
0.000500 0.065000 0.000000
0.001000 0.065000 0.000000
0.001500 0.065000 0.000000
0.002000 0.065000 0.000000
0.002500 0.065000 0.000000
0.003000 0.065000 0.000000
0.003500 0.065000 0.000000
0.004000 0.065000 0.000000
0.004500 0.065000 0.000000
0.000500 0.063750 0.000000
0.001000 0.063750 0.000000
0.001500 0.063750 0.000000
0.002000 0.063750 0.000000
0.002500 0.063750 0.000000
0.003000 0.063750 0.000000
0.003500 0.063750 0.000000
0.004000 0.063750 0.000000
0.004500 0.063750 0.000000
0.000500 0.062500 0.000000
0.001000 0.062500 0.000000
0.001500 0.062500 0.000000
0.002000 0.062500 0.000000
0.002500 0.062500 0.000000
0.003000 0.062500 0.000000
0.003500 0.062500 0.000000
0.004000 0.062500 0.000000
0.004500 0.062500 0.000000
0.000500 0.061250 0.000000
0.001000 0.061250 0.000000
0.001500 0.061250 0.000000
0.002000 0.061250 0.000000
0.002500 0.061250 0.000000
0.003000 0.061250 0.000000
0.003500 0.061250 0.000000
0.004000 0.061250 0.000000
0.004500 0.061250 0.000000
0.000500 0.060000 0.000000
0.001000 0.060000 0.000000
0.001500 0.060000 0.000000
0.002000 0.060000 0.000000
0.002500 0.060000 0.000000
0.003000 0.060000 0.000000
0.003500 0.060000 0.000000
0.004000 0.060000 0.000000
0.004500 0.060000 0.000000
0.000500 0.058750 0.000000
0.001000 0.058750 0.000000
0.001500 0.058750 0.000000
0.002000 0.058750 0.000000
0.002500 0.058750 0.000000
0.003000 0.058750 0.000000
0.003500 0.058750 0.000000
0.004000 0.058750 0.000000
0.004500 0.058750 0.000000
0.000500 0.057500 0.000000
0.001000 0.057500 0.000000
0.001500 0.057500 0.000000
0.002000 0.057500 0.000000
0.002500 0.057500 0.000000
0.003000 0.057500 0.000000
0.003500 0.057500 0.000000
0.004000 0.057500 0.000000
0.004500 0.057500 0.000000
0.000500 0.056250 0.000000
0.001000 0.056250 0.000000
0.001500 0.056250 0.000000
0.002000 0.056250 0.000000
0.002500 0.056250 0.000000
0.003000 0.056250 0.000000
0.003500 0.056250 0.000000
0.004000 0.056250 0.000000
0.004500 0.056250 0.000000
0.000500 0.055000 0.000000
0.001000 0.055000 0.000000
0.001500 0.055000 0.000000
0.002000 0.055000 0.000000
0.002500 0.055000 0.000000
0.003000 0.055000 0.000000
0.003500 0.055000 0.000000
0.004000 0.055000 0.000000
0.004500 0.055000 0.000000
0.000500 0.053750 0.000000
0.001000 0.053750 0.000000
0.001500 0.053750 0.000000
0.002000 0.053750 0.000000
0.002500 0.053750 0.000000
0.003000 0.053750 0.000000
0.003500 0.053750 0.000000
0.004000 0.053750 0.000000
0.004500 0.053750 0.000000
0.000500 0.052500 0.000000
0.001000 0.052500 0.000000
0.001500 0.052500 0.000000
0.002000 0.052500 0.000000
0.002500 0.052500 0.000000
0.003000 0.052500 0.000000
0.003500 0.052500 0.000000
0.004000 0.052500 0.000000
0.004500 0.052500 0.000000
0.000500 0.051250 0.000000
0.001000 0.051250 0.000000
0.001500 0.051250 0.000000
0.002000 0.051250 0.000000
0.002500 0.051250 0.000000
0.003000 0.051250 0.000000
0.003500 0.051250 0.000000
0.004000 0.051250 0.000000
0.004500 0.051250 0.000000
0.000500 0.050000 0.000000
0.001000 0.050000 0.000000
0.001500 0.050000 0.000000
0.002000 0.050000 0.000000
0.002500 0.050000 0.000000
0.003000 0.050000 0.000000
0.003500 0.050000 0.000000
0.004000 0.050000 0.000000
0.004500 0.050000 0.000000
0.000500 0.048750 0.000000
0.001000 0.048750 0.000000
0.001500 0.048750 0.000000
0.002000 0.048750 0.000000
0.002500 0.048750 0.000000
0.003000 0.048750 0.000000
0.003500 0.048750 0.000000
0.004000 0.048750 0.000000
0.004500 0.048750 0.000000
0.000500 0.047500 0.000000
0.001000 0.047500 0.000000
0.001500 0.047500 0.000000
0.002000 0.047500 0.000000
0.002500 0.047500 0.000000
0.003000 0.047500 0.000000
0.003500 0.047500 0.000000
0.004000 0.047500 0.000000
0.004500 0.047500 0.000000
0.000500 0.046250 0.000000
0.001000 0.046250 0.000000
0.001500 0.046250 0.000000
0.002000 0.046250 0.000000
0.002500 0.046250 0.000000
0.003000 0.046250 0.000000
0.003500 0.046250 0.000000
0.004000 0.046250 0.000000
0.004500 0.046250 0.000000
0.000500 0.045000 0.000000
0.001000 0.045000 0.000000
0.001500 0.045000 0.000000
0.002000 0.045000 0.000000
0.002500 0.045000 0.000000
0.003000 0.045000 0.000000
0.003500 0.045000 0.000000
0.004000 0.045000 0.000000
0.004500 0.045000 0.000000
0.000500 0.043750 0.000000
0.001000 0.043750 0.000000
0.001500 0.043750 0.000000
0.002000 0.043750 0.000000
0.002500 0.043750 0.000000
0.003000 0.043750 0.000000
0.003500 0.043750 0.000000
0.004000 0.043750 0.000000
0.004500 0.043750 0.000000
0.000500 0.042500 0.000000
0.001000 0.042500 0.000000
0.001500 0.042500 0.000000
0.002000 0.042500 0.000000
0.002500 0.042500 0.000000
0.003000 0.042500 0.000000
0.003500 0.042500 0.000000
0.004000 0.042500 0.000000
0.004500 0.042500 0.000000
0.000500 0.041250 0.000000
0.001000 0.041250 0.000000
0.001500 0.041250 0.000000
0.002000 0.041250 0.000000
0.002500 0.041250 0.000000
0.003000 0.041250 0.000000
0.003500 0.041250 0.000000
0.004000 0.041250 0.000000
0.004500 0.041250 0.000000
0.000500 0.040000 0.000000
0.001000 0.040000 0.000000
0.001500 0.040000 0.000000
0.002000 0.040000 0.000000
0.002500 0.040000 0.000000
0.003000 0.040000 0.000000
0.003500 0.040000 0.000000
0.004000 0.040000 0.000000
0.004500 0.040000 0.000000
0.000500 0.038750 0.000000
0.001000 0.038750 0.000000
0.001500 0.038750 0.000000
0.002000 0.038750 0.000000
0.002500 0.038750 0.000000
0.003000 0.038750 0.000000
0.003500 0.038750 0.000000
0.004000 0.038750 0.000000
0.004500 0.038750 0.000000
0.000500 0.037500 0.000000
0.001000 0.037500 0.000000
0.001500 0.037500 0.000000
0.002000 0.037500 0.000000
0.002500 0.037500 0.000000
0.003000 0.037500 0.000000
0.003500 0.037500 0.000000
0.004000 0.037500 0.000000
0.004500 0.037500 0.000000
0.000500 0.036250 0.000000
0.001000 0.036250 0.000000
0.001500 0.036250 0.000000
0.002000 0.036250 0.000000
0.002500 0.036250 0.000000
0.003000 0.036250 0.000000
0.003500 0.036250 0.000000
0.004000 0.036250 0.000000
0.004500 0.036250 0.000000
0.000500 0.035000 0.000000
0.001000 0.035000 0.000000
0.001500 0.035000 0.000000
0.002000 0.035000 0.000000
0.002500 0.035000 0.000000
0.003000 0.035000 0.000000
0.003500 0.035000 0.000000
0.004000 0.035000 0.000000
0.004500 0.035000 0.000000
0.000500 0.033750 0.000000
0.001000 0.033750 0.000000
0.001500 0.033750 0.000000
0.002000 0.033750 0.000000
0.002500 0.033750 0.000000
0.003000 0.033750 0.000000
0.003500 0.033750 0.000000
0.004000 0.033750 0.000000
0.004500 0.033750 0.000000
0.000500 0.032500 0.000000
0.001000 0.032500 0.000000
0.001500 0.032500 0.000000
0.002000 0.032500 0.000000
0.002500 0.032500 0.000000
0.003000 0.032500 0.000000
0.003500 0.032500 0.000000
0.004000 0.032500 0.000000
0.004500 0.032500 0.000000
0.000500 0.031250 0.000000
0.001000 0.031250 0.000000
0.001500 0.031250 0.000000
0.002000 0.031250 0.000000
0.002500 0.031250 0.000000
0.003000 0.031250 0.000000
0.003500 0.031250 0.000000
0.004000 0.031250 0.000000
0.004500 0.031250 0.000000
0.000500 0.030000 0.000000
0.001000 0.030000 0.000000
0.001500 0.030000 0.000000
0.002000 0.030000 0.000000
0.002500 0.030000 0.000000
0.003000 0.030000 0.000000
0.003500 0.030000 0.000000
0.004000 0.030000 0.000000
0.004500 0.030000 0.000000
0.000500 0.028750 0.000000
0.001000 0.028750 0.000000
0.001500 0.028750 0.000000
0.002000 0.028750 0.000000
0.002500 0.028750 0.000000
0.003000 0.028750 0.000000
0.003500 0.028750 0.000000
0.004000 0.028750 0.000000
0.004500 0.028750 0.000000
0.000500 0.027500 0.000000
0.001000 0.027500 0.000000
0.001500 0.027500 0.000000
0.002000 0.027500 0.000000
0.002500 0.027500 0.000000
0.003000 0.027500 0.000000
0.003500 0.027500 0.000000
0.004000 0.027500 0.000000
0.004500 0.027500 0.000000
0.000500 0.026250 0.000000
0.001000 0.026250 0.000000
0.001500 0.026250 0.000000
0.002000 0.026250 0.000000
0.002500 0.026250 0.000000
0.003000 0.026250 0.000000
0.003500 0.026250 0.000000
0.004000 0.026250 0.000000
0.004500 0.026250 0.000000
0.000500 0.025000 0.000000
0.001000 0.025000 0.000000
0.001500 0.025000 0.000000
0.002000 0.025000 0.000000
0.002500 0.025000 0.000000
0.003000 0.025000 0.000000
0.003500 0.025000 0.000000
0.004000 0.025000 0.000000
0.004500 0.025000 0.000000
0.000500 0.023750 0.000000
0.001000 0.023750 0.000000
0.001500 0.023750 0.000000
0.002000 0.023750 0.000000
0.002500 0.023750 0.000000
0.003000 0.023750 0.000000
0.003500 0.023750 0.000000
0.004000 0.023750 0.000000
0.004500 0.023750 0.000000
0.000500 0.022500 0.000000
0.001000 0.022500 0.000000
0.001500 0.022500 0.000000
0.002000 0.022500 0.000000
0.002500 0.022500 0.000000
0.003000 0.022500 0.000000
0.003500 0.022500 0.000000
0.004000 0.022500 0.000000
0.004500 0.022500 0.000000
0.000500 0.021250 0.000000
0.001000 0.021250 0.000000
0.001500 0.021250 0.000000
0.002000 0.021250 0.000000
0.002500 0.021250 0.000000
0.003000 0.021250 0.000000
0.003500 0.021250 0.000000
0.004000 0.021250 0.000000
0.004500 0.021250 0.000000
0.000500 0.020000 0.000000
0.001000 0.020000 0.000000
0.001500 0.020000 0.000000
0.002000 0.020000 0.000000
0.002500 0.020000 0.000000
0.003000 0.020000 0.000000
0.003500 0.020000 0.000000
0.004000 0.020000 0.000000
0.004500 0.020000 0.000000
0.000500 0.018750 0.000000
0.001000 0.018750 0.000000
0.001500 0.018750 0.000000
0.002000 0.018750 0.000000
0.002500 0.018750 0.000000
0.003000 0.018750 0.000000
0.003500 0.018750 0.000000
0.004000 0.018750 0.000000
0.004500 0.018750 0.000000
0.000500 0.017500 0.000000
0.001000 0.017500 0.000000
0.001500 0.017500 0.000000
0.002000 0.017500 0.000000
0.002500 0.017500 0.000000
0.003000 0.017500 0.000000
0.003500 0.017500 0.000000
0.004000 0.017500 0.000000
0.004500 0.017500 0.000000
0.000500 0.016250 0.000000
0.001000 0.016250 0.000000
0.001500 0.016250 0.000000
0.002000 0.016250 0.000000
0.002500 0.016250 0.000000
0.003000 0.016250 0.000000
0.003500 0.016250 0.000000
0.004000 0.016250 0.000000
0.004500 0.016250 0.000000
0.000500 0.015000 0.000000
0.001000 0.015000 0.000000
0.001500 0.015000 0.000000
0.002000 0.015000 0.000000
0.002500 0.015000 0.000000
0.003000 0.015000 0.000000
0.003500 0.015000 0.000000
0.004000 0.015000 0.000000
0.004500 0.015000 0.000000
0.000500 0.013750 0.000000
0.001000 0.013750 0.000000
0.001500 0.013750 0.000000
0.002000 0.013750 0.000000
0.002500 0.013750 0.000000
0.003000 0.013750 0.000000
0.003500 0.013750 0.000000
0.004000 0.013750 0.000000
0.004500 0.013750 0.000000
0.000500 0.012500 0.000000
0.001000 0.012500 0.000000
0.001500 0.012500 0.000000
0.002000 0.012500 0.000000
0.002500 0.012500 0.000000
0.003000 0.012500 0.000000
0.003500 0.012500 0.000000
0.004000 0.012500 0.000000
0.004500 0.012500 0.000000
0.000500 0.011250 0.000000
0.001000 0.011250 0.000000
0.001500 0.011250 0.000000
0.002000 0.011250 0.000000
0.002500 0.011250 0.000000
0.003000 0.011250 0.000000
0.003500 0.011250 0.000000
0.004000 0.011250 0.000000
0.004500 0.011250 0.000000
0.000500 0.010000 0.000000
0.001000 0.010000 0.000000
0.001500 0.010000 0.000000
0.002000 0.010000 0.000000
0.002500 0.010000 0.000000
0.003000 0.010000 0.000000
0.003500 0.010000 0.000000
0.004000 0.010000 0.000000
0.004500 0.010000 0.000000
0.000500 0.008750 0.000000
0.001000 0.008750 0.000000
0.001500 0.008750 0.000000
0.002000 0.008750 0.000000
0.002500 0.008750 0.000000
0.003000 0.008750 0.000000
0.003500 0.008750 0.000000
0.004000 0.008750 0.000000
0.004500 0.008750 0.000000
0.000500 0.007500 0.000000
0.001000 0.007500 0.000000
0.001500 0.007500 0.000000
0.002000 0.007500 0.000000
0.002500 0.007500 0.000000
0.003000 0.007500 0.000000
0.003500 0.007500 0.000000
0.004000 0.007500 0.000000
0.004500 0.007500 0.000000
0.000500 0.006250 0.000000
0.001000 0.006250 0.000000
0.001500 0.006250 0.000000
0.002000 0.006250 0.000000
0.002500 0.006250 0.000000
0.003000 0.006250 0.000000
0.003500 0.006250 0.000000
0.004000 0.006250 0.000000
0.004500 0.006250 0.000000
0.000500 0.005000 0.000000
0.001000 0.005000 0.000000
0.001500 0.005000 0.000000
0.002000 0.005000 0.000000
0.002500 0.005000 0.000000
0.003000 0.005000 0.000000
0.003500 0.005000 0.000000
0.004000 0.005000 0.000000
0.004500 0.005000 0.000000
0.000500 0.003750 0.000000
0.001000 0.003750 0.000000
0.001500 0.003750 0.000000
0.002000 0.003750 0.000000
0.002500 0.003750 0.000000
0.003000 0.003750 0.000000
0.003500 0.003750 0.000000
0.004000 0.003750 0.000000
0.004500 0.003750 0.000000
0.000500 0.002500 0.000000
0.001000 0.002500 0.000000
0.001500 0.002500 0.000000
0.002000 0.002500 0.000000
0.002500 0.002500 0.000000
0.003000 0.002500 0.000000
0.003500 0.002500 0.000000
0.004000 0.002500 0.000000
0.004500 0.002500 0.000000
0.000500 0.001250 0.000000
0.001000 0.001250 0.000000
0.001500 0.001250 0.000000
0.002000 0.001250 0.000000
0.002500 0.001250 0.000000
0.003000 0.001250 0.000000
0.003500 0.001250 0.000000
0.004000 0.001250 0.000000
0.004500 0.001250 0.000000
CELLS 800 4000
4 82 83 180 179
4 179 180 181 178
4 178 181 182 177
4 177 182 183 176
4 176 183 184 175
4 175 184 185 174
4 174 185 186 173
4 173 186 187 172
4 172 187 188 171
4 171 188 80 0
4 83 84 189 180
4 180 189 190 181
4 181 190 191 182
4 182 191 192 183
4 183 192 193 184
4 184 193 194 185
4 185 194 195 186
4 186 195 196 187
4 187 196 197 188
4 188 197 79 80
4 84 85 198 189
4 189 198 199 190
4 190 199 200 191
4 191 200 201 192
4 192 201 202 193
4 193 202 203 194
4 194 203 204 195
4 195 204 205 196
4 196 205 206 197
4 197 206 78 79
4 85 86 207 198
4 198 207 208 199
4 199 208 209 200
4 200 209 210 201
4 201 210 211 202
4 202 211 212 203
4 203 212 213 204
4 204 213 214 205
4 205 214 215 206
4 206 215 77 78
4 86 87 216 207
4 207 216 217 208
4 208 217 218 209
4 209 218 219 210
4 210 219 220 211
4 211 220 221 212
4 212 221 222 213
4 213 222 223 214
4 214 223 224 215
4 215 224 76 77
4 87 88 225 216
4 216 225 226 217
4 217 226 227 218
4 218 227 228 219
4 219 228 229 220
4 220 229 230 221
4 221 230 231 222
4 222 231 232 223
4 223 232 233 224
4 224 233 75 76
4 88 89 234 225
4 225 234 235 226
4 226 235 236 227
4 227 236 237 228
4 228 237 238 229
4 229 238 239 230
4 230 239 240 231
4 231 240 241 232
4 232 241 242 233
4 233 242 74 75
4 89 90 243 234
4 234 243 244 235
4 235 244 245 236
4 236 245 246 237
4 237 246 247 238
4 238 247 248 239
4 239 248 249 240
4 240 249 250 241
4 241 250 251 242
4 242 251 73 74
4 90 91 252 243
4 243 252 253 244
4 244 253 254 245
4 245 254 255 246
4 246 255 256 247
4 247 256 257 248
4 248 257 258 249
4 249 258 259 250
4 250 259 260 251
4 251 260 72 73
4 91 92 261 252
4 252 261 262 253
4 253 262 263 254
4 254 263 264 255
4 255 264 265 256
4 256 265 266 257
4 257 266 267 258
4 258 267 268 259
4 259 268 269 260
4 260 269 71 72
4 92 93 270 261
4 261 270 271 262
4 262 271 272 263
4 263 272 273 264
4 264 273 274 265
4 265 274 275 266
4 266 275 276 267
4 267 276 277 268
4 268 277 278 269
4 269 278 70 71
4 93 94 279 270
4 270 279 280 271
4 271 280 281 272
4 272 281 282 273
4 273 282 283 274
4 274 283 284 275
4 275 284 285 276
4 276 285 286 277
4 277 286 287 278
4 278 287 69 70
4 94 95 288 279
4 279 288 289 280
4 280 289 290 281
4 281 290 291 282
4 282 291 292 283
4 283 292 293 284
4 284 293 294 285
4 285 294 295 286
4 286 295 296 287
4 287 296 68 69
4 95 96 297 288
4 288 297 298 289
4 289 298 299 290
4 290 299 300 291
4 291 300 301 292
4 292 301 302 293
4 293 302 303 294
4 294 303 304 295
4 295 304 305 296
4 296 305 67 68
4 96 97 306 297
4 297 306 307 298
4 298 307 308 299
4 299 308 309 300
4 300 309 310 301
4 301 310 311 302
4 302 311 312 303
4 303 312 313 304
4 304 313 314 305
4 305 314 66 67
4 97 98 315 306
4 306 315 316 307
4 307 316 317 308
4 308 317 318 309
4 309 318 319 310
4 310 319 320 311
4 311 320 321 312
4 312 321 322 313
4 313 322 323 314
4 314 323 65 66
4 98 99 324 315
4 315 324 325 316
4 316 325 326 317
4 317 326 327 318
4 318 327 328 319
4 319 328 329 320
4 320 329 330 321
4 321 330 331 322
4 322 331 332 323
4 323 332 64 65
4 99 100 333 324
4 324 333 334 325
4 325 334 335 326
4 326 335 336 327
4 327 336 337 328
4 328 337 338 329
4 329 338 339 330
4 330 339 340 331
4 331 340 341 332
4 332 341 63 64
4 100 101 342 333
4 333 342 343 334
4 334 343 344 335
4 335 344 345 336
4 336 345 346 337
4 337 346 347 338
4 338 347 348 339
4 339 348 349 340
4 340 349 350 341
4 341 350 62 63
4 101 102 351 342
4 342 351 352 343
4 343 352 353 344
4 344 353 354 345
4 345 354 355 346
4 346 355 356 347
4 347 356 357 348
4 348 357 358 349
4 349 358 359 350
4 350 359 61 62
4 102 103 360 351
4 351 360 361 352
4 352 361 362 353
4 353 362 363 354
4 354 363 364 355
4 355 364 365 356
4 356 365 366 357
4 357 366 367 358
4 358 367 368 359
4 359 368 60 61
4 103 104 369 360
4 360 369 370 361
4 361 370 371 362
4 362 371 372 363
4 363 372 373 364
4 364 373 374 365
4 365 374 375 366
4 366 375 376 367
4 367 376 377 368
4 368 377 59 60
4 104 105 378 369
4 369 378 379 370
4 370 379 380 371
4 371 380 381 372
4 372 381 382 373
4 373 382 383 374
4 374 383 384 375
4 375 384 385 376
4 376 385 386 377
4 377 386 58 59
4 105 106 387 378
4 378 387 388 379
4 379 388 389 380
4 380 389 390 381
4 381 390 391 382
4 382 391 392 383
4 383 392 393 384
4 384 393 394 385
4 385 394 395 386
4 386 395 57 58
4 106 107 396 387
4 387 396 397 388
4 388 397 398 389
4 389 398 399 390
4 390 399 400 391
4 391 400 401 392
4 392 401 402 393
4 393 402 403 394
4 394 403 404 395
4 395 404 56 57
4 107 108 405 396
4 396 405 406 397
4 397 406 407 398
4 398 407 408 399
4 399 408 409 400
4 400 409 410 401
4 401 410 411 402
4 402 411 412 403
4 403 412 413 404
4 404 413 55 56
4 108 109 414 405
4 405 414 415 406
4 406 415 416 407
4 407 416 417 408
4 408 417 418 409
4 409 418 419 410
4 410 419 420 411
4 411 420 421 412
4 412 421 422 413
4 413 422 54 55
4 109 110 423 414
4 414 423 424 415
4 415 424 425 416
4 416 425 426 417
4 417 426 427 418
4 418 427 428 419
4 419 428 429 420
4 420 429 430 421
4 421 430 431 422
4 422 431 53 54
4 110 111 432 423
4 423 432 433 424
4 424 433 434 425
4 425 434 435 426
4 426 435 436 427
4 427 436 437 428
4 428 437 438 429
4 429 438 439 430
4 430 439 440 431
4 431 440 52 53
4 111 112 441 432
4 432 441 442 433
4 433 442 443 434
4 434 443 444 435
4 435 444 445 436
4 436 445 446 437
4 437 446 447 438
4 438 447 448 439
4 439 448 449 440
4 440 449 51 52
4 112 113 450 441
4 441 450 451 442
4 442 451 452 443
4 443 452 453 444
4 444 453 454 445
4 445 454 455 446
4 446 455 456 447
4 447 456 457 448
4 448 457 458 449
4 449 458 50 51
4 113 114 459 450
4 450 459 460 451
4 451 460 461 452
4 452 461 462 453
4 453 462 463 454
4 454 463 464 455
4 455 464 465 456
4 456 465 466 457
4 457 466 467 458
4 458 467 49 50
4 114 115 468 459
4 459 468 469 460
4 460 469 470 461
4 461 470 471 462
4 462 471 472 463
4 463 472 473 464
4 464 473 474 465
4 465 474 475 466
4 466 475 476 467
4 467 476 48 49
4 115 116 477 468
4 468 477 478 469
4 469 478 479 470
4 470 479 480 471
4 471 480 481 472
4 472 481 482 473
4 473 482 483 474
4 474 483 484 475
4 475 484 485 476
4 476 485 47 48
4 116 117 486 477
4 477 486 487 478
4 478 487 488 479
4 479 488 489 480
4 480 489 490 481
4 481 490 491 482
4 482 491 492 483
4 483 492 493 484
4 484 493 494 485
4 485 494 46 47
4 117 118 495 486
4 486 495 496 487
4 487 496 497 488
4 488 497 498 489
4 489 498 499 490
4 490 499 500 491
4 491 500 501 492
4 492 501 502 493
4 493 502 503 494
4 494 503 45 46
4 118 119 504 495
4 495 504 505 496
4 496 505 506 497
4 497 506 507 498
4 498 507 508 499
4 499 508 509 500
4 500 509 510 501
4 501 510 511 502
4 502 511 512 503
4 503 512 44 45
4 119 120 513 504
4 504 513 514 505
4 505 514 515 506
4 506 515 516 507
4 507 516 517 508
4 508 517 518 509
4 509 518 519 510
4 510 519 520 511
4 511 520 521 512
4 512 521 43 44
4 120 121 522 513
4 513 522 523 514
4 514 523 524 515
4 515 524 525 516
4 516 525 526 517
4 517 526 527 518
4 518 527 528 519
4 519 528 529 520
4 520 529 530 521
4 521 530 42 43
4 121 122 531 522
4 522 531 532 523
4 523 532 533 524
4 524 533 534 525
4 525 534 535 526
4 526 535 536 527
4 527 536 537 528
4 528 537 538 529
4 529 538 539 530
4 530 539 41 42
4 122 123 540 531
4 531 540 541 532
4 532 541 542 533
4 533 542 543 534
4 534 543 544 535
4 535 544 545 536
4 536 545 546 537
4 537 546 547 538
4 538 547 548 539
4 539 548 40 41
4 123 124 549 540
4 540 549 550 541
4 541 550 551 542
4 542 551 552 543
4 543 552 553 544
4 544 553 554 545
4 545 554 555 546
4 546 555 556 547
4 547 556 557 548
4 548 557 39 40
4 124 125 558 549
4 549 558 559 550
4 550 559 560 551
4 551 560 561 552
4 552 561 562 553
4 553 562 563 554
4 554 563 564 555
4 555 564 565 556
4 556 565 566 557
4 557 566 38 39
4 125 126 567 558
4 558 567 568 559
4 559 568 569 560
4 560 569 570 561
4 561 570 571 562
4 562 571 572 563
4 563 572 573 564
4 564 573 574 565
4 565 574 575 566
4 566 575 37 38
4 126 127 576 567
4 567 576 577 568
4 568 577 578 569
4 569 578 579 570
4 570 579 580 571
4 571 580 581 572
4 572 581 582 573
4 573 582 583 574
4 574 583 584 575
4 575 584 36 37
4 127 128 585 576
4 576 585 586 577
4 577 586 587 578
4 578 587 588 579
4 579 588 589 580
4 580 589 590 581
4 581 590 591 582
4 582 591 592 583
4 583 592 593 584
4 584 593 35 36
4 128 129 594 585
4 585 594 595 586
4 586 595 596 587
4 587 596 597 588
4 588 597 598 589
4 589 598 599 590
4 590 599 600 591
4 591 600 601 592
4 592 601 602 593
4 593 602 34 35
4 129 130 603 594
4 594 603 604 595
4 595 604 605 596
4 596 605 606 597
4 597 606 607 598
4 598 607 608 599
4 599 608 609 600
4 600 609 610 601
4 601 610 611 602
4 602 611 33 34
4 130 131 612 603
4 603 612 613 604
4 604 613 614 605
4 605 614 615 606
4 606 615 616 607
4 607 616 617 608
4 608 617 618 609
4 609 618 619 610
4 610 619 620 611
4 611 620 32 33
4 131 132 621 612
4 612 621 622 613
4 613 622 623 614
4 614 623 624 615
4 615 624 625 616
4 616 625 626 617
4 617 626 627 618
4 618 627 628 619
4 619 628 629 620
4 620 629 31 32
4 132 133 630 621
4 621 630 631 622
4 622 631 632 623
4 623 632 633 624
4 624 633 634 625
4 625 634 635 626
4 626 635 636 627
4 627 636 637 628
4 628 637 638 629
4 629 638 30 31
4 133 134 639 630
4 630 639 640 631
4 631 640 641 632
4 632 641 642 633
4 633 642 643 634
4 634 643 644 635
4 635 644 645 636
4 636 645 646 637
4 637 646 647 638
4 638 647 29 30
4 134 135 648 639
4 639 648 649 640
4 640 649 650 641
4 641 650 651 642
4 642 651 652 643
4 643 652 653 644
4 644 653 654 645
4 645 654 655 646
4 646 655 656 647
4 647 656 28 29
4 135 136 657 648
4 648 657 658 649
4 649 658 659 650
4 650 659 660 651
4 651 660 661 652
4 652 661 662 653
4 653 662 663 654
4 654 663 664 655
4 655 664 665 656
4 656 665 27 28
4 136 137 666 657
4 657 666 667 658
4 658 667 668 659
4 659 668 669 660
4 660 669 670 661
4 661 670 671 662
4 662 671 672 663
4 663 672 673 664
4 664 673 674 665
4 665 674 26 27
4 137 138 675 666
4 666 675 676 667
4 667 676 677 668
4 668 677 678 669
4 669 678 679 670
4 670 679 680 671
4 671 680 681 672
4 672 681 682 673
4 673 682 683 674
4 674 683 25 26
4 138 139 684 675
4 675 684 685 676
4 676 685 686 677
4 677 686 687 678
4 678 687 688 679
4 679 688 689 680
4 680 689 690 681
4 681 690 691 682
4 682 691 692 683
4 683 692 24 25
4 139 140 693 684
4 684 693 694 685
4 685 694 695 686
4 686 695 696 687
4 687 696 697 688
4 688 697 698 689
4 689 698 699 690
4 690 699 700 691
4 691 700 701 692
4 692 701 23 24
4 140 141 702 693
4 693 702 703 694
4 694 703 704 695
4 695 704 705 696
4 696 705 706 697
4 697 706 707 698
4 698 707 708 699
4 699 708 709 700
4 700 709 710 701
4 701 710 22 23
4 141 142 711 702
4 702 711 712 703
4 703 712 713 704
4 704 713 714 705
4 705 714 715 706
4 706 715 716 707
4 707 716 717 708
4 708 717 718 709
4 709 718 719 710
4 710 719 21 22
4 142 143 720 711
4 711 720 721 712
4 712 721 722 713
4 713 722 723 714
4 714 723 724 715
4 715 724 725 716
4 716 725 726 717
4 717 726 727 718
4 718 727 728 719
4 719 728 20 21
4 143 144 729 720
4 720 729 730 721
4 721 730 731 722
4 722 731 732 723
4 723 732 733 724
4 724 733 734 725
4 725 734 735 726
4 726 735 736 727
4 727 736 737 728
4 728 737 19 20
4 144 145 738 729
4 729 738 739 730
4 730 739 740 731
4 731 740 741 732
4 732 741 742 733
4 733 742 743 734
4 734 743 744 735
4 735 744 745 736
4 736 745 746 737
4 737 746 18 19
4 145 146 747 738
4 738 747 748 739
4 739 748 749 740
4 740 749 750 741
4 741 750 751 742
4 742 751 752 743
4 743 752 753 744
4 744 753 754 745
4 745 754 755 746
4 746 755 17 18
4 146 147 756 747
4 747 756 757 748
4 748 757 758 749
4 749 758 759 750
4 750 759 760 751
4 751 760 761 752
4 752 761 762 753
4 753 762 763 754
4 754 763 764 755
4 755 764 16 17
4 147 148 765 756
4 756 765 766 757
4 757 766 767 758
4 758 767 768 759
4 759 768 769 760
4 760 769 770 761
4 761 770 771 762
4 762 771 772 763
4 763 772 773 764
4 764 773 15 16
4 148 149 774 765
4 765 774 775 766
4 766 775 776 767
4 767 776 777 768
4 768 777 778 769
4 769 778 779 770
4 770 779 780 771
4 771 780 781 772
4 772 781 782 773
4 773 782 14 15
4 149 150 783 774
4 774 783 784 775
4 775 784 785 776
4 776 785 786 777
4 777 786 787 778
4 778 787 788 779
4 779 788 789 780
4 780 789 790 781
4 781 790 791 782
4 782 791 13 14
4 150 151 792 783
4 783 792 793 784
4 784 793 794 785
4 785 794 795 786
4 786 795 796 787
4 787 796 797 788
4 788 797 798 789
4 789 798 799 790
4 790 799 800 791
4 791 800 12 13
4 151 152 801 792
4 792 801 802 793
4 793 802 803 794
4 794 803 804 795
4 795 804 805 796
4 796 805 806 797
4 797 806 807 798
4 798 807 808 799
4 799 808 809 800
4 800 809 11 12
4 152 153 810 801
4 801 810 811 802
4 802 811 812 803
4 803 812 813 804
4 804 813 814 805
4 805 814 815 806
4 806 815 816 807
4 807 816 817 808
4 808 817 818 809
4 809 818 10 11
4 153 154 819 810
4 810 819 820 811
4 811 820 821 812
4 812 821 822 813
4 813 822 823 814
4 814 823 824 815
4 815 824 825 816
4 816 825 826 817
4 817 826 827 818
4 818 827 9 10
4 154 155 828 819
4 819 828 829 820
4 820 829 830 821
4 821 830 831 822
4 822 831 832 823
4 823 832 833 824
4 824 833 834 825
4 825 834 835 826
4 826 835 836 827
4 827 836 8 9
4 155 156 837 828
4 828 837 838 829
4 829 838 839 830
4 830 839 840 831
4 831 840 841 832
4 832 841 842 833
4 833 842 843 834
4 834 843 844 835
4 835 844 845 836
4 836 845 7 8
4 156 157 846 837
4 837 846 847 838
4 838 847 848 839
4 839 848 849 840
4 840 849 850 841
4 841 850 851 842
4 842 851 852 843
4 843 852 853 844
4 844 853 854 845
4 845 854 6 7
4 157 158 855 846
4 846 855 856 847
4 847 856 857 848
4 848 857 858 849
4 849 858 859 850
4 850 859 860 851
4 851 860 861 852
4 852 861 862 853
4 853 862 863 854
4 854 863 5 6
4 158 159 864 855
4 855 864 865 856
4 856 865 866 857
4 857 866 867 858
4 858 867 868 859
4 859 868 869 860
4 860 869 870 861
4 861 870 871 862
4 862 871 872 863
4 863 872 4 5
4 159 160 873 864
4 864 873 874 865
4 865 874 875 866
4 866 875 876 867
4 867 876 877 868
4 868 877 878 869
4 869 878 879 870
4 870 879 880 871
4 871 880 881 872
4 872 881 3 4
4 160 161 882 873
4 873 882 883 874
4 874 883 884 875
4 875 884 885 876
4 876 885 886 877
4 877 886 887 878
4 878 887 888 879
4 879 888 889 880
4 880 889 890 881
4 881 890 2 3
4 161 81 162 882
4 882 162 163 883
4 883 163 164 884
4 884 164 165 885
4 885 165 166 886
4 886 166 167 887
4 887 167 168 888
4 888 168 169 889
4 889 169 170 890
4 890 170 1 2
CELL_TYPES 800
9
9
9
9
9
9
9
9
9
9
9
9
9
9
9
9
9
9
9
9
9
9
9
9
9
9
9
9
9
9
9
9
9
9
9
9
9
9
9
9
9
9
9
9
9
9
9
9
9
9
9
9
9
9
9
9
9
9
9
9
9
9
9
9
9
9
9
9
9
9
9
9
9
9
9
9
9
9
9
9
9
9
9
9
9
9
9
9
9
9
9
9
9
9
9
9
9
9
9
9
9
9
9
9
9
9
9
9
9
9
9
9
9
9
9
9
9
9
9
9
9
9
9
9
9
9
9
9
9
9
9
9
9
9
9
9
9
9
9
9
9
9
9
9
9
9
9
9
9
9
9
9
9
9
9
9
9
9
9
9
9
9
9
9
9
9
9
9
9
9
9
9
9
9
9
9
9
9
9
9
9
9
9
9
9
9
9
9
9
9
9
9
9
9
9
9
9
9
9
9
9
9
9
9
9
9
9
9
9
9
9
9
9
9
9
9
9
9
9
9
9
9
9
9
9
9
9
9
9
9
9
9
9
9
9
9
9
9
9
9
9
9
9
9
9
9
9
9
9
9
9
9
9
9
9
9
9
9
9
9
9
9
9
9
9
9
9
9
9
9
9
9
9
9
9
9
9
9
9
9
9
9
9
9
9
9
9
9
9
9
9
9
9
9
9
9
9
9
9
9
9
9
9
9
9
9
9
9
9
9
9
9
9
9
9
9
9
9
9
9
9
9
9
9
9
9
9
9
9
9
9
9
9
9
9
9
9
9
9
9
9
9
9
9
9
9
9
9
9
9
9
9
9
9
9
9
9
9
9
9
9
9
9
9
9
9
9
9
9
9
9
9
9
9
9
9
9
9
9
9
9
9
9
9
9
9
9
9
9
9
9
9
9
9
9
9
9
9
9
9
9
9
9
9
9
9
9
9
9
9
9
9
9
9
9
9
9
9
9
9
9
9
9
9
9
9
9
9
9
9
9
9
9
9
9
9
9
9
9
9
9
9
9
9
9
9
9
9
9
9
9
9
9
9
9
9
9
9
9
9
9
9
9
9
9
9
9
9
9
9
9
9
9
9
9
9
9
9
9
9
9
9
9
9
9
9
9
9
9
9
9
9
9
9
9
9
9
9
9
9
9
9
9
9
9
9
9
9
9
9
9
9
9
9
9
9
9
9
9
9
9
9
9
9
9
9
9
9
9
9
9
9
9
9
9
9
9
9
9
9
9
9
9
9
9
9
9
9
9
9
9
9
9
9
9
9
9
9
9
9
9
9
9
9
9
9
9
9
9
9
9
9
9
9
9
9
9
9
9
9
9
9
9
9
9
9
9
9
9
9
9
9
9
9
9
9
9
9
9
9
9
9
9
9
9
9
9
9
9
9
9
9
9
9
9
9
9
9
9
9
9
9
9
9
9
9
9
9
9
9
9
9
9
9
9
9
9
9
9
9
9
9
9
9
9
9
9
9
9
9
9
9
9
9
9
9
9
9
9
9
9
9
9
9
9
9
9
9
9
9
9
9
9
9
9
9
9
9
9
9
9
9
9
9
9
9
9
9
9
9
9
9
9
9
9
9
9
9
9
9
9
9
9
9
9
9
9
9
9
9
9
9
9
9
9
9
9
9
9
9
9
9
9
9
9
9
9
9
9
9
9
9
9
9
9
9
9
9
9
9
9
9
9
9
9
9
9
9
9
9
9
9
9
9
9
9
9
9
9
9
9
9
9
9
9
9
9
9
9
9
9
9
9
9
9
9
9
9
9
9
9
9
9
9
9
9
9
9
9
9
9
9
9
9
9
9
9
9
9
9
POINT_DATA 891
SCALARS u1 float
LOOKUP_TABLE default
-9e-16
-4e-06
-4e-06
-4e-06
-4e-06
-4e-06
-4e-06
-4e-06
-4e-06
-4e-06
-4e-06
-4e-06
-4e-06
-4e-06
-4e-06
-4e-06
-4e-06
-4e-06
-4e-06
-4e-06
-4e-06
-4e-06
-4e-06
-4e-06
-4e-06
-4e-06
-4e-06
-4e-06
-4e-06
-4e-06
-4e-06
-4e-06
-4e-06
-4e-06
-4e-06
-4e-06
-4e-06
-4e-06
-4e-06
-4e-06
-4e-06
-4e-06
-4e-06
-4e-06
-4e-06
-4e-06
-4e-06
-4e-06
-4e-06
-4e-06
-4e-06
-4e-06
-4e-06
-4e-06
-4e-06
-4e-06
-4e-06
-4e-06
-4e-06
-4e-06
-4e-06
-4e-06
-4e-06
-4e-06
-4e-06
-4e-06
-4e-06
-4e-06
-4e-06
-4e-06
-4e-06
-4e-06
-4e-06
-4e-06
-4e-06
-4e-06
-4e-06
-4e-06
-4e-06
-3e-06
-3e-06
4e-06
2e-15
3e-06
3e-06
4e-06
4e-06
4e-06
4e-06
4e-06
4e-06
4e-06
4e-06
4e-06
4e-06
4e-06
4e-06
4e-06
4e-06
4e-06
4e-06
4e-06
4e-06
4e-06
4e-06
4e-06
4e-06
4e-06
4e-06
4e-06
4e-06
4e-06
4e-06
4e-06
4e-06
4e-06
4e-06
4e-06
4e-06
4e-06
4e-06
4e-06
4e-06
4e-06
4e-06
4e-06
4e-06
4e-06
4e-06
4e-06
4e-06
4e-06
4e-06
4e-06
4e-06
4e-06
4e-06
4e-06
4e-06
4e-06
4e-06
4e-06
4e-06
4e-06
4e-06
4e-06
4e-06
4e-06
4e-06
4e-06
4e-06
4e-06
4e-06
4e-06
4e-06
4e-06
4e-06
4e-06
4e-06
4e-06
4e-06
4e-06
3e-06
2e-06
1e-06
7e-07
4e-15
-7e-07
-1e-06
-2e-06
-3e-06
2e-15
-9e-16
6e-16
7e-16
1e-16
-2e-16
4e-16
-1e-15
-2e-16
2e-06
1e-06
9e-07
4e-07
-3e-15
-4e-07
-9e-07
-1e-06
-2e-06
3e-06
2e-06
1e-06
7e-07
4e-15
-7e-07
-1e-06
-2e-06
-3e-06
3e-06
2e-06
2e-06
8e-07
3e-15
-8e-07
-2e-06
-2e-06
-3e-06
3e-06
2e-06
1e-06
7e-07
3e-15
-7e-07
-1e-06
-2e-06
-3e-06
3e-06
2e-06
1e-06
7e-07
3e-15
-7e-07
-1e-06
-2e-06
-3e-06
3e-06
2e-06
1e-06
7e-07
3e-15
-7e-07
-1e-06
-2e-06
-3e-06
3e-06
2e-06
1e-06
7e-07
3e-15
-7e-07
-1e-06
-2e-06
-3e-06
3e-06
2e-06
1e-06
7e-07
4e-15
-7e-07
-1e-06
-2e-06
-3e-06
3e-06
2e-06
1e-06
7e-07
5e-15
-7e-07
-1e-06
-2e-06
-3e-06
3e-06
2e-06
1e-06
7e-07
6e-15
-7e-07
-1e-06
-2e-06
-3e-06
3e-06
2e-06
1e-06
7e-07
7e-15
-7e-07
-1e-06
-2e-06
-3e-06
3e-06
2e-06
1e-06
7e-07
7e-15
-7e-07
-1e-06
-2e-06
-3e-06
3e-06
2e-06
1e-06
7e-07
8e-15
-7e-07
-1e-06
-2e-06
-3e-06
3e-06
2e-06
1e-06
7e-07
8e-15
-7e-07
-1e-06
-2e-06
-3e-06
3e-06
2e-06
1e-06
7e-07
9e-15
-7e-07
-1e-06
-2e-06
-3e-06
3e-06
2e-06
1e-06
7e-07
9e-15
-7e-07
-1e-06
-2e-06
-3e-06
3e-06
2e-06
1e-06
7e-07
9e-15
-7e-07
-1e-06
-2e-06
-3e-06
3e-06
2e-06
1e-06
7e-07
9e-15
-7e-07
-1e-06
-2e-06
-3e-06
3e-06
2e-06
1e-06
7e-07
9e-15
-7e-07
-1e-06
-2e-06
-3e-06
3e-06
2e-06
1e-06
7e-07
8e-15
-7e-07
-1e-06
-2e-06
-3e-06
3e-06
2e-06
1e-06
7e-07
8e-15
-7e-07
-1e-06
-2e-06
-3e-06
3e-06
2e-06
1e-06
7e-07
8e-15
-7e-07
-1e-06
-2e-06
-3e-06
3e-06
2e-06
1e-06
7e-07
7e-15
-7e-07
-1e-06
-2e-06
-3e-06
3e-06
2e-06
1e-06
7e-07
7e-15
-7e-07
-1e-06
-2e-06
-3e-06
3e-06
2e-06
1e-06
7e-07
6e-15
-7e-07
-1e-06
-2e-06
-3e-06
3e-06
2e-06
1e-06
7e-07
6e-15
-7e-07
-1e-06
-2e-06
-3e-06
3e-06
2e-06
1e-06
7e-07
6e-15
-7e-07
-1e-06
-2e-06
-3e-06
3e-06
2e-06
1e-06
7e-07
6e-15
-7e-07
-1e-06
-2e-06
-3e-06
3e-06
2e-06
1e-06
7e-07
5e-15
-7e-07
-1e-06
-2e-06
-3e-06
3e-06
2e-06
1e-06
7e-07
5e-15
-7e-07
-1e-06
-2e-06
-3e-06
3e-06
2e-06
1e-06
7e-07
5e-15
-7e-07
-1e-06
-2e-06
-3e-06
3e-06
2e-06
1e-06
7e-07
5e-15
-7e-07
-1e-06
-2e-06
-3e-06
3e-06
2e-06
1e-06
7e-07
5e-15
-7e-07
-1e-06
-2e-06
-3e-06
3e-06
2e-06
1e-06
7e-07
4e-15
-7e-07
-1e-06
-2e-06
-3e-06
3e-06
2e-06
1e-06
7e-07
4e-15
-7e-07
-1e-06
-2e-06
-3e-06
3e-06
2e-06
1e-06
7e-07
4e-15
-7e-07
-1e-06
-2e-06
-3e-06
3e-06
2e-06
1e-06
7e-07
4e-15
-7e-07
-1e-06
-2e-06
-3e-06
3e-06
2e-06
1e-06
7e-07
4e-15
-7e-07
-1e-06
-2e-06
-3e-06
3e-06
2e-06
1e-06
7e-07
4e-15
-7e-07
-1e-06
-2e-06
-3e-06
3e-06
2e-06
1e-06
7e-07
4e-15
-7e-07
-1e-06
-2e-06
-3e-06
3e-06
2e-06
1e-06
7e-07
4e-15
-7e-07
-1e-06
-2e-06
-3e-06
3e-06
2e-06
1e-06
7e-07
4e-15
-7e-07
-1e-06
-2e-06
-3e-06
3e-06
2e-06
1e-06
7e-07
4e-15
-7e-07
-1e-06
-2e-06
-3e-06
3e-06
2e-06
1e-06
7e-07
4e-15
-7e-07
-1e-06
-2e-06
-3e-06
3e-06
2e-06
1e-06
7e-07
4e-15
-7e-07
-1e-06
-2e-06
-3e-06
3e-06
2e-06
1e-06
7e-07
4e-15
-7e-07
-1e-06
-2e-06
-3e-06
3e-06
2e-06
1e-06
7e-07
4e-15
-7e-07
-1e-06
-2e-06
-3e-06
3e-06
2e-06
1e-06
7e-07
4e-15
-7e-07
-1e-06
-2e-06
-3e-06
3e-06
2e-06
1e-06
7e-07
4e-15
-7e-07
-1e-06
-2e-06
-3e-06
3e-06
2e-06
1e-06
7e-07
4e-15
-7e-07
-1e-06
-2e-06
-3e-06
3e-06
2e-06
1e-06
7e-07
4e-15
-7e-07
-1e-06
-2e-06
-3e-06
3e-06
2e-06
1e-06
7e-07
4e-15
-7e-07
-1e-06
-2e-06
-3e-06
3e-06
2e-06
1e-06
7e-07
4e-15
-7e-07
-1e-06
-2e-06
-3e-06
3e-06
2e-06
1e-06
7e-07
4e-15
-7e-07
-1e-06
-2e-06
-3e-06
3e-06
2e-06
1e-06
7e-07
4e-15
-7e-07
-1e-06
-2e-06
-3e-06
3e-06
2e-06
1e-06
7e-07
4e-15
-7e-07
-1e-06
-2e-06
-3e-06
3e-06
2e-06
1e-06
7e-07
4e-15
-7e-07
-1e-06
-2e-06
-3e-06
3e-06
2e-06
1e-06
7e-07
4e-15
-7e-07
-1e-06
-2e-06
-3e-06
3e-06
2e-06
1e-06
7e-07
4e-15
-7e-07
-1e-06
-2e-06
-3e-06
3e-06
2e-06
1e-06
7e-07
4e-15
-7e-07
-1e-06
-2e-06
-3e-06
3e-06
2e-06
1e-06
7e-07
4e-15
-7e-07
-1e-06
-2e-06
-3e-06
3e-06
2e-06
1e-06
7e-07
4e-15
-7e-07
-1e-06
-2e-06
-3e-06
3e-06
2e-06
1e-06
7e-07
4e-15
-7e-07
-1e-06
-2e-06
-3e-06
3e-06
2e-06
1e-06
7e-07
4e-15
-7e-07
-1e-06
-2e-06
-3e-06
3e-06
2e-06
1e-06
7e-07
4e-15
-7e-07
-1e-06
-2e-06
-3e-06
3e-06
2e-06
1e-06
7e-07
4e-15
-7e-07
-1e-06
-2e-06
-3e-06
3e-06
2e-06
1e-06
7e-07
4e-15
-7e-07
-1e-06
-2e-06
-3e-06
3e-06
2e-06
1e-06
7e-07
4e-15
-7e-07
-1e-06
-2e-06
-3e-06
3e-06
2e-06
1e-06
7e-07
4e-15
-7e-07
-1e-06
-2e-06
-3e-06
3e-06
2e-06
1e-06
7e-07
4e-15
-7e-07
-1e-06
-2e-06
-3e-06
3e-06
2e-06
1e-06
7e-07
4e-15
-7e-07
-1e-06
-2e-06
-3e-06
3e-06
2e-06
1e-06
7e-07
4e-15
-7e-07
-1e-06
-2e-06
-3e-06
3e-06
2e-06
1e-06
7e-07
4e-15
-7e-07
-1e-06
-2e-06
-3e-06
3e-06
2e-06
1e-06
7e-07
4e-15
-7e-07
-1e-06
-2e-06
-3e-06
3e-06
2e-06
1e-06
7e-07
4e-15
-7e-07
-1e-06
-2e-06
-3e-06
3e-06
2e-06
1e-06
7e-07
4e-15
-7e-07
-1e-06
-2e-06
-3e-06
3e-06
2e-06
1e-06
7e-07
4e-15
-7e-07
-1e-06
-2e-06
-3e-06
3e-06
2e-06
1e-06
7e-07
4e-15
-7e-07
-1e-06
-2e-06
-3e-06
3e-06
2e-06
1e-06
7e-07
4e-15
-7e-07
-1e-06
-2e-06
-3e-06
SCALARS u2 float
LOOKUP_TABLE default
1e-15
-0.0004
-0.0004
-0.0004
-0.0004
-0.0004
-0.0004
-0.0004
-0.0004
-0.0004
-0.0004
-0.0004
-0.0003
-0.0003
-0.0003
-0.0003
-0.0003
-0.0003
-0.0003
-0.0003
-0.0003
-0.0003
-0.0003
-0.0003
-0.0003
-0.0003
-0.0003
-0.0003
-0.0003
-0.0003
-0.0003
-0.0003
-0.0002
-0.0002
-0.0002
-0.0002
-0.0002
-0.0002
-0.0002
-0.0002
-0.0002
-0.0002
-0.0002
-0.0002
-0.0002
-0.0002
-0.0002
-0.0002
-0.0002
-0.0002
-0.0002
-0.0001
-0.0001
-0.0001
-0.0001
-0.0001
-0.0001
-0.0001
-0.0001
-0.0001
-0.0001
-0.0001
-9e-05
-9e-05
-8e-05
-8e-05
-7e-05
-7e-05
-6e-05
-6e-05
-5e-05
-5e-05
-4e-05
-4e-05
-3e-05
-3e-05
-2e-05
-2e-05
-1e-05
-1e-05
-5e-06
-0.0004
8e-16
-5e-06
-1e-05
-1e-05
-2e-05
-2e-05
-3e-05
-3e-05
-4e-05
-4e-05
-5e-05
-5e-05
-6e-05
-6e-05
-7e-05
-7e-05
-8e-05
-8e-05
-9e-05
-9e-05
-0.0001
-0.0001
-0.0001
-0.0001
-0.0001
-0.0001
-0.0001
-0.0001
-0.0001
-0.0001
-0.0001
-0.0002
-0.0002
-0.0002
-0.0002
-0.0002
-0.0002
-0.0002
-0.0002
-0.0002
-0.0002
-0.0002
-0.0002
-0.0002
-0.0002
-0.0002
-0.0002
-0.0002
-0.0002
-0.0002
-0.0003
-0.0003
-0.0003
-0.0003
-0.0003
-0.0003
-0.0003
-0.0003
-0.0003
-0.0003
-0.0003
-0.0003
-0.0003
-0.0003
-0.0003
-0.0003
-0.0003
-0.0003
-0.0003
-0.0003
-0.0004
-0.0004
-0.0004
-0.0004
-0.0004
-0.0004
-0.0004
-0.0004
-0.0004
-0.0004
-0.0004
-0.0004
-0.0004
-0.0004
-0.0004
-0.0004
-0.0004
-0.0004
-0.0004
4e-16
-9e-16
-6e-17
1e-16
-3e-16
2e-17
2e-16
-1e-15
2e-15
-5e-06
-4e-06
-4e-06
-4e-06
-4e-06
-4e-06
-4e-06
-4e-06
-5e-06
-1e-05
-9e-06
-9e-06
-9e-06
-9e-06
-9e-06
-9e-06
-9e-06
-1e-05
-1e-05
-1e-05
-1e-05
-1e-05
-1e-05
-1e-05
-1e-05
-1e-05
-1e-05
-2e-05
-2e-05
-2e-05
-2e-05
-2e-05
-2e-05
-2e-05
-2e-05
-2e-05
-2e-05
-2e-05
-2e-05
-2e-05
-2e-05
-2e-05
-2e-05
-2e-05
-2e-05
-3e-05
-3e-05
-3e-05
-3e-05
-3e-05
-3e-05
-3e-05
-3e-05
-3e-05
-3e-05
-3e-05
-3e-05
-3e-05
-3e-05
-3e-05
-3e-05
-3e-05
-3e-05
-4e-05
-4e-05
-4e-05
-4e-05
-4e-05
-4e-05
-4e-05
-4e-05
-4e-05
-4e-05
-4e-05
-4e-05
-4e-05
-4e-05
-4e-05
-4e-05
-4e-05
-4e-05
-5e-05
-5e-05
-5e-05
-5e-05
-5e-05
-5e-05
-5e-05
-5e-05
-5e-05
-5e-05
-5e-05
-5e-05
-5e-05
-5e-05
-5e-05
-5e-05
-5e-05
-5e-05
-6e-05
-6e-05
-6e-05
-6e-05
-6e-05
-6e-05
-6e-05
-6e-05
-6e-05
-6e-05
-6e-05
-6e-05
-6e-05
-6e-05
-6e-05
-6e-05
-6e-05
-6e-05
-7e-05
-7e-05
-7e-05
-7e-05
-7e-05
-7e-05
-7e-05
-7e-05
-7e-05
-7e-05
-7e-05
-7e-05
-7e-05
-7e-05
-7e-05
-7e-05
-7e-05
-7e-05
-8e-05
-8e-05
-8e-05
-8e-05
-8e-05
-8e-05
-8e-05
-8e-05
-8e-05
-8e-05
-8e-05
-8e-05
-8e-05
-8e-05
-8e-05
-8e-05
-8e-05
-8e-05
-9e-05
-9e-05
-9e-05
-9e-05
-9e-05
-9e-05
-9e-05
-9e-05
-9e-05
-9e-05
-9e-05
-9e-05
-9e-05
-9e-05
-9e-05
-9e-05
-9e-05
-9e-05
-0.0001
-0.0001
-0.0001
-0.0001
-0.0001
-0.0001
-0.0001
-0.0001
-0.0001
-0.0001
-0.0001
-0.0001
-0.0001
-0.0001
-0.0001
-0.0001
-0.0001
-0.0001
-0.0001
-0.0001
-0.0001
-0.0001
-0.0001
-0.0001
-0.0001
-0.0001
-0.0001
-0.0001
-0.0001
-0.0001
-0.0001
-0.0001
-0.0001
-0.0001
-0.0001
-0.0001
-0.0001
-0.0001
-0.0001
-0.0001
-0.0001
-0.0001
-0.0001
-0.0001
-0.0001
-0.0001
-0.0001
-0.0001
-0.0001
-0.0001
-0.0001
-0.0001
-0.0001
-0.0001
-0.0001
-0.0001
-0.0001
-0.0001
-0.0001
-0.0001
-0.0001
-0.0001
-0.0001
-0.0001
-0.0001
-0.0001
-0.0001
-0.0001
-0.0001
-0.0001
-0.0001
-0.0001
-0.0001
-0.0001
-0.0001
-0.0001
-0.0001
-0.0001
-0.0001
-0.0001
-0.0001
-0.0001
-0.0001
-0.0001
-0.0001
-0.0001
-0.0001
-0.0001
-0.0001
-0.0001
-0.0001
-0.0001
-0.0001
-0.0001
-0.0001
-0.0001
-0.0001
-0.0001
-0.0001
-0.0002
-0.0002
-0.0002
-0.0002
-0.0002
-0.0002
-0.0002
-0.0002
-0.0002
-0.0002
-0.0002
-0.0002
-0.0002
-0.0002
-0.0002
-0.0002
-0.0002
-0.0002
-0.0002
-0.0002
-0.0002
-0.0002
-0.0002
-0.0002
-0.0002
-0.0002
-0.0002
-0.0002
-0.0002
-0.0002
-0.0002
-0.0002
-0.0002
-0.0002
-0.0002
-0.0002
-0.0002
-0.0002
-0.0002
-0.0002
-0.0002
-0.0002
-0.0002
-0.0002
-0.0002
-0.0002
-0.0002
-0.0002
-0.0002
-0.0002
-0.0002
-0.0002
-0.0002
-0.0002
-0.0002
-0.0002
-0.0002
-0.0002
-0.0002
-0.0002
-0.0002
-0.0002
-0.0002
-0.0002
-0.0002
-0.0002
-0.0002
-0.0002
-0.0002
-0.0002
-0.0002
-0.0002
-0.0002
-0.0002
-0.0002
-0.0002
-0.0002
-0.0002
-0.0002
-0.0002
-0.0002
-0.0002
-0.0002
-0.0002
-0.0002
-0.0002
-0.0002
-0.0002
-0.0002
-0.0002
-0.0002
-0.0002
-0.0002
-0.0002
-0.0002
-0.0002
-0.0002
-0.0002
-0.0002
-0.0002
-0.0002
-0.0002
-0.0002
-0.0002
-0.0002
-0.0002
-0.0002
-0.0002
-0.0002
-0.0002
-0.0002
-0.0002
-0.0002
-0.0002
-0.0002
-0.0002
-0.0002
-0.0002
-0.0002
-0.0002
-0.0002
-0.0002
-0.0002
-0.0002
-0.0002
-0.0002
-0.0002
-0.0002
-0.0002
-0.0002
-0.0002
-0.0002
-0.0002
-0.0002
-0.0002
-0.0002
-0.0002
-0.0002
-0.0002
-0.0002
-0.0002
-0.0002
-0.0002
-0.0002
-0.0002
-0.0002
-0.0002
-0.0002
-0.0002
-0.0002
-0.0002
-0.0002
-0.0002
-0.0002
-0.0002
-0.0002
-0.0002
-0.0002
-0.0002
-0.0002
-0.0002
-0.0002
-0.0002
-0.0002
-0.0002
-0.0002
-0.0002
-0.0002
-0.0002
-0.0002
-0.0002
-0.0003
-0.0003
-0.0003
-0.0003
-0.0003
-0.0003
-0.0003
-0.0003
-0.0003
-0.0003
-0.0003
-0.0003
-0.0003
-0.0003
-0.0003
-0.0003
-0.0003
-0.0003
-0.0003
-0.0003
-0.0003
-0.0003
-0.0003
-0.0003
-0.0003
-0.0003
-0.0003
-0.0003
-0.0003
-0.0003
-0.0003
-0.0003
-0.0003
-0.0003
-0.0003
-0.0003
-0.0003
-0.0003
-0.0003
-0.0003
-0.0003
-0.0003
-0.0003
-0.0003
-0.0003
-0.0003
-0.0003
-0.0003
-0.0003
-0.0003
-0.0003
-0.0003
-0.0003
-0.0003
-0.0003
-0.0003
-0.0003
-0.0003
-0.0003
-0.0003
-0.0003
-0.0003
-0.0003
-0.0003
-0.0003
-0.0003
-0.0003
-0.0003
-0.0003
-0.0003
-0.0003
-0.0003
-0.0003
-0.0003
-0.0003
-0.0003
-0.0003
-0.0003
-0.0003
-0.0003
-0.0003
-0.0003
-0.0003
-0.0003
-0.0003
-0.0003
-0.0003
-0.0003
-0.0003
-0.0003
-0.0003
-0.0003
-0.0003
-0.0003
-0.0003
-0.0003
-0.0003
-0.0003
-0.0003
-0.0003
-0.0003
-0.0003
-0.0003
-0.0003
-0.0003
-0.0003
-0.0003
-0.0003
-0.0003
-0.0003
-0.0003
-0.0003
-0.0003
-0.0003
-0.0003
-0.0003
-0.0003
-0.0003
-0.0003
-0.0003
-0.0003
-0.0003
-0.0003
-0.0003
-0.0003
-0.0003
-0.0003
-0.0003
-0.0003
-0.0003
-0.0003
-0.0003
-0.0003
-0.0003
-0.0003
-0.0003
-0.0003
-0.0003
-0.0003
-0.0003
-0.0003
-0.0003
-0.0003
-0.0003
-0.0003
-0.0003
-0.0003
-0.0003
-0.0003
-0.0003
-0.0003
-0.0003
-0.0003
-0.0003
-0.0003
-0.0003
-0.0003
-0.0003
-0.0003
-0.0003
-0.0003
-0.0003
-0.0003
-0.0003
-0.0003
-0.0003
-0.0003
-0.0003
-0.0003
-0.0003
-0.0003
-0.0003
-0.0003
-0.0003
-0.0003
-0.0003
-0.0003
-0.0003
-0.0003
-0.0003
-0.0004
-0.0004
-0.0004
-0.0004
-0.0004
-0.0004
-0.0004
-0.0004
-0.0004
-0.0004
-0.0004
-0.0004
-0.0004
-0.0004
-0.0004
-0.0004
-0.0004
-0.0004
-0.0004
-0.0004
-0.0004
-0.0004
-0.0004
-0.0004
-0.0004
-0.0004
-0.0004
-0.0004
-0.0004
-0.0004
-0.0004
-0.0004
-0.0004
-0.0004
-0.0004
-0.0004
-0.0004
-0.0004
-0.0004
-0.0004
-0.0004
-0.0004
-0.0004
-0.0004
-0.0004
-0.0004
-0.0004
-0.0004
-0.0004
-0.0004
-0.0004
-0.0004
-0.0004
-0.0004
-0.0004
-0.0004
-0.0004
-0.0004
-0.0004
-0.0004
-0.0004
-0.0004
-0.0004
-0.0004
-0.0004
-0.0004
-0.0004
-0.0004
-0.0004
-0.0004
-0.0004
-0.0004
-0.0004
-0.0004
-0.0004
-0.0004
-0.0004
-0.0004
-0.0004
-0.0004
-0.0004
-0.0004
-0.0004
-0.0004
-0.0004
-0.0004
-0.0004
-0.0004
-0.0004
-0.0004
SCALARS strain_1 float
LOOKUP_TABLE default
-0.000259
-0.413374
-0.407125
-0.400845
-0.394536
-0.388197
-0.381830
-0.375440
-0.369026
-0.362589
-0.356130
-0.349652
-0.343159
-0.336649
-0.330126
-0.323592
-0.317050
-0.310500
-0.303944
-0.297385
-0.290827
-0.284270
-0.277718
-0.271173
-0.264639
-0.258115
-0.251606
-0.245116
-0.238645
-0.232197
-0.225775
-0.219382
-0.213021
-0.206695
-0.200407
-0.194161
-0.187955
-0.181801
-0.175695
-0.169643
-0.163646
-0.157710
-0.151836
-0.146029
-0.140290
-0.134624
-0.129033
-0.123522
-0.118092
-0.112746
-0.107490
-0.102322
-0.097248
-0.092272
-0.087393
-0.082616
-0.077945
-0.073380
-0.068924
-0.064580
-0.060351
-0.056236
-0.052240
-0.048363
-0.044608
-0.040976
-0.037468
-0.034087
-0.030832
-0.027707
-0.024708
-0.021839
-0.019099
-0.016490
-0.014011
-0.011661
-0.009442
-0.007350
-0.005388
-0.003552
-0.001842
-0.413743
-0.000009
-0.001599
-0.003311
-0.005152
-0.007118
-0.009216
-0.011443
-0.013796
-0.016283
-0.018900
-0.021645
-0.024522
-0.027527
-0.030661
-0.033924
-0.037313
-0.040829
-0.044470
-0.048231
-0.052117
-0.056121
-0.060244
-0.064484
-0.068837
-0.073302
-0.077876
-0.082557
-0.087344
-0.092230
-0.097217
-0.102301
-0.107478
-0.112745
-0.118099
-0.123538
-0.129061
-0.134661
-0.140337
-0.146085
-0.151902
-0.157783
-0.163730
-0.169736
-0.175799
-0.181913
-0.188079
-0.194292
-0.200547
-0.206846
-0.213180
-0.219551
-0.225953
-0.232382
-0.238837
-0.245317
-0.251816
-0.258333
-0.264865
-0.271407
-0.277961
-0.284519
-0.291084
-0.297649
-0.304216
-0.310776
-0.317333
-0.323885
-0.330425
-0.336954
-0.343468
-0.349969
-0.356451
-0.362917
-0.369360
-0.375780
-0.382175
-0.388547
-0.394892
-0.401205
-0.407490
-0.413709
-0.413674
-0.413638
-0.413601
-0.413566
-0.413528
-0.413490
-0.413451
-0.413413
-0.000210
-0.000166
-0.000128
-0.000094
-0.000066
-0.000045
-0.000028
-0.000016
-0.000010
-0.001598
-0.001603
-0.001614
-0.001630
-0.001652
-0.001680
-0.001711
-0.001751
-0.001795
-0.003311
-0.003315
-0.003325
-0.003343
-0.003363
-0.003389
-0.003423
-0.003460
-0.003503
-0.005149
-0.005155
-0.005164
-0.005180
-0.005201
-0.005227
-0.005259
-0.005296
-0.005337
-0.007118
-0.007121
-0.007131
-0.007146
-0.007166
-0.007191
-0.007222
-0.007260
-0.007303
-0.009215
-0.009217
-0.009225
-0.009239
-0.009260
-0.009285
-0.009316
-0.009353
-0.009393
-0.011439
-0.011442
-0.011448
-0.011464
-0.011481
-0.011507
-0.011536
-0.011573
-0.011614
-0.013794
-0.013796
-0.013804
-0.013816
-0.013834
-0.013860
-0.013888
-0.013923
-0.013966
-0.016279
-0.016280
-0.016288
-0.016300
-0.016318
-0.016341
-0.016370
-0.016404
-0.016444
-0.018894
-0.018895
-0.018901
-0.018913
-0.018930
-0.018952
-0.018982
-0.019015
-0.019055
-0.021640
-0.021639
-0.021645
-0.021655
-0.021672
-0.021694
-0.021724
-0.021756
-0.021795
-0.024515
-0.024515
-0.024519
-0.024529
-0.024545
-0.024566
-0.024594
-0.024626
-0.024664
-0.027518
-0.027519
-0.027523
-0.027532
-0.027547
-0.027569
-0.027594
-0.027627
-0.027662
-0.030654
-0.030652
-0.030655
-0.030665
-0.030678
-0.030698
-0.030723
-0.030753
-0.030791
-0.033916
-0.033913
-0.033916
-0.033923
-0.033938
-0.033956
-0.033981
-0.034011
-0.034047
-0.037304
-0.037301
-0.037303
-0.037312
-0.037322
-0.037341
-0.037364
-0.037394
-0.037428
-0.040819
-0.040814
-0.040815
-0.040823
-0.040834
-0.040853
-0.040876
-0.040904
-0.040938
-0.044458
-0.044453
-0.044454
-0.044461
-0.044471
-0.044487
-0.044510
-0.044538
-0.044569
-0.048222
-0.048215
-0.048215
-0.048220
-0.048230
-0.048247
-0.048269
-0.048294
-0.048326
-0.052105
-0.052099
-0.052098
-0.052102
-0.052111
-0.052128
-0.052148
-0.052172
-0.052202
-0.056109
-0.056103
-0.056101
-0.056105
-0.056112
-0.056127
-0.056147
-0.056171
-0.056201
-0.060232
-0.060225
-0.060223
-0.060224
-0.060234
-0.060245
-0.060265
-0.060288
-0.060317
-0.064470
-0.064463
-0.064459
-0.064461
-0.064468
-0.064480
-0.064498
-0.064520
-0.064547
-0.068823
-0.068815
-0.068809
-0.068811
-0.068817
-0.068829
-0.068844
-0.068865
-0.068892
-0.073287
-0.073277
-0.073272
-0.073273
-0.073279
-0.073288
-0.073304
-0.073324
-0.073350
-0.077861
-0.077848
-0.077846
-0.077845
-0.077848
-0.077859
-0.077873
-0.077891
-0.077915
-0.082542
-0.082530
-0.082524
-0.082523
-0.082526
-0.082534
-0.082547
-0.082565
-0.082589
-0.087326
-0.087315
-0.087308
-0.087305
-0.087308
-0.087316
-0.087328
-0.087345
-0.087367
-0.092213
-0.092198
-0.092194
-0.092190
-0.092193
-0.092197
-0.092208
-0.092225
-0.092247
-0.097200
-0.097186
-0.097178
-0.097174
-0.097175
-0.097180
-0.097191
-0.097205
-0.097224
-0.102282
-0.102269
-0.102259
-0.102254
-0.102255
-0.102259
-0.102268
-0.102281
-0.102299
-0.107458
-0.107444
-0.107435
-0.107429
-0.107427
-0.107432
-0.107439
-0.107450
-0.107468
-0.112726
-0.112711
-0.112699
-0.112692
-0.112691
-0.112694
-0.112699
-0.112711
-0.112726
-0.118079
-0.118063
-0.118053
-0.118046
-0.118043
-0.118045
-0.118049
-0.118060
-0.118075
-0.123519
-0.123502
-0.123491
-0.123484
-0.123478
-0.123480
-0.123484
-0.123492
-0.123505
-0.129040
-0.129023
-0.129010
-0.129000
-0.128997
-0.128997
-0.128999
-0.129006
-0.129019
-0.134639
-0.134622
-0.134609
-0.134599
-0.134594
-0.134592
-0.134593
-0.134600
-0.134610
-0.140315
-0.140296
-0.140282
-0.140271
-0.140266
-0.140263
-0.140263
-0.140268
-0.140278
-0.146063
-0.146044
-0.146028
-0.146017
-0.146009
-0.146006
-0.146006
-0.146009
-0.146017
-0.151879
-0.151859
-0.151843
-0.151831
-0.151823
-0.151817
-0.151818
-0.151818
-0.151827
-0.157761
-0.157741
-0.157724
-0.157711
-0.157703
-0.157698
-0.157694
-0.157697
-0.157700
-0.163707
-0.163685
-0.163669
-0.163655
-0.163645
-0.163638
-0.163636
-0.163634
-0.163639
-0.169711
-0.169689
-0.169673
-0.169659
-0.169649
-0.169639
-0.169635
-0.169634
-0.169636
-0.175774
-0.175751
-0.175733
-0.175718
-0.175704
-0.175697
-0.175692
-0.175690
-0.175691
-0.181888
-0.181866
-0.181847
-0.181830
-0.181818
-0.181808
-0.181801
-0.181798
-0.181797
-0.188053
-0.188030
-0.188011
-0.187994
-0.187979
-0.187969
-0.187962
-0.187956
-0.187956
-0.194266
-0.194243
-0.194221
-0.194204
-0.194190
-0.194179
-0.194169
-0.194163
-0.194160
-0.200521
-0.200497
-0.200475
-0.200459
-0.200444
-0.200429
-0.200421
-0.200413
-0.200409
-0.206819
-0.206794
-0.206773
-0.206754
-0.206738
-0.206724
-0.206712
-0.206704
-0.206699
-0.213153
-0.213129
-0.213107
-0.213086
-0.213069
-0.213055
-0.213042
-0.213034
-0.213025
-0.219523
-0.219498
-0.219475
-0.219454
-0.219435
-0.219420
-0.219406
-0.219396
-0.219388
-0.225923
-0.225898
-0.225874
-0.225852
-0.225835
-0.225818
-0.225804
-0.225792
-0.225782
-0.232354
-0.232328
-0.232302
-0.232280
-0.232262
-0.232244
-0.232230
-0.232216
-0.232205
-0.238808
-0.238782
-0.238758
-0.238735
-0.238715
-0.238697
-0.238681
-0.238665
-0.238655
-0.245288
-0.245260
-0.245236
-0.245213
-0.245191
-0.245172
-0.245155
-0.245140
-0.245126
-0.251787
-0.251759
-0.251734
-0.251710
-0.251687
-0.251667
-0.251649
-0.251633
-0.251618
-0.258303
-0.258276
-0.258249
-0.258224
-0.258202
-0.258179
-0.258161
-0.258145
-0.258128
-0.264835
-0.264806
-0.264778
-0.264755
-0.264731
-0.264709
-0.264688
-0.264671
-0.264651
-0.271377
-0.271349
-0.271320
-0.271294
-0.271271
-0.271247
-0.271228
-0.271208
-0.271190
-0.277930
-0.277901
-0.277873
-0.277846
-0.277822
-0.277798
-0.277775
-0.277755
-0.277735
-0.284488
-0.284459
-0.284431
-0.284405
-0.284379
-0.284353
-0.284331
-0.284310
-0.284290
-0.291053
-0.291022
-0.290994
-0.290966
-0.290939
-0.290915
-0.290892
-0.290868
-0.290847
-0.297617
-0.297588
-0.297558
-0.297530
-0.297502
-0.297478
-0.297452
-0.297430
-0.297406
-0.304182
-0.304151
-0.304122
-0.304093
-0.304064
-0.304038
-0.304014
-0.303989
-0.303966
-0.310746
-0.310714
-0.310683
-0.310656
-0.310626
-0.310598
-0.310573
-0.310548
-0.310522
-0.317302
-0.317270
-0.317240
-0.317208
-0.317180
-0.317152
-0.317124
-0.317100
-0.317075
-0.323851
-0.323820
-0.323789
-0.323759
-0.323729
-0.323701
-0.323672
-0.323645
-0.323617
-0.330391
-0.330360
-0.330329
-0.330298
-0.330267
-0.330237
-0.330209
-0.330182
-0.330154
-0.336919
-0.336887
-0.336856
-0.336826
-0.336794
-0.336764
-0.336734
-0.336706
-0.336676
-0.343436
-0.343404
-0.343372
-0.343340
-0.343309
-0.343277
-0.343249
-0.343217
-0.343188
-0.349937
-0.349904
-0.349872
-0.349839
-0.349808
-0.349777
-0.349744
-0.349714
-0.349684
-0.356419
-0.356386
-0.356352
-0.356320
-0.356289
-0.356255
-0.356224
-0.356191
-0.356160
-0.362883
-0.362849
-0.362817
-0.362785
-0.362751
-0.362717
-0.362685
-0.362653
-0.362620
-0.369326
-0.369292
-0.369259
-0.369224
-0.369191
-0.369159
-0.369124
-0.369092
-0.369057
-0.375748
-0.375712
-0.375678
-0.375644
-0.375611
-0.375577
-0.375543
-0.375506
-0.375474
-0.382143
-0.382108
-0.382073
-0.382041
-0.382005
-0.381970
-0.381936
-0.381901
-0.381866
-0.388513
-0.388478
-0.388442
-0.388409
-0.388374
-0.388339
-0.388305
-0.388269
-0.388233
-0.394855
-0.394821
-0.394787
-0.394752
-0.394716
-0.394679
-0.394644
-0.394609
-0.394572
-0.401171
-0.401136
-0.401100
-0.401066
-0.401029
-0.400993
-0.400957
-0.400919
-0.400883
-0.407456
-0.407421
-0.407386
-0.407349
-0.407313
-0.407275
-0.407239
-0.407203
-0.407163
SCALARS strain_2 float
LOOKUP_TABLE default
-0.000751
-0.002762
-0.002759
-0.002761
-0.002762
-0.002761
-0.002756
-0.002770
-0.002766
-0.002764
-0.002767
-0.002750
-0.002755
-0.002757
-0.002756
-0.002742
-0.002749
-0.002745
-0.002726
-0.002730
-0.002728
-0.002716
-0.002709
-0.002707
-0.002693
-0.002676
-0.002683
-0.002667
-0.002652
-0.002645
-0.002630
-0.002618
-0.002600
-0.002603
-0.002573
-0.002556
-0.002535
-0.002523
-0.002508
-0.002483
-0.002461
-0.002445
-0.002415
-0.002402
-0.002375
-0.002347
-0.002326
-0.002294
-0.002270
-0.002240
-0.002204
-0.002179
-0.002146
-0.002108
-0.002080
-0.002042
-0.002002
-0.001963
-0.001929
-0.001886
-0.001846
-0.001794
-0.001760
-0.001714
-0.001668
-0.001622
-0.001576
-0.001541
-0.001476
-0.001435
-0.001379
-0.001324
-0.001268
-0.001215
-0.001160
-0.001101
-0.001047
-0.000990
-0.000946
-0.000880
-0.000813
0.004133
0.004232
0.004252
0.004254
0.004251
0.004265
0.004268
0.004272
0.004281
0.004289
0.004293
0.004302
0.004310
0.004308
0.004322
0.004322
0.004330
0.004330
0.004337
0.004344
0.004350
0.004355
0.004352
0.004360
0.004366
0.004370
0.004371
0.004372
0.004376
0.004382
0.004382
0.004390
0.004386
0.004394
0.004383
0.004389
0.004389
0.004384
0.004387
0.004388
0.004390
0.004386
0.004395
0.004384
0.004388
0.004383
0.004377
0.004376
0.004379
0.004376
0.004370
0.004366
0.004357
0.004363
0.004349
0.004359
0.004345
0.004346
0.004343
0.004334
0.004321
0.004326
0.004315
0.004311
0.004294
0.004288
0.004284
0.004280
0.004269
0.004271
0.004242
0.004235
0.004228
0.004225
0.004212
0.004202
0.004185
0.004176
0.004172
0.004154
0.004131
0.003447
0.002750
0.002060
0.001371
0.000687
-0.000006
-0.000696
-0.001381
-0.002071
-0.000256
0.000251
0.000741
0.001242
0.001746
0.002243
0.002745
0.003238
0.003734
0.003735
0.003235
0.002730
0.002223
0.001715
0.001213
0.000705
0.000201
-0.000306
0.003738
0.003231
0.002716
0.002209
0.001690
0.001181
0.000661
0.000148
-0.000361
0.003733
0.003216
0.002694
0.002185
0.001668
0.001132
0.000627
0.000101
-0.000417
0.003745
0.003209
0.002682
0.002156
0.001636
0.001113
0.000580
0.000062
-0.000467
0.003741
0.003207
0.002675
0.002137
0.001616
0.001082
0.000545
0.000015
-0.000515
0.003740
0.003198
0.002664
0.002126
0.001591
0.001045
0.000510
-0.000029
-0.000569
0.003733
0.003200
0.002658
0.002101
0.001557
0.001016
0.000470
-0.000068
-0.000616
0.003742
0.003192
0.002642
0.002085
0.001533
0.000987
0.000427
-0.000113
-0.000669
0.003741
0.003180
0.002620
0.002070
0.001511
0.000957
0.000403
-0.000156
-0.000713
0.003737
0.003178
0.002619
0.002045
0.001489
0.000921
0.000362
-0.000205
-0.000775
0.003737
0.003169
0.002601
0.002036
0.001467
0.000899
0.000323
-0.000242
-0.000802
0.003736
0.003171
0.002596
0.002021
0.001442
0.000867
0.000296
-0.000276
-0.000859
0.003747
0.003161
0.002575
0.001998
0.001430
0.000836
0.000261
-0.000313
-0.000900
0.003742
0.003157
0.002568
0.001990
0.001401
0.000812
0.000231
-0.000359
-0.000950
0.003738
0.003149
0.002562
0.001969
0.001383
0.000789
0.000193
-0.000401
-0.000993
0.003741
0.003147
0.002544
0.001955
0.001357
0.000758
0.000163
-0.000432
-0.001028
0.003740
0.003136
0.002533
0.001934
0.001331
0.000733
0.000130
-0.000474
-0.001074
0.003740
0.003128
0.002530
0.001921
0.001314
0.000711
0.000108
-0.000501
-0.001113
0.003735
0.003126
0.002523
0.001916
0.001295
0.000678
0.000074
-0.000528
-0.001148
0.003732
0.003124
0.002514
0.001889
0.001271
0.000661
0.000047
-0.000568
-0.001190
0.003735
0.003120
0.002501
0.001865
0.001251
0.000641
0.000013
-0.000603
-0.001216
0.003733
0.003112
0.002489
0.001867
0.001243
0.000607
-0.000015
-0.000642
-0.001262
0.003738
0.003103
0.002481
0.001853
0.001218
0.000586
-0.000048
-0.000664
-0.001298
0.003731
0.003096
0.002472
0.001834
0.001205
0.000572
-0.000061
-0.000694
-0.001327
0.003734
0.003102
0.002461
0.001816
0.001182
0.000544
-0.000089
-0.000727
-0.001365
0.003737
0.003098
0.002446
0.001810
0.001166
0.000526
-0.000121
-0.000764
-0.001398
0.003729
0.003077
0.002448
0.001790
0.001149
0.000505
-0.000142
-0.000785
-0.001429
0.003731
0.003076
0.002439
0.001784
0.001131
0.000490
-0.000157
-0.000808
-0.001461
0.003738
0.003076
0.002421
0.001782
0.001116
0.000466
-0.000183
-0.000839
-0.001494
0.003728
0.003071
0.002417
0.001764
0.001103
0.000444
-0.000202
-0.000857
-0.001523
0.003719
0.003077
0.002408
0.001744
0.001094
0.000439
-0.000227
-0.000885
-0.001550
0.003723
0.003063
0.002392
0.001736
0.001078
0.000417
-0.000242
-0.000912
-0.001569
0.003722
0.003055
0.002394
0.001725
0.001065
0.000395
-0.000275
-0.000936
-0.001597
0.003719
0.003055
0.002381
0.001711
0.001049
0.000384
-0.000295
-0.000955
-0.001622
0.003723
0.003048
0.002382
0.001710
0.001029
0.000360
-0.000311
-0.000986
-0.001650
0.003720
0.003043
0.002367
0.001706
0.001020
0.000355
-0.000333
-0.001001
-0.001674
0.003711
0.003035
0.002357
0.001685
0.001020
0.000330
-0.000345
-0.001018
-0.001694
0.003717
0.003033
0.002354
0.001675
0.000997
0.000318
-0.000359
-0.001037
-0.001726
0.003710
0.003026
0.002346
0.001661
0.000991
0.000301
-0.000374
-0.001058
-0.001745
0.003705
0.003027
0.002336
0.001662
0.000974
0.000290
-0.000393
-0.001074
-0.001751
0.003702
0.003019
0.002327
0.001647
0.000964
0.000276
-0.000402
-0.001096
-0.001779
0.003701
0.003016
0.002320
0.001640
0.000955
0.000259
-0.000420
-0.001113
-0.001803
0.003697
0.003006
0.002317
0.001632
0.000937
0.000247
-0.000436
-0.001124
-0.001816
0.003689
0.003006
0.002310
0.001620
0.000929
0.000244
-0.000450
-0.001139
-0.001832
0.003684
0.003001
0.002308
0.001614
0.000920
0.000226
-0.000464
-0.001154
-0.001858
0.003682
0.002996
0.002305
0.001601
0.000909
0.000220
-0.000472
-0.001178
-0.001869
0.003680
0.002991
0.002300
0.001599
0.000902
0.000207
-0.000493
-0.001184
-0.001882
0.003682
0.002990
0.002291
0.001585
0.000889
0.000195
-0.000504
-0.001201
-0.001903
0.003678
0.002979
0.002286
0.001585
0.000882
0.000190
-0.000516
-0.001207
-0.001906
0.003663
0.002966
0.002259
0.001570
0.000869
0.000170
-0.000518
-0.001221
-0.001913
0.003667
0.002968
0.002266
0.001567
0.000863
0.000170
-0.000528
-0.001233
-0.001923
0.003658
0.002955
0.002259
0.001564
0.000858
0.000157
-0.000549
-0.001251
-0.001939
0.003649
0.002957
0.002254
0.001552
0.000852
0.000143
-0.000559
-0.001247
-0.001951
0.003644
0.002954
0.002248
0.001547
0.000851
0.000146
-0.000561
-0.001266
-0.001959
0.003646
0.002937
0.002233
0.001543
0.000842
0.000127
-0.000562
-0.001274
-0.001976
0.003640
0.002938
0.002234
0.001533
0.000822
0.000123
-0.000574
-0.001283
-0.001991
0.003635
0.002934
0.002226
0.001521
0.000825
0.000121
-0.000584
-0.001287
-0.001987
0.003630
0.002923
0.002219
0.001519
0.000805
0.000106
-0.000595
-0.001304
-0.002002
0.003632
0.002916
0.002215
0.001513
0.000798
0.000102
-0.000598
-0.001306
-0.002015
0.003610
0.002907
0.002202
0.001500
0.000797
0.000088
-0.000606
-0.001304
-0.002018
0.003609
0.002906
0.002203
0.001499
0.000796
0.000092
-0.000607
-0.001319
-0.002024
0.003601
0.002899
0.002194
0.001490
0.000788
0.000087
-0.000625
-0.001326
-0.002026
0.003596
0.002897
0.002186
0.001490
0.000782
0.000078
-0.000625
-0.001326
-0.002030
0.003591
0.002883
0.002180
0.001473
0.000774
0.000070
-0.000627
-0.001327
-0.002034
0.003578
0.002867
0.002176
0.001468
0.000775
0.000074
-0.000653
-0.001337
-0.002039
0.003573
0.002875
0.002169
0.001465
0.000765
0.000064
-0.000640
-0.001343
-0.002054
0.003560
0.002868
0.002165
0.001459
0.000757
0.000055
-0.000645
-0.001348
-0.002057
0.003554
0.002852
0.002150
0.001452
0.000752
0.000049
-0.000655
-0.001354
-0.002062
0.003546
0.002850
0.002146
0.001446
0.000746
0.000052
-0.000656
-0.001359
-0.002051
0.003538
0.002843
0.002142
0.001441
0.000746
0.000040
-0.000656
-0.001360
-0.002063
0.003533
0.002829
0.002126
0.001434
0.000738
0.000036
-0.000655
-0.001364
-0.002065
0.003520
0.002831
0.002127
0.001425
0.000724
0.000028
-0.000671
-0.001370
-0.002056
0.003507
0.002816
0.002118
0.001423
0.000721
0.000033
-0.000670
-0.001370
-0.002060
0.003508
0.002805
0.002104
0.001409
0.000714
0.000023
-0.000677
-0.001371
-0.002067
0.003495
0.002795
0.002106
0.001405
0.000713
0.000012
-0.000677
-0.001373
-0.002067
0.003485
0.002783
0.002091
0.001399
0.000711
0.000012
-0.000687
-0.001378
-0.002068
0.003473
0.002782
0.002090
0.001397
0.000704
0.000015
-0.000687
-0.001369
-0.002069
0.003460
0.002773
0.002078
0.001390
0.000701
0.000001
-0.000681
-0.001371
-0.002073
0.003442
0.002766
0.002065
0.001380
0.000695
0.000003
-0.000682
-0.001368
-0.002062
SCALARS strain_3 float
LOOKUP_TABLE default
0.002115
0.135693
0.133775
0.131848
0.129909
0.127964
0.125997
0.124031
0.122058
0.120068
0.118079
0.116079
0.114074
0.112059
0.110041
0.108018
0.105988
0.103958
0.101915
0.099882
0.097845
0.095800
0.093757
0.091713
0.089672
0.087628
0.085599
0.083555
0.081520
0.079499
0.077480
0.075464
0.073457
0.071455
0.069466
0.067482
0.065513
0.063556
0.061606
0.059676
0.057756
0.055856
0.053966
0.052097
0.050248
0.048421
0.046608
0.044816
0.043047
0.041306
0.039582
0.037885
0.036213
0.034569
0.032950
0.031363
0.029802
0.028274
0.026776
0.025307
0.023869
0.022465
0.021101
0.019766
0.018470
0.017205
0.015974
0.014785
0.013634
0.012516
0.011435
0.010399
0.009391
0.008432
0.007503
0.006618
0.005769
0.004959
0.004194
0.003462
0.002768
0.132180
-0.001107
-0.000479
0.000186
0.000890
0.001632
0.002416
0.003242
0.004107
0.005006
0.005948
0.006930
0.007947
0.009006
0.010102
0.011238
0.012416
0.013622
0.014873
0.016152
0.017477
0.018831
0.020218
0.021640
0.023094
0.024583
0.026101
0.027651
0.029230
0.030838
0.032477
0.034141
0.035826
0.037542
0.039280
0.041047
0.042832
0.044643
0.046467
0.048313
0.050183
0.052069
0.053973
0.055890
0.057823
0.059767
0.061732
0.063704
0.065686
0.067679
0.069681
0.071690
0.073710
0.075738
0.077769
0.079806
0.081846
0.083889
0.085936
0.087986
0.090036
0.092087
0.094135
0.096183
0.098230
0.100275
0.102315
0.104350
0.106387
0.108413
0.110441
0.112455
0.114463
0.116466
0.118461
0.120448
0.122428
0.124398
0.126359
0.128308
0.130248
0.132532
0.132890
0.133236
0.133588
0.133941
0.134293
0.134643
0.134993
0.135345
0.001784
0.001459
0.001136
0.000808
0.000486
0.000164
-0.000156
-0.000478
-0.000793
-0.000159
0.000159
0.000478
0.000802
0.001127
0.001448
0.001776
0.002106
0.002436
0.000504
0.000826
0.001154
0.001477
0.001804
0.002129
0.002461
0.002790
0.003126
0.001213
0.001537
0.001862
0.002188
0.002520
0.002850
0.003183
0.003522
0.003855
0.001958
0.002290
0.002612
0.002940
0.003273
0.003609
0.003944
0.004282
0.004619
0.002746
0.003073
0.003408
0.003737
0.004073
0.004405
0.004747
0.005087
0.005427
0.003571
0.003904
0.004235
0.004570
0.004908
0.005248
0.005587
0.005928
0.006272
0.004436
0.004768
0.005104
0.005443
0.005785
0.006124
0.006464
0.006812
0.007155
0.005337
0.005677
0.006014
0.006357
0.006697
0.007043
0.007385
0.007736
0.008081
0.006284
0.006624
0.006968
0.007307
0.007649
0.007995
0.008340
0.008692
0.009040
0.007269
0.007604
0.007957
0.008291
0.008642
0.008990
0.009336
0.009691
0.010039
0.008289
0.008633
0.008976
0.009324
0.009673
0.010021
0.010374
0.010725
0.011077
0.009351
0.009698
0.010039
0.010388
0.010741
0.011092
0.011443
0.011802
0.012156
0.010453
0.010793
0.011149
0.011498
0.011847
0.012199
0.012555
0.012916
0.013268
0.011588
0.011939
0.012289
0.012639
0.012990
0.013349
0.013705
0.014062
0.014424
0.012764
0.013112
0.013468
0.013821
0.014178
0.014534
0.014889
0.015252
0.015618
0.013974
0.014330
0.014684
0.015038
0.015396
0.015752
0.016114
0.016475
0.016836
0.015222
0.015579
0.015936
0.016294
0.016649
0.017010
0.017371
0.017737
0.018102
0.016512
0.016865
0.017223
0.017580
0.017942
0.018302
0.018669
0.019034
0.019399
0.017830
0.018189
0.018546
0.018906
0.019266
0.019631
0.019997
0.020364
0.020731
0.019182
0.019547
0.019903
0.020266
0.020630
0.020995
0.021362
0.021728
0.022101
0.020578
0.020932
0.021298
0.021662
0.022023
0.022395
0.022758
0.023128
0.023498
0.021998
0.022357
0.022725
0.023091
0.023457
0.023819
0.024192
0.024562
0.024934
0.023456
0.023817
0.024182
0.024551
0.024918
0.025287
0.025655
0.026025
0.026400
0.024939
0.025310
0.025673
0.026040
0.026411
0.026778
0.027151
0.027522
0.027895
0.026464
0.026829
0.027196
0.027563
0.027938
0.028304
0.028680
0.029054
0.029431
0.028014
0.028383
0.028749
0.029119
0.029486
0.029859
0.030234
0.030603
0.030987
0.029594
0.029962
0.030329
0.030702
0.031075
0.031441
0.031820
0.032193
0.032572
0.031208
0.031574
0.031938
0.032311
0.032687
0.033058
0.033437
0.033812
0.034187
0.032837
0.033211
0.033582
0.033952
0.034326
0.034704
0.035076
0.035452
0.035834
0.034507
0.034876
0.035247
0.035620
0.035998
0.036367
0.036750
0.037125
0.037505
0.036198
0.036566
0.036937
0.037309
0.037692
0.038067
0.038440
0.038819
0.039200
0.037915
0.038287
0.038656
0.039033
0.039408
0.039787
0.040159
0.040539
0.040924
0.039654
0.040031
0.040402
0.040779
0.041148
0.041527
0.041904
0.042285
0.042664
0.041420
0.041793
0.042165
0.042538
0.042915
0.043297
0.043676
0.044051
0.044435
0.043207
0.043576
0.043953
0.044331
0.044706
0.045083
0.045463
0.045841
0.046224
0.045015
0.045386
0.045755
0.046137
0.046518
0.046897
0.047277
0.047656
0.048036
0.046842
0.047219
0.047593
0.047967
0.048349
0.048727
0.049108
0.049489
0.049867
0.048692
0.049063
0.049441
0.049818
0.050194
0.050576
0.050954
0.051335
0.051716
0.050559
0.050935
0.051310
0.051684
0.052066
0.052442
0.052823
0.053204
0.053586
0.052443
0.052820
0.053195
0.053571
0.053953
0.054326
0.054712
0.055092
0.055474
0.054348
0.054721
0.055099
0.055475
0.055851
0.056230
0.056611
0.056996
0.057378
0.056264
0.056639
0.057015
0.057392
0.057773
0.058150
0.058528
0.058914
0.059292
0.058198
0.058573
0.058950
0.059326
0.059705
0.060085
0.060464
0.060844
0.061226
0.060146
0.060521
0.060895
0.061272
0.061649
0.062030
0.062410
0.062791
0.063172
0.062102
0.062474
0.062855
0.063233
0.063610
0.063990
0.064369
0.064750
0.065129
0.064073
0.064456
0.064828
0.065205
0.065583
0.065962
0.066343
0.066721
0.067101
0.066059
0.066434
0.066807
0.067188
0.067566
0.067941
0.068324
0.068700
0.069083
0.068056
0.068429
0.068804
0.069179
0.069559
0.069938
0.070316
0.070696
0.071074
0.070052
0.070430
0.070804
0.071180
0.071558
0.071937
0.072315
0.072694
0.073071
0.072067
0.072439
0.072817
0.073193
0.073568
0.073946
0.074324
0.074705
0.075086
0.074086
0.074461
0.074837
0.075209
0.075591
0.075968
0.076342
0.076721
0.077101
0.076110
0.076484
0.076860
0.077234
0.077611
0.077988
0.078366
0.078743
0.079120
0.078140
0.078513
0.078889
0.079263
0.079638
0.080016
0.080395
0.080773
0.081150
0.080181
0.080557
0.080926
0.081302
0.081674
0.082051
0.082422
0.082806
0.083183
0.082218
0.082590
0.082965
0.083335
0.083712
0.084085
0.084467
0.084840
0.085214
0.084262
0.084634
0.085009
0.085381
0.085757
0.086125
0.086502
0.086882
0.087255
0.086305
0.086686
0.087053
0.087429
0.087799
0.088173
0.088546
0.088921
0.089300
0.088355
0.088730
0.089101
0.089473
0.089845
0.090217
0.090589
0.090965
0.091341
0.090408
0.090775
0.091152
0.091521
0.091893
0.092263
0.092642
0.093010
0.093385
0.092454
0.092824
0.093193
0.093564
0.093938
0.094311
0.094678
0.095052
0.095428
0.094504
0.094872
0.095246
0.095614
0.095981
0.096357
0.096730
0.097097
0.097469
0.096553
0.096923
0.097291
0.097661
0.098030
0.098399
0.098773
0.099141
0.099509
0.098598
0.098966
0.099339
0.099703
0.100076
0.100441
0.100807
0.101179
0.101549
0.100636
0.101005
0.101379
0.101747
0.102115
0.102484
0.102848
0.103221
0.103587
0.102684
0.103052
0.103416
0.103787
0.104151
0.104517
0.104884
0.105254
0.105624
0.104718
0.105088
0.105453
0.105814
0.106184
0.106548
0.106916
0.107283
0.107654
0.106755
0.107115
0.107480
0.107845
0.108215
0.108576
0.108947
0.109310
0.109673
0.108784
0.109147
0.109502
0.109867
0.110235
0.110601
0.110967
0.111331
0.111696
0.110802
0.111163
0.111528
0.111890
0.112258
0.112618
0.112985
0.113348
0.113709
0.112820
0.113176
0.113545
0.113906
0.114268
0.114624
0.114991
0.115355
0.115719
0.114824
0.115189
0.115548
0.115912
0.116271
0.116630
0.116992
0.117355
0.117719
0.116824
0.117187
0.117544
0.117912
0.118274
0.118631
0.118992
0.119353
0.119709
0.118825
0.119185
0.119537
0.119904
0.120263
0.120616
0.120977
0.121338
0.121695
0.120806
0.121170
0.121528
0.121882
0.122245
0.122600
0.122961
0.123321
0.123677
0.122784
0.123143
0.123503
0.123857
0.124215
0.124577
0.124929
0.125288
0.125644
0.124757
0.125110
0.125467
0.125826
0.126180
0.126538
0.126897
0.127248
0.127605
0.126714
0.127074
0.127424
0.127778
0.128136
0.128491
0.128846
0.129199
0.129559
0.128664
0.129015
0.129373
0.129730
0.130083
0.130437
0.130789
0.131142
0.131495
0.130604
0.130957
0.131313
0.131666
0.132016
0.132372
0.132720
0.133071
0.133422
SCALARS stress_1 float
LOOKUP_TABLE default
-284279.191860
-113768087.469530
-112058613.466059
-110335827.462588
-108605361.459117
-106866703.455647
-105120237.452176
-103367499.448705
-101608361.445234
-99842951.441763
-98068453.438292
-96295747.434821
-94512929.431350
-92724991.427880
-90934237.424409
-89142843.420938
-87344793.417467
-85547767.413996
-83749205.410525
-81951283.407054
-80147857.403583
-78347759.400113
-76549069.396642
-74751147.393171
-72955785.389700
-71164775.386229
-69375685.382758
-67594019.379287
-65817985.375816
-64043999.372346
-62282301.368875
-60527259.365404
-58775289.361933
-57038935.358462
-55312565.354991
-53595027.351520
-51889777.348049
-50200783.344579
-48522413.341108
-46858763.337637
-45210089.334166
-43580999.330695
-41963941.327224
-40366339.323753
-38789985.320282
-37233343.316812
-35695645.313341
-34180859.309870
-32690137.306399
-31220407.302928
-29776405.299457
-28354547.295986
-26959313.292515
-25589807.289045
-24250765.285574
-22934507.282103
-21653833.278632
-20396711.275161
-19172613.271690
-17977059.268219
-16813121.264748
-15683871.261278
-14585597.257807
-13517403.254336
-12484537.250865
-11486999.247394
-10523509.243923
-9593683.240452
-8697649.236981
-7837455.233511
-7013229.230040
-6223947.226569
-5469097.223098
-4754823.219627
-4070885.216156
-3423043.212685
-2811681.209214
-2238079.205744
-1697757.202273
-1192763.198802
-722329.195331
-113458996.814398
418923.463272
-15542.540198
-486360.543669
-989690.547140
-1532060.550611
-2107326.554082
-2717664.557553
-3366146.561024
-4050852.564495
-4769734.567965
-5524328.571436
-6316682.574907
-7141932.578378
-8008142.581849
-8903536.585320
-9838482.588791
-10802228.592262
-11807446.595732
-12843512.599203
-13914522.602674
-15016892.606145
-16154078.609616
-17319936.613087
-18519842.616558
-19749700.620029
-21008230.623499
-22298504.626970
-23616042.630441
-24963660.633912
-26336878.637383
-27739536.640854
-29165234.644325
-30614100.647796
-32089974.651266
-33590168.654737
-35110714.658208
-36655708.661679
-38218366.665150
-39801760.668621
-41405762.672092
-43026916.675563
-44665094.679033
-46316456.682504
-47985994.685975
-49673836.689446
-51369742.692917
-53081136.696388
-54804306.699859
-56539508.703330
-58284950.706800
-60037304.710271
-61800666.713742
-63573500.717213
-65346462.720684
-67132736.724155
-68919906.727626
-70715396.731097
-72516006.734567
-74314824.738038
-76118506.741509
-77922316.744980
-79730734.748451
-81537872.751922
-83343986.755393
-85148436.758864
-86954038.762334
-88757848.765805
-90554490.769276
-92351132.772747
-94142782.776218
-95928544.779689
-97712002.783160
-99489572.786631
-101261254.790101
-103027432.793572
-104783242.797043
-106534700.800514
-108278862.803985
-110014320.807456
-111742866.810927
-113489713.879911
-113525038.945424
-113553068.010937
-113585193.076451
-113619494.141964
-113647523.207477
-113678240.272990
-113708957.338504
-113740186.404017
-210042.126347
-135037.060834
-62591.995320
12541.070193
82554.135706
153591.201219
221300.266733
287217.332246
356718.397759
-77619.605712
-145584.671225
-215981.736738
-282282.802251
-352551.867765
-424612.933278
-498081.998791
-570527.064304
-644764.129818
-549333.609183
-617938.674696
-685007.740209
-754252.805722
-824521.871236
-893510.936749
-968132.002262
-1040321.067775
-1114942.133289
-1056119.612653
-1121140.678167
-1190897.743680
-1257070.809193
-1330027.874706
-1398632.940220
-1471718.005733
-1545699.071246
-1620960.136759
-1597465.616124
-1662230.681638
-1730707.747151
-1797520.812664
-1867021.878177
-1940234.943691
-2012040.009204
-2085509.074717
-2161282.140230
-2172091.619595
-2239544.685108
-2305333.750622
-2373810.816135
-2443823.881648
-2517036.947161
-2588330.012675
-2662567.078188
-2735396.143701
-2781917.623066
-2851290.688579
-2916823.754093
-2986068.819606
-3054801.885119
-3126862.950632
-3199820.016146
-3269449.081659
-3349190.147172
-3430271.626537
-3496572.692050
-3563001.757563
-3631990.823077
-3704563.888590
-3774448.954103
-3845614.019616
-3919339.085130
-3994984.150643
-4115105.630008
-4179742.695521
-4248859.761034
-4314264.826548
-4385685.892061
-4456594.957574
-4525328.023087
-4600077.088601
-4677642.154114
-4834755.633479
-4899264.698992
-4967101.764505
-5032506.830018
-5102007.895532
-5174452.961045
-5247154.026558
-5321007.092071
-5395116.157585
-5588581.636950
-5654498.702463
-5718495.767976
-5787868.833489
-5857113.899003
-5928406.964516
-5998420.030029
-6074577.095542
-6150606.161056
-6379655.640420
-6446340.705934
-6514177.771447
-6579966.836960
-6648699.902473
-6719992.967987
-6792694.033500
-6862707.099013
-6937072.164526
-7207337.643891
-7273382.709405
-7340963.774918
-7405600.840431
-7476381.905944
-7544474.971458
-7615768.036971
-7689237.102484
-7764882.167997
-8069963.647362
-8134088.712875
-8200005.778389
-8266306.843902
-8335039.909415
-8405436.974928
-8477370.040442
-8547895.105955
-8622516.171468
-8967149.650833
-9034090.716346
-9099495.781860
-9165412.847373
-9234913.912886
-9301214.978399
-9374300.043913
-9442905.109426
-9516758.174939
-9898767.654304
-9963404.719817
-10029961.785330
-10095878.850844
-10163843.916357
-10232448.981870
-10302590.047383
-10371835.112897
-10447480.178410
-10866225.657775
-10931246.723288
-10995499.788801
-11061544.854315
-11130277.919828
-11199266.985341
-11269792.050854
-11340445.116368
-11412122.181881
-11870419.661246
-11934800.726759
-11998669.792272
-12062922.857785
-12129735.923299
-12199364.988812
-12266434.054325
-12341951.119838
-12413884.185352
-12905845.664717
-12968306.730230
-13033071.795743
-13098604.861256
-13165161.926770
-13233766.992283
-13300964.057796
-13375457.123309
-13444446.188823
-13976343.668187
-14037652.733701
-14100113.799214
-14167054.864727
-14232203.930240
-14302600.995754
-14370694.061267
-14440195.126780
-14511616.192293
-15074617.671658
-15140022.737172
-15202867.802685
-15268528.868198
-15335213.933711
-15401386.999225
-15468712.064738
-15539877.130251
-15611682.195764
-16213723.675129
-16275928.740642
-16338773.806156
-16400466.871669
-16466895.937182
-16534733.002695
-16605258.068209
-16674375.133722
-16742084.199235
-17377277.678600
-17440762.744113
-17505655.809627
-17569268.875140
-17633265.940653
-17699695.006166
-17765484.071680
-17836137.137193
-17909094.202706
-18579999.682071
-18638364.747584
-18701081.813097
-18766742.878611
-18831251.944124
-18896401.009637
-18961550.075150
-19032843.140664
-19101960.206177
-19807425.685542
-19867582.751055
-19932091.816568
-19996088.882082
-20057397.947595
-20124339.013108
-20189488.078621
-20258221.144135
-20327338.209648
-21067491.689013
-21129056.754526
-21190877.820039
-21251546.885552
-21315543.951066
-21379925.016579
-21447506.082092
-21515471.147605
-21579084.213119
-22357253.692484
-22416898.757997
-22479103.823510
-22540028.889023
-22602489.954537
-22666231.020050
-22736116.085563
-22799089.151076
-22867950.216590
-23675687.695954
-23735076.761468
-23795489.826981
-23856926.892494
-23919259.958007
-23985689.023521
-24046486.089034
-24115475.154547
-24178704.220060
-25022665.699425
-25078342.764939
-25140419.830452
-25200960.895965
-25263421.961478
-25328443.026992
-25388472.092505
-25456437.158018
-25522994.223531
-26393451.702896
-26453224.768409
-26513125.833923
-26573538.899436
-26634719.964949
-26697565.030462
-26764122.095976
-26826583.161489
-26891220.227002
-27794573.706367
-27853322.771880
-27913607.837394
-27973892.902907
-28032897.968420
-28095487.033933
-28156156.099447
-28223865.164960
-28288502.230473
-29220527.709838
-29278892.775351
-29336745.840864
-29396902.906378
-29455011.971891
-29518113.037404
-29580574.102917
-29644443.168431
-29708824.233944
-30672209.713309
-30726862.778822
-30788811.844335
-30844872.909849
-30904645.975362
-30966211.040875
-31027136.106388
-31090621.171902
-31154746.237415
-32146163.716780
-32202864.782293
-32262253.847806
-32318826.913319
-32377831.978833
-32437221.044346
-32497890.109859
-32561631.175372
-32626268.240886
-33645717.720251
-33700626.785764
-33755791.851277
-33813644.916790
-33870985.982304
-33933575.047817
-33993988.113330
-34058625.178843
-34119294.244357
-35165239.723721
-35219508.789235
-35276977.854748
-35332654.920261
-35392555.985774
-35452329.051288
-35515302.116801
-35572515.182314
-35636384.247827
-36705753.727192
-36763734.792706
-36817363.858219
-36873040.923732
-36933453.989245
-36989771.054759
-37050824.120272
-37112645.185785
-37171778.251298
-38271099.730663
-38326008.796176
-38380789.861690
-38437106.927203
-38492911.992716
-38551533.058229
-38609258.123743
-38668135.189256
-38729572.254769
-39854621.734134
-39909402.799647
-39963543.865161
-40018196.930674
-40075921.996187
-40131727.061700
-40188812.127214
-40248585.192727
-40307078.258240
-41455423.737605
-41508284.803118
-41564089.868631
-41617206.934145
-41672499.999658
-41731633.065171
-41789358.130684
-41845163.196198
-41903400.261711
-43075809.741076
-43130590.806589
-43182299.872102
-43235800.937616
-43291990.003129
-43347155.068642
-43403728.134155
-43459789.199669
-43519562.265182
-44715907.744547
-44765952.810060
-44818557.875573
-44872058.941086
-44925432.006600
-44980597.072113
-45036274.137626
-45095663.203139
-45150700.268653
-46368933.748018
-46419106.813531
-46470559.879044
-46525852.944557
-46577818.010071
-46634903.075584
-46686228.141097
-46744849.206610
-46800526.272124
-48038343.751488
-48089156.817002
-48139713.882515
-48192702.948028
-48244540.013541
-48300473.079055
-48353718.144568
-48408627.210081
-48462384.275594
-49721065.754959
-49770982.820473
-49822179.885986
-49875424.951499
-49927006.017012
-49977307.082526
-50033496.148039
-50089685.213552
-50142034.279065
-51419403.758430
-51470088.823943
-51518853.889457
-51570050.954970
-51623424.020483
-51673085.085996
-51727482.151510
-51782263.217023
-51835892.282536
-53128749.761901
-53179690.827414
-53227687.892928
-53280420.958441
-53330850.023954
-53380767.089467
-53434524.154981
-53487257.220494
-53541654.286007
-54853327.765372
-54899148.830885
-54951241.896398
-55002438.961912
-55050564.027425
-55101377.092938
-55155006.158451
-55205307.223965
-55259192.289478
-56586993.768843
-56633454.834356
-56682987.899869
-56732264.965383
-56780390.030896
-56833507.096409
-56884192.161922
-56936925.227436
-56987738.292949
-58330899.772314
-58378256.837827
-58425357.903340
-58474250.968853
-58523784.034367
-58573573.099880
-58625410.165393
-58673023.230906
-58727420.296420
-60083637.775785
-60130610.841298
-60178735.906811
-60225324.972324
-60274858.037838
-60324775.103351
-60374820.168864
-60424225.234377
-60474526.299891
-61847383.779255
-61891924.844769
-61939281.910282
-61988302.975795
-62033996.041308
-62083401.106822
-62131398.172335
-62181059.237848
-62234048.303361
-63617401.782726
-63663222.848240
-63707635.913753
-63756016.979266
-63804014.044779
-63852011.110293
-63898728.175806
-63947237.241319
-63995874.306832
-65393691.786197
-65439256.851710
-65486357.917224
-65529618.982737
-65578384.048250
-65624717.113763
-65673866.179277
-65719815.244790
-65767556.310303
-67176637.789668
-67223866.855181
-67268535.920695
-67312820.986208
-67359666.051721
-67405871.117234
-67450668.182748
-67497513.248261
-67547814.313774
-68967007.793139
-69012572.858652
-69054553.924165
-69099350.989679
-69147220.055192
-69192529.120705
-69235790.186218
-69281099.251732
-69329352.317245
-70757249.796610
-70801662.862123
-70847867.927636
-70891384.993150
-70935414.058663
-70982003.124176
-71025648.189689
-71071213.255203
-71119722.320716
-72557475.800081
-72600864.865594
-72641821.931107
-72686746.996620
-72732056.062134
-72777237.127647
-72818834.193160
-72863119.258673
-72909580.324187
-74356037.803552
-74402242.869065
-74442431.934578
-74487869.000091
-74529338.065605
-74572727.131118
-74617140.196631
-74663345.262144
-74705070.327658
-76160487.807022
-76202852.872536
-76247009.938049
-76287711.003562
-76330460.069075
-76372057.134589
-76416854.200102
-76463443.265615
-76503888.331128
-77966089.810493
-78006150.876007
-78046979.941520
-78091649.007033
-78131582.072546
-78173947.138060
-78219384.203573
-78263669.269086
-78305522.334599
-79772075.813964
-79812008.879477
-79852965.944991
-79895331.010504
-79936416.076017
-79978141.141530
-80020634.207044
-80066455.272557
-80106388.338070
-81577805.817435
-81618250.882948
-81658823.948462
-81700293.013975
-81742402.079488
-81780287.145001
-81823292.210515
-81865017.276028
-81906742.341541
-83381999.820906
-83424748.886419
-83463401.951932
-83502823.017446
-83545316.082959
-83584481.148472
-83626974.213985
-83667163.279499
-83710040.345012
-85188497.824377
-85227918.889890
-85268363.955403
-85309449.020917
-85347078.086430
-85387907.151943
-85428864.217456
-85469181.282970
-85507194.348483
-86991667.827848
-87033264.893361
-87070253.958874
-87110059.024387
-87150760.089901
-87188645.155414
-87228706.220927
-87268383.286440
-87307932.351954
-88794709.831319
-88832210.896832
-88871631.962345
-88909773.027858
-88948554.093372
-88987079.158885
-89027268.224398
-89065793.289911
-89105214.355425
-90593271.834789
-90630772.900303
-90668913.965816
-90707183.031329
-90743532.096842
-90783209.162356
-90821606.227869
-90860259.293382
-90897888.358895
-92387865.838260
-92427030.903774
-92463635.969287
-92500881.034800
-92539662.100313
-92575371.165827
-92611720.231340
-92652933.296853
-92688130.362366
-94179771.841731
-94218424.907244
-94254261.972758
-94291635.038271
-94328880.103784
-94365229.169297
-94399018.234811
-94438823.300324
-94478372.365837
-95965533.845202
-96001754.910715
-96039639.976229
-96074453.041742
-96112722.107255
-96149327.172768
-96187084.238282
-96221897.303795
-96257478.369308
-97747839.848673
-97785980.914186
-97820537.979699
-97857783.045213
-97892596.110726
-97927921.176239
-97964782.241752
-97999083.307266
-98035432.372779
-99525537.852144
-99561630.917657
-99596059.983170
-99633561.048684
-99666198.114197
-99701523.179710
-99737488.245223
-99773325.310737
-99806474.376250
-101298115.855615
-101332032.921128
-101366333.986641
-101401659.052154
-101435832.117668
-101468341.183181
-101505074.248694
-101540271.314207
-101573676.379721
-103060837.859086
-103094114.924599
-103130079.990112
-103165405.055625
-103200730.121139
-103234775.186652
-103267668.252165
-103300817.317678
-103336270.383192
-104818567.862556
-104852612.928070
-104886913.993583
-104920063.059096
-104954620.124609
-104989817.190123
-105021046.255636
-105057011.321149
-105088624.386662
-106570281.866027
-106603430.931541
-106639267.997054
-106669217.062567
-106701982.128080
-106737307.193594
-106768408.259107
-106805013.324620
-106834066.390133
-108312907.869498
-108344008.935011
-108379334.000525
-108412227.066038
-108445120.131551
-108476605.197064
-108507194.262578
-108541495.328091
-108572596.393604
-110045933.872969
-110080362.938482
-110111976.003996
-110145637.069509
-110177378.135022
-110208607.200535
-110240348.266049
-110274137.331562
-110302294.397075
-111773967.876440
-111808012.941953
-111838858.007466
-111870343.072980
-111902212.138493
-111934465.204006
-111966974.269519
-111995131.335033
-112025720.400546
SCALARS stress_2 float
LOOKUP_TABLE default
-21296.660715
-51278657.028838
-50510669.824237
-49739298.619635
-48964071.415034
-48185492.210432
-47403881.005831
-46616213.801229
-45828954.596628
-45037063.392026
-44242292.187424
-43446272.982823
-42646221.778221
-41845010.573620
-41041959.369018
-40238524.164417
-39432176.959815
-38624541.755214
-37817858.550612
-37010783.346011
-36200524.141409
-35393336.936808
-34583925.732206
-33777490.527604
-32971391.323003
-32166316.118401
-31363504.913800
-30561941.709198
-29763274.504597
-28967023.299995
-28172180.095394
-27383496.890792
-26596709.686191
-25815050.481589
-25038191.276988
-24265148.072386
-23497688.867784
-22735621.663183
-21979154.458581
-21229855.253980
-20486844.049378
-19750984.844777
-19022901.640175
-18302498.435574
-17591199.230972
-16887532.026371
-16193712.821769
-15508645.617167
-14833794.412566
-14169143.207964
-13516492.003363
-12873136.798761
-12241605.594160
-11621058.389558
-11013775.184957
-10418075.980355
-9835104.775754
-9265925.571152
-8708202.366551
-8165815.161949
-7636539.957347
-7121192.752746
-6619749.548144
-6134290.343543
-5662519.138941
-5206171.934340
-4764288.729738
-4338533.525137
-3928058.320535
-3532767.115934
-3153819.911332
-2791032.706731
-2442197.502129
-2110090.297527
-1794599.092926
-1494283.888324
-1209560.683723
-940813.479121
-688010.274520
-450375.069918
-228363.865317
-49831056.767293
1230327.600830
1035508.396229
824633.191627
599997.987025
358874.782424
101231.577822
-171659.626779
-461246.831381
-766602.035982
-1088261.240584
-1426288.445185
-1779739.649787
-2150630.854388
-2535714.058990
-2937429.263592
-3354968.468193
-3788147.672795
-4236582.877396
-4700658.081998
-5179565.286599
-5673896.491201
-6181739.695802
-6704686.900404
-7240834.105005
-7792829.309607
-8355912.514208
-8934219.718810
-9524318.923412
-10128106.128013
-10743077.332615
-11370848.537216
-12009867.741818
-12660070.946419
-13321586.151021
-13992749.355622
-14674816.560224
-15366627.764825
-16067174.969427
-16776554.174028
-17495245.378630
-18221760.583232
-18955979.787833
-19697934.992435
-20446490.197036
-21201597.401638
-21962488.606239
-22730595.810841
-23503703.015442
-24281674.220044
-25063973.424645
-25850664.629247
-26640739.833849
-27435255.038450
-28232594.243052
-29033589.447653
-29836064.652255
-30640811.856856
-31447351.061458
-32255498.266059
-33064453.470661
-33874856.675262
-34685827.879864
-35496343.084465
-36307498.289067
-37118141.493669
-37928104.698270
-38736827.902872
-39544463.107473
-40350602.312075
-41155005.516676
-41957336.721278
-42757819.925879
-43556335.130481
-44351618.335082
-45144717.539684
-45934192.744285
-46719963.948887
-47504247.153489
-48282834.358090
-49058773.562692
-49975177.593448
-50121442.419602
-50266163.245757
-50410484.071911
-50556172.898066
-50700869.724220
-50845334.550375
-50990327.376529
-51134104.202684
105816.165439
233640.991594
360449.817748
485634.643903
611851.470057
736212.296212
860317.122367
983765.948521
1107766.774676
912171.570074
787986.743919
663361.917765
537513.091610
410888.265456
284207.439301
156734.613147
29661.786992
-99795.039162
701120.365472
575599.539318
449134.713163
323445.887009
194717.060854
66700.234700
-61724.591455
-190989.417609
-320990.243764
474197.160871
347220.334716
220219.508562
92410.682407
-36054.143747
-165102.969902
-295143.796056
-425576.622211
-556697.448365
232017.956269
103697.130115
-25479.696040
-153392.522194
-284025.348349
-413242.174503
-544763.000658
-675867.826812
-808220.652967
-27689.248332
-155122.074487
-284762.900641
-415203.726796
-545812.552950
-677269.379105
-809942.205259
-942919.031414
-1075839.857568
-301252.452934
-430701.279088
-561686.105243
-693446.931397
-825543.757552
-958432.583706
-1091577.409861
-1224306.236015
-1359043.062170
-592455.657535
-723424.483690
-854161.309844
-986730.135999
-1120610.962153
-1254083.788308
-1388356.614462
-1523213.440617
-1658342.266771
-898546.862137
-1031379.688291
-1162964.514446
-1297397.340600
-1430774.166755
-1565478.992909
-1701199.819064
-1836808.645218
-1973465.471373
-1220726.066738
-1354470.892893
-1488431.719047
-1623024.545202
-1757305.371356
-1893370.197511
-2029499.023665
-2166531.849820
-2303964.675974
-1560081.271340
-1694226.097494
-1828618.923649
-1963603.749803
-2100476.575958
-2238093.402112
-2375190.228267
-2512287.054421
-2650935.880576
-1914244.475941
-2050253.302096
-2185470.128250
-2321782.954405
-2458927.780559
-2597392.606714
-2735697.432869
-2874802.259023
-3013979.085178
-2284735.680543
-2421144.506697
-2558105.332852
-2696290.159006
-2833866.985161
-2972731.811316
-3111892.637470
-3251589.463625
-3391846.289779
-2672290.885144
-2808795.711299
-2946940.537454
-3085509.363608
-3224046.189763
-3363759.015917
-3504383.842072
-3644216.668226
-3786505.494381
-3074302.089746
-3213262.915901
-3351039.742055
-3491048.568210
-3630857.394364
-3770618.220519
-3912611.046673
-4053683.872828
-4195108.698982
-3493521.294348
-3632282.120502
-3771922.946657
-3911779.772811
-4052132.598966
-4193749.425120
-4334870.251275
-4477231.077429
-4621015.903584
-3926996.498949
-4066629.325104
-4206902.151258
-4348686.977413
-4489423.803567
-4632312.629722
-4774305.455876
-4917426.282031
-5061419.108185
-4376207.703551
-4516688.529705
-4658201.355860
-4799970.182014
-4942299.008169
-5085347.834323
-5227932.660478
-5373629.486632
-5516702.312787
-4841442.908152
-4982539.734307
-5124500.560461
-5267077.386616
-5409870.212770
-5553599.038925
-5698407.865079
-5842824.691234
-5989121.517388
-5320710.112754
-5462510.938908
-5605143.765063
-5748800.591217
-5893025.417372
-6037714.243526
-6182099.069681
-6327499.895835
-6473004.721990
-5815881.317355
-5958186.143510
-6101170.969664
-6244875.795819
-6389900.621973
-6534845.448128
-6680398.274282
-6827175.100437
-6973847.926591
-6324924.521957
-6468133.348111
-6611846.174266
-6756767.000420
-6901663.826575
-7048088.652729
-7193209.478884
-7340602.305038
-7488827.131193
-6848191.726558
-6992024.552713
-7137089.378867
-7282370.205022
-7427659.031176
-7574243.857331
-7720996.683485
-7869077.509640
-8016790.335794
-7385714.931160
-7530219.757314
-7675612.583469
-7821381.409623
-7967310.235778
-8114911.061932
-8263391.888087
-8410056.714242
-8558833.540396
-7936222.135761
-8082086.961916
-8228119.788070
-8375088.614225
-8521721.440380
-8669730.266534
-8817483.092689
-8965947.918843
-9115244.744998
-8502529.340363
-8648074.166517
-8794546.992672
-8941579.818827
-9089428.644981
-9237645.471136
-9385758.297290
-9534263.123445
-9684759.949599
-9079476.544965
-9226645.371119
-9374038.197274
-9521431.023428
-9669759.849583
-9817744.675737
-9966929.501892
-10117386.328046
-10267499.154201
-9672031.749566
-9818128.575721
-9965601.401875
-10114306.228030
-10262347.054184
-10411683.880339
-10561324.706493
-10711901.532648
-10862134.358802
-10275282.954168
-10422179.780322
-10571164.606477
-10719453.432631
-10868198.258786
-11018007.084940
-11167759.911095
-11318560.737249
-11470369.563404
-10890814.158769
-11038766.984924
-11187719.811078
-11336520.637233
-11486321.463387
-11636818.289542
-11786635.115696
-11937675.941851
-12089444.768005
-11518601.363371
-11667346.189525
-11817083.015680
-11965835.841834
-12115980.667989
-12266101.494143
-12417294.320298
-12568591.146452
-12720711.972607
-12158268.567972
-12306805.394127
-12457182.220281
-12606863.046436
-12757031.872590
-12908080.698745
-13058721.524899
-13210858.351054
-13363379.177208
-12808391.772574
-12957976.598728
-13109041.424883
-13258098.251037
-13409195.077192
-13560627.903346
-13712164.729501
-13864357.555655
-14016790.381810
-13470602.977175
-13620587.803330
-13769764.629484
-13921093.455639
-14072494.281793
-14223671.107948
-14376335.934102
-14528512.760257
-14680937.586411
-14142950.181777
-14292943.007931
-14443559.834086
-14594248.660240
-14745321.486395
-14897146.312549
-15049547.138704
-15202259.964858
-15355588.791013
-14823833.386378
-14975146.212533
-15126899.038687
-15277163.864842
-15428356.690996
-15580973.517151
-15733614.343305
-15886615.169460
-16039991.995615
-15516468.590980
-15667125.417134
-15818646.243289
-15970439.069443
-16122079.895598
-16273952.721753
-16426809.547907
-16580274.374062
-16734339.200216
-16217167.795581
-16368608.621736
-16520129.447890
-16672530.274045
-16824339.100200
-16976531.926354
-17129652.752509
-17282453.578663
-17436478.404818
-16927531.000183
-17078563.826338
-17230364.652492
-17382645.478647
-17534806.304801
-17687799.130956
-17840023.957110
-17994032.783265
-18148305.609419
-17646670.204785
-17797775.030939
-17949879.857094
-18102016.683248
-18254993.509403
-18406930.335557
-18561059.161712
-18714507.987866
-18868924.814021
-18373425.409386
-18524866.235541
-18675939.061695
-18828443.887850
-18981844.714004
-19134493.540159
-19288670.366313
-19442031.192468
-19596528.018622
-19107604.613988
-19259189.440142
-19411534.266297
-19563583.092451
-19717087.918606
-19870120.744760
-20024777.570915
-20178746.397069
-20332235.223224
-19849287.818589
-20001200.644744
-20153377.470898
-20307290.297053
-20459107.123207
-20612651.949362
-20766740.775516
-20919813.601671
-21075014.427825
-20598779.023191
-20750155.849345
-20902828.675500
-21055453.501654
-21208494.327809
-21362743.153963
-21516687.980118
-21670768.806272
-21824433.632427
-21353454.227792
-21506159.053947
-21658527.880101
-21811152.706256
-21964601.532410
-22118346.358565
-22271531.184719
-22426252.010874
-22580692.837028
-22115313.432394
-22267362.258548
-22420851.084703
-22572763.910857
-22726444.737012
-22880589.563166
-23033590.389321
-23188871.215475
-23342920.041630
-22882532.636995
-23035709.463150
-23188030.289304
-23340239.115459
-23493823.941613
-23647320.767768
-23802185.593922
-23955770.420077
-24110395.246231
-23655719.841597
-23807784.667751
-23960209.493906
-24113330.320060
-24266747.146215
-24419923.972369
-24574780.798524
-24728645.624678
-24883254.450833
-24433795.046198
-24585667.872353
-24739180.698507
-24891557.524662
-25045310.350816
-25198759.176971
-25352264.003126
-25506536.829280
-25660849.655435
-25216318.250800
-25368247.076954
-25521463.903109
-25674264.729264
-25828033.555418
-25980218.381573
-26134835.207727
-26288820.033882
-26442652.860036
-26002369.455401
-26154914.281556
-26307507.107711
-26460907.933865
-26613308.760020
-26767317.586174
-26920942.412329
-27074999.238483
-27229112.064638
-26793012.660003
-26945117.486158
-27098254.312312
-27252351.138467
-27404887.964621
-27557424.790776
-27710809.616930
-27865514.443085
-28019187.269239
-27587991.864605
-27739872.690759
-27892353.516914
-28045738.343068
-28198267.169223
-28352003.995377
-28505548.821532
-28659541.647686
-28812918.473841
-28384691.069206
-28537411.895361
-28689652.721515
-28841813.547670
-28995534.373824
-29148879.199979
-29301704.026133
-29455688.852288
-29609249.678442
-29185198.273808
-29338007.099962
-29490439.926117
-29643080.752271
-29795513.578426
-29949450.404580
-30101723.230735
-30255236.056889
-30408524.883044
-29987153.478409
-30139490.304564
-30291419.130718
-30444491.956873
-30597644.783027
-30750549.609182
-30903318.435336
-31055983.261491
-31210000.087645
-30792764.683011
-30943997.509165
-31096638.335320
-31249639.161474
-31402463.987629
-31555008.813783
-31707105.639938
-31860410.466092
-32013835.292247
-31599543.887612
-31751192.713767
-31903593.539921
-32055658.366076
-32208299.192230
-32359940.018385
-32513020.844539
-32666285.670694
-32818734.496848
-32407219.092214
-32558979.918368
-32711004.744523
-32862757.570677
-33015278.396832
-33167375.222986
-33319928.049141
-33472504.875295
-33624585.701450
-33216910.296815
-33367583.122970
-33519951.949124
-33671384.775279
-33823425.601433
-33975898.427588
-34128267.253742
-34280252.079897
-34432884.906051
-34026865.501417
-34177882.327571
-34329267.153726
-34481307.979880
-34632916.806035
-34784773.632189
-34936534.458344
-35088407.284499
-35241200.110653
-34837252.706018
-34987605.532173
-35140158.358327
-35291183.184482
-35442424.010637
-35594480.836791
-35745481.662946
-35897546.489100
-36049995.315255
-35648039.910620
-35798064.736774
-35950257.562929
-36101314.389084
-36251667.215238
-36403636.041393
-36555020.867547
-36706821.693702
-36858086.519856
-36458451.115222
-36608971.941376
-36760244.767531
-36910405.593685
-37062462.419840
-37212391.245994
-37363664.072149
-37515024.898303
-37666585.724458
-37269134.319823
-37419455.145978
-37569407.972132
-37720224.798287
-37871241.624441
-38021154.450596
-38172939.276750
-38323556.102905
-38474340.929059
-38077745.524425
-38227898.350579
-38378123.176734
-38528732.002888
-38679484.829043
-38829653.655197
-38980718.481352
-39131527.307506
-39282448.133661
-38886764.729026
-39037085.555181
-39186494.381335
-39336663.207490
-39486952.033644
-39636688.859799
-39787073.685953
-39937666.512108
-40088059.338262
-39694079.933628
-39844160.759782
-39993689.585937
-40143562.412091
-40293107.238246
-40443516.064400
-40593036.890555
-40742933.716709
-40892206.542864
-40499107.138229
-40649595.964384
-40798772.790538
-40948317.616693
-41097598.442847
-41246911.269002
-41395936.095156
-41545968.921311
-41695729.747465
-41303710.342831
-41453183.168985
-41602815.995140
-41751408.821294
-41900529.647449
-42050178.473603
-42199011.299758
-42348500.125912
-42497548.952067
-42106289.547432
-42255410.373587
-42404955.199741
-42553076.025896
-42701796.852050
-42851101.678205
-42998886.504359
-43148503.330514
-43296512.156668
-42907308.752034
-43055405.578188
-43204014.404343
-43352231.230497
-43501000.056652
-43648464.882806
-43797153.708961
-43945706.535115
-44094339.361270
-43704791.956635
-43853080.782790
-44000697.608944
-44148986.435099
-44296619.261253
-44444892.087408
-44592988.913562
-44741573.739717
-44889038.565872
-44499899.161237
-44647307.987391
-44794852.813546
-44942917.639700
-45090590.465855
-45238503.292010
-45386240.118164
-45533344.944319
-45681329.770473
-45291510.365838
-45439479.191993
-45587120.018147
-45734216.844302
-45881689.670457
-46029322.496611
-46175683.322766
-46323068.148920
-46470868.975075
-46081873.570440
-46227770.396595
-46375483.222749
-46522460.048904
-46669332.875058
-46817205.701213
-46962934.527367
-47109919.353522
-47256384.179676
-46866908.775042
-47014565.601196
-47160902.427351
-47307527.253505
-47453600.079660
-47599792.905814
-47746433.731969
-47892506.558123
-48039451.384278
-47648879.979643
-47796264.805798
-47942825.631952
-48088338.458107
-48235339.284261
-48381204.110416
-48527620.936570
-48673029.762725
-48819150.588879
-48429251.184245
-48575084.010399
-48720740.836554
-48866661.662708
-49012238.488863
-49157839.315017
-49303768.141172
-49449224.967326
-49594161.793481
-49204342.388846
-49349815.215001
-49494992.041155
-49640936.867310
-49786097.693464
-49930978.519619
-50076035.345773
-50221772.171928
-50366108.998082
SCALARS stress_3 float
LOOKUP_TABLE default
334152.675962
26754414.989842
26375118.510918
25995118.031995
25605517.553071
25216749.074148
24831308.595224
24439148.116301
24044619.637377
23647403.158454
23252490.679530
22857066.200607
22457097.721683
22055849.242760
21654472.763836
21251496.284913
20843975.805989
20441767.327066
20035654.848142
19630566.369219
19219909.890295
18815589.411372
18409924.932448
18002660.453525
17595715.974601
17186851.495678
16783107.016755
16376290.537831
15972994.058908
15568545.579984
15165953.101061
14762144.622137
14362048.143214
13967519.664290
13571711.185367
13175838.706443
12786366.227520
12395101.748596
12006973.269673
11626204.790749
11242236.311826
10865947.832902
10490555.353979
10121562.875055
9754554.396132
9391065.917208
9030905.438285
8671704.959361
8324344.480438
7979544.001514
7638327.522591
7303895.043667
6974198.564744
6648086.085820
6328693.606897
6017685.127973
5708596.649050
5407124.170126
5115827.691203
4826899.212279
4543410.733356
4268818.254432
4001073.775509
3739665.296585
3487600.817662
3241296.338738
2998063.859815
2768975.380891
2545326.901968
2327438.423044
2120109.944121
1917645.465197
1724460.986274
1538380.507350
1358380.028427
1190731.549503
1028907.070580
873738.591656
729706.112733
589769.633809
458025.154886
26752979.454136
-208658.859743
-86002.380820
49838.098104
187150.577027
338735.055951
495503.534874
662640.013798
834448.492721
1016368.971645
1205521.450568
1404081.929492
1607442.408415
1825650.887339
2047123.366262
2272371.845186
2513364.324109
2757172.803033
3011093.281956
3272181.760880
3537558.239803
3812790.718727
4094743.197650
4383671.676574
4679000.155497
4979704.634421
5289369.113344
5601977.592268
5924698.071191
6248122.550115
6582299.029038
6924603.507962
7265435.986885
7613692.465809
7967260.944732
8325693.423656
8688925.902579
9058302.381503
9429470.860426
9804223.339350
10184159.818273
10567616.297197
10953888.776120
11345473.255044
11736161.733967
12130626.212891
12529122.691814
12931779.170738
13335843.649661
13739396.128585
14142820.607508
14554309.086432
14962917.565355
15376774.044279
15785318.523202
16199303.002125
16613479.481049
17025479.959972
17439720.438896
17857416.917819
18266857.396743
18684745.875666
19099178.354590
19512714.833513
19925931.312437
20338251.791360
20750444.270284
21160012.749207
21570541.228131
21977357.707054
22386414.185978
22793102.664901
23194799.143825
23599951.622748
24001008.101672
24400208.580595
24796401.059519
25192977.538442
25584178.017366
25973202.496289
26365682.975213
26749615.807707
26752908.161277
26751976.514848
26755140.868419
26753441.221989
26754301.575560
26755865.929130
26756470.282701
26752210.636271
283244.322392
226127.968821
173811.615251
114391.261680
65850.908110
10206.554539
-47997.799032
-100954.152602
-153590.506173
-30550.027249
23174.326321
76578.679892
135295.033462
188571.387033
244343.740604
294676.094174
350960.447745
406604.801315
103498.451674
155622.805245
211587.158815
264543.512386
319611.865957
374616.219527
427764.573098
480656.926668
535085.280239
243882.930598
296711.284168
349539.637739
405439.991309
461084.344880
512440.698451
566805.052021
624113.405592
673101.759162
390667.409521
444071.763092
498244.116662
553440.470233
609340.823804
659737.177374
713461.530945
767185.884515
819566.238086
548075.888445
601864.242015
654180.595586
707328.949156
758237.302727
815609.656298
867094.009868
924466.363439
974798.717009
713676.367368
767016.720939
816389.074509
874657.428080
924541.781650
977562.135221
1032438.488792
1085394.842362
1139183.195933
886700.846292
938889.199862
992037.553433
1046465.907003
1098590.260574
1148154.614145
1202902.967715
1257395.321286
1309007.674856
1068301.325215
1118761.678786
1172230.032356
1224610.385927
1277246.739497
1329243.093068
1379255.446639
1431827.800209
1486192.153780
1257517.804139
1306826.157709
1359526.511280
1411138.864850
1464735.218421
1515067.571992
1568983.925562
1621044.279133
1672400.632703
1451918.283062
1505194.636633
1555590.990203
1608995.343774
1660159.697344
1712220.050915
1762488.404486
1813844.758056
1866737.111627
1663854.761986
1710475.115556
1760679.469127
1814851.822697
1863776.176268
1915580.529839
1968856.883409
2015797.236980
2066769.590550
1875471.240909
1924715.594480
1974215.948050
2024868.301621
2076224.655191
2126877.008762
2175545.362333
2224725.715903
2277106.069474
2097583.719833
2144844.073403
2195304.426974
2245700.780544
2295905.134115
2342397.487686
2393241.841256
2440886.194827
2494866.548397
2324816.198756
2372332.552327
2420808.905897
2473445.259468
2520385.613038
2569437.966609
2618938.320180
2671126.673750
2718195.027321
2559536.677680
2608077.031250
2660649.384821
2708549.738391
2756322.091962
2804734.445533
2853274.799103
2903927.152674
2949587.506244
2809105.156603
2853869.510174
2901641.863744
2947750.217315
2997186.570885
3044830.924456
3093947.278027
3142039.631597
3190835.985168
3057585.635527
3104013.989097
3152554.342668
3200006.696238
3248163.049809
3291711.403379
3344027.756950
3390072.110521
3440596.464091
3317778.114450
3363310.468021
3409866.821591
3457063.175162
3505667.528732
3553567.882303
3601660.235874
3647256.589444
3693172.943015
3586162.593374
3628750.946944
3674091.300515
3720263.654085
3768932.007656
3816704.361226
3862044.714797
3906937.068368
3955413.421938
3858259.072297
3901615.425868
3949643.779438
3993064.133009
4040580.486579
4087328.840150
4132925.193721
4177497.547291
4222069.900862
4140659.551221
4183311.904791
4228268.258362
4271624.611932
4317476.965503
4360833.319073
4406173.672644
4450874.026215
4500438.379785
4426132.030144
4473840.383715
4514252.737285
4559657.090856
4603269.444426
4647841.797997
4692350.151568
4737626.505138
4782262.858709
4721012.509068
4763088.862638
4810541.216209
4849929.569779
4897253.923350
4939522.276920
4980062.630491
5023354.984062
5069591.337632
5022612.987991
5065201.341562
5107981.695132
5150378.048703
5196102.402273
5236514.755844
5279615.109415
5321307.462985
5365111.816556
5330613.466915
5372881.820485
5411630.174056
5454474.527626
5499430.881197
5539843.234767
5581407.588338
5625147.941909
5667992.295479
5645845.945838
5687026.299409
5724622.652979
5768363.006550
5807751.360120
5851235.713691
5891712.067261
5933596.420832
5976312.774403
5969206.424762
6004242.778332
6044591.131903
6085963.485473
6128935.839044
6167236.192614
6209312.546185
6249980.899756
6287513.253326
6292246.903685
6328819.257256
6372559.610826
6408939.964397
6449800.317967
6488804.671538
6532161.025108
6567261.378679
6608313.732250
6621879.382609
6660243.736179
6702192.089750
6741388.443320
6779432.796891
6815109.150461
6858017.504032
6893949.857603
6933210.211173
6958295.861532
6998132.215103
7037648.568673
7074156.922244
7113929.275814
7150117.629385
7190145.982955
7227486.336526
7263290.690097
7302520.340456
7341460.694026
7378353.047597
7415309.401167
7450857.754738
7488966.108308
7524962.461879
7563198.815450
7602011.169020
7650136.819379
7689525.172950
7726289.526520
7761005.880091
7796938.233661
7832934.587232
7868482.940802
7907167.294373
7942523.647944
8003129.298303
8041173.651873
8075698.005444
8112654.359014
8147626.712585
8181703.066155
8218019.419726
8254335.773297
8289116.126867
8361433.777226
8396342.130797
8430802.484367
8466030.837938
8501771.191508
8534951.545079
8571139.898649
8605472.252220
8640060.605791
8726010.256150
8756118.609720
8796210.963291
8823759.316861
8856811.670432
8896904.024002
8927140.377573
8963648.731144
8993373.084714
9091802.735073
9124087.088644
9157267.442214
9193391.795785
9224460.149355
9255720.502926
9290692.856496
9325537.210067
9354621.563638
9461243.213997
9492951.567567
9528243.921138
9559888.274708
9590124.628279
9625224.981849
9653605.335420
9689025.688990
9722206.042561
9835867.692920
9868216.046491
9898260.400061
9932592.753632
9964301.107202
9995113.460773
10025925.814343
10058722.167914
10090238.521485
10215612.171844
10246616.525414
10277428.878985
10306961.232555
10338029.586126
10369289.939696
10398950.293267
10431298.646837
10461407.000408
10599900.650767
10628473.004338
10657685.357908
10685361.711479
10717454.065049
10744682.418620
10775110.772190
10805539.125761
10836159.479332
10983997.129691
11010073.483261
11040693.836832
11070418.190402
11097326.543973
11126026.897543
11155879.251114
11185347.604684
11212383.958255
11372381.608614
11401145.962185
11430102.315755
11456370.669326
11483791.022896
11514027.376467
11538759.730037
11569508.083608
11595328.437179
11765182.087538
11791322.441108
11819318.794679
11846355.148249
11872175.501820
11899851.855390
11926376.208961
11953348.562531
11982560.916102
12161950.566461
12183802.920032
12213079.273602
12239027.627173
12264847.980743
12291692.334314
12315144.687884
12341221.041455
12370945.395026
12556415.045385
12579803.398955
12605239.752526
12634452.106096
12657968.459667
12681996.813237
12705449.166808
12735173.520378
12757921.873949
12953887.524308
12980731.877879
13005016.231449
13028532.585020
13054224.938590
13078765.292161
13101513.645731
13129317.999302
13152834.352872
13353280.003232
13381084.356802
13405816.710373
13428117.063943
13451441.417514
13475469.771084
13501226.124655
13520390.478225
13546914.831796
13761696.482155
13786748.835726
13807641.189296
13831797.542867
13852881.896437
13877806.250008
13896778.603578
13921126.957149
13945859.310719
14168640.961079
14189917.314649
14211705.668220
14233750.021790
14256690.375361
14279054.728931
14299755.082502
14322311.436072
14343971.789643
14575201.440002
14597309.793573
14614746.147143
14637366.500714
14660562.854284
14686063.207855
14701003.561425
14724711.914996
14744772.268566
14985217.918926
15000926.272496
15023162.626067
15043478.979637
15065843.333208
15083727.686778
15105836.040349
15125256.393919
15146020.747490
15394210.397849
15410878.751420
15433307.104990
15452855.458561
15469779.812131
15491120.165702
15512332.519272
15527592.872843
15548421.226413
15804418.876773
15823391.230343
15841851.583914
15862551.937484
15879092.291055
15898704.644625
15915564.998196
15935113.351766
15954789.705337
16216803.355696
16232895.709267
16252252.062837
16269048.416408
16287636.769978
16308337.123549
16324813.477119
16339625.830690
16357894.184260
16627203.834620
16646176.188190
16662012.541761
16680408.895331
16700213.248902
16715217.602472
16732141.956043
16746442.309613
16767014.663184
17041700.313543
17059648.667114
17074589.020684
17092409.374255
17106581.727825
17123570.081396
17140238.434966
17155242.788537
17171847.142107
17456068.792467
17470689.146037
17488445.499608
17504153.853178
17517558.206749
17535122.560319
17548462.913890
17565195.267460
17579751.621031
17870501.271390
17887297.624961
17899613.978531
17915002.332102
17930454.685672
17945907.039243
17958735.392813
17973931.746384
17986376.099954
18283077.750314
18299554.103884
18311742.457455
18327002.811025
18340663.164596
18354323.518166
18366319.871737
18380556.225307
18393128.578878
18697254.229237
18711938.582808
18726622.936378
18738235.289949
18751831.643519
18763827.997090
18777680.350660
18790892.704231
18801801.057801
19112518.708161
19124003.061731
19135551.415302
19150491.768872
19161208.122443
19174420.476013
19185776.829584
19199565.183154
19210601.536725
19524519.187084
19534467.540655
19547295.894225
19559868.247796
19573656.601366
19583220.954937
19595025.308507
19606765.662078
19619274.015648
19936711.666008
19947620.019578
19959168.373149
19970652.726719
19985465.080290
19991829.433860
20005297.787431
20016974.141001
20024298.494572
20348328.144931
20361220.498502
20370336.852072
20382461.205643
20390361.559213
20401269.912784
20414226.266354
20420782.619925
20428106.973495
20759496.623854
20768932.977425
20780353.330996
20789469.684566
20798394.038137
20811222.391707
20819314.745278
20828623.098848
20835819.452419
21172201.102778
21179909.456349
21188769.809919
21199934.163490
21206362.517060
21213814.870631
21223251.224201
21232431.577772
21239307.931342
21581001.581701
21588197.935272
21595650.288843
21605534.642413
21613242.995984
21621015.349554
21628723.703125
21637264.056695
21644460.410266
21987306.060625
21994758.414196
22002210.767766
22009343.121337
22019163.474907
22026679.828478
22031508.182048
22040176.535619
22048972.889189
22395978.539548
22400998.893119
22410947.246690
22413983.600260
22421435.953831
22432600.307401
22435252.660972
22441809.014542
22449005.368113
22798699.018472
22807623.372043
22812707.725613
22819072.079184
22826332.432754
22832440.786325
22836437.139895
22843313.493466
22847373.847036
23203659.497395
23210791.850966
23215236.204537
23221536.558107
23225468.911678
23233497.265248
23239285.618819
23243857.972389
23249390.325960
23605803.976319
23608584.329890
23616356.683460
23617281.037031
23626205.390601
23630521.744172
23637398.097742
23640562.451313
23646542.804883
24004172.455242
24008808.808813
24016389.162384
24020065.515954
24023037.869525
24029018.223095
24031990.576666
24038162.930236
24039855.283807
24402028.934166
24408393.287736
24412069.641307
24418369.994878
24419422.348448
24425018.702019
24427927.055589
24432435.409160
24433743.762730
24803981.413089
24800937.766660
24805062.120231
24812386.473801
24817278.827372
24820059.180942
24820087.534513
24826003.888083
24826160.241654
25197165.892013
25198922.245583
25201318.599154
25204930.952725
25207071.306295
25211899.659866
25212376.013436
25213812.367007
25216080.720577
25587278.370936
25592106.724507
25593543.078078
25596835.431648
25596543.785219
25599068.138789
25601272.492360
25605012.845930
25604657.199501
25976878.849860
25980171.203430
25978791.557001
25985155.910572
25985696.264142
25990524.617713
25987736.971283
25992693.324854
25988177.678424
26365583.328783
26368491.682354
26368456.035925
26370916.389495
26373376.743066
26374365.096636
26372281.450207
26372437.803777
26374578.157348
