# vtk DataFile Version 2.0
Generated volume Mesh
ASCII
DATASET UNSTRUCTURED_GRID
POINTS 891 float
0.005000 0.100000 0.000000
0.005000 0.000000 0.000000
0.005000 0.001250 0.000000
0.005000 0.002500 0.000000
0.005000 0.003750 0.000000
0.005000 0.005000 0.000000
0.005000 0.006250 0.000000
0.005000 0.007500 0.000000
0.005000 0.008750 0.000000
0.005000 0.010000 0.000000
0.005000 0.011250 0.000000
0.005000 0.012500 0.000000
0.005000 0.013750 0.000000
0.005000 0.015000 0.000000
0.005000 0.016250 0.000000
0.005000 0.017500 0.000000
0.005000 0.018750 0.000000
0.005000 0.020000 0.000000
0.005000 0.021250 0.000000
0.005000 0.022500 0.000000
0.005000 0.023750 0.000000
0.005000 0.025000 0.000000
0.005000 0.026250 0.000000
0.005000 0.027500 0.000000
0.005000 0.028750 0.000000
0.005000 0.030000 0.000000
0.005000 0.031250 0.000000
0.005000 0.032500 0.000000
0.005000 0.033750 0.000000
0.005000 0.035000 0.000000
0.005000 0.036250 0.000000
0.005000 0.037500 0.000000
0.005000 0.038750 0.000000
0.005000 0.040000 0.000000
0.005000 0.041250 0.000000
0.005000 0.042500 0.000000
0.005000 0.043750 0.000000
0.005000 0.045000 0.000000
0.005000 0.046250 0.000000
0.005000 0.047500 0.000000
0.005000 0.048750 0.000000
0.005000 0.050000 0.000000
0.005000 0.051250 0.000000
0.005000 0.052500 0.000000
0.005000 0.053750 0.000000
0.005000 0.055000 0.000000
0.005000 0.056250 0.000000
0.005000 0.057500 0.000000
0.005000 0.058750 0.000000
0.005000 0.060000 0.000000
0.005000 0.061250 0.000000
0.005000 0.062500 0.000000
0.005000 0.063750 0.000000
0.005000 0.065000 0.000000
0.005000 0.066250 0.000000
0.005000 0.067500 0.000000
0.005000 0.068750 0.000000
0.005000 0.070000 0.000000
0.005000 0.071250 0.000000
0.005000 0.072500 0.000000
0.005000 0.073750 0.000000
0.005000 0.075000 0.000000
0.005000 0.076250 0.000000
0.005000 0.077500 0.000000
0.005000 0.078750 0.000000
0.005000 0.080000 0.000000
0.005000 0.081250 0.000000
0.005000 0.082500 0.000000
0.005000 0.083750 0.000000
0.005000 0.085000 0.000000
0.005000 0.086250 0.000000
0.005000 0.087500 0.000000
0.005000 0.088750 0.000000
0.005000 0.090000 0.000000
0.005000 0.091250 0.000000
0.005000 0.092500 0.000000
0.005000 0.093750 0.000000
0.005000 0.095000 0.000000
0.005000 0.096250 0.000000
0.005000 0.097500 0.000000
0.005000 0.098750 0.000000
0.000000 0.000000 0.000000
0.000000 0.100000 0.000000
0.000000 0.098750 0.000000
0.000000 0.097500 0.000000
0.000000 0.096250 0.000000
0.000000 0.095000 0.000000
0.000000 0.093750 0.000000
0.000000 0.092500 0.000000
0.000000 0.091250 0.000000
0.000000 0.090000 0.000000
0.000000 0.088750 0.000000
0.000000 0.087500 0.000000
0.000000 0.086250 0.000000
0.000000 0.085000 0.000000
0.000000 0.083750 0.000000
0.000000 0.082500 0.000000
0.000000 0.081250 0.000000
0.000000 0.080000 0.000000
0.000000 0.078750 0.000000
0.000000 0.077500 0.000000
0.000000 0.076250 0.000000
0.000000 0.075000 0.000000
0.000000 0.073750 0.000000
0.000000 0.072500 0.000000
0.000000 0.071250 0.000000
0.000000 0.070000 0.000000
0.000000 0.068750 0.000000
0.000000 0.067500 0.000000
0.000000 0.066250 0.000000
0.000000 0.065000 0.000000
0.000000 0.063750 0.000000
0.000000 0.062500 0.000000
0.000000 0.061250 0.000000
0.000000 0.060000 0.000000
0.000000 0.058750 0.000000
0.000000 0.057500 0.000000
0.000000 0.056250 0.000000
0.000000 0.055000 0.000000
0.000000 0.053750 0.000000
0.000000 0.052500 0.000000
0.000000 0.051250 0.000000
0.000000 0.050000 0.000000
0.000000 0.048750 0.000000
0.000000 0.047500 0.000000
0.000000 0.046250 0.000000
0.000000 0.045000 0.000000
0.000000 0.043750 0.000000
0.000000 0.042500 0.000000
0.000000 0.041250 0.000000
0.000000 0.040000 0.000000
0.000000 0.038750 0.000000
0.000000 0.037500 0.000000
0.000000 0.036250 0.000000
0.000000 0.035000 0.000000
0.000000 0.033750 0.000000
0.000000 0.032500 0.000000
0.000000 0.031250 0.000000
0.000000 0.030000 0.000000
0.000000 0.028750 0.000000
0.000000 0.027500 0.000000
0.000000 0.026250 0.000000
0.000000 0.025000 0.000000
0.000000 0.023750 0.000000
0.000000 0.022500 0.000000
0.000000 0.021250 0.000000
0.000000 0.020000 0.000000
0.000000 0.018750 0.000000
0.000000 0.017500 0.000000
0.000000 0.016250 0.000000
0.000000 0.015000 0.000000
0.000000 0.013750 0.000000
0.000000 0.012500 0.000000
0.000000 0.011250 0.000000
0.000000 0.010000 0.000000
0.000000 0.008750 0.000000
0.000000 0.007500 0.000000
0.000000 0.006250 0.000000
0.000000 0.005000 0.000000
0.000000 0.003750 0.000000
0.000000 0.002500 0.000000
0.000000 0.001250 0.000000
0.000500 0.000000 0.000000
0.001000 0.000000 0.000000
0.001500 0.000000 0.000000
0.002000 0.000000 0.000000
0.002500 0.000000 0.000000
0.003000 0.000000 0.000000
0.003500 0.000000 0.000000
0.004000 0.000000 0.000000
0.004500 0.000000 0.000000
0.004500 0.100000 0.000000
0.004000 0.100000 0.000000
0.003500 0.100000 0.000000
0.003000 0.100000 0.000000
0.002500 0.100000 0.000000
0.002000 0.100000 0.000000
0.001500 0.100000 0.000000
0.001000 0.100000 0.000000
0.000500 0.100000 0.000000
0.000500 0.098750 0.000000
0.001000 0.098750 0.000000
0.001500 0.098750 0.000000
0.002000 0.098750 0.000000
0.002500 0.098750 0.000000
0.003000 0.098750 0.000000
0.003500 0.098750 0.000000
0.004000 0.098750 0.000000
0.004500 0.098750 0.000000
0.000500 0.097500 0.000000
0.001000 0.097500 0.000000
0.001500 0.097500 0.000000
0.002000 0.097500 0.000000
0.002500 0.097500 0.000000
0.003000 0.097500 0.000000
0.003500 0.097500 0.000000
0.004000 0.097500 0.000000
0.004500 0.097500 0.000000
0.000500 0.096250 0.000000
0.001000 0.096250 0.000000
0.001500 0.096250 0.000000
0.002000 0.096250 0.000000
0.002500 0.096250 0.000000
0.003000 0.096250 0.000000
0.003500 0.096250 0.000000
0.004000 0.096250 0.000000
0.004500 0.096250 0.000000
0.000500 0.095000 0.000000
0.001000 0.095000 0.000000
0.001500 0.095000 0.000000
0.002000 0.095000 0.000000
0.002500 0.095000 0.000000
0.003000 0.095000 0.000000
0.003500 0.095000 0.000000
0.004000 0.095000 0.000000
0.004500 0.095000 0.000000
0.000500 0.093750 0.000000
0.001000 0.093750 0.000000
0.001500 0.093750 0.000000
0.002000 0.093750 0.000000
0.002500 0.093750 0.000000
0.003000 0.093750 0.000000
0.003500 0.093750 0.000000
0.004000 0.093750 0.000000
0.004500 0.093750 0.000000
0.000500 0.092500 0.000000
0.001000 0.092500 0.000000
0.001500 0.092500 0.000000
0.002000 0.092500 0.000000
0.002500 0.092500 0.000000
0.003000 0.092500 0.000000
0.003500 0.092500 0.000000
0.004000 0.092500 0.000000
0.004500 0.092500 0.000000
0.000500 0.091250 0.000000
0.001000 0.091250 0.000000
0.001500 0.091250 0.000000
0.002000 0.091250 0.000000
0.002500 0.091250 0.000000
0.003000 0.091250 0.000000
0.003500 0.091250 0.000000
0.004000 0.091250 0.000000
0.004500 0.091250 0.000000
0.000500 0.090000 0.000000
0.001000 0.090000 0.000000
0.001500 0.090000 0.000000
0.002000 0.090000 0.000000
0.002500 0.090000 0.000000
0.003000 0.090000 0.000000
0.003500 0.090000 0.000000
0.004000 0.090000 0.000000
0.004500 0.090000 0.000000
0.000500 0.088750 0.000000
0.001000 0.088750 0.000000
0.001500 0.088750 0.000000
0.002000 0.088750 0.000000
0.002500 0.088750 0.000000
0.003000 0.088750 0.000000
0.003500 0.088750 0.000000
0.004000 0.088750 0.000000
0.004500 0.088750 0.000000
0.000500 0.087500 0.000000
0.001000 0.087500 0.000000
0.001500 0.087500 0.000000
0.002000 0.087500 0.000000
0.002500 0.087500 0.000000
0.003000 0.087500 0.000000
0.003500 0.087500 0.000000
0.004000 0.087500 0.000000
0.004500 0.087500 0.000000
0.000500 0.086250 0.000000
0.001000 0.086250 0.000000
0.001500 0.086250 0.000000
0.002000 0.086250 0.000000
0.002500 0.086250 0.000000
0.003000 0.086250 0.000000
0.003500 0.086250 0.000000
0.004000 0.086250 0.000000
0.004500 0.086250 0.000000
0.000500 0.085000 0.000000
0.001000 0.085000 0.000000
0.001500 0.085000 0.000000
0.002000 0.085000 0.000000
0.002500 0.085000 0.000000
0.003000 0.085000 0.000000
0.003500 0.085000 0.000000
0.004000 0.085000 0.000000
0.004500 0.085000 0.000000
0.000500 0.083750 0.000000
0.001000 0.083750 0.000000
0.001500 0.083750 0.000000
0.002000 0.083750 0.000000
0.002500 0.083750 0.000000
0.003000 0.083750 0.000000
0.003500 0.083750 0.000000
0.004000 0.083750 0.000000
0.004500 0.083750 0.000000
0.000500 0.082500 0.000000
0.001000 0.082500 0.000000
0.001500 0.082500 0.000000
0.002000 0.082500 0.000000
0.002500 0.082500 0.000000
0.003000 0.082500 0.000000
0.003500 0.082500 0.000000
0.004000 0.082500 0.000000
0.004500 0.082500 0.000000
0.000500 0.081250 0.000000
0.001000 0.081250 0.000000
0.001500 0.081250 0.000000
0.002000 0.081250 0.000000
0.002500 0.081250 0.000000
0.003000 0.081250 0.000000
0.003500 0.081250 0.000000
0.004000 0.081250 0.000000
0.004500 0.081250 0.000000
0.000500 0.080000 0.000000
0.001000 0.080000 0.000000
0.001500 0.080000 0.000000
0.002000 0.080000 0.000000
0.002500 0.080000 0.000000
0.003000 0.080000 0.000000
0.003500 0.080000 0.000000
0.004000 0.080000 0.000000
0.004500 0.080000 0.000000
0.000500 0.078750 0.000000
0.001000 0.078750 0.000000
0.001500 0.078750 0.000000
0.002000 0.078750 0.000000
0.002500 0.078750 0.000000
0.003000 0.078750 0.000000
0.003500 0.078750 0.000000
0.004000 0.078750 0.000000
0.004500 0.078750 0.000000
0.000500 0.077500 0.000000
0.001000 0.077500 0.000000
0.001500 0.077500 0.000000
0.002000 0.077500 0.000000
0.002500 0.077500 0.000000
0.003000 0.077500 0.000000
0.003500 0.077500 0.000000
0.004000 0.077500 0.000000
0.004500 0.077500 0.000000
0.000500 0.076250 0.000000
0.001000 0.076250 0.000000
0.001500 0.076250 0.000000
0.002000 0.076250 0.000000
0.002500 0.076250 0.000000
0.003000 0.076250 0.000000
0.003500 0.076250 0.000000
0.004000 0.076250 0.000000
0.004500 0.076250 0.000000
0.000500 0.075000 0.000000
0.001000 0.075000 0.000000
0.001500 0.075000 0.000000
0.002000 0.075000 0.000000
0.002500 0.075000 0.000000
0.003000 0.075000 0.000000
0.003500 0.075000 0.000000
0.004000 0.075000 0.000000
0.004500 0.075000 0.000000
0.000500 0.073750 0.000000
0.001000 0.073750 0.000000
0.001500 0.073750 0.000000
0.002000 0.073750 0.000000
0.002500 0.073750 0.000000
0.003000 0.073750 0.000000
0.003500 0.073750 0.000000
0.004000 0.073750 0.000000
0.004500 0.073750 0.000000
0.000500 0.072500 0.000000
0.001000 0.072500 0.000000
0.001500 0.072500 0.000000
0.002000 0.072500 0.000000
0.002500 0.072500 0.000000
0.003000 0.072500 0.000000
0.003500 0.072500 0.000000
0.004000 0.072500 0.000000
0.004500 0.072500 0.000000
0.000500 0.071250 0.000000
0.001000 0.071250 0.000000
0.001500 0.071250 0.000000
0.002000 0.071250 0.000000
0.002500 0.071250 0.000000
0.003000 0.071250 0.000000
0.003500 0.071250 0.000000
0.004000 0.071250 0.000000
0.004500 0.071250 0.000000
0.000500 0.070000 0.000000
0.001000 0.070000 0.000000
0.001500 0.070000 0.000000
0.002000 0.070000 0.000000
0.002500 0.070000 0.000000
0.003000 0.070000 0.000000
0.003500 0.070000 0.000000
0.004000 0.070000 0.000000
0.004500 0.070000 0.000000
0.000500 0.068750 0.000000
0.001000 0.068750 0.000000
0.001500 0.068750 0.000000
0.002000 0.068750 0.000000
0.002500 0.068750 0.000000
0.003000 0.068750 0.000000
0.003500 0.068750 0.000000
0.004000 0.068750 0.000000
0.004500 0.068750 0.000000
0.000500 0.067500 0.000000
0.001000 0.067500 0.000000
0.001500 0.067500 0.000000
0.002000 0.067500 0.000000
0.002500 0.067500 0.000000
0.003000 0.067500 0.000000
0.003500 0.067500 0.000000
0.004000 0.067500 0.000000
0.004500 0.067500 0.000000
0.000500 0.066250 0.000000
0.001000 0.066250 0.000000
0.001500 0.066250 0.000000
0.002000 0.066250 0.000000
0.002500 0.066250 0.000000
0.003000 0.066250 0.000000
0.003500 0.066250 0.000000
0.004000 0.066250 0.000000
0.004500 0.066250 0.000000
0.000500 0.065000 0.000000
0.001000 0.065000 0.000000
0.001500 0.065000 0.000000
0.002000 0.065000 0.000000
0.002500 0.065000 0.000000
0.003000 0.065000 0.000000
0.003500 0.065000 0.000000
0.004000 0.065000 0.000000
0.004500 0.065000 0.000000
0.000500 0.063750 0.000000
0.001000 0.063750 0.000000
0.001500 0.063750 0.000000
0.002000 0.063750 0.000000
0.002500 0.063750 0.000000
0.003000 0.063750 0.000000
0.003500 0.063750 0.000000
0.004000 0.063750 0.000000
0.004500 0.063750 0.000000
0.000500 0.062500 0.000000
0.001000 0.062500 0.000000
0.001500 0.062500 0.000000
0.002000 0.062500 0.000000
0.002500 0.062500 0.000000
0.003000 0.062500 0.000000
0.003500 0.062500 0.000000
0.004000 0.062500 0.000000
0.004500 0.062500 0.000000
0.000500 0.061250 0.000000
0.001000 0.061250 0.000000
0.001500 0.061250 0.000000
0.002000 0.061250 0.000000
0.002500 0.061250 0.000000
0.003000 0.061250 0.000000
0.003500 0.061250 0.000000
0.004000 0.061250 0.000000
0.004500 0.061250 0.000000
0.000500 0.060000 0.000000
0.001000 0.060000 0.000000
0.001500 0.060000 0.000000
0.002000 0.060000 0.000000
0.002500 0.060000 0.000000
0.003000 0.060000 0.000000
0.003500 0.060000 0.000000
0.004000 0.060000 0.000000
0.004500 0.060000 0.000000
0.000500 0.058750 0.000000
0.001000 0.058750 0.000000
0.001500 0.058750 0.000000
0.002000 0.058750 0.000000
0.002500 0.058750 0.000000
0.003000 0.058750 0.000000
0.003500 0.058750 0.000000
0.004000 0.058750 0.000000
0.004500 0.058750 0.000000
0.000500 0.057500 0.000000
0.001000 0.057500 0.000000
0.001500 0.057500 0.000000
0.002000 0.057500 0.000000
0.002500 0.057500 0.000000
0.003000 0.057500 0.000000
0.003500 0.057500 0.000000
0.004000 0.057500 0.000000
0.004500 0.057500 0.000000
0.000500 0.056250 0.000000
0.001000 0.056250 0.000000
0.001500 0.056250 0.000000
0.002000 0.056250 0.000000
0.002500 0.056250 0.000000
0.003000 0.056250 0.000000
0.003500 0.056250 0.000000
0.004000 0.056250 0.000000
0.004500 0.056250 0.000000
0.000500 0.055000 0.000000
0.001000 0.055000 0.000000
0.001500 0.055000 0.000000
0.002000 0.055000 0.000000
0.002500 0.055000 0.000000
0.003000 0.055000 0.000000
0.003500 0.055000 0.000000
0.004000 0.055000 0.000000
0.004500 0.055000 0.000000
0.000500 0.053750 0.000000
0.001000 0.053750 0.000000
0.001500 0.053750 0.000000
0.002000 0.053750 0.000000
0.002500 0.053750 0.000000
0.003000 0.053750 0.000000
0.003500 0.053750 0.000000
0.004000 0.053750 0.000000
0.004500 0.053750 0.000000
0.000500 0.052500 0.000000
0.001000 0.052500 0.000000
0.001500 0.052500 0.000000
0.002000 0.052500 0.000000
0.002500 0.052500 0.000000
0.003000 0.052500 0.000000
0.003500 0.052500 0.000000
0.004000 0.052500 0.000000
0.004500 0.052500 0.000000
0.000500 0.051250 0.000000
0.001000 0.051250 0.000000
0.001500 0.051250 0.000000
0.002000 0.051250 0.000000
0.002500 0.051250 0.000000
0.003000 0.051250 0.000000
0.003500 0.051250 0.000000
0.004000 0.051250 0.000000
0.004500 0.051250 0.000000
0.000500 0.050000 0.000000
0.001000 0.050000 0.000000
0.001500 0.050000 0.000000
0.002000 0.050000 0.000000
0.002500 0.050000 0.000000
0.003000 0.050000 0.000000
0.003500 0.050000 0.000000
0.004000 0.050000 0.000000
0.004500 0.050000 0.000000
0.000500 0.048750 0.000000
0.001000 0.048750 0.000000
0.001500 0.048750 0.000000
0.002000 0.048750 0.000000
0.002500 0.048750 0.000000
0.003000 0.048750 0.000000
0.003500 0.048750 0.000000
0.004000 0.048750 0.000000
0.004500 0.048750 0.000000
0.000500 0.047500 0.000000
0.001000 0.047500 0.000000
0.001500 0.047500 0.000000
0.002000 0.047500 0.000000
0.002500 0.047500 0.000000
0.003000 0.047500 0.000000
0.003500 0.047500 0.000000
0.004000 0.047500 0.000000
0.004500 0.047500 0.000000
0.000500 0.046250 0.000000
0.001000 0.046250 0.000000
0.001500 0.046250 0.000000
0.002000 0.046250 0.000000
0.002500 0.046250 0.000000
0.003000 0.046250 0.000000
0.003500 0.046250 0.000000
0.004000 0.046250 0.000000
0.004500 0.046250 0.000000
0.000500 0.045000 0.000000
0.001000 0.045000 0.000000
0.001500 0.045000 0.000000
0.002000 0.045000 0.000000
0.002500 0.045000 0.000000
0.003000 0.045000 0.000000
0.003500 0.045000 0.000000
0.004000 0.045000 0.000000
0.004500 0.045000 0.000000
0.000500 0.043750 0.000000
0.001000 0.043750 0.000000
0.001500 0.043750 0.000000
0.002000 0.043750 0.000000
0.002500 0.043750 0.000000
0.003000 0.043750 0.000000
0.003500 0.043750 0.000000
0.004000 0.043750 0.000000
0.004500 0.043750 0.000000
0.000500 0.042500 0.000000
0.001000 0.042500 0.000000
0.001500 0.042500 0.000000
0.002000 0.042500 0.000000
0.002500 0.042500 0.000000
0.003000 0.042500 0.000000
0.003500 0.042500 0.000000
0.004000 0.042500 0.000000
0.004500 0.042500 0.000000
0.000500 0.041250 0.000000
0.001000 0.041250 0.000000
0.001500 0.041250 0.000000
0.002000 0.041250 0.000000
0.002500 0.041250 0.000000
0.003000 0.041250 0.000000
0.003500 0.041250 0.000000
0.004000 0.041250 0.000000
0.004500 0.041250 0.000000
0.000500 0.040000 0.000000
0.001000 0.040000 0.000000
0.001500 0.040000 0.000000
0.002000 0.040000 0.000000
0.002500 0.040000 0.000000
0.003000 0.040000 0.000000
0.003500 0.040000 0.000000
0.004000 0.040000 0.000000
0.004500 0.040000 0.000000
0.000500 0.038750 0.000000
0.001000 0.038750 0.000000
0.001500 0.038750 0.000000
0.002000 0.038750 0.000000
0.002500 0.038750 0.000000
0.003000 0.038750 0.000000
0.003500 0.038750 0.000000
0.004000 0.038750 0.000000
0.004500 0.038750 0.000000
0.000500 0.037500 0.000000
0.001000 0.037500 0.000000
0.001500 0.037500 0.000000
0.002000 0.037500 0.000000
0.002500 0.037500 0.000000
0.003000 0.037500 0.000000
0.003500 0.037500 0.000000
0.004000 0.037500 0.000000
0.004500 0.037500 0.000000
0.000500 0.036250 0.000000
0.001000 0.036250 0.000000
0.001500 0.036250 0.000000
0.002000 0.036250 0.000000
0.002500 0.036250 0.000000
0.003000 0.036250 0.000000
0.003500 0.036250 0.000000
0.004000 0.036250 0.000000
0.004500 0.036250 0.000000
0.000500 0.035000 0.000000
0.001000 0.035000 0.000000
0.001500 0.035000 0.000000
0.002000 0.035000 0.000000
0.002500 0.035000 0.000000
0.003000 0.035000 0.000000
0.003500 0.035000 0.000000
0.004000 0.035000 0.000000
0.004500 0.035000 0.000000
0.000500 0.033750 0.000000
0.001000 0.033750 0.000000
0.001500 0.033750 0.000000
0.002000 0.033750 0.000000
0.002500 0.033750 0.000000
0.003000 0.033750 0.000000
0.003500 0.033750 0.000000
0.004000 0.033750 0.000000
0.004500 0.033750 0.000000
0.000500 0.032500 0.000000
0.001000 0.032500 0.000000
0.001500 0.032500 0.000000
0.002000 0.032500 0.000000
0.002500 0.032500 0.000000
0.003000 0.032500 0.000000
0.003500 0.032500 0.000000
0.004000 0.032500 0.000000
0.004500 0.032500 0.000000
0.000500 0.031250 0.000000
0.001000 0.031250 0.000000
0.001500 0.031250 0.000000
0.002000 0.031250 0.000000
0.002500 0.031250 0.000000
0.003000 0.031250 0.000000
0.003500 0.031250 0.000000
0.004000 0.031250 0.000000
0.004500 0.031250 0.000000
0.000500 0.030000 0.000000
0.001000 0.030000 0.000000
0.001500 0.030000 0.000000
0.002000 0.030000 0.000000
0.002500 0.030000 0.000000
0.003000 0.030000 0.000000
0.003500 0.030000 0.000000
0.004000 0.030000 0.000000
0.004500 0.030000 0.000000
0.000500 0.028750 0.000000
0.001000 0.028750 0.000000
0.001500 0.028750 0.000000
0.002000 0.028750 0.000000
0.002500 0.028750 0.000000
0.003000 0.028750 0.000000
0.003500 0.028750 0.000000
0.004000 0.028750 0.000000
0.004500 0.028750 0.000000
0.000500 0.027500 0.000000
0.001000 0.027500 0.000000
0.001500 0.027500 0.000000
0.002000 0.027500 0.000000
0.002500 0.027500 0.000000
0.003000 0.027500 0.000000
0.003500 0.027500 0.000000
0.004000 0.027500 0.000000
0.004500 0.027500 0.000000
0.000500 0.026250 0.000000
0.001000 0.026250 0.000000
0.001500 0.026250 0.000000
0.002000 0.026250 0.000000
0.002500 0.026250 0.000000
0.003000 0.026250 0.000000
0.003500 0.026250 0.000000
0.004000 0.026250 0.000000
0.004500 0.026250 0.000000
0.000500 0.025000 0.000000
0.001000 0.025000 0.000000
0.001500 0.025000 0.000000
0.002000 0.025000 0.000000
0.002500 0.025000 0.000000
0.003000 0.025000 0.000000
0.003500 0.025000 0.000000
0.004000 0.025000 0.000000
0.004500 0.025000 0.000000
0.000500 0.023750 0.000000
0.001000 0.023750 0.000000
0.001500 0.023750 0.000000
0.002000 0.023750 0.000000
0.002500 0.023750 0.000000
0.003000 0.023750 0.000000
0.003500 0.023750 0.000000
0.004000 0.023750 0.000000
0.004500 0.023750 0.000000
0.000500 0.022500 0.000000
0.001000 0.022500 0.000000
0.001500 0.022500 0.000000
0.002000 0.022500 0.000000
0.002500 0.022500 0.000000
0.003000 0.022500 0.000000
0.003500 0.022500 0.000000
0.004000 0.022500 0.000000
0.004500 0.022500 0.000000
0.000500 0.021250 0.000000
0.001000 0.021250 0.000000
0.001500 0.021250 0.000000
0.002000 0.021250 0.000000
0.002500 0.021250 0.000000
0.003000 0.021250 0.000000
0.003500 0.021250 0.000000
0.004000 0.021250 0.000000
0.004500 0.021250 0.000000
0.000500 0.020000 0.000000
0.001000 0.020000 0.000000
0.001500 0.020000 0.000000
0.002000 0.020000 0.000000
0.002500 0.020000 0.000000
0.003000 0.020000 0.000000
0.003500 0.020000 0.000000
0.004000 0.020000 0.000000
0.004500 0.020000 0.000000
0.000500 0.018750 0.000000
0.001000 0.018750 0.000000
0.001500 0.018750 0.000000
0.002000 0.018750 0.000000
0.002500 0.018750 0.000000
0.003000 0.018750 0.000000
0.003500 0.018750 0.000000
0.004000 0.018750 0.000000
0.004500 0.018750 0.000000
0.000500 0.017500 0.000000
0.001000 0.017500 0.000000
0.001500 0.017500 0.000000
0.002000 0.017500 0.000000
0.002500 0.017500 0.000000
0.003000 0.017500 0.000000
0.003500 0.017500 0.000000
0.004000 0.017500 0.000000
0.004500 0.017500 0.000000
0.000500 0.016250 0.000000
0.001000 0.016250 0.000000
0.001500 0.016250 0.000000
0.002000 0.016250 0.000000
0.002500 0.016250 0.000000
0.003000 0.016250 0.000000
0.003500 0.016250 0.000000
0.004000 0.016250 0.000000
0.004500 0.016250 0.000000
0.000500 0.015000 0.000000
0.001000 0.015000 0.000000
0.001500 0.015000 0.000000
0.002000 0.015000 0.000000
0.002500 0.015000 0.000000
0.003000 0.015000 0.000000
0.003500 0.015000 0.000000
0.004000 0.015000 0.000000
0.004500 0.015000 0.000000
0.000500 0.013750 0.000000
0.001000 0.013750 0.000000
0.001500 0.013750 0.000000
0.002000 0.013750 0.000000
0.002500 0.013750 0.000000
0.003000 0.013750 0.000000
0.003500 0.013750 0.000000
0.004000 0.013750 0.000000
0.004500 0.013750 0.000000
0.000500 0.012500 0.000000
0.001000 0.012500 0.000000
0.001500 0.012500 0.000000
0.002000 0.012500 0.000000
0.002500 0.012500 0.000000
0.003000 0.012500 0.000000
0.003500 0.012500 0.000000
0.004000 0.012500 0.000000
0.004500 0.012500 0.000000
0.000500 0.011250 0.000000
0.001000 0.011250 0.000000
0.001500 0.011250 0.000000
0.002000 0.011250 0.000000
0.002500 0.011250 0.000000
0.003000 0.011250 0.000000
0.003500 0.011250 0.000000
0.004000 0.011250 0.000000
0.004500 0.011250 0.000000
0.000500 0.010000 0.000000
0.001000 0.010000 0.000000
0.001500 0.010000 0.000000
0.002000 0.010000 0.000000
0.002500 0.010000 0.000000
0.003000 0.010000 0.000000
0.003500 0.010000 0.000000
0.004000 0.010000 0.000000
0.004500 0.010000 0.000000
0.000500 0.008750 0.000000
0.001000 0.008750 0.000000
0.001500 0.008750 0.000000
0.002000 0.008750 0.000000
0.002500 0.008750 0.000000
0.003000 0.008750 0.000000
0.003500 0.008750 0.000000
0.004000 0.008750 0.000000
0.004500 0.008750 0.000000
0.000500 0.007500 0.000000
0.001000 0.007500 0.000000
0.001500 0.007500 0.000000
0.002000 0.007500 0.000000
0.002500 0.007500 0.000000
0.003000 0.007500 0.000000
0.003500 0.007500 0.000000
0.004000 0.007500 0.000000
0.004500 0.007500 0.000000
0.000500 0.006250 0.000000
0.001000 0.006250 0.000000
0.001500 0.006250 0.000000
0.002000 0.006250 0.000000
0.002500 0.006250 0.000000
0.003000 0.006250 0.000000
0.003500 0.006250 0.000000
0.004000 0.006250 0.000000
0.004500 0.006250 0.000000
0.000500 0.005000 0.000000
0.001000 0.005000 0.000000
0.001500 0.005000 0.000000
0.002000 0.005000 0.000000
0.002500 0.005000 0.000000
0.003000 0.005000 0.000000
0.003500 0.005000 0.000000
0.004000 0.005000 0.000000
0.004500 0.005000 0.000000
0.000500 0.003750 0.000000
0.001000 0.003750 0.000000
0.001500 0.003750 0.000000
0.002000 0.003750 0.000000
0.002500 0.003750 0.000000
0.003000 0.003750 0.000000
0.003500 0.003750 0.000000
0.004000 0.003750 0.000000
0.004500 0.003750 0.000000
0.000500 0.002500 0.000000
0.001000 0.002500 0.000000
0.001500 0.002500 0.000000
0.002000 0.002500 0.000000
0.002500 0.002500 0.000000
0.003000 0.002500 0.000000
0.003500 0.002500 0.000000
0.004000 0.002500 0.000000
0.004500 0.002500 0.000000
0.000500 0.001250 0.000000
0.001000 0.001250 0.000000
0.001500 0.001250 0.000000
0.002000 0.001250 0.000000
0.002500 0.001250 0.000000
0.003000 0.001250 0.000000
0.003500 0.001250 0.000000
0.004000 0.001250 0.000000
0.004500 0.001250 0.000000
CELLS 800 4000
4 82 83 180 179
4 179 180 181 178
4 178 181 182 177
4 177 182 183 176
4 176 183 184 175
4 175 184 185 174
4 174 185 186 173
4 173 186 187 172
4 172 187 188 171
4 171 188 80 0
4 83 84 189 180
4 180 189 190 181
4 181 190 191 182
4 182 191 192 183
4 183 192 193 184
4 184 193 194 185
4 185 194 195 186
4 186 195 196 187
4 187 196 197 188
4 188 197 79 80
4 84 85 198 189
4 189 198 199 190
4 190 199 200 191
4 191 200 201 192
4 192 201 202 193
4 193 202 203 194
4 194 203 204 195
4 195 204 205 196
4 196 205 206 197
4 197 206 78 79
4 85 86 207 198
4 198 207 208 199
4 199 208 209 200
4 200 209 210 201
4 201 210 211 202
4 202 211 212 203
4 203 212 213 204
4 204 213 214 205
4 205 214 215 206
4 206 215 77 78
4 86 87 216 207
4 207 216 217 208
4 208 217 218 209
4 209 218 219 210
4 210 219 220 211
4 211 220 221 212
4 212 221 222 213
4 213 222 223 214
4 214 223 224 215
4 215 224 76 77
4 87 88 225 216
4 216 225 226 217
4 217 226 227 218
4 218 227 228 219
4 219 228 229 220
4 220 229 230 221
4 221 230 231 222
4 222 231 232 223
4 223 232 233 224
4 224 233 75 76
4 88 89 234 225
4 225 234 235 226
4 226 235 236 227
4 227 236 237 228
4 228 237 238 229
4 229 238 239 230
4 230 239 240 231
4 231 240 241 232
4 232 241 242 233
4 233 242 74 75
4 89 90 243 234
4 234 243 244 235
4 235 244 245 236
4 236 245 246 237
4 237 246 247 238
4 238 247 248 239
4 239 248 249 240
4 240 249 250 241
4 241 250 251 242
4 242 251 73 74
4 90 91 252 243
4 243 252 253 244
4 244 253 254 245
4 245 254 255 246
4 246 255 256 247
4 247 256 257 248
4 248 257 258 249
4 249 258 259 250
4 250 259 260 251
4 251 260 72 73
4 91 92 261 252
4 252 261 262 253
4 253 262 263 254
4 254 263 264 255
4 255 264 265 256
4 256 265 266 257
4 257 266 267 258
4 258 267 268 259
4 259 268 269 260
4 260 269 71 72
4 92 93 270 261
4 261 270 271 262
4 262 271 272 263
4 263 272 273 264
4 264 273 274 265
4 265 274 275 266
4 266 275 276 267
4 267 276 277 268
4 268 277 278 269
4 269 278 70 71
4 93 94 279 270
4 270 279 280 271
4 271 280 281 272
4 272 281 282 273
4 273 282 283 274
4 274 283 284 275
4 275 284 285 276
4 276 285 286 277
4 277 286 287 278
4 278 287 69 70
4 94 95 288 279
4 279 288 289 280
4 280 289 290 281
4 281 290 291 282
4 282 291 292 283
4 283 292 293 284
4 284 293 294 285
4 285 294 295 286
4 286 295 296 287
4 287 296 68 69
4 95 96 297 288
4 288 297 298 289
4 289 298 299 290
4 290 299 300 291
4 291 300 301 292
4 292 301 302 293
4 293 302 303 294
4 294 303 304 295
4 295 304 305 296
4 296 305 67 68
4 96 97 306 297
4 297 306 307 298
4 298 307 308 299
4 299 308 309 300
4 300 309 310 301
4 301 310 311 302
4 302 311 312 303
4 303 312 313 304
4 304 313 314 305
4 305 314 66 67
4 97 98 315 306
4 306 315 316 307
4 307 316 317 308
4 308 317 318 309
4 309 318 319 310
4 310 319 320 311
4 311 320 321 312
4 312 321 322 313
4 313 322 323 314
4 314 323 65 66
4 98 99 324 315
4 315 324 325 316
4 316 325 326 317
4 317 326 327 318
4 318 327 328 319
4 319 328 329 320
4 320 329 330 321
4 321 330 331 322
4 322 331 332 323
4 323 332 64 65
4 99 100 333 324
4 324 333 334 325
4 325 334 335 326
4 326 335 336 327
4 327 336 337 328
4 328 337 338 329
4 329 338 339 330
4 330 339 340 331
4 331 340 341 332
4 332 341 63 64
4 100 101 342 333
4 333 342 343 334
4 334 343 344 335
4 335 344 345 336
4 336 345 346 337
4 337 346 347 338
4 338 347 348 339
4 339 348 349 340
4 340 349 350 341
4 341 350 62 63
4 101 102 351 342
4 342 351 352 343
4 343 352 353 344
4 344 353 354 345
4 345 354 355 346
4 346 355 356 347
4 347 356 357 348
4 348 357 358 349
4 349 358 359 350
4 350 359 61 62
4 102 103 360 351
4 351 360 361 352
4 352 361 362 353
4 353 362 363 354
4 354 363 364 355
4 355 364 365 356
4 356 365 366 357
4 357 366 367 358
4 358 367 368 359
4 359 368 60 61
4 103 104 369 360
4 360 369 370 361
4 361 370 371 362
4 362 371 372 363
4 363 372 373 364
4 364 373 374 365
4 365 374 375 366
4 366 375 376 367
4 367 376 377 368
4 368 377 59 60
4 104 105 378 369
4 369 378 379 370
4 370 379 380 371
4 371 380 381 372
4 372 381 382 373
4 373 382 383 374
4 374 383 384 375
4 375 384 385 376
4 376 385 386 377
4 377 386 58 59
4 105 106 387 378
4 378 387 388 379
4 379 388 389 380
4 380 389 390 381
4 381 390 391 382
4 382 391 392 383
4 383 392 393 384
4 384 393 394 385
4 385 394 395 386
4 386 395 57 58
4 106 107 396 387
4 387 396 397 388
4 388 397 398 389
4 389 398 399 390
4 390 399 400 391
4 391 400 401 392
4 392 401 402 393
4 393 402 403 394
4 394 403 404 395
4 395 404 56 57
4 107 108 405 396
4 396 405 406 397
4 397 406 407 398
4 398 407 408 399
4 399 408 409 400
4 400 409 410 401
4 401 410 411 402
4 402 411 412 403
4 403 412 413 404
4 404 413 55 56
4 108 109 414 405
4 405 414 415 406
4 406 415 416 407
4 407 416 417 408
4 408 417 418 409
4 409 418 419 410
4 410 419 420 411
4 411 420 421 412
4 412 421 422 413
4 413 422 54 55
4 109 110 423 414
4 414 423 424 415
4 415 424 425 416
4 416 425 426 417
4 417 426 427 418
4 418 427 428 419
4 419 428 429 420
4 420 429 430 421
4 421 430 431 422
4 422 431 53 54
4 110 111 432 423
4 423 432 433 424
4 424 433 434 425
4 425 434 435 426
4 426 435 436 427
4 427 436 437 428
4 428 437 438 429
4 429 438 439 430
4 430 439 440 431
4 431 440 52 53
4 111 112 441 432
4 432 441 442 433
4 433 442 443 434
4 434 443 444 435
4 435 444 445 436
4 436 445 446 437
4 437 446 447 438
4 438 447 448 439
4 439 448 449 440
4 440 449 51 52
4 112 113 450 441
4 441 450 451 442
4 442 451 452 443
4 443 452 453 444
4 444 453 454 445
4 445 454 455 446
4 446 455 456 447
4 447 456 457 448
4 448 457 458 449
4 449 458 50 51
4 113 114 459 450
4 450 459 460 451
4 451 460 461 452
4 452 461 462 453
4 453 462 463 454
4 454 463 464 455
4 455 464 465 456
4 456 465 466 457
4 457 466 467 458
4 458 467 49 50
4 114 115 468 459
4 459 468 469 460
4 460 469 470 461
4 461 470 471 462
4 462 471 472 463
4 463 472 473 464
4 464 473 474 465
4 465 474 475 466
4 466 475 476 467
4 467 476 48 49
4 115 116 477 468
4 468 477 478 469
4 469 478 479 470
4 470 479 480 471
4 471 480 481 472
4 472 481 482 473
4 473 482 483 474
4 474 483 484 475
4 475 484 485 476
4 476 485 47 48
4 116 117 486 477
4 477 486 487 478
4 478 487 488 479
4 479 488 489 480
4 480 489 490 481
4 481 490 491 482
4 482 491 492 483
4 483 492 493 484
4 484 493 494 485
4 485 494 46 47
4 117 118 495 486
4 486 495 496 487
4 487 496 497 488
4 488 497 498 489
4 489 498 499 490
4 490 499 500 491
4 491 500 501 492
4 492 501 502 493
4 493 502 503 494
4 494 503 45 46
4 118 119 504 495
4 495 504 505 496
4 496 505 506 497
4 497 506 507 498
4 498 507 508 499
4 499 508 509 500
4 500 509 510 501
4 501 510 511 502
4 502 511 512 503
4 503 512 44 45
4 119 120 513 504
4 504 513 514 505
4 505 514 515 506
4 506 515 516 507
4 507 516 517 508
4 508 517 518 509
4 509 518 519 510
4 510 519 520 511
4 511 520 521 512
4 512 521 43 44
4 120 121 522 513
4 513 522 523 514
4 514 523 524 515
4 515 524 525 516
4 516 525 526 517
4 517 526 527 518
4 518 527 528 519
4 519 528 529 520
4 520 529 530 521
4 521 530 42 43
4 121 122 531 522
4 522 531 532 523
4 523 532 533 524
4 524 533 534 525
4 525 534 535 526
4 526 535 536 527
4 527 536 537 528
4 528 537 538 529
4 529 538 539 530
4 530 539 41 42
4 122 123 540 531
4 531 540 541 532
4 532 541 542 533
4 533 542 543 534
4 534 543 544 535
4 535 544 545 536
4 536 545 546 537
4 537 546 547 538
4 538 547 548 539
4 539 548 40 41
4 123 124 549 540
4 540 549 550 541
4 541 550 551 542
4 542 551 552 543
4 543 552 553 544
4 544 553 554 545
4 545 554 555 546
4 546 555 556 547
4 547 556 557 548
4 548 557 39 40
4 124 125 558 549
4 549 558 559 550
4 550 559 560 551
4 551 560 561 552
4 552 561 562 553
4 553 562 563 554
4 554 563 564 555
4 555 564 565 556
4 556 565 566 557
4 557 566 38 39
4 125 126 567 558
4 558 567 568 559
4 559 568 569 560
4 560 569 570 561
4 561 570 571 562
4 562 571 572 563
4 563 572 573 564
4 564 573 574 565
4 565 574 575 566
4 566 575 37 38
4 126 127 576 567
4 567 576 577 568
4 568 577 578 569
4 569 578 579 570
4 570 579 580 571
4 571 580 581 572
4 572 581 582 573
4 573 582 583 574
4 574 583 584 575
4 575 584 36 37
4 127 128 585 576
4 576 585 586 577
4 577 586 587 578
4 578 587 588 579
4 579 588 589 580
4 580 589 590 581
4 581 590 591 582
4 582 591 592 583
4 583 592 593 584
4 584 593 35 36
4 128 129 594 585
4 585 594 595 586
4 586 595 596 587
4 587 596 597 588
4 588 597 598 589
4 589 598 599 590
4 590 599 600 591
4 591 600 601 592
4 592 601 602 593
4 593 602 34 35
4 129 130 603 594
4 594 603 604 595
4 595 604 605 596
4 596 605 606 597
4 597 606 607 598
4 598 607 608 599
4 599 608 609 600
4 600 609 610 601
4 601 610 611 602
4 602 611 33 34
4 130 131 612 603
4 603 612 613 604
4 604 613 614 605
4 605 614 615 606
4 606 615 616 607
4 607 616 617 608
4 608 617 618 609
4 609 618 619 610
4 610 619 620 611
4 611 620 32 33
4 131 132 621 612
4 612 621 622 613
4 613 622 623 614
4 614 623 624 615
4 615 624 625 616
4 616 625 626 617
4 617 626 627 618
4 618 627 628 619
4 619 628 629 620
4 620 629 31 32
4 132 133 630 621
4 621 630 631 622
4 622 631 632 623
4 623 632 633 624
4 624 633 634 625
4 625 634 635 626
4 626 635 636 627
4 627 636 637 628
4 628 637 638 629
4 629 638 30 31
4 133 134 639 630
4 630 639 640 631
4 631 640 641 632
4 632 641 642 633
4 633 642 643 634
4 634 643 644 635
4 635 644 645 636
4 636 645 646 637
4 637 646 647 638
4 638 647 29 30
4 134 135 648 639
4 639 648 649 640
4 640 649 650 641
4 641 650 651 642
4 642 651 652 643
4 643 652 653 644
4 644 653 654 645
4 645 654 655 646
4 646 655 656 647
4 647 656 28 29
4 135 136 657 648
4 648 657 658 649
4 649 658 659 650
4 650 659 660 651
4 651 660 661 652
4 652 661 662 653
4 653 662 663 654
4 654 663 664 655
4 655 664 665 656
4 656 665 27 28
4 136 137 666 657
4 657 666 667 658
4 658 667 668 659
4 659 668 669 660
4 660 669 670 661
4 661 670 671 662
4 662 671 672 663
4 663 672 673 664
4 664 673 674 665
4 665 674 26 27
4 137 138 675 666
4 666 675 676 667
4 667 676 677 668
4 668 677 678 669
4 669 678 679 670
4 670 679 680 671
4 671 680 681 672
4 672 681 682 673
4 673 682 683 674
4 674 683 25 26
4 138 139 684 675
4 675 684 685 676
4 676 685 686 677
4 677 686 687 678
4 678 687 688 679
4 679 688 689 680
4 680 689 690 681
4 681 690 691 682
4 682 691 692 683
4 683 692 24 25
4 139 140 693 684
4 684 693 694 685
4 685 694 695 686
4 686 695 696 687
4 687 696 697 688
4 688 697 698 689
4 689 698 699 690
4 690 699 700 691
4 691 700 701 692
4 692 701 23 24
4 140 141 702 693
4 693 702 703 694
4 694 703 704 695
4 695 704 705 696
4 696 705 706 697
4 697 706 707 698
4 698 707 708 699
4 699 708 709 700
4 700 709 710 701
4 701 710 22 23
4 141 142 711 702
4 702 711 712 703
4 703 712 713 704
4 704 713 714 705
4 705 714 715 706
4 706 715 716 707
4 707 716 717 708
4 708 717 718 709
4 709 718 719 710
4 710 719 21 22
4 142 143 720 711
4 711 720 721 712
4 712 721 722 713
4 713 722 723 714
4 714 723 724 715
4 715 724 725 716
4 716 725 726 717
4 717 726 727 718
4 718 727 728 719
4 719 728 20 21
4 143 144 729 720
4 720 729 730 721
4 721 730 731 722
4 722 731 732 723
4 723 732 733 724
4 724 733 734 725
4 725 734 735 726
4 726 735 736 727
4 727 736 737 728
4 728 737 19 20
4 144 145 738 729
4 729 738 739 730
4 730 739 740 731
4 731 740 741 732
4 732 741 742 733
4 733 742 743 734
4 734 743 744 735
4 735 744 745 736
4 736 745 746 737
4 737 746 18 19
4 145 146 747 738
4 738 747 748 739
4 739 748 749 740
4 740 749 750 741
4 741 750 751 742
4 742 751 752 743
4 743 752 753 744
4 744 753 754 745
4 745 754 755 746
4 746 755 17 18
4 146 147 756 747
4 747 756 757 748
4 748 757 758 749
4 749 758 759 750
4 750 759 760 751
4 751 760 761 752
4 752 761 762 753
4 753 762 763 754
4 754 763 764 755
4 755 764 16 17
4 147 148 765 756
4 756 765 766 757
4 757 766 767 758
4 758 767 768 759
4 759 768 769 760
4 760 769 770 761
4 761 770 771 762
4 762 771 772 763
4 763 772 773 764
4 764 773 15 16
4 148 149 774 765
4 765 774 775 766
4 766 775 776 767
4 767 776 777 768
4 768 777 778 769
4 769 778 779 770
4 770 779 780 771
4 771 780 781 772
4 772 781 782 773
4 773 782 14 15
4 149 150 783 774
4 774 783 784 775
4 775 784 785 776
4 776 785 786 777
4 777 786 787 778
4 778 787 788 779
4 779 788 789 780
4 780 789 790 781
4 781 790 791 782
4 782 791 13 14
4 150 151 792 783
4 783 792 793 784
4 784 793 794 785
4 785 794 795 786
4 786 795 796 787
4 787 796 797 788
4 788 797 798 789
4 789 798 799 790
4 790 799 800 791
4 791 800 12 13
4 151 152 801 792
4 792 801 802 793
4 793 802 803 794
4 794 803 804 795
4 795 804 805 796
4 796 805 806 797
4 797 806 807 798
4 798 807 808 799
4 799 808 809 800
4 800 809 11 12
4 152 153 810 801
4 801 810 811 802
4 802 811 812 803
4 803 812 813 804
4 804 813 814 805
4 805 814 815 806
4 806 815 816 807
4 807 816 817 808
4 808 817 818 809
4 809 818 10 11
4 153 154 819 810
4 810 819 820 811
4 811 820 821 812
4 812 821 822 813
4 813 822 823 814
4 814 823 824 815
4 815 824 825 816
4 816 825 826 817
4 817 826 827 818
4 818 827 9 10
4 154 155 828 819
4 819 828 829 820
4 820 829 830 821
4 821 830 831 822
4 822 831 832 823
4 823 832 833 824
4 824 833 834 825
4 825 834 835 826
4 826 835 836 827
4 827 836 8 9
4 155 156 837 828
4 828 837 838 829
4 829 838 839 830
4 830 839 840 831
4 831 840 841 832
4 832 841 842 833
4 833 842 843 834
4 834 843 844 835
4 835 844 845 836
4 836 845 7 8
4 156 157 846 837
4 837 846 847 838
4 838 847 848 839
4 839 848 849 840
4 840 849 850 841
4 841 850 851 842
4 842 851 852 843
4 843 852 853 844
4 844 853 854 845
4 845 854 6 7
4 157 158 855 846
4 846 855 856 847
4 847 856 857 848
4 848 857 858 849
4 849 858 859 850
4 850 859 860 851
4 851 860 861 852
4 852 861 862 853
4 853 862 863 854
4 854 863 5 6
4 158 159 864 855
4 855 864 865 856
4 856 865 866 857
4 857 866 867 858
4 858 867 868 859
4 859 868 869 860
4 860 869 870 861
4 861 870 871 862
4 862 871 872 863
4 863 872 4 5
4 159 160 873 864
4 864 873 874 865
4 865 874 875 866
4 866 875 876 867
4 867 876 877 868
4 868 877 878 869
4 869 878 879 870
4 870 879 880 871
4 871 880 881 872
4 872 881 3 4
4 160 161 882 873
4 873 882 883 874
4 874 883 884 875
4 875 884 885 876
4 876 885 886 877
4 877 886 887 878
4 878 887 888 879
4 879 888 889 880
4 880 889 890 881
4 881 890 2 3
4 161 81 162 882
4 882 162 163 883
4 883 163 164 884
4 884 164 165 885
4 885 165 166 886
4 886 166 167 887
4 887 167 168 888
4 888 168 169 889
4 889 169 170 890
4 890 170 1 2
CELL_TYPES 800
9
9
9
9
9
9
9
9
9
9
9
9
9
9
9
9
9
9
9
9
9
9
9
9
9
9
9
9
9
9
9
9
9
9
9
9
9
9
9
9
9
9
9
9
9
9
9
9
9
9
9
9
9
9
9
9
9
9
9
9
9
9
9
9
9
9
9
9
9
9
9
9
9
9
9
9
9
9
9
9
9
9
9
9
9
9
9
9
9
9
9
9
9
9
9
9
9
9
9
9
9
9
9
9
9
9
9
9
9
9
9
9
9
9
9
9
9
9
9
9
9
9
9
9
9
9
9
9
9
9
9
9
9
9
9
9
9
9
9
9
9
9
9
9
9
9
9
9
9
9
9
9
9
9
9
9
9
9
9
9
9
9
9
9
9
9
9
9
9
9
9
9
9
9
9
9
9
9
9
9
9
9
9
9
9
9
9
9
9
9
9
9
9
9
9
9
9
9
9
9
9
9
9
9
9
9
9
9
9
9
9
9
9
9
9
9
9
9
9
9
9
9
9
9
9
9
9
9
9
9
9
9
9
9
9
9
9
9
9
9
9
9
9
9
9
9
9
9
9
9
9
9
9
9
9
9
9
9
9
9
9
9
9
9
9
9
9
9
9
9
9
9
9
9
9
9
9
9
9
9
9
9
9
9
9
9
9
9
9
9
9
9
9
9
9
9
9
9
9
9
9
9
9
9
9
9
9
9
9
9
9
9
9
9
9
9
9
9
9
9
9
9
9
9
9
9
9
9
9
9
9
9
9
9
9
9
9
9
9
9
9
9
9
9
9
9
9
9
9
9
9
9
9
9
9
9
9
9
9
9
9
9
9
9
9
9
9
9
9
9
9
9
9
9
9
9
9
9
9
9
9
9
9
9
9
9
9
9
9
9
9
9
9
9
9
9
9
9
9
9
9
9
9
9
9
9
9
9
9
9
9
9
9
9
9
9
9
9
9
9
9
9
9
9
9
9
9
9
9
9
9
9
9
9
9
9
9
9
9
9
9
9
9
9
9
9
9
9
9
9
9
9
9
9
9
9
9
9
9
9
9
9
9
9
9
9
9
9
9
9
9
9
9
9
9
9
9
9
9
9
9
9
9
9
9
9
9
9
9
9
9
9
9
9
9
9
9
9
9
9
9
9
9
9
9
9
9
9
9
9
9
9
9
9
9
9
9
9
9
9
9
9
9
9
9
9
9
9
9
9
9
9
9
9
9
9
9
9
9
9
9
9
9
9
9
9
9
9
9
9
9
9
9
9
9
9
9
9
9
9
9
9
9
9
9
9
9
9
9
9
9
9
9
9
9
9
9
9
9
9
9
9
9
9
9
9
9
9
9
9
9
9
9
9
9
9
9
9
9
9
9
9
9
9
9
9
9
9
9
9
9
9
9
9
9
9
9
9
9
9
9
9
9
9
9
9
9
9
9
9
9
9
9
9
9
9
9
9
9
9
9
9
9
9
9
9
9
9
9
9
9
9
9
9
9
9
9
9
9
9
9
9
9
9
9
9
9
9
9
9
9
9
9
9
9
9
9
9
9
9
9
9
9
9
9
9
9
9
9
9
9
9
9
9
9
9
9
9
9
9
9
9
9
9
9
9
9
9
9
9
9
9
9
9
9
9
9
9
9
9
9
9
9
9
9
9
9
9
9
9
9
9
9
9
9
9
9
9
9
9
9
9
9
9
9
9
9
9
9
9
9
9
9
9
9
9
9
9
9
9
9
9
9
9
9
9
9
9
9
9
9
9
9
9
9
9
9
9
9
9
9
9
9
9
9
9
9
9
9
9
9
9
9
9
9
9
9
9
9
9
POINT_DATA 891
SCALARS u1 float
LOOKUP_TABLE default
2e-17
-4e-06
-4e-06
-4e-06
-4e-06
-4e-06
-4e-06
-4e-06
-4e-06
-4e-06
-4e-06
-4e-06
-4e-06
-4e-06
-4e-06
-4e-06
-4e-06
-4e-06
-4e-06
-4e-06
-4e-06
-4e-06
-4e-06
-4e-06
-4e-06
-4e-06
-4e-06
-4e-06
-4e-06
-4e-06
-4e-06
-4e-06
-4e-06
-4e-06
-4e-06
-4e-06
-4e-06
-4e-06
-4e-06
-4e-06
-4e-06
-4e-06
-4e-06
-4e-06
-4e-06
-4e-06
-4e-06
-4e-06
-4e-06
-4e-06
-4e-06
-4e-06
-4e-06
-4e-06
-4e-06
-4e-06
-4e-06
-4e-06
-4e-06
-4e-06
-4e-06
-4e-06
-4e-06
-4e-06
-4e-06
-4e-06
-4e-06
-4e-06
-4e-06
-4e-06
-4e-06
-4e-06
-4e-06
-4e-06
-4e-06
-4e-06
-4e-06
-4e-06
-4e-06
-4e-06
-3e-06
4e-06
-8e-16
3e-06
4e-06
4e-06
4e-06
4e-06
4e-06
4e-06
4e-06
4e-06
4e-06
4e-06
4e-06
4e-06
4e-06
4e-06
4e-06
4e-06
4e-06
4e-06
4e-06
4e-06
4e-06
4e-06
4e-06
4e-06
4e-06
4e-06
4e-06
4e-06
4e-06
4e-06
4e-06
4e-06
4e-06
4e-06
4e-06
4e-06
4e-06
4e-06
4e-06
4e-06
4e-06
4e-06
4e-06
4e-06
4e-06
4e-06
4e-06
4e-06
4e-06
4e-06
4e-06
4e-06
4e-06
4e-06
4e-06
4e-06
4e-06
4e-06
4e-06
4e-06
4e-06
4e-06
4e-06
4e-06
4e-06
4e-06
4e-06
4e-06
4e-06
4e-06
4e-06
4e-06
4e-06
4e-06
4e-06
4e-06
4e-06
4e-06
3e-06
3e-06
2e-06
8e-07
6e-14
-8e-07
-2e-06
-3e-06
-3e-06
-1e-15
6e-16
4e-16
-4e-16
-1e-16
-2e-15
1e-15
9e-16
8e-16
2e-06
2e-06
1e-06
5e-07
1e-14
-5e-07
-1e-06
-2e-06
-2e-06
3e-06
2e-06
2e-06
8e-07
4e-14
-8e-07
-2e-06
-2e-06
-3e-06
3e-06
3e-06
2e-06
9e-07
6e-14
-9e-07
-2e-06
-3e-06
-3e-06
3e-06
3e-06
2e-06
9e-07
6e-14
-9e-07
-2e-06
-3e-06
-3e-06
3e-06
3e-06
2e-06
9e-07
6e-14
-9e-07
-2e-06
-3e-06
-3e-06
3e-06
3e-06
2e-06
8e-07
6e-14
-8e-07
-2e-06
-3e-06
-3e-06
3e-06
3e-06
2e-06
8e-07
6e-14
-8e-07
-2e-06
-3e-06
-3e-06
3e-06
3e-06
2e-06
8e-07
6e-14
-8e-07
-2e-06
-3e-06
-3e-06
3e-06
3e-06
2e-06
8e-07
6e-14
-8e-07
-2e-06
-3e-06
-3e-06
3e-06
3e-06
2e-06
8e-07
6e-14
-8e-07
-2e-06
-3e-06
-3e-06
3e-06
3e-06
2e-06
8e-07
6e-14
-8e-07
-2e-06
-3e-06
-3e-06
3e-06
3e-06
2e-06
8e-07
6e-14
-8e-07
-2e-06
-3e-06
-3e-06
3e-06
3e-06
2e-06
8e-07
6e-14
-8e-07
-2e-06
-3e-06
-3e-06
3e-06
3e-06
2e-06
8e-07
6e-14
-8e-07
-2e-06
-3e-06
-3e-06
3e-06
3e-06
2e-06
8e-07
6e-14
-8e-07
-2e-06
-3e-06
-3e-06
3e-06
3e-06
2e-06
8e-07
6e-14
-8e-07
-2e-06
-3e-06
-3e-06
3e-06
3e-06
2e-06
8e-07
6e-14
-8e-07
-2e-06
-3e-06
-3e-06
3e-06
3e-06
2e-06
8e-07
6e-14
-8e-07
-2e-06
-3e-06
-3e-06
3e-06
3e-06
2e-06
8e-07
6e-14
-8e-07
-2e-06
-3e-06
-3e-06
3e-06
3e-06
2e-06
8e-07
6e-14
-8e-07
-2e-06
-3e-06
-3e-06
3e-06
3e-06
2e-06
8e-07
6e-14
-8e-07
-2e-06
-3e-06
-3e-06
3e-06
3e-06
2e-06
8e-07
6e-14
-8e-07
-2e-06
-3e-06
-3e-06
3e-06
3e-06
2e-06
8e-07
6e-14
-8e-07
-2e-06
-3e-06
-3e-06
3e-06
3e-06
2e-06
8e-07
6e-14
-8e-07
-2e-06
-3e-06
-3e-06
3e-06
3e-06
2e-06
8e-07
6e-14
-8e-07
-2e-06
-3e-06
-3e-06
3e-06
3e-06
2e-06
8e-07
6e-14
-8e-07
-2e-06
-3e-06
-3e-06
3e-06
3e-06
2e-06
8e-07
6e-14
-8e-07
-2e-06
-3e-06
-3e-06
3e-06
3e-06
2e-06
8e-07
6e-14
-8e-07
-2e-06
-3e-06
-3e-06
3e-06
3e-06
2e-06
8e-07
6e-14
-8e-07
-2e-06
-3e-06
-3e-06
3e-06
3e-06
2e-06
8e-07
6e-14
-8e-07
-2e-06
-3e-06
-3e-06
3e-06
3e-06
2e-06
8e-07
6e-14
-8e-07
-2e-06
-3e-06
-3e-06
3e-06
3e-06
2e-06
8e-07
6e-14
-8e-07
-2e-06
-3e-06
-3e-06
3e-06
3e-06
2e-06
8e-07
6e-14
-8e-07
-2e-06
-3e-06
-3e-06
3e-06
3e-06
2e-06
8e-07
6e-14
-8e-07
-2e-06
-3e-06
-3e-06
3e-06
3e-06
2e-06
8e-07
6e-14
-8e-07
-2e-06
-3e-06
-3e-06
3e-06
3e-06
2e-06
8e-07
6e-14
-8e-07
-2e-06
-3e-06
-3e-06
3e-06
3e-06
2e-06
8e-07
6e-14
-8e-07
-2e-06
-3e-06
-3e-06
3e-06
3e-06
2e-06
8e-07
6e-14
-8e-07
-2e-06
-3e-06
-3e-06
3e-06
3e-06
2e-06
8e-07
6e-14
-8e-07
-2e-06
-3e-06
-3e-06
3e-06
3e-06
2e-06
8e-07
6e-14
-8e-07
-2e-06
-3e-06
-3e-06
3e-06
3e-06
2e-06
8e-07
6e-14
-8e-07
-2e-06
-3e-06
-3e-06
3e-06
3e-06
2e-06
8e-07
6e-14
-8e-07
-2e-06
-3e-06
-3e-06
3e-06
3e-06
2e-06
8e-07
6e-14
-8e-07
-2e-06
-3e-06
-3e-06
3e-06
3e-06
2e-06
8e-07
6e-14
-8e-07
-2e-06
-3e-06
-3e-06
3e-06
3e-06
2e-06
8e-07
6e-14
-8e-07
-2e-06
-3e-06
-3e-06
3e-06
3e-06
2e-06
8e-07
6e-14
-8e-07
-2e-06
-3e-06
-3e-06
3e-06
3e-06
2e-06
8e-07
6e-14
-8e-07
-2e-06
-3e-06
-3e-06
3e-06
3e-06
2e-06
8e-07
6e-14
-8e-07
-2e-06
-3e-06
-3e-06
3e-06
3e-06
2e-06
8e-07
6e-14
-8e-07
-2e-06
-3e-06
-3e-06
3e-06
3e-06
2e-06
8e-07
6e-14
-8e-07
-2e-06
-3e-06
-3e-06
3e-06
3e-06
2e-06
8e-07
6e-14
-8e-07
-2e-06
-3e-06
-3e-06
3e-06
3e-06
2e-06
8e-07
6e-14
-8e-07
-2e-06
-3e-06
-3e-06
3e-06
3e-06
2e-06
8e-07
6e-14
-8e-07
-2e-06
-3e-06
-3e-06
3e-06
3e-06
2e-06
8e-07
6e-14
-8e-07
-2e-06
-3e-06
-3e-06
3e-06
3e-06
2e-06
8e-07
6e-14
-8e-07
-2e-06
-3e-06
-3e-06
3e-06
3e-06
2e-06
8e-07
6e-14
-8e-07
-2e-06
-3e-06
-3e-06
3e-06
3e-06
2e-06
8e-07
6e-14
-8e-07
-2e-06
-3e-06
-3e-06
3e-06
3e-06
2e-06
8e-07
6e-14
-8e-07
-2e-06
-3e-06
-3e-06
3e-06
3e-06
2e-06
8e-07
6e-14
-8e-07
-2e-06
-3e-06
-3e-06
3e-06
3e-06
2e-06
8e-07
6e-14
-8e-07
-2e-06
-3e-06
-3e-06
3e-06
3e-06
2e-06
8e-07
6e-14
-8e-07
-2e-06
-3e-06
-3e-06
3e-06
3e-06
2e-06
8e-07
6e-14
-8e-07
-2e-06
-3e-06
-3e-06
3e-06
3e-06
2e-06
8e-07
6e-14
-8e-07
-2e-06
-3e-06
-3e-06
3e-06
3e-06
2e-06
8e-07
6e-14
-8e-07
-2e-06
-3e-06
-3e-06
3e-06
3e-06
2e-06
8e-07
6e-14
-8e-07
-2e-06
-3e-06
-3e-06
3e-06
3e-06
2e-06
8e-07
6e-14
-8e-07
-2e-06
-3e-06
-3e-06
3e-06
3e-06
2e-06
8e-07
6e-14
-8e-07
-2e-06
-3e-06
-3e-06
3e-06
3e-06
2e-06
8e-07
6e-14
-8e-07
-2e-06
-3e-06
-3e-06
3e-06
3e-06
2e-06
8e-07
6e-14
-8e-07
-2e-06
-3e-06
-3e-06
3e-06
3e-06
2e-06
8e-07
6e-14
-8e-07
-2e-06
-3e-06
-3e-06
3e-06
3e-06
2e-06
8e-07
6e-14
-8e-07
-2e-06
-3e-06
-3e-06
3e-06
3e-06
2e-06
8e-07
6e-14
-8e-07
-2e-06
-3e-06
-3e-06
3e-06
3e-06
2e-06
8e-07
6e-14
-8e-07
-2e-06
-3e-06
-3e-06
3e-06
3e-06
2e-06
8e-07
6e-14
-8e-07
-2e-06
-3e-06
-3e-06
3e-06
3e-06
2e-06
8e-07
6e-14
-8e-07
-2e-06
-3e-06
-3e-06
3e-06
3e-06
2e-06
8e-07
6e-14
-8e-07
-2e-06
-3e-06
-3e-06
3e-06
3e-06
2e-06
8e-07
6e-14
-8e-07
-2e-06
-3e-06
-3e-06
3e-06
3e-06
2e-06
8e-07
6e-14
-8e-07
-2e-06
-3e-06
-3e-06
3e-06
3e-06
2e-06
8e-07
6e-14
-8e-07
-2e-06
-3e-06
-3e-06
SCALARS u2 float
LOOKUP_TABLE default
-2e-16
-0.0005
-0.0004
-0.0004
-0.0004
-0.0004
-0.0004
-0.0004
-0.0004
-0.0004
-0.0004
-0.0004
-0.0004
-0.0004
-0.0004
-0.0004
-0.0004
-0.0004
-0.0004
-0.0003
-0.0003
-0.0003
-0.0003
-0.0003
-0.0003
-0.0003
-0.0003
-0.0003
-0.0003
-0.0003
-0.0003
-0.0003
-0.0003
-0.0003
-0.0003
-0.0003
-0.0003
-0.0002
-0.0002
-0.0002
-0.0002
-0.0002
-0.0002
-0.0002
-0.0002
-0.0002
-0.0002
-0.0002
-0.0002
-0.0002
-0.0002
-0.0002
-0.0002
-0.0002
-0.0002
-0.0001
-0.0001
-0.0001
-0.0001
-0.0001
-0.0001
-0.0001
-0.0001
-0.0001
-0.0001
-9e-05
-8e-05
-8e-05
-7e-05
-7e-05
-6e-05
-6e-05
-5e-05
-4e-05
-4e-05
-3e-05
-3e-05
-2e-05
-2e-05
-1e-05
-6e-06
-0.0005
-2e-16
-6e-06
-1e-05
-2e-05
-2e-05
-3e-05
-3e-05
-4e-05
-4e-05
-5e-05
-6e-05
-6e-05
-7e-05
-7e-05
-8e-05
-8e-05
-9e-05
-0.0001
-0.0001
-0.0001
-0.0001
-0.0001
-0.0001
-0.0001
-0.0001
-0.0001
-0.0001
-0.0002
-0.0002
-0.0002
-0.0002
-0.0002
-0.0002
-0.0002
-0.0002
-0.0002
-0.0002
-0.0002
-0.0002
-0.0002
-0.0002
-0.0002
-0.0002
-0.0002
-0.0002
-0.0003
-0.0003
-0.0003
-0.0003
-0.0003
-0.0003
-0.0003
-0.0003
-0.0003
-0.0003
-0.0003
-0.0003
-0.0003
-0.0003
-0.0003
-0.0003
-0.0003
-0.0003
-0.0004
-0.0004
-0.0004
-0.0004
-0.0004
-0.0004
-0.0004
-0.0004
-0.0004
-0.0004
-0.0004
-0.0004
-0.0004
-0.0004
-0.0004
-0.0004
-0.0004
-0.0005
-0.0005
-0.0005
-0.0005
-0.0005
-0.0005
-0.0005
-0.0005
-0.0005
1e-15
2e-15
-4e-16
-2e-15
-1e-15
4e-16
-8e-16
1e-16
-1e-15
-5e-06
-5e-06
-5e-06
-5e-06
-5e-06
-5e-06
-5e-06
-5e-06
-5e-06
-1e-05
-1e-05
-1e-05
-1e-05
-1e-05
-1e-05
-1e-05
-1e-05
-1e-05
-2e-05
-2e-05
-2e-05
-2e-05
-2e-05
-2e-05
-2e-05
-2e-05
-2e-05
-2e-05
-2e-05
-2e-05
-2e-05
-2e-05
-2e-05
-2e-05
-2e-05
-2e-05
-3e-05
-3e-05
-3e-05
-3e-05
-3e-05
-3e-05
-3e-05
-3e-05
-3e-05
-3e-05
-3e-05
-3e-05
-3e-05
-3e-05
-3e-05
-3e-05
-3e-05
-3e-05
-4e-05
-4e-05
-4e-05
-4e-05
-4e-05
-4e-05
-4e-05
-4e-05
-4e-05
-4e-05
-4e-05
-4e-05
-4e-05
-4e-05
-4e-05
-4e-05
-4e-05
-4e-05
-5e-05
-5e-05
-5e-05
-5e-05
-5e-05
-5e-05
-5e-05
-5e-05
-5e-05
-6e-05
-6e-05
-6e-05
-6e-05
-6e-05
-6e-05
-6e-05
-6e-05
-6e-05
-6e-05
-6e-05
-6e-05
-6e-05
-6e-05
-6e-05
-6e-05
-6e-05
-6e-05
-7e-05
-7e-05
-7e-05
-7e-05
-7e-05
-7e-05
-7e-05
-7e-05
-7e-05
-7e-05
-7e-05
-7e-05
-7e-05
-7e-05
-7e-05
-7e-05
-7e-05
-7e-05
-8e-05
-8e-05
-8e-05
-8e-05
-8e-05
-8e-05
-8e-05
-8e-05
-8e-05
-8e-05
-8e-05
-8e-05
-8e-05
-8e-05
-8e-05
-8e-05
-8e-05
-8e-05
-9e-05
-9e-05
-9e-05
-9e-05
-9e-05
-9e-05
-9e-05
-9e-05
-9e-05
-0.0001
-0.0001
-0.0001
-0.0001
-0.0001
-0.0001
-0.0001
-0.0001
-0.0001
-0.0001
-0.0001
-0.0001
-0.0001
-0.0001
-0.0001
-0.0001
-0.0001
-0.0001
-0.0001
-0.0001
-0.0001
-0.0001
-0.0001
-0.0001
-0.0001
-0.0001
-0.0001
-0.0001
-0.0001
-0.0001
-0.0001
-0.0001
-0.0001
-0.0001
-0.0001
-0.0001
-0.0001
-0.0001
-0.0001
-0.0001
-0.0001
-0.0001
-0.0001
-0.0001
-0.0001
-0.0001
-0.0001
-0.0001
-0.0001
-0.0001
-0.0001
-0.0001
-0.0001
-0.0001
-0.0001
-0.0001
-0.0001
-0.0001
-0.0001
-0.0001
-0.0001
-0.0001
-0.0001
-0.0001
-0.0001
-0.0001
-0.0001
-0.0001
-0.0001
-0.0001
-0.0001
-0.0001
-0.0001
-0.0001
-0.0001
-0.0001
-0.0001
-0.0001
-0.0001
-0.0001
-0.0001
-0.0001
-0.0001
-0.0001
-0.0001
-0.0001
-0.0001
-0.0001
-0.0001
-0.0001
-0.0002
-0.0002
-0.0002
-0.0002
-0.0002
-0.0002
-0.0002
-0.0002
-0.0002
-0.0002
-0.0002
-0.0002
-0.0002
-0.0002
-0.0002
-0.0002
-0.0002
-0.0002
-0.0002
-0.0002
-0.0002
-0.0002
-0.0002
-0.0002
-0.0002
-0.0002
-0.0002
-0.0002
-0.0002
-0.0002
-0.0002
-0.0002
-0.0002
-0.0002
-0.0002
-0.0002
-0.0002
-0.0002
-0.0002
-0.0002
-0.0002
-0.0002
-0.0002
-0.0002
-0.0002
-0.0002
-0.0002
-0.0002
-0.0002
-0.0002
-0.0002
-0.0002
-0.0002
-0.0002
-0.0002
-0.0002
-0.0002
-0.0002
-0.0002
-0.0002
-0.0002
-0.0002
-0.0002
-0.0002
-0.0002
-0.0002
-0.0002
-0.0002
-0.0002
-0.0002
-0.0002
-0.0002
-0.0002
-0.0002
-0.0002
-0.0002
-0.0002
-0.0002
-0.0002
-0.0002
-0.0002
-0.0002
-0.0002
-0.0002
-0.0002
-0.0002
-0.0002
-0.0002
-0.0002
-0.0002
-0.0002
-0.0002
-0.0002
-0.0002
-0.0002
-0.0002
-0.0002
-0.0002
-0.0002
-0.0002
-0.0002
-0.0002
-0.0002
-0.0002
-0.0002
-0.0002
-0.0002
-0.0002
-0.0002
-0.0002
-0.0002
-0.0002
-0.0002
-0.0002
-0.0002
-0.0002
-0.0002
-0.0002
-0.0002
-0.0002
-0.0002
-0.0002
-0.0002
-0.0002
-0.0002
-0.0002
-0.0002
-0.0002
-0.0002
-0.0002
-0.0002
-0.0002
-0.0002
-0.0002
-0.0002
-0.0002
-0.0002
-0.0002
-0.0002
-0.0002
-0.0002
-0.0002
-0.0002
-0.0002
-0.0002
-0.0002
-0.0002
-0.0002
-0.0002
-0.0002
-0.0002
-0.0002
-0.0002
-0.0002
-0.0002
-0.0002
-0.0002
-0.0002
-0.0002
-0.0002
-0.0002
-0.0002
-0.0003
-0.0003
-0.0003
-0.0003
-0.0003
-0.0003
-0.0003
-0.0003
-0.0003
-0.0003
-0.0003
-0.0003
-0.0003
-0.0003
-0.0003
-0.0003
-0.0003
-0.0003
-0.0003
-0.0003
-0.0003
-0.0003
-0.0003
-0.0003
-0.0003
-0.0003
-0.0003
-0.0003
-0.0003
-0.0003
-0.0003
-0.0003
-0.0003
-0.0003
-0.0003
-0.0003
-0.0003
-0.0003
-0.0003
-0.0003
-0.0003
-0.0003
-0.0003
-0.0003
-0.0003
-0.0003
-0.0003
-0.0003
-0.0003
-0.0003
-0.0003
-0.0003
-0.0003
-0.0003
-0.0003
-0.0003
-0.0003
-0.0003
-0.0003
-0.0003
-0.0003
-0.0003
-0.0003
-0.0003
-0.0003
-0.0003
-0.0003
-0.0003
-0.0003
-0.0003
-0.0003
-0.0003
-0.0003
-0.0003
-0.0003
-0.0003
-0.0003
-0.0003
-0.0003
-0.0003
-0.0003
-0.0003
-0.0003
-0.0003
-0.0003
-0.0003
-0.0003
-0.0003
-0.0003
-0.0003
-0.0003
-0.0003
-0.0003
-0.0003
-0.0003
-0.0003
-0.0003
-0.0003
-0.0003
-0.0003
-0.0003
-0.0003
-0.0003
-0.0003
-0.0003
-0.0003
-0.0003
-0.0003
-0.0003
-0.0003
-0.0003
-0.0003
-0.0003
-0.0003
-0.0003
-0.0003
-0.0003
-0.0003
-0.0003
-0.0003
-0.0003
-0.0003
-0.0003
-0.0003
-0.0003
-0.0003
-0.0003
-0.0003
-0.0003
-0.0003
-0.0003
-0.0003
-0.0003
-0.0003
-0.0003
-0.0003
-0.0003
-0.0003
-0.0003
-0.0003
-0.0003
-0.0003
-0.0003
-0.0003
-0.0003
-0.0003
-0.0003
-0.0003
-0.0003
-0.0003
-0.0003
-0.0003
-0.0003
-0.0003
-0.0003
-0.0003
-0.0003
-0.0003
-0.0003
-0.0003
-0.0003
-0.0003
-0.0004
-0.0004
-0.0004
-0.0004
-0.0004
-0.0004
-0.0004
-0.0004
-0.0004
-0.0004
-0.0004
-0.0004
-0.0004
-0.0004
-0.0004
-0.0004
-0.0004
-0.0004
-0.0004
-0.0004
-0.0004
-0.0004
-0.0004
-0.0004
-0.0004
-0.0004
-0.0004
-0.0004
-0.0004
-0.0004
-0.0004
-0.0004
-0.0004
-0.0004
-0.0004
-0.0004
-0.0004
-0.0004
-0.0004
-0.0004
-0.0004
-0.0004
-0.0004
-0.0004
-0.0004
-0.0004
-0.0004
-0.0004
-0.0004
-0.0004
-0.0004
-0.0004
-0.0004
-0.0004
-0.0004
-0.0004
-0.0004
-0.0004
-0.0004
-0.0004
-0.0004
-0.0004
-0.0004
-0.0004
-0.0004
-0.0004
-0.0004
-0.0004
-0.0004
-0.0004
-0.0004
-0.0004
-0.0004
-0.0004
-0.0004
-0.0004
-0.0004
-0.0004
-0.0004
-0.0004
-0.0004
-0.0004
-0.0004
-0.0004
-0.0004
-0.0004
-0.0004
-0.0004
-0.0004
-0.0004
-0.0004
-0.0004
-0.0004
-0.0004
-0.0004
-0.0004
-0.0004
-0.0004
-0.0004
-0.0004
-0.0004
-0.0004
-0.0004
-0.0004
-0.0004
-0.0004
-0.0004
-0.0004
-0.0004
-0.0004
-0.0004
-0.0004
-0.0004
-0.0004
-0.0004
-0.0004
-0.0004
-0.0004
-0.0004
-0.0004
-0.0004
-0.0004
-0.0004
-0.0004
-0.0004
-0.0004
-0.0004
-0.0004
-0.0004
-0.0004
-0.0004
-0.0004
-0.0004
-0.0004
-0.0004
-0.0004
-0.0004
-0.0004
-0.0004
-0.0004
-0.0004
-0.0004
-0.0004
-0.0004
-0.0004
-0.0004
-0.0004
-0.0004
-0.0004
-0.0004
-0.0004
-0.0004
-0.0004
SCALARS strain_1 float
LOOKUP_TABLE default
-0.000302
-0.482643
-0.475347
-0.468015
-0.460647
-0.453246
-0.445812
-0.438351
-0.430862
-0.423344
-0.415804
-0.408241
-0.400659
-0.393057
-0.385442
-0.377813
-0.370173
-0.362525
-0.354871
-0.347214
-0.339557
-0.331902
-0.324251
-0.316610
-0.308979
-0.301361
-0.293763
-0.286184
-0.278629
-0.271100
-0.263601
-0.256139
-0.248711
-0.241326
-0.233984
-0.226689
-0.219447
-0.212258
-0.205128
-0.198063
-0.191060
-0.184131
-0.177273
-0.170492
-0.163793
-0.157177
-0.150649
-0.144216
-0.137875
-0.131634
-0.125494
-0.119462
-0.113537
-0.107725
-0.102031
-0.096454
-0.091000
-0.085669
-0.080468
-0.075396
-0.070457
-0.065654
-0.060988
-0.056463
-0.052079
-0.047838
-0.043744
-0.039796
-0.035995
-0.032345
-0.028844
-0.025494
-0.022297
-0.019251
-0.016356
-0.013613
-0.011022
-0.008580
-0.006289
-0.004148
-0.002151
-0.483073
-0.000010
-0.001866
-0.003865
-0.006015
-0.008312
-0.010758
-0.013358
-0.016109
-0.019011
-0.022062
-0.025269
-0.028628
-0.032136
-0.035793
-0.039604
-0.043562
-0.047667
-0.051914
-0.056309
-0.060845
-0.065521
-0.070335
-0.075284
-0.080365
-0.085579
-0.090919
-0.096385
-0.101972
-0.107678
-0.113500
-0.119436
-0.125480
-0.131631
-0.137885
-0.144235
-0.150681
-0.157220
-0.163847
-0.170557
-0.177350
-0.184219
-0.191161
-0.198172
-0.205249
-0.212390
-0.219589
-0.226842
-0.234148
-0.241501
-0.248898
-0.256335
-0.263809
-0.271318
-0.278856
-0.286419
-0.294008
-0.301616
-0.309242
-0.316882
-0.324533
-0.332192
-0.339857
-0.347523
-0.355188
-0.362850
-0.370506
-0.378154
-0.385789
-0.393415
-0.401023
-0.408612
-0.416182
-0.423728
-0.431251
-0.438748
-0.446215
-0.453654
-0.461061
-0.468434
-0.475773
-0.483033
-0.482993
-0.482951
-0.482910
-0.482865
-0.482822
-0.482779
-0.482733
-0.482689
-0.000244
-0.000193
-0.000148
-0.000110
-0.000078
-0.000051
-0.000032
-0.000019
-0.000012
-0.001866
-0.001872
-0.001884
-0.001903
-0.001928
-0.001960
-0.001998
-0.002042
-0.002095
-0.003866
-0.003871
-0.003883
-0.003902
-0.003926
-0.003958
-0.003995
-0.004040
-0.004089
-0.006013
-0.006017
-0.006029
-0.006046
-0.006071
-0.006103
-0.006139
-0.006181
-0.006233
-0.008310
-0.008314
-0.008325
-0.008342
-0.008365
-0.008395
-0.008432
-0.008476
-0.008523
-0.010755
-0.010760
-0.010770
-0.010785
-0.010808
-0.010838
-0.010875
-0.010917
-0.010966
-0.013354
-0.013358
-0.013365
-0.013383
-0.013403
-0.013432
-0.013469
-0.013510
-0.013558
-0.016102
-0.016104
-0.016114
-0.016128
-0.016151
-0.016179
-0.016214
-0.016254
-0.016303
-0.019004
-0.019007
-0.019015
-0.019028
-0.019049
-0.019075
-0.019111
-0.019149
-0.019197
-0.022058
-0.022059
-0.022066
-0.022080
-0.022099
-0.022125
-0.022159
-0.022198
-0.022246
-0.025265
-0.025262
-0.025268
-0.025282
-0.025301
-0.025328
-0.025359
-0.025398
-0.025444
-0.028620
-0.028620
-0.028625
-0.028637
-0.028655
-0.028680
-0.028710
-0.028751
-0.028794
-0.032128
-0.032126
-0.032131
-0.032141
-0.032160
-0.032184
-0.032215
-0.032251
-0.032297
-0.035786
-0.035783
-0.035788
-0.035797
-0.035815
-0.035839
-0.035868
-0.035904
-0.035947
-0.039595
-0.039591
-0.039594
-0.039604
-0.039620
-0.039643
-0.039671
-0.039707
-0.039748
-0.043552
-0.043547
-0.043549
-0.043557
-0.043573
-0.043594
-0.043621
-0.043656
-0.043696
-0.047655
-0.047650
-0.047651
-0.047659
-0.047673
-0.047695
-0.047719
-0.047753
-0.047792
-0.051903
-0.051899
-0.051897
-0.051905
-0.051919
-0.051938
-0.051963
-0.051996
-0.052034
-0.056297
-0.056290
-0.056289
-0.056297
-0.056307
-0.056325
-0.056351
-0.056382
-0.056420
-0.060832
-0.060825
-0.060823
-0.060828
-0.060838
-0.060857
-0.060880
-0.060909
-0.060946
-0.065506
-0.065498
-0.065496
-0.065502
-0.065511
-0.065528
-0.065549
-0.065579
-0.065614
-0.070319
-0.070312
-0.070308
-0.070311
-0.070321
-0.070336
-0.070357
-0.070384
-0.070417
-0.075268
-0.075259
-0.075256
-0.075257
-0.075266
-0.075280
-0.075300
-0.075326
-0.075359
-0.080351
-0.080338
-0.080334
-0.080335
-0.080343
-0.080357
-0.080376
-0.080402
-0.080432
-0.085561
-0.085550
-0.085545
-0.085545
-0.085553
-0.085563
-0.085581
-0.085604
-0.085635
-0.090901
-0.090889
-0.090883
-0.090884
-0.090890
-0.090899
-0.090916
-0.090938
-0.090966
-0.096367
-0.096353
-0.096347
-0.096345
-0.096349
-0.096358
-0.096375
-0.096394
-0.096422
-0.101954
-0.101941
-0.101932
-0.101930
-0.101933
-0.101942
-0.101955
-0.101975
-0.102001
-0.107660
-0.107644
-0.107636
-0.107632
-0.107633
-0.107641
-0.107655
-0.107672
-0.107697
-0.113481
-0.113466
-0.113456
-0.113452
-0.113454
-0.113460
-0.113470
-0.113488
-0.113510
-0.119416
-0.119400
-0.119389
-0.119383
-0.119384
-0.119389
-0.119397
-0.119413
-0.119435
-0.125458
-0.125441
-0.125429
-0.125423
-0.125424
-0.125427
-0.125437
-0.125450
-0.125471
-0.131609
-0.131590
-0.131578
-0.131571
-0.131569
-0.131571
-0.131578
-0.131591
-0.131610
-0.137859
-0.137842
-0.137828
-0.137820
-0.137817
-0.137819
-0.137825
-0.137835
-0.137853
-0.144211
-0.144192
-0.144178
-0.144168
-0.144164
-0.144163
-0.144168
-0.144181
-0.144196
-0.150657
-0.150637
-0.150622
-0.150612
-0.150607
-0.150606
-0.150609
-0.150618
-0.150631
-0.157196
-0.157174
-0.157158
-0.157148
-0.157139
-0.157139
-0.157142
-0.157148
-0.157161
-0.163819
-0.163800
-0.163782
-0.163771
-0.163763
-0.163759
-0.163761
-0.163768
-0.163777
-0.170530
-0.170509
-0.170492
-0.170478
-0.170470
-0.170465
-0.170465
-0.170471
-0.170478
-0.177321
-0.177299
-0.177281
-0.177269
-0.177256
-0.177250
-0.177250
-0.177253
-0.177262
-0.184190
-0.184168
-0.184147
-0.184134
-0.184123
-0.184116
-0.184114
-0.184115
-0.184121
-0.191133
-0.191109
-0.191088
-0.191073
-0.191062
-0.191053
-0.191049
-0.191049
-0.191052
-0.198144
-0.198119
-0.198098
-0.198080
-0.198069
-0.198059
-0.198054
-0.198053
-0.198056
-0.205222
-0.205196
-0.205175
-0.205157
-0.205143
-0.205132
-0.205126
-0.205123
-0.205124
-0.212361
-0.212335
-0.212312
-0.212294
-0.212279
-0.212267
-0.212260
-0.212256
-0.212255
-0.219561
-0.219532
-0.219510
-0.219491
-0.219473
-0.219462
-0.219453
-0.219447
-0.219445
-0.226813
-0.226786
-0.226762
-0.226741
-0.226725
-0.226709
-0.226700
-0.226694
-0.226689
-0.234118
-0.234089
-0.234066
-0.234042
-0.234025
-0.234010
-0.233999
-0.233991
-0.233986
-0.241468
-0.241441
-0.241417
-0.241393
-0.241374
-0.241358
-0.241345
-0.241336
-0.241329
-0.248864
-0.248836
-0.248809
-0.248787
-0.248767
-0.248751
-0.248734
-0.248726
-0.248717
-0.256303
-0.256273
-0.256246
-0.256221
-0.256202
-0.256181
-0.256168
-0.256155
-0.256145
-0.263775
-0.263745
-0.263717
-0.263693
-0.263672
-0.263653
-0.263636
-0.263621
-0.263611
-0.271284
-0.271253
-0.271225
-0.271198
-0.271176
-0.271157
-0.271138
-0.271124
-0.271110
-0.278821
-0.278789
-0.278761
-0.278735
-0.278713
-0.278690
-0.278671
-0.278654
-0.278640
-0.286384
-0.286353
-0.286325
-0.286298
-0.286273
-0.286250
-0.286229
-0.286212
-0.286198
-0.293973
-0.293940
-0.293910
-0.293883
-0.293857
-0.293834
-0.293813
-0.293793
-0.293777
-0.301582
-0.301548
-0.301518
-0.301490
-0.301464
-0.301440
-0.301417
-0.301397
-0.301378
-0.309209
-0.309174
-0.309142
-0.309113
-0.309086
-0.309060
-0.309037
-0.309016
-0.308996
-0.316847
-0.316814
-0.316782
-0.316750
-0.316724
-0.316697
-0.316672
-0.316649
-0.316629
-0.324499
-0.324465
-0.324431
-0.324401
-0.324371
-0.324344
-0.324319
-0.324294
-0.324273
-0.332156
-0.332121
-0.332088
-0.332057
-0.332027
-0.331999
-0.331971
-0.331947
-0.331923
-0.339820
-0.339784
-0.339751
-0.339718
-0.339686
-0.339659
-0.339631
-0.339606
-0.339580
-0.347485
-0.347450
-0.347416
-0.347384
-0.347351
-0.347322
-0.347293
-0.347264
-0.347239
-0.355152
-0.355115
-0.355080
-0.355047
-0.355014
-0.354982
-0.354954
-0.354924
-0.354897
-0.362813
-0.362776
-0.362740
-0.362707
-0.362674
-0.362641
-0.362610
-0.362582
-0.362553
-0.370468
-0.370430
-0.370397
-0.370360
-0.370328
-0.370294
-0.370262
-0.370233
-0.370204
-0.378115
-0.378078
-0.378042
-0.378008
-0.377971
-0.377940
-0.377906
-0.377874
-0.377844
-0.385753
-0.385715
-0.385679
-0.385641
-0.385609
-0.385572
-0.385540
-0.385506
-0.385475
-0.393375
-0.393338
-0.393301
-0.393265
-0.393227
-0.393192
-0.393158
-0.393123
-0.393090
-0.400983
-0.400945
-0.400908
-0.400870
-0.400833
-0.400797
-0.400762
-0.400727
-0.400693
-0.408574
-0.408535
-0.408495
-0.408457
-0.408422
-0.408384
-0.408348
-0.408312
-0.408277
-0.416141
-0.416103
-0.416064
-0.416026
-0.415989
-0.415952
-0.415913
-0.415877
-0.415840
-0.423688
-0.423650
-0.423611
-0.423571
-0.423534
-0.423495
-0.423457
-0.423419
-0.423382
-0.431212
-0.431172
-0.431133
-0.431094
-0.431054
-0.431016
-0.430976
-0.430938
-0.430898
-0.438706
-0.438669
-0.438630
-0.438589
-0.438548
-0.438509
-0.438470
-0.438431
-0.438392
-0.446176
-0.446137
-0.446096
-0.446055
-0.446016
-0.445976
-0.445935
-0.445893
-0.445855
-0.453614
-0.453574
-0.453536
-0.453493
-0.453453
-0.453412
-0.453370
-0.453330
-0.453288
-0.461020
-0.460982
-0.460939
-0.460898
-0.460857
-0.460816
-0.460774
-0.460731
-0.460689
-0.468393
-0.468354
-0.468312
-0.468271
-0.468230
-0.468186
-0.468144
-0.468102
-0.468058
-0.475732
-0.475692
-0.475650
-0.475608
-0.475565
-0.475524
-0.475480
-0.475435
-0.475391
SCALARS strain_2 float
LOOKUP_TABLE default
-0.001075
-0.003424
-0.003411
-0.003419
-0.003411
-0.003421
-0.003427
-0.003419
-0.003426
-0.003413
-0.003420
-0.003412
-0.003415
-0.003406
-0.003413
-0.003403
-0.003394
-0.003387
-0.003384
-0.003385
-0.003376
-0.003366
-0.003364
-0.003356
-0.003337
-0.003333
-0.003326
-0.003309
-0.003298
-0.003289
-0.003272
-0.003254
-0.003237
-0.003219
-0.003192
-0.003179
-0.003153
-0.003151
-0.003124
-0.003089
-0.003066
-0.003044
-0.003014
-0.002992
-0.002968
-0.002938
-0.002907
-0.002871
-0.002839
-0.002808
-0.002767
-0.002737
-0.002701
-0.002659
-0.002617
-0.002575
-0.002534
-0.002491
-0.002443
-0.002401
-0.002348
-0.002300
-0.002244
-0.002192
-0.002149
-0.002087
-0.002027
-0.001989
-0.001921
-0.001858
-0.001809
-0.001742
-0.001673
-0.001619
-0.001551
-0.001479
-0.001423
-0.001352
-0.001288
-0.001212
-0.001146
0.004626
0.004746
0.004750
0.004769
0.004769
0.004780
0.004783
0.004790
0.004806
0.004812
0.004813
0.004821
0.004829
0.004838
0.004846
0.004846
0.004854
0.004862
0.004862
0.004874
0.004879
0.004883
0.004885
0.004892
0.004892
0.004898
0.004905
0.004911
0.004908
0.004913
0.004910
0.004915
0.004915
0.004920
0.004916
0.004934
0.004921
0.004922
0.004918
0.004922
0.004922
0.004918
0.004927
0.004922
0.004921
0.004918
0.004909
0.004914
0.004912
0.004905
0.004907
0.004902
0.004898
0.004889
0.004885
0.004874
0.004878
0.004875
0.004852
0.004858
0.004850
0.004842
0.004827
0.004826
0.004818
0.004805
0.004796
0.004792
0.004775
0.004767
0.004766
0.004744
0.004741
0.004721
0.004711
0.004702
0.004691
0.004669
0.004658
0.004654
0.004630
0.003819
0.003018
0.002211
0.001405
0.000601
-0.000206
-0.001004
-0.001810
-0.002614
-0.000488
0.000095
0.000678
0.001266
0.001831
0.002422
0.003010
0.003593
0.004161
0.004154
0.003573
0.002982
0.002392
0.001808
0.001213
0.000624
0.000038
-0.000552
0.004166
0.003572
0.002970
0.002366
0.001780
0.001184
0.000581
-0.000016
-0.000617
0.004171
0.003563
0.002958
0.002348
0.001747
0.001132
0.000539
-0.000065
-0.000677
0.004167
0.003552
0.002942
0.002332
0.001720
0.001105
0.000483
-0.000120
-0.000740
0.004166
0.003540
0.002922
0.002303
0.001688
0.001069
0.000444
-0.000177
-0.000799
0.004175
0.003541
0.002907
0.002284
0.001650
0.001022
0.000396
-0.000235
-0.000855
0.004161
0.003527
0.002906
0.002267
0.001620
0.000990
0.000353
-0.000275
-0.000913
0.004174
0.003523
0.002869
0.002239
0.001599
0.000953
0.000313
-0.000325
-0.000965
0.004170
0.003513
0.002872
0.002213
0.001574
0.000916
0.000272
-0.000379
-0.001025
0.004157
0.003510
0.002857
0.002193
0.001543
0.000887
0.000230
-0.000425
-0.001089
0.004172
0.003494
0.002846
0.002174
0.001511
0.000851
0.000188
-0.000479
-0.001141
0.004168
0.003497
0.002825
0.002155
0.001495
0.000822
0.000147
-0.000521
-0.001183
0.004164
0.003487
0.002810
0.002144
0.001455
0.000783
0.000109
-0.000576
-0.001249
0.004167
0.003483
0.002809
0.002119
0.001431
0.000760
0.000069
-0.000609
-0.001293
0.004172
0.003478
0.002790
0.002095
0.001412
0.000714
0.000029
-0.000657
-0.001344
0.004166
0.003472
0.002774
0.002077
0.001389
0.000685
-0.000007
-0.000698
-0.001390
0.004163
0.003466
0.002768
0.002063
0.001369
0.000656
-0.000045
-0.000744
-0.001447
0.004165
0.003458
0.002757
0.002039
0.001327
0.000635
-0.000072
-0.000781
-0.001491
0.004159
0.003450
0.002734
0.002028
0.001316
0.000596
-0.000105
-0.000825
-0.001536
0.004163
0.003444
0.002726
0.002002
0.001288
0.000571
-0.000145
-0.000869
-0.001578
0.004161
0.003439
0.002719
0.001994
0.001270
0.000551
-0.000179
-0.000901
-0.001629
0.004165
0.003428
0.002710
0.001982
0.001247
0.000525
-0.000205
-0.000939
-0.001669
0.004162
0.003432
0.002689
0.001956
0.001231
0.000484
-0.000233
-0.000990
-0.001717
0.004159
0.003417
0.002680
0.001937
0.001208
0.000469
-0.000273
-0.001009
-0.001751
0.004161
0.003407
0.002665
0.001930
0.001192
0.000445
-0.000306
-0.001041
-0.001794
0.004158
0.003404
0.002659
0.001912
0.001162
0.000420
-0.000330
-0.001070
-0.001826
0.004162
0.003408
0.002662
0.001898
0.001144
0.000397
-0.000359
-0.001116
-0.001868
0.004152
0.003394
0.002635
0.001886
0.001122
0.000380
-0.000382
-0.001145
-0.001903
0.004150
0.003392
0.002623
0.001872
0.001115
0.000351
-0.000421
-0.001178
-0.001926
0.004155
0.003391
0.002619
0.001857
0.001096
0.000321
-0.000438
-0.001207
-0.001968
0.004145
0.003381
0.002617
0.001851
0.001076
0.000301
-0.000465
-0.001233
-0.002002
0.004144
0.003376
0.002611
0.001830
0.001052
0.000286
-0.000489
-0.001258
-0.002035
0.004145
0.003372
0.002588
0.001817
0.001048
0.000261
-0.000514
-0.001284
-0.002066
0.004141
0.003366
0.002585
0.001805
0.001025
0.000246
-0.000533
-0.001316
-0.002092
0.004137
0.003359
0.002576
0.001789
0.001012
0.000231
-0.000554
-0.001344
-0.002121
0.004142
0.003352
0.002562
0.001788
0.000987
0.000208
-0.000572
-0.001363
-0.002155
0.004137
0.003348
0.002558
0.001770
0.000991
0.000188
-0.000598
-0.001391
-0.002176
0.004143
0.003338
0.002556
0.001754
0.000972
0.000172
-0.000622
-0.001408
-0.002203
0.004127
0.003339
0.002544
0.001741
0.000950
0.000161
-0.000636
-0.001429
-0.002233
0.004128
0.003333
0.002533
0.001730
0.000941
0.000137
-0.000660
-0.001463
-0.002258
0.004124
0.003321
0.002518
0.001734
0.000924
0.000133
-0.000680
-0.001471
-0.002278
0.004121
0.003318
0.002516
0.001716
0.000908
0.000108
-0.000689
-0.001497
-0.002294
0.004118
0.003316
0.002514
0.001707
0.000901
0.000094
-0.000710
-0.001510
-0.002316
0.004105
0.003302
0.002500
0.001694
0.000893
0.000088
-0.000719
-0.001537
-0.002328
0.004107
0.003296
0.002496
0.001689
0.000877
0.000068
-0.000747
-0.001545
-0.002353
0.004102
0.003293
0.002488
0.001680
0.000866
0.000055
-0.000749
-0.001563
-0.002381
0.004092
0.003292
0.002478
0.001669
0.000860
0.000050
-0.000765
-0.001571
-0.002376
0.004096
0.003283
0.002468
0.001660
0.000849
0.000031
-0.000777
-0.001597
-0.002401
0.004100
0.003288
0.002464
0.001649
0.000831
0.000020
-0.000799
-0.001599
-0.002424
0.004081
0.003263
0.002452
0.001643
0.000829
0.000005
-0.000811
-0.001623
-0.002442
0.004083
0.003264
0.002450
0.001634
0.000817
0.000001
-0.000828
-0.001629
-0.002457
0.004066
0.003267
0.002445
0.001621
0.000811
-0.000007
-0.000825
-0.001650
-0.002460
0.004070
0.003256
0.002433
0.001612
0.000783
-0.000024
-0.000839
-0.001659
-0.002477
0.004051
0.003240
0.002428
0.001611
0.000789
-0.000034
-0.000857
-0.001666
-0.002482
0.004057
0.003245
0.002428
0.001597
0.000780
-0.000043
-0.000854
-0.001686
-0.002500
0.004056
0.003230
0.002407
0.001588
0.000771
-0.000047
-0.000870
-0.001688
-0.002506
0.004042
0.003229
0.002406
0.001587
0.000762
-0.000063
-0.000880
-0.001697
-0.002524
0.004043
0.003220
0.002401
0.001578
0.000755
-0.000068
-0.000894
-0.001703
-0.002523
0.004024
0.003208
0.002394
0.001568
0.000750
-0.000072
-0.000901
-0.001722
-0.002535
0.004016
0.003197
0.002369
0.001554
0.000742
-0.000088
-0.000893
-0.001721
-0.002545
0.004009
0.003183
0.002378
0.001545
0.000728
-0.000092
-0.000910
-0.001734
-0.002553
0.004017
0.003179
0.002360
0.001543
0.000720
-0.000091
-0.000924
-0.001742
-0.002557
0.003995
0.003170
0.002346
0.001530
0.000715
-0.000108
-0.000931
-0.001741
-0.002571
0.003993
0.003165
0.002352
0.001530
0.000710
-0.000109
-0.000938
-0.001761
-0.002577
0.003982
0.003163
0.002340
0.001517
0.000696
-0.000116
-0.000950
-0.001757
-0.002580
0.003973
0.003146
0.002333
0.001516
0.000703
-0.000133
-0.000943
-0.001765
-0.002585
0.003954
0.003140
0.002330
0.001510
0.000683
-0.000133
-0.000958
-0.001766
-0.002588
0.003964
0.003133
0.002316
0.001502
0.000681
-0.000138
-0.000951
-0.001778
-0.002592
0.003948
0.003131
0.002305
0.001493
0.000678
-0.000148
-0.000961
-0.001774
-0.002610
0.003933
0.003110
0.002295
0.001481
0.000662
-0.000147
-0.000968
-0.001777
-0.002597
0.003919
0.003114
0.002293
0.001475
0.000660
-0.000155
-0.000970
-0.001786
-0.002605
0.003904
0.003099
0.002281
0.001469
0.000645
-0.000166
-0.000980
-0.001789
-0.002605
0.003894
0.003092
0.002279
0.001463
0.000652
-0.000171
-0.000978
-0.001788
-0.002603
0.003896
0.003074
0.002267
0.001457
0.000641
-0.000179
-0.000975
-0.001794
-0.002613
0.003873
0.003076
0.002254
0.001443
0.000632
-0.000176
-0.000984
-0.001793
-0.002605
0.003861
0.003047
0.002242
0.001431
0.000635
-0.000173
-0.000989
-0.001804
-0.002602
0.003853
0.003048
0.002241
0.001432
0.000628
-0.000183
-0.000993
-0.001800
-0.002605
0.003843
0.003036
0.002221
0.001422
0.000620
-0.000195
-0.000998
-0.001809
-0.002615
0.003829
0.003028
0.002221
0.001419
0.000608
-0.000199
-0.000998
-0.001806
-0.002607
SCALARS strain_3 float
LOOKUP_TABLE default
0.002468
0.158274
0.156037
0.153792
0.151532
0.149250
0.146962
0.144672
0.142369
0.140045
0.137729
0.135393
0.133057
0.130705
0.128354
0.125987
0.123626
0.121255
0.118883
0.116504
0.114123
0.111743
0.109359
0.106970
0.104589
0.102211
0.099831
0.097463
0.095088
0.092725
0.090367
0.088020
0.085676
0.083345
0.081024
0.078709
0.076414
0.074132
0.071860
0.069608
0.067368
0.065151
0.062951
0.060771
0.058616
0.056475
0.054363
0.052271
0.050209
0.048177
0.046164
0.044180
0.042238
0.040322
0.038433
0.036583
0.034760
0.032980
0.031224
0.029521
0.027848
0.026207
0.024613
0.023055
0.021540
0.020072
0.018632
0.017250
0.015899
0.014602
0.013340
0.012125
0.010958
0.009831
0.008747
0.007714
0.006731
0.005787
0.004891
0.004043
0.003233
0.154177
-0.001288
-0.000559
0.000221
0.001036
0.001900
0.002821
0.003776
0.004783
0.005840
0.006930
0.008083
0.009268
0.010504
0.011783
0.013113
0.014478
0.015884
0.017347
0.018842
0.020381
0.021958
0.023582
0.025234
0.026930
0.028665
0.030446
0.032251
0.034097
0.035964
0.037878
0.039818
0.041788
0.043784
0.045818
0.047872
0.049959
0.052065
0.054197
0.056357
0.058531
0.060729
0.062950
0.065184
0.067442
0.069713
0.071995
0.074301
0.076612
0.078939
0.081269
0.083617
0.085973
0.088339
0.090707
0.093083
0.095457
0.097843
0.100237
0.102626
0.105013
0.107405
0.109799
0.112189
0.114574
0.116962
0.119337
0.121718
0.124091
0.126456
0.128813
0.131164
0.133512
0.135842
0.138172
0.140488
0.142801
0.145098
0.147380
0.149655
0.151919
0.154583
0.154993
0.155408
0.155816
0.156227
0.156640
0.157045
0.157455
0.157867
0.002089
0.001703
0.001326
0.000944
0.000563
0.000191
-0.000182
-0.000558
-0.000927
-0.000187
0.000179
0.000555
0.000933
0.001309
0.001688
0.002073
0.002462
0.002844
0.000588
0.000966
0.001342
0.001722
0.002101
0.002488
0.002874
0.003257
0.003644
0.001408
0.001793
0.002175
0.002559
0.002938
0.003327
0.003712
0.004104
0.004496
0.002284
0.002667
0.003053
0.003431
0.003819
0.004214
0.004604
0.004997
0.005393
0.003199
0.003583
0.003971
0.004361
0.004749
0.005141
0.005538
0.005931
0.006329
0.004161
0.004553
0.004942
0.005334
0.005727
0.006117
0.006514
0.006910
0.007312
0.005175
0.005564
0.005951
0.006342
0.006743
0.007146
0.007538
0.007943
0.008346
0.006226
0.006619
0.007011
0.007406
0.007806
0.008214
0.008611
0.009014
0.009424
0.007327
0.007720
0.008123
0.008520
0.008923
0.009325
0.009727
0.010135
0.010544
0.008474
0.008873
0.009270
0.009672
0.010080
0.010482
0.010888
0.011296
0.011712
0.009668
0.010065
0.010472
0.010871
0.011283
0.011687
0.012099
0.012514
0.012924
0.010902
0.011301
0.011713
0.012117
0.012522
0.012936
0.013352
0.013767
0.014179
0.012179
0.012595
0.013002
0.013406
0.013820
0.014229
0.014641
0.015062
0.015473
0.013519
0.013924
0.014329
0.014743
0.015154
0.015566
0.015984
0.016405
0.016824
0.014885
0.015294
0.015706
0.016121
0.016532
0.016948
0.017367
0.017789
0.018212
0.016295
0.016710
0.017118
0.017538
0.017957
0.018380
0.018794
0.019217
0.019647
0.017757
0.018171
0.018585
0.018997
0.019424
0.019846
0.020265
0.020689
0.021115
0.019253
0.019670
0.020088
0.020504
0.020931
0.021349
0.021771
0.022195
0.022628
0.020794
0.021209
0.021633
0.022052
0.022480
0.022899
0.023323
0.023752
0.024188
0.022376
0.022790
0.023219
0.023635
0.024062
0.024487
0.024911
0.025343
0.025775
0.023998
0.024413
0.024841
0.025265
0.025689
0.026120
0.026544
0.026978
0.027410
0.025660
0.026083
0.026501
0.026935
0.027359
0.027783
0.028218
0.028649
0.029079
0.027354
0.027781
0.028203
0.028631
0.029063
0.029493
0.029928
0.030357
0.030794
0.029097
0.029516
0.029945
0.030375
0.030803
0.031232
0.031666
0.032100
0.032545
0.030865
0.031295
0.031721
0.032148
0.032576
0.033016
0.033450
0.033886
0.034321
0.032677
0.033098
0.033526
0.033961
0.034395
0.034828
0.035259
0.035703
0.036136
0.034518
0.034945
0.035377
0.035807
0.036239
0.036678
0.037115
0.037556
0.037990
0.036393
0.036829
0.037254
0.037687
0.038126
0.038564
0.038997
0.039439
0.039873
0.038301
0.038736
0.039167
0.039602
0.040039
0.040471
0.040917
0.041359
0.041800
0.040242
0.040674
0.041111
0.041543
0.041984
0.042424
0.042857
0.043299
0.043744
0.042218
0.042652
0.043087
0.043523
0.043961
0.044389
0.044836
0.045276
0.045720
0.044217
0.044656
0.045085
0.045525
0.045961
0.046404
0.046839
0.047292
0.047724
0.046249
0.046682
0.047117
0.047558
0.047996
0.048438
0.048880
0.049324
0.049766
0.048310
0.048741
0.049181
0.049617
0.050062
0.050497
0.050935
0.051382
0.051829
0.050397
0.050827
0.051258
0.051704
0.052145
0.052583
0.053026
0.053475
0.053916
0.052501
0.052938
0.053377
0.053812
0.054247
0.054694
0.055141
0.055582
0.056025
0.054634
0.055067
0.055514
0.055949
0.056387
0.056833
0.057278
0.057721
0.058162
0.056794
0.057228
0.057663
0.058104
0.058547
0.058988
0.059432
0.059879
0.060326
0.058972
0.059407
0.059847
0.060283
0.060727
0.061170
0.061611
0.062056
0.062500
0.061173
0.061605
0.062045
0.062484
0.062926
0.063372
0.063818
0.064260
0.064705
0.063391
0.063826
0.064263
0.064698
0.065146
0.065588
0.066034
0.066477
0.066921
0.065625
0.066065
0.066497
0.066939
0.067385
0.067828
0.068270
0.068717
0.069157
0.067876
0.068315
0.068753
0.069197
0.069642
0.070080
0.070530
0.070967
0.071414
0.070149
0.070591
0.071028
0.071465
0.071909
0.072351
0.072793
0.073241
0.073682
0.072430
0.072871
0.073314
0.073752
0.074190
0.074633
0.075081
0.075522
0.075974
0.074732
0.075177
0.075609
0.076051
0.076498
0.076929
0.077382
0.077824
0.078268
0.077051
0.077483
0.077925
0.078370
0.078807
0.079247
0.079687
0.080134
0.080577
0.079377
0.079807
0.080250
0.080692
0.081132
0.081574
0.082017
0.082458
0.082903
0.081709
0.082146
0.082585
0.083024
0.083462
0.083909
0.084349
0.084793
0.085232
0.084057
0.084499
0.084931
0.085365
0.085812
0.086256
0.086688
0.087134
0.087573
0.086411
0.086853
0.087282
0.087723
0.088164
0.088606
0.089043
0.089487
0.089926
0.088771
0.089210
0.089649
0.090088
0.090525
0.090967
0.091411
0.091843
0.092283
0.091144
0.091579
0.092015
0.092453
0.092889
0.093330
0.093768
0.094208
0.094650
0.093520
0.093950
0.094390
0.094825
0.095263
0.095702
0.096142
0.096581
0.097022
0.095895
0.096327
0.096768
0.097204
0.097640
0.098078
0.098512
0.098959
0.099396
0.098275
0.098714
0.099153
0.099587
0.100025
0.100460
0.100897
0.101334
0.101771
0.100673
0.101097
0.101538
0.101969
0.102403
0.102844
0.103280
0.103718
0.104156
0.103055
0.103492
0.103923
0.104357
0.104796
0.105230
0.105667
0.106105
0.106540
0.105444
0.105877
0.106313
0.106743
0.107182
0.107613
0.108050
0.108489
0.108924
0.107837
0.108270
0.108702
0.109139
0.109568
0.110004
0.110438
0.110874
0.111305
0.110231
0.110657
0.111092
0.111519
0.111950
0.112386
0.112822
0.113252
0.113690
0.112615
0.113049
0.113480
0.113907
0.114338
0.114774
0.115205
0.115640
0.116069
0.115006
0.115430
0.115863
0.116296
0.116722
0.117155
0.117585
0.118015
0.118452
0.117383
0.117814
0.118243
0.118670
0.119102
0.119528
0.119962
0.120391
0.120821
0.119769
0.120188
0.120623
0.121048
0.121485
0.121905
0.122337
0.122769
0.123195
0.122145
0.122571
0.123001
0.123422
0.123854
0.124280
0.124706
0.125136
0.125563
0.124516
0.124943
0.125363
0.125793
0.126215
0.126640
0.127074
0.127496
0.127926
0.126875
0.127304
0.127732
0.128157
0.128577
0.129006
0.129431
0.129857
0.130288
0.129236
0.129664
0.130085
0.130508
0.130933
0.131357
0.131782
0.132208
0.132633
0.131588
0.132014
0.132436
0.132856
0.133280
0.133705
0.134124
0.134553
0.134972
0.133931
0.134353
0.134778
0.135197
0.135619
0.136040
0.136464
0.136890
0.137307
0.136267
0.136688
0.137108
0.137529
0.137952
0.138370
0.138790
0.139217
0.139630
0.138596
0.139011
0.139431
0.139850
0.140271
0.140694
0.141110
0.141529
0.141947
0.140911
0.141328
0.141749
0.142171
0.142588
0.143000
0.143415
0.143843
0.144253
0.143225
0.143634
0.144054
0.144463
0.144889
0.145302
0.145717
0.146136
0.146549
0.145516
0.145925
0.146344
0.146760
0.147176
0.147592
0.148009
0.148421
0.148836
0.147798
0.148214
0.148626
0.149044
0.149454
0.149875
0.150286
0.150701
0.151114
0.150075
0.150491
0.150903
0.151312
0.151724
0.152137
0.152552
0.152963
0.153375
0.152338
0.152748
0.153158
0.153572
0.153987
0.154395
0.154806
0.155213
0.155630
SCALARS stress_1 float
LOOKUP_TABLE default
-352549.758536
-130670503.554310
-128702386.731863
-126725565.909416
-124735433.086969
-122742228.264522
-120737759.442074
-118726378.619627
-116703733.797180
-114676480.974733
-112639756.152286
-110603543.329839
-108554274.507391
-106502957.684944
-104447544.862497
-102390084.040050
-100327247.217603
-98261338.395155
-96196709.572708
-94128240.750261
-92060539.927814
-89993095.105367
-87926418.282920
-85862813.460472
-83803560.638025
-81743795.815578
-79691710.993131
-77644746.170684
-75606229.348237
-73568224.525789
-71543787.703342
-69527542.880895
-67517954.058448
-65525773.236001
-63541784.413554
-61567779.591106
-59612462.768659
-57668921.946212
-55742789.123765
-53834320.301318
-51942235.478870
-50066534.656423
-48214385.833976
-46380413.011529
-44568456.189082
-42781075.366635
-41017246.544187
-39276201.721740
-37563828.899293
-35876288.076846
-34216139.254399
-32583382.431952
-30983905.609504
-29412588.787057
-27871479.964610
-26363651.142163
-24889870.319716
-23445529.497269
-22042404.674821
-20669999.852374
-19335739.029927
-18035270.207480
-16771409.385033
-15549020.562585
-14362471.740138
-13216114.917691
-12109182.095244
-11040905.272797
-10014868.450350
-9027999.627902
-8079018.805455
-7171509.983008
-6306497.160561
-5485516.338114
-4701143.515667
-3957218.693219
-3255533.870772
-2593785.048325
-1975300.225878
-1396495.403431
-854298.580984
-130296179.441291
482574.354483
-17382.467964
-555227.290411
-1139408.112858
-1759172.935306
-2421177.757753
-3121326.580200
-3867555.402647
-4651672.225094
-5475725.047541
-6345089.869989
-7251830.692436
-8200555.514883
-9194336.337330
-10227285.159777
-11294793.982224
-12408126.804672
-13560371.627119
-14748200.449566
-15978013.272013
-17242130.094460
-18550534.916907
-19890683.739355
-21267696.561802
-22678245.384249
-24126426.206696
-25604047.029143
-27120323.851591
-28666296.674038
-30245549.496485
-31853986.318932
-33490583.141379
-35159947.963826
-36852096.786274
-38573173.608721
-40318826.431168
-42091871.253615
-43888212.076062
-45709128.898509
-47546941.720957
-49407794.543404
-51290663.365851
-53189148.188298
-55108369.010745
-57041925.833192
-58993402.655640
-60959215.478087
-62937316.300534
-64930009.122981
-66933709.945428
-68945090.767876
-70969783.590323
-73003692.412770
-75046305.235217
-77096598.057664
-79149450.880111
-81208959.702559
-83273588.525006
-85343849.347453
-87416158.169900
-89486162.992347
-91561031.814794
-93638716.637242
-95709489.459689
-97784870.282136
-99859995.104583
-101928719.927030
-103992580.749477
-106057977.571925
-108113902.394372
-110168291.216819
-112215768.039266
-114253260.861713
-116287425.684161
-118315702.506608
-120335275.329055
-122344864.151502
-124349076.973949
-126340233.796396
-128320638.618844
-130333970.252593
-130368945.063895
-130411343.875197
-130451438.686499
-130484109.497800
-130523948.309102
-130561995.120404
-130598761.931706
-130629896.743008
-263046.947234
-174312.135932
-89417.324630
-2474.513329
80628.297973
164755.109275
246577.920577
325840.731879
405103.543181
-94853.279266
-173604.090568
-254146.901870
-335457.713172
-420352.524474
-504479.335776
-587838.147078
-676316.958380
-765563.769682
-635258.101713
-712728.913015
-794807.724317
-874838.535619
-957685.346921
-1042836.158223
-1128754.969525
-1218513.780827
-1304432.592129
-1214062.924160
-1291021.735462
-1372588.546764
-1454667.358066
-1538026.169368
-1621384.980670
-1708327.791972
-1797318.603274
-1885029.414576
-1835875.746607
-1912578.557909
-1995425.369211
-2075712.180513
-2159838.991815
-2241917.803117
-2328860.614419
-2417595.425721
-2504026.237023
-2498904.569055
-2575607.380357
-2656406.191659
-2735157.002960
-2819539.814262
-2902386.625564
-2989073.436866
-3079344.248168
-3166287.059470
-3197773.391502
-3278316.202804
-3356811.014106
-3438121.825408
-3523016.636710
-3605095.448012
-3690502.259314
-3778213.070615
-3867715.881917
-3942722.213949
-4019681.025251
-4101503.836553
-4181278.647855
-4265917.459157
-4347740.270459
-4435451.081761
-4521113.893063
-4611384.704365
-4726583.036396
-4807893.847698
-4884596.659000
-4967443.470302
-5049266.281604
-5130321.092906
-5217775.904208
-5305230.715510
-5392685.526812
-5554219.858843
-5628362.670145
-5709929.481447
-5793800.292749
-5874343.104051
-5957701.915353
-6041316.726655
-6130563.537957
-6216482.349259
-6421024.681291
-6499775.492592
-6577246.303894
-6655229.115196
-6740891.926498
-6823482.737800
-6908633.549102
-6995576.360404
-7084567.171706
-7329045.503738
-7407284.315040
-7485267.126342
-7567089.937644
-7645584.748945
-7730223.560247
-7815374.371549
-7897453.182851
-7989515.994153
-8278794.326185
-8354217.137487
-8433479.948789
-8512230.760091
-8596101.571393
-8679204.382695
-8762051.193997
-8850018.005299
-8937216.816600
-9269247.148632
-9343645.959934
-9425468.771236
-9503195.582538
-9583994.393840
-9665817.205142
-9749176.016444
-9836630.827746
-9923573.639048
-10298611.971079
-10377106.782381
-10452017.593683
-10532560.404985
-10617711.216287
-10695694.027589
-10779564.838891
-10865483.650193
-10953194.461495
-11369960.793526
-11447431.604828
-11524646.416130
-11602629.227432
-11684964.038734
-11766018.850036
-11850145.661338
-11935808.472640
-12022751.283942
-12483549.615974
-12556668.427276
-12633883.238577
-12714170.049879
-12793688.861181
-12874231.672483
-12957078.483785
-13041205.295087
-13129428.106389
-13632210.438421
-13709169.249723
-13784848.061025
-13863598.872327
-13944397.683629
-14025708.494930
-14107275.306232
-14191402.117534
-14275784.928836
-14823623.260868
-14896742.072170
-14974468.883472
-15050659.694774
-15132482.506076
-15213025.317378
-15295104.128680
-15376926.939982
-15459517.751284
-16052412.083315
-16123994.894617
-16202489.705919
-16276888.517221
-16356407.328523
-16439510.139825
-16520052.951127
-16599827.762429
-16687026.573731
-17317552.905762
-17391439.717064
-17466862.528366
-17543821.339668
-17621292.150970
-17702346.962272
-17781097.773574
-17867528.584876
-17947303.396178
-18622117.728209
-18693956.539511
-18770915.350813
-18845058.162115
-18922272.973417
-19002303.784719
-19082846.596021
-19165693.407323
-19249820.218625
-19962010.550657
-20034617.361959
-20107736.173261
-20185206.984562
-20263957.795864
-20341428.607166
-20421203.418468
-20503282.229770
-20584337.041072
-21337743.373104
-21408814.184406
-21483724.995708
-21560171.807010
-21635850.618312
-21712809.429614
-21793864.240915
-21875175.052217
-21958277.863519
-22748804.195551
-22820899.006853
-22896321.818155
-22969696.629457
-23045887.440759
-23122590.252061
-23202621.063363
-23283931.874665
-23367546.685967
-24195193.017998
-24268311.829300
-24340918.640602
-24414805.451904
-24491252.263206
-24566163.074508
-24644401.885810
-24725200.697112
-24805487.508414
-25673325.840445
-25746956.651747
-25821611.463049
-25891658.274351
-25968873.085653
-26046599.896955
-26122790.708257
-26201541.519559
-26281060.330861
-27190626.662892
-27261185.474194
-27331488.285496
-27405631.096798
-27478237.908100
-27555452.719402
-27631899.530704
-27710906.342006
-27790937.153308
-28734807.485340
-28805878.296642
-28875669.107944
-28948787.919246
-29024210.730547
-29098353.541849
-29177360.353151
-29253807.164453
-29331021.975755
-30311500.307787
-30381547.119089
-30450825.930391
-30528040.741693
-30597319.552995
-30672742.364297
-30748165.175599
-30823587.986900
-30903362.798202
-31918401.130234
-31989983.941536
-32062590.752838
-32130845.564140
-32203708.375442
-32278875.186744
-32353785.998046
-32429464.809348
-32506679.620650
-33558069.952681
-33628116.763983
-33696371.575285
-33766930.386587
-33840049.197889
-33911120.009191
-33983982.820493
-34064525.631795
-34137900.443097
-35223082.775128
-35294921.586430
-35359848.397732
-35430919.209034
-35502758.020336
-35574084.831638
-35648483.642940
-35723906.454242
-35797537.265544
-36919839.597576
-36983742.408877
-37055069.220179
-37123836.031481
-37193114.842783
-37263161.654085
-37338072.465387
-37411959.276689
-37488406.087991
-38639380.420023
-38704819.231325
-38770770.042627
-38844656.853929
-38910863.665230
-38983726.476532
-39054797.287834
-39129708.099136
-39202570.910438
-40384265.242470
-40452008.053772
-40519238.865074
-40586213.676376
-40655236.487678
-40723491.298980
-40797634.110282
-40869472.921584
-40941311.732885
-42157054.064917
-42222236.876219
-42285883.687521
-42356698.498823
-42424953.310125
-42494488.121427
-42562486.932729
-42634581.744031
-42706676.555333
-43954418.887364
-44017809.698666
-44081712.509968
-44149455.321270
-44217454.132572
-44283916.943874
-44353963.755176
-44425290.566478
-44497385.377780
-45767655.709811
-45831814.521113
-45896741.332415
-45967300.143717
-46032738.955019
-46099201.766321
-46168736.577623
-46239551.388925
-46307294.200227
-47610076.532259
-47673723.343561
-47737114.154862
-47802552.966164
-47870039.777466
-47933686.588768
-48006805.400070
-48072244.211372
-48142291.022674
-49468881.354706
-49534320.166008
-49594382.977310
-49662637.788612
-49726284.599914
-49793771.411215
-49858954.222517
-49929257.033819
-49995463.845121
-51350982.177153
-51411812.988455
-51477763.799757
-51540642.611059
-51603521.422361
-51667936.233663
-51737471.044965
-51804445.856267
-51871676.667569
-53250490.999600
-53311321.810902
-53372920.622204
-53437335.433506
-53502518.244808
-53563861.056110
-53632115.867412
-53698322.678714
-53766321.490016
-55168175.822047
-55227982.633349
-55289325.444651
-55350156.255953
-55415595.067255
-55477961.878557
-55544424.689859
-55609351.501161
-55675558.312463
-57103524.644494
-57161795.455796
-57222882.267098
-57285505.078400
-57345567.889702
-57409982.701004
-57473117.512306
-57537276.323608
-57603483.134910
-59052185.466942
-59111992.278244
-59171543.089546
-59231861.900847
-59294740.712149
-59356083.523451
-59419474.334753
-59483121.146055
-59544207.957357
-61014926.289389
-61075245.100691
-61133259.911993
-61194090.723295
-61254153.534597
-61314984.345899
-61380679.157200
-61441509.968502
-61505156.779804
-62993027.111836
-63052577.923138
-63109568.734440
-63170143.545742
-63232254.357044
-63290525.168346
-63352379.979648
-63415002.790950
-63479673.602252
-64986487.934283
-65044246.745585
-65101749.556887
-65160020.368189
-65217523.179491
-65279377.990793
-65340208.802095
-65400271.613397
-65463150.424699
-66987884.756730
-67046411.568032
-67102634.379334
-67161161.190636
-67217640.001938
-67275654.813240
-67337509.624542
-67399108.435844
-67462243.247146
-69003361.579177
-69059072.390479
-69114015.201781
-69171262.013083
-69230812.824385
-69289083.635687
-69348378.446989
-69406393.258291
-69466712.069593
-71026006.401625
-71080949.212927
-71138452.024229
-71193650.835531
-71252177.646832
-71307120.458134
-71365391.269436
-71425710.080738
-71484748.892040
-73059915.224072
-73113322.035374
-73167496.846676
-73226279.657978
-73280454.469280
-73337189.280582
-73393668.091884
-73455010.903186
-73512257.714487
-75100992.046519
-75154910.857821
-75209085.669123
-75263260.480425
-75317947.291727
-75373914.103029
-75432696.914331
-75488407.725633
-75546934.536935
-77147700.868966
-77201619.680268
-77255282.491570
-77308689.302872
-77362864.114174
-77420878.925476
-77475309.736778
-77532300.548080
-77588011.359382
-79204137.691413
-79253704.502715
-79311975.314017
-79363334.125319
-79416740.936621
-79472195.747923
-79525602.559225
-79583105.370527
-79634720.181829
-81262366.513861
-81313469.325162
-81366108.136464
-81419770.947766
-81472921.759068
-81526328.570370
-81579735.381672
-81635190.192974
-81690901.004276
-83325203.336308
-83378610.147610
-83428944.958912
-83481839.770214
-83534990.581515
-83587373.392817
-83640524.204119
-83694955.015421
-83749897.826723
-85394440.158755
-85445542.970057
-85497925.781359
-85547492.592661
-85601411.403963
-85649698.215265
-85706689.026567
-85758047.837869
-85808894.649170
-87465980.981202
-87514779.792504
-87567674.603806
-87616473.415108
-87667064.226410
-87717399.037712
-87771829.849014
-87823956.660316
-87877363.471618
-89538289.803649
-89585552.614951
-89635119.426253
-89687246.237555
-89737069.048857
-89788683.860159
-89837738.671461
-89888841.482763
-89941480.294065
-91611878.626096
-91659653.437398
-91712292.248700
-91761091.060002
-91809377.871304
-91858176.682606
-91909791.493908
-91960638.305210
-92012253.116512
-93685723.448544
-93735034.259846
-93784345.071147
-93831607.882449
-93880406.693751
-93930741.505053
-93978004.316355
-94028595.127657
-94079185.938959
-95757008.270991
-95808367.082293
-95855117.893595
-95907244.704897
-95950923.516199
-95998698.327501
-96050569.138802
-96097831.950104
-96148678.761406
-97832901.093438
-97882467.904740
-97927170.716042
-97972897.527344
-98023744.338646
-98071263.149948
-98118781.961250
-98162972.772552
-98213307.583854
-99903929.915885
-99950424.727187
-99996407.538489
-100042134.349791
-100090677.161093
-100137427.972395
-100185202.783697
-100232465.594999
-100279728.406301
-101972398.738332
-102018381.549634
-102066156.360936
-102114443.172238
-102156585.983540
-102203592.794842
-102248807.606144
-102297606.417446
-102343589.228748
-104039843.560779
-104082754.372081
-104130785.183383
-104175999.994685
-104222494.805987
-104266941.617289
-104309596.428591
-104358651.239893
-104401818.051195
-106100120.383227
-106144311.194529
-106189782.005830
-106232180.817132
-106280467.628434
-106324914.439736
-106367569.251038
-106413808.062340
-106459278.873642
-108158349.205674
-108202796.016976
-108245194.828278
-108290921.639580
-108336136.450882
-108376999.262184
-108424006.073485
-108466148.884787
-108511619.696089
-110210690.028121
-110252320.839423
-110297791.650725
-110341214.462027
-110385917.273329
-110427292.084631
-110471994.895933
-110514137.707235
-110557560.518537
-112256886.850568
-112297493.661870
-112344244.473172
-112386131.284474
-112426482.095776
-112470928.907078
-112514095.718380
-112555982.529682
-112599405.340984
-114298987.673015
-114340618.484317
-114382505.295619
-114424648.106921
-114467302.918223
-114510213.729525
-114551076.540827
-114593987.352129
-114634850.163431
-116328800.495462
-116372735.306764
-116414878.118066
-116455740.929368
-116497115.740670
-116539258.551972
-116579353.363274
-116624056.174576
-116662870.985878
-118357589.317910
-118396404.129212
-118438546.940514
-118478897.751816
-118522320.563117
-118563951.374419
-118603790.185721
-118645164.997023
-118682699.808325
-120378954.140357
-120417256.951659
-120457351.762961
-120498470.574263
-120539845.385565
-120580196.196867
-120618243.008169
-120660897.819470
-120697152.630772
-122385470.962804
-122428125.774106
-122465916.585408
-122504987.396710
-122545850.208012
-122584409.019314
-122625527.830616
-122664598.641918
-122703669.453220
-124385843.785251
-124429010.596553
-124466289.407855
-124505872.219157
-124543919.030459
-124582477.841761
-124623340.653063
-124661643.464365
-124699946.275667
-126379048.607698
-126418887.419000
-126458214.230302
-126496005.041604
-126533539.852906
-126572354.664208
-126611937.475510
-126649472.286812
-126687263.098114
-128361757.430146
-128401340.241447
-128438619.052749
-128478201.864051
-128515992.675353
-128554039.486655
-128590038.297957
-128628597.109259
-128662547.920561
SCALARS stress_2 float
LOOKUP_TABLE default
-77303.413542
-60839327.661761
-59928918.758659
-59014909.855556
-58094820.952453
-57171580.049350
-56243731.146248
-55311498.243145
-54376465.340042
-53437704.436940
-52495759.533837
-51551302.630734
-50603373.727631
-49653572.824529
-48701211.921426
-47747603.018323
-46791146.115220
-45834433.212118
-44877128.309015
-43918943.405912
-42959414.502809
-42002013.599707
-41043444.696604
-40086171.793501
-39131250.890398
-38176585.987296
-37223233.084193
-36273736.181090
-35325919.277987
-34382102.374885
-33440973.471782
-32504020.568679
-31571755.665576
-30644946.762474
-29722121.859371
-28805888.956268
-27895416.053165
-26992367.150063
-26096006.246960
-25207389.343857
-24326228.440755
-23455067.537652
-22591330.634549
-21736393.731446
-20892800.828344
-20060119.925241
-19236719.022138
-18425158.119035
-17624813.215933
-16837828.312830
-16063211.409727
-15300194.506624
-14551321.603522
-13816704.700419
-13096231.797316
-12389982.894213
-11700181.991111
-11024557.088008
-10364292.184905
-9720507.281802
-9092738.378700
-8483129.475597
-7890336.572494
-7312887.669391
-6753998.766289
-6213957.863186
-5691724.960083
-5186756.056981
-4701051.153878
-4233698.250775
-3783129.347672
-3352816.444570
-2941047.541467
-2548750.638364
-2174341.735261
-1818156.832159
-1482755.929056
-1164395.025953
-864994.122850
-584089.219748
-321328.316645
-59198058.834372
1356861.413847
1125812.510745
876315.607642
610002.704539
323561.801436
18208.898334
-305880.004769
-649456.907872
-1012249.810974
-1393586.714077
-1794315.617180
-2213492.520283
-2652797.423385
-3110326.326488
-3586463.229591
-4081704.132694
-4595345.035796
-5127737.938899
-5677906.842002
-6245659.745105
-6831988.648207
-7435021.551310
-8054566.454413
-8692479.357516
-9343496.260618
-10013873.163721
-10699162.066824
-11399042.969927
-12114875.873029
-12844868.776132
-13589133.679235
-14347110.582338
-15118591.485440
-15902088.388543
-16698641.291646
-17508090.194748
-18327955.097851
-19159004.000954
-20000756.904057
-20853357.807159
-21713254.710262
-22585215.613365
-23464808.516468
-24353137.419570
-25248058.322673
-26151955.225776
-27062860.128879
-27978485.031981
-28900589.935084
-29828614.838187
-30761967.741290
-31698552.644392
-32641681.547495
-33587258.450598
-34535907.353701
-35487772.256803
-36442261.159906
-37399646.063009
-38357238.966112
-39317615.869214
-40277784.772317
-41238881.675420
-42201242.578522
-43162275.481625
-44123612.384728
-45084053.287831
-46042846.190933
-47000279.094036
-47957103.997139
-48910856.900242
-49862785.803344
-50811658.706447
-51757763.609550
-52701180.512653
-53640165.415755
-54576670.318858
-55510087.221961
-56437664.125064
-57361913.028166
-58282897.931269
-59361449.717111
-59526808.599850
-59691015.482589
-59856646.365328
-60020437.248067
-60184068.130806
-60348787.013545
-60511617.896284
-60676144.779022
68871.469197
214870.351936
359557.234675
504564.117414
648195.000153
790673.882892
933632.765631
1075103.648370
1215758.531108
984597.628006
841734.745267
699143.862528
555272.979789
411482.097050
265355.214311
120812.331572
-26722.551167
-174321.433906
734156.724903
590269.842164
445790.959425
300784.076686
155441.193947
7506.311208
-138860.571531
-286235.454270
-435386.337009
465539.821800
319668.939061
174982.056322
28023.173583
-118679.709156
-267430.591895
-415589.474633
-565748.357372
-714979.240111
178074.918698
31916.035959
-115618.846780
-263393.729519
-411584.612258
-561631.494997
-710606.377736
-862221.260475
-1012316.143214
-128605.984405
-276860.867144
-424859.749883
-573834.632622
-723609.515361
-873720.398100
-1024615.280839
-1176518.163578
-1329109.046317
-453958.887508
-602165.770247
-752596.652986
-902371.535725
-1053282.418464
-1204785.301203
-1358464.183942
-1510399.066681
-1664909.949420
-798303.790611
-948350.673350
-1098765.556089
-1250988.438828
-1403403.321567
-1556106.204305
-1709801.087044
-1863623.969783
-2018998.852522
-1161768.693713
-1313495.576452
-1465670.459191
-1617301.341930
-1769844.224669
-1925043.107408
-2079393.990147
-2236240.872886
-2391439.755625
-1544929.596816
-1697520.479555
-1849167.362294
-2003758.245033
-2158685.127772
-2313612.010511
-2469114.893250
-2627033.775989
-2782568.658728
-1946554.499919
-2099961.382658
-2254424.265397
-2409143.148136
-2563366.030875
-2721748.913614
-2877907.796353
-3035618.679092
-3194321.561831
-2366963.403022
-2521362.285761
-2677009.168500
-2832832.051239
-2989278.933978
-3147501.816716
-3305596.699455
-3464347.582194
-3623130.464933
-2806828.306124
-2962875.188863
-3118826.071602
-3276152.954341
-3433607.837080
-3592646.719819
-3751061.602558
-3911124.485297
-4072211.368036
-3266197.209227
-3422692.091966
-3579874.974705
-3737649.857444
-3896416.740183
-4055967.622922
-4216222.505661
-4377037.388400
-4538364.271139
-3742510.112330
-3900700.995069
-4058907.877808
-4217882.760547
-4378233.643286
-4537864.526025
-4698743.408764
-4861638.291503
-5024245.174242
-4239207.015433
-4397445.898172
-4557204.780911
-4718355.663650
-4877762.546388
-5038817.429127
-5201024.311866
-5363855.194605
-5526974.077344
-4754111.918535
-4913470.801274
-5073373.684013
-5234636.566752
-5396475.449491
-5558218.332230
-5721561.214969
-5885208.097708
-6049654.980447
-5287032.821638
-5447095.704377
-5607670.587116
-5769813.469855
-5932292.352594
-6095667.235333
-6260178.118072
-6423297.000811
-6589599.883550
-5838609.724741
-5999248.607480
-6161295.490219
-6324046.372958
-6487213.255697
-6651276.138436
-6815659.021175
-6981097.903914
-7146904.786653
-6406746.627844
-6569001.510583
-6731416.393322
-6895175.276060
-7058662.158799
-7224565.041538
-7390131.924277
-7554866.807016
-7722385.689755
-6993011.530946
-7156242.413685
-7319393.296424
-7483920.179163
-7648687.061902
-7813869.944641
-7981148.827380
-8147595.710119
-8315194.592858
-7597420.434049
-7761195.316788
-7924778.199527
-8090297.082266
-8255207.965005
-8421654.847744
-8588629.730483
-8756148.613222
-8925075.495961
-8218229.337152
-8382580.219891
-8547123.102630
-8713441.985369
-8878960.868108
-9046767.750847
-9214430.633586
-9382685.516325
-9551644.399063
-8856542.240255
-9020637.122994
-9186684.005732
-9352618.888471
-9520489.771210
-9688776.653949
-9855831.536688
-10024278.419427
-10195045.302166
-9509879.143357
-9675798.026096
-9842164.908835
-10008403.791574
-10176034.674313
-10344657.557052
-10513600.439791
-10682863.322530
-10853390.205269
-10180096.046460
-10345662.929199
-10512861.811938
-10680412.694677
-10849339.577416
-11018618.460155
-11187321.342894
-11357688.225633
-11528823.108372
-10865448.949563
-11032551.832302
-11200054.715041
-11367589.597780
-11537124.480519
-11706899.363258
-11876994.245997
-12047697.128735
-12219376.011474
-11566289.852666
-11734336.735404
-11902143.618143
-12070990.500882
-12240573.383621
-12410204.266360
-12580523.149099
-12751898.031838
-12924280.914577
-12282186.755768
-12450585.638507
-12618584.521246
-12788535.403985
-12958934.286724
-13128725.169463
-13300148.052202
-13471522.934941
-13644001.817680
-13012851.658871
-13181394.541610
-13350385.424349
-13520224.307088
-13691279.189827
-13861982.072566
-14033708.955305
-14205755.838044
-14378090.720783
-13757468.561974
-13927483.444713
-14096266.327452
-14267097.210191
-14437800.092930
-14609062.975669
-14781557.858408
-14953188.741146
-15126275.623885
-14515781.465076
-14685860.347815
-14855507.230554
-15026434.113293
-15199040.996032
-15369583.878771
-15541918.761510
-15715037.644249
-15887884.526988
-15287806.368179
-15458189.250918
-15628716.133657
-15799451.016396
-15971385.899135
-16143080.781874
-16316359.664613
-16489958.547352
-16663637.430091
-16071895.271282
-16242006.154021
-16412949.036760
-16585235.919499
-16757458.802238
-16930001.684977
-17102688.567716
-17276143.450455
-17451038.333194
-16869040.174385
-17040575.057124
-17211373.939863
-17382876.822602
-17555067.705341
-17728314.588080
-17902537.470818
-18076600.353557
-18249591.236296
-17678217.077487
-17849847.960226
-18020710.842965
-18193365.725704
-18365556.608443
-18538899.491182
-18712978.373921
-18886913.256660
-19062320.139399
-18499105.980590
-18669824.863329
-18841999.746068
-19014494.628807
-19187005.511546
-19360972.394285
-19535995.277024
-19710378.159763
-19883945.042502
-19330938.883693
-19501481.766432
-19674296.649171
-19847143.531910
-20020838.414649
-20193909.297388
-20367780.180127
-20542755.062866
-20717873.945605
-20172851.786796
-20344258.669535
-20516529.552274
-20689376.435013
-20863343.317752
-21036910.200490
-21211341.083229
-21387003.965968
-21560938.848707
-21024444.689898
-21196859.572637
-21369882.455376
-21542457.338115
-21716808.220854
-21890215.103593
-22065349.986332
-22239556.869071
-22415139.751810
-21886693.593001
-22058724.475740
-22231571.358479
-22405218.241218
-22579905.123957
-22753744.006696
-22927790.889435
-23102685.772174
-23279484.654913
-22757390.496104
-22929373.378843
-23102364.261582
-23276715.144321
-23450858.027060
-23625304.909799
-23800263.792538
-23975414.675277
-24150837.558016
-23637319.399207
-23810374.281946
-23983413.164685
-24156948.047424
-24331618.930162
-24505569.812901
-24680992.695640
-24855647.578379
-25030814.461118
-24524704.302309
-24697407.185048
-24871390.067787
-25045276.950526
-25219947.833265
-25393946.716004
-25568633.598743
-25744776.481482
-25920167.364221
-25421369.205412
-25594520.088151
-25767590.970890
-25942261.853629
-26116292.736368
-26291091.619107
-26465618.501846
-26641313.384585
-26816576.267324
-26323826.108515
-26498224.991254
-26671087.873993
-26845646.756732
-27019805.639471
-27194172.522210
-27369467.404949
-27543946.287688
-27719929.170427
-27234939.011618
-27407897.894357
-27581912.777096
-27754599.659834
-27930422.542573
-28103749.425312
-28279076.308051
-28454755.190790
-28629938.073529
-28150931.914720
-28323602.797459
-28498257.680198
-28672112.562937
-28846287.445676
-29020606.328415
-29195629.211154
-29371244.093893
-29546794.976632
-29073500.817823
-29246827.700562
-29420202.583301
-29594841.466040
-29769320.348779
-29943207.231518
-30118198.114257
-30293268.996996
-30468451.879735
-30001813.720926
-30174884.603665
-30348307.486404
-30522514.369143
-30697633.251882
-30871616.134621
-31046527.017360
-31220397.900099
-31396012.782838
-30934478.624029
-31107533.506768
-31281324.389506
-31454571.272245
-31629850.154984
-31804233.037723
-31978407.920462
-32153542.803201
-32328597.685940
-31872807.527131
-32045702.409870
-32219413.292609
-32392708.175348
-32566947.058087
-32741313.940826
-32916560.823565
-33090095.706304
-33265326.589043
-32814576.430234
-32987039.312973
-33160638.195712
-33334445.078451
-33508155.961190
-33682618.843929
-33856969.726668
-34031768.609407
-34206327.492146
-33759657.333337
-33932264.216076
-34106055.098815
-34280117.981554
-34453316.864293
-34627027.747032
-34802514.629771
-34975921.512510
-35150016.395248
-34708194.236440
-34881761.119178
-35055024.001917
-35228014.884656
-35402173.767395
-35576476.650134
-35749723.532873
-35923610.415612
-36098281.298351
-35660395.139542
-35832890.022281
-36006808.905020
-36180295.787759
-36353334.670498
-36527093.553237
-36700356.435976
-36875539.318715
-37048610.201454
-36615204.042645
-36787634.925384
-36960481.808123
-37133616.690862
-37307199.573601
-37480190.456340
-37653789.339079
-37826892.221818
-38001307.104557
-37571836.945748
-37743899.828487
-37916298.711226
-38089961.593965
-38262520.476704
-38436247.359443
-38609206.242182
-38783173.124920
-38956964.007659
-38529397.848850
-38702468.731589
-38874387.614328
-39047474.497067
-39221473.379806
-39393072.262545
-39566927.145284
-39739438.028023
-39912028.910762
-39489294.751953
-39660989.634692
-39833852.517431
-40006683.400170
-40179002.282909
-40350985.165648
-40524360.048387
-40697654.931126
-40871013.813865
-40448823.655056
-40622694.537795
-40794261.420534
-40965764.303273
-41138115.186012
-41311170.068751
-41483120.951490
-41655855.834229
-41829374.716968
-41411744.558159
-41582015.440898
-41755070.323637
-41927053.206376
-42098620.089115
-42271130.971854
-42443289.854592
-42615848.737331
-42787399.620070
-42372681.461261
-42543736.344000
-42715959.226739
-42886806.109478
-43059076.992217
-43230691.874956
-43402626.757695
-43574913.640434
-43745728.523173
-43334210.364364
-43504977.247103
-43675760.129842
-43848463.012581
-44018637.895320
-44190252.778059
-44362427.660798
-44533418.543537
-44705273.426276
-44294875.267467
-44465834.150206
-44635897.032945
-44806855.915684
-44978822.798423
-45149301.681162
-45321060.563901
-45492931.446640
-45663506.329379
-45253412.170570
-45425267.053309
-45596129.936048
-45766176.818787
-45936143.701526
-46107966.584264
-46278621.467003
-46450060.349742
-46619835.232481
-46213533.073672
-46383067.956411
-46554122.839150
-46724377.721889
-46894408.604628
-47065207.487367
-47236246.370106
-47406405.252845
-47576724.135584
-47170821.976775
-47340484.859514
-47510851.742253
-47681202.624992
-47850897.507731
-48020080.390470
-48191279.273209
-48360862.155948
-48530781.038687
-48126062.879878
-48296765.762617
-48466172.645356
-48635771.528095
-48804298.410834
-48974521.293573
-49144360.176312
-49314423.059051
-49484069.941790
-49079735.782981
-49249350.665720
-49418789.548459
-49587636.431198
-49757075.313936
-49926434.196675
-50095313.079414
-50265583.962153
-50434190.844892
-50032160.686083
-50200111.568822
-50368958.451561
-50538589.334300
-50707180.217039
-50876427.099778
-51044649.982517
-51214360.865256
-51382759.747995
-50980185.589186
-51148824.471925
-51317431.354664
-51485462.237403
-51654149.120142
-51822116.002881
-51991746.885620
-52159281.768359
-52327776.651098
-51925154.492289
-52094673.375028
-52262800.257767
-52430127.140506
-52598590.023245
-52766444.905984
-52935259.788723
-53102778.671462
-53270025.554201
-52868619.395392
-53036874.278131
-53203593.160870
-53372200.043608
-53540150.926347
-53707653.809086
-53874564.691825
-54042739.574564
-54209938.457303
-53808724.298494
-53975891.181233
-54142834.063972
-54310464.946711
-54477071.829450
-54644142.712189
-54811949.594928
-54978828.477667
-55145035.360406
-54744717.201597
-54912140.084336
-55078650.967075
-55244393.849814
-55411000.732553
-55578551.615292
-55745382.498031
-55911845.380770
-56077812.263509
-55675910.104700
-55843332.987439
-56009155.870178
-56175842.752917
-56342449.635656
-56507776.518395
-56673775.401134
-56840366.283873
-57005197.166612
-56603775.007803
-56770509.890542
-56936572.773280
-57102843.656019
-57267994.538758
-57434089.421497
-57599720.304236
-57765255.186975
-57930790.069714
-57528279.910905
-57693574.793644
-57858997.676383
-58024772.559122
-58190339.441861
-58354450.324600
-58519729.207339
-58684752.090078
-58850094.972817
-58447536.814008
-58612479.696747
-58777246.579486
-58941917.462225
-59107484.344964
-59272283.227703
-59437482.110442
-59601160.993181
-59765367.875920
SCALARS stress_3 float
LOOKUP_TABLE default
373775.181465
30086664.411238
29658603.695866
29227854.980494
28794162.265122
28358037.549750
27918712.834377
27480284.119005
27039423.403633
26591266.688261
26145925.972889
25698793.257517
25250252.542144
24797615.826772
24344595.111400
23891574.396028
23434073.680656
22982588.965284
22523808.249911
22064259.534539
21610086.819167
21152202.103795
20693805.388423
20237840.673051
19775347.957678
19317463.242306
18861882.526934
18404509.811562
17949825.096190
17495908.380818
17042247.665446
16592298.950073
16142350.234701
15695729.519329
15249364.803957
14803384.088585
14361371.373213
13925630.657840
13489121.942468
13058501.227096
12630056.511724
12202763.796352
11780975.080980
11363666.365607
10951477.650235
10543512.934863
10138236.219491
9737823.504119
9347266.788747
8957606.073374
8574857.358002
8195436.642630
7825103.927258
7462579.211886
7102742.496514
6753145.781142
6404317.065769
6064320.350397
5733539.635025
5412486.919653
5091946.204281
4786125.488909
4483376.773536
4191508.058164
3907575.342792
3625434.627420
3360957.912048
3102369.196676
2849412.481303
2604007.765931
2370891.050559
2144430.335187
1924625.619815
1717492.904443
1519320.189070
1330491.473698
1147294.758326
976642.042954
811365.327582
657736.612210
512555.896837
30159559.873616
-234673.356156
-94868.640784
54792.074588
214052.789960
385089.505332
558046.220704
742138.936077
940951.651449
1146804.366821
1357905.082193
1583597.797565
1815562.512937
2055719.228310
2305091.943682
2566880.659054
2835325.374426
3108122.089798
3396534.805170
3687763.520542
3986672.235915
4299148.951287
4615081.666659
4942150.382031
5276387.097403
5617279.812775
5965084.528148
6322233.243520
6681813.958892
7052914.674264
7427983.389636
7808684.105008
8196296.820381
8589925.535753
8988802.251125
9393438.966497
9802043.681869
10217560.397241
10635253.112614
11059345.827986
11490606.543358
11919947.258730
12357735.974102
12796420.689474
13240865.404847
13685182.120219
14133978.835591
14587127.550963
15043860.266335
15496624.981707
15955661.697079
16415594.412452
16877191.127824
17340707.843196
17806016.558568
18272605.273940
18738297.989312
19203990.704685
19670323.420057
20138448.135429
20604780.850801
21073161.566173
21538086.281545
22007234.996918
22471903.712290
22937596.427662
23402137.143034
23865013.858406
24324434.573778
24787055.289151
25246604.004523
25702824.719895
26158533.435267
26613730.150639
27064062.866011
27515035.581384
27965496.296756
28409557.012128
28850929.727500
29290894.442872
29726123.158244
30157070.327379
30145492.781141
30139035.234903
30134753.688665
30129064.142427
30118382.596190
30111797.049952
30102395.503714
30097345.957476
313672.727703
249474.273941
190139.820179
130421.366417
72494.912654
9192.458892
-49885.994870
-112036.448632
-174186.902394
-35534.187022
27512.266740
89406.720502
150149.174264
203979.628027
269074.081789
327256.535551
393118.989313
449253.443075
114638.528350
178324.982112
234843.435874
294177.889637
356072.343399
415790.797161
474101.250923
536379.704685
595202.158447
274411.243722
332337.697484
395384.151247
453438.605009
512773.058771
573899.512533
633873.966295
690904.420057
753054.873820
442631.959094
502734.412857
560532.866619
617691.320381
680609.774143
737384.227905
799406.681667
855285.135430
916027.589192
618532.674467
674155.128229
733105.581991
791416.035753
853950.489515
910212.943277
969803.397040
1028881.850802
1088728.304564
802497.389839
860807.843601
921934.297363
977684.751125
1036763.204887
1093537.658650
1153512.112412
1211310.566174
1269109.019936
997342.105211
1053732.558973
1113963.012735
1172017.466497
1228663.920260
1288638.374022
1344644.827784
1405515.281546
1459601.735308
1201914.820583
1263937.274345
1314695.728107
1373006.181870
1428756.635632
1488859.089394
1546913.543156
1602023.996918
1660590.450680
1417879.535955
1474269.989717
1530276.443480
1589226.897242
1643569.351004
1696887.804766
1757118.258528
1815556.712290
1870667.166053
1640372.251327
1694202.705090
1750465.158852
1807495.612614
1864270.066376
1919508.520138
1975002.973900
2033697.427663
2088679.881425
1871184.966700
1924503.420462
1981661.874224
2034468.327986
2092010.781748
2146737.235510
2202615.689273
2254014.143035
2315396.596797
2113261.682072
2165044.135834
2221178.589596
2273601.043358
2329095.497120
2384205.950883
2439572.404645
2496218.858407
2549025.312169
2359178.397444
2412112.851206
2469399.304968
2521693.758730
2572836.212493
2629482.666255
2685489.120017
2738551.573779
2792638.027541
2618663.112816
2671085.566578
2727348.020340
2779514.474103
2831680.927865
2887303.381627
2938957.835389
2993428.289151
3043034.742913
2885059.828188
2938122.281950
2991568.735713
3041303.189475
3095133.643237
3146020.096999
3201898.550761
3252529.004523
3306103.458286
3159520.543560
3212454.997323
3265645.451085
3315507.904847
3366010.358609
3420864.812371
3473415.266133
3522893.719896
3576212.173658
3444477.258933
3494979.712695
3545354.166457
3597264.620219
3649047.073981
3702877.527743
3750819.981506
3802346.435268
3851696.889030
3735705.974305
3789536.428067
3839142.881829
3888877.335591
3937075.789353
3989498.243116
4041280.696878
4088967.150640
4140109.604402
4040246.689677
4086269.143439
4136387.597201
4187786.050963
4236112.504726
4284822.958488
4334173.412250
4385187.866012
4433514.319774
4346067.405049
4399257.858811
4442080.312573
4492582.766336
4543213.220098
4588851.673860
4639482.127622
4687296.581384
4735367.035146
4663280.120421
4710582.574183
4758141.027945
4807875.481708
4853513.935470
4903632.389232
4950934.842994
5000669.296756
5041827.750519
4990348.835793
5038163.289555
5079705.743318
5129952.197080
5176486.650842
5223533.104604
5271731.558366
5316602.012129
5363392.465891
5321129.551165
5367152.004928
5413686.458690
5458684.912452
5506243.366214
5552521.819976
5597264.273739
5641494.727501
5688541.181263
5663046.266538
5708940.720300
5751251.174062
5792409.627824
5840480.081586
5886502.535348
5931244.989111
5974195.442873
6018809.896635
6008930.981910
6051241.435672
6096367.889434
6138678.343196
6183676.796958
6225987.250721
6273801.704483
6316752.158245
6357910.612007
6361727.697282
6406982.151044
6448780.604806
6488787.058568
6532377.512331
6572895.966093
6621862.419855
6661484.873617
6707507.327379
6723868.412654
6767970.866416
6805545.320178
6847087.773941
6893366.227703
6931580.681465
6977219.135227
7021705.588989
7058768.042751
7092409.128026
7133823.581788
7172294.035551
7215244.489313
7258322.943075
7298969.396837
7336799.850599
7379238.304361
7419372.758124
7464405.843398
7505180.297161
7546594.750923
7585961.204685
7626863.658447
7665334.112209
7706876.565971
7745859.019734
7781769.473496
7850482.558771
7885881.012533
7924095.466295
7963717.920057
8001292.373819
8040914.827581
8079641.281344
8117343.735106
8158886.188868
8232335.274143
8272725.727905
8308380.181667
8348002.635429
8385065.089191
8423919.542954
8462005.996716
8495868.450478
8534850.904240
8624811.989515
8661874.443277
8701752.897039
8738687.350801
8773573.804564
8809612.258326
8846546.712088
8881561.165850
8920799.619612
9024712.704887
9061135.158649
9096533.612411
9130780.066174
9167586.519936
9202984.973698
9239663.427460
9274677.881222
9306492.334984
9427301.420259
9465515.874021
9497074.327784
9529528.781546
9564671.235308
9602117.689070
9636876.142832
9672530.596594
9703961.050357
9836546.135631
9869128.589394
9903887.043156
9938389.496918
9972123.950680
10004066.404442
10037160.858204
10069999.311967
10107317.765729
10248734.851004
10282981.304766
10314795.758528
10350322.212290
10379832.666052
10415743.119814
10443205.573577
10478476.027339
10511954.481101
10671291.566376
10698370.020138
10731976.473900
10764046.927662
10796501.381424
10827547.835187
10855010.288949
10889640.742711
10919663.196473
11089624.281748
11122974.735510
11150565.189272
11183787.643034
11211634.096797
11245112.550559
11275391.004321
11302981.458083
11329419.911845
11520628.997120
11550523.450882
11579265.904644
11606728.358407
11637262.812169
11664213.265931
11693595.719693
11721954.173455
11751208.627217
11952913.712492
11977560.166254
12005790.620017
12037989.073779
12061227.527541
12090097.981303
12120888.435065
12146686.888827
12178501.342590
12387118.427864
12412660.881627
12439611.335389
12464385.789151
12494792.242913
12522510.696675
12549717.150437
12576155.604200
12604002.057962
12823755.143237
12847377.596999
12874584.050761
12903326.504523
12928996.958285
12954027.412047
12980593.865810
13002936.319572
13035006.773334
13265255.858609
13289390.312371
13313012.766133
13341371.219895
13364609.673657
13386056.127420
13414542.581182
13443029.034944
13467291.488706
13707652.573981
13735627.027743
13759761.481505
13781591.935267
13805086.389030
13832292.842792
13851563.296554
13877873.750316
13902008.204078
14158113.289353
14182503.743115
14203310.196877
14225012.650640
14253243.104402
14273921.558164
14294472.011926
14316430.465688
14343892.919450
14608318.004725
14627588.458487
14654026.912250
14676113.366012
14696791.819774
14717342.273536
14736996.727298
14761515.181060
14785393.634823
15059802.720097
15081889.173860
15104231.627622
15124142.081384
15145076.535146
15168442.988908
15187329.442670
15207111.896433
15229326.350195
15517943.435469
15537853.889232
15558532.342994
15573706.796756
15596177.250518
15613399.704280
15636254.158043
15655652.611805
15674539.065567
15976340.150842
15996634.604604
16011297.058366
16031719.512128
16050349.965890
16069364.419653
16086586.873415
16104449.327177
16122439.780939
16432176.866214
16452727.319976
16470461.773738
16487428.227500
16505546.681263
16523793.135025
16542807.588787
16558622.042549
16573540.496311
16892365.581586
16911252.035348
16927962.489110
16944160.942872
16960999.396635
16979117.850397
16996596.304159
17009210.757921
17027713.211683
17357418.296958
17374000.750720
17391607.204482
17407037.658245
17421572.112007
17434826.565769
17452305.019531
17466071.473293
17482269.927056
17825287.012330
17835725.466092
17849619.919855
17866586.373617
17881632.827379
17893991.281141
17908525.734903
17923956.188666
17935802.642428
18284707.727702
18296426.181465
18315312.635227
18327031.088989
18340413.542751
18352003.996513
18366538.450275
18379536.904038
18393943.357800
18750016.443075
18765318.896837
18775885.350599
18789395.804361
18798938.258123
18814752.711885
18827751.165648
18841901.619410
18851700.073172
19215069.158447
19226403.612209
19239018.065971
19252784.519733
19259382.973495
19276477.427258
19284867.881020
19299274.334782
19309200.788544
19683705.873819
19693504.327581
19703302.781343
19713613.235105
19727635.688868
19736282.142630
19746720.596392
19755623.050154
19767341.503916
20147350.589191
20158301.042953
20166563.496715
20176105.950478
20189232.404240
20198134.858002
20207549.311764
20217219.765526
20228042.219288
20613555.304563
20626425.758325
20635712.212088
20645382.665850
20651981.119612
20660755.573374
20669274.027136
20676768.480898
20682598.934661
21079632.019935
21086742.473698
21098972.927460
21104931.381222
21114601.834984
21122096.288746
21128950.742508
21135549.196271
21144835.650033
21544300.735308
21557683.189070
21561081.642832
21568192.096594
21579142.550356
21583053.004118
21592467.457881
21597273.911643
21603232.365405
22014345.450680
22018767.904442
22025110.358204
22034268.811966
22037411.265728
22047337.719491
22049328.173253
22055158.627015
22065853.080777
22478502.166052
22483052.619814
22492083.073576
22494457.527338
22503359.981101
22503558.434863
22510284.888625
22513811.342387
22514393.796149
22943170.881424
22947081.335186
22954831.788948
22956054.242711
22962140.696473
22964259.150235
22969449.603997
22975024.057759
22978550.511521
23403999.596796
23410342.050558
23411820.504321
23418418.958083
23422969.411845
23427775.865607
23428998.319369
23429964.773131
23432851.226894
23867516.312168
23872066.765931
23876105.219693
23877071.673455
23880598.127217
23881308.580979
23884195.034741
23886185.488504
23890863.942266
24329881.027541
24331999.481303
24333477.935065
24338540.388827
24336562.842589
24339705.296351
24341183.750114
24344070.203876
24344908.657638
24790197.742913
24789500.196675
24792514.650437
24791945.104199
24793935.557961
24795030.011724
24795484.465486
24794786.919248
24796393.373010
25247698.458285
25247128.912047
25246815.365809
25250213.819571
25250284.273334
25250226.727096
25250425.180858
25247679.634620
25249798.088382
25702255.173657
25703989.627419
25703932.081181
25704386.534944
25702280.988706
25701071.442468
25700757.896230
25698652.349992
25699618.803754
26161675.889029
26157778.342791
26156824.796554
26158687.250316
26155685.704078
26154220.157840
26152754.611602
26148089.065364
26148671.519127
26610984.604401
26611951.058164
26609717.511926
26604923.965688
26607554.419450
26601608.873212
26601167.326974
26597525.780737
26591580.234499
27062725.319774
27059083.773536
27058898.227298
27056920.681060
27053535.134822
27047845.588584
27044844.042347
27044786.496109
27041400.949871
27512418.035146
27510568.488908
27505774.942670
27506229.396432
27501563.850194
27494210.303957
27491464.757719
27489615.211481
27484949.665243
27958526.750518
27953477.204280
27953675.658042
27946194.111804
27944984.565567
27940831.019329
27935525.473091
27927915.926853
27925810.380615
28403483.465890
28396769.919652
28394664.373414
28391150.827177
28382901.280939
28379259.734701
28376130.188463
28370952.642225
28362447.095987
28843448.181262
28840062.635024
28836933.088787
28828043.542549
28822737.996311
28816024.450073
28809950.903835
28807077.357597
28798827.811360
29284436.896634
29277851.350396
29273057.804159
29263400.257921
29260526.711683
29255861.165445
29247355.619207
29241026.072970
29231880.526732
29720689.612006
29713080.065769
29706110.519531
29704260.973293
29697803.427055
29689937.880817
29682200.334580
29672286.788342
29665573.242104
