# vtk DataFile Version 2.0
Generated volume Mesh
ASCII
DATASET UNSTRUCTURED_GRID
POINTS 363 float
-10.000000 -10.000000 0.000000
10.000000 -10.000000 0.000000
10.000000 10.000000 0.000000
-10.000000 10.000000 0.000000
-8.000000 -10.000000 0.000000
-6.000000 -10.000000 0.000000
-4.000000 -10.000000 0.000000
-2.000000 -10.000000 0.000000
-0.000000 -10.000000 0.000000
2.000000 -10.000000 0.000000
4.000000 -10.000000 0.000000
6.000000 -10.000000 0.000000
8.000000 -10.000000 0.000000
10.000000 -8.000000 0.000000
10.000000 -6.000000 0.000000
10.000000 -4.000000 0.000000
10.000000 -2.000000 0.000000
10.000000 -0.000000 0.000000
10.000000 2.000000 0.000000
10.000000 4.000000 0.000000
10.000000 6.000000 0.000000
10.000000 8.000000 0.000000
8.000000 10.000000 0.000000
6.000000 10.000000 0.000000
4.000000 10.000000 0.000000
2.000000 10.000000 0.000000
0.000000 10.000000 0.000000
-2.000000 10.000000 0.000000
-4.000000 10.000000 0.000000
-6.000000 10.000000 0.000000
-8.000000 10.000000 0.000000
-10.000000 8.000000 0.000000
-10.000000 6.000000 0.000000
-10.000000 4.000000 0.000000
-10.000000 2.000000 0.000000
-10.000000 0.000000 0.000000
-10.000000 -2.000000 0.000000
-10.000000 -4.000000 0.000000
-10.000000 -6.000000 0.000000
-10.000000 -8.000000 0.000000
-8.000000 -8.000000 0.000000
-8.000000 -6.000000 0.000000
-8.000000 -4.000000 0.000000
-8.000000 -2.000000 0.000000
-8.000000 0.000000 0.000000
-8.000000 2.000000 0.000000
-8.000000 4.000000 0.000000
-8.000000 6.000000 0.000000
-8.000000 8.000000 0.000000
-6.000000 -8.000000 0.000000
-6.000000 -6.000000 0.000000
-6.000000 -4.000000 0.000000
-6.000000 -2.000000 0.000000
-6.000000 0.000000 0.000000
-6.000000 2.000000 0.000000
-6.000000 4.000000 0.000000
-6.000000 6.000000 0.000000
-6.000000 8.000000 0.000000
-4.000000 -8.000000 0.000000
-4.000000 -6.000000 0.000000
-4.000000 -4.000000 0.000000
-4.000000 -2.000000 0.000000
-4.000000 0.000000 0.000000
-4.000000 2.000000 0.000000
-4.000000 4.000000 0.000000
-4.000000 6.000000 0.000000
-4.000000 8.000000 0.000000
-2.000000 -8.000000 0.000000
-2.000000 -6.000000 0.000000
-2.000000 -4.000000 0.000000
-2.000000 -2.000000 0.000000
-2.000000 0.000000 0.000000
-2.000000 2.000000 0.000000
-2.000000 4.000000 0.000000
-2.000000 6.000000 0.000000
-2.000000 8.000000 0.000000
-0.000000 -8.000000 0.000000
-0.000000 -6.000000 0.000000
-0.000000 -4.000000 0.000000
-0.000000 -2.000000 0.000000
0.000000 0.000000 0.000000
0.000000 2.000000 0.000000
0.000000 4.000000 0.000000
0.000000 6.000000 0.000000
0.000000 8.000000 0.000000
2.000000 -8.000000 0.000000
2.000000 -6.000000 0.000000
2.000000 -4.000000 0.000000
2.000000 -2.000000 0.000000
2.000000 -0.000000 0.000000
2.000000 2.000000 0.000000
2.000000 4.000000 0.000000
2.000000 6.000000 0.000000
2.000000 8.000000 0.000000
4.000000 -8.000000 0.000000
4.000000 -6.000000 0.000000
4.000000 -4.000000 0.000000
4.000000 -2.000000 0.000000
4.000000 -0.000000 0.000000
4.000000 2.000000 0.000000
4.000000 4.000000 0.000000
4.000000 6.000000 0.000000
4.000000 8.000000 0.000000
6.000000 -8.000000 0.000000
6.000000 -6.000000 0.000000
6.000000 -4.000000 0.000000
6.000000 -2.000000 0.000000
6.000000 -0.000000 0.000000
6.000000 2.000000 0.000000
6.000000 4.000000 0.000000
6.000000 6.000000 0.000000
6.000000 8.000000 0.000000
8.000000 -8.000000 0.000000
8.000000 -6.000000 0.000000
8.000000 -4.000000 0.000000
8.000000 -2.000000 0.000000
8.000000 -0.000000 0.000000
8.000000 2.000000 0.000000
8.000000 4.000000 0.000000
8.000000 6.000000 0.000000
8.000000 8.000000 0.000000
-10.000000 -10.000000 0.100000
10.000000 -10.000000 0.100000
10.000000 10.000000 0.100000
-10.000000 10.000000 0.100000
-8.000000 -10.000000 0.100000
-6.000000 -10.000000 0.100000
-4.000000 -10.000000 0.100000
-2.000000 -10.000000 0.100000
-0.000000 -10.000000 0.100000
2.000000 -10.000000 0.100000
4.000000 -10.000000 0.100000
6.000000 -10.000000 0.100000
8.000000 -10.000000 0.100000
10.000000 -8.000000 0.100000
10.000000 -6.000000 0.100000
10.000000 -4.000000 0.100000
10.000000 -2.000000 0.100000
10.000000 -0.000000 0.100000
10.000000 2.000000 0.100000
10.000000 4.000000 0.100000
10.000000 6.000000 0.100000
10.000000 8.000000 0.100000
8.000000 10.000000 0.100000
6.000000 10.000000 0.100000
4.000000 10.000000 0.100000
2.000000 10.000000 0.100000
0.000000 10.000000 0.100000
-2.000000 10.000000 0.100000
-4.000000 10.000000 0.100000
-6.000000 10.000000 0.100000
-8.000000 10.000000 0.100000
-10.000000 8.000000 0.100000
-10.000000 6.000000 0.100000
-10.000000 4.000000 0.100000
-10.000000 2.000000 0.100000
-10.000000 0.000000 0.100000
-10.000000 -2.000000 0.100000
-10.000000 -4.000000 0.100000
-10.000000 -6.000000 0.100000
-10.000000 -8.000000 0.100000
-8.000000 -8.000000 0.100000
-8.000000 -6.000000 0.100000
-8.000000 -4.000000 0.100000
-8.000000 -2.000000 0.100000
-8.000000 0.000000 0.100000
-8.000000 2.000000 0.100000
-8.000000 4.000000 0.100000
-8.000000 6.000000 0.100000
-8.000000 8.000000 0.100000
-6.000000 -8.000000 0.100000
-6.000000 -6.000000 0.100000
-6.000000 -4.000000 0.100000
-6.000000 -2.000000 0.100000
-6.000000 0.000000 0.100000
-6.000000 2.000000 0.100000
-6.000000 4.000000 0.100000
-6.000000 6.000000 0.100000
-6.000000 8.000000 0.100000
-4.000000 -8.000000 0.100000
-4.000000 -6.000000 0.100000
-4.000000 -4.000000 0.100000
-4.000000 -2.000000 0.100000
-4.000000 0.000000 0.100000
-4.000000 2.000000 0.100000
-4.000000 4.000000 0.100000
-4.000000 6.000000 0.100000
-4.000000 8.000000 0.100000
-2.000000 -8.000000 0.100000
-2.000000 -6.000000 0.100000
-2.000000 -4.000000 0.100000
-2.000000 -2.000000 0.100000
-2.000000 0.000000 0.100000
-2.000000 2.000000 0.100000
-2.000000 4.000000 0.100000
-2.000000 6.000000 0.100000
-2.000000 8.000000 0.100000
-0.000000 -8.000000 0.100000
-0.000000 -6.000000 0.100000
-0.000000 -4.000000 0.100000
-0.000000 -2.000000 0.100000
0.000000 0.000000 0.100000
0.000000 2.000000 0.100000
0.000000 4.000000 0.100000
0.000000 6.000000 0.100000
0.000000 8.000000 0.100000
2.000000 -8.000000 0.100000
2.000000 -6.000000 0.100000
2.000000 -4.000000 0.100000
2.000000 -2.000000 0.100000
2.000000 -0.000000 0.100000
2.000000 2.000000 0.100000
2.000000 4.000000 0.100000
2.000000 6.000000 0.100000
2.000000 8.000000 0.100000
4.000000 -8.000000 0.100000
4.000000 -6.000000 0.100000
4.000000 -4.000000 0.100000
4.000000 -2.000000 0.100000
4.000000 -0.000000 0.100000
4.000000 2.000000 0.100000
4.000000 4.000000 0.100000
4.000000 6.000000 0.100000
4.000000 8.000000 0.100000
6.000000 -8.000000 0.100000
6.000000 -6.000000 0.100000
6.000000 -4.000000 0.100000
6.000000 -2.000000 0.100000
6.000000 -0.000000 0.100000
6.000000 2.000000 0.100000
6.000000 4.000000 0.100000
6.000000 6.000000 0.100000
6.000000 8.000000 0.100000
8.000000 -8.000000 0.100000
8.000000 -6.000000 0.100000
8.000000 -4.000000 0.100000
8.000000 -2.000000 0.100000
8.000000 -0.000000 0.100000
8.000000 2.000000 0.100000
8.000000 4.000000 0.100000
8.000000 6.000000 0.100000
8.000000 8.000000 0.100000
-10.000000 -10.000000 0.050000
10.000000 -10.000000 0.050000
-8.000000 -10.000000 0.050000
-6.000000 -10.000000 0.050000
-4.000000 -10.000000 0.050000
-2.000000 -10.000000 0.050000
-0.000000 -10.000000 0.050000
2.000000 -10.000000 0.050000
4.000000 -10.000000 0.050000
6.000000 -10.000000 0.050000
8.000000 -10.000000 0.050000
10.000000 10.000000 0.050000
10.000000 -8.000000 0.050000
10.000000 -6.000000 0.050000
10.000000 -4.000000 0.050000
10.000000 -2.000000 0.050000
10.000000 -0.000000 0.050000
10.000000 2.000000 0.050000
10.000000 4.000000 0.050000
10.000000 6.000000 0.050000
10.000000 8.000000 0.050000
-10.000000 10.000000 0.050000
8.000000 10.000000 0.050000
6.000000 10.000000 0.050000
4.000000 10.000000 0.050000
2.000000 10.000000 0.050000
0.000000 10.000000 0.050000
-2.000000 10.000000 0.050000
-4.000000 10.000000 0.050000
-6.000000 10.000000 0.050000
-8.000000 10.000000 0.050000
-10.000000 8.000000 0.050000
-10.000000 6.000000 0.050000
-10.000000 4.000000 0.050000
-10.000000 2.000000 0.050000
-10.000000 0.000000 0.050000
-10.000000 -2.000000 0.050000
-10.000000 -4.000000 0.050000
-10.000000 -6.000000 0.050000
-10.000000 -8.000000 0.050000
-8.000000 -8.000000 0.050000
-8.000000 -6.000000 0.050000
-8.000000 -4.000000 0.050000
-8.000000 -2.000000 0.050000
-8.000000 0.000000 0.050000
-8.000000 2.000000 0.050000
-8.000000 4.000000 0.050000
-8.000000 6.000000 0.050000
-8.000000 8.000000 0.050000
-6.000000 -8.000000 0.050000
-6.000000 -6.000000 0.050000
-6.000000 -4.000000 0.050000
-6.000000 -2.000000 0.050000
-6.000000 0.000000 0.050000
-6.000000 2.000000 0.050000
-6.000000 4.000000 0.050000
-6.000000 6.000000 0.050000
-6.000000 8.000000 0.050000
-4.000000 -8.000000 0.050000
-4.000000 -6.000000 0.050000
-4.000000 -4.000000 0.050000
-4.000000 -2.000000 0.050000
-4.000000 0.000000 0.050000
-4.000000 2.000000 0.050000
-4.000000 4.000000 0.050000
-4.000000 6.000000 0.050000
-4.000000 8.000000 0.050000
-2.000000 -8.000000 0.050000
-2.000000 -6.000000 0.050000
-2.000000 -4.000000 0.050000
-2.000000 -2.000000 0.050000
-2.000000 0.000000 0.050000
-2.000000 2.000000 0.050000
-2.000000 4.000000 0.050000
-2.000000 6.000000 0.050000
-2.000000 8.000000 0.050000
-0.000000 -8.000000 0.050000
-0.000000 -6.000000 0.050000
-0.000000 -4.000000 0.050000
-0.000000 -2.000000 0.050000
0.000000 0.000000 0.050000
0.000000 2.000000 0.050000
0.000000 4.000000 0.050000
0.000000 6.000000 0.050000
0.000000 8.000000 0.050000
2.000000 -8.000000 0.050000
2.000000 -6.000000 0.050000
2.000000 -4.000000 0.050000
2.000000 -2.000000 0.050000
2.000000 -0.000000 0.050000
2.000000 2.000000 0.050000
2.000000 4.000000 0.050000
2.000000 6.000000 0.050000
2.000000 8.000000 0.050000
4.000000 -8.000000 0.050000
4.000000 -6.000000 0.050000
4.000000 -4.000000 0.050000
4.000000 -2.000000 0.050000
4.000000 -0.000000 0.050000
4.000000 2.000000 0.050000
4.000000 4.000000 0.050000
4.000000 6.000000 0.050000
4.000000 8.000000 0.050000
6.000000 -8.000000 0.050000
6.000000 -6.000000 0.050000
6.000000 -4.000000 0.050000
6.000000 -2.000000 0.050000
6.000000 -0.000000 0.050000
6.000000 2.000000 0.050000
6.000000 4.000000 0.050000
6.000000 6.000000 0.050000
6.000000 8.000000 0.050000
8.000000 -8.000000 0.050000
8.000000 -6.000000 0.050000
8.000000 -4.000000 0.050000
8.000000 -2.000000 0.050000
8.000000 -0.000000 0.050000
8.000000 2.000000 0.050000
8.000000 4.000000 0.050000
8.000000 6.000000 0.050000
8.000000 8.000000 0.050000
CELLS 200 1800
8 0 4 40 39 242 244 282 281
8 242 244 282 281 121 125 161 160
8 39 40 41 38 281 282 283 280
8 281 282 283 280 160 161 162 159
8 38 41 42 37 280 283 284 279
8 280 283 284 279 159 162 163 158
8 37 42 43 36 279 284 285 278
8 279 284 285 278 158 163 164 157
8 36 43 44 35 278 285 286 277
8 278 285 286 277 157 164 165 156
8 35 44 45 34 277 286 287 276
8 277 286 287 276 156 165 166 155
8 34 45 46 33 276 287 288 275
8 276 287 288 275 155 166 167 154
8 33 46 47 32 275 288 289 274
8 275 288 289 274 154 167 168 153
8 32 47 48 31 274 289 290 273
8 274 289 290 273 153 168 169 152
8 31 48 30 3 273 290 272 263
8 273 290 272 263 152 169 151 124
8 4 5 49 40 244 245 291 282
8 244 245 291 282 125 126 170 161
8 40 49 50 41 282 291 292 283
8 282 291 292 283 161 170 171 162
8 41 50 51 42 283 292 293 284
8 283 292 293 284 162 171 172 163
8 42 51 52 43 284 293 294 285
8 284 293 294 285 163 172 173 164
8 43 52 53 44 285 294 295 286
8 285 294 295 286 164 173 174 165
8 44 53 54 45 286 295 296 287
8 286 295 296 287 165 174 175 166
8 45 54 55 46 287 296 297 288
8 287 296 297 288 166 175 176 167
8 46 55 56 47 288 297 298 289
8 288 297 298 289 167 176 177 168
8 47 56 57 48 289 298 299 290
8 289 298 299 290 168 177 178 169
8 48 57 29 30 290 299 271 272
8 290 299 271 272 169 178 150 151
8 5 6 58 49 245 246 300 291
8 245 246 300 291 126 127 179 170
8 49 58 59 50 291 300 301 292
8 291 300 301 292 170 179 180 171
8 50 59 60 51 292 301 302 293
8 292 301 302 293 171 180 181 172
8 51 60 61 52 293 302 303 294
8 293 302 303 294 172 181 182 173
8 52 61 62 53 294 303 304 295
8 294 303 304 295 173 182 183 174
8 53 62 63 54 295 304 305 296
8 295 304 305 296 174 183 184 175
8 54 63 64 55 296 305 306 297
8 296 305 306 297 175 184 185 176
8 55 64 65 56 297 306 307 298
8 297 306 307 298 176 185 186 177
8 56 65 66 57 298 307 308 299
8 298 307 308 299 177 186 187 178
8 57 66 28 29 299 308 270 271
8 299 308 270 271 178 187 149 150
8 6 7 67 58 246 247 309 300
8 246 247 309 300 127 128 188 179
8 58 67 68 59 300 309 310 301
8 300 309 310 301 179 188 189 180
8 59 68 69 60 301 310 311 302
8 301 310 311 302 180 189 190 181
8 60 69 70 61 302 311 312 303
8 302 311 312 303 181 190 191 182
8 61 70 71 62 303 312 313 304
8 303 312 313 304 182 191 192 183
8 62 71 72 63 304 313 314 305
8 304 313 314 305 183 192 193 184
8 63 72 73 64 305 314 315 306
8 305 314 315 306 184 193 194 185
8 64 73 74 65 306 315 316 307
8 306 315 316 307 185 194 195 186
8 65 74 75 66 307 316 317 308
8 307 316 317 308 186 195 196 187
8 66 75 27 28 308 317 269 270
8 308 317 269 270 187 196 148 149
8 7 8 76 67 247 248 318 309
8 247 248 318 309 128 129 197 188
8 67 76 77 68 309 318 319 310
8 309 318 319 310 188 197 198 189
8 68 77 78 69 310 319 320 311
8 310 319 320 311 189 198 199 190
8 69 78 79 70 311 320 321 312
8 311 320 321 312 190 199 200 191
8 70 79 80 71 312 321 322 313
8 312 321 322 313 191 200 201 192
8 71 80 81 72 313 322 323 314
8 313 322 323 314 192 201 202 193
8 72 81 82 73 314 323 324 315
8 314 323 324 315 193 202 203 194
8 73 82 83 74 315 324 325 316
8 315 324 325 316 194 203 204 195
8 74 83 84 75 316 325 326 317
8 316 325 326 317 195 204 205 196
8 75 84 26 27 317 326 268 269
8 317 326 268 269 196 205 147 148
8 8 9 85 76 248 249 327 318
8 248 249 327 318 129 130 206 197
8 76 85 86 77 318 327 328 319
8 318 327 328 319 197 206 207 198
8 77 86 87 78 319 328 329 320
8 319 328 329 320 198 207 208 199
8 78 87 88 79 320 329 330 321
8 320 329 330 321 199 208 209 200
8 79 88 89 80 321 330 331 322
8 321 330 331 322 200 209 210 201
8 80 89 90 81 322 331 332 323
8 322 331 332 323 201 210 211 202
8 81 90 91 82 323 332 333 324
8 323 332 333 324 202 211 212 203
8 82 91 92 83 324 333 334 325
8 324 333 334 325 203 212 213 204
8 83 92 93 84 325 334 335 326
8 325 334 335 326 204 213 214 205
8 84 93 25 26 326 335 267 268
8 326 335 267 268 205 214 146 147
8 9 10 94 85 249 250 336 327
8 249 250 336 327 130 131 215 206
8 85 94 95 86 327 336 337 328
8 327 336 337 328 206 215 216 207
8 86 95 96 87 328 337 338 329
8 328 337 338 329 207 216 217 208
8 87 96 97 88 329 338 339 330
8 329 338 339 330 208 217 218 209
8 88 97 98 89 330 339 340 331
8 330 339 340 331 209 218 219 210
8 89 98 99 90 331 340 341 332
8 331 340 341 332 210 219 220 211
8 90 99 100 91 332 341 342 333
8 332 341 342 333 211 220 221 212
8 91 100 101 92 333 342 343 334
8 333 342 343 334 212 221 222 213
8 92 101 102 93 334 343 344 335
8 334 343 344 335 213 222 223 214
8 93 102 24 25 335 344 266 267
8 335 344 266 267 214 223 145 146
8 10 11 103 94 250 251 345 336
8 250 251 345 336 131 132 224 215
8 94 103 104 95 336 345 346 337
8 336 345 346 337 215 224 225 216
8 95 104 105 96 337 346 347 338
8 337 346 347 338 216 225 226 217
8 96 105 106 97 338 347 348 339
8 338 347 348 339 217 226 227 218
8 97 106 107 98 339 348 349 340
8 339 348 349 340 218 227 228 219
8 98 107 108 99 340 349 350 341
8 340 349 350 341 219 228 229 220
8 99 108 109 100 341 350 351 342
8 341 350 351 342 220 229 230 221
8 100 109 110 101 342 351 352 343
8 342 351 352 343 221 230 231 222
8 101 110 111 102 343 352 353 344
8 343 352 353 344 222 231 232 223
8 102 111 23 24 344 353 265 266
8 344 353 265 266 223 232 144 145
8 11 12 112 103 251 252 354 345
8 251 252 354 345 132 133 233 224
8 103 112 113 104 345 354 355 346
8 345 354 355 346 224 233 234 225
8 104 113 114 105 346 355 356 347
8 346 355 356 347 225 234 235 226
8 105 114 115 106 347 356 357 348
8 347 356 357 348 226 235 236 227
8 106 115 116 107 348 357 358 349
8 348 357 358 349 227 236 237 228
8 107 116 117 108 349 358 359 350
8 349 358 359 350 228 237 238 229
8 108 117 118 109 350 359 360 351
8 350 359 360 351 229 238 239 230
8 109 118 119 110 351 360 361 352
8 351 360 361 352 230 239 240 231
8 110 119 120 111 352 361 362 353
8 352 361 362 353 231 240 241 232
8 111 120 22 23 353 362 264 265
8 353 362 264 265 232 241 143 144
8 12 1 13 112 252 243 254 354
8 252 243 254 354 133 122 134 233
8 112 13 14 113 354 254 255 355
8 354 254 255 355 233 134 135 234
8 113 14 15 114 355 255 256 356
8 355 255 256 356 234 135 136 235
8 114 15 16 115 356 256 257 357
8 356 256 257 357 235 136 137 236
8 115 16 17 116 357 257 258 358
8 357 257 258 358 236 137 138 237
8 116 17 18 117 358 258 259 359
8 358 258 259 359 237 138 139 238
8 117 18 19 118 359 259 260 360
8 359 259 260 360 238 139 140 239
8 118 19 20 119 360 260 261 361
8 360 260 261 361 239 140 141 240
8 119 20 21 120 361 261 262 362
8 361 261 262 362 240 141 142 241
8 120 21 2 22 362 262 253 264
8 362 262 253 264 241 142 123 143
CELL_TYPES 200
12
12
12
12
12
12
12
12
12
12
12
12
12
12
12
12
12
12
12
12
12
12
12
12
12
12
12
12
12
12
12
12
12
12
12
12
12
12
12
12
12
12
12
12
12
12
12
12
12
12
12
12
12
12
12
12
12
12
12
12
12
12
12
12
12
12
12
12
12
12
12
12
12
12
12
12
12
12
12
12
12
12
12
12
12
12
12
12
12
12
12
12
12
12
12
12
12
12
12
12
12
12
12
12
12
12
12
12
12
12
12
12
12
12
12
12
12
12
12
12
12
12
12
12
12
12
12
12
12
12
12
12
12
12
12
12
12
12
12
12
12
12
12
12
12
12
12
12
12
12
12
12
12
12
12
12
12
12
12
12
12
12
12
12
12
12
12
12
12
12
12
12
12
12
12
12
12
12
12
12
12
12
12
12
12
12
12
12
12
12
12
12
12
12
12
12
12
12
12
12
POINT_DATA 363
SCALARS u1 float
LOOKUP_TABLE default
0.000000
0.000000
0.000000
0.000000
0.000000
0.000000
0.000000
0.000000
0.000000
0.000000
0.000000
0.000000
0.000000
0.000000
0.000000
0.000000
0.000000
0.000000
0.000000
0.000000
0.000000
0.000000
0.000000
0.000000
0.000000
0.000000
0.000000
0.000000
0.000000
0.000000
0.000000
0.000000
0.000000
0.000000
0.000000
0.000000
0.000000
0.000000
0.000000
0.000000
0.000038
0.000124
0.000212
0.000275
0.000298
0.000275
0.000212
0.000124
0.000038
0.000049
0.000176
0.000333
0.000451
0.000495
0.000451
0.000333
0.000176
0.000049
0.000041
0.000155
0.000330
0.000515
0.000573
0.000515
0.000330
0.000155
0.000041
0.000023
0.000087
0.000194
0.000365
0.000548
0.000365
0.000194
0.000087
0.000023
-0.000000
0.000000
0.000000
0.000000
0.000000
0.000000
-0.000000
-0.000000
-0.000000
-0.000023
-0.000087
-0.000194
-0.000365
-0.000548
-0.000365
-0.000194
-0.000087
-0.000023
-0.000041
-0.000155
-0.000330
-0.000515
-0.000573
-0.000515
-0.000330
-0.000155
-0.000041
-0.000049
-0.000176
-0.000333
-0.000451
-0.000495
-0.000451
-0.000333
-0.000176
-0.000049
-0.000038
-0.000124
-0.000212
-0.000275
-0.000298
-0.000275
-0.000212
-0.000124
-0.000038
0.000000
0.000000
-0.000000
-0.000000
-0.000000
-0.000000
-0.000000
-0.000000
-0.000000
-0.000000
-0.000000
0.000000
-0.000000
-0.000000
-0.000000
0.000000
-0.000000
-0.000000
-0.000000
0.000000
-0.000000
0.000000
-0.000000
-0.000000
0.000000
-0.000000
-0.000000
-0.000000
-0.000000
0.000000
-0.000000
0.000000
0.000000
0.000000
0.000000
-0.000000
0.000000
-0.000000
-0.000000
-0.000000
-0.000038
-0.000123
-0.000212
-0.000274
-0.000297
-0.000274
-0.000212
-0.000123
-0.000038
-0.000049
-0.000175
-0.000332
-0.000449
-0.000491
-0.000449
-0.000332
-0.000175
-0.000049
-0.000041
-0.000154
-0.000329
-0.000511
-0.000570
-0.000511
-0.000329
-0.000154
-0.000041
-0.000023
-0.000087
-0.000191
-0.000365
-0.000523
-0.000365
-0.000191
-0.000087
-0.000023
-0.000000
-0.000000
0.000000
-0.000000
-0.000000
-0.000000
-0.000000
-0.000000
-0.000000
0.000023
0.000087
0.000191
0.000365
0.000523
0.000365
0.000191
0.000087
0.000023
0.000041
0.000154
0.000329
0.000511
0.000570
0.000511
0.000329
0.000154
0.000041
0.000049
0.000175
0.000332
0.000449
0.000491
0.000449
0.000332
0.000175
0.000049
0.000038
0.000123
0.000212
0.000274
0.000297
0.000274
0.000212
0.000123
0.000038
-0.000000
-0.000000
0.000000
0.000000
-0.000000
0.000000
0.000000
-0.000000
-0.000000
-0.000000
0.000000
-0.000000
0.000000
0.000000
-0.000000
-0.000000
-0.000000
-0.000000
0.000000
-0.000000
-0.000000
-0.000000
-0.000000
0.000000
-0.000000
-0.000000
0.000000
-0.000000
-0.000000
-0.000000
-0.000000
-0.000000
-0.000000
0.000000
-0.000000
0.000000
0.000000
0.000000
0.000000
-0.000000
0.000000
0.000000
0.000000
0.000000
0.000000
0.000000
0.000000
0.000000
0.000000
0.000000
0.000000
0.000001
0.000001
0.000002
0.000001
0.000001
0.000000
0.000000
0.000000
0.000001
0.000001
0.000002
0.000001
0.000002
0.000001
0.000001
0.000000
0.000000
0.000000
0.000001
-0.000000
0.000013
-0.000000
0.000001
0.000000
0.000000
-0.000000
0.000000
0.000000
0.000000
-0.000000
-0.000000
-0.000000
-0.000000
-0.000000
-0.000000
-0.000000
-0.000001
0.000000
-0.000013
0.000000
-0.000001
-0.000000
-0.000000
-0.000000
-0.000001
-0.000001
-0.000002
-0.000001
-0.000002
-0.000001
-0.000001
-0.000000
-0.000000
-0.000000
-0.000001
-0.000001
-0.000002
-0.000001
-0.000001
-0.000000
-0.000000
-0.000000
-0.000000
-0.000000
-0.000000
-0.000000
-0.000000
-0.000000
-0.000000
-0.000000
SCALARS u2 float
LOOKUP_TABLE default
0.000000
0.000000
0.000000
0.000000
0.000000
0.000000
0.000000
0.000000
0.000000
0.000000
0.000000
0.000000
0.000000
0.000000
0.000000
0.000000
0.000000
0.000000
0.000000
0.000000
0.000000
0.000000
0.000000
0.000000
0.000000
0.000000
0.000000
0.000000
0.000000
0.000000
0.000000
0.000000
0.000000
0.000000
0.000000
0.000000
0.000000
0.000000
0.000000
0.000000
0.000038
0.000049
0.000041
0.000023
0.000000
-0.000023
-0.000041
-0.000049
-0.000038
0.000124
0.000176
0.000155
0.000087
-0.000000
-0.000087
-0.000155
-0.000176
-0.000124
0.000212
0.000333
0.000330
0.000194
0.000000
-0.000194
-0.000330
-0.000333
-0.000212
0.000275
0.000451
0.000515
0.000365
0.000000
-0.000365
-0.000515
-0.000451
-0.000275
0.000298
0.000495
0.000573
0.000548
-0.000000
-0.000548
-0.000573
-0.000495
-0.000298
0.000275
0.000451
0.000515
0.000365
0.000000
-0.000365
-0.000515
-0.000451
-0.000275
0.000212
0.000333
0.000330
0.000194
0.000000
-0.000194
-0.000330
-0.000333
-0.000212
0.000124
0.000176
0.000155
0.000087
0.000000
-0.000087
-0.000155
-0.000176
-0.000124
0.000038
0.000049
0.000041
0.000023
0.000000
-0.000023
-0.000041
-0.000049
-0.000038
-0.000000
0.000000
0.000000
-0.000000
-0.000000
-0.000000
-0.000000
-0.000000
-0.000000
0.000000
0.000000
0.000000
0.000000
-0.000000
0.000000
-0.000000
-0.000000
0.000000
-0.000000
0.000000
0.000000
-0.000000
0.000000
-0.000000
0.000000
-0.000000
0.000000
0.000000
0.000000
-0.000000
0.000000
0.000000
0.000000
-0.000000
0.000000
-0.000000
-0.000000
0.000000
-0.000000
0.000000
-0.000038
-0.000049
-0.000041
-0.000023
0.000000
0.000023
0.000041
0.000049
0.000038
-0.000123
-0.000175
-0.000154
-0.000087
0.000000
0.000087
0.000154
0.000175
0.000123
-0.000212
-0.000332
-0.000329
-0.000191
0.000000
0.000191
0.000329
0.000332
0.000212
-0.000274
-0.000449
-0.000511
-0.000365
0.000000
0.000365
0.000511
0.000449
0.000274
-0.000297
-0.000491
-0.000570
-0.000523
-0.000000
0.000523
0.000570
0.000491
0.000297
-0.000274
-0.000449
-0.000511
-0.000365
0.000000
0.000365
0.000511
0.000449
0.000274
-0.000212
-0.000332
-0.000329
-0.000191
0.000000
0.000191
0.000329
0.000332
0.000212
-0.000123
-0.000175
-0.000154
-0.000087
0.000000
0.000087
0.000154
0.000175
0.000123
-0.000038
-0.000049
-0.000041
-0.000023
0.000000
0.000023
0.000041
0.000049
0.000038
-0.000000
-0.000000
0.000000
0.000000
0.000000
-0.000000
0.000000
0.000000
0.000000
-0.000000
0.000000
0.000000
0.000000
-0.000000
-0.000000
0.000000
0.000000
-0.000000
-0.000000
0.000000
0.000000
-0.000000
0.000000
-0.000000
-0.000000
-0.000000
0.000000
-0.000000
0.000000
-0.000000
-0.000000
-0.000000
-0.000000
0.000000
0.000000
-0.000000
-0.000000
0.000000
-0.000000
0.000000
0.000000
0.000000
0.000000
0.000000
0.000000
-0.000000
-0.000000
-0.000000
-0.000000
0.000000
0.000000
0.000001
0.000000
0.000000
-0.000000
-0.000001
-0.000000
-0.000000
0.000000
0.000001
0.000001
0.000001
0.000000
-0.000001
-0.000001
-0.000001
-0.000000
0.000000
0.000001
0.000002
-0.000000
0.000000
0.000000
-0.000002
-0.000001
-0.000000
0.000000
0.000002
0.000001
0.000013
-0.000000
-0.000013
-0.000001
-0.000002
-0.000000
0.000000
0.000001
0.000002
-0.000000
0.000000
0.000000
-0.000002
-0.000001
-0.000000
0.000000
0.000001
0.000001
0.000001
0.000000
-0.000001
-0.000001
-0.000001
-0.000000
0.000000
0.000000
0.000001
0.000000
0.000000
-0.000000
-0.000001
-0.000000
-0.000000
0.000000
0.000000
0.000000
0.000000
0.000000
-0.000000
-0.000000
-0.000000
-0.000000
SCALARS u3 float
LOOKUP_TABLE default
0.000000
0.000000
0.000000
0.000000
0.000000
0.000000
0.000000
0.000000
0.000000
0.000000
0.000000
0.000000
0.000000
0.000000
0.000000
0.000000
0.000000
0.000000
0.000000
0.000000
0.000000
0.000000
0.000000
0.000000
0.000000
0.000000
0.000000
0.000000
0.000000
0.000000
0.000000
0.000000
0.000000
0.000000
0.000000
0.000000
0.000000
0.000000
0.000000
0.000000
0.000857
0.002687
0.004532
0.005831
0.006288
0.005831
0.004532
0.002687
0.000857
0.002687
0.008928
0.015756
0.020666
0.022463
0.020666
0.015756
0.008928
0.002687
0.004532
0.015756
0.029501
0.040337
0.044180
0.040337
0.029501
0.015756
0.004532
0.005831
0.020666
0.040337
0.058917
0.066667
0.058917
0.040337
0.020666
0.005831
0.006288
0.022463
0.044180
0.066667
0.080400
0.066667
0.044180
0.022463
0.006288
0.005831
0.020666
0.040337
0.058917
0.066667
0.058917
0.040337
0.020666
0.005831
0.004532
0.015756
0.029501
0.040337
0.044180
0.040337
0.029501
0.015756
0.004532
0.002687
0.008928
0.015756
0.020666
0.022463
0.020666
0.015756
0.008928
0.002687
0.000857
0.002687
0.004532
0.005831
0.006288
0.005831
0.004532
0.002687
0.000857
0.000000
-0.000000
-0.000000
-0.000000
0.000000
-0.000000
-0.000000
-0.000000
0.000000
-0.000000
-0.000000
-0.000000
0.000000
-0.000000
0.000000
0.000000
0.000000
0.000000
-0.000000
-0.000000
-0.000000
-0.000000
0.000000
-0.000000
-0.000000
0.000000
-0.000000
-0.000000
-0.000000
0.000000
0.000000
0.000000
-0.000000
0.000000
0.000000
-0.000000
0.000000
-0.000000
0.000000
-0.000000
0.000857
0.002687
0.004532
0.005831
0.006288
0.005831
0.004532
0.002687
0.000857
0.002687
0.008928
0.015756
0.020666
0.022463
0.020666
0.015756
0.008928
0.002687
0.004532
0.015756
0.029501
0.040337
0.044180
0.040337
0.029501
0.015756
0.004532
0.005831
0.020666
0.040337
0.058918
0.066665
0.058918
0.040337
0.020666
0.005831
0.006288
0.022463
0.044180
0.066665
0.080410
0.066665
0.044180
0.022463
0.006288
0.005831
0.020666
0.040337
0.058918
0.066665
0.058918
0.040337
0.020666
0.005831
0.004532
0.015756
0.029501
0.040337
0.044180
0.040337
0.029501
0.015756
0.004532
0.002687
0.008928
0.015756
0.020666
0.022463
0.020666
0.015756
0.008928
0.002687
0.000857
0.002687
0.004532
0.005831
0.006288
0.005831
0.004532
0.002687
0.000857
0.000000
0.000000
0.000000
-0.000000
-0.000000
-0.000000
0.000000
0.000000
-0.000000
0.000000
-0.000000
0.000000
0.000000
0.000000
0.000000
0.000000
0.000000
-0.000000
-0.000000
-0.000000
-0.000000
-0.000000
0.000000
-0.000000
0.000000
-0.000000
0.000000
0.000000
-0.000000
-0.000000
-0.000000
-0.000000
0.000000
0.000000
0.000000
0.000000
0.000000
-0.000000
0.000000
0.000000
0.000857
0.002686
0.004530
0.005829
0.006286
0.005829
0.004530
0.002686
0.000857
0.002686
0.008928
0.015756
0.020666
0.022463
0.020666
0.015756
0.008928
0.002686
0.004530
0.015756
0.029502
0.040338
0.044181
0.040338
0.029502
0.015756
0.004530
0.005829
0.020666
0.040338
0.058921
0.066670
0.058921
0.040338
0.020666
0.005829
0.006286
0.022463
0.044181
0.066670
0.080410
0.066670
0.044181
0.022463
0.006286
0.005829
0.020666
0.040338
0.058921
0.066670
0.058921
0.040338
0.020666
0.005829
0.004530
0.015756
0.029502
0.040338
0.044181
0.040338
0.029502
0.015756
0.004530
0.002686
0.008928
0.015756
0.020666
0.022463
0.020666
0.015756
0.008928
0.002686
0.000857
0.002686
0.004530
0.005829
0.006286
0.005829
0.004530
0.002686
0.000857
SCALARS strain_1 float
LOOKUP_TABLE default
0.000000
0.000000
0.000019
0.000000
0.000062
0.000000
0.000106
0.000000
0.000138
0.000000
0.000149
0.000000
0.000138
0.000000
0.000106
0.000000
0.000062
0.000000
0.000019
0.000000
0.000000
-0.000000
0.000006
0.000000
0.000026
0.000000
0.000060
0.000000
0.000088
0.000000
0.000098
0.000001
0.000088
0.000000
0.000060
0.000000
0.000026
0.000000
0.000006
0.000000
0.000000
-0.000000
-0.000004
-0.000000
-0.000010
0.000000
-0.000002
-0.000000
0.000032
0.000001
0.000039
-0.000000
0.000032
0.000001
-0.000002
-0.000000
-0.000010
0.000000
-0.000004
-0.000000
0.000000
0.000000
-0.000009
-0.000000
-0.000034
-0.000000
-0.000068
0.000000
-0.000075
-0.000001
-0.000012
0.000006
-0.000075
-0.000001
-0.000068
0.000000
-0.000034
-0.000000
-0.000009
-0.000000
0.000000
0.000000
-0.000011
-0.000000
-0.000044
-0.000000
-0.000097
-0.000001
-0.000183
0.000000
-0.000274
-0.000006
-0.000183
0.000000
-0.000097
-0.000001
-0.000044
-0.000000
-0.000011
-0.000000
0.000000
-0.000000
-0.000011
-0.000000
-0.000044
-0.000000
-0.000097
-0.000001
-0.000183
0.000000
-0.000274
-0.000006
-0.000183
0.000000
-0.000097
-0.000001
-0.000044
-0.000000
-0.000011
-0.000000
0.000000
0.000000
-0.000009
-0.000000
-0.000034
-0.000000
-0.000068
0.000000
-0.000075
-0.000001
-0.000012
0.000006
-0.000075
-0.000001
-0.000068
0.000000
-0.000034
-0.000000
-0.000009
-0.000000
0.000000
-0.000000
-0.000004
-0.000000
-0.000010
0.000000
-0.000002
-0.000000
0.000032
0.000001
0.000039
-0.000000
0.000032
0.000001
-0.000002
-0.000000
-0.000010
0.000000
-0.000004
-0.000000
0.000000
0.000000
0.000006
0.000000
0.000026
0.000000
0.000060
0.000000
0.000088
0.000000
0.000098
0.000001
0.000088
0.000000
0.000060
0.000000
0.000026
0.000000
0.000006
0.000000
0.000000
-0.000000
0.000019
0.000000
0.000062
0.000000
0.000106
0.000000
0.000138
0.000000
0.000149
0.000000
0.000138
0.000000
0.000106
0.000000
0.000062
0.000000
0.000019
0.000000
SCALARS strain_2 float
LOOKUP_TABLE default
0.000019
0.000000
0.000006
0.000000
-0.000004
-0.000000
-0.000009
-0.000000
-0.000011
-0.000000
-0.000011
-0.000000
-0.000009
-0.000000
-0.000004
-0.000000
0.000006
0.000000
0.000019
0.000000
0.000062
0.000000
0.000026
0.000000
-0.000010
0.000000
-0.000034
-0.000000
-0.000044
-0.000000
-0.000044
-0.000000
-0.000034
-0.000000
-0.000010
0.000000
0.000026
0.000000
0.000062
0.000000
0.000106
0.000000
0.000060
0.000000
-0.000002
-0.000000
-0.000068
0.000000
-0.000097
-0.000001
-0.000097
-0.000001
-0.000068
0.000000
-0.000002
-0.000000
0.000060
0.000000
0.000106
0.000000
0.000138
0.000000
0.000088
0.000000
0.000032
0.000001
-0.000075
-0.000001
-0.000183
0.000000
-0.000183
0.000000
-0.000075
-0.000001
0.000032
0.000001
0.000088
0.000000
0.000138
0.000000
0.000149
0.000000
0.000098
0.000001
0.000039
-0.000000
-0.000012
0.000006
-0.000274
-0.000006
-0.000274
-0.000006
-0.000012
0.000006
0.000039
-0.000000
0.000098
0.000001
0.000149
0.000000
0.000138
0.000000
0.000088
0.000000
0.000032
0.000001
-0.000075
-0.000001
-0.000183
0.000000
-0.000183
0.000000
-0.000075
-0.000001
0.000032
0.000001
0.000088
0.000000
0.000138
0.000000
0.000106
0.000000
0.000060
0.000000
-0.000002
-0.000000
-0.000068
0.000000
-0.000097
-0.000001
-0.000097
-0.000001
-0.000068
0.000000
-0.000002
-0.000000
0.000060
0.000000
0.000106
0.000000
0.000062
0.000000
0.000026
0.000000
-0.000010
0.000000
-0.000034
-0.000000
-0.000044
-0.000000
-0.000044
-0.000000
-0.000034
-0.000000
-0.000010
0.000000
0.000026
0.000000
0.000062
0.000000
0.000019
0.000000
0.000006
0.000000
-0.000004
-0.000000
-0.000009
-0.000000
-0.000011
-0.000000
-0.000011
-0.000000
-0.000009
-0.000000
-0.000004
-0.000000
0.000006
0.000000
0.000019
0.000000
0.000000
0.000000
0.000000
-0.000000
0.000000
0.000000
0.000000
0.000000
0.000000
-0.000000
0.000000
-0.000000
0.000000
-0.000000
0.000000
0.000000
0.000000
-0.000000
0.000000
0.000000
SCALARS strain_3 float
LOOKUP_TABLE default
0.000010
0.000000
0.000031
0.000000
0.000035
0.000000
0.000026
0.000000
0.000011
0.000000
-0.000006
0.000000
-0.000021
-0.000000
-0.000033
-0.000000
-0.000034
-0.000000
-0.000019
-0.000000
0.000012
0.000000
0.000053
0.000000
0.000071
0.000000
0.000058
0.000000
0.000027
0.000000
-0.000011
-0.000000
-0.000045
-0.000000
-0.000068
-0.000000
-0.000063
-0.000000
-0.000034
-0.000000
0.000010
0.000000
0.000051
0.000000
0.000083
0.000000
0.000090
0.000000
0.000041
0.000000
-0.000014
0.000000
-0.000073
-0.000001
-0.000088
-0.000000
-0.000068
-0.000000
-0.000033
-0.000000
0.000006
0.000000
0.000032
0.000000
0.000056
0.000000
0.000089
0.000000
0.000088
0.000003
-0.000046
-0.000003
-0.000085
0.000001
-0.000073
-0.000001
-0.000045
-0.000000
-0.000021
-0.000000
-0.000000
0.000000
0.000006
-0.000000
0.000011
0.000000
0.000014
-0.000000
0.000046
0.000003
-0.000000
-0.000000
-0.000046
-0.000003
-0.000014
0.000000
-0.000011
-0.000000
-0.000006
0.000000
-0.000006
-0.000000
-0.000022
0.000000
-0.000038
-0.000000
-0.000057
0.000001
-0.000092
-0.000006
0.000046
0.000003
0.000088
0.000003
0.000041
0.000000
0.000027
0.000000
0.000011
0.000000
-0.000010
-0.000000
-0.000044
-0.000000
-0.000073
-0.000000
-0.000093
-0.000001
-0.000057
0.000001
0.000014
-0.000000
0.000089
0.000000
0.000090
0.000000
0.000058
0.000000
0.000026
0.000000
-0.000012
-0.000000
-0.000054
-0.000000
-0.000079
-0.000000
-0.000073
-0.000000
-0.000038
-0.000000
0.000011
0.000000
0.000056
0.000000
0.000083
0.000000
0.000071
0.000000
0.000035
0.000000
-0.000010
-0.000000
-0.000043
-0.000000
-0.000054
-0.000000
-0.000044
-0.000000
-0.000022
0.000000
0.000006
-0.000000
0.000032
0.000000
0.000051
0.000000
0.000053
0.000000
0.000031
0.000000
0.000000
0.000000
-0.000010
-0.000000
-0.000012
-0.000000
-0.000010
-0.000000
-0.000006
-0.000000
-0.000000
0.000000
0.000006
0.000000
0.000010
0.000000
0.000012
0.000000
0.000010
0.000000
SCALARS stress_1 float
LOOKUP_TABLE default
189.095235
0.663882
685.583602
2.707343
1998.052905
3.709579
3411.282821
5.124718
4424.980667
6.530559
4801.940442
5.880231
4447.507257
7.398045
3461.804926
5.221777
2093.582587
4.237679
819.412684
2.875293
611.494930
1.122451
442.811387
2.436136
758.281586
3.569686
1658.755128
4.595640
2459.940302
6.895252
2803.943787
17.096339
2557.850845
6.321028
1889.310758
7.269775
1120.560463
3.398122
795.715441
2.774580
1050.620537
1.575798
463.687865
1.785862
-362.081197
2.877205
-726.025154
2.845253
103.167874
12.553334
327.404688
-12.415445
392.880052
23.463140
-71.302951
-1.337323
252.272958
5.080027
916.408774
1.467952
1361.487868
2.258900
565.009562
1.979942
-794.928402
0.148790
-2980.001888
2.076921
-4281.407530
-35.831532
-2208.896806
189.110562
-3218.566530
-46.957247
-1918.038731
18.789962
-246.517094
-3.316138
1058.869086
1.826394
1474.575800
2.063239
593.121972
2.148670
-1054.025837
-5.427765
-3323.955930
33.193529
-8729.524104
-61.603038
-11747.234902
-271.127109
-6139.616647
57.611097
-2816.474946
-25.066692
-469.684526
1.658267
1096.868384
-1.260297
1361.487868
2.257737
489.920926
-0.911656
-1121.296881
2.062869
-3945.709147
-34.289099
-7824.210865
1.254183
-10841.921663
-208.269888
-6761.369864
-9.871531
-2883.745990
-17.576058
-572.885572
-1.402059
983.780451
-1.065373
1050.620537
1.576360
295.280847
1.462326
-1130.599964
-6.036577
-2908.432496
16.787171
-3436.709315
-43.156803
-1364.198591
181.785292
-3146.997138
-32.246997
-2253.710293
12.604596
-516.245809
-3.833755
748.001756
1.144048
611.494930
1.122610
124.379114
0.675835
-449.314670
4.141564
-389.092055
-2.747099
631.902607
18.445012
856.139420
-6.523767
729.813150
17.870788
-158.536425
-0.072965
-87.035793
3.970001
477.283167
1.014177
189.095235
0.663732
239.486664
2.147540
821.706059
2.581436
1902.213125
6.184464
2778.782251
7.042373
3122.785737
17.243460
2801.308842
7.909852
1952.735230
6.281525
917.235741
3.109527
373.315745
2.315499
0.000000
-0.000579
630.317449
2.212175
2038.316434
3.742418
3502.068455
5.254233
4538.292892
7.527224
4915.252667
6.877115
4538.292892
7.527241
3502.068455
5.254509
2038.316434
3.741805
630.317450
2.211799
SCALARS stress_2 float
LOOKUP_TABLE default
630.317449
2.211854
373.315745
2.315481
477.283168
1.014278
748.001756
1.144402
983.780451
-1.065200
1096.868384
-1.260298
1058.869087
1.826401
916.408774
1.467937
795.715441
2.774582
819.412684
2.875272
2038.316434
3.741959
917.235741
3.109527
-87.035793
3.970001
-516.245809
-3.833755
-572.885572
-1.402059
-469.684526
1.658267
-246.517093
-3.316138
252.272958
5.080027
1120.560463
3.398122
2093.582587
4.237672
3502.068455
5.253923
1952.735231
6.281525
-158.536425
-0.072965
-2253.710293
12.604596
-2883.745990
-17.576058
-2816.474946
-25.066692
-1918.038732
18.789962
-71.302951
-1.337323
1889.310758
7.269774
3461.804926
5.221825
4538.292892
7.528389
2801.308842
7.909852
729.813150
17.870788
-3146.997138
-32.246997
-6761.369864
-9.871532
-6139.616647
57.611096
-3218.566530
-46.957247
392.880052
23.463140
2557.850845
6.321028
4447.507258
7.398023
4915.252668
6.877196
3122.785737
17.243460
856.139420
-6.523767
-1364.198591
181.785292
-10841.921664
-208.269889
-11747.234903
-271.127109
-2208.896806
189.110562
327.404688
-12.415445
2803.943787
17.096339
4801.940442
5.880236
4538.292892
7.527121
2778.782251
7.042372
631.902607
18.445012
-3436.709315
-43.156803
-7824.210864
1.254183
-8729.524104
-61.603038
-4281.407530
-35.831532
103.167874
12.553334
2459.940302
6.895252
4424.980667
6.529983
3502.068455
5.254141
1902.213125
6.184464
-389.092055
-2.747099
-2908.432496
16.787171
-3945.709147
-34.289099
-3323.955930
33.193529
-2980.001888
2.076921
-726.025154
2.845252
1658.755128
4.595640
3411.282821
5.123538
2038.316434
3.742275
821.706059
2.581436
-449.314670
4.141564
-1130.599964
-6.036577
-1121.296881
2.062869
-1054.025836
-5.427765
-794.928402
0.148790
-362.081197
2.877205
758.281586
3.569686
1998.052905
3.709244
630.317449
2.211495
239.486664
2.147540
124.379114
0.675835
295.280847
1.462326
489.920926
-0.911656
593.121972
2.148670
565.009562
1.979943
463.687865
1.785862
442.811387
2.436136
685.583603
2.707402
0.000000
0.000322
189.095235
0.663164
611.494930
1.122953
1050.620536
1.576816
1361.487868
2.257911
1474.575800
2.062842
1361.487868
2.258125
1050.620537
1.576513
611.494930
1.122440
189.095235
0.663927
SCALARS stress_3 float
LOOKUP_TABLE default
220.611107
0.774110
713.410752
1.309731
797.401493
1.881568
600.792722
2.110039
264.133517
0.935604
-131.935921
0.227616
-494.876149
-1.958883
-750.427376
-1.843646
-777.887931
-1.887913
-441.222215
-1.548230
285.088286
1.352280
1222.811466
1.407928
1638.185239
2.696611
1333.378658
3.424819
624.319416
3.514406
-252.337141
-3.342765
-1049.344328
-1.571191
-1564.190021
-3.849569
-1460.023643
-1.744623
-777.887931
-1.887916
238.114169
1.314531
1168.329811
2.554538
1918.119221
2.173514
2078.924679
8.965024
947.677214
1.477316
-330.820026
5.396308
-1685.836064
-15.489435
-2019.891607
-0.698429
-1564.190021
-3.849569
-750.427377
-1.843647
132.197596
1.162860
734.660827
0.967305
1294.219242
8.273174
2054.460127
0.069661
2041.680030
64.787276
-1056.198779
-73.333425
-1970.962502
17.092297
-1685.836064
-15.489435
-1049.344328
-1.571191
-494.876149
-1.958891
-0.000000
0.000188
131.935921
-0.227616
252.337141
3.342765
330.820026
-5.396308
1056.198779
73.333425
-0.000000
-0.000000
-1056.198780
-73.333425
-330.820026
5.396308
-252.337141
-3.342765
-131.935921
0.227648
-132.197596
-1.163056
-503.918196
0.055975
-869.194330
-10.216389
-1316.301277
13.942457
-2112.397559
-146.666850
1056.198780
73.333425
2041.680031
64.787276
947.677214
1.477316
624.319416
3.514406
264.133517
0.935459
-238.114169
-1.314408
-1018.695157
-2.820933
-1687.307857
-1.748764
-2137.957751
-17.231620
-1316.301277
13.942457
330.820026
-5.396308
2054.460127
0.069661
2078.924679
8.965024
1333.378658
3.424819
600.792722
2.109941
-285.088286
-1.352377
-1242.325029
-1.401580
-1816.346835
-3.648598
-1687.307858
-1.748764
-869.194330
-10.216389
252.337141
3.342765
1294.219242
8.273174
1918.119221
2.173514
1638.185239
2.696611
797.401494
1.881632
-220.611107
-0.773968
-985.599289
-1.071232
-1242.325029
-1.401580
-1018.695157
-2.820933
-503.918196
0.055975
131.935921
-0.227616
734.660827
0.967305
1168.329811
2.554538
1222.811466
1.407928
713.410752
1.309642
0.000000
0.000197
-220.611107
-0.774129
-285.088286
-1.352556
-238.114169
-1.314402
-132.197596
-1.162926
-0.000000
0.000011
132.197596
1.163401
238.114169
1.314210
285.088286
1.352399
220.611107
0.774037
