# vtk DataFile Version 2.0
Generated volume Mesh
ASCII
DATASET UNSTRUCTURED_GRID
POINTS 891 float
0.005000 0.100000 0.000000
0.005000 0.000000 0.000000
0.005000 0.001250 0.000000
0.005000 0.002500 0.000000
0.005000 0.003750 0.000000
0.005000 0.005000 0.000000
0.005000 0.006250 0.000000
0.005000 0.007500 0.000000
0.005000 0.008750 0.000000
0.005000 0.010000 0.000000
0.005000 0.011250 0.000000
0.005000 0.012500 0.000000
0.005000 0.013750 0.000000
0.005000 0.015000 0.000000
0.005000 0.016250 0.000000
0.005000 0.017500 0.000000
0.005000 0.018750 0.000000
0.005000 0.020000 0.000000
0.005000 0.021250 0.000000
0.005000 0.022500 0.000000
0.005000 0.023750 0.000000
0.005000 0.025000 0.000000
0.005000 0.026250 0.000000
0.005000 0.027500 0.000000
0.005000 0.028750 0.000000
0.005000 0.030000 0.000000
0.005000 0.031250 0.000000
0.005000 0.032500 0.000000
0.005000 0.033750 0.000000
0.005000 0.035000 0.000000
0.005000 0.036250 0.000000
0.005000 0.037500 0.000000
0.005000 0.038750 0.000000
0.005000 0.040000 0.000000
0.005000 0.041250 0.000000
0.005000 0.042500 0.000000
0.005000 0.043750 0.000000
0.005000 0.045000 0.000000
0.005000 0.046250 0.000000
0.005000 0.047500 0.000000
0.005000 0.048750 0.000000
0.005000 0.050000 0.000000
0.005000 0.051250 0.000000
0.005000 0.052500 0.000000
0.005000 0.053750 0.000000
0.005000 0.055000 0.000000
0.005000 0.056250 0.000000
0.005000 0.057500 0.000000
0.005000 0.058750 0.000000
0.005000 0.060000 0.000000
0.005000 0.061250 0.000000
0.005000 0.062500 0.000000
0.005000 0.063750 0.000000
0.005000 0.065000 0.000000
0.005000 0.066250 0.000000
0.005000 0.067500 0.000000
0.005000 0.068750 0.000000
0.005000 0.070000 0.000000
0.005000 0.071250 0.000000
0.005000 0.072500 0.000000
0.005000 0.073750 0.000000
0.005000 0.075000 0.000000
0.005000 0.076250 0.000000
0.005000 0.077500 0.000000
0.005000 0.078750 0.000000
0.005000 0.080000 0.000000
0.005000 0.081250 0.000000
0.005000 0.082500 0.000000
0.005000 0.083750 0.000000
0.005000 0.085000 0.000000
0.005000 0.086250 0.000000
0.005000 0.087500 0.000000
0.005000 0.088750 0.000000
0.005000 0.090000 0.000000
0.005000 0.091250 0.000000
0.005000 0.092500 0.000000
0.005000 0.093750 0.000000
0.005000 0.095000 0.000000
0.005000 0.096250 0.000000
0.005000 0.097500 0.000000
0.005000 0.098750 0.000000
0.000000 0.000000 0.000000
0.000000 0.100000 0.000000
0.000000 0.098750 0.000000
0.000000 0.097500 0.000000
0.000000 0.096250 0.000000
0.000000 0.095000 0.000000
0.000000 0.093750 0.000000
0.000000 0.092500 0.000000
0.000000 0.091250 0.000000
0.000000 0.090000 0.000000
0.000000 0.088750 0.000000
0.000000 0.087500 0.000000
0.000000 0.086250 0.000000
0.000000 0.085000 0.000000
0.000000 0.083750 0.000000
0.000000 0.082500 0.000000
0.000000 0.081250 0.000000
0.000000 0.080000 0.000000
0.000000 0.078750 0.000000
0.000000 0.077500 0.000000
0.000000 0.076250 0.000000
0.000000 0.075000 0.000000
0.000000 0.073750 0.000000
0.000000 0.072500 0.000000
0.000000 0.071250 0.000000
0.000000 0.070000 0.000000
0.000000 0.068750 0.000000
0.000000 0.067500 0.000000
0.000000 0.066250 0.000000
0.000000 0.065000 0.000000
0.000000 0.063750 0.000000
0.000000 0.062500 0.000000
0.000000 0.061250 0.000000
0.000000 0.060000 0.000000
0.000000 0.058750 0.000000
0.000000 0.057500 0.000000
0.000000 0.056250 0.000000
0.000000 0.055000 0.000000
0.000000 0.053750 0.000000
0.000000 0.052500 0.000000
0.000000 0.051250 0.000000
0.000000 0.050000 0.000000
0.000000 0.048750 0.000000
0.000000 0.047500 0.000000
0.000000 0.046250 0.000000
0.000000 0.045000 0.000000
0.000000 0.043750 0.000000
0.000000 0.042500 0.000000
0.000000 0.041250 0.000000
0.000000 0.040000 0.000000
0.000000 0.038750 0.000000
0.000000 0.037500 0.000000
0.000000 0.036250 0.000000
0.000000 0.035000 0.000000
0.000000 0.033750 0.000000
0.000000 0.032500 0.000000
0.000000 0.031250 0.000000
0.000000 0.030000 0.000000
0.000000 0.028750 0.000000
0.000000 0.027500 0.000000
0.000000 0.026250 0.000000
0.000000 0.025000 0.000000
0.000000 0.023750 0.000000
0.000000 0.022500 0.000000
0.000000 0.021250 0.000000
0.000000 0.020000 0.000000
0.000000 0.018750 0.000000
0.000000 0.017500 0.000000
0.000000 0.016250 0.000000
0.000000 0.015000 0.000000
0.000000 0.013750 0.000000
0.000000 0.012500 0.000000
0.000000 0.011250 0.000000
0.000000 0.010000 0.000000
0.000000 0.008750 0.000000
0.000000 0.007500 0.000000
0.000000 0.006250 0.000000
0.000000 0.005000 0.000000
0.000000 0.003750 0.000000
0.000000 0.002500 0.000000
0.000000 0.001250 0.000000
0.000500 0.000000 0.000000
0.001000 0.000000 0.000000
0.001500 0.000000 0.000000
0.002000 0.000000 0.000000
0.002500 0.000000 0.000000
0.003000 0.000000 0.000000
0.003500 0.000000 0.000000
0.004000 0.000000 0.000000
0.004500 0.000000 0.000000
0.004500 0.100000 0.000000
0.004000 0.100000 0.000000
0.003500 0.100000 0.000000
0.003000 0.100000 0.000000
0.002500 0.100000 0.000000
0.002000 0.100000 0.000000
0.001500 0.100000 0.000000
0.001000 0.100000 0.000000
0.000500 0.100000 0.000000
0.000500 0.098750 0.000000
0.001000 0.098750 0.000000
0.001500 0.098750 0.000000
0.002000 0.098750 0.000000
0.002500 0.098750 0.000000
0.003000 0.098750 0.000000
0.003500 0.098750 0.000000
0.004000 0.098750 0.000000
0.004500 0.098750 0.000000
0.000500 0.097500 0.000000
0.001000 0.097500 0.000000
0.001500 0.097500 0.000000
0.002000 0.097500 0.000000
0.002500 0.097500 0.000000
0.003000 0.097500 0.000000
0.003500 0.097500 0.000000
0.004000 0.097500 0.000000
0.004500 0.097500 0.000000
0.000500 0.096250 0.000000
0.001000 0.096250 0.000000
0.001500 0.096250 0.000000
0.002000 0.096250 0.000000
0.002500 0.096250 0.000000
0.003000 0.096250 0.000000
0.003500 0.096250 0.000000
0.004000 0.096250 0.000000
0.004500 0.096250 0.000000
0.000500 0.095000 0.000000
0.001000 0.095000 0.000000
0.001500 0.095000 0.000000
0.002000 0.095000 0.000000
0.002500 0.095000 0.000000
0.003000 0.095000 0.000000
0.003500 0.095000 0.000000
0.004000 0.095000 0.000000
0.004500 0.095000 0.000000
0.000500 0.093750 0.000000
0.001000 0.093750 0.000000
0.001500 0.093750 0.000000
0.002000 0.093750 0.000000
0.002500 0.093750 0.000000
0.003000 0.093750 0.000000
0.003500 0.093750 0.000000
0.004000 0.093750 0.000000
0.004500 0.093750 0.000000
0.000500 0.092500 0.000000
0.001000 0.092500 0.000000
0.001500 0.092500 0.000000
0.002000 0.092500 0.000000
0.002500 0.092500 0.000000
0.003000 0.092500 0.000000
0.003500 0.092500 0.000000
0.004000 0.092500 0.000000
0.004500 0.092500 0.000000
0.000500 0.091250 0.000000
0.001000 0.091250 0.000000
0.001500 0.091250 0.000000
0.002000 0.091250 0.000000
0.002500 0.091250 0.000000
0.003000 0.091250 0.000000
0.003500 0.091250 0.000000
0.004000 0.091250 0.000000
0.004500 0.091250 0.000000
0.000500 0.090000 0.000000
0.001000 0.090000 0.000000
0.001500 0.090000 0.000000
0.002000 0.090000 0.000000
0.002500 0.090000 0.000000
0.003000 0.090000 0.000000
0.003500 0.090000 0.000000
0.004000 0.090000 0.000000
0.004500 0.090000 0.000000
0.000500 0.088750 0.000000
0.001000 0.088750 0.000000
0.001500 0.088750 0.000000
0.002000 0.088750 0.000000
0.002500 0.088750 0.000000
0.003000 0.088750 0.000000
0.003500 0.088750 0.000000
0.004000 0.088750 0.000000
0.004500 0.088750 0.000000
0.000500 0.087500 0.000000
0.001000 0.087500 0.000000
0.001500 0.087500 0.000000
0.002000 0.087500 0.000000
0.002500 0.087500 0.000000
0.003000 0.087500 0.000000
0.003500 0.087500 0.000000
0.004000 0.087500 0.000000
0.004500 0.087500 0.000000
0.000500 0.086250 0.000000
0.001000 0.086250 0.000000
0.001500 0.086250 0.000000
0.002000 0.086250 0.000000
0.002500 0.086250 0.000000
0.003000 0.086250 0.000000
0.003500 0.086250 0.000000
0.004000 0.086250 0.000000
0.004500 0.086250 0.000000
0.000500 0.085000 0.000000
0.001000 0.085000 0.000000
0.001500 0.085000 0.000000
0.002000 0.085000 0.000000
0.002500 0.085000 0.000000
0.003000 0.085000 0.000000
0.003500 0.085000 0.000000
0.004000 0.085000 0.000000
0.004500 0.085000 0.000000
0.000500 0.083750 0.000000
0.001000 0.083750 0.000000
0.001500 0.083750 0.000000
0.002000 0.083750 0.000000
0.002500 0.083750 0.000000
0.003000 0.083750 0.000000
0.003500 0.083750 0.000000
0.004000 0.083750 0.000000
0.004500 0.083750 0.000000
0.000500 0.082500 0.000000
0.001000 0.082500 0.000000
0.001500 0.082500 0.000000
0.002000 0.082500 0.000000
0.002500 0.082500 0.000000
0.003000 0.082500 0.000000
0.003500 0.082500 0.000000
0.004000 0.082500 0.000000
0.004500 0.082500 0.000000
0.000500 0.081250 0.000000
0.001000 0.081250 0.000000
0.001500 0.081250 0.000000
0.002000 0.081250 0.000000
0.002500 0.081250 0.000000
0.003000 0.081250 0.000000
0.003500 0.081250 0.000000
0.004000 0.081250 0.000000
0.004500 0.081250 0.000000
0.000500 0.080000 0.000000
0.001000 0.080000 0.000000
0.001500 0.080000 0.000000
0.002000 0.080000 0.000000
0.002500 0.080000 0.000000
0.003000 0.080000 0.000000
0.003500 0.080000 0.000000
0.004000 0.080000 0.000000
0.004500 0.080000 0.000000
0.000500 0.078750 0.000000
0.001000 0.078750 0.000000
0.001500 0.078750 0.000000
0.002000 0.078750 0.000000
0.002500 0.078750 0.000000
0.003000 0.078750 0.000000
0.003500 0.078750 0.000000
0.004000 0.078750 0.000000
0.004500 0.078750 0.000000
0.000500 0.077500 0.000000
0.001000 0.077500 0.000000
0.001500 0.077500 0.000000
0.002000 0.077500 0.000000
0.002500 0.077500 0.000000
0.003000 0.077500 0.000000
0.003500 0.077500 0.000000
0.004000 0.077500 0.000000
0.004500 0.077500 0.000000
0.000500 0.076250 0.000000
0.001000 0.076250 0.000000
0.001500 0.076250 0.000000
0.002000 0.076250 0.000000
0.002500 0.076250 0.000000
0.003000 0.076250 0.000000
0.003500 0.076250 0.000000
0.004000 0.076250 0.000000
0.004500 0.076250 0.000000
0.000500 0.075000 0.000000
0.001000 0.075000 0.000000
0.001500 0.075000 0.000000
0.002000 0.075000 0.000000
0.002500 0.075000 0.000000
0.003000 0.075000 0.000000
0.003500 0.075000 0.000000
0.004000 0.075000 0.000000
0.004500 0.075000 0.000000
0.000500 0.073750 0.000000
0.001000 0.073750 0.000000
0.001500 0.073750 0.000000
0.002000 0.073750 0.000000
0.002500 0.073750 0.000000
0.003000 0.073750 0.000000
0.003500 0.073750 0.000000
0.004000 0.073750 0.000000
0.004500 0.073750 0.000000
0.000500 0.072500 0.000000
0.001000 0.072500 0.000000
0.001500 0.072500 0.000000
0.002000 0.072500 0.000000
0.002500 0.072500 0.000000
0.003000 0.072500 0.000000
0.003500 0.072500 0.000000
0.004000 0.072500 0.000000
0.004500 0.072500 0.000000
0.000500 0.071250 0.000000
0.001000 0.071250 0.000000
0.001500 0.071250 0.000000
0.002000 0.071250 0.000000
0.002500 0.071250 0.000000
0.003000 0.071250 0.000000
0.003500 0.071250 0.000000
0.004000 0.071250 0.000000
0.004500 0.071250 0.000000
0.000500 0.070000 0.000000
0.001000 0.070000 0.000000
0.001500 0.070000 0.000000
0.002000 0.070000 0.000000
0.002500 0.070000 0.000000
0.003000 0.070000 0.000000
0.003500 0.070000 0.000000
0.004000 0.070000 0.000000
0.004500 0.070000 0.000000
0.000500 0.068750 0.000000
0.001000 0.068750 0.000000
0.001500 0.068750 0.000000
0.002000 0.068750 0.000000
0.002500 0.068750 0.000000
0.003000 0.068750 0.000000
0.003500 0.068750 0.000000
0.004000 0.068750 0.000000
0.004500 0.068750 0.000000
0.000500 0.067500 0.000000
0.001000 0.067500 0.000000
0.001500 0.067500 0.000000
0.002000 0.067500 0.000000
0.002500 0.067500 0.000000
0.003000 0.067500 0.000000
0.003500 0.067500 0.000000
0.004000 0.067500 0.000000
0.004500 0.067500 0.000000
0.000500 0.066250 0.000000
0.001000 0.066250 0.000000
0.001500 0.066250 0.000000
0.002000 0.066250 0.000000
0.002500 0.066250 0.000000
0.003000 0.066250 0.000000
0.003500 0.066250 0.000000
0.004000 0.066250 0.000000
0.004500 0.066250 0.000000
0.000500 0.065000 0.000000
0.001000 0.065000 0.000000
0.001500 0.065000 0.000000
0.002000 0.065000 0.000000
0.002500 0.065000 0.000000
0.003000 0.065000 0.000000
0.003500 0.065000 0.000000
0.004000 0.065000 0.000000
0.004500 0.065000 0.000000
0.000500 0.063750 0.000000
0.001000 0.063750 0.000000
0.001500 0.063750 0.000000
0.002000 0.063750 0.000000
0.002500 0.063750 0.000000
0.003000 0.063750 0.000000
0.003500 0.063750 0.000000
0.004000 0.063750 0.000000
0.004500 0.063750 0.000000
0.000500 0.062500 0.000000
0.001000 0.062500 0.000000
0.001500 0.062500 0.000000
0.002000 0.062500 0.000000
0.002500 0.062500 0.000000
0.003000 0.062500 0.000000
0.003500 0.062500 0.000000
0.004000 0.062500 0.000000
0.004500 0.062500 0.000000
0.000500 0.061250 0.000000
0.001000 0.061250 0.000000
0.001500 0.061250 0.000000
0.002000 0.061250 0.000000
0.002500 0.061250 0.000000
0.003000 0.061250 0.000000
0.003500 0.061250 0.000000
0.004000 0.061250 0.000000
0.004500 0.061250 0.000000
0.000500 0.060000 0.000000
0.001000 0.060000 0.000000
0.001500 0.060000 0.000000
0.002000 0.060000 0.000000
0.002500 0.060000 0.000000
0.003000 0.060000 0.000000
0.003500 0.060000 0.000000
0.004000 0.060000 0.000000
0.004500 0.060000 0.000000
0.000500 0.058750 0.000000
0.001000 0.058750 0.000000
0.001500 0.058750 0.000000
0.002000 0.058750 0.000000
0.002500 0.058750 0.000000
0.003000 0.058750 0.000000
0.003500 0.058750 0.000000
0.004000 0.058750 0.000000
0.004500 0.058750 0.000000
0.000500 0.057500 0.000000
0.001000 0.057500 0.000000
0.001500 0.057500 0.000000
0.002000 0.057500 0.000000
0.002500 0.057500 0.000000
0.003000 0.057500 0.000000
0.003500 0.057500 0.000000
0.004000 0.057500 0.000000
0.004500 0.057500 0.000000
0.000500 0.056250 0.000000
0.001000 0.056250 0.000000
0.001500 0.056250 0.000000
0.002000 0.056250 0.000000
0.002500 0.056250 0.000000
0.003000 0.056250 0.000000
0.003500 0.056250 0.000000
0.004000 0.056250 0.000000
0.004500 0.056250 0.000000
0.000500 0.055000 0.000000
0.001000 0.055000 0.000000
0.001500 0.055000 0.000000
0.002000 0.055000 0.000000
0.002500 0.055000 0.000000
0.003000 0.055000 0.000000
0.003500 0.055000 0.000000
0.004000 0.055000 0.000000
0.004500 0.055000 0.000000
0.000500 0.053750 0.000000
0.001000 0.053750 0.000000
0.001500 0.053750 0.000000
0.002000 0.053750 0.000000
0.002500 0.053750 0.000000
0.003000 0.053750 0.000000
0.003500 0.053750 0.000000
0.004000 0.053750 0.000000
0.004500 0.053750 0.000000
0.000500 0.052500 0.000000
0.001000 0.052500 0.000000
0.001500 0.052500 0.000000
0.002000 0.052500 0.000000
0.002500 0.052500 0.000000
0.003000 0.052500 0.000000
0.003500 0.052500 0.000000
0.004000 0.052500 0.000000
0.004500 0.052500 0.000000
0.000500 0.051250 0.000000
0.001000 0.051250 0.000000
0.001500 0.051250 0.000000
0.002000 0.051250 0.000000
0.002500 0.051250 0.000000
0.003000 0.051250 0.000000
0.003500 0.051250 0.000000
0.004000 0.051250 0.000000
0.004500 0.051250 0.000000
0.000500 0.050000 0.000000
0.001000 0.050000 0.000000
0.001500 0.050000 0.000000
0.002000 0.050000 0.000000
0.002500 0.050000 0.000000
0.003000 0.050000 0.000000
0.003500 0.050000 0.000000
0.004000 0.050000 0.000000
0.004500 0.050000 0.000000
0.000500 0.048750 0.000000
0.001000 0.048750 0.000000
0.001500 0.048750 0.000000
0.002000 0.048750 0.000000
0.002500 0.048750 0.000000
0.003000 0.048750 0.000000
0.003500 0.048750 0.000000
0.004000 0.048750 0.000000
0.004500 0.048750 0.000000
0.000500 0.047500 0.000000
0.001000 0.047500 0.000000
0.001500 0.047500 0.000000
0.002000 0.047500 0.000000
0.002500 0.047500 0.000000
0.003000 0.047500 0.000000
0.003500 0.047500 0.000000
0.004000 0.047500 0.000000
0.004500 0.047500 0.000000
0.000500 0.046250 0.000000
0.001000 0.046250 0.000000
0.001500 0.046250 0.000000
0.002000 0.046250 0.000000
0.002500 0.046250 0.000000
0.003000 0.046250 0.000000
0.003500 0.046250 0.000000
0.004000 0.046250 0.000000
0.004500 0.046250 0.000000
0.000500 0.045000 0.000000
0.001000 0.045000 0.000000
0.001500 0.045000 0.000000
0.002000 0.045000 0.000000
0.002500 0.045000 0.000000
0.003000 0.045000 0.000000
0.003500 0.045000 0.000000
0.004000 0.045000 0.000000
0.004500 0.045000 0.000000
0.000500 0.043750 0.000000
0.001000 0.043750 0.000000
0.001500 0.043750 0.000000
0.002000 0.043750 0.000000
0.002500 0.043750 0.000000
0.003000 0.043750 0.000000
0.003500 0.043750 0.000000
0.004000 0.043750 0.000000
0.004500 0.043750 0.000000
0.000500 0.042500 0.000000
0.001000 0.042500 0.000000
0.001500 0.042500 0.000000
0.002000 0.042500 0.000000
0.002500 0.042500 0.000000
0.003000 0.042500 0.000000
0.003500 0.042500 0.000000
0.004000 0.042500 0.000000
0.004500 0.042500 0.000000
0.000500 0.041250 0.000000
0.001000 0.041250 0.000000
0.001500 0.041250 0.000000
0.002000 0.041250 0.000000
0.002500 0.041250 0.000000
0.003000 0.041250 0.000000
0.003500 0.041250 0.000000
0.004000 0.041250 0.000000
0.004500 0.041250 0.000000
0.000500 0.040000 0.000000
0.001000 0.040000 0.000000
0.001500 0.040000 0.000000
0.002000 0.040000 0.000000
0.002500 0.040000 0.000000
0.003000 0.040000 0.000000
0.003500 0.040000 0.000000
0.004000 0.040000 0.000000
0.004500 0.040000 0.000000
0.000500 0.038750 0.000000
0.001000 0.038750 0.000000
0.001500 0.038750 0.000000
0.002000 0.038750 0.000000
0.002500 0.038750 0.000000
0.003000 0.038750 0.000000
0.003500 0.038750 0.000000
0.004000 0.038750 0.000000
0.004500 0.038750 0.000000
0.000500 0.037500 0.000000
0.001000 0.037500 0.000000
0.001500 0.037500 0.000000
0.002000 0.037500 0.000000
0.002500 0.037500 0.000000
0.003000 0.037500 0.000000
0.003500 0.037500 0.000000
0.004000 0.037500 0.000000
0.004500 0.037500 0.000000
0.000500 0.036250 0.000000
0.001000 0.036250 0.000000
0.001500 0.036250 0.000000
0.002000 0.036250 0.000000
0.002500 0.036250 0.000000
0.003000 0.036250 0.000000
0.003500 0.036250 0.000000
0.004000 0.036250 0.000000
0.004500 0.036250 0.000000
0.000500 0.035000 0.000000
0.001000 0.035000 0.000000
0.001500 0.035000 0.000000
0.002000 0.035000 0.000000
0.002500 0.035000 0.000000
0.003000 0.035000 0.000000
0.003500 0.035000 0.000000
0.004000 0.035000 0.000000
0.004500 0.035000 0.000000
0.000500 0.033750 0.000000
0.001000 0.033750 0.000000
0.001500 0.033750 0.000000
0.002000 0.033750 0.000000
0.002500 0.033750 0.000000
0.003000 0.033750 0.000000
0.003500 0.033750 0.000000
0.004000 0.033750 0.000000
0.004500 0.033750 0.000000
0.000500 0.032500 0.000000
0.001000 0.032500 0.000000
0.001500 0.032500 0.000000
0.002000 0.032500 0.000000
0.002500 0.032500 0.000000
0.003000 0.032500 0.000000
0.003500 0.032500 0.000000
0.004000 0.032500 0.000000
0.004500 0.032500 0.000000
0.000500 0.031250 0.000000
0.001000 0.031250 0.000000
0.001500 0.031250 0.000000
0.002000 0.031250 0.000000
0.002500 0.031250 0.000000
0.003000 0.031250 0.000000
0.003500 0.031250 0.000000
0.004000 0.031250 0.000000
0.004500 0.031250 0.000000
0.000500 0.030000 0.000000
0.001000 0.030000 0.000000
0.001500 0.030000 0.000000
0.002000 0.030000 0.000000
0.002500 0.030000 0.000000
0.003000 0.030000 0.000000
0.003500 0.030000 0.000000
0.004000 0.030000 0.000000
0.004500 0.030000 0.000000
0.000500 0.028750 0.000000
0.001000 0.028750 0.000000
0.001500 0.028750 0.000000
0.002000 0.028750 0.000000
0.002500 0.028750 0.000000
0.003000 0.028750 0.000000
0.003500 0.028750 0.000000
0.004000 0.028750 0.000000
0.004500 0.028750 0.000000
0.000500 0.027500 0.000000
0.001000 0.027500 0.000000
0.001500 0.027500 0.000000
0.002000 0.027500 0.000000
0.002500 0.027500 0.000000
0.003000 0.027500 0.000000
0.003500 0.027500 0.000000
0.004000 0.027500 0.000000
0.004500 0.027500 0.000000
0.000500 0.026250 0.000000
0.001000 0.026250 0.000000
0.001500 0.026250 0.000000
0.002000 0.026250 0.000000
0.002500 0.026250 0.000000
0.003000 0.026250 0.000000
0.003500 0.026250 0.000000
0.004000 0.026250 0.000000
0.004500 0.026250 0.000000
0.000500 0.025000 0.000000
0.001000 0.025000 0.000000
0.001500 0.025000 0.000000
0.002000 0.025000 0.000000
0.002500 0.025000 0.000000
0.003000 0.025000 0.000000
0.003500 0.025000 0.000000
0.004000 0.025000 0.000000
0.004500 0.025000 0.000000
0.000500 0.023750 0.000000
0.001000 0.023750 0.000000
0.001500 0.023750 0.000000
0.002000 0.023750 0.000000
0.002500 0.023750 0.000000
0.003000 0.023750 0.000000
0.003500 0.023750 0.000000
0.004000 0.023750 0.000000
0.004500 0.023750 0.000000
0.000500 0.022500 0.000000
0.001000 0.022500 0.000000
0.001500 0.022500 0.000000
0.002000 0.022500 0.000000
0.002500 0.022500 0.000000
0.003000 0.022500 0.000000
0.003500 0.022500 0.000000
0.004000 0.022500 0.000000
0.004500 0.022500 0.000000
0.000500 0.021250 0.000000
0.001000 0.021250 0.000000
0.001500 0.021250 0.000000
0.002000 0.021250 0.000000
0.002500 0.021250 0.000000
0.003000 0.021250 0.000000
0.003500 0.021250 0.000000
0.004000 0.021250 0.000000
0.004500 0.021250 0.000000
0.000500 0.020000 0.000000
0.001000 0.020000 0.000000
0.001500 0.020000 0.000000
0.002000 0.020000 0.000000
0.002500 0.020000 0.000000
0.003000 0.020000 0.000000
0.003500 0.020000 0.000000
0.004000 0.020000 0.000000
0.004500 0.020000 0.000000
0.000500 0.018750 0.000000
0.001000 0.018750 0.000000
0.001500 0.018750 0.000000
0.002000 0.018750 0.000000
0.002500 0.018750 0.000000
0.003000 0.018750 0.000000
0.003500 0.018750 0.000000
0.004000 0.018750 0.000000
0.004500 0.018750 0.000000
0.000500 0.017500 0.000000
0.001000 0.017500 0.000000
0.001500 0.017500 0.000000
0.002000 0.017500 0.000000
0.002500 0.017500 0.000000
0.003000 0.017500 0.000000
0.003500 0.017500 0.000000
0.004000 0.017500 0.000000
0.004500 0.017500 0.000000
0.000500 0.016250 0.000000
0.001000 0.016250 0.000000
0.001500 0.016250 0.000000
0.002000 0.016250 0.000000
0.002500 0.016250 0.000000
0.003000 0.016250 0.000000
0.003500 0.016250 0.000000
0.004000 0.016250 0.000000
0.004500 0.016250 0.000000
0.000500 0.015000 0.000000
0.001000 0.015000 0.000000
0.001500 0.015000 0.000000
0.002000 0.015000 0.000000
0.002500 0.015000 0.000000
0.003000 0.015000 0.000000
0.003500 0.015000 0.000000
0.004000 0.015000 0.000000
0.004500 0.015000 0.000000
0.000500 0.013750 0.000000
0.001000 0.013750 0.000000
0.001500 0.013750 0.000000
0.002000 0.013750 0.000000
0.002500 0.013750 0.000000
0.003000 0.013750 0.000000
0.003500 0.013750 0.000000
0.004000 0.013750 0.000000
0.004500 0.013750 0.000000
0.000500 0.012500 0.000000
0.001000 0.012500 0.000000
0.001500 0.012500 0.000000
0.002000 0.012500 0.000000
0.002500 0.012500 0.000000
0.003000 0.012500 0.000000
0.003500 0.012500 0.000000
0.004000 0.012500 0.000000
0.004500 0.012500 0.000000
0.000500 0.011250 0.000000
0.001000 0.011250 0.000000
0.001500 0.011250 0.000000
0.002000 0.011250 0.000000
0.002500 0.011250 0.000000
0.003000 0.011250 0.000000
0.003500 0.011250 0.000000
0.004000 0.011250 0.000000
0.004500 0.011250 0.000000
0.000500 0.010000 0.000000
0.001000 0.010000 0.000000
0.001500 0.010000 0.000000
0.002000 0.010000 0.000000
0.002500 0.010000 0.000000
0.003000 0.010000 0.000000
0.003500 0.010000 0.000000
0.004000 0.010000 0.000000
0.004500 0.010000 0.000000
0.000500 0.008750 0.000000
0.001000 0.008750 0.000000
0.001500 0.008750 0.000000
0.002000 0.008750 0.000000
0.002500 0.008750 0.000000
0.003000 0.008750 0.000000
0.003500 0.008750 0.000000
0.004000 0.008750 0.000000
0.004500 0.008750 0.000000
0.000500 0.007500 0.000000
0.001000 0.007500 0.000000
0.001500 0.007500 0.000000
0.002000 0.007500 0.000000
0.002500 0.007500 0.000000
0.003000 0.007500 0.000000
0.003500 0.007500 0.000000
0.004000 0.007500 0.000000
0.004500 0.007500 0.000000
0.000500 0.006250 0.000000
0.001000 0.006250 0.000000
0.001500 0.006250 0.000000
0.002000 0.006250 0.000000
0.002500 0.006250 0.000000
0.003000 0.006250 0.000000
0.003500 0.006250 0.000000
0.004000 0.006250 0.000000
0.004500 0.006250 0.000000
0.000500 0.005000 0.000000
0.001000 0.005000 0.000000
0.001500 0.005000 0.000000
0.002000 0.005000 0.000000
0.002500 0.005000 0.000000
0.003000 0.005000 0.000000
0.003500 0.005000 0.000000
0.004000 0.005000 0.000000
0.004500 0.005000 0.000000
0.000500 0.003750 0.000000
0.001000 0.003750 0.000000
0.001500 0.003750 0.000000
0.002000 0.003750 0.000000
0.002500 0.003750 0.000000
0.003000 0.003750 0.000000
0.003500 0.003750 0.000000
0.004000 0.003750 0.000000
0.004500 0.003750 0.000000
0.000500 0.002500 0.000000
0.001000 0.002500 0.000000
0.001500 0.002500 0.000000
0.002000 0.002500 0.000000
0.002500 0.002500 0.000000
0.003000 0.002500 0.000000
0.003500 0.002500 0.000000
0.004000 0.002500 0.000000
0.004500 0.002500 0.000000
0.000500 0.001250 0.000000
0.001000 0.001250 0.000000
0.001500 0.001250 0.000000
0.002000 0.001250 0.000000
0.002500 0.001250 0.000000
0.003000 0.001250 0.000000
0.003500 0.001250 0.000000
0.004000 0.001250 0.000000
0.004500 0.001250 0.000000
CELLS 800 4000
4 82 83 180 179
4 179 180 181 178
4 178 181 182 177
4 177 182 183 176
4 176 183 184 175
4 175 184 185 174
4 174 185 186 173
4 173 186 187 172
4 172 187 188 171
4 171 188 80 0
4 83 84 189 180
4 180 189 190 181
4 181 190 191 182
4 182 191 192 183
4 183 192 193 184
4 184 193 194 185
4 185 194 195 186
4 186 195 196 187
4 187 196 197 188
4 188 197 79 80
4 84 85 198 189
4 189 198 199 190
4 190 199 200 191
4 191 200 201 192
4 192 201 202 193
4 193 202 203 194
4 194 203 204 195
4 195 204 205 196
4 196 205 206 197
4 197 206 78 79
4 85 86 207 198
4 198 207 208 199
4 199 208 209 200
4 200 209 210 201
4 201 210 211 202
4 202 211 212 203
4 203 212 213 204
4 204 213 214 205
4 205 214 215 206
4 206 215 77 78
4 86 87 216 207
4 207 216 217 208
4 208 217 218 209
4 209 218 219 210
4 210 219 220 211
4 211 220 221 212
4 212 221 222 213
4 213 222 223 214
4 214 223 224 215
4 215 224 76 77
4 87 88 225 216
4 216 225 226 217
4 217 226 227 218
4 218 227 228 219
4 219 228 229 220
4 220 229 230 221
4 221 230 231 222
4 222 231 232 223
4 223 232 233 224
4 224 233 75 76
4 88 89 234 225
4 225 234 235 226
4 226 235 236 227
4 227 236 237 228
4 228 237 238 229
4 229 238 239 230
4 230 239 240 231
4 231 240 241 232
4 232 241 242 233
4 233 242 74 75
4 89 90 243 234
4 234 243 244 235
4 235 244 245 236
4 236 245 246 237
4 237 246 247 238
4 238 247 248 239
4 239 248 249 240
4 240 249 250 241
4 241 250 251 242
4 242 251 73 74
4 90 91 252 243
4 243 252 253 244
4 244 253 254 245
4 245 254 255 246
4 246 255 256 247
4 247 256 257 248
4 248 257 258 249
4 249 258 259 250
4 250 259 260 251
4 251 260 72 73
4 91 92 261 252
4 252 261 262 253
4 253 262 263 254
4 254 263 264 255
4 255 264 265 256
4 256 265 266 257
4 257 266 267 258
4 258 267 268 259
4 259 268 269 260
4 260 269 71 72
4 92 93 270 261
4 261 270 271 262
4 262 271 272 263
4 263 272 273 264
4 264 273 274 265
4 265 274 275 266
4 266 275 276 267
4 267 276 277 268
4 268 277 278 269
4 269 278 70 71
4 93 94 279 270
4 270 279 280 271
4 271 280 281 272
4 272 281 282 273
4 273 282 283 274
4 274 283 284 275
4 275 284 285 276
4 276 285 286 277
4 277 286 287 278
4 278 287 69 70
4 94 95 288 279
4 279 288 289 280
4 280 289 290 281
4 281 290 291 282
4 282 291 292 283
4 283 292 293 284
4 284 293 294 285
4 285 294 295 286
4 286 295 296 287
4 287 296 68 69
4 95 96 297 288
4 288 297 298 289
4 289 298 299 290
4 290 299 300 291
4 291 300 301 292
4 292 301 302 293
4 293 302 303 294
4 294 303 304 295
4 295 304 305 296
4 296 305 67 68
4 96 97 306 297
4 297 306 307 298
4 298 307 308 299
4 299 308 309 300
4 300 309 310 301
4 301 310 311 302
4 302 311 312 303
4 303 312 313 304
4 304 313 314 305
4 305 314 66 67
4 97 98 315 306
4 306 315 316 307
4 307 316 317 308
4 308 317 318 309
4 309 318 319 310
4 310 319 320 311
4 311 320 321 312
4 312 321 322 313
4 313 322 323 314
4 314 323 65 66
4 98 99 324 315
4 315 324 325 316
4 316 325 326 317
4 317 326 327 318
4 318 327 328 319
4 319 328 329 320
4 320 329 330 321
4 321 330 331 322
4 322 331 332 323
4 323 332 64 65
4 99 100 333 324
4 324 333 334 325
4 325 334 335 326
4 326 335 336 327
4 327 336 337 328
4 328 337 338 329
4 329 338 339 330
4 330 339 340 331
4 331 340 341 332
4 332 341 63 64
4 100 101 342 333
4 333 342 343 334
4 334 343 344 335
4 335 344 345 336
4 336 345 346 337
4 337 346 347 338
4 338 347 348 339
4 339 348 349 340
4 340 349 350 341
4 341 350 62 63
4 101 102 351 342
4 342 351 352 343
4 343 352 353 344
4 344 353 354 345
4 345 354 355 346
4 346 355 356 347
4 347 356 357 348
4 348 357 358 349
4 349 358 359 350
4 350 359 61 62
4 102 103 360 351
4 351 360 361 352
4 352 361 362 353
4 353 362 363 354
4 354 363 364 355
4 355 364 365 356
4 356 365 366 357
4 357 366 367 358
4 358 367 368 359
4 359 368 60 61
4 103 104 369 360
4 360 369 370 361
4 361 370 371 362
4 362 371 372 363
4 363 372 373 364
4 364 373 374 365
4 365 374 375 366
4 366 375 376 367
4 367 376 377 368
4 368 377 59 60
4 104 105 378 369
4 369 378 379 370
4 370 379 380 371
4 371 380 381 372
4 372 381 382 373
4 373 382 383 374
4 374 383 384 375
4 375 384 385 376
4 376 385 386 377
4 377 386 58 59
4 105 106 387 378
4 378 387 388 379
4 379 388 389 380
4 380 389 390 381
4 381 390 391 382
4 382 391 392 383
4 383 392 393 384
4 384 393 394 385
4 385 394 395 386
4 386 395 57 58
4 106 107 396 387
4 387 396 397 388
4 388 397 398 389
4 389 398 399 390
4 390 399 400 391
4 391 400 401 392
4 392 401 402 393
4 393 402 403 394
4 394 403 404 395
4 395 404 56 57
4 107 108 405 396
4 396 405 406 397
4 397 406 407 398
4 398 407 408 399
4 399 408 409 400
4 400 409 410 401
4 401 410 411 402
4 402 411 412 403
4 403 412 413 404
4 404 413 55 56
4 108 109 414 405
4 405 414 415 406
4 406 415 416 407
4 407 416 417 408
4 408 417 418 409
4 409 418 419 410
4 410 419 420 411
4 411 420 421 412
4 412 421 422 413
4 413 422 54 55
4 109 110 423 414
4 414 423 424 415
4 415 424 425 416
4 416 425 426 417
4 417 426 427 418
4 418 427 428 419
4 419 428 429 420
4 420 429 430 421
4 421 430 431 422
4 422 431 53 54
4 110 111 432 423
4 423 432 433 424
4 424 433 434 425
4 425 434 435 426
4 426 435 436 427
4 427 436 437 428
4 428 437 438 429
4 429 438 439 430
4 430 439 440 431
4 431 440 52 53
4 111 112 441 432
4 432 441 442 433
4 433 442 443 434
4 434 443 444 435
4 435 444 445 436
4 436 445 446 437
4 437 446 447 438
4 438 447 448 439
4 439 448 449 440
4 440 449 51 52
4 112 113 450 441
4 441 450 451 442
4 442 451 452 443
4 443 452 453 444
4 444 453 454 445
4 445 454 455 446
4 446 455 456 447
4 447 456 457 448
4 448 457 458 449
4 449 458 50 51
4 113 114 459 450
4 450 459 460 451
4 451 460 461 452
4 452 461 462 453
4 453 462 463 454
4 454 463 464 455
4 455 464 465 456
4 456 465 466 457
4 457 466 467 458
4 458 467 49 50
4 114 115 468 459
4 459 468 469 460
4 460 469 470 461
4 461 470 471 462
4 462 471 472 463
4 463 472 473 464
4 464 473 474 465
4 465 474 475 466
4 466 475 476 467
4 467 476 48 49
4 115 116 477 468
4 468 477 478 469
4 469 478 479 470
4 470 479 480 471
4 471 480 481 472
4 472 481 482 473
4 473 482 483 474
4 474 483 484 475
4 475 484 485 476
4 476 485 47 48
4 116 117 486 477
4 477 486 487 478
4 478 487 488 479
4 479 488 489 480
4 480 489 490 481
4 481 490 491 482
4 482 491 492 483
4 483 492 493 484
4 484 493 494 485
4 485 494 46 47
4 117 118 495 486
4 486 495 496 487
4 487 496 497 488
4 488 497 498 489
4 489 498 499 490
4 490 499 500 491
4 491 500 501 492
4 492 501 502 493
4 493 502 503 494
4 494 503 45 46
4 118 119 504 495
4 495 504 505 496
4 496 505 506 497
4 497 506 507 498
4 498 507 508 499
4 499 508 509 500
4 500 509 510 501
4 501 510 511 502
4 502 511 512 503
4 503 512 44 45
4 119 120 513 504
4 504 513 514 505
4 505 514 515 506
4 506 515 516 507
4 507 516 517 508
4 508 517 518 509
4 509 518 519 510
4 510 519 520 511
4 511 520 521 512
4 512 521 43 44
4 120 121 522 513
4 513 522 523 514
4 514 523 524 515
4 515 524 525 516
4 516 525 526 517
4 517 526 527 518
4 518 527 528 519
4 519 528 529 520
4 520 529 530 521
4 521 530 42 43
4 121 122 531 522
4 522 531 532 523
4 523 532 533 524
4 524 533 534 525
4 525 534 535 526
4 526 535 536 527
4 527 536 537 528
4 528 537 538 529
4 529 538 539 530
4 530 539 41 42
4 122 123 540 531
4 531 540 541 532
4 532 541 542 533
4 533 542 543 534
4 534 543 544 535
4 535 544 545 536
4 536 545 546 537
4 537 546 547 538
4 538 547 548 539
4 539 548 40 41
4 123 124 549 540
4 540 549 550 541
4 541 550 551 542
4 542 551 552 543
4 543 552 553 544
4 544 553 554 545
4 545 554 555 546
4 546 555 556 547
4 547 556 557 548
4 548 557 39 40
4 124 125 558 549
4 549 558 559 550
4 550 559 560 551
4 551 560 561 552
4 552 561 562 553
4 553 562 563 554
4 554 563 564 555
4 555 564 565 556
4 556 565 566 557
4 557 566 38 39
4 125 126 567 558
4 558 567 568 559
4 559 568 569 560
4 560 569 570 561
4 561 570 571 562
4 562 571 572 563
4 563 572 573 564
4 564 573 574 565
4 565 574 575 566
4 566 575 37 38
4 126 127 576 567
4 567 576 577 568
4 568 577 578 569
4 569 578 579 570
4 570 579 580 571
4 571 580 581 572
4 572 581 582 573
4 573 582 583 574
4 574 583 584 575
4 575 584 36 37
4 127 128 585 576
4 576 585 586 577
4 577 586 587 578
4 578 587 588 579
4 579 588 589 580
4 580 589 590 581
4 581 590 591 582
4 582 591 592 583
4 583 592 593 584
4 584 593 35 36
4 128 129 594 585
4 585 594 595 586
4 586 595 596 587
4 587 596 597 588
4 588 597 598 589
4 589 598 599 590
4 590 599 600 591
4 591 600 601 592
4 592 601 602 593
4 593 602 34 35
4 129 130 603 594
4 594 603 604 595
4 595 604 605 596
4 596 605 606 597
4 597 606 607 598
4 598 607 608 599
4 599 608 609 600
4 600 609 610 601
4 601 610 611 602
4 602 611 33 34
4 130 131 612 603
4 603 612 613 604
4 604 613 614 605
4 605 614 615 606
4 606 615 616 607
4 607 616 617 608
4 608 617 618 609
4 609 618 619 610
4 610 619 620 611
4 611 620 32 33
4 131 132 621 612
4 612 621 622 613
4 613 622 623 614
4 614 623 624 615
4 615 624 625 616
4 616 625 626 617
4 617 626 627 618
4 618 627 628 619
4 619 628 629 620
4 620 629 31 32
4 132 133 630 621
4 621 630 631 622
4 622 631 632 623
4 623 632 633 624
4 624 633 634 625
4 625 634 635 626
4 626 635 636 627
4 627 636 637 628
4 628 637 638 629
4 629 638 30 31
4 133 134 639 630
4 630 639 640 631
4 631 640 641 632
4 632 641 642 633
4 633 642 643 634
4 634 643 644 635
4 635 644 645 636
4 636 645 646 637
4 637 646 647 638
4 638 647 29 30
4 134 135 648 639
4 639 648 649 640
4 640 649 650 641
4 641 650 651 642
4 642 651 652 643
4 643 652 653 644
4 644 653 654 645
4 645 654 655 646
4 646 655 656 647
4 647 656 28 29
4 135 136 657 648
4 648 657 658 649
4 649 658 659 650
4 650 659 660 651
4 651 660 661 652
4 652 661 662 653
4 653 662 663 654
4 654 663 664 655
4 655 664 665 656
4 656 665 27 28
4 136 137 666 657
4 657 666 667 658
4 658 667 668 659
4 659 668 669 660
4 660 669 670 661
4 661 670 671 662
4 662 671 672 663
4 663 672 673 664
4 664 673 674 665
4 665 674 26 27
4 137 138 675 666
4 666 675 676 667
4 667 676 677 668
4 668 677 678 669
4 669 678 679 670
4 670 679 680 671
4 671 680 681 672
4 672 681 682 673
4 673 682 683 674
4 674 683 25 26
4 138 139 684 675
4 675 684 685 676
4 676 685 686 677
4 677 686 687 678
4 678 687 688 679
4 679 688 689 680
4 680 689 690 681
4 681 690 691 682
4 682 691 692 683
4 683 692 24 25
4 139 140 693 684
4 684 693 694 685
4 685 694 695 686
4 686 695 696 687
4 687 696 697 688
4 688 697 698 689
4 689 698 699 690
4 690 699 700 691
4 691 700 701 692
4 692 701 23 24
4 140 141 702 693
4 693 702 703 694
4 694 703 704 695
4 695 704 705 696
4 696 705 706 697
4 697 706 707 698
4 698 707 708 699
4 699 708 709 700
4 700 709 710 701
4 701 710 22 23
4 141 142 711 702
4 702 711 712 703
4 703 712 713 704
4 704 713 714 705
4 705 714 715 706
4 706 715 716 707
4 707 716 717 708
4 708 717 718 709
4 709 718 719 710
4 710 719 21 22
4 142 143 720 711
4 711 720 721 712
4 712 721 722 713
4 713 722 723 714
4 714 723 724 715
4 715 724 725 716
4 716 725 726 717
4 717 726 727 718
4 718 727 728 719
4 719 728 20 21
4 143 144 729 720
4 720 729 730 721
4 721 730 731 722
4 722 731 732 723
4 723 732 733 724
4 724 733 734 725
4 725 734 735 726
4 726 735 736 727
4 727 736 737 728
4 728 737 19 20
4 144 145 738 729
4 729 738 739 730
4 730 739 740 731
4 731 740 741 732
4 732 741 742 733
4 733 742 743 734
4 734 743 744 735
4 735 744 745 736
4 736 745 746 737
4 737 746 18 19
4 145 146 747 738
4 738 747 748 739
4 739 748 749 740
4 740 749 750 741
4 741 750 751 742
4 742 751 752 743
4 743 752 753 744
4 744 753 754 745
4 745 754 755 746
4 746 755 17 18
4 146 147 756 747
4 747 756 757 748
4 748 757 758 749
4 749 758 759 750
4 750 759 760 751
4 751 760 761 752
4 752 761 762 753
4 753 762 763 754
4 754 763 764 755
4 755 764 16 17
4 147 148 765 756
4 756 765 766 757
4 757 766 767 758
4 758 767 768 759
4 759 768 769 760
4 760 769 770 761
4 761 770 771 762
4 762 771 772 763
4 763 772 773 764
4 764 773 15 16
4 148 149 774 765
4 765 774 775 766
4 766 775 776 767
4 767 776 777 768
4 768 777 778 769
4 769 778 779 770
4 770 779 780 771
4 771 780 781 772
4 772 781 782 773
4 773 782 14 15
4 149 150 783 774
4 774 783 784 775
4 775 784 785 776
4 776 785 786 777
4 777 786 787 778
4 778 787 788 779
4 779 788 789 780
4 780 789 790 781
4 781 790 791 782
4 782 791 13 14
4 150 151 792 783
4 783 792 793 784
4 784 793 794 785
4 785 794 795 786
4 786 795 796 787
4 787 796 797 788
4 788 797 798 789
4 789 798 799 790
4 790 799 800 791
4 791 800 12 13
4 151 152 801 792
4 792 801 802 793
4 793 802 803 794
4 794 803 804 795
4 795 804 805 796
4 796 805 806 797
4 797 806 807 798
4 798 807 808 799
4 799 808 809 800
4 800 809 11 12
4 152 153 810 801
4 801 810 811 802
4 802 811 812 803
4 803 812 813 804
4 804 813 814 805
4 805 814 815 806
4 806 815 816 807
4 807 816 817 808
4 808 817 818 809
4 809 818 10 11
4 153 154 819 810
4 810 819 820 811
4 811 820 821 812
4 812 821 822 813
4 813 822 823 814
4 814 823 824 815
4 815 824 825 816
4 816 825 826 817
4 817 826 827 818
4 818 827 9 10
4 154 155 828 819
4 819 828 829 820
4 820 829 830 821
4 821 830 831 822
4 822 831 832 823
4 823 832 833 824
4 824 833 834 825
4 825 834 835 826
4 826 835 836 827
4 827 836 8 9
4 155 156 837 828
4 828 837 838 829
4 829 838 839 830
4 830 839 840 831
4 831 840 841 832
4 832 841 842 833
4 833 842 843 834
4 834 843 844 835
4 835 844 845 836
4 836 845 7 8
4 156 157 846 837
4 837 846 847 838
4 838 847 848 839
4 839 848 849 840
4 840 849 850 841
4 841 850 851 842
4 842 851 852 843
4 843 852 853 844
4 844 853 854 845
4 845 854 6 7
4 157 158 855 846
4 846 855 856 847
4 847 856 857 848
4 848 857 858 849
4 849 858 859 850
4 850 859 860 851
4 851 860 861 852
4 852 861 862 853
4 853 862 863 854
4 854 863 5 6
4 158 159 864 855
4 855 864 865 856
4 856 865 866 857
4 857 866 867 858
4 858 867 868 859
4 859 868 869 860
4 860 869 870 861
4 861 870 871 862
4 862 871 872 863
4 863 872 4 5
4 159 160 873 864
4 864 873 874 865
4 865 874 875 866
4 866 875 876 867
4 867 876 877 868
4 868 877 878 869
4 869 878 879 870
4 870 879 880 871
4 871 880 881 872
4 872 881 3 4
4 160 161 882 873
4 873 882 883 874
4 874 883 884 875
4 875 884 885 876
4 876 885 886 877
4 877 886 887 878
4 878 887 888 879
4 879 888 889 880
4 880 889 890 881
4 881 890 2 3
4 161 81 162 882
4 882 162 163 883
4 883 163 164 884
4 884 164 165 885
4 885 165 166 886
4 886 166 167 887
4 887 167 168 888
4 888 168 169 889
4 889 169 170 890
4 890 170 1 2
CELL_TYPES 800
9
9
9
9
9
9
9
9
9
9
9
9
9
9
9
9
9
9
9
9
9
9
9
9
9
9
9
9
9
9
9
9
9
9
9
9
9
9
9
9
9
9
9
9
9
9
9
9
9
9
9
9
9
9
9
9
9
9
9
9
9
9
9
9
9
9
9
9
9
9
9
9
9
9
9
9
9
9
9
9
9
9
9
9
9
9
9
9
9
9
9
9
9
9
9
9
9
9
9
9
9
9
9
9
9
9
9
9
9
9
9
9
9
9
9
9
9
9
9
9
9
9
9
9
9
9
9
9
9
9
9
9
9
9
9
9
9
9
9
9
9
9
9
9
9
9
9
9
9
9
9
9
9
9
9
9
9
9
9
9
9
9
9
9
9
9
9
9
9
9
9
9
9
9
9
9
9
9
9
9
9
9
9
9
9
9
9
9
9
9
9
9
9
9
9
9
9
9
9
9
9
9
9
9
9
9
9
9
9
9
9
9
9
9
9
9
9
9
9
9
9
9
9
9
9
9
9
9
9
9
9
9
9
9
9
9
9
9
9
9
9
9
9
9
9
9
9
9
9
9
9
9
9
9
9
9
9
9
9
9
9
9
9
9
9
9
9
9
9
9
9
9
9
9
9
9
9
9
9
9
9
9
9
9
9
9
9
9
9
9
9
9
9
9
9
9
9
9
9
9
9
9
9
9
9
9
9
9
9
9
9
9
9
9
9
9
9
9
9
9
9
9
9
9
9
9
9
9
9
9
9
9
9
9
9
9
9
9
9
9
9
9
9
9
9
9
9
9
9
9
9
9
9
9
9
9
9
9
9
9
9
9
9
9
9
9
9
9
9
9
9
9
9
9
9
9
9
9
9
9
9
9
9
9
9
9
9
9
9
9
9
9
9
9
9
9
9
9
9
9
9
9
9
9
9
9
9
9
9
9
9
9
9
9
9
9
9
9
9
9
9
9
9
9
9
9
9
9
9
9
9
9
9
9
9
9
9
9
9
9
9
9
9
9
9
9
9
9
9
9
9
9
9
9
9
9
9
9
9
9
9
9
9
9
9
9
9
9
9
9
9
9
9
9
9
9
9
9
9
9
9
9
9
9
9
9
9
9
9
9
9
9
9
9
9
9
9
9
9
9
9
9
9
9
9
9
9
9
9
9
9
9
9
9
9
9
9
9
9
9
9
9
9
9
9
9
9
9
9
9
9
9
9
9
9
9
9
9
9
9
9
9
9
9
9
9
9
9
9
9
9
9
9
9
9
9
9
9
9
9
9
9
9
9
9
9
9
9
9
9
9
9
9
9
9
9
9
9
9
9
9
9
9
9
9
9
9
9
9
9
9
9
9
9
9
9
9
9
9
9
9
9
9
9
9
9
9
9
9
9
9
9
9
9
9
9
9
9
9
9
9
9
9
9
9
9
9
9
9
9
9
9
9
9
9
9
9
9
9
9
9
9
9
9
9
9
9
9
9
9
9
9
9
9
9
9
9
9
9
9
9
9
9
9
9
9
9
9
9
9
9
9
9
9
9
9
9
9
9
9
9
9
9
9
9
9
9
9
9
9
9
9
9
9
9
9
9
9
9
9
9
9
9
9
9
9
9
9
9
9
9
9
9
9
9
9
9
9
9
9
9
9
9
9
9
9
9
9
9
9
9
9
9
9
9
9
9
9
9
9
9
9
9
9
9
9
9
9
9
9
9
9
9
9
9
9
9
9
9
9
9
9
9
9
9
9
9
9
9
9
9
9
9
9
9
9
9
9
9
9
9
9
9
9
9
9
9
9
9
9
9
9
9
9
9
9
9
9
9
9
POINT_DATA 891
SCALARS u1 float
LOOKUP_TABLE default
1e-19
-3e-09
-3e-09
-3e-09
-3e-09
-3e-09
-3e-09
-3e-09
-3e-09
-3e-09
-3e-09
-3e-09
-3e-09
-3e-09
-3e-09
-3e-09
-3e-09
-3e-09
-3e-09
-3e-09
-3e-09
-3e-09
-3e-09
-3e-09
-3e-09
-3e-09
-3e-09
-3e-09
-3e-09
-3e-09
-3e-09
-3e-09
-3e-09
-3e-09
-3e-09
-3e-09
-3e-09
-3e-09
-3e-09
-3e-09
-3e-09
-3e-09
-3e-09
-3e-09
-3e-09
-3e-09
-3e-09
-3e-09
-3e-09
-3e-09
-3e-09
-3e-09
-3e-09
-3e-09
-3e-09
-3e-09
-3e-09
-3e-09
-3e-09
-3e-09
-3e-09
-3e-09
-3e-09
-3e-09
-3e-09
-3e-09
-3e-09
-3e-09
-3e-09
-3e-09
-3e-09
-3e-09
-3e-09
-3e-09
-3e-09
-3e-09
-3e-09
-3e-09
-3e-09
-3e-09
-3e-09
3e-09
5e-19
3e-09
3e-09
3e-09
3e-09
3e-09
3e-09
3e-09
3e-09
3e-09
3e-09
3e-09
3e-09
3e-09
3e-09
3e-09
3e-09
3e-09
3e-09
3e-09
3e-09
3e-09
3e-09
3e-09
3e-09
3e-09
3e-09
3e-09
3e-09
3e-09
3e-09
3e-09
3e-09
3e-09
3e-09
3e-09
3e-09
3e-09
3e-09
3e-09
3e-09
3e-09
3e-09
3e-09
3e-09
3e-09
3e-09
3e-09
3e-09
3e-09
3e-09
3e-09
3e-09
3e-09
3e-09
3e-09
3e-09
3e-09
3e-09
3e-09
3e-09
3e-09
3e-09
3e-09
3e-09
3e-09
3e-09
3e-09
3e-09
3e-09
3e-09
3e-09
3e-09
3e-09
3e-09
3e-09
3e-09
3e-09
3e-09
3e-09
3e-09
2e-09
1e-09
7e-10
-2e-17
-7e-10
-1e-09
-2e-09
-3e-09
-1e-19
-1e-19
2e-19
2e-19
2e-19
2e-20
-7e-21
-3e-19
1e-19
2e-09
1e-09
8e-10
4e-10
2e-18
-4e-10
-8e-10
-1e-09
-2e-09
2e-09
2e-09
1e-09
6e-10
-1e-17
-6e-10
-1e-09
-2e-09
-2e-09
3e-09
2e-09
1e-09
7e-10
-9e-18
-7e-10
-1e-09
-2e-09
-3e-09
3e-09
2e-09
1e-09
7e-10
-1e-17
-7e-10
-1e-09
-2e-09
-3e-09
3e-09
2e-09
1e-09
7e-10
-2e-17
-7e-10
-1e-09
-2e-09
-3e-09
3e-09
2e-09
1e-09
7e-10
-2e-17
-7e-10
-1e-09
-2e-09
-3e-09
3e-09
2e-09
1e-09
7e-10
-2e-17
-7e-10
-1e-09
-2e-09
-3e-09
3e-09
2e-09
1e-09
7e-10
-2e-17
-7e-10
-1e-09
-2e-09
-3e-09
3e-09
2e-09
1e-09
7e-10
-2e-17
-7e-10
-1e-09
-2e-09
-3e-09
3e-09
2e-09
1e-09
7e-10
-2e-17
-7e-10
-1e-09
-2e-09
-3e-09
3e-09
2e-09
1e-09
7e-10
-2e-17
-7e-10
-1e-09
-2e-09
-3e-09
3e-09
2e-09
1e-09
7e-10
-2e-17
-7e-10
-1e-09
-2e-09
-3e-09
3e-09
2e-09
1e-09
7e-10
-2e-17
-7e-10
-1e-09
-2e-09
-3e-09
3e-09
2e-09
1e-09
7e-10
-2e-17
-7e-10
-1e-09
-2e-09
-3e-09
3e-09
2e-09
1e-09
7e-10
-2e-17
-7e-10
-1e-09
-2e-09
-3e-09
3e-09
2e-09
1e-09
7e-10
-2e-17
-7e-10
-1e-09
-2e-09
-3e-09
3e-09
2e-09
1e-09
7e-10
-2e-17
-7e-10
-1e-09
-2e-09
-3e-09
3e-09
2e-09
1e-09
7e-10
-2e-17
-7e-10
-1e-09
-2e-09
-3e-09
3e-09
2e-09
1e-09
7e-10
-2e-17
-7e-10
-1e-09
-2e-09
-3e-09
3e-09
2e-09
1e-09
7e-10
-2e-17
-7e-10
-1e-09
-2e-09
-3e-09
3e-09
2e-09
1e-09
7e-10
-2e-17
-7e-10
-1e-09
-2e-09
-3e-09
3e-09
2e-09
1e-09
7e-10
-2e-17
-7e-10
-1e-09
-2e-09
-3e-09
3e-09
2e-09
1e-09
7e-10
-2e-17
-7e-10
-1e-09
-2e-09
-3e-09
3e-09
2e-09
1e-09
7e-10
-2e-17
-7e-10
-1e-09
-2e-09
-3e-09
3e-09
2e-09
1e-09
7e-10
-2e-17
-7e-10
-1e-09
-2e-09
-3e-09
3e-09
2e-09
1e-09
7e-10
-2e-17
-7e-10
-1e-09
-2e-09
-3e-09
3e-09
2e-09
1e-09
7e-10
-2e-17
-7e-10
-1e-09
-2e-09
-3e-09
3e-09
2e-09
1e-09
7e-10
-2e-17
-7e-10
-1e-09
-2e-09
-3e-09
3e-09
2e-09
1e-09
7e-10
-2e-17
-7e-10
-1e-09
-2e-09
-3e-09
3e-09
2e-09
1e-09
7e-10
-2e-17
-7e-10
-1e-09
-2e-09
-3e-09
3e-09
2e-09
1e-09
7e-10
-2e-17
-7e-10
-1e-09
-2e-09
-3e-09
3e-09
2e-09
1e-09
7e-10
-2e-17
-7e-10
-1e-09
-2e-09
-3e-09
3e-09
2e-09
1e-09
7e-10
-2e-17
-7e-10
-1e-09
-2e-09
-3e-09
3e-09
2e-09
1e-09
7e-10
-2e-17
-7e-10
-1e-09
-2e-09
-3e-09
3e-09
2e-09
1e-09
7e-10
-2e-17
-7e-10
-1e-09
-2e-09
-3e-09
3e-09
2e-09
1e-09
7e-10
-2e-17
-7e-10
-1e-09
-2e-09
-3e-09
3e-09
2e-09
1e-09
7e-10
-2e-17
-7e-10
-1e-09
-2e-09
-3e-09
3e-09
2e-09
1e-09
7e-10
-2e-17
-7e-10
-1e-09
-2e-09
-3e-09
3e-09
2e-09
1e-09
7e-10
-2e-17
-7e-10
-1e-09
-2e-09
-3e-09
3e-09
2e-09
1e-09
7e-10
-2e-17
-7e-10
-1e-09
-2e-09
-3e-09
3e-09
2e-09
1e-09
7e-10
-2e-17
-7e-10
-1e-09
-2e-09
-3e-09
3e-09
2e-09
1e-09
7e-10
-2e-17
-7e-10
-1e-09
-2e-09
-3e-09
3e-09
2e-09
1e-09
7e-10
-2e-17
-7e-10
-1e-09
-2e-09
-3e-09
3e-09
2e-09
1e-09
7e-10
-2e-17
-7e-10
-1e-09
-2e-09
-3e-09
3e-09
2e-09
1e-09
7e-10
-2e-17
-7e-10
-1e-09
-2e-09
-3e-09
3e-09
2e-09
1e-09
7e-10
-2e-17
-7e-10
-1e-09
-2e-09
-3e-09
3e-09
2e-09
1e-09
7e-10
-2e-17
-7e-10
-1e-09
-2e-09
-3e-09
3e-09
2e-09
1e-09
7e-10
-2e-17
-7e-10
-1e-09
-2e-09
-3e-09
3e-09
2e-09
1e-09
7e-10
-2e-17
-7e-10
-1e-09
-2e-09
-3e-09
3e-09
2e-09
1e-09
7e-10
-2e-17
-7e-10
-1e-09
-2e-09
-3e-09
3e-09
2e-09
1e-09
7e-10
-2e-17
-7e-10
-1e-09
-2e-09
-3e-09
3e-09
2e-09
1e-09
7e-10
-2e-17
-7e-10
-1e-09
-2e-09
-3e-09
3e-09
2e-09
1e-09
7e-10
-2e-17
-7e-10
-1e-09
-2e-09
-3e-09
3e-09
2e-09
1e-09
7e-10
-2e-17
-7e-10
-1e-09
-2e-09
-3e-09
3e-09
2e-09
1e-09
7e-10
-2e-17
-7e-10
-1e-09
-2e-09
-3e-09
3e-09
2e-09
1e-09
7e-10
-2e-17
-7e-10
-1e-09
-2e-09
-3e-09
3e-09
2e-09
1e-09
7e-10
-2e-17
-7e-10
-1e-09
-2e-09
-3e-09
3e-09
2e-09
1e-09
7e-10
-2e-17
-7e-10
-1e-09
-2e-09
-3e-09
3e-09
2e-09
1e-09
7e-10
-2e-17
-7e-10
-1e-09
-2e-09
-3e-09
3e-09
2e-09
1e-09
7e-10
-2e-17
-7e-10
-1e-09
-2e-09
-3e-09
3e-09
2e-09
1e-09
7e-10
-2e-17
-7e-10
-1e-09
-2e-09
-3e-09
3e-09
2e-09
1e-09
7e-10
-2e-17
-7e-10
-1e-09
-2e-09
-3e-09
3e-09
2e-09
1e-09
7e-10
-2e-17
-7e-10
-1e-09
-2e-09
-3e-09
3e-09
2e-09
1e-09
7e-10
-2e-17
-7e-10
-1e-09
-2e-09
-3e-09
3e-09
2e-09
1e-09
7e-10
-2e-17
-7e-10
-1e-09
-2e-09
-3e-09
3e-09
2e-09
1e-09
7e-10
-2e-17
-7e-10
-1e-09
-2e-09
-3e-09
3e-09
2e-09
1e-09
7e-10
-2e-17
-7e-10
-1e-09
-2e-09
-3e-09
3e-09
2e-09
1e-09
7e-10
-2e-17
-7e-10
-1e-09
-2e-09
-3e-09
3e-09
2e-09
1e-09
7e-10
-2e-17
-7e-10
-1e-09
-2e-09
-3e-09
3e-09
2e-09
1e-09
7e-10
-2e-17
-7e-10
-1e-09
-2e-09
-3e-09
3e-09
2e-09
1e-09
7e-10
-2e-17
-7e-10
-1e-09
-2e-09
-3e-09
3e-09
2e-09
1e-09
7e-10
-2e-17
-7e-10
-1e-09
-2e-09
-3e-09
3e-09
2e-09
1e-09
7e-10
-2e-17
-7e-10
-1e-09
-2e-09
-3e-09
3e-09
2e-09
1e-09
7e-10
-2e-17
-7e-10
-1e-09
-2e-09
-3e-09
3e-09
2e-09
1e-09
7e-10
-2e-17
-7e-10
-1e-09
-2e-09
-3e-09
3e-09
2e-09
1e-09
7e-10
-2e-17
-7e-10
-1e-09
-2e-09
-3e-09
3e-09
2e-09
1e-09
7e-10
-2e-17
-7e-10
-1e-09
-2e-09
-3e-09
3e-09
2e-09
1e-09
7e-10
-2e-17
-7e-10
-1e-09
-2e-09
-3e-09
3e-09
2e-09
1e-09
7e-10
-2e-17
-7e-10
-1e-09
-2e-09
-3e-09
SCALARS u2 float
LOOKUP_TABLE default
7e-20
-1e-06
-1e-06
-1e-06
-1e-06
-9e-07
-9e-07
-9e-07
-9e-07
-9e-07
-9e-07
-9e-07
-9e-07
-8e-07
-8e-07
-8e-07
-8e-07
-8e-07
-8e-07
-8e-07
-8e-07
-7e-07
-7e-07
-7e-07
-7e-07
-7e-07
-7e-07
-7e-07
-7e-07
-6e-07
-6e-07
-6e-07
-6e-07
-6e-07
-6e-07
-6e-07
-6e-07
-5e-07
-5e-07
-5e-07
-5e-07
-5e-07
-5e-07
-5e-07
-5e-07
-4e-07
-4e-07
-4e-07
-4e-07
-4e-07
-4e-07
-4e-07
-4e-07
-3e-07
-3e-07
-3e-07
-3e-07
-3e-07
-3e-07
-3e-07
-3e-07
-2e-07
-2e-07
-2e-07
-2e-07
-2e-07
-2e-07
-2e-07
-2e-07
-1e-07
-1e-07
-1e-07
-1e-07
-1e-07
-9e-08
-7e-08
-6e-08
-5e-08
-4e-08
-2e-08
-1e-08
-1e-06
1e-19
-1e-08
-2e-08
-4e-08
-5e-08
-6e-08
-7e-08
-9e-08
-1e-07
-1e-07
-1e-07
-1e-07
-1e-07
-2e-07
-2e-07
-2e-07
-2e-07
-2e-07
-2e-07
-2e-07
-2e-07
-3e-07
-3e-07
-3e-07
-3e-07
-3e-07
-3e-07
-3e-07
-3e-07
-4e-07
-4e-07
-4e-07
-4e-07
-4e-07
-4e-07
-4e-07
-4e-07
-5e-07
-5e-07
-5e-07
-5e-07
-5e-07
-5e-07
-5e-07
-5e-07
-6e-07
-6e-07
-6e-07
-6e-07
-6e-07
-6e-07
-6e-07
-6e-07
-7e-07
-7e-07
-7e-07
-7e-07
-7e-07
-7e-07
-7e-07
-7e-07
-8e-07
-8e-07
-8e-07
-8e-07
-8e-07
-8e-07
-8e-07
-8e-07
-9e-07
-9e-07
-9e-07
-9e-07
-9e-07
-9e-07
-9e-07
-9e-07
-1e-06
-1e-06
-1e-06
-1e-06
-1e-06
-1e-06
-1e-06
-1e-06
-1e-06
-1e-06
-1e-06
-1e-06
-1e-19
1e-19
-7e-19
-3e-19
3e-19
-1e-19
-4e-19
2e-19
-1e-19
-1e-08
-1e-08
-1e-08
-1e-08
-1e-08
-1e-08
-1e-08
-1e-08
-1e-08
-2e-08
-2e-08
-2e-08
-2e-08
-2e-08
-2e-08
-2e-08
-2e-08
-2e-08
-4e-08
-4e-08
-4e-08
-4e-08
-4e-08
-4e-08
-4e-08
-4e-08
-4e-08
-5e-08
-5e-08
-5e-08
-5e-08
-5e-08
-5e-08
-5e-08
-5e-08
-5e-08
-6e-08
-6e-08
-6e-08
-6e-08
-6e-08
-6e-08
-6e-08
-6e-08
-6e-08
-7e-08
-7e-08
-7e-08
-7e-08
-7e-08
-7e-08
-7e-08
-7e-08
-7e-08
-9e-08
-9e-08
-9e-08
-9e-08
-9e-08
-9e-08
-9e-08
-9e-08
-9e-08
-1e-07
-1e-07
-1e-07
-1e-07
-1e-07
-1e-07
-1e-07
-1e-07
-1e-07
-1e-07
-1e-07
-1e-07
-1e-07
-1e-07
-1e-07
-1e-07
-1e-07
-1e-07
-1e-07
-1e-07
-1e-07
-1e-07
-1e-07
-1e-07
-1e-07
-1e-07
-1e-07
-1e-07
-1e-07
-1e-07
-1e-07
-1e-07
-1e-07
-1e-07
-1e-07
-1e-07
-1e-07
-1e-07
-1e-07
-1e-07
-1e-07
-1e-07
-1e-07
-1e-07
-1e-07
-2e-07
-2e-07
-2e-07
-2e-07
-2e-07
-2e-07
-2e-07
-2e-07
-2e-07
-2e-07
-2e-07
-2e-07
-2e-07
-2e-07
-2e-07
-2e-07
-2e-07
-2e-07
-2e-07
-2e-07
-2e-07
-2e-07
-2e-07
-2e-07
-2e-07
-2e-07
-2e-07
-2e-07
-2e-07
-2e-07
-2e-07
-2e-07
-2e-07
-2e-07
-2e-07
-2e-07
-2e-07
-2e-07
-2e-07
-2e-07
-2e-07
-2e-07
-2e-07
-2e-07
-2e-07
-2e-07
-2e-07
-2e-07
-2e-07
-2e-07
-2e-07
-2e-07
-2e-07
-2e-07
-2e-07
-2e-07
-2e-07
-2e-07
-2e-07
-2e-07
-2e-07
-2e-07
-2e-07
-2e-07
-2e-07
-2e-07
-2e-07
-2e-07
-2e-07
-2e-07
-2e-07
-2e-07
-3e-07
-3e-07
-3e-07
-3e-07
-3e-07
-3e-07
-3e-07
-3e-07
-3e-07
-3e-07
-3e-07
-3e-07
-3e-07
-3e-07
-3e-07
-3e-07
-3e-07
-3e-07
-3e-07
-3e-07
-3e-07
-3e-07
-3e-07
-3e-07
-3e-07
-3e-07
-3e-07
-3e-07
-3e-07
-3e-07
-3e-07
-3e-07
-3e-07
-3e-07
-3e-07
-3e-07
-3e-07
-3e-07
-3e-07
-3e-07
-3e-07
-3e-07
-3e-07
-3e-07
-3e-07
-3e-07
-3e-07
-3e-07
-3e-07
-3e-07
-3e-07
-3e-07
-3e-07
-3e-07
-3e-07
-3e-07
-3e-07
-3e-07
-3e-07
-3e-07
-3e-07
-3e-07
-3e-07
-3e-07
-3e-07
-3e-07
-3e-07
-3e-07
-3e-07
-3e-07
-3e-07
-3e-07
-4e-07
-4e-07
-4e-07
-4e-07
-4e-07
-4e-07
-4e-07
-4e-07
-4e-07
-4e-07
-4e-07
-4e-07
-4e-07
-4e-07
-4e-07
-4e-07
-4e-07
-4e-07
-4e-07
-4e-07
-4e-07
-4e-07
-4e-07
-4e-07
-4e-07
-4e-07
-4e-07
-4e-07
-4e-07
-4e-07
-4e-07
-4e-07
-4e-07
-4e-07
-4e-07
-4e-07
-4e-07
-4e-07
-4e-07
-4e-07
-4e-07
-4e-07
-4e-07
-4e-07
-4e-07
-4e-07
-4e-07
-4e-07
-4e-07
-4e-07
-4e-07
-4e-07
-4e-07
-4e-07
-4e-07
-4e-07
-4e-07
-4e-07
-4e-07
-4e-07
-4e-07
-4e-07
-4e-07
-4e-07
-4e-07
-4e-07
-4e-07
-4e-07
-4e-07
-4e-07
-4e-07
-4e-07
-5e-07
-5e-07
-5e-07
-5e-07
-5e-07
-5e-07
-5e-07
-5e-07
-5e-07
-5e-07
-5e-07
-5e-07
-5e-07
-5e-07
-5e-07
-5e-07
-5e-07
-5e-07
-5e-07
-5e-07
-5e-07
-5e-07
-5e-07
-5e-07
-5e-07
-5e-07
-5e-07
-5e-07
-5e-07
-5e-07
-5e-07
-5e-07
-5e-07
-5e-07
-5e-07
-5e-07
-5e-07
-5e-07
-5e-07
-5e-07
-5e-07
-5e-07
-5e-07
-5e-07
-5e-07
-5e-07
-5e-07
-5e-07
-5e-07
-5e-07
-5e-07
-5e-07
-5e-07
-5e-07
-5e-07
-5e-07
-5e-07
-5e-07
-5e-07
-5e-07
-5e-07
-5e-07
-5e-07
-5e-07
-5e-07
-5e-07
-5e-07
-5e-07
-5e-07
-5e-07
-5e-07
-5e-07
-6e-07
-6e-07
-6e-07
-6e-07
-6e-07
-6e-07
-6e-07
-6e-07
-6e-07
-6e-07
-6e-07
-6e-07
-6e-07
-6e-07
-6e-07
-6e-07
-6e-07
-6e-07
-6e-07
-6e-07
-6e-07
-6e-07
-6e-07
-6e-07
-6e-07
-6e-07
-6e-07
-6e-07
-6e-07
-6e-07
-6e-07
-6e-07
-6e-07
-6e-07
-6e-07
-6e-07
-6e-07
-6e-07
-6e-07
-6e-07
-6e-07
-6e-07
-6e-07
-6e-07
-6e-07
-6e-07
-6e-07
-6e-07
-6e-07
-6e-07
-6e-07
-6e-07
-6e-07
-6e-07
-6e-07
-6e-07
-6e-07
-6e-07
-6e-07
-6e-07
-6e-07
-6e-07
-6e-07
-6e-07
-6e-07
-6e-07
-6e-07
-6e-07
-6e-07
-6e-07
-6e-07
-6e-07
-7e-07
-7e-07
-7e-07
-7e-07
-7e-07
-7e-07
-7e-07
-7e-07
-7e-07
-7e-07
-7e-07
-7e-07
-7e-07
-7e-07
-7e-07
-7e-07
-7e-07
-7e-07
-7e-07
-7e-07
-7e-07
-7e-07
-7e-07
-7e-07
-7e-07
-7e-07
-7e-07
-7e-07
-7e-07
-7e-07
-7e-07
-7e-07
-7e-07
-7e-07
-7e-07
-7e-07
-7e-07
-7e-07
-7e-07
-7e-07
-7e-07
-7e-07
-7e-07
-7e-07
-7e-07
-7e-07
-7e-07
-7e-07
-7e-07
-7e-07
-7e-07
-7e-07
-7e-07
-7e-07
-7e-07
-7e-07
-7e-07
-7e-07
-7e-07
-7e-07
-7e-07
-7e-07
-7e-07
-7e-07
-7e-07
-7e-07
-7e-07
-7e-07
-7e-07
-7e-07
-7e-07
-7e-07
-8e-07
-8e-07
-8e-07
-8e-07
-8e-07
-8e-07
-8e-07
-8e-07
-8e-07
-8e-07
-8e-07
-8e-07
-8e-07
-8e-07
-8e-07
-8e-07
-8e-07
-8e-07
-8e-07
-8e-07
-8e-07
-8e-07
-8e-07
-8e-07
-8e-07
-8e-07
-8e-07
-8e-07
-8e-07
-8e-07
-8e-07
-8e-07
-8e-07
-8e-07
-8e-07
-8e-07
-8e-07
-8e-07
-8e-07
-8e-07
-8e-07
-8e-07
-8e-07
-8e-07
-8e-07
-8e-07
-8e-07
-8e-07
-8e-07
-8e-07
-8e-07
-8e-07
-8e-07
-8e-07
-8e-07
-8e-07
-8e-07
-8e-07
-8e-07
-8e-07
-8e-07
-8e-07
-8e-07
-8e-07
-8e-07
-8e-07
-8e-07
-8e-07
-8e-07
-8e-07
-8e-07
-8e-07
-9e-07
-9e-07
-9e-07
-9e-07
-9e-07
-9e-07
-9e-07
-9e-07
-9e-07
-9e-07
-9e-07
-9e-07
-9e-07
-9e-07
-9e-07
-9e-07
-9e-07
-9e-07
-9e-07
-9e-07
-9e-07
-9e-07
-9e-07
-9e-07
-9e-07
-9e-07
-9e-07
-9e-07
-9e-07
-9e-07
-9e-07
-9e-07
-9e-07
-9e-07
-9e-07
-9e-07
-9e-07
-9e-07
-9e-07
-9e-07
-9e-07
-9e-07
-9e-07
-9e-07
-9e-07
-9e-07
-9e-07
-9e-07
-9e-07
-9e-07
-9e-07
-9e-07
-9e-07
-9e-07
-9e-07
-9e-07
-9e-07
-9e-07
-9e-07
-9e-07
-9e-07
-9e-07
-9e-07
-9e-07
-9e-07
-9e-07
-9e-07
-9e-07
-9e-07
-9e-07
-9e-07
-9e-07
-1e-06
-1e-06
-1e-06
-1e-06
-1e-06
-1e-06
-1e-06
-1e-06
-1e-06
-1e-06
-1e-06
-1e-06
-1e-06
-1e-06
-1e-06
-1e-06
-1e-06
-1e-06
-1e-06
-1e-06
-1e-06
-1e-06
-1e-06
-1e-06
-1e-06
-1e-06
-1e-06
SCALARS strain_1 float
LOOKUP_TABLE default
-0.000000
-0.000386
-0.000380
-0.000374
-0.000368
-0.000362
-0.000356
-0.000350
-0.000344
-0.000338
-0.000332
-0.000326
-0.000320
-0.000314
-0.000308
-0.000302
-0.000296
-0.000290
-0.000284
-0.000278
-0.000271
-0.000265
-0.000259
-0.000253
-0.000247
-0.000241
-0.000235
-0.000229
-0.000223
-0.000217
-0.000211
-0.000205
-0.000199
-0.000193
-0.000187
-0.000181
-0.000176
-0.000170
-0.000164
-0.000158
-0.000153
-0.000147
-0.000142
-0.000136
-0.000131
-0.000126
-0.000121
-0.000115
-0.000110
-0.000105
-0.000100
-0.000096
-0.000091
-0.000086
-0.000082
-0.000077
-0.000073
-0.000069
-0.000064
-0.000060
-0.000056
-0.000053
-0.000049
-0.000045
-0.000042
-0.000038
-0.000035
-0.000032
-0.000029
-0.000026
-0.000023
-0.000020
-0.000018
-0.000015
-0.000013
-0.000011
-0.000009
-0.000007
-0.000005
-0.000003
-0.000002
-0.000386
-0.000000
-0.000001
-0.000003
-0.000005
-0.000007
-0.000009
-0.000011
-0.000013
-0.000015
-0.000018
-0.000020
-0.000023
-0.000026
-0.000029
-0.000032
-0.000035
-0.000038
-0.000042
-0.000045
-0.000049
-0.000052
-0.000056
-0.000060
-0.000064
-0.000069
-0.000073
-0.000077
-0.000082
-0.000086
-0.000091
-0.000096
-0.000100
-0.000105
-0.000110
-0.000115
-0.000121
-0.000126
-0.000131
-0.000136
-0.000142
-0.000147
-0.000153
-0.000159
-0.000164
-0.000170
-0.000176
-0.000181
-0.000187
-0.000193
-0.000199
-0.000205
-0.000211
-0.000217
-0.000223
-0.000229
-0.000235
-0.000241
-0.000247
-0.000253
-0.000259
-0.000266
-0.000272
-0.000278
-0.000284
-0.000290
-0.000296
-0.000302
-0.000308
-0.000314
-0.000321
-0.000327
-0.000333
-0.000339
-0.000345
-0.000351
-0.000357
-0.000363
-0.000369
-0.000374
-0.000380
-0.000386
-0.000386
-0.000386
-0.000386
-0.000386
-0.000386
-0.000386
-0.000386
-0.000386
-0.000000
-0.000000
-0.000000
-0.000000
-0.000000
-0.000000
-0.000000
-0.000000
-0.000000
-0.000001
-0.000002
-0.000002
-0.000002
-0.000002
-0.000002
-0.000002
-0.000002
-0.000002
-0.000003
-0.000003
-0.000003
-0.000003
-0.000003
-0.000003
-0.000003
-0.000003
-0.000003
-0.000005
-0.000005
-0.000005
-0.000005
-0.000005
-0.000005
-0.000005
-0.000005
-0.000005
-0.000007
-0.000007
-0.000007
-0.000007
-0.000007
-0.000007
-0.000007
-0.000007
-0.000007
-0.000009
-0.000009
-0.000009
-0.000009
-0.000009
-0.000009
-0.000009
-0.000009
-0.000009
-0.000011
-0.000011
-0.000011
-0.000011
-0.000011
-0.000011
-0.000011
-0.000011
-0.000011
-0.000013
-0.000013
-0.000013
-0.000013
-0.000013
-0.000013
-0.000013
-0.000013
-0.000013
-0.000015
-0.000015
-0.000015
-0.000015
-0.000015
-0.000015
-0.000015
-0.000015
-0.000015
-0.000018
-0.000018
-0.000018
-0.000018
-0.000018
-0.000018
-0.000018
-0.000018
-0.000018
-0.000020
-0.000020
-0.000020
-0.000020
-0.000020
-0.000020
-0.000020
-0.000020
-0.000020
-0.000023
-0.000023
-0.000023
-0.000023
-0.000023
-0.000023
-0.000023
-0.000023
-0.000023
-0.000026
-0.000026
-0.000026
-0.000026
-0.000026
-0.000026
-0.000026
-0.000026
-0.000026
-0.000029
-0.000029
-0.000029
-0.000029
-0.000029
-0.000029
-0.000029
-0.000029
-0.000029
-0.000032
-0.000032
-0.000032
-0.000032
-0.000032
-0.000032
-0.000032
-0.000032
-0.000032
-0.000035
-0.000035
-0.000035
-0.000035
-0.000035
-0.000035
-0.000035
-0.000035
-0.000035
-0.000038
-0.000038
-0.000038
-0.000038
-0.000038
-0.000038
-0.000038
-0.000038
-0.000038
-0.000042
-0.000042
-0.000042
-0.000042
-0.000042
-0.000042
-0.000042
-0.000042
-0.000042
-0.000045
-0.000045
-0.000045
-0.000045
-0.000045
-0.000045
-0.000045
-0.000045
-0.000045
-0.000049
-0.000049
-0.000049
-0.000049
-0.000049
-0.000049
-0.000049
-0.000049
-0.000049
-0.000052
-0.000052
-0.000052
-0.000052
-0.000052
-0.000052
-0.000052
-0.000053
-0.000053
-0.000056
-0.000056
-0.000056
-0.000056
-0.000056
-0.000056
-0.000056
-0.000056
-0.000056
-0.000060
-0.000060
-0.000060
-0.000060
-0.000060
-0.000060
-0.000060
-0.000060
-0.000060
-0.000064
-0.000064
-0.000064
-0.000064
-0.000064
-0.000064
-0.000064
-0.000064
-0.000064
-0.000068
-0.000068
-0.000068
-0.000068
-0.000068
-0.000068
-0.000069
-0.000069
-0.000069
-0.000073
-0.000073
-0.000073
-0.000073
-0.000073
-0.000073
-0.000073
-0.000073
-0.000073
-0.000077
-0.000077
-0.000077
-0.000077
-0.000077
-0.000077
-0.000077
-0.000077
-0.000077
-0.000082
-0.000082
-0.000082
-0.000082
-0.000082
-0.000082
-0.000082
-0.000082
-0.000082
-0.000086
-0.000086
-0.000086
-0.000086
-0.000086
-0.000086
-0.000086
-0.000086
-0.000086
-0.000091
-0.000091
-0.000091
-0.000091
-0.000091
-0.000091
-0.000091
-0.000091
-0.000091
-0.000096
-0.000096
-0.000096
-0.000096
-0.000096
-0.000096
-0.000096
-0.000096
-0.000096
-0.000100
-0.000100
-0.000100
-0.000100
-0.000100
-0.000100
-0.000100
-0.000100
-0.000100
-0.000105
-0.000105
-0.000105
-0.000105
-0.000105
-0.000105
-0.000105
-0.000105
-0.000105
-0.000110
-0.000110
-0.000110
-0.000110
-0.000110
-0.000110
-0.000110
-0.000110
-0.000110
-0.000115
-0.000115
-0.000115
-0.000115
-0.000115
-0.000115
-0.000115
-0.000115
-0.000115
-0.000121
-0.000121
-0.000121
-0.000121
-0.000120
-0.000120
-0.000120
-0.000121
-0.000121
-0.000126
-0.000126
-0.000126
-0.000126
-0.000126
-0.000126
-0.000126
-0.000126
-0.000126
-0.000131
-0.000131
-0.000131
-0.000131
-0.000131
-0.000131
-0.000131
-0.000131
-0.000131
-0.000136
-0.000136
-0.000136
-0.000136
-0.000136
-0.000136
-0.000136
-0.000136
-0.000136
-0.000142
-0.000142
-0.000142
-0.000142
-0.000142
-0.000142
-0.000142
-0.000142
-0.000142
-0.000147
-0.000147
-0.000147
-0.000147
-0.000147
-0.000147
-0.000147
-0.000147
-0.000147
-0.000153
-0.000153
-0.000153
-0.000153
-0.000153
-0.000153
-0.000153
-0.000153
-0.000153
-0.000158
-0.000158
-0.000158
-0.000158
-0.000158
-0.000158
-0.000158
-0.000158
-0.000158
-0.000164
-0.000164
-0.000164
-0.000164
-0.000164
-0.000164
-0.000164
-0.000164
-0.000164
-0.000170
-0.000170
-0.000170
-0.000170
-0.000170
-0.000170
-0.000170
-0.000170
-0.000170
-0.000176
-0.000176
-0.000176
-0.000176
-0.000176
-0.000176
-0.000176
-0.000176
-0.000176
-0.000181
-0.000181
-0.000181
-0.000181
-0.000181
-0.000181
-0.000181
-0.000181
-0.000181
-0.000187
-0.000187
-0.000187
-0.000187
-0.000187
-0.000187
-0.000187
-0.000187
-0.000187
-0.000193
-0.000193
-0.000193
-0.000193
-0.000193
-0.000193
-0.000193
-0.000193
-0.000193
-0.000199
-0.000199
-0.000199
-0.000199
-0.000199
-0.000199
-0.000199
-0.000199
-0.000199
-0.000205
-0.000205
-0.000205
-0.000205
-0.000205
-0.000205
-0.000205
-0.000205
-0.000205
-0.000211
-0.000211
-0.000211
-0.000211
-0.000211
-0.000211
-0.000211
-0.000211
-0.000211
-0.000217
-0.000217
-0.000217
-0.000217
-0.000217
-0.000217
-0.000217
-0.000217
-0.000217
-0.000223
-0.000223
-0.000223
-0.000223
-0.000223
-0.000223
-0.000223
-0.000223
-0.000223
-0.000229
-0.000229
-0.000229
-0.000229
-0.000229
-0.000229
-0.000229
-0.000229
-0.000229
-0.000235
-0.000235
-0.000235
-0.000235
-0.000235
-0.000235
-0.000235
-0.000235
-0.000235
-0.000241
-0.000241
-0.000241
-0.000241
-0.000241
-0.000241
-0.000241
-0.000241
-0.000241
-0.000247
-0.000247
-0.000247
-0.000247
-0.000247
-0.000247
-0.000247
-0.000247
-0.000247
-0.000253
-0.000253
-0.000253
-0.000253
-0.000253
-0.000253
-0.000253
-0.000253
-0.000253
-0.000259
-0.000259
-0.000259
-0.000259
-0.000259
-0.000259
-0.000259
-0.000259
-0.000259
-0.000266
-0.000266
-0.000266
-0.000265
-0.000265
-0.000265
-0.000265
-0.000265
-0.000265
-0.000272
-0.000272
-0.000272
-0.000272
-0.000272
-0.000272
-0.000272
-0.000272
-0.000271
-0.000278
-0.000278
-0.000278
-0.000278
-0.000278
-0.000278
-0.000278
-0.000278
-0.000278
-0.000284
-0.000284
-0.000284
-0.000284
-0.000284
-0.000284
-0.000284
-0.000284
-0.000284
-0.000290
-0.000290
-0.000290
-0.000290
-0.000290
-0.000290
-0.000290
-0.000290
-0.000290
-0.000296
-0.000296
-0.000296
-0.000296
-0.000296
-0.000296
-0.000296
-0.000296
-0.000296
-0.000302
-0.000302
-0.000302
-0.000302
-0.000302
-0.000302
-0.000302
-0.000302
-0.000302
-0.000308
-0.000308
-0.000308
-0.000308
-0.000308
-0.000308
-0.000308
-0.000308
-0.000308
-0.000314
-0.000314
-0.000314
-0.000314
-0.000314
-0.000314
-0.000314
-0.000314
-0.000314
-0.000321
-0.000321
-0.000320
-0.000320
-0.000320
-0.000320
-0.000320
-0.000320
-0.000320
-0.000327
-0.000327
-0.000327
-0.000327
-0.000326
-0.000326
-0.000326
-0.000326
-0.000326
-0.000333
-0.000333
-0.000333
-0.000333
-0.000333
-0.000332
-0.000332
-0.000332
-0.000332
-0.000339
-0.000339
-0.000339
-0.000339
-0.000339
-0.000339
-0.000338
-0.000338
-0.000338
-0.000345
-0.000345
-0.000345
-0.000345
-0.000345
-0.000345
-0.000344
-0.000344
-0.000344
-0.000351
-0.000351
-0.000351
-0.000351
-0.000351
-0.000351
-0.000350
-0.000350
-0.000350
-0.000357
-0.000357
-0.000357
-0.000357
-0.000357
-0.000356
-0.000356
-0.000356
-0.000356
-0.000363
-0.000363
-0.000363
-0.000362
-0.000362
-0.000362
-0.000362
-0.000362
-0.000362
-0.000368
-0.000368
-0.000368
-0.000368
-0.000368
-0.000368
-0.000368
-0.000368
-0.000368
-0.000374
-0.000374
-0.000374
-0.000374
-0.000374
-0.000374
-0.000374
-0.000374
-0.000374
-0.000380
-0.000380
-0.000380
-0.000380
-0.000380
-0.000380
-0.000380
-0.000380
-0.000380
SCALARS strain_2 float
LOOKUP_TABLE default
0.000008
0.000007
0.000007
0.000007
0.000007
0.000007
0.000007
0.000007
0.000007
0.000007
0.000007
0.000007
0.000007
0.000007
0.000007
0.000007
0.000007
0.000007
0.000007
0.000007
0.000007
0.000007
0.000007
0.000007
0.000007
0.000007
0.000007
0.000007
0.000007
0.000007
0.000007
0.000007
0.000007
0.000007
0.000007
0.000007
0.000007
0.000007
0.000007
0.000007
0.000007
0.000007
0.000007
0.000007
0.000007
0.000007
0.000007
0.000007
0.000007
0.000007
0.000007
0.000007
0.000007
0.000007
0.000007
0.000007
0.000007
0.000007
0.000007
0.000007
0.000007
0.000007
0.000007
0.000007
0.000007
0.000007
0.000007
0.000007
0.000008
0.000008
0.000008
0.000008
0.000008
0.000008
0.000008
0.000008
0.000008
0.000008
0.000008
0.000008
0.000008
0.000010
0.000010
0.000010
0.000010
0.000010
0.000010
0.000010
0.000010
0.000010
0.000010
0.000010
0.000010
0.000010
0.000010
0.000010
0.000010
0.000010
0.000010
0.000010
0.000010
0.000010
0.000010
0.000010
0.000010
0.000010
0.000010
0.000010
0.000010
0.000010
0.000010
0.000010
0.000010
0.000010
0.000010
0.000010
0.000010
0.000010
0.000010
0.000010
0.000010
0.000010
0.000010
0.000010
0.000010
0.000010
0.000010
0.000010
0.000010
0.000010
0.000010
0.000010
0.000010
0.000010
0.000010
0.000010
0.000010
0.000010
0.000010
0.000010
0.000010
0.000010
0.000010
0.000010
0.000010
0.000010
0.000010
0.000010
0.000010
0.000010
0.000010
0.000010
0.000010
0.000010
0.000010
0.000010
0.000010
0.000010
0.000010
0.000010
0.000010
0.000010
0.000010
0.000010
0.000009
0.000009
0.000009
0.000008
0.000008
0.000008
0.000007
0.000008
0.000008
0.000009
0.000009
0.000009
0.000009
0.000009
0.000010
0.000010
0.000010
0.000010
0.000009
0.000009
0.000009
0.000009
0.000009
0.000008
0.000008
0.000010
0.000010
0.000009
0.000009
0.000009
0.000009
0.000009
0.000008
0.000008
0.000010
0.000010
0.000009
0.000009
0.000009
0.000009
0.000008
0.000008
0.000008
0.000010
0.000010
0.000009
0.000009
0.000009
0.000009
0.000008
0.000008
0.000008
0.000010
0.000010
0.000009
0.000009
0.000009
0.000009
0.000008
0.000008
0.000008
0.000010
0.000010
0.000009
0.000009
0.000009
0.000009
0.000008
0.000008
0.000008
0.000010
0.000010
0.000009
0.000009
0.000009
0.000009
0.000008
0.000008
0.000008
0.000010
0.000010
0.000009
0.000009
0.000009
0.000009
0.000008
0.000008
0.000008
0.000010
0.000010
0.000009
0.000009
0.000009
0.000009
0.000008
0.000008
0.000008
0.000010
0.000010
0.000009
0.000009
0.000009
0.000009
0.000008
0.000008
0.000008
0.000010
0.000010
0.000009
0.000009
0.000009
0.000009
0.000008
0.000008
0.000008
0.000010
0.000010
0.000009
0.000009
0.000009
0.000009
0.000008
0.000008
0.000008
0.000010
0.000010
0.000009
0.000009
0.000009
0.000009
0.000008
0.000008
0.000008
0.000010
0.000010
0.000009
0.000009
0.000009
0.000009
0.000008
0.000008
0.000008
0.000010
0.000010
0.000009
0.000009
0.000009
0.000009
0.000008
0.000008
0.000008
0.000010
0.000010
0.000009
0.000009
0.000009
0.000009
0.000008
0.000008
0.000008
0.000010
0.000010
0.000009
0.000009
0.000009
0.000009
0.000008
0.000008
0.000008
0.000010
0.000010
0.000009
0.000009
0.000009
0.000009
0.000008
0.000008
0.000008
0.000010
0.000010
0.000009
0.000009
0.000009
0.000009
0.000008
0.000008
0.000008
0.000010
0.000010
0.000009
0.000009
0.000009
0.000009
0.000008
0.000008
0.000008
0.000010
0.000010
0.000009
0.000009
0.000009
0.000009
0.000008
0.000008
0.000008
0.000010
0.000010
0.000009
0.000009
0.000009
0.000009
0.000008
0.000008
0.000008
0.000010
0.000010
0.000009
0.000009
0.000009
0.000009
0.000008
0.000008
0.000008
0.000010
0.000010
0.000009
0.000009
0.000009
0.000008
0.000008
0.000008
0.000008
0.000010
0.000010
0.000009
0.000009
0.000009
0.000008
0.000008
0.000008
0.000008
0.000010
0.000010
0.000009
0.000009
0.000009
0.000008
0.000008
0.000008
0.000008
0.000010
0.000010
0.000009
0.000009
0.000009
0.000008
0.000008
0.000008
0.000008
0.000010
0.000010
0.000009
0.000009
0.000009
0.000008
0.000008
0.000008
0.000008
0.000010
0.000010
0.000009
0.000009
0.000009
0.000008
0.000008
0.000008
0.000008
0.000010
0.000010
0.000009
0.000009
0.000009
0.000008
0.000008
0.000008
0.000008
0.000010
0.000010
0.000009
0.000009
0.000009
0.000008
0.000008
0.000008
0.000008
0.000010
0.000010
0.000009
0.000009
0.000009
0.000008
0.000008
0.000008
0.000008
0.000010
0.000010
0.000009
0.000009
0.000009
0.000008
0.000008
0.000008
0.000008
0.000010
0.000010
0.000009
0.000009
0.000009
0.000008
0.000008
0.000008
0.000007
0.000010
0.000010
0.000009
0.000009
0.000009
0.000008
0.000008
0.000008
0.000007
0.000010
0.000010
0.000009
0.000009
0.000009
0.000008
0.000008
0.000008
0.000007
0.000010
0.000010
0.000009
0.000009
0.000009
0.000008
0.000008
0.000008
0.000007
0.000010
0.000010
0.000009
0.000009
0.000009
0.000008
0.000008
0.000008
0.000007
0.000010
0.000010
0.000009
0.000009
0.000009
0.000008
0.000008
0.000008
0.000007
0.000010
0.000010
0.000009
0.000009
0.000009
0.000008
0.000008
0.000008
0.000007
0.000010
0.000010
0.000009
0.000009
0.000009
0.000008
0.000008
0.000008
0.000007
0.000010
0.000010
0.000009
0.000009
0.000009
0.000008
0.000008
0.000008
0.000007
0.000010
0.000010
0.000009
0.000009
0.000009
0.000008
0.000008
0.000008
0.000007
0.000010
0.000010
0.000009
0.000009
0.000009
0.000008
0.000008
0.000008
0.000007
0.000010
0.000010
0.000009
0.000009
0.000009
0.000008
0.000008
0.000008
0.000007
0.000010
0.000010
0.000009
0.000009
0.000009
0.000008
0.000008
0.000008
0.000007
0.000010
0.000010
0.000009
0.000009
0.000009
0.000008
0.000008
0.000008
0.000007
0.000010
0.000010
0.000009
0.000009
0.000009
0.000008
0.000008
0.000008
0.000007
0.000010
0.000010
0.000009
0.000009
0.000009
0.000008
0.000008
0.000008
0.000007
0.000010
0.000010
0.000009
0.000009
0.000009
0.000008
0.000008
0.000008
0.000007
0.000010
0.000010
0.000009
0.000009
0.000009
0.000008
0.000008
0.000008
0.000007
0.000010
0.000010
0.000009
0.000009
0.000009
0.000008
0.000008
0.000008
0.000007
0.000010
0.000010
0.000009
0.000009
0.000009
0.000008
0.000008
0.000008
0.000007
0.000010
0.000010
0.000009
0.000009
0.000009
0.000008
0.000008
0.000008
0.000007
0.000010
0.000010
0.000009
0.000009
0.000009
0.000008
0.000008
0.000008
0.000007
0.000010
0.000010
0.000009
0.000009
0.000009
0.000008
0.000008
0.000008
0.000007
0.000010
0.000010
0.000009
0.000009
0.000009
0.000008
0.000008
0.000008
0.000007
0.000010
0.000010
0.000009
0.000009
0.000009
0.000008
0.000008
0.000008
0.000007
0.000010
0.000010
0.000009
0.000009
0.000009
0.000008
0.000008
0.000008
0.000007
0.000010
0.000010
0.000009
0.000009
0.000009
0.000008
0.000008
0.000008
0.000007
0.000010
0.000010
0.000009
0.000009
0.000009
0.000008
0.000008
0.000008
0.000007
0.000010
0.000010
0.000009
0.000009
0.000009
0.000008
0.000008
0.000008
0.000007
0.000010
0.000010
0.000009
0.000009
0.000009
0.000008
0.000008
0.000008
0.000007
0.000010
0.000010
0.000009
0.000009
0.000009
0.000008
0.000008
0.000008
0.000007
0.000010
0.000010
0.000009
0.000009
0.000009
0.000008
0.000008
0.000008
0.000007
0.000010
0.000010
0.000009
0.000009
0.000009
0.000008
0.000008
0.000008
0.000007
0.000010
0.000010
0.000009
0.000009
0.000009
0.000008
0.000008
0.000008
0.000007
0.000010
0.000010
0.000009
0.000009
0.000009
0.000008
0.000008
0.000008
0.000007
0.000010
0.000010
0.000009
0.000009
0.000009
0.000008
0.000008
0.000008
0.000007
0.000010
0.000010
0.000009
0.000009
0.000009
0.000008
0.000008
0.000008
0.000007
0.000010
0.000010
0.000009
0.000009
0.000009
0.000008
0.000008
0.000008
0.000007
0.000010
0.000010
0.000009
0.000009
0.000009
0.000008
0.000008
0.000008
0.000007
0.000010
0.000010
0.000009
0.000009
0.000009
0.000008
0.000008
0.000008
0.000007
0.000010
0.000010
0.000009
0.000009
0.000009
0.000008
0.000008
0.000008
0.000007
0.000010
0.000010
0.000009
0.000009
0.000009
0.000008
0.000008
0.000008
0.000007
0.000010
0.000010
0.000009
0.000009
0.000009
0.000008
0.000008
0.000008
0.000007
0.000010
0.000010
0.000009
0.000009
0.000009
0.000008
0.000008
0.000008
0.000007
0.000010
0.000010
0.000009
0.000009
0.000009
0.000008
0.000008
0.000008
0.000007
0.000010
0.000010
0.000009
0.000009
0.000009
0.000008
0.000008
0.000008
0.000007
SCALARS strain_3 float
LOOKUP_TABLE default
0.000002
0.000068
0.000067
0.000066
0.000065
0.000065
0.000064
0.000063
0.000062
0.000061
0.000060
0.000059
0.000058
0.000057
0.000056
0.000055
0.000054
0.000053
0.000052
0.000051
0.000050
0.000048
0.000047
0.000046
0.000045
0.000044
0.000043
0.000042
0.000041
0.000040
0.000039
0.000038
0.000037
0.000036
0.000035
0.000034
0.000033
0.000032
0.000031
0.000031
0.000030
0.000029
0.000028
0.000027
0.000026
0.000025
0.000024
0.000023
0.000022
0.000021
0.000021
0.000020
0.000019
0.000018
0.000017
0.000016
0.000016
0.000015
0.000014
0.000013
0.000013
0.000012
0.000011
0.000011
0.000010
0.000009
0.000009
0.000008
0.000008
0.000007
0.000007
0.000006
0.000006
0.000005
0.000005
0.000004
0.000004
0.000003
0.000003
0.000003
0.000002
0.000065
-0.000001
-0.000001
-0.000000
-0.000000
0.000000
0.000001
0.000001
0.000001
0.000002
0.000002
0.000003
0.000003
0.000004
0.000004
0.000005
0.000005
0.000006
0.000007
0.000007
0.000008
0.000009
0.000009
0.000010
0.000011
0.000011
0.000012
0.000013
0.000014
0.000015
0.000015
0.000016
0.000017
0.000018
0.000019
0.000020
0.000020
0.000021
0.000022
0.000023
0.000024
0.000025
0.000026
0.000027
0.000028
0.000029
0.000030
0.000031
0.000032
0.000033
0.000034
0.000035
0.000036
0.000037
0.000038
0.000039
0.000040
0.000041
0.000042
0.000043
0.000044
0.000045
0.000046
0.000047
0.000048
0.000049
0.000050
0.000051
0.000052
0.000053
0.000054
0.000055
0.000056
0.000057
0.000058
0.000059
0.000060
0.000061
0.000062
0.000063
0.000064
0.000065
0.000066
0.000066
0.000066
0.000067
0.000067
0.000067
0.000068
0.000068
0.000002
0.000001
0.000001
0.000001
0.000000
0.000000
-0.000000
-0.000000
-0.000001
-0.000000
-0.000000
0.000000
0.000000
0.000001
0.000001
0.000001
0.000002
0.000002
-0.000000
0.000000
0.000000
0.000001
0.000001
0.000001
0.000002
0.000002
0.000002
0.000000
0.000001
0.000001
0.000001
0.000001
0.000002
0.000002
0.000002
0.000003
0.000001
0.000001
0.000001
0.000001
0.000002
0.000002
0.000002
0.000003
0.000003
0.000001
0.000001
0.000002
0.000002
0.000002
0.000003
0.000003
0.000003
0.000003
0.000001
0.000002
0.000002
0.000002
0.000003
0.000003
0.000003
0.000004
0.000004
0.000002
0.000002
0.000002
0.000003
0.000003
0.000003
0.000004
0.000004
0.000004
0.000002
0.000003
0.000003
0.000003
0.000003
0.000004
0.000004
0.000004
0.000005
0.000003
0.000003
0.000003
0.000004
0.000004
0.000004
0.000005
0.000005
0.000005
0.000003
0.000003
0.000004
0.000004
0.000004
0.000005
0.000005
0.000005
0.000006
0.000004
0.000004
0.000004
0.000005
0.000005
0.000005
0.000006
0.000006
0.000006
0.000004
0.000004
0.000005
0.000005
0.000005
0.000006
0.000006
0.000006
0.000007
0.000005
0.000005
0.000005
0.000006
0.000006
0.000006
0.000007
0.000007
0.000007
0.000005
0.000006
0.000006
0.000006
0.000007
0.000007
0.000007
0.000008
0.000008
0.000006
0.000006
0.000006
0.000007
0.000007
0.000007
0.000008
0.000008
0.000008
0.000006
0.000007
0.000007
0.000007
0.000008
0.000008
0.000008
0.000009
0.000009
0.000007
0.000007
0.000008
0.000008
0.000008
0.000009
0.000009
0.000009
0.000010
0.000008
0.000008
0.000008
0.000009
0.000009
0.000009
0.000010
0.000010
0.000010
0.000008
0.000009
0.000009
0.000009
0.000010
0.000010
0.000010
0.000011
0.000011
0.000009
0.000009
0.000010
0.000010
0.000010
0.000011
0.000011
0.000011
0.000012
0.000010
0.000010
0.000010
0.000011
0.000011
0.000011
0.000012
0.000012
0.000012
0.000010
0.000011
0.000011
0.000011
0.000012
0.000012
0.000012
0.000013
0.000013
0.000011
0.000011
0.000012
0.000012
0.000012
0.000013
0.000013
0.000013
0.000014
0.000012
0.000012
0.000012
0.000013
0.000013
0.000014
0.000014
0.000014
0.000015
0.000013
0.000013
0.000013
0.000014
0.000014
0.000014
0.000015
0.000015
0.000015
0.000013
0.000014
0.000014
0.000014
0.000015
0.000015
0.000015
0.000016
0.000016
0.000014
0.000014
0.000015
0.000015
0.000015
0.000016
0.000016
0.000017
0.000017
0.000015
0.000015
0.000016
0.000016
0.000016
0.000017
0.000017
0.000017
0.000018
0.000016
0.000016
0.000016
0.000017
0.000017
0.000017
0.000018
0.000018
0.000018
0.000017
0.000017
0.000017
0.000018
0.000018
0.000018
0.000019
0.000019
0.000019
0.000017
0.000018
0.000018
0.000018
0.000019
0.000019
0.000019
0.000020
0.000020
0.000018
0.000019
0.000019
0.000019
0.000020
0.000020
0.000020
0.000021
0.000021
0.000019
0.000019
0.000020
0.000020
0.000020
0.000021
0.000021
0.000022
0.000022
0.000020
0.000020
0.000021
0.000021
0.000021
0.000022
0.000022
0.000022
0.000023
0.000021
0.000021
0.000022
0.000022
0.000022
0.000023
0.000023
0.000023
0.000024
0.000022
0.000022
0.000022
0.000023
0.000023
0.000023
0.000024
0.000024
0.000025
0.000023
0.000023
0.000023
0.000024
0.000024
0.000024
0.000025
0.000025
0.000025
0.000024
0.000024
0.000024
0.000025
0.000025
0.000025
0.000026
0.000026
0.000026
0.000024
0.000025
0.000025
0.000026
0.000026
0.000026
0.000027
0.000027
0.000027
0.000025
0.000026
0.000026
0.000026
0.000027
0.000027
0.000028
0.000028
0.000028
0.000026
0.000027
0.000027
0.000027
0.000028
0.000028
0.000028
0.000029
0.000029
0.000027
0.000028
0.000028
0.000028
0.000029
0.000029
0.000029
0.000030
0.000030
0.000028
0.000029
0.000029
0.000029
0.000030
0.000030
0.000030
0.000031
0.000031
0.000029
0.000030
0.000030
0.000030
0.000031
0.000031
0.000031
0.000032
0.000032
0.000030
0.000031
0.000031
0.000031
0.000032
0.000032
0.000032
0.000033
0.000033
0.000031
0.000032
0.000032
0.000032
0.000033
0.000033
0.000033
0.000034
0.000034
0.000032
0.000033
0.000033
0.000033
0.000034
0.000034
0.000034
0.000035
0.000035
0.000033
0.000034
0.000034
0.000034
0.000035
0.000035
0.000035
0.000036
0.000036
0.000034
0.000035
0.000035
0.000035
0.000036
0.000036
0.000036
0.000037
0.000037
0.000035
0.000036
0.000036
0.000036
0.000037
0.000037
0.000037
0.000038
0.000038
0.000036
0.000037
0.000037
0.000037
0.000038
0.000038
0.000038
0.000039
0.000039
0.000037
0.000038
0.000038
0.000038
0.000039
0.000039
0.000039
0.000040
0.000040
0.000038
0.000039
0.000039
0.000039
0.000040
0.000040
0.000040
0.000041
0.000041
0.000039
0.000040
0.000040
0.000040
0.000041
0.000041
0.000041
0.000042
0.000042
0.000040
0.000041
0.000041
0.000041
0.000042
0.000042
0.000042
0.000043
0.000043
0.000041
0.000042
0.000042
0.000042
0.000043
0.000043
0.000043
0.000044
0.000044
0.000042
0.000043
0.000043
0.000043
0.000044
0.000044
0.000044
0.000045
0.000045
0.000043
0.000044
0.000044
0.000044
0.000045
0.000045
0.000045
0.000046
0.000046
0.000044
0.000045
0.000045
0.000045
0.000046
0.000046
0.000046
0.000047
0.000047
0.000045
0.000046
0.000046
0.000046
0.000047
0.000047
0.000047
0.000048
0.000048
0.000046
0.000047
0.000047
0.000047
0.000048
0.000048
0.000048
0.000049
0.000049
0.000047
0.000048
0.000048
0.000048
0.000049
0.000049
0.000049
0.000050
0.000050
0.000048
0.000049
0.000049
0.000049
0.000050
0.000050
0.000050
0.000051
0.000051
0.000049
0.000050
0.000050
0.000050
0.000051
0.000051
0.000051
0.000052
0.000052
0.000050
0.000051
0.000051
0.000051
0.000052
0.000052
0.000053
0.000053
0.000053
0.000051
0.000052
0.000052
0.000052
0.000053
0.000053
0.000054
0.000054
0.000054
0.000052
0.000053
0.000053
0.000053
0.000054
0.000054
0.000055
0.000055
0.000055
0.000053
0.000054
0.000054
0.000055
0.000055
0.000055
0.000056
0.000056
0.000056
0.000054
0.000055
0.000055
0.000056
0.000056
0.000056
0.000057
0.000057
0.000057
0.000055
0.000056
0.000056
0.000057
0.000057
0.000057
0.000058
0.000058
0.000058
0.000056
0.000057
0.000057
0.000058
0.000058
0.000058
0.000059
0.000059
0.000059
0.000057
0.000058
0.000058
0.000059
0.000059
0.000059
0.000060
0.000060
0.000060
0.000058
0.000059
0.000059
0.000060
0.000060
0.000060
0.000061
0.000061
0.000061
0.000059
0.000060
0.000060
0.000060
0.000061
0.000061
0.000062
0.000062
0.000062
0.000060
0.000061
0.000061
0.000061
0.000062
0.000062
0.000063
0.000063
0.000063
0.000061
0.000062
0.000062
0.000062
0.000063
0.000063
0.000063
0.000064
0.000064
0.000062
0.000063
0.000063
0.000063
0.000064
0.000064
0.000064
0.000065
0.000065
0.000063
0.000064
0.000064
0.000064
0.000065
0.000065
0.000065
0.000066
0.000066
0.000064
0.000065
0.000065
0.000065
0.000066
0.000066
0.000066
0.000067
0.000067
SCALARS stress_1 float
LOOKUP_TABLE default
6.315949
-2967.556628
-2922.623117
-2877.451324
-2832.091787
-2786.510082
-2740.721102
-2694.764153
-2648.628981
-2602.329502
-2555.886958
-2509.297684
-2462.589759
-2415.781735
-2368.863605
-2321.869058
-2274.806884
-2227.693685
-2180.542400
-2133.367922
-2086.195397
-2039.030928
-1991.896244
-1944.823817
-1897.815110
-1850.883796
-1804.066983
-1757.360767
-1710.811532
-1664.432220
-1618.218923
-1572.230968
-1526.460787
-1480.943779
-1435.693129
-1390.746678
-1346.107844
-1301.808854
-1257.866553
-1214.306821
-1171.153339
-1128.431497
-1086.150817
-1044.357198
-1003.049663
-962.260927
-922.022972
-882.336043
-843.243351
-804.757838
-766.894395
-729.689155
-693.164090
-657.319446
-622.179147
-587.779083
-554.124624
-521.241405
-489.133577
-457.835808
-427.360548
-397.715123
-368.907099
-340.960648
-313.896277
-287.708371
-262.420612
-238.026407
-214.548950
-191.996786
-170.361858
-149.653689
-129.873986
-111.035689
-93.126591
-76.150599
-60.115037
-44.997443
-30.804898
-17.518360
-5.160776
-2966.919103
10.597761
-0.873592
-13.237280
-26.525772
-40.727350
-55.847873
-71.908582
-88.898490
-106.818574
-125.684702
-145.488575
-166.211394
-187.870735
-210.458055
-233.973598
-258.392706
-283.713668
-309.929162
-337.041629
-365.024945
-393.869346
-423.561402
-454.085001
-485.435994
-517.578245
-550.516396
-584.222368
-618.679561
-653.858923
-689.752883
-726.346551
-763.610873
-801.523877
-840.068961
-879.217072
-918.957468
-959.260365
-1000.106718
-1041.466743
-1083.324816
-1125.665310
-1168.442083
-1211.658553
-1255.277368
-1299.282413
-1343.641461
-1388.344748
-1433.352723
-1478.666117
-1524.244404
-1570.065611
-1616.129494
-1662.384783
-1708.837093
-1755.433446
-1802.191177
-1849.075616
-1896.059909
-1943.130383
-1990.265555
-2037.442231
-2084.662119
-2131.892262
-2179.117277
-2226.320808
-2273.486986
-2320.600429
-2367.654058
-2414.614181
-2461.476159
-2508.226321
-2554.858807
-2601.353598
-2647.697510
-2693.886637
-2739.884358
-2785.706541
-2831.330726
-2876.749346
-2921.950679
-2967.007563
-2967.085036
-2967.151523
-2967.228996
-2967.285473
-2967.356110
-2967.411123
-2967.464914
-2967.516753
6.927846
7.483591
8.008818
8.499621
8.949897
9.363064
9.725449
10.049504
10.346948
-1.116593
-1.409642
-1.742242
-2.115126
-2.519992
-2.971000
-3.454723
-3.976288
-4.545949
-13.491999
-13.776015
-14.112766
-14.483696
-14.889050
-15.337373
-15.824514
-16.354624
-16.920623
-26.772678
-27.058892
-27.392713
-27.760958
-28.160696
-28.623424
-29.099090
-29.629200
-30.201790
-40.970106
-41.264864
-41.585258
-41.954723
-42.363007
-42.807423
-43.297006
-43.825407
-44.392382
-56.106987
-56.380261
-56.714082
-57.078664
-57.480845
-57.928191
-58.411182
-58.944954
-59.504361
-72.162325
-72.441702
-72.758433
-73.130340
-73.536915
-73.985726
-74.465787
-74.985399
-75.563116
-89.146129
-89.419891
-89.750294
-90.112191
-90.506315
-90.955614
-91.440558
-91.961879
-92.532028
-107.060842
-107.345346
-107.668181
-108.029346
-108.424202
-108.870815
-109.353562
-109.872686
-110.443323
-125.925506
-126.203907
-126.521370
-126.879605
-127.283494
-127.718634
-128.196253
-128.721725
-129.279911
-145.721810
-145.993864
-146.314257
-146.672492
-147.062953
-147.500046
-147.981572
-148.496789
-149.051069
-166.447802
-166.725715
-167.040249
-167.394089
-167.795049
-168.220911
-168.696333
-169.210818
-169.763877
-188.108121
-188.381883
-188.687383
-189.047327
-189.437301
-189.870731
-190.342003
-190.846478
-191.400026
-210.692267
-210.958949
-211.274704
-211.620732
-212.016320
-212.434614
-212.909548
-213.421103
-213.971965
-234.195114
-234.463750
-234.774621
-235.123091
-235.505984
-235.931113
-236.398235
-236.903199
-237.443562
-258.612513
-258.873580
-259.182498
-259.533653
-259.912884
-260.333619
-260.794149
-261.298136
-261.838988
-283.939823
-284.202599
-284.503705
-284.844850
-285.222861
-285.642619
-286.098022
-286.599812
-287.139199
-310.151167
-310.425417
-310.719687
-311.056194
-311.428589
-311.848103
-312.295938
-312.792112
-313.329546
-337.272423
-337.522503
-337.821168
-338.140584
-338.519083
-338.932250
-339.391315
-339.876014
-340.404171
-365.240846
-365.500692
-365.787150
-366.122436
-366.491413
-366.895546
-367.336301
-367.831987
-368.343542
-394.083782
-394.330200
-394.628132
-394.955606
-395.324094
-395.717730
-396.158973
-396.634395
-397.154984
-423.769979
-424.026407
-424.311400
-424.626666
-424.996864
-425.391720
-425.824662
-426.303014
-426.809442
-454.298217
-454.545856
-454.824257
-455.139523
-455.500200
-455.899450
-456.326045
-456.793410
-457.295688
-485.636514
-485.879758
-486.161821
-486.478797
-486.830196
-487.223831
-487.649693
-488.109246
-488.602979
-517.781939
-518.024696
-518.303829
-518.611283
-518.959996
-519.346063
-519.763624
-520.211215
-520.711051
-550.716916
-550.955278
-551.226599
-551.535029
-551.873977
-552.250522
-552.667107
-553.118359
-553.605012
-584.421423
-584.654414
-584.913772
-585.217564
-585.567010
-585.939161
-586.343294
-586.788931
-587.263621
-618.870804
-619.100621
-619.363641
-619.664747
-619.995150
-620.364127
-620.764354
-621.202423
-621.677846
-654.053827
-654.274611
-654.543247
-654.832390
-655.163525
-655.520783
-655.911733
-656.354197
-656.818633
-689.954624
-690.175408
-690.430616
-690.719026
-691.044302
-691.396922
-691.785675
-692.209583
-692.670846
-726.532667
-726.756625
-727.006949
-727.299755
-727.614533
-727.960561
-728.345895
-728.765898
-729.210314
-763.796013
-764.011181
-764.259309
-764.546499
-764.856394
-765.201933
-765.587268
-765.988716
-766.432400
-801.706087
-801.916617
-802.162059
-802.438995
-802.748646
-803.088814
-803.458524
-803.862413
-804.287787
-840.244090
-840.458771
-840.694691
-840.975778
-841.276151
-841.607531
-841.975043
-842.368678
-842.791611
-879.396596
-879.603464
-879.844023
-880.105334
-880.405952
-880.733913
-881.092148
-881.474797
-881.894800
-919.127715
-919.334583
-919.562935
-919.825955
-920.123155
-920.447699
-920.794215
-921.172225
-921.581974
-959.430612
-959.633573
-959.866808
-960.117621
-960.408961
-960.722030
-961.062199
-961.433862
-961.835309
-1000.271838
-1000.473335
-1000.698757
-1000.947617
-1001.234807
-1001.540308
-1001.874861
-1002.240420
-1002.630882
-1041.625516
-1041.820420
-1042.047552
-1042.294947
-1042.567977
-1042.878604
-1043.202171
-1043.559674
-1043.949159
-1083.487250
-1083.681911
-1083.900985
-1084.144718
-1084.413110
-1084.705671
-1085.031191
-1085.377951
-1085.751811
-1125.826279
-1126.012883
-1126.220239
-1126.464460
-1126.730898
-1127.015159
-1127.332866
-1127.677674
-1128.032735
-1168.610621
-1168.797713
-1169.000674
-1169.234398
-1169.492535
-1169.774842
-1170.084981
-1170.415873
-1170.773375
-1211.810490
-1211.994896
-1212.198590
-1212.426943
-1212.687033
-1212.962992
-1213.256042
-1213.587177
-1213.939553
-1255.434919
-1255.611513
-1255.815696
-1256.036724
-1256.281677
-1256.552754
-1256.844827
-1257.165952
-1257.502215
-1299.433372
-1299.607037
-1299.800477
-1300.017598
-1300.264994
-1300.535582
-1300.811542
-1301.129493
-1301.453060
-1343.794618
-1343.962179
-1344.147318
-1344.372009
-1344.608661
-1344.858742
-1345.137387
-1345.437517
-1345.757666
-1388.489360
-1388.655701
-1388.842793
-1389.058694
-1389.286558
-1389.538592
-1389.808203
-1390.103450
-1390.413345
-1433.502217
-1433.662454
-1433.854185
-1434.062762
-1434.283790
-1434.516781
-1434.788590
-1435.064794
-1435.376154
-1478.807799
-1478.966327
-1479.149513
-1479.341000
-1479.563981
-1479.806982
-1480.062190
-1480.333022
-1480.624851
-1524.379983
-1524.537534
-1524.714128
-1524.914404
-1525.129329
-1525.351822
-1525.605809
-1525.872247
-1526.158704
-1570.203631
-1570.356544
-1570.528011
-1570.726578
-1570.926854
-1571.156183
-1571.398939
-1571.661959
-1571.939140
-1616.255307
-1616.406755
-1616.575781
-1616.757014
-1616.968276
-1617.186374
-1617.415459
-1617.673596
-1617.949556
-1662.514502
-1662.662288
-1662.827163
-1663.008885
-1663.204522
-1663.411390
-1663.646578
-1663.883719
-1664.159923
-1708.957535
-1709.105809
-1709.266046
-1709.434584
-1709.631930
-1709.844169
-1710.061290
-1710.294037
-1710.545827
-1755.566340
-1755.708022
-1755.865817
-1756.034111
-1756.224377
-1756.416108
-1756.634450
-1756.865244
-1757.104094
-1802.315769
-1802.460869
-1802.615735
-1802.778902
-1802.958670
-1803.153575
-1803.355316
-1803.581226
-1803.810555
-1849.190443
-1849.327730
-1849.479667
-1849.646251
-1849.818695
-1850.007008
-1850.196786
-1850.419523
-1850.646654
-1896.176445
-1896.306652
-1896.458344
-1896.617360
-1896.783457
-1896.961516
-1897.152514
-1897.362800
-1897.578701
-1943.241304
-1943.374197
-1943.518321
-1943.671966
-1943.833667
-1944.008309
-1944.195645
-1944.389818
-1944.607183
-1990.381114
-1990.506439
-1990.645680
-1990.797128
-1990.958829
-1991.119555
-1991.303961
-1991.496181
-1991.692306
-2037.564138
-2037.689462
-2037.820647
-2037.968676
-2038.121345
-2038.276211
-2038.461838
-2038.632085
-2038.830408
-2084.777678
-2084.901294
-2085.029305
-2085.165616
-2085.324144
-2085.475103
-2085.639002
-2085.815841
-2086.003665
-2132.009042
-2132.119230
-2132.251146
-2132.386969
-2132.523036
-2132.684250
-2132.842289
-2133.005212
-2133.189863
-2179.226000
-2179.340095
-2179.469326
-2179.603440
-2179.735845
-2179.879968
-2180.035322
-2180.194827
-2180.369468
-2226.430508
-2226.545823
-2226.657964
-2226.787440
-2226.932784
-2227.062503
-2227.207115
-2227.369793
-2227.532960
-2273.587164
-2273.700770
-2273.821456
-2273.947758
-2274.072838
-2274.206708
-2274.353273
-2274.492758
-2274.649089
-2320.705002
-2320.805180
-2320.918298
-2321.038008
-2321.167727
-2321.302329
-2321.429607
-2321.581055
-2321.732014
-2367.744471
-2367.855147
-2367.972415
-2368.078697
-2368.197918
-2368.317628
-2368.458822
-2368.585367
-2368.725096
-2414.708744
-2414.812584
-2414.923261
-2415.038087
-2415.143881
-2415.257731
-2415.387206
-2415.515949
-2415.643471
-2461.579755
-2461.672610
-2461.775229
-2461.883220
-2462.001465
-2462.109456
-2462.228677
-2462.343015
-2462.470293
-2508.328453
-2508.427410
-2508.527589
-2508.631429
-2508.736490
-2508.849608
-2508.953937
-2509.070961
-2509.184567
-2554.955812
-2555.050375
-2555.150553
-2555.248778
-2555.350177
-2555.449623
-2555.556149
-2555.664628
-2555.777746
-2601.449626
-2601.539551
-2601.635579
-2601.728677
-2601.834470
-2601.927324
-2602.022864
-2602.136226
-2602.229568
-2647.789876
-2647.876138
-2647.967772
-2648.062091
-2648.155189
-2648.249264
-2648.348710
-2648.441075
-2648.532953
-2693.965819
-2694.049884
-2694.145668
-2694.231930
-2694.320390
-2694.409094
-2694.500239
-2694.587233
-2694.675693
-2739.967934
-2740.054685
-2740.138018
-2740.236243
-2740.317378
-2740.393142
-2740.481602
-2740.559808
-2740.647291
-2785.788165
-2785.877601
-2785.953365
-2786.041825
-2786.117833
-2786.201166
-2786.277906
-2786.354403
-2786.429923
-2831.414303
-2831.499101
-2831.577062
-2831.653071
-2831.728102
-2831.806552
-2831.879875
-2831.950757
-2832.014802
-2876.829260
-2876.912593
-2876.982009
-2877.061192
-2877.135003
-2877.203443
-2877.276277
-2877.346426
-2877.407786
-2922.032791
-2922.109532
-2922.183831
-2922.253004
-2922.319247
-2922.384757
-2922.455394
-2922.516998
-2922.566395
SCALARS stress_2 float
LOOKUP_TABLE default
60.073283
-349.146349
-343.077319
-336.967274
-330.822073
-324.672965
-318.435967
-312.257562
-306.001033
-299.724972
-293.431333
-287.124022
-280.779602
-274.450807
-268.073183
-261.720951
-255.304265
-248.930548
-242.529487
-236.120613
-229.729318
-223.349742
-216.931103
-210.514417
-204.121169
-197.765030
-191.358109
-185.037127
-178.663410
-172.385396
-166.062460
-159.782493
-153.537682
-147.285059
-141.145717
-134.992703
-128.919767
-122.854643
-116.842255
-110.886506
-104.983492
-99.137119
-93.327855
-87.606482
-81.902686
-76.323891
-70.799783
-65.316691
-59.935162
-54.633710
-49.377181
-44.257370
-39.209825
-34.222826
-29.358875
-24.612111
-19.927847
-15.349052
-10.832757
-6.476618
-2.220088
1.913395
5.945315
9.873719
13.698608
17.377013
21.004636
24.444760
27.775508
30.992975
34.067864
37.082206
39.930533
42.659718
45.256092
47.737231
50.112901
52.369430
54.473616
56.458661
58.326519
-325.315494
78.708826
77.163234
75.498501
73.726346
71.813567
69.785553
67.616914
65.348666
62.974949
60.402013
57.772436
54.967079
52.050393
49.020426
45.843974
42.530804
39.121931
35.576339
31.909653
28.145311
24.246203
20.224048
16.088613
11.863333
7.483756
3.072930
-1.476568
-6.129582
-10.942752
-15.767641
-20.725343
-25.767029
-30.918090
-36.139463
-41.429196
-46.808772
-52.303583
-57.819878
-63.404533
-69.108328
-74.827748
-80.642871
-86.502917
-92.444993
-98.431991
-104.420943
-110.521222
-116.605877
-122.774516
-128.968546
-135.178200
-141.448402
-147.714697
-154.020055
-160.374240
-166.726473
-173.111909
-179.479767
-185.865202
-192.279935
-198.702480
-205.162135
-211.547571
-217.997460
-224.382896
-230.848409
-237.253377
-243.666156
-250.030108
-256.440934
-262.783401
-269.157118
-275.472242
-281.812756
-288.127879
-294.374643
-300.637032
-306.862311
-313.038763
-319.197636
-327.716548
-330.096118
-332.471782
-334.874789
-337.273890
-339.633929
-342.005686
-344.391115
-346.790217
61.982150
63.826564
65.723712
67.577891
69.465273
71.321406
73.156054
75.018045
76.833162
75.275851
73.464641
71.581165
69.682064
67.816166
65.905346
64.004291
62.152065
60.215855
73.628697
71.741314
69.871510
67.954831
66.045964
64.115613
62.218465
60.329129
58.392919
71.821386
69.932050
68.003652
66.073301
64.178106
62.255568
60.293967
58.344084
56.411780
69.894934
67.960677
66.042045
64.133178
62.128608
60.206069
58.244468
56.288726
54.313453
67.864967
65.877976
63.967156
61.978211
60.020516
58.056962
56.071923
54.081025
52.097939
65.692422
63.713243
61.753595
59.747072
57.779611
55.745745
53.778284
51.760042
49.761332
63.383158
61.380541
59.399409
57.377261
55.366832
53.375934
51.357692
49.319919
47.301677
60.958660
58.942371
56.937801
54.890263
52.877880
50.845967
48.790616
46.770421
44.707257
58.407208
56.369435
54.349241
52.321233
50.250257
48.206625
46.121977
44.033422
41.976118
55.719038
53.653921
51.606383
49.562750
47.491774
45.387595
43.322478
41.241736
39.157088
52.933212
50.803642
48.769775
46.689033
44.610245
42.511925
40.423371
38.287941
36.213059
49.965745
47.857659
45.773011
43.711801
41.588090
39.497583
37.371919
35.226724
33.136217
46.877184
44.796442
42.707888
40.580271
38.458514
36.332850
34.209139
32.048320
29.932422
43.714404
41.580928
39.461124
37.353038
35.196125
33.031399
30.903782
28.760540
26.595814
40.403187
38.271664
36.144047
33.991040
31.828267
29.679166
27.496862
25.336042
23.145925
36.963064
34.827635
32.659002
30.466932
28.315878
26.125761
23.961035
21.765059
19.578848
33.433097
31.262511
29.058723
26.874465
24.705833
22.507904
20.300209
18.113998
15.910209
29.739067
27.566529
25.372506
23.174576
20.968834
18.759186
16.553445
14.373094
12.108758
25.951288
23.747499
21.559335
19.322344
17.134180
14.881563
12.669962
10.427111
8.199885
22.018977
19.815188
17.589915
15.395892
13.151088
10.937534
8.651714
6.399097
4.162105
17.992916
15.775455
13.534557
11.319050
9.058621
6.819676
4.563153
2.300770
0.012997
13.867246
11.655645
9.371778
7.117208
4.856779
2.610021
0.322248
-1.942087
-4.216188
9.626341
7.393256
5.076186
2.811850
0.563140
-1.679711
-3.973344
-6.284554
-8.548890
5.264343
2.984382
0.720047
-1.581398
-3.857452
-6.147179
-8.423233
-10.687568
-13.028076
0.789063
-1.490897
-3.792342
-6.056678
-8.362029
-10.659567
-12.957106
-15.281989
-17.614683
-3.770201
-6.044302
-8.400434
-10.692114
-12.974027
-15.293050
-17.606214
-19.931096
-22.273557
-8.429074
-10.755910
-13.090558
-15.399815
-17.697354
-19.994892
-22.366650
-24.713016
-27.043758
-13.232479
-15.553455
-17.872478
-20.179782
-22.516383
-24.856891
-27.205210
-29.528140
-31.890132
-18.072993
-20.403734
-22.748148
-25.112093
-27.429163
-29.791155
-32.125803
-34.481935
-36.822442
-23.061944
-25.388780
-27.729287
-30.067841
-32.453270
-34.784012
-37.171395
-39.506043
-41.875847
-28.109489
-30.465622
-32.831520
-35.193511
-37.518394
-39.882339
-42.291205
-44.641478
-47.044486
-33.280081
-35.591292
-37.988440
-40.326994
-42.700705
-45.109571
-47.457891
-49.823789
-52.226797
-38.499502
-40.853681
-43.225438
-45.626492
-47.990437
-50.354382
-52.735905
-55.146725
-57.545826
-43.802906
-46.176617
-48.573765
-50.927944
-53.307514
-55.718334
-58.086185
-60.522395
-62.909778
-49.203967
-51.591349
-53.984591
-56.364161
-58.773028
-61.156504
-63.582949
-65.937128
-68.351854
-54.657762
-57.090066
-59.442293
-61.839441
-64.258073
-66.672799
-69.064088
-71.496392
-73.889634
-60.215073
-62.631752
-65.030853
-67.410423
-69.844681
-72.222297
-74.638977
-77.081047
-79.497726
-65.809493
-68.241797
-70.656524
-73.055625
-75.472304
-77.885077
-80.297850
-82.751639
-85.160505
-71.509382
-73.929968
-76.336881
-78.732076
-81.178052
-83.602544
-86.028989
-88.469106
-90.889691
-77.271771
-79.690403
-82.097317
-84.515950
-86.926769
-89.378605
-91.818722
-94.241260
-96.683330
-83.049785
-85.482089
-87.896815
-90.327167
-92.749705
-95.213260
-97.637751
-100.085681
-102.519938
-88.911783
-91.369478
-93.762720
-96.247759
-98.666391
-101.094789
-103.566156
-105.980882
-108.436624
-94.875344
-97.284211
-99.734093
-102.193741
-104.600655
-107.044678
-109.525810
-111.952255
-114.407997
-100.846718
-103.273162
-105.723045
-108.169021
-110.624763
-113.035583
-115.497184
-117.935347
-120.396949
-106.829810
-109.267973
-111.721762
-114.163832
-116.637152
-119.090940
-121.521291
-124.006330
-126.462072
-112.935949
-115.399503
-117.829854
-120.281690
-122.706181
-125.169736
-127.613759
-130.077313
-132.552586
-119.079197
-121.484157
-123.941852
-126.387828
-128.849430
-131.275875
-133.766773
-136.236186
-138.701694
-125.197055
-127.672328
-130.114398
-132.531077
-135.008303
-137.471857
-139.935411
-142.393106
-144.860567
-131.393037
-133.866357
-136.306474
-138.736825
-141.190614
-143.671746
-146.143113
-148.579323
-151.093659
-137.639801
-140.066246
-142.551285
-144.960152
-147.468628
-149.918510
-152.387924
-154.824134
-157.328704
-143.874846
-146.354026
-148.803908
-151.249884
-153.709532
-156.178946
-158.662031
-161.127539
-163.602812
-150.154814
-152.637899
-155.093641
-157.520086
-160.022703
-162.484304
-164.938092
-167.419225
-169.876920
-156.493374
-158.923726
-161.404858
-163.858647
-166.304623
-168.772083
-171.239544
-173.740207
-176.184230
-162.829982
-165.279865
-167.727794
-170.206973
-172.660762
-175.120410
-177.603495
-180.082674
-182.552088
-169.197840
-171.639910
-174.095651
-176.576784
-179.018854
-181.486314
-183.934244
-186.431001
-188.894555
-175.546166
-177.980424
-180.453744
-182.938782
-185.378899
-187.881516
-190.315773
-192.808624
-195.252647
-181.917930
-184.389297
-186.852851
-189.302734
-191.774100
-194.257186
-196.728553
-199.162810
-201.651755
-188.334616
-190.792311
-193.263678
-195.721373
-198.196646
-200.644575
-203.072973
-205.577543
-208.041097
-194.716146
-197.197278
-199.666692
-202.118527
-204.589894
-207.053448
-209.528721
-211.964932
-214.434345
-201.164081
-203.608104
-206.079471
-208.550838
-210.985095
-213.474040
-215.921970
-218.381618
-220.849078
-207.604205
-210.034556
-212.513735
-214.957758
-217.390063
-219.880961
-222.324984
-224.790491
-227.226701
-214.018938
-216.457101
-218.905030
-221.374444
-223.853623
-226.254678
-228.747529
-231.201317
-233.659012
-220.435623
-222.885506
-225.337341
-227.767692
-230.258590
-232.716285
-235.142730
-237.602378
-240.069839
-226.864028
-229.327582
-231.759886
-234.188284
-236.663557
-239.111487
-241.534025
-244.017111
-246.443556
-233.270948
-235.740362
-238.153135
-240.603017
-243.048993
-245.514501
-247.964383
-250.420125
-252.838757
-239.670056
-242.139469
-244.544430
-247.037281
-249.463726
-251.911655
-254.349819
-256.809467
-259.249584
-246.108226
-248.546390
-250.959163
-253.399279
-255.858927
-258.324435
-260.715724
-263.151934
-265.635020
-252.479990
-254.900576
-257.350458
-259.804247
-262.238504
-264.662996
-267.130456
-269.599870
-271.989205
-258.855660
-261.323121
-263.731987
-266.177964
-268.596596
-271.046478
-273.480736
-275.920853
-278.347297
-265.250862
-267.651916
-270.129142
-272.551681
-274.927344
-277.345977
-279.807578
-282.224257
-284.693671
-271.579657
-274.037352
-276.424734
-278.831648
-281.312780
-283.717741
-286.126607
-288.551099
-290.997075
-277.902593
-280.319272
-282.769154
-285.150677
-287.569310
-290.040677
-292.426106
-294.856457
-297.277042
-284.205997
-286.632442
-289.060840
-291.465801
-293.903964
-296.318691
-298.723651
-301.146190
-303.566775
-290.546511
-292.908503
-295.331042
-297.751627
-300.168306
-302.573267
-304.978227
-307.400766
-309.838930
-296.793275
-299.200189
-301.597337
-304.014016
-306.399445
-308.831750
-311.228898
-313.672921
-316.048584
-303.016602
-305.437187
-307.846054
-310.247108
-312.648162
-315.049217
-317.452224
-319.841560
-322.248473
-309.228209
-311.648795
-314.075240
-316.443091
-318.824614
-321.231528
-323.605238
-326.031683
-328.415159
-315.432005
-317.823293
-320.220441
-322.601964
-324.991300
-327.413838
-329.791455
-332.163213
-334.568173
-321.586972
-323.976307
-326.365643
-328.764744
-331.161892
-333.492634
-335.909313
-338.304508
-340.686031
SCALARS stress_3 float
LOOKUP_TABLE default
13.013928
455.772856
449.368179
442.983033
436.511950
430.052585
423.524862
417.006903
410.424492
403.834268
397.228419
390.606945
383.887815
377.238997
370.555023
363.802690
357.079654
350.337086
343.576940
336.814841
330.015633
323.247675
316.469951
309.694180
302.904737
296.148498
289.386399
282.614534
275.858295
269.164555
262.447378
255.796608
249.114587
242.469675
235.881405
229.328290
222.790800
216.290420
209.831056
203.410754
197.045139
190.755697
184.509223
178.307671
172.166665
166.135035
160.113171
154.173337
148.335067
142.571015
136.838213
131.216739
125.671437
120.215978
114.926536
109.637093
104.458978
99.431255
94.448453
89.616041
84.879333
80.226609
75.691073
71.309833
66.991093
62.846182
58.781349
54.816125
51.038401
47.338802
43.787641
40.336089
37.027115
33.833375
30.780261
27.873630
25.072469
22.392401
19.849052
17.475625
15.217433
433.337065
-6.863270
-4.890233
-2.800009
-0.524239
1.837470
4.328084
6.959324
9.721423
12.643678
15.688980
18.808501
22.125287
25.576839
29.128000
32.817834
36.656105
40.576407
44.613896
48.793964
53.126375
57.548630
62.107604
66.732984
71.520474
76.364604
81.382562
86.445443
91.600120
96.885656
102.309864
107.784854
113.330156
118.994599
124.743026
130.559812
136.446911
142.396510
148.441812
154.573051
160.735541
166.952718
173.222629
179.598010
185.979249
192.440567
198.935087
205.451093
212.054988
218.656931
225.278405
231.950660
238.658072
245.388920
252.133441
258.917025
265.661545
272.472472
279.275587
286.084561
292.866191
299.751337
306.540779
313.369285
320.164587
326.987232
333.725894
340.538774
347.332123
354.072737
360.797727
367.528576
374.239894
380.890664
387.549248
394.176581
400.776570
407.364841
413.878893
420.416383
426.856216
435.585136
437.819536
440.044170
442.300053
444.530546
446.774712
449.038408
451.253276
453.516972
11.006091
8.994347
6.986511
4.998205
3.015759
0.992297
-0.984290
-2.929627
-4.902308
-2.874584
-0.964403
1.068824
3.090333
5.055201
7.057179
9.111891
11.108009
13.117799
-0.786313
1.221524
3.227408
5.231338
7.276285
9.276309
11.331021
13.344717
15.424820
1.460161
3.493388
5.516850
7.561797
9.632133
11.636064
13.686870
15.751347
17.829497
3.860932
5.894159
7.933246
9.980145
11.997748
14.093476
16.189203
18.243915
20.335736
6.365218
8.449227
10.462923
12.582088
14.630941
16.748153
18.789193
20.882967
22.978695
9.041379
11.101951
13.180100
15.264109
17.352024
19.439939
21.563010
23.637253
25.775950
11.815197
13.938268
15.994933
18.100427
20.164904
22.321179
24.395422
26.541930
28.651330
14.745265
16.811695
18.938673
21.048072
23.157472
25.282496
27.450489
29.554029
31.710304
17.804239
19.929263
22.015225
24.146109
26.282852
28.446939
30.585635
32.706753
34.861075
20.968681
23.107378
25.248027
27.341801
29.527373
31.656303
33.824297
35.992290
38.156377
24.322577
26.422211
28.549188
30.752338
32.891034
35.072699
37.227020
39.412592
41.568866
27.721395
29.887435
32.063240
34.221468
36.416805
38.563314
40.737166
42.942269
45.174715
31.270603
33.479612
35.657371
37.842942
40.030466
42.216038
44.415281
46.636008
48.825486
34.995593
37.153820
39.366735
41.569885
43.769128
45.966418
48.175427
50.372717
52.634460
38.816285
41.017482
43.201100
45.396437
47.574195
49.886720
52.056666
54.316456
56.554762
42.756118
44.984659
47.174136
49.418301
51.603872
53.879287
56.090249
58.328555
60.594204
46.863921
49.049492
51.295610
53.559306
55.719487
57.990996
60.221489
62.461748
64.754741
51.043988
53.256903
55.526459
57.766718
60.018695
62.241376
64.526557
66.757050
69.040277
55.358821
57.601033
59.878402
62.103035
64.327669
66.618709
68.892171
71.148055
73.435189
59.835764
62.035007
64.304563
66.533103
68.845627
71.101511
73.363254
75.642576
77.939475
64.316613
66.586169
68.888928
71.152624
73.410461
75.693688
77.957385
80.289440
82.582433
68.992774
71.256471
73.524073
75.850270
78.149122
80.397193
82.680421
85.016383
87.305470
73.790030
76.036148
78.356485
80.641665
82.938565
85.217886
87.561661
89.848794
92.153506
78.690800
80.946684
83.214287
85.546342
87.878398
90.146001
92.470244
94.792534
97.095293
83.679462
85.954877
88.255683
90.570160
92.859247
95.197162
97.480390
99.814398
102.162079
88.734529
91.052913
93.371297
95.664290
97.988533
100.306917
102.627254
104.945638
107.293319
93.965378
96.254465
98.563083
100.920530
103.215476
105.563157
107.887400
110.233127
112.539793
99.239196
101.532189
103.872057
106.225597
108.553747
110.870178
113.200280
115.534289
117.919079
104.622389
106.929054
109.263063
111.591212
113.938893
116.311964
118.628395
120.999513
123.368678
110.099331
112.431387
114.763443
117.120889
119.447085
121.802578
124.199087
126.501846
128.839761
115.666118
118.017705
120.326323
122.701347
125.035356
127.367412
129.765874
132.119414
134.488579
121.311029
123.639179
126.027875
128.367743
130.715424
133.096308
135.443988
137.799481
140.172553
127.073128
129.391512
131.754818
134.151326
136.487288
138.856453
141.209993
143.569393
145.967855
132.911399
135.220017
137.581370
139.956394
142.323606
144.710349
147.058030
149.403757
151.786594
138.775060
141.157897
143.534875
145.839587
148.226330
150.577917
152.947082
155.310388
157.734240
144.755909
147.087965
149.470802
151.841920
154.201319
156.601734
158.951368
161.326393
163.732667
150.809024
153.168423
155.527823
157.926285
160.248575
162.623599
165.047452
167.385367
169.783828
156.901201
159.262553
161.618047
163.991118
166.387627
168.754839
171.149394
173.555669
175.932646
163.024628
165.434808
167.835224
170.137982
172.565741
174.932953
177.329462
179.729877
182.130292
169.325789
171.689095
174.083651
176.427425
178.847371
181.181380
183.562264
185.978304
188.396297
175.613279
178.000022
180.339890
182.746165
185.107517
187.488401
189.894675
192.246262
194.664255
181.951550
184.322668
186.715270
189.068810
191.482897
193.848156
196.254430
198.643127
200.994714
188.362086
190.733204
193.092604
195.496925
197.868043
200.260646
202.633717
205.014601
207.420875
194.803872
197.184756
199.573452
201.940664
204.337173
206.696573
209.100894
211.483731
213.891958
201.292534
203.673418
206.052348
208.456670
210.833647
213.216484
215.591508
217.993877
220.363042
207.824164
210.220673
212.595697
214.968768
217.353559
219.728583
222.132904
224.509882
226.941547
214.433919
216.793319
219.146859
221.558992
223.894954
226.301229
228.687972
231.102059
233.467318
221.049534
223.418699
225.772239
228.147263
230.561350
232.918796
235.307493
237.692283
240.104417
227.649523
230.018688
232.380041
234.796081
237.171105
239.534411
241.936779
244.346960
246.745422
234.325685
236.726100
239.069874
241.460523
243.843360
246.265260
248.593409
251.003590
253.396192
241.044815
243.402261
245.761660
248.154263
250.531241
252.904312
255.277383
257.668033
260.084073
247.756132
250.121391
252.496416
254.879253
257.228886
259.631255
262.000420
264.350053
266.777812
254.520184
256.895209
259.240936
261.625726
263.981220
266.344525
268.750800
271.114105
273.524286
261.272518
263.610433
265.971785
268.364388
270.745272
273.116390
275.493367
277.885970
280.253182
268.069773
270.397922
272.778806
275.120627
277.435105
279.855051
282.226169
284.622678
286.995750
274.827966
277.202990
279.589733
281.929601
284.300719
286.615197
289.023425
291.357433
293.777380
281.631080
283.982667
286.347926
288.685841
291.080397
293.418312
295.808961
298.183985
300.541432
288.424429
290.774063
293.180337
295.504580
297.863980
300.197989
302.590591
304.961709
307.344546
295.243169
297.608427
299.950249
302.340898
304.669047
307.032353
309.405424
311.737480
314.124223
302.081439
304.442792
306.768988
309.124481
311.460443
313.845233
316.206586
318.538642
320.911713
308.894319
311.220516
313.570150
315.896346
318.281136
320.634676
322.986263
325.322225
327.664046
315.673997
318.023630
320.367405
322.709226
325.058860
327.406541
329.773752
332.103855
334.457395
322.482970
324.852135
327.149035
329.502575
331.838537
334.176452
336.563195
338.871813
341.229260
329.289991
331.631813
333.952149
336.311549
338.659230
340.958082
343.305763
345.641725
347.995265
336.089200
338.452505
340.745498
343.089273
345.411563
347.763150
350.089346
352.417495
354.788614
342.905986
345.187260
347.529082
349.857231
352.185380
354.529155
356.810429
359.160063
361.496025
349.646600
351.963031
354.293134
356.619330
358.902558
361.269769
363.582294
365.898725
368.203436
356.412606
358.707552
361.029842
363.328695
365.670516
367.969368
370.299471
372.596370
374.916707
363.118064
365.438401
367.733347
370.038059
372.381833
374.676780
376.969773
379.303782
381.626072
369.845007
372.136047
374.448571
376.720080
379.052136
381.358801
383.688903
385.970178
388.313952
376.558277
378.806349
381.124732
383.433351
385.724391
388.040821
390.347486
392.638526
394.931520
383.228579
385.507901
387.771597
390.072403
392.369302
394.677920
396.976773
399.269766
401.545181
389.867631
392.135234
394.436040
396.758330
399.002495
401.311113
403.600200
405.873662
408.152983
396.477387
398.741083
401.049701
403.329022
405.618109
407.881806
410.172846
412.458026
414.739301
403.073470
405.339119
407.630159
409.917293
412.173177
414.444686
416.745491
418.997469
421.288509
409.651975
411.894187
414.185227
416.443064
418.714573
420.964597
423.236106
425.538865
427.783030
416.187511
418.423864
420.679748
422.945397
425.254015
427.461071
429.730627
432.029479
434.269738
422.664454
424.904713
427.185987
429.436012
431.709474
433.949732
436.223194
438.465406
440.723243
429.121866
431.391421
433.627774
435.879751
438.123916
440.387613
442.649356
444.893521
447.135733
