# vtk DataFile Version 2.0
Generated volume Mesh
ASCII
DATASET UNSTRUCTURED_GRID
POINTS 891 float
0.005000 0.100000 0.000000
0.005000 0.000000 0.000000
0.005000 0.001250 0.000000
0.005000 0.002500 0.000000
0.005000 0.003750 0.000000
0.005000 0.005000 0.000000
0.005000 0.006250 0.000000
0.005000 0.007500 0.000000
0.005000 0.008750 0.000000
0.005000 0.010000 0.000000
0.005000 0.011250 0.000000
0.005000 0.012500 0.000000
0.005000 0.013750 0.000000
0.005000 0.015000 0.000000
0.005000 0.016250 0.000000
0.005000 0.017500 0.000000
0.005000 0.018750 0.000000
0.005000 0.020000 0.000000
0.005000 0.021250 0.000000
0.005000 0.022500 0.000000
0.005000 0.023750 0.000000
0.005000 0.025000 0.000000
0.005000 0.026250 0.000000
0.005000 0.027500 0.000000
0.005000 0.028750 0.000000
0.005000 0.030000 0.000000
0.005000 0.031250 0.000000
0.005000 0.032500 0.000000
0.005000 0.033750 0.000000
0.005000 0.035000 0.000000
0.005000 0.036250 0.000000
0.005000 0.037500 0.000000
0.005000 0.038750 0.000000
0.005000 0.040000 0.000000
0.005000 0.041250 0.000000
0.005000 0.042500 0.000000
0.005000 0.043750 0.000000
0.005000 0.045000 0.000000
0.005000 0.046250 0.000000
0.005000 0.047500 0.000000
0.005000 0.048750 0.000000
0.005000 0.050000 0.000000
0.005000 0.051250 0.000000
0.005000 0.052500 0.000000
0.005000 0.053750 0.000000
0.005000 0.055000 0.000000
0.005000 0.056250 0.000000
0.005000 0.057500 0.000000
0.005000 0.058750 0.000000
0.005000 0.060000 0.000000
0.005000 0.061250 0.000000
0.005000 0.062500 0.000000
0.005000 0.063750 0.000000
0.005000 0.065000 0.000000
0.005000 0.066250 0.000000
0.005000 0.067500 0.000000
0.005000 0.068750 0.000000
0.005000 0.070000 0.000000
0.005000 0.071250 0.000000
0.005000 0.072500 0.000000
0.005000 0.073750 0.000000
0.005000 0.075000 0.000000
0.005000 0.076250 0.000000
0.005000 0.077500 0.000000
0.005000 0.078750 0.000000
0.005000 0.080000 0.000000
0.005000 0.081250 0.000000
0.005000 0.082500 0.000000
0.005000 0.083750 0.000000
0.005000 0.085000 0.000000
0.005000 0.086250 0.000000
0.005000 0.087500 0.000000
0.005000 0.088750 0.000000
0.005000 0.090000 0.000000
0.005000 0.091250 0.000000
0.005000 0.092500 0.000000
0.005000 0.093750 0.000000
0.005000 0.095000 0.000000
0.005000 0.096250 0.000000
0.005000 0.097500 0.000000
0.005000 0.098750 0.000000
0.000000 0.000000 0.000000
0.000000 0.100000 0.000000
0.000000 0.098750 0.000000
0.000000 0.097500 0.000000
0.000000 0.096250 0.000000
0.000000 0.095000 0.000000
0.000000 0.093750 0.000000
0.000000 0.092500 0.000000
0.000000 0.091250 0.000000
0.000000 0.090000 0.000000
0.000000 0.088750 0.000000
0.000000 0.087500 0.000000
0.000000 0.086250 0.000000
0.000000 0.085000 0.000000
0.000000 0.083750 0.000000
0.000000 0.082500 0.000000
0.000000 0.081250 0.000000
0.000000 0.080000 0.000000
0.000000 0.078750 0.000000
0.000000 0.077500 0.000000
0.000000 0.076250 0.000000
0.000000 0.075000 0.000000
0.000000 0.073750 0.000000
0.000000 0.072500 0.000000
0.000000 0.071250 0.000000
0.000000 0.070000 0.000000
0.000000 0.068750 0.000000
0.000000 0.067500 0.000000
0.000000 0.066250 0.000000
0.000000 0.065000 0.000000
0.000000 0.063750 0.000000
0.000000 0.062500 0.000000
0.000000 0.061250 0.000000
0.000000 0.060000 0.000000
0.000000 0.058750 0.000000
0.000000 0.057500 0.000000
0.000000 0.056250 0.000000
0.000000 0.055000 0.000000
0.000000 0.053750 0.000000
0.000000 0.052500 0.000000
0.000000 0.051250 0.000000
0.000000 0.050000 0.000000
0.000000 0.048750 0.000000
0.000000 0.047500 0.000000
0.000000 0.046250 0.000000
0.000000 0.045000 0.000000
0.000000 0.043750 0.000000
0.000000 0.042500 0.000000
0.000000 0.041250 0.000000
0.000000 0.040000 0.000000
0.000000 0.038750 0.000000
0.000000 0.037500 0.000000
0.000000 0.036250 0.000000
0.000000 0.035000 0.000000
0.000000 0.033750 0.000000
0.000000 0.032500 0.000000
0.000000 0.031250 0.000000
0.000000 0.030000 0.000000
0.000000 0.028750 0.000000
0.000000 0.027500 0.000000
0.000000 0.026250 0.000000
0.000000 0.025000 0.000000
0.000000 0.023750 0.000000
0.000000 0.022500 0.000000
0.000000 0.021250 0.000000
0.000000 0.020000 0.000000
0.000000 0.018750 0.000000
0.000000 0.017500 0.000000
0.000000 0.016250 0.000000
0.000000 0.015000 0.000000
0.000000 0.013750 0.000000
0.000000 0.012500 0.000000
0.000000 0.011250 0.000000
0.000000 0.010000 0.000000
0.000000 0.008750 0.000000
0.000000 0.007500 0.000000
0.000000 0.006250 0.000000
0.000000 0.005000 0.000000
0.000000 0.003750 0.000000
0.000000 0.002500 0.000000
0.000000 0.001250 0.000000
0.000500 0.000000 0.000000
0.001000 0.000000 0.000000
0.001500 0.000000 0.000000
0.002000 0.000000 0.000000
0.002500 0.000000 0.000000
0.003000 0.000000 0.000000
0.003500 0.000000 0.000000
0.004000 0.000000 0.000000
0.004500 0.000000 0.000000
0.004500 0.100000 0.000000
0.004000 0.100000 0.000000
0.003500 0.100000 0.000000
0.003000 0.100000 0.000000
0.002500 0.100000 0.000000
0.002000 0.100000 0.000000
0.001500 0.100000 0.000000
0.001000 0.100000 0.000000
0.000500 0.100000 0.000000
0.000500 0.098750 0.000000
0.001000 0.098750 0.000000
0.001500 0.098750 0.000000
0.002000 0.098750 0.000000
0.002500 0.098750 0.000000
0.003000 0.098750 0.000000
0.003500 0.098750 0.000000
0.004000 0.098750 0.000000
0.004500 0.098750 0.000000
0.000500 0.097500 0.000000
0.001000 0.097500 0.000000
0.001500 0.097500 0.000000
0.002000 0.097500 0.000000
0.002500 0.097500 0.000000
0.003000 0.097500 0.000000
0.003500 0.097500 0.000000
0.004000 0.097500 0.000000
0.004500 0.097500 0.000000
0.000500 0.096250 0.000000
0.001000 0.096250 0.000000
0.001500 0.096250 0.000000
0.002000 0.096250 0.000000
0.002500 0.096250 0.000000
0.003000 0.096250 0.000000
0.003500 0.096250 0.000000
0.004000 0.096250 0.000000
0.004500 0.096250 0.000000
0.000500 0.095000 0.000000
0.001000 0.095000 0.000000
0.001500 0.095000 0.000000
0.002000 0.095000 0.000000
0.002500 0.095000 0.000000
0.003000 0.095000 0.000000
0.003500 0.095000 0.000000
0.004000 0.095000 0.000000
0.004500 0.095000 0.000000
0.000500 0.093750 0.000000
0.001000 0.093750 0.000000
0.001500 0.093750 0.000000
0.002000 0.093750 0.000000
0.002500 0.093750 0.000000
0.003000 0.093750 0.000000
0.003500 0.093750 0.000000
0.004000 0.093750 0.000000
0.004500 0.093750 0.000000
0.000500 0.092500 0.000000
0.001000 0.092500 0.000000
0.001500 0.092500 0.000000
0.002000 0.092500 0.000000
0.002500 0.092500 0.000000
0.003000 0.092500 0.000000
0.003500 0.092500 0.000000
0.004000 0.092500 0.000000
0.004500 0.092500 0.000000
0.000500 0.091250 0.000000
0.001000 0.091250 0.000000
0.001500 0.091250 0.000000
0.002000 0.091250 0.000000
0.002500 0.091250 0.000000
0.003000 0.091250 0.000000
0.003500 0.091250 0.000000
0.004000 0.091250 0.000000
0.004500 0.091250 0.000000
0.000500 0.090000 0.000000
0.001000 0.090000 0.000000
0.001500 0.090000 0.000000
0.002000 0.090000 0.000000
0.002500 0.090000 0.000000
0.003000 0.090000 0.000000
0.003500 0.090000 0.000000
0.004000 0.090000 0.000000
0.004500 0.090000 0.000000
0.000500 0.088750 0.000000
0.001000 0.088750 0.000000
0.001500 0.088750 0.000000
0.002000 0.088750 0.000000
0.002500 0.088750 0.000000
0.003000 0.088750 0.000000
0.003500 0.088750 0.000000
0.004000 0.088750 0.000000
0.004500 0.088750 0.000000
0.000500 0.087500 0.000000
0.001000 0.087500 0.000000
0.001500 0.087500 0.000000
0.002000 0.087500 0.000000
0.002500 0.087500 0.000000
0.003000 0.087500 0.000000
0.003500 0.087500 0.000000
0.004000 0.087500 0.000000
0.004500 0.087500 0.000000
0.000500 0.086250 0.000000
0.001000 0.086250 0.000000
0.001500 0.086250 0.000000
0.002000 0.086250 0.000000
0.002500 0.086250 0.000000
0.003000 0.086250 0.000000
0.003500 0.086250 0.000000
0.004000 0.086250 0.000000
0.004500 0.086250 0.000000
0.000500 0.085000 0.000000
0.001000 0.085000 0.000000
0.001500 0.085000 0.000000
0.002000 0.085000 0.000000
0.002500 0.085000 0.000000
0.003000 0.085000 0.000000
0.003500 0.085000 0.000000
0.004000 0.085000 0.000000
0.004500 0.085000 0.000000
0.000500 0.083750 0.000000
0.001000 0.083750 0.000000
0.001500 0.083750 0.000000
0.002000 0.083750 0.000000
0.002500 0.083750 0.000000
0.003000 0.083750 0.000000
0.003500 0.083750 0.000000
0.004000 0.083750 0.000000
0.004500 0.083750 0.000000
0.000500 0.082500 0.000000
0.001000 0.082500 0.000000
0.001500 0.082500 0.000000
0.002000 0.082500 0.000000
0.002500 0.082500 0.000000
0.003000 0.082500 0.000000
0.003500 0.082500 0.000000
0.004000 0.082500 0.000000
0.004500 0.082500 0.000000
0.000500 0.081250 0.000000
0.001000 0.081250 0.000000
0.001500 0.081250 0.000000
0.002000 0.081250 0.000000
0.002500 0.081250 0.000000
0.003000 0.081250 0.000000
0.003500 0.081250 0.000000
0.004000 0.081250 0.000000
0.004500 0.081250 0.000000
0.000500 0.080000 0.000000
0.001000 0.080000 0.000000
0.001500 0.080000 0.000000
0.002000 0.080000 0.000000
0.002500 0.080000 0.000000
0.003000 0.080000 0.000000
0.003500 0.080000 0.000000
0.004000 0.080000 0.000000
0.004500 0.080000 0.000000
0.000500 0.078750 0.000000
0.001000 0.078750 0.000000
0.001500 0.078750 0.000000
0.002000 0.078750 0.000000
0.002500 0.078750 0.000000
0.003000 0.078750 0.000000
0.003500 0.078750 0.000000
0.004000 0.078750 0.000000
0.004500 0.078750 0.000000
0.000500 0.077500 0.000000
0.001000 0.077500 0.000000
0.001500 0.077500 0.000000
0.002000 0.077500 0.000000
0.002500 0.077500 0.000000
0.003000 0.077500 0.000000
0.003500 0.077500 0.000000
0.004000 0.077500 0.000000
0.004500 0.077500 0.000000
0.000500 0.076250 0.000000
0.001000 0.076250 0.000000
0.001500 0.076250 0.000000
0.002000 0.076250 0.000000
0.002500 0.076250 0.000000
0.003000 0.076250 0.000000
0.003500 0.076250 0.000000
0.004000 0.076250 0.000000
0.004500 0.076250 0.000000
0.000500 0.075000 0.000000
0.001000 0.075000 0.000000
0.001500 0.075000 0.000000
0.002000 0.075000 0.000000
0.002500 0.075000 0.000000
0.003000 0.075000 0.000000
0.003500 0.075000 0.000000
0.004000 0.075000 0.000000
0.004500 0.075000 0.000000
0.000500 0.073750 0.000000
0.001000 0.073750 0.000000
0.001500 0.073750 0.000000
0.002000 0.073750 0.000000
0.002500 0.073750 0.000000
0.003000 0.073750 0.000000
0.003500 0.073750 0.000000
0.004000 0.073750 0.000000
0.004500 0.073750 0.000000
0.000500 0.072500 0.000000
0.001000 0.072500 0.000000
0.001500 0.072500 0.000000
0.002000 0.072500 0.000000
0.002500 0.072500 0.000000
0.003000 0.072500 0.000000
0.003500 0.072500 0.000000
0.004000 0.072500 0.000000
0.004500 0.072500 0.000000
0.000500 0.071250 0.000000
0.001000 0.071250 0.000000
0.001500 0.071250 0.000000
0.002000 0.071250 0.000000
0.002500 0.071250 0.000000
0.003000 0.071250 0.000000
0.003500 0.071250 0.000000
0.004000 0.071250 0.000000
0.004500 0.071250 0.000000
0.000500 0.070000 0.000000
0.001000 0.070000 0.000000
0.001500 0.070000 0.000000
0.002000 0.070000 0.000000
0.002500 0.070000 0.000000
0.003000 0.070000 0.000000
0.003500 0.070000 0.000000
0.004000 0.070000 0.000000
0.004500 0.070000 0.000000
0.000500 0.068750 0.000000
0.001000 0.068750 0.000000
0.001500 0.068750 0.000000
0.002000 0.068750 0.000000
0.002500 0.068750 0.000000
0.003000 0.068750 0.000000
0.003500 0.068750 0.000000
0.004000 0.068750 0.000000
0.004500 0.068750 0.000000
0.000500 0.067500 0.000000
0.001000 0.067500 0.000000
0.001500 0.067500 0.000000
0.002000 0.067500 0.000000
0.002500 0.067500 0.000000
0.003000 0.067500 0.000000
0.003500 0.067500 0.000000
0.004000 0.067500 0.000000
0.004500 0.067500 0.000000
0.000500 0.066250 0.000000
0.001000 0.066250 0.000000
0.001500 0.066250 0.000000
0.002000 0.066250 0.000000
0.002500 0.066250 0.000000
0.003000 0.066250 0.000000
0.003500 0.066250 0.000000
0.004000 0.066250 0.000000
0.004500 0.066250 0.000000
0.000500 0.065000 0.000000
0.001000 0.065000 0.000000
0.001500 0.065000 0.000000
0.002000 0.065000 0.000000
0.002500 0.065000 0.000000
0.003000 0.065000 0.000000
0.003500 0.065000 0.000000
0.004000 0.065000 0.000000
0.004500 0.065000 0.000000
0.000500 0.063750 0.000000
0.001000 0.063750 0.000000
0.001500 0.063750 0.000000
0.002000 0.063750 0.000000
0.002500 0.063750 0.000000
0.003000 0.063750 0.000000
0.003500 0.063750 0.000000
0.004000 0.063750 0.000000
0.004500 0.063750 0.000000
0.000500 0.062500 0.000000
0.001000 0.062500 0.000000
0.001500 0.062500 0.000000
0.002000 0.062500 0.000000
0.002500 0.062500 0.000000
0.003000 0.062500 0.000000
0.003500 0.062500 0.000000
0.004000 0.062500 0.000000
0.004500 0.062500 0.000000
0.000500 0.061250 0.000000
0.001000 0.061250 0.000000
0.001500 0.061250 0.000000
0.002000 0.061250 0.000000
0.002500 0.061250 0.000000
0.003000 0.061250 0.000000
0.003500 0.061250 0.000000
0.004000 0.061250 0.000000
0.004500 0.061250 0.000000
0.000500 0.060000 0.000000
0.001000 0.060000 0.000000
0.001500 0.060000 0.000000
0.002000 0.060000 0.000000
0.002500 0.060000 0.000000
0.003000 0.060000 0.000000
0.003500 0.060000 0.000000
0.004000 0.060000 0.000000
0.004500 0.060000 0.000000
0.000500 0.058750 0.000000
0.001000 0.058750 0.000000
0.001500 0.058750 0.000000
0.002000 0.058750 0.000000
0.002500 0.058750 0.000000
0.003000 0.058750 0.000000
0.003500 0.058750 0.000000
0.004000 0.058750 0.000000
0.004500 0.058750 0.000000
0.000500 0.057500 0.000000
0.001000 0.057500 0.000000
0.001500 0.057500 0.000000
0.002000 0.057500 0.000000
0.002500 0.057500 0.000000
0.003000 0.057500 0.000000
0.003500 0.057500 0.000000
0.004000 0.057500 0.000000
0.004500 0.057500 0.000000
0.000500 0.056250 0.000000
0.001000 0.056250 0.000000
0.001500 0.056250 0.000000
0.002000 0.056250 0.000000
0.002500 0.056250 0.000000
0.003000 0.056250 0.000000
0.003500 0.056250 0.000000
0.004000 0.056250 0.000000
0.004500 0.056250 0.000000
0.000500 0.055000 0.000000
0.001000 0.055000 0.000000
0.001500 0.055000 0.000000
0.002000 0.055000 0.000000
0.002500 0.055000 0.000000
0.003000 0.055000 0.000000
0.003500 0.055000 0.000000
0.004000 0.055000 0.000000
0.004500 0.055000 0.000000
0.000500 0.053750 0.000000
0.001000 0.053750 0.000000
0.001500 0.053750 0.000000
0.002000 0.053750 0.000000
0.002500 0.053750 0.000000
0.003000 0.053750 0.000000
0.003500 0.053750 0.000000
0.004000 0.053750 0.000000
0.004500 0.053750 0.000000
0.000500 0.052500 0.000000
0.001000 0.052500 0.000000
0.001500 0.052500 0.000000
0.002000 0.052500 0.000000
0.002500 0.052500 0.000000
0.003000 0.052500 0.000000
0.003500 0.052500 0.000000
0.004000 0.052500 0.000000
0.004500 0.052500 0.000000
0.000500 0.051250 0.000000
0.001000 0.051250 0.000000
0.001500 0.051250 0.000000
0.002000 0.051250 0.000000
0.002500 0.051250 0.000000
0.003000 0.051250 0.000000
0.003500 0.051250 0.000000
0.004000 0.051250 0.000000
0.004500 0.051250 0.000000
0.000500 0.050000 0.000000
0.001000 0.050000 0.000000
0.001500 0.050000 0.000000
0.002000 0.050000 0.000000
0.002500 0.050000 0.000000
0.003000 0.050000 0.000000
0.003500 0.050000 0.000000
0.004000 0.050000 0.000000
0.004500 0.050000 0.000000
0.000500 0.048750 0.000000
0.001000 0.048750 0.000000
0.001500 0.048750 0.000000
0.002000 0.048750 0.000000
0.002500 0.048750 0.000000
0.003000 0.048750 0.000000
0.003500 0.048750 0.000000
0.004000 0.048750 0.000000
0.004500 0.048750 0.000000
0.000500 0.047500 0.000000
0.001000 0.047500 0.000000
0.001500 0.047500 0.000000
0.002000 0.047500 0.000000
0.002500 0.047500 0.000000
0.003000 0.047500 0.000000
0.003500 0.047500 0.000000
0.004000 0.047500 0.000000
0.004500 0.047500 0.000000
0.000500 0.046250 0.000000
0.001000 0.046250 0.000000
0.001500 0.046250 0.000000
0.002000 0.046250 0.000000
0.002500 0.046250 0.000000
0.003000 0.046250 0.000000
0.003500 0.046250 0.000000
0.004000 0.046250 0.000000
0.004500 0.046250 0.000000
0.000500 0.045000 0.000000
0.001000 0.045000 0.000000
0.001500 0.045000 0.000000
0.002000 0.045000 0.000000
0.002500 0.045000 0.000000
0.003000 0.045000 0.000000
0.003500 0.045000 0.000000
0.004000 0.045000 0.000000
0.004500 0.045000 0.000000
0.000500 0.043750 0.000000
0.001000 0.043750 0.000000
0.001500 0.043750 0.000000
0.002000 0.043750 0.000000
0.002500 0.043750 0.000000
0.003000 0.043750 0.000000
0.003500 0.043750 0.000000
0.004000 0.043750 0.000000
0.004500 0.043750 0.000000
0.000500 0.042500 0.000000
0.001000 0.042500 0.000000
0.001500 0.042500 0.000000
0.002000 0.042500 0.000000
0.002500 0.042500 0.000000
0.003000 0.042500 0.000000
0.003500 0.042500 0.000000
0.004000 0.042500 0.000000
0.004500 0.042500 0.000000
0.000500 0.041250 0.000000
0.001000 0.041250 0.000000
0.001500 0.041250 0.000000
0.002000 0.041250 0.000000
0.002500 0.041250 0.000000
0.003000 0.041250 0.000000
0.003500 0.041250 0.000000
0.004000 0.041250 0.000000
0.004500 0.041250 0.000000
0.000500 0.040000 0.000000
0.001000 0.040000 0.000000
0.001500 0.040000 0.000000
0.002000 0.040000 0.000000
0.002500 0.040000 0.000000
0.003000 0.040000 0.000000
0.003500 0.040000 0.000000
0.004000 0.040000 0.000000
0.004500 0.040000 0.000000
0.000500 0.038750 0.000000
0.001000 0.038750 0.000000
0.001500 0.038750 0.000000
0.002000 0.038750 0.000000
0.002500 0.038750 0.000000
0.003000 0.038750 0.000000
0.003500 0.038750 0.000000
0.004000 0.038750 0.000000
0.004500 0.038750 0.000000
0.000500 0.037500 0.000000
0.001000 0.037500 0.000000
0.001500 0.037500 0.000000
0.002000 0.037500 0.000000
0.002500 0.037500 0.000000
0.003000 0.037500 0.000000
0.003500 0.037500 0.000000
0.004000 0.037500 0.000000
0.004500 0.037500 0.000000
0.000500 0.036250 0.000000
0.001000 0.036250 0.000000
0.001500 0.036250 0.000000
0.002000 0.036250 0.000000
0.002500 0.036250 0.000000
0.003000 0.036250 0.000000
0.003500 0.036250 0.000000
0.004000 0.036250 0.000000
0.004500 0.036250 0.000000
0.000500 0.035000 0.000000
0.001000 0.035000 0.000000
0.001500 0.035000 0.000000
0.002000 0.035000 0.000000
0.002500 0.035000 0.000000
0.003000 0.035000 0.000000
0.003500 0.035000 0.000000
0.004000 0.035000 0.000000
0.004500 0.035000 0.000000
0.000500 0.033750 0.000000
0.001000 0.033750 0.000000
0.001500 0.033750 0.000000
0.002000 0.033750 0.000000
0.002500 0.033750 0.000000
0.003000 0.033750 0.000000
0.003500 0.033750 0.000000
0.004000 0.033750 0.000000
0.004500 0.033750 0.000000
0.000500 0.032500 0.000000
0.001000 0.032500 0.000000
0.001500 0.032500 0.000000
0.002000 0.032500 0.000000
0.002500 0.032500 0.000000
0.003000 0.032500 0.000000
0.003500 0.032500 0.000000
0.004000 0.032500 0.000000
0.004500 0.032500 0.000000
0.000500 0.031250 0.000000
0.001000 0.031250 0.000000
0.001500 0.031250 0.000000
0.002000 0.031250 0.000000
0.002500 0.031250 0.000000
0.003000 0.031250 0.000000
0.003500 0.031250 0.000000
0.004000 0.031250 0.000000
0.004500 0.031250 0.000000
0.000500 0.030000 0.000000
0.001000 0.030000 0.000000
0.001500 0.030000 0.000000
0.002000 0.030000 0.000000
0.002500 0.030000 0.000000
0.003000 0.030000 0.000000
0.003500 0.030000 0.000000
0.004000 0.030000 0.000000
0.004500 0.030000 0.000000
0.000500 0.028750 0.000000
0.001000 0.028750 0.000000
0.001500 0.028750 0.000000
0.002000 0.028750 0.000000
0.002500 0.028750 0.000000
0.003000 0.028750 0.000000
0.003500 0.028750 0.000000
0.004000 0.028750 0.000000
0.004500 0.028750 0.000000
0.000500 0.027500 0.000000
0.001000 0.027500 0.000000
0.001500 0.027500 0.000000
0.002000 0.027500 0.000000
0.002500 0.027500 0.000000
0.003000 0.027500 0.000000
0.003500 0.027500 0.000000
0.004000 0.027500 0.000000
0.004500 0.027500 0.000000
0.000500 0.026250 0.000000
0.001000 0.026250 0.000000
0.001500 0.026250 0.000000
0.002000 0.026250 0.000000
0.002500 0.026250 0.000000
0.003000 0.026250 0.000000
0.003500 0.026250 0.000000
0.004000 0.026250 0.000000
0.004500 0.026250 0.000000
0.000500 0.025000 0.000000
0.001000 0.025000 0.000000
0.001500 0.025000 0.000000
0.002000 0.025000 0.000000
0.002500 0.025000 0.000000
0.003000 0.025000 0.000000
0.003500 0.025000 0.000000
0.004000 0.025000 0.000000
0.004500 0.025000 0.000000
0.000500 0.023750 0.000000
0.001000 0.023750 0.000000
0.001500 0.023750 0.000000
0.002000 0.023750 0.000000
0.002500 0.023750 0.000000
0.003000 0.023750 0.000000
0.003500 0.023750 0.000000
0.004000 0.023750 0.000000
0.004500 0.023750 0.000000
0.000500 0.022500 0.000000
0.001000 0.022500 0.000000
0.001500 0.022500 0.000000
0.002000 0.022500 0.000000
0.002500 0.022500 0.000000
0.003000 0.022500 0.000000
0.003500 0.022500 0.000000
0.004000 0.022500 0.000000
0.004500 0.022500 0.000000
0.000500 0.021250 0.000000
0.001000 0.021250 0.000000
0.001500 0.021250 0.000000
0.002000 0.021250 0.000000
0.002500 0.021250 0.000000
0.003000 0.021250 0.000000
0.003500 0.021250 0.000000
0.004000 0.021250 0.000000
0.004500 0.021250 0.000000
0.000500 0.020000 0.000000
0.001000 0.020000 0.000000
0.001500 0.020000 0.000000
0.002000 0.020000 0.000000
0.002500 0.020000 0.000000
0.003000 0.020000 0.000000
0.003500 0.020000 0.000000
0.004000 0.020000 0.000000
0.004500 0.020000 0.000000
0.000500 0.018750 0.000000
0.001000 0.018750 0.000000
0.001500 0.018750 0.000000
0.002000 0.018750 0.000000
0.002500 0.018750 0.000000
0.003000 0.018750 0.000000
0.003500 0.018750 0.000000
0.004000 0.018750 0.000000
0.004500 0.018750 0.000000
0.000500 0.017500 0.000000
0.001000 0.017500 0.000000
0.001500 0.017500 0.000000
0.002000 0.017500 0.000000
0.002500 0.017500 0.000000
0.003000 0.017500 0.000000
0.003500 0.017500 0.000000
0.004000 0.017500 0.000000
0.004500 0.017500 0.000000
0.000500 0.016250 0.000000
0.001000 0.016250 0.000000
0.001500 0.016250 0.000000
0.002000 0.016250 0.000000
0.002500 0.016250 0.000000
0.003000 0.016250 0.000000
0.003500 0.016250 0.000000
0.004000 0.016250 0.000000
0.004500 0.016250 0.000000
0.000500 0.015000 0.000000
0.001000 0.015000 0.000000
0.001500 0.015000 0.000000
0.002000 0.015000 0.000000
0.002500 0.015000 0.000000
0.003000 0.015000 0.000000
0.003500 0.015000 0.000000
0.004000 0.015000 0.000000
0.004500 0.015000 0.000000
0.000500 0.013750 0.000000
0.001000 0.013750 0.000000
0.001500 0.013750 0.000000
0.002000 0.013750 0.000000
0.002500 0.013750 0.000000
0.003000 0.013750 0.000000
0.003500 0.013750 0.000000
0.004000 0.013750 0.000000
0.004500 0.013750 0.000000
0.000500 0.012500 0.000000
0.001000 0.012500 0.000000
0.001500 0.012500 0.000000
0.002000 0.012500 0.000000
0.002500 0.012500 0.000000
0.003000 0.012500 0.000000
0.003500 0.012500 0.000000
0.004000 0.012500 0.000000
0.004500 0.012500 0.000000
0.000500 0.011250 0.000000
0.001000 0.011250 0.000000
0.001500 0.011250 0.000000
0.002000 0.011250 0.000000
0.002500 0.011250 0.000000
0.003000 0.011250 0.000000
0.003500 0.011250 0.000000
0.004000 0.011250 0.000000
0.004500 0.011250 0.000000
0.000500 0.010000 0.000000
0.001000 0.010000 0.000000
0.001500 0.010000 0.000000
0.002000 0.010000 0.000000
0.002500 0.010000 0.000000
0.003000 0.010000 0.000000
0.003500 0.010000 0.000000
0.004000 0.010000 0.000000
0.004500 0.010000 0.000000
0.000500 0.008750 0.000000
0.001000 0.008750 0.000000
0.001500 0.008750 0.000000
0.002000 0.008750 0.000000
0.002500 0.008750 0.000000
0.003000 0.008750 0.000000
0.003500 0.008750 0.000000
0.004000 0.008750 0.000000
0.004500 0.008750 0.000000
0.000500 0.007500 0.000000
0.001000 0.007500 0.000000
0.001500 0.007500 0.000000
0.002000 0.007500 0.000000
0.002500 0.007500 0.000000
0.003000 0.007500 0.000000
0.003500 0.007500 0.000000
0.004000 0.007500 0.000000
0.004500 0.007500 0.000000
0.000500 0.006250 0.000000
0.001000 0.006250 0.000000
0.001500 0.006250 0.000000
0.002000 0.006250 0.000000
0.002500 0.006250 0.000000
0.003000 0.006250 0.000000
0.003500 0.006250 0.000000
0.004000 0.006250 0.000000
0.004500 0.006250 0.000000
0.000500 0.005000 0.000000
0.001000 0.005000 0.000000
0.001500 0.005000 0.000000
0.002000 0.005000 0.000000
0.002500 0.005000 0.000000
0.003000 0.005000 0.000000
0.003500 0.005000 0.000000
0.004000 0.005000 0.000000
0.004500 0.005000 0.000000
0.000500 0.003750 0.000000
0.001000 0.003750 0.000000
0.001500 0.003750 0.000000
0.002000 0.003750 0.000000
0.002500 0.003750 0.000000
0.003000 0.003750 0.000000
0.003500 0.003750 0.000000
0.004000 0.003750 0.000000
0.004500 0.003750 0.000000
0.000500 0.002500 0.000000
0.001000 0.002500 0.000000
0.001500 0.002500 0.000000
0.002000 0.002500 0.000000
0.002500 0.002500 0.000000
0.003000 0.002500 0.000000
0.003500 0.002500 0.000000
0.004000 0.002500 0.000000
0.004500 0.002500 0.000000
0.000500 0.001250 0.000000
0.001000 0.001250 0.000000
0.001500 0.001250 0.000000
0.002000 0.001250 0.000000
0.002500 0.001250 0.000000
0.003000 0.001250 0.000000
0.003500 0.001250 0.000000
0.004000 0.001250 0.000000
0.004500 0.001250 0.000000
CELLS 800 4000
4 82 83 180 179
4 179 180 181 178
4 178 181 182 177
4 177 182 183 176
4 176 183 184 175
4 175 184 185 174
4 174 185 186 173
4 173 186 187 172
4 172 187 188 171
4 171 188 80 0
4 83 84 189 180
4 180 189 190 181
4 181 190 191 182
4 182 191 192 183
4 183 192 193 184
4 184 193 194 185
4 185 194 195 186
4 186 195 196 187
4 187 196 197 188
4 188 197 79 80
4 84 85 198 189
4 189 198 199 190
4 190 199 200 191
4 191 200 201 192
4 192 201 202 193
4 193 202 203 194
4 194 203 204 195
4 195 204 205 196
4 196 205 206 197
4 197 206 78 79
4 85 86 207 198
4 198 207 208 199
4 199 208 209 200
4 200 209 210 201
4 201 210 211 202
4 202 211 212 203
4 203 212 213 204
4 204 213 214 205
4 205 214 215 206
4 206 215 77 78
4 86 87 216 207
4 207 216 217 208
4 208 217 218 209
4 209 218 219 210
4 210 219 220 211
4 211 220 221 212
4 212 221 222 213
4 213 222 223 214
4 214 223 224 215
4 215 224 76 77
4 87 88 225 216
4 216 225 226 217
4 217 226 227 218
4 218 227 228 219
4 219 228 229 220
4 220 229 230 221
4 221 230 231 222
4 222 231 232 223
4 223 232 233 224
4 224 233 75 76
4 88 89 234 225
4 225 234 235 226
4 226 235 236 227
4 227 236 237 228
4 228 237 238 229
4 229 238 239 230
4 230 239 240 231
4 231 240 241 232
4 232 241 242 233
4 233 242 74 75
4 89 90 243 234
4 234 243 244 235
4 235 244 245 236
4 236 245 246 237
4 237 246 247 238
4 238 247 248 239
4 239 248 249 240
4 240 249 250 241
4 241 250 251 242
4 242 251 73 74
4 90 91 252 243
4 243 252 253 244
4 244 253 254 245
4 245 254 255 246
4 246 255 256 247
4 247 256 257 248
4 248 257 258 249
4 249 258 259 250
4 250 259 260 251
4 251 260 72 73
4 91 92 261 252
4 252 261 262 253
4 253 262 263 254
4 254 263 264 255
4 255 264 265 256
4 256 265 266 257
4 257 266 267 258
4 258 267 268 259
4 259 268 269 260
4 260 269 71 72
4 92 93 270 261
4 261 270 271 262
4 262 271 272 263
4 263 272 273 264
4 264 273 274 265
4 265 274 275 266
4 266 275 276 267
4 267 276 277 268
4 268 277 278 269
4 269 278 70 71
4 93 94 279 270
4 270 279 280 271
4 271 280 281 272
4 272 281 282 273
4 273 282 283 274
4 274 283 284 275
4 275 284 285 276
4 276 285 286 277
4 277 286 287 278
4 278 287 69 70
4 94 95 288 279
4 279 288 289 280
4 280 289 290 281
4 281 290 291 282
4 282 291 292 283
4 283 292 293 284
4 284 293 294 285
4 285 294 295 286
4 286 295 296 287
4 287 296 68 69
4 95 96 297 288
4 288 297 298 289
4 289 298 299 290
4 290 299 300 291
4 291 300 301 292
4 292 301 302 293
4 293 302 303 294
4 294 303 304 295
4 295 304 305 296
4 296 305 67 68
4 96 97 306 297
4 297 306 307 298
4 298 307 308 299
4 299 308 309 300
4 300 309 310 301
4 301 310 311 302
4 302 311 312 303
4 303 312 313 304
4 304 313 314 305
4 305 314 66 67
4 97 98 315 306
4 306 315 316 307
4 307 316 317 308
4 308 317 318 309
4 309 318 319 310
4 310 319 320 311
4 311 320 321 312
4 312 321 322 313
4 313 322 323 314
4 314 323 65 66
4 98 99 324 315
4 315 324 325 316
4 316 325 326 317
4 317 326 327 318
4 318 327 328 319
4 319 328 329 320
4 320 329 330 321
4 321 330 331 322
4 322 331 332 323
4 323 332 64 65
4 99 100 333 324
4 324 333 334 325
4 325 334 335 326
4 326 335 336 327
4 327 336 337 328
4 328 337 338 329
4 329 338 339 330
4 330 339 340 331
4 331 340 341 332
4 332 341 63 64
4 100 101 342 333
4 333 342 343 334
4 334 343 344 335
4 335 344 345 336
4 336 345 346 337
4 337 346 347 338
4 338 347 348 339
4 339 348 349 340
4 340 349 350 341
4 341 350 62 63
4 101 102 351 342
4 342 351 352 343
4 343 352 353 344
4 344 353 354 345
4 345 354 355 346
4 346 355 356 347
4 347 356 357 348
4 348 357 358 349
4 349 358 359 350
4 350 359 61 62
4 102 103 360 351
4 351 360 361 352
4 352 361 362 353
4 353 362 363 354
4 354 363 364 355
4 355 364 365 356
4 356 365 366 357
4 357 366 367 358
4 358 367 368 359
4 359 368 60 61
4 103 104 369 360
4 360 369 370 361
4 361 370 371 362
4 362 371 372 363
4 363 372 373 364
4 364 373 374 365
4 365 374 375 366
4 366 375 376 367
4 367 376 377 368
4 368 377 59 60
4 104 105 378 369
4 369 378 379 370
4 370 379 380 371
4 371 380 381 372
4 372 381 382 373
4 373 382 383 374
4 374 383 384 375
4 375 384 385 376
4 376 385 386 377
4 377 386 58 59
4 105 106 387 378
4 378 387 388 379
4 379 388 389 380
4 380 389 390 381
4 381 390 391 382
4 382 391 392 383
4 383 392 393 384
4 384 393 394 385
4 385 394 395 386
4 386 395 57 58
4 106 107 396 387
4 387 396 397 388
4 388 397 398 389
4 389 398 399 390
4 390 399 400 391
4 391 400 401 392
4 392 401 402 393
4 393 402 403 394
4 394 403 404 395
4 395 404 56 57
4 107 108 405 396
4 396 405 406 397
4 397 406 407 398
4 398 407 408 399
4 399 408 409 400
4 400 409 410 401
4 401 410 411 402
4 402 411 412 403
4 403 412 413 404
4 404 413 55 56
4 108 109 414 405
4 405 414 415 406
4 406 415 416 407
4 407 416 417 408
4 408 417 418 409
4 409 418 419 410
4 410 419 420 411
4 411 420 421 412
4 412 421 422 413
4 413 422 54 55
4 109 110 423 414
4 414 423 424 415
4 415 424 425 416
4 416 425 426 417
4 417 426 427 418
4 418 427 428 419
4 419 428 429 420
4 420 429 430 421
4 421 430 431 422
4 422 431 53 54
4 110 111 432 423
4 423 432 433 424
4 424 433 434 425
4 425 434 435 426
4 426 435 436 427
4 427 436 437 428
4 428 437 438 429
4 429 438 439 430
4 430 439 440 431
4 431 440 52 53
4 111 112 441 432
4 432 441 442 433
4 433 442 443 434
4 434 443 444 435
4 435 444 445 436
4 436 445 446 437
4 437 446 447 438
4 438 447 448 439
4 439 448 449 440
4 440 449 51 52
4 112 113 450 441
4 441 450 451 442
4 442 451 452 443
4 443 452 453 444
4 444 453 454 445
4 445 454 455 446
4 446 455 456 447
4 447 456 457 448
4 448 457 458 449
4 449 458 50 51
4 113 114 459 450
4 450 459 460 451
4 451 460 461 452
4 452 461 462 453
4 453 462 463 454
4 454 463 464 455
4 455 464 465 456
4 456 465 466 457
4 457 466 467 458
4 458 467 49 50
4 114 115 468 459
4 459 468 469 460
4 460 469 470 461
4 461 470 471 462
4 462 471 472 463
4 463 472 473 464
4 464 473 474 465
4 465 474 475 466
4 466 475 476 467
4 467 476 48 49
4 115 116 477 468
4 468 477 478 469
4 469 478 479 470
4 470 479 480 471
4 471 480 481 472
4 472 481 482 473
4 473 482 483 474
4 474 483 484 475
4 475 484 485 476
4 476 485 47 48
4 116 117 486 477
4 477 486 487 478
4 478 487 488 479
4 479 488 489 480
4 480 489 490 481
4 481 490 491 482
4 482 491 492 483
4 483 492 493 484
4 484 493 494 485
4 485 494 46 47
4 117 118 495 486
4 486 495 496 487
4 487 496 497 488
4 488 497 498 489
4 489 498 499 490
4 490 499 500 491
4 491 500 501 492
4 492 501 502 493
4 493 502 503 494
4 494 503 45 46
4 118 119 504 495
4 495 504 505 496
4 496 505 506 497
4 497 506 507 498
4 498 507 508 499
4 499 508 509 500
4 500 509 510 501
4 501 510 511 502
4 502 511 512 503
4 503 512 44 45
4 119 120 513 504
4 504 513 514 505
4 505 514 515 506
4 506 515 516 507
4 507 516 517 508
4 508 517 518 509
4 509 518 519 510
4 510 519 520 511
4 511 520 521 512
4 512 521 43 44
4 120 121 522 513
4 513 522 523 514
4 514 523 524 515
4 515 524 525 516
4 516 525 526 517
4 517 526 527 518
4 518 527 528 519
4 519 528 529 520
4 520 529 530 521
4 521 530 42 43
4 121 122 531 522
4 522 531 532 523
4 523 532 533 524
4 524 533 534 525
4 525 534 535 526
4 526 535 536 527
4 527 536 537 528
4 528 537 538 529
4 529 538 539 530
4 530 539 41 42
4 122 123 540 531
4 531 540 541 532
4 532 541 542 533
4 533 542 543 534
4 534 543 544 535
4 535 544 545 536
4 536 545 546 537
4 537 546 547 538
4 538 547 548 539
4 539 548 40 41
4 123 124 549 540
4 540 549 550 541
4 541 550 551 542
4 542 551 552 543
4 543 552 553 544
4 544 553 554 545
4 545 554 555 546
4 546 555 556 547
4 547 556 557 548
4 548 557 39 40
4 124 125 558 549
4 549 558 559 550
4 550 559 560 551
4 551 560 561 552
4 552 561 562 553
4 553 562 563 554
4 554 563 564 555
4 555 564 565 556
4 556 565 566 557
4 557 566 38 39
4 125 126 567 558
4 558 567 568 559
4 559 568 569 560
4 560 569 570 561
4 561 570 571 562
4 562 571 572 563
4 563 572 573 564
4 564 573 574 565
4 565 574 575 566
4 566 575 37 38
4 126 127 576 567
4 567 576 577 568
4 568 577 578 569
4 569 578 579 570
4 570 579 580 571
4 571 580 581 572
4 572 581 582 573
4 573 582 583 574
4 574 583 584 575
4 575 584 36 37
4 127 128 585 576
4 576 585 586 577
4 577 586 587 578
4 578 587 588 579
4 579 588 589 580
4 580 589 590 581
4 581 590 591 582
4 582 591 592 583
4 583 592 593 584
4 584 593 35 36
4 128 129 594 585
4 585 594 595 586
4 586 595 596 587
4 587 596 597 588
4 588 597 598 589
4 589 598 599 590
4 590 599 600 591
4 591 600 601 592
4 592 601 602 593
4 593 602 34 35
4 129 130 603 594
4 594 603 604 595
4 595 604 605 596
4 596 605 606 597
4 597 606 607 598
4 598 607 608 599
4 599 608 609 600
4 600 609 610 601
4 601 610 611 602
4 602 611 33 34
4 130 131 612 603
4 603 612 613 604
4 604 613 614 605
4 605 614 615 606
4 606 615 616 607
4 607 616 617 608
4 608 617 618 609
4 609 618 619 610
4 610 619 620 611
4 611 620 32 33
4 131 132 621 612
4 612 621 622 613
4 613 622 623 614
4 614 623 624 615
4 615 624 625 616
4 616 625 626 617
4 617 626 627 618
4 618 627 628 619
4 619 628 629 620
4 620 629 31 32
4 132 133 630 621
4 621 630 631 622
4 622 631 632 623
4 623 632 633 624
4 624 633 634 625
4 625 634 635 626
4 626 635 636 627
4 627 636 637 628
4 628 637 638 629
4 629 638 30 31
4 133 134 639 630
4 630 639 640 631
4 631 640 641 632
4 632 641 642 633
4 633 642 643 634
4 634 643 644 635
4 635 644 645 636
4 636 645 646 637
4 637 646 647 638
4 638 647 29 30
4 134 135 648 639
4 639 648 649 640
4 640 649 650 641
4 641 650 651 642
4 642 651 652 643
4 643 652 653 644
4 644 653 654 645
4 645 654 655 646
4 646 655 656 647
4 647 656 28 29
4 135 136 657 648
4 648 657 658 649
4 649 658 659 650
4 650 659 660 651
4 651 660 661 652
4 652 661 662 653
4 653 662 663 654
4 654 663 664 655
4 655 664 665 656
4 656 665 27 28
4 136 137 666 657
4 657 666 667 658
4 658 667 668 659
4 659 668 669 660
4 660 669 670 661
4 661 670 671 662
4 662 671 672 663
4 663 672 673 664
4 664 673 674 665
4 665 674 26 27
4 137 138 675 666
4 666 675 676 667
4 667 676 677 668
4 668 677 678 669
4 669 678 679 670
4 670 679 680 671
4 671 680 681 672
4 672 681 682 673
4 673 682 683 674
4 674 683 25 26
4 138 139 684 675
4 675 684 685 676
4 676 685 686 677
4 677 686 687 678
4 678 687 688 679
4 679 688 689 680
4 680 689 690 681
4 681 690 691 682
4 682 691 692 683
4 683 692 24 25
4 139 140 693 684
4 684 693 694 685
4 685 694 695 686
4 686 695 696 687
4 687 696 697 688
4 688 697 698 689
4 689 698 699 690
4 690 699 700 691
4 691 700 701 692
4 692 701 23 24
4 140 141 702 693
4 693 702 703 694
4 694 703 704 695
4 695 704 705 696
4 696 705 706 697
4 697 706 707 698
4 698 707 708 699
4 699 708 709 700
4 700 709 710 701
4 701 710 22 23
4 141 142 711 702
4 702 711 712 703
4 703 712 713 704
4 704 713 714 705
4 705 714 715 706
4 706 715 716 707
4 707 716 717 708
4 708 717 718 709
4 709 718 719 710
4 710 719 21 22
4 142 143 720 711
4 711 720 721 712
4 712 721 722 713
4 713 722 723 714
4 714 723 724 715
4 715 724 725 716
4 716 725 726 717
4 717 726 727 718
4 718 727 728 719
4 719 728 20 21
4 143 144 729 720
4 720 729 730 721
4 721 730 731 722
4 722 731 732 723
4 723 732 733 724
4 724 733 734 725
4 725 734 735 726
4 726 735 736 727
4 727 736 737 728
4 728 737 19 20
4 144 145 738 729
4 729 738 739 730
4 730 739 740 731
4 731 740 741 732
4 732 741 742 733
4 733 742 743 734
4 734 743 744 735
4 735 744 745 736
4 736 745 746 737
4 737 746 18 19
4 145 146 747 738
4 738 747 748 739
4 739 748 749 740
4 740 749 750 741
4 741 750 751 742
4 742 751 752 743
4 743 752 753 744
4 744 753 754 745
4 745 754 755 746
4 746 755 17 18
4 146 147 756 747
4 747 756 757 748
4 748 757 758 749
4 749 758 759 750
4 750 759 760 751
4 751 760 761 752
4 752 761 762 753
4 753 762 763 754
4 754 763 764 755
4 755 764 16 17
4 147 148 765 756
4 756 765 766 757
4 757 766 767 758
4 758 767 768 759
4 759 768 769 760
4 760 769 770 761
4 761 770 771 762
4 762 771 772 763
4 763 772 773 764
4 764 773 15 16
4 148 149 774 765
4 765 774 775 766
4 766 775 776 767
4 767 776 777 768
4 768 777 778 769
4 769 778 779 770
4 770 779 780 771
4 771 780 781 772
4 772 781 782 773
4 773 782 14 15
4 149 150 783 774
4 774 783 784 775
4 775 784 785 776
4 776 785 786 777
4 777 786 787 778
4 778 787 788 779
4 779 788 789 780
4 780 789 790 781
4 781 790 791 782
4 782 791 13 14
4 150 151 792 783
4 783 792 793 784
4 784 793 794 785
4 785 794 795 786
4 786 795 796 787
4 787 796 797 788
4 788 797 798 789
4 789 798 799 790
4 790 799 800 791
4 791 800 12 13
4 151 152 801 792
4 792 801 802 793
4 793 802 803 794
4 794 803 804 795
4 795 804 805 796
4 796 805 806 797
4 797 806 807 798
4 798 807 808 799
4 799 808 809 800
4 800 809 11 12
4 152 153 810 801
4 801 810 811 802
4 802 811 812 803
4 803 812 813 804
4 804 813 814 805
4 805 814 815 806
4 806 815 816 807
4 807 816 817 808
4 808 817 818 809
4 809 818 10 11
4 153 154 819 810
4 810 819 820 811
4 811 820 821 812
4 812 821 822 813
4 813 822 823 814
4 814 823 824 815
4 815 824 825 816
4 816 825 826 817
4 817 826 827 818
4 818 827 9 10
4 154 155 828 819
4 819 828 829 820
4 820 829 830 821
4 821 830 831 822
4 822 831 832 823
4 823 832 833 824
4 824 833 834 825
4 825 834 835 826
4 826 835 836 827
4 827 836 8 9
4 155 156 837 828
4 828 837 838 829
4 829 838 839 830
4 830 839 840 831
4 831 840 841 832
4 832 841 842 833
4 833 842 843 834
4 834 843 844 835
4 835 844 845 836
4 836 845 7 8
4 156 157 846 837
4 837 846 847 838
4 838 847 848 839
4 839 848 849 840
4 840 849 850 841
4 841 850 851 842
4 842 851 852 843
4 843 852 853 844
4 844 853 854 845
4 845 854 6 7
4 157 158 855 846
4 846 855 856 847
4 847 856 857 848
4 848 857 858 849
4 849 858 859 850
4 850 859 860 851
4 851 860 861 852
4 852 861 862 853
4 853 862 863 854
4 854 863 5 6
4 158 159 864 855
4 855 864 865 856
4 856 865 866 857
4 857 866 867 858
4 858 867 868 859
4 859 868 869 860
4 860 869 870 861
4 861 870 871 862
4 862 871 872 863
4 863 872 4 5
4 159 160 873 864
4 864 873 874 865
4 865 874 875 866
4 866 875 876 867
4 867 876 877 868
4 868 877 878 869
4 869 878 879 870
4 870 879 880 871
4 871 880 881 872
4 872 881 3 4
4 160 161 882 873
4 873 882 883 874
4 874 883 884 875
4 875 884 885 876
4 876 885 886 877
4 877 886 887 878
4 878 887 888 879
4 879 888 889 880
4 880 889 890 881
4 881 890 2 3
4 161 81 162 882
4 882 162 163 883
4 883 163 164 884
4 884 164 165 885
4 885 165 166 886
4 886 166 167 887
4 887 167 168 888
4 888 168 169 889
4 889 169 170 890
4 890 170 1 2
CELL_TYPES 800
9
9
9
9
9
9
9
9
9
9
9
9
9
9
9
9
9
9
9
9
9
9
9
9
9
9
9
9
9
9
9
9
9
9
9
9
9
9
9
9
9
9
9
9
9
9
9
9
9
9
9
9
9
9
9
9
9
9
9
9
9
9
9
9
9
9
9
9
9
9
9
9
9
9
9
9
9
9
9
9
9
9
9
9
9
9
9
9
9
9
9
9
9
9
9
9
9
9
9
9
9
9
9
9
9
9
9
9
9
9
9
9
9
9
9
9
9
9
9
9
9
9
9
9
9
9
9
9
9
9
9
9
9
9
9
9
9
9
9
9
9
9
9
9
9
9
9
9
9
9
9
9
9
9
9
9
9
9
9
9
9
9
9
9
9
9
9
9
9
9
9
9
9
9
9
9
9
9
9
9
9
9
9
9
9
9
9
9
9
9
9
9
9
9
9
9
9
9
9
9
9
9
9
9
9
9
9
9
9
9
9
9
9
9
9
9
9
9
9
9
9
9
9
9
9
9
9
9
9
9
9
9
9
9
9
9
9
9
9
9
9
9
9
9
9
9
9
9
9
9
9
9
9
9
9
9
9
9
9
9
9
9
9
9
9
9
9
9
9
9
9
9
9
9
9
9
9
9
9
9
9
9
9
9
9
9
9
9
9
9
9
9
9
9
9
9
9
9
9
9
9
9
9
9
9
9
9
9
9
9
9
9
9
9
9
9
9
9
9
9
9
9
9
9
9
9
9
9
9
9
9
9
9
9
9
9
9
9
9
9
9
9
9
9
9
9
9
9
9
9
9
9
9
9
9
9
9
9
9
9
9
9
9
9
9
9
9
9
9
9
9
9
9
9
9
9
9
9
9
9
9
9
9
9
9
9
9
9
9
9
9
9
9
9
9
9
9
9
9
9
9
9
9
9
9
9
9
9
9
9
9
9
9
9
9
9
9
9
9
9
9
9
9
9
9
9
9
9
9
9
9
9
9
9
9
9
9
9
9
9
9
9
9
9
9
9
9
9
9
9
9
9
9
9
9
9
9
9
9
9
9
9
9
9
9
9
9
9
9
9
9
9
9
9
9
9
9
9
9
9
9
9
9
9
9
9
9
9
9
9
9
9
9
9
9
9
9
9
9
9
9
9
9
9
9
9
9
9
9
9
9
9
9
9
9
9
9
9
9
9
9
9
9
9
9
9
9
9
9
9
9
9
9
9
9
9
9
9
9
9
9
9
9
9
9
9
9
9
9
9
9
9
9
9
9
9
9
9
9
9
9
9
9
9
9
9
9
9
9
9
9
9
9
9
9
9
9
9
9
9
9
9
9
9
9
9
9
9
9
9
9
9
9
9
9
9
9
9
9
9
9
9
9
9
9
9
9
9
9
9
9
9
9
9
9
9
9
9
9
9
9
9
9
9
9
9
9
9
9
9
9
9
9
9
9
9
9
9
9
9
9
9
9
9
9
9
9
9
9
9
9
9
9
9
9
9
9
9
9
9
9
9
9
9
9
9
9
9
9
9
9
9
9
9
9
9
9
9
9
9
9
9
9
9
9
9
9
9
9
9
9
9
9
9
9
9
9
9
9
9
9
9
9
9
9
9
9
9
9
9
9
9
9
9
9
9
9
9
9
9
9
9
9
9
9
9
9
9
9
9
9
9
9
9
9
9
9
9
9
9
9
9
9
9
9
9
9
9
9
9
9
9
9
9
9
9
9
9
9
9
9
9
9
9
9
9
9
9
9
9
9
9
9
9
9
9
9
9
9
9
9
9
9
9
9
9
9
9
9
9
9
9
9
9
9
9
9
9
9
9
POINT_DATA 891
SCALARS u1 float
LOOKUP_TABLE default
2e-20
-1e-06
-1e-06
-1e-06
-1e-06
-1e-06
-1e-06
-1e-06
-1e-06
-1e-06
-1e-06
-1e-06
-1e-06
-1e-06
-1e-06
-1e-06
-1e-06
-1e-06
-1e-06
-1e-06
-1e-06
-1e-06
-1e-06
-1e-06
-1e-06
-1e-06
-1e-06
-1e-06
-1e-06
-1e-06
-1e-06
-1e-06
-1e-06
-1e-06
-1e-06
-1e-06
-1e-06
-1e-06
-1e-06
-1e-06
-1e-06
-1e-06
-1e-06
-1e-06
-1e-06
-1e-06
-1e-06
-1e-06
-1e-06
-1e-06
-1e-06
-1e-06
-1e-06
-1e-06
-1e-06
-1e-06
-1e-06
-1e-06
-1e-06
-1e-06
-1e-06
-1e-06
-1e-06
-1e-06
-1e-06
-1e-06
-1e-06
-1e-06
-1e-06
-1e-06
-1e-06
-1e-06
-1e-06
-1e-06
-1e-06
-1e-06
-1e-06
-1e-06
-2e-06
-1e-06
-1e-06
1e-06
2e-19
1e-06
1e-06
2e-06
1e-06
1e-06
1e-06
1e-06
1e-06
1e-06
1e-06
1e-06
1e-06
1e-06
1e-06
1e-06
1e-06
1e-06
1e-06
1e-06
1e-06
1e-06
1e-06
1e-06
1e-06
1e-06
1e-06
1e-06
1e-06
1e-06
1e-06
1e-06
1e-06
1e-06
1e-06
1e-06
1e-06
1e-06
1e-06
1e-06
1e-06
1e-06
1e-06
1e-06
1e-06
1e-06
1e-06
1e-06
1e-06
1e-06
1e-06
1e-06
1e-06
1e-06
1e-06
1e-06
1e-06
1e-06
1e-06
1e-06
1e-06
1e-06
1e-06
1e-06
1e-06
1e-06
1e-06
1e-06
1e-06
1e-06
1e-06
1e-06
1e-06
1e-06
1e-06
1e-06
1e-06
1e-06
1e-06
1e-06
1e-06
9e-07
6e-07
3e-07
-3e-16
-3e-07
-6e-07
-9e-07
-1e-06
7e-19
1e-19
-1e-20
-1e-19
-1e-19
-5e-20
-2e-21
-1e-19
2e-19
8e-07
6e-07
4e-07
2e-07
-6e-17
-2e-07
-4e-07
-6e-07
-8e-07
1e-06
9e-07
6e-07
3e-07
-1e-16
-3e-07
-6e-07
-9e-07
-1e-06
1e-06
9e-07
6e-07
3e-07
-2e-16
-3e-07
-6e-07
-9e-07
-1e-06
1e-06
9e-07
6e-07
3e-07
-3e-16
-3e-07
-6e-07
-9e-07
-1e-06
1e-06
9e-07
6e-07
3e-07
-3e-16
-3e-07
-6e-07
-9e-07
-1e-06
1e-06
9e-07
6e-07
3e-07
-4e-16
-3e-07
-6e-07
-9e-07
-1e-06
1e-06
9e-07
6e-07
3e-07
-4e-16
-3e-07
-6e-07
-9e-07
-1e-06
1e-06
9e-07
6e-07
3e-07
-4e-16
-3e-07
-6e-07
-9e-07
-1e-06
1e-06
9e-07
6e-07
3e-07
-4e-16
-3e-07
-6e-07
-9e-07
-1e-06
1e-06
9e-07
6e-07
3e-07
-4e-16
-3e-07
-6e-07
-9e-07
-1e-06
1e-06
9e-07
6e-07
3e-07
-4e-16
-3e-07
-6e-07
-9e-07
-1e-06
1e-06
9e-07
6e-07
3e-07
-4e-16
-3e-07
-6e-07
-9e-07
-1e-06
1e-06
9e-07
6e-07
3e-07
-4e-16
-3e-07
-6e-07
-9e-07
-1e-06
1e-06
9e-07
6e-07
3e-07
-4e-16
-3e-07
-6e-07
-9e-07
-1e-06
1e-06
9e-07
6e-07
3e-07
-4e-16
-3e-07
-6e-07
-9e-07
-1e-06
1e-06
9e-07
6e-07
3e-07
-4e-16
-3e-07
-6e-07
-9e-07
-1e-06
1e-06
9e-07
6e-07
3e-07
-4e-16
-3e-07
-6e-07
-9e-07
-1e-06
1e-06
9e-07
6e-07
3e-07
-3e-16
-3e-07
-6e-07
-9e-07
-1e-06
1e-06
9e-07
6e-07
3e-07
-3e-16
-3e-07
-6e-07
-9e-07
-1e-06
1e-06
9e-07
6e-07
3e-07
-3e-16
-3e-07
-6e-07
-9e-07
-1e-06
1e-06
9e-07
6e-07
3e-07
-3e-16
-3e-07
-6e-07
-9e-07
-1e-06
1e-06
9e-07
6e-07
3e-07
-3e-16
-3e-07
-6e-07
-9e-07
-1e-06
1e-06
9e-07
6e-07
3e-07
-3e-16
-3e-07
-6e-07
-9e-07
-1e-06
1e-06
9e-07
6e-07
3e-07
-3e-16
-3e-07
-6e-07
-9e-07
-1e-06
1e-06
9e-07
6e-07
3e-07
-3e-16
-3e-07
-6e-07
-9e-07
-1e-06
1e-06
9e-07
6e-07
3e-07
-3e-16
-3e-07
-6e-07
-9e-07
-1e-06
1e-06
9e-07
6e-07
3e-07
-3e-16
-3e-07
-6e-07
-9e-07
-1e-06
1e-06
9e-07
6e-07
3e-07
-3e-16
-3e-07
-6e-07
-9e-07
-1e-06
1e-06
9e-07
6e-07
3e-07
-3e-16
-3e-07
-6e-07
-9e-07
-1e-06
1e-06
9e-07
6e-07
3e-07
-3e-16
-3e-07
-6e-07
-9e-07
-1e-06
1e-06
9e-07
6e-07
3e-07
-3e-16
-3e-07
-6e-07
-9e-07
-1e-06
1e-06
9e-07
6e-07
3e-07
-3e-16
-3e-07
-6e-07
-9e-07
-1e-06
1e-06
9e-07
6e-07
3e-07
-3e-16
-3e-07
-6e-07
-9e-07
-1e-06
1e-06
9e-07
6e-07
3e-07
-3e-16
-3e-07
-6e-07
-9e-07
-1e-06
1e-06
9e-07
6e-07
3e-07
-3e-16
-3e-07
-6e-07
-9e-07
-1e-06
1e-06
9e-07
6e-07
3e-07
-3e-16
-3e-07
-6e-07
-9e-07
-1e-06
1e-06
9e-07
6e-07
3e-07
-3e-16
-3e-07
-6e-07
-9e-07
-1e-06
1e-06
9e-07
6e-07
3e-07
-3e-16
-3e-07
-6e-07
-9e-07
-1e-06
1e-06
9e-07
6e-07
3e-07
-3e-16
-3e-07
-6e-07
-9e-07
-1e-06
1e-06
9e-07
6e-07
3e-07
-3e-16
-3e-07
-6e-07
-9e-07
-1e-06
1e-06
9e-07
6e-07
3e-07
-3e-16
-3e-07
-6e-07
-9e-07
-1e-06
1e-06
9e-07
6e-07
3e-07
-3e-16
-3e-07
-6e-07
-9e-07
-1e-06
1e-06
9e-07
6e-07
3e-07
-3e-16
-3e-07
-6e-07
-9e-07
-1e-06
1e-06
9e-07
6e-07
3e-07
-3e-16
-3e-07
-6e-07
-9e-07
-1e-06
1e-06
9e-07
6e-07
3e-07
-3e-16
-3e-07
-6e-07
-9e-07
-1e-06
1e-06
9e-07
6e-07
3e-07
-3e-16
-3e-07
-6e-07
-9e-07
-1e-06
1e-06
9e-07
6e-07
3e-07
-3e-16
-3e-07
-6e-07
-9e-07
-1e-06
1e-06
9e-07
6e-07
3e-07
-3e-16
-3e-07
-6e-07
-9e-07
-1e-06
1e-06
9e-07
6e-07
3e-07
-3e-16
-3e-07
-6e-07
-9e-07
-1e-06
1e-06
9e-07
6e-07
3e-07
-3e-16
-3e-07
-6e-07
-9e-07
-1e-06
1e-06
9e-07
6e-07
3e-07
-3e-16
-3e-07
-6e-07
-9e-07
-1e-06
1e-06
9e-07
6e-07
3e-07
-3e-16
-3e-07
-6e-07
-9e-07
-1e-06
1e-06
9e-07
6e-07
3e-07
-3e-16
-3e-07
-6e-07
-9e-07
-1e-06
1e-06
9e-07
6e-07
3e-07
-3e-16
-3e-07
-6e-07
-9e-07
-1e-06
1e-06
9e-07
6e-07
3e-07
-3e-16
-3e-07
-6e-07
-9e-07
-1e-06
1e-06
9e-07
6e-07
3e-07
-3e-16
-3e-07
-6e-07
-9e-07
-1e-06
1e-06
9e-07
6e-07
3e-07
-3e-16
-3e-07
-6e-07
-9e-07
-1e-06
1e-06
9e-07
6e-07
3e-07
-3e-16
-3e-07
-6e-07
-9e-07
-1e-06
1e-06
9e-07
6e-07
3e-07
-3e-16
-3e-07
-6e-07
-9e-07
-1e-06
1e-06
9e-07
6e-07
3e-07
-3e-16
-3e-07
-6e-07
-9e-07
-1e-06
1e-06
9e-07
6e-07
3e-07
-3e-16
-3e-07
-6e-07
-9e-07
-1e-06
1e-06
9e-07
6e-07
3e-07
-3e-16
-3e-07
-6e-07
-9e-07
-1e-06
1e-06
9e-07
6e-07
3e-07
-3e-16
-3e-07
-6e-07
-9e-07
-1e-06
1e-06
9e-07
6e-07
3e-07
-3e-16
-3e-07
-6e-07
-9e-07
-1e-06
1e-06
9e-07
6e-07
3e-07
-3e-16
-3e-07
-6e-07
-9e-07
-1e-06
1e-06
9e-07
6e-07
3e-07
-3e-16
-3e-07
-6e-07
-9e-07
-1e-06
1e-06
9e-07
6e-07
3e-07
-3e-16
-3e-07
-6e-07
-9e-07
-1e-06
1e-06
9e-07
6e-07
3e-07
-3e-16
-3e-07
-6e-07
-9e-07
-1e-06
1e-06
9e-07
6e-07
3e-07
-3e-16
-3e-07
-6e-07
-9e-07
-1e-06
1e-06
9e-07
6e-07
3e-07
-3e-16
-3e-07
-6e-07
-9e-07
-1e-06
1e-06
9e-07
6e-07
3e-07
-3e-16
-3e-07
-6e-07
-9e-07
-1e-06
1e-06
9e-07
6e-07
3e-07
-3e-16
-3e-07
-6e-07
-9e-07
-1e-06
1e-06
9e-07
6e-07
3e-07
-3e-16
-3e-07
-6e-07
-9e-07
-1e-06
1e-06
9e-07
6e-07
3e-07
-3e-16
-3e-07
-6e-07
-9e-07
-1e-06
1e-06
9e-07
6e-07
3e-07
-3e-16
-3e-07
-6e-07
-9e-07
-1e-06
1e-06
9e-07
6e-07
3e-07
-3e-16
-3e-07
-6e-07
-9e-07
-1e-06
1e-06
9e-07
6e-07
3e-07
-3e-16
-3e-07
-6e-07
-9e-07
-1e-06
1e-06
9e-07
6e-07
3e-07
-3e-16
-3e-07
-6e-07
-9e-07
-1e-06
1e-06
9e-07
6e-07
3e-07
-3e-16
-3e-07
-6e-07
-9e-07
-1e-06
SCALARS u2 float
LOOKUP_TABLE default
-7e-19
-0.0004
-0.0004
-0.0004
-0.0004
-0.0004
-0.0004
-0.0004
-0.0004
-0.0004
-0.0004
-0.0004
-0.0003
-0.0003
-0.0003
-0.0003
-0.0003
-0.0003
-0.0003
-0.0003
-0.0003
-0.0003
-0.0003
-0.0003
-0.0003
-0.0003
-0.0003
-0.0003
-0.0003
-0.0003
-0.0003
-0.0003
-0.0002
-0.0002
-0.0002
-0.0002
-0.0002
-0.0002
-0.0002
-0.0002
-0.0002
-0.0002
-0.0002
-0.0002
-0.0002
-0.0002
-0.0002
-0.0002
-0.0002
-0.0002
-0.0002
-0.0002
-0.0001
-0.0001
-0.0001
-0.0001
-0.0001
-0.0001
-0.0001
-0.0001
-0.0001
-0.0001
-9e-05
-9e-05
-8e-05
-8e-05
-7e-05
-7e-05
-6e-05
-6e-05
-5e-05
-5e-05
-4e-05
-4e-05
-3e-05
-3e-05
-2e-05
-2e-05
-1e-05
-1e-05
-5e-06
-0.0004
7e-19
-5e-06
-1e-05
-1e-05
-2e-05
-2e-05
-3e-05
-3e-05
-4e-05
-4e-05
-5e-05
-5e-05
-6e-05
-6e-05
-7e-05
-7e-05
-8e-05
-8e-05
-9e-05
-9e-05
-0.0001
-0.0001
-0.0001
-0.0001
-0.0001
-0.0001
-0.0001
-0.0001
-0.0001
-0.0001
-0.0002
-0.0002
-0.0002
-0.0002
-0.0002
-0.0002
-0.0002
-0.0002
-0.0002
-0.0002
-0.0002
-0.0002
-0.0002
-0.0002
-0.0002
-0.0002
-0.0002
-0.0002
-0.0002
-0.0002
-0.0003
-0.0003
-0.0003
-0.0003
-0.0003
-0.0003
-0.0003
-0.0003
-0.0003
-0.0003
-0.0003
-0.0003
-0.0003
-0.0003
-0.0003
-0.0003
-0.0003
-0.0003
-0.0003
-0.0003
-0.0004
-0.0004
-0.0004
-0.0004
-0.0004
-0.0004
-0.0004
-0.0004
-0.0004
-0.0004
-0.0004
-0.0004
-0.0004
-0.0004
-0.0004
-0.0004
-0.0004
-0.0004
-0.0004
-1e-18
7e-19
-3e-19
9e-19
3e-19
-9e-20
-1e-18
1e-20
7e-19
-5e-06
-5e-06
-5e-06
-5e-06
-5e-06
-5e-06
-5e-06
-5e-06
-5e-06
-1e-05
-1e-05
-1e-05
-1e-05
-1e-05
-1e-05
-1e-05
-1e-05
-1e-05
-1e-05
-1e-05
-1e-05
-1e-05
-1e-05
-1e-05
-1e-05
-1e-05
-1e-05
-2e-05
-2e-05
-2e-05
-2e-05
-2e-05
-2e-05
-2e-05
-2e-05
-2e-05
-2e-05
-2e-05
-2e-05
-2e-05
-2e-05
-2e-05
-2e-05
-2e-05
-2e-05
-3e-05
-3e-05
-3e-05
-3e-05
-3e-05
-3e-05
-3e-05
-3e-05
-3e-05
-3e-05
-3e-05
-3e-05
-3e-05
-3e-05
-3e-05
-3e-05
-3e-05
-3e-05
-4e-05
-4e-05
-4e-05
-4e-05
-4e-05
-4e-05
-4e-05
-4e-05
-4e-05
-4e-05
-4e-05
-4e-05
-4e-05
-4e-05
-4e-05
-4e-05
-4e-05
-4e-05
-5e-05
-5e-05
-5e-05
-5e-05
-5e-05
-5e-05
-5e-05
-5e-05
-5e-05
-5e-05
-5e-05
-5e-05
-5e-05
-5e-05
-5e-05
-5e-05
-5e-05
-5e-05
-6e-05
-6e-05
-6e-05
-6e-05
-6e-05
-6e-05
-6e-05
-6e-05
-6e-05
-6e-05
-6e-05
-6e-05
-6e-05
-6e-05
-6e-05
-6e-05
-6e-05
-6e-05
-7e-05
-7e-05
-7e-05
-7e-05
-7e-05
-7e-05
-7e-05
-7e-05
-7e-05
-7e-05
-7e-05
-7e-05
-7e-05
-7e-05
-7e-05
-7e-05
-7e-05
-7e-05
-8e-05
-8e-05
-8e-05
-8e-05
-8e-05
-8e-05
-8e-05
-8e-05
-8e-05
-8e-05
-8e-05
-8e-05
-8e-05
-8e-05
-8e-05
-8e-05
-8e-05
-8e-05
-9e-05
-9e-05
-9e-05
-9e-05
-9e-05
-9e-05
-9e-05
-9e-05
-9e-05
-9e-05
-9e-05
-9e-05
-9e-05
-9e-05
-9e-05
-9e-05
-9e-05
-9e-05
-0.0001
-0.0001
-0.0001
-0.0001
-0.0001
-0.0001
-0.0001
-0.0001
-0.0001
-0.0001
-0.0001
-0.0001
-0.0001
-0.0001
-0.0001
-0.0001
-0.0001
-0.0001
-0.0001
-0.0001
-0.0001
-0.0001
-0.0001
-0.0001
-0.0001
-0.0001
-0.0001
-0.0001
-0.0001
-0.0001
-0.0001
-0.0001
-0.0001
-0.0001
-0.0001
-0.0001
-0.0001
-0.0001
-0.0001
-0.0001
-0.0001
-0.0001
-0.0001
-0.0001
-0.0001
-0.0001
-0.0001
-0.0001
-0.0001
-0.0001
-0.0001
-0.0001
-0.0001
-0.0001
-0.0001
-0.0001
-0.0001
-0.0001
-0.0001
-0.0001
-0.0001
-0.0001
-0.0001
-0.0001
-0.0001
-0.0001
-0.0001
-0.0001
-0.0001
-0.0001
-0.0001
-0.0001
-0.0001
-0.0001
-0.0001
-0.0001
-0.0001
-0.0001
-0.0001
-0.0001
-0.0001
-0.0001
-0.0001
-0.0001
-0.0001
-0.0001
-0.0001
-0.0001
-0.0001
-0.0001
-0.0002
-0.0002
-0.0002
-0.0002
-0.0002
-0.0002
-0.0002
-0.0002
-0.0002
-0.0002
-0.0002
-0.0002
-0.0002
-0.0002
-0.0002
-0.0002
-0.0002
-0.0002
-0.0002
-0.0002
-0.0002
-0.0002
-0.0002
-0.0002
-0.0002
-0.0002
-0.0002
-0.0002
-0.0002
-0.0002
-0.0002
-0.0002
-0.0002
-0.0002
-0.0002
-0.0002
-0.0002
-0.0002
-0.0002
-0.0002
-0.0002
-0.0002
-0.0002
-0.0002
-0.0002
-0.0002
-0.0002
-0.0002
-0.0002
-0.0002
-0.0002
-0.0002
-0.0002
-0.0002
-0.0002
-0.0002
-0.0002
-0.0002
-0.0002
-0.0002
-0.0002
-0.0002
-0.0002
-0.0002
-0.0002
-0.0002
-0.0002
-0.0002
-0.0002
-0.0002
-0.0002
-0.0002
-0.0002
-0.0002
-0.0002
-0.0002
-0.0002
-0.0002
-0.0002
-0.0002
-0.0002
-0.0002
-0.0002
-0.0002
-0.0002
-0.0002
-0.0002
-0.0002
-0.0002
-0.0002
-0.0002
-0.0002
-0.0002
-0.0002
-0.0002
-0.0002
-0.0002
-0.0002
-0.0002
-0.0002
-0.0002
-0.0002
-0.0002
-0.0002
-0.0002
-0.0002
-0.0002
-0.0002
-0.0002
-0.0002
-0.0002
-0.0002
-0.0002
-0.0002
-0.0002
-0.0002
-0.0002
-0.0002
-0.0002
-0.0002
-0.0002
-0.0002
-0.0002
-0.0002
-0.0002
-0.0002
-0.0002
-0.0002
-0.0002
-0.0002
-0.0002
-0.0002
-0.0002
-0.0002
-0.0002
-0.0002
-0.0002
-0.0002
-0.0002
-0.0002
-0.0002
-0.0002
-0.0002
-0.0002
-0.0002
-0.0002
-0.0002
-0.0002
-0.0002
-0.0002
-0.0002
-0.0002
-0.0002
-0.0002
-0.0002
-0.0002
-0.0002
-0.0002
-0.0002
-0.0002
-0.0002
-0.0002
-0.0002
-0.0002
-0.0002
-0.0002
-0.0002
-0.0002
-0.0002
-0.0002
-0.0002
-0.0002
-0.0002
-0.0002
-0.0002
-0.0002
-0.0002
-0.0002
-0.0002
-0.0002
-0.0003
-0.0003
-0.0003
-0.0003
-0.0003
-0.0003
-0.0003
-0.0003
-0.0003
-0.0003
-0.0003
-0.0003
-0.0003
-0.0003
-0.0003
-0.0003
-0.0003
-0.0003
-0.0003
-0.0003
-0.0003
-0.0003
-0.0003
-0.0003
-0.0003
-0.0003
-0.0003
-0.0003
-0.0003
-0.0003
-0.0003
-0.0003
-0.0003
-0.0003
-0.0003
-0.0003
-0.0003
-0.0003
-0.0003
-0.0003
-0.0003
-0.0003
-0.0003
-0.0003
-0.0003
-0.0003
-0.0003
-0.0003
-0.0003
-0.0003
-0.0003
-0.0003
-0.0003
-0.0003
-0.0003
-0.0003
-0.0003
-0.0003
-0.0003
-0.0003
-0.0003
-0.0003
-0.0003
-0.0003
-0.0003
-0.0003
-0.0003
-0.0003
-0.0003
-0.0003
-0.0003
-0.0003
-0.0003
-0.0003
-0.0003
-0.0003
-0.0003
-0.0003
-0.0003
-0.0003
-0.0003
-0.0003
-0.0003
-0.0003
-0.0003
-0.0003
-0.0003
-0.0003
-0.0003
-0.0003
-0.0003
-0.0003
-0.0003
-0.0003
-0.0003
-0.0003
-0.0003
-0.0003
-0.0003
-0.0003
-0.0003
-0.0003
-0.0003
-0.0003
-0.0003
-0.0003
-0.0003
-0.0003
-0.0003
-0.0003
-0.0003
-0.0003
-0.0003
-0.0003
-0.0003
-0.0003
-0.0003
-0.0003
-0.0003
-0.0003
-0.0003
-0.0003
-0.0003
-0.0003
-0.0003
-0.0003
-0.0003
-0.0003
-0.0003
-0.0003
-0.0003
-0.0003
-0.0003
-0.0003
-0.0003
-0.0003
-0.0003
-0.0003
-0.0003
-0.0003
-0.0003
-0.0003
-0.0003
-0.0003
-0.0003
-0.0003
-0.0003
-0.0003
-0.0003
-0.0003
-0.0003
-0.0003
-0.0003
-0.0003
-0.0003
-0.0003
-0.0003
-0.0003
-0.0003
-0.0003
-0.0003
-0.0003
-0.0003
-0.0003
-0.0003
-0.0003
-0.0003
-0.0003
-0.0003
-0.0003
-0.0003
-0.0003
-0.0003
-0.0003
-0.0003
-0.0003
-0.0003
-0.0003
-0.0003
-0.0003
-0.0004
-0.0004
-0.0004
-0.0004
-0.0004
-0.0004
-0.0004
-0.0004
-0.0004
-0.0004
-0.0004
-0.0004
-0.0004
-0.0004
-0.0004
-0.0004
-0.0004
-0.0004
-0.0004
-0.0004
-0.0004
-0.0004
-0.0004
-0.0004
-0.0004
-0.0004
-0.0004
-0.0004
-0.0004
-0.0004
-0.0004
-0.0004
-0.0004
-0.0004
-0.0004
-0.0004
-0.0004
-0.0004
-0.0004
-0.0004
-0.0004
-0.0004
-0.0004
-0.0004
-0.0004
-0.0004
-0.0004
-0.0004
-0.0004
-0.0004
-0.0004
-0.0004
-0.0004
-0.0004
-0.0004
-0.0004
-0.0004
-0.0004
-0.0004
-0.0004
-0.0004
-0.0004
-0.0004
-0.0004
-0.0004
-0.0004
-0.0004
-0.0004
-0.0004
-0.0004
-0.0004
-0.0004
-0.0004
-0.0004
-0.0004
-0.0004
-0.0004
-0.0004
-0.0004
-0.0004
-0.0004
-0.0004
-0.0004
-0.0004
-0.0004
-0.0004
-0.0004
-0.0004
-0.0004
-0.0004
SCALARS strain_1 float
LOOKUP_TABLE default
-0.000109
-0.172944
-0.170329
-0.167701
-0.165059
-0.162407
-0.159743
-0.157068
-0.154383
-0.151689
-0.148986
-0.146276
-0.143558
-0.140834
-0.138104
-0.135369
-0.132631
-0.129889
-0.127146
-0.124402
-0.121658
-0.118914
-0.116171
-0.113433
-0.110698
-0.107968
-0.105245
-0.102528
-0.099820
-0.097123
-0.094435
-0.091760
-0.089099
-0.086451
-0.083821
-0.081206
-0.078611
-0.076035
-0.073480
-0.070948
-0.068439
-0.065955
-0.063498
-0.061068
-0.058668
-0.056297
-0.053959
-0.051653
-0.049381
-0.047144
-0.044945
-0.042784
-0.040661
-0.038579
-0.036539
-0.034541
-0.032587
-0.030678
-0.028814
-0.026997
-0.025229
-0.023508
-0.021837
-0.020216
-0.018646
-0.017127
-0.015660
-0.014247
-0.012886
-0.011578
-0.010325
-0.009126
-0.007981
-0.006890
-0.005854
-0.004872
-0.003944
-0.003071
-0.002251
-0.001484
-0.000770
-0.173098
-0.000004
-0.000667
-0.001384
-0.002152
-0.002974
-0.003850
-0.004780
-0.005764
-0.006803
-0.007897
-0.009045
-0.010247
-0.011504
-0.012814
-0.014178
-0.015595
-0.017065
-0.018587
-0.020160
-0.021785
-0.023460
-0.025184
-0.026957
-0.028777
-0.030645
-0.032558
-0.034516
-0.036517
-0.038562
-0.040648
-0.042774
-0.044940
-0.047144
-0.049384
-0.051659
-0.053969
-0.056312
-0.058687
-0.061092
-0.063525
-0.065986
-0.068474
-0.070987
-0.073523
-0.076082
-0.078661
-0.081261
-0.083879
-0.086514
-0.089165
-0.091830
-0.094509
-0.097200
-0.099901
-0.102612
-0.105332
-0.108059
-0.110792
-0.113530
-0.116273
-0.119018
-0.121764
-0.124512
-0.127259
-0.130005
-0.132749
-0.135491
-0.138228
-0.140961
-0.143687
-0.146408
-0.149120
-0.151826
-0.154522
-0.157210
-0.159886
-0.162553
-0.165208
-0.167851
-0.170481
-0.173083
-0.173069
-0.173054
-0.173039
-0.173024
-0.173008
-0.172992
-0.172977
-0.172960
-0.000088
-0.000069
-0.000054
-0.000040
-0.000028
-0.000019
-0.000012
-0.000007
-0.000004
-0.000668
-0.000670
-0.000674
-0.000681
-0.000690
-0.000702
-0.000715
-0.000731
-0.000749
-0.001383
-0.001385
-0.001389
-0.001396
-0.001405
-0.001416
-0.001430
-0.001445
-0.001463
-0.002151
-0.002154
-0.002158
-0.002164
-0.002173
-0.002184
-0.002197
-0.002213
-0.002230
-0.002974
-0.002975
-0.002979
-0.002985
-0.002993
-0.003004
-0.003017
-0.003033
-0.003051
-0.003849
-0.003850
-0.003854
-0.003860
-0.003868
-0.003879
-0.003891
-0.003907
-0.003924
-0.004779
-0.004780
-0.004783
-0.004789
-0.004797
-0.004808
-0.004820
-0.004835
-0.004852
-0.005763
-0.005764
-0.005767
-0.005772
-0.005780
-0.005791
-0.005802
-0.005817
-0.005834
-0.006802
-0.006802
-0.006805
-0.006810
-0.006818
-0.006827
-0.006840
-0.006854
-0.006871
-0.007895
-0.007895
-0.007898
-0.007902
-0.007910
-0.007919
-0.007931
-0.007945
-0.007962
-0.009043
-0.009043
-0.009045
-0.009050
-0.009057
-0.009066
-0.009077
-0.009091
-0.009107
-0.010244
-0.010244
-0.010246
-0.010251
-0.010257
-0.010266
-0.010278
-0.010291
-0.010307
-0.011501
-0.011500
-0.011502
-0.011506
-0.011512
-0.011521
-0.011531
-0.011545
-0.011560
-0.012811
-0.012810
-0.012811
-0.012815
-0.012821
-0.012830
-0.012840
-0.012853
-0.012868
-0.014174
-0.014173
-0.014174
-0.014178
-0.014183
-0.014191
-0.014202
-0.014214
-0.014229
-0.015591
-0.015590
-0.015591
-0.015594
-0.015599
-0.015607
-0.015617
-0.015629
-0.015644
-0.017061
-0.017059
-0.017059
-0.017062
-0.017067
-0.017074
-0.017084
-0.017096
-0.017111
-0.018583
-0.018580
-0.018581
-0.018583
-0.018588
-0.018595
-0.018604
-0.018616
-0.018629
-0.020156
-0.020153
-0.020154
-0.020156
-0.020160
-0.020166
-0.020176
-0.020187
-0.020200
-0.021780
-0.021778
-0.021777
-0.021779
-0.021783
-0.021790
-0.021798
-0.021808
-0.021822
-0.023455
-0.023452
-0.023451
-0.023453
-0.023456
-0.023463
-0.023470
-0.023481
-0.023493
-0.025179
-0.025176
-0.025174
-0.025176
-0.025179
-0.025184
-0.025192
-0.025202
-0.025214
-0.026951
-0.026948
-0.026947
-0.026948
-0.026950
-0.026956
-0.026962
-0.026972
-0.026984
-0.028772
-0.028768
-0.028766
-0.028767
-0.028769
-0.028774
-0.028781
-0.028789
-0.028801
-0.030639
-0.030635
-0.030633
-0.030633
-0.030635
-0.030639
-0.030646
-0.030655
-0.030665
-0.032552
-0.032548
-0.032545
-0.032545
-0.032547
-0.032551
-0.032557
-0.032565
-0.032575
-0.034510
-0.034505
-0.034502
-0.034501
-0.034503
-0.034507
-0.034512
-0.034520
-0.034530
-0.036511
-0.036506
-0.036503
-0.036502
-0.036503
-0.036507
-0.036511
-0.036519
-0.036528
-0.038555
-0.038550
-0.038547
-0.038545
-0.038546
-0.038549
-0.038553
-0.038560
-0.038569
-0.040641
-0.040636
-0.040632
-0.040630
-0.040631
-0.040633
-0.040637
-0.040643
-0.040651
-0.042767
-0.042761
-0.042757
-0.042755
-0.042756
-0.042758
-0.042761
-0.042767
-0.042774
-0.044932
-0.044926
-0.044922
-0.044920
-0.044920
-0.044921
-0.044924
-0.044929
-0.044937
-0.047135
-0.047129
-0.047125
-0.047122
-0.047121
-0.047122
-0.047125
-0.047130
-0.047136
-0.049376
-0.049369
-0.049364
-0.049361
-0.049360
-0.049361
-0.049362
-0.049367
-0.049373
-0.051651
-0.051644
-0.051639
-0.051636
-0.051635
-0.051635
-0.051637
-0.051640
-0.051646
-0.053961
-0.053954
-0.053949
-0.053945
-0.053943
-0.053942
-0.053943
-0.053947
-0.053952
-0.056303
-0.056296
-0.056290
-0.056286
-0.056284
-0.056283
-0.056285
-0.056287
-0.056291
-0.058677
-0.058670
-0.058664
-0.058659
-0.058657
-0.058656
-0.058656
-0.058658
-0.058662
-0.061082
-0.061074
-0.061068
-0.061063
-0.061060
-0.061058
-0.061058
-0.061061
-0.061063
-0.063515
-0.063507
-0.063501
-0.063496
-0.063493
-0.063490
-0.063490
-0.063491
-0.063494
-0.065977
-0.065968
-0.065961
-0.065956
-0.065952
-0.065950
-0.065949
-0.065949
-0.065952
-0.068464
-0.068456
-0.068448
-0.068443
-0.068438
-0.068436
-0.068434
-0.068435
-0.068436
-0.070976
-0.070968
-0.070961
-0.070954
-0.070950
-0.070947
-0.070946
-0.070944
-0.070946
-0.073513
-0.073504
-0.073497
-0.073490
-0.073485
-0.073481
-0.073479
-0.073478
-0.073479
-0.076071
-0.076062
-0.076054
-0.076047
-0.076042
-0.076038
-0.076036
-0.076034
-0.076034
-0.078651
-0.078641
-0.078633
-0.078626
-0.078620
-0.078616
-0.078613
-0.078611
-0.078610
-0.081250
-0.081241
-0.081232
-0.081225
-0.081218
-0.081214
-0.081210
-0.081208
-0.081206
-0.083868
-0.083858
-0.083849
-0.083841
-0.083835
-0.083830
-0.083826
-0.083823
-0.083821
-0.086503
-0.086493
-0.086484
-0.086475
-0.086469
-0.086463
-0.086459
-0.086455
-0.086453
-0.089153
-0.089143
-0.089134
-0.089125
-0.089118
-0.089113
-0.089107
-0.089103
-0.089100
-0.091819
-0.091808
-0.091799
-0.091790
-0.091783
-0.091776
-0.091770
-0.091767
-0.091763
-0.094497
-0.094486
-0.094476
-0.094467
-0.094460
-0.094453
-0.094447
-0.094442
-0.094439
-0.097187
-0.097177
-0.097166
-0.097158
-0.097149
-0.097142
-0.097135
-0.097131
-0.097126
-0.099890
-0.099878
-0.099868
-0.099858
-0.099850
-0.099842
-0.099835
-0.099829
-0.099825
-0.102600
-0.102589
-0.102578
-0.102569
-0.102560
-0.102552
-0.102544
-0.102538
-0.102533
-0.105320
-0.105308
-0.105297
-0.105287
-0.105278
-0.105270
-0.105263
-0.105256
-0.105250
-0.108046
-0.108035
-0.108024
-0.108013
-0.108004
-0.107995
-0.107987
-0.107980
-0.107974
-0.110780
-0.110767
-0.110756
-0.110746
-0.110736
-0.110727
-0.110718
-0.110711
-0.110704
-0.113517
-0.113505
-0.113494
-0.113483
-0.113473
-0.113464
-0.113455
-0.113447
-0.113440
-0.116260
-0.116247
-0.116236
-0.116225
-0.116214
-0.116205
-0.116195
-0.116187
-0.116179
-0.119004
-0.118992
-0.118980
-0.118969
-0.118958
-0.118948
-0.118938
-0.118930
-0.118922
-0.121751
-0.121738
-0.121726
-0.121715
-0.121704
-0.121694
-0.121684
-0.121674
-0.121666
-0.124499
-0.124486
-0.124473
-0.124462
-0.124451
-0.124440
-0.124430
-0.124420
-0.124410
-0.127246
-0.127233
-0.127221
-0.127209
-0.127197
-0.127186
-0.127175
-0.127165
-0.127156
-0.129992
-0.129979
-0.129967
-0.129954
-0.129943
-0.129931
-0.129920
-0.129910
-0.129899
-0.132736
-0.132723
-0.132711
-0.132698
-0.132686
-0.132674
-0.132662
-0.132652
-0.132641
-0.135477
-0.135464
-0.135451
-0.135438
-0.135426
-0.135414
-0.135403
-0.135391
-0.135380
-0.138215
-0.138201
-0.138187
-0.138175
-0.138163
-0.138150
-0.138138
-0.138126
-0.138115
-0.140947
-0.140933
-0.140920
-0.140907
-0.140894
-0.140881
-0.140869
-0.140857
-0.140845
-0.143674
-0.143660
-0.143646
-0.143633
-0.143620
-0.143607
-0.143595
-0.143582
-0.143570
-0.146394
-0.146380
-0.146366
-0.146353
-0.146340
-0.146327
-0.146314
-0.146301
-0.146288
-0.149107
-0.149093
-0.149079
-0.149066
-0.149052
-0.149039
-0.149026
-0.149012
-0.148999
-0.151812
-0.151798
-0.151784
-0.151770
-0.151757
-0.151743
-0.151729
-0.151716
-0.151703
-0.154508
-0.154494
-0.154480
-0.154466
-0.154452
-0.154439
-0.154425
-0.154411
-0.154397
-0.157195
-0.157181
-0.157167
-0.157153
-0.157139
-0.157124
-0.157111
-0.157096
-0.157082
-0.159873
-0.159858
-0.159844
-0.159829
-0.159815
-0.159801
-0.159786
-0.159772
-0.159757
-0.162538
-0.162524
-0.162510
-0.162496
-0.162481
-0.162466
-0.162451
-0.162437
-0.162422
-0.165193
-0.165179
-0.165164
-0.165150
-0.165135
-0.165120
-0.165105
-0.165090
-0.165075
-0.167836
-0.167822
-0.167807
-0.167792
-0.167777
-0.167762
-0.167747
-0.167732
-0.167716
-0.170467
-0.170452
-0.170437
-0.170422
-0.170407
-0.170392
-0.170376
-0.170361
-0.170344
SCALARS strain_2 float
LOOKUP_TABLE default
0.002072
0.001171
0.001166
0.001168
0.001171
0.001172
0.001172
0.001168
0.001172
0.001172
0.001176
0.001178
0.001176
0.001180
0.001181
0.001184
0.001180
0.001187
0.001189
0.001192
0.001195
0.001197
0.001203
0.001203
0.001208
0.001213
0.001215
0.001226
0.001230
0.001231
0.001240
0.001240
0.001248
0.001256
0.001268
0.001272
0.001278
0.001289
0.001300
0.001306
0.001314
0.001325
0.001334
0.001342
0.001353
0.001370
0.001381
0.001390
0.001404
0.001419
0.001434
0.001446
0.001463
0.001474
0.001491
0.001506
0.001521
0.001542
0.001559
0.001571
0.001593
0.001609
0.001631
0.001646
0.001670
0.001691
0.001711
0.001734
0.001753
0.001779
0.001797
0.001826
0.001847
0.001871
0.001891
0.001919
0.001942
0.001969
0.001994
0.002020
0.002051
0.004167
0.004223
0.004227
0.004227
0.004230
0.004234
0.004237
0.004238
0.004239
0.004244
0.004245
0.004252
0.004248
0.004258
0.004259
0.004257
0.004262
0.004263
0.004262
0.004265
0.004271
0.004271
0.004273
0.004275
0.004274
0.004274
0.004276
0.004282
0.004280
0.004280
0.004282
0.004282
0.004279
0.004283
0.004284
0.004285
0.004286
0.004289
0.004289
0.004285
0.004288
0.004286
0.004285
0.004288
0.004282
0.004284
0.004283
0.004285
0.004277
0.004277
0.004278
0.004276
0.004274
0.004271
0.004271
0.004269
0.004265
0.004264
0.004261
0.004259
0.004256
0.004253
0.004248
0.004246
0.004244
0.004238
0.004231
0.004233
0.004225
0.004223
0.004223
0.004218
0.004213
0.004205
0.004201
0.004197
0.004195
0.004185
0.004179
0.004178
0.004172
0.003867
0.003565
0.003265
0.002968
0.002665
0.002370
0.002065
0.001768
0.001472
0.002288
0.002504
0.002717
0.002934
0.003146
0.003362
0.003578
0.003795
0.004006
0.004008
0.003790
0.003576
0.003356
0.003137
0.002922
0.002701
0.002483
0.002265
0.004006
0.003788
0.003568
0.003348
0.003125
0.002905
0.002684
0.002465
0.002245
0.004008
0.003785
0.003564
0.003339
0.003112
0.002890
0.002666
0.002439
0.002219
0.004005
0.003780
0.003555
0.003322
0.003103
0.002877
0.002653
0.002419
0.002194
0.004007
0.003783
0.003547
0.003318
0.003093
0.002863
0.002633
0.002403
0.002174
0.004010
0.003777
0.003544
0.003313
0.003083
0.002848
0.002615
0.002383
0.002152
0.004007
0.003773
0.003541
0.003304
0.003068
0.002833
0.002599
0.002365
0.002128
0.004008
0.003769
0.003527
0.003294
0.003058
0.002819
0.002583
0.002344
0.002106
0.004008
0.003767
0.003529
0.003283
0.003046
0.002808
0.002562
0.002330
0.002084
0.004010
0.003767
0.003526
0.003280
0.003034
0.002792
0.002551
0.002308
0.002066
0.004006
0.003762
0.003516
0.003271
0.003027
0.002780
0.002534
0.002289
0.002051
0.004008
0.003761
0.003510
0.003262
0.003018
0.002767
0.002521
0.002272
0.002022
0.004008
0.003758
0.003509
0.003258
0.003007
0.002754
0.002506
0.002256
0.002002
0.004005
0.003754
0.003501
0.003249
0.002998
0.002742
0.002491
0.002236
0.001985
0.004005
0.003751
0.003497
0.003242
0.002986
0.002733
0.002480
0.002222
0.001967
0.004007
0.003751
0.003491
0.003233
0.002983
0.002720
0.002463
0.002207
0.001950
0.004006
0.003748
0.003488
0.003229
0.002967
0.002709
0.002449
0.002190
0.001927
0.004007
0.003746
0.003478
0.003224
0.002958
0.002693
0.002435
0.002175
0.001912
0.004006
0.003744
0.003479
0.003213
0.002950
0.002688
0.002422
0.002159
0.001896
0.004006
0.003740
0.003475
0.003210
0.002942
0.002675
0.002412
0.002139
0.001878
0.004001
0.003737
0.003468
0.003201
0.002937
0.002667
0.002396
0.002128
0.001859
0.004005
0.003736
0.003466
0.003192
0.002921
0.002654
0.002387
0.002117
0.001843
0.004002
0.003733
0.003458
0.003189
0.002917
0.002645
0.002373
0.002104
0.001827
0.004004
0.003728
0.003455
0.003186
0.002906
0.002636
0.002363
0.002088
0.001811
0.004002
0.003727
0.003454
0.003179
0.002898
0.002626
0.002348
0.002073
0.001795
0.004005
0.003727
0.003447
0.003169
0.002890
0.002617
0.002338
0.002061
0.001785
0.004002
0.003724
0.003444
0.003165
0.002883
0.002605
0.002328
0.002054
0.001769
0.004003
0.003720
0.003442
0.003162
0.002880
0.002596
0.002315
0.002039
0.001759
0.004002
0.003715
0.003436
0.003154
0.002872
0.002589
0.002306
0.002027
0.001743
0.004000
0.003714
0.003430
0.003153
0.002866
0.002583
0.002298
0.002014
0.001732
0.004003
0.003710
0.003431
0.003146
0.002855
0.002570
0.002284
0.001999
0.001717
0.003998
0.003713
0.003427
0.003138
0.002850
0.002566
0.002280
0.001991
0.001704
0.003998
0.003709
0.003418
0.003134
0.002845
0.002555
0.002268
0.001983
0.001693
0.003997
0.003707
0.003417
0.003130
0.002837
0.002551
0.002262
0.001970
0.001679
0.003997
0.003704
0.003411
0.003124
0.002833
0.002544
0.002251
0.001962
0.001671
0.003994
0.003703
0.003409
0.003122
0.002826
0.002536
0.002242
0.001952
0.001663
0.003991
0.003700
0.003407
0.003115
0.002822
0.002529
0.002231
0.001945
0.001652
0.003993
0.003701
0.003404
0.003110
0.002813
0.002519
0.002229
0.001936
0.001640
0.003992
0.003696
0.003398
0.003104
0.002810
0.002512
0.002220
0.001928
0.001626
0.003992
0.003695
0.003397
0.003103
0.002805
0.002512
0.002213
0.001916
0.001618
0.003989
0.003692
0.003392
0.003099
0.002800
0.002506
0.002204
0.001909
0.001612
0.003988
0.003690
0.003391
0.003094
0.002793
0.002495
0.002200
0.001902
0.001608
0.003986
0.003688
0.003388
0.003091
0.002790
0.002488
0.002193
0.001897
0.001598
0.003979
0.003680
0.003387
0.003085
0.002790
0.002487
0.002185
0.001887
0.001589
0.003982
0.003682
0.003381
0.003083
0.002782
0.002482
0.002183
0.001882
0.001580
0.003982
0.003676
0.003380
0.003079
0.002776
0.002474
0.002176
0.001874
0.001572
0.003977
0.003675
0.003377
0.003075
0.002774
0.002471
0.002169
0.001868
0.001566
0.003977
0.003674
0.003373
0.003069
0.002765
0.002465
0.002164
0.001862
0.001557
0.003976
0.003671
0.003369
0.003067
0.002766
0.002460
0.002158
0.001856
0.001551
0.003972
0.003667
0.003364
0.003062
0.002761
0.002456
0.002150
0.001850
0.001548
0.003973
0.003668
0.003367
0.003060
0.002758
0.002453
0.002147
0.001845
0.001542
0.003967
0.003663
0.003357
0.003059
0.002752
0.002448
0.002144
0.001839
0.001536
0.003967
0.003662
0.003356
0.003051
0.002749
0.002442
0.002141
0.001835
0.001532
0.003962
0.003657
0.003350
0.003048
0.002747
0.002439
0.002133
0.001830
0.001525
0.003962
0.003657
0.003348
0.003049
0.002742
0.002437
0.002132
0.001827
0.001516
0.003959
0.003656
0.003349
0.003042
0.002736
0.002432
0.002128
0.001824
0.001519
0.003959
0.003650
0.003344
0.003039
0.002735
0.002430
0.002122
0.001816
0.001511
0.003953
0.003646
0.003342
0.003035
0.002731
0.002425
0.002122
0.001814
0.001511
0.003952
0.003644
0.003340
0.003031
0.002726
0.002423
0.002115
0.001812
0.001507
0.003946
0.003639
0.003334
0.003031
0.002723
0.002423
0.002114
0.001807
0.001501
0.003945
0.003637
0.003331
0.003029
0.002723
0.002417
0.002111
0.001803
0.001498
0.003942
0.003636
0.003330
0.003026
0.002718
0.002411
0.002104
0.001800
0.001496
0.003935
0.003630
0.003327
0.003018
0.002715
0.002410
0.002104
0.001796
0.001494
0.003933
0.003628
0.003325
0.003018
0.002714
0.002407
0.002105
0.001799
0.001492
0.003931
0.003626
0.003319
0.003014
0.002707
0.002402
0.002096
0.001794
0.001488
0.003928
0.003623
0.003318
0.003014
0.002708
0.002401
0.002097
0.001790
0.001486
0.003922
0.003619
0.003312
0.003008
0.002703
0.002398
0.002094
0.001786
0.001482
0.003921
0.003618
0.003308
0.003007
0.002702
0.002398
0.002089
0.001786
0.001481
0.003916
0.003614
0.003309
0.003003
0.002699
0.002395
0.002086
0.001782
0.001481
0.003909
0.003607
0.003299
0.002999
0.002697
0.002391
0.002086
0.001782
0.001481
0.003905
0.003606
0.003295
0.002995
0.002692
0.002384
0.002083
0.001781
0.001476
0.003901
0.003599
0.003294
0.002990
0.002687
0.002388
0.002082
0.001778
0.001474
0.003898
0.003597
0.003291
0.002992
0.002688
0.002383
0.002077
0.001776
0.001479
0.003890
0.003593
0.003290
0.002987
0.002682
0.002380
0.002078
0.001777
0.001474
0.003890
0.003589
0.003290
0.002988
0.002684
0.002376
0.002078
0.001771
0.001472
0.003888
0.003585
0.003284
0.002979
0.002679
0.002377
0.002076
0.001776
0.001473
0.003883
0.003578
0.003276
0.002979
0.002676
0.002376
0.002070
0.001774
0.001470
0.003875
0.003573
0.003276
0.002974
0.002674
0.002370
0.002072
0.001770
0.001470
0.003875
0.003572
0.003273
0.002969
0.002667
0.002375
0.002070
0.001768
0.001472
SCALARS strain_3 float
LOOKUP_TABLE default
0.000878
0.057819
0.057005
0.056184
0.055358
0.054528
0.053697
0.052860
0.052021
0.051175
0.050326
0.049476
0.048624
0.047766
0.046908
0.046045
0.045185
0.044317
0.043452
0.042584
0.041714
0.040848
0.039977
0.039108
0.038238
0.037372
0.036503
0.035636
0.034773
0.033910
0.033048
0.032189
0.031336
0.030484
0.029636
0.028792
0.027951
0.027120
0.026288
0.025467
0.024647
0.023837
0.023033
0.022237
0.021447
0.020669
0.019894
0.019130
0.018377
0.017632
0.016900
0.016174
0.015465
0.014762
0.014070
0.013391
0.012728
0.012073
0.011434
0.010808
0.010194
0.009594
0.009010
0.008438
0.007884
0.007345
0.006818
0.006310
0.005816
0.005337
0.004875
0.004431
0.004002
0.003588
0.003192
0.002810
0.002446
0.002102
0.001769
0.001456
0.001160
0.056349
-0.000467
-0.000199
0.000088
0.000390
0.000710
0.001048
0.001399
0.001770
0.002158
0.002561
0.002982
0.003418
0.003873
0.004342
0.004827
0.005330
0.005850
0.006382
0.006929
0.007494
0.008073
0.008665
0.009274
0.009895
0.010530
0.011179
0.011843
0.012514
0.013201
0.013900
0.014610
0.015328
0.016063
0.016805
0.017557
0.018317
0.019088
0.019868
0.020655
0.021451
0.022255
0.023064
0.023881
0.024704
0.025539
0.026372
0.027211
0.028054
0.028904
0.029755
0.030613
0.031470
0.032336
0.033200
0.034067
0.034936
0.035806
0.036677
0.037549
0.038421
0.039292
0.040165
0.041036
0.041909
0.042776
0.043646
0.044512
0.045378
0.046243
0.047103
0.047958
0.048814
0.049666
0.050516
0.051362
0.052203
0.053039
0.053875
0.054704
0.055528
0.056497
0.056644
0.056792
0.056940
0.057087
0.057231
0.057379
0.057527
0.057673
0.000740
0.000604
0.000468
0.000333
0.000198
0.000063
-0.000071
-0.000205
-0.000336
-0.000065
0.000068
0.000202
0.000336
0.000472
0.000605
0.000745
0.000882
0.001020
0.000222
0.000356
0.000491
0.000628
0.000762
0.000902
0.001037
0.001177
0.001319
0.000524
0.000660
0.000797
0.000933
0.001073
0.001210
0.001349
0.001488
0.001627
0.000847
0.000981
0.001120
0.001260
0.001396
0.001537
0.001676
0.001818
0.001959
0.001184
0.001323
0.001460
0.001599
0.001739
0.001879
0.002019
0.002163
0.002305
0.001538
0.001678
0.001815
0.001958
0.002096
0.002240
0.002381
0.002524
0.002667
0.001908
0.002049
0.002190
0.002330
0.002473
0.002615
0.002758
0.002901
0.003045
0.002298
0.002438
0.002579
0.002722
0.002864
0.003008
0.003151
0.003297
0.003442
0.002702
0.002845
0.002986
0.003129
0.003273
0.003415
0.003562
0.003708
0.003854
0.003121
0.003268
0.003410
0.003552
0.003697
0.003842
0.003988
0.004133
0.004282
0.003563
0.003706
0.003846
0.003993
0.004139
0.004287
0.004432
0.004578
0.004727
0.004015
0.004160
0.004305
0.004449
0.004595
0.004743
0.004890
0.005037
0.005189
0.004487
0.004632
0.004778
0.004925
0.005069
0.005218
0.005367
0.005514
0.005664
0.004973
0.005120
0.005264
0.005414
0.005560
0.005711
0.005859
0.006008
0.006160
0.005474
0.005623
0.005770
0.005917
0.006067
0.006214
0.006365
0.006517
0.006669
0.005994
0.006140
0.006288
0.006438
0.006587
0.006738
0.006890
0.007039
0.007191
0.006528
0.006677
0.006824
0.006975
0.007125
0.007274
0.007427
0.007578
0.007731
0.007078
0.007228
0.007374
0.007527
0.007677
0.007828
0.007979
0.008133
0.008286
0.007644
0.007791
0.007942
0.008093
0.008244
0.008397
0.008549
0.008701
0.008855
0.008223
0.008373
0.008523
0.008673
0.008827
0.008981
0.009131
0.009285
0.009444
0.008815
0.008966
0.009118
0.009271
0.009423
0.009575
0.009730
0.009885
0.010039
0.009426
0.009575
0.009727
0.009880
0.010034
0.010186
0.010339
0.010496
0.010651
0.010045
0.010199
0.010349
0.010503
0.010656
0.010811
0.010966
0.011122
0.011276
0.010682
0.010834
0.010988
0.011140
0.011293
0.011450
0.011603
0.011759
0.011916
0.011331
0.011484
0.011636
0.011789
0.011945
0.012101
0.012257
0.012413
0.012569
0.011994
0.012145
0.012299
0.012455
0.012608
0.012766
0.012921
0.013076
0.013235
0.012668
0.012821
0.012975
0.013130
0.013284
0.013440
0.013598
0.013754
0.013913
0.013354
0.013508
0.013661
0.013816
0.013971
0.014128
0.014287
0.014444
0.014602
0.014054
0.014206
0.014363
0.014515
0.014674
0.014830
0.014989
0.015145
0.015303
0.014762
0.014918
0.015073
0.015229
0.015385
0.015541
0.015700
0.015857
0.016016
0.015484
0.015639
0.015796
0.015951
0.016107
0.016265
0.016423
0.016580
0.016739
0.016216
0.016372
0.016526
0.016685
0.016839
0.016998
0.017156
0.017313
0.017475
0.016959
0.017116
0.017270
0.017428
0.017586
0.017742
0.017902
0.018058
0.018218
0.017709
0.017867
0.018024
0.018178
0.018339
0.018495
0.018653
0.018813
0.018972
0.018472
0.018629
0.018786
0.018945
0.019101
0.019258
0.019417
0.019576
0.019734
0.019243
0.019399
0.019556
0.019712
0.019871
0.020030
0.020190
0.020348
0.020509
0.020023
0.020179
0.020337
0.020495
0.020651
0.020811
0.020969
0.021127
0.021290
0.020811
0.020971
0.021124
0.021281
0.021441
0.021599
0.021759
0.021917
0.022076
0.021608
0.021763
0.021922
0.022079
0.022237
0.022394
0.022555
0.022714
0.022873
0.022410
0.022569
0.022725
0.022884
0.023041
0.023199
0.023358
0.023517
0.023677
0.023221
0.023379
0.023535
0.023695
0.023853
0.024011
0.024170
0.024330
0.024491
0.024039
0.024198
0.024352
0.024510
0.024670
0.024828
0.024987
0.025145
0.025306
0.024863
0.025018
0.025178
0.025334
0.025493
0.025651
0.025810
0.025967
0.026129
0.025691
0.025847
0.026006
0.026165
0.026322
0.026483
0.026638
0.026800
0.026958
0.026527
0.026683
0.026841
0.027000
0.027156
0.027317
0.027475
0.027632
0.027792
0.027367
0.027524
0.027680
0.027839
0.027998
0.028156
0.028314
0.028473
0.028633
0.028211
0.028368
0.028526
0.028682
0.028840
0.029000
0.029158
0.029317
0.029476
0.029060
0.029217
0.029374
0.029532
0.029689
0.029847
0.030007
0.030164
0.030323
0.029913
0.030070
0.030225
0.030384
0.030542
0.030701
0.030860
0.031017
0.031177
0.030769
0.030926
0.031083
0.031241
0.031400
0.031553
0.031714
0.031872
0.032030
0.031629
0.031784
0.031941
0.032101
0.032259
0.032414
0.032572
0.032732
0.032889
0.032490
0.032647
0.032805
0.032962
0.033119
0.033276
0.033432
0.033590
0.033749
0.033356
0.033512
0.033666
0.033827
0.033983
0.034141
0.034299
0.034455
0.034615
0.034224
0.034381
0.034536
0.034693
0.034850
0.035005
0.035163
0.035319
0.035477
0.035091
0.035246
0.035404
0.035560
0.035717
0.035875
0.036030
0.036189
0.036345
0.035960
0.036117
0.036275
0.036430
0.036585
0.036743
0.036898
0.037057
0.037213
0.036833
0.036987
0.037143
0.037299
0.037455
0.037612
0.037767
0.037926
0.038081
0.037704
0.037859
0.038015
0.038171
0.038328
0.038483
0.038638
0.038795
0.038952
0.038576
0.038732
0.038885
0.039043
0.039197
0.039353
0.039509
0.039666
0.039821
0.039449
0.039605
0.039756
0.039915
0.040068
0.040225
0.040378
0.040536
0.040691
0.040320
0.040476
0.040630
0.040782
0.040940
0.041094
0.041250
0.041403
0.041560
0.041193
0.041346
0.041501
0.041655
0.041811
0.041965
0.042120
0.042274
0.042431
0.042062
0.042217
0.042371
0.042525
0.042679
0.042833
0.042988
0.043143
0.043297
0.042932
0.043086
0.043239
0.043394
0.043548
0.043703
0.043854
0.044009
0.044165
0.043801
0.043955
0.044108
0.044262
0.044416
0.044567
0.044722
0.044876
0.045029
0.044670
0.044821
0.044974
0.045128
0.045279
0.045430
0.045588
0.045740
0.045893
0.045531
0.045683
0.045838
0.045990
0.046143
0.046297
0.046447
0.046600
0.046755
0.046393
0.046546
0.046700
0.046851
0.047003
0.047157
0.047310
0.047460
0.047614
0.047254
0.047408
0.047559
0.047710
0.047862
0.048013
0.048166
0.048318
0.048472
0.048111
0.048262
0.048415
0.048566
0.048718
0.048870
0.049021
0.049172
0.049324
0.048965
0.049115
0.049269
0.049420
0.049570
0.049722
0.049873
0.050025
0.050177
0.049817
0.049969
0.050119
0.050269
0.050420
0.050571
0.050719
0.050874
0.051026
0.050666
0.050816
0.050966
0.051118
0.051269
0.051417
0.051569
0.051717
0.051870
0.051510
0.051662
0.051812
0.051959
0.052112
0.052263
0.052410
0.052561
0.052711
0.052353
0.052501
0.052654
0.052799
0.052951
0.053098
0.053249
0.053397
0.053549
0.053188
0.053338
0.053486
0.053637
0.053785
0.053935
0.054084
0.054233
0.054382
0.054023
0.054171
0.054318
0.054469
0.054617
0.054767
0.054915
0.055063
0.055210
0.054854
0.055000
0.055147
0.055295
0.055443
0.055592
0.055741
0.055886
0.056035
0.055676
0.055822
0.055973
0.056120
0.056268
0.056417
0.056562
0.056708
0.056858
SCALARS stress_1 float
LOOKUP_TABLE default
1321.130411
-1298665.466418
-1279006.934934
-1259254.840951
-1239406.418842
-1219470.965483
-1199446.543374
-1179346.918140
-1159166.824157
-1138915.511423
-1118602.878376
-1098227.081268
-1077801.081034
-1057321.682363
-1036802.791504
-1016248.650645
-995664.478536
-975062.540802
-954435.439006
-933802.540335
-913174.735413
-892543.899242
-871931.852133
-851342.805025
-830784.757916
-810262.898307
-789788.444948
-769362.632214
-749003.178856
-728722.022372
-708518.498700
-688404.803154
-668389.131045
-648485.927687
-628700.911828
-609038.958469
-589521.348860
-570159.317376
-550946.551518
-531899.379409
-513031.308863
-494353.394566
-475874.894332
-457599.269099
-439543.393865
-421712.245194
-404118.760585
-386775.486913
-369686.221055
-352864.173946
-336322.095587
-320060.228166
-304088.391994
-288424.438636
-273073.110277
-258043.063168
-243335.187934
-228967.047075
-214942.601529
-201269.296608
-187950.421374
-175001.483640
-162423.999031
-150218.069110
-138399.092314
-126960.920205
-115919.490284
-105270.771300
-95024.161691
-85176.731770
-75731.450286
-66695.793802
-58066.738881
-49846.277710
-42037.527476
-34631.831930
-27630.777008
-21042.136150
-14851.479666
-9066.104432
-3679.010448
-1296739.919651
4676.536553
-307.408994
-5681.596727
-11459.800086
-17638.347195
-24217.847429
-31214.808600
-38610.379146
-46418.926255
-54634.528051
-63260.793910
-72298.833206
-81741.716253
-91589.130549
-101843.912033
-112497.256017
-123549.553125
-134988.475234
-146818.162968
-159031.710077
-171623.632186
-184585.210544
-197912.007653
-211597.937575
-225640.445621
-240023.445855
-254745.141401
-269792.930697
-285170.259056
-300849.095227
-316833.220461
-333116.056632
-349685.369366
-366525.807100
-383639.088584
-401004.284130
-418622.518739
-436474.604910
-454554.659832
-472855.792878
-491363.832174
-510062.496470
-528964.324829
-548032.293813
-567271.184672
-586669.505218
-606212.349202
-625896.763498
-645715.044982
-665641.849903
-685686.725137
-705827.155058
-726055.764667
-746371.061776
-766757.702635
-787206.390369
-807712.460915
-828260.211149
-848849.047320
-869466.680366
-890109.266538
-910762.313646
-931421.477943
-952076.814114
-972726.853410
-993361.580207
-1013973.892940
-1034550.150987
-1055095.362158
-1075602.581142
-1096055.972001
-1116457.675359
-1136797.027156
-1157072.472702
-1177278.004186
-1197406.441920
-1217452.207778
-1237410.747075
-1257281.653558
-1277063.599105
-1296935.532921
-1297137.208692
-1297334.228212
-1297527.396170
-1297720.978191
-1297912.857086
-1298103.618794
-1298290.474252
-1298478.540648
1732.032744
2124.192889
2503.704597
2863.989743
3214.649888
3535.966283
3848.806116
4142.395949
4413.704532
-568.319139
-844.479284
-1140.889430
-1452.768325
-1782.248783
-2126.338616
-2487.592512
-2866.283907
-3261.553428
-5946.889685
-6224.182643
-6524.092789
-6829.463872
-7164.725580
-7508.963850
-7875.233371
-8256.065391
-8651.678661
-11720.085232
-12003.471940
-12301.468022
-12610.643793
-12944.428938
-13292.089084
-13654.905479
-14039.964062
-14438.702333
-17901.632340
-18183.073736
-18477.304194
-18790.612777
-19127.163547
-19477.745568
-19838.874463
-20224.597109
-20628.491629
-24484.241949
-24765.730220
-25062.320053
-25377.769261
-25709.999719
-26063.300489
-26425.968447
-26812.308280
-27214.069988
-31472.710933
-31759.761703
-32057.234349
-32372.433557
-32705.359327
-33051.558535
-33420.124931
-33807.300701
-34212.078034
-38870.664292
-39156.840062
-39452.187708
-39769.379103
-40103.476749
-40459.636894
-40825.656415
-41207.910310
-41616.703268
-46678.586401
-46966.871546
-47264.242629
-47580.238712
-47918.351982
-48264.184003
-48636.922273
-49021.098044
-49424.789439
-54899.328822
-55183.418655
-55482.586613
-55801.942071
-56129.719404
-56489.926424
-56855.516257
-57241.973278
-57646.383423
-63529.930618
-63817.184514
-64111.891534
-64427.145430
-64760.086825
-65116.168845
-65484.703991
-65870.614136
-66274.711782
-72561.962102
-72848.231622
-73147.657393
-73465.630038
-73801.688621
-74152.794079
-74523.188600
-74905.614370
-75308.438578
-82010.759211
-82288.966231
-82592.595127
-82907.505272
-83241.462293
-83594.825563
-83961.798209
-84350.169291
-84758.571624
-91857.446945
-92139.138340
-92438.228173
-92756.380506
-93094.900026
-93443.653922
-93816.376567
-94197.349213
-94605.314046
-102109.783116
-102395.482324
-102694.626844
-103008.615115
-103346.587760
-103696.497906
-104062.384614
-104451.943197
-104853.743967
-112761.197412
-113044.724745
-113347.048953
-113660.857536
-113995.986431
-114348.670014
-114711.861410
-115097.880930
-115503.166076
-123814.057021
-124095.920291
-124396.119499
-124706.615582
-125045.385103
-125391.654623
-125766.767894
-126147.521789
-126547.439747
-135254.541630
-135535.154900
-135831.002546
-136152.100191
-136485.072837
-136830.709545
-137201.799377
-137582.459523
-137982.354043
-147082.807489
-147364.631696
-147664.518404
-147981.912925
-148308.807445
-148659.006653
-149023.908986
-149405.920694
-149805.526152
-159293.971785
-159579.983493
-159879.792076
-160194.038159
-160523.963929
-160871.405325
-161236.002970
-161610.311553
-162009.752949
-171885.651706
-172165.171227
-172462.198560
-172781.374330
-173108.073538
-173450.421183
-173816.096954
-174190.921162
-174590.221932
-184847.503502
-185131.179273
-185427.761293
-185737.866751
-186068.120647
-186415.233917
-186775.003438
-187152.569833
-187542.870604
-198175.386549
-198456.335757
-198749.909965
-199064.335735
-199394.105256
-199730.445089
-200095.003671
-200473.757567
-200862.183337
-211866.652408
-212142.859428
-212432.753948
-212745.445344
-213076.214864
-213419.718760
-213777.621093
-214148.210926
-214538.449196
-225900.512016
-226177.984662
-226473.441682
-226786.258078
-227108.027598
-227447.711181
-227805.105702
-228178.906472
-228562.566618
-240285.606000
-240561.516146
-240858.152854
-241163.656749
-241483.230957
-241825.992665
-242178.629373
-242551.992643
-242936.668414
-255007.059359
-255281.797629
-255576.559337
-255881.953858
-256205.168691
-256541.031961
-256894.270232
-257260.211627
-257643.762398
-270053.583030
-270329.938488
-270622.590821
-270927.243154
-271246.965800
-271583.375945
-271937.770465
-272296.524361
-272677.442319
-285422.552014
-285702.259034
-285991.137930
-286293.212138
-286613.747283
-286947.048054
-287293.817574
-287657.563657
-288030.036303
-301106.388185
-301381.954581
-301667.270976
-301973.118622
-302286.020955
-302618.321725
-302964.442808
-303328.806079
-303704.099036
-317093.052482
-317366.079815
-317654.911835
-317955.103230
-318270.146188
-318599.868834
-318947.075854
-319300.407875
-319667.497708
-333375.279278
-333648.415986
-333930.615194
-334236.415964
-334547.318297
-334878.892505
-335215.037026
-335569.033109
-335935.958879
-349944.802949
-350213.299032
-350499.209178
-350793.564636
-351106.341969
-351431.673989
-351768.724759
-352118.713030
-352492.420050
-366783.029745
-367056.564891
-367336.475036
-367633.213307
-367945.123452
-368264.908598
-368605.178118
-368949.838264
-369311.490597
-383890.654979
-384165.291687
-384442.444020
-384733.518228
-385046.201811
-385369.822894
-385697.350227
-386040.744748
-386396.404893
-401264.788026
-401528.159109
-401809.584879
-402098.463774
-402406.623920
-402724.979378
-403053.139523
-403397.666856
-403753.522314
-418875.421072
-419141.276530
-419418.960113
-419711.104633
-420012.061654
-420329.159299
-420654.264757
-420996.760840
-421347.077236
-436725.772868
-436993.581451
-437271.116597
-437553.917367
-437859.061888
-438172.948595
-438495.944678
-438830.932949
-439179.741532
-454808.890289
-455073.519185
-455344.679330
-455632.659788
-455933.515246
-456242.237892
-456563.069912
-456894.761308
-457243.765203
-473108.429586
-473368.581919
-473642.679564
-473926.183460
-474223.554543
-474529.292813
-474850.109209
-475180.527166
-475519.968562
-491612.586070
-491874.566528
-492144.992298
-492427.293068
-492721.336026
-493022.425859
-493341.867255
-493668.668025
-494003.890671
-510318.422241
-510576.801136
-510844.992532
-511125.949552
-511414.711260
-511719.051093
-512028.961239
-512354.965134
-512692.437780
-529208.984975
-529464.801370
-529732.211516
-530012.582599
-530303.875557
-530600.082577
-530905.922410
-531229.387243
-531560.313013
-548276.578958
-548532.926604
-548803.367999
-549075.200020
-549362.641415
-549656.989061
-549966.532019
-550281.731227
-550606.375747
-567519.282317
-567768.997150
-568034.235421
-568309.497129
-568595.407274
-568887.239295
-569190.383815
-569498.778335
-569824.086918
-586916.470051
-587167.630197
-587429.227842
-587701.122362
-587984.048133
-588273.989528
-588571.594986
-588881.450444
-589199.938715
-606455.259347
-606706.755430
-606968.259326
-607239.997596
-607520.556179
-607805.888200
-608096.837408
-608409.903803
-608720.626449
-626137.861144
-626388.294727
-626646.931435
-626915.286893
-627194.150163
-627475.505621
-627769.134516
-628071.271224
-628380.111057
-645949.119190
-646199.177773
-646456.962918
-646718.216814
-646992.595709
-647277.771480
-647568.158188
-647863.998021
-648173.025354
-665879.845986
-666128.990507
-666383.978777
-666647.685798
-666915.885006
-667195.545151
-667482.838109
-667775.826379
-668081.580275
-685920.119658
-686169.834491
-686417.518073
-686678.670406
-686948.408677
-687226.225072
-687507.916468
-687795.123488
-688093.486759
-706061.744891
-706305.530037
-706555.432370
-706814.615953
-707080.565161
-707355.412806
-707632.166702
-707918.850285
-708215.416680
-726294.956063
-726533.389646
-726783.416979
-727038.061499
-727301.721644
-727568.639602
-727845.565373
-728133.889581
-728422.424726
-746606.151609
-746846.139879
-747092.190650
-747350.163295
-747610.893753
-747876.077336
-748148.823419
-748428.467940
-748711.534335
-766991.034655
-767227.288551
-767473.636196
-767724.804154
-767980.237737
-768245.132258
-768517.940840
-768791.108798
-769074.518944
-787441.105202
-787672.468472
-787920.097367
-788168.890325
-788423.073908
-788681.913741
-788947.519199
-789222.593407
-789503.394178
-807939.121060
-808176.765581
-808417.613226
-808663.593684
-808915.550705
-809178.117100
-809439.902246
-809707.703016
-809984.394412
-828489.988482
-828718.633002
-828964.597835
-829206.781418
-829457.191563
-829714.937646
-829972.480604
-830237.445437
-830509.035270
-849076.098090
-849308.820736
-849547.980881
-849789.000402
-850038.605860
-850290.883193
-850544.121463
-850809.336296
-851070.426129
-869695.160824
-869922.953782
-870160.817053
-870402.305323
-870645.942031
-870895.320927
-871148.332634
-871402.469342
-871664.965425
-890331.739183
-890563.641516
-890796.387599
-891033.094619
-891272.379765
-891517.368035
-891771.590681
-892024.407076
-892285.192222
-910982.614417
-911211.915187
-911445.934708
-911682.946416
-911919.536249
-912161.133894
-912409.059665
-912658.141685
-912918.739331
-931644.958401
-931867.712296
-932100.161504
-932333.313837
-932570.106795
-932811.220065
-933053.138023
-933300.626294
-933549.888002
-952298.716447
-952525.993780
-952755.013300
-952986.735946
-953221.099216
-953451.649987
-953695.450757
-953939.798403
-954183.646048
-972950.896368
-973171.619014
-973396.888534
-973626.900242
-973858.630700
-974090.650221
-974328.810366
-974570.345511
-974814.521282
-993577.865352
-993802.158310
-994029.873143
-994253.337976
-994482.810621
-994712.408267
-994947.310600
-995183.634808
-995420.099641
-1014187.529648
-1014411.463231
-1014631.389002
-1014860.314772
-1015080.396793
-1015313.939751
-1015541.607709
-1015776.127229
-1016011.459249
-1034769.350195
-1034992.643153
-1035209.545486
-1035429.143131
-1035652.631401
-1035880.939984
-1036107.631380
-1036337.838400
-1036571.959483
-1055315.819178
-1055532.807449
-1055747.123844
-1055968.190240
-1056190.756635
-1056411.463656
-1056638.405051
-1056868.346447
-1057093.397217
-1075816.350662
-1076031.792058
-1076245.795953
-1076468.237349
-1076684.678744
-1076904.432639
-1077126.452160
-1077349.784180
-1077574.663076
-1096268.632146
-1096485.339166
-1096697.905562
-1096916.214145
-1097129.944603
-1097348.495373
-1097565.811769
-1097785.378164
-1098005.124247
-1116667.632380
-1116877.933150
-1117093.983921
-1117303.862816
-1117522.483899
-1117733.823732
-1117953.140128
-1118164.839336
-1118385.147918
-1137006.406051
-1137217.761509
-1137429.624780
-1137637.863050
-1137852.835695
-1138063.214591
-1138277.679424
-1138494.081757
-1138704.507527
-1157280.742222
-1157492.191430
-1157699.757826
-1157908.339846
-1158117.046867
-1158325.324200
-1158536.820283
-1158744.738241
-1158959.210886
-1177483.586206
-1177690.590102
-1177897.937747
-1178105.629143
-1178314.711163
-1178522.105683
-1178724.359579
-1178932.761912
-1179136.836120
-1197609.328627
-1197813.871585
-1198023.039543
-1198227.473126
-1198434.508272
-1198634.371542
-1198839.578563
-1199044.301208
-1199243.305104
-1217655.961674
-1217860.293694
-1218063.422590
-1218265.832735
-1218465.813193
-1218668.746776
-1218870.328797
-1219069.504567
-1219272.305337
-1237615.290033
-1237819.887678
-1238017.774386
-1238223.161094
-1238423.164989
-1238620.942322
-1238816.891530
-1239017.223551
-1239212.586821
-1257486.555891
-1257686.372287
-1257891.969932
-1258089.356640
-1258281.633973
-1258479.840994
-1258672.274577
-1258869.958160
-1259066.837055
-1277261.431125
-1277462.841271
-1277662.813916
-1277856.747499
-1278051.946707
-1278243.638102
-1278440.923248
-1278632.958393
-1278819.149789
SCALARS stress_2 float
LOOKUP_TABLE default
15914.268278
-200490.352220
-197309.294464
-194152.236707
-190935.178951
-187704.121195
-184497.063439
-181258.005682
-177956.947926
-174707.890170
-171398.832414
-168089.774658
-164804.716901
-161469.659145
-158164.601389
-154843.543633
-151500.485876
-148153.428120
-144808.370364
-141427.312608
-138108.254851
-134771.197095
-131396.139339
-128053.081583
-124696.023827
-121362.966070
-118031.908314
-114680.850558
-111375.792802
-108058.735045
-104755.677289
-101476.619533
-98177.561777
-94946.504021
-91691.446264
-88442.388508
-85227.330752
-82058.272996
-78897.215239
-75774.157483
-72635.099727
-69568.041971
-66520.984214
-63515.926458
-60482.868702
-57515.810946
-54602.753190
-51745.695433
-48880.637677
-46063.579921
-43278.522165
-40579.464408
-37884.406652
-35249.348896
-32672.291140
-30115.233384
-27622.175627
-25181.117871
-22758.060115
-20469.002359
-18169.944602
-15950.886846
-13771.829090
-11662.771334
-9603.713577
-7616.655821
-5677.598065
-3826.540309
-2007.482553
-218.424796
1460.632960
3089.690716
4636.748472
6161.806229
7584.863985
8959.921741
10264.979497
11538.037253
12713.095010
13832.152766
14901.210522
-178266.312863
31956.307635
31199.249879
30368.192123
29445.134367
28456.076610
27433.018854
26307.961098
25126.903342
23909.845586
22590.787829
21203.730073
19814.672317
18281.614561
16704.556804
15069.499048
13378.441292
11619.383536
9780.325779
7905.268023
5944.210267
3915.152511
1818.094755
-292.963002
-2472.020758
-4757.078514
-7072.136270
-9439.194027
-11836.251783
-14297.309539
-16844.367295
-19397.425051
-22018.482808
-24677.540564
-27384.598320
-30141.656076
-32962.713833
-35789.771589
-38648.829345
-41577.887101
-44528.944857
-47528.002614
-50523.060370
-53564.118126
-56659.175882
-59748.233639
-62889.291395
-66086.349151
-69251.406907
-72440.464664
-75673.522420
-78886.580176
-82185.637932
-85450.695688
-88749.753445
-92032.811201
-95373.868957
-98644.926713
-102015.984470
-105339.042226
-108710.099982
-112057.157738
-115404.215494
-118741.273251
-122104.331007
-125459.388763
-128824.446519
-132167.504276
-135506.562032
-138869.619788
-142206.677544
-145551.735301
-148840.793057
-152163.850813
-155474.908569
-158771.966325
-162039.024082
-165306.081838
-168575.139594
-171806.197350
-175049.255107
-180505.316798
-182726.320734
-184943.324670
-187158.328606
-189361.332541
-191600.336477
-193813.340413
-196052.344348
-198291.348284
17501.272214
19124.276150
20779.280085
22338.284021
23975.287957
25588.291893
27215.295828
28790.299764
30391.303700
29576.245943
27973.242008
26338.238072
24715.234136
23090.230201
21467.226265
19838.222329
18183.218394
16510.214458
28725.188187
27094.184251
25435.180316
23808.176380
22141.172444
20502.168509
18819.164573
17150.160637
15505.156702
27776.130431
26131.126495
24478.122560
22763.118624
21132.114688
19441.110752
17752.106817
16073.102881
14394.098945
26787.072675
25092.068739
23437.064803
21724.060868
20043.056932
18328.052996
16649.049061
14920.045125
13243.041189
25736.014919
24053.010983
22318.007047
20609.003111
18903.999176
17164.995240
15437.991304
13736.987369
12025.983433
24610.957162
22865.953227
21160.949291
19431.945355
17686.941419
15957.937484
14210.933548
12477.929612
10710.925677
23409.899406
21658.895470
19929.891535
18170.887599
16397.883663
14648.879728
12873.875792
11138.871856
9337.867920
22140.841650
20375.837714
18648.833778
16831.829843
15078.825907
13291.821971
11482.818036
9725.814100
7940.810164
20823.783894
19032.779958
17259.776022
15444.772087
13651.768151
11850.764215
10059.760279
8250.756344
6469.752408
19426.726137
17633.722202
15840.718266
14027.714330
12192.710395
10393.706459
8562.702523
6739.698587
4898.694652
17951.668381
16140.664445
14323.660510
12514.656574
10675.652638
8818.648703
6961.644767
5168.640831
3289.636896
16448.610625
14591.606689
12766.602754
10905.598818
9072.594882
7207.590946
5334.587011
3499.583075
1614.579139
14845.552869
13006.548933
11135.544997
9260.541062
7405.537126
5530.533190
3649.529255
1772.525319
-98.478617
13198.495112
11325.491177
9434.487241
7581.483305
5664.479370
3761.475434
1876.471498
-0.532437
-1883.536373
11483.437356
9594.433421
7695.429485
5812.425549
3879.421613
1982.417678
89.413742
-1843.590194
-3750.594129
9712.379600
7787.375664
5896.371729
3963.367793
2010.363857
127.359922
-1809.644014
-3740.647950
-5675.651886
7855.321844
5926.317908
4021.313972
2052.310037
113.306101
-1797.697835
-3770.701770
-5705.705706
-7662.709642
5952.264088
4003.260152
2032.256216
99.252280
-1859.751655
-3820.755591
-5765.759527
-7728.763462
-9689.767398
3979.206331
2024.202396
55.198460
-1909.805476
-3880.809411
-5851.813347
-7824.817283
-9801.821219
-11760.825154
1944.148575
-42.855361
-2003.859296
-3980.863232
-5963.867168
-7934.871103
-9959.875039
-11952.878975
-13955.882910
-142.909181
-2131.913117
-4146.917053
-6103.920988
-8150.924924
-10109.928860
-12144.932795
-14165.936731
-16178.940667
-2293.966937
-4310.970873
-6301.974809
-8328.978744
-10325.982680
-12336.986616
-14387.990552
-16376.994487
-18429.998423
-4483.024694
-6528.028629
-8537.032565
-10568.036501
-12601.040436
-14622.044372
-16677.048308
-18720.052243
-20727.056179
-6776.082450
-8799.086385
-10822.090321
-12879.094257
-14914.098193
-16955.102128
-19004.106064
-21079.110000
-23136.113935
-9101.140206
-11138.144142
-13205.148077
-15244.152013
-17305.155949
-19372.159885
-21393.163820
-23502.167756
-25549.171692
-11460.197962
-13519.201898
-15604.205834
-17661.209769
-19696.213705
-21795.217641
-23872.221576
-25953.225512
-28016.229448
-13893.255718
-15976.259654
-18045.263590
-20128.267526
-22203.271461
-24294.275397
-26387.279333
-28466.283268
-30583.287204
-16372.313475
-18477.317410
-20542.321346
-22625.325282
-24736.329217
-26825.333153
-28924.337089
-31035.341025
-33126.344960
-18905.371231
-21016.375167
-23101.379102
-25202.383038
-27331.386974
-29428.390909
-31539.394845
-33650.398781
-35763.402717
-21484.428987
-23617.432923
-25712.436859
-27819.440794
-29946.444730
-32051.448666
-34186.452601
-36309.456537
-38438.460473
-24163.486743
-26244.490679
-28361.494615
-30498.498550
-32641.502486
-34752.506422
-36871.510358
-39010.514293
-41165.518229
-26808.544500
-28937.548435
-31064.552371
-33195.556307
-35338.560242
-37507.564178
-39602.568114
-41773.572049
-43914.575985
-29515.602256
-31680.606192
-33801.610127
-35946.614063
-38093.617999
-40266.621934
-42407.625870
-44548.629806
-46719.633741
-32284.660012
-34447.663948
-36600.667883
-38739.671819
-40890.675755
-43043.679691
-45226.683626
-47387.687562
-49566.691498
-35083.717768
-37240.721704
-39425.725640
-41594.729575
-43759.733511
-45910.737447
-48123.741382
-50256.745318
-52423.749254
-37932.775525
-40097.779460
-42300.783396
-44471.787332
-46632.791267
-48833.795203
-50978.799139
-53159.803074
-55338.807010
-40821.833281
-42990.837216
-45179.841152
-47368.845088
-49535.849024
-51740.852959
-53933.856895
-56104.860831
-58289.864766
-43752.891037
-45933.894973
-48150.898908
-50311.902844
-52492.906780
-54701.910715
-56890.914651
-59085.918587
-61286.922523
-46735.948793
-48904.952729
-51105.956665
-53290.960600
-55489.964536
-57694.968472
-59895.972407
-62094.976343
-64313.980279
-49697.006549
-51922.010485
-54097.014421
-56306.018357
-58531.022292
-60724.026228
-62923.030164
-65144.034099
-67355.038035
-52734.064306
-54943.068241
-57142.072177
-59361.076113
-61558.080048
-63785.083984
-66006.087920
-68197.091856
-70458.095791
-55791.122062
-57996.125998
-60205.129933
-62430.133869
-64635.137805
-66852.141740
-69077.145676
-71302.149612
-73557.153547
-58870.179818
-61081.183754
-63296.187690
-65537.191625
-67762.195561
-69983.199497
-72220.203432
-74453.207368
-76680.211304
-61989.237574
-64212.241510
-66439.245446
-68668.249381
-70895.253317
-73126.257253
-75359.261189
-77594.265124
-79859.269060
-65112.295331
-67339.299266
-69602.303202
-71809.307138
-74056.311073
-76315.315009
-78504.318945
-80767.322880
-83008.326816
-68279.353087
-70540.357022
-72749.360958
-74990.364894
-77227.368830
-79474.372765
-81705.376701
-83958.380637
-86211.384572
-71472.410843
-73731.414779
-75956.418714
-78209.422650
-80446.426586
-82695.430522
-84942.434457
-87195.438393
-89408.442329
-74665.468599
-76920.472535
-79189.476471
-81416.480406
-83685.484342
-85916.488278
-88167.492213
-90424.496149
-92691.500085
-77902.526355
-80159.530291
-82398.534227
-84665.538163
-86904.542098
-89157.546034
-91422.549970
-93671.553905
-95904.557841
-81163.584112
-83416.588047
-85689.591983
-87932.595919
-90185.599854
-92442.603790
-94685.607726
-96950.611662
-99187.615597
-84416.641868
-86687.645804
-88934.649739
-91187.653675
-93448.657611
-95713.661546
-97972.665482
-100225.669418
-102492.673354
-87705.699624
-89964.703560
-92225.707496
-94492.711431
-96739.715367
-98962.719303
-101285.723238
-103542.727174
-105787.731110
-90992.757380
-93249.761316
-95510.765252
-97787.769187
-100046.773123
-102287.777059
-104570.780995
-106835.784930
-109110.788866
-94307.815137
-96538.819072
-98817.823008
-101072.826944
-103337.830879
-105610.834815
-107899.838751
-110154.842686
-112415.846622
-97616.872893
-99897.876829
-102154.880764
-104423.884700
-106646.888636
-108929.892571
-111202.896507
-113489.900443
-115748.904378
-100949.930649
-103190.934585
-105447.938520
-107724.942456
-110019.946392
-112288.950328
-114561.954263
-116804.958199
-119073.962135
-104244.988405
-106553.992341
-108812.996277
-111064.000212
-113349.004148
-115618.008084
-117859.012019
-120156.015955
-122439.019891
-107598.046162
-109877.050097
-112144.054033
-114393.057969
-116694.061904
-118977.065840
-121230.069776
-123479.073711
-125778.077647
-110989.103918
-113230.107853
-115483.111789
-117766.115725
-120019.119661
-122298.123596
-124561.127532
-126848.131468
-129131.135403
-114284.161674
-116573.165610
-118834.169545
-121129.173481
-123378.177417
-125663.181352
-127942.185288
-130209.189224
-132476.193160
-117673.219430
-119942.223366
-122185.227302
-124484.231237
-126733.235173
-129018.239109
-131293.243044
-133550.246980
-135845.250916
-121032.277186
-123305.281122
-125558.285058
-127813.288994
-130094.292929
-132349.296865
-134642.300801
-136903.304736
-139170.308672
-124377.334943
-126646.338878
-128901.342814
-131168.346750
-133467.350685
-135730.354621
-137995.358557
-140284.362493
-142541.366428
-127694.392699
-129981.396635
-132266.400570
-134525.404506
-136804.408442
-139071.412377
-141354.416313
-143609.420249
-145858.424184
-131073.450455
-133342.454391
-135597.458326
-137872.462262
-140151.466198
-142420.470134
-144695.474069
-146958.478005
-149193.481941
-134460.508211
-136699.512147
-138944.516083
-141227.520018
-143484.523954
-145771.527890
-148014.531826
-150283.535761
-152548.539697
-137773.565968
-140052.569903
-142313.573839
-144554.577775
-146857.581710
-149094.585646
-151361.589582
-153634.593517
-155885.597453
-141114.623724
-143391.627659
-145648.631595
-147913.635531
-150166.639467
-152419.643402
-154706.647338
-156971.651274
-159228.655209
-144443.681480
-146704.685416
-148975.689351
-151238.693287
-153469.697223
-155752.701158
-158019.705094
-160294.709030
-162527.712966
-147772.739236
-150027.743172
-152308.747108
-154551.751043
-156808.754979
-159097.758915
-161354.762850
-163583.766786
-165866.770722
-151097.796992
-153338.800928
-155615.804864
-157870.808800
-160121.812735
-162360.816671
-164615.820607
-166902.824542
-169119.828478
-154418.854749
-156671.858684
-158916.862620
-161157.866556
-163442.870491
-165677.874427
-167922.878363
-170177.882299
-172432.886234
-157713.912505
-159954.916441
-162215.920376
-164466.924312
-166721.928248
-168946.932183
-171207.936119
-173454.940055
-175729.943990
-161004.970261
-163247.974197
-165498.978133
-167727.982068
-169966.986004
-172243.989940
-174496.993875
-176747.997811
-178981.001747
-164270.028017
-166507.031953
-168750.035889
-171011.039824
-173260.043760
-175491.047696
-177744.051632
-179983.055567
-182240.059503
-167537.085774
-169786.089709
-172037.093645
-174256.097581
-176505.101516
-178754.105452
-180987.109388
-183206.113323
-185483.117259
-170816.143530
-173059.147466
-175280.151401
-177515.155337
-179758.159273
-181973.163208
-184232.167144
-186447.171080
-188708.175015
-174039.201286
-176268.205222
-178501.209157
-180750.213093
-182963.217029
-185198.220965
-187417.224900
-189654.228836
-191903.232772
-177292.259042
-179501.262978
-181742.266914
-183971.270849
-186194.274785
-188415.278721
-190644.282656
-192885.286592
-195072.290528
SCALARS stress_3 float
LOOKUP_TABLE default
5638.410684
374398.171404
369112.536895
363813.902386
358455.267877
353087.633368
347681.998859
342270.364350
336815.729841
331344.095332
325867.460823
320352.826314
314822.191805
309270.557296
303713.922787
298131.288278
292550.653769
286940.019260
281316.384751
275710.750242
270084.115733
264457.481224
258811.846715
253191.212206
247555.577697
241941.943188
236308.308679
230706.674170
225094.039661
219509.405152
213932.770643
208382.136134
202830.501625
197318.867116
191823.232607
186356.598098
180922.963589
175532.329080
170146.694571
164821.060062
159537.425553
154271.791044
149069.156535
143903.522026
138793.887517
133738.253008
128739.618499
123780.983990
118915.349481
114096.714972
109327.080463
104651.445954
100026.811445
95494.176936
91026.542427
86629.907918
82317.273409
78084.638900
73946.004391
69895.369882
65922.735373
62042.100864
58263.466355
54570.831846
50976.197337
47470.562828
44069.928319
40780.293810
37579.659301
34484.024792
31494.390283
28612.755774
25825.121265
23162.486756
20593.852247
18142.217738
15791.583229
13546.948720
11405.314211
9375.679702
7458.045193
365116.010519
-3021.750202
-1281.115693
573.518816
2525.153325
4595.787834
6781.422343
9075.056852
11473.691361
13974.325870
16592.960379
19315.594888
22137.229397
25088.863906
28126.498415
31273.132924
34541.767433
37887.401942
41329.036451
44892.670960
48549.305469
52300.939978
56135.574487
60084.208996
64107.843505
68221.478014
72428.112523
76707.747032
81084.381541
85526.016050
90045.650559
94630.285068
99317.919577
104058.554086
108872.188595
113740.823104
118685.457613
123662.092122
128721.726631
133829.361140
138977.995649
144193.630158
149446.264667
154736.899176
160078.533685
165446.168194
170855.802703
176302.437212
181781.071721
187275.706230
192802.340739
198350.975248
203922.609757
209517.244266
215119.878775
220736.513284
226377.147793
231998.782302
237649.416811
243297.051320
248957.685829
254618.320338
260252.954847
265909.589356
271544.223865
277175.858374
282806.492883
288431.127392
294034.761902
299634.396411
305213.030920
310757.665429
316296.299938
321814.934447
327319.568956
332787.203465
338241.837974
343686.472483
349073.106992
354456.741501
359792.376010
366051.926607
366981.842696
367901.758784
368830.674873
369771.590961
370694.507050
371619.423138
372550.339227
373477.255315
4741.494595
3865.578507
2991.662418
2115.746330
1250.830241
385.914153
-480.001936
-1324.918025
-2176.834113
-410.199604
432.716484
1303.632573
2153.548662
3042.464750
3906.380839
4784.296927
5660.213016
6565.129104
1448.434905
2290.350993
3174.267082
4036.183171
4921.099259
5814.015348
6682.931436
7579.847525
8468.763613
3400.069414
4282.985502
5145.901591
6034.817680
6911.733768
7813.649857
8694.565945
9588.482034
10501.398122
5474.703923
6360.620011
7247.536100
8128.452189
9028.368277
9915.284366
10817.200454
11710.116543
12625.032631
7677.338432
8546.254520
9434.170609
10335.086698
11223.002786
12141.918875
13038.834963
13955.751052
14858.667140
9964.972941
10861.889029
11745.805118
12651.721207
13551.637295
14464.553384
15371.469472
16288.385561
17203.301649
12360.607450
13263.523538
14160.439627
15071.355716
15975.271804
16888.187893
17823.103981
18740.020070
19665.936158
14873.241959
15781.158047
16672.074136
17594.990225
18512.906313
19443.822402
20370.738490
21278.654579
22220.570667
17499.876468
18413.792556
19319.708645
20237.624734
21166.540822
22084.456911
23017.372999
23954.289088
24896.205176
20236.510977
21145.427065
22053.343154
22993.259243
23912.175331
24849.091420
25792.007508
26714.923597
27673.839685
23058.145486
23992.061574
24902.977663
25829.893752
26771.809840
27694.725929
28639.642017
29597.558106
30546.474194
26004.779995
26922.696083
27863.612172
28792.528261
29731.444349
30671.360438
31614.276526
32575.192615
33530.108703
29059.414504
29984.330592
30916.246681
31856.162770
32803.078858
33755.994947
34696.911035
35663.827124
36611.743212
32202.049013
33135.965101
34080.881190
35012.797279
35965.713367
36935.629456
37879.545544
38851.461633
39812.377721
35453.683522
36404.599610
37335.515699
38295.431788
39250.347876
40199.263965
41166.180053
42129.096142
43109.012230
38824.318031
39756.234119
40710.150208
41669.066297
42618.982385
43589.898474
44546.814562
45517.730651
46491.646739
42278.952540
43230.868628
44181.784717
45135.700806
46107.616894
47067.532983
48038.449071
49019.365160
49994.281248
45847.587049
46792.503137
47745.419226
48720.335315
49687.251403
50651.167492
51634.083580
52597.999669
53583.915757
49498.221558
50467.137646
51413.053735
52385.969824
53358.885912
54324.802001
55298.718089
56289.634178
57279.550266
53253.856067
54210.772155
55185.688244
56150.604333
57120.520421
58096.436510
59077.352598
60063.268687
61057.184775
57092.490576
58065.406664
59043.322753
60010.238842
60981.154930
61959.071019
62942.987107
63931.903196
64929.819284
61049.125085
61995.041173
62974.957262
63956.873351
64935.789439
65911.705528
66907.621616
67899.537705
68890.453793
65070.759594
66039.675682
67012.591771
67988.507860
68979.423948
69970.340037
70958.256125
71962.172214
72942.088302
69188.394103
70165.310191
71130.226280
72120.142369
73100.058457
74087.974546
75094.890634
76086.806723
77087.722811
73402.028612
74376.944700
75341.860789
76346.776878
77320.692966
78312.609055
79309.525143
80313.441232
81314.357320
77685.663121
78656.579209
79645.495298
80635.411387
81624.327475
82608.243564
83608.159652
84616.075741
85620.991829
82060.297630
83032.213718
84021.129807
85018.045896
86011.961984
87001.878073
88004.794161
89006.710250
90013.626338
86502.932139
87491.848227
88473.764316
89473.680405
90460.596493
91463.512582
92463.428670
93461.344759
94483.260847
91037.566648
92011.482736
93002.398825
94005.314914
94997.231002
95994.147091
97010.063179
98009.979268
99020.895356
95622.201157
96631.117245
97610.033334
98608.949423
99605.865511
100612.781600
101616.697688
102619.613777
103621.529865
100295.835666
101288.751755
102270.667843
103296.583932
104289.500020
105296.416109
106305.332197
107306.248286
108320.164374
105048.470175
106035.386264
107026.302352
108032.218441
109030.134529
110029.050618
111045.966706
112054.882795
113074.798883
109855.104684
110852.020773
111839.936861
112851.852950
113854.769038
114852.685127
115873.601215
116879.517304
117895.433392
114735.739193
115721.655282
116732.571370
117733.487459
118726.403547
119736.319636
120744.235724
121767.151813
122785.067901
119665.373702
120655.289791
121665.205879
122661.121968
123665.038056
124676.954145
125686.870233
126710.786322
127728.702410
124662.008211
125658.924300
126654.840388
127668.756477
128666.672565
129678.588654
130696.504742
131707.420831
132722.336919
129718.642720
130708.558809
131714.474897
132716.390986
133724.307074
134728.223163
135754.139251
136752.055340
137783.971428
134809.277229
135827.193318
136824.109406
137837.025495
138840.941583
139844.857672
140853.773760
141873.689849
142889.605937
139983.911738
140976.827827
141968.743915
142987.660004
143988.576092
144991.492181
146009.408269
147023.324358
148049.240446
145180.546247
146183.462336
147182.378424
148194.294513
149203.210601
150219.126690
151218.042778
152239.958867
153250.874955
150437.180756
151430.096845
152436.012933
153441.929022
154454.845110
155457.761199
156473.677287
157487.593376
158498.509464
155726.815265
156731.731354
157729.647442
158738.563531
159749.479619
160753.395708
161770.311796
162789.227885
163793.143973
161071.449774
162062.365863
163080.281951
164074.198040
165076.114128
166093.030217
167103.946305
168114.862394
169138.778482
166438.084283
167445.000372
168430.916460
169453.832549
170454.748637
171467.664726
172486.580814
173480.496903
174499.412991
171839.718792
172838.634881
173851.550969
174856.467058
175871.383146
176884.299235
177884.215323
178897.131412
179906.047500
177291.353301
178285.269390
179284.185478
180309.101567
181313.017655
182308.933744
183336.849832
184334.765921
185345.682009
182774.987810
183781.903899
184764.819987
185774.736076
186777.652164
187780.568253
188789.484341
189801.400430
190807.316518
188267.622319
189266.538408
190273.454496
191262.370585
192280.286673
193284.202762
194292.118850
195297.034939
196314.951027
193796.256828
194801.172917
195782.089005
196791.005094
197782.921182
198797.837271
199812.753359
200817.669448
201825.585536
199347.891337
200335.807426
201334.723514
202340.639603
203345.555691
204342.471780
205356.387868
206364.303957
207366.220045
204922.525846
205921.441935
206899.358023
207908.274112
208897.190200
209906.106289
210911.022377
211909.938466
212926.854554
210501.160355
211503.076444
212499.992532
213487.908621
214503.824709
215487.740798
216496.656886
217487.572975
218495.489063
216112.794864
217103.710953
218098.627041
219087.543130
220092.459218
221095.375307
222093.291395
223092.207484
224088.123572
221722.429373
222709.345462
223709.261550
224706.177639
225701.093727
226704.009816
227698.925904
228701.841993
229698.758081
227352.063882
228341.979971
229326.896059
230321.812148
231326.728236
232312.644325
233306.560413
234316.476502
235311.392590
232980.698391
233976.614480
234962.530568
235959.446657
236956.362745
237946.278834
238937.194922
239923.111011
240933.027099
238639.332900
239623.248989
240612.165077
241606.081166
242584.997254
243579.913343
244583.829431
245566.745520
246557.661608
244279.967409
245266.883498
246251.799586
247244.715675
248227.631763
249220.547852
250206.463940
251203.380029
252202.296117
249919.601918
250916.518007
251901.434095
252893.350184
253868.266272
254861.182361
255856.098449
256840.014538
257824.930626
255585.236427
256576.152516
257549.068604
258529.984693
259518.900781
260499.816870
261487.732958
262474.649047
263468.565135
261241.870936
262207.787025
263199.703113
264183.619202
265161.535290
266142.451379
267120.367467
268106.283556
269096.199644
266885.505445
267859.421534
268843.337622
269813.253711
270817.169799
271773.085888
272762.001976
273752.918065
274726.834153
272530.139954
273490.056043
274482.972131
275446.888220
276437.804308
277406.720397
278378.636485
279364.552574
280342.468662
278151.774463
279133.690552
280097.606640
281068.522729
282058.438817
283031.354906
284004.270994
284973.187083
285962.103171
283783.408972
284761.325061
285723.241149
286705.157238
287667.073326
288647.989415
289627.905503
290593.821592
291568.737680
289390.043481
290362.959570
291338.875658
292311.791747
293290.707835
294248.623924
295209.540012
296196.456101
297167.372189
294991.677990
295969.594079
296930.510167
297897.426256
298860.342344
299841.258433
300809.174521
301768.090610
302750.006698
300592.312499
301551.228588
302521.144676
303474.060765
304440.976853
305410.892942
306377.809030
307339.725119
308311.641207
306172.947008
307125.863097
308077.779185
309042.695274
310009.611362
310969.527451
311937.443539
312894.359628
313864.275716
311722.581517
312674.497606
313638.413694
314604.329783
315553.245871
316518.161960
317477.078048
318452.994137
319394.910225
317250.216026
318211.132115
319184.048203
320130.964292
321081.880380
322029.796469
322999.712557
323945.628646
324911.544734
322777.850535
323721.766624
324681.682712
325633.598801
326590.514889
327547.430978
328498.347066
329448.263155
330407.179243
328276.485044
329211.401133
330175.317221
331123.233310
332076.149398
333020.065487
333970.981575
334914.897664
335872.813752
333734.119553
334686.035642
335639.951730
336587.867819
337538.783907
338483.699996
339428.616084
340382.532173
341320.448261
339188.754062
340140.670151
341077.586239
342025.502328
342976.418416
343920.334505
344859.250593
345803.166682
346755.082770
344608.388571
345562.304660
346511.220748
347447.136837
348391.052925
349334.969014
350275.885102
351211.801191
352161.717279
350015.023080
350964.939169
351888.855257
352837.771346
353782.687434
354715.603523
355649.519611
356573.435700
357529.351788
355401.657589
356323.573678
357269.489766
358204.405855
359146.321943
360056.238032
361010.154120
361938.070209
362872.986297
360747.292098
361661.208187
362607.124275
363527.040364
364466.956452
365397.872541
366326.788629
367256.704718
368189.620806
