# vtk DataFile Version 2.0
Generated volume Mesh
ASCII
DATASET UNSTRUCTURED_GRID
POINTS 891 float
0.005000 0.100000 0.000000
0.005000 0.000000 0.000000
0.005000 0.001250 0.000000
0.005000 0.002500 0.000000
0.005000 0.003750 0.000000
0.005000 0.005000 0.000000
0.005000 0.006250 0.000000
0.005000 0.007500 0.000000
0.005000 0.008750 0.000000
0.005000 0.010000 0.000000
0.005000 0.011250 0.000000
0.005000 0.012500 0.000000
0.005000 0.013750 0.000000
0.005000 0.015000 0.000000
0.005000 0.016250 0.000000
0.005000 0.017500 0.000000
0.005000 0.018750 0.000000
0.005000 0.020000 0.000000
0.005000 0.021250 0.000000
0.005000 0.022500 0.000000
0.005000 0.023750 0.000000
0.005000 0.025000 0.000000
0.005000 0.026250 0.000000
0.005000 0.027500 0.000000
0.005000 0.028750 0.000000
0.005000 0.030000 0.000000
0.005000 0.031250 0.000000
0.005000 0.032500 0.000000
0.005000 0.033750 0.000000
0.005000 0.035000 0.000000
0.005000 0.036250 0.000000
0.005000 0.037500 0.000000
0.005000 0.038750 0.000000
0.005000 0.040000 0.000000
0.005000 0.041250 0.000000
0.005000 0.042500 0.000000
0.005000 0.043750 0.000000
0.005000 0.045000 0.000000
0.005000 0.046250 0.000000
0.005000 0.047500 0.000000
0.005000 0.048750 0.000000
0.005000 0.050000 0.000000
0.005000 0.051250 0.000000
0.005000 0.052500 0.000000
0.005000 0.053750 0.000000
0.005000 0.055000 0.000000
0.005000 0.056250 0.000000
0.005000 0.057500 0.000000
0.005000 0.058750 0.000000
0.005000 0.060000 0.000000
0.005000 0.061250 0.000000
0.005000 0.062500 0.000000
0.005000 0.063750 0.000000
0.005000 0.065000 0.000000
0.005000 0.066250 0.000000
0.005000 0.067500 0.000000
0.005000 0.068750 0.000000
0.005000 0.070000 0.000000
0.005000 0.071250 0.000000
0.005000 0.072500 0.000000
0.005000 0.073750 0.000000
0.005000 0.075000 0.000000
0.005000 0.076250 0.000000
0.005000 0.077500 0.000000
0.005000 0.078750 0.000000
0.005000 0.080000 0.000000
0.005000 0.081250 0.000000
0.005000 0.082500 0.000000
0.005000 0.083750 0.000000
0.005000 0.085000 0.000000
0.005000 0.086250 0.000000
0.005000 0.087500 0.000000
0.005000 0.088750 0.000000
0.005000 0.090000 0.000000
0.005000 0.091250 0.000000
0.005000 0.092500 0.000000
0.005000 0.093750 0.000000
0.005000 0.095000 0.000000
0.005000 0.096250 0.000000
0.005000 0.097500 0.000000
0.005000 0.098750 0.000000
0.000000 0.000000 0.000000
0.000000 0.100000 0.000000
0.000000 0.098750 0.000000
0.000000 0.097500 0.000000
0.000000 0.096250 0.000000
0.000000 0.095000 0.000000
0.000000 0.093750 0.000000
0.000000 0.092500 0.000000
0.000000 0.091250 0.000000
0.000000 0.090000 0.000000
0.000000 0.088750 0.000000
0.000000 0.087500 0.000000
0.000000 0.086250 0.000000
0.000000 0.085000 0.000000
0.000000 0.083750 0.000000
0.000000 0.082500 0.000000
0.000000 0.081250 0.000000
0.000000 0.080000 0.000000
0.000000 0.078750 0.000000
0.000000 0.077500 0.000000
0.000000 0.076250 0.000000
0.000000 0.075000 0.000000
0.000000 0.073750 0.000000
0.000000 0.072500 0.000000
0.000000 0.071250 0.000000
0.000000 0.070000 0.000000
0.000000 0.068750 0.000000
0.000000 0.067500 0.000000
0.000000 0.066250 0.000000
0.000000 0.065000 0.000000
0.000000 0.063750 0.000000
0.000000 0.062500 0.000000
0.000000 0.061250 0.000000
0.000000 0.060000 0.000000
0.000000 0.058750 0.000000
0.000000 0.057500 0.000000
0.000000 0.056250 0.000000
0.000000 0.055000 0.000000
0.000000 0.053750 0.000000
0.000000 0.052500 0.000000
0.000000 0.051250 0.000000
0.000000 0.050000 0.000000
0.000000 0.048750 0.000000
0.000000 0.047500 0.000000
0.000000 0.046250 0.000000
0.000000 0.045000 0.000000
0.000000 0.043750 0.000000
0.000000 0.042500 0.000000
0.000000 0.041250 0.000000
0.000000 0.040000 0.000000
0.000000 0.038750 0.000000
0.000000 0.037500 0.000000
0.000000 0.036250 0.000000
0.000000 0.035000 0.000000
0.000000 0.033750 0.000000
0.000000 0.032500 0.000000
0.000000 0.031250 0.000000
0.000000 0.030000 0.000000
0.000000 0.028750 0.000000
0.000000 0.027500 0.000000
0.000000 0.026250 0.000000
0.000000 0.025000 0.000000
0.000000 0.023750 0.000000
0.000000 0.022500 0.000000
0.000000 0.021250 0.000000
0.000000 0.020000 0.000000
0.000000 0.018750 0.000000
0.000000 0.017500 0.000000
0.000000 0.016250 0.000000
0.000000 0.015000 0.000000
0.000000 0.013750 0.000000
0.000000 0.012500 0.000000
0.000000 0.011250 0.000000
0.000000 0.010000 0.000000
0.000000 0.008750 0.000000
0.000000 0.007500 0.000000
0.000000 0.006250 0.000000
0.000000 0.005000 0.000000
0.000000 0.003750 0.000000
0.000000 0.002500 0.000000
0.000000 0.001250 0.000000
0.000500 0.000000 0.000000
0.001000 0.000000 0.000000
0.001500 0.000000 0.000000
0.002000 0.000000 0.000000
0.002500 0.000000 0.000000
0.003000 0.000000 0.000000
0.003500 0.000000 0.000000
0.004000 0.000000 0.000000
0.004500 0.000000 0.000000
0.004500 0.100000 0.000000
0.004000 0.100000 0.000000
0.003500 0.100000 0.000000
0.003000 0.100000 0.000000
0.002500 0.100000 0.000000
0.002000 0.100000 0.000000
0.001500 0.100000 0.000000
0.001000 0.100000 0.000000
0.000500 0.100000 0.000000
0.000500 0.098750 0.000000
0.001000 0.098750 0.000000
0.001500 0.098750 0.000000
0.002000 0.098750 0.000000
0.002500 0.098750 0.000000
0.003000 0.098750 0.000000
0.003500 0.098750 0.000000
0.004000 0.098750 0.000000
0.004500 0.098750 0.000000
0.000500 0.097500 0.000000
0.001000 0.097500 0.000000
0.001500 0.097500 0.000000
0.002000 0.097500 0.000000
0.002500 0.097500 0.000000
0.003000 0.097500 0.000000
0.003500 0.097500 0.000000
0.004000 0.097500 0.000000
0.004500 0.097500 0.000000
0.000500 0.096250 0.000000
0.001000 0.096250 0.000000
0.001500 0.096250 0.000000
0.002000 0.096250 0.000000
0.002500 0.096250 0.000000
0.003000 0.096250 0.000000
0.003500 0.096250 0.000000
0.004000 0.096250 0.000000
0.004500 0.096250 0.000000
0.000500 0.095000 0.000000
0.001000 0.095000 0.000000
0.001500 0.095000 0.000000
0.002000 0.095000 0.000000
0.002500 0.095000 0.000000
0.003000 0.095000 0.000000
0.003500 0.095000 0.000000
0.004000 0.095000 0.000000
0.004500 0.095000 0.000000
0.000500 0.093750 0.000000
0.001000 0.093750 0.000000
0.001500 0.093750 0.000000
0.002000 0.093750 0.000000
0.002500 0.093750 0.000000
0.003000 0.093750 0.000000
0.003500 0.093750 0.000000
0.004000 0.093750 0.000000
0.004500 0.093750 0.000000
0.000500 0.092500 0.000000
0.001000 0.092500 0.000000
0.001500 0.092500 0.000000
0.002000 0.092500 0.000000
0.002500 0.092500 0.000000
0.003000 0.092500 0.000000
0.003500 0.092500 0.000000
0.004000 0.092500 0.000000
0.004500 0.092500 0.000000
0.000500 0.091250 0.000000
0.001000 0.091250 0.000000
0.001500 0.091250 0.000000
0.002000 0.091250 0.000000
0.002500 0.091250 0.000000
0.003000 0.091250 0.000000
0.003500 0.091250 0.000000
0.004000 0.091250 0.000000
0.004500 0.091250 0.000000
0.000500 0.090000 0.000000
0.001000 0.090000 0.000000
0.001500 0.090000 0.000000
0.002000 0.090000 0.000000
0.002500 0.090000 0.000000
0.003000 0.090000 0.000000
0.003500 0.090000 0.000000
0.004000 0.090000 0.000000
0.004500 0.090000 0.000000
0.000500 0.088750 0.000000
0.001000 0.088750 0.000000
0.001500 0.088750 0.000000
0.002000 0.088750 0.000000
0.002500 0.088750 0.000000
0.003000 0.088750 0.000000
0.003500 0.088750 0.000000
0.004000 0.088750 0.000000
0.004500 0.088750 0.000000
0.000500 0.087500 0.000000
0.001000 0.087500 0.000000
0.001500 0.087500 0.000000
0.002000 0.087500 0.000000
0.002500 0.087500 0.000000
0.003000 0.087500 0.000000
0.003500 0.087500 0.000000
0.004000 0.087500 0.000000
0.004500 0.087500 0.000000
0.000500 0.086250 0.000000
0.001000 0.086250 0.000000
0.001500 0.086250 0.000000
0.002000 0.086250 0.000000
0.002500 0.086250 0.000000
0.003000 0.086250 0.000000
0.003500 0.086250 0.000000
0.004000 0.086250 0.000000
0.004500 0.086250 0.000000
0.000500 0.085000 0.000000
0.001000 0.085000 0.000000
0.001500 0.085000 0.000000
0.002000 0.085000 0.000000
0.002500 0.085000 0.000000
0.003000 0.085000 0.000000
0.003500 0.085000 0.000000
0.004000 0.085000 0.000000
0.004500 0.085000 0.000000
0.000500 0.083750 0.000000
0.001000 0.083750 0.000000
0.001500 0.083750 0.000000
0.002000 0.083750 0.000000
0.002500 0.083750 0.000000
0.003000 0.083750 0.000000
0.003500 0.083750 0.000000
0.004000 0.083750 0.000000
0.004500 0.083750 0.000000
0.000500 0.082500 0.000000
0.001000 0.082500 0.000000
0.001500 0.082500 0.000000
0.002000 0.082500 0.000000
0.002500 0.082500 0.000000
0.003000 0.082500 0.000000
0.003500 0.082500 0.000000
0.004000 0.082500 0.000000
0.004500 0.082500 0.000000
0.000500 0.081250 0.000000
0.001000 0.081250 0.000000
0.001500 0.081250 0.000000
0.002000 0.081250 0.000000
0.002500 0.081250 0.000000
0.003000 0.081250 0.000000
0.003500 0.081250 0.000000
0.004000 0.081250 0.000000
0.004500 0.081250 0.000000
0.000500 0.080000 0.000000
0.001000 0.080000 0.000000
0.001500 0.080000 0.000000
0.002000 0.080000 0.000000
0.002500 0.080000 0.000000
0.003000 0.080000 0.000000
0.003500 0.080000 0.000000
0.004000 0.080000 0.000000
0.004500 0.080000 0.000000
0.000500 0.078750 0.000000
0.001000 0.078750 0.000000
0.001500 0.078750 0.000000
0.002000 0.078750 0.000000
0.002500 0.078750 0.000000
0.003000 0.078750 0.000000
0.003500 0.078750 0.000000
0.004000 0.078750 0.000000
0.004500 0.078750 0.000000
0.000500 0.077500 0.000000
0.001000 0.077500 0.000000
0.001500 0.077500 0.000000
0.002000 0.077500 0.000000
0.002500 0.077500 0.000000
0.003000 0.077500 0.000000
0.003500 0.077500 0.000000
0.004000 0.077500 0.000000
0.004500 0.077500 0.000000
0.000500 0.076250 0.000000
0.001000 0.076250 0.000000
0.001500 0.076250 0.000000
0.002000 0.076250 0.000000
0.002500 0.076250 0.000000
0.003000 0.076250 0.000000
0.003500 0.076250 0.000000
0.004000 0.076250 0.000000
0.004500 0.076250 0.000000
0.000500 0.075000 0.000000
0.001000 0.075000 0.000000
0.001500 0.075000 0.000000
0.002000 0.075000 0.000000
0.002500 0.075000 0.000000
0.003000 0.075000 0.000000
0.003500 0.075000 0.000000
0.004000 0.075000 0.000000
0.004500 0.075000 0.000000
0.000500 0.073750 0.000000
0.001000 0.073750 0.000000
0.001500 0.073750 0.000000
0.002000 0.073750 0.000000
0.002500 0.073750 0.000000
0.003000 0.073750 0.000000
0.003500 0.073750 0.000000
0.004000 0.073750 0.000000
0.004500 0.073750 0.000000
0.000500 0.072500 0.000000
0.001000 0.072500 0.000000
0.001500 0.072500 0.000000
0.002000 0.072500 0.000000
0.002500 0.072500 0.000000
0.003000 0.072500 0.000000
0.003500 0.072500 0.000000
0.004000 0.072500 0.000000
0.004500 0.072500 0.000000
0.000500 0.071250 0.000000
0.001000 0.071250 0.000000
0.001500 0.071250 0.000000
0.002000 0.071250 0.000000
0.002500 0.071250 0.000000
0.003000 0.071250 0.000000
0.003500 0.071250 0.000000
0.004000 0.071250 0.000000
0.004500 0.071250 0.000000
0.000500 0.070000 0.000000
0.001000 0.070000 0.000000
0.001500 0.070000 0.000000
0.002000 0.070000 0.000000
0.002500 0.070000 0.000000
0.003000 0.070000 0.000000
0.003500 0.070000 0.000000
0.004000 0.070000 0.000000
0.004500 0.070000 0.000000
0.000500 0.068750 0.000000
0.001000 0.068750 0.000000
0.001500 0.068750 0.000000
0.002000 0.068750 0.000000
0.002500 0.068750 0.000000
0.003000 0.068750 0.000000
0.003500 0.068750 0.000000
0.004000 0.068750 0.000000
0.004500 0.068750 0.000000
0.000500 0.067500 0.000000
0.001000 0.067500 0.000000
0.001500 0.067500 0.000000
0.002000 0.067500 0.000000
0.002500 0.067500 0.000000
0.003000 0.067500 0.000000
0.003500 0.067500 0.000000
0.004000 0.067500 0.000000
0.004500 0.067500 0.000000
0.000500 0.066250 0.000000
0.001000 0.066250 0.000000
0.001500 0.066250 0.000000
0.002000 0.066250 0.000000
0.002500 0.066250 0.000000
0.003000 0.066250 0.000000
0.003500 0.066250 0.000000
0.004000 0.066250 0.000000
0.004500 0.066250 0.000000
0.000500 0.065000 0.000000
0.001000 0.065000 0.000000
0.001500 0.065000 0.000000
0.002000 0.065000 0.000000
0.002500 0.065000 0.000000
0.003000 0.065000 0.000000
0.003500 0.065000 0.000000
0.004000 0.065000 0.000000
0.004500 0.065000 0.000000
0.000500 0.063750 0.000000
0.001000 0.063750 0.000000
0.001500 0.063750 0.000000
0.002000 0.063750 0.000000
0.002500 0.063750 0.000000
0.003000 0.063750 0.000000
0.003500 0.063750 0.000000
0.004000 0.063750 0.000000
0.004500 0.063750 0.000000
0.000500 0.062500 0.000000
0.001000 0.062500 0.000000
0.001500 0.062500 0.000000
0.002000 0.062500 0.000000
0.002500 0.062500 0.000000
0.003000 0.062500 0.000000
0.003500 0.062500 0.000000
0.004000 0.062500 0.000000
0.004500 0.062500 0.000000
0.000500 0.061250 0.000000
0.001000 0.061250 0.000000
0.001500 0.061250 0.000000
0.002000 0.061250 0.000000
0.002500 0.061250 0.000000
0.003000 0.061250 0.000000
0.003500 0.061250 0.000000
0.004000 0.061250 0.000000
0.004500 0.061250 0.000000
0.000500 0.060000 0.000000
0.001000 0.060000 0.000000
0.001500 0.060000 0.000000
0.002000 0.060000 0.000000
0.002500 0.060000 0.000000
0.003000 0.060000 0.000000
0.003500 0.060000 0.000000
0.004000 0.060000 0.000000
0.004500 0.060000 0.000000
0.000500 0.058750 0.000000
0.001000 0.058750 0.000000
0.001500 0.058750 0.000000
0.002000 0.058750 0.000000
0.002500 0.058750 0.000000
0.003000 0.058750 0.000000
0.003500 0.058750 0.000000
0.004000 0.058750 0.000000
0.004500 0.058750 0.000000
0.000500 0.057500 0.000000
0.001000 0.057500 0.000000
0.001500 0.057500 0.000000
0.002000 0.057500 0.000000
0.002500 0.057500 0.000000
0.003000 0.057500 0.000000
0.003500 0.057500 0.000000
0.004000 0.057500 0.000000
0.004500 0.057500 0.000000
0.000500 0.056250 0.000000
0.001000 0.056250 0.000000
0.001500 0.056250 0.000000
0.002000 0.056250 0.000000
0.002500 0.056250 0.000000
0.003000 0.056250 0.000000
0.003500 0.056250 0.000000
0.004000 0.056250 0.000000
0.004500 0.056250 0.000000
0.000500 0.055000 0.000000
0.001000 0.055000 0.000000
0.001500 0.055000 0.000000
0.002000 0.055000 0.000000
0.002500 0.055000 0.000000
0.003000 0.055000 0.000000
0.003500 0.055000 0.000000
0.004000 0.055000 0.000000
0.004500 0.055000 0.000000
0.000500 0.053750 0.000000
0.001000 0.053750 0.000000
0.001500 0.053750 0.000000
0.002000 0.053750 0.000000
0.002500 0.053750 0.000000
0.003000 0.053750 0.000000
0.003500 0.053750 0.000000
0.004000 0.053750 0.000000
0.004500 0.053750 0.000000
0.000500 0.052500 0.000000
0.001000 0.052500 0.000000
0.001500 0.052500 0.000000
0.002000 0.052500 0.000000
0.002500 0.052500 0.000000
0.003000 0.052500 0.000000
0.003500 0.052500 0.000000
0.004000 0.052500 0.000000
0.004500 0.052500 0.000000
0.000500 0.051250 0.000000
0.001000 0.051250 0.000000
0.001500 0.051250 0.000000
0.002000 0.051250 0.000000
0.002500 0.051250 0.000000
0.003000 0.051250 0.000000
0.003500 0.051250 0.000000
0.004000 0.051250 0.000000
0.004500 0.051250 0.000000
0.000500 0.050000 0.000000
0.001000 0.050000 0.000000
0.001500 0.050000 0.000000
0.002000 0.050000 0.000000
0.002500 0.050000 0.000000
0.003000 0.050000 0.000000
0.003500 0.050000 0.000000
0.004000 0.050000 0.000000
0.004500 0.050000 0.000000
0.000500 0.048750 0.000000
0.001000 0.048750 0.000000
0.001500 0.048750 0.000000
0.002000 0.048750 0.000000
0.002500 0.048750 0.000000
0.003000 0.048750 0.000000
0.003500 0.048750 0.000000
0.004000 0.048750 0.000000
0.004500 0.048750 0.000000
0.000500 0.047500 0.000000
0.001000 0.047500 0.000000
0.001500 0.047500 0.000000
0.002000 0.047500 0.000000
0.002500 0.047500 0.000000
0.003000 0.047500 0.000000
0.003500 0.047500 0.000000
0.004000 0.047500 0.000000
0.004500 0.047500 0.000000
0.000500 0.046250 0.000000
0.001000 0.046250 0.000000
0.001500 0.046250 0.000000
0.002000 0.046250 0.000000
0.002500 0.046250 0.000000
0.003000 0.046250 0.000000
0.003500 0.046250 0.000000
0.004000 0.046250 0.000000
0.004500 0.046250 0.000000
0.000500 0.045000 0.000000
0.001000 0.045000 0.000000
0.001500 0.045000 0.000000
0.002000 0.045000 0.000000
0.002500 0.045000 0.000000
0.003000 0.045000 0.000000
0.003500 0.045000 0.000000
0.004000 0.045000 0.000000
0.004500 0.045000 0.000000
0.000500 0.043750 0.000000
0.001000 0.043750 0.000000
0.001500 0.043750 0.000000
0.002000 0.043750 0.000000
0.002500 0.043750 0.000000
0.003000 0.043750 0.000000
0.003500 0.043750 0.000000
0.004000 0.043750 0.000000
0.004500 0.043750 0.000000
0.000500 0.042500 0.000000
0.001000 0.042500 0.000000
0.001500 0.042500 0.000000
0.002000 0.042500 0.000000
0.002500 0.042500 0.000000
0.003000 0.042500 0.000000
0.003500 0.042500 0.000000
0.004000 0.042500 0.000000
0.004500 0.042500 0.000000
0.000500 0.041250 0.000000
0.001000 0.041250 0.000000
0.001500 0.041250 0.000000
0.002000 0.041250 0.000000
0.002500 0.041250 0.000000
0.003000 0.041250 0.000000
0.003500 0.041250 0.000000
0.004000 0.041250 0.000000
0.004500 0.041250 0.000000
0.000500 0.040000 0.000000
0.001000 0.040000 0.000000
0.001500 0.040000 0.000000
0.002000 0.040000 0.000000
0.002500 0.040000 0.000000
0.003000 0.040000 0.000000
0.003500 0.040000 0.000000
0.004000 0.040000 0.000000
0.004500 0.040000 0.000000
0.000500 0.038750 0.000000
0.001000 0.038750 0.000000
0.001500 0.038750 0.000000
0.002000 0.038750 0.000000
0.002500 0.038750 0.000000
0.003000 0.038750 0.000000
0.003500 0.038750 0.000000
0.004000 0.038750 0.000000
0.004500 0.038750 0.000000
0.000500 0.037500 0.000000
0.001000 0.037500 0.000000
0.001500 0.037500 0.000000
0.002000 0.037500 0.000000
0.002500 0.037500 0.000000
0.003000 0.037500 0.000000
0.003500 0.037500 0.000000
0.004000 0.037500 0.000000
0.004500 0.037500 0.000000
0.000500 0.036250 0.000000
0.001000 0.036250 0.000000
0.001500 0.036250 0.000000
0.002000 0.036250 0.000000
0.002500 0.036250 0.000000
0.003000 0.036250 0.000000
0.003500 0.036250 0.000000
0.004000 0.036250 0.000000
0.004500 0.036250 0.000000
0.000500 0.035000 0.000000
0.001000 0.035000 0.000000
0.001500 0.035000 0.000000
0.002000 0.035000 0.000000
0.002500 0.035000 0.000000
0.003000 0.035000 0.000000
0.003500 0.035000 0.000000
0.004000 0.035000 0.000000
0.004500 0.035000 0.000000
0.000500 0.033750 0.000000
0.001000 0.033750 0.000000
0.001500 0.033750 0.000000
0.002000 0.033750 0.000000
0.002500 0.033750 0.000000
0.003000 0.033750 0.000000
0.003500 0.033750 0.000000
0.004000 0.033750 0.000000
0.004500 0.033750 0.000000
0.000500 0.032500 0.000000
0.001000 0.032500 0.000000
0.001500 0.032500 0.000000
0.002000 0.032500 0.000000
0.002500 0.032500 0.000000
0.003000 0.032500 0.000000
0.003500 0.032500 0.000000
0.004000 0.032500 0.000000
0.004500 0.032500 0.000000
0.000500 0.031250 0.000000
0.001000 0.031250 0.000000
0.001500 0.031250 0.000000
0.002000 0.031250 0.000000
0.002500 0.031250 0.000000
0.003000 0.031250 0.000000
0.003500 0.031250 0.000000
0.004000 0.031250 0.000000
0.004500 0.031250 0.000000
0.000500 0.030000 0.000000
0.001000 0.030000 0.000000
0.001500 0.030000 0.000000
0.002000 0.030000 0.000000
0.002500 0.030000 0.000000
0.003000 0.030000 0.000000
0.003500 0.030000 0.000000
0.004000 0.030000 0.000000
0.004500 0.030000 0.000000
0.000500 0.028750 0.000000
0.001000 0.028750 0.000000
0.001500 0.028750 0.000000
0.002000 0.028750 0.000000
0.002500 0.028750 0.000000
0.003000 0.028750 0.000000
0.003500 0.028750 0.000000
0.004000 0.028750 0.000000
0.004500 0.028750 0.000000
0.000500 0.027500 0.000000
0.001000 0.027500 0.000000
0.001500 0.027500 0.000000
0.002000 0.027500 0.000000
0.002500 0.027500 0.000000
0.003000 0.027500 0.000000
0.003500 0.027500 0.000000
0.004000 0.027500 0.000000
0.004500 0.027500 0.000000
0.000500 0.026250 0.000000
0.001000 0.026250 0.000000
0.001500 0.026250 0.000000
0.002000 0.026250 0.000000
0.002500 0.026250 0.000000
0.003000 0.026250 0.000000
0.003500 0.026250 0.000000
0.004000 0.026250 0.000000
0.004500 0.026250 0.000000
0.000500 0.025000 0.000000
0.001000 0.025000 0.000000
0.001500 0.025000 0.000000
0.002000 0.025000 0.000000
0.002500 0.025000 0.000000
0.003000 0.025000 0.000000
0.003500 0.025000 0.000000
0.004000 0.025000 0.000000
0.004500 0.025000 0.000000
0.000500 0.023750 0.000000
0.001000 0.023750 0.000000
0.001500 0.023750 0.000000
0.002000 0.023750 0.000000
0.002500 0.023750 0.000000
0.003000 0.023750 0.000000
0.003500 0.023750 0.000000
0.004000 0.023750 0.000000
0.004500 0.023750 0.000000
0.000500 0.022500 0.000000
0.001000 0.022500 0.000000
0.001500 0.022500 0.000000
0.002000 0.022500 0.000000
0.002500 0.022500 0.000000
0.003000 0.022500 0.000000
0.003500 0.022500 0.000000
0.004000 0.022500 0.000000
0.004500 0.022500 0.000000
0.000500 0.021250 0.000000
0.001000 0.021250 0.000000
0.001500 0.021250 0.000000
0.002000 0.021250 0.000000
0.002500 0.021250 0.000000
0.003000 0.021250 0.000000
0.003500 0.021250 0.000000
0.004000 0.021250 0.000000
0.004500 0.021250 0.000000
0.000500 0.020000 0.000000
0.001000 0.020000 0.000000
0.001500 0.020000 0.000000
0.002000 0.020000 0.000000
0.002500 0.020000 0.000000
0.003000 0.020000 0.000000
0.003500 0.020000 0.000000
0.004000 0.020000 0.000000
0.004500 0.020000 0.000000
0.000500 0.018750 0.000000
0.001000 0.018750 0.000000
0.001500 0.018750 0.000000
0.002000 0.018750 0.000000
0.002500 0.018750 0.000000
0.003000 0.018750 0.000000
0.003500 0.018750 0.000000
0.004000 0.018750 0.000000
0.004500 0.018750 0.000000
0.000500 0.017500 0.000000
0.001000 0.017500 0.000000
0.001500 0.017500 0.000000
0.002000 0.017500 0.000000
0.002500 0.017500 0.000000
0.003000 0.017500 0.000000
0.003500 0.017500 0.000000
0.004000 0.017500 0.000000
0.004500 0.017500 0.000000
0.000500 0.016250 0.000000
0.001000 0.016250 0.000000
0.001500 0.016250 0.000000
0.002000 0.016250 0.000000
0.002500 0.016250 0.000000
0.003000 0.016250 0.000000
0.003500 0.016250 0.000000
0.004000 0.016250 0.000000
0.004500 0.016250 0.000000
0.000500 0.015000 0.000000
0.001000 0.015000 0.000000
0.001500 0.015000 0.000000
0.002000 0.015000 0.000000
0.002500 0.015000 0.000000
0.003000 0.015000 0.000000
0.003500 0.015000 0.000000
0.004000 0.015000 0.000000
0.004500 0.015000 0.000000
0.000500 0.013750 0.000000
0.001000 0.013750 0.000000
0.001500 0.013750 0.000000
0.002000 0.013750 0.000000
0.002500 0.013750 0.000000
0.003000 0.013750 0.000000
0.003500 0.013750 0.000000
0.004000 0.013750 0.000000
0.004500 0.013750 0.000000
0.000500 0.012500 0.000000
0.001000 0.012500 0.000000
0.001500 0.012500 0.000000
0.002000 0.012500 0.000000
0.002500 0.012500 0.000000
0.003000 0.012500 0.000000
0.003500 0.012500 0.000000
0.004000 0.012500 0.000000
0.004500 0.012500 0.000000
0.000500 0.011250 0.000000
0.001000 0.011250 0.000000
0.001500 0.011250 0.000000
0.002000 0.011250 0.000000
0.002500 0.011250 0.000000
0.003000 0.011250 0.000000
0.003500 0.011250 0.000000
0.004000 0.011250 0.000000
0.004500 0.011250 0.000000
0.000500 0.010000 0.000000
0.001000 0.010000 0.000000
0.001500 0.010000 0.000000
0.002000 0.010000 0.000000
0.002500 0.010000 0.000000
0.003000 0.010000 0.000000
0.003500 0.010000 0.000000
0.004000 0.010000 0.000000
0.004500 0.010000 0.000000
0.000500 0.008750 0.000000
0.001000 0.008750 0.000000
0.001500 0.008750 0.000000
0.002000 0.008750 0.000000
0.002500 0.008750 0.000000
0.003000 0.008750 0.000000
0.003500 0.008750 0.000000
0.004000 0.008750 0.000000
0.004500 0.008750 0.000000
0.000500 0.007500 0.000000
0.001000 0.007500 0.000000
0.001500 0.007500 0.000000
0.002000 0.007500 0.000000
0.002500 0.007500 0.000000
0.003000 0.007500 0.000000
0.003500 0.007500 0.000000
0.004000 0.007500 0.000000
0.004500 0.007500 0.000000
0.000500 0.006250 0.000000
0.001000 0.006250 0.000000
0.001500 0.006250 0.000000
0.002000 0.006250 0.000000
0.002500 0.006250 0.000000
0.003000 0.006250 0.000000
0.003500 0.006250 0.000000
0.004000 0.006250 0.000000
0.004500 0.006250 0.000000
0.000500 0.005000 0.000000
0.001000 0.005000 0.000000
0.001500 0.005000 0.000000
0.002000 0.005000 0.000000
0.002500 0.005000 0.000000
0.003000 0.005000 0.000000
0.003500 0.005000 0.000000
0.004000 0.005000 0.000000
0.004500 0.005000 0.000000
0.000500 0.003750 0.000000
0.001000 0.003750 0.000000
0.001500 0.003750 0.000000
0.002000 0.003750 0.000000
0.002500 0.003750 0.000000
0.003000 0.003750 0.000000
0.003500 0.003750 0.000000
0.004000 0.003750 0.000000
0.004500 0.003750 0.000000
0.000500 0.002500 0.000000
0.001000 0.002500 0.000000
0.001500 0.002500 0.000000
0.002000 0.002500 0.000000
0.002500 0.002500 0.000000
0.003000 0.002500 0.000000
0.003500 0.002500 0.000000
0.004000 0.002500 0.000000
0.004500 0.002500 0.000000
0.000500 0.001250 0.000000
0.001000 0.001250 0.000000
0.001500 0.001250 0.000000
0.002000 0.001250 0.000000
0.002500 0.001250 0.000000
0.003000 0.001250 0.000000
0.003500 0.001250 0.000000
0.004000 0.001250 0.000000
0.004500 0.001250 0.000000
CELLS 800 4000
4 82 83 180 179
4 179 180 181 178
4 178 181 182 177
4 177 182 183 176
4 176 183 184 175
4 175 184 185 174
4 174 185 186 173
4 173 186 187 172
4 172 187 188 171
4 171 188 80 0
4 83 84 189 180
4 180 189 190 181
4 181 190 191 182
4 182 191 192 183
4 183 192 193 184
4 184 193 194 185
4 185 194 195 186
4 186 195 196 187
4 187 196 197 188
4 188 197 79 80
4 84 85 198 189
4 189 198 199 190
4 190 199 200 191
4 191 200 201 192
4 192 201 202 193
4 193 202 203 194
4 194 203 204 195
4 195 204 205 196
4 196 205 206 197
4 197 206 78 79
4 85 86 207 198
4 198 207 208 199
4 199 208 209 200
4 200 209 210 201
4 201 210 211 202
4 202 211 212 203
4 203 212 213 204
4 204 213 214 205
4 205 214 215 206
4 206 215 77 78
4 86 87 216 207
4 207 216 217 208
4 208 217 218 209
4 209 218 219 210
4 210 219 220 211
4 211 220 221 212
4 212 221 222 213
4 213 222 223 214
4 214 223 224 215
4 215 224 76 77
4 87 88 225 216
4 216 225 226 217
4 217 226 227 218
4 218 227 228 219
4 219 228 229 220
4 220 229 230 221
4 221 230 231 222
4 222 231 232 223
4 223 232 233 224
4 224 233 75 76
4 88 89 234 225
4 225 234 235 226
4 226 235 236 227
4 227 236 237 228
4 228 237 238 229
4 229 238 239 230
4 230 239 240 231
4 231 240 241 232
4 232 241 242 233
4 233 242 74 75
4 89 90 243 234
4 234 243 244 235
4 235 244 245 236
4 236 245 246 237
4 237 246 247 238
4 238 247 248 239
4 239 248 249 240
4 240 249 250 241
4 241 250 251 242
4 242 251 73 74
4 90 91 252 243
4 243 252 253 244
4 244 253 254 245
4 245 254 255 246
4 246 255 256 247
4 247 256 257 248
4 248 257 258 249
4 249 258 259 250
4 250 259 260 251
4 251 260 72 73
4 91 92 261 252
4 252 261 262 253
4 253 262 263 254
4 254 263 264 255
4 255 264 265 256
4 256 265 266 257
4 257 266 267 258
4 258 267 268 259
4 259 268 269 260
4 260 269 71 72
4 92 93 270 261
4 261 270 271 262
4 262 271 272 263
4 263 272 273 264
4 264 273 274 265
4 265 274 275 266
4 266 275 276 267
4 267 276 277 268
4 268 277 278 269
4 269 278 70 71
4 93 94 279 270
4 270 279 280 271
4 271 280 281 272
4 272 281 282 273
4 273 282 283 274
4 274 283 284 275
4 275 284 285 276
4 276 285 286 277
4 277 286 287 278
4 278 287 69 70
4 94 95 288 279
4 279 288 289 280
4 280 289 290 281
4 281 290 291 282
4 282 291 292 283
4 283 292 293 284
4 284 293 294 285
4 285 294 295 286
4 286 295 296 287
4 287 296 68 69
4 95 96 297 288
4 288 297 298 289
4 289 298 299 290
4 290 299 300 291
4 291 300 301 292
4 292 301 302 293
4 293 302 303 294
4 294 303 304 295
4 295 304 305 296
4 296 305 67 68
4 96 97 306 297
4 297 306 307 298
4 298 307 308 299
4 299 308 309 300
4 300 309 310 301
4 301 310 311 302
4 302 311 312 303
4 303 312 313 304
4 304 313 314 305
4 305 314 66 67
4 97 98 315 306
4 306 315 316 307
4 307 316 317 308
4 308 317 318 309
4 309 318 319 310
4 310 319 320 311
4 311 320 321 312
4 312 321 322 313
4 313 322 323 314
4 314 323 65 66
4 98 99 324 315
4 315 324 325 316
4 316 325 326 317
4 317 326 327 318
4 318 327 328 319
4 319 328 329 320
4 320 329 330 321
4 321 330 331 322
4 322 331 332 323
4 323 332 64 65
4 99 100 333 324
4 324 333 334 325
4 325 334 335 326
4 326 335 336 327
4 327 336 337 328
4 328 337 338 329
4 329 338 339 330
4 330 339 340 331
4 331 340 341 332
4 332 341 63 64
4 100 101 342 333
4 333 342 343 334
4 334 343 344 335
4 335 344 345 336
4 336 345 346 337
4 337 346 347 338
4 338 347 348 339
4 339 348 349 340
4 340 349 350 341
4 341 350 62 63
4 101 102 351 342
4 342 351 352 343
4 343 352 353 344
4 344 353 354 345
4 345 354 355 346
4 346 355 356 347
4 347 356 357 348
4 348 357 358 349
4 349 358 359 350
4 350 359 61 62
4 102 103 360 351
4 351 360 361 352
4 352 361 362 353
4 353 362 363 354
4 354 363 364 355
4 355 364 365 356
4 356 365 366 357
4 357 366 367 358
4 358 367 368 359
4 359 368 60 61
4 103 104 369 360
4 360 369 370 361
4 361 370 371 362
4 362 371 372 363
4 363 372 373 364
4 364 373 374 365
4 365 374 375 366
4 366 375 376 367
4 367 376 377 368
4 368 377 59 60
4 104 105 378 369
4 369 378 379 370
4 370 379 380 371
4 371 380 381 372
4 372 381 382 373
4 373 382 383 374
4 374 383 384 375
4 375 384 385 376
4 376 385 386 377
4 377 386 58 59
4 105 106 387 378
4 378 387 388 379
4 379 388 389 380
4 380 389 390 381
4 381 390 391 382
4 382 391 392 383
4 383 392 393 384
4 384 393 394 385
4 385 394 395 386
4 386 395 57 58
4 106 107 396 387
4 387 396 397 388
4 388 397 398 389
4 389 398 399 390
4 390 399 400 391
4 391 400 401 392
4 392 401 402 393
4 393 402 403 394
4 394 403 404 395
4 395 404 56 57
4 107 108 405 396
4 396 405 406 397
4 397 406 407 398
4 398 407 408 399
4 399 408 409 400
4 400 409 410 401
4 401 410 411 402
4 402 411 412 403
4 403 412 413 404
4 404 413 55 56
4 108 109 414 405
4 405 414 415 406
4 406 415 416 407
4 407 416 417 408
4 408 417 418 409
4 409 418 419 410
4 410 419 420 411
4 411 420 421 412
4 412 421 422 413
4 413 422 54 55
4 109 110 423 414
4 414 423 424 415
4 415 424 425 416
4 416 425 426 417
4 417 426 427 418
4 418 427 428 419
4 419 428 429 420
4 420 429 430 421
4 421 430 431 422
4 422 431 53 54
4 110 111 432 423
4 423 432 433 424
4 424 433 434 425
4 425 434 435 426
4 426 435 436 427
4 427 436 437 428
4 428 437 438 429
4 429 438 439 430
4 430 439 440 431
4 431 440 52 53
4 111 112 441 432
4 432 441 442 433
4 433 442 443 434
4 434 443 444 435
4 435 444 445 436
4 436 445 446 437
4 437 446 447 438
4 438 447 448 439
4 439 448 449 440
4 440 449 51 52
4 112 113 450 441
4 441 450 451 442
4 442 451 452 443
4 443 452 453 444
4 444 453 454 445
4 445 454 455 446
4 446 455 456 447
4 447 456 457 448
4 448 457 458 449
4 449 458 50 51
4 113 114 459 450
4 450 459 460 451
4 451 460 461 452
4 452 461 462 453
4 453 462 463 454
4 454 463 464 455
4 455 464 465 456
4 456 465 466 457
4 457 466 467 458
4 458 467 49 50
4 114 115 468 459
4 459 468 469 460
4 460 469 470 461
4 461 470 471 462
4 462 471 472 463
4 463 472 473 464
4 464 473 474 465
4 465 474 475 466
4 466 475 476 467
4 467 476 48 49
4 115 116 477 468
4 468 477 478 469
4 469 478 479 470
4 470 479 480 471
4 471 480 481 472
4 472 481 482 473
4 473 482 483 474
4 474 483 484 475
4 475 484 485 476
4 476 485 47 48
4 116 117 486 477
4 477 486 487 478
4 478 487 488 479
4 479 488 489 480
4 480 489 490 481
4 481 490 491 482
4 482 491 492 483
4 483 492 493 484
4 484 493 494 485
4 485 494 46 47
4 117 118 495 486
4 486 495 496 487
4 487 496 497 488
4 488 497 498 489
4 489 498 499 490
4 490 499 500 491
4 491 500 501 492
4 492 501 502 493
4 493 502 503 494
4 494 503 45 46
4 118 119 504 495
4 495 504 505 496
4 496 505 506 497
4 497 506 507 498
4 498 507 508 499
4 499 508 509 500
4 500 509 510 501
4 501 510 511 502
4 502 511 512 503
4 503 512 44 45
4 119 120 513 504
4 504 513 514 505
4 505 514 515 506
4 506 515 516 507
4 507 516 517 508
4 508 517 518 509
4 509 518 519 510
4 510 519 520 511
4 511 520 521 512
4 512 521 43 44
4 120 121 522 513
4 513 522 523 514
4 514 523 524 515
4 515 524 525 516
4 516 525 526 517
4 517 526 527 518
4 518 527 528 519
4 519 528 529 520
4 520 529 530 521
4 521 530 42 43
4 121 122 531 522
4 522 531 532 523
4 523 532 533 524
4 524 533 534 525
4 525 534 535 526
4 526 535 536 527
4 527 536 537 528
4 528 537 538 529
4 529 538 539 530
4 530 539 41 42
4 122 123 540 531
4 531 540 541 532
4 532 541 542 533
4 533 542 543 534
4 534 543 544 535
4 535 544 545 536
4 536 545 546 537
4 537 546 547 538
4 538 547 548 539
4 539 548 40 41
4 123 124 549 540
4 540 549 550 541
4 541 550 551 542
4 542 551 552 543
4 543 552 553 544
4 544 553 554 545
4 545 554 555 546
4 546 555 556 547
4 547 556 557 548
4 548 557 39 40
4 124 125 558 549
4 549 558 559 550
4 550 559 560 551
4 551 560 561 552
4 552 561 562 553
4 553 562 563 554
4 554 563 564 555
4 555 564 565 556
4 556 565 566 557
4 557 566 38 39
4 125 126 567 558
4 558 567 568 559
4 559 568 569 560
4 560 569 570 561
4 561 570 571 562
4 562 571 572 563
4 563 572 573 564
4 564 573 574 565
4 565 574 575 566
4 566 575 37 38
4 126 127 576 567
4 567 576 577 568
4 568 577 578 569
4 569 578 579 570
4 570 579 580 571
4 571 580 581 572
4 572 581 582 573
4 573 582 583 574
4 574 583 584 575
4 575 584 36 37
4 127 128 585 576
4 576 585 586 577
4 577 586 587 578
4 578 587 588 579
4 579 588 589 580
4 580 589 590 581
4 581 590 591 582
4 582 591 592 583
4 583 592 593 584
4 584 593 35 36
4 128 129 594 585
4 585 594 595 586
4 586 595 596 587
4 587 596 597 588
4 588 597 598 589
4 589 598 599 590
4 590 599 600 591
4 591 600 601 592
4 592 601 602 593
4 593 602 34 35
4 129 130 603 594
4 594 603 604 595
4 595 604 605 596
4 596 605 606 597
4 597 606 607 598
4 598 607 608 599
4 599 608 609 600
4 600 609 610 601
4 601 610 611 602
4 602 611 33 34
4 130 131 612 603
4 603 612 613 604
4 604 613 614 605
4 605 614 615 606
4 606 615 616 607
4 607 616 617 608
4 608 617 618 609
4 609 618 619 610
4 610 619 620 611
4 611 620 32 33
4 131 132 621 612
4 612 621 622 613
4 613 622 623 614
4 614 623 624 615
4 615 624 625 616
4 616 625 626 617
4 617 626 627 618
4 618 627 628 619
4 619 628 629 620
4 620 629 31 32
4 132 133 630 621
4 621 630 631 622
4 622 631 632 623
4 623 632 633 624
4 624 633 634 625
4 625 634 635 626
4 626 635 636 627
4 627 636 637 628
4 628 637 638 629
4 629 638 30 31
4 133 134 639 630
4 630 639 640 631
4 631 640 641 632
4 632 641 642 633
4 633 642 643 634
4 634 643 644 635
4 635 644 645 636
4 636 645 646 637
4 637 646 647 638
4 638 647 29 30
4 134 135 648 639
4 639 648 649 640
4 640 649 650 641
4 641 650 651 642
4 642 651 652 643
4 643 652 653 644
4 644 653 654 645
4 645 654 655 646
4 646 655 656 647
4 647 656 28 29
4 135 136 657 648
4 648 657 658 649
4 649 658 659 650
4 650 659 660 651
4 651 660 661 652
4 652 661 662 653
4 653 662 663 654
4 654 663 664 655
4 655 664 665 656
4 656 665 27 28
4 136 137 666 657
4 657 666 667 658
4 658 667 668 659
4 659 668 669 660
4 660 669 670 661
4 661 670 671 662
4 662 671 672 663
4 663 672 673 664
4 664 673 674 665
4 665 674 26 27
4 137 138 675 666
4 666 675 676 667
4 667 676 677 668
4 668 677 678 669
4 669 678 679 670
4 670 679 680 671
4 671 680 681 672
4 672 681 682 673
4 673 682 683 674
4 674 683 25 26
4 138 139 684 675
4 675 684 685 676
4 676 685 686 677
4 677 686 687 678
4 678 687 688 679
4 679 688 689 680
4 680 689 690 681
4 681 690 691 682
4 682 691 692 683
4 683 692 24 25
4 139 140 693 684
4 684 693 694 685
4 685 694 695 686
4 686 695 696 687
4 687 696 697 688
4 688 697 698 689
4 689 698 699 690
4 690 699 700 691
4 691 700 701 692
4 692 701 23 24
4 140 141 702 693
4 693 702 703 694
4 694 703 704 695
4 695 704 705 696
4 696 705 706 697
4 697 706 707 698
4 698 707 708 699
4 699 708 709 700
4 700 709 710 701
4 701 710 22 23
4 141 142 711 702
4 702 711 712 703
4 703 712 713 704
4 704 713 714 705
4 705 714 715 706
4 706 715 716 707
4 707 716 717 708
4 708 717 718 709
4 709 718 719 710
4 710 719 21 22
4 142 143 720 711
4 711 720 721 712
4 712 721 722 713
4 713 722 723 714
4 714 723 724 715
4 715 724 725 716
4 716 725 726 717
4 717 726 727 718
4 718 727 728 719
4 719 728 20 21
4 143 144 729 720
4 720 729 730 721
4 721 730 731 722
4 722 731 732 723
4 723 732 733 724
4 724 733 734 725
4 725 734 735 726
4 726 735 736 727
4 727 736 737 728
4 728 737 19 20
4 144 145 738 729
4 729 738 739 730
4 730 739 740 731
4 731 740 741 732
4 732 741 742 733
4 733 742 743 734
4 734 743 744 735
4 735 744 745 736
4 736 745 746 737
4 737 746 18 19
4 145 146 747 738
4 738 747 748 739
4 739 748 749 740
4 740 749 750 741
4 741 750 751 742
4 742 751 752 743
4 743 752 753 744
4 744 753 754 745
4 745 754 755 746
4 746 755 17 18
4 146 147 756 747
4 747 756 757 748
4 748 757 758 749
4 749 758 759 750
4 750 759 760 751
4 751 760 761 752
4 752 761 762 753
4 753 762 763 754
4 754 763 764 755
4 755 764 16 17
4 147 148 765 756
4 756 765 766 757
4 757 766 767 758
4 758 767 768 759
4 759 768 769 760
4 760 769 770 761
4 761 770 771 762
4 762 771 772 763
4 763 772 773 764
4 764 773 15 16
4 148 149 774 765
4 765 774 775 766
4 766 775 776 767
4 767 776 777 768
4 768 777 778 769
4 769 778 779 770
4 770 779 780 771
4 771 780 781 772
4 772 781 782 773
4 773 782 14 15
4 149 150 783 774
4 774 783 784 775
4 775 784 785 776
4 776 785 786 777
4 777 786 787 778
4 778 787 788 779
4 779 788 789 780
4 780 789 790 781
4 781 790 791 782
4 782 791 13 14
4 150 151 792 783
4 783 792 793 784
4 784 793 794 785
4 785 794 795 786
4 786 795 796 787
4 787 796 797 788
4 788 797 798 789
4 789 798 799 790
4 790 799 800 791
4 791 800 12 13
4 151 152 801 792
4 792 801 802 793
4 793 802 803 794
4 794 803 804 795
4 795 804 805 796
4 796 805 806 797
4 797 806 807 798
4 798 807 808 799
4 799 808 809 800
4 800 809 11 12
4 152 153 810 801
4 801 810 811 802
4 802 811 812 803
4 803 812 813 804
4 804 813 814 805
4 805 814 815 806
4 806 815 816 807
4 807 816 817 808
4 808 817 818 809
4 809 818 10 11
4 153 154 819 810
4 810 819 820 811
4 811 820 821 812
4 812 821 822 813
4 813 822 823 814
4 814 823 824 815
4 815 824 825 816
4 816 825 826 817
4 817 826 827 818
4 818 827 9 10
4 154 155 828 819
4 819 828 829 820
4 820 829 830 821
4 821 830 831 822
4 822 831 832 823
4 823 832 833 824
4 824 833 834 825
4 825 834 835 826
4 826 835 836 827
4 827 836 8 9
4 155 156 837 828
4 828 837 838 829
4 829 838 839 830
4 830 839 840 831
4 831 840 841 832
4 832 841 842 833
4 833 842 843 834
4 834 843 844 835
4 835 844 845 836
4 836 845 7 8
4 156 157 846 837
4 837 846 847 838
4 838 847 848 839
4 839 848 849 840
4 840 849 850 841
4 841 850 851 842
4 842 851 852 843
4 843 852 853 844
4 844 853 854 845
4 845 854 6 7
4 157 158 855 846
4 846 855 856 847
4 847 856 857 848
4 848 857 858 849
4 849 858 859 850
4 850 859 860 851
4 851 860 861 852
4 852 861 862 853
4 853 862 863 854
4 854 863 5 6
4 158 159 864 855
4 855 864 865 856
4 856 865 866 857
4 857 866 867 858
4 858 867 868 859
4 859 868 869 860
4 860 869 870 861
4 861 870 871 862
4 862 871 872 863
4 863 872 4 5
4 159 160 873 864
4 864 873 874 865
4 865 874 875 866
4 866 875 876 867
4 867 876 877 868
4 868 877 878 869
4 869 878 879 870
4 870 879 880 871
4 871 880 881 872
4 872 881 3 4
4 160 161 882 873
4 873 882 883 874
4 874 883 884 875
4 875 884 885 876
4 876 885 886 877
4 877 886 887 878
4 878 887 888 879
4 879 888 889 880
4 880 889 890 881
4 881 890 2 3
4 161 81 162 882
4 882 162 163 883
4 883 163 164 884
4 884 164 165 885
4 885 165 166 886
4 886 166 167 887
4 887 167 168 888
4 888 168 169 889
4 889 169 170 890
4 890 170 1 2
CELL_TYPES 800
9
9
9
9
9
9
9
9
9
9
9
9
9
9
9
9
9
9
9
9
9
9
9
9
9
9
9
9
9
9
9
9
9
9
9
9
9
9
9
9
9
9
9
9
9
9
9
9
9
9
9
9
9
9
9
9
9
9
9
9
9
9
9
9
9
9
9
9
9
9
9
9
9
9
9
9
9
9
9
9
9
9
9
9
9
9
9
9
9
9
9
9
9
9
9
9
9
9
9
9
9
9
9
9
9
9
9
9
9
9
9
9
9
9
9
9
9
9
9
9
9
9
9
9
9
9
9
9
9
9
9
9
9
9
9
9
9
9
9
9
9
9
9
9
9
9
9
9
9
9
9
9
9
9
9
9
9
9
9
9
9
9
9
9
9
9
9
9
9
9
9
9
9
9
9
9
9
9
9
9
9
9
9
9
9
9
9
9
9
9
9
9
9
9
9
9
9
9
9
9
9
9
9
9
9
9
9
9
9
9
9
9
9
9
9
9
9
9
9
9
9
9
9
9
9
9
9
9
9
9
9
9
9
9
9
9
9
9
9
9
9
9
9
9
9
9
9
9
9
9
9
9
9
9
9
9
9
9
9
9
9
9
9
9
9
9
9
9
9
9
9
9
9
9
9
9
9
9
9
9
9
9
9
9
9
9
9
9
9
9
9
9
9
9
9
9
9
9
9
9
9
9
9
9
9
9
9
9
9
9
9
9
9
9
9
9
9
9
9
9
9
9
9
9
9
9
9
9
9
9
9
9
9
9
9
9
9
9
9
9
9
9
9
9
9
9
9
9
9
9
9
9
9
9
9
9
9
9
9
9
9
9
9
9
9
9
9
9
9
9
9
9
9
9
9
9
9
9
9
9
9
9
9
9
9
9
9
9
9
9
9
9
9
9
9
9
9
9
9
9
9
9
9
9
9
9
9
9
9
9
9
9
9
9
9
9
9
9
9
9
9
9
9
9
9
9
9
9
9
9
9
9
9
9
9
9
9
9
9
9
9
9
9
9
9
9
9
9
9
9
9
9
9
9
9
9
9
9
9
9
9
9
9
9
9
9
9
9
9
9
9
9
9
9
9
9
9
9
9
9
9
9
9
9
9
9
9
9
9
9
9
9
9
9
9
9
9
9
9
9
9
9
9
9
9
9
9
9
9
9
9
9
9
9
9
9
9
9
9
9
9
9
9
9
9
9
9
9
9
9
9
9
9
9
9
9
9
9
9
9
9
9
9
9
9
9
9
9
9
9
9
9
9
9
9
9
9
9
9
9
9
9
9
9
9
9
9
9
9
9
9
9
9
9
9
9
9
9
9
9
9
9
9
9
9
9
9
9
9
9
9
9
9
9
9
9
9
9
9
9
9
9
9
9
9
9
9
9
9
9
9
9
9
9
9
9
9
9
9
9
9
9
9
9
9
9
9
9
9
9
9
9
9
9
9
9
9
9
9
9
9
9
9
9
9
9
9
9
9
9
9
9
9
9
9
9
9
9
9
9
9
9
9
9
9
9
9
9
9
9
9
9
9
9
9
9
9
9
9
9
9
9
9
9
9
9
9
9
9
9
9
9
9
9
9
9
9
9
9
9
9
9
9
9
9
9
9
9
9
9
9
9
9
9
9
9
9
9
9
9
9
9
9
9
9
9
9
9
9
9
9
9
9
9
9
9
9
9
9
9
9
9
9
9
9
9
9
9
9
9
9
9
9
9
9
9
9
9
9
9
9
9
9
9
9
9
9
9
9
9
9
9
9
9
9
9
9
9
9
9
9
9
9
9
9
9
9
9
9
9
9
9
9
9
9
9
9
9
9
9
POINT_DATA 891
SCALARS u1 float
LOOKUP_TABLE default
-2e-18
-2e-07
-2e-07
-2e-07
-2e-07
-2e-07
-2e-07
-2e-07
-2e-07
-2e-07
-2e-07
-2e-07
-2e-07
-2e-07
-2e-07
-2e-07
-2e-07
-2e-07
-2e-07
-2e-07
-2e-07
-2e-07
-2e-07
-2e-07
-2e-07
-2e-07
-2e-07
-2e-07
-2e-07
-2e-07
-2e-07
-2e-07
-2e-07
-2e-07
-2e-07
-2e-07
-2e-07
-2e-07
-2e-07
-2e-07
-2e-07
-2e-07
-2e-07
-2e-07
-2e-07
-2e-07
-2e-07
-2e-07
-2e-07
-2e-07
-2e-07
-2e-07
-2e-07
-2e-07
-2e-07
-2e-07
-2e-07
-2e-07
-2e-07
-2e-07
-2e-07
-2e-07
-2e-07
-2e-07
-2e-07
-2e-07
-2e-07
-2e-07
-2e-07
-2e-07
-2e-07
-2e-07
-2e-07
-2e-07
-2e-07
-2e-07
-2e-07
-2e-07
-2e-07
-2e-07
-1e-07
2e-07
5e-18
1e-07
2e-07
2e-07
2e-07
2e-07
2e-07
2e-07
2e-07
2e-07
2e-07
2e-07
2e-07
2e-07
2e-07
2e-07
2e-07
2e-07
2e-07
2e-07
2e-07
2e-07
2e-07
2e-07
2e-07
2e-07
2e-07
2e-07
2e-07
2e-07
2e-07
2e-07
2e-07
2e-07
2e-07
2e-07
2e-07
2e-07
2e-07
2e-07
2e-07
2e-07
2e-07
2e-07
2e-07
2e-07
2e-07
2e-07
2e-07
2e-07
2e-07
2e-07
2e-07
2e-07
2e-07
2e-07
2e-07
2e-07
2e-07
2e-07
2e-07
2e-07
2e-07
2e-07
2e-07
2e-07
2e-07
2e-07
2e-07
2e-07
2e-07
2e-07
2e-07
2e-07
2e-07
2e-07
2e-07
2e-07
2e-07
2e-07
1e-07
1e-07
7e-08
4e-08
3e-14
-4e-08
-7e-08
-1e-07
-1e-07
-9e-18
2e-18
1e-17
3e-18
3e-19
-2e-18
-7e-18
7e-18
9e-18
1e-07
7e-08
5e-08
2e-08
9e-15
-2e-08
-5e-08
-7e-08
-1e-07
1e-07
1e-07
7e-08
4e-08
2e-14
-4e-08
-7e-08
-1e-07
-1e-07
2e-07
1e-07
8e-08
4e-08
2e-14
-4e-08
-8e-08
-1e-07
-2e-07
2e-07
1e-07
8e-08
4e-08
3e-14
-4e-08
-8e-08
-1e-07
-2e-07
2e-07
1e-07
8e-08
4e-08
3e-14
-4e-08
-8e-08
-1e-07
-2e-07
1e-07
1e-07
7e-08
4e-08
3e-14
-4e-08
-7e-08
-1e-07
-1e-07
1e-07
1e-07
7e-08
4e-08
3e-14
-4e-08
-7e-08
-1e-07
-1e-07
1e-07
1e-07
7e-08
4e-08
3e-14
-4e-08
-7e-08
-1e-07
-1e-07
1e-07
1e-07
7e-08
4e-08
3e-14
-4e-08
-7e-08
-1e-07
-1e-07
1e-07
1e-07
7e-08
4e-08
3e-14
-4e-08
-7e-08
-1e-07
-1e-07
1e-07
1e-07
7e-08
4e-08
3e-14
-4e-08
-7e-08
-1e-07
-1e-07
1e-07
1e-07
7e-08
4e-08
3e-14
-4e-08
-7e-08
-1e-07
-1e-07
1e-07
1e-07
7e-08
4e-08
3e-14
-4e-08
-7e-08
-1e-07
-1e-07
1e-07
1e-07
7e-08
4e-08
3e-14
-4e-08
-7e-08
-1e-07
-1e-07
1e-07
1e-07
7e-08
4e-08
3e-14
-4e-08
-7e-08
-1e-07
-1e-07
1e-07
1e-07
7e-08
4e-08
3e-14
-4e-08
-7e-08
-1e-07
-1e-07
1e-07
1e-07
7e-08
4e-08
3e-14
-4e-08
-7e-08
-1e-07
-1e-07
1e-07
1e-07
7e-08
4e-08
3e-14
-4e-08
-7e-08
-1e-07
-1e-07
1e-07
1e-07
7e-08
4e-08
3e-14
-4e-08
-7e-08
-1e-07
-1e-07
1e-07
1e-07
7e-08
4e-08
3e-14
-4e-08
-7e-08
-1e-07
-1e-07
1e-07
1e-07
7e-08
4e-08
3e-14
-4e-08
-7e-08
-1e-07
-1e-07
1e-07
1e-07
7e-08
4e-08
3e-14
-4e-08
-7e-08
-1e-07
-1e-07
1e-07
1e-07
7e-08
4e-08
3e-14
-4e-08
-7e-08
-1e-07
-1e-07
1e-07
1e-07
7e-08
4e-08
3e-14
-4e-08
-7e-08
-1e-07
-1e-07
1e-07
1e-07
7e-08
4e-08
3e-14
-4e-08
-7e-08
-1e-07
-1e-07
1e-07
1e-07
7e-08
4e-08
3e-14
-4e-08
-7e-08
-1e-07
-1e-07
1e-07
1e-07
7e-08
4e-08
3e-14
-4e-08
-7e-08
-1e-07
-1e-07
1e-07
1e-07
7e-08
4e-08
3e-14
-4e-08
-7e-08
-1e-07
-1e-07
1e-07
1e-07
7e-08
4e-08
3e-14
-4e-08
-7e-08
-1e-07
-1e-07
1e-07
1e-07
7e-08
4e-08
3e-14
-4e-08
-7e-08
-1e-07
-1e-07
1e-07
1e-07
7e-08
4e-08
3e-14
-4e-08
-7e-08
-1e-07
-1e-07
1e-07
1e-07
7e-08
4e-08
3e-14
-4e-08
-7e-08
-1e-07
-1e-07
1e-07
1e-07
7e-08
4e-08
3e-14
-4e-08
-7e-08
-1e-07
-1e-07
1e-07
1e-07
7e-08
4e-08
3e-14
-4e-08
-7e-08
-1e-07
-1e-07
1e-07
1e-07
7e-08
4e-08
3e-14
-4e-08
-7e-08
-1e-07
-1e-07
1e-07
1e-07
7e-08
4e-08
3e-14
-4e-08
-7e-08
-1e-07
-1e-07
1e-07
1e-07
7e-08
4e-08
3e-14
-4e-08
-7e-08
-1e-07
-1e-07
1e-07
1e-07
7e-08
4e-08
3e-14
-4e-08
-7e-08
-1e-07
-1e-07
1e-07
1e-07
7e-08
4e-08
3e-14
-4e-08
-7e-08
-1e-07
-1e-07
1e-07
1e-07
7e-08
4e-08
3e-14
-4e-08
-7e-08
-1e-07
-1e-07
1e-07
1e-07
7e-08
4e-08
3e-14
-4e-08
-7e-08
-1e-07
-1e-07
1e-07
1e-07
7e-08
4e-08
3e-14
-4e-08
-7e-08
-1e-07
-1e-07
1e-07
1e-07
7e-08
4e-08
3e-14
-4e-08
-7e-08
-1e-07
-1e-07
1e-07
1e-07
7e-08
4e-08
3e-14
-4e-08
-7e-08
-1e-07
-1e-07
1e-07
1e-07
7e-08
4e-08
3e-14
-4e-08
-7e-08
-1e-07
-1e-07
1e-07
1e-07
7e-08
4e-08
3e-14
-4e-08
-7e-08
-1e-07
-1e-07
1e-07
1e-07
7e-08
4e-08
3e-14
-4e-08
-7e-08
-1e-07
-1e-07
1e-07
1e-07
7e-08
4e-08
3e-14
-4e-08
-7e-08
-1e-07
-1e-07
1e-07
1e-07
7e-08
4e-08
3e-14
-4e-08
-7e-08
-1e-07
-1e-07
1e-07
1e-07
7e-08
4e-08
3e-14
-4e-08
-7e-08
-1e-07
-1e-07
1e-07
1e-07
7e-08
4e-08
3e-14
-4e-08
-7e-08
-1e-07
-1e-07
1e-07
1e-07
7e-08
4e-08
3e-14
-4e-08
-7e-08
-1e-07
-1e-07
1e-07
1e-07
7e-08
4e-08
3e-14
-4e-08
-7e-08
-1e-07
-1e-07
1e-07
1e-07
7e-08
4e-08
3e-14
-4e-08
-7e-08
-1e-07
-1e-07
1e-07
1e-07
7e-08
4e-08
3e-14
-4e-08
-7e-08
-1e-07
-1e-07
1e-07
1e-07
7e-08
4e-08
3e-14
-4e-08
-7e-08
-1e-07
-1e-07
1e-07
1e-07
7e-08
4e-08
3e-14
-4e-08
-7e-08
-1e-07
-1e-07
1e-07
1e-07
7e-08
4e-08
3e-14
-4e-08
-7e-08
-1e-07
-1e-07
1e-07
1e-07
7e-08
4e-08
3e-14
-4e-08
-7e-08
-1e-07
-1e-07
1e-07
1e-07
7e-08
4e-08
3e-14
-4e-08
-7e-08
-1e-07
-1e-07
1e-07
1e-07
7e-08
4e-08
3e-14
-4e-08
-7e-08
-1e-07
-1e-07
1e-07
1e-07
7e-08
4e-08
3e-14
-4e-08
-7e-08
-1e-07
-1e-07
1e-07
1e-07
7e-08
4e-08
3e-14
-4e-08
-7e-08
-1e-07
-1e-07
1e-07
1e-07
7e-08
4e-08
3e-14
-4e-08
-7e-08
-1e-07
-1e-07
1e-07
1e-07
7e-08
4e-08
3e-14
-4e-08
-7e-08
-1e-07
-1e-07
1e-07
1e-07
7e-08
4e-08
3e-14
-4e-08
-7e-08
-1e-07
-1e-07
1e-07
1e-07
7e-08
4e-08
3e-14
-4e-08
-7e-08
-1e-07
-1e-07
1e-07
1e-07
7e-08
4e-08
3e-14
-4e-08
-7e-08
-1e-07
-1e-07
1e-07
1e-07
7e-08
4e-08
3e-14
-4e-08
-7e-08
-1e-07
-1e-07
1e-07
1e-07
7e-08
4e-08
3e-14
-4e-08
-7e-08
-1e-07
-1e-07
1e-07
1e-07
7e-08
4e-08
3e-14
-4e-08
-7e-08
-1e-07
-1e-07
1e-07
1e-07
7e-08
4e-08
3e-14
-4e-08
-7e-08
-1e-07
-1e-07
1e-07
1e-07
7e-08
4e-08
3e-14
-4e-08
-7e-08
-1e-07
-1e-07
1e-07
1e-07
7e-08
4e-08
3e-14
-4e-08
-7e-08
-1e-07
-1e-07
1e-07
1e-07
7e-08
4e-08
3e-14
-4e-08
-7e-08
-1e-07
-1e-07
1e-07
1e-07
7e-08
4e-08
3e-14
-4e-08
-7e-08
-1e-07
-1e-07
1e-07
1e-07
7e-08
4e-08
3e-14
-4e-08
-7e-08
-1e-07
-1e-07
1e-07
1e-07
7e-08
4e-08
3e-14
-4e-08
-7e-08
-1e-07
-1e-07
1e-07
1e-07
7e-08
4e-08
3e-14
-4e-08
-7e-08
-1e-07
-1e-07
SCALARS u2 float
LOOKUP_TABLE default
6e-19
-5e-05
-5e-05
-5e-05
-5e-05
-5e-05
-5e-05
-5e-05
-5e-05
-5e-05
-5e-05
-5e-05
-5e-05
-5e-05
-5e-05
-4e-05
-4e-05
-4e-05
-4e-05
-4e-05
-4e-05
-4e-05
-4e-05
-4e-05
-4e-05
-4e-05
-4e-05
-4e-05
-4e-05
-4e-05
-3e-05
-3e-05
-3e-05
-3e-05
-3e-05
-3e-05
-3e-05
-3e-05
-3e-05
-3e-05
-3e-05
-3e-05
-3e-05
-3e-05
-3e-05
-2e-05
-2e-05
-2e-05
-2e-05
-2e-05
-2e-05
-2e-05
-2e-05
-2e-05
-2e-05
-2e-05
-2e-05
-2e-05
-2e-05
-1e-05
-1e-05
-1e-05
-1e-05
-1e-05
-1e-05
-1e-05
-1e-05
-1e-05
-9e-06
-8e-06
-7e-06
-7e-06
-6e-06
-5e-06
-5e-06
-4e-06
-3e-06
-3e-06
-2e-06
-1e-06
-7e-07
-5e-05
-2e-18
-7e-07
-1e-06
-2e-06
-3e-06
-3e-06
-4e-06
-5e-06
-5e-06
-6e-06
-7e-06
-7e-06
-8e-06
-9e-06
-1e-05
-1e-05
-1e-05
-1e-05
-1e-05
-1e-05
-1e-05
-1e-05
-1e-05
-2e-05
-2e-05
-2e-05
-2e-05
-2e-05
-2e-05
-2e-05
-2e-05
-2e-05
-2e-05
-2e-05
-2e-05
-2e-05
-2e-05
-3e-05
-3e-05
-3e-05
-3e-05
-3e-05
-3e-05
-3e-05
-3e-05
-3e-05
-3e-05
-3e-05
-3e-05
-3e-05
-3e-05
-3e-05
-4e-05
-4e-05
-4e-05
-4e-05
-4e-05
-4e-05
-4e-05
-4e-05
-4e-05
-4e-05
-4e-05
-4e-05
-4e-05
-4e-05
-4e-05
-5e-05
-5e-05
-5e-05
-5e-05
-5e-05
-5e-05
-5e-05
-5e-05
-5e-05
-5e-05
-5e-05
-5e-05
-5e-05
-5e-05
-5e-05
-5e-05
-5e-05
-5e-05
-5e-05
-5e-05
-5e-05
-5e-05
-2e-19
6e-18
-2e-17
1e-17
-2e-17
-2e-17
-3e-17
-3e-17
9e-18
-7e-07
-7e-07
-7e-07
-7e-07
-7e-07
-7e-07
-7e-07
-7e-07
-7e-07
-1e-06
-1e-06
-1e-06
-1e-06
-1e-06
-1e-06
-1e-06
-1e-06
-1e-06
-2e-06
-2e-06
-2e-06
-2e-06
-2e-06
-2e-06
-2e-06
-2e-06
-2e-06
-3e-06
-3e-06
-3e-06
-3e-06
-3e-06
-3e-06
-3e-06
-3e-06
-3e-06
-3e-06
-3e-06
-3e-06
-3e-06
-3e-06
-3e-06
-3e-06
-3e-06
-3e-06
-4e-06
-4e-06
-4e-06
-4e-06
-4e-06
-4e-06
-4e-06
-4e-06
-4e-06
-5e-06
-5e-06
-5e-06
-5e-06
-5e-06
-5e-06
-5e-06
-5e-06
-5e-06
-5e-06
-5e-06
-5e-06
-5e-06
-5e-06
-5e-06
-5e-06
-5e-06
-5e-06
-6e-06
-6e-06
-6e-06
-6e-06
-6e-06
-6e-06
-6e-06
-6e-06
-6e-06
-7e-06
-7e-06
-7e-06
-7e-06
-7e-06
-7e-06
-7e-06
-7e-06
-7e-06
-7e-06
-7e-06
-7e-06
-7e-06
-7e-06
-7e-06
-7e-06
-7e-06
-7e-06
-8e-06
-8e-06
-8e-06
-8e-06
-8e-06
-8e-06
-8e-06
-8e-06
-8e-06
-9e-06
-9e-06
-9e-06
-9e-06
-9e-06
-9e-06
-9e-06
-9e-06
-9e-06
-1e-05
-1e-05
-1e-05
-1e-05
-1e-05
-1e-05
-1e-05
-1e-05
-1e-05
-1e-05
-1e-05
-1e-05
-1e-05
-1e-05
-1e-05
-1e-05
-1e-05
-1e-05
-1e-05
-1e-05
-1e-05
-1e-05
-1e-05
-1e-05
-1e-05
-1e-05
-1e-05
-1e-05
-1e-05
-1e-05
-1e-05
-1e-05
-1e-05
-1e-05
-1e-05
-1e-05
-1e-05
-1e-05
-1e-05
-1e-05
-1e-05
-1e-05
-1e-05
-1e-05
-1e-05
-1e-05
-1e-05
-1e-05
-1e-05
-1e-05
-1e-05
-1e-05
-1e-05
-1e-05
-1e-05
-1e-05
-1e-05
-1e-05
-1e-05
-1e-05
-1e-05
-1e-05
-1e-05
-1e-05
-1e-05
-1e-05
-1e-05
-1e-05
-1e-05
-1e-05
-1e-05
-1e-05
-1e-05
-1e-05
-1e-05
-1e-05
-1e-05
-1e-05
-1e-05
-1e-05
-1e-05
-2e-05
-2e-05
-2e-05
-2e-05
-2e-05
-2e-05
-2e-05
-2e-05
-2e-05
-2e-05
-2e-05
-2e-05
-2e-05
-2e-05
-2e-05
-2e-05
-2e-05
-2e-05
-2e-05
-2e-05
-2e-05
-2e-05
-2e-05
-2e-05
-2e-05
-2e-05
-2e-05
-2e-05
-2e-05
-2e-05
-2e-05
-2e-05
-2e-05
-2e-05
-2e-05
-2e-05
-2e-05
-2e-05
-2e-05
-2e-05
-2e-05
-2e-05
-2e-05
-2e-05
-2e-05
-2e-05
-2e-05
-2e-05
-2e-05
-2e-05
-2e-05
-2e-05
-2e-05
-2e-05
-2e-05
-2e-05
-2e-05
-2e-05
-2e-05
-2e-05
-2e-05
-2e-05
-2e-05
-2e-05
-2e-05
-2e-05
-2e-05
-2e-05
-2e-05
-2e-05
-2e-05
-2e-05
-2e-05
-2e-05
-2e-05
-2e-05
-2e-05
-2e-05
-2e-05
-2e-05
-2e-05
-2e-05
-2e-05
-2e-05
-2e-05
-2e-05
-2e-05
-2e-05
-2e-05
-2e-05
-2e-05
-2e-05
-2e-05
-2e-05
-2e-05
-2e-05
-2e-05
-2e-05
-2e-05
-2e-05
-2e-05
-2e-05
-2e-05
-2e-05
-2e-05
-2e-05
-2e-05
-2e-05
-2e-05
-2e-05
-2e-05
-2e-05
-2e-05
-2e-05
-2e-05
-2e-05
-2e-05
-2e-05
-2e-05
-2e-05
-2e-05
-2e-05
-2e-05
-2e-05
-2e-05
-2e-05
-3e-05
-3e-05
-3e-05
-3e-05
-3e-05
-3e-05
-3e-05
-3e-05
-3e-05
-3e-05
-3e-05
-3e-05
-3e-05
-3e-05
-3e-05
-3e-05
-3e-05
-3e-05
-3e-05
-3e-05
-3e-05
-3e-05
-3e-05
-3e-05
-3e-05
-3e-05
-3e-05
-3e-05
-3e-05
-3e-05
-3e-05
-3e-05
-3e-05
-3e-05
-3e-05
-3e-05
-3e-05
-3e-05
-3e-05
-3e-05
-3e-05
-3e-05
-3e-05
-3e-05
-3e-05
-3e-05
-3e-05
-3e-05
-3e-05
-3e-05
-3e-05
-3e-05
-3e-05
-3e-05
-3e-05
-3e-05
-3e-05
-3e-05
-3e-05
-3e-05
-3e-05
-3e-05
-3e-05
-3e-05
-3e-05
-3e-05
-3e-05
-3e-05
-3e-05
-3e-05
-3e-05
-3e-05
-3e-05
-3e-05
-3e-05
-3e-05
-3e-05
-3e-05
-3e-05
-3e-05
-3e-05
-3e-05
-3e-05
-3e-05
-3e-05
-3e-05
-3e-05
-3e-05
-3e-05
-3e-05
-3e-05
-3e-05
-3e-05
-3e-05
-3e-05
-3e-05
-3e-05
-3e-05
-3e-05
-3e-05
-3e-05
-3e-05
-3e-05
-3e-05
-3e-05
-3e-05
-3e-05
-3e-05
-3e-05
-3e-05
-3e-05
-3e-05
-3e-05
-3e-05
-3e-05
-3e-05
-3e-05
-3e-05
-3e-05
-3e-05
-3e-05
-3e-05
-3e-05
-3e-05
-3e-05
-3e-05
-3e-05
-3e-05
-3e-05
-3e-05
-3e-05
-3e-05
-3e-05
-3e-05
-3e-05
-4e-05
-4e-05
-4e-05
-4e-05
-4e-05
-4e-05
-4e-05
-4e-05
-4e-05
-4e-05
-4e-05
-4e-05
-4e-05
-4e-05
-4e-05
-4e-05
-4e-05
-4e-05
-4e-05
-4e-05
-4e-05
-4e-05
-4e-05
-4e-05
-4e-05
-4e-05
-4e-05
-4e-05
-4e-05
-4e-05
-4e-05
-4e-05
-4e-05
-4e-05
-4e-05
-4e-05
-4e-05
-4e-05
-4e-05
-4e-05
-4e-05
-4e-05
-4e-05
-4e-05
-4e-05
-4e-05
-4e-05
-4e-05
-4e-05
-4e-05
-4e-05
-4e-05
-4e-05
-4e-05
-4e-05
-4e-05
-4e-05
-4e-05
-4e-05
-4e-05
-4e-05
-4e-05
-4e-05
-4e-05
-4e-05
-4e-05
-4e-05
-4e-05
-4e-05
-4e-05
-4e-05
-4e-05
-4e-05
-4e-05
-4e-05
-4e-05
-4e-05
-4e-05
-4e-05
-4e-05
-4e-05
-4e-05
-4e-05
-4e-05
-4e-05
-4e-05
-4e-05
-4e-05
-4e-05
-4e-05
-4e-05
-4e-05
-4e-05
-4e-05
-4e-05
-4e-05
-4e-05
-4e-05
-4e-05
-4e-05
-4e-05
-4e-05
-4e-05
-4e-05
-4e-05
-4e-05
-4e-05
-4e-05
-4e-05
-4e-05
-4e-05
-4e-05
-4e-05
-4e-05
-4e-05
-4e-05
-4e-05
-4e-05
-4e-05
-4e-05
-4e-05
-4e-05
-4e-05
-4e-05
-4e-05
-4e-05
-4e-05
-4e-05
-4e-05
-4e-05
-4e-05
-4e-05
-4e-05
-4e-05
-4e-05
-5e-05
-5e-05
-5e-05
-5e-05
-5e-05
-5e-05
-5e-05
-5e-05
-5e-05
-5e-05
-5e-05
-5e-05
-5e-05
-5e-05
-5e-05
-5e-05
-5e-05
-5e-05
-5e-05
-5e-05
-5e-05
-5e-05
-5e-05
-5e-05
-5e-05
-5e-05
-5e-05
-5e-05
-5e-05
-5e-05
-5e-05
-5e-05
-5e-05
-5e-05
-5e-05
-5e-05
-5e-05
-5e-05
-5e-05
-5e-05
-5e-05
-5e-05
-5e-05
-5e-05
-5e-05
-5e-05
-5e-05
-5e-05
-5e-05
-5e-05
-5e-05
-5e-05
-5e-05
-5e-05
-5e-05
-5e-05
-5e-05
-5e-05
-5e-05
-5e-05
-5e-05
-5e-05
-5e-05
-5e-05
-5e-05
-5e-05
-5e-05
-5e-05
-5e-05
-5e-05
-5e-05
-5e-05
-5e-05
-5e-05
-5e-05
-5e-05
-5e-05
-5e-05
-5e-05
-5e-05
-5e-05
-5e-05
-5e-05
-5e-05
-5e-05
-5e-05
-5e-05
-5e-05
-5e-05
-5e-05
-5e-05
-5e-05
-5e-05
-5e-05
-5e-05
-5e-05
-5e-05
-5e-05
-5e-05
-5e-05
-5e-05
-5e-05
-5e-05
-5e-05
-5e-05
-5e-05
-5e-05
-5e-05
-5e-05
-5e-05
-5e-05
-5e-05
-5e-05
-5e-05
-5e-05
-5e-05
-5e-05
SCALARS strain_1 float
LOOKUP_TABLE default
-0.000014
-0.021814
-0.021484
-0.021153
-0.020819
-0.020485
-0.020149
-0.019811
-0.019473
-0.019133
-0.018792
-0.018450
-0.018107
-0.017764
-0.017419
-0.017074
-0.016729
-0.016383
-0.016037
-0.015691
-0.015345
-0.014999
-0.014653
-0.014307
-0.013962
-0.013618
-0.013275
-0.012932
-0.012590
-0.012250
-0.011911
-0.011574
-0.011238
-0.010904
-0.010572
-0.010243
-0.009915
-0.009590
-0.009268
-0.008949
-0.008632
-0.008319
-0.008009
-0.007702
-0.007400
-0.007101
-0.006806
-0.006515
-0.006228
-0.005946
-0.005669
-0.005396
-0.005128
-0.004866
-0.004608
-0.004356
-0.004110
-0.003869
-0.003634
-0.003405
-0.003182
-0.002965
-0.002754
-0.002550
-0.002352
-0.002160
-0.001975
-0.001797
-0.001625
-0.001460
-0.001302
-0.001151
-0.001006
-0.000869
-0.000738
-0.000614
-0.000497
-0.000387
-0.000284
-0.000187
-0.000097
-0.021833
-0.000000
-0.000084
-0.000174
-0.000271
-0.000375
-0.000486
-0.000603
-0.000727
-0.000858
-0.000996
-0.001141
-0.001292
-0.001451
-0.001616
-0.001788
-0.001967
-0.002152
-0.002344
-0.002543
-0.002748
-0.002959
-0.003176
-0.003400
-0.003630
-0.003865
-0.004106
-0.004353
-0.004606
-0.004864
-0.005127
-0.005395
-0.005668
-0.005946
-0.006229
-0.006516
-0.006807
-0.007102
-0.007402
-0.007705
-0.008012
-0.008323
-0.008637
-0.008953
-0.009273
-0.009596
-0.009922
-0.010249
-0.010580
-0.010912
-0.011246
-0.011583
-0.011920
-0.012260
-0.012601
-0.012943
-0.013286
-0.013630
-0.013974
-0.014320
-0.014666
-0.015012
-0.015358
-0.015705
-0.016051
-0.016398
-0.016744
-0.017090
-0.017435
-0.017780
-0.018124
-0.018467
-0.018809
-0.019150
-0.019490
-0.019829
-0.020167
-0.020503
-0.020838
-0.021172
-0.021503
-0.021832
-0.021830
-0.021828
-0.021826
-0.021824
-0.021822
-0.021820
-0.021818
-0.021816
-0.000011
-0.000009
-0.000007
-0.000005
-0.000004
-0.000002
-0.000001
-0.000001
-0.000000
-0.000084
-0.000084
-0.000085
-0.000086
-0.000087
-0.000089
-0.000090
-0.000092
-0.000095
-0.000174
-0.000175
-0.000175
-0.000176
-0.000177
-0.000179
-0.000180
-0.000182
-0.000185
-0.000271
-0.000272
-0.000272
-0.000273
-0.000274
-0.000275
-0.000277
-0.000279
-0.000281
-0.000375
-0.000375
-0.000376
-0.000376
-0.000377
-0.000379
-0.000380
-0.000382
-0.000385
-0.000485
-0.000486
-0.000486
-0.000487
-0.000488
-0.000489
-0.000491
-0.000493
-0.000495
-0.000603
-0.000603
-0.000603
-0.000604
-0.000605
-0.000606
-0.000608
-0.000610
-0.000612
-0.000727
-0.000727
-0.000727
-0.000728
-0.000729
-0.000730
-0.000732
-0.000734
-0.000736
-0.000858
-0.000858
-0.000858
-0.000859
-0.000860
-0.000861
-0.000862
-0.000864
-0.000866
-0.000996
-0.000996
-0.000996
-0.000997
-0.000998
-0.000999
-0.001000
-0.001002
-0.001004
-0.001140
-0.001140
-0.001141
-0.001141
-0.001142
-0.001143
-0.001145
-0.001146
-0.001149
-0.001292
-0.001292
-0.001292
-0.001293
-0.001294
-0.001295
-0.001296
-0.001298
-0.001300
-0.001450
-0.001450
-0.001451
-0.001451
-0.001452
-0.001453
-0.001454
-0.001456
-0.001458
-0.001616
-0.001616
-0.001616
-0.001616
-0.001617
-0.001618
-0.001619
-0.001621
-0.001623
-0.001788
-0.001788
-0.001788
-0.001788
-0.001789
-0.001790
-0.001791
-0.001793
-0.001795
-0.001966
-0.001966
-0.001966
-0.001967
-0.001967
-0.001968
-0.001970
-0.001971
-0.001973
-0.002152
-0.002151
-0.002151
-0.002152
-0.002153
-0.002153
-0.002155
-0.002156
-0.002158
-0.002344
-0.002343
-0.002343
-0.002344
-0.002344
-0.002345
-0.002346
-0.002348
-0.002350
-0.002542
-0.002542
-0.002542
-0.002542
-0.002543
-0.002543
-0.002545
-0.002546
-0.002548
-0.002747
-0.002747
-0.002747
-0.002747
-0.002747
-0.002748
-0.002749
-0.002750
-0.002752
-0.002958
-0.002958
-0.002958
-0.002958
-0.002958
-0.002959
-0.002960
-0.002961
-0.002963
-0.003176
-0.003175
-0.003175
-0.003175
-0.003176
-0.003176
-0.003177
-0.003179
-0.003180
-0.003399
-0.003399
-0.003398
-0.003399
-0.003399
-0.003400
-0.003401
-0.003402
-0.003403
-0.003629
-0.003628
-0.003628
-0.003628
-0.003628
-0.003629
-0.003630
-0.003631
-0.003632
-0.003864
-0.003864
-0.003864
-0.003864
-0.003864
-0.003864
-0.003865
-0.003866
-0.003868
-0.004105
-0.004105
-0.004105
-0.004105
-0.004105
-0.004105
-0.004106
-0.004107
-0.004108
-0.004352
-0.004352
-0.004352
-0.004351
-0.004352
-0.004352
-0.004353
-0.004354
-0.004355
-0.004605
-0.004604
-0.004604
-0.004604
-0.004604
-0.004604
-0.004605
-0.004606
-0.004607
-0.004863
-0.004862
-0.004862
-0.004862
-0.004862
-0.004862
-0.004863
-0.004863
-0.004864
-0.005126
-0.005125
-0.005125
-0.005124
-0.005125
-0.005125
-0.005125
-0.005126
-0.005127
-0.005394
-0.005393
-0.005393
-0.005393
-0.005393
-0.005393
-0.005393
-0.005394
-0.005395
-0.005667
-0.005666
-0.005666
-0.005666
-0.005665
-0.005666
-0.005666
-0.005667
-0.005668
-0.005945
-0.005944
-0.005944
-0.005943
-0.005943
-0.005943
-0.005944
-0.005944
-0.005945
-0.006228
-0.006227
-0.006226
-0.006226
-0.006226
-0.006226
-0.006226
-0.006226
-0.006227
-0.006515
-0.006514
-0.006513
-0.006513
-0.006512
-0.006512
-0.006513
-0.006513
-0.006514
-0.006806
-0.006805
-0.006804
-0.006804
-0.006804
-0.006804
-0.006804
-0.006804
-0.006805
-0.007101
-0.007100
-0.007100
-0.007099
-0.007099
-0.007099
-0.007099
-0.007099
-0.007100
-0.007401
-0.007400
-0.007399
-0.007399
-0.007398
-0.007398
-0.007398
-0.007398
-0.007399
-0.007704
-0.007703
-0.007702
-0.007702
-0.007701
-0.007701
-0.007701
-0.007701
-0.007702
-0.008011
-0.008010
-0.008009
-0.008009
-0.008008
-0.008008
-0.008008
-0.008008
-0.008008
-0.008322
-0.008320
-0.008320
-0.008319
-0.008318
-0.008318
-0.008318
-0.008318
-0.008318
-0.008635
-0.008634
-0.008633
-0.008633
-0.008632
-0.008632
-0.008632
-0.008632
-0.008632
-0.008952
-0.008951
-0.008950
-0.008949
-0.008949
-0.008948
-0.008948
-0.008948
-0.008948
-0.009272
-0.009271
-0.009270
-0.009269
-0.009269
-0.009268
-0.009268
-0.009268
-0.009268
-0.009595
-0.009594
-0.009593
-0.009592
-0.009591
-0.009591
-0.009590
-0.009590
-0.009590
-0.009920
-0.009919
-0.009918
-0.009917
-0.009916
-0.009916
-0.009915
-0.009915
-0.009915
-0.010248
-0.010247
-0.010246
-0.010245
-0.010244
-0.010243
-0.010243
-0.010243
-0.010243
-0.010578
-0.010577
-0.010576
-0.010575
-0.010574
-0.010573
-0.010573
-0.010572
-0.010572
-0.010911
-0.010909
-0.010908
-0.010907
-0.010906
-0.010906
-0.010905
-0.010905
-0.010904
-0.011245
-0.011244
-0.011242
-0.011241
-0.011241
-0.011240
-0.011239
-0.011239
-0.011238
-0.011581
-0.011580
-0.011579
-0.011577
-0.011576
-0.011576
-0.011575
-0.011574
-0.011574
-0.011919
-0.011918
-0.011916
-0.011915
-0.011914
-0.011913
-0.011913
-0.011912
-0.011912
-0.012258
-0.012257
-0.012256
-0.012254
-0.012253
-0.012253
-0.012252
-0.012251
-0.012251
-0.012599
-0.012598
-0.012596
-0.012595
-0.012594
-0.012593
-0.012592
-0.012592
-0.012591
-0.012941
-0.012940
-0.012938
-0.012937
-0.012936
-0.012935
-0.012934
-0.012933
-0.012933
-0.013284
-0.013283
-0.013281
-0.013280
-0.013279
-0.013278
-0.013277
-0.013276
-0.013275
-0.013628
-0.013626
-0.013625
-0.013624
-0.013623
-0.013622
-0.013621
-0.013620
-0.013619
-0.013973
-0.013971
-0.013970
-0.013969
-0.013967
-0.013966
-0.013965
-0.013964
-0.013963
-0.014318
-0.014317
-0.014315
-0.014314
-0.014312
-0.014311
-0.014310
-0.014309
-0.014308
-0.014664
-0.014662
-0.014661
-0.014660
-0.014658
-0.014657
-0.014656
-0.014655
-0.014654
-0.015010
-0.015009
-0.015007
-0.015006
-0.015004
-0.015003
-0.015002
-0.015001
-0.015000
-0.015357
-0.015355
-0.015354
-0.015352
-0.015351
-0.015349
-0.015348
-0.015347
-0.015346
-0.015703
-0.015702
-0.015700
-0.015699
-0.015697
-0.015696
-0.015695
-0.015693
-0.015692
-0.016050
-0.016048
-0.016047
-0.016045
-0.016044
-0.016042
-0.016041
-0.016040
-0.016038
-0.016396
-0.016395
-0.016393
-0.016391
-0.016390
-0.016388
-0.016387
-0.016386
-0.016384
-0.016742
-0.016741
-0.016739
-0.016737
-0.016736
-0.016734
-0.016733
-0.016732
-0.016730
-0.017088
-0.017086
-0.017085
-0.017083
-0.017082
-0.017080
-0.017079
-0.017077
-0.017076
-0.017433
-0.017432
-0.017430
-0.017428
-0.017427
-0.017425
-0.017424
-0.017422
-0.017421
-0.017778
-0.017776
-0.017775
-0.017773
-0.017771
-0.017770
-0.017768
-0.017767
-0.017765
-0.018122
-0.018120
-0.018118
-0.018117
-0.018115
-0.018114
-0.018112
-0.018110
-0.018109
-0.018465
-0.018463
-0.018462
-0.018460
-0.018458
-0.018457
-0.018455
-0.018453
-0.018452
-0.018807
-0.018806
-0.018804
-0.018802
-0.018800
-0.018799
-0.018797
-0.018795
-0.018794
-0.019148
-0.019147
-0.019145
-0.019143
-0.019141
-0.019140
-0.019138
-0.019136
-0.019135
-0.019489
-0.019487
-0.019485
-0.019483
-0.019481
-0.019480
-0.019478
-0.019476
-0.019474
-0.019827
-0.019826
-0.019824
-0.019822
-0.019820
-0.019819
-0.019817
-0.019815
-0.019813
-0.020165
-0.020163
-0.020162
-0.020160
-0.020158
-0.020156
-0.020154
-0.020153
-0.020151
-0.020502
-0.020500
-0.020498
-0.020496
-0.020494
-0.020492
-0.020490
-0.020489
-0.020487
-0.020836
-0.020835
-0.020833
-0.020831
-0.020829
-0.020827
-0.020825
-0.020823
-0.020821
-0.021170
-0.021168
-0.021166
-0.021164
-0.021162
-0.021160
-0.021158
-0.021157
-0.021155
-0.021502
-0.021500
-0.021498
-0.021496
-0.021494
-0.021492
-0.021490
-0.021488
-0.021486
SCALARS strain_2 float
LOOKUP_TABLE default
0.000317
0.000212
0.000212
0.000212
0.000212
0.000212
0.000212
0.000212
0.000212
0.000212
0.000212
0.000213
0.000213
0.000213
0.000213
0.000213
0.000213
0.000214
0.000214
0.000214
0.000215
0.000215
0.000215
0.000216
0.000216
0.000217
0.000217
0.000218
0.000218
0.000219
0.000220
0.000220
0.000221
0.000222
0.000223
0.000223
0.000225
0.000225
0.000226
0.000227
0.000228
0.000229
0.000231
0.000232
0.000234
0.000235
0.000236
0.000238
0.000239
0.000241
0.000242
0.000244
0.000245
0.000247
0.000249
0.000251
0.000253
0.000255
0.000256
0.000258
0.000261
0.000263
0.000265
0.000268
0.000270
0.000272
0.000275
0.000277
0.000280
0.000283
0.000285
0.000288
0.000290
0.000293
0.000296
0.000299
0.000302
0.000305
0.000309
0.000311
0.000314
0.000565
0.000571
0.000572
0.000572
0.000572
0.000573
0.000573
0.000573
0.000574
0.000573
0.000575
0.000574
0.000575
0.000575
0.000576
0.000576
0.000576
0.000576
0.000577
0.000577
0.000577
0.000577
0.000577
0.000578
0.000578
0.000578
0.000578
0.000578
0.000579
0.000579
0.000579
0.000579
0.000579
0.000579
0.000579
0.000579
0.000579
0.000579
0.000579
0.000579
0.000580
0.000579
0.000579
0.000579
0.000579
0.000579
0.000578
0.000579
0.000578
0.000578
0.000578
0.000578
0.000578
0.000578
0.000577
0.000577
0.000577
0.000576
0.000576
0.000576
0.000576
0.000575
0.000575
0.000575
0.000574
0.000574
0.000573
0.000573
0.000573
0.000572
0.000571
0.000571
0.000571
0.000570
0.000570
0.000569
0.000568
0.000567
0.000567
0.000566
0.000566
0.000530
0.000495
0.000459
0.000424
0.000389
0.000353
0.000318
0.000283
0.000247
0.000343
0.000368
0.000394
0.000419
0.000445
0.000470
0.000495
0.000521
0.000546
0.000546
0.000521
0.000494
0.000469
0.000443
0.000418
0.000392
0.000366
0.000340
0.000546
0.000520
0.000494
0.000468
0.000442
0.000416
0.000389
0.000363
0.000337
0.000546
0.000519
0.000493
0.000466
0.000440
0.000414
0.000387
0.000361
0.000334
0.000546
0.000519
0.000493
0.000466
0.000439
0.000412
0.000385
0.000359
0.000332
0.000546
0.000519
0.000492
0.000465
0.000437
0.000410
0.000383
0.000356
0.000329
0.000546
0.000519
0.000491
0.000464
0.000436
0.000409
0.000382
0.000354
0.000327
0.000546
0.000519
0.000490
0.000463
0.000435
0.000407
0.000379
0.000352
0.000324
0.000546
0.000518
0.000490
0.000462
0.000434
0.000406
0.000378
0.000349
0.000322
0.000546
0.000518
0.000489
0.000461
0.000433
0.000405
0.000376
0.000347
0.000319
0.000546
0.000517
0.000488
0.000460
0.000431
0.000402
0.000374
0.000345
0.000316
0.000546
0.000517
0.000488
0.000459
0.000430
0.000401
0.000372
0.000343
0.000314
0.000546
0.000516
0.000488
0.000458
0.000429
0.000399
0.000370
0.000341
0.000312
0.000546
0.000517
0.000487
0.000458
0.000428
0.000398
0.000369
0.000339
0.000310
0.000546
0.000516
0.000486
0.000456
0.000427
0.000397
0.000367
0.000337
0.000307
0.000546
0.000516
0.000486
0.000456
0.000425
0.000395
0.000365
0.000335
0.000305
0.000546
0.000515
0.000485
0.000455
0.000424
0.000394
0.000363
0.000333
0.000303
0.000546
0.000515
0.000484
0.000454
0.000424
0.000393
0.000362
0.000331
0.000301
0.000545
0.000515
0.000484
0.000453
0.000422
0.000391
0.000360
0.000329
0.000298
0.000546
0.000515
0.000484
0.000452
0.000421
0.000390
0.000359
0.000328
0.000297
0.000546
0.000514
0.000483
0.000451
0.000420
0.000389
0.000357
0.000326
0.000294
0.000546
0.000514
0.000483
0.000451
0.000419
0.000387
0.000356
0.000324
0.000292
0.000546
0.000514
0.000482
0.000450
0.000418
0.000387
0.000354
0.000322
0.000291
0.000546
0.000513
0.000481
0.000449
0.000418
0.000385
0.000353
0.000321
0.000289
0.000546
0.000513
0.000481
0.000448
0.000417
0.000384
0.000352
0.000319
0.000287
0.000545
0.000513
0.000481
0.000448
0.000416
0.000383
0.000350
0.000318
0.000285
0.000545
0.000513
0.000480
0.000447
0.000415
0.000382
0.000349
0.000316
0.000283
0.000545
0.000512
0.000479
0.000447
0.000414
0.000381
0.000348
0.000315
0.000282
0.000545
0.000512
0.000479
0.000446
0.000413
0.000380
0.000347
0.000313
0.000281
0.000545
0.000512
0.000479
0.000445
0.000413
0.000379
0.000345
0.000312
0.000279
0.000545
0.000512
0.000479
0.000445
0.000411
0.000378
0.000344
0.000311
0.000277
0.000545
0.000512
0.000478
0.000445
0.000410
0.000377
0.000343
0.000310
0.000276
0.000545
0.000511
0.000478
0.000444
0.000410
0.000376
0.000342
0.000308
0.000274
0.000545
0.000511
0.000477
0.000443
0.000409
0.000375
0.000341
0.000307
0.000273
0.000545
0.000511
0.000477
0.000442
0.000408
0.000374
0.000340
0.000306
0.000272
0.000545
0.000510
0.000477
0.000442
0.000407
0.000373
0.000339
0.000304
0.000270
0.000545
0.000510
0.000476
0.000442
0.000407
0.000372
0.000338
0.000303
0.000269
0.000544
0.000510
0.000475
0.000441
0.000407
0.000372
0.000337
0.000303
0.000268
0.000545
0.000509
0.000475
0.000440
0.000406
0.000371
0.000336
0.000302
0.000267
0.000544
0.000509
0.000474
0.000440
0.000405
0.000370
0.000335
0.000300
0.000266
0.000544
0.000509
0.000475
0.000439
0.000404
0.000369
0.000335
0.000300
0.000264
0.000544
0.000509
0.000474
0.000439
0.000404
0.000369
0.000334
0.000298
0.000263
0.000544
0.000509
0.000474
0.000438
0.000403
0.000368
0.000333
0.000298
0.000262
0.000544
0.000508
0.000473
0.000438
0.000403
0.000367
0.000332
0.000297
0.000262
0.000544
0.000508
0.000473
0.000437
0.000402
0.000367
0.000332
0.000296
0.000261
0.000543
0.000508
0.000473
0.000437
0.000402
0.000366
0.000331
0.000295
0.000260
0.000543
0.000508
0.000472
0.000437
0.000401
0.000366
0.000330
0.000294
0.000258
0.000542
0.000507
0.000472
0.000437
0.000401
0.000365
0.000329
0.000294
0.000258
0.000542
0.000507
0.000471
0.000436
0.000400
0.000364
0.000329
0.000293
0.000257
0.000542
0.000507
0.000471
0.000435
0.000399
0.000364
0.000329
0.000293
0.000257
0.000542
0.000506
0.000471
0.000435
0.000399
0.000363
0.000327
0.000292
0.000256
0.000542
0.000506
0.000470
0.000435
0.000399
0.000363
0.000327
0.000291
0.000256
0.000542
0.000506
0.000470
0.000434
0.000398
0.000362
0.000327
0.000291
0.000255
0.000541
0.000505
0.000469
0.000434
0.000398
0.000362
0.000326
0.000290
0.000254
0.000541
0.000505
0.000469
0.000433
0.000397
0.000362
0.000326
0.000290
0.000254
0.000541
0.000505
0.000469
0.000433
0.000397
0.000361
0.000325
0.000289
0.000253
0.000541
0.000505
0.000469
0.000432
0.000397
0.000361
0.000325
0.000289
0.000252
0.000540
0.000504
0.000468
0.000432
0.000396
0.000361
0.000324
0.000288
0.000252
0.000540
0.000504
0.000468
0.000432
0.000396
0.000360
0.000324
0.000288
0.000252
0.000539
0.000503
0.000468
0.000431
0.000395
0.000359
0.000323
0.000287
0.000251
0.000539
0.000503
0.000467
0.000431
0.000395
0.000359
0.000323
0.000287
0.000251
0.000539
0.000503
0.000467
0.000431
0.000394
0.000359
0.000323
0.000286
0.000251
0.000538
0.000502
0.000467
0.000430
0.000395
0.000358
0.000322
0.000286
0.000250
0.000538
0.000502
0.000466
0.000430
0.000394
0.000358
0.000322
0.000286
0.000250
0.000538
0.000502
0.000466
0.000430
0.000394
0.000357
0.000322
0.000286
0.000250
0.000537
0.000501
0.000465
0.000429
0.000393
0.000358
0.000321
0.000285
0.000250
0.000537
0.000501
0.000465
0.000429
0.000393
0.000357
0.000321
0.000285
0.000249
0.000536
0.000501
0.000464
0.000428
0.000393
0.000357
0.000321
0.000285
0.000249
0.000536
0.000500
0.000464
0.000428
0.000393
0.000357
0.000321
0.000285
0.000248
0.000536
0.000500
0.000464
0.000428
0.000392
0.000356
0.000320
0.000284
0.000248
0.000535
0.000499
0.000463
0.000427
0.000392
0.000356
0.000320
0.000284
0.000248
0.000535
0.000499
0.000463
0.000427
0.000391
0.000355
0.000320
0.000284
0.000248
0.000534
0.000499
0.000463
0.000427
0.000391
0.000355
0.000319
0.000284
0.000248
0.000534
0.000498
0.000462
0.000427
0.000391
0.000355
0.000319
0.000284
0.000248
0.000533
0.000497
0.000462
0.000426
0.000390
0.000355
0.000319
0.000283
0.000248
0.000532
0.000497
0.000461
0.000426
0.000390
0.000355
0.000319
0.000283
0.000248
0.000532
0.000496
0.000461
0.000425
0.000390
0.000354
0.000318
0.000283
0.000248
0.000532
0.000496
0.000461
0.000425
0.000390
0.000354
0.000319
0.000283
0.000248
0.000531
0.000496
0.000460
0.000425
0.000389
0.000354
0.000318
0.000283
0.000247
0.000530
0.000495
0.000460
0.000424
0.000389
0.000353
0.000318
0.000283
0.000247
SCALARS strain_3 float
LOOKUP_TABLE default
0.000111
0.006867
0.006770
0.006673
0.006575
0.006477
0.006378
0.006278
0.006179
0.006079
0.005978
0.005877
0.005776
0.005674
0.005572
0.005470
0.005367
0.005265
0.005162
0.005059
0.004956
0.004853
0.004749
0.004646
0.004543
0.004440
0.004337
0.004234
0.004132
0.004029
0.003927
0.003825
0.003724
0.003623
0.003522
0.003422
0.003323
0.003223
0.003125
0.003027
0.002930
0.002834
0.002739
0.002644
0.002551
0.002458
0.002367
0.002276
0.002187
0.002098
0.002011
0.001925
0.001840
0.001757
0.001675
0.001595
0.001516
0.001438
0.001362
0.001288
0.001215
0.001144
0.001075
0.001007
0.000941
0.000877
0.000815
0.000755
0.000696
0.000640
0.000585
0.000532
0.000481
0.000432
0.000385
0.000340
0.000297
0.000256
0.000216
0.000179
0.000144
0.006682
-0.000059
-0.000027
0.000007
0.000043
0.000081
0.000121
0.000162
0.000206
0.000252
0.000299
0.000349
0.000401
0.000455
0.000511
0.000568
0.000627
0.000689
0.000752
0.000817
0.000884
0.000953
0.001023
0.001095
0.001169
0.001244
0.001321
0.001399
0.001479
0.001561
0.001643
0.001727
0.001813
0.001900
0.001988
0.002077
0.002168
0.002259
0.002351
0.002445
0.002539
0.002634
0.002731
0.002827
0.002925
0.003024
0.003123
0.003222
0.003323
0.003424
0.003525
0.003626
0.003728
0.003831
0.003933
0.004036
0.004140
0.004243
0.004346
0.004450
0.004553
0.004657
0.004760
0.004863
0.004967
0.005070
0.005173
0.005276
0.005379
0.005481
0.005584
0.005685
0.005787
0.005888
0.005989
0.006089
0.006189
0.006289
0.006388
0.006486
0.006584
0.006700
0.006719
0.006737
0.006756
0.006774
0.006793
0.006812
0.006830
0.006849
0.000093
0.000076
0.000059
0.000042
0.000025
0.000008
-0.000009
-0.000026
-0.000042
-0.000011
0.000007
0.000023
0.000040
0.000057
0.000075
0.000092
0.000109
0.000126
0.000024
0.000040
0.000058
0.000075
0.000092
0.000109
0.000127
0.000144
0.000162
0.000060
0.000077
0.000094
0.000111
0.000128
0.000146
0.000163
0.000181
0.000198
0.000097
0.000115
0.000132
0.000149
0.000167
0.000184
0.000202
0.000220
0.000238
0.000138
0.000155
0.000172
0.000190
0.000207
0.000225
0.000243
0.000261
0.000279
0.000179
0.000197
0.000215
0.000232
0.000250
0.000268
0.000286
0.000303
0.000322
0.000223
0.000241
0.000259
0.000276
0.000294
0.000312
0.000330
0.000348
0.000367
0.000269
0.000287
0.000305
0.000323
0.000341
0.000359
0.000377
0.000395
0.000414
0.000317
0.000335
0.000353
0.000371
0.000389
0.000407
0.000426
0.000444
0.000462
0.000367
0.000385
0.000403
0.000421
0.000439
0.000458
0.000476
0.000494
0.000513
0.000419
0.000437
0.000456
0.000473
0.000492
0.000510
0.000528
0.000547
0.000566
0.000473
0.000491
0.000509
0.000528
0.000546
0.000565
0.000583
0.000602
0.000621
0.000529
0.000547
0.000565
0.000584
0.000602
0.000621
0.000640
0.000658
0.000677
0.000586
0.000605
0.000623
0.000642
0.000660
0.000679
0.000698
0.000717
0.000736
0.000646
0.000664
0.000683
0.000702
0.000720
0.000739
0.000758
0.000777
0.000796
0.000707
0.000726
0.000745
0.000763
0.000782
0.000801
0.000820
0.000839
0.000858
0.000771
0.000789
0.000808
0.000827
0.000846
0.000865
0.000884
0.000903
0.000922
0.000836
0.000854
0.000873
0.000892
0.000911
0.000930
0.000949
0.000969
0.000988
0.000903
0.000922
0.000941
0.000960
0.000978
0.000997
0.001017
0.001036
0.001056
0.000971
0.000990
0.001009
0.001028
0.001047
0.001067
0.001086
0.001105
0.001125
0.001042
0.001061
0.001080
0.001099
0.001118
0.001138
0.001157
0.001176
0.001196
0.001114
0.001133
0.001152
0.001171
0.001191
0.001210
0.001229
0.001249
0.001268
0.001187
0.001207
0.001226
0.001245
0.001264
0.001284
0.001304
0.001323
0.001343
0.001263
0.001282
0.001301
0.001321
0.001340
0.001360
0.001380
0.001399
0.001419
0.001340
0.001359
0.001379
0.001398
0.001417
0.001437
0.001457
0.001476
0.001496
0.001418
0.001438
0.001457
0.001476
0.001496
0.001516
0.001536
0.001555
0.001575
0.001499
0.001518
0.001537
0.001556
0.001576
0.001596
0.001615
0.001636
0.001655
0.001580
0.001599
0.001619
0.001638
0.001658
0.001678
0.001697
0.001717
0.001737
0.001663
0.001682
0.001702
0.001721
0.001741
0.001761
0.001781
0.001801
0.001821
0.001747
0.001766
0.001786
0.001806
0.001826
0.001845
0.001865
0.001885
0.001905
0.001833
0.001852
0.001872
0.001891
0.001911
0.001931
0.001951
0.001971
0.001991
0.001919
0.001939
0.001959
0.001979
0.001998
0.002018
0.002038
0.002058
0.002078
0.002008
0.002027
0.002047
0.002067
0.002086
0.002106
0.002126
0.002146
0.002166
0.002097
0.002116
0.002136
0.002156
0.002176
0.002195
0.002215
0.002235
0.002255
0.002187
0.002207
0.002226
0.002246
0.002266
0.002286
0.002306
0.002326
0.002346
0.002279
0.002298
0.002318
0.002338
0.002358
0.002378
0.002398
0.002418
0.002438
0.002371
0.002391
0.002411
0.002431
0.002450
0.002470
0.002490
0.002510
0.002531
0.002464
0.002484
0.002504
0.002524
0.002544
0.002564
0.002584
0.002604
0.002624
0.002559
0.002579
0.002598
0.002619
0.002638
0.002658
0.002678
0.002698
0.002719
0.002654
0.002674
0.002694
0.002714
0.002734
0.002754
0.002774
0.002794
0.002814
0.002750
0.002770
0.002790
0.002810
0.002830
0.002850
0.002870
0.002890
0.002910
0.002847
0.002867
0.002887
0.002907
0.002927
0.002947
0.002967
0.002987
0.003007
0.002945
0.002965
0.002985
0.003005
0.003025
0.003045
0.003065
0.003085
0.003105
0.003043
0.003064
0.003084
0.003103
0.003123
0.003143
0.003163
0.003183
0.003203
0.003143
0.003162
0.003182
0.003202
0.003222
0.003242
0.003262
0.003282
0.003302
0.003242
0.003262
0.003282
0.003302
0.003322
0.003342
0.003362
0.003382
0.003402
0.003342
0.003362
0.003382
0.003402
0.003422
0.003442
0.003462
0.003482
0.003502
0.003443
0.003463
0.003483
0.003503
0.003523
0.003543
0.003563
0.003582
0.003603
0.003544
0.003564
0.003584
0.003604
0.003624
0.003644
0.003664
0.003684
0.003704
0.003646
0.003666
0.003686
0.003706
0.003725
0.003745
0.003765
0.003785
0.003805
0.003748
0.003768
0.003788
0.003808
0.003827
0.003847
0.003867
0.003887
0.003907
0.003850
0.003870
0.003890
0.003910
0.003929
0.003950
0.003969
0.003989
0.004009
0.003953
0.003973
0.003992
0.004012
0.004032
0.004052
0.004072
0.004092
0.004112
0.004056
0.004076
0.004095
0.004115
0.004135
0.004155
0.004175
0.004194
0.004214
0.004159
0.004179
0.004198
0.004218
0.004238
0.004258
0.004278
0.004297
0.004317
0.004262
0.004282
0.004302
0.004321
0.004341
0.004361
0.004380
0.004400
0.004420
0.004365
0.004385
0.004405
0.004425
0.004444
0.004464
0.004484
0.004503
0.004523
0.004469
0.004489
0.004508
0.004528
0.004548
0.004567
0.004587
0.004607
0.004626
0.004573
0.004592
0.004612
0.004631
0.004651
0.004671
0.004690
0.004710
0.004730
0.004676
0.004696
0.004716
0.004735
0.004754
0.004774
0.004794
0.004813
0.004833
0.004780
0.004799
0.004819
0.004838
0.004857
0.004877
0.004897
0.004917
0.004936
0.004883
0.004903
0.004922
0.004942
0.004961
0.004981
0.005000
0.005020
0.005039
0.004986
0.005006
0.005025
0.005045
0.005064
0.005084
0.005103
0.005123
0.005142
0.005090
0.005109
0.005128
0.005148
0.005167
0.005187
0.005206
0.005226
0.005245
0.005193
0.005212
0.005231
0.005251
0.005270
0.005290
0.005309
0.005328
0.005348
0.005295
0.005315
0.005334
0.005353
0.005373
0.005392
0.005412
0.005431
0.005450
0.005398
0.005417
0.005437
0.005456
0.005475
0.005495
0.005514
0.005533
0.005553
0.005501
0.005520
0.005539
0.005558
0.005578
0.005597
0.005616
0.005636
0.005655
0.005603
0.005622
0.005641
0.005660
0.005679
0.005699
0.005718
0.005737
0.005756
0.005704
0.005724
0.005743
0.005762
0.005781
0.005800
0.005819
0.005838
0.005858
0.005806
0.005825
0.005844
0.005863
0.005882
0.005902
0.005921
0.005940
0.005959
0.005907
0.005926
0.005945
0.005964
0.005983
0.006002
0.006021
0.006040
0.006059
0.006008
0.006027
0.006046
0.006065
0.006084
0.006103
0.006122
0.006141
0.006160
0.006108
0.006127
0.006146
0.006165
0.006184
0.006203
0.006222
0.006241
0.006260
0.006208
0.006227
0.006246
0.006265
0.006283
0.006302
0.006321
0.006340
0.006359
0.006307
0.006326
0.006345
0.006364
0.006383
0.006402
0.006421
0.006439
0.006458
0.006406
0.006425
0.006444
0.006463
0.006482
0.006500
0.006519
0.006538
0.006556
0.006505
0.006524
0.006542
0.006561
0.006580
0.006598
0.006617
0.006636
0.006654
0.006602
0.006621
0.006640
0.006659
0.006677
0.006696
0.006714
0.006733
0.006752
SCALARS stress_1 float
LOOKUP_TABLE default
2269.540635
-1674044.191888
-1648698.273356
-1623222.604825
-1597621.686293
-1571911.017762
-1546087.849230
-1520161.680699
-1494138.262167
-1468024.843636
-1441822.175104
-1415547.756572
-1389204.588041
-1362799.669509
-1336333.500978
-1309826.832446
-1283282.663915
-1256706.495383
-1230114.576852
-1203507.408320
-1176909.239789
-1150306.071257
-1123724.152726
-1097176.484194
-1070662.565663
-1044197.647131
-1017793.228600
-991461.310068
-965207.391536
-939049.723005
-912996.054473
-887062.385942
-861251.967410
-835590.548879
-810072.380347
-784727.711816
-759562.543284
-734585.124753
-709814.956221
-685254.537690
-660927.619158
-636842.950627
-613010.032095
-589446.363563
-566162.945032
-543173.276500
-520490.107969
-498126.939437
-476096.020906
-454403.602374
-433066.433843
-412104.265311
-391512.096780
-371315.928248
-351518.759717
-332136.591185
-313179.672654
-294651.754122
-276566.335591
-258939.417059
-241768.248527
-225066.079996
-208851.661464
-193118.242933
-177875.074401
-163132.405870
-148892.737338
-135164.818807
-121949.150275
-109254.231744
-97080.813212
-85425.644681
-74301.226149
-63699.807618
-53628.389086
-44080.470555
-35064.302023
-26569.633491
-18584.214960
-11122.546428
-4174.877897
-1671854.617315
5991.865207
-434.303324
-7363.721856
-14816.640387
-22778.808919
-31262.977450
-40270.145982
-49813.814513
-59875.233045
-70471.651576
-81595.570108
-93243.738639
-105418.407171
-118114.575703
-131330.244234
-145064.912766
-159303.331297
-174056.999829
-189304.418360
-205052.836892
-221279.755423
-237990.923955
-255172.342486
-272813.761018
-290914.429549
-309453.848081
-328431.766612
-347838.935144
-367650.103675
-387865.272207
-408475.440739
-429462.109270
-450824.777802
-472537.696333
-494597.614865
-516985.783396
-539691.951928
-562708.370459
-586018.038991
-609605.707522
-633465.626054
-657580.794585
-681938.713117
-706523.131648
-731326.050180
-756332.718711
-781529.637243
-806908.805775
-832449.974306
-858148.892838
-883987.061369
-909949.229901
-936035.898432
-962221.566964
-988504.735495
-1014870.904027
-1041304.822558
-1067799.241090
-1094342.909621
-1120930.078153
-1147534.746684
-1174169.415216
-1200803.583747
-1227441.502279
-1254064.420811
-1280669.339342
-1307240.507874
-1333779.926405
-1360269.844937
-1386706.513468
-1413077.932000
-1439391.350531
-1465614.769063
-1491756.187594
-1517805.356126
-1543759.524657
-1569611.193189
-1595350.111720
-1620977.280252
-1646483.198784
-1672080.749772
-1672303.132230
-1672534.264687
-1672751.647144
-1672975.029601
-1673191.412059
-1673412.044516
-1673624.426973
-1673839.809430
2737.673092
3186.555549
3614.938006
4022.070464
4404.202921
4763.335378
5107.467836
5422.850293
5716.482750
-709.935781
-1005.568239
-1325.700696
-1665.583153
-2028.465611
-2414.098068
-2819.980525
-3253.612982
-3700.495440
-7643.604313
-7937.486770
-8260.369227
-8603.251685
-8967.634142
-9355.516599
-9761.649057
-10195.531514
-10649.913971
-15088.522844
-15388.405302
-15710.537759
-16053.920216
-16420.552674
-16809.935131
-17216.817588
-17655.700045
-18109.332503
-23053.441376
-23354.823833
-23675.456291
-24022.088748
-24388.721205
-24780.603662
-25191.486120
-25627.118577
-26083.501034
-31544.109908
-31842.492365
-32165.874822
-32511.757279
-32884.639737
-33272.272194
-33686.404651
-34122.037108
-34579.919566
-40554.028439
-40856.660896
-41180.793354
-41528.175811
-41895.558268
-42286.690725
-42701.573183
-43136.955640
-43601.338097
-50090.946971
-50393.329428
-50723.961885
-51062.844342
-51438.976800
-51835.609257
-52248.741714
-52684.624172
-53142.506629
-60156.865502
-60461.497959
-60787.130417
-61135.262874
-61509.895331
-61894.777788
-62317.410246
-62756.792703
-63216.425160
-70751.534034
-71059.166491
-71382.048948
-71734.681405
-72100.813863
-72499.196320
-72916.078777
-73353.461235
-73816.593692
-81875.702565
-82177.335022
-82506.217480
-82858.099937
-83229.232394
-83620.864852
-84036.497309
-84480.129766
-84940.762223
-93525.121097
-93830.253554
-94152.636011
-94504.018469
-94880.900926
-95271.783383
-95690.165840
-96131.548298
-96591.430755
-105703.539628
-106001.922086
-106333.054543
-106682.437000
-107053.819457
-107450.701915
-107866.084372
-108307.716829
-108767.349286
-118396.708160
-118700.340617
-119028.973074
-119378.355532
-119752.237989
-120149.620446
-120562.752903
-120998.885361
-121462.017818
-131616.376691
-131920.009149
-132244.891606
-132596.774063
-132968.906520
-133363.288978
-133783.421435
-134217.553892
-134680.686349
-145342.795223
-145653.427680
-145977.560137
-146328.442595
-146701.575052
-147096.957509
-147508.089966
-147946.722424
-148409.854881
-159586.463754
-159898.096212
-160222.478669
-160575.861126
-160944.993583
-161337.626041
-161751.258498
-162190.390955
-162645.523413
-174338.632286
-174641.764743
-174970.897200
-175323.029658
-175696.662115
-176085.544572
-176505.427030
-176933.309487
-177395.941944
-189587.050817
-189893.433275
-190221.565732
-190573.448189
-190941.080647
-191335.213104
-191748.345561
-192181.478018
-192641.860476
-205331.219349
-205637.101806
-205961.734264
-206315.366721
-206682.999178
-207077.131635
-207483.014093
-207918.646550
-208374.529007
-221564.137880
-221865.520338
-222193.902795
-222545.285252
-222905.417710
-223303.300167
-223713.182624
-224142.565081
-224598.947539
-238274.556412
-238581.438869
-238905.571327
-239250.703784
-239618.336241
-240002.718698
-240416.351156
-240844.983613
-241293.616070
-255457.724944
-255761.857401
-256083.239858
-256431.372315
-256793.504773
-257182.887230
-257591.019687
-258025.402144
-258470.534602
-273095.643475
-273400.275932
-273725.408390
-274071.040847
-274436.173304
-274821.055761
-275228.438219
-275654.570676
-276100.953133
-291197.062007
-291499.944464
-291821.326921
-292166.459378
-292531.341836
-292916.474293
-293321.106750
-293740.239208
-294189.871665
-309739.980538
-310040.862995
-310363.995453
-310703.627910
-311070.510367
-311451.392825
-311853.025282
-312269.907739
-312718.040196
-328715.899070
-329017.531527
-329339.163984
-329677.546441
-330039.928899
-330420.561356
-330823.693813
-331238.576271
-331676.958728
-348118.317601
-348413.450058
-348735.832516
-349075.714973
-349435.347430
-349817.729888
-350214.612345
-350629.744802
-351065.377259
-367928.736133
-368233.368590
-368549.751047
-368887.883505
-369240.015962
-369617.898419
-370012.280876
-370429.913334
-370862.295791
-388146.404664
-388449.287122
-388761.669579
-389102.052036
-389454.684493
-389830.316951
-390225.699408
-390636.581865
-391062.464322
-408758.323196
-409053.955653
-409374.588110
-409707.470568
-410061.353025
-410434.735482
-410820.367939
-411230.250397
-411654.382854
-429745.241727
-430042.874185
-430361.506642
-430690.639099
-431040.271556
-431413.154014
-431799.286471
-432202.418928
-432629.301386
-451101.160259
-451397.792716
-451712.675173
-452047.557631
-452392.190088
-452759.572545
-453145.455002
-453546.587460
-453966.719917
-472814.328790
-473110.961248
-473420.593705
-473752.976162
-474100.358619
-474464.241077
-474846.873534
-475248.005991
-475662.388449
-494876.247322
-495168.129779
-495478.762236
-495806.644694
-496152.527151
-496514.909608
-496891.542066
-497285.424523
-497700.306980
-517264.665853
-517557.298311
-517862.180768
-518189.313225
-518532.195683
-518891.828140
-519269.460597
-519659.343054
-520070.975512
-539968.834385
-540260.716842
-540567.099300
-540890.731757
-541236.864214
-541589.996671
-541960.129129
-542351.761586
-542757.394043
-562985.752917
-563272.385374
-563583.767831
-563907.150288
-564241.782746
-564593.915203
-564963.297660
-565350.930117
-565748.812575
-586289.921448
-586580.553905
-586883.686363
-587209.818820
-587539.451277
-587893.083734
-588258.216192
-588641.848649
-589036.481106
-609880.339980
-610168.722437
-610474.104894
-610790.237351
-611125.119809
-611474.002266
-611834.384723
-612210.017180
-612600.899638
-633736.258511
-634025.390968
-634326.023426
-634643.155883
-634977.288340
-635317.420797
-635682.303255
-636051.185712
-636439.568169
-657853.427043
-658137.059500
-658438.441957
-658754.074414
-659077.706872
-659422.839329
-659777.221786
-660143.604244
-660531.736701
-682208.095574
-682494.228031
-682792.860489
-683100.742946
-683426.875403
-683769.757861
-684114.140318
-684482.022775
-684864.405232
-706795.014106
-707078.146563
-707373.029020
-707681.161478
-708007.293935
-708340.676392
-708687.558849
-709049.691307
-709421.073764
-731597.682637
-731873.315094
-732170.447552
-732480.580009
-732794.212466
-733132.594924
-733476.227381
-733832.359838
-734201.992295
-756599.851169
-756881.733626
-757177.866083
-757478.498541
-757792.630998
-758123.263455
-758468.145912
-758819.278370
-759187.660827
-781800.769700
-782077.402158
-782364.284615
-782670.167072
-782984.049529
-783307.931987
-783648.064444
-783994.196901
-784359.079358
-807176.438232
-807451.070689
-807737.953146
-808038.835604
-808347.468061
-808671.100518
-809008.482975
-809350.115433
-809711.747890
-832715.106763
-832990.739221
-833279.871678
-833577.754135
-833884.136592
-834200.519050
-834536.401507
-834876.033964
-835227.166422
-858410.775295
-858687.407752
-858967.790209
-859263.172667
-859571.555124
-859885.687581
-860212.820039
-860547.452496
-860895.334953
-884248.943826
-884519.326284
-884803.208741
-885096.341198
-885399.723655
-885713.856113
-886034.238570
-886365.621027
-886708.753485
-910211.112358
-910481.994815
-910768.127272
-911056.259730
-911354.642187
-911662.524644
-911981.657102
-912312.289559
-912648.422016
-936294.530889
-936561.413347
-936844.795804
-937129.178261
-937427.810719
-937729.943176
-938048.825633
-938369.708090
-938702.840548
-962479.449421
-962748.831878
-963027.964336
-963308.096793
-963610.729250
-963911.861707
-964221.744165
-964543.876622
-964866.009079
-988763.367953
-989030.000410
-989306.882867
-989584.515324
-989879.897782
-990179.780239
-990485.162696
-990802.295153
-991123.927611
-1015127.286484
-1015391.668941
-1015668.801399
-1015949.183856
-1016234.566313
-1016528.948770
-1016837.581228
-1017146.963685
-1017462.846142
-1041560.455016
-1041823.587473
-1042100.719930
-1042372.852387
-1042661.484845
-1042957.867302
-1043253.499759
-1043559.132216
-1043872.764674
-1068057.873547
-1068317.756004
-1068589.388462
-1068861.520919
-1069140.903376
-1069435.535833
-1069733.918291
-1070033.050748
-1070346.433205
-1094594.542079
-1094858.424536
-1095127.806993
-1095402.939450
-1095681.071908
-1095969.454365
-1096256.086822
-1096557.719280
-1096861.101737
-1121182.710610
-1121440.343067
-1121704.725525
-1121974.357982
-1122255.740439
-1122537.872897
-1122822.005354
-1123117.887811
-1123415.520268
-1147789.629142
-1148051.511599
-1148309.144056
-1148585.526514
-1148852.158971
-1149131.541428
-1149417.173885
-1149703.556343
-1150001.688800
-1174417.797673
-1174674.930131
-1174936.062588
-1175203.695045
-1175474.327502
-1175752.459960
-1176028.092417
-1176314.724874
-1176608.357331
-1201059.466205
-1201311.598662
-1201570.981119
-1201831.863577
-1202099.996034
-1202372.128491
-1202653.010948
-1202935.393406
-1203222.025863
-1227689.134736
-1227937.767194
-1228197.149651
-1228459.282108
-1228724.914565
-1228994.797023
-1229269.929480
-1229544.311937
-1229828.194394
-1254312.803268
-1254565.685725
-1254819.318182
-1255075.200640
-1255338.083097
-1255604.715554
-1255877.098011
-1256153.980469
-1256430.362926
-1280915.971799
-1281165.854257
-1281421.736714
-1281671.869171
-1281936.501628
-1282195.634086
-1282464.266543
-1282733.399000
-1283005.281458
-1307486.390331
-1307737.022788
-1307989.405245
-1308238.037703
-1308500.420160
-1308759.052617
-1309020.185075
-1309283.317532
-1309557.199989
-1334025.308862
-1334272.941320
-1334519.823777
-1334769.956234
-1335024.088692
-1335283.221149
-1335544.853606
-1335801.736063
-1336069.868521
-1360512.227394
-1360760.359851
-1361007.992308
-1361253.624766
-1361505.757223
-1361760.889680
-1362015.522138
-1362276.404595
-1362536.037052
-1386948.895925
-1387190.028383
-1387434.660840
-1387684.293297
-1387935.425755
-1388183.558212
-1388436.940669
-1388689.573126
-1388947.955584
-1413323.064457
-1413561.696914
-1413807.079372
-1414052.211829
-1414302.844286
-1414545.226743
-1414795.109201
-1415046.241658
-1415298.374115
-1439624.482989
-1439867.615446
-1440105.497903
-1440348.380360
-1440592.512818
-1440834.645275
-1441083.777732
-1441332.160189
-1441575.292647
-1465847.401520
-1466093.283977
-1466329.416435
-1466566.548892
-1466806.181349
-1467048.563806
-1467291.196264
-1467536.328721
-1467782.461178
-1491995.070052
-1492230.202509
-1492466.584966
-1492700.217423
-1492943.849881
-1493181.232338
-1493421.614795
-1493657.747253
-1493897.379710
-1518046.238583
-1518278.871040
-1518515.503498
-1518748.885955
-1518986.268412
-1519218.150869
-1519454.283327
-1519693.415784
-1519925.048241
-1543999.407115
-1544231.289572
-1544466.422029
-1544697.554486
-1544924.436944
-1545160.319401
-1545396.201858
-1545625.584316
-1545857.216773
-1569846.825646
-1570077.958103
-1570304.840561
-1570538.973018
-1570772.605475
-1570998.487933
-1571228.370390
-1571456.002847
-1571680.385304
-1595584.744178
-1595811.626635
-1596043.759092
-1596276.891550
-1596503.524007
-1596727.156464
-1596952.288921
-1597175.171379
-1597400.553836
-1621204.162709
-1621436.545167
-1621660.427624
-1621889.560081
-1622114.192538
-1622339.574996
-1622559.957453
-1622781.589910
-1623003.722367
-1646701.581241
-1646936.463698
-1647162.096155
-1647385.478613
-1647609.611070
-1647828.243527
-1648050.875984
-1648266.758442
-1648480.140899
SCALARS stress_2 float
LOOKUP_TABLE default
24328.943021
-217079.324233
-213546.220893
-209999.117552
-206420.014211
-202826.910871
-199245.807530
-195648.704189
-191981.600849
-188332.497508
-184699.394167
-181028.290826
-177333.187486
-173646.084145
-169938.980804
-166263.877464
-162536.774123
-158827.670782
-155116.567442
-151375.464101
-147648.360760
-143913.257420
-140142.154079
-136451.050738
-132707.947398
-129028.844057
-125247.740716
-121574.637376
-117841.534035
-114176.430694
-110509.327353
-106840.224013
-103183.120672
-99580.017331
-95952.913991
-92361.810650
-88794.707309
-85193.603969
-81678.500628
-78209.397287
-74744.293947
-71313.190606
-67876.087265
-64502.983925
-61149.880584
-57890.777243
-54595.673903
-51406.570562
-48233.467221
-45086.363880
-41977.260540
-38922.157199
-35925.053858
-32987.950518
-30078.847177
-27273.743836
-24496.640496
-21743.537155
-19086.433814
-16481.330474
-13916.227133
-11413.123792
-8992.020452
-6628.917111
-4345.813770
-2106.710430
48.392911
2167.496252
4220.599593
6133.702933
8046.806274
9879.909615
11661.012955
13330.116296
14949.219637
16516.322977
17951.426318
19402.529659
20707.632999
21954.736340
23167.839681
-190142.655110
43959.612144
43062.508804
42149.405463
41120.302122
40045.198782
38898.095441
37662.992100
36347.888760
34988.785419
33551.682078
32024.578738
30395.475397
28742.372056
27011.268716
25170.165375
23281.062034
21295.958694
19268.855353
17171.752012
14998.648671
12767.545331
10432.441990
8055.338649
5624.235309
3111.131968
552.028627
-2071.074713
-4784.178054
-7541.281395
-10320.384735
-13179.488076
-16114.591417
-19095.694757
-22106.798098
-25185.901439
-28305.004779
-31456.108120
-34645.211461
-37900.314802
-41175.418142
-44512.521483
-47847.624824
-51240.728164
-54703.831505
-58148.934846
-61644.038186
-65179.141527
-68718.244868
-72283.348208
-75856.451549
-79479.554890
-83110.658230
-86741.761571
-90422.864912
-94079.968252
-97799.071593
-101494.174934
-105201.278275
-108894.381615
-112681.484956
-116372.588297
-120089.691637
-123848.794978
-127563.898319
-131317.001659
-135044.105000
-138785.208341
-142556.311681
-146265.415022
-149964.518363
-153667.621703
-157368.725044
-161069.828385
-164770.931725
-168412.035066
-172107.138407
-175718.241748
-179345.345088
-182998.448429
-186565.551770
-192859.322023
-195541.988935
-198198.655847
-200893.322759
-203619.989672
-206312.656584
-208993.323496
-211705.990409
-214380.657321
26303.609934
28288.276846
30244.943758
32235.610671
34186.277583
36124.944495
38073.611408
40070.278320
42028.945232
41119.841892
39137.174979
37180.508067
35181.841155
33155.174242
31190.507330
29187.840418
27195.173505
25192.506593
40150.738551
38136.071639
36149.404726
34132.737814
32102.070902
30069.403989
28064.737077
26052.070165
23993.403252
39089.635210
37090.968298
35066.301386
32997.634473
30976.967561
28950.300649
26903.633736
24820.966824
22782.299912
38014.531869
35955.864957
33911.198045
31828.531133
29797.864220
27685.197308
25604.530396
23559.863483
21499.196571
36811.428529
34728.761616
32632.094704
30601.427792
28454.760880
26370.093967
24287.427055
22164.760143
20082.093230
35572.325188
33473.658276
31376.991363
29232.324451
27129.657539
24990.990627
22898.323714
20779.656802
18636.989890
34233.221847
32106.554935
29941.888023
27829.221110
25702.554198
23581.887286
21395.220374
19244.553461
17087.886549
32848.118507
30685.451594
28540.784682
26358.117770
24191.450857
22024.783945
19862.117033
17703.450121
15494.783208
31355.015166
29172.348254
26999.681341
24837.014429
22642.347517
20461.680604
18251.013692
16068.346780
13835.679868
29825.911825
27597.244913
25420.578001
23183.911088
20999.244176
18754.577264
16571.910352
14339.243439
12122.576527
28204.808485
25988.141572
23751.474660
21492.807748
19272.140835
17019.473923
14800.807011
12560.140099
10325.473186
26481.705144
24249.038232
22014.371319
19755.704407
17479.037495
15252.370582
12969.703670
10675.036758
8436.369846
24722.601803
22487.934891
20211.267979
17906.601066
15629.934154
13343.267242
11086.600329
8783.933417
6481.266505
22867.498463
20590.831550
18310.164638
16031.497726
13716.830813
11422.163901
9119.496989
6770.830076
4484.163164
20960.395122
18665.728210
16339.061297
14046.394385
11713.727473
9355.060560
7040.393648
4747.726736
2379.059823
19007.291781
16658.624869
14291.957957
11991.291044
9626.624132
7273.957220
4945.290307
2608.623395
237.956483
16920.188441
14573.521528
12228.854616
9888.187704
7489.520791
5126.853879
2798.186967
417.520054
-1933.146858
14767.085100
12444.418188
10077.751275
7683.084363
5304.417451
2945.750538
541.083626
-1847.583286
-4242.250199
12643.981759
10245.314847
7826.647935
5443.981022
3027.314110
636.647198
-1758.019715
-4158.686627
-6587.353539
10372.878418
7950.211506
5547.544594
3132.877682
714.210769
-1690.456143
-4113.123055
-6545.789968
-8994.456880
7993.775078
5585.108166
3162.441253
759.774341
-1726.892571
-4159.559484
-6568.226396
-9024.893308
-11469.560221
5592.671737
3196.004825
741.337913
-1693.329000
-4151.995912
-6608.662824
-9087.329737
-11555.996649
-13984.663561
3151.568396
698.901484
-1733.765428
-4274.432340
-6693.099253
-9161.766165
-11628.433077
-14133.099990
-16615.766902
628.465056
-1838.201857
-4322.868769
-6805.535681
-9274.202593
-11788.869506
-14279.536418
-16748.203330
-19244.870243
-1948.638285
-4431.305197
-6941.972110
-9430.639022
-11937.305934
-14413.972846
-16958.639759
-19425.306671
-21975.973583
-4611.741626
-7102.408538
-9591.075450
-12117.742363
-14664.409275
-17153.076187
-19685.743099
-22240.410012
-24761.076924
-7274.844966
-9813.511879
-12324.178791
-14854.845703
-17399.512616
-19902.179528
-22468.846440
-25035.513352
-27560.180265
-10059.948307
-12634.615219
-15141.282132
-17667.949044
-20228.615956
-22783.282869
-25319.949781
-27880.616693
-30429.283605
-12869.051648
-15455.718560
-18006.385472
-20543.052385
-23095.719297
-25658.386209
-28209.053122
-30797.720034
-33360.386946
-15742.154988
-18310.821901
-20877.488813
-23488.155725
-26016.822638
-28611.489550
-31224.156462
-33750.823374
-36339.490287
-18673.258329
-21283.925241
-23834.592154
-26417.259066
-28997.925978
-31624.592891
-34205.259803
-36801.926715
-39424.593627
-21672.361670
-24259.028582
-26837.695494
-29454.362407
-32045.029319
-34649.696231
-37228.363144
-39845.030056
-42475.696968
-24701.465010
-27260.131923
-29884.798835
-32527.465747
-35134.132660
-37720.799572
-40345.466484
-42948.133397
-45554.800309
-27770.568351
-30399.235263
-32997.902176
-35628.569088
-38239.236000
-40891.902913
-43514.569825
-46137.236737
-48787.903650
-30919.671692
-33534.338604
-36159.005516
-38791.672429
-41420.339341
-44033.006253
-46703.673166
-49310.340078
-51975.006990
-34090.775032
-36687.441945
-39350.108857
-41992.775769
-44621.442682
-47256.109594
-49908.776506
-52581.443419
-55232.110331
-37287.878373
-39924.545285
-42573.212198
-45225.879110
-47874.546022
-50539.212935
-53171.879847
-55820.546759
-58509.213672
-40538.981714
-43195.648626
-45876.315538
-48518.982451
-51145.649363
-53844.316275
-56492.983188
-59163.650100
-61800.317012
-43816.085055
-46496.751967
-49153.418879
-51862.085791
-54508.752704
-57163.419616
-59848.086528
-62516.753441
-65223.420353
-47191.188395
-49869.855308
-52516.522220
-55197.189132
-57881.856044
-60540.522957
-63259.189869
-65925.856781
-68600.523694
-50552.291736
-53218.958648
-55881.625560
-58570.292473
-61272.959385
-63957.626297
-66664.293210
-69332.960122
-72043.627034
-53951.395077
-56660.061989
-59310.728901
-62019.395813
-64710.062726
-67400.729638
-70101.396550
-72788.063463
-75520.730375
-57362.498417
-60069.165330
-62809.832242
-65508.499154
-68155.166066
-70879.832979
-73622.499891
-76283.166803
-78989.833716
-60845.601758
-63556.268670
-66232.935583
-68947.602495
-71658.269407
-74374.936319
-77097.603232
-79796.270144
-82486.937056
-64360.705099
-67055.372011
-69746.038923
-72462.705836
-75171.372748
-77896.039660
-80610.706572
-83349.373485
-86086.040397
-67885.808439
-70558.475352
-73277.142264
-76015.809176
-78754.476089
-81459.143001
-84193.809913
-86870.476825
-89613.143738
-71392.911780
-74159.578692
-76850.245605
-79568.912517
-82297.579429
-85050.246342
-87756.913254
-90471.580166
-93194.247078
-75018.015121
-77724.682033
-80427.348945
-83178.015858
-85866.682770
-88613.349682
-91354.016595
-94088.683507
-96831.350419
-78587.118461
-81299.785374
-84062.452286
-86799.119198
-89535.786111
-92232.453023
-94975.119935
-97745.786848
-100446.453760
-82202.221802
-84888.888714
-87651.555627
-90406.222539
-93120.889451
-95891.556364
-98588.223276
-101352.890188
-104109.557100
-85845.325143
-88569.992055
-91300.658967
-94061.325880
-96795.992792
-99526.659704
-102269.326617
-105015.993529
-107738.660441
-89500.428483
-92255.095396
-94963.762308
-97706.429220
-100449.096133
-103207.763045
-105948.429957
-108717.096870
-111431.763782
-93127.531824
-95886.198736
-98656.865649
-101365.532561
-104102.199473
-106872.866386
-109619.533298
-112360.200210
-115122.867123
-96842.635165
-99585.302077
-102321.968989
-105060.635902
-107791.302814
-110601.969726
-113296.636639
-116079.303551
-118829.970463
-100537.738505
-103254.405418
-106015.072330
-108737.739242
-111540.406155
-114265.073067
-117043.739979
-119762.406892
-122507.073804
-104266.841846
-106989.508758
-109762.175671
-112470.842583
-115243.509495
-118018.176408
-120732.843320
-123495.510232
-126250.177145
-107953.945187
-110706.612099
-113473.279011
-116201.945924
-118944.612836
-121703.279748
-124419.946661
-127230.613573
-129947.280485
-111675.048528
-114427.715440
-117156.382352
-119915.049264
-122667.716177
-125434.383089
-128179.050001
-130919.716914
-133712.383826
-115386.151868
-118112.818781
-120873.485693
-123682.152605
-126380.819517
-129137.486430
-131904.153342
-134678.820254
-137441.487167
-119103.255209
-121869.922121
-124632.589034
-127367.255946
-130125.922858
-132884.589770
-135645.256683
-138389.923595
-141124.590507
-122860.358550
-125605.025462
-128387.692374
-131096.359286
-133871.026199
-136653.693111
-139358.360023
-142129.026936
-144899.693848
-126601.461890
-129328.128803
-132118.795715
-134849.462627
-137608.129539
-140336.796452
-143091.463364
-145848.130276
-148610.797189
-130364.565231
-133095.232143
-135869.899056
-138576.565968
-141339.232880
-144091.899792
-146862.566705
-149591.233617
-152339.900529
-134075.668572
-136820.335484
-139591.002396
-142307.669309
-145058.336221
-147827.003133
-150553.670045
-153324.336958
-156073.003870
-137800.771912
-140559.438825
-143308.105737
-146052.772649
-148759.439562
-151550.106474
-154304.773386
-157029.440298
-159790.107211
-141513.875253
-144284.542165
-147015.209078
-149799.875990
-152520.542902
-155263.209815
-158025.876727
-160760.543639
-163491.210551
-145268.978594
-148001.645506
-150758.312418
-153496.979331
-156233.646243
-158992.313155
-161748.980068
-164453.646980
-167196.313892
-148982.081934
-151734.748847
-154475.415759
-157200.082671
-159938.749584
-162727.416496
-165456.083408
-168194.750321
-170917.417233
-152697.185275
-155433.852187
-158180.519100
-160903.186012
-163653.852924
-166422.519837
-169125.186749
-171867.853661
-174618.520574
-156408.288616
-159156.955528
-161895.622440
-164604.289353
-167364.956265
-170079.623177
-172796.290090
-175528.957002
-178313.623914
-160093.391956
-162832.058869
-165594.725781
-168319.392693
-171042.059606
-173766.726518
-176509.393430
-179242.060343
-181976.727255
-163792.495297
-166533.162209
-169249.829122
-171960.496034
-174735.162946
-177405.829859
-180174.496771
-182917.163683
-185625.830596
-167467.598638
-170198.265550
-172914.932462
-175655.599375
-178386.266287
-181104.933199
-183825.600112
-186530.267024
-189278.933936
-171148.701978
-173859.368891
-176588.035803
-179294.702715
-182035.369628
-184752.036540
-187458.703452
-190175.370365
-192914.037277
-174799.805319
-177494.472231
-180219.139144
-182923.806056
-185696.472968
-188381.139881
-191091.806793
-193800.473705
-196515.140618
-178450.908660
-181153.575572
-183818.242484
-186584.909397
-189293.576309
-191994.243221
-194698.910134
-197423.577046
-200132.243958
-182066.012001
-184742.678913
-187475.345825
-190152.012737
-192856.679650
-195591.346562
-198290.013474
-200980.680387
-203735.347299
-185681.115341
-188365.782254
-191050.449166
-193785.116078
-196477.782990
-199184.449903
-201873.116815
-204585.783727
-207260.450640
-189278.218682
-191956.885594
-194655.552507
-197354.219419
-200074.886331
-202747.553243
-205434.220156
-208120.887068
-210837.553980
SCALARS stress_3 float
LOOKUP_TABLE default
7326.626626
455971.337801
449545.578911
443072.820021
436580.061132
430045.302242
423482.543352
416878.784463
410258.025573
403605.266683
396908.507794
390223.748904
383485.990014
376746.231124
369989.472235
363178.713345
356382.954455
349548.195566
342728.436676
335904.677786
329053.918897
322223.160007
315361.401117
308506.642228
301656.883338
294816.124448
287972.365559
281135.606669
274326.847779
267530.088889
260738.330000
253992.571110
247244.812220
240528.053331
233842.294441
227203.535551
220591.776662
214033.017772
207485.258882
200992.499993
194554.741103
188180.982213
181845.223324
175557.464434
169342.705544
163208.946654
157103.187765
151091.428875
145149.669985
139279.911096
133509.152206
127811.393316
122177.634427
116654.875537
111221.116647
105873.357758
100642.598868
95472.839978
90463.081089
85520.322199
80682.563309
75979.804419
71376.045530
66874.286640
62494.527750
58222.768861
54105.009971
50081.251081
46212.492192
42436.733302
38809.974412
35303.215523
31914.456633
28674.697743
25540.938854
22542.179964
19686.421074
16961.662185
14350.903295
11887.144405
9545.385515
443683.904928
-3897.806247
-1799.047357
470.711532
2821.470422
5334.229312
7975.988202
10766.747091
13677.505981
16708.264871
19899.023760
23177.782650
26633.541540
30196.300429
33895.059319
37737.818209
41669.577098
45725.335988
49928.094878
54253.853767
58698.612657
63261.371547
67909.130437
72692.889326
77596.648216
82593.407106
87693.165995
92903.924885
98221.683775
103621.442664
109129.201554
114717.960444
120405.719333
126142.478223
131993.237113
137928.996002
143917.754892
149992.513782
156151.272672
162343.031561
168602.790451
174946.549341
181311.308230
187755.067120
194246.826010
200785.584899
207378.343789
213971.102679
220634.861568
227321.620458
234043.379348
240791.138237
247580.897127
254383.656017
261174.414907
268021.173796
274866.932686
281730.691576
288594.450465
295472.209355
302349.968245
309214.727134
316087.486024
322945.244914
329824.003803
336680.762693
343532.521583
350372.280472
357195.039362
363997.798252
370780.557142
377535.316031
384280.074921
390998.833811
397681.592700
404346.351590
410968.110480
417582.869369
424166.628259
430702.387149
437208.146038
444913.548215
446147.191503
447365.834790
448607.478077
449843.121364
451075.764652
452295.407939
453539.051226
454750.694513
6189.983338
5039.340051
3895.696764
2769.053477
1629.410189
530.766902
-611.876385
-1702.519672
-2811.162960
-684.404070
417.239217
1540.882505
2679.525792
3802.169079
4947.812366
6075.455654
7242.098941
8372.742228
1578.354820
2682.998107
3819.641394
4953.284682
6105.927969
7249.571256
8377.214543
9543.857831
10719.501118
3968.113709
5107.756997
6226.400284
7372.043571
8525.686858
9675.330146
10841.973433
12005.616720
13180.260008
6473.872599
7613.515886
8767.159174
9926.802461
11076.445748
12237.089035
13415.732323
14583.375610
15790.018897
9114.631489
10261.274776
11427.918063
12599.561351
13754.204638
14937.847925
16118.491212
17317.134500
18485.777787
11925.390378
13081.033666
14238.676953
15417.320240
16579.963528
17767.606815
18962.250102
20153.893389
21351.536677
14833.149268
15998.792555
17173.435843
18362.079130
19528.722417
20718.365705
21922.008992
23125.652279
24328.295566
17869.908158
19051.551445
20239.194732
21430.838020
22618.481307
23827.124594
25005.767881
26210.411169
27443.054456
21073.667048
22249.310335
23441.953622
24635.596909
25842.240197
27014.883484
28252.526771
29464.170058
30684.813346
24379.425937
25560.069225
26771.712512
27966.355799
29173.999086
30407.642374
31597.285661
32838.928948
34047.572235
27810.184827
29029.828114
30226.471401
31445.114689
32644.757976
33868.401263
35110.044551
36324.687838
37574.331125
31396.943717
32603.587004
33820.230291
35015.873578
36273.516866
37467.160153
38721.803440
39943.446727
41188.090015
35108.702606
36302.345894
37521.989181
38743.632468
39966.275755
41222.919043
42443.562330
43700.205617
44936.848904
38924.461496
40144.104783
41378.748071
42585.391358
43839.034645
45070.677932
46332.321220
47568.964507
48841.607794
42900.220386
44111.863673
45327.506960
46581.150247
47820.793535
49049.436822
50316.080109
51594.723397
52832.366684
46969.979275
48191.622563
49428.265850
50671.909137
51929.552424
53187.195712
54421.838999
55714.482286
56966.125573
51162.738165
52416.381452
53659.024740
54889.668027
56151.311314
57411.954601
58677.597889
59949.241176
61224.884463
55479.497055
56727.140342
57982.783629
59250.426917
60513.070204
61758.713491
63044.356778
64311.000066
65596.643353
59926.255944
61173.899232
62451.542519
63696.185806
64968.829093
66237.472381
67505.115668
68791.758955
70076.402243
64496.014834
65742.658121
67000.301409
68293.944696
69549.587983
70819.231270
72092.874558
73378.517845
74669.161132
69181.773724
70429.417011
71695.060298
72970.703586
74234.346873
75506.990160
76783.633447
78095.276735
79396.920022
73947.532613
75227.175901
76512.819188
77767.462475
79063.105763
80323.749050
81619.392337
82920.035624
84214.678912
78880.291503
80119.934790
81397.578078
82678.221365
83975.864652
85260.507939
86561.151227
87845.794514
89144.437801
83883.050393
85115.693680
86408.336967
87697.980255
88974.623542
90274.266829
91573.910116
92886.553404
94168.196691
88968.809283
90256.452570
91539.095857
92817.739144
94106.382432
95395.025719
96700.669006
98026.312293
99302.955581
94187.568172
95470.211459
96754.854747
98036.498034
99338.141321
100631.784609
101933.427896
103244.071183
104540.714470
99488.327062
100779.970349
102080.613636
103366.256924
104676.900211
105975.543498
107259.186786
108588.830073
109901.473360
104902.085952
106199.729239
107500.372526
108778.015813
110083.659101
111382.302388
112701.945675
114015.588962
115343.232250
110421.844841
111696.488129
113002.131416
114297.774703
115604.417990
116905.061278
118246.704565
119533.347852
120860.991139
115997.603731
117294.247018
118596.890306
119903.533593
121207.176880
122514.820167
123815.463455
125157.106742
126478.750029
121681.362621
122972.005908
124279.649195
125584.292482
126883.935770
128216.579057
129531.222344
130853.865632
132181.508919
127446.121510
128752.764798
130056.408085
131347.051372
132672.694659
133978.337947
135304.981234
136629.624521
137963.267808
133285.880400
134605.523687
135901.166975
137211.810262
138523.453549
139848.096836
141158.740124
142497.383411
143829.026698
139225.639290
140518.282577
141834.925864
143139.569152
144474.212439
145773.855726
147107.499013
148428.142301
149744.785588
145223.398179
146545.041467
147835.684754
149151.328041
150474.971328
151783.614616
153098.257903
154448.901190
155760.544478
151300.157069
152593.800356
153916.443644
155233.086931
156563.730218
157860.373505
159192.016793
160526.660080
161846.303367
157429.915959
158734.559246
160056.202533
161384.845821
162701.489108
164016.132395
165349.775682
166666.418970
167988.062257
163643.674848
164960.318136
166271.961423
167593.604710
168912.247998
170227.891285
171559.534572
172895.177859
174211.821147
169913.433738
171226.077025
172526.720313
173848.363600
175178.006887
176520.650174
177836.293462
179165.936749
180510.580036
176240.192628
177541.835915
178879.479202
180201.122490
181511.765777
182837.409064
184161.052351
185493.695639
186831.338926
182635.951518
183931.594805
185262.238092
186584.881379
187904.524667
189216.167954
190553.811241
191898.454528
193234.097816
189084.710407
190381.353694
191687.996982
193016.640269
194348.283556
195662.926844
196994.570131
198331.213418
199658.856705
195555.469297
196860.112584
198193.755871
199505.399159
200829.042446
202153.685733
203471.329021
204816.972308
206158.615595
202092.228187
203412.871474
204726.514761
206053.158048
207361.801336
208701.444623
210010.087910
211342.731197
212679.374485
208675.987076
209999.630364
211293.273651
212635.916938
213945.560225
215275.203513
216606.846800
217924.490087
219252.133374
215291.745966
216593.389253
217927.032541
219234.675828
220572.319115
221885.962402
223205.605690
224538.248977
225869.892264
221941.504856
223272.148143
224578.791430
225886.434717
227212.078005
228552.721292
229863.364579
231166.007867
232526.651154
228639.263745
229945.907033
231265.550320
232597.193607
233903.836894
235220.480182
236555.123469
237862.766756
239203.410043
235353.022635
236676.665922
237973.309210
239303.952497
240619.595784
241944.239071
243273.882359
244585.525646
245917.168933
242106.781525
243405.424812
244737.068099
246049.711387
247358.354674
248688.997961
250022.641248
251345.284536
252667.927823
248890.540414
250183.183702
251520.826989
252823.470276
254139.113563
255456.756851
256772.400138
258107.043425
259416.686713
255680.299304
256976.942591
258313.585879
259615.229166
260923.872453
262247.515740
263561.159028
264883.802315
266211.445602
262501.058194
263811.701481
265098.344768
266422.988056
267751.631343
269053.274630
270354.917917
271685.561205
273013.204492
269320.817083
270637.460371
271939.103658
273236.746945
274562.390233
275871.033520
277202.676807
278498.320094
279826.963382
276176.575973
277467.219260
278774.862548
280096.505835
281408.149122
282705.792409
284015.435697
285342.078984
286654.722271
283030.334863
284334.978150
285641.621437
286942.264725
288262.908012
289576.551299
290876.194586
292180.837874
293490.481161
289894.093753
291200.737040
292490.380327
293808.023614
295104.666902
296411.310189
297728.953476
299042.596763
300335.240051
296757.852642
298071.495929
299360.139217
300661.782504
301972.425791
303281.069079
304581.712366
305893.355653
307192.998940
303660.611532
304937.254819
306237.898106
307541.541394
308838.184681
310163.827968
311445.471256
312761.114543
314055.757830
310518.370422
311798.013709
313097.656996
314405.300283
315691.943571
316992.586858
318306.230145
319608.873432
320907.516720
317393.129311
318680.772599
319974.415886
321263.059173
322583.702460
323863.345748
325147.989035
326451.632322
327758.275609
324264.888201
325534.531488
326833.174775
328128.818063
329428.461350
330714.104637
332004.747925
333303.391212
334606.034499
331137.647091
332413.290378
333684.933665
334985.576952
336273.220240
337556.863527
338872.506814
340154.150102
341439.793389
337969.405980
339262.049268
340532.692555
341822.335842
343110.979129
344420.622417
345696.265704
346970.908991
348271.552278
344817.164870
346088.808157
347379.451445
348663.094732
349947.738019
351255.381306
352532.024594
353807.667881
355100.311168
351655.923760
352944.567047
354198.210334
355497.853622
356776.496909
358058.140196
359347.783483
360615.426771
361909.070058
358451.682649
359742.325937
361011.969224
362283.612511
363574.255798
364845.899086
366130.542373
367405.185660
368686.828948
365258.441539
366533.084826
367807.728114
369082.371401
370375.014688
371641.657975
372908.301263
374190.944550
375473.587837
372051.200429
373296.843716
374577.487003
375867.130291
377126.773578
378397.416865
379675.060152
380957.703440
382213.346727
378799.959318
380072.602606
381318.245893
382606.889180
383879.532468
385140.175755
386422.819042
387683.462329
388948.105617
385547.718208
386801.361495
388066.004783
389330.648070
390592.291357
391863.934644
393128.577932
394400.221219
395656.864506
392251.477098
393531.120385
394770.763672
396045.406960
397304.050247
398560.693534
399824.336821
401084.980109
402340.623396
398944.235988
400197.879275
401460.522562
402722.165849
403968.809137
405236.452424
406490.095711
407731.738998
409000.382286
405612.994877
406858.638164
408110.281452
409359.924739
410619.568026
411876.211314
413120.854601
414387.497888
415640.141175
412227.753767
413484.397054
414748.040341
416005.683629
417248.326916
418480.970203
419731.613490
420985.256778
422244.900065
418822.512657
420070.155944
421341.799231
422588.442518
423829.085806
425072.729093
426312.372380
427553.015667
428801.658955
425424.271546
426645.914834
427901.558121
429143.201408
430377.844695
431611.487983
432861.131270
434098.774557
435350.417844
431927.030436
433180.673723
434414.317010
435650.960298
436908.603585
438150.246872
439361.890160
440612.533447
441843.176734
438443.789326
439690.432613
440926.075900
442153.719187
443392.362475
444601.005762
445855.649049
447080.292337
448315.935624
