# vtk DataFile Version 2.0
Generated volume Mesh
ASCII
DATASET UNSTRUCTURED_GRID
POINTS 891 float
0.005000 0.100000 0.000000
0.005000 0.000000 0.000000
0.005000 0.001250 0.000000
0.005000 0.002500 0.000000
0.005000 0.003750 0.000000
0.005000 0.005000 0.000000
0.005000 0.006250 0.000000
0.005000 0.007500 0.000000
0.005000 0.008750 0.000000
0.005000 0.010000 0.000000
0.005000 0.011250 0.000000
0.005000 0.012500 0.000000
0.005000 0.013750 0.000000
0.005000 0.015000 0.000000
0.005000 0.016250 0.000000
0.005000 0.017500 0.000000
0.005000 0.018750 0.000000
0.005000 0.020000 0.000000
0.005000 0.021250 0.000000
0.005000 0.022500 0.000000
0.005000 0.023750 0.000000
0.005000 0.025000 0.000000
0.005000 0.026250 0.000000
0.005000 0.027500 0.000000
0.005000 0.028750 0.000000
0.005000 0.030000 0.000000
0.005000 0.031250 0.000000
0.005000 0.032500 0.000000
0.005000 0.033750 0.000000
0.005000 0.035000 0.000000
0.005000 0.036250 0.000000
0.005000 0.037500 0.000000
0.005000 0.038750 0.000000
0.005000 0.040000 0.000000
0.005000 0.041250 0.000000
0.005000 0.042500 0.000000
0.005000 0.043750 0.000000
0.005000 0.045000 0.000000
0.005000 0.046250 0.000000
0.005000 0.047500 0.000000
0.005000 0.048750 0.000000
0.005000 0.050000 0.000000
0.005000 0.051250 0.000000
0.005000 0.052500 0.000000
0.005000 0.053750 0.000000
0.005000 0.055000 0.000000
0.005000 0.056250 0.000000
0.005000 0.057500 0.000000
0.005000 0.058750 0.000000
0.005000 0.060000 0.000000
0.005000 0.061250 0.000000
0.005000 0.062500 0.000000
0.005000 0.063750 0.000000
0.005000 0.065000 0.000000
0.005000 0.066250 0.000000
0.005000 0.067500 0.000000
0.005000 0.068750 0.000000
0.005000 0.070000 0.000000
0.005000 0.071250 0.000000
0.005000 0.072500 0.000000
0.005000 0.073750 0.000000
0.005000 0.075000 0.000000
0.005000 0.076250 0.000000
0.005000 0.077500 0.000000
0.005000 0.078750 0.000000
0.005000 0.080000 0.000000
0.005000 0.081250 0.000000
0.005000 0.082500 0.000000
0.005000 0.083750 0.000000
0.005000 0.085000 0.000000
0.005000 0.086250 0.000000
0.005000 0.087500 0.000000
0.005000 0.088750 0.000000
0.005000 0.090000 0.000000
0.005000 0.091250 0.000000
0.005000 0.092500 0.000000
0.005000 0.093750 0.000000
0.005000 0.095000 0.000000
0.005000 0.096250 0.000000
0.005000 0.097500 0.000000
0.005000 0.098750 0.000000
0.000000 0.000000 0.000000
0.000000 0.100000 0.000000
0.000000 0.098750 0.000000
0.000000 0.097500 0.000000
0.000000 0.096250 0.000000
0.000000 0.095000 0.000000
0.000000 0.093750 0.000000
0.000000 0.092500 0.000000
0.000000 0.091250 0.000000
0.000000 0.090000 0.000000
0.000000 0.088750 0.000000
0.000000 0.087500 0.000000
0.000000 0.086250 0.000000
0.000000 0.085000 0.000000
0.000000 0.083750 0.000000
0.000000 0.082500 0.000000
0.000000 0.081250 0.000000
0.000000 0.080000 0.000000
0.000000 0.078750 0.000000
0.000000 0.077500 0.000000
0.000000 0.076250 0.000000
0.000000 0.075000 0.000000
0.000000 0.073750 0.000000
0.000000 0.072500 0.000000
0.000000 0.071250 0.000000
0.000000 0.070000 0.000000
0.000000 0.068750 0.000000
0.000000 0.067500 0.000000
0.000000 0.066250 0.000000
0.000000 0.065000 0.000000
0.000000 0.063750 0.000000
0.000000 0.062500 0.000000
0.000000 0.061250 0.000000
0.000000 0.060000 0.000000
0.000000 0.058750 0.000000
0.000000 0.057500 0.000000
0.000000 0.056250 0.000000
0.000000 0.055000 0.000000
0.000000 0.053750 0.000000
0.000000 0.052500 0.000000
0.000000 0.051250 0.000000
0.000000 0.050000 0.000000
0.000000 0.048750 0.000000
0.000000 0.047500 0.000000
0.000000 0.046250 0.000000
0.000000 0.045000 0.000000
0.000000 0.043750 0.000000
0.000000 0.042500 0.000000
0.000000 0.041250 0.000000
0.000000 0.040000 0.000000
0.000000 0.038750 0.000000
0.000000 0.037500 0.000000
0.000000 0.036250 0.000000
0.000000 0.035000 0.000000
0.000000 0.033750 0.000000
0.000000 0.032500 0.000000
0.000000 0.031250 0.000000
0.000000 0.030000 0.000000
0.000000 0.028750 0.000000
0.000000 0.027500 0.000000
0.000000 0.026250 0.000000
0.000000 0.025000 0.000000
0.000000 0.023750 0.000000
0.000000 0.022500 0.000000
0.000000 0.021250 0.000000
0.000000 0.020000 0.000000
0.000000 0.018750 0.000000
0.000000 0.017500 0.000000
0.000000 0.016250 0.000000
0.000000 0.015000 0.000000
0.000000 0.013750 0.000000
0.000000 0.012500 0.000000
0.000000 0.011250 0.000000
0.000000 0.010000 0.000000
0.000000 0.008750 0.000000
0.000000 0.007500 0.000000
0.000000 0.006250 0.000000
0.000000 0.005000 0.000000
0.000000 0.003750 0.000000
0.000000 0.002500 0.000000
0.000000 0.001250 0.000000
0.000500 0.000000 0.000000
0.001000 0.000000 0.000000
0.001500 0.000000 0.000000
0.002000 0.000000 0.000000
0.002500 0.000000 0.000000
0.003000 0.000000 0.000000
0.003500 0.000000 0.000000
0.004000 0.000000 0.000000
0.004500 0.000000 0.000000
0.004500 0.100000 0.000000
0.004000 0.100000 0.000000
0.003500 0.100000 0.000000
0.003000 0.100000 0.000000
0.002500 0.100000 0.000000
0.002000 0.100000 0.000000
0.001500 0.100000 0.000000
0.001000 0.100000 0.000000
0.000500 0.100000 0.000000
0.000500 0.098750 0.000000
0.001000 0.098750 0.000000
0.001500 0.098750 0.000000
0.002000 0.098750 0.000000
0.002500 0.098750 0.000000
0.003000 0.098750 0.000000
0.003500 0.098750 0.000000
0.004000 0.098750 0.000000
0.004500 0.098750 0.000000
0.000500 0.097500 0.000000
0.001000 0.097500 0.000000
0.001500 0.097500 0.000000
0.002000 0.097500 0.000000
0.002500 0.097500 0.000000
0.003000 0.097500 0.000000
0.003500 0.097500 0.000000
0.004000 0.097500 0.000000
0.004500 0.097500 0.000000
0.000500 0.096250 0.000000
0.001000 0.096250 0.000000
0.001500 0.096250 0.000000
0.002000 0.096250 0.000000
0.002500 0.096250 0.000000
0.003000 0.096250 0.000000
0.003500 0.096250 0.000000
0.004000 0.096250 0.000000
0.004500 0.096250 0.000000
0.000500 0.095000 0.000000
0.001000 0.095000 0.000000
0.001500 0.095000 0.000000
0.002000 0.095000 0.000000
0.002500 0.095000 0.000000
0.003000 0.095000 0.000000
0.003500 0.095000 0.000000
0.004000 0.095000 0.000000
0.004500 0.095000 0.000000
0.000500 0.093750 0.000000
0.001000 0.093750 0.000000
0.001500 0.093750 0.000000
0.002000 0.093750 0.000000
0.002500 0.093750 0.000000
0.003000 0.093750 0.000000
0.003500 0.093750 0.000000
0.004000 0.093750 0.000000
0.004500 0.093750 0.000000
0.000500 0.092500 0.000000
0.001000 0.092500 0.000000
0.001500 0.092500 0.000000
0.002000 0.092500 0.000000
0.002500 0.092500 0.000000
0.003000 0.092500 0.000000
0.003500 0.092500 0.000000
0.004000 0.092500 0.000000
0.004500 0.092500 0.000000
0.000500 0.091250 0.000000
0.001000 0.091250 0.000000
0.001500 0.091250 0.000000
0.002000 0.091250 0.000000
0.002500 0.091250 0.000000
0.003000 0.091250 0.000000
0.003500 0.091250 0.000000
0.004000 0.091250 0.000000
0.004500 0.091250 0.000000
0.000500 0.090000 0.000000
0.001000 0.090000 0.000000
0.001500 0.090000 0.000000
0.002000 0.090000 0.000000
0.002500 0.090000 0.000000
0.003000 0.090000 0.000000
0.003500 0.090000 0.000000
0.004000 0.090000 0.000000
0.004500 0.090000 0.000000
0.000500 0.088750 0.000000
0.001000 0.088750 0.000000
0.001500 0.088750 0.000000
0.002000 0.088750 0.000000
0.002500 0.088750 0.000000
0.003000 0.088750 0.000000
0.003500 0.088750 0.000000
0.004000 0.088750 0.000000
0.004500 0.088750 0.000000
0.000500 0.087500 0.000000
0.001000 0.087500 0.000000
0.001500 0.087500 0.000000
0.002000 0.087500 0.000000
0.002500 0.087500 0.000000
0.003000 0.087500 0.000000
0.003500 0.087500 0.000000
0.004000 0.087500 0.000000
0.004500 0.087500 0.000000
0.000500 0.086250 0.000000
0.001000 0.086250 0.000000
0.001500 0.086250 0.000000
0.002000 0.086250 0.000000
0.002500 0.086250 0.000000
0.003000 0.086250 0.000000
0.003500 0.086250 0.000000
0.004000 0.086250 0.000000
0.004500 0.086250 0.000000
0.000500 0.085000 0.000000
0.001000 0.085000 0.000000
0.001500 0.085000 0.000000
0.002000 0.085000 0.000000
0.002500 0.085000 0.000000
0.003000 0.085000 0.000000
0.003500 0.085000 0.000000
0.004000 0.085000 0.000000
0.004500 0.085000 0.000000
0.000500 0.083750 0.000000
0.001000 0.083750 0.000000
0.001500 0.083750 0.000000
0.002000 0.083750 0.000000
0.002500 0.083750 0.000000
0.003000 0.083750 0.000000
0.003500 0.083750 0.000000
0.004000 0.083750 0.000000
0.004500 0.083750 0.000000
0.000500 0.082500 0.000000
0.001000 0.082500 0.000000
0.001500 0.082500 0.000000
0.002000 0.082500 0.000000
0.002500 0.082500 0.000000
0.003000 0.082500 0.000000
0.003500 0.082500 0.000000
0.004000 0.082500 0.000000
0.004500 0.082500 0.000000
0.000500 0.081250 0.000000
0.001000 0.081250 0.000000
0.001500 0.081250 0.000000
0.002000 0.081250 0.000000
0.002500 0.081250 0.000000
0.003000 0.081250 0.000000
0.003500 0.081250 0.000000
0.004000 0.081250 0.000000
0.004500 0.081250 0.000000
0.000500 0.080000 0.000000
0.001000 0.080000 0.000000
0.001500 0.080000 0.000000
0.002000 0.080000 0.000000
0.002500 0.080000 0.000000
0.003000 0.080000 0.000000
0.003500 0.080000 0.000000
0.004000 0.080000 0.000000
0.004500 0.080000 0.000000
0.000500 0.078750 0.000000
0.001000 0.078750 0.000000
0.001500 0.078750 0.000000
0.002000 0.078750 0.000000
0.002500 0.078750 0.000000
0.003000 0.078750 0.000000
0.003500 0.078750 0.000000
0.004000 0.078750 0.000000
0.004500 0.078750 0.000000
0.000500 0.077500 0.000000
0.001000 0.077500 0.000000
0.001500 0.077500 0.000000
0.002000 0.077500 0.000000
0.002500 0.077500 0.000000
0.003000 0.077500 0.000000
0.003500 0.077500 0.000000
0.004000 0.077500 0.000000
0.004500 0.077500 0.000000
0.000500 0.076250 0.000000
0.001000 0.076250 0.000000
0.001500 0.076250 0.000000
0.002000 0.076250 0.000000
0.002500 0.076250 0.000000
0.003000 0.076250 0.000000
0.003500 0.076250 0.000000
0.004000 0.076250 0.000000
0.004500 0.076250 0.000000
0.000500 0.075000 0.000000
0.001000 0.075000 0.000000
0.001500 0.075000 0.000000
0.002000 0.075000 0.000000
0.002500 0.075000 0.000000
0.003000 0.075000 0.000000
0.003500 0.075000 0.000000
0.004000 0.075000 0.000000
0.004500 0.075000 0.000000
0.000500 0.073750 0.000000
0.001000 0.073750 0.000000
0.001500 0.073750 0.000000
0.002000 0.073750 0.000000
0.002500 0.073750 0.000000
0.003000 0.073750 0.000000
0.003500 0.073750 0.000000
0.004000 0.073750 0.000000
0.004500 0.073750 0.000000
0.000500 0.072500 0.000000
0.001000 0.072500 0.000000
0.001500 0.072500 0.000000
0.002000 0.072500 0.000000
0.002500 0.072500 0.000000
0.003000 0.072500 0.000000
0.003500 0.072500 0.000000
0.004000 0.072500 0.000000
0.004500 0.072500 0.000000
0.000500 0.071250 0.000000
0.001000 0.071250 0.000000
0.001500 0.071250 0.000000
0.002000 0.071250 0.000000
0.002500 0.071250 0.000000
0.003000 0.071250 0.000000
0.003500 0.071250 0.000000
0.004000 0.071250 0.000000
0.004500 0.071250 0.000000
0.000500 0.070000 0.000000
0.001000 0.070000 0.000000
0.001500 0.070000 0.000000
0.002000 0.070000 0.000000
0.002500 0.070000 0.000000
0.003000 0.070000 0.000000
0.003500 0.070000 0.000000
0.004000 0.070000 0.000000
0.004500 0.070000 0.000000
0.000500 0.068750 0.000000
0.001000 0.068750 0.000000
0.001500 0.068750 0.000000
0.002000 0.068750 0.000000
0.002500 0.068750 0.000000
0.003000 0.068750 0.000000
0.003500 0.068750 0.000000
0.004000 0.068750 0.000000
0.004500 0.068750 0.000000
0.000500 0.067500 0.000000
0.001000 0.067500 0.000000
0.001500 0.067500 0.000000
0.002000 0.067500 0.000000
0.002500 0.067500 0.000000
0.003000 0.067500 0.000000
0.003500 0.067500 0.000000
0.004000 0.067500 0.000000
0.004500 0.067500 0.000000
0.000500 0.066250 0.000000
0.001000 0.066250 0.000000
0.001500 0.066250 0.000000
0.002000 0.066250 0.000000
0.002500 0.066250 0.000000
0.003000 0.066250 0.000000
0.003500 0.066250 0.000000
0.004000 0.066250 0.000000
0.004500 0.066250 0.000000
0.000500 0.065000 0.000000
0.001000 0.065000 0.000000
0.001500 0.065000 0.000000
0.002000 0.065000 0.000000
0.002500 0.065000 0.000000
0.003000 0.065000 0.000000
0.003500 0.065000 0.000000
0.004000 0.065000 0.000000
0.004500 0.065000 0.000000
0.000500 0.063750 0.000000
0.001000 0.063750 0.000000
0.001500 0.063750 0.000000
0.002000 0.063750 0.000000
0.002500 0.063750 0.000000
0.003000 0.063750 0.000000
0.003500 0.063750 0.000000
0.004000 0.063750 0.000000
0.004500 0.063750 0.000000
0.000500 0.062500 0.000000
0.001000 0.062500 0.000000
0.001500 0.062500 0.000000
0.002000 0.062500 0.000000
0.002500 0.062500 0.000000
0.003000 0.062500 0.000000
0.003500 0.062500 0.000000
0.004000 0.062500 0.000000
0.004500 0.062500 0.000000
0.000500 0.061250 0.000000
0.001000 0.061250 0.000000
0.001500 0.061250 0.000000
0.002000 0.061250 0.000000
0.002500 0.061250 0.000000
0.003000 0.061250 0.000000
0.003500 0.061250 0.000000
0.004000 0.061250 0.000000
0.004500 0.061250 0.000000
0.000500 0.060000 0.000000
0.001000 0.060000 0.000000
0.001500 0.060000 0.000000
0.002000 0.060000 0.000000
0.002500 0.060000 0.000000
0.003000 0.060000 0.000000
0.003500 0.060000 0.000000
0.004000 0.060000 0.000000
0.004500 0.060000 0.000000
0.000500 0.058750 0.000000
0.001000 0.058750 0.000000
0.001500 0.058750 0.000000
0.002000 0.058750 0.000000
0.002500 0.058750 0.000000
0.003000 0.058750 0.000000
0.003500 0.058750 0.000000
0.004000 0.058750 0.000000
0.004500 0.058750 0.000000
0.000500 0.057500 0.000000
0.001000 0.057500 0.000000
0.001500 0.057500 0.000000
0.002000 0.057500 0.000000
0.002500 0.057500 0.000000
0.003000 0.057500 0.000000
0.003500 0.057500 0.000000
0.004000 0.057500 0.000000
0.004500 0.057500 0.000000
0.000500 0.056250 0.000000
0.001000 0.056250 0.000000
0.001500 0.056250 0.000000
0.002000 0.056250 0.000000
0.002500 0.056250 0.000000
0.003000 0.056250 0.000000
0.003500 0.056250 0.000000
0.004000 0.056250 0.000000
0.004500 0.056250 0.000000
0.000500 0.055000 0.000000
0.001000 0.055000 0.000000
0.001500 0.055000 0.000000
0.002000 0.055000 0.000000
0.002500 0.055000 0.000000
0.003000 0.055000 0.000000
0.003500 0.055000 0.000000
0.004000 0.055000 0.000000
0.004500 0.055000 0.000000
0.000500 0.053750 0.000000
0.001000 0.053750 0.000000
0.001500 0.053750 0.000000
0.002000 0.053750 0.000000
0.002500 0.053750 0.000000
0.003000 0.053750 0.000000
0.003500 0.053750 0.000000
0.004000 0.053750 0.000000
0.004500 0.053750 0.000000
0.000500 0.052500 0.000000
0.001000 0.052500 0.000000
0.001500 0.052500 0.000000
0.002000 0.052500 0.000000
0.002500 0.052500 0.000000
0.003000 0.052500 0.000000
0.003500 0.052500 0.000000
0.004000 0.052500 0.000000
0.004500 0.052500 0.000000
0.000500 0.051250 0.000000
0.001000 0.051250 0.000000
0.001500 0.051250 0.000000
0.002000 0.051250 0.000000
0.002500 0.051250 0.000000
0.003000 0.051250 0.000000
0.003500 0.051250 0.000000
0.004000 0.051250 0.000000
0.004500 0.051250 0.000000
0.000500 0.050000 0.000000
0.001000 0.050000 0.000000
0.001500 0.050000 0.000000
0.002000 0.050000 0.000000
0.002500 0.050000 0.000000
0.003000 0.050000 0.000000
0.003500 0.050000 0.000000
0.004000 0.050000 0.000000
0.004500 0.050000 0.000000
0.000500 0.048750 0.000000
0.001000 0.048750 0.000000
0.001500 0.048750 0.000000
0.002000 0.048750 0.000000
0.002500 0.048750 0.000000
0.003000 0.048750 0.000000
0.003500 0.048750 0.000000
0.004000 0.048750 0.000000
0.004500 0.048750 0.000000
0.000500 0.047500 0.000000
0.001000 0.047500 0.000000
0.001500 0.047500 0.000000
0.002000 0.047500 0.000000
0.002500 0.047500 0.000000
0.003000 0.047500 0.000000
0.003500 0.047500 0.000000
0.004000 0.047500 0.000000
0.004500 0.047500 0.000000
0.000500 0.046250 0.000000
0.001000 0.046250 0.000000
0.001500 0.046250 0.000000
0.002000 0.046250 0.000000
0.002500 0.046250 0.000000
0.003000 0.046250 0.000000
0.003500 0.046250 0.000000
0.004000 0.046250 0.000000
0.004500 0.046250 0.000000
0.000500 0.045000 0.000000
0.001000 0.045000 0.000000
0.001500 0.045000 0.000000
0.002000 0.045000 0.000000
0.002500 0.045000 0.000000
0.003000 0.045000 0.000000
0.003500 0.045000 0.000000
0.004000 0.045000 0.000000
0.004500 0.045000 0.000000
0.000500 0.043750 0.000000
0.001000 0.043750 0.000000
0.001500 0.043750 0.000000
0.002000 0.043750 0.000000
0.002500 0.043750 0.000000
0.003000 0.043750 0.000000
0.003500 0.043750 0.000000
0.004000 0.043750 0.000000
0.004500 0.043750 0.000000
0.000500 0.042500 0.000000
0.001000 0.042500 0.000000
0.001500 0.042500 0.000000
0.002000 0.042500 0.000000
0.002500 0.042500 0.000000
0.003000 0.042500 0.000000
0.003500 0.042500 0.000000
0.004000 0.042500 0.000000
0.004500 0.042500 0.000000
0.000500 0.041250 0.000000
0.001000 0.041250 0.000000
0.001500 0.041250 0.000000
0.002000 0.041250 0.000000
0.002500 0.041250 0.000000
0.003000 0.041250 0.000000
0.003500 0.041250 0.000000
0.004000 0.041250 0.000000
0.004500 0.041250 0.000000
0.000500 0.040000 0.000000
0.001000 0.040000 0.000000
0.001500 0.040000 0.000000
0.002000 0.040000 0.000000
0.002500 0.040000 0.000000
0.003000 0.040000 0.000000
0.003500 0.040000 0.000000
0.004000 0.040000 0.000000
0.004500 0.040000 0.000000
0.000500 0.038750 0.000000
0.001000 0.038750 0.000000
0.001500 0.038750 0.000000
0.002000 0.038750 0.000000
0.002500 0.038750 0.000000
0.003000 0.038750 0.000000
0.003500 0.038750 0.000000
0.004000 0.038750 0.000000
0.004500 0.038750 0.000000
0.000500 0.037500 0.000000
0.001000 0.037500 0.000000
0.001500 0.037500 0.000000
0.002000 0.037500 0.000000
0.002500 0.037500 0.000000
0.003000 0.037500 0.000000
0.003500 0.037500 0.000000
0.004000 0.037500 0.000000
0.004500 0.037500 0.000000
0.000500 0.036250 0.000000
0.001000 0.036250 0.000000
0.001500 0.036250 0.000000
0.002000 0.036250 0.000000
0.002500 0.036250 0.000000
0.003000 0.036250 0.000000
0.003500 0.036250 0.000000
0.004000 0.036250 0.000000
0.004500 0.036250 0.000000
0.000500 0.035000 0.000000
0.001000 0.035000 0.000000
0.001500 0.035000 0.000000
0.002000 0.035000 0.000000
0.002500 0.035000 0.000000
0.003000 0.035000 0.000000
0.003500 0.035000 0.000000
0.004000 0.035000 0.000000
0.004500 0.035000 0.000000
0.000500 0.033750 0.000000
0.001000 0.033750 0.000000
0.001500 0.033750 0.000000
0.002000 0.033750 0.000000
0.002500 0.033750 0.000000
0.003000 0.033750 0.000000
0.003500 0.033750 0.000000
0.004000 0.033750 0.000000
0.004500 0.033750 0.000000
0.000500 0.032500 0.000000
0.001000 0.032500 0.000000
0.001500 0.032500 0.000000
0.002000 0.032500 0.000000
0.002500 0.032500 0.000000
0.003000 0.032500 0.000000
0.003500 0.032500 0.000000
0.004000 0.032500 0.000000
0.004500 0.032500 0.000000
0.000500 0.031250 0.000000
0.001000 0.031250 0.000000
0.001500 0.031250 0.000000
0.002000 0.031250 0.000000
0.002500 0.031250 0.000000
0.003000 0.031250 0.000000
0.003500 0.031250 0.000000
0.004000 0.031250 0.000000
0.004500 0.031250 0.000000
0.000500 0.030000 0.000000
0.001000 0.030000 0.000000
0.001500 0.030000 0.000000
0.002000 0.030000 0.000000
0.002500 0.030000 0.000000
0.003000 0.030000 0.000000
0.003500 0.030000 0.000000
0.004000 0.030000 0.000000
0.004500 0.030000 0.000000
0.000500 0.028750 0.000000
0.001000 0.028750 0.000000
0.001500 0.028750 0.000000
0.002000 0.028750 0.000000
0.002500 0.028750 0.000000
0.003000 0.028750 0.000000
0.003500 0.028750 0.000000
0.004000 0.028750 0.000000
0.004500 0.028750 0.000000
0.000500 0.027500 0.000000
0.001000 0.027500 0.000000
0.001500 0.027500 0.000000
0.002000 0.027500 0.000000
0.002500 0.027500 0.000000
0.003000 0.027500 0.000000
0.003500 0.027500 0.000000
0.004000 0.027500 0.000000
0.004500 0.027500 0.000000
0.000500 0.026250 0.000000
0.001000 0.026250 0.000000
0.001500 0.026250 0.000000
0.002000 0.026250 0.000000
0.002500 0.026250 0.000000
0.003000 0.026250 0.000000
0.003500 0.026250 0.000000
0.004000 0.026250 0.000000
0.004500 0.026250 0.000000
0.000500 0.025000 0.000000
0.001000 0.025000 0.000000
0.001500 0.025000 0.000000
0.002000 0.025000 0.000000
0.002500 0.025000 0.000000
0.003000 0.025000 0.000000
0.003500 0.025000 0.000000
0.004000 0.025000 0.000000
0.004500 0.025000 0.000000
0.000500 0.023750 0.000000
0.001000 0.023750 0.000000
0.001500 0.023750 0.000000
0.002000 0.023750 0.000000
0.002500 0.023750 0.000000
0.003000 0.023750 0.000000
0.003500 0.023750 0.000000
0.004000 0.023750 0.000000
0.004500 0.023750 0.000000
0.000500 0.022500 0.000000
0.001000 0.022500 0.000000
0.001500 0.022500 0.000000
0.002000 0.022500 0.000000
0.002500 0.022500 0.000000
0.003000 0.022500 0.000000
0.003500 0.022500 0.000000
0.004000 0.022500 0.000000
0.004500 0.022500 0.000000
0.000500 0.021250 0.000000
0.001000 0.021250 0.000000
0.001500 0.021250 0.000000
0.002000 0.021250 0.000000
0.002500 0.021250 0.000000
0.003000 0.021250 0.000000
0.003500 0.021250 0.000000
0.004000 0.021250 0.000000
0.004500 0.021250 0.000000
0.000500 0.020000 0.000000
0.001000 0.020000 0.000000
0.001500 0.020000 0.000000
0.002000 0.020000 0.000000
0.002500 0.020000 0.000000
0.003000 0.020000 0.000000
0.003500 0.020000 0.000000
0.004000 0.020000 0.000000
0.004500 0.020000 0.000000
0.000500 0.018750 0.000000
0.001000 0.018750 0.000000
0.001500 0.018750 0.000000
0.002000 0.018750 0.000000
0.002500 0.018750 0.000000
0.003000 0.018750 0.000000
0.003500 0.018750 0.000000
0.004000 0.018750 0.000000
0.004500 0.018750 0.000000
0.000500 0.017500 0.000000
0.001000 0.017500 0.000000
0.001500 0.017500 0.000000
0.002000 0.017500 0.000000
0.002500 0.017500 0.000000
0.003000 0.017500 0.000000
0.003500 0.017500 0.000000
0.004000 0.017500 0.000000
0.004500 0.017500 0.000000
0.000500 0.016250 0.000000
0.001000 0.016250 0.000000
0.001500 0.016250 0.000000
0.002000 0.016250 0.000000
0.002500 0.016250 0.000000
0.003000 0.016250 0.000000
0.003500 0.016250 0.000000
0.004000 0.016250 0.000000
0.004500 0.016250 0.000000
0.000500 0.015000 0.000000
0.001000 0.015000 0.000000
0.001500 0.015000 0.000000
0.002000 0.015000 0.000000
0.002500 0.015000 0.000000
0.003000 0.015000 0.000000
0.003500 0.015000 0.000000
0.004000 0.015000 0.000000
0.004500 0.015000 0.000000
0.000500 0.013750 0.000000
0.001000 0.013750 0.000000
0.001500 0.013750 0.000000
0.002000 0.013750 0.000000
0.002500 0.013750 0.000000
0.003000 0.013750 0.000000
0.003500 0.013750 0.000000
0.004000 0.013750 0.000000
0.004500 0.013750 0.000000
0.000500 0.012500 0.000000
0.001000 0.012500 0.000000
0.001500 0.012500 0.000000
0.002000 0.012500 0.000000
0.002500 0.012500 0.000000
0.003000 0.012500 0.000000
0.003500 0.012500 0.000000
0.004000 0.012500 0.000000
0.004500 0.012500 0.000000
0.000500 0.011250 0.000000
0.001000 0.011250 0.000000
0.001500 0.011250 0.000000
0.002000 0.011250 0.000000
0.002500 0.011250 0.000000
0.003000 0.011250 0.000000
0.003500 0.011250 0.000000
0.004000 0.011250 0.000000
0.004500 0.011250 0.000000
0.000500 0.010000 0.000000
0.001000 0.010000 0.000000
0.001500 0.010000 0.000000
0.002000 0.010000 0.000000
0.002500 0.010000 0.000000
0.003000 0.010000 0.000000
0.003500 0.010000 0.000000
0.004000 0.010000 0.000000
0.004500 0.010000 0.000000
0.000500 0.008750 0.000000
0.001000 0.008750 0.000000
0.001500 0.008750 0.000000
0.002000 0.008750 0.000000
0.002500 0.008750 0.000000
0.003000 0.008750 0.000000
0.003500 0.008750 0.000000
0.004000 0.008750 0.000000
0.004500 0.008750 0.000000
0.000500 0.007500 0.000000
0.001000 0.007500 0.000000
0.001500 0.007500 0.000000
0.002000 0.007500 0.000000
0.002500 0.007500 0.000000
0.003000 0.007500 0.000000
0.003500 0.007500 0.000000
0.004000 0.007500 0.000000
0.004500 0.007500 0.000000
0.000500 0.006250 0.000000
0.001000 0.006250 0.000000
0.001500 0.006250 0.000000
0.002000 0.006250 0.000000
0.002500 0.006250 0.000000
0.003000 0.006250 0.000000
0.003500 0.006250 0.000000
0.004000 0.006250 0.000000
0.004500 0.006250 0.000000
0.000500 0.005000 0.000000
0.001000 0.005000 0.000000
0.001500 0.005000 0.000000
0.002000 0.005000 0.000000
0.002500 0.005000 0.000000
0.003000 0.005000 0.000000
0.003500 0.005000 0.000000
0.004000 0.005000 0.000000
0.004500 0.005000 0.000000
0.000500 0.003750 0.000000
0.001000 0.003750 0.000000
0.001500 0.003750 0.000000
0.002000 0.003750 0.000000
0.002500 0.003750 0.000000
0.003000 0.003750 0.000000
0.003500 0.003750 0.000000
0.004000 0.003750 0.000000
0.004500 0.003750 0.000000
0.000500 0.002500 0.000000
0.001000 0.002500 0.000000
0.001500 0.002500 0.000000
0.002000 0.002500 0.000000
0.002500 0.002500 0.000000
0.003000 0.002500 0.000000
0.003500 0.002500 0.000000
0.004000 0.002500 0.000000
0.004500 0.002500 0.000000
0.000500 0.001250 0.000000
0.001000 0.001250 0.000000
0.001500 0.001250 0.000000
0.002000 0.001250 0.000000
0.002500 0.001250 0.000000
0.003000 0.001250 0.000000
0.003500 0.001250 0.000000
0.004000 0.001250 0.000000
0.004500 0.001250 0.000000
CELLS 800 4000
4 82 83 180 179
4 179 180 181 178
4 178 181 182 177
4 177 182 183 176
4 176 183 184 175
4 175 184 185 174
4 174 185 186 173
4 173 186 187 172
4 172 187 188 171
4 171 188 80 0
4 83 84 189 180
4 180 189 190 181
4 181 190 191 182
4 182 191 192 183
4 183 192 193 184
4 184 193 194 185
4 185 194 195 186
4 186 195 196 187
4 187 196 197 188
4 188 197 79 80
4 84 85 198 189
4 189 198 199 190
4 190 199 200 191
4 191 200 201 192
4 192 201 202 193
4 193 202 203 194
4 194 203 204 195
4 195 204 205 196
4 196 205 206 197
4 197 206 78 79
4 85 86 207 198
4 198 207 208 199
4 199 208 209 200
4 200 209 210 201
4 201 210 211 202
4 202 211 212 203
4 203 212 213 204
4 204 213 214 205
4 205 214 215 206
4 206 215 77 78
4 86 87 216 207
4 207 216 217 208
4 208 217 218 209
4 209 218 219 210
4 210 219 220 211
4 211 220 221 212
4 212 221 222 213
4 213 222 223 214
4 214 223 224 215
4 215 224 76 77
4 87 88 225 216
4 216 225 226 217
4 217 226 227 218
4 218 227 228 219
4 219 228 229 220
4 220 229 230 221
4 221 230 231 222
4 222 231 232 223
4 223 232 233 224
4 224 233 75 76
4 88 89 234 225
4 225 234 235 226
4 226 235 236 227
4 227 236 237 228
4 228 237 238 229
4 229 238 239 230
4 230 239 240 231
4 231 240 241 232
4 232 241 242 233
4 233 242 74 75
4 89 90 243 234
4 234 243 244 235
4 235 244 245 236
4 236 245 246 237
4 237 246 247 238
4 238 247 248 239
4 239 248 249 240
4 240 249 250 241
4 241 250 251 242
4 242 251 73 74
4 90 91 252 243
4 243 252 253 244
4 244 253 254 245
4 245 254 255 246
4 246 255 256 247
4 247 256 257 248
4 248 257 258 249
4 249 258 259 250
4 250 259 260 251
4 251 260 72 73
4 91 92 261 252
4 252 261 262 253
4 253 262 263 254
4 254 263 264 255
4 255 264 265 256
4 256 265 266 257
4 257 266 267 258
4 258 267 268 259
4 259 268 269 260
4 260 269 71 72
4 92 93 270 261
4 261 270 271 262
4 262 271 272 263
4 263 272 273 264
4 264 273 274 265
4 265 274 275 266
4 266 275 276 267
4 267 276 277 268
4 268 277 278 269
4 269 278 70 71
4 93 94 279 270
4 270 279 280 271
4 271 280 281 272
4 272 281 282 273
4 273 282 283 274
4 274 283 284 275
4 275 284 285 276
4 276 285 286 277
4 277 286 287 278
4 278 287 69 70
4 94 95 288 279
4 279 288 289 280
4 280 289 290 281
4 281 290 291 282
4 282 291 292 283
4 283 292 293 284
4 284 293 294 285
4 285 294 295 286
4 286 295 296 287
4 287 296 68 69
4 95 96 297 288
4 288 297 298 289
4 289 298 299 290
4 290 299 300 291
4 291 300 301 292
4 292 301 302 293
4 293 302 303 294
4 294 303 304 295
4 295 304 305 296
4 296 305 67 68
4 96 97 306 297
4 297 306 307 298
4 298 307 308 299
4 299 308 309 300
4 300 309 310 301
4 301 310 311 302
4 302 311 312 303
4 303 312 313 304
4 304 313 314 305
4 305 314 66 67
4 97 98 315 306
4 306 315 316 307
4 307 316 317 308
4 308 317 318 309
4 309 318 319 310
4 310 319 320 311
4 311 320 321 312
4 312 321 322 313
4 313 322 323 314
4 314 323 65 66
4 98 99 324 315
4 315 324 325 316
4 316 325 326 317
4 317 326 327 318
4 318 327 328 319
4 319 328 329 320
4 320 329 330 321
4 321 330 331 322
4 322 331 332 323
4 323 332 64 65
4 99 100 333 324
4 324 333 334 325
4 325 334 335 326
4 326 335 336 327
4 327 336 337 328
4 328 337 338 329
4 329 338 339 330
4 330 339 340 331
4 331 340 341 332
4 332 341 63 64
4 100 101 342 333
4 333 342 343 334
4 334 343 344 335
4 335 344 345 336
4 336 345 346 337
4 337 346 347 338
4 338 347 348 339
4 339 348 349 340
4 340 349 350 341
4 341 350 62 63
4 101 102 351 342
4 342 351 352 343
4 343 352 353 344
4 344 353 354 345
4 345 354 355 346
4 346 355 356 347
4 347 356 357 348
4 348 357 358 349
4 349 358 359 350
4 350 359 61 62
4 102 103 360 351
4 351 360 361 352
4 352 361 362 353
4 353 362 363 354
4 354 363 364 355
4 355 364 365 356
4 356 365 366 357
4 357 366 367 358
4 358 367 368 359
4 359 368 60 61
4 103 104 369 360
4 360 369 370 361
4 361 370 371 362
4 362 371 372 363
4 363 372 373 364
4 364 373 374 365
4 365 374 375 366
4 366 375 376 367
4 367 376 377 368
4 368 377 59 60
4 104 105 378 369
4 369 378 379 370
4 370 379 380 371
4 371 380 381 372
4 372 381 382 373
4 373 382 383 374
4 374 383 384 375
4 375 384 385 376
4 376 385 386 377
4 377 386 58 59
4 105 106 387 378
4 378 387 388 379
4 379 388 389 380
4 380 389 390 381
4 381 390 391 382
4 382 391 392 383
4 383 392 393 384
4 384 393 394 385
4 385 394 395 386
4 386 395 57 58
4 106 107 396 387
4 387 396 397 388
4 388 397 398 389
4 389 398 399 390
4 390 399 400 391
4 391 400 401 392
4 392 401 402 393
4 393 402 403 394
4 394 403 404 395
4 395 404 56 57
4 107 108 405 396
4 396 405 406 397
4 397 406 407 398
4 398 407 408 399
4 399 408 409 400
4 400 409 410 401
4 401 410 411 402
4 402 411 412 403
4 403 412 413 404
4 404 413 55 56
4 108 109 414 405
4 405 414 415 406
4 406 415 416 407
4 407 416 417 408
4 408 417 418 409
4 409 418 419 410
4 410 419 420 411
4 411 420 421 412
4 412 421 422 413
4 413 422 54 55
4 109 110 423 414
4 414 423 424 415
4 415 424 425 416
4 416 425 426 417
4 417 426 427 418
4 418 427 428 419
4 419 428 429 420
4 420 429 430 421
4 421 430 431 422
4 422 431 53 54
4 110 111 432 423
4 423 432 433 424
4 424 433 434 425
4 425 434 435 426
4 426 435 436 427
4 427 436 437 428
4 428 437 438 429
4 429 438 439 430
4 430 439 440 431
4 431 440 52 53
4 111 112 441 432
4 432 441 442 433
4 433 442 443 434
4 434 443 444 435
4 435 444 445 436
4 436 445 446 437
4 437 446 447 438
4 438 447 448 439
4 439 448 449 440
4 440 449 51 52
4 112 113 450 441
4 441 450 451 442
4 442 451 452 443
4 443 452 453 444
4 444 453 454 445
4 445 454 455 446
4 446 455 456 447
4 447 456 457 448
4 448 457 458 449
4 449 458 50 51
4 113 114 459 450
4 450 459 460 451
4 451 460 461 452
4 452 461 462 453
4 453 462 463 454
4 454 463 464 455
4 455 464 465 456
4 456 465 466 457
4 457 466 467 458
4 458 467 49 50
4 114 115 468 459
4 459 468 469 460
4 460 469 470 461
4 461 470 471 462
4 462 471 472 463
4 463 472 473 464
4 464 473 474 465
4 465 474 475 466
4 466 475 476 467
4 467 476 48 49
4 115 116 477 468
4 468 477 478 469
4 469 478 479 470
4 470 479 480 471
4 471 480 481 472
4 472 481 482 473
4 473 482 483 474
4 474 483 484 475
4 475 484 485 476
4 476 485 47 48
4 116 117 486 477
4 477 486 487 478
4 478 487 488 479
4 479 488 489 480
4 480 489 490 481
4 481 490 491 482
4 482 491 492 483
4 483 492 493 484
4 484 493 494 485
4 485 494 46 47
4 117 118 495 486
4 486 495 496 487
4 487 496 497 488
4 488 497 498 489
4 489 498 499 490
4 490 499 500 491
4 491 500 501 492
4 492 501 502 493
4 493 502 503 494
4 494 503 45 46
4 118 119 504 495
4 495 504 505 496
4 496 505 506 497
4 497 506 507 498
4 498 507 508 499
4 499 508 509 500
4 500 509 510 501
4 501 510 511 502
4 502 511 512 503
4 503 512 44 45
4 119 120 513 504
4 504 513 514 505
4 505 514 515 506
4 506 515 516 507
4 507 516 517 508
4 508 517 518 509
4 509 518 519 510
4 510 519 520 511
4 511 520 521 512
4 512 521 43 44
4 120 121 522 513
4 513 522 523 514
4 514 523 524 515
4 515 524 525 516
4 516 525 526 517
4 517 526 527 518
4 518 527 528 519
4 519 528 529 520
4 520 529 530 521
4 521 530 42 43
4 121 122 531 522
4 522 531 532 523
4 523 532 533 524
4 524 533 534 525
4 525 534 535 526
4 526 535 536 527
4 527 536 537 528
4 528 537 538 529
4 529 538 539 530
4 530 539 41 42
4 122 123 540 531
4 531 540 541 532
4 532 541 542 533
4 533 542 543 534
4 534 543 544 535
4 535 544 545 536
4 536 545 546 537
4 537 546 547 538
4 538 547 548 539
4 539 548 40 41
4 123 124 549 540
4 540 549 550 541
4 541 550 551 542
4 542 551 552 543
4 543 552 553 544
4 544 553 554 545
4 545 554 555 546
4 546 555 556 547
4 547 556 557 548
4 548 557 39 40
4 124 125 558 549
4 549 558 559 550
4 550 559 560 551
4 551 560 561 552
4 552 561 562 553
4 553 562 563 554
4 554 563 564 555
4 555 564 565 556
4 556 565 566 557
4 557 566 38 39
4 125 126 567 558
4 558 567 568 559
4 559 568 569 560
4 560 569 570 561
4 561 570 571 562
4 562 571 572 563
4 563 572 573 564
4 564 573 574 565
4 565 574 575 566
4 566 575 37 38
4 126 127 576 567
4 567 576 577 568
4 568 577 578 569
4 569 578 579 570
4 570 579 580 571
4 571 580 581 572
4 572 581 582 573
4 573 582 583 574
4 574 583 584 575
4 575 584 36 37
4 127 128 585 576
4 576 585 586 577
4 577 586 587 578
4 578 587 588 579
4 579 588 589 580
4 580 589 590 581
4 581 590 591 582
4 582 591 592 583
4 583 592 593 584
4 584 593 35 36
4 128 129 594 585
4 585 594 595 586
4 586 595 596 587
4 587 596 597 588
4 588 597 598 589
4 589 598 599 590
4 590 599 600 591
4 591 600 601 592
4 592 601 602 593
4 593 602 34 35
4 129 130 603 594
4 594 603 604 595
4 595 604 605 596
4 596 605 606 597
4 597 606 607 598
4 598 607 608 599
4 599 608 609 600
4 600 609 610 601
4 601 610 611 602
4 602 611 33 34
4 130 131 612 603
4 603 612 613 604
4 604 613 614 605
4 605 614 615 606
4 606 615 616 607
4 607 616 617 608
4 608 617 618 609
4 609 618 619 610
4 610 619 620 611
4 611 620 32 33
4 131 132 621 612
4 612 621 622 613
4 613 622 623 614
4 614 623 624 615
4 615 624 625 616
4 616 625 626 617
4 617 626 627 618
4 618 627 628 619
4 619 628 629 620
4 620 629 31 32
4 132 133 630 621
4 621 630 631 622
4 622 631 632 623
4 623 632 633 624
4 624 633 634 625
4 625 634 635 626
4 626 635 636 627
4 627 636 637 628
4 628 637 638 629
4 629 638 30 31
4 133 134 639 630
4 630 639 640 631
4 631 640 641 632
4 632 641 642 633
4 633 642 643 634
4 634 643 644 635
4 635 644 645 636
4 636 645 646 637
4 637 646 647 638
4 638 647 29 30
4 134 135 648 639
4 639 648 649 640
4 640 649 650 641
4 641 650 651 642
4 642 651 652 643
4 643 652 653 644
4 644 653 654 645
4 645 654 655 646
4 646 655 656 647
4 647 656 28 29
4 135 136 657 648
4 648 657 658 649
4 649 658 659 650
4 650 659 660 651
4 651 660 661 652
4 652 661 662 653
4 653 662 663 654
4 654 663 664 655
4 655 664 665 656
4 656 665 27 28
4 136 137 666 657
4 657 666 667 658
4 658 667 668 659
4 659 668 669 660
4 660 669 670 661
4 661 670 671 662
4 662 671 672 663
4 663 672 673 664
4 664 673 674 665
4 665 674 26 27
4 137 138 675 666
4 666 675 676 667
4 667 676 677 668
4 668 677 678 669
4 669 678 679 670
4 670 679 680 671
4 671 680 681 672
4 672 681 682 673
4 673 682 683 674
4 674 683 25 26
4 138 139 684 675
4 675 684 685 676
4 676 685 686 677
4 677 686 687 678
4 678 687 688 679
4 679 688 689 680
4 680 689 690 681
4 681 690 691 682
4 682 691 692 683
4 683 692 24 25
4 139 140 693 684
4 684 693 694 685
4 685 694 695 686
4 686 695 696 687
4 687 696 697 688
4 688 697 698 689
4 689 698 699 690
4 690 699 700 691
4 691 700 701 692
4 692 701 23 24
4 140 141 702 693
4 693 702 703 694
4 694 703 704 695
4 695 704 705 696
4 696 705 706 697
4 697 706 707 698
4 698 707 708 699
4 699 708 709 700
4 700 709 710 701
4 701 710 22 23
4 141 142 711 702
4 702 711 712 703
4 703 712 713 704
4 704 713 714 705
4 705 714 715 706
4 706 715 716 707
4 707 716 717 708
4 708 717 718 709
4 709 718 719 710
4 710 719 21 22
4 142 143 720 711
4 711 720 721 712
4 712 721 722 713
4 713 722 723 714
4 714 723 724 715
4 715 724 725 716
4 716 725 726 717
4 717 726 727 718
4 718 727 728 719
4 719 728 20 21
4 143 144 729 720
4 720 729 730 721
4 721 730 731 722
4 722 731 732 723
4 723 732 733 724
4 724 733 734 725
4 725 734 735 726
4 726 735 736 727
4 727 736 737 728
4 728 737 19 20
4 144 145 738 729
4 729 738 739 730
4 730 739 740 731
4 731 740 741 732
4 732 741 742 733
4 733 742 743 734
4 734 743 744 735
4 735 744 745 736
4 736 745 746 737
4 737 746 18 19
4 145 146 747 738
4 738 747 748 739
4 739 748 749 740
4 740 749 750 741
4 741 750 751 742
4 742 751 752 743
4 743 752 753 744
4 744 753 754 745
4 745 754 755 746
4 746 755 17 18
4 146 147 756 747
4 747 756 757 748
4 748 757 758 749
4 749 758 759 750
4 750 759 760 751
4 751 760 761 752
4 752 761 762 753
4 753 762 763 754
4 754 763 764 755
4 755 764 16 17
4 147 148 765 756
4 756 765 766 757
4 757 766 767 758
4 758 767 768 759
4 759 768 769 760
4 760 769 770 761
4 761 770 771 762
4 762 771 772 763
4 763 772 773 764
4 764 773 15 16
4 148 149 774 765
4 765 774 775 766
4 766 775 776 767
4 767 776 777 768
4 768 777 778 769
4 769 778 779 770
4 770 779 780 771
4 771 780 781 772
4 772 781 782 773
4 773 782 14 15
4 149 150 783 774
4 774 783 784 775
4 775 784 785 776
4 776 785 786 777
4 777 786 787 778
4 778 787 788 779
4 779 788 789 780
4 780 789 790 781
4 781 790 791 782
4 782 791 13 14
4 150 151 792 783
4 783 792 793 784
4 784 793 794 785
4 785 794 795 786
4 786 795 796 787
4 787 796 797 788
4 788 797 798 789
4 789 798 799 790
4 790 799 800 791
4 791 800 12 13
4 151 152 801 792
4 792 801 802 793
4 793 802 803 794
4 794 803 804 795
4 795 804 805 796
4 796 805 806 797
4 797 806 807 798
4 798 807 808 799
4 799 808 809 800
4 800 809 11 12
4 152 153 810 801
4 801 810 811 802
4 802 811 812 803
4 803 812 813 804
4 804 813 814 805
4 805 814 815 806
4 806 815 816 807
4 807 816 817 808
4 808 817 818 809
4 809 818 10 11
4 153 154 819 810
4 810 819 820 811
4 811 820 821 812
4 812 821 822 813
4 813 822 823 814
4 814 823 824 815
4 815 824 825 816
4 816 825 826 817
4 817 826 827 818
4 818 827 9 10
4 154 155 828 819
4 819 828 829 820
4 820 829 830 821
4 821 830 831 822
4 822 831 832 823
4 823 832 833 824
4 824 833 834 825
4 825 834 835 826
4 826 835 836 827
4 827 836 8 9
4 155 156 837 828
4 828 837 838 829
4 829 838 839 830
4 830 839 840 831
4 831 840 841 832
4 832 841 842 833
4 833 842 843 834
4 834 843 844 835
4 835 844 845 836
4 836 845 7 8
4 156 157 846 837
4 837 846 847 838
4 838 847 848 839
4 839 848 849 840
4 840 849 850 841
4 841 850 851 842
4 842 851 852 843
4 843 852 853 844
4 844 853 854 845
4 845 854 6 7
4 157 158 855 846
4 846 855 856 847
4 847 856 857 848
4 848 857 858 849
4 849 858 859 850
4 850 859 860 851
4 851 860 861 852
4 852 861 862 853
4 853 862 863 854
4 854 863 5 6
4 158 159 864 855
4 855 864 865 856
4 856 865 866 857
4 857 866 867 858
4 858 867 868 859
4 859 868 869 860
4 860 869 870 861
4 861 870 871 862
4 862 871 872 863
4 863 872 4 5
4 159 160 873 864
4 864 873 874 865
4 865 874 875 866
4 866 875 876 867
4 867 876 877 868
4 868 877 878 869
4 869 878 879 870
4 870 879 880 871
4 871 880 881 872
4 872 881 3 4
4 160 161 882 873
4 873 882 883 874
4 874 883 884 875
4 875 884 885 876
4 876 885 886 877
4 877 886 887 878
4 878 887 888 879
4 879 888 889 880
4 880 889 890 881
4 881 890 2 3
4 161 81 162 882
4 882 162 163 883
4 883 163 164 884
4 884 164 165 885
4 885 165 166 886
4 886 166 167 887
4 887 167 168 888
4 888 168 169 889
4 889 169 170 890
4 890 170 1 2
CELL_TYPES 800
9
9
9
9
9
9
9
9
9
9
9
9
9
9
9
9
9
9
9
9
9
9
9
9
9
9
9
9
9
9
9
9
9
9
9
9
9
9
9
9
9
9
9
9
9
9
9
9
9
9
9
9
9
9
9
9
9
9
9
9
9
9
9
9
9
9
9
9
9
9
9
9
9
9
9
9
9
9
9
9
9
9
9
9
9
9
9
9
9
9
9
9
9
9
9
9
9
9
9
9
9
9
9
9
9
9
9
9
9
9
9
9
9
9
9
9
9
9
9
9
9
9
9
9
9
9
9
9
9
9
9
9
9
9
9
9
9
9
9
9
9
9
9
9
9
9
9
9
9
9
9
9
9
9
9
9
9
9
9
9
9
9
9
9
9
9
9
9
9
9
9
9
9
9
9
9
9
9
9
9
9
9
9
9
9
9
9
9
9
9
9
9
9
9
9
9
9
9
9
9
9
9
9
9
9
9
9
9
9
9
9
9
9
9
9
9
9
9
9
9
9
9
9
9
9
9
9
9
9
9
9
9
9
9
9
9
9
9
9
9
9
9
9
9
9
9
9
9
9
9
9
9
9
9
9
9
9
9
9
9
9
9
9
9
9
9
9
9
9
9
9
9
9
9
9
9
9
9
9
9
9
9
9
9
9
9
9
9
9
9
9
9
9
9
9
9
9
9
9
9
9
9
9
9
9
9
9
9
9
9
9
9
9
9
9
9
9
9
9
9
9
9
9
9
9
9
9
9
9
9
9
9
9
9
9
9
9
9
9
9
9
9
9
9
9
9
9
9
9
9
9
9
9
9
9
9
9
9
9
9
9
9
9
9
9
9
9
9
9
9
9
9
9
9
9
9
9
9
9
9
9
9
9
9
9
9
9
9
9
9
9
9
9
9
9
9
9
9
9
9
9
9
9
9
9
9
9
9
9
9
9
9
9
9
9
9
9
9
9
9
9
9
9
9
9
9
9
9
9
9
9
9
9
9
9
9
9
9
9
9
9
9
9
9
9
9
9
9
9
9
9
9
9
9
9
9
9
9
9
9
9
9
9
9
9
9
9
9
9
9
9
9
9
9
9
9
9
9
9
9
9
9
9
9
9
9
9
9
9
9
9
9
9
9
9
9
9
9
9
9
9
9
9
9
9
9
9
9
9
9
9
9
9
9
9
9
9
9
9
9
9
9
9
9
9
9
9
9
9
9
9
9
9
9
9
9
9
9
9
9
9
9
9
9
9
9
9
9
9
9
9
9
9
9
9
9
9
9
9
9
9
9
9
9
9
9
9
9
9
9
9
9
9
9
9
9
9
9
9
9
9
9
9
9
9
9
9
9
9
9
9
9
9
9
9
9
9
9
9
9
9
9
9
9
9
9
9
9
9
9
9
9
9
9
9
9
9
9
9
9
9
9
9
9
9
9
9
9
9
9
9
9
9
9
9
9
9
9
9
9
9
9
9
9
9
9
9
9
9
9
9
9
9
9
9
9
9
9
9
9
9
9
9
9
9
9
9
9
9
9
9
9
9
9
9
9
9
9
9
9
9
9
9
9
9
9
9
9
9
9
9
9
9
9
9
9
9
9
9
9
9
9
9
9
9
9
9
9
9
9
9
9
9
9
9
9
9
9
9
9
9
9
9
9
9
9
9
9
9
9
9
9
9
9
9
9
9
9
9
9
9
9
9
9
9
9
9
9
9
9
9
9
9
9
9
9
9
9
9
9
9
9
9
9
9
9
9
9
9
9
9
9
9
9
9
9
9
9
9
9
9
9
9
9
9
9
9
9
9
9
9
9
9
9
9
9
9
9
9
9
POINT_DATA 891
SCALARS u1 float
LOOKUP_TABLE default
-5e-18
-5e-07
-5e-07
-5e-07
-5e-07
-5e-07
-5e-07
-5e-07
-5e-07
-5e-07
-5e-07
-5e-07
-5e-07
-5e-07
-5e-07
-5e-07
-5e-07
-5e-07
-5e-07
-5e-07
-5e-07
-5e-07
-5e-07
-5e-07
-5e-07
-5e-07
-5e-07
-5e-07
-5e-07
-5e-07
-5e-07
-5e-07
-5e-07
-5e-07
-5e-07
-5e-07
-5e-07
-5e-07
-5e-07
-5e-07
-5e-07
-5e-07
-5e-07
-5e-07
-5e-07
-5e-07
-5e-07
-5e-07
-5e-07
-5e-07
-5e-07
-5e-07
-5e-07
-5e-07
-5e-07
-5e-07
-5e-07
-5e-07
-5e-07
-5e-07
-5e-07
-5e-07
-5e-07
-5e-07
-5e-07
-5e-07
-5e-07
-5e-07
-5e-07
-5e-07
-5e-07
-5e-07
-5e-07
-5e-07
-5e-07
-5e-07
-5e-07
-5e-07
-5e-07
-5e-07
-4e-07
5e-07
9e-20
4e-07
5e-07
5e-07
5e-07
5e-07
5e-07
5e-07
5e-07
5e-07
5e-07
5e-07
5e-07
5e-07
5e-07
5e-07
5e-07
5e-07
5e-07
5e-07
5e-07
5e-07
5e-07
5e-07
5e-07
5e-07
5e-07
5e-07
5e-07
5e-07
5e-07
5e-07
5e-07
5e-07
5e-07
5e-07
5e-07
5e-07
5e-07
5e-07
5e-07
5e-07
5e-07
5e-07
5e-07
5e-07
5e-07
5e-07
5e-07
5e-07
5e-07
5e-07
5e-07
5e-07
5e-07
5e-07
5e-07
5e-07
5e-07
5e-07
5e-07
5e-07
5e-07
5e-07
5e-07
5e-07
5e-07
5e-07
5e-07
5e-07
5e-07
5e-07
5e-07
5e-07
5e-07
5e-07
5e-07
5e-07
5e-07
5e-07
4e-07
3e-07
2e-07
1e-07
-1e-14
-1e-07
-2e-07
-3e-07
-4e-07
-9e-18
3e-18
1e-17
8e-18
-4e-18
-9e-18
-2e-17
2e-18
3e-17
3e-07
2e-07
1e-07
7e-08
-6e-15
-7e-08
-1e-07
-2e-07
-3e-07
4e-07
3e-07
2e-07
1e-07
-6e-15
-1e-07
-2e-07
-3e-07
-4e-07
4e-07
3e-07
2e-07
1e-07
-1e-14
-1e-07
-2e-07
-3e-07
-4e-07
4e-07
3e-07
2e-07
1e-07
-1e-14
-1e-07
-2e-07
-3e-07
-4e-07
4e-07
3e-07
2e-07
1e-07
-1e-14
-1e-07
-2e-07
-3e-07
-4e-07
4e-07
3e-07
2e-07
1e-07
-2e-14
-1e-07
-2e-07
-3e-07
-4e-07
4e-07
3e-07
2e-07
1e-07
-2e-14
-1e-07
-2e-07
-3e-07
-4e-07
4e-07
3e-07
2e-07
1e-07
-2e-14
-1e-07
-2e-07
-3e-07
-4e-07
4e-07
3e-07
2e-07
1e-07
-2e-14
-1e-07
-2e-07
-3e-07
-4e-07
4e-07
3e-07
2e-07
1e-07
-2e-14
-1e-07
-2e-07
-3e-07
-4e-07
4e-07
3e-07
2e-07
1e-07
-1e-14
-1e-07
-2e-07
-3e-07
-4e-07
4e-07
3e-07
2e-07
1e-07
-1e-14
-1e-07
-2e-07
-3e-07
-4e-07
4e-07
3e-07
2e-07
1e-07
-1e-14
-1e-07
-2e-07
-3e-07
-4e-07
4e-07
3e-07
2e-07
1e-07
-1e-14
-1e-07
-2e-07
-3e-07
-4e-07
4e-07
3e-07
2e-07
1e-07
-1e-14
-1e-07
-2e-07
-3e-07
-4e-07
4e-07
3e-07
2e-07
1e-07
-1e-14
-1e-07
-2e-07
-3e-07
-4e-07
4e-07
3e-07
2e-07
1e-07
-1e-14
-1e-07
-2e-07
-3e-07
-4e-07
4e-07
3e-07
2e-07
1e-07
-1e-14
-1e-07
-2e-07
-3e-07
-4e-07
4e-07
3e-07
2e-07
1e-07
-1e-14
-1e-07
-2e-07
-3e-07
-4e-07
4e-07
3e-07
2e-07
1e-07
-1e-14
-1e-07
-2e-07
-3e-07
-4e-07
4e-07
3e-07
2e-07
1e-07
-1e-14
-1e-07
-2e-07
-3e-07
-4e-07
4e-07
3e-07
2e-07
1e-07
-1e-14
-1e-07
-2e-07
-3e-07
-4e-07
4e-07
3e-07
2e-07
1e-07
-1e-14
-1e-07
-2e-07
-3e-07
-4e-07
4e-07
3e-07
2e-07
1e-07
-1e-14
-1e-07
-2e-07
-3e-07
-4e-07
4e-07
3e-07
2e-07
1e-07
-1e-14
-1e-07
-2e-07
-3e-07
-4e-07
4e-07
3e-07
2e-07
1e-07
-1e-14
-1e-07
-2e-07
-3e-07
-4e-07
4e-07
3e-07
2e-07
1e-07
-1e-14
-1e-07
-2e-07
-3e-07
-4e-07
4e-07
3e-07
2e-07
1e-07
-1e-14
-1e-07
-2e-07
-3e-07
-4e-07
4e-07
3e-07
2e-07
1e-07
-1e-14
-1e-07
-2e-07
-3e-07
-4e-07
4e-07
3e-07
2e-07
1e-07
-1e-14
-1e-07
-2e-07
-3e-07
-4e-07
4e-07
3e-07
2e-07
1e-07
-1e-14
-1e-07
-2e-07
-3e-07
-4e-07
4e-07
3e-07
2e-07
1e-07
-1e-14
-1e-07
-2e-07
-3e-07
-4e-07
4e-07
3e-07
2e-07
1e-07
-1e-14
-1e-07
-2e-07
-3e-07
-4e-07
4e-07
3e-07
2e-07
1e-07
-1e-14
-1e-07
-2e-07
-3e-07
-4e-07
4e-07
3e-07
2e-07
1e-07
-1e-14
-1e-07
-2e-07
-3e-07
-4e-07
4e-07
3e-07
2e-07
1e-07
-1e-14
-1e-07
-2e-07
-3e-07
-4e-07
4e-07
3e-07
2e-07
1e-07
-1e-14
-1e-07
-2e-07
-3e-07
-4e-07
4e-07
3e-07
2e-07
1e-07
-1e-14
-1e-07
-2e-07
-3e-07
-4e-07
4e-07
3e-07
2e-07
1e-07
-1e-14
-1e-07
-2e-07
-3e-07
-4e-07
4e-07
3e-07
2e-07
1e-07
-1e-14
-1e-07
-2e-07
-3e-07
-4e-07
4e-07
3e-07
2e-07
1e-07
-1e-14
-1e-07
-2e-07
-3e-07
-4e-07
4e-07
3e-07
2e-07
1e-07
-1e-14
-1e-07
-2e-07
-3e-07
-4e-07
4e-07
3e-07
2e-07
1e-07
-1e-14
-1e-07
-2e-07
-3e-07
-4e-07
4e-07
3e-07
2e-07
1e-07
-1e-14
-1e-07
-2e-07
-3e-07
-4e-07
4e-07
3e-07
2e-07
1e-07
-1e-14
-1e-07
-2e-07
-3e-07
-4e-07
4e-07
3e-07
2e-07
1e-07
-1e-14
-1e-07
-2e-07
-3e-07
-4e-07
4e-07
3e-07
2e-07
1e-07
-1e-14
-1e-07
-2e-07
-3e-07
-4e-07
4e-07
3e-07
2e-07
1e-07
-1e-14
-1e-07
-2e-07
-3e-07
-4e-07
4e-07
3e-07
2e-07
1e-07
-1e-14
-1e-07
-2e-07
-3e-07
-4e-07
4e-07
3e-07
2e-07
1e-07
-1e-14
-1e-07
-2e-07
-3e-07
-4e-07
4e-07
3e-07
2e-07
1e-07
-1e-14
-1e-07
-2e-07
-3e-07
-4e-07
4e-07
3e-07
2e-07
1e-07
-1e-14
-1e-07
-2e-07
-3e-07
-4e-07
4e-07
3e-07
2e-07
1e-07
-1e-14
-1e-07
-2e-07
-3e-07
-4e-07
4e-07
3e-07
2e-07
1e-07
-1e-14
-1e-07
-2e-07
-3e-07
-4e-07
4e-07
3e-07
2e-07
1e-07
-1e-14
-1e-07
-2e-07
-3e-07
-4e-07
4e-07
3e-07
2e-07
1e-07
-1e-14
-1e-07
-2e-07
-3e-07
-4e-07
4e-07
3e-07
2e-07
1e-07
-1e-14
-1e-07
-2e-07
-3e-07
-4e-07
4e-07
3e-07
2e-07
1e-07
-1e-14
-1e-07
-2e-07
-3e-07
-4e-07
4e-07
3e-07
2e-07
1e-07
-1e-14
-1e-07
-2e-07
-3e-07
-4e-07
4e-07
3e-07
2e-07
1e-07
-1e-14
-1e-07
-2e-07
-3e-07
-4e-07
4e-07
3e-07
2e-07
1e-07
-1e-14
-1e-07
-2e-07
-3e-07
-4e-07
4e-07
3e-07
2e-07
1e-07
-1e-14
-1e-07
-2e-07
-3e-07
-4e-07
4e-07
3e-07
2e-07
1e-07
-1e-14
-1e-07
-2e-07
-3e-07
-4e-07
4e-07
3e-07
2e-07
1e-07
-1e-14
-1e-07
-2e-07
-3e-07
-4e-07
4e-07
3e-07
2e-07
1e-07
-1e-14
-1e-07
-2e-07
-3e-07
-4e-07
4e-07
3e-07
2e-07
1e-07
-1e-14
-1e-07
-2e-07
-3e-07
-4e-07
4e-07
3e-07
2e-07
1e-07
-1e-14
-1e-07
-2e-07
-3e-07
-4e-07
4e-07
3e-07
2e-07
1e-07
-1e-14
-1e-07
-2e-07
-3e-07
-4e-07
4e-07
3e-07
2e-07
1e-07
-1e-14
-1e-07
-2e-07
-3e-07
-4e-07
4e-07
3e-07
2e-07
1e-07
-1e-14
-1e-07
-2e-07
-3e-07
-4e-07
4e-07
3e-07
2e-07
1e-07
-1e-14
-1e-07
-2e-07
-3e-07
-4e-07
4e-07
3e-07
2e-07
1e-07
-1e-14
-1e-07
-2e-07
-3e-07
-4e-07
4e-07
3e-07
2e-07
1e-07
-1e-14
-1e-07
-2e-07
-3e-07
-4e-07
4e-07
3e-07
2e-07
1e-07
-1e-14
-1e-07
-2e-07
-3e-07
-4e-07
4e-07
3e-07
2e-07
1e-07
-1e-14
-1e-07
-2e-07
-3e-07
-4e-07
4e-07
3e-07
2e-07
1e-07
-1e-14
-1e-07
-2e-07
-3e-07
-4e-07
4e-07
3e-07
2e-07
1e-07
-1e-14
-1e-07
-2e-07
-3e-07
-4e-07
4e-07
3e-07
2e-07
1e-07
-1e-14
-1e-07
-2e-07
-3e-07
-4e-07
4e-07
3e-07
2e-07
1e-07
-1e-14
-1e-07
-2e-07
-3e-07
-4e-07
SCALARS u2 float
LOOKUP_TABLE default
-4e-18
-0.0002
-0.0002
-0.0001
-0.0001
-0.0001
-0.0001
-0.0001
-0.0001
-0.0001
-0.0001
-0.0001
-0.0001
-0.0001
-0.0001
-0.0001
-0.0001
-0.0001
-0.0001
-0.0001
-0.0001
-0.0001
-0.0001
-0.0001
-0.0001
-0.0001
-0.0001
-0.0001
-0.0001
-0.0001
-0.0001
-0.0001
-9e-05
-9e-05
-9e-05
-9e-05
-9e-05
-8e-05
-8e-05
-8e-05
-8e-05
-8e-05
-7e-05
-7e-05
-7e-05
-7e-05
-7e-05
-7e-05
-6e-05
-6e-05
-6e-05
-6e-05
-6e-05
-5e-05
-5e-05
-5e-05
-5e-05
-5e-05
-4e-05
-4e-05
-4e-05
-4e-05
-4e-05
-3e-05
-3e-05
-3e-05
-3e-05
-3e-05
-2e-05
-2e-05
-2e-05
-2e-05
-2e-05
-2e-05
-1e-05
-1e-05
-1e-05
-8e-06
-6e-06
-4e-06
-2e-06
-0.0002
1e-17
-2e-06
-4e-06
-6e-06
-8e-06
-1e-05
-1e-05
-1e-05
-2e-05
-2e-05
-2e-05
-2e-05
-2e-05
-2e-05
-3e-05
-3e-05
-3e-05
-3e-05
-3e-05
-4e-05
-4e-05
-4e-05
-4e-05
-4e-05
-5e-05
-5e-05
-5e-05
-5e-05
-5e-05
-6e-05
-6e-05
-6e-05
-6e-05
-6e-05
-7e-05
-7e-05
-7e-05
-7e-05
-7e-05
-7e-05
-8e-05
-8e-05
-8e-05
-8e-05
-8e-05
-9e-05
-9e-05
-9e-05
-9e-05
-9e-05
-0.0001
-0.0001
-0.0001
-0.0001
-0.0001
-0.0001
-0.0001
-0.0001
-0.0001
-0.0001
-0.0001
-0.0001
-0.0001
-0.0001
-0.0001
-0.0001
-0.0001
-0.0001
-0.0001
-0.0001
-0.0001
-0.0001
-0.0001
-0.0001
-0.0001
-0.0001
-0.0001
-0.0001
-0.0001
-0.0002
-0.0002
-0.0002
-0.0002
-0.0002
-0.0002
-0.0002
-0.0002
-0.0002
-0.0002
1e-17
-5e-17
-1e-17
-3e-18
-1e-17
-6e-18
9e-18
7e-17
5e-17
-2e-06
-2e-06
-2e-06
-2e-06
-2e-06
-2e-06
-2e-06
-2e-06
-2e-06
-4e-06
-4e-06
-4e-06
-4e-06
-4e-06
-4e-06
-4e-06
-4e-06
-4e-06
-6e-06
-6e-06
-6e-06
-6e-06
-6e-06
-6e-06
-6e-06
-6e-06
-6e-06
-8e-06
-8e-06
-8e-06
-8e-06
-8e-06
-8e-06
-8e-06
-8e-06
-8e-06
-1e-05
-1e-05
-1e-05
-1e-05
-1e-05
-1e-05
-1e-05
-1e-05
-1e-05
-1e-05
-1e-05
-1e-05
-1e-05
-1e-05
-1e-05
-1e-05
-1e-05
-1e-05
-1e-05
-1e-05
-1e-05
-1e-05
-1e-05
-1e-05
-1e-05
-1e-05
-1e-05
-2e-05
-2e-05
-2e-05
-2e-05
-2e-05
-2e-05
-2e-05
-2e-05
-2e-05
-2e-05
-2e-05
-2e-05
-2e-05
-2e-05
-2e-05
-2e-05
-2e-05
-2e-05
-2e-05
-2e-05
-2e-05
-2e-05
-2e-05
-2e-05
-2e-05
-2e-05
-2e-05
-2e-05
-2e-05
-2e-05
-2e-05
-2e-05
-2e-05
-2e-05
-2e-05
-2e-05
-2e-05
-2e-05
-2e-05
-2e-05
-2e-05
-2e-05
-2e-05
-2e-05
-2e-05
-2e-05
-2e-05
-2e-05
-2e-05
-2e-05
-2e-05
-2e-05
-2e-05
-2e-05
-3e-05
-3e-05
-3e-05
-3e-05
-3e-05
-3e-05
-3e-05
-3e-05
-3e-05
-3e-05
-3e-05
-3e-05
-3e-05
-3e-05
-3e-05
-3e-05
-3e-05
-3e-05
-3e-05
-3e-05
-3e-05
-3e-05
-3e-05
-3e-05
-3e-05
-3e-05
-3e-05
-3e-05
-3e-05
-3e-05
-3e-05
-3e-05
-3e-05
-3e-05
-3e-05
-3e-05
-3e-05
-3e-05
-3e-05
-3e-05
-3e-05
-3e-05
-3e-05
-3e-05
-3e-05
-4e-05
-4e-05
-4e-05
-4e-05
-4e-05
-4e-05
-4e-05
-4e-05
-4e-05
-4e-05
-4e-05
-4e-05
-4e-05
-4e-05
-4e-05
-4e-05
-4e-05
-4e-05
-4e-05
-4e-05
-4e-05
-4e-05
-4e-05
-4e-05
-4e-05
-4e-05
-4e-05
-4e-05
-4e-05
-4e-05
-4e-05
-4e-05
-4e-05
-4e-05
-4e-05
-4e-05
-4e-05
-4e-05
-4e-05
-4e-05
-4e-05
-4e-05
-4e-05
-4e-05
-4e-05
-5e-05
-5e-05
-5e-05
-5e-05
-5e-05
-5e-05
-5e-05
-5e-05
-5e-05
-5e-05
-5e-05
-5e-05
-5e-05
-5e-05
-5e-05
-5e-05
-5e-05
-5e-05
-5e-05
-5e-05
-5e-05
-5e-05
-5e-05
-5e-05
-5e-05
-5e-05
-5e-05
-5e-05
-5e-05
-5e-05
-5e-05
-5e-05
-5e-05
-5e-05
-5e-05
-5e-05
-5e-05
-5e-05
-5e-05
-5e-05
-5e-05
-5e-05
-5e-05
-5e-05
-5e-05
-6e-05
-6e-05
-6e-05
-6e-05
-6e-05
-6e-05
-6e-05
-6e-05
-6e-05
-6e-05
-6e-05
-6e-05
-6e-05
-6e-05
-6e-05
-6e-05
-6e-05
-6e-05
-6e-05
-6e-05
-6e-05
-6e-05
-6e-05
-6e-05
-6e-05
-6e-05
-6e-05
-6e-05
-6e-05
-6e-05
-6e-05
-6e-05
-6e-05
-6e-05
-6e-05
-6e-05
-6e-05
-6e-05
-6e-05
-6e-05
-6e-05
-6e-05
-6e-05
-6e-05
-6e-05
-7e-05
-7e-05
-7e-05
-7e-05
-7e-05
-7e-05
-7e-05
-7e-05
-7e-05
-7e-05
-7e-05
-7e-05
-7e-05
-7e-05
-7e-05
-7e-05
-7e-05
-7e-05
-7e-05
-7e-05
-7e-05
-7e-05
-7e-05
-7e-05
-7e-05
-7e-05
-7e-05
-7e-05
-7e-05
-7e-05
-7e-05
-7e-05
-7e-05
-7e-05
-7e-05
-7e-05
-7e-05
-7e-05
-7e-05
-7e-05
-7e-05
-7e-05
-7e-05
-7e-05
-7e-05
-7e-05
-7e-05
-7e-05
-7e-05
-7e-05
-7e-05
-7e-05
-7e-05
-7e-05
-8e-05
-8e-05
-8e-05
-8e-05
-8e-05
-8e-05
-8e-05
-8e-05
-8e-05
-8e-05
-8e-05
-8e-05
-8e-05
-8e-05
-8e-05
-8e-05
-8e-05
-8e-05
-8e-05
-8e-05
-8e-05
-8e-05
-8e-05
-8e-05
-8e-05
-8e-05
-8e-05
-8e-05
-8e-05
-8e-05
-8e-05
-8e-05
-8e-05
-8e-05
-8e-05
-8e-05
-8e-05
-8e-05
-8e-05
-8e-05
-8e-05
-8e-05
-8e-05
-8e-05
-8e-05
-9e-05
-9e-05
-9e-05
-9e-05
-9e-05
-9e-05
-9e-05
-9e-05
-9e-05
-9e-05
-9e-05
-9e-05
-9e-05
-9e-05
-9e-05
-9e-05
-9e-05
-9e-05
-9e-05
-9e-05
-9e-05
-9e-05
-9e-05
-9e-05
-9e-05
-9e-05
-9e-05
-9e-05
-9e-05
-9e-05
-9e-05
-9e-05
-9e-05
-9e-05
-9e-05
-9e-05
-9e-05
-9e-05
-9e-05
-9e-05
-9e-05
-9e-05
-9e-05
-9e-05
-9e-05
-0.0001
-0.0001
-0.0001
-0.0001
-0.0001
-0.0001
-0.0001
-0.0001
-0.0001
-0.0001
-0.0001
-0.0001
-0.0001
-0.0001
-0.0001
-0.0001
-0.0001
-0.0001
-0.0001
-0.0001
-0.0001
-0.0001
-0.0001
-0.0001
-0.0001
-0.0001
-0.0001
-0.0001
-0.0001
-0.0001
-0.0001
-0.0001
-0.0001
-0.0001
-0.0001
-0.0001
-0.0001
-0.0001
-0.0001
-0.0001
-0.0001
-0.0001
-0.0001
-0.0001
-0.0001
-0.0001
-0.0001
-0.0001
-0.0001
-0.0001
-0.0001
-0.0001
-0.0001
-0.0001
-0.0001
-0.0001
-0.0001
-0.0001
-0.0001
-0.0001
-0.0001
-0.0001
-0.0001
-0.0001
-0.0001
-0.0001
-0.0001
-0.0001
-0.0001
-0.0001
-0.0001
-0.0001
-0.0001
-0.0001
-0.0001
-0.0001
-0.0001
-0.0001
-0.0001
-0.0001
-0.0001
-0.0001
-0.0001
-0.0001
-0.0001
-0.0001
-0.0001
-0.0001
-0.0001
-0.0001
-0.0001
-0.0001
-0.0001
-0.0001
-0.0001
-0.0001
-0.0001
-0.0001
-0.0001
-0.0001
-0.0001
-0.0001
-0.0001
-0.0001
-0.0001
-0.0001
-0.0001
-0.0001
-0.0001
-0.0001
-0.0001
-0.0001
-0.0001
-0.0001
-0.0001
-0.0001
-0.0001
-0.0001
-0.0001
-0.0001
-0.0001
-0.0001
-0.0001
-0.0001
-0.0001
-0.0001
-0.0001
-0.0001
-0.0001
-0.0001
-0.0001
-0.0001
-0.0001
-0.0001
-0.0001
-0.0001
-0.0001
-0.0001
-0.0001
-0.0001
-0.0001
-0.0001
-0.0001
-0.0001
-0.0001
-0.0001
-0.0001
-0.0001
-0.0001
-0.0001
-0.0001
-0.0001
-0.0001
-0.0001
-0.0001
-0.0001
-0.0001
-0.0001
-0.0001
-0.0001
-0.0001
-0.0001
-0.0001
-0.0001
-0.0001
-0.0001
-0.0001
-0.0001
-0.0001
-0.0001
-0.0001
-0.0001
-0.0001
-0.0001
-0.0001
-0.0001
-0.0001
-0.0001
-0.0001
-0.0001
-0.0001
-0.0001
-0.0001
-0.0001
-0.0001
-0.0001
-0.0001
-0.0001
-0.0001
-0.0001
-0.0001
-0.0001
-0.0001
-0.0001
-0.0001
-0.0001
-0.0001
-0.0001
-0.0001
-0.0001
-0.0001
-0.0001
-0.0001
-0.0001
-0.0001
-0.0001
-0.0001
-0.0001
-0.0001
-0.0001
-0.0001
-0.0001
-0.0001
-0.0001
-0.0001
-0.0001
-0.0001
-0.0001
-0.0001
-0.0001
-0.0001
-0.0001
-0.0001
-0.0001
-0.0001
-0.0001
-0.0001
-0.0001
-0.0001
-0.0001
-0.0001
-0.0001
-0.0001
-0.0001
-0.0001
-0.0001
-0.0001
-0.0001
-0.0001
-0.0001
-0.0001
-0.0001
-0.0001
-0.0001
-0.0001
-0.0001
-0.0001
-0.0001
-0.0001
-0.0001
-0.0001
-0.0001
-0.0001
-0.0001
-0.0001
-0.0001
-0.0001
-0.0001
-0.0001
-0.0001
-0.0001
-0.0002
-0.0002
-0.0002
-0.0002
-0.0002
-0.0002
-0.0002
-0.0002
-0.0002
SCALARS strain_1 float
LOOKUP_TABLE default
-0.000039
-0.062929
-0.061977
-0.061020
-0.060060
-0.059094
-0.058125
-0.057152
-0.056175
-0.055194
-0.054211
-0.053224
-0.052235
-0.051244
-0.050251
-0.049256
-0.048259
-0.047262
-0.046264
-0.045265
-0.044266
-0.043268
-0.042270
-0.041273
-0.040278
-0.039285
-0.038294
-0.037306
-0.036320
-0.035339
-0.034361
-0.033387
-0.032419
-0.031456
-0.030498
-0.029547
-0.028603
-0.027665
-0.026736
-0.025814
-0.024901
-0.023998
-0.023103
-0.022219
-0.021346
-0.020483
-0.019632
-0.018793
-0.017967
-0.017153
-0.016353
-0.015566
-0.014794
-0.014037
-0.013294
-0.012567
-0.011856
-0.011162
-0.010483
-0.009822
-0.009179
-0.008553
-0.007945
-0.007355
-0.006783
-0.006231
-0.005697
-0.005183
-0.004688
-0.004212
-0.003756
-0.003320
-0.002903
-0.002507
-0.002130
-0.001772
-0.001435
-0.001117
-0.000819
-0.000540
-0.000280
-0.062984
-0.000001
-0.000243
-0.000503
-0.000783
-0.001082
-0.001401
-0.001739
-0.002097
-0.002475
-0.002873
-0.003291
-0.003728
-0.004185
-0.004662
-0.005158
-0.005674
-0.006208
-0.006762
-0.007335
-0.007926
-0.008535
-0.009163
-0.009808
-0.010470
-0.011149
-0.011846
-0.012558
-0.013287
-0.014030
-0.014789
-0.015563
-0.016351
-0.017153
-0.017968
-0.018796
-0.019636
-0.020489
-0.021353
-0.022228
-0.023113
-0.024009
-0.024914
-0.025829
-0.026751
-0.027682
-0.028621
-0.029567
-0.030519
-0.031478
-0.032443
-0.033413
-0.034387
-0.035366
-0.036350
-0.037336
-0.038326
-0.039318
-0.040313
-0.041309
-0.042307
-0.043306
-0.044305
-0.045305
-0.046304
-0.047304
-0.048303
-0.049300
-0.050296
-0.051290
-0.052282
-0.053272
-0.054260
-0.055244
-0.056225
-0.057203
-0.058177
-0.059147
-0.060114
-0.061075
-0.062032
-0.062979
-0.062974
-0.062968
-0.062963
-0.062958
-0.062952
-0.062946
-0.062940
-0.062935
-0.000032
-0.000025
-0.000019
-0.000014
-0.000010
-0.000007
-0.000004
-0.000002
-0.000002
-0.000243
-0.000243
-0.000245
-0.000248
-0.000251
-0.000255
-0.000260
-0.000266
-0.000273
-0.000503
-0.000504
-0.000505
-0.000508
-0.000511
-0.000515
-0.000520
-0.000526
-0.000532
-0.000783
-0.000783
-0.000785
-0.000787
-0.000790
-0.000794
-0.000799
-0.000805
-0.000811
-0.001082
-0.001082
-0.001083
-0.001086
-0.001089
-0.001093
-0.001098
-0.001103
-0.001110
-0.001400
-0.001400
-0.001402
-0.001404
-0.001407
-0.001411
-0.001416
-0.001421
-0.001428
-0.001739
-0.001739
-0.001740
-0.001742
-0.001745
-0.001749
-0.001753
-0.001759
-0.001765
-0.002097
-0.002097
-0.002098
-0.002100
-0.002103
-0.002107
-0.002111
-0.002116
-0.002122
-0.002474
-0.002475
-0.002476
-0.002478
-0.002480
-0.002484
-0.002488
-0.002493
-0.002500
-0.002872
-0.002872
-0.002873
-0.002875
-0.002878
-0.002881
-0.002885
-0.002891
-0.002897
-0.003290
-0.003290
-0.003291
-0.003292
-0.003295
-0.003298
-0.003302
-0.003307
-0.003313
-0.003727
-0.003727
-0.003728
-0.003729
-0.003732
-0.003735
-0.003739
-0.003744
-0.003750
-0.004184
-0.004184
-0.004184
-0.004186
-0.004188
-0.004191
-0.004195
-0.004200
-0.004206
-0.004661
-0.004660
-0.004661
-0.004662
-0.004665
-0.004667
-0.004671
-0.004676
-0.004682
-0.005157
-0.005156
-0.005157
-0.005158
-0.005160
-0.005163
-0.005167
-0.005171
-0.005177
-0.005672
-0.005672
-0.005672
-0.005673
-0.005675
-0.005678
-0.005682
-0.005686
-0.005691
-0.006207
-0.006206
-0.006207
-0.006208
-0.006209
-0.006212
-0.006216
-0.006220
-0.006225
-0.006761
-0.006760
-0.006760
-0.006761
-0.006763
-0.006765
-0.006768
-0.006773
-0.006778
-0.007333
-0.007332
-0.007332
-0.007333
-0.007334
-0.007337
-0.007340
-0.007344
-0.007349
-0.007924
-0.007923
-0.007923
-0.007924
-0.007925
-0.007927
-0.007931
-0.007934
-0.007939
-0.008533
-0.008532
-0.008532
-0.008533
-0.008534
-0.008536
-0.008539
-0.008543
-0.008547
-0.009161
-0.009159
-0.009159
-0.009160
-0.009161
-0.009163
-0.009166
-0.009169
-0.009174
-0.009806
-0.009804
-0.009804
-0.009804
-0.009805
-0.009807
-0.009810
-0.009813
-0.009817
-0.010468
-0.010467
-0.010466
-0.010466
-0.010467
-0.010469
-0.010471
-0.010475
-0.010479
-0.011147
-0.011146
-0.011145
-0.011145
-0.011146
-0.011148
-0.011150
-0.011153
-0.011157
-0.011843
-0.011842
-0.011841
-0.011841
-0.011841
-0.011843
-0.011845
-0.011848
-0.011852
-0.012556
-0.012554
-0.012553
-0.012553
-0.012553
-0.012555
-0.012557
-0.012559
-0.012563
-0.013284
-0.013282
-0.013281
-0.013281
-0.013281
-0.013282
-0.013284
-0.013287
-0.013290
-0.014028
-0.014026
-0.014025
-0.014024
-0.014025
-0.014026
-0.014027
-0.014029
-0.014033
-0.014787
-0.014784
-0.014783
-0.014783
-0.014783
-0.014784
-0.014785
-0.014787
-0.014791
-0.015560
-0.015558
-0.015557
-0.015556
-0.015556
-0.015557
-0.015558
-0.015560
-0.015563
-0.016348
-0.016346
-0.016344
-0.016343
-0.016343
-0.016344
-0.016345
-0.016347
-0.016350
-0.017150
-0.017147
-0.017146
-0.017145
-0.017145
-0.017145
-0.017146
-0.017148
-0.017150
-0.017965
-0.017962
-0.017961
-0.017959
-0.017959
-0.017959
-0.017960
-0.017962
-0.017964
-0.018793
-0.018790
-0.018789
-0.018787
-0.018787
-0.018787
-0.018787
-0.018789
-0.018791
-0.019633
-0.019631
-0.019629
-0.019627
-0.019627
-0.019627
-0.019627
-0.019628
-0.019630
-0.020486
-0.020483
-0.020481
-0.020479
-0.020479
-0.020478
-0.020479
-0.020480
-0.020481
-0.021349
-0.021347
-0.021345
-0.021343
-0.021342
-0.021342
-0.021342
-0.021342
-0.021344
-0.022224
-0.022222
-0.022219
-0.022218
-0.022216
-0.022216
-0.022216
-0.022217
-0.022218
-0.023110
-0.023107
-0.023105
-0.023103
-0.023101
-0.023100
-0.023101
-0.023101
-0.023102
-0.024006
-0.024002
-0.024000
-0.023998
-0.023997
-0.023996
-0.023995
-0.023996
-0.023996
-0.024911
-0.024907
-0.024905
-0.024903
-0.024901
-0.024900
-0.024900
-0.024900
-0.024900
-0.025825
-0.025822
-0.025819
-0.025817
-0.025815
-0.025814
-0.025813
-0.025813
-0.025813
-0.026748
-0.026744
-0.026742
-0.026739
-0.026737
-0.026736
-0.026735
-0.026735
-0.026735
-0.027679
-0.027675
-0.027672
-0.027670
-0.027668
-0.027666
-0.027665
-0.027665
-0.027665
-0.028617
-0.028614
-0.028611
-0.028608
-0.028606
-0.028604
-0.028603
-0.028603
-0.028602
-0.029563
-0.029560
-0.029557
-0.029554
-0.029551
-0.029550
-0.029548
-0.029548
-0.029547
-0.030515
-0.030512
-0.030509
-0.030506
-0.030503
-0.030502
-0.030500
-0.030499
-0.030498
-0.031474
-0.031471
-0.031467
-0.031464
-0.031462
-0.031460
-0.031458
-0.031457
-0.031456
-0.032439
-0.032435
-0.032432
-0.032429
-0.032426
-0.032424
-0.032422
-0.032421
-0.032420
-0.033408
-0.033405
-0.033401
-0.033398
-0.033395
-0.033393
-0.033391
-0.033389
-0.033388
-0.034383
-0.034379
-0.034376
-0.034373
-0.034370
-0.034367
-0.034365
-0.034363
-0.034362
-0.035362
-0.035358
-0.035354
-0.035351
-0.035348
-0.035346
-0.035343
-0.035341
-0.035340
-0.036345
-0.036341
-0.036338
-0.036334
-0.036331
-0.036328
-0.036326
-0.036324
-0.036322
-0.037332
-0.037327
-0.037324
-0.037320
-0.037317
-0.037314
-0.037311
-0.037309
-0.037307
-0.038321
-0.038317
-0.038313
-0.038310
-0.038306
-0.038303
-0.038300
-0.038298
-0.038296
-0.039314
-0.039309
-0.039305
-0.039302
-0.039298
-0.039295
-0.039292
-0.039289
-0.039287
-0.040308
-0.040304
-0.040300
-0.040296
-0.040292
-0.040289
-0.040286
-0.040283
-0.040281
-0.041304
-0.041300
-0.041296
-0.041292
-0.041288
-0.041285
-0.041281
-0.041279
-0.041276
-0.042302
-0.042298
-0.042293
-0.042289
-0.042286
-0.042282
-0.042279
-0.042276
-0.042273
-0.043301
-0.043296
-0.043292
-0.043288
-0.043284
-0.043280
-0.043277
-0.043274
-0.043271
-0.044300
-0.044296
-0.044292
-0.044287
-0.044283
-0.044279
-0.044276
-0.044272
-0.044269
-0.045300
-0.045295
-0.045291
-0.045287
-0.045283
-0.045279
-0.045275
-0.045271
-0.045268
-0.046300
-0.046295
-0.046290
-0.046287
-0.046282
-0.046278
-0.046274
-0.046271
-0.046267
-0.047299
-0.047294
-0.047290
-0.047285
-0.047281
-0.047277
-0.047273
-0.047269
-0.047265
-0.048298
-0.048293
-0.048288
-0.048284
-0.048279
-0.048275
-0.048271
-0.048267
-0.048263
-0.049295
-0.049290
-0.049286
-0.049281
-0.049277
-0.049272
-0.049268
-0.049264
-0.049260
-0.050291
-0.050286
-0.050281
-0.050277
-0.050272
-0.050268
-0.050263
-0.050259
-0.050255
-0.051285
-0.051280
-0.051275
-0.051271
-0.051266
-0.051261
-0.051257
-0.051253
-0.051248
-0.052277
-0.052273
-0.052268
-0.052263
-0.052258
-0.052253
-0.052249
-0.052244
-0.052240
-0.053267
-0.053262
-0.053257
-0.053253
-0.053248
-0.053243
-0.053238
-0.053234
-0.053229
-0.054255
-0.054250
-0.054245
-0.054240
-0.054235
-0.054230
-0.054225
-0.054220
-0.054215
-0.055239
-0.055234
-0.055229
-0.055224
-0.055219
-0.055214
-0.055209
-0.055204
-0.055199
-0.056220
-0.056215
-0.056210
-0.056205
-0.056200
-0.056195
-0.056190
-0.056185
-0.056179
-0.057198
-0.057193
-0.057188
-0.057182
-0.057177
-0.057172
-0.057167
-0.057162
-0.057157
-0.058172
-0.058167
-0.058162
-0.058156
-0.058151
-0.058146
-0.058141
-0.058135
-0.058130
-0.059142
-0.059137
-0.059132
-0.059126
-0.059121
-0.059116
-0.059110
-0.059105
-0.059100
-0.060108
-0.060103
-0.060098
-0.060092
-0.060087
-0.060082
-0.060076
-0.060071
-0.060065
-0.061070
-0.061065
-0.061059
-0.061054
-0.061048
-0.061043
-0.061038
-0.061032
-0.061026
-0.062027
-0.062022
-0.062016
-0.062011
-0.062005
-0.062000
-0.061994
-0.061989
-0.061983
SCALARS strain_2 float
LOOKUP_TABLE default
0.000850
0.000528
0.000529
0.000529
0.000530
0.000529
0.000529
0.000529
0.000529
0.000530
0.000529
0.000530
0.000530
0.000532
0.000532
0.000532
0.000533
0.000534
0.000535
0.000536
0.000537
0.000537
0.000540
0.000541
0.000542
0.000544
0.000545
0.000547
0.000548
0.000550
0.000552
0.000554
0.000557
0.000559
0.000563
0.000565
0.000567
0.000570
0.000573
0.000578
0.000580
0.000584
0.000588
0.000591
0.000595
0.000598
0.000603
0.000607
0.000612
0.000617
0.000622
0.000626
0.000631
0.000638
0.000642
0.000648
0.000654
0.000660
0.000666
0.000672
0.000678
0.000685
0.000691
0.000698
0.000706
0.000714
0.000721
0.000729
0.000736
0.000744
0.000752
0.000759
0.000769
0.000777
0.000785
0.000795
0.000804
0.000812
0.000822
0.000830
0.000841
0.001594
0.001614
0.001616
0.001617
0.001618
0.001619
0.001620
0.001621
0.001622
0.001623
0.001623
0.001625
0.001626
0.001626
0.001627
0.001629
0.001629
0.001629
0.001631
0.001631
0.001632
0.001632
0.001633
0.001633
0.001634
0.001635
0.001635
0.001635
0.001635
0.001635
0.001636
0.001637
0.001637
0.001638
0.001636
0.001638
0.001638
0.001638
0.001638
0.001639
0.001637
0.001639
0.001637
0.001637
0.001637
0.001636
0.001636
0.001636
0.001635
0.001635
0.001634
0.001635
0.001632
0.001633
0.001632
0.001631
0.001630
0.001629
0.001628
0.001628
0.001626
0.001624
0.001624
0.001624
0.001622
0.001621
0.001620
0.001618
0.001617
0.001615
0.001614
0.001613
0.001611
0.001609
0.001608
0.001607
0.001603
0.001602
0.001601
0.001598
0.001596
0.001488
0.001381
0.001275
0.001168
0.001062
0.000956
0.000849
0.000743
0.000635
0.000926
0.001002
0.001080
0.001156
0.001233
0.001310
0.001386
0.001462
0.001538
0.001539
0.001461
0.001384
0.001305
0.001228
0.001151
0.001073
0.000996
0.000918
0.001539
0.001460
0.001382
0.001302
0.001225
0.001145
0.001067
0.000989
0.000910
0.001538
0.001459
0.001378
0.001300
0.001220
0.001141
0.001060
0.000981
0.000901
0.001538
0.001457
0.001377
0.001297
0.001216
0.001136
0.001055
0.000974
0.000894
0.001539
0.001457
0.001376
0.001293
0.001212
0.001130
0.001049
0.000967
0.000886
0.001538
0.001456
0.001372
0.001290
0.001208
0.001125
0.001042
0.000960
0.000877
0.001538
0.001455
0.001372
0.001288
0.001204
0.001120
0.001037
0.000953
0.000870
0.001538
0.001454
0.001370
0.001285
0.001201
0.001115
0.001032
0.000947
0.000862
0.001539
0.001453
0.001367
0.001282
0.001196
0.001110
0.001025
0.000940
0.000854
0.001538
0.001452
0.001366
0.001280
0.001194
0.001106
0.001020
0.000933
0.000846
0.001538
0.001451
0.001364
0.001277
0.001190
0.001101
0.001015
0.000927
0.000840
0.001538
0.001451
0.001362
0.001274
0.001186
0.001098
0.001009
0.000921
0.000834
0.001537
0.001449
0.001360
0.001270
0.001182
0.001093
0.001004
0.000914
0.000824
0.001538
0.001448
0.001358
0.001269
0.001178
0.001089
0.000999
0.000908
0.000818
0.001537
0.001449
0.001358
0.001265
0.001176
0.001083
0.000994
0.000902
0.000812
0.001539
0.001446
0.001355
0.001263
0.001171
0.001080
0.000989
0.000897
0.000805
0.001538
0.001446
0.001354
0.001261
0.001169
0.001075
0.000985
0.000891
0.000799
0.001537
0.001445
0.001352
0.001258
0.001165
0.001072
0.000979
0.000885
0.000793
0.001537
0.001444
0.001350
0.001256
0.001163
0.001068
0.000974
0.000880
0.000786
0.001539
0.001443
0.001349
0.001254
0.001160
0.001064
0.000970
0.000875
0.000781
0.001537
0.001443
0.001347
0.001252
0.001155
0.001061
0.000965
0.000869
0.000774
0.001538
0.001442
0.001345
0.001249
0.001153
0.001057
0.000962
0.000864
0.000768
0.001537
0.001441
0.001344
0.001247
0.001150
0.001054
0.000955
0.000859
0.000763
0.001538
0.001440
0.001343
0.001244
0.001147
0.001049
0.000953
0.000855
0.000757
0.001536
0.001439
0.001341
0.001243
0.001144
0.001047
0.000948
0.000850
0.000752
0.001537
0.001438
0.001340
0.001240
0.001142
0.001043
0.000945
0.000846
0.000745
0.001537
0.001438
0.001338
0.001240
0.001139
0.001040
0.000941
0.000841
0.000743
0.001537
0.001437
0.001336
0.001238
0.001136
0.001036
0.000938
0.000836
0.000737
0.001536
0.001435
0.001334
0.001235
0.001134
0.001033
0.000933
0.000833
0.000731
0.001535
0.001434
0.001334
0.001233
0.001132
0.001030
0.000930
0.000828
0.000727
0.001536
0.001434
0.001332
0.001231
0.001129
0.001028
0.000927
0.000825
0.000722
0.001536
0.001434
0.001331
0.001229
0.001126
0.001025
0.000923
0.000821
0.000718
0.001535
0.001433
0.001331
0.001227
0.001125
0.001022
0.000919
0.000817
0.000715
0.001534
0.001432
0.001328
0.001227
0.001122
0.001019
0.000917
0.000814
0.000711
0.001534
0.001431
0.001328
0.001224
0.001120
0.001017
0.000914
0.000809
0.000707
0.001534
0.001430
0.001325
0.001222
0.001118
0.001014
0.000910
0.000806
0.000703
0.001533
0.001428
0.001324
0.001221
0.001116
0.001012
0.000907
0.000804
0.000698
0.001533
0.001429
0.001324
0.001220
0.001114
0.001009
0.000906
0.000800
0.000695
0.001533
0.001427
0.001322
0.001217
0.001112
0.001007
0.000901
0.000797
0.000692
0.001532
0.001427
0.001322
0.001216
0.001111
0.001005
0.000900
0.000794
0.000688
0.001532
0.001426
0.001320
0.001215
0.001109
0.001003
0.000897
0.000792
0.000686
0.001531
0.001425
0.001319
0.001213
0.001107
0.001000
0.000895
0.000788
0.000682
0.001530
0.001424
0.001317
0.001211
0.001104
0.000998
0.000892
0.000786
0.000679
0.001530
0.001423
0.001319
0.001212
0.001104
0.000996
0.000890
0.000783
0.000677
0.001529
0.001422
0.001316
0.001210
0.001102
0.000993
0.000888
0.000782
0.000674
0.001529
0.001422
0.001315
0.001208
0.001100
0.000991
0.000886
0.000779
0.000672
0.001529
0.001421
0.001314
0.001207
0.001099
0.000991
0.000885
0.000776
0.000669
0.001528
0.001420
0.001313
0.001206
0.001097
0.000989
0.000881
0.000774
0.000667
0.001527
0.001420
0.001312
0.001204
0.001095
0.000988
0.000879
0.000772
0.000664
0.001526
0.001418
0.001310
0.001202
0.001093
0.000987
0.000879
0.000770
0.000663
0.001525
0.001418
0.001309
0.001201
0.001093
0.000985
0.000877
0.000768
0.000661
0.001525
0.001416
0.001308
0.001201
0.001092
0.000984
0.000875
0.000767
0.000659
0.001523
0.001415
0.001307
0.001199
0.001091
0.000981
0.000873
0.000765
0.000658
0.001523
0.001414
0.001306
0.001198
0.001089
0.000980
0.000872
0.000764
0.000657
0.001522
0.001414
0.001304
0.001197
0.001087
0.000980
0.000871
0.000762
0.000654
0.001521
0.001412
0.001304
0.001195
0.001086
0.000977
0.000870
0.000760
0.000652
0.001519
0.001411
0.001302
0.001195
0.001084
0.000977
0.000868
0.000759
0.000650
0.001519
0.001410
0.001302
0.001193
0.001083
0.000976
0.000867
0.000757
0.000649
0.001518
0.001409
0.001300
0.001191
0.001083
0.000974
0.000864
0.000756
0.000648
0.001516
0.001408
0.001300
0.001190
0.001081
0.000972
0.000864
0.000755
0.000647
0.001516
0.001406
0.001298
0.001189
0.001080
0.000971
0.000864
0.000755
0.000646
0.001514
0.001406
0.001298
0.001189
0.001079
0.000972
0.000862
0.000753
0.000645
0.001513
0.001405
0.001297
0.001187
0.001079
0.000970
0.000861
0.000753
0.000644
0.001512
0.001404
0.001295
0.001187
0.001078
0.000969
0.000859
0.000752
0.000643
0.001511
0.001402
0.001293
0.001185
0.001077
0.000968
0.000859
0.000751
0.000642
0.001509
0.001402
0.001293
0.001185
0.001076
0.000968
0.000858
0.000750
0.000642
0.001509
0.001400
0.001291
0.001184
0.001075
0.000965
0.000858
0.000749
0.000641
0.001507
0.001399
0.001290
0.001182
0.001073
0.000964
0.000856
0.000748
0.000640
0.001506
0.001398
0.001290
0.001181
0.001072
0.000964
0.000855
0.000748
0.000639
0.001504
0.001396
0.001288
0.001180
0.001072
0.000964
0.000854
0.000746
0.000639
0.001503
0.001395
0.001286
0.001179
0.001071
0.000963
0.000854
0.000747
0.000638
0.001501
0.001394
0.001286
0.001178
0.001071
0.000962
0.000854
0.000746
0.000638
0.001499
0.001392
0.001285
0.001177
0.001068
0.000961
0.000853
0.000745
0.000637
0.001499
0.001391
0.001283
0.001176
0.001068
0.000960
0.000852
0.000745
0.000637
0.001498
0.001390
0.001282
0.001174
0.001067
0.000959
0.000852
0.000744
0.000636
0.001496
0.001388
0.001281
0.001173
0.001066
0.000959
0.000851
0.000744
0.000637
0.001493
0.001387
0.001280
0.001173
0.001065
0.000958
0.000851
0.000743
0.000637
0.001491
0.001384
0.001278
0.001171
0.001064
0.000957
0.000850
0.000743
0.000637
0.001489
0.001384
0.001277
0.001169
0.001063
0.000956
0.000849
0.000742
0.000635
SCALARS strain_3 float
LOOKUP_TABLE default
0.000319
0.020610
0.020319
0.020027
0.019732
0.019437
0.019140
0.018842
0.018542
0.018241
0.017940
0.017636
0.017332
0.017027
0.016721
0.016414
0.016107
0.015798
0.015489
0.015181
0.014871
0.014562
0.014251
0.013942
0.013632
0.013323
0.013013
0.012705
0.012397
0.012089
0.011782
0.011476
0.011172
0.010868
0.010567
0.010265
0.009967
0.009670
0.009373
0.009081
0.008789
0.008501
0.008214
0.007931
0.007649
0.007371
0.007095
0.006824
0.006554
0.006290
0.006027
0.005770
0.005516
0.005266
0.005020
0.004779
0.004541
0.004309
0.004080
0.003857
0.003639
0.003425
0.003217
0.003014
0.002816
0.002624
0.002437
0.002254
0.002079
0.001909
0.001744
0.001584
0.001432
0.001285
0.001143
0.001009
0.000878
0.000755
0.000637
0.000526
0.000419
0.020074
-0.000170
-0.000075
0.000028
0.000136
0.000250
0.000368
0.000494
0.000627
0.000765
0.000909
0.001058
0.001214
0.001375
0.001544
0.001716
0.001895
0.002079
0.002270
0.002464
0.002666
0.002872
0.003083
0.003300
0.003521
0.003747
0.003979
0.004214
0.004454
0.004698
0.004948
0.005200
0.005457
0.005718
0.005983
0.006250
0.006522
0.006796
0.007074
0.007354
0.007638
0.007925
0.008213
0.008504
0.008798
0.009093
0.009391
0.009690
0.009991
0.010294
0.010598
0.010903
0.011210
0.011516
0.011825
0.012134
0.012443
0.012753
0.013064
0.013374
0.013685
0.013996
0.014307
0.014618
0.014928
0.015238
0.015547
0.015856
0.016165
0.016471
0.016778
0.017084
0.017390
0.017693
0.017994
0.018297
0.018596
0.018894
0.019192
0.019488
0.019782
0.020128
0.020181
0.020235
0.020289
0.020342
0.020396
0.020449
0.020503
0.020556
0.000269
0.000220
0.000170
0.000121
0.000072
0.000022
-0.000025
-0.000074
-0.000123
-0.000026
0.000022
0.000071
0.000121
0.000169
0.000218
0.000269
0.000319
0.000369
0.000076
0.000125
0.000174
0.000224
0.000274
0.000324
0.000373
0.000424
0.000474
0.000184
0.000233
0.000283
0.000333
0.000383
0.000434
0.000484
0.000535
0.000586
0.000299
0.000348
0.000398
0.000448
0.000499
0.000550
0.000600
0.000652
0.000703
0.000419
0.000469
0.000520
0.000570
0.000621
0.000672
0.000723
0.000774
0.000826
0.000545
0.000595
0.000647
0.000697
0.000749
0.000799
0.000851
0.000903
0.000955
0.000677
0.000728
0.000779
0.000831
0.000882
0.000934
0.000986
0.001038
0.001091
0.000815
0.000866
0.000918
0.000970
0.001022
0.001074
0.001126
0.001179
0.001232
0.000960
0.001010
0.001062
0.001115
0.001167
0.001219
0.001273
0.001326
0.001379
0.001109
0.001161
0.001214
0.001266
0.001319
0.001372
0.001424
0.001478
0.001531
0.001266
0.001317
0.001370
0.001423
0.001476
0.001528
0.001582
0.001636
0.001690
0.001428
0.001480
0.001532
0.001585
0.001639
0.001693
0.001746
0.001800
0.001854
0.001596
0.001648
0.001701
0.001754
0.001808
0.001862
0.001916
0.001970
0.002024
0.001768
0.001822
0.001874
0.001928
0.001982
0.002036
0.002091
0.002145
0.002200
0.001948
0.002001
0.002054
0.002108
0.002163
0.002217
0.002272
0.002326
0.002381
0.002132
0.002186
0.002240
0.002294
0.002349
0.002403
0.002458
0.002513
0.002568
0.002323
0.002377
0.002431
0.002485
0.002540
0.002594
0.002650
0.002705
0.002760
0.002519
0.002573
0.002627
0.002682
0.002736
0.002791
0.002847
0.002902
0.002958
0.002720
0.002774
0.002829
0.002884
0.002939
0.002994
0.003049
0.003105
0.003161
0.002926
0.002981
0.003036
0.003090
0.003146
0.003201
0.003257
0.003313
0.003369
0.003138
0.003193
0.003247
0.003302
0.003359
0.003414
0.003470
0.003526
0.003581
0.003354
0.003410
0.003464
0.003520
0.003576
0.003631
0.003688
0.003744
0.003800
0.003576
0.003632
0.003686
0.003742
0.003798
0.003855
0.003910
0.003966
0.004024
0.003802
0.003858
0.003913
0.003970
0.004025
0.004082
0.004138
0.004194
0.004252
0.004034
0.004090
0.004145
0.004200
0.004257
0.004313
0.004369
0.004427
0.004483
0.004270
0.004326
0.004381
0.004438
0.004494
0.004550
0.004607
0.004664
0.004721
0.004510
0.004566
0.004622
0.004677
0.004735
0.004791
0.004849
0.004905
0.004962
0.004755
0.004810
0.004867
0.004923
0.004980
0.005037
0.005094
0.005150
0.005208
0.005004
0.005060
0.005117
0.005172
0.005230
0.005287
0.005344
0.005401
0.005458
0.005257
0.005312
0.005369
0.005426
0.005483
0.005540
0.005597
0.005655
0.005712
0.005513
0.005570
0.005626
0.005683
0.005740
0.005798
0.005855
0.005912
0.005970
0.005774
0.005831
0.005887
0.005945
0.006002
0.006059
0.006117
0.006174
0.006232
0.006039
0.006095
0.006152
0.006209
0.006266
0.006323
0.006381
0.006439
0.006497
0.006307
0.006364
0.006421
0.006478
0.006535
0.006592
0.006650
0.006707
0.006766
0.006578
0.006635
0.006692
0.006749
0.006807
0.006864
0.006922
0.006980
0.007038
0.006853
0.006910
0.006967
0.007024
0.007082
0.007139
0.007197
0.007254
0.007312
0.007130
0.007187
0.007245
0.007301
0.007359
0.007417
0.007475
0.007533
0.007591
0.007411
0.007469
0.007526
0.007583
0.007640
0.007698
0.007756
0.007814
0.007872
0.007696
0.007752
0.007809
0.007867
0.007924
0.007981
0.008039
0.008097
0.008156
0.007982
0.008039
0.008095
0.008154
0.008210
0.008269
0.008326
0.008384
0.008442
0.008271
0.008328
0.008384
0.008441
0.008500
0.008557
0.008615
0.008673
0.008731
0.008562
0.008618
0.008676
0.008733
0.008791
0.008849
0.008906
0.008964
0.009022
0.008855
0.008912
0.008969
0.009027
0.009084
0.009142
0.009200
0.009257
0.009316
0.009150
0.009207
0.009265
0.009322
0.009379
0.009437
0.009495
0.009553
0.009611
0.009448
0.009505
0.009563
0.009620
0.009677
0.009736
0.009793
0.009851
0.009908
0.009747
0.009805
0.009862
0.009919
0.009976
0.010034
0.010092
0.010150
0.010207
0.010048
0.010105
0.010163
0.010220
0.010278
0.010335
0.010393
0.010450
0.010508
0.010351
0.010408
0.010465
0.010522
0.010581
0.010638
0.010695
0.010753
0.010811
0.010655
0.010712
0.010769
0.010826
0.010884
0.010941
0.010999
0.011056
0.011114
0.010960
0.011017
0.011073
0.011131
0.011188
0.011246
0.011303
0.011361
0.011420
0.011266
0.011323
0.011381
0.011437
0.011494
0.011553
0.011610
0.011667
0.011725
0.011573
0.011630
0.011686
0.011744
0.011801
0.011859
0.011916
0.011973
0.012031
0.011881
0.011939
0.011995
0.012052
0.012110
0.012167
0.012224
0.012281
0.012339
0.012191
0.012248
0.012304
0.012361
0.012418
0.012476
0.012533
0.012590
0.012648
0.012500
0.012557
0.012614
0.012671
0.012727
0.012784
0.012842
0.012898
0.012956
0.012810
0.012866
0.012924
0.012980
0.013037
0.013094
0.013151
0.013208
0.013265
0.013120
0.013177
0.013234
0.013290
0.013347
0.013404
0.013461
0.013518
0.013575
0.013431
0.013488
0.013545
0.013601
0.013657
0.013714
0.013771
0.013828
0.013885
0.013742
0.013798
0.013855
0.013911
0.013968
0.014025
0.014081
0.014139
0.014195
0.014053
0.014109
0.014165
0.014222
0.014279
0.014335
0.014392
0.014448
0.014505
0.014363
0.014420
0.014475
0.014532
0.014588
0.014645
0.014701
0.014758
0.014814
0.014674
0.014731
0.014786
0.014842
0.014898
0.014955
0.015011
0.015068
0.015124
0.014984
0.015040
0.015096
0.015152
0.015209
0.015265
0.015322
0.015377
0.015434
0.015294
0.015350
0.015406
0.015462
0.015519
0.015573
0.015630
0.015686
0.015742
0.015604
0.015658
0.015715
0.015771
0.015826
0.015883
0.015939
0.015995
0.016050
0.015912
0.015968
0.016023
0.016079
0.016135
0.016191
0.016247
0.016303
0.016358
0.016220
0.016275
0.016331
0.016387
0.016443
0.016498
0.016554
0.016610
0.016665
0.016527
0.016583
0.016639
0.016694
0.016750
0.016805
0.016861
0.016916
0.016971
0.016834
0.016890
0.016945
0.017001
0.017056
0.017110
0.017166
0.017222
0.017276
0.017141
0.017194
0.017250
0.017306
0.017360
0.017415
0.017470
0.017526
0.017582
0.017444
0.017499
0.017554
0.017610
0.017665
0.017719
0.017775
0.017830
0.017884
0.017748
0.017803
0.017857
0.017912
0.017967
0.018022
0.018077
0.018133
0.018187
0.018050
0.018105
0.018159
0.018215
0.018269
0.018324
0.018379
0.018433
0.018488
0.018351
0.018406
0.018461
0.018514
0.018569
0.018625
0.018679
0.018733
0.018787
0.018651
0.018705
0.018759
0.018814
0.018868
0.018923
0.018977
0.019031
0.019086
0.018949
0.019003
0.019058
0.019112
0.019166
0.019221
0.019275
0.019329
0.019383
0.019246
0.019300
0.019355
0.019409
0.019463
0.019516
0.019571
0.019625
0.019678
0.019541
0.019596
0.019650
0.019703
0.019757
0.019811
0.019865
0.019919
0.019972
0.019836
0.019889
0.019943
0.019997
0.020051
0.020105
0.020158
0.020212
0.020265
SCALARS stress_1 float
LOOKUP_TABLE default
5855.433807
-4798702.769684
-4726044.560891
-4653024.352097
-4579659.143304
-4505971.934510
-4431962.725716
-4357663.016923
-4283067.308129
-4208221.599335
-4133140.390542
-4057836.681748
-3982327.472954
-3906633.264161
-3830801.555367
-3754834.846574
-3678767.137780
-3602592.428986
-3526361.720193
-3450117.011399
-3373859.302605
-3297628.593812
-3221453.385018
-3145356.176224
-3069354.967431
-2993498.758637
-2917813.549843
-2842350.341050
-2767111.132256
-2692135.423463
-2617454.714669
-2543141.505875
-2469168.797082
-2395597.588288
-2322480.379494
-2249839.170701
-2177703.961907
-2106116.753113
-2035105.544320
-1964736.835526
-1894996.126733
-1825964.417939
-1757663.209145
-1690132.500352
-1623405.291558
-1557514.582764
-1492488.873971
-1428390.665177
-1365243.456383
-1303073.247590
-1241913.038796
-1181830.330003
-1122821.121209
-1064918.912415
-1008192.203622
-952633.994828
-898295.286034
-845188.577241
-793355.868447
-742825.659653
-693629.450860
-645764.742066
-599264.533272
-554168.824479
-510477.115685
-468212.906892
-427417.698098
-388056.989304
-350181.780511
-313801.071717
-278878.862923
-245507.654130
-213615.945336
-183239.736542
-154354.527749
-127004.818955
-101151.610162
-76778.901368
-53918.192574
-32536.483781
-12621.274987
-4791894.743071
17209.460420
-1194.748373
-21074.957167
-42421.665961
-65235.374754
-89569.083548
-115383.792341
-142726.501135
-171568.209929
-201929.418722
-233807.627516
-267198.336310
-302093.545103
-338482.253897
-376362.962691
-415719.671484
-456527.380278
-498810.589071
-542533.797865
-587653.506659
-634177.715452
-682068.924246
-731313.133040
-781893.341833
-833777.550627
-886920.759421
-941308.968214
-996920.177008
-1053714.385802
-1111666.594595
-1170731.303389
-1230880.012182
-1292111.720976
-1354361.929770
-1417565.638563
-1481750.347357
-1546853.056151
-1612814.764944
-1679619.973738
-1747233.182532
-1815632.391325
-1884737.100119
-1954562.808912
-2025028.017706
-2096108.726500
-2167801.935293
-2240019.644087
-2312751.852881
-2385975.561674
-2459626.270468
-2533682.479262
-2608120.188055
-2682870.396849
-2757932.605643
-2833270.314436
-2908844.023230
-2984618.732023
-3060539.940817
-3136638.649611
-3212816.358404
-3289093.567198
-3365427.275992
-3441778.484785
-3518112.193579
-3594426.402373
-3670680.111166
-3746844.319960
-3822918.528753
-3898831.737547
-3974622.446341
-4050209.155134
-4125603.863928
-4200777.572722
-4275709.781515
-4350379.490309
-4424762.699103
-4498846.407896
-4572632.616690
-4646059.825483
-4719163.534277
-4792590.245732
-4793290.748394
-4794000.751055
-4794685.253716
-4795371.256378
-4796037.759039
-4796715.261700
-4797382.264362
-4798038.767023
7260.436468
8622.939129
9914.441791
11141.944452
12322.447114
13421.949775
14465.452436
15438.455098
16362.457759
-2045.751035
-2978.253696
-3960.256357
-5005.759019
-6127.261680
-7287.264341
-8534.767003
-9829.769664
-11189.772326
-21937.959828
-22851.462490
-23847.965151
-24895.467812
-26008.470474
-27188.473135
-28422.475796
-29728.478458
-31109.481119
-43272.168622
-44201.171283
-45194.673945
-46242.676606
-47368.179267
-48561.681929
-49803.184590
-51105.187251
-52472.689913
-66100.877416
-67031.380077
-68024.882738
-69101.885400
-70217.888061
-71397.390722
-72643.393384
-73950.396045
-75340.898707
-90425.086209
-91354.088871
-92357.091532
-93419.594193
-94541.096855
-95744.099516
-97004.602177
-98318.104839
-99696.107500
-116262.795003
-117186.297664
-118195.800326
-119262.802987
-120385.805648
-121565.808310
-122841.310971
-124148.813632
-125558.316294
-143604.003796
-144526.006458
-145547.009119
-146601.011781
-147739.514442
-148934.517103
-150202.019765
-151520.022426
-152911.025087
-172446.712590
-173394.215251
-174385.717913
-175462.220574
-176593.723236
-177793.725897
-179054.228558
-180387.231220
-181760.233881
-202808.421384
-203747.424045
-204747.426706
-205832.929368
-206978.932029
-208170.434691
-209435.937352
-210761.940013
-212160.942675
-234681.130177
-235635.132839
-236645.135500
-237717.638161
-238844.640823
-240044.643484
-241305.146146
-242656.148807
-244044.651468
-268068.838971
-269017.341632
-270042.344294
-271097.346955
-272248.849617
-273453.352278
-274707.854939
-276042.357601
-277430.860262
-302979.047765
-303915.050426
-304940.553087
-306005.055749
-307143.558410
-308339.561072
-309597.063733
-310940.066394
-312347.069056
-339361.256558
-340304.759220
-341322.761881
-342393.264542
-343538.767204
-344742.769865
-346003.272527
-347329.775188
-348725.277849
-377246.465352
-378192.968013
-379206.970675
-380275.473336
-381410.475997
-382622.478659
-383874.481320
-385210.983982
-386603.486643
-416605.174146
-417545.676807
-418550.179468
-419641.682130
-420781.184791
-421981.187452
-423248.190114
-424568.692775
-425958.695437
-457432.382939
-458387.385601
-459399.888262
-460471.390923
-461606.893585
-462806.396246
-464061.398907
-465387.401569
-466771.904230
-499697.591733
-500667.094394
-501655.097056
-502722.099717
-503875.602378
-505066.605040
-506328.607701
-507655.110362
-509031.613024
-543418.800526
-544356.803188
-545370.805849
-546438.808511
-547580.811172
-548762.813833
-550018.316495
-551341.319156
-552714.321817
-588535.009320
-589490.011982
-590497.014643
-591559.017304
-592688.519966
-593890.522627
-595147.025288
-596460.527950
-597836.030611
-635055.218114
-636017.220775
-637007.723437
-638082.726098
-639208.728759
-640399.231421
-641642.234082
-642956.236743
-644325.739405
-682959.426907
-683905.429569
-684913.432230
-685979.934892
-687096.437553
-688290.940214
-689533.942876
-690822.945537
-692197.948198
-732218.635701
-733142.138362
-734148.641024
-735211.143685
-736342.646347
-737504.149008
-738754.151669
-740056.654331
-741422.156992
-782780.844495
-783717.847156
-784723.349817
-785788.852479
-786900.355140
-788068.857802
-789307.360463
-790598.863124
-791953.865786
-834660.053288
-835590.555950
-836580.058611
-837645.061272
-838762.063934
-839927.566595
-841161.069257
-842442.071918
-843782.074579
-887788.262082
-888730.264743
-889734.767405
-890778.770066
-891889.272727
-893063.275389
-894281.278050
-895560.280712
-896896.283373
-942201.970876
-943126.473537
-944113.476198
-945160.478860
-946268.981521
-947426.984182
-948642.986844
-949905.489505
-951256.992167
-997789.679669
-998741.682331
-999711.684992
-1000760.687653
-1001868.190315
-1003016.192976
-1004206.195637
-1005485.198299
-1006819.200960
-1054585.888463
-1055531.391124
-1056508.893786
-1057552.396447
-1058641.399108
-1059793.401770
-1061001.404431
-1062256.907092
-1063552.409754
-1112533.597257
-1113477.099918
-1114457.602579
-1115475.105241
-1116573.107902
-1117712.110563
-1118901.113225
-1120147.115886
-1121462.618547
-1171606.306050
-1172546.308712
-1173521.311373
-1174550.314034
-1175633.316696
-1176752.819357
-1177948.822018
-1179191.824680
-1180469.327341
-1231773.014844
-1232710.017505
-1233647.520167
-1234692.022828
-1235772.025489
-1236900.028151
-1238075.030812
-1239300.533473
-1240590.036135
-1292997.223637
-1293898.726299
-1294870.728960
-1295888.231622
-1296974.234283
-1298090.736944
-1299251.739606
-1300465.242267
-1301749.244928
-1355224.432431
-1356122.935092
-1357105.937754
-1358119.440415
-1359184.943077
-1360286.945738
-1361445.948399
-1362649.951061
-1363935.453722
-1418440.141225
-1419355.143886
-1420313.646547
-1421330.649209
-1422384.151870
-1423488.654532
-1424641.657193
-1425829.159854
-1427094.662516
-1482617.350018
-1483527.352680
-1484490.355341
-1485481.858002
-1486536.360664
-1487633.363325
-1488753.365987
-1489973.868648
-1491213.871309
-1547708.058812
-1548606.561473
-1549564.564135
-1550560.066796
-1551603.069457
-1552694.572119
-1553834.074780
-1555013.577442
-1556243.080103
-1613674.767606
-1614565.270267
-1615517.772928
-1616517.775590
-1617536.278251
-1618623.780913
-1619765.783574
-1620914.786235
-1622142.788897
-1680477.476399
-1681364.479061
-1682312.481722
-1683297.984383
-1684331.487045
-1685403.489706
-1686519.492368
-1687671.995029
-1688885.997690
-1748097.185193
-1748978.687854
-1749916.690516
-1750899.193177
-1751920.195838
-1752975.198500
-1754101.201161
-1755244.703823
-1756432.706484
-1816481.893987
-1817378.396648
-1818297.899309
-1819267.401971
-1820273.404632
-1821329.407293
-1822428.909955
-1823566.912616
-1824760.415278
-1885594.102780
-1886476.105442
-1887392.608103
-1888363.110764
-1889380.613426
-1890416.616087
-1891510.118748
-1892634.121410
-1893805.624071
-1955391.311574
-1956275.314235
-1957201.816897
-1958157.319558
-1959172.822219
-1960192.824881
-1961276.827542
-1962394.330203
-1963535.832865
-2025886.520367
-2026745.523029
-2027665.025690
-2028609.528352
-2029594.531013
-2030631.533674
-2031688.036336
-2032797.038997
-2033935.541658
-2096966.229161
-2097833.231822
-2098735.234484
-2099685.237145
-2100662.239807
-2101690.742468
-2102741.745129
-2103832.247791
-2104959.250452
-2168616.437955
-2169497.440616
-2170395.943278
-2171329.445939
-2172300.948600
-2173328.951262
-2174365.453923
-2175444.456584
-2176553.959246
-2240838.646748
-2241704.149410
-2242617.152071
-2243555.654733
-2244514.657394
-2245503.160055
-2246549.162717
-2247609.665378
-2248699.168039
-2313584.855542
-2314450.858203
-2315337.860865
-2316262.363526
-2317206.866188
-2318209.368849
-2319232.371510
-2320285.374172
-2321357.376833
-2386797.064336
-2387649.066997
-2388529.069658
-2389457.572320
-2390406.074981
-2391382.077643
-2392386.580304
-2393427.582965
-2394500.585627
-2460448.773129
-2461291.775791
-2462173.778452
-2463085.281113
-2464022.783775
-2464987.786436
-2465985.789098
-2467024.791759
-2468082.294420
-2534501.481923
-2535344.484584
-2536217.487246
-2537112.989907
-2538060.992568
-2539014.995230
-2539993.997891
-2541024.000553
-2542050.003214
-2608906.690717
-2609766.693378
-2610630.196039
-2611526.198701
-2612460.201362
-2613396.704023
-2614377.206685
-2615376.209346
-2616409.712008
-2683677.399510
-2684511.402172
-2685380.404833
-2686258.407494
-2687192.410156
-2688126.912817
-2689078.915478
-2690069.918140
-2691101.920801
-2758752.608304
-2759563.110965
-2760433.113627
-2761323.116288
-2762223.118949
-2763146.121611
-2764100.624272
-2765076.626933
-2766082.629595
-2834074.317098
-2834892.819759
-2835752.322420
-2836622.325082
-2837534.827743
-2838444.830404
-2839380.333066
-2840357.835727
-2841329.838388
-2909632.525891
-2910456.528553
-2911306.531214
-2912168.533875
-2913050.036537
-2913961.539198
-2914896.541859
-2915855.044521
-2916833.047182
-2985394.734685
-2986214.237346
-2987056.740008
-2987927.742669
-2988797.745330
-2989700.747992
-2990611.250653
-2991547.753314
-2992526.755976
-3061337.443478
-3062164.446140
-3062979.448801
-3063843.951463
-3064689.954124
-3065606.456785
-3066505.959447
-3067434.962108
-3068396.964769
-3137430.652272
-3138242.654933
-3139041.157595
-3139899.160256
-3140779.662918
-3141652.165579
-3142548.668240
-3143455.170902
-3144396.173563
-3213617.861066
-3214430.363727
-3215239.366388
-3216069.369050
-3216928.371711
-3217793.374373
-3218684.877034
-3219598.879695
-3220499.382357
-3289885.069859
-3290683.572521
-3291495.575182
-3292323.577843
-3293170.080505
-3294030.083166
-3294913.085828
-3295802.588489
-3296706.591150
-3366204.778653
-3367003.781314
-3367810.783976
-3368618.286637
-3369457.289298
-3370318.291960
-3371178.794621
-3372063.297283
-3372944.299944
-3442549.987447
-3443329.490108
-3444150.992769
-3444949.995431
-3445781.998092
-3446622.000753
-3447484.003415
-3448344.006076
-3449236.008738
-3518886.696240
-3519678.198902
-3520466.201563
-3521268.204224
-3522089.706886
-3522932.709547
-3523764.712208
-3524620.714870
-3525491.717531
-3595197.905034
-3595977.407695
-3596766.910357
-3597562.913018
-3598363.915679
-3599201.418341
-3600024.421002
-3600872.423664
-3601724.426325
-3671450.113828
-3672220.116489
-3672990.119150
-3673787.621812
-3674594.124473
-3675421.127134
-3676236.629796
-3677054.632457
-3677886.135119
-3747607.322621
-3748395.325283
-3749154.327944
-3749946.830605
-3750742.333267
-3751538.835928
-3752344.838589
-3753177.841251
-3754002.343912
-3823668.031415
-3824430.034076
-3825212.536738
-3825988.039399
-3826761.042060
-3827562.544722
-3828362.547383
-3829169.050044
-3829988.052706
-3899602.240208
-3900358.742870
-3901118.745531
-3901894.748193
-3902665.750854
-3903442.753515
-3904241.256177
-3905038.758838
-3905836.261499
-3975364.449002
-3976114.451663
-3976865.454325
-3977642.956986
-3978407.959648
-3979179.962309
-3979962.464970
-3980746.467632
-3981546.470293
-4050938.157796
-4051696.160457
-4052451.663118
-4053208.165780
-4053970.668441
-4054732.171103
-4055516.173764
-4056273.676425
-4057052.179087
-4126336.366589
-4127090.369251
-4127831.871912
-4128587.374574
-4129329.877235
-4130082.879896
-4130836.382558
-4131601.885219
-4132381.887880
-4201510.075383
-4202247.078044
-4202995.080706
-4203738.083367
-4204476.586029
-4205217.588690
-4205972.591351
-4206726.094013
-4207484.096674
-4276434.784177
-4277164.286838
-4277905.289499
-4278644.792161
-4279372.294822
-4280104.797484
-4280853.300145
-4281581.802806
-4282336.805468
-4351099.992970
-4351837.995632
-4352559.498293
-4353288.500954
-4354019.503616
-4354747.506277
-4355468.008939
-4356199.511600
-4356926.514261
-4425485.701764
-4426213.704425
-4426931.707087
-4427652.209748
-4428373.712409
-4429093.215071
-4429813.217732
-4430528.220394
-4431259.223055
-4499568.910558
-4500292.913219
-4501009.415880
-4501725.918542
-4502434.421203
-4503143.423864
-4503867.926526
-4504570.429187
-4505270.431849
-4573328.619351
-4574058.122013
-4574762.124674
-4575462.627335
-4576181.629997
-4576887.632658
-4577590.135319
-4578282.137981
-4578978.140642
-4646779.828145
-4647499.330806
-4648201.833468
-4648914.336129
-4649594.838790
-4650289.341452
-4650980.844113
-4651656.346774
-4652340.349436
-4719866.036939
-4720574.539600
-4721267.042261
-4721976.044923
-4722670.047584
-4723340.550245
-4724031.552907
-4724702.055568
-4725378.058229
SCALARS stress_2 float
LOOKUP_TABLE default
65156.683633
-659323.437874
-648738.136355
-638168.834837
-627527.533318
-616638.231799
-605932.930280
-595083.628761
-584170.327242
-573177.025724
-562359.724205
-551278.422686
-540237.121167
-529147.819648
-518002.518129
-506801.216610
-495719.915092
-484630.613573
-473429.312054
-462204.010535
-451010.709016
-439857.407497
-428672.105979
-417382.804460
-406277.502941
-395060.201422
-383874.899903
-372801.598384
-361680.296865
-350678.995347
-339605.693828
-328596.392309
-317547.090790
-306665.789271
-295840.487752
-285159.186233
-274373.884715
-263628.583196
-253147.281677
-242649.980158
-232192.678639
-221927.377120
-211710.075602
-201516.774083
-191483.472564
-181778.171045
-171816.869526
-162127.568007
-152590.266488
-143212.964970
-133867.663451
-124762.361932
-115769.060413
-107055.758894
-98262.457375
-89749.155857
-81419.854338
-73122.552819
-65201.251300
-57319.949781
-49638.648262
-42173.346743
-34908.045225
-27874.743706
-20913.442187
-14208.140668
-7662.839149
-1357.537630
4683.763888
10621.065407
16318.366926
21711.668445
27040.969964
32154.271483
36963.573002
41492.874520
46046.176039
50135.477558
54224.779077
57954.080596
61747.382115
-578712.806434
123567.315073
121038.013554
118068.712036
115203.410517
111970.108998
108512.807479
104839.505960
100934.204441
96700.902923
92387.601404
87770.299885
83000.998366
77951.696847
72814.395328
67229.093809
61667.792291
55642.490772
49601.189253
43319.887734
36750.586215
30013.284696
23075.983178
15954.681659
8633.380140
1160.078621
-6617.222898
-14506.524417
-22555.825936
-30757.127454
-39326.428973
-47823.730492
-56601.032011
-65578.333530
-74627.635049
-83740.936568
-93038.238086
-102543.539605
-112168.841124
-121986.142643
-131675.444162
-141676.745681
-151790.047199
-161951.348718
-172288.650237
-182753.951756
-193187.253275
-203884.554794
-214445.856313
-225063.157831
-235872.459350
-246601.760869
-257595.062388
-268484.363907
-279517.665426
-290542.966944
-301592.268463
-312713.569982
-323834.871501
-335036.173020
-346165.474539
-357438.776058
-368712.077576
-379849.379095
-391026.680614
-402227.982133
-413469.283652
-424606.585171
-435831.886689
-447049.188208
-458146.489727
-469251.791246
-480397.092765
-491422.394284
-502511.695803
-513536.997321
-524498.298840
-535499.600359
-546388.901878
-557270.203397
-568023.504916
-586782.669578
-594908.532722
-602898.395866
-610944.259010
-619022.122154
-627123.985298
-635185.848442
-643279.711586
-651317.574730
70978.546777
76888.409921
82766.273065
88652.136209
94529.999353
100303.862497
106261.725641
111971.588785
117849.451929
115128.150410
109290.287266
103356.424123
97326.560979
91576.697835
85618.834691
79660.971547
73663.108403
67609.245259
112278.848892
106360.985748
100363.122604
94325.259460
88287.396316
82329.533172
76291.670028
70205.806884
64071.943740
109109.547373
103199.684229
97025.821085
90915.957941
84894.094797
78808.231653
72610.368509
66508.505365
60518.642221
105788.245854
99622.382710
93560.519566
87442.656422
81220.793278
75014.930134
68873.066990
62747.203846
56477.340702
102330.944335
96101.081191
89815.218047
83569.354903
77339.491759
71093.628615
64783.765471
58625.902327
52292.039183
98601.642816
92187.779672
85965.916528
79664.053384
73218.190240
67012.327096
60718.463952
54344.600808
47954.737664
94552.341297
88194.478153
81740.615009
75422.751865
69032.888721
62611.025577
56213.162433
49783.299290
43393.436146
90239.039779
83953.176635
77499.313491
71061.450347
64519.587203
58089.724059
51699.860915
45173.997771
38736.134627
85925.738260
79407.875116
72874.011972
66428.148828
59918.285684
53280.422540
46730.559396
40148.696252
33598.833108
81252.436741
74670.573597
68128.710453
61426.847309
54940.984165
48295.121021
41745.257877
35067.394733
28389.531589
76339.135222
69757.272078
63063.408934
56489.545790
49747.682646
43061.819502
36455.956358
29714.093214
23004.230070
71225.833703
64499.970559
57854.107415
51104.244271
44386.381127
37684.517983
30886.654839
24080.791695
17354.928551
65920.532184
59266.669040
52492.805896
45590.942752
38929.079608
32131.216464
25189.353320
18455.490176
11545.627032
60455.230665
53609.367521
46771.504377
39893.641234
33039.778090
26177.914946
19372.051802
12454.188658
5552.325514
54773.929147
47792.066003
40954.202859
34052.339715
27110.476571
20120.613427
13106.750283
6308.887139
-816.976005
48796.627628
41822.764484
34856.901340
27899.038196
20909.175052
13839.311908
6761.448764
-244.414380
-7178.277524
42539.326109
35533.462965
28575.599821
21513.736677
14355.873533
7414.010389
328.147245
-6765.715899
-13763.579043
36202.024590
29124.161446
22062.298302
14936.435158
7794.572014
684.708870
-6401.154274
-13503.017418
-20724.880562
29600.723071
22554.859927
15292.996783
8199.133639
1041.270495
-6132.592649
-13330.455793
-20480.318937
-27718.182081
22911.421552
15649.558408
8459.695264
1269.832120
-6000.031024
-13173.894168
-20323.757312
-27649.620455
-34999.483599
15862.120034
8544.256890
1346.393746
-5779.469398
-13137.332542
-20399.195686
-27829.058830
-35066.921974
-42424.785118
8748.818515
1350.955371
-5918.907773
-13244.770917
-20578.634061
-27824.497205
-35238.360349
-42588.223493
-49898.086637
1299.516996
-6106.346148
-13432.209292
-20814.072436
-28147.935580
-35473.798724
-42935.661868
-50325.525012
-57699.388156
-6221.784523
-13651.647667
-21049.510811
-28431.373955
-35941.237099
-43411.100243
-50840.963387
-58286.826531
-65716.689675
-14047.086042
-21420.949186
-28930.812330
-36400.675474
-43838.538618
-51404.401762
-58866.264906
-66400.128050
-73837.991194
-22016.387561
-29550.250705
-36884.113849
-44505.976993
-52031.840137
-59501.703281
-67115.566425
-74625.429569
-82239.292713
-30121.689080
-37583.552224
-45165.415368
-52755.278512
-60321.141655
-67839.004799
-75508.867943
-83018.731087
-90648.594231
-38394.990598
-45936.853742
-53558.716886
-61236.580030
-68746.443174
-76432.306318
-84046.169462
-91684.032606
-99281.895750
-46876.292117
-54546.155261
-62144.018405
-69701.881549
-77251.744693
-85065.607837
-92703.470981
-100517.334125
-108083.197269
-55413.593636
-63179.456780
-70929.319924
-78511.183068
-86157.046212
-93874.909356
-101528.772500
-109294.635644
-117076.498788
-64238.895155
-72004.758299
-79674.621443
-87408.484587
-95174.347731
-102876.210875
-110674.074019
-118319.937163
-126165.800307
-73272.196674
-80918.059818
-88659.922962
-96401.786106
-104271.649250
-112037.512394
-119763.375538
-127505.238682
-135351.101826
-82297.498193
-90119.361337
-97853.224481
-105691.087625
-113472.950769
-121278.813913
-129076.677057
-136914.540201
-144776.403344
-91530.799711
-99352.662855
-107166.525999
-114972.389143
-122842.252287
-130656.115431
-138509.978575
-146483.841719
-154321.704863
-100916.101230
-108841.964374
-116575.827518
-124493.690662
-132347.553806
-140177.416950
-148127.280094
-156053.143238
-163891.006382
-110429.402749
-118483.265893
-126193.129037
-134142.992181
-141956.855325
-149906.718469
-157752.581613
-165710.444757
-173652.307901
-120110.704268
-127908.567412
-135842.430556
-143808.293700
-151686.156844
-159652.019988
-167641.883132
-175623.746276
-183589.609420
-129736.005787
-137773.868931
-145811.732075
-153681.595219
-161655.458363
-169557.321507
-177595.184651
-185513.047795
-193510.910939
-139713.307306
-147687.170450
-155589.033594
-163586.896738
-171648.759882
-179662.623026
-187524.486170
-195554.349314
-203632.212458
-149778.608825
-157672.471969
-165726.335113
-173684.198257
-181730.061401
-189807.924544
-197773.787688
-205827.650832
-213921.513976
-159859.910343
-167873.773487
-175879.636631
-183949.499775
-191939.362919
-200001.226063
-208063.089207
-216068.952351
-224194.815495
-170029.211862
-178019.075006
-186088.938150
-194134.801294
-202308.664438
-210322.527582
-218368.390726
-226382.253870
-234540.117014
-180358.513381
-188356.376525
-196466.239669
-204608.102813
-212669.965957
-220739.829101
-228889.692245
-236991.555389
-245053.418533
-190743.814900
-198909.678044
-206923.541188
-215009.404332
-223087.267476
-231237.130620
-239314.993764
-247464.856908
-255550.720052
-201313.116419
-209454.979563
-217468.842707
-225530.705851
-233592.568995
-241822.432139
-249908.295283
-258122.158427
-266208.021571
-211850.417938
-219968.281082
-228078.144226
-236236.007370
-244353.870514
-252527.733658
-260525.596802
-268723.459946
-276881.323090
-222491.719457
-230617.582600
-238647.445744
-246925.308888
-254955.172032
-263193.035176
-271246.898320
-279508.761464
-287594.624608
-233197.020975
-241346.884119
-249528.747263
-257590.610407
-265700.473551
-274034.336695
-282216.199839
-290390.062983
-298475.926127
-244014.322494
-252060.185638
-260274.048782
-268487.911926
-276813.775070
-284955.638214
-292953.501358
-301223.364502
-309469.227646
-254847.624013
-263045.487157
-271139.350301
-279401.213445
-287575.076589
-295772.939733
-303986.802877
-312112.666021
-320350.529165
-265792.925532
-273854.788676
-282004.651820
-290306.514964
-298560.378108
-306638.241252
-314924.104396
-323065.967540
-331279.830684
-276714.227051
-284928.090195
-293109.953339
-301283.816483
-309433.679627
-317711.542771
-325989.405915
-334139.269059
-342377.132203
-287723.528570
-295953.391714
-304039.254858
-312365.118002
-320514.981146
-328808.844289
-336998.707433
-345236.570577
-353514.433721
-298676.830088
-306906.693232
-315168.556376
-323382.419520
-331636.282664
-339922.145808
-348096.008952
-356309.872096
-364571.735240
-309838.131607
-318067.994751
-326249.857895
-334543.721039
-342773.584183
-351011.447327
-359145.310471
-367327.173615
-375621.036759
-320895.433126
-329237.296270
-337427.159414
-345681.022558
-353830.885702
-362100.748846
-370314.611990
-378584.475134
-386846.338278
-332048.734645
-340310.597789
-348572.460933
-356778.324077
-365024.187221
-373222.050365
-381379.913509
-389809.776653
-397911.639797
-343154.036164
-351447.899308
-359669.762452
-367947.625596
-376241.488740
-384367.351884
-392709.215028
-400891.078172
-409168.941316
-354363.337683
-362641.200827
-370943.063971
-379124.927115
-387362.790259
-395688.653403
-403838.516547
-412140.379691
-420418.242835
-365572.639202
-373842.502346
-382096.365489
-390358.228633
-398652.091777
-406761.954921
-415031.818065
-423301.681209
-431603.544353
-376853.940720
-385035.803864
-393321.667008
-401495.530152
-409733.393296
-418011.256440
-426313.119584
-434502.982728
-442708.845872
-388039.242239
-396253.105383
-404402.968527
-412816.831671
-421078.694815
-429252.557959
-437458.421103
-445680.284247
-453910.147391
-399128.543758
-407574.406902
-415732.270046
-423906.133190
-432207.996334
-440357.859478
-448595.722622
-456857.585766
-465159.448910
-410441.845277
-418639.708421
-426941.571565
-435187.434709
-443329.297853
-451615.160997
-459861.024141
-468042.887285
-476352.750429
-421595.146796
-429865.009940
-438126.873084
-446364.736228
-454594.599372
-462816.462516
-471094.325660
-479252.188804
-487554.051948
-432892.448315
-441018.311459
-449264.174603
-457558.037747
-465755.900891
-473985.764035
-482255.627178
-490469.490322
-498603.353466
-444061.749833
-452299.612977
-460521.476121
-468711.339265
-476853.202409
-485187.065553
-493400.928697
-501606.791841
-509804.654985
-455215.051352
-463412.914496
-471626.777640
-479840.640784
-488062.503928
-496260.367072
-504498.230216
-512680.093360
-520877.956504
-466368.352871
-474542.216015
-482788.079159
-490881.942303
-499151.805447
-507373.668591
-515555.531735
-523785.394879
-531959.258023
-477497.654390
-485663.517534
-493877.380678
-502059.243822
-510265.106966
-518502.970110
-526668.833254
-534826.696398
-542976.559542
-488618.955909
-496760.819053
-504974.682197
-513124.545341
-521194.408485
-529488.271629
-537678.134773
-545867.997917
-554049.861061
-499564.257428
-507746.120572
-515951.983716
-524261.846860
-532323.710004
-540537.573148
-548631.436292
-556805.299436
-565099.162580
-510725.558947
-518947.422091
-527081.285234
-535183.148378
-543349.011522
-551482.874666
-559680.737810
-567862.600954
-576028.464098
-521726.860465
-529772.723609
-537970.586753
-546104.449897
-554302.313041
-562556.176185
-570626.039329
-578687.902473
-586869.765617
-532664.161984
-540822.025128
-548955.888272
-557113.751416
-565167.614560
-573437.477704
-581435.340848
-589585.203992
-597695.067136
-543569.463503
-551775.326647
-559757.189791
-567971.052935
-575984.916079
-584190.779223
-592292.642367
-600450.505511
-608520.368655
-554514.765022
-562512.628166
-570734.491310
-578796.354454
-586914.217598
-595056.080742
-603173.943886
-611243.807030
-619329.670174
-565412.066541
-573329.929685
-581455.792829
-589573.655973
-597739.519117
-605817.382261
-613799.245405
-621949.108549
-629994.971693
-576077.368060
-584259.231204
-592161.094348
-600246.957492
-608420.820636
-616434.683780
-624560.546924
-632534.410067
-640716.273211
SCALARS stress_3 float
LOOKUP_TABLE default
20963.286113
1358498.953147
1339334.457309
1320113.961471
1300743.465633
1281254.969795
1261674.473957
1241967.978119
1222209.482281
1202376.986443
1182520.490605
1162505.994768
1142427.498930
1122309.003092
1102156.507254
1081948.011416
1061717.515578
1041345.019740
1020972.523902
1000600.028064
980173.532226
959795.036388
939366.540550
918906.044713
898513.548875
878097.053037
857710.557199
837374.061361
817019.565523
796789.069685
776588.573847
756420.078009
736299.582171
716321.086333
696396.590495
676610.094658
656883.598820
637261.102982
617820.607144
598460.111306
579279.615468
560221.119630
541316.623792
522584.127954
504065.632116
485759.136278
467632.640440
449724.144603
431957.648765
414535.152927
397152.657089
380194.161251
363431.665413
347019.169575
330754.673737
314820.177899
299271.682061
283875.186223
268836.690385
254140.194548
239729.698710
225645.202872
211920.707034
198556.211196
185505.715358
172817.219520
160490.723682
148518.227844
136919.732006
125731.236168
114808.740330
104394.244493
94301.748655
84565.252817
75288.756979
66342.261141
57829.765303
49667.269465
41954.773627
34496.277789
27579.781951
1323567.962071
-11153.704962
-4899.209125
1855.286713
8913.782551
16470.278389
24364.774227
32661.270065
41323.765903
50394.261741
59906.757579
69751.253417
80061.749255
90708.245093
101680.740930
113075.236768
124925.732606
137056.228444
149662.724282
162493.220120
175725.715958
189350.211796
203266.707634
217531.203472
232165.699310
247098.195148
262316.690985
277807.186823
293631.682661
309784.178499
326210.674337
342873.170175
359801.666013
377000.161851
394434.657689
412113.153527
430013.649365
448090.145203
466408.641041
484891.136878
503627.632716
522502.128554
541492.624392
560723.120230
580045.616068
599552.111906
619146.607744
638889.103582
658767.599420
678698.095258
698736.591096
718847.086933
739079.582771
759282.078609
779630.574447
799959.070285
820431.566123
840824.061961
861290.557799
881781.053637
902303.549475
922810.045313
943312.541151
963769.036988
984257.532826
1004696.028664
1025092.524502
1045461.020340
1065761.516178
1086034.012016
1106252.507854
1126433.003692
1146501.499530
1166501.995368
1186422.491206
1206332.987043
1226085.482881
1245791.978719
1265344.474557
1284852.970395
1304223.466233
1327090.461179
1330528.960286
1334013.459394
1337583.958501
1341068.457609
1344566.956716
1348027.455824
1351551.954932
1355038.454039
17680.787006
14420.287898
11143.788791
7917.289683
4724.790575
1502.291468
-1722.207640
-4824.706747
-8049.205855
-1696.710017
1451.789091
4700.288198
7910.787306
11149.286413
14399.785521
17628.284629
20948.783736
24233.282844
5075.785821
8244.284929
11454.784036
14733.283144
17987.782251
21282.281359
24562.780466
27865.279574
31211.778682
12126.281659
15430.780766
18667.279874
21923.778982
25224.278089
28534.777197
31873.276304
35179.775412
38558.274520
19676.777497
22955.276604
26253.775712
29540.274820
32830.773927
36225.273035
39557.772142
42874.271250
46286.770357
27597.273335
30901.772442
34234.271550
37508.770657
40883.269765
44231.768873
47626.267980
51000.767088
54399.266195
35963.769173
39260.268280
42596.767388
45955.266495
49271.765603
52642.264711
56092.763818
59471.262926
62925.762033
44664.265011
47930.764118
51345.263226
54721.762333
58064.261441
61474.760548
64953.259656
68359.758764
71796.257871
53736.760848
57145.259956
60495.759064
63890.258171
67328.757279
70725.256386
74165.755494
77668.254602
81130.753709
63271.256686
66647.755794
70040.254902
73458.754009
76905.253117
80341.752224
83816.251332
87280.750439
90783.249547
73149.752524
76570.251632
79984.750739
83439.249847
86877.748955
90310.248062
93844.747170
97355.246277
100837.745385
83406.248362
86830.747470
90263.246577
93791.745685
97234.244793
100726.743900
104223.243008
107741.742115
111324.241223
94120.744200
97615.243308
101035.742415
104510.241523
107978.740630
111487.239738
115053.738846
118574.237953
122184.737061
105153.240038
108611.739146
112088.238253
115596.737361
119113.236468
122607.735576
126188.234684
129772.733791
133343.232899
116565.735876
120058.234984
123556.734091
127121.233199
130591.732306
134164.231414
137764.730521
141323.229629
144877.728737
128394.231714
131892.730821
135437.229929
138921.729037
142518.228144
146058.727252
149659.226359
153267.725467
156844.224575
140616.727552
144103.226659
147641.725767
151212.224875
154756.723982
158319.223090
161921.722197
165568.221305
169146.720412
153127.223390
156679.722497
160224.221605
163782.720712
167381.219820
170933.718928
174532.218035
178226.717143
181883.216250
166047.719228
169602.218335
173162.717443
176759.216550
180319.715658
183968.214766
187570.713873
191189.212981
194871.712088
179254.215066
182860.714173
186423.213281
190051.712388
193658.211496
197238.710603
200967.209711
204579.708819
208268.207926
192936.710903
196503.210011
200109.709119
203698.208226
207300.707334
210967.206441
214613.705549
218256.204657
222004.703764
206825.206741
210399.705849
214054.204957
217668.704064
221305.203172
224937.702279
228636.201387
232322.700494
236047.199602
221133.702579
224740.201687
228348.700794
231953.199902
235657.699010
239312.198117
242974.697225
246707.196332
250445.695440
235758.198417
239350.697525
242999.196632
246625.695740
250270.194848
253992.693955
257691.193063
261411.692170
265138.191278
250674.694255
254331.193363
257917.692470
261608.191578
265290.690685
268951.189793
272637.688901
276424.188008
280152.687116
265893.190093
269567.689201
273182.188308
276896.687416
280581.186523
284277.685631
287988.184739
291736.683846
295449.182954
281481.685931
285122.185039
288816.684146
292467.183254
296197.682361
299934.181469
303646.680576
307343.179684
311123.678792
297306.181769
300988.680876
304633.179984
308311.679092
312078.178199
315808.677307
319523.176414
323275.675522
326964.174630
313440.677607
317107.176714
320795.675822
324478.174930
328222.674037
331967.173145
335693.672252
339496.171360
343208.670467
329791.173445
333535.672552
337240.171660
340922.670767
344663.169875
348373.668983
352148.168090
355922.667198
359685.166305
346517.669283
350222.168390
353908.667498
357641.166605
361393.665713
365128.164821
368908.663928
372641.163036
376437.662143
363458.165121
367144.664228
370895.163336
374627.662443
378340.161551
382086.660658
385837.159766
389661.658874
393438.157981
380702.660958
384367.160066
388101.659174
391836.158281
395590.657389
399321.156496
403073.655604
406882.154712
410700.653819
398157.156796
401809.655904
405508.155012
409290.654119
413077.153227
416795.652334
420576.151442
424378.650549
428163.149657
415779.652634
419468.151742
423246.650849
426995.149957
430723.649065
434516.148172
438260.647280
442069.146387
445845.645495
433694.148472
437418.647580
441083.146687
444879.645795
448676.144903
452434.644010
456195.143118
459961.642225
463804.141333
451796.644310
455479.143418
459277.642525
463016.141633
466804.640740
470513.139848
474339.638956
478122.138063
481950.637171
470133.140148
473865.639256
477566.138363
481342.637471
485109.136578
488903.635686
492688.134794
496480.633901
500307.133009
488621.635986
492360.135094
496166.634201
499849.133309
503647.632416
507388.131524
511214.630631
514963.129739
518819.628847
507356.131824
511086.630931
514805.130039
518561.629147
522346.128254
526122.627362
529875.126469
533707.625577
537520.124685
526234.627662
529957.126769
533679.625877
537460.124985
541226.624092
544987.123200
548783.622307
552566.121415
556402.620522
545233.123500
548973.622607
552728.121715
556508.620822
560241.119930
564071.619038
567832.118145
571666.617253
575403.116360
564411.619338
568196.118445
571934.617553
575709.116660
579495.615768
583248.114876
587016.613983
590855.113091
594627.612198
583772.115176
587530.614283
591293.113391
595041.612498
598816.111606
602596.610713
606393.109821
610189.608929
613996.108036
603252.611013
607045.110121
610797.609229
614516.108336
618348.607444
622057.106551
625835.605659
629654.104767
633512.603874
622893.106851
626643.605959
630410.105067
634158.604174
637941.103282
641707.602389
645462.101497
649270.600604
653083.099712
642617.602689
646398.101797
650086.600904
653901.100012
657673.599120
661400.098227
665164.597335
668993.096442
672789.595550
662484.098527
666194.597635
669937.096742
673703.595850
677464.094958
681218.594065
685037.093173
688801.592280
692612.091388
682436.594365
686169.093473
689885.592580
693630.091688
697410.590795
701139.089903
704983.589011
708762.088118
712524.587226
702489.090203
706149.589311
709934.088418
713682.587526
717505.086633
721175.585741
724976.084849
728760.583956
732545.083064
722527.586041
726304.085149
730044.584256
733823.083364
737559.582471
741324.081579
745034.580686
748883.079794
752657.578902
742740.081879
746508.580986
750265.080094
753967.579202
757742.078309
761498.577417
765247.076524
769025.575632
772820.074740
762994.577717
766787.076824
770479.575932
774250.075040
777940.574147
781697.073255
785453.572362
789234.071470
793042.570577
783341.073555
787053.572662
790804.071770
794564.570877
798313.069985
802049.569093
805758.068200
809540.567308
813263.066415
803699.569393
807422.068500
811086.567608
814901.066715
818657.565823
822360.064931
826144.564038
829867.063146
833585.562253
824102.065231
827866.564338
831551.063446
835275.562553
838964.061661
842744.560768
846453.059876
850223.558984
853930.058091
844530.561069
848281.060176
852043.559284
855680.058391
859402.557499
863163.056606
866909.555714
870596.054822
874362.553929
865013.056906
868727.556014
872458.055122
876134.554229
879857.053337
883589.552444
887332.051552
891080.550659
894805.049767
885495.552744
889212.051852
892910.550959
896631.050067
900257.549175
904032.048282
907752.547390
911521.046497
915223.545605
906018.048582
909672.547690
913351.046797
917101.545905
920800.045013
924498.544120
928233.043228
931897.542335
935644.041443
926482.544420
930155.043528
933849.542635
937584.041743
941244.540850
944953.039958
948653.539066
952348.038173
956078.537281
946947.040258
950653.539366
954322.038473
958056.537581
961705.036688
965403.535796
969166.034904
972836.534011
976465.033119
967447.536096
971148.035204
974782.534311
978443.033419
982203.532526
985780.031634
989524.530741
993247.029849
996927.528957
987922.031934
991572.531041
995243.030149
998907.529257
1002622.028364
1006224.527472
1009931.026579
1013599.525687
1017320.024795
1008330.527772
1012001.026879
1015669.525987
1019326.025095
1022986.524202
1026667.023310
1030343.522417
1033938.021525
1037720.520632
1028743.023610
1032387.522717
1036012.021825
1039674.520932
1043321.020040
1046981.519148
1050684.018255
1054306.517363
1057957.016470
1049087.519448
1052732.018555
1056422.517663
1060015.016770
1063619.515878
1067344.014986
1070966.514093
1074637.013201
1078257.512308
1069396.015286
1073048.514393
1076689.013501
1080293.512608
1083940.011716
1087576.510823
1091241.009931
1094885.509039
1098516.008146
1089690.511124
1093243.010231
1096915.509339
1100570.008446
1104170.507554
1107781.006661
1111461.505769
1115066.004877
1118688.503984
1109877.006961
1113501.506069
1117110.005177
1120746.504284
1124379.003392
1127949.502499
1131600.001607
1135188.500714
1138852.999822
1130029.502799
1133620.001907
1137214.501014
1140883.000122
1144515.499230
1148065.998337
1151714.497445
1155306.996552
1158941.495660
1150127.998637
1153754.497745
1157334.996852
1160927.495960
1164523.995068
1168098.494175
1171706.993283
1175263.492390
1178899.991498
1170116.494475
1173712.993583
1177299.492690
1180889.991798
1184470.490905
1188044.990013
1191687.489121
1195185.988228
1198822.487336
1190050.990313
1193621.489421
1197223.988528
1200796.487636
1204364.986743
1207905.485851
1211541.984959
1215066.484066
1218682.983174
1209911.486151
1213487.985259
1217020.484366
1220620.983474
1224185.482581
1227717.981689
1231286.480796
1234922.979904
1238411.479012
1229693.981989
1233194.481097
1236762.980204
1240307.479312
1243887.978419
1247420.477527
1251000.976634
1254557.475742
1258123.974850
1249342.477827
1252868.976934
1256425.476042
1260007.975150
1263522.474257
1267046.973365
1270597.472472
1274153.971580
1277636.470687
1268922.973665
1272459.472772
1275995.971880
1279564.470987
1283050.970095
1286597.469203
1290159.968310
1293640.467418
1297190.966525
1288425.469503
1291949.968610
1295424.467718
1298960.966825
1302463.465933
1306019.965041
1309510.464148
1313078.963256
1316561.462363
1307785.965341
1311274.464448
1314860.963556
1318327.462663
1321871.961771
1325296.460878
1328814.959986
1332373.459094
1335879.958201
