# vtk DataFile Version 2.0
Generated volume Mesh
ASCII
DATASET UNSTRUCTURED_GRID
POINTS 891 float
0.005000 0.100000 0.000000
0.005000 0.000000 0.000000
0.005000 0.001250 0.000000
0.005000 0.002500 0.000000
0.005000 0.003750 0.000000
0.005000 0.005000 0.000000
0.005000 0.006250 0.000000
0.005000 0.007500 0.000000
0.005000 0.008750 0.000000
0.005000 0.010000 0.000000
0.005000 0.011250 0.000000
0.005000 0.012500 0.000000
0.005000 0.013750 0.000000
0.005000 0.015000 0.000000
0.005000 0.016250 0.000000
0.005000 0.017500 0.000000
0.005000 0.018750 0.000000
0.005000 0.020000 0.000000
0.005000 0.021250 0.000000
0.005000 0.022500 0.000000
0.005000 0.023750 0.000000
0.005000 0.025000 0.000000
0.005000 0.026250 0.000000
0.005000 0.027500 0.000000
0.005000 0.028750 0.000000
0.005000 0.030000 0.000000
0.005000 0.031250 0.000000
0.005000 0.032500 0.000000
0.005000 0.033750 0.000000
0.005000 0.035000 0.000000
0.005000 0.036250 0.000000
0.005000 0.037500 0.000000
0.005000 0.038750 0.000000
0.005000 0.040000 0.000000
0.005000 0.041250 0.000000
0.005000 0.042500 0.000000
0.005000 0.043750 0.000000
0.005000 0.045000 0.000000
0.005000 0.046250 0.000000
0.005000 0.047500 0.000000
0.005000 0.048750 0.000000
0.005000 0.050000 0.000000
0.005000 0.051250 0.000000
0.005000 0.052500 0.000000
0.005000 0.053750 0.000000
0.005000 0.055000 0.000000
0.005000 0.056250 0.000000
0.005000 0.057500 0.000000
0.005000 0.058750 0.000000
0.005000 0.060000 0.000000
0.005000 0.061250 0.000000
0.005000 0.062500 0.000000
0.005000 0.063750 0.000000
0.005000 0.065000 0.000000
0.005000 0.066250 0.000000
0.005000 0.067500 0.000000
0.005000 0.068750 0.000000
0.005000 0.070000 0.000000
0.005000 0.071250 0.000000
0.005000 0.072500 0.000000
0.005000 0.073750 0.000000
0.005000 0.075000 0.000000
0.005000 0.076250 0.000000
0.005000 0.077500 0.000000
0.005000 0.078750 0.000000
0.005000 0.080000 0.000000
0.005000 0.081250 0.000000
0.005000 0.082500 0.000000
0.005000 0.083750 0.000000
0.005000 0.085000 0.000000
0.005000 0.086250 0.000000
0.005000 0.087500 0.000000
0.005000 0.088750 0.000000
0.005000 0.090000 0.000000
0.005000 0.091250 0.000000
0.005000 0.092500 0.000000
0.005000 0.093750 0.000000
0.005000 0.095000 0.000000
0.005000 0.096250 0.000000
0.005000 0.097500 0.000000
0.005000 0.098750 0.000000
0.000000 0.000000 0.000000
0.000000 0.100000 0.000000
0.000000 0.098750 0.000000
0.000000 0.097500 0.000000
0.000000 0.096250 0.000000
0.000000 0.095000 0.000000
0.000000 0.093750 0.000000
0.000000 0.092500 0.000000
0.000000 0.091250 0.000000
0.000000 0.090000 0.000000
0.000000 0.088750 0.000000
0.000000 0.087500 0.000000
0.000000 0.086250 0.000000
0.000000 0.085000 0.000000
0.000000 0.083750 0.000000
0.000000 0.082500 0.000000
0.000000 0.081250 0.000000
0.000000 0.080000 0.000000
0.000000 0.078750 0.000000
0.000000 0.077500 0.000000
0.000000 0.076250 0.000000
0.000000 0.075000 0.000000
0.000000 0.073750 0.000000
0.000000 0.072500 0.000000
0.000000 0.071250 0.000000
0.000000 0.070000 0.000000
0.000000 0.068750 0.000000
0.000000 0.067500 0.000000
0.000000 0.066250 0.000000
0.000000 0.065000 0.000000
0.000000 0.063750 0.000000
0.000000 0.062500 0.000000
0.000000 0.061250 0.000000
0.000000 0.060000 0.000000
0.000000 0.058750 0.000000
0.000000 0.057500 0.000000
0.000000 0.056250 0.000000
0.000000 0.055000 0.000000
0.000000 0.053750 0.000000
0.000000 0.052500 0.000000
0.000000 0.051250 0.000000
0.000000 0.050000 0.000000
0.000000 0.048750 0.000000
0.000000 0.047500 0.000000
0.000000 0.046250 0.000000
0.000000 0.045000 0.000000
0.000000 0.043750 0.000000
0.000000 0.042500 0.000000
0.000000 0.041250 0.000000
0.000000 0.040000 0.000000
0.000000 0.038750 0.000000
0.000000 0.037500 0.000000
0.000000 0.036250 0.000000
0.000000 0.035000 0.000000
0.000000 0.033750 0.000000
0.000000 0.032500 0.000000
0.000000 0.031250 0.000000
0.000000 0.030000 0.000000
0.000000 0.028750 0.000000
0.000000 0.027500 0.000000
0.000000 0.026250 0.000000
0.000000 0.025000 0.000000
0.000000 0.023750 0.000000
0.000000 0.022500 0.000000
0.000000 0.021250 0.000000
0.000000 0.020000 0.000000
0.000000 0.018750 0.000000
0.000000 0.017500 0.000000
0.000000 0.016250 0.000000
0.000000 0.015000 0.000000
0.000000 0.013750 0.000000
0.000000 0.012500 0.000000
0.000000 0.011250 0.000000
0.000000 0.010000 0.000000
0.000000 0.008750 0.000000
0.000000 0.007500 0.000000
0.000000 0.006250 0.000000
0.000000 0.005000 0.000000
0.000000 0.003750 0.000000
0.000000 0.002500 0.000000
0.000000 0.001250 0.000000
0.000500 0.000000 0.000000
0.001000 0.000000 0.000000
0.001500 0.000000 0.000000
0.002000 0.000000 0.000000
0.002500 0.000000 0.000000
0.003000 0.000000 0.000000
0.003500 0.000000 0.000000
0.004000 0.000000 0.000000
0.004500 0.000000 0.000000
0.004500 0.100000 0.000000
0.004000 0.100000 0.000000
0.003500 0.100000 0.000000
0.003000 0.100000 0.000000
0.002500 0.100000 0.000000
0.002000 0.100000 0.000000
0.001500 0.100000 0.000000
0.001000 0.100000 0.000000
0.000500 0.100000 0.000000
0.000500 0.098750 0.000000
0.001000 0.098750 0.000000
0.001500 0.098750 0.000000
0.002000 0.098750 0.000000
0.002500 0.098750 0.000000
0.003000 0.098750 0.000000
0.003500 0.098750 0.000000
0.004000 0.098750 0.000000
0.004500 0.098750 0.000000
0.000500 0.097500 0.000000
0.001000 0.097500 0.000000
0.001500 0.097500 0.000000
0.002000 0.097500 0.000000
0.002500 0.097500 0.000000
0.003000 0.097500 0.000000
0.003500 0.097500 0.000000
0.004000 0.097500 0.000000
0.004500 0.097500 0.000000
0.000500 0.096250 0.000000
0.001000 0.096250 0.000000
0.001500 0.096250 0.000000
0.002000 0.096250 0.000000
0.002500 0.096250 0.000000
0.003000 0.096250 0.000000
0.003500 0.096250 0.000000
0.004000 0.096250 0.000000
0.004500 0.096250 0.000000
0.000500 0.095000 0.000000
0.001000 0.095000 0.000000
0.001500 0.095000 0.000000
0.002000 0.095000 0.000000
0.002500 0.095000 0.000000
0.003000 0.095000 0.000000
0.003500 0.095000 0.000000
0.004000 0.095000 0.000000
0.004500 0.095000 0.000000
0.000500 0.093750 0.000000
0.001000 0.093750 0.000000
0.001500 0.093750 0.000000
0.002000 0.093750 0.000000
0.002500 0.093750 0.000000
0.003000 0.093750 0.000000
0.003500 0.093750 0.000000
0.004000 0.093750 0.000000
0.004500 0.093750 0.000000
0.000500 0.092500 0.000000
0.001000 0.092500 0.000000
0.001500 0.092500 0.000000
0.002000 0.092500 0.000000
0.002500 0.092500 0.000000
0.003000 0.092500 0.000000
0.003500 0.092500 0.000000
0.004000 0.092500 0.000000
0.004500 0.092500 0.000000
0.000500 0.091250 0.000000
0.001000 0.091250 0.000000
0.001500 0.091250 0.000000
0.002000 0.091250 0.000000
0.002500 0.091250 0.000000
0.003000 0.091250 0.000000
0.003500 0.091250 0.000000
0.004000 0.091250 0.000000
0.004500 0.091250 0.000000
0.000500 0.090000 0.000000
0.001000 0.090000 0.000000
0.001500 0.090000 0.000000
0.002000 0.090000 0.000000
0.002500 0.090000 0.000000
0.003000 0.090000 0.000000
0.003500 0.090000 0.000000
0.004000 0.090000 0.000000
0.004500 0.090000 0.000000
0.000500 0.088750 0.000000
0.001000 0.088750 0.000000
0.001500 0.088750 0.000000
0.002000 0.088750 0.000000
0.002500 0.088750 0.000000
0.003000 0.088750 0.000000
0.003500 0.088750 0.000000
0.004000 0.088750 0.000000
0.004500 0.088750 0.000000
0.000500 0.087500 0.000000
0.001000 0.087500 0.000000
0.001500 0.087500 0.000000
0.002000 0.087500 0.000000
0.002500 0.087500 0.000000
0.003000 0.087500 0.000000
0.003500 0.087500 0.000000
0.004000 0.087500 0.000000
0.004500 0.087500 0.000000
0.000500 0.086250 0.000000
0.001000 0.086250 0.000000
0.001500 0.086250 0.000000
0.002000 0.086250 0.000000
0.002500 0.086250 0.000000
0.003000 0.086250 0.000000
0.003500 0.086250 0.000000
0.004000 0.086250 0.000000
0.004500 0.086250 0.000000
0.000500 0.085000 0.000000
0.001000 0.085000 0.000000
0.001500 0.085000 0.000000
0.002000 0.085000 0.000000
0.002500 0.085000 0.000000
0.003000 0.085000 0.000000
0.003500 0.085000 0.000000
0.004000 0.085000 0.000000
0.004500 0.085000 0.000000
0.000500 0.083750 0.000000
0.001000 0.083750 0.000000
0.001500 0.083750 0.000000
0.002000 0.083750 0.000000
0.002500 0.083750 0.000000
0.003000 0.083750 0.000000
0.003500 0.083750 0.000000
0.004000 0.083750 0.000000
0.004500 0.083750 0.000000
0.000500 0.082500 0.000000
0.001000 0.082500 0.000000
0.001500 0.082500 0.000000
0.002000 0.082500 0.000000
0.002500 0.082500 0.000000
0.003000 0.082500 0.000000
0.003500 0.082500 0.000000
0.004000 0.082500 0.000000
0.004500 0.082500 0.000000
0.000500 0.081250 0.000000
0.001000 0.081250 0.000000
0.001500 0.081250 0.000000
0.002000 0.081250 0.000000
0.002500 0.081250 0.000000
0.003000 0.081250 0.000000
0.003500 0.081250 0.000000
0.004000 0.081250 0.000000
0.004500 0.081250 0.000000
0.000500 0.080000 0.000000
0.001000 0.080000 0.000000
0.001500 0.080000 0.000000
0.002000 0.080000 0.000000
0.002500 0.080000 0.000000
0.003000 0.080000 0.000000
0.003500 0.080000 0.000000
0.004000 0.080000 0.000000
0.004500 0.080000 0.000000
0.000500 0.078750 0.000000
0.001000 0.078750 0.000000
0.001500 0.078750 0.000000
0.002000 0.078750 0.000000
0.002500 0.078750 0.000000
0.003000 0.078750 0.000000
0.003500 0.078750 0.000000
0.004000 0.078750 0.000000
0.004500 0.078750 0.000000
0.000500 0.077500 0.000000
0.001000 0.077500 0.000000
0.001500 0.077500 0.000000
0.002000 0.077500 0.000000
0.002500 0.077500 0.000000
0.003000 0.077500 0.000000
0.003500 0.077500 0.000000
0.004000 0.077500 0.000000
0.004500 0.077500 0.000000
0.000500 0.076250 0.000000
0.001000 0.076250 0.000000
0.001500 0.076250 0.000000
0.002000 0.076250 0.000000
0.002500 0.076250 0.000000
0.003000 0.076250 0.000000
0.003500 0.076250 0.000000
0.004000 0.076250 0.000000
0.004500 0.076250 0.000000
0.000500 0.075000 0.000000
0.001000 0.075000 0.000000
0.001500 0.075000 0.000000
0.002000 0.075000 0.000000
0.002500 0.075000 0.000000
0.003000 0.075000 0.000000
0.003500 0.075000 0.000000
0.004000 0.075000 0.000000
0.004500 0.075000 0.000000
0.000500 0.073750 0.000000
0.001000 0.073750 0.000000
0.001500 0.073750 0.000000
0.002000 0.073750 0.000000
0.002500 0.073750 0.000000
0.003000 0.073750 0.000000
0.003500 0.073750 0.000000
0.004000 0.073750 0.000000
0.004500 0.073750 0.000000
0.000500 0.072500 0.000000
0.001000 0.072500 0.000000
0.001500 0.072500 0.000000
0.002000 0.072500 0.000000
0.002500 0.072500 0.000000
0.003000 0.072500 0.000000
0.003500 0.072500 0.000000
0.004000 0.072500 0.000000
0.004500 0.072500 0.000000
0.000500 0.071250 0.000000
0.001000 0.071250 0.000000
0.001500 0.071250 0.000000
0.002000 0.071250 0.000000
0.002500 0.071250 0.000000
0.003000 0.071250 0.000000
0.003500 0.071250 0.000000
0.004000 0.071250 0.000000
0.004500 0.071250 0.000000
0.000500 0.070000 0.000000
0.001000 0.070000 0.000000
0.001500 0.070000 0.000000
0.002000 0.070000 0.000000
0.002500 0.070000 0.000000
0.003000 0.070000 0.000000
0.003500 0.070000 0.000000
0.004000 0.070000 0.000000
0.004500 0.070000 0.000000
0.000500 0.068750 0.000000
0.001000 0.068750 0.000000
0.001500 0.068750 0.000000
0.002000 0.068750 0.000000
0.002500 0.068750 0.000000
0.003000 0.068750 0.000000
0.003500 0.068750 0.000000
0.004000 0.068750 0.000000
0.004500 0.068750 0.000000
0.000500 0.067500 0.000000
0.001000 0.067500 0.000000
0.001500 0.067500 0.000000
0.002000 0.067500 0.000000
0.002500 0.067500 0.000000
0.003000 0.067500 0.000000
0.003500 0.067500 0.000000
0.004000 0.067500 0.000000
0.004500 0.067500 0.000000
0.000500 0.066250 0.000000
0.001000 0.066250 0.000000
0.001500 0.066250 0.000000
0.002000 0.066250 0.000000
0.002500 0.066250 0.000000
0.003000 0.066250 0.000000
0.003500 0.066250 0.000000
0.004000 0.066250 0.000000
0.004500 0.066250 0.000000
0.000500 0.065000 0.000000
0.001000 0.065000 0.000000
0.001500 0.065000 0.000000
0.002000 0.065000 0.000000
0.002500 0.065000 0.000000
0.003000 0.065000 0.000000
0.003500 0.065000 0.000000
0.004000 0.065000 0.000000
0.004500 0.065000 0.000000
0.000500 0.063750 0.000000
0.001000 0.063750 0.000000
0.001500 0.063750 0.000000
0.002000 0.063750 0.000000
0.002500 0.063750 0.000000
0.003000 0.063750 0.000000
0.003500 0.063750 0.000000
0.004000 0.063750 0.000000
0.004500 0.063750 0.000000
0.000500 0.062500 0.000000
0.001000 0.062500 0.000000
0.001500 0.062500 0.000000
0.002000 0.062500 0.000000
0.002500 0.062500 0.000000
0.003000 0.062500 0.000000
0.003500 0.062500 0.000000
0.004000 0.062500 0.000000
0.004500 0.062500 0.000000
0.000500 0.061250 0.000000
0.001000 0.061250 0.000000
0.001500 0.061250 0.000000
0.002000 0.061250 0.000000
0.002500 0.061250 0.000000
0.003000 0.061250 0.000000
0.003500 0.061250 0.000000
0.004000 0.061250 0.000000
0.004500 0.061250 0.000000
0.000500 0.060000 0.000000
0.001000 0.060000 0.000000
0.001500 0.060000 0.000000
0.002000 0.060000 0.000000
0.002500 0.060000 0.000000
0.003000 0.060000 0.000000
0.003500 0.060000 0.000000
0.004000 0.060000 0.000000
0.004500 0.060000 0.000000
0.000500 0.058750 0.000000
0.001000 0.058750 0.000000
0.001500 0.058750 0.000000
0.002000 0.058750 0.000000
0.002500 0.058750 0.000000
0.003000 0.058750 0.000000
0.003500 0.058750 0.000000
0.004000 0.058750 0.000000
0.004500 0.058750 0.000000
0.000500 0.057500 0.000000
0.001000 0.057500 0.000000
0.001500 0.057500 0.000000
0.002000 0.057500 0.000000
0.002500 0.057500 0.000000
0.003000 0.057500 0.000000
0.003500 0.057500 0.000000
0.004000 0.057500 0.000000
0.004500 0.057500 0.000000
0.000500 0.056250 0.000000
0.001000 0.056250 0.000000
0.001500 0.056250 0.000000
0.002000 0.056250 0.000000
0.002500 0.056250 0.000000
0.003000 0.056250 0.000000
0.003500 0.056250 0.000000
0.004000 0.056250 0.000000
0.004500 0.056250 0.000000
0.000500 0.055000 0.000000
0.001000 0.055000 0.000000
0.001500 0.055000 0.000000
0.002000 0.055000 0.000000
0.002500 0.055000 0.000000
0.003000 0.055000 0.000000
0.003500 0.055000 0.000000
0.004000 0.055000 0.000000
0.004500 0.055000 0.000000
0.000500 0.053750 0.000000
0.001000 0.053750 0.000000
0.001500 0.053750 0.000000
0.002000 0.053750 0.000000
0.002500 0.053750 0.000000
0.003000 0.053750 0.000000
0.003500 0.053750 0.000000
0.004000 0.053750 0.000000
0.004500 0.053750 0.000000
0.000500 0.052500 0.000000
0.001000 0.052500 0.000000
0.001500 0.052500 0.000000
0.002000 0.052500 0.000000
0.002500 0.052500 0.000000
0.003000 0.052500 0.000000
0.003500 0.052500 0.000000
0.004000 0.052500 0.000000
0.004500 0.052500 0.000000
0.000500 0.051250 0.000000
0.001000 0.051250 0.000000
0.001500 0.051250 0.000000
0.002000 0.051250 0.000000
0.002500 0.051250 0.000000
0.003000 0.051250 0.000000
0.003500 0.051250 0.000000
0.004000 0.051250 0.000000
0.004500 0.051250 0.000000
0.000500 0.050000 0.000000
0.001000 0.050000 0.000000
0.001500 0.050000 0.000000
0.002000 0.050000 0.000000
0.002500 0.050000 0.000000
0.003000 0.050000 0.000000
0.003500 0.050000 0.000000
0.004000 0.050000 0.000000
0.004500 0.050000 0.000000
0.000500 0.048750 0.000000
0.001000 0.048750 0.000000
0.001500 0.048750 0.000000
0.002000 0.048750 0.000000
0.002500 0.048750 0.000000
0.003000 0.048750 0.000000
0.003500 0.048750 0.000000
0.004000 0.048750 0.000000
0.004500 0.048750 0.000000
0.000500 0.047500 0.000000
0.001000 0.047500 0.000000
0.001500 0.047500 0.000000
0.002000 0.047500 0.000000
0.002500 0.047500 0.000000
0.003000 0.047500 0.000000
0.003500 0.047500 0.000000
0.004000 0.047500 0.000000
0.004500 0.047500 0.000000
0.000500 0.046250 0.000000
0.001000 0.046250 0.000000
0.001500 0.046250 0.000000
0.002000 0.046250 0.000000
0.002500 0.046250 0.000000
0.003000 0.046250 0.000000
0.003500 0.046250 0.000000
0.004000 0.046250 0.000000
0.004500 0.046250 0.000000
0.000500 0.045000 0.000000
0.001000 0.045000 0.000000
0.001500 0.045000 0.000000
0.002000 0.045000 0.000000
0.002500 0.045000 0.000000
0.003000 0.045000 0.000000
0.003500 0.045000 0.000000
0.004000 0.045000 0.000000
0.004500 0.045000 0.000000
0.000500 0.043750 0.000000
0.001000 0.043750 0.000000
0.001500 0.043750 0.000000
0.002000 0.043750 0.000000
0.002500 0.043750 0.000000
0.003000 0.043750 0.000000
0.003500 0.043750 0.000000
0.004000 0.043750 0.000000
0.004500 0.043750 0.000000
0.000500 0.042500 0.000000
0.001000 0.042500 0.000000
0.001500 0.042500 0.000000
0.002000 0.042500 0.000000
0.002500 0.042500 0.000000
0.003000 0.042500 0.000000
0.003500 0.042500 0.000000
0.004000 0.042500 0.000000
0.004500 0.042500 0.000000
0.000500 0.041250 0.000000
0.001000 0.041250 0.000000
0.001500 0.041250 0.000000
0.002000 0.041250 0.000000
0.002500 0.041250 0.000000
0.003000 0.041250 0.000000
0.003500 0.041250 0.000000
0.004000 0.041250 0.000000
0.004500 0.041250 0.000000
0.000500 0.040000 0.000000
0.001000 0.040000 0.000000
0.001500 0.040000 0.000000
0.002000 0.040000 0.000000
0.002500 0.040000 0.000000
0.003000 0.040000 0.000000
0.003500 0.040000 0.000000
0.004000 0.040000 0.000000
0.004500 0.040000 0.000000
0.000500 0.038750 0.000000
0.001000 0.038750 0.000000
0.001500 0.038750 0.000000
0.002000 0.038750 0.000000
0.002500 0.038750 0.000000
0.003000 0.038750 0.000000
0.003500 0.038750 0.000000
0.004000 0.038750 0.000000
0.004500 0.038750 0.000000
0.000500 0.037500 0.000000
0.001000 0.037500 0.000000
0.001500 0.037500 0.000000
0.002000 0.037500 0.000000
0.002500 0.037500 0.000000
0.003000 0.037500 0.000000
0.003500 0.037500 0.000000
0.004000 0.037500 0.000000
0.004500 0.037500 0.000000
0.000500 0.036250 0.000000
0.001000 0.036250 0.000000
0.001500 0.036250 0.000000
0.002000 0.036250 0.000000
0.002500 0.036250 0.000000
0.003000 0.036250 0.000000
0.003500 0.036250 0.000000
0.004000 0.036250 0.000000
0.004500 0.036250 0.000000
0.000500 0.035000 0.000000
0.001000 0.035000 0.000000
0.001500 0.035000 0.000000
0.002000 0.035000 0.000000
0.002500 0.035000 0.000000
0.003000 0.035000 0.000000
0.003500 0.035000 0.000000
0.004000 0.035000 0.000000
0.004500 0.035000 0.000000
0.000500 0.033750 0.000000
0.001000 0.033750 0.000000
0.001500 0.033750 0.000000
0.002000 0.033750 0.000000
0.002500 0.033750 0.000000
0.003000 0.033750 0.000000
0.003500 0.033750 0.000000
0.004000 0.033750 0.000000
0.004500 0.033750 0.000000
0.000500 0.032500 0.000000
0.001000 0.032500 0.000000
0.001500 0.032500 0.000000
0.002000 0.032500 0.000000
0.002500 0.032500 0.000000
0.003000 0.032500 0.000000
0.003500 0.032500 0.000000
0.004000 0.032500 0.000000
0.004500 0.032500 0.000000
0.000500 0.031250 0.000000
0.001000 0.031250 0.000000
0.001500 0.031250 0.000000
0.002000 0.031250 0.000000
0.002500 0.031250 0.000000
0.003000 0.031250 0.000000
0.003500 0.031250 0.000000
0.004000 0.031250 0.000000
0.004500 0.031250 0.000000
0.000500 0.030000 0.000000
0.001000 0.030000 0.000000
0.001500 0.030000 0.000000
0.002000 0.030000 0.000000
0.002500 0.030000 0.000000
0.003000 0.030000 0.000000
0.003500 0.030000 0.000000
0.004000 0.030000 0.000000
0.004500 0.030000 0.000000
0.000500 0.028750 0.000000
0.001000 0.028750 0.000000
0.001500 0.028750 0.000000
0.002000 0.028750 0.000000
0.002500 0.028750 0.000000
0.003000 0.028750 0.000000
0.003500 0.028750 0.000000
0.004000 0.028750 0.000000
0.004500 0.028750 0.000000
0.000500 0.027500 0.000000
0.001000 0.027500 0.000000
0.001500 0.027500 0.000000
0.002000 0.027500 0.000000
0.002500 0.027500 0.000000
0.003000 0.027500 0.000000
0.003500 0.027500 0.000000
0.004000 0.027500 0.000000
0.004500 0.027500 0.000000
0.000500 0.026250 0.000000
0.001000 0.026250 0.000000
0.001500 0.026250 0.000000
0.002000 0.026250 0.000000
0.002500 0.026250 0.000000
0.003000 0.026250 0.000000
0.003500 0.026250 0.000000
0.004000 0.026250 0.000000
0.004500 0.026250 0.000000
0.000500 0.025000 0.000000
0.001000 0.025000 0.000000
0.001500 0.025000 0.000000
0.002000 0.025000 0.000000
0.002500 0.025000 0.000000
0.003000 0.025000 0.000000
0.003500 0.025000 0.000000
0.004000 0.025000 0.000000
0.004500 0.025000 0.000000
0.000500 0.023750 0.000000
0.001000 0.023750 0.000000
0.001500 0.023750 0.000000
0.002000 0.023750 0.000000
0.002500 0.023750 0.000000
0.003000 0.023750 0.000000
0.003500 0.023750 0.000000
0.004000 0.023750 0.000000
0.004500 0.023750 0.000000
0.000500 0.022500 0.000000
0.001000 0.022500 0.000000
0.001500 0.022500 0.000000
0.002000 0.022500 0.000000
0.002500 0.022500 0.000000
0.003000 0.022500 0.000000
0.003500 0.022500 0.000000
0.004000 0.022500 0.000000
0.004500 0.022500 0.000000
0.000500 0.021250 0.000000
0.001000 0.021250 0.000000
0.001500 0.021250 0.000000
0.002000 0.021250 0.000000
0.002500 0.021250 0.000000
0.003000 0.021250 0.000000
0.003500 0.021250 0.000000
0.004000 0.021250 0.000000
0.004500 0.021250 0.000000
0.000500 0.020000 0.000000
0.001000 0.020000 0.000000
0.001500 0.020000 0.000000
0.002000 0.020000 0.000000
0.002500 0.020000 0.000000
0.003000 0.020000 0.000000
0.003500 0.020000 0.000000
0.004000 0.020000 0.000000
0.004500 0.020000 0.000000
0.000500 0.018750 0.000000
0.001000 0.018750 0.000000
0.001500 0.018750 0.000000
0.002000 0.018750 0.000000
0.002500 0.018750 0.000000
0.003000 0.018750 0.000000
0.003500 0.018750 0.000000
0.004000 0.018750 0.000000
0.004500 0.018750 0.000000
0.000500 0.017500 0.000000
0.001000 0.017500 0.000000
0.001500 0.017500 0.000000
0.002000 0.017500 0.000000
0.002500 0.017500 0.000000
0.003000 0.017500 0.000000
0.003500 0.017500 0.000000
0.004000 0.017500 0.000000
0.004500 0.017500 0.000000
0.000500 0.016250 0.000000
0.001000 0.016250 0.000000
0.001500 0.016250 0.000000
0.002000 0.016250 0.000000
0.002500 0.016250 0.000000
0.003000 0.016250 0.000000
0.003500 0.016250 0.000000
0.004000 0.016250 0.000000
0.004500 0.016250 0.000000
0.000500 0.015000 0.000000
0.001000 0.015000 0.000000
0.001500 0.015000 0.000000
0.002000 0.015000 0.000000
0.002500 0.015000 0.000000
0.003000 0.015000 0.000000
0.003500 0.015000 0.000000
0.004000 0.015000 0.000000
0.004500 0.015000 0.000000
0.000500 0.013750 0.000000
0.001000 0.013750 0.000000
0.001500 0.013750 0.000000
0.002000 0.013750 0.000000
0.002500 0.013750 0.000000
0.003000 0.013750 0.000000
0.003500 0.013750 0.000000
0.004000 0.013750 0.000000
0.004500 0.013750 0.000000
0.000500 0.012500 0.000000
0.001000 0.012500 0.000000
0.001500 0.012500 0.000000
0.002000 0.012500 0.000000
0.002500 0.012500 0.000000
0.003000 0.012500 0.000000
0.003500 0.012500 0.000000
0.004000 0.012500 0.000000
0.004500 0.012500 0.000000
0.000500 0.011250 0.000000
0.001000 0.011250 0.000000
0.001500 0.011250 0.000000
0.002000 0.011250 0.000000
0.002500 0.011250 0.000000
0.003000 0.011250 0.000000
0.003500 0.011250 0.000000
0.004000 0.011250 0.000000
0.004500 0.011250 0.000000
0.000500 0.010000 0.000000
0.001000 0.010000 0.000000
0.001500 0.010000 0.000000
0.002000 0.010000 0.000000
0.002500 0.010000 0.000000
0.003000 0.010000 0.000000
0.003500 0.010000 0.000000
0.004000 0.010000 0.000000
0.004500 0.010000 0.000000
0.000500 0.008750 0.000000
0.001000 0.008750 0.000000
0.001500 0.008750 0.000000
0.002000 0.008750 0.000000
0.002500 0.008750 0.000000
0.003000 0.008750 0.000000
0.003500 0.008750 0.000000
0.004000 0.008750 0.000000
0.004500 0.008750 0.000000
0.000500 0.007500 0.000000
0.001000 0.007500 0.000000
0.001500 0.007500 0.000000
0.002000 0.007500 0.000000
0.002500 0.007500 0.000000
0.003000 0.007500 0.000000
0.003500 0.007500 0.000000
0.004000 0.007500 0.000000
0.004500 0.007500 0.000000
0.000500 0.006250 0.000000
0.001000 0.006250 0.000000
0.001500 0.006250 0.000000
0.002000 0.006250 0.000000
0.002500 0.006250 0.000000
0.003000 0.006250 0.000000
0.003500 0.006250 0.000000
0.004000 0.006250 0.000000
0.004500 0.006250 0.000000
0.000500 0.005000 0.000000
0.001000 0.005000 0.000000
0.001500 0.005000 0.000000
0.002000 0.005000 0.000000
0.002500 0.005000 0.000000
0.003000 0.005000 0.000000
0.003500 0.005000 0.000000
0.004000 0.005000 0.000000
0.004500 0.005000 0.000000
0.000500 0.003750 0.000000
0.001000 0.003750 0.000000
0.001500 0.003750 0.000000
0.002000 0.003750 0.000000
0.002500 0.003750 0.000000
0.003000 0.003750 0.000000
0.003500 0.003750 0.000000
0.004000 0.003750 0.000000
0.004500 0.003750 0.000000
0.000500 0.002500 0.000000
0.001000 0.002500 0.000000
0.001500 0.002500 0.000000
0.002000 0.002500 0.000000
0.002500 0.002500 0.000000
0.003000 0.002500 0.000000
0.003500 0.002500 0.000000
0.004000 0.002500 0.000000
0.004500 0.002500 0.000000
0.000500 0.001250 0.000000
0.001000 0.001250 0.000000
0.001500 0.001250 0.000000
0.002000 0.001250 0.000000
0.002500 0.001250 0.000000
0.003000 0.001250 0.000000
0.003500 0.001250 0.000000
0.004000 0.001250 0.000000
0.004500 0.001250 0.000000
CELLS 800 4000
4 82 83 180 179
4 179 180 181 178
4 178 181 182 177
4 177 182 183 176
4 176 183 184 175
4 175 184 185 174
4 174 185 186 173
4 173 186 187 172
4 172 187 188 171
4 171 188 80 0
4 83 84 189 180
4 180 189 190 181
4 181 190 191 182
4 182 191 192 183
4 183 192 193 184
4 184 193 194 185
4 185 194 195 186
4 186 195 196 187
4 187 196 197 188
4 188 197 79 80
4 84 85 198 189
4 189 198 199 190
4 190 199 200 191
4 191 200 201 192
4 192 201 202 193
4 193 202 203 194
4 194 203 204 195
4 195 204 205 196
4 196 205 206 197
4 197 206 78 79
4 85 86 207 198
4 198 207 208 199
4 199 208 209 200
4 200 209 210 201
4 201 210 211 202
4 202 211 212 203
4 203 212 213 204
4 204 213 214 205
4 205 214 215 206
4 206 215 77 78
4 86 87 216 207
4 207 216 217 208
4 208 217 218 209
4 209 218 219 210
4 210 219 220 211
4 211 220 221 212
4 212 221 222 213
4 213 222 223 214
4 214 223 224 215
4 215 224 76 77
4 87 88 225 216
4 216 225 226 217
4 217 226 227 218
4 218 227 228 219
4 219 228 229 220
4 220 229 230 221
4 221 230 231 222
4 222 231 232 223
4 223 232 233 224
4 224 233 75 76
4 88 89 234 225
4 225 234 235 226
4 226 235 236 227
4 227 236 237 228
4 228 237 238 229
4 229 238 239 230
4 230 239 240 231
4 231 240 241 232
4 232 241 242 233
4 233 242 74 75
4 89 90 243 234
4 234 243 244 235
4 235 244 245 236
4 236 245 246 237
4 237 246 247 238
4 238 247 248 239
4 239 248 249 240
4 240 249 250 241
4 241 250 251 242
4 242 251 73 74
4 90 91 252 243
4 243 252 253 244
4 244 253 254 245
4 245 254 255 246
4 246 255 256 247
4 247 256 257 248
4 248 257 258 249
4 249 258 259 250
4 250 259 260 251
4 251 260 72 73
4 91 92 261 252
4 252 261 262 253
4 253 262 263 254
4 254 263 264 255
4 255 264 265 256
4 256 265 266 257
4 257 266 267 258
4 258 267 268 259
4 259 268 269 260
4 260 269 71 72
4 92 93 270 261
4 261 270 271 262
4 262 271 272 263
4 263 272 273 264
4 264 273 274 265
4 265 274 275 266
4 266 275 276 267
4 267 276 277 268
4 268 277 278 269
4 269 278 70 71
4 93 94 279 270
4 270 279 280 271
4 271 280 281 272
4 272 281 282 273
4 273 282 283 274
4 274 283 284 275
4 275 284 285 276
4 276 285 286 277
4 277 286 287 278
4 278 287 69 70
4 94 95 288 279
4 279 288 289 280
4 280 289 290 281
4 281 290 291 282
4 282 291 292 283
4 283 292 293 284
4 284 293 294 285
4 285 294 295 286
4 286 295 296 287
4 287 296 68 69
4 95 96 297 288
4 288 297 298 289
4 289 298 299 290
4 290 299 300 291
4 291 300 301 292
4 292 301 302 293
4 293 302 303 294
4 294 303 304 295
4 295 304 305 296
4 296 305 67 68
4 96 97 306 297
4 297 306 307 298
4 298 307 308 299
4 299 308 309 300
4 300 309 310 301
4 301 310 311 302
4 302 311 312 303
4 303 312 313 304
4 304 313 314 305
4 305 314 66 67
4 97 98 315 306
4 306 315 316 307
4 307 316 317 308
4 308 317 318 309
4 309 318 319 310
4 310 319 320 311
4 311 320 321 312
4 312 321 322 313
4 313 322 323 314
4 314 323 65 66
4 98 99 324 315
4 315 324 325 316
4 316 325 326 317
4 317 326 327 318
4 318 327 328 319
4 319 328 329 320
4 320 329 330 321
4 321 330 331 322
4 322 331 332 323
4 323 332 64 65
4 99 100 333 324
4 324 333 334 325
4 325 334 335 326
4 326 335 336 327
4 327 336 337 328
4 328 337 338 329
4 329 338 339 330
4 330 339 340 331
4 331 340 341 332
4 332 341 63 64
4 100 101 342 333
4 333 342 343 334
4 334 343 344 335
4 335 344 345 336
4 336 345 346 337
4 337 346 347 338
4 338 347 348 339
4 339 348 349 340
4 340 349 350 341
4 341 350 62 63
4 101 102 351 342
4 342 351 352 343
4 343 352 353 344
4 344 353 354 345
4 345 354 355 346
4 346 355 356 347
4 347 356 357 348
4 348 357 358 349
4 349 358 359 350
4 350 359 61 62
4 102 103 360 351
4 351 360 361 352
4 352 361 362 353
4 353 362 363 354
4 354 363 364 355
4 355 364 365 356
4 356 365 366 357
4 357 366 367 358
4 358 367 368 359
4 359 368 60 61
4 103 104 369 360
4 360 369 370 361
4 361 370 371 362
4 362 371 372 363
4 363 372 373 364
4 364 373 374 365
4 365 374 375 366
4 366 375 376 367
4 367 376 377 368
4 368 377 59 60
4 104 105 378 369
4 369 378 379 370
4 370 379 380 371
4 371 380 381 372
4 372 381 382 373
4 373 382 383 374
4 374 383 384 375
4 375 384 385 376
4 376 385 386 377
4 377 386 58 59
4 105 106 387 378
4 378 387 388 379
4 379 388 389 380
4 380 389 390 381
4 381 390 391 382
4 382 391 392 383
4 383 392 393 384
4 384 393 394 385
4 385 394 395 386
4 386 395 57 58
4 106 107 396 387
4 387 396 397 388
4 388 397 398 389
4 389 398 399 390
4 390 399 400 391
4 391 400 401 392
4 392 401 402 393
4 393 402 403 394
4 394 403 404 395
4 395 404 56 57
4 107 108 405 396
4 396 405 406 397
4 397 406 407 398
4 398 407 408 399
4 399 408 409 400
4 400 409 410 401
4 401 410 411 402
4 402 411 412 403
4 403 412 413 404
4 404 413 55 56
4 108 109 414 405
4 405 414 415 406
4 406 415 416 407
4 407 416 417 408
4 408 417 418 409
4 409 418 419 410
4 410 419 420 411
4 411 420 421 412
4 412 421 422 413
4 413 422 54 55
4 109 110 423 414
4 414 423 424 415
4 415 424 425 416
4 416 425 426 417
4 417 426 427 418
4 418 427 428 419
4 419 428 429 420
4 420 429 430 421
4 421 430 431 422
4 422 431 53 54
4 110 111 432 423
4 423 432 433 424
4 424 433 434 425
4 425 434 435 426
4 426 435 436 427
4 427 436 437 428
4 428 437 438 429
4 429 438 439 430
4 430 439 440 431
4 431 440 52 53
4 111 112 441 432
4 432 441 442 433
4 433 442 443 434
4 434 443 444 435
4 435 444 445 436
4 436 445 446 437
4 437 446 447 438
4 438 447 448 439
4 439 448 449 440
4 440 449 51 52
4 112 113 450 441
4 441 450 451 442
4 442 451 452 443
4 443 452 453 444
4 444 453 454 445
4 445 454 455 446
4 446 455 456 447
4 447 456 457 448
4 448 457 458 449
4 449 458 50 51
4 113 114 459 450
4 450 459 460 451
4 451 460 461 452
4 452 461 462 453
4 453 462 463 454
4 454 463 464 455
4 455 464 465 456
4 456 465 466 457
4 457 466 467 458
4 458 467 49 50
4 114 115 468 459
4 459 468 469 460
4 460 469 470 461
4 461 470 471 462
4 462 471 472 463
4 463 472 473 464
4 464 473 474 465
4 465 474 475 466
4 466 475 476 467
4 467 476 48 49
4 115 116 477 468
4 468 477 478 469
4 469 478 479 470
4 470 479 480 471
4 471 480 481 472
4 472 481 482 473
4 473 482 483 474
4 474 483 484 475
4 475 484 485 476
4 476 485 47 48
4 116 117 486 477
4 477 486 487 478
4 478 487 488 479
4 479 488 489 480
4 480 489 490 481
4 481 490 491 482
4 482 491 492 483
4 483 492 493 484
4 484 493 494 485
4 485 494 46 47
4 117 118 495 486
4 486 495 496 487
4 487 496 497 488
4 488 497 498 489
4 489 498 499 490
4 490 499 500 491
4 491 500 501 492
4 492 501 502 493
4 493 502 503 494
4 494 503 45 46
4 118 119 504 495
4 495 504 505 496
4 496 505 506 497
4 497 506 507 498
4 498 507 508 499
4 499 508 509 500
4 500 509 510 501
4 501 510 511 502
4 502 511 512 503
4 503 512 44 45
4 119 120 513 504
4 504 513 514 505
4 505 514 515 506
4 506 515 516 507
4 507 516 517 508
4 508 517 518 509
4 509 518 519 510
4 510 519 520 511
4 511 520 521 512
4 512 521 43 44
4 120 121 522 513
4 513 522 523 514
4 514 523 524 515
4 515 524 525 516
4 516 525 526 517
4 517 526 527 518
4 518 527 528 519
4 519 528 529 520
4 520 529 530 521
4 521 530 42 43
4 121 122 531 522
4 522 531 532 523
4 523 532 533 524
4 524 533 534 525
4 525 534 535 526
4 526 535 536 527
4 527 536 537 528
4 528 537 538 529
4 529 538 539 530
4 530 539 41 42
4 122 123 540 531
4 531 540 541 532
4 532 541 542 533
4 533 542 543 534
4 534 543 544 535
4 535 544 545 536
4 536 545 546 537
4 537 546 547 538
4 538 547 548 539
4 539 548 40 41
4 123 124 549 540
4 540 549 550 541
4 541 550 551 542
4 542 551 552 543
4 543 552 553 544
4 544 553 554 545
4 545 554 555 546
4 546 555 556 547
4 547 556 557 548
4 548 557 39 40
4 124 125 558 549
4 549 558 559 550
4 550 559 560 551
4 551 560 561 552
4 552 561 562 553
4 553 562 563 554
4 554 563 564 555
4 555 564 565 556
4 556 565 566 557
4 557 566 38 39
4 125 126 567 558
4 558 567 568 559
4 559 568 569 560
4 560 569 570 561
4 561 570 571 562
4 562 571 572 563
4 563 572 573 564
4 564 573 574 565
4 565 574 575 566
4 566 575 37 38
4 126 127 576 567
4 567 576 577 568
4 568 577 578 569
4 569 578 579 570
4 570 579 580 571
4 571 580 581 572
4 572 581 582 573
4 573 582 583 574
4 574 583 584 575
4 575 584 36 37
4 127 128 585 576
4 576 585 586 577
4 577 586 587 578
4 578 587 588 579
4 579 588 589 580
4 580 589 590 581
4 581 590 591 582
4 582 591 592 583
4 583 592 593 584
4 584 593 35 36
4 128 129 594 585
4 585 594 595 586
4 586 595 596 587
4 587 596 597 588
4 588 597 598 589
4 589 598 599 590
4 590 599 600 591
4 591 600 601 592
4 592 601 602 593
4 593 602 34 35
4 129 130 603 594
4 594 603 604 595
4 595 604 605 596
4 596 605 606 597
4 597 606 607 598
4 598 607 608 599
4 599 608 609 600
4 600 609 610 601
4 601 610 611 602
4 602 611 33 34
4 130 131 612 603
4 603 612 613 604
4 604 613 614 605
4 605 614 615 606
4 606 615 616 607
4 607 616 617 608
4 608 617 618 609
4 609 618 619 610
4 610 619 620 611
4 611 620 32 33
4 131 132 621 612
4 612 621 622 613
4 613 622 623 614
4 614 623 624 615
4 615 624 625 616
4 616 625 626 617
4 617 626 627 618
4 618 627 628 619
4 619 628 629 620
4 620 629 31 32
4 132 133 630 621
4 621 630 631 622
4 622 631 632 623
4 623 632 633 624
4 624 633 634 625
4 625 634 635 626
4 626 635 636 627
4 627 636 637 628
4 628 637 638 629
4 629 638 30 31
4 133 134 639 630
4 630 639 640 631
4 631 640 641 632
4 632 641 642 633
4 633 642 643 634
4 634 643 644 635
4 635 644 645 636
4 636 645 646 637
4 637 646 647 638
4 638 647 29 30
4 134 135 648 639
4 639 648 649 640
4 640 649 650 641
4 641 650 651 642
4 642 651 652 643
4 643 652 653 644
4 644 653 654 645
4 645 654 655 646
4 646 655 656 647
4 647 656 28 29
4 135 136 657 648
4 648 657 658 649
4 649 658 659 650
4 650 659 660 651
4 651 660 661 652
4 652 661 662 653
4 653 662 663 654
4 654 663 664 655
4 655 664 665 656
4 656 665 27 28
4 136 137 666 657
4 657 666 667 658
4 658 667 668 659
4 659 668 669 660
4 660 669 670 661
4 661 670 671 662
4 662 671 672 663
4 663 672 673 664
4 664 673 674 665
4 665 674 26 27
4 137 138 675 666
4 666 675 676 667
4 667 676 677 668
4 668 677 678 669
4 669 678 679 670
4 670 679 680 671
4 671 680 681 672
4 672 681 682 673
4 673 682 683 674
4 674 683 25 26
4 138 139 684 675
4 675 684 685 676
4 676 685 686 677
4 677 686 687 678
4 678 687 688 679
4 679 688 689 680
4 680 689 690 681
4 681 690 691 682
4 682 691 692 683
4 683 692 24 25
4 139 140 693 684
4 684 693 694 685
4 685 694 695 686
4 686 695 696 687
4 687 696 697 688
4 688 697 698 689
4 689 698 699 690
4 690 699 700 691
4 691 700 701 692
4 692 701 23 24
4 140 141 702 693
4 693 702 703 694
4 694 703 704 695
4 695 704 705 696
4 696 705 706 697
4 697 706 707 698
4 698 707 708 699
4 699 708 709 700
4 700 709 710 701
4 701 710 22 23
4 141 142 711 702
4 702 711 712 703
4 703 712 713 704
4 704 713 714 705
4 705 714 715 706
4 706 715 716 707
4 707 716 717 708
4 708 717 718 709
4 709 718 719 710
4 710 719 21 22
4 142 143 720 711
4 711 720 721 712
4 712 721 722 713
4 713 722 723 714
4 714 723 724 715
4 715 724 725 716
4 716 725 726 717
4 717 726 727 718
4 718 727 728 719
4 719 728 20 21
4 143 144 729 720
4 720 729 730 721
4 721 730 731 722
4 722 731 732 723
4 723 732 733 724
4 724 733 734 725
4 725 734 735 726
4 726 735 736 727
4 727 736 737 728
4 728 737 19 20
4 144 145 738 729
4 729 738 739 730
4 730 739 740 731
4 731 740 741 732
4 732 741 742 733
4 733 742 743 734
4 734 743 744 735
4 735 744 745 736
4 736 745 746 737
4 737 746 18 19
4 145 146 747 738
4 738 747 748 739
4 739 748 749 740
4 740 749 750 741
4 741 750 751 742
4 742 751 752 743
4 743 752 753 744
4 744 753 754 745
4 745 754 755 746
4 746 755 17 18
4 146 147 756 747
4 747 756 757 748
4 748 757 758 749
4 749 758 759 750
4 750 759 760 751
4 751 760 761 752
4 752 761 762 753
4 753 762 763 754
4 754 763 764 755
4 755 764 16 17
4 147 148 765 756
4 756 765 766 757
4 757 766 767 758
4 758 767 768 759
4 759 768 769 760
4 760 769 770 761
4 761 770 771 762
4 762 771 772 763
4 763 772 773 764
4 764 773 15 16
4 148 149 774 765
4 765 774 775 766
4 766 775 776 767
4 767 776 777 768
4 768 777 778 769
4 769 778 779 770
4 770 779 780 771
4 771 780 781 772
4 772 781 782 773
4 773 782 14 15
4 149 150 783 774
4 774 783 784 775
4 775 784 785 776
4 776 785 786 777
4 777 786 787 778
4 778 787 788 779
4 779 788 789 780
4 780 789 790 781
4 781 790 791 782
4 782 791 13 14
4 150 151 792 783
4 783 792 793 784
4 784 793 794 785
4 785 794 795 786
4 786 795 796 787
4 787 796 797 788
4 788 797 798 789
4 789 798 799 790
4 790 799 800 791
4 791 800 12 13
4 151 152 801 792
4 792 801 802 793
4 793 802 803 794
4 794 803 804 795
4 795 804 805 796
4 796 805 806 797
4 797 806 807 798
4 798 807 808 799
4 799 808 809 800
4 800 809 11 12
4 152 153 810 801
4 801 810 811 802
4 802 811 812 803
4 803 812 813 804
4 804 813 814 805
4 805 814 815 806
4 806 815 816 807
4 807 816 817 808
4 808 817 818 809
4 809 818 10 11
4 153 154 819 810
4 810 819 820 811
4 811 820 821 812
4 812 821 822 813
4 813 822 823 814
4 814 823 824 815
4 815 824 825 816
4 816 825 826 817
4 817 826 827 818
4 818 827 9 10
4 154 155 828 819
4 819 828 829 820
4 820 829 830 821
4 821 830 831 822
4 822 831 832 823
4 823 832 833 824
4 824 833 834 825
4 825 834 835 826
4 826 835 836 827
4 827 836 8 9
4 155 156 837 828
4 828 837 838 829
4 829 838 839 830
4 830 839 840 831
4 831 840 841 832
4 832 841 842 833
4 833 842 843 834
4 834 843 844 835
4 835 844 845 836
4 836 845 7 8
4 156 157 846 837
4 837 846 847 838
4 838 847 848 839
4 839 848 849 840
4 840 849 850 841
4 841 850 851 842
4 842 851 852 843
4 843 852 853 844
4 844 853 854 845
4 845 854 6 7
4 157 158 855 846
4 846 855 856 847
4 847 856 857 848
4 848 857 858 849
4 849 858 859 850
4 850 859 860 851
4 851 860 861 852
4 852 861 862 853
4 853 862 863 854
4 854 863 5 6
4 158 159 864 855
4 855 864 865 856
4 856 865 866 857
4 857 866 867 858
4 858 867 868 859
4 859 868 869 860
4 860 869 870 861
4 861 870 871 862
4 862 871 872 863
4 863 872 4 5
4 159 160 873 864
4 864 873 874 865
4 865 874 875 866
4 866 875 876 867
4 867 876 877 868
4 868 877 878 869
4 869 878 879 870
4 870 879 880 871
4 871 880 881 872
4 872 881 3 4
4 160 161 882 873
4 873 882 883 874
4 874 883 884 875
4 875 884 885 876
4 876 885 886 877
4 877 886 887 878
4 878 887 888 879
4 879 888 889 880
4 880 889 890 881
4 881 890 2 3
4 161 81 162 882
4 882 162 163 883
4 883 163 164 884
4 884 164 165 885
4 885 165 166 886
4 886 166 167 887
4 887 167 168 888
4 888 168 169 889
4 889 169 170 890
4 890 170 1 2
CELL_TYPES 800
9
9
9
9
9
9
9
9
9
9
9
9
9
9
9
9
9
9
9
9
9
9
9
9
9
9
9
9
9
9
9
9
9
9
9
9
9
9
9
9
9
9
9
9
9
9
9
9
9
9
9
9
9
9
9
9
9
9
9
9
9
9
9
9
9
9
9
9
9
9
9
9
9
9
9
9
9
9
9
9
9
9
9
9
9
9
9
9
9
9
9
9
9
9
9
9
9
9
9
9
9
9
9
9
9
9
9
9
9
9
9
9
9
9
9
9
9
9
9
9
9
9
9
9
9
9
9
9
9
9
9
9
9
9
9
9
9
9
9
9
9
9
9
9
9
9
9
9
9
9
9
9
9
9
9
9
9
9
9
9
9
9
9
9
9
9
9
9
9
9
9
9
9
9
9
9
9
9
9
9
9
9
9
9
9
9
9
9
9
9
9
9
9
9
9
9
9
9
9
9
9
9
9
9
9
9
9
9
9
9
9
9
9
9
9
9
9
9
9
9
9
9
9
9
9
9
9
9
9
9
9
9
9
9
9
9
9
9
9
9
9
9
9
9
9
9
9
9
9
9
9
9
9
9
9
9
9
9
9
9
9
9
9
9
9
9
9
9
9
9
9
9
9
9
9
9
9
9
9
9
9
9
9
9
9
9
9
9
9
9
9
9
9
9
9
9
9
9
9
9
9
9
9
9
9
9
9
9
9
9
9
9
9
9
9
9
9
9
9
9
9
9
9
9
9
9
9
9
9
9
9
9
9
9
9
9
9
9
9
9
9
9
9
9
9
9
9
9
9
9
9
9
9
9
9
9
9
9
9
9
9
9
9
9
9
9
9
9
9
9
9
9
9
9
9
9
9
9
9
9
9
9
9
9
9
9
9
9
9
9
9
9
9
9
9
9
9
9
9
9
9
9
9
9
9
9
9
9
9
9
9
9
9
9
9
9
9
9
9
9
9
9
9
9
9
9
9
9
9
9
9
9
9
9
9
9
9
9
9
9
9
9
9
9
9
9
9
9
9
9
9
9
9
9
9
9
9
9
9
9
9
9
9
9
9
9
9
9
9
9
9
9
9
9
9
9
9
9
9
9
9
9
9
9
9
9
9
9
9
9
9
9
9
9
9
9
9
9
9
9
9
9
9
9
9
9
9
9
9
9
9
9
9
9
9
9
9
9
9
9
9
9
9
9
9
9
9
9
9
9
9
9
9
9
9
9
9
9
9
9
9
9
9
9
9
9
9
9
9
9
9
9
9
9
9
9
9
9
9
9
9
9
9
9
9
9
9
9
9
9
9
9
9
9
9
9
9
9
9
9
9
9
9
9
9
9
9
9
9
9
9
9
9
9
9
9
9
9
9
9
9
9
9
9
9
9
9
9
9
9
9
9
9
9
9
9
9
9
9
9
9
9
9
9
9
9
9
9
9
9
9
9
9
9
9
9
9
9
9
9
9
9
9
9
9
9
9
9
9
9
9
9
9
9
9
9
9
9
9
9
9
9
9
9
9
9
9
9
9
9
9
9
9
9
9
9
9
9
9
9
9
9
9
9
9
9
9
9
9
9
9
9
9
9
9
9
9
9
9
9
9
9
9
9
9
9
9
9
9
9
9
9
9
9
9
9
9
9
9
9
9
9
9
9
9
9
9
9
9
9
9
9
9
9
9
9
9
9
9
9
9
9
9
9
9
9
9
9
9
9
9
9
9
9
9
9
9
9
9
9
9
9
9
9
9
9
9
9
9
9
9
9
9
9
9
9
9
9
9
9
9
9
9
9
9
9
9
9
9
9
9
9
9
9
9
9
9
9
9
9
POINT_DATA 891
SCALARS u1 float
LOOKUP_TABLE default
1e-17
-4e-07
-4e-07
-4e-07
-4e-07
-4e-07
-4e-07
-4e-07
-4e-07
-4e-07
-4e-07
-4e-07
-4e-07
-4e-07
-4e-07
-4e-07
-4e-07
-4e-07
-4e-07
-4e-07
-4e-07
-4e-07
-4e-07
-4e-07
-4e-07
-4e-07
-4e-07
-4e-07
-4e-07
-4e-07
-4e-07
-4e-07
-4e-07
-4e-07
-4e-07
-4e-07
-4e-07
-4e-07
-4e-07
-4e-07
-4e-07
-4e-07
-4e-07
-4e-07
-4e-07
-4e-07
-4e-07
-4e-07
-4e-07
-4e-07
-4e-07
-4e-07
-4e-07
-4e-07
-4e-07
-4e-07
-4e-07
-4e-07
-4e-07
-4e-07
-4e-07
-4e-07
-4e-07
-4e-07
-4e-07
-4e-07
-4e-07
-4e-07
-4e-07
-4e-07
-4e-07
-4e-07
-4e-07
-4e-07
-4e-07
-4e-07
-4e-07
-4e-07
-4e-07
-4e-07
-3e-07
4e-07
2e-18
3e-07
4e-07
4e-07
4e-07
4e-07
4e-07
4e-07
4e-07
4e-07
4e-07
4e-07
4e-07
4e-07
4e-07
4e-07
4e-07
4e-07
4e-07
4e-07
4e-07
4e-07
4e-07
4e-07
4e-07
4e-07
4e-07
4e-07
4e-07
4e-07
4e-07
4e-07
4e-07
4e-07
4e-07
4e-07
4e-07
4e-07
4e-07
4e-07
4e-07
4e-07
4e-07
4e-07
4e-07
4e-07
4e-07
4e-07
4e-07
4e-07
4e-07
4e-07
4e-07
4e-07
4e-07
4e-07
4e-07
4e-07
4e-07
4e-07
4e-07
4e-07
4e-07
4e-07
4e-07
4e-07
4e-07
4e-07
4e-07
4e-07
4e-07
4e-07
4e-07
4e-07
4e-07
4e-07
4e-07
4e-07
4e-07
4e-07
3e-07
2e-07
1e-07
7e-08
7e-15
-7e-08
-1e-07
-2e-07
-3e-07
2e-17
-9e-19
-2e-17
-2e-17
-2e-18
9e-18
1e-17
-2e-17
-2e-17
2e-07
1e-07
9e-08
4e-08
-5e-15
-4e-08
-9e-08
-1e-07
-2e-07
3e-07
2e-07
1e-07
7e-08
-5e-15
-7e-08
-1e-07
-2e-07
-3e-07
3e-07
2e-07
1e-07
7e-08
-5e-15
-7e-08
-1e-07
-2e-07
-3e-07
3e-07
2e-07
1e-07
7e-08
-4e-15
-7e-08
-1e-07
-2e-07
-3e-07
3e-07
2e-07
1e-07
7e-08
-2e-15
-7e-08
-1e-07
-2e-07
-3e-07
3e-07
2e-07
1e-07
7e-08
-6e-16
-7e-08
-1e-07
-2e-07
-3e-07
3e-07
2e-07
1e-07
7e-08
1e-15
-7e-08
-1e-07
-2e-07
-3e-07
3e-07
2e-07
1e-07
7e-08
2e-15
-7e-08
-1e-07
-2e-07
-3e-07
3e-07
2e-07
1e-07
7e-08
3e-15
-7e-08
-1e-07
-2e-07
-3e-07
3e-07
2e-07
1e-07
7e-08
4e-15
-7e-08
-1e-07
-2e-07
-3e-07
3e-07
2e-07
1e-07
7e-08
5e-15
-7e-08
-1e-07
-2e-07
-3e-07
3e-07
2e-07
1e-07
7e-08
6e-15
-7e-08
-1e-07
-2e-07
-3e-07
3e-07
2e-07
1e-07
7e-08
6e-15
-7e-08
-1e-07
-2e-07
-3e-07
3e-07
2e-07
1e-07
7e-08
6e-15
-7e-08
-1e-07
-2e-07
-3e-07
3e-07
2e-07
1e-07
7e-08
7e-15
-7e-08
-1e-07
-2e-07
-3e-07
3e-07
2e-07
1e-07
7e-08
7e-15
-7e-08
-1e-07
-2e-07
-3e-07
3e-07
2e-07
1e-07
7e-08
7e-15
-7e-08
-1e-07
-2e-07
-3e-07
3e-07
2e-07
1e-07
7e-08
7e-15
-7e-08
-1e-07
-2e-07
-3e-07
3e-07
2e-07
1e-07
7e-08
7e-15
-7e-08
-1e-07
-2e-07
-3e-07
3e-07
2e-07
1e-07
7e-08
7e-15
-7e-08
-1e-07
-2e-07
-3e-07
3e-07
2e-07
1e-07
7e-08
7e-15
-7e-08
-1e-07
-2e-07
-3e-07
3e-07
2e-07
1e-07
7e-08
7e-15
-7e-08
-1e-07
-2e-07
-3e-07
3e-07
2e-07
1e-07
7e-08
7e-15
-7e-08
-1e-07
-2e-07
-3e-07
3e-07
2e-07
1e-07
7e-08
7e-15
-7e-08
-1e-07
-2e-07
-3e-07
3e-07
2e-07
1e-07
7e-08
7e-15
-7e-08
-1e-07
-2e-07
-3e-07
3e-07
2e-07
1e-07
7e-08
7e-15
-7e-08
-1e-07
-2e-07
-3e-07
3e-07
2e-07
1e-07
7e-08
7e-15
-7e-08
-1e-07
-2e-07
-3e-07
3e-07
2e-07
1e-07
7e-08
7e-15
-7e-08
-1e-07
-2e-07
-3e-07
3e-07
2e-07
1e-07
7e-08
7e-15
-7e-08
-1e-07
-2e-07
-3e-07
3e-07
2e-07
1e-07
7e-08
7e-15
-7e-08
-1e-07
-2e-07
-3e-07
3e-07
2e-07
1e-07
7e-08
7e-15
-7e-08
-1e-07
-2e-07
-3e-07
3e-07
2e-07
1e-07
7e-08
7e-15
-7e-08
-1e-07
-2e-07
-3e-07
3e-07
2e-07
1e-07
7e-08
7e-15
-7e-08
-1e-07
-2e-07
-3e-07
3e-07
2e-07
1e-07
7e-08
7e-15
-7e-08
-1e-07
-2e-07
-3e-07
3e-07
2e-07
1e-07
7e-08
7e-15
-7e-08
-1e-07
-2e-07
-3e-07
3e-07
2e-07
1e-07
7e-08
7e-15
-7e-08
-1e-07
-2e-07
-3e-07
3e-07
2e-07
1e-07
7e-08
7e-15
-7e-08
-1e-07
-2e-07
-3e-07
3e-07
2e-07
1e-07
7e-08
7e-15
-7e-08
-1e-07
-2e-07
-3e-07
3e-07
2e-07
1e-07
7e-08
7e-15
-7e-08
-1e-07
-2e-07
-3e-07
3e-07
2e-07
1e-07
7e-08
7e-15
-7e-08
-1e-07
-2e-07
-3e-07
3e-07
2e-07
1e-07
7e-08
7e-15
-7e-08
-1e-07
-2e-07
-3e-07
3e-07
2e-07
1e-07
7e-08
7e-15
-7e-08
-1e-07
-2e-07
-3e-07
3e-07
2e-07
1e-07
7e-08
7e-15
-7e-08
-1e-07
-2e-07
-3e-07
3e-07
2e-07
1e-07
7e-08
7e-15
-7e-08
-1e-07
-2e-07
-3e-07
3e-07
2e-07
1e-07
7e-08
7e-15
-7e-08
-1e-07
-2e-07
-3e-07
3e-07
2e-07
1e-07
7e-08
7e-15
-7e-08
-1e-07
-2e-07
-3e-07
3e-07
2e-07
1e-07
7e-08
7e-15
-7e-08
-1e-07
-2e-07
-3e-07
3e-07
2e-07
1e-07
7e-08
7e-15
-7e-08
-1e-07
-2e-07
-3e-07
3e-07
2e-07
1e-07
7e-08
7e-15
-7e-08
-1e-07
-2e-07
-3e-07
3e-07
2e-07
1e-07
7e-08
7e-15
-7e-08
-1e-07
-2e-07
-3e-07
3e-07
2e-07
1e-07
7e-08
7e-15
-7e-08
-1e-07
-2e-07
-3e-07
3e-07
2e-07
1e-07
7e-08
7e-15
-7e-08
-1e-07
-2e-07
-3e-07
3e-07
2e-07
1e-07
7e-08
7e-15
-7e-08
-1e-07
-2e-07
-3e-07
3e-07
2e-07
1e-07
7e-08
7e-15
-7e-08
-1e-07
-2e-07
-3e-07
3e-07
2e-07
1e-07
7e-08
7e-15
-7e-08
-1e-07
-2e-07
-3e-07
3e-07
2e-07
1e-07
7e-08
7e-15
-7e-08
-1e-07
-2e-07
-3e-07
3e-07
2e-07
1e-07
7e-08
7e-15
-7e-08
-1e-07
-2e-07
-3e-07
3e-07
2e-07
1e-07
7e-08
7e-15
-7e-08
-1e-07
-2e-07
-3e-07
3e-07
2e-07
1e-07
7e-08
7e-15
-7e-08
-1e-07
-2e-07
-3e-07
3e-07
2e-07
1e-07
7e-08
7e-15
-7e-08
-1e-07
-2e-07
-3e-07
3e-07
2e-07
1e-07
7e-08
7e-15
-7e-08
-1e-07
-2e-07
-3e-07
3e-07
2e-07
1e-07
7e-08
7e-15
-7e-08
-1e-07
-2e-07
-3e-07
3e-07
2e-07
1e-07
7e-08
7e-15
-7e-08
-1e-07
-2e-07
-3e-07
3e-07
2e-07
1e-07
7e-08
7e-15
-7e-08
-1e-07
-2e-07
-3e-07
3e-07
2e-07
1e-07
7e-08
7e-15
-7e-08
-1e-07
-2e-07
-3e-07
3e-07
2e-07
1e-07
7e-08
7e-15
-7e-08
-1e-07
-2e-07
-3e-07
3e-07
2e-07
1e-07
7e-08
7e-15
-7e-08
-1e-07
-2e-07
-3e-07
3e-07
2e-07
1e-07
7e-08
7e-15
-7e-08
-1e-07
-2e-07
-3e-07
3e-07
2e-07
1e-07
7e-08
7e-15
-7e-08
-1e-07
-2e-07
-3e-07
3e-07
2e-07
1e-07
7e-08
7e-15
-7e-08
-1e-07
-2e-07
-3e-07
3e-07
2e-07
1e-07
7e-08
7e-15
-7e-08
-1e-07
-2e-07
-3e-07
3e-07
2e-07
1e-07
7e-08
7e-15
-7e-08
-1e-07
-2e-07
-3e-07
3e-07
2e-07
1e-07
7e-08
7e-15
-7e-08
-1e-07
-2e-07
-3e-07
3e-07
2e-07
1e-07
7e-08
7e-15
-7e-08
-1e-07
-2e-07
-3e-07
3e-07
2e-07
1e-07
7e-08
7e-15
-7e-08
-1e-07
-2e-07
-3e-07
3e-07
2e-07
1e-07
7e-08
7e-15
-7e-08
-1e-07
-2e-07
-3e-07
3e-07
2e-07
1e-07
7e-08
7e-15
-7e-08
-1e-07
-2e-07
-3e-07
3e-07
2e-07
1e-07
7e-08
7e-15
-7e-08
-1e-07
-2e-07
-3e-07
3e-07
2e-07
1e-07
7e-08
7e-15
-7e-08
-1e-07
-2e-07
-3e-07
SCALARS u2 float
LOOKUP_TABLE default
-4e-18
-0.0001
-0.0001
-0.0001
-0.0001
-0.0001
-0.0001
-0.0001
-9e-05
-9e-05
-9e-05
-9e-05
-9e-05
-9e-05
-9e-05
-9e-05
-8e-05
-8e-05
-8e-05
-8e-05
-8e-05
-8e-05
-8e-05
-8e-05
-7e-05
-7e-05
-7e-05
-7e-05
-7e-05
-7e-05
-7e-05
-6e-05
-6e-05
-6e-05
-6e-05
-6e-05
-6e-05
-6e-05
-6e-05
-5e-05
-5e-05
-5e-05
-5e-05
-5e-05
-5e-05
-5e-05
-5e-05
-4e-05
-4e-05
-4e-05
-4e-05
-4e-05
-4e-05
-4e-05
-4e-05
-3e-05
-3e-05
-3e-05
-3e-05
-3e-05
-3e-05
-3e-05
-2e-05
-2e-05
-2e-05
-2e-05
-2e-05
-2e-05
-2e-05
-2e-05
-1e-05
-1e-05
-1e-05
-1e-05
-9e-06
-8e-06
-6e-06
-5e-06
-4e-06
-3e-06
-1e-06
-0.0001
3e-17
-1e-06
-3e-06
-4e-06
-5e-06
-6e-06
-8e-06
-9e-06
-1e-05
-1e-05
-1e-05
-1e-05
-2e-05
-2e-05
-2e-05
-2e-05
-2e-05
-2e-05
-2e-05
-2e-05
-3e-05
-3e-05
-3e-05
-3e-05
-3e-05
-3e-05
-3e-05
-4e-05
-4e-05
-4e-05
-4e-05
-4e-05
-4e-05
-4e-05
-4e-05
-5e-05
-5e-05
-5e-05
-5e-05
-5e-05
-5e-05
-5e-05
-5e-05
-6e-05
-6e-05
-6e-05
-6e-05
-6e-05
-6e-05
-6e-05
-6e-05
-7e-05
-7e-05
-7e-05
-7e-05
-7e-05
-7e-05
-7e-05
-8e-05
-8e-05
-8e-05
-8e-05
-8e-05
-8e-05
-8e-05
-8e-05
-9e-05
-9e-05
-9e-05
-9e-05
-9e-05
-9e-05
-9e-05
-9e-05
-0.0001
-0.0001
-0.0001
-0.0001
-0.0001
-0.0001
-0.0001
-0.0001
-0.0001
-0.0001
-0.0001
-0.0001
-0.0001
-0.0001
-0.0001
-3e-18
-4e-17
1e-17
2e-18
1e-17
-1e-18
-2e-17
-6e-17
5e-17
-1e-06
-1e-06
-1e-06
-1e-06
-1e-06
-1e-06
-1e-06
-1e-06
-1e-06
-3e-06
-3e-06
-3e-06
-3e-06
-3e-06
-3e-06
-3e-06
-3e-06
-3e-06
-4e-06
-4e-06
-4e-06
-4e-06
-4e-06
-4e-06
-4e-06
-4e-06
-4e-06
-5e-06
-5e-06
-5e-06
-5e-06
-5e-06
-5e-06
-5e-06
-5e-06
-5e-06
-6e-06
-6e-06
-6e-06
-6e-06
-6e-06
-6e-06
-6e-06
-6e-06
-6e-06
-8e-06
-8e-06
-8e-06
-8e-06
-8e-06
-8e-06
-8e-06
-8e-06
-8e-06
-9e-06
-9e-06
-9e-06
-9e-06
-9e-06
-9e-06
-9e-06
-9e-06
-9e-06
-1e-05
-1e-05
-1e-05
-1e-05
-1e-05
-1e-05
-1e-05
-1e-05
-1e-05
-1e-05
-1e-05
-1e-05
-1e-05
-1e-05
-1e-05
-1e-05
-1e-05
-1e-05
-1e-05
-1e-05
-1e-05
-1e-05
-1e-05
-1e-05
-1e-05
-1e-05
-1e-05
-1e-05
-1e-05
-1e-05
-1e-05
-1e-05
-1e-05
-1e-05
-1e-05
-1e-05
-2e-05
-2e-05
-2e-05
-2e-05
-2e-05
-2e-05
-2e-05
-2e-05
-2e-05
-2e-05
-2e-05
-2e-05
-2e-05
-2e-05
-2e-05
-2e-05
-2e-05
-2e-05
-2e-05
-2e-05
-2e-05
-2e-05
-2e-05
-2e-05
-2e-05
-2e-05
-2e-05
-2e-05
-2e-05
-2e-05
-2e-05
-2e-05
-2e-05
-2e-05
-2e-05
-2e-05
-2e-05
-2e-05
-2e-05
-2e-05
-2e-05
-2e-05
-2e-05
-2e-05
-2e-05
-2e-05
-2e-05
-2e-05
-2e-05
-2e-05
-2e-05
-2e-05
-2e-05
-2e-05
-2e-05
-2e-05
-2e-05
-2e-05
-2e-05
-2e-05
-2e-05
-2e-05
-2e-05
-2e-05
-2e-05
-2e-05
-2e-05
-2e-05
-2e-05
-2e-05
-2e-05
-2e-05
-3e-05
-3e-05
-3e-05
-3e-05
-3e-05
-3e-05
-3e-05
-3e-05
-3e-05
-3e-05
-3e-05
-3e-05
-3e-05
-3e-05
-3e-05
-3e-05
-3e-05
-3e-05
-3e-05
-3e-05
-3e-05
-3e-05
-3e-05
-3e-05
-3e-05
-3e-05
-3e-05
-3e-05
-3e-05
-3e-05
-3e-05
-3e-05
-3e-05
-3e-05
-3e-05
-3e-05
-3e-05
-3e-05
-3e-05
-3e-05
-3e-05
-3e-05
-3e-05
-3e-05
-3e-05
-3e-05
-3e-05
-3e-05
-3e-05
-3e-05
-3e-05
-3e-05
-3e-05
-3e-05
-3e-05
-3e-05
-3e-05
-3e-05
-3e-05
-3e-05
-3e-05
-3e-05
-3e-05
-4e-05
-4e-05
-4e-05
-4e-05
-4e-05
-4e-05
-4e-05
-4e-05
-4e-05
-4e-05
-4e-05
-4e-05
-4e-05
-4e-05
-4e-05
-4e-05
-4e-05
-4e-05
-4e-05
-4e-05
-4e-05
-4e-05
-4e-05
-4e-05
-4e-05
-4e-05
-4e-05
-4e-05
-4e-05
-4e-05
-4e-05
-4e-05
-4e-05
-4e-05
-4e-05
-4e-05
-4e-05
-4e-05
-4e-05
-4e-05
-4e-05
-4e-05
-4e-05
-4e-05
-4e-05
-4e-05
-4e-05
-4e-05
-4e-05
-4e-05
-4e-05
-4e-05
-4e-05
-4e-05
-4e-05
-4e-05
-4e-05
-4e-05
-4e-05
-4e-05
-4e-05
-4e-05
-4e-05
-4e-05
-4e-05
-4e-05
-4e-05
-4e-05
-4e-05
-4e-05
-4e-05
-4e-05
-5e-05
-5e-05
-5e-05
-5e-05
-5e-05
-5e-05
-5e-05
-5e-05
-5e-05
-5e-05
-5e-05
-5e-05
-5e-05
-5e-05
-5e-05
-5e-05
-5e-05
-5e-05
-5e-05
-5e-05
-5e-05
-5e-05
-5e-05
-5e-05
-5e-05
-5e-05
-5e-05
-5e-05
-5e-05
-5e-05
-5e-05
-5e-05
-5e-05
-5e-05
-5e-05
-5e-05
-5e-05
-5e-05
-5e-05
-5e-05
-5e-05
-5e-05
-5e-05
-5e-05
-5e-05
-5e-05
-5e-05
-5e-05
-5e-05
-5e-05
-5e-05
-5e-05
-5e-05
-5e-05
-5e-05
-5e-05
-5e-05
-5e-05
-5e-05
-5e-05
-5e-05
-5e-05
-5e-05
-5e-05
-5e-05
-5e-05
-5e-05
-5e-05
-5e-05
-5e-05
-5e-05
-5e-05
-6e-05
-6e-05
-6e-05
-6e-05
-6e-05
-6e-05
-6e-05
-6e-05
-6e-05
-6e-05
-6e-05
-6e-05
-6e-05
-6e-05
-6e-05
-6e-05
-6e-05
-6e-05
-6e-05
-6e-05
-6e-05
-6e-05
-6e-05
-6e-05
-6e-05
-6e-05
-6e-05
-6e-05
-6e-05
-6e-05
-6e-05
-6e-05
-6e-05
-6e-05
-6e-05
-6e-05
-6e-05
-6e-05
-6e-05
-6e-05
-6e-05
-6e-05
-6e-05
-6e-05
-6e-05
-6e-05
-6e-05
-6e-05
-6e-05
-6e-05
-6e-05
-6e-05
-6e-05
-6e-05
-6e-05
-6e-05
-6e-05
-6e-05
-6e-05
-6e-05
-6e-05
-6e-05
-6e-05
-6e-05
-6e-05
-6e-05
-6e-05
-6e-05
-6e-05
-6e-05
-6e-05
-6e-05
-7e-05
-7e-05
-7e-05
-7e-05
-7e-05
-7e-05
-7e-05
-7e-05
-7e-05
-7e-05
-7e-05
-7e-05
-7e-05
-7e-05
-7e-05
-7e-05
-7e-05
-7e-05
-7e-05
-7e-05
-7e-05
-7e-05
-7e-05
-7e-05
-7e-05
-7e-05
-7e-05
-7e-05
-7e-05
-7e-05
-7e-05
-7e-05
-7e-05
-7e-05
-7e-05
-7e-05
-7e-05
-7e-05
-7e-05
-7e-05
-7e-05
-7e-05
-7e-05
-7e-05
-7e-05
-7e-05
-7e-05
-7e-05
-7e-05
-7e-05
-7e-05
-7e-05
-7e-05
-7e-05
-7e-05
-7e-05
-7e-05
-7e-05
-7e-05
-7e-05
-7e-05
-7e-05
-7e-05
-8e-05
-8e-05
-8e-05
-8e-05
-8e-05
-8e-05
-8e-05
-8e-05
-8e-05
-8e-05
-8e-05
-8e-05
-8e-05
-8e-05
-8e-05
-8e-05
-8e-05
-8e-05
-8e-05
-8e-05
-8e-05
-8e-05
-8e-05
-8e-05
-8e-05
-8e-05
-8e-05
-8e-05
-8e-05
-8e-05
-8e-05
-8e-05
-8e-05
-8e-05
-8e-05
-8e-05
-8e-05
-8e-05
-8e-05
-8e-05
-8e-05
-8e-05
-8e-05
-8e-05
-8e-05
-8e-05
-8e-05
-8e-05
-8e-05
-8e-05
-8e-05
-8e-05
-8e-05
-8e-05
-8e-05
-8e-05
-8e-05
-8e-05
-8e-05
-8e-05
-8e-05
-8e-05
-8e-05
-8e-05
-8e-05
-8e-05
-8e-05
-8e-05
-8e-05
-8e-05
-8e-05
-8e-05
-9e-05
-9e-05
-9e-05
-9e-05
-9e-05
-9e-05
-9e-05
-9e-05
-9e-05
-9e-05
-9e-05
-9e-05
-9e-05
-9e-05
-9e-05
-9e-05
-9e-05
-9e-05
-9e-05
-9e-05
-9e-05
-9e-05
-9e-05
-9e-05
-9e-05
-9e-05
-9e-05
-9e-05
-9e-05
-9e-05
-9e-05
-9e-05
-9e-05
-9e-05
-9e-05
-9e-05
-9e-05
-9e-05
-9e-05
-9e-05
-9e-05
-9e-05
-9e-05
-9e-05
-9e-05
-9e-05
-9e-05
-9e-05
-9e-05
-9e-05
-9e-05
-9e-05
-9e-05
-9e-05
-9e-05
-9e-05
-9e-05
-9e-05
-9e-05
-9e-05
-9e-05
-9e-05
-9e-05
-9e-05
-9e-05
-9e-05
-9e-05
-9e-05
-9e-05
-9e-05
-9e-05
-9e-05
-0.0001
-0.0001
-0.0001
-0.0001
-0.0001
-0.0001
-0.0001
-0.0001
-0.0001
-0.0001
-0.0001
-0.0001
-0.0001
-0.0001
-0.0001
-0.0001
-0.0001
-0.0001
-0.0001
-0.0001
-0.0001
-0.0001
-0.0001
-0.0001
-0.0001
-0.0001
-0.0001
-0.0001
-0.0001
-0.0001
-0.0001
-0.0001
-0.0001
-0.0001
-0.0001
-0.0001
-0.0001
-0.0001
-0.0001
-0.0001
-0.0001
-0.0001
-0.0001
-0.0001
-0.0001
-0.0001
-0.0001
-0.0001
-0.0001
-0.0001
-0.0001
-0.0001
-0.0001
-0.0001
SCALARS strain_1 float
LOOKUP_TABLE default
-0.000026
-0.042151
-0.041514
-0.040873
-0.040230
-0.039583
-0.038934
-0.038282
-0.037627
-0.036971
-0.036312
-0.035651
-0.034989
-0.034325
-0.033659
-0.032993
-0.032325
-0.031657
-0.030989
-0.030320
-0.029651
-0.028982
-0.028314
-0.027646
-0.026979
-0.026314
-0.025650
-0.024988
-0.024328
-0.023671
-0.023016
-0.022364
-0.021715
-0.021070
-0.020429
-0.019791
-0.019159
-0.018531
-0.017908
-0.017291
-0.016680
-0.016074
-0.015475
-0.014883
-0.014298
-0.013720
-0.013150
-0.012588
-0.012035
-0.011490
-0.010954
-0.010427
-0.009909
-0.009402
-0.008905
-0.008418
-0.007941
-0.007476
-0.007022
-0.006579
-0.006148
-0.005729
-0.005322
-0.004926
-0.004544
-0.004174
-0.003816
-0.003472
-0.003140
-0.002822
-0.002516
-0.002224
-0.001945
-0.001679
-0.001426
-0.001187
-0.000961
-0.000748
-0.000548
-0.000361
-0.000188
-0.042189
-0.000001
-0.000163
-0.000337
-0.000524
-0.000725
-0.000938
-0.001165
-0.001405
-0.001658
-0.001924
-0.002204
-0.002497
-0.002803
-0.003123
-0.003455
-0.003800
-0.004159
-0.004530
-0.004913
-0.005309
-0.005717
-0.006137
-0.006569
-0.007013
-0.007468
-0.007935
-0.008412
-0.008900
-0.009398
-0.009906
-0.010424
-0.010952
-0.011489
-0.012035
-0.012590
-0.013153
-0.013724
-0.014303
-0.014889
-0.015482
-0.016082
-0.016688
-0.017301
-0.017919
-0.018542
-0.019171
-0.019805
-0.020443
-0.021085
-0.021731
-0.022381
-0.023034
-0.023690
-0.024348
-0.025009
-0.025672
-0.026336
-0.027002
-0.027670
-0.028338
-0.029007
-0.029677
-0.030347
-0.031016
-0.031685
-0.032354
-0.033022
-0.033690
-0.034356
-0.035020
-0.035683
-0.036345
-0.037004
-0.037661
-0.038316
-0.038969
-0.039619
-0.040266
-0.040910
-0.041551
-0.042185
-0.042182
-0.042178
-0.042175
-0.042171
-0.042167
-0.042163
-0.042159
-0.042155
-0.000021
-0.000017
-0.000013
-0.000010
-0.000007
-0.000005
-0.000003
-0.000002
-0.000001
-0.000163
-0.000163
-0.000164
-0.000166
-0.000168
-0.000171
-0.000174
-0.000178
-0.000183
-0.000337
-0.000337
-0.000338
-0.000340
-0.000342
-0.000345
-0.000348
-0.000352
-0.000357
-0.000524
-0.000525
-0.000526
-0.000527
-0.000529
-0.000532
-0.000535
-0.000539
-0.000543
-0.000725
-0.000725
-0.000726
-0.000727
-0.000730
-0.000732
-0.000735
-0.000739
-0.000743
-0.000938
-0.000938
-0.000939
-0.000941
-0.000943
-0.000945
-0.000948
-0.000952
-0.000956
-0.001164
-0.001165
-0.001166
-0.001167
-0.001169
-0.001172
-0.001175
-0.001178
-0.001182
-0.001404
-0.001404
-0.001405
-0.001407
-0.001409
-0.001411
-0.001414
-0.001418
-0.001422
-0.001657
-0.001658
-0.001658
-0.001660
-0.001661
-0.001664
-0.001667
-0.001670
-0.001674
-0.001924
-0.001924
-0.001924
-0.001926
-0.001927
-0.001930
-0.001933
-0.001936
-0.001940
-0.002203
-0.002203
-0.002204
-0.002205
-0.002207
-0.002209
-0.002212
-0.002215
-0.002219
-0.002496
-0.002496
-0.002497
-0.002498
-0.002499
-0.002502
-0.002504
-0.002508
-0.002512
-0.002803
-0.002802
-0.002803
-0.002804
-0.002805
-0.002807
-0.002810
-0.002813
-0.002817
-0.003122
-0.003122
-0.003122
-0.003123
-0.003124
-0.003126
-0.003129
-0.003132
-0.003136
-0.003454
-0.003454
-0.003454
-0.003455
-0.003456
-0.003458
-0.003461
-0.003464
-0.003467
-0.003800
-0.003799
-0.003799
-0.003800
-0.003801
-0.003803
-0.003806
-0.003809
-0.003812
-0.004158
-0.004157
-0.004157
-0.004158
-0.004159
-0.004161
-0.004163
-0.004166
-0.004170
-0.004528
-0.004528
-0.004528
-0.004529
-0.004530
-0.004532
-0.004534
-0.004537
-0.004540
-0.004912
-0.004911
-0.004911
-0.004912
-0.004913
-0.004914
-0.004917
-0.004919
-0.004923
-0.005308
-0.005307
-0.005307
-0.005307
-0.005309
-0.005310
-0.005312
-0.005315
-0.005318
-0.005716
-0.005715
-0.005715
-0.005715
-0.005716
-0.005718
-0.005720
-0.005722
-0.005725
-0.006136
-0.006135
-0.006135
-0.006135
-0.006136
-0.006137
-0.006139
-0.006142
-0.006145
-0.006568
-0.006567
-0.006567
-0.006567
-0.006568
-0.006569
-0.006571
-0.006573
-0.006576
-0.007012
-0.007011
-0.007010
-0.007011
-0.007011
-0.007012
-0.007014
-0.007016
-0.007019
-0.007467
-0.007466
-0.007465
-0.007465
-0.007466
-0.007467
-0.007468
-0.007470
-0.007473
-0.007933
-0.007932
-0.007931
-0.007931
-0.007932
-0.007933
-0.007934
-0.007936
-0.007938
-0.008410
-0.008409
-0.008408
-0.008408
-0.008409
-0.008409
-0.008411
-0.008413
-0.008415
-0.008898
-0.008897
-0.008896
-0.008896
-0.008896
-0.008897
-0.008898
-0.008900
-0.008902
-0.009396
-0.009395
-0.009394
-0.009394
-0.009394
-0.009395
-0.009396
-0.009397
-0.009399
-0.009905
-0.009903
-0.009902
-0.009902
-0.009902
-0.009902
-0.009903
-0.009905
-0.009907
-0.010423
-0.010421
-0.010420
-0.010420
-0.010420
-0.010420
-0.010421
-0.010422
-0.010424
-0.010950
-0.010949
-0.010948
-0.010947
-0.010947
-0.010948
-0.010948
-0.010950
-0.010951
-0.011487
-0.011486
-0.011485
-0.011484
-0.011484
-0.011484
-0.011485
-0.011486
-0.011487
-0.012033
-0.012032
-0.012030
-0.012030
-0.012029
-0.012030
-0.012030
-0.012031
-0.012033
-0.012588
-0.012586
-0.012585
-0.012584
-0.012584
-0.012584
-0.012584
-0.012585
-0.012586
-0.013151
-0.013149
-0.013148
-0.013147
-0.013146
-0.013146
-0.013147
-0.013147
-0.013149
-0.013722
-0.013720
-0.013719
-0.013718
-0.013717
-0.013717
-0.013717
-0.013718
-0.013719
-0.014300
-0.014299
-0.014297
-0.014296
-0.014295
-0.014295
-0.014295
-0.014296
-0.014297
-0.014887
-0.014885
-0.014883
-0.014882
-0.014881
-0.014881
-0.014881
-0.014881
-0.014882
-0.015480
-0.015478
-0.015476
-0.015475
-0.015474
-0.015473
-0.015473
-0.015474
-0.015474
-0.016079
-0.016077
-0.016076
-0.016075
-0.016073
-0.016073
-0.016073
-0.016073
-0.016073
-0.016686
-0.016684
-0.016682
-0.016681
-0.016679
-0.016679
-0.016678
-0.016678
-0.016679
-0.017298
-0.017296
-0.017294
-0.017293
-0.017292
-0.017291
-0.017290
-0.017290
-0.017291
-0.017916
-0.017914
-0.017912
-0.017911
-0.017909
-0.017909
-0.017908
-0.017908
-0.017908
-0.018540
-0.018538
-0.018536
-0.018534
-0.018533
-0.018532
-0.018531
-0.018531
-0.018531
-0.019168
-0.019166
-0.019164
-0.019163
-0.019161
-0.019160
-0.019159
-0.019159
-0.019159
-0.019802
-0.019800
-0.019798
-0.019796
-0.019794
-0.019793
-0.019792
-0.019792
-0.019791
-0.020440
-0.020438
-0.020436
-0.020434
-0.020432
-0.020431
-0.020430
-0.020429
-0.020429
-0.021082
-0.021080
-0.021078
-0.021076
-0.021074
-0.021073
-0.021071
-0.021071
-0.021070
-0.021728
-0.021726
-0.021724
-0.021722
-0.021720
-0.021718
-0.021717
-0.021716
-0.021715
-0.022378
-0.022375
-0.022373
-0.022371
-0.022369
-0.022368
-0.022366
-0.022365
-0.022364
-0.023031
-0.023028
-0.023026
-0.023024
-0.023022
-0.023020
-0.023019
-0.023017
-0.023016
-0.023687
-0.023684
-0.023681
-0.023679
-0.023677
-0.023675
-0.023674
-0.023673
-0.023672
-0.024345
-0.024342
-0.024340
-0.024337
-0.024335
-0.024334
-0.024332
-0.024331
-0.024329
-0.025006
-0.025003
-0.025000
-0.024998
-0.024996
-0.024994
-0.024992
-0.024991
-0.024989
-0.025669
-0.025666
-0.025663
-0.025661
-0.025659
-0.025657
-0.025655
-0.025653
-0.025652
-0.026333
-0.026330
-0.026328
-0.026325
-0.026323
-0.026321
-0.026319
-0.026317
-0.026316
-0.026999
-0.026997
-0.026994
-0.026991
-0.026989
-0.026987
-0.026985
-0.026983
-0.026981
-0.027667
-0.027664
-0.027661
-0.027658
-0.027656
-0.027654
-0.027652
-0.027650
-0.027648
-0.028335
-0.028332
-0.028329
-0.028326
-0.028324
-0.028322
-0.028319
-0.028317
-0.028315
-0.029004
-0.029001
-0.028998
-0.028995
-0.028993
-0.028990
-0.028988
-0.028986
-0.028984
-0.029674
-0.029670
-0.029668
-0.029665
-0.029662
-0.029660
-0.029657
-0.029655
-0.029653
-0.030343
-0.030340
-0.030337
-0.030334
-0.030332
-0.030329
-0.030326
-0.030324
-0.030322
-0.031013
-0.031010
-0.031007
-0.031004
-0.031001
-0.030998
-0.030996
-0.030993
-0.030991
-0.031682
-0.031679
-0.031676
-0.031673
-0.031670
-0.031667
-0.031665
-0.031662
-0.031660
-0.032351
-0.032348
-0.032345
-0.032342
-0.032339
-0.032336
-0.032333
-0.032331
-0.032328
-0.033019
-0.033016
-0.033013
-0.033010
-0.033007
-0.033004
-0.033001
-0.032998
-0.032996
-0.033686
-0.033683
-0.033680
-0.033677
-0.033674
-0.033671
-0.033668
-0.033665
-0.033662
-0.034352
-0.034349
-0.034346
-0.034343
-0.034339
-0.034336
-0.034333
-0.034330
-0.034328
-0.035017
-0.035014
-0.035010
-0.035007
-0.035004
-0.035001
-0.034998
-0.034995
-0.034992
-0.035680
-0.035677
-0.035673
-0.035670
-0.035667
-0.035664
-0.035661
-0.035657
-0.035654
-0.036341
-0.036338
-0.036334
-0.036331
-0.036328
-0.036325
-0.036322
-0.036318
-0.036315
-0.037001
-0.036997
-0.036994
-0.036990
-0.036987
-0.036984
-0.036980
-0.036977
-0.036974
-0.037658
-0.037654
-0.037651
-0.037648
-0.037644
-0.037641
-0.037637
-0.037634
-0.037631
-0.038313
-0.038309
-0.038306
-0.038302
-0.038299
-0.038295
-0.038292
-0.038289
-0.038285
-0.038965
-0.038962
-0.038958
-0.038955
-0.038951
-0.038948
-0.038944
-0.038941
-0.038937
-0.039615
-0.039612
-0.039608
-0.039605
-0.039601
-0.039597
-0.039594
-0.039590
-0.039587
-0.040262
-0.040259
-0.040255
-0.040252
-0.040248
-0.040244
-0.040241
-0.040237
-0.040234
-0.040906
-0.040903
-0.040899
-0.040896
-0.040892
-0.040888
-0.040885
-0.040881
-0.040877
-0.041548
-0.041544
-0.041540
-0.041537
-0.041533
-0.041529
-0.041526
-0.041522
-0.041518
SCALARS strain_2 float
LOOKUP_TABLE default
0.000586
0.000375
0.000374
0.000375
0.000374
0.000375
0.000375
0.000375
0.000375
0.000375
0.000375
0.000375
0.000375
0.000377
0.000376
0.000376
0.000377
0.000377
0.000378
0.000379
0.000380
0.000380
0.000381
0.000383
0.000383
0.000384
0.000385
0.000386
0.000387
0.000389
0.000390
0.000391
0.000392
0.000394
0.000396
0.000398
0.000400
0.000401
0.000403
0.000406
0.000407
0.000409
0.000412
0.000414
0.000418
0.000420
0.000423
0.000426
0.000428
0.000432
0.000435
0.000438
0.000442
0.000445
0.000448
0.000452
0.000456
0.000461
0.000464
0.000469
0.000473
0.000477
0.000482
0.000487
0.000491
0.000496
0.000500
0.000506
0.000511
0.000516
0.000522
0.000527
0.000533
0.000538
0.000544
0.000549
0.000555
0.000562
0.000567
0.000573
0.000579
0.001080
0.001092
0.001094
0.001094
0.001095
0.001095
0.001096
0.001097
0.001097
0.001098
0.001099
0.001100
0.001100
0.001101
0.001101
0.001102
0.001103
0.001103
0.001103
0.001104
0.001104
0.001104
0.001105
0.001106
0.001106
0.001106
0.001106
0.001107
0.001107
0.001107
0.001108
0.001107
0.001108
0.001108
0.001108
0.001108
0.001108
0.001108
0.001108
0.001108
0.001108
0.001108
0.001108
0.001108
0.001107
0.001108
0.001107
0.001107
0.001107
0.001107
0.001106
0.001105
0.001105
0.001106
0.001104
0.001104
0.001103
0.001103
0.001102
0.001101
0.001100
0.001100
0.001099
0.001099
0.001098
0.001097
0.001095
0.001095
0.001095
0.001094
0.001092
0.001091
0.001091
0.001089
0.001088
0.001087
0.001086
0.001085
0.001084
0.001083
0.001080
0.001010
0.000939
0.000868
0.000798
0.000727
0.000656
0.000586
0.000516
0.000445
0.000637
0.000688
0.000738
0.000788
0.000840
0.000890
0.000941
0.000992
0.001042
0.001042
0.000991
0.000939
0.000888
0.000837
0.000786
0.000734
0.000682
0.000631
0.001043
0.000991
0.000938
0.000886
0.000835
0.000783
0.000730
0.000677
0.000626
0.001042
0.000990
0.000937
0.000884
0.000831
0.000779
0.000725
0.000674
0.000620
0.001043
0.000989
0.000935
0.000882
0.000829
0.000776
0.000722
0.000668
0.000615
0.001042
0.000988
0.000935
0.000881
0.000825
0.000772
0.000718
0.000663
0.000609
0.001042
0.000988
0.000932
0.000878
0.000824
0.000768
0.000714
0.000659
0.000603
0.001042
0.000987
0.000931
0.000877
0.000821
0.000765
0.000710
0.000654
0.000599
0.001042
0.000986
0.000930
0.000875
0.000818
0.000762
0.000706
0.000650
0.000594
0.001043
0.000986
0.000929
0.000872
0.000815
0.000760
0.000703
0.000646
0.000588
0.001042
0.000985
0.000927
0.000870
0.000813
0.000756
0.000699
0.000642
0.000584
0.001042
0.000985
0.000926
0.000869
0.000810
0.000752
0.000695
0.000637
0.000580
0.001043
0.000984
0.000926
0.000867
0.000809
0.000750
0.000691
0.000633
0.000575
0.001042
0.000983
0.000925
0.000865
0.000806
0.000748
0.000688
0.000629
0.000569
0.001043
0.000983
0.000923
0.000863
0.000804
0.000744
0.000685
0.000625
0.000566
0.001042
0.000982
0.000921
0.000862
0.000802
0.000742
0.000682
0.000621
0.000560
0.001042
0.000982
0.000921
0.000861
0.000799
0.000738
0.000678
0.000618
0.000557
0.001041
0.000980
0.000920
0.000857
0.000797
0.000736
0.000675
0.000613
0.000552
0.001042
0.000980
0.000919
0.000857
0.000795
0.000733
0.000672
0.000610
0.000548
0.001042
0.000979
0.000917
0.000855
0.000793
0.000730
0.000669
0.000607
0.000544
0.001042
0.000980
0.000917
0.000853
0.000791
0.000728
0.000665
0.000603
0.000539
0.001041
0.000978
0.000916
0.000852
0.000789
0.000726
0.000662
0.000599
0.000536
0.001041
0.000978
0.000914
0.000850
0.000788
0.000724
0.000659
0.000596
0.000532
0.001042
0.000978
0.000914
0.000850
0.000786
0.000722
0.000657
0.000593
0.000528
0.001042
0.000977
0.000913
0.000847
0.000784
0.000719
0.000654
0.000590
0.000526
0.001042
0.000976
0.000911
0.000847
0.000782
0.000716
0.000651
0.000586
0.000521
0.001041
0.000975
0.000910
0.000846
0.000780
0.000715
0.000649
0.000583
0.000517
0.001042
0.000976
0.000910
0.000844
0.000778
0.000712
0.000646
0.000581
0.000515
0.001041
0.000975
0.000908
0.000842
0.000777
0.000710
0.000645
0.000577
0.000512
0.001040
0.000974
0.000909
0.000841
0.000774
0.000708
0.000642
0.000574
0.000508
0.001040
0.000973
0.000907
0.000840
0.000773
0.000706
0.000639
0.000572
0.000506
0.001041
0.000973
0.000906
0.000839
0.000771
0.000704
0.000636
0.000570
0.000502
0.001040
0.000973
0.000905
0.000838
0.000770
0.000702
0.000635
0.000568
0.000498
0.001040
0.000972
0.000904
0.000836
0.000769
0.000701
0.000633
0.000565
0.000497
0.001040
0.000972
0.000903
0.000835
0.000767
0.000699
0.000630
0.000563
0.000494
0.001040
0.000971
0.000903
0.000834
0.000766
0.000697
0.000628
0.000560
0.000491
0.001039
0.000970
0.000902
0.000833
0.000764
0.000695
0.000627
0.000558
0.000490
0.001039
0.000971
0.000901
0.000832
0.000763
0.000694
0.000624
0.000555
0.000488
0.001039
0.000969
0.000900
0.000831
0.000762
0.000692
0.000622
0.000553
0.000485
0.001038
0.000969
0.000899
0.000830
0.000760
0.000691
0.000621
0.000551
0.000481
0.001039
0.000969
0.000899
0.000829
0.000759
0.000689
0.000619
0.000549
0.000479
0.001037
0.000967
0.000899
0.000827
0.000758
0.000687
0.000618
0.000548
0.000478
0.001038
0.000967
0.000897
0.000827
0.000757
0.000687
0.000616
0.000545
0.000475
0.001037
0.000967
0.000896
0.000826
0.000756
0.000685
0.000614
0.000545
0.000474
0.001037
0.000966
0.000896
0.000825
0.000754
0.000683
0.000613
0.000542
0.000472
0.001036
0.000966
0.000895
0.000825
0.000753
0.000683
0.000612
0.000541
0.000470
0.001036
0.000965
0.000895
0.000824
0.000753
0.000682
0.000610
0.000540
0.000469
0.001036
0.000964
0.000894
0.000822
0.000751
0.000680
0.000608
0.000538
0.000467
0.001036
0.000964
0.000893
0.000822
0.000751
0.000679
0.000608
0.000536
0.000465
0.001035
0.000964
0.000892
0.000821
0.000750
0.000678
0.000606
0.000536
0.000465
0.001034
0.000963
0.000892
0.000820
0.000749
0.000677
0.000605
0.000534
0.000463
0.001034
0.000963
0.000891
0.000819
0.000747
0.000676
0.000605
0.000533
0.000462
0.001032
0.000962
0.000890
0.000818
0.000747
0.000675
0.000603
0.000532
0.000461
0.001032
0.000961
0.000890
0.000818
0.000746
0.000674
0.000603
0.000531
0.000459
0.001032
0.000961
0.000888
0.000818
0.000744
0.000673
0.000601
0.000530
0.000458
0.001032
0.000960
0.000888
0.000816
0.000744
0.000672
0.000601
0.000529
0.000456
0.001032
0.000959
0.000887
0.000815
0.000744
0.000672
0.000599
0.000528
0.000455
0.001030
0.000959
0.000886
0.000814
0.000743
0.000670
0.000599
0.000527
0.000455
0.001030
0.000959
0.000886
0.000814
0.000742
0.000670
0.000598
0.000526
0.000454
0.001029
0.000957
0.000885
0.000813
0.000741
0.000669
0.000597
0.000525
0.000453
0.001028
0.000956
0.000884
0.000813
0.000741
0.000668
0.000596
0.000524
0.000452
0.001027
0.000955
0.000883
0.000811
0.000740
0.000668
0.000596
0.000523
0.000452
0.001027
0.000955
0.000882
0.000811
0.000738
0.000667
0.000596
0.000523
0.000451
0.001026
0.000955
0.000882
0.000810
0.000737
0.000667
0.000594
0.000522
0.000450
0.001026
0.000953
0.000881
0.000810
0.000738
0.000665
0.000593
0.000521
0.000449
0.001024
0.000953
0.000880
0.000809
0.000736
0.000665
0.000592
0.000520
0.000449
0.001024
0.000952
0.000880
0.000808
0.000737
0.000664
0.000593
0.000520
0.000449
0.001022
0.000951
0.000879
0.000807
0.000735
0.000664
0.000592
0.000520
0.000448
0.001021
0.000950
0.000878
0.000807
0.000735
0.000663
0.000591
0.000520
0.000447
0.001021
0.000949
0.000878
0.000806
0.000734
0.000662
0.000591
0.000519
0.000447
0.001020
0.000949
0.000877
0.000806
0.000734
0.000662
0.000590
0.000518
0.000447
0.001019
0.000948
0.000876
0.000805
0.000734
0.000662
0.000589
0.000518
0.000446
0.001019
0.000946
0.000875
0.000804
0.000732
0.000661
0.000589
0.000518
0.000447
0.001017
0.000946
0.000875
0.000803
0.000731
0.000660
0.000589
0.000517
0.000445
0.001017
0.000945
0.000874
0.000802
0.000731
0.000659
0.000589
0.000517
0.000445
0.001015
0.000944
0.000873
0.000801
0.000730
0.000660
0.000588
0.000516
0.000446
0.001014
0.000943
0.000871
0.000801
0.000729
0.000659
0.000588
0.000517
0.000446
0.001013
0.000941
0.000871
0.000800
0.000729
0.000658
0.000587
0.000516
0.000445
0.001012
0.000941
0.000870
0.000799
0.000728
0.000658
0.000586
0.000516
0.000446
0.001010
0.000940
0.000869
0.000798
0.000728
0.000656
0.000586
0.000515
0.000445
SCALARS strain_3 float
LOOKUP_TABLE default
0.000214
0.013663
0.013470
0.013277
0.013082
0.012886
0.012689
0.012492
0.012293
0.012094
0.011894
0.011692
0.011491
0.011289
0.011086
0.010882
0.010679
0.010474
0.010270
0.010065
0.009860
0.009655
0.009449
0.009244
0.009038
0.008833
0.008628
0.008423
0.008219
0.008015
0.007812
0.007610
0.007407
0.007206
0.007006
0.006807
0.006609
0.006412
0.006215
0.006021
0.005828
0.005637
0.005446
0.005259
0.005072
0.004888
0.004705
0.004525
0.004347
0.004171
0.003997
0.003827
0.003658
0.003493
0.003330
0.003170
0.003012
0.002858
0.002707
0.002559
0.002414
0.002272
0.002135
0.002000
0.001868
0.001741
0.001617
0.001496
0.001380
0.001267
0.001158
0.001053
0.000951
0.000854
0.000760
0.000670
0.000584
0.000503
0.000425
0.000350
0.000280
0.013305
-0.000114
-0.000050
0.000017
0.000089
0.000164
0.000244
0.000327
0.000414
0.000506
0.000601
0.000700
0.000803
0.000910
0.001021
0.001136
0.001255
0.001377
0.001502
0.001632
0.001765
0.001902
0.002042
0.002185
0.002332
0.002482
0.002635
0.002792
0.002950
0.003112
0.003278
0.003445
0.003616
0.003788
0.003964
0.004141
0.004321
0.004503
0.004687
0.004873
0.005061
0.005251
0.005442
0.005635
0.005830
0.006026
0.006223
0.006421
0.006621
0.006821
0.007023
0.007225
0.007428
0.007632
0.007836
0.008041
0.008246
0.008451
0.008657
0.008864
0.009070
0.009275
0.009482
0.009688
0.009894
0.010099
0.010304
0.010509
0.010713
0.010917
0.011120
0.011323
0.011525
0.011726
0.011926
0.012126
0.012325
0.012523
0.012720
0.012916
0.013111
0.013341
0.013376
0.013413
0.013449
0.013484
0.013521
0.013556
0.013592
0.013627
0.000180
0.000147
0.000114
0.000080
0.000048
0.000015
-0.000018
-0.000049
-0.000082
-0.000018
0.000015
0.000046
0.000080
0.000113
0.000146
0.000179
0.000213
0.000246
0.000050
0.000082
0.000115
0.000149
0.000182
0.000215
0.000249
0.000282
0.000316
0.000121
0.000154
0.000188
0.000221
0.000254
0.000289
0.000322
0.000356
0.000390
0.000197
0.000230
0.000264
0.000297
0.000331
0.000365
0.000399
0.000434
0.000468
0.000277
0.000310
0.000343
0.000377
0.000412
0.000446
0.000480
0.000515
0.000549
0.000360
0.000395
0.000428
0.000462
0.000497
0.000531
0.000566
0.000601
0.000635
0.000448
0.000482
0.000516
0.000551
0.000585
0.000620
0.000654
0.000689
0.000725
0.000540
0.000574
0.000608
0.000643
0.000677
0.000713
0.000748
0.000783
0.000818
0.000635
0.000670
0.000704
0.000739
0.000774
0.000809
0.000844
0.000880
0.000916
0.000735
0.000769
0.000804
0.000839
0.000874
0.000910
0.000945
0.000981
0.001017
0.000838
0.000873
0.000907
0.000943
0.000979
0.001015
0.001050
0.001086
0.001122
0.000945
0.000980
0.001016
0.001051
0.001087
0.001122
0.001159
0.001194
0.001230
0.001056
0.001091
0.001127
0.001163
0.001198
0.001235
0.001271
0.001307
0.001344
0.001171
0.001207
0.001242
0.001278
0.001315
0.001351
0.001386
0.001423
0.001460
0.001290
0.001326
0.001362
0.001397
0.001434
0.001470
0.001507
0.001543
0.001580
0.001412
0.001448
0.001484
0.001520
0.001557
0.001593
0.001630
0.001667
0.001704
0.001538
0.001574
0.001611
0.001647
0.001684
0.001720
0.001757
0.001794
0.001831
0.001668
0.001704
0.001741
0.001777
0.001814
0.001851
0.001888
0.001925
0.001963
0.001801
0.001838
0.001874
0.001911
0.001948
0.001985
0.002022
0.002060
0.002097
0.001938
0.001975
0.002011
0.002048
0.002085
0.002123
0.002160
0.002197
0.002235
0.002078
0.002115
0.002152
0.002189
0.002226
0.002264
0.002301
0.002338
0.002376
0.002222
0.002259
0.002296
0.002333
0.002370
0.002407
0.002445
0.002483
0.002521
0.002369
0.002406
0.002443
0.002480
0.002518
0.002555
0.002593
0.002631
0.002669
0.002519
0.002556
0.002593
0.002631
0.002668
0.002706
0.002744
0.002782
0.002820
0.002672
0.002709
0.002746
0.002785
0.002822
0.002860
0.002898
0.002936
0.002974
0.002828
0.002865
0.002903
0.002941
0.002979
0.003016
0.003054
0.003092
0.003131
0.002988
0.003025
0.003063
0.003100
0.003139
0.003176
0.003214
0.003253
0.003291
0.003150
0.003188
0.003225
0.003263
0.003301
0.003339
0.003377
0.003416
0.003454
0.003315
0.003353
0.003390
0.003428
0.003467
0.003504
0.003543
0.003581
0.003620
0.003483
0.003521
0.003559
0.003596
0.003634
0.003673
0.003711
0.003749
0.003788
0.003653
0.003691
0.003729
0.003767
0.003805
0.003843
0.003882
0.003921
0.003959
0.003826
0.003864
0.003902
0.003940
0.003978
0.004016
0.004055
0.004094
0.004132
0.004001
0.004039
0.004078
0.004116
0.004154
0.004192
0.004231
0.004270
0.004308
0.004179
0.004217
0.004255
0.004293
0.004332
0.004370
0.004409
0.004447
0.004486
0.004359
0.004397
0.004435
0.004473
0.004512
0.004550
0.004589
0.004627
0.004667
0.004541
0.004579
0.004617
0.004655
0.004694
0.004732
0.004771
0.004810
0.004848
0.004725
0.004763
0.004802
0.004840
0.004878
0.004917
0.004955
0.004995
0.005034
0.004911
0.004949
0.004987
0.005026
0.005064
0.005103
0.005142
0.005181
0.005220
0.005099
0.005138
0.005176
0.005214
0.005253
0.005291
0.005330
0.005368
0.005408
0.005289
0.005327
0.005365
0.005404
0.005443
0.005481
0.005520
0.005559
0.005597
0.005480
0.005519
0.005557
0.005595
0.005635
0.005673
0.005712
0.005750
0.005789
0.005674
0.005711
0.005750
0.005788
0.005827
0.005865
0.005905
0.005944
0.005982
0.005868
0.005907
0.005944
0.005984
0.006022
0.006060
0.006099
0.006138
0.006177
0.006064
0.006102
0.006140
0.006179
0.006218
0.006256
0.006295
0.006334
0.006373
0.006261
0.006299
0.006338
0.006376
0.006415
0.006454
0.006492
0.006531
0.006570
0.006459
0.006498
0.006536
0.006575
0.006613
0.006651
0.006690
0.006729
0.006767
0.006659
0.006697
0.006735
0.006774
0.006812
0.006851
0.006890
0.006928
0.006968
0.006859
0.006898
0.006936
0.006974
0.007013
0.007052
0.007091
0.007128
0.007167
0.007061
0.007099
0.007138
0.007176
0.007214
0.007252
0.007291
0.007330
0.007368
0.007263
0.007301
0.007340
0.007378
0.007416
0.007455
0.007493
0.007532
0.007570
0.007466
0.007505
0.007542
0.007581
0.007619
0.007658
0.007696
0.007735
0.007773
0.007670
0.007708
0.007747
0.007785
0.007823
0.007861
0.007899
0.007938
0.007977
0.007874
0.007912
0.007950
0.007989
0.008027
0.008065
0.008104
0.008142
0.008181
0.008079
0.008117
0.008155
0.008193
0.008232
0.008270
0.008308
0.008347
0.008385
0.008285
0.008322
0.008360
0.008399
0.008437
0.008475
0.008513
0.008551
0.008589
0.008489
0.008528
0.008566
0.008604
0.008642
0.008680
0.008718
0.008757
0.008795
0.008695
0.008733
0.008771
0.008809
0.008847
0.008886
0.008924
0.008962
0.009000
0.008901
0.008939
0.008977
0.009015
0.009053
0.009091
0.009129
0.009167
0.009206
0.009107
0.009146
0.009183
0.009220
0.009259
0.009297
0.009335
0.009373
0.009411
0.009313
0.009351
0.009389
0.009427
0.009464
0.009502
0.009541
0.009578
0.009617
0.009519
0.009557
0.009594
0.009632
0.009670
0.009708
0.009746
0.009784
0.009822
0.009725
0.009763
0.009801
0.009838
0.009876
0.009914
0.009951
0.009989
0.010027
0.009931
0.009968
0.010006
0.010044
0.010081
0.010118
0.010157
0.010194
0.010232
0.010136
0.010174
0.010212
0.010249
0.010286
0.010324
0.010361
0.010399
0.010436
0.010341
0.010379
0.010416
0.010453
0.010491
0.010528
0.010566
0.010603
0.010641
0.010546
0.010583
0.010621
0.010658
0.010695
0.010733
0.010770
0.010807
0.010845
0.010751
0.010788
0.010825
0.010862
0.010899
0.010937
0.010974
0.011011
0.011049
0.010955
0.010991
0.011028
0.011066
0.011103
0.011140
0.011177
0.011215
0.011252
0.011157
0.011194
0.011232
0.011268
0.011305
0.011342
0.011380
0.011417
0.011454
0.011360
0.011396
0.011434
0.011471
0.011508
0.011545
0.011582
0.011619
0.011655
0.011562
0.011599
0.011635
0.011673
0.011709
0.011746
0.011783
0.011820
0.011857
0.011763
0.011799
0.011836
0.011873
0.011910
0.011947
0.011984
0.012020
0.012057
0.011964
0.012000
0.012037
0.012074
0.012110
0.012146
0.012184
0.012219
0.012257
0.012163
0.012199
0.012236
0.012273
0.012309
0.012345
0.012382
0.012419
0.012455
0.012362
0.012398
0.012435
0.012471
0.012508
0.012544
0.012581
0.012617
0.012653
0.012559
0.012595
0.012632
0.012668
0.012704
0.012741
0.012777
0.012813
0.012850
0.012756
0.012792
0.012829
0.012865
0.012901
0.012937
0.012974
0.013010
0.013046
0.012952
0.012989
0.013024
0.013061
0.013097
0.013133
0.013169
0.013205
0.013241
0.013147
0.013183
0.013219
0.013255
0.013291
0.013327
0.013364
0.013399
0.013435
SCALARS stress_1 float
LOOKUP_TABLE default
4095.304970
-3224542.891400
-3175727.663946
-3126661.436491
-3077350.709037
-3027827.981582
-2978102.254127
-2928162.026673
-2878041.299218
-2827740.571763
-2777285.344309
-2726678.116854
-2675933.889400
-2625075.161945
-2574105.934490
-2523052.707036
-2471926.979581
-2420750.252126
-2369531.024672
-2318290.797217
-2267042.569763
-2215818.842308
-2164617.614853
-2113481.887399
-2062412.159944
-2011448.432489
-1960584.705035
-1909858.977580
-1859309.250126
-1808926.022671
-1758741.295216
-1708797.067762
-1659082.340307
-1609654.612852
-1560520.385398
-1511706.657943
-1463224.430488
-1415122.703034
-1367409.975579
-1320111.248125
-1273261.520670
-1226856.793215
-1180950.565761
-1135577.338306
-1090733.110851
-1046460.383397
-1002766.155942
-959689.928488
-917252.201033
-875474.973578
-834394.746124
-794004.018669
-754352.291214
-715444.063760
-677313.336305
-639991.108851
-603471.381396
-567791.653941
-532955.426487
-499001.199032
-465935.971577
-433771.244123
-402535.516668
-372225.289214
-342871.061759
-314466.834304
-287047.106850
-260606.379395
-235159.151940
-210689.424486
-187244.197031
-164808.969576
-143377.742122
-122969.014667
-103564.287213
-85181.059758
-67808.832303
-51432.104849
-36062.377394
-21694.149939
-8317.922485
-3220058.580326
11548.616044
-812.111410
-14164.838865
-28506.566320
-43849.793774
-60193.021229
-77542.248683
-95918.476138
-115298.703593
-135709.931047
-157120.658502
-179555.885957
-203007.113411
-227464.340866
-252920.568320
-279366.795775
-306802.523230
-335204.750684
-364579.478139
-394897.205594
-426172.933048
-458350.160503
-491437.887957
-525421.615412
-560278.842867
-596001.070321
-632543.297776
-669910.525231
-708071.252685
-747016.980140
-786707.707594
-827141.435049
-868277.162504
-910097.889958
-952577.617413
-995709.344868
-1039447.572322
-1083768.299777
-1128667.527232
-1174108.254686
-1220059.982141
-1266503.709595
-1313419.437050
-1360779.664505
-1408547.891959
-1456709.619414
-1505240.846869
-1554112.074323
-1603309.801778
-1652799.529232
-1702572.756687
-1752581.484142
-1802829.711596
-1853274.439051
-1903890.166506
-1954665.393960
-2005586.621415
-2056615.848869
-2107753.076324
-2158947.303779
-2210201.531233
-2261498.758688
-2312796.986143
-2364105.713597
-2415376.941052
-2466614.168506
-2517803.395961
-2568915.123416
-2619943.350870
-2670855.578325
-2721658.305780
-2772324.033234
-2822831.260689
-2873188.488143
-2923371.215598
-2973349.443053
-3023135.170507
-3072715.897962
-3122074.125417
-3171180.852871
-3220525.061433
-3220984.542541
-3221449.023648
-3221901.504756
-3222355.485863
-3222788.966971
-3223242.448078
-3223677.929186
-3224108.910293
5034.286077
5928.767185
6777.748292
7589.729400
8347.210507
9080.191615
9763.672722
10397.653829
11004.134937
-1383.592518
-1980.073625
-2620.554733
-3298.035840
-4031.016948
-4807.998055
-5617.479162
-6471.960270
-7375.441377
-14722.819972
-15327.801080
-15968.782187
-16668.763295
-17395.244402
-18167.725510
-18977.706617
-19849.687725
-20748.168832
-29070.047427
-29684.028534
-30327.009642
-31013.990749
-31753.471857
-32521.452964
-33353.934072
-34212.415179
-35116.396287
-44414.274882
-45022.755989
-45666.737097
-46362.718204
-47099.199311
-47884.180419
-48705.661526
-49572.642634
-50487.623741
-60758.502336
-61370.483444
-62015.964551
-62711.945659
-63449.426766
-64243.407874
-65059.388981
-65934.370088
-66856.851196
-78115.229791
-78730.710898
-79379.692006
-80077.173113
-80821.654221
-81599.135328
-82427.116436
-83293.597543
-84228.578651
-96490.957245
-97102.938353
-97754.419460
-98439.900568
-99192.381675
-99986.362783
-100809.843890
-101688.324998
-102603.306105
-115870.184700
-116494.165808
-117141.146915
-117845.628022
-118583.609130
-119371.590237
-120205.571345
-121088.552452
-122010.033560
-136273.412155
-136888.893262
-137549.374370
-138242.355477
-138988.836585
-139784.817692
-140617.298799
-141499.779907
-142414.761014
-157696.639609
-158306.620717
-158963.101824
-159676.082932
-160424.064039
-161216.045147
-162042.026254
-162920.507362
-163838.988469
-180134.367064
-180753.848171
-181408.329279
-182114.310386
-182864.291494
-183656.772601
-184488.253709
-185365.234816
-186285.715924
-203584.594519
-204202.075626
-204863.556734
-205572.537841
-206325.518948
-207098.500056
-207936.481163
-208808.962271
-209728.943378
-228030.821973
-228656.803081
-229320.284188
-230014.765296
-230769.746403
-231568.227511
-232395.208618
-233264.189725
-234194.170833
-253494.549428
-254109.030535
-254773.011643
-255482.492750
-256228.473858
-257012.454965
-257849.436073
-258732.917180
-259644.398288
-279938.776883
-280557.257990
-281223.239097
-281928.720205
-282676.701312
-283467.182420
-284293.163527
-285172.644635
-286085.625742
-307382.504337
-307992.985445
-308649.966552
-309359.947660
-310109.428767
-310897.409874
-311719.390982
-312601.872089
-313519.853197
-335781.231792
-336404.212899
-337064.694007
-337767.675114
-338511.156222
-339303.137329
-340133.618437
-340994.599544
-341906.080651
-365163.959246
-365773.940354
-366435.421461
-367131.402569
-367877.383676
-368669.864784
-369493.345891
-370371.326999
-371270.308106
-395477.186701
-396091.667808
-396758.648916
-397457.630023
-398201.611131
-398992.092238
-399809.573346
-400677.054453
-401586.035561
-426741.414156
-427352.895263
-428017.376371
-428723.857478
-429455.338585
-430243.819693
-431059.300800
-431924.281908
-432837.263015
-458919.141610
-459539.122718
-460202.103825
-460895.084933
-461636.066040
-462412.547148
-463228.028255
-464096.009362
-464994.990470
-492007.869065
-492637.850172
-493291.831280
-493986.312387
-494724.293495
-495501.274602
-496315.255710
-497177.236817
-498070.217925
-525999.096520
-526616.577627
-527274.558734
-527968.039842
-528699.020949
-529475.502057
-530278.983164
-531136.964272
-532027.945379
-560860.323974
-561470.805082
-562123.786189
-562809.767297
-563549.748404
-564316.729511
-565131.210619
-565972.191726
-566860.172834
-596578.551429
-597176.532536
-597831.513644
-598521.494751
-599256.975859
-600020.956966
-600823.938074
-601673.419181
-602551.400288
-633121.278883
-633732.259991
-634374.741098
-635065.222206
-635795.703313
-636553.684421
-637348.665528
-638199.146636
-639074.627743
-670487.006338
-671096.987446
-671738.968553
-672427.949660
-673150.430768
-673910.911875
-674706.892983
-675539.874090
-676416.855198
-708651.233793
-709261.714900
-709907.196008
-710594.677115
-711306.158223
-712065.639330
-712855.620437
-713676.601545
-714543.582652
-747600.461247
-748194.442355
-748841.423462
-749519.404570
-750237.385677
-750987.366785
-751772.847892
-752597.329000
-753460.310107
-787285.688702
-787891.669809
-788531.650917
-789208.632024
-789913.613132
-790669.094239
-791446.075347
-792257.556454
-793114.037562
-827711.916157
-828314.397264
-828949.378371
-829624.359479
-830337.340586
-831075.321694
-831847.302801
-832657.283909
-833504.265016
-868850.643611
-869443.624719
-870077.105826
-870752.086934
-871462.068041
-872196.549148
-872958.530256
-873773.011363
-874604.992471
-910663.371066
-911265.352173
-911890.833281
-912563.314388
-913263.795496
-913994.276603
-914762.257711
-915554.238818
-916383.719925
-953148.098520
-953751.079628
-954371.560735
-955038.541843
-955729.522950
-956460.004058
-957222.985165
-958003.466273
-958845.947380
-996263.825975
-996873.807083
-997493.288190
-998152.769297
-998842.250405
-999565.731512
-1000319.212620
-1001103.193727
-1001917.674835
-1040012.553430
-1040596.034537
-1041232.515645
-1041876.996752
-1042562.977860
-1043280.958967
-1044033.940074
-1044805.921182
-1045615.902289
-1084335.280884
-1084926.761992
-1085549.243099
-1086202.224207
-1086874.705314
-1087597.686422
-1088333.667529
-1089103.648637
-1089910.129744
-1129233.508339
-1129819.989446
-1130435.970554
-1131081.451661
-1131758.432769
-1132463.913876
-1133198.894984
-1133960.876091
-1134759.857199
-1174667.235794
-1175251.216901
-1175868.698009
-1176508.179116
-1177174.660223
-1177874.141331
-1178605.622438
-1179363.103546
-1180150.584653
-1220621.963248
-1221206.444356
-1221802.425463
-1222443.406571
-1223113.387678
-1223808.868786
-1224535.849893
-1225279.331000
-1226052.812108
-1267064.690703
-1267646.171810
-1268245.652918
-1268886.134025
-1269539.615133
-1270228.096240
-1270947.577348
-1271689.058455
-1272451.039563
-1313967.918157
-1314543.899265
-1315147.880372
-1315778.361480
-1316434.342587
-1317126.323695
-1317824.304802
-1318562.785910
-1319327.267017
-1361321.145612
-1361898.126720
-1362494.607827
-1363126.088934
-1363784.070042
-1364447.551149
-1365156.532257
-1365874.513364
-1366632.994472
-1409090.873067
-1409661.354174
-1410255.335282
-1410887.316389
-1411536.797497
-1412207.778604
-1412889.759711
-1413599.240819
-1414353.721926
-1457255.100521
-1457823.081629
-1458412.062736
-1459032.043844
-1459673.024951
-1460338.506059
-1461020.487166
-1461730.968274
-1462466.949381
-1505787.827976
-1506353.309083
-1506934.790191
-1507552.771298
-1508192.752406
-1508848.733513
-1509525.214621
-1510232.195728
-1510956.676836
-1554664.055431
-1555220.536538
-1555812.017646
-1556417.998753
-1557046.479860
-1557697.460968
-1558371.942075
-1559055.423183
-1559779.904290
-1603857.782885
-1604422.763993
-1604996.745100
-1605601.226208
-1606220.207315
-1606875.188423
-1607543.669530
-1608216.150637
-1608932.631745
-1653346.010340
-1653911.991447
-1654485.972555
-1655089.953662
-1655697.934770
-1656338.415877
-1656995.896985
-1657672.378092
-1658375.359200
-1703111.237794
-1703667.218902
-1704239.700009
-1704835.681117
-1705446.662224
-1706078.143332
-1706728.124439
-1707394.105547
-1708091.586654
-1753120.465249
-1753676.946357
-1754243.927464
-1754833.908572
-1755437.389679
-1756058.870786
-1756712.351894
-1757364.333001
-1758047.314109
-1803357.692704
-1803904.673811
-1804474.154919
-1805058.636026
-1805659.617134
-1806272.098241
-1806922.079349
-1807567.560456
-1808240.541563
-1853797.920158
-1854342.901266
-1854908.882373
-1855484.363481
-1856075.344588
-1856687.825696
-1857322.806803
-1857968.787911
-1858629.269018
-1904415.647613
-1904957.128720
-1905521.609828
-1906098.090935
-1906686.072043
-1907292.553150
-1907910.034258
-1908544.515365
-1909194.996473
-1955195.375068
-1955736.856175
-1956291.337283
-1956865.818390
-1957436.299497
-1958043.280605
-1958663.761712
-1959285.242820
-1959924.223927
-2006109.602522
-2006642.083630
-2007191.064737
-2007767.545845
-2008337.026952
-2008934.508060
-2009534.489167
-2010153.970274
-2010794.951382
-2057139.829977
-2057671.811084
-2058221.292192
-2058783.273299
-2059353.754407
-2059943.735514
-2060544.716622
-2061153.197729
-2061769.178837
-2108266.557432
-2108801.038539
-2109334.519646
-2109900.000754
-2110469.481861
-2111047.462969
-2111635.444076
-2112231.925184
-2112847.906291
-2159463.284886
-2159991.265994
-2160529.747101
-2161082.228209
-2161651.209316
-2162214.190423
-2162803.171531
-2163388.152638
-2164003.133746
-2210713.012341
-2211237.993448
-2211774.974556
-2212324.455663
-2212877.436771
-2213442.917878
-2214014.898986
-2214612.880093
-2215204.861200
-2262005.739795
-2262529.220903
-2263054.202010
-2263591.183118
-2264141.164225
-2264711.145333
-2265276.126440
-2265851.107548
-2266450.588655
-2313309.967250
-2313827.448357
-2314358.929465
-2314892.410572
-2315426.391680
-2315979.372787
-2316547.853895
-2317124.335002
-2317696.316110
-2364611.694705
-2365124.175812
-2365640.656920
-2366178.138027
-2366713.619134
-2367262.100242
-2367813.581349
-2368379.062457
-2368950.043564
-2415885.922159
-2416390.403267
-2416915.884374
-2417450.865482
-2417964.346589
-2418517.327697
-2419064.308804
-2419612.289911
-2420180.771019
-2467125.649614
-2467631.130721
-2468146.611829
-2468668.092936
-2469198.074044
-2469728.055151
-2470270.036259
-2470818.017366
-2471369.998474
-2518307.377069
-2518806.358176
-2519323.839283
-2519837.820391
-2520354.801498
-2520884.782606
-2521426.763713
-2521952.244821
-2522503.725928
-2569421.104523
-2569917.585631
-2570424.566738
-2570938.047846
-2571446.528953
-2571975.010060
-2572499.491168
-2573028.472275
-2573567.453383
-2620429.331978
-2620935.813085
-2621431.294193
-2621937.275300
-2622451.756408
-2622965.737515
-2623489.718623
-2624018.699730
-2624542.180837
-2671354.059432
-2671846.040540
-2672340.021647
-2672847.502755
-2673349.483862
-2673854.464970
-2674373.946077
-2674891.427185
-2675407.908292
-2722144.286887
-2722643.767995
-2723128.749102
-2723632.230209
-2724134.211317
-2724631.692424
-2725142.673532
-2725648.654639
-2726161.635747
-2772810.514342
-2773295.495449
-2773789.976557
-2774276.957664
-2774769.438772
-2775272.419879
-2775766.400986
-2776281.382094
-2776778.363201
-2823315.241796
-2823801.722904
-2824291.704011
-2824784.185119
-2825273.166226
-2825757.147334
-2826252.128441
-2826753.109549
-2827240.090656
-2873674.969251
-2874150.450358
-2874631.431466
-2875121.912573
-2875607.393681
-2876090.874788
-2876573.355896
-2877064.337003
-2877545.318111
-2923842.196706
-2924322.177813
-2924798.158920
-2925279.640028
-2925765.121135
-2926238.602243
-2926726.583350
-2927197.064458
-2927680.545565
-2973824.424160
-2974305.905268
-2974784.386375
-2975258.867483
-2975723.848590
-2976205.329697
-2976676.810805
-2977153.791912
-2977626.273020
-3023618.651615
-3024097.132722
-3024561.113830
-3025035.594937
-3025499.576045
-3025965.057152
-3026428.538260
-3026905.519367
-3027368.000474
-3073185.379069
-3073661.360177
-3074131.841284
-3074594.322392
-3075065.303499
-3075518.784607
-3075988.765714
-3076441.246822
-3076899.727929
-3122541.606524
-3122999.587632
-3123476.568739
-3123937.549846
-3124390.030954
-3124856.012061
-3125309.993169
-3125753.974276
-3126206.955384
-3171660.833979
-3172123.315086
-3172580.796194
-3173036.777301
-3173494.758409
-3173949.739516
-3174392.720623
-3174833.201731
-3175282.182838
SCALARS stress_2 float
LOOKUP_TABLE default
44882.502398
-431244.328970
-424294.643578
-417348.958186
-410287.272794
-403241.587402
-396175.902010
-388954.216617
-381836.531225
-374618.845833
-367457.160441
-360263.475049
-352933.789657
-345680.104265
-338410.418873
-331084.733481
-323755.048089
-316441.362696
-309023.677304
-301709.991912
-294372.306520
-287038.621128
-279668.935736
-272299.250344
-264933.564952
-257587.879560
-250270.194168
-242924.508775
-235714.823383
-228377.137991
-221139.452599
-213869.767207
-206716.081815
-199582.396423
-192380.711031
-185315.025639
-178297.340247
-171291.654855
-164297.969462
-157456.284070
-150534.598678
-143844.913286
-137091.227894
-130437.542502
-123815.857110
-117302.171718
-110836.486326
-104538.800934
-98289.115541
-92063.430149
-85977.744757
-79940.059365
-74042.373973
-68232.688581
-62523.003189
-57017.317797
-51499.632405
-46093.947013
-40780.261620
-35642.576228
-30640.890836
-25699.205444
-20933.520052
-16247.834660
-11670.149268
-7328.463876
-3038.778484
1070.906908
5188.592301
9058.277693
12751.963085
16381.648477
19835.333869
23209.019261
26358.704653
29452.390045
32366.075437
35075.760829
37733.446222
40287.131614
42640.817006
-377648.873591
83853.957777
82184.272385
80294.586992
78276.901600
76159.216208
73905.530816
71439.845424
68854.160032
66188.474640
63290.789248
60333.103856
57175.418464
53909.733071
50408.047679
46806.362287
43172.676895
39266.991503
35233.306111
31011.620719
26757.935327
22364.249935
17726.564543
13132.879150
8335.193758
3357.508366
-1712.177026
-6889.862418
-12183.547810
-17617.233202
-23170.918594
-28768.603986
-34562.289378
-40367.974771
-46341.660163
-52403.345555
-58525.030947
-64782.716339
-71088.401731
-77466.087123
-83983.772515
-90533.457907
-97187.143299
-103836.828692
-110622.514084
-117416.199476
-124353.884868
-131191.570260
-138261.255652
-145302.941044
-152400.626436
-159418.311828
-166611.997220
-173821.682613
-181043.368005
-188281.053397
-195546.738789
-202892.424181
-210182.109573
-217475.794965
-224873.480357
-232147.165749
-239588.851141
-246982.536534
-254316.221926
-261689.907318
-269091.592710
-276441.278102
-283818.963494
-291068.648886
-298446.334278
-305800.019670
-313025.705062
-320383.390455
-327613.075847
-334894.761239
-342016.446631
-349210.132023
-356379.817415
-363533.502807
-370611.188199
-383010.019129
-388463.164667
-393724.310205
-399097.455743
-404506.601281
-409859.746819
-415228.892356
-420566.037894
-425867.183432
48839.647936
52820.793474
56669.939011
60571.084549
64440.230087
68397.375625
72294.521163
76179.666701
79992.812239
78199.126847
74305.981309
70392.835771
66399.690233
62490.544695
58489.399157
54628.253619
50599.108082
46617.962544
76277.441455
72400.295917
68391.150379
64410.004841
60392.859303
56319.713765
52390.568227
48337.422689
44296.277152
74243.756062
70210.610525
66213.464987
62172.319449
58155.173911
53994.028373
49964.882835
45987.737297
41886.591759
72094.070670
68076.925132
63955.779595
59850.634057
55729.488519
51672.342981
47547.197443
43406.051905
39244.906367
69800.385278
65587.239740
61498.094202
57336.948665
53175.803127
48978.657589
44885.512051
40708.366513
36483.220975
67338.699886
63105.554348
58984.408810
54695.263273
50582.117735
46364.972197
42155.826659
37858.681121
33641.535583
64701.014494
60475.868956
56234.723418
51989.577880
47696.432343
43407.286805
39182.141267
34924.995729
30691.850191
61923.329102
57646.183564
53389.038026
49059.892488
44778.746950
40437.601413
36180.455875
31831.310337
27518.164799
58977.643710
54700.498172
50399.352634
46058.207096
41685.061558
37299.916020
32962.770483
28565.624945
24236.479407
55931.958318
51582.812780
47157.667242
42852.521704
38351.376166
34038.230628
29601.085090
25239.939553
20786.794015
52742.272926
48289.127388
43887.981850
39462.836312
35061.690774
30544.545236
26095.399698
21746.254161
17257.108623
49396.587534
44895.441996
40546.296458
36013.150920
31516.005382
27054.859844
22593.714306
17964.568768
13503.423231
45910.902141
41413.756604
36876.611066
32403.465528
27854.319990
23353.174452
18796.028914
14270.883376
9693.737838
42317.216749
37744.071211
33234.925674
28641.780136
24080.634598
19487.489060
14974.343522
10345.197984
5792.052446
38487.531357
33938.385819
29341.240282
24708.094744
20150.949206
15525.803668
10884.658130
6295.512592
1610.367054
34613.845965
30004.700427
25347.554889
20718.409352
16029.263814
11384.118276
6650.972738
2077.827200
-2591.318338
30568.160573
25915.015035
21205.869497
16588.723959
11887.578422
7134.432884
2405.287346
-2259.858192
-6953.003730
26346.475181
21665.329643
16940.184105
12227.038567
7485.893029
2708.747492
-2000.398046
-6733.543584
-11446.689122
22064.789789
17291.644251
12494.498713
7733.353175
3076.207637
-1744.937901
-6526.083438
-11323.228976
-16112.374514
17583.104397
12797.958859
8032.813321
3211.667783
-1601.477755
-6386.623293
-11211.768830
-15988.914368
-20858.059906
12957.419005
8232.273467
3343.127929
-1486.017609
-6343.163147
-11224.308685
-16025.454223
-20906.599760
-25743.745298
8235.733613
3406.588075
-1450.557463
-6263.703001
-11240.848539
-16049.994077
-20947.139615
-25812.285153
-30737.430690
3486.048220
-1459.097317
-6392.242855
-11221.388393
-16182.533931
-21043.679469
-25984.825007
-30941.970545
-35839.116083
-1595.637172
-6500.782710
-11381.928247
-16339.073785
-21304.219323
-26257.364861
-31194.510399
-36151.655937
-41124.801475
-6645.322564
-11670.468102
-16619.613639
-21540.759177
-26529.904715
-31515.050253
-36452.195791
-41497.341329
-46438.486867
-11955.007956
-16864.153494
-21857.299032
-26870.444569
-31851.590107
-36880.735645
-41853.881183
-46915.026721
-51884.172259
-17268.693348
-22241.838886
-27278.984424
-32300.129962
-37265.275499
-42342.421037
-47435.566575
-52380.712113
-57445.857651
-22654.378740
-27735.524278
-32784.669816
-37841.815354
-42838.960892
-47928.106429
-53057.251967
-58034.397505
-63119.543043
-28188.064132
-33293.209670
-38410.355208
-43479.500746
-48580.646284
-53685.791822
-58754.937359
-63852.082897
-68949.228435
-33833.749524
-39006.895062
-44092.040600
-49177.186138
-54286.331676
-59479.477214
-64616.622751
-69641.768289
-74866.913827
-39615.434916
-44812.580454
-50001.725992
-55090.871530
-60200.017068
-65385.162606
-70522.308144
-75619.453681
-80856.599219
-45533.120308
-50650.265846
-55787.411384
-61048.556922
-66205.702460
-71354.847998
-76499.993536
-81721.139074
-86862.284611
-51482.805701
-56675.951238
-61849.096776
-67002.242314
-72207.387852
-77408.533390
-82653.678928
-87846.824466
-93119.970004
-57604.491093
-62829.636631
-67962.782168
-73155.927706
-78449.073244
-83594.218782
-88827.364320
-94140.509858
-99285.655396
-63750.176485
-69011.322023
-74164.467560
-79453.613098
-84650.758636
-89947.904174
-95137.049712
-100462.195250
-105603.340788
-70027.861877
-75245.007415
-80502.152953
-85787.298490
-90956.444028
-96193.589566
-101514.735104
-106747.880642
-112093.026180
-76293.547269
-81594.692807
-86875.838345
-92156.983883
-97370.129420
-102699.274958
-107932.420496
-113229.566034
-118538.711572
-82751.232661
-88028.378199
-93301.523737
-98678.669275
-103871.814813
-109188.960350
-114510.105888
-119859.251426
-125088.396964
-89224.918053
-94542.063591
-99891.209129
-105128.354667
-110505.500205
-115778.645743
-121043.791280
-126436.936818
-131698.082356
-95814.603445
-101147.748983
-106432.894521
-111726.040059
-117067.185597
-122416.331135
-127769.476672
-133130.622210
-138455.767748
-102432.288837
-107793.434375
-113194.579913
-118475.725451
-123808.870989
-129194.016527
-134495.162065
-139864.307602
-145197.453140
-109201.974229
-114523.119767
-119804.265305
-125249.410843
-130594.556381
-135971.701919
-141288.847457
-146693.992995
-152051.138532
-115987.659622
-121316.805159
-126665.950697
-132003.096235
-137388.241773
-142729.387311
-148154.532849
-153591.678387
-158928.823925
-122857.345014
-128142.490552
-133511.636089
-138920.781627
-144289.927165
-149711.072703
-155096.218241
-160453.363779
-165830.509317
-129679.030406
-135012.175944
-140497.321481
-145854.467019
-151171.612557
-156628.758095
-162125.903633
-167491.049171
-172852.194709
-136580.715798
-142029.861336
-147347.006874
-152768.152411
-158289.297949
-163702.443487
-169031.589025
-174520.734563
-179869.880101
-143650.401190
-149123.546728
-154444.692266
-159845.837804
-165262.983341
-170656.128879
-176129.274417
-181570.419955
-187027.565493
-150660.086582
-156045.232120
-161514.377658
-166935.523196
-172368.668734
-177805.814271
-183194.959809
-188656.105347
-194121.250885
-157749.771974
-163222.917512
-168608.063050
-174049.208588
-179438.354126
-184947.499664
-190384.645201
-195805.790739
-201238.936277
-164919.457366
-170392.602904
-175809.748442
-181186.893980
-186604.039518
-192097.185056
-197606.330593
-203027.476131
-208540.621669
-172113.142758
-177502.288296
-182911.433834
-188388.579372
-193825.724910
-199286.870448
-204796.015986
-210269.161523
-215650.307061
-179270.828150
-184719.973688
-190185.119226
-195646.264764
-200999.410302
-206504.555840
-211953.701378
-217446.846916
-222871.992453
-186504.513543
-191937.659080
-197418.804618
-202803.950156
-208345.095694
-213754.241232
-219219.386770
-224756.532308
-230205.677846
-193778.198935
-199255.344473
-204648.490010
-210153.635548
-215570.781086
-221067.926624
-226577.072162
-232046.217700
-237515.363238
-201007.884327
-206525.029865
-211958.175402
-217391.320940
-222880.466478
-228329.612016
-233870.757554
-239259.903092
-244801.048630
-208341.569719
-213754.715257
-219259.860795
-224745.006332
-230202.151870
-235683.297408
-241220.442946
-246645.588484
-252110.734022
-215631.255111
-221116.400649
-226573.546187
-232098.691725
-237527.837262
-243036.982800
-248610.128338
-253963.273876
-259452.419414
-223012.940503
-228422.086041
-233955.231579
-239448.377117
-244885.522655
-250318.668192
-255855.813730
-261348.959268
-266802.104806
-230330.625895
-235807.771433
-241276.916971
-246782.062509
-252247.208047
-257720.353584
-263217.499122
-268682.644660
-274207.790198
-237672.311287
-243173.456825
-248638.602363
-254151.747901
-259548.893439
-265138.038977
-270511.184514
-276072.330052
-281549.475590
-245049.996679
-250519.142217
-256056.287755
-261469.433293
-266902.578831
-272451.724369
-277920.869907
-283382.015444
-288895.160982
-252399.682071
-257876.827609
-263401.973147
-268803.118685
-274304.264223
-279881.409761
-285246.555299
-290779.700837
-296268.846374
-259829.367464
-265254.513001
-270711.658539
-276208.804077
-281637.949615
-287183.095153
-292588.240691
-298113.386229
-303550.531767
-267151.052856
-272620.198393
-278137.343931
-283618.489469
-288983.635007
-294476.780545
-299997.926083
-305443.071621
-310916.217159
-274516.738248
-279957.883786
-285439.029323
-290876.174861
-296457.320399
-301910.465937
-307347.611475
-312816.757013
-318289.902551
-281850.423640
-287339.569178
-292788.714716
-298237.860253
-303747.005791
-309184.151329
-314677.296867
-320110.442405
-325631.587943
-289244.109032
-294677.254570
-300178.400108
-305615.545646
-311064.691183
-316569.836721
-321994.982259
-327488.127797
-332945.273335
-296617.794424
-302082.939962
-307488.085500
-312917.231038
-318426.376576
-323811.522113
-329328.667651
-334777.813189
-340246.958727
-303923.479816
-309296.625354
-314789.770892
-320214.916430
-325736.061968
-331121.207505
-336574.353043
-342103.498581
-347448.644119
-311193.165208
-316598.310746
-322087.456284
-327488.601822
-332933.747360
-338426.892898
-343836.038435
-349301.183973
-354754.329511
-318518.850600
-323967.996138
-329453.141676
-334814.287214
-340239.432752
-345696.578290
-351181.723828
-356530.869365
-361960.014903
-325812.535992
-331173.681530
-336594.827068
-342091.972606
-347493.118144
-352950.263682
-358327.409220
-363888.554758
-369273.700295
-333058.221385
-338447.366922
-343816.512460
-349337.657998
-354790.803536
-360139.949074
-365585.094612
-370994.240150
-376431.385688
-340303.906777
-345697.052314
-351094.197852
-356483.343390
-361872.488928
-367313.634466
-372746.780004
-378135.925542
-383545.071080
-347465.592169
-352850.737707
-358279.883244
-363717.028782
-369038.174320
-374503.319858
-379924.465396
-385325.610934
-390690.756472
-354599.277561
-360000.423099
-365417.568637
-370838.714174
-376207.859712
-381629.005250
-387034.150788
-392391.296326
-397864.441864
-361760.962953
-367186.108491
-372587.254029
-377944.399567
-383257.545104
-388750.690642
-394191.836180
-399508.981718
-404910.127256
-368890.648345
-374259.793883
-379668.939421
-384970.084959
-390431.230497
-395780.376034
-401141.521572
-406546.667110
-411947.812648
-375984.333737
-381321.479275
-386782.624813
-392119.770351
-397480.915889
-402826.061426
-408223.206964
-413576.352502
-418949.498040
SCALARS stress_3 float
LOOKUP_TABLE default
14136.288697
903958.232112
891185.332820
878392.433527
865497.534234
852544.634942
839521.735649
826438.836356
813311.937064
800111.037771
786850.138478
773529.239186
760206.339893
746815.440600
733394.541307
719917.642015
706470.742722
692917.843429
679422.944137
665826.044844
652265.145551
638684.246259
625129.346966
611506.447673
597919.548381
584356.649088
570771.749795
557278.850502
543693.951210
530255.051917
516812.152624
503363.253332
490032.354039
476729.454746
463464.555454
450297.656161
437134.756868
424109.857575
411172.958283
398290.058990
385541.159697
372878.260405
360293.361112
347844.461819
335529.562527
323328.663234
311259.763941
299308.864649
287575.965356
275917.066063
264454.166770
253135.267478
241996.368185
231057.468892
220234.569600
209669.670307
199222.771014
189027.871722
179062.972429
169212.073136
159665.173844
150272.274551
141163.375258
132264.475965
123569.576673
115150.677380
106943.778087
98956.878795
91249.979502
83827.080209
76586.180917
69587.281624
62870.382331
56449.483039
50246.583746
44327.684453
38644.785160
33219.885868
28074.986575
23156.087282
18509.187990
880353.203960
-7536.739455
-3327.840163
1139.059130
5877.958423
10860.857715
16135.757008
21648.656301
27437.555594
33464.454886
39763.354179
46326.253472
53165.152764
60212.052057
67562.951350
75169.850642
83028.749935
91107.649228
99430.548521
108009.447813
116802.347106
125849.246399
135100.145691
144581.044984
154295.944277
164226.843569
174385.742862
184666.642155
195259.541447
205928.440740
216891.340033
228000.239326
239247.138618
250644.037911
262268.937204
273993.836496
285936.735789
297929.635082
310108.534374
322461.433667
334868.332960
347439.232252
360116.131545
372877.030838
385741.930131
398700.829423
411745.728716
424872.628009
438093.527301
451350.426594
464679.325887
478070.225179
491501.124472
504994.023765
518498.923057
532063.822350
545640.721643
559223.620936
572862.520228
586487.419521
600116.318814
613753.218106
627398.117399
641045.016692
654629.915984
668210.815277
681805.714570
695342.613862
708871.513155
722364.412448
735815.311741
749202.211033
762575.110326
775880.009619
789154.908911
802381.808204
815526.707497
828651.606789
841684.506082
854629.405375
867572.304667
882739.306775
885095.409591
887467.512406
889793.615221
892185.718036
894535.820852
896903.923667
899232.026482
901634.129297
11916.185882
9706.083067
7479.980251
5321.877436
3149.774621
1011.671806
-1164.431010
-3298.533825
-5388.636640
-1193.737347
952.365468
3148.468283
5290.571098
7470.673914
9646.776729
11846.879544
14068.982359
16271.085174
3311.161945
5437.264761
7649.367576
9817.470391
12029.573206
14215.676021
16409.778837
18647.881652
20909.984467
8058.061238
10230.164053
12400.266868
14636.369684
16812.472499
19066.575314
21278.678129
23516.780945
25792.883760
13020.960531
15259.063346
17455.166161
19685.268976
21895.371792
24119.474607
26391.577422
28633.680237
30913.783053
18327.859823
20527.962639
22718.065454
24964.168269
27240.271084
29496.373900
31732.476715
34012.579530
36310.682345
23806.759116
26072.861931
28314.964747
30539.067562
32847.170377
35089.273192
37397.376007
39679.478823
42003.581638
29647.658409
31887.761224
34129.864039
36391.966854
38720.069670
40978.172485
43308.275300
45604.378115
47910.480931
35692.557701
37964.660517
40218.763332
42548.866147
44820.968962
47111.071778
49449.174593
51767.277408
54077.380223
42029.456994
44297.559809
46585.662625
48857.765440
51215.868255
53499.971070
55850.073886
58166.176701
60554.279516
48592.356287
50864.459102
53212.561917
55500.664733
57854.767548
60158.870363
62490.973178
64855.075993
67215.178809
55445.255580
57749.358395
60081.461210
62379.564025
64741.666840
67063.769656
69427.872471
71809.975286
74198.078101
62552.154872
64876.257687
67176.360503
69532.463318
71894.566133
74262.668948
76616.771764
79006.874579
81364.977394
69879.054165
72181.156980
74605.259795
76895.362611
79311.465426
81639.568241
84019.671056
86421.773872
88855.876687
77483.953458
79826.056273
82194.159088
84548.261903
86938.364719
89312.467534
91684.570349
94142.673164
96544.775979
85340.852750
87674.955566
90057.058381
92419.161196
94799.264011
97245.366826
99635.469642
102033.572457
104499.675272
93457.752043
95797.854858
98173.957673
100570.060489
103008.163304
105406.266119
107812.368934
110250.471750
112674.574565
101748.651336
104136.754151
106576.856966
108950.959781
111349.062597
113797.165412
116217.268227
118667.371042
121115.473858
110393.550628
112729.653444
115157.756259
117553.859074
120009.961889
122448.064705
124842.167520
127296.270335
129788.373150
119198.449921
121548.552736
124004.655552
126414.758367
128838.861182
131288.963997
133733.066812
136205.169628
138697.272443
128241.349214
130635.452029
133067.554844
135487.657659
137931.760475
140397.863290
142851.966105
145326.068920
147780.171736
137500.248507
139938.351322
142366.454137
144820.556952
147250.659767
149742.762583
152196.865398
154692.968213
157177.071028
147031.147799
149463.250614
151849.353430
154341.456245
156821.559060
159277.661875
161773.764691
164197.867506
166727.970321
156762.047092
159138.149907
161624.252722
164120.355538
166536.458353
169004.561168
171510.663983
174018.766798
176522.869614
166694.946385
169103.049200
171561.152015
174013.254830
176525.357645
179013.460461
181513.563276
183979.666091
186525.768906
176789.845677
179271.948493
181712.051308
184206.154123
186718.256938
189160.359753
191676.462569
194186.565384
196728.668199
187170.744970
189560.847785
192082.950600
194551.053416
197061.156231
199537.259046
202035.361861
204553.464677
207085.567492
197673.644263
200131.747078
202645.849893
205135.952708
207626.055524
210120.158339
212612.261154
215192.363969
217706.466784
208438.543555
210916.646371
213376.749186
215862.852001
218384.954816
220871.057631
223409.160447
225919.263262
228479.366077
219353.442848
221825.545663
224303.648479
226779.751294
229295.854109
231861.956924
234378.059739
236886.162555
239438.265370
230434.342141
232904.444956
235416.547771
237898.650586
240424.753402
242956.856217
245482.959032
248041.061847
250561.164663
241721.241433
244189.344249
246655.447064
249211.549879
251731.652694
254245.755510
256785.858325
259329.961140
261864.063955
253122.140726
255632.243541
258146.346357
260664.449172
263176.551987
265722.654802
268234.757617
270808.860433
273336.963248
264735.040019
267227.142834
269769.245649
272267.348465
274799.451280
277353.554095
279893.656910
282425.759725
284991.862541
276525.939312
279012.042127
281514.144942
284030.247757
286570.350572
289108.453388
291668.556203
294214.659018
296754.761833
288410.838604
290908.941419
293415.044235
295959.147050
298491.249865
301023.352680
303567.455496
306125.558311
308689.661126
300455.737897
302945.840712
305489.943527
308036.046343
310562.149158
313108.251973
315638.354788
318166.457603
320756.560419
312652.637190
315136.740005
317682.842820
320198.945635
322737.048451
325259.151266
327827.254081
330381.356896
332951.459711
324947.536482
327413.639298
329993.742113
332493.844928
335055.947743
337596.050558
340132.153374
342730.256189
345266.359004
337358.435775
339870.538590
342420.641405
344980.744221
347542.847036
350038.949851
352595.052666
355159.155482
357733.258297
349965.335068
352461.437883
354961.540698
357529.643513
360047.746329
362607.849144
365169.951959
367734.054774
370294.157589
362630.234360
365154.337176
367664.439991
370214.542806
372738.645621
375282.748437
377822.851252
380404.954067
382967.056882
375393.133653
377901.236468
380427.339284
382961.442099
385537.544914
388059.647729
390621.750544
393165.853360
395761.956175
388250.032946
390760.135761
393312.238576
395850.341391
398392.444207
400914.547022
403488.649837
406030.752652
408570.855468
401256.932238
403739.035054
406259.137869
408771.240684
411331.343499
413905.446315
416413.549130
418997.651945
421545.754760
414257.831531
416779.934346
419306.037162
421830.139977
424422.242792
426936.345607
429464.448423
432046.551238
434546.654053
427400.730824
429904.833639
432452.936454
434971.039270
437475.142085
440057.244900
442621.347715
445165.450530
447727.553346
440585.630117
443101.732932
445635.835747
448129.938562
450694.041377
453252.144193
455806.247008
458344.349823
460888.452638
453836.529409
456362.632224
458898.735040
461436.837855
463980.940670
466539.043485
469043.146301
471605.249116
474185.351931
467215.428702
469711.531517
472239.634332
474783.737148
477293.839963
479841.942778
482378.045593
484956.148409
487474.251224
480588.327995
483080.430810
485610.533625
488110.636440
490716.739256
493194.842071
495756.944886
498277.047701
500863.150516
493999.227287
496507.330103
499035.432918
501589.535733
504107.638548
506631.741363
509181.844179
511689.946994
514238.049809
507488.126580
509970.229395
512498.332210
515050.435026
517580.537841
520086.640656
522642.743471
525152.846287
527714.949102
521007.025873
523519.128688
526029.231503
528553.334318
531079.437134
533615.539949
536103.642764
538651.745579
541185.848395
534553.925165
537056.027981
539582.130796
542092.233611
544604.336426
547154.439242
549646.542057
552154.644872
554710.747687
548152.824458
550640.927273
553159.030089
555671.132904
558165.235719
560723.338534
563215.441349
565727.544165
568249.646980
561745.723751
564237.826566
566731.929381
569260.032196
571764.135012
574246.237827
576812.340642
579308.443457
581852.546273
575372.623043
577830.725859
580346.828674
582866.931489
585369.034304
587875.137120
590397.239935
592931.342750
595415.445565
588979.522336
591481.625151
593947.727967
596447.830782
598965.933597
601432.036412
603964.139228
606490.242043
608968.344858
602602.421629
605116.524444
607574.627259
610068.730075
612590.832890
615080.935705
617559.038520
620065.141335
622613.244151
616257.320922
618747.423737
621217.526552
623703.629367
626195.732182
628667.834998
631203.937813
633716.040628
636174.143443
629836.220214
632346.323029
634828.425845
637336.528660
639806.631475
642306.734290
644798.837106
647278.939921
649811.042736
643473.119507
645989.222322
648457.325137
650905.427953
653423.530768
655863.633583
658361.736398
660867.839214
663343.942029
657086.018800
659556.121615
662012.224430
664508.327245
666982.430061
669468.532876
671956.635691
674438.738506
676930.841321
670710.918092
673137.020908
675629.123723
678087.226538
680563.329353
683037.432168
685515.534984
687981.637799
690477.740614
684241.817385
686729.920200
689188.023015
691656.125831
694100.228646
696566.331461
699080.434276
701480.537092
704002.639907
697824.716678
700234.819493
702704.922308
705191.025123
707637.127939
710093.230754
712555.333569
715029.436384
717485.539200
711329.615970
713733.718786
716225.821601
718675.924416
721146.027231
723570.130047
726038.232862
728466.335677
730934.438492
724818.515263
727262.618078
729676.720894
732168.823709
734584.926524
737049.029339
739503.132154
741925.234970
744377.337785
738251.414556
740671.517371
743125.620186
745609.723001
748013.825817
750461.928632
752886.031447
755324.134262
757758.237078
751666.313848
754094.416664
756512.519479
758936.622294
761384.725109
763844.827925
766226.930740
768673.033555
771121.136370
765021.213141
767437.315956
769889.418772
772289.521587
774717.624402
777151.727217
779559.830033
781961.932848
784408.035663
778308.112434
780748.215249
783194.318064
785604.420880
788000.523695
790440.626510
792844.729325
795296.832140
797702.934956
791599.011727
793997.114542
796395.217357
798825.320172
801217.422987
803625.525803
806053.628618
808497.731433
810887.834248
804785.911019
807194.013834
809576.116650
811996.219465
814410.322280
816822.425095
819224.527911
821616.630726
824014.733541
817950.810312
820316.913127
822729.015942
825139.118758
827549.221573
829919.324388
832371.427203
834701.530019
837139.632834
831011.709605
833411.812420
835791.915235
838216.018050
840598.120866
842972.223681
845392.326496
847750.429311
850138.532126
844072.608897
846408.711713
848840.814528
851188.917343
853581.020158
855993.122973
858355.225789
860741.328604
863121.431419
857005.508190
859399.611005
861765.713820
864179.816636
866553.919451
868916.022266
871266.125081
873676.227897
876012.330712
869924.407483
872284.510298
874660.613113
876998.715928
879392.818744
881722.921559
884129.024374
886485.127189
888827.230005
