# vtk DataFile Version 2.0
Generated volume Mesh
ASCII
DATASET UNSTRUCTURED_GRID
POINTS 891 float
0.005000 0.100000 0.000000
0.005000 0.000000 0.000000
0.005000 0.001250 0.000000
0.005000 0.002500 0.000000
0.005000 0.003750 0.000000
0.005000 0.005000 0.000000
0.005000 0.006250 0.000000
0.005000 0.007500 0.000000
0.005000 0.008750 0.000000
0.005000 0.010000 0.000000
0.005000 0.011250 0.000000
0.005000 0.012500 0.000000
0.005000 0.013750 0.000000
0.005000 0.015000 0.000000
0.005000 0.016250 0.000000
0.005000 0.017500 0.000000
0.005000 0.018750 0.000000
0.005000 0.020000 0.000000
0.005000 0.021250 0.000000
0.005000 0.022500 0.000000
0.005000 0.023750 0.000000
0.005000 0.025000 0.000000
0.005000 0.026250 0.000000
0.005000 0.027500 0.000000
0.005000 0.028750 0.000000
0.005000 0.030000 0.000000
0.005000 0.031250 0.000000
0.005000 0.032500 0.000000
0.005000 0.033750 0.000000
0.005000 0.035000 0.000000
0.005000 0.036250 0.000000
0.005000 0.037500 0.000000
0.005000 0.038750 0.000000
0.005000 0.040000 0.000000
0.005000 0.041250 0.000000
0.005000 0.042500 0.000000
0.005000 0.043750 0.000000
0.005000 0.045000 0.000000
0.005000 0.046250 0.000000
0.005000 0.047500 0.000000
0.005000 0.048750 0.000000
0.005000 0.050000 0.000000
0.005000 0.051250 0.000000
0.005000 0.052500 0.000000
0.005000 0.053750 0.000000
0.005000 0.055000 0.000000
0.005000 0.056250 0.000000
0.005000 0.057500 0.000000
0.005000 0.058750 0.000000
0.005000 0.060000 0.000000
0.005000 0.061250 0.000000
0.005000 0.062500 0.000000
0.005000 0.063750 0.000000
0.005000 0.065000 0.000000
0.005000 0.066250 0.000000
0.005000 0.067500 0.000000
0.005000 0.068750 0.000000
0.005000 0.070000 0.000000
0.005000 0.071250 0.000000
0.005000 0.072500 0.000000
0.005000 0.073750 0.000000
0.005000 0.075000 0.000000
0.005000 0.076250 0.000000
0.005000 0.077500 0.000000
0.005000 0.078750 0.000000
0.005000 0.080000 0.000000
0.005000 0.081250 0.000000
0.005000 0.082500 0.000000
0.005000 0.083750 0.000000
0.005000 0.085000 0.000000
0.005000 0.086250 0.000000
0.005000 0.087500 0.000000
0.005000 0.088750 0.000000
0.005000 0.090000 0.000000
0.005000 0.091250 0.000000
0.005000 0.092500 0.000000
0.005000 0.093750 0.000000
0.005000 0.095000 0.000000
0.005000 0.096250 0.000000
0.005000 0.097500 0.000000
0.005000 0.098750 0.000000
0.000000 0.000000 0.000000
0.000000 0.100000 0.000000
0.000000 0.098750 0.000000
0.000000 0.097500 0.000000
0.000000 0.096250 0.000000
0.000000 0.095000 0.000000
0.000000 0.093750 0.000000
0.000000 0.092500 0.000000
0.000000 0.091250 0.000000
0.000000 0.090000 0.000000
0.000000 0.088750 0.000000
0.000000 0.087500 0.000000
0.000000 0.086250 0.000000
0.000000 0.085000 0.000000
0.000000 0.083750 0.000000
0.000000 0.082500 0.000000
0.000000 0.081250 0.000000
0.000000 0.080000 0.000000
0.000000 0.078750 0.000000
0.000000 0.077500 0.000000
0.000000 0.076250 0.000000
0.000000 0.075000 0.000000
0.000000 0.073750 0.000000
0.000000 0.072500 0.000000
0.000000 0.071250 0.000000
0.000000 0.070000 0.000000
0.000000 0.068750 0.000000
0.000000 0.067500 0.000000
0.000000 0.066250 0.000000
0.000000 0.065000 0.000000
0.000000 0.063750 0.000000
0.000000 0.062500 0.000000
0.000000 0.061250 0.000000
0.000000 0.060000 0.000000
0.000000 0.058750 0.000000
0.000000 0.057500 0.000000
0.000000 0.056250 0.000000
0.000000 0.055000 0.000000
0.000000 0.053750 0.000000
0.000000 0.052500 0.000000
0.000000 0.051250 0.000000
0.000000 0.050000 0.000000
0.000000 0.048750 0.000000
0.000000 0.047500 0.000000
0.000000 0.046250 0.000000
0.000000 0.045000 0.000000
0.000000 0.043750 0.000000
0.000000 0.042500 0.000000
0.000000 0.041250 0.000000
0.000000 0.040000 0.000000
0.000000 0.038750 0.000000
0.000000 0.037500 0.000000
0.000000 0.036250 0.000000
0.000000 0.035000 0.000000
0.000000 0.033750 0.000000
0.000000 0.032500 0.000000
0.000000 0.031250 0.000000
0.000000 0.030000 0.000000
0.000000 0.028750 0.000000
0.000000 0.027500 0.000000
0.000000 0.026250 0.000000
0.000000 0.025000 0.000000
0.000000 0.023750 0.000000
0.000000 0.022500 0.000000
0.000000 0.021250 0.000000
0.000000 0.020000 0.000000
0.000000 0.018750 0.000000
0.000000 0.017500 0.000000
0.000000 0.016250 0.000000
0.000000 0.015000 0.000000
0.000000 0.013750 0.000000
0.000000 0.012500 0.000000
0.000000 0.011250 0.000000
0.000000 0.010000 0.000000
0.000000 0.008750 0.000000
0.000000 0.007500 0.000000
0.000000 0.006250 0.000000
0.000000 0.005000 0.000000
0.000000 0.003750 0.000000
0.000000 0.002500 0.000000
0.000000 0.001250 0.000000
0.000500 0.000000 0.000000
0.001000 0.000000 0.000000
0.001500 0.000000 0.000000
0.002000 0.000000 0.000000
0.002500 0.000000 0.000000
0.003000 0.000000 0.000000
0.003500 0.000000 0.000000
0.004000 0.000000 0.000000
0.004500 0.000000 0.000000
0.004500 0.100000 0.000000
0.004000 0.100000 0.000000
0.003500 0.100000 0.000000
0.003000 0.100000 0.000000
0.002500 0.100000 0.000000
0.002000 0.100000 0.000000
0.001500 0.100000 0.000000
0.001000 0.100000 0.000000
0.000500 0.100000 0.000000
0.000500 0.098750 0.000000
0.001000 0.098750 0.000000
0.001500 0.098750 0.000000
0.002000 0.098750 0.000000
0.002500 0.098750 0.000000
0.003000 0.098750 0.000000
0.003500 0.098750 0.000000
0.004000 0.098750 0.000000
0.004500 0.098750 0.000000
0.000500 0.097500 0.000000
0.001000 0.097500 0.000000
0.001500 0.097500 0.000000
0.002000 0.097500 0.000000
0.002500 0.097500 0.000000
0.003000 0.097500 0.000000
0.003500 0.097500 0.000000
0.004000 0.097500 0.000000
0.004500 0.097500 0.000000
0.000500 0.096250 0.000000
0.001000 0.096250 0.000000
0.001500 0.096250 0.000000
0.002000 0.096250 0.000000
0.002500 0.096250 0.000000
0.003000 0.096250 0.000000
0.003500 0.096250 0.000000
0.004000 0.096250 0.000000
0.004500 0.096250 0.000000
0.000500 0.095000 0.000000
0.001000 0.095000 0.000000
0.001500 0.095000 0.000000
0.002000 0.095000 0.000000
0.002500 0.095000 0.000000
0.003000 0.095000 0.000000
0.003500 0.095000 0.000000
0.004000 0.095000 0.000000
0.004500 0.095000 0.000000
0.000500 0.093750 0.000000
0.001000 0.093750 0.000000
0.001500 0.093750 0.000000
0.002000 0.093750 0.000000
0.002500 0.093750 0.000000
0.003000 0.093750 0.000000
0.003500 0.093750 0.000000
0.004000 0.093750 0.000000
0.004500 0.093750 0.000000
0.000500 0.092500 0.000000
0.001000 0.092500 0.000000
0.001500 0.092500 0.000000
0.002000 0.092500 0.000000
0.002500 0.092500 0.000000
0.003000 0.092500 0.000000
0.003500 0.092500 0.000000
0.004000 0.092500 0.000000
0.004500 0.092500 0.000000
0.000500 0.091250 0.000000
0.001000 0.091250 0.000000
0.001500 0.091250 0.000000
0.002000 0.091250 0.000000
0.002500 0.091250 0.000000
0.003000 0.091250 0.000000
0.003500 0.091250 0.000000
0.004000 0.091250 0.000000
0.004500 0.091250 0.000000
0.000500 0.090000 0.000000
0.001000 0.090000 0.000000
0.001500 0.090000 0.000000
0.002000 0.090000 0.000000
0.002500 0.090000 0.000000
0.003000 0.090000 0.000000
0.003500 0.090000 0.000000
0.004000 0.090000 0.000000
0.004500 0.090000 0.000000
0.000500 0.088750 0.000000
0.001000 0.088750 0.000000
0.001500 0.088750 0.000000
0.002000 0.088750 0.000000
0.002500 0.088750 0.000000
0.003000 0.088750 0.000000
0.003500 0.088750 0.000000
0.004000 0.088750 0.000000
0.004500 0.088750 0.000000
0.000500 0.087500 0.000000
0.001000 0.087500 0.000000
0.001500 0.087500 0.000000
0.002000 0.087500 0.000000
0.002500 0.087500 0.000000
0.003000 0.087500 0.000000
0.003500 0.087500 0.000000
0.004000 0.087500 0.000000
0.004500 0.087500 0.000000
0.000500 0.086250 0.000000
0.001000 0.086250 0.000000
0.001500 0.086250 0.000000
0.002000 0.086250 0.000000
0.002500 0.086250 0.000000
0.003000 0.086250 0.000000
0.003500 0.086250 0.000000
0.004000 0.086250 0.000000
0.004500 0.086250 0.000000
0.000500 0.085000 0.000000
0.001000 0.085000 0.000000
0.001500 0.085000 0.000000
0.002000 0.085000 0.000000
0.002500 0.085000 0.000000
0.003000 0.085000 0.000000
0.003500 0.085000 0.000000
0.004000 0.085000 0.000000
0.004500 0.085000 0.000000
0.000500 0.083750 0.000000
0.001000 0.083750 0.000000
0.001500 0.083750 0.000000
0.002000 0.083750 0.000000
0.002500 0.083750 0.000000
0.003000 0.083750 0.000000
0.003500 0.083750 0.000000
0.004000 0.083750 0.000000
0.004500 0.083750 0.000000
0.000500 0.082500 0.000000
0.001000 0.082500 0.000000
0.001500 0.082500 0.000000
0.002000 0.082500 0.000000
0.002500 0.082500 0.000000
0.003000 0.082500 0.000000
0.003500 0.082500 0.000000
0.004000 0.082500 0.000000
0.004500 0.082500 0.000000
0.000500 0.081250 0.000000
0.001000 0.081250 0.000000
0.001500 0.081250 0.000000
0.002000 0.081250 0.000000
0.002500 0.081250 0.000000
0.003000 0.081250 0.000000
0.003500 0.081250 0.000000
0.004000 0.081250 0.000000
0.004500 0.081250 0.000000
0.000500 0.080000 0.000000
0.001000 0.080000 0.000000
0.001500 0.080000 0.000000
0.002000 0.080000 0.000000
0.002500 0.080000 0.000000
0.003000 0.080000 0.000000
0.003500 0.080000 0.000000
0.004000 0.080000 0.000000
0.004500 0.080000 0.000000
0.000500 0.078750 0.000000
0.001000 0.078750 0.000000
0.001500 0.078750 0.000000
0.002000 0.078750 0.000000
0.002500 0.078750 0.000000
0.003000 0.078750 0.000000
0.003500 0.078750 0.000000
0.004000 0.078750 0.000000
0.004500 0.078750 0.000000
0.000500 0.077500 0.000000
0.001000 0.077500 0.000000
0.001500 0.077500 0.000000
0.002000 0.077500 0.000000
0.002500 0.077500 0.000000
0.003000 0.077500 0.000000
0.003500 0.077500 0.000000
0.004000 0.077500 0.000000
0.004500 0.077500 0.000000
0.000500 0.076250 0.000000
0.001000 0.076250 0.000000
0.001500 0.076250 0.000000
0.002000 0.076250 0.000000
0.002500 0.076250 0.000000
0.003000 0.076250 0.000000
0.003500 0.076250 0.000000
0.004000 0.076250 0.000000
0.004500 0.076250 0.000000
0.000500 0.075000 0.000000
0.001000 0.075000 0.000000
0.001500 0.075000 0.000000
0.002000 0.075000 0.000000
0.002500 0.075000 0.000000
0.003000 0.075000 0.000000
0.003500 0.075000 0.000000
0.004000 0.075000 0.000000
0.004500 0.075000 0.000000
0.000500 0.073750 0.000000
0.001000 0.073750 0.000000
0.001500 0.073750 0.000000
0.002000 0.073750 0.000000
0.002500 0.073750 0.000000
0.003000 0.073750 0.000000
0.003500 0.073750 0.000000
0.004000 0.073750 0.000000
0.004500 0.073750 0.000000
0.000500 0.072500 0.000000
0.001000 0.072500 0.000000
0.001500 0.072500 0.000000
0.002000 0.072500 0.000000
0.002500 0.072500 0.000000
0.003000 0.072500 0.000000
0.003500 0.072500 0.000000
0.004000 0.072500 0.000000
0.004500 0.072500 0.000000
0.000500 0.071250 0.000000
0.001000 0.071250 0.000000
0.001500 0.071250 0.000000
0.002000 0.071250 0.000000
0.002500 0.071250 0.000000
0.003000 0.071250 0.000000
0.003500 0.071250 0.000000
0.004000 0.071250 0.000000
0.004500 0.071250 0.000000
0.000500 0.070000 0.000000
0.001000 0.070000 0.000000
0.001500 0.070000 0.000000
0.002000 0.070000 0.000000
0.002500 0.070000 0.000000
0.003000 0.070000 0.000000
0.003500 0.070000 0.000000
0.004000 0.070000 0.000000
0.004500 0.070000 0.000000
0.000500 0.068750 0.000000
0.001000 0.068750 0.000000
0.001500 0.068750 0.000000
0.002000 0.068750 0.000000
0.002500 0.068750 0.000000
0.003000 0.068750 0.000000
0.003500 0.068750 0.000000
0.004000 0.068750 0.000000
0.004500 0.068750 0.000000
0.000500 0.067500 0.000000
0.001000 0.067500 0.000000
0.001500 0.067500 0.000000
0.002000 0.067500 0.000000
0.002500 0.067500 0.000000
0.003000 0.067500 0.000000
0.003500 0.067500 0.000000
0.004000 0.067500 0.000000
0.004500 0.067500 0.000000
0.000500 0.066250 0.000000
0.001000 0.066250 0.000000
0.001500 0.066250 0.000000
0.002000 0.066250 0.000000
0.002500 0.066250 0.000000
0.003000 0.066250 0.000000
0.003500 0.066250 0.000000
0.004000 0.066250 0.000000
0.004500 0.066250 0.000000
0.000500 0.065000 0.000000
0.001000 0.065000 0.000000
0.001500 0.065000 0.000000
0.002000 0.065000 0.000000
0.002500 0.065000 0.000000
0.003000 0.065000 0.000000
0.003500 0.065000 0.000000
0.004000 0.065000 0.000000
0.004500 0.065000 0.000000
0.000500 0.063750 0.000000
0.001000 0.063750 0.000000
0.001500 0.063750 0.000000
0.002000 0.063750 0.000000
0.002500 0.063750 0.000000
0.003000 0.063750 0.000000
0.003500 0.063750 0.000000
0.004000 0.063750 0.000000
0.004500 0.063750 0.000000
0.000500 0.062500 0.000000
0.001000 0.062500 0.000000
0.001500 0.062500 0.000000
0.002000 0.062500 0.000000
0.002500 0.062500 0.000000
0.003000 0.062500 0.000000
0.003500 0.062500 0.000000
0.004000 0.062500 0.000000
0.004500 0.062500 0.000000
0.000500 0.061250 0.000000
0.001000 0.061250 0.000000
0.001500 0.061250 0.000000
0.002000 0.061250 0.000000
0.002500 0.061250 0.000000
0.003000 0.061250 0.000000
0.003500 0.061250 0.000000
0.004000 0.061250 0.000000
0.004500 0.061250 0.000000
0.000500 0.060000 0.000000
0.001000 0.060000 0.000000
0.001500 0.060000 0.000000
0.002000 0.060000 0.000000
0.002500 0.060000 0.000000
0.003000 0.060000 0.000000
0.003500 0.060000 0.000000
0.004000 0.060000 0.000000
0.004500 0.060000 0.000000
0.000500 0.058750 0.000000
0.001000 0.058750 0.000000
0.001500 0.058750 0.000000
0.002000 0.058750 0.000000
0.002500 0.058750 0.000000
0.003000 0.058750 0.000000
0.003500 0.058750 0.000000
0.004000 0.058750 0.000000
0.004500 0.058750 0.000000
0.000500 0.057500 0.000000
0.001000 0.057500 0.000000
0.001500 0.057500 0.000000
0.002000 0.057500 0.000000
0.002500 0.057500 0.000000
0.003000 0.057500 0.000000
0.003500 0.057500 0.000000
0.004000 0.057500 0.000000
0.004500 0.057500 0.000000
0.000500 0.056250 0.000000
0.001000 0.056250 0.000000
0.001500 0.056250 0.000000
0.002000 0.056250 0.000000
0.002500 0.056250 0.000000
0.003000 0.056250 0.000000
0.003500 0.056250 0.000000
0.004000 0.056250 0.000000
0.004500 0.056250 0.000000
0.000500 0.055000 0.000000
0.001000 0.055000 0.000000
0.001500 0.055000 0.000000
0.002000 0.055000 0.000000
0.002500 0.055000 0.000000
0.003000 0.055000 0.000000
0.003500 0.055000 0.000000
0.004000 0.055000 0.000000
0.004500 0.055000 0.000000
0.000500 0.053750 0.000000
0.001000 0.053750 0.000000
0.001500 0.053750 0.000000
0.002000 0.053750 0.000000
0.002500 0.053750 0.000000
0.003000 0.053750 0.000000
0.003500 0.053750 0.000000
0.004000 0.053750 0.000000
0.004500 0.053750 0.000000
0.000500 0.052500 0.000000
0.001000 0.052500 0.000000
0.001500 0.052500 0.000000
0.002000 0.052500 0.000000
0.002500 0.052500 0.000000
0.003000 0.052500 0.000000
0.003500 0.052500 0.000000
0.004000 0.052500 0.000000
0.004500 0.052500 0.000000
0.000500 0.051250 0.000000
0.001000 0.051250 0.000000
0.001500 0.051250 0.000000
0.002000 0.051250 0.000000
0.002500 0.051250 0.000000
0.003000 0.051250 0.000000
0.003500 0.051250 0.000000
0.004000 0.051250 0.000000
0.004500 0.051250 0.000000
0.000500 0.050000 0.000000
0.001000 0.050000 0.000000
0.001500 0.050000 0.000000
0.002000 0.050000 0.000000
0.002500 0.050000 0.000000
0.003000 0.050000 0.000000
0.003500 0.050000 0.000000
0.004000 0.050000 0.000000
0.004500 0.050000 0.000000
0.000500 0.048750 0.000000
0.001000 0.048750 0.000000
0.001500 0.048750 0.000000
0.002000 0.048750 0.000000
0.002500 0.048750 0.000000
0.003000 0.048750 0.000000
0.003500 0.048750 0.000000
0.004000 0.048750 0.000000
0.004500 0.048750 0.000000
0.000500 0.047500 0.000000
0.001000 0.047500 0.000000
0.001500 0.047500 0.000000
0.002000 0.047500 0.000000
0.002500 0.047500 0.000000
0.003000 0.047500 0.000000
0.003500 0.047500 0.000000
0.004000 0.047500 0.000000
0.004500 0.047500 0.000000
0.000500 0.046250 0.000000
0.001000 0.046250 0.000000
0.001500 0.046250 0.000000
0.002000 0.046250 0.000000
0.002500 0.046250 0.000000
0.003000 0.046250 0.000000
0.003500 0.046250 0.000000
0.004000 0.046250 0.000000
0.004500 0.046250 0.000000
0.000500 0.045000 0.000000
0.001000 0.045000 0.000000
0.001500 0.045000 0.000000
0.002000 0.045000 0.000000
0.002500 0.045000 0.000000
0.003000 0.045000 0.000000
0.003500 0.045000 0.000000
0.004000 0.045000 0.000000
0.004500 0.045000 0.000000
0.000500 0.043750 0.000000
0.001000 0.043750 0.000000
0.001500 0.043750 0.000000
0.002000 0.043750 0.000000
0.002500 0.043750 0.000000
0.003000 0.043750 0.000000
0.003500 0.043750 0.000000
0.004000 0.043750 0.000000
0.004500 0.043750 0.000000
0.000500 0.042500 0.000000
0.001000 0.042500 0.000000
0.001500 0.042500 0.000000
0.002000 0.042500 0.000000
0.002500 0.042500 0.000000
0.003000 0.042500 0.000000
0.003500 0.042500 0.000000
0.004000 0.042500 0.000000
0.004500 0.042500 0.000000
0.000500 0.041250 0.000000
0.001000 0.041250 0.000000
0.001500 0.041250 0.000000
0.002000 0.041250 0.000000
0.002500 0.041250 0.000000
0.003000 0.041250 0.000000
0.003500 0.041250 0.000000
0.004000 0.041250 0.000000
0.004500 0.041250 0.000000
0.000500 0.040000 0.000000
0.001000 0.040000 0.000000
0.001500 0.040000 0.000000
0.002000 0.040000 0.000000
0.002500 0.040000 0.000000
0.003000 0.040000 0.000000
0.003500 0.040000 0.000000
0.004000 0.040000 0.000000
0.004500 0.040000 0.000000
0.000500 0.038750 0.000000
0.001000 0.038750 0.000000
0.001500 0.038750 0.000000
0.002000 0.038750 0.000000
0.002500 0.038750 0.000000
0.003000 0.038750 0.000000
0.003500 0.038750 0.000000
0.004000 0.038750 0.000000
0.004500 0.038750 0.000000
0.000500 0.037500 0.000000
0.001000 0.037500 0.000000
0.001500 0.037500 0.000000
0.002000 0.037500 0.000000
0.002500 0.037500 0.000000
0.003000 0.037500 0.000000
0.003500 0.037500 0.000000
0.004000 0.037500 0.000000
0.004500 0.037500 0.000000
0.000500 0.036250 0.000000
0.001000 0.036250 0.000000
0.001500 0.036250 0.000000
0.002000 0.036250 0.000000
0.002500 0.036250 0.000000
0.003000 0.036250 0.000000
0.003500 0.036250 0.000000
0.004000 0.036250 0.000000
0.004500 0.036250 0.000000
0.000500 0.035000 0.000000
0.001000 0.035000 0.000000
0.001500 0.035000 0.000000
0.002000 0.035000 0.000000
0.002500 0.035000 0.000000
0.003000 0.035000 0.000000
0.003500 0.035000 0.000000
0.004000 0.035000 0.000000
0.004500 0.035000 0.000000
0.000500 0.033750 0.000000
0.001000 0.033750 0.000000
0.001500 0.033750 0.000000
0.002000 0.033750 0.000000
0.002500 0.033750 0.000000
0.003000 0.033750 0.000000
0.003500 0.033750 0.000000
0.004000 0.033750 0.000000
0.004500 0.033750 0.000000
0.000500 0.032500 0.000000
0.001000 0.032500 0.000000
0.001500 0.032500 0.000000
0.002000 0.032500 0.000000
0.002500 0.032500 0.000000
0.003000 0.032500 0.000000
0.003500 0.032500 0.000000
0.004000 0.032500 0.000000
0.004500 0.032500 0.000000
0.000500 0.031250 0.000000
0.001000 0.031250 0.000000
0.001500 0.031250 0.000000
0.002000 0.031250 0.000000
0.002500 0.031250 0.000000
0.003000 0.031250 0.000000
0.003500 0.031250 0.000000
0.004000 0.031250 0.000000
0.004500 0.031250 0.000000
0.000500 0.030000 0.000000
0.001000 0.030000 0.000000
0.001500 0.030000 0.000000
0.002000 0.030000 0.000000
0.002500 0.030000 0.000000
0.003000 0.030000 0.000000
0.003500 0.030000 0.000000
0.004000 0.030000 0.000000
0.004500 0.030000 0.000000
0.000500 0.028750 0.000000
0.001000 0.028750 0.000000
0.001500 0.028750 0.000000
0.002000 0.028750 0.000000
0.002500 0.028750 0.000000
0.003000 0.028750 0.000000
0.003500 0.028750 0.000000
0.004000 0.028750 0.000000
0.004500 0.028750 0.000000
0.000500 0.027500 0.000000
0.001000 0.027500 0.000000
0.001500 0.027500 0.000000
0.002000 0.027500 0.000000
0.002500 0.027500 0.000000
0.003000 0.027500 0.000000
0.003500 0.027500 0.000000
0.004000 0.027500 0.000000
0.004500 0.027500 0.000000
0.000500 0.026250 0.000000
0.001000 0.026250 0.000000
0.001500 0.026250 0.000000
0.002000 0.026250 0.000000
0.002500 0.026250 0.000000
0.003000 0.026250 0.000000
0.003500 0.026250 0.000000
0.004000 0.026250 0.000000
0.004500 0.026250 0.000000
0.000500 0.025000 0.000000
0.001000 0.025000 0.000000
0.001500 0.025000 0.000000
0.002000 0.025000 0.000000
0.002500 0.025000 0.000000
0.003000 0.025000 0.000000
0.003500 0.025000 0.000000
0.004000 0.025000 0.000000
0.004500 0.025000 0.000000
0.000500 0.023750 0.000000
0.001000 0.023750 0.000000
0.001500 0.023750 0.000000
0.002000 0.023750 0.000000
0.002500 0.023750 0.000000
0.003000 0.023750 0.000000
0.003500 0.023750 0.000000
0.004000 0.023750 0.000000
0.004500 0.023750 0.000000
0.000500 0.022500 0.000000
0.001000 0.022500 0.000000
0.001500 0.022500 0.000000
0.002000 0.022500 0.000000
0.002500 0.022500 0.000000
0.003000 0.022500 0.000000
0.003500 0.022500 0.000000
0.004000 0.022500 0.000000
0.004500 0.022500 0.000000
0.000500 0.021250 0.000000
0.001000 0.021250 0.000000
0.001500 0.021250 0.000000
0.002000 0.021250 0.000000
0.002500 0.021250 0.000000
0.003000 0.021250 0.000000
0.003500 0.021250 0.000000
0.004000 0.021250 0.000000
0.004500 0.021250 0.000000
0.000500 0.020000 0.000000
0.001000 0.020000 0.000000
0.001500 0.020000 0.000000
0.002000 0.020000 0.000000
0.002500 0.020000 0.000000
0.003000 0.020000 0.000000
0.003500 0.020000 0.000000
0.004000 0.020000 0.000000
0.004500 0.020000 0.000000
0.000500 0.018750 0.000000
0.001000 0.018750 0.000000
0.001500 0.018750 0.000000
0.002000 0.018750 0.000000
0.002500 0.018750 0.000000
0.003000 0.018750 0.000000
0.003500 0.018750 0.000000
0.004000 0.018750 0.000000
0.004500 0.018750 0.000000
0.000500 0.017500 0.000000
0.001000 0.017500 0.000000
0.001500 0.017500 0.000000
0.002000 0.017500 0.000000
0.002500 0.017500 0.000000
0.003000 0.017500 0.000000
0.003500 0.017500 0.000000
0.004000 0.017500 0.000000
0.004500 0.017500 0.000000
0.000500 0.016250 0.000000
0.001000 0.016250 0.000000
0.001500 0.016250 0.000000
0.002000 0.016250 0.000000
0.002500 0.016250 0.000000
0.003000 0.016250 0.000000
0.003500 0.016250 0.000000
0.004000 0.016250 0.000000
0.004500 0.016250 0.000000
0.000500 0.015000 0.000000
0.001000 0.015000 0.000000
0.001500 0.015000 0.000000
0.002000 0.015000 0.000000
0.002500 0.015000 0.000000
0.003000 0.015000 0.000000
0.003500 0.015000 0.000000
0.004000 0.015000 0.000000
0.004500 0.015000 0.000000
0.000500 0.013750 0.000000
0.001000 0.013750 0.000000
0.001500 0.013750 0.000000
0.002000 0.013750 0.000000
0.002500 0.013750 0.000000
0.003000 0.013750 0.000000
0.003500 0.013750 0.000000
0.004000 0.013750 0.000000
0.004500 0.013750 0.000000
0.000500 0.012500 0.000000
0.001000 0.012500 0.000000
0.001500 0.012500 0.000000
0.002000 0.012500 0.000000
0.002500 0.012500 0.000000
0.003000 0.012500 0.000000
0.003500 0.012500 0.000000
0.004000 0.012500 0.000000
0.004500 0.012500 0.000000
0.000500 0.011250 0.000000
0.001000 0.011250 0.000000
0.001500 0.011250 0.000000
0.002000 0.011250 0.000000
0.002500 0.011250 0.000000
0.003000 0.011250 0.000000
0.003500 0.011250 0.000000
0.004000 0.011250 0.000000
0.004500 0.011250 0.000000
0.000500 0.010000 0.000000
0.001000 0.010000 0.000000
0.001500 0.010000 0.000000
0.002000 0.010000 0.000000
0.002500 0.010000 0.000000
0.003000 0.010000 0.000000
0.003500 0.010000 0.000000
0.004000 0.010000 0.000000
0.004500 0.010000 0.000000
0.000500 0.008750 0.000000
0.001000 0.008750 0.000000
0.001500 0.008750 0.000000
0.002000 0.008750 0.000000
0.002500 0.008750 0.000000
0.003000 0.008750 0.000000
0.003500 0.008750 0.000000
0.004000 0.008750 0.000000
0.004500 0.008750 0.000000
0.000500 0.007500 0.000000
0.001000 0.007500 0.000000
0.001500 0.007500 0.000000
0.002000 0.007500 0.000000
0.002500 0.007500 0.000000
0.003000 0.007500 0.000000
0.003500 0.007500 0.000000
0.004000 0.007500 0.000000
0.004500 0.007500 0.000000
0.000500 0.006250 0.000000
0.001000 0.006250 0.000000
0.001500 0.006250 0.000000
0.002000 0.006250 0.000000
0.002500 0.006250 0.000000
0.003000 0.006250 0.000000
0.003500 0.006250 0.000000
0.004000 0.006250 0.000000
0.004500 0.006250 0.000000
0.000500 0.005000 0.000000
0.001000 0.005000 0.000000
0.001500 0.005000 0.000000
0.002000 0.005000 0.000000
0.002500 0.005000 0.000000
0.003000 0.005000 0.000000
0.003500 0.005000 0.000000
0.004000 0.005000 0.000000
0.004500 0.005000 0.000000
0.000500 0.003750 0.000000
0.001000 0.003750 0.000000
0.001500 0.003750 0.000000
0.002000 0.003750 0.000000
0.002500 0.003750 0.000000
0.003000 0.003750 0.000000
0.003500 0.003750 0.000000
0.004000 0.003750 0.000000
0.004500 0.003750 0.000000
0.000500 0.002500 0.000000
0.001000 0.002500 0.000000
0.001500 0.002500 0.000000
0.002000 0.002500 0.000000
0.002500 0.002500 0.000000
0.003000 0.002500 0.000000
0.003500 0.002500 0.000000
0.004000 0.002500 0.000000
0.004500 0.002500 0.000000
0.000500 0.001250 0.000000
0.001000 0.001250 0.000000
0.001500 0.001250 0.000000
0.002000 0.001250 0.000000
0.002500 0.001250 0.000000
0.003000 0.001250 0.000000
0.003500 0.001250 0.000000
0.004000 0.001250 0.000000
0.004500 0.001250 0.000000
CELLS 800 4000
4 82 83 180 179
4 179 180 181 178
4 178 181 182 177
4 177 182 183 176
4 176 183 184 175
4 175 184 185 174
4 174 185 186 173
4 173 186 187 172
4 172 187 188 171
4 171 188 80 0
4 83 84 189 180
4 180 189 190 181
4 181 190 191 182
4 182 191 192 183
4 183 192 193 184
4 184 193 194 185
4 185 194 195 186
4 186 195 196 187
4 187 196 197 188
4 188 197 79 80
4 84 85 198 189
4 189 198 199 190
4 190 199 200 191
4 191 200 201 192
4 192 201 202 193
4 193 202 203 194
4 194 203 204 195
4 195 204 205 196
4 196 205 206 197
4 197 206 78 79
4 85 86 207 198
4 198 207 208 199
4 199 208 209 200
4 200 209 210 201
4 201 210 211 202
4 202 211 212 203
4 203 212 213 204
4 204 213 214 205
4 205 214 215 206
4 206 215 77 78
4 86 87 216 207
4 207 216 217 208
4 208 217 218 209
4 209 218 219 210
4 210 219 220 211
4 211 220 221 212
4 212 221 222 213
4 213 222 223 214
4 214 223 224 215
4 215 224 76 77
4 87 88 225 216
4 216 225 226 217
4 217 226 227 218
4 218 227 228 219
4 219 228 229 220
4 220 229 230 221
4 221 230 231 222
4 222 231 232 223
4 223 232 233 224
4 224 233 75 76
4 88 89 234 225
4 225 234 235 226
4 226 235 236 227
4 227 236 237 228
4 228 237 238 229
4 229 238 239 230
4 230 239 240 231
4 231 240 241 232
4 232 241 242 233
4 233 242 74 75
4 89 90 243 234
4 234 243 244 235
4 235 244 245 236
4 236 245 246 237
4 237 246 247 238
4 238 247 248 239
4 239 248 249 240
4 240 249 250 241
4 241 250 251 242
4 242 251 73 74
4 90 91 252 243
4 243 252 253 244
4 244 253 254 245
4 245 254 255 246
4 246 255 256 247
4 247 256 257 248
4 248 257 258 249
4 249 258 259 250
4 250 259 260 251
4 251 260 72 73
4 91 92 261 252
4 252 261 262 253
4 253 262 263 254
4 254 263 264 255
4 255 264 265 256
4 256 265 266 257
4 257 266 267 258
4 258 267 268 259
4 259 268 269 260
4 260 269 71 72
4 92 93 270 261
4 261 270 271 262
4 262 271 272 263
4 263 272 273 264
4 264 273 274 265
4 265 274 275 266
4 266 275 276 267
4 267 276 277 268
4 268 277 278 269
4 269 278 70 71
4 93 94 279 270
4 270 279 280 271
4 271 280 281 272
4 272 281 282 273
4 273 282 283 274
4 274 283 284 275
4 275 284 285 276
4 276 285 286 277
4 277 286 287 278
4 278 287 69 70
4 94 95 288 279
4 279 288 289 280
4 280 289 290 281
4 281 290 291 282
4 282 291 292 283
4 283 292 293 284
4 284 293 294 285
4 285 294 295 286
4 286 295 296 287
4 287 296 68 69
4 95 96 297 288
4 288 297 298 289
4 289 298 299 290
4 290 299 300 291
4 291 300 301 292
4 292 301 302 293
4 293 302 303 294
4 294 303 304 295
4 295 304 305 296
4 296 305 67 68
4 96 97 306 297
4 297 306 307 298
4 298 307 308 299
4 299 308 309 300
4 300 309 310 301
4 301 310 311 302
4 302 311 312 303
4 303 312 313 304
4 304 313 314 305
4 305 314 66 67
4 97 98 315 306
4 306 315 316 307
4 307 316 317 308
4 308 317 318 309
4 309 318 319 310
4 310 319 320 311
4 311 320 321 312
4 312 321 322 313
4 313 322 323 314
4 314 323 65 66
4 98 99 324 315
4 315 324 325 316
4 316 325 326 317
4 317 326 327 318
4 318 327 328 319
4 319 328 329 320
4 320 329 330 321
4 321 330 331 322
4 322 331 332 323
4 323 332 64 65
4 99 100 333 324
4 324 333 334 325
4 325 334 335 326
4 326 335 336 327
4 327 336 337 328
4 328 337 338 329
4 329 338 339 330
4 330 339 340 331
4 331 340 341 332
4 332 341 63 64
4 100 101 342 333
4 333 342 343 334
4 334 343 344 335
4 335 344 345 336
4 336 345 346 337
4 337 346 347 338
4 338 347 348 339
4 339 348 349 340
4 340 349 350 341
4 341 350 62 63
4 101 102 351 342
4 342 351 352 343
4 343 352 353 344
4 344 353 354 345
4 345 354 355 346
4 346 355 356 347
4 347 356 357 348
4 348 357 358 349
4 349 358 359 350
4 350 359 61 62
4 102 103 360 351
4 351 360 361 352
4 352 361 362 353
4 353 362 363 354
4 354 363 364 355
4 355 364 365 356
4 356 365 366 357
4 357 366 367 358
4 358 367 368 359
4 359 368 60 61
4 103 104 369 360
4 360 369 370 361
4 361 370 371 362
4 362 371 372 363
4 363 372 373 364
4 364 373 374 365
4 365 374 375 366
4 366 375 376 367
4 367 376 377 368
4 368 377 59 60
4 104 105 378 369
4 369 378 379 370
4 370 379 380 371
4 371 380 381 372
4 372 381 382 373
4 373 382 383 374
4 374 383 384 375
4 375 384 385 376
4 376 385 386 377
4 377 386 58 59
4 105 106 387 378
4 378 387 388 379
4 379 388 389 380
4 380 389 390 381
4 381 390 391 382
4 382 391 392 383
4 383 392 393 384
4 384 393 394 385
4 385 394 395 386
4 386 395 57 58
4 106 107 396 387
4 387 396 397 388
4 388 397 398 389
4 389 398 399 390
4 390 399 400 391
4 391 400 401 392
4 392 401 402 393
4 393 402 403 394
4 394 403 404 395
4 395 404 56 57
4 107 108 405 396
4 396 405 406 397
4 397 406 407 398
4 398 407 408 399
4 399 408 409 400
4 400 409 410 401
4 401 410 411 402
4 402 411 412 403
4 403 412 413 404
4 404 413 55 56
4 108 109 414 405
4 405 414 415 406
4 406 415 416 407
4 407 416 417 408
4 408 417 418 409
4 409 418 419 410
4 410 419 420 411
4 411 420 421 412
4 412 421 422 413
4 413 422 54 55
4 109 110 423 414
4 414 423 424 415
4 415 424 425 416
4 416 425 426 417
4 417 426 427 418
4 418 427 428 419
4 419 428 429 420
4 420 429 430 421
4 421 430 431 422
4 422 431 53 54
4 110 111 432 423
4 423 432 433 424
4 424 433 434 425
4 425 434 435 426
4 426 435 436 427
4 427 436 437 428
4 428 437 438 429
4 429 438 439 430
4 430 439 440 431
4 431 440 52 53
4 111 112 441 432
4 432 441 442 433
4 433 442 443 434
4 434 443 444 435
4 435 444 445 436
4 436 445 446 437
4 437 446 447 438
4 438 447 448 439
4 439 448 449 440
4 440 449 51 52
4 112 113 450 441
4 441 450 451 442
4 442 451 452 443
4 443 452 453 444
4 444 453 454 445
4 445 454 455 446
4 446 455 456 447
4 447 456 457 448
4 448 457 458 449
4 449 458 50 51
4 113 114 459 450
4 450 459 460 451
4 451 460 461 452
4 452 461 462 453
4 453 462 463 454
4 454 463 464 455
4 455 464 465 456
4 456 465 466 457
4 457 466 467 458
4 458 467 49 50
4 114 115 468 459
4 459 468 469 460
4 460 469 470 461
4 461 470 471 462
4 462 471 472 463
4 463 472 473 464
4 464 473 474 465
4 465 474 475 466
4 466 475 476 467
4 467 476 48 49
4 115 116 477 468
4 468 477 478 469
4 469 478 479 470
4 470 479 480 471
4 471 480 481 472
4 472 481 482 473
4 473 482 483 474
4 474 483 484 475
4 475 484 485 476
4 476 485 47 48
4 116 117 486 477
4 477 486 487 478
4 478 487 488 479
4 479 488 489 480
4 480 489 490 481
4 481 490 491 482
4 482 491 492 483
4 483 492 493 484
4 484 493 494 485
4 485 494 46 47
4 117 118 495 486
4 486 495 496 487
4 487 496 497 488
4 488 497 498 489
4 489 498 499 490
4 490 499 500 491
4 491 500 501 492
4 492 501 502 493
4 493 502 503 494
4 494 503 45 46
4 118 119 504 495
4 495 504 505 496
4 496 505 506 497
4 497 506 507 498
4 498 507 508 499
4 499 508 509 500
4 500 509 510 501
4 501 510 511 502
4 502 511 512 503
4 503 512 44 45
4 119 120 513 504
4 504 513 514 505
4 505 514 515 506
4 506 515 516 507
4 507 516 517 508
4 508 517 518 509
4 509 518 519 510
4 510 519 520 511
4 511 520 521 512
4 512 521 43 44
4 120 121 522 513
4 513 522 523 514
4 514 523 524 515
4 515 524 525 516
4 516 525 526 517
4 517 526 527 518
4 518 527 528 519
4 519 528 529 520
4 520 529 530 521
4 521 530 42 43
4 121 122 531 522
4 522 531 532 523
4 523 532 533 524
4 524 533 534 525
4 525 534 535 526
4 526 535 536 527
4 527 536 537 528
4 528 537 538 529
4 529 538 539 530
4 530 539 41 42
4 122 123 540 531
4 531 540 541 532
4 532 541 542 533
4 533 542 543 534
4 534 543 544 535
4 535 544 545 536
4 536 545 546 537
4 537 546 547 538
4 538 547 548 539
4 539 548 40 41
4 123 124 549 540
4 540 549 550 541
4 541 550 551 542
4 542 551 552 543
4 543 552 553 544
4 544 553 554 545
4 545 554 555 546
4 546 555 556 547
4 547 556 557 548
4 548 557 39 40
4 124 125 558 549
4 549 558 559 550
4 550 559 560 551
4 551 560 561 552
4 552 561 562 553
4 553 562 563 554
4 554 563 564 555
4 555 564 565 556
4 556 565 566 557
4 557 566 38 39
4 125 126 567 558
4 558 567 568 559
4 559 568 569 560
4 560 569 570 561
4 561 570 571 562
4 562 571 572 563
4 563 572 573 564
4 564 573 574 565
4 565 574 575 566
4 566 575 37 38
4 126 127 576 567
4 567 576 577 568
4 568 577 578 569
4 569 578 579 570
4 570 579 580 571
4 571 580 581 572
4 572 581 582 573
4 573 582 583 574
4 574 583 584 575
4 575 584 36 37
4 127 128 585 576
4 576 585 586 577
4 577 586 587 578
4 578 587 588 579
4 579 588 589 580
4 580 589 590 581
4 581 590 591 582
4 582 591 592 583
4 583 592 593 584
4 584 593 35 36
4 128 129 594 585
4 585 594 595 586
4 586 595 596 587
4 587 596 597 588
4 588 597 598 589
4 589 598 599 590
4 590 599 600 591
4 591 600 601 592
4 592 601 602 593
4 593 602 34 35
4 129 130 603 594
4 594 603 604 595
4 595 604 605 596
4 596 605 606 597
4 597 606 607 598
4 598 607 608 599
4 599 608 609 600
4 600 609 610 601
4 601 610 611 602
4 602 611 33 34
4 130 131 612 603
4 603 612 613 604
4 604 613 614 605
4 605 614 615 606
4 606 615 616 607
4 607 616 617 608
4 608 617 618 609
4 609 618 619 610
4 610 619 620 611
4 611 620 32 33
4 131 132 621 612
4 612 621 622 613
4 613 622 623 614
4 614 623 624 615
4 615 624 625 616
4 616 625 626 617
4 617 626 627 618
4 618 627 628 619
4 619 628 629 620
4 620 629 31 32
4 132 133 630 621
4 621 630 631 622
4 622 631 632 623
4 623 632 633 624
4 624 633 634 625
4 625 634 635 626
4 626 635 636 627
4 627 636 637 628
4 628 637 638 629
4 629 638 30 31
4 133 134 639 630
4 630 639 640 631
4 631 640 641 632
4 632 641 642 633
4 633 642 643 634
4 634 643 644 635
4 635 644 645 636
4 636 645 646 637
4 637 646 647 638
4 638 647 29 30
4 134 135 648 639
4 639 648 649 640
4 640 649 650 641
4 641 650 651 642
4 642 651 652 643
4 643 652 653 644
4 644 653 654 645
4 645 654 655 646
4 646 655 656 647
4 647 656 28 29
4 135 136 657 648
4 648 657 658 649
4 649 658 659 650
4 650 659 660 651
4 651 660 661 652
4 652 661 662 653
4 653 662 663 654
4 654 663 664 655
4 655 664 665 656
4 656 665 27 28
4 136 137 666 657
4 657 666 667 658
4 658 667 668 659
4 659 668 669 660
4 660 669 670 661
4 661 670 671 662
4 662 671 672 663
4 663 672 673 664
4 664 673 674 665
4 665 674 26 27
4 137 138 675 666
4 666 675 676 667
4 667 676 677 668
4 668 677 678 669
4 669 678 679 670
4 670 679 680 671
4 671 680 681 672
4 672 681 682 673
4 673 682 683 674
4 674 683 25 26
4 138 139 684 675
4 675 684 685 676
4 676 685 686 677
4 677 686 687 678
4 678 687 688 679
4 679 688 689 680
4 680 689 690 681
4 681 690 691 682
4 682 691 692 683
4 683 692 24 25
4 139 140 693 684
4 684 693 694 685
4 685 694 695 686
4 686 695 696 687
4 687 696 697 688
4 688 697 698 689
4 689 698 699 690
4 690 699 700 691
4 691 700 701 692
4 692 701 23 24
4 140 141 702 693
4 693 702 703 694
4 694 703 704 695
4 695 704 705 696
4 696 705 706 697
4 697 706 707 698
4 698 707 708 699
4 699 708 709 700
4 700 709 710 701
4 701 710 22 23
4 141 142 711 702
4 702 711 712 703
4 703 712 713 704
4 704 713 714 705
4 705 714 715 706
4 706 715 716 707
4 707 716 717 708
4 708 717 718 709
4 709 718 719 710
4 710 719 21 22
4 142 143 720 711
4 711 720 721 712
4 712 721 722 713
4 713 722 723 714
4 714 723 724 715
4 715 724 725 716
4 716 725 726 717
4 717 726 727 718
4 718 727 728 719
4 719 728 20 21
4 143 144 729 720
4 720 729 730 721
4 721 730 731 722
4 722 731 732 723
4 723 732 733 724
4 724 733 734 725
4 725 734 735 726
4 726 735 736 727
4 727 736 737 728
4 728 737 19 20
4 144 145 738 729
4 729 738 739 730
4 730 739 740 731
4 731 740 741 732
4 732 741 742 733
4 733 742 743 734
4 734 743 744 735
4 735 744 745 736
4 736 745 746 737
4 737 746 18 19
4 145 146 747 738
4 738 747 748 739
4 739 748 749 740
4 740 749 750 741
4 741 750 751 742
4 742 751 752 743
4 743 752 753 744
4 744 753 754 745
4 745 754 755 746
4 746 755 17 18
4 146 147 756 747
4 747 756 757 748
4 748 757 758 749
4 749 758 759 750
4 750 759 760 751
4 751 760 761 752
4 752 761 762 753
4 753 762 763 754
4 754 763 764 755
4 755 764 16 17
4 147 148 765 756
4 756 765 766 757
4 757 766 767 758
4 758 767 768 759
4 759 768 769 760
4 760 769 770 761
4 761 770 771 762
4 762 771 772 763
4 763 772 773 764
4 764 773 15 16
4 148 149 774 765
4 765 774 775 766
4 766 775 776 767
4 767 776 777 768
4 768 777 778 769
4 769 778 779 770
4 770 779 780 771
4 771 780 781 772
4 772 781 782 773
4 773 782 14 15
4 149 150 783 774
4 774 783 784 775
4 775 784 785 776
4 776 785 786 777
4 777 786 787 778
4 778 787 788 779
4 779 788 789 780
4 780 789 790 781
4 781 790 791 782
4 782 791 13 14
4 150 151 792 783
4 783 792 793 784
4 784 793 794 785
4 785 794 795 786
4 786 795 796 787
4 787 796 797 788
4 788 797 798 789
4 789 798 799 790
4 790 799 800 791
4 791 800 12 13
4 151 152 801 792
4 792 801 802 793
4 793 802 803 794
4 794 803 804 795
4 795 804 805 796
4 796 805 806 797
4 797 806 807 798
4 798 807 808 799
4 799 808 809 800
4 800 809 11 12
4 152 153 810 801
4 801 810 811 802
4 802 811 812 803
4 803 812 813 804
4 804 813 814 805
4 805 814 815 806
4 806 815 816 807
4 807 816 817 808
4 808 817 818 809
4 809 818 10 11
4 153 154 819 810
4 810 819 820 811
4 811 820 821 812
4 812 821 822 813
4 813 822 823 814
4 814 823 824 815
4 815 824 825 816
4 816 825 826 817
4 817 826 827 818
4 818 827 9 10
4 154 155 828 819
4 819 828 829 820
4 820 829 830 821
4 821 830 831 822
4 822 831 832 823
4 823 832 833 824
4 824 833 834 825
4 825 834 835 826
4 826 835 836 827
4 827 836 8 9
4 155 156 837 828
4 828 837 838 829
4 829 838 839 830
4 830 839 840 831
4 831 840 841 832
4 832 841 842 833
4 833 842 843 834
4 834 843 844 835
4 835 844 845 836
4 836 845 7 8
4 156 157 846 837
4 837 846 847 838
4 838 847 848 839
4 839 848 849 840
4 840 849 850 841
4 841 850 851 842
4 842 851 852 843
4 843 852 853 844
4 844 853 854 845
4 845 854 6 7
4 157 158 855 846
4 846 855 856 847
4 847 856 857 848
4 848 857 858 849
4 849 858 859 850
4 850 859 860 851
4 851 860 861 852
4 852 861 862 853
4 853 862 863 854
4 854 863 5 6
4 158 159 864 855
4 855 864 865 856
4 856 865 866 857
4 857 866 867 858
4 858 867 868 859
4 859 868 869 860
4 860 869 870 861
4 861 870 871 862
4 862 871 872 863
4 863 872 4 5
4 159 160 873 864
4 864 873 874 865
4 865 874 875 866
4 866 875 876 867
4 867 876 877 868
4 868 877 878 869
4 869 878 879 870
4 870 879 880 871
4 871 880 881 872
4 872 881 3 4
4 160 161 882 873
4 873 882 883 874
4 874 883 884 875
4 875 884 885 876
4 876 885 886 877
4 877 886 887 878
4 878 887 888 879
4 879 888 889 880
4 880 889 890 881
4 881 890 2 3
4 161 81 162 882
4 882 162 163 883
4 883 163 164 884
4 884 164 165 885
4 885 165 166 886
4 886 166 167 887
4 887 167 168 888
4 888 168 169 889
4 889 169 170 890
4 890 170 1 2
CELL_TYPES 800
9
9
9
9
9
9
9
9
9
9
9
9
9
9
9
9
9
9
9
9
9
9
9
9
9
9
9
9
9
9
9
9
9
9
9
9
9
9
9
9
9
9
9
9
9
9
9
9
9
9
9
9
9
9
9
9
9
9
9
9
9
9
9
9
9
9
9
9
9
9
9
9
9
9
9
9
9
9
9
9
9
9
9
9
9
9
9
9
9
9
9
9
9
9
9
9
9
9
9
9
9
9
9
9
9
9
9
9
9
9
9
9
9
9
9
9
9
9
9
9
9
9
9
9
9
9
9
9
9
9
9
9
9
9
9
9
9
9
9
9
9
9
9
9
9
9
9
9
9
9
9
9
9
9
9
9
9
9
9
9
9
9
9
9
9
9
9
9
9
9
9
9
9
9
9
9
9
9
9
9
9
9
9
9
9
9
9
9
9
9
9
9
9
9
9
9
9
9
9
9
9
9
9
9
9
9
9
9
9
9
9
9
9
9
9
9
9
9
9
9
9
9
9
9
9
9
9
9
9
9
9
9
9
9
9
9
9
9
9
9
9
9
9
9
9
9
9
9
9
9
9
9
9
9
9
9
9
9
9
9
9
9
9
9
9
9
9
9
9
9
9
9
9
9
9
9
9
9
9
9
9
9
9
9
9
9
9
9
9
9
9
9
9
9
9
9
9
9
9
9
9
9
9
9
9
9
9
9
9
9
9
9
9
9
9
9
9
9
9
9
9
9
9
9
9
9
9
9
9
9
9
9
9
9
9
9
9
9
9
9
9
9
9
9
9
9
9
9
9
9
9
9
9
9
9
9
9
9
9
9
9
9
9
9
9
9
9
9
9
9
9
9
9
9
9
9
9
9
9
9
9
9
9
9
9
9
9
9
9
9
9
9
9
9
9
9
9
9
9
9
9
9
9
9
9
9
9
9
9
9
9
9
9
9
9
9
9
9
9
9
9
9
9
9
9
9
9
9
9
9
9
9
9
9
9
9
9
9
9
9
9
9
9
9
9
9
9
9
9
9
9
9
9
9
9
9
9
9
9
9
9
9
9
9
9
9
9
9
9
9
9
9
9
9
9
9
9
9
9
9
9
9
9
9
9
9
9
9
9
9
9
9
9
9
9
9
9
9
9
9
9
9
9
9
9
9
9
9
9
9
9
9
9
9
9
9
9
9
9
9
9
9
9
9
9
9
9
9
9
9
9
9
9
9
9
9
9
9
9
9
9
9
9
9
9
9
9
9
9
9
9
9
9
9
9
9
9
9
9
9
9
9
9
9
9
9
9
9
9
9
9
9
9
9
9
9
9
9
9
9
9
9
9
9
9
9
9
9
9
9
9
9
9
9
9
9
9
9
9
9
9
9
9
9
9
9
9
9
9
9
9
9
9
9
9
9
9
9
9
9
9
9
9
9
9
9
9
9
9
9
9
9
9
9
9
9
9
9
9
9
9
9
9
9
9
9
9
9
9
9
9
9
9
9
9
9
9
9
9
9
9
9
9
9
9
9
9
9
9
9
9
9
9
9
9
9
9
9
9
9
9
9
9
9
9
9
9
9
9
9
9
9
9
9
9
9
9
9
9
9
9
9
9
9
9
9
9
9
9
9
9
9
9
9
9
9
9
9
9
9
9
9
9
9
9
9
9
9
9
9
9
9
9
9
9
9
9
9
9
9
9
9
9
9
9
9
9
9
9
9
9
9
9
9
9
9
9
9
9
9
9
9
9
9
9
9
9
9
9
9
9
9
9
9
9
9
9
9
9
9
9
9
9
9
9
9
9
9
9
9
9
9
9
9
9
9
9
9
9
9
POINT_DATA 891
SCALARS u1 float
LOOKUP_TABLE default
-3e-06
-3e-06
-3e-06
-3e-06
-3e-06
-3e-06
-3e-06
-3e-06
-3e-06
-3e-06
-3e-06
-3e-06
-3e-06
-3e-06
-3e-06
-3e-06
-3e-06
-3e-06
-3e-06
-3e-06
-3e-06
-3e-06
-3e-06
-3e-06
-3e-06
-3e-06
-3e-06
-3e-06
-3e-06
-3e-06
-3e-06
-3e-06
-3e-06
-3e-06
-3e-06
-3e-06
-3e-06
-3e-06
-3e-06
-3e-06
-3e-06
-3e-06
-3e-06
-3e-06
-3e-06
-3e-06
-3e-06
-3e-06
-3e-06
-3e-06
-3e-06
-3e-06
-3e-06
-3e-06
-3e-06
-3e-06
-3e-06
-3e-06
-3e-06
-3e-06
-3e-06
-3e-06
-3e-06
-3e-06
-3e-06
-3e-06
-3e-06
-3e-06
-3e-06
-3e-06
-3e-06
-3e-06
-3e-06
-3e-06
-3e-06
-3e-06
-3e-06
-3e-06
-3e-06
-3e-06
-3e-06
5e-05
5e-05
5e-05
5e-05
5e-05
5e-05
5e-05
5e-05
5e-05
5e-05
5e-05
5e-05
5e-05
5e-05
5e-05
5e-05
5e-05
5e-05
5e-05
5e-05
5e-05
5e-05
5e-05
5e-05
5e-05
5e-05
5e-05
5e-05
5e-05
5e-05
5e-05
5e-05
5e-05
5e-05
5e-05
5e-05
5e-05
5e-05
5e-05
5e-05
5e-05
5e-05
5e-05
5e-05
5e-05
5e-05
5e-05
5e-05
5e-05
5e-05
5e-05
5e-05
5e-05
5e-05
5e-05
5e-05
5e-05
5e-05
5e-05
5e-05
5e-05
5e-05
5e-05
5e-05
5e-05
5e-05
5e-05
5e-05
5e-05
5e-05
5e-05
5e-05
5e-05
5e-05
5e-05
5e-05
5e-05
5e-05
5e-05
5e-05
5e-05
5e-05
4e-05
4e-05
3e-05
3e-05
2e-05
1e-05
8e-06
3e-06
3e-06
8e-06
1e-05
2e-05
3e-05
3e-05
4e-05
4e-05
5e-05
5e-05
4e-05
4e-05
3e-05
3e-05
2e-05
1e-05
8e-06
3e-06
5e-05
4e-05
4e-05
3e-05
3e-05
2e-05
1e-05
8e-06
3e-06
5e-05
4e-05
4e-05
3e-05
3e-05
2e-05
1e-05
8e-06
3e-06
5e-05
4e-05
4e-05
3e-05
3e-05
2e-05
1e-05
8e-06
3e-06
5e-05
4e-05
4e-05
3e-05
3e-05
2e-05
1e-05
8e-06
3e-06
5e-05
4e-05
4e-05
3e-05
3e-05
2e-05
1e-05
8e-06
3e-06
5e-05
4e-05
4e-05
3e-05
3e-05
2e-05
1e-05
8e-06
3e-06
5e-05
4e-05
4e-05
3e-05
3e-05
2e-05
1e-05
8e-06
3e-06
5e-05
4e-05
4e-05
3e-05
3e-05
2e-05
1e-05
8e-06
3e-06
5e-05
4e-05
4e-05
3e-05
3e-05
2e-05
1e-05
8e-06
3e-06
5e-05
4e-05
4e-05
3e-05
3e-05
2e-05
1e-05
8e-06
3e-06
5e-05
4e-05
4e-05
3e-05
3e-05
2e-05
1e-05
8e-06
3e-06
5e-05
4e-05
4e-05
3e-05
3e-05
2e-05
1e-05
8e-06
3e-06
5e-05
4e-05
4e-05
3e-05
3e-05
2e-05
1e-05
8e-06
3e-06
5e-05
4e-05
4e-05
3e-05
3e-05
2e-05
1e-05
8e-06
3e-06
5e-05
4e-05
4e-05
3e-05
3e-05
2e-05
1e-05
8e-06
3e-06
5e-05
4e-05
4e-05
3e-05
3e-05
2e-05
1e-05
8e-06
3e-06
5e-05
4e-05
4e-05
3e-05
3e-05
2e-05
1e-05
8e-06
3e-06
5e-05
4e-05
4e-05
3e-05
3e-05
2e-05
1e-05
8e-06
3e-06
5e-05
4e-05
4e-05
3e-05
3e-05
2e-05
1e-05
8e-06
3e-06
5e-05
4e-05
4e-05
3e-05
3e-05
2e-05
1e-05
8e-06
3e-06
5e-05
4e-05
4e-05
3e-05
3e-05
2e-05
1e-05
8e-06
3e-06
5e-05
4e-05
4e-05
3e-05
3e-05
2e-05
1e-05
8e-06
3e-06
5e-05
4e-05
4e-05
3e-05
3e-05
2e-05
1e-05
8e-06
3e-06
5e-05
4e-05
4e-05
3e-05
3e-05
2e-05
1e-05
8e-06
3e-06
5e-05
4e-05
4e-05
3e-05
3e-05
2e-05
1e-05
8e-06
3e-06
5e-05
4e-05
4e-05
3e-05
3e-05
2e-05
1e-05
8e-06
3e-06
5e-05
4e-05
4e-05
3e-05
3e-05
2e-05
1e-05
8e-06
3e-06
5e-05
4e-05
4e-05
3e-05
3e-05
2e-05
1e-05
8e-06
3e-06
5e-05
4e-05
4e-05
3e-05
3e-05
2e-05
1e-05
8e-06
3e-06
5e-05
4e-05
4e-05
3e-05
3e-05
2e-05
1e-05
8e-06
3e-06
5e-05
4e-05
4e-05
3e-05
3e-05
2e-05
1e-05
8e-06
3e-06
5e-05
4e-05
4e-05
3e-05
3e-05
2e-05
1e-05
8e-06
3e-06
5e-05
4e-05
4e-05
3e-05
3e-05
2e-05
1e-05
8e-06
3e-06
5e-05
4e-05
4e-05
3e-05
3e-05
2e-05
1e-05
8e-06
3e-06
5e-05
4e-05
4e-05
3e-05
3e-05
2e-05
1e-05
8e-06
3e-06
5e-05
4e-05
4e-05
3e-05
3e-05
2e-05
1e-05
8e-06
3e-06
5e-05
4e-05
4e-05
3e-05
3e-05
2e-05
1e-05
8e-06
3e-06
5e-05
4e-05
4e-05
3e-05
3e-05
2e-05
1e-05
8e-06
3e-06
5e-05
4e-05
4e-05
3e-05
3e-05
2e-05
1e-05
8e-06
3e-06
5e-05
4e-05
4e-05
3e-05
3e-05
2e-05
1e-05
8e-06
3e-06
5e-05
4e-05
4e-05
3e-05
3e-05
2e-05
1e-05
8e-06
3e-06
5e-05
4e-05
4e-05
3e-05
3e-05
2e-05
1e-05
8e-06
3e-06
5e-05
4e-05
4e-05
3e-05
3e-05
2e-05
1e-05
8e-06
3e-06
5e-05
4e-05
4e-05
3e-05
3e-05
2e-05
1e-05
8e-06
3e-06
5e-05
4e-05
4e-05
3e-05
3e-05
2e-05
1e-05
8e-06
3e-06
5e-05
4e-05
4e-05
3e-05
3e-05
2e-05
1e-05
8e-06
3e-06
5e-05
4e-05
4e-05
3e-05
3e-05
2e-05
1e-05
8e-06
3e-06
5e-05
4e-05
4e-05
3e-05
3e-05
2e-05
1e-05
8e-06
3e-06
5e-05
4e-05
4e-05
3e-05
3e-05
2e-05
1e-05
8e-06
3e-06
5e-05
4e-05
4e-05
3e-05
3e-05
2e-05
1e-05
8e-06
3e-06
5e-05
4e-05
4e-05
3e-05
3e-05
2e-05
1e-05
8e-06
3e-06
5e-05
4e-05
4e-05
3e-05
3e-05
2e-05
1e-05
8e-06
3e-06
5e-05
4e-05
4e-05
3e-05
3e-05
2e-05
1e-05
8e-06
3e-06
5e-05
4e-05
4e-05
3e-05
3e-05
2e-05
1e-05
8e-06
3e-06
5e-05
4e-05
4e-05
3e-05
3e-05
2e-05
1e-05
8e-06
3e-06
5e-05
4e-05
4e-05
3e-05
3e-05
2e-05
1e-05
8e-06
3e-06
5e-05
4e-05
4e-05
3e-05
3e-05
2e-05
1e-05
8e-06
3e-06
5e-05
4e-05
4e-05
3e-05
3e-05
2e-05
1e-05
8e-06
3e-06
5e-05
4e-05
4e-05
3e-05
3e-05
2e-05
1e-05
8e-06
3e-06
5e-05
4e-05
4e-05
3e-05
3e-05
2e-05
1e-05
8e-06
3e-06
5e-05
4e-05
4e-05
3e-05
3e-05
2e-05
1e-05
8e-06
3e-06
5e-05
4e-05
4e-05
3e-05
3e-05
2e-05
1e-05
8e-06
3e-06
5e-05
4e-05
4e-05
3e-05
3e-05
2e-05
1e-05
8e-06
3e-06
5e-05
4e-05
4e-05
3e-05
3e-05
2e-05
1e-05
8e-06
3e-06
5e-05
4e-05
4e-05
3e-05
3e-05
2e-05
1e-05
8e-06
3e-06
5e-05
4e-05
4e-05
3e-05
3e-05
2e-05
1e-05
8e-06
3e-06
5e-05
4e-05
4e-05
3e-05
3e-05
2e-05
1e-05
8e-06
3e-06
5e-05
4e-05
4e-05
3e-05
3e-05
2e-05
1e-05
8e-06
3e-06
5e-05
4e-05
4e-05
3e-05
3e-05
2e-05
1e-05
8e-06
3e-06
5e-05
4e-05
4e-05
3e-05
3e-05
2e-05
1e-05
8e-06
3e-06
5e-05
4e-05
4e-05
3e-05
3e-05
2e-05
1e-05
8e-06
3e-06
5e-05
4e-05
4e-05
3e-05
3e-05
2e-05
1e-05
8e-06
3e-06
5e-05
4e-05
4e-05
3e-05
3e-05
2e-05
1e-05
8e-06
3e-06
5e-05
4e-05
4e-05
3e-05
3e-05
2e-05
1e-05
8e-06
3e-06
5e-05
4e-05
4e-05
3e-05
3e-05
2e-05
1e-05
8e-06
3e-06
5e-05
4e-05
4e-05
3e-05
3e-05
2e-05
1e-05
8e-06
3e-06
5e-05
4e-05
4e-05
3e-05
3e-05
2e-05
1e-05
8e-06
3e-06
5e-05
4e-05
4e-05
3e-05
3e-05
2e-05
1e-05
8e-06
3e-06
SCALARS u2 float
LOOKUP_TABLE default
0.002
-0.002
-0.002
-0.002
-0.002
-0.002
-0.002
-0.002
-0.002
-0.002
-0.002
-0.002
-0.002
-0.002
-0.002
-0.001
-0.001
-0.001
-0.001
-0.001
-0.001
-0.001
-0.001
-0.001
-0.001
-0.0009
-0.0008
-0.0008
-0.0007
-0.0007
-0.0006
-0.0006
-0.0005
-0.0005
-0.0004
-0.0003
-0.0003
-0.0002
-0.0002
-0.0001
-6e-05
-1e-17
6e-05
0.0001
0.0002
0.0002
0.0003
0.0003
0.0004
0.0005
0.0005
0.0006
0.0006
0.0007
0.0007
0.0008
0.0008
0.0009
0.001
0.001
0.001
0.001
0.001
0.001
0.001
0.001
0.001
0.001
0.002
0.002
0.002
0.002
0.002
0.002
0.002
0.002
0.002
0.002
0.002
0.002
0.002
-0.002
0.002
0.002
0.002
0.002
0.002
0.002
0.002
0.002
0.002
0.002
0.002
0.002
0.002
0.002
0.001
0.001
0.001
0.001
0.001
0.001
0.001
0.001
0.001
0.001
0.0009
0.0008
0.0008
0.0007
0.0007
0.0006
0.0006
0.0005
0.0005
0.0004
0.0003
0.0003
0.0002
0.0002
0.0001
6e-05
2e-17
-6e-05
-0.0001
-0.0002
-0.0002
-0.0003
-0.0003
-0.0004
-0.0005
-0.0005
-0.0006
-0.0006
-0.0007
-0.0007
-0.0008
-0.0008
-0.0009
-0.001
-0.001
-0.001
-0.001
-0.001
-0.001
-0.001
-0.001
-0.001
-0.001
-0.002
-0.002
-0.002
-0.002
-0.002
-0.002
-0.002
-0.002
-0.002
-0.002
-0.002
-0.002
-0.002
-0.002
-0.002
-0.002
-0.002
-0.002
-0.002
-0.002
-0.002
-0.002
0.002
0.002
0.002
0.002
0.002
0.002
0.002
0.002
0.002
0.002
0.002
0.002
0.002
0.002
0.002
0.002
0.002
0.002
0.002
0.002
0.002
0.002
0.002
0.002
0.002
0.002
0.002
0.002
0.002
0.002
0.002
0.002
0.002
0.002
0.002
0.002
0.002
0.002
0.002
0.002
0.002
0.002
0.002
0.002
0.002
0.002
0.002
0.002
0.002
0.002
0.002
0.002
0.002
0.002
0.002
0.002
0.002
0.002
0.002
0.002
0.002
0.002
0.002
0.002
0.002
0.002
0.002
0.002
0.002
0.002
0.002
0.002
0.002
0.002
0.002
0.002
0.002
0.002
0.002
0.002
0.002
0.002
0.002
0.002
0.002
0.002
0.002
0.002
0.002
0.002
0.002
0.002
0.002
0.002
0.002
0.002
0.002
0.002
0.002
0.002
0.002
0.002
0.002
0.002
0.002
0.002
0.002
0.002
0.002
0.002
0.002
0.002
0.002
0.002
0.002
0.002
0.002
0.002
0.002
0.002
0.002
0.002
0.002
0.002
0.002
0.002
0.001
0.001
0.001
0.001
0.001
0.001
0.001
0.001
0.001
0.001
0.001
0.001
0.001
0.001
0.001
0.001
0.001
0.001
0.001
0.001
0.001
0.001
0.001
0.001
0.001
0.001
0.001
0.001
0.001
0.001
0.001
0.001
0.001
0.001
0.001
0.001
0.001
0.001
0.001
0.001
0.001
0.001
0.001
0.001
0.001
0.001
0.001
0.001
0.001
0.001
0.001
0.001
0.001
0.001
0.001
0.001
0.001
0.001
0.001
0.001
0.001
0.001
0.001
0.001
0.001
0.001
0.001
0.001
0.001
0.001
0.001
0.001
0.001
0.001
0.001
0.001
0.001
0.001
0.001
0.001
0.001
0.001
0.001
0.001
0.001
0.001
0.001
0.001
0.001
0.001
0.0009
0.0009
0.0009
0.0009
0.0009
0.0009
0.0009
0.0009
0.0009
0.0008
0.0008
0.0008
0.0008
0.0008
0.0008
0.0008
0.0008
0.0008
0.0008
0.0008
0.0008
0.0008
0.0008
0.0008
0.0008
0.0008
0.0008
0.0007
0.0007
0.0007
0.0007
0.0007
0.0007
0.0007
0.0007
0.0007
0.0007
0.0007
0.0007
0.0007
0.0007
0.0007
0.0007
0.0007
0.0007
0.0006
0.0006
0.0006
0.0006
0.0006
0.0006
0.0006
0.0006
0.0006
0.0006
0.0006
0.0006
0.0006
0.0006
0.0006
0.0006
0.0006
0.0006
0.0005
0.0005
0.0005
0.0005
0.0005
0.0005
0.0005
0.0005
0.0005
0.0005
0.0005
0.0005
0.0005
0.0005
0.0005
0.0005
0.0005
0.0005
0.0004
0.0004
0.0004
0.0004
0.0004
0.0004
0.0004
0.0004
0.0004
0.0003
0.0003
0.0003
0.0003
0.0003
0.0003
0.0003
0.0003
0.0003
0.0003
0.0003
0.0003
0.0003
0.0003
0.0003
0.0003
0.0003
0.0003
0.0002
0.0002
0.0002
0.0002
0.0002
0.0002
0.0002
0.0002
0.0002
0.0002
0.0002
0.0002
0.0002
0.0002
0.0002
0.0002
0.0002
0.0002
0.0001
0.0001
0.0001
0.0001
0.0001
0.0001
0.0001
0.0001
0.0001
6e-05
6e-05
6e-05
6e-05
6e-05
6e-05
6e-05
6e-05
6e-05
2e-17
1e-17
1e-17
8e-18
5e-18
2e-18
-6e-19
-4e-18
-7e-18
-6e-05
-6e-05
-6e-05
-6e-05
-6e-05
-6e-05
-6e-05
-6e-05
-6e-05
-0.0001
-0.0001
-0.0001
-0.0001
-0.0001
-0.0001
-0.0001
-0.0001
-0.0001
-0.0002
-0.0002
-0.0002
-0.0002
-0.0002
-0.0002
-0.0002
-0.0002
-0.0002
-0.0002
-0.0002
-0.0002
-0.0002
-0.0002
-0.0002
-0.0002
-0.0002
-0.0002
-0.0003
-0.0003
-0.0003
-0.0003
-0.0003
-0.0003
-0.0003
-0.0003
-0.0003
-0.0003
-0.0003
-0.0003
-0.0003
-0.0003
-0.0003
-0.0003
-0.0003
-0.0003
-0.0004
-0.0004
-0.0004
-0.0004
-0.0004
-0.0004
-0.0004
-0.0004
-0.0004
-0.0005
-0.0005
-0.0005
-0.0005
-0.0005
-0.0005
-0.0005
-0.0005
-0.0005
-0.0005
-0.0005
-0.0005
-0.0005
-0.0005
-0.0005
-0.0005
-0.0005
-0.0005
-0.0006
-0.0006
-0.0006
-0.0006
-0.0006
-0.0006
-0.0006
-0.0006
-0.0006
-0.0006
-0.0006
-0.0006
-0.0006
-0.0006
-0.0006
-0.0006
-0.0006
-0.0006
-0.0007
-0.0007
-0.0007
-0.0007
-0.0007
-0.0007
-0.0007
-0.0007
-0.0007
-0.0007
-0.0007
-0.0007
-0.0007
-0.0007
-0.0007
-0.0007
-0.0007
-0.0007
-0.0008
-0.0008
-0.0008
-0.0008
-0.0008
-0.0008
-0.0008
-0.0008
-0.0008
-0.0008
-0.0008
-0.0008
-0.0008
-0.0008
-0.0008
-0.0008
-0.0008
-0.0008
-0.0009
-0.0009
-0.0009
-0.0009
-0.0009
-0.0009
-0.0009
-0.0009
-0.0009
-0.001
-0.001
-0.001
-0.001
-0.001
-0.001
-0.001
-0.001
-0.001
-0.001
-0.001
-0.001
-0.001
-0.001
-0.001
-0.001
-0.001
-0.001
-0.001
-0.001
-0.001
-0.001
-0.001
-0.001
-0.001
-0.001
-0.001
-0.001
-0.001
-0.001
-0.001
-0.001
-0.001
-0.001
-0.001
-0.001
-0.001
-0.001
-0.001
-0.001
-0.001
-0.001
-0.001
-0.001
-0.001
-0.001
-0.001
-0.001
-0.001
-0.001
-0.001
-0.001
-0.001
-0.001
-0.001
-0.001
-0.001
-0.001
-0.001
-0.001
-0.001
-0.001
-0.001
-0.001
-0.001
-0.001
-0.001
-0.001
-0.001
-0.001
-0.001
-0.001
-0.001
-0.001
-0.001
-0.001
-0.001
-0.001
-0.001
-0.001
-0.001
-0.001
-0.001
-0.001
-0.001
-0.001
-0.001
-0.001
-0.001
-0.001
-0.002
-0.002
-0.002
-0.002
-0.002
-0.002
-0.002
-0.002
-0.002
-0.002
-0.002
-0.002
-0.002
-0.002
-0.002
-0.002
-0.002
-0.002
-0.002
-0.002
-0.002
-0.002
-0.002
-0.002
-0.002
-0.002
-0.002
-0.002
-0.002
-0.002
-0.002
-0.002
-0.002
-0.002
-0.002
-0.002
-0.002
-0.002
-0.002
-0.002
-0.002
-0.002
-0.002
-0.002
-0.002
-0.002
-0.002
-0.002
-0.002
-0.002
-0.002
-0.002
-0.002
-0.002
-0.002
-0.002
-0.002
-0.002
-0.002
-0.002
-0.002
-0.002
-0.002
-0.002
-0.002
-0.002
-0.002
-0.002
-0.002
-0.002
-0.002
-0.002
-0.002
-0.002
-0.002
-0.002
-0.002
-0.002
-0.002
-0.002
-0.002
-0.002
-0.002
-0.002
-0.002
-0.002
-0.002
-0.002
-0.002
-0.002
-0.002
-0.002
-0.002
-0.002
-0.002
-0.002
-0.002
-0.002
-0.002
-0.002
-0.002
-0.002
-0.002
-0.002
-0.002
-0.002
-0.002
-0.002
-0.002
-0.002
-0.002
-0.002
-0.002
-0.002
-0.002
-0.002
-0.002
SCALARS strain_1 float
LOOKUP_TABLE default
-0.011220
-0.011220
-0.011220
-0.011220
-0.011220
-0.011220
-0.011220
-0.011220
-0.011220
-0.011220
-0.011220
-0.011220
-0.011220
-0.011220
-0.011220
-0.011220
-0.011220
-0.011220
-0.011220
-0.011220
-0.011220
-0.011220
-0.011220
-0.011220
-0.011220
-0.011220
-0.011220
-0.011220
-0.011220
-0.011220
-0.011220
-0.011220
-0.011220
-0.011220
-0.011220
-0.011220
-0.011220
-0.011220
-0.011220
-0.011220
-0.011220
-0.011220
-0.011220
-0.011220
-0.011220
-0.011220
-0.011220
-0.011220
-0.011220
-0.011220
-0.011220
-0.011220
-0.011220
-0.011220
-0.011220
-0.011220
-0.011220
-0.011220
-0.011220
-0.011220
-0.011220
-0.011220
-0.011220
-0.011220
-0.011220
-0.011220
-0.011220
-0.011220
-0.011220
-0.011220
-0.011220
-0.011220
-0.011220
-0.011220
-0.011220
-0.011220
-0.011220
-0.011220
-0.011220
-0.011220
-0.011220
-0.011220
-0.011220
-0.011220
-0.011220
-0.011220
-0.011220
-0.011220
-0.011220
-0.011220
-0.011220
-0.011220
-0.011220
-0.011220
-0.011220
-0.011220
-0.011220
-0.011220
-0.011220
-0.011220
-0.011220
-0.011220
-0.011220
-0.011220
-0.011220
-0.011220
-0.011220
-0.011220
-0.011220
-0.011220
-0.011220
-0.011220
-0.011220
-0.011220
-0.011220
-0.011220
-0.011220
-0.011220
-0.011220
-0.011220
-0.011220
-0.011220
-0.011220
-0.011220
-0.011220
-0.011220
-0.011220
-0.011220
-0.011220
-0.011220
-0.011220
-0.011220
-0.011220
-0.011220
-0.011220
-0.011220
-0.011220
-0.011220
-0.011220
-0.011220
-0.011220
-0.011220
-0.011220
-0.011220
-0.011220
-0.011220
-0.011220
-0.011220
-0.011220
-0.011220
-0.011220
-0.011220
-0.011220
-0.011220
-0.011220
-0.011220
-0.011220
-0.011220
-0.011220
-0.011220
-0.011220
-0.011220
-0.011220
-0.011220
-0.011220
-0.011220
-0.011220
-0.011220
-0.011220
-0.011220
-0.011220
-0.011220
-0.011220
-0.011220
-0.011220
-0.011220
-0.011220
-0.011220
-0.011220
-0.011220
-0.011220
-0.011220
-0.011220
-0.011220
-0.011220
-0.011220
-0.011220
-0.011220
-0.011220
-0.011220
-0.011220
-0.011220
-0.011220
-0.011220
-0.011220
-0.011220
-0.011220
-0.011220
-0.011220
-0.011220
-0.011220
-0.011220
-0.011220
-0.011220
-0.011220
-0.011220
-0.011220
-0.011220
-0.011220
-0.011220
-0.011220
-0.011220
-0.011220
-0.011220
-0.011220
-0.011220
-0.011220
-0.011220
-0.011220
-0.011220
-0.011220
-0.011220
-0.011220
-0.011220
-0.011220
-0.011220
-0.011220
-0.011220
-0.011220
-0.011220
-0.011220
-0.011220
-0.011220
-0.011220
-0.011220
-0.011220
-0.011220
-0.011220
-0.011220
-0.011220
-0.011220
-0.011220
-0.011220
-0.011220
-0.011220
-0.011220
-0.011220
-0.011220
-0.011220
-0.011220
-0.011220
-0.011220
-0.011220
-0.011220
-0.011220
-0.011220
-0.011220
-0.011220
-0.011220
-0.011220
-0.011220
-0.011220
-0.011220
-0.011220
-0.011220
-0.011220
-0.011220
-0.011220
-0.011220
-0.011220
-0.011220
-0.011220
-0.011220
-0.011220
-0.011220
-0.011220
-0.011220
-0.011220
-0.011220
-0.011220
-0.011220
-0.011220
-0.011220
-0.011220
-0.011220
-0.011220
-0.011220
-0.011220
-0.011220
-0.011220
-0.011220
-0.011220
-0.011220
-0.011220
-0.011220
-0.011220
-0.011220
-0.011220
-0.011220
-0.011220
-0.011220
-0.011220
-0.011220
-0.011220
-0.011220
-0.011220
-0.011220
-0.011220
-0.011220
-0.011220
-0.011220
-0.011220
-0.011220
-0.011220
-0.011220
-0.011220
-0.011220
-0.011220
-0.011220
-0.011220
-0.011220
-0.011220
-0.011220
-0.011220
-0.011220
-0.011220
-0.011220
-0.011220
-0.011220
-0.011220
-0.011220
-0.011220
-0.011220
-0.011220
-0.011220
-0.011220
-0.011220
-0.011220
-0.011220
-0.011220
-0.011220
-0.011220
-0.011220
-0.011220
-0.011220
-0.011220
-0.011220
-0.011220
-0.011220
-0.011220
-0.011220
-0.011220
-0.011220
-0.011220
-0.011220
-0.011220
-0.011220
-0.011220
-0.011220
-0.011220
-0.011220
-0.011220
-0.011220
-0.011220
-0.011220
-0.011220
-0.011220
-0.011220
-0.011220
-0.011220
-0.011220
-0.011220
-0.011220
-0.011220
-0.011220
-0.011220
-0.011220
-0.011220
-0.011220
-0.011220
-0.011220
-0.011220
-0.011220
-0.011220
-0.011220
-0.011220
-0.011220
-0.011220
-0.011220
-0.011220
-0.011220
-0.011220
-0.011220
-0.011220
-0.011220
-0.011220
-0.011220
-0.011220
-0.011220
-0.011220
-0.011220
-0.011220
-0.011220
-0.011220
-0.011220
-0.011220
-0.011220
-0.011220
-0.011220
-0.011220
-0.011220
-0.011220
-0.011220
-0.011220
-0.011220
-0.011220
-0.011220
-0.011220
-0.011220
-0.011220
-0.011220
-0.011220
-0.011220
-0.011220
-0.011220
-0.011220
-0.011220
-0.011220
-0.011220
-0.011220
-0.011220
-0.011220
-0.011220
-0.011220
-0.011220
-0.011220
-0.011220
-0.011220
-0.011220
-0.011220
-0.011220
-0.011220
-0.011220
-0.011220
-0.011220
-0.011220
-0.011220
-0.011220
-0.011220
-0.011220
-0.011220
-0.011220
-0.011220
-0.011220
-0.011220
-0.011220
-0.011220
-0.011220
-0.011220
-0.011220
-0.011220
-0.011220
-0.011220
-0.011220
-0.011220
-0.011220
-0.011220
-0.011220
-0.011220
-0.011220
-0.011220
-0.011220
-0.011220
-0.011220
-0.011220
-0.011220
-0.011220
-0.011220
-0.011220
-0.011220
-0.011220
-0.011220
-0.011220
-0.011220
-0.011220
-0.011220
-0.011220
-0.011220
-0.011220
-0.011220
-0.011220
-0.011220
-0.011220
-0.011220
-0.011220
-0.011220
-0.011220
-0.011220
-0.011220
-0.011220
-0.011220
-0.011220
-0.011220
-0.011220
-0.011220
-0.011220
-0.011220
-0.011220
-0.011220
-0.011220
-0.011220
-0.011220
-0.011220
-0.011220
-0.011220
-0.011220
-0.011220
-0.011220
-0.011220
-0.011220
-0.011220
-0.011220
-0.011220
-0.011220
-0.011220
-0.011220
-0.011220
-0.011220
-0.011220
-0.011220
-0.011220
-0.011220
-0.011220
-0.011220
-0.011220
-0.011220
-0.011220
-0.011220
-0.011220
-0.011220
-0.011220
-0.011220
-0.011220
-0.011220
-0.011220
-0.011220
-0.011220
-0.011220
-0.011220
-0.011220
-0.011220
-0.011220
-0.011220
-0.011220
-0.011220
-0.011220
-0.011220
-0.011220
-0.011220
-0.011220
-0.011220
-0.011220
-0.011220
-0.011220
-0.011220
-0.011220
-0.011220
-0.011220
-0.011220
-0.011220
-0.011220
-0.011220
-0.011220
-0.011220
-0.011220
-0.011220
-0.011220
-0.011220
-0.011220
-0.011220
-0.011220
-0.011220
-0.011220
-0.011220
-0.011220
-0.011220
-0.011220
-0.011220
-0.011220
-0.011220
-0.011220
-0.011220
-0.011220
-0.011220
-0.011220
-0.011220
-0.011220
-0.011220
-0.011220
-0.011220
-0.011220
-0.011220
-0.011220
-0.011220
-0.011220
-0.011220
-0.011220
-0.011220
-0.011220
-0.011220
-0.011220
-0.011220
-0.011220
-0.011220
-0.011220
-0.011220
-0.011220
-0.011220
-0.011220
-0.011220
-0.011220
-0.011220
-0.011220
-0.011220
-0.011220
-0.011220
-0.011220
-0.011220
-0.011220
-0.011220
-0.011220
-0.011220
-0.011220
-0.011220
-0.011220
-0.011220
-0.011220
-0.011220
-0.011220
-0.011220
-0.011220
-0.011220
-0.011220
-0.011220
-0.011220
-0.011220
-0.011220
-0.011220
-0.011220
-0.011220
-0.011220
-0.011220
-0.011220
-0.011220
-0.011220
-0.011220
-0.011220
-0.011220
-0.011220
-0.011220
-0.011220
-0.011220
-0.011220
-0.011220
-0.011220
-0.011220
-0.011220
-0.011220
-0.011220
-0.011220
-0.011220
-0.011220
-0.011220
-0.011220
-0.011220
-0.011220
-0.011220
-0.011220
-0.011220
-0.011220
-0.011220
-0.011220
-0.011220
-0.011220
-0.011220
-0.011220
-0.011220
-0.011220
-0.011220
-0.011220
-0.011220
-0.011220
-0.011220
-0.011220
-0.011220
-0.011220
-0.011220
-0.011220
-0.011220
-0.011220
-0.011220
-0.011220
-0.011220
-0.011220
-0.011220
-0.011220
-0.011220
-0.011220
-0.011220
-0.011220
-0.011220
-0.011220
-0.011220
-0.011220
-0.011220
-0.011220
-0.011220
-0.011220
-0.011220
-0.011220
-0.011220
-0.011220
-0.011220
-0.011220
-0.011220
-0.011220
-0.011220
-0.011220
-0.011220
-0.011220
-0.011220
-0.011220
-0.011220
-0.011220
-0.011220
-0.011220
-0.011220
-0.011220
-0.011220
-0.011220
-0.011220
-0.011220
-0.011220
-0.011220
-0.011220
-0.011220
-0.011220
-0.011220
-0.011220
-0.011220
-0.011220
-0.011220
-0.011220
-0.011220
-0.011220
-0.011220
-0.011220
-0.011220
-0.011220
-0.011220
-0.011220
-0.011220
-0.011220
-0.011220
-0.011220
-0.011220
-0.011220
-0.011220
-0.011220
-0.011220
-0.011220
-0.011220
-0.011220
-0.011220
-0.011220
-0.011220
-0.011220
-0.011220
-0.011220
-0.011220
-0.011220
-0.011220
-0.011220
-0.011220
-0.011220
-0.011220
-0.011220
-0.011220
-0.011220
-0.011220
-0.011220
-0.011220
-0.011220
-0.011220
-0.011220
-0.011220
-0.011220
-0.011220
-0.011220
-0.011220
-0.011220
-0.011220
-0.011220
-0.011220
-0.011220
-0.011220
-0.011220
-0.011220
-0.011220
-0.011220
-0.011220
-0.011220
-0.011220
-0.011220
-0.011220
-0.011220
-0.011220
-0.011220
-0.011220
-0.011220
-0.011220
-0.011220
-0.011220
-0.011220
-0.011220
-0.011220
-0.011220
-0.011220
-0.011220
-0.011220
-0.011220
-0.011220
-0.011220
-0.011220
-0.011220
-0.011220
-0.011220
-0.011220
-0.011220
-0.011220
-0.011220
-0.011220
-0.011220
-0.011220
-0.011220
-0.011220
-0.011220
-0.011220
-0.011220
-0.011220
-0.011220
-0.011220
-0.011220
-0.011220
-0.011220
-0.011220
-0.011220
-0.011220
-0.011220
-0.011220
-0.011220
-0.011220
-0.011220
-0.011220
-0.011220
-0.011220
-0.011220
-0.011220
-0.011220
-0.011220
-0.011220
-0.011220
-0.011220
-0.011220
-0.011220
-0.011220
-0.011220
-0.011220
-0.011220
-0.011220
-0.011220
-0.011220
-0.011220
-0.011220
-0.011220
-0.011220
-0.011220
-0.011220
-0.011220
-0.011220
-0.011220
SCALARS strain_2 float
LOOKUP_TABLE default
0.045050
0.045050
0.045050
0.045050
0.045050
0.045050
0.045050
0.045050
0.045050
0.045050
0.045050
0.045050
0.045050
0.045050
0.045050
0.045050
0.045050
0.045050
0.045050
0.045050
0.045050
0.045050
0.045050
0.045050
0.045050
0.045050
0.045050
0.045050
0.045050
0.045050
0.045050
0.045050
0.045050
0.045050
0.045050
0.045050
0.045050
0.045050
0.045050
0.045050
0.045050
0.045050
0.045050
0.045050
0.045050
0.045050
0.045050
0.045050
0.045050
0.045050
0.045050
0.045050
0.045050
0.045050
0.045050
0.045050
0.045050
0.045050
0.045050
0.045050
0.045050
0.045050
0.045050
0.045050
0.045050
0.045050
0.045050
0.045050
0.045050
0.045050
0.045050
0.045050
0.045050
0.045050
0.045050
0.045050
0.045050
0.045050
0.045050
0.045050
0.045050
0.045050
0.045050
0.045050
0.045050
0.045050
0.045050
0.045050
0.045050
0.045050
0.045050
0.045050
0.045050
0.045050
0.045050
0.045050
0.045050
0.045050
0.045050
0.045050
0.045050
0.045050
0.045050
0.045050
0.045050
0.045050
0.045050
0.045050
0.045050
0.045050
0.045050
0.045050
0.045050
0.045050
0.045050
0.045050
0.045050
0.045050
0.045050
0.045050
0.045050
0.045050
0.045050
0.045050
0.045050
0.045050
0.045050
0.045050
0.045050
0.045050
0.045050
0.045050
0.045050
0.045050
0.045050
0.045050
0.045050
0.045050
0.045050
0.045050
0.045050
0.045050
0.045050
0.045050
0.045050
0.045050
0.045050
0.045050
0.045050
0.045050
0.045050
0.045050
0.045050
0.045050
0.045050
0.045050
0.045050
0.045050
0.045050
0.045050
0.045050
0.045050
0.045050
0.045050
0.045050
0.045050
0.045050
0.045050
0.045050
0.045050
0.045050
0.045050
0.045050
0.045050
0.045050
0.045050
0.045050
0.045050
0.045050
0.045050
0.045050
0.045050
0.045050
0.045050
0.045050
0.045050
0.045050
0.045050
0.045050
0.045050
0.045050
0.045050
0.045050
0.045050
0.045050
0.045050
0.045050
0.045050
0.045050
0.045050
0.045050
0.045050
0.045050
0.045050
0.045050
0.045050
0.045050
0.045050
0.045050
0.045050
0.045050
0.045050
0.045050
0.045050
0.045050
0.045050
0.045050
0.045050
0.045050
0.045050
0.045050
0.045050
0.045050
0.045050
0.045050
0.045050
0.045050
0.045050
0.045050
0.045050
0.045050
0.045050
0.045050
0.045050
0.045050
0.045050
0.045050
0.045050
0.045050
0.045050
0.045050
0.045050
0.045050
0.045050
0.045050
0.045050
0.045050
0.045050
0.045050
0.045050
0.045050
0.045050
0.045050
0.045050
0.045050
0.045050
0.045050
0.045050
0.045050
0.045050
0.045050
0.045050
0.045050
0.045050
0.045050
0.045050
0.045050
0.045050
0.045050
0.045050
0.045050
0.045050
0.045050
0.045050
0.045050
0.045050
0.045050
0.045050
0.045050
0.045050
0.045050
0.045050
0.045050
0.045050
0.045050
0.045050
0.045050
0.045050
0.045050
0.045050
0.045050
0.045050
0.045050
0.045050
0.045050
0.045050
0.045050
0.045050
0.045050
0.045050
0.045050
0.045050
0.045050
0.045050
0.045050
0.045050
0.045050
0.045050
0.045050
0.045050
0.045050
0.045050
0.045050
0.045050
0.045050
0.045050
0.045050
0.045050
0.045050
0.045050
0.045050
0.045050
0.045050
0.045050
0.045050
0.045050
0.045050
0.045050
0.045050
0.045050
0.045050
0.045050
0.045050
0.045050
0.045050
0.045050
0.045050
0.045050
0.045050
0.045050
0.045050
0.045050
0.045050
0.045050
0.045050
0.045050
0.045050
0.045050
0.045050
0.045050
0.045050
0.045050
0.045050
0.045050
0.045050
0.045050
0.045050
0.045050
0.045050
0.045050
0.045050
0.045050
0.045050
0.045050
0.045050
0.045050
0.045050
0.045050
0.045050
0.045050
0.045050
0.045050
0.045050
0.045050
0.045050
0.045050
0.045050
0.045050
0.045050
0.045050
0.045050
0.045050
0.045050
0.045050
0.045050
0.045050
0.045050
0.045050
0.045050
0.045050
0.045050
0.045050
0.045050
0.045050
0.045050
0.045050
0.045050
0.045050
0.045050
0.045050
0.045050
0.045050
0.045050
0.045050
0.045050
0.045050
0.045050
0.045050
0.045050
0.045050
0.045050
0.045050
0.045050
0.045050
0.045050
0.045050
0.045050
0.045050
0.045050
0.045050
0.045050
0.045050
0.045050
0.045050
0.045050
0.045050
0.045050
0.045050
0.045050
0.045050
0.045050
0.045050
0.045050
0.045050
0.045050
0.045050
0.045050
0.045050
0.045050
0.045050
0.045050
0.045050
0.045050
0.045050
0.045050
0.045050
0.045050
0.045050
0.045050
0.045050
0.045050
0.045050
0.045050
0.045050
0.045050
0.045050
0.045050
0.045050
0.045050
0.045050
0.045050
0.045050
0.045050
0.045050
0.045050
0.045050
0.045050
0.045050
0.045050
0.045050
0.045050
0.045050
0.045050
0.045050
0.045050
0.045050
0.045050
0.045050
0.045050
0.045050
0.045050
0.045050
0.045050
0.045050
0.045050
0.045050
0.045050
0.045050
0.045050
0.045050
0.045050
0.045050
0.045050
0.045050
0.045050
0.045050
0.045050
0.045050
0.045050
0.045050
0.045050
0.045050
0.045050
0.045050
0.045050
0.045050
0.045050
0.045050
0.045050
0.045050
0.045050
0.045050
0.045050
0.045050
0.045050
0.045050
0.045050
0.045050
0.045050
0.045050
0.045050
0.045050
0.045050
0.045050
0.045050
0.045050
0.045050
0.045050
0.045050
0.045050
0.045050
0.045050
0.045050
0.045050
0.045050
0.045050
0.045050
0.045050
0.045050
0.045050
0.045050
0.045050
0.045050
0.045050
0.045050
0.045050
0.045050
0.045050
0.045050
0.045050
0.045050
0.045050
0.045050
0.045050
0.045050
0.045050
0.045050
0.045050
0.045050
0.045050
0.045050
0.045050
0.045050
0.045050
0.045050
0.045050
0.045050
0.045050
0.045050
0.045050
0.045050
0.045050
0.045050
0.045050
0.045050
0.045050
0.045050
0.045050
0.045050
0.045050
0.045050
0.045050
0.045050
0.045050
0.045050
0.045050
0.045050
0.045050
0.045050
0.045050
0.045050
0.045050
0.045050
0.045050
0.045050
0.045050
0.045050
0.045050
0.045050
0.045050
0.045050
0.045050
0.045050
0.045050
0.045050
0.045050
0.045050
0.045050
0.045050
0.045050
0.045050
0.045050
0.045050
0.045050
0.045050
0.045050
0.045050
0.045050
0.045050
0.045050
0.045050
0.045050
0.045050
0.045050
0.045050
0.045050
0.045050
0.045050
0.045050
0.045050
0.045050
0.045050
0.045050
0.045050
0.045050
0.045050
0.045050
0.045050
0.045050
0.045050
0.045050
0.045050
0.045050
0.045050
0.045050
0.045050
0.045050
0.045050
0.045050
0.045050
0.045050
0.045050
0.045050
0.045050
0.045050
0.045050
0.045050
0.045050
0.045050
0.045050
0.045050
0.045050
0.045050
0.045050
0.045050
0.045050
0.045050
0.045050
0.045050
0.045050
0.045050
0.045050
0.045050
0.045050
0.045050
0.045050
0.045050
0.045050
0.045050
0.045050
0.045050
0.045050
0.045050
0.045050
0.045050
0.045050
0.045050
0.045050
0.045050
0.045050
0.045050
0.045050
0.045050
0.045050
0.045050
0.045050
0.045050
0.045050
0.045050
0.045050
0.045050
0.045050
0.045050
0.045050
0.045050
0.045050
0.045050
0.045050
0.045050
0.045050
0.045050
0.045050
0.045050
0.045050
0.045050
0.045050
0.045050
0.045050
0.045050
0.045050
0.045050
0.045050
0.045050
0.045050
0.045050
0.045050
0.045050
0.045050
0.045050
0.045050
0.045050
0.045050
0.045050
0.045050
0.045050
0.045050
0.045050
0.045050
0.045050
0.045050
0.045050
0.045050
0.045050
0.045050
0.045050
0.045050
0.045050
0.045050
0.045050
0.045050
0.045050
0.045050
0.045050
0.045050
0.045050
0.045050
0.045050
0.045050
0.045050
0.045050
0.045050
0.045050
0.045050
0.045050
0.045050
0.045050
0.045050
0.045050
0.045050
0.045050
0.045050
0.045050
0.045050
0.045050
0.045050
0.045050
0.045050
0.045050
0.045050
0.045050
0.045050
0.045050
0.045050
0.045050
0.045050
0.045050
0.045050
0.045050
0.045050
0.045050
0.045050
0.045050
0.045050
0.045050
0.045050
0.045050
0.045050
0.045050
0.045050
0.045050
0.045050
0.045050
0.045050
0.045050
0.045050
0.045050
0.045050
0.045050
0.045050
0.045050
0.045050
0.045050
0.045050
0.045050
0.045050
0.045050
0.045050
0.045050
0.045050
0.045050
0.045050
0.045050
0.045050
0.045050
0.045050
0.045050
0.045050
0.045050
0.045050
0.045050
0.045050
0.045050
0.045050
0.045050
0.045050
0.045050
0.045050
0.045050
0.045050
0.045050
0.045050
0.045050
0.045050
0.045050
0.045050
0.045050
0.045050
0.045050
0.045050
0.045050
0.045050
0.045050
0.045050
0.045050
0.045050
0.045050
0.045050
0.045050
0.045050
0.045050
0.045050
0.045050
0.045050
0.045050
0.045050
0.045050
0.045050
0.045050
0.045050
0.045050
0.045050
0.045050
0.045050
0.045050
0.045050
0.045050
0.045050
0.045050
0.045050
0.045050
0.045050
0.045050
0.045050
0.045050
0.045050
0.045050
0.045050
0.045050
0.045050
0.045050
0.045050
SCALARS strain_3 float
LOOKUP_TABLE default
0.000000
-0.000000
-0.000000
-0.000000
-0.000000
-0.000000
-0.000000
-0.000000
-0.000000
-0.000000
-0.000000
-0.000000
-0.000000
-0.000000
-0.000000
-0.000000
-0.000000
-0.000000
-0.000000
-0.000000
-0.000000
-0.000000
-0.000000
-0.000000
-0.000000
-0.000000
-0.000000
-0.000000
-0.000000
-0.000000
-0.000000
-0.000000
-0.000000
-0.000000
-0.000000
-0.000000
-0.000000
-0.000000
-0.000000
-0.000000
-0.000000
-0.000000
-0.000000
-0.000000
-0.000000
-0.000000
-0.000000
-0.000000
-0.000000
-0.000000
-0.000000
-0.000000
-0.000000
-0.000000
-0.000000
-0.000000
-0.000000
-0.000000
-0.000000
-0.000000
-0.000000
-0.000000
-0.000000
-0.000000
-0.000000
-0.000000
-0.000000
-0.000000
-0.000000
-0.000000
-0.000000
-0.000000
-0.000000
-0.000000
-0.000000
-0.000000
-0.000000
-0.000000
-0.000000
0.000000
0.000000
-0.000000
0.000000
-0.000000
-0.000000
-0.000000
-0.000000
-0.000000
-0.000000
-0.000000
-0.000000
-0.000000
-0.000000
-0.000000
-0.000000
-0.000000
-0.000000
-0.000000
-0.000000
-0.000000
-0.000000
-0.000000
-0.000000
-0.000000
-0.000000
-0.000000
-0.000000
-0.000000
-0.000000
-0.000000
-0.000000
-0.000000
-0.000000
-0.000000
-0.000000
-0.000000
-0.000000
-0.000000
-0.000000
-0.000000
-0.000000
-0.000000
-0.000000
-0.000000
-0.000000
-0.000000
-0.000000
-0.000000
-0.000000
-0.000000
-0.000000
-0.000000
-0.000000
-0.000000
-0.000000
-0.000000
-0.000000
-0.000000
-0.000000
-0.000000
-0.000000
-0.000000
-0.000000
-0.000000
-0.000000
-0.000000
-0.000000
-0.000000
-0.000000
-0.000000
-0.000000
-0.000000
-0.000000
-0.000000
-0.000000
-0.000000
-0.000000
-0.000000
-0.000000
-0.000000
-0.000000
-0.000000
-0.000000
-0.000000
-0.000000
-0.000000
-0.000000
-0.000000
-0.000000
-0.000000
-0.000000
0.000000
0.000000
0.000000
0.000000
0.000000
0.000000
0.000000
0.000000
0.000000
0.000000
0.000000
0.000000
0.000000
0.000000
0.000000
0.000000
0.000000
0.000000
-0.000000
-0.000000
0.000000
-0.000000
-0.000000
-0.000000
0.000000
0.000000
0.000000
-0.000000
-0.000000
-0.000000
-0.000000
-0.000000
-0.000000
0.000000
-0.000000
-0.000000
-0.000000
-0.000000
-0.000000
-0.000000
-0.000000
-0.000000
-0.000000
-0.000000
-0.000000
-0.000000
-0.000000
-0.000000
-0.000000
-0.000000
-0.000000
-0.000000
-0.000000
-0.000000
-0.000000
-0.000000
-0.000000
-0.000000
-0.000000
-0.000000
-0.000000
-0.000000
-0.000000
-0.000000
-0.000000
-0.000000
-0.000000
-0.000000
-0.000000
-0.000000
-0.000000
-0.000000
-0.000000
-0.000000
-0.000000
-0.000000
-0.000000
-0.000000
-0.000000
-0.000000
-0.000000
-0.000000
-0.000000
-0.000000
-0.000000
-0.000000
-0.000000
-0.000000
-0.000000
-0.000000
-0.000000
-0.000000
-0.000000
-0.000000
-0.000000
-0.000000
-0.000000
-0.000000
-0.000000
-0.000000
-0.000000
-0.000000
-0.000000
-0.000000
-0.000000
-0.000000
-0.000000
-0.000000
-0.000000
-0.000000
-0.000000
-0.000000
-0.000000
-0.000000
-0.000000
-0.000000
-0.000000
-0.000000
-0.000000
-0.000000
-0.000000
-0.000000
-0.000000
-0.000000
-0.000000
-0.000000
-0.000000
-0.000000
-0.000000
-0.000000
-0.000000
-0.000000
-0.000000
-0.000000
-0.000000
-0.000000
-0.000000
-0.000000
-0.000000
-0.000000
-0.000000
-0.000000
-0.000000
-0.000000
-0.000000
-0.000000
-0.000000
-0.000000
-0.000000
-0.000000
-0.000000
-0.000000
-0.000000
-0.000000
-0.000000
-0.000000
-0.000000
-0.000000
-0.000000
-0.000000
-0.000000
-0.000000
-0.000000
-0.000000
-0.000000
-0.000000
-0.000000
-0.000000
-0.000000
-0.000000
-0.000000
-0.000000
-0.000000
-0.000000
-0.000000
-0.000000
-0.000000
-0.000000
-0.000000
-0.000000
-0.000000
-0.000000
-0.000000
-0.000000
-0.000000
-0.000000
-0.000000
-0.000000
-0.000000
-0.000000
-0.000000
-0.000000
-0.000000
-0.000000
-0.000000
-0.000000
-0.000000
-0.000000
-0.000000
-0.000000
-0.000000
-0.000000
-0.000000
-0.000000
-0.000000
-0.000000
-0.000000
-0.000000
-0.000000
-0.000000
-0.000000
-0.000000
-0.000000
-0.000000
-0.000000
-0.000000
-0.000000
-0.000000
-0.000000
-0.000000
-0.000000
-0.000000
-0.000000
-0.000000
-0.000000
-0.000000
-0.000000
-0.000000
-0.000000
-0.000000
-0.000000
-0.000000
-0.000000
-0.000000
-0.000000
-0.000000
-0.000000
-0.000000
-0.000000
-0.000000
-0.000000
-0.000000
-0.000000
-0.000000
-0.000000
-0.000000
-0.000000
-0.000000
-0.000000
-0.000000
-0.000000
-0.000000
-0.000000
-0.000000
-0.000000
-0.000000
-0.000000
-0.000000
-0.000000
-0.000000
-0.000000
-0.000000
-0.000000
-0.000000
-0.000000
-0.000000
-0.000000
-0.000000
-0.000000
-0.000000
-0.000000
-0.000000
-0.000000
-0.000000
-0.000000
-0.000000
-0.000000
-0.000000
-0.000000
-0.000000
-0.000000
-0.000000
-0.000000
-0.000000
-0.000000
-0.000000
-0.000000
-0.000000
-0.000000
-0.000000
-0.000000
-0.000000
-0.000000
-0.000000
-0.000000
-0.000000
-0.000000
-0.000000
-0.000000
-0.000000
-0.000000
-0.000000
-0.000000
-0.000000
-0.000000
-0.000000
-0.000000
-0.000000
-0.000000
-0.000000
-0.000000
-0.000000
-0.000000
-0.000000
-0.000000
-0.000000
-0.000000
-0.000000
-0.000000
-0.000000
-0.000000
-0.000000
-0.000000
-0.000000
-0.000000
-0.000000
-0.000000
-0.000000
-0.000000
-0.000000
-0.000000
-0.000000
-0.000000
-0.000000
-0.000000
-0.000000
-0.000000
-0.000000
-0.000000
-0.000000
-0.000000
-0.000000
-0.000000
-0.000000
-0.000000
-0.000000
-0.000000
-0.000000
-0.000000
-0.000000
-0.000000
-0.000000
-0.000000
-0.000000
-0.000000
-0.000000
-0.000000
-0.000000
-0.000000
-0.000000
-0.000000
-0.000000
-0.000000
-0.000000
-0.000000
-0.000000
-0.000000
-0.000000
-0.000000
-0.000000
-0.000000
-0.000000
-0.000000
-0.000000
-0.000000
-0.000000
-0.000000
-0.000000
-0.000000
-0.000000
-0.000000
-0.000000
-0.000000
-0.000000
-0.000000
-0.000000
-0.000000
-0.000000
-0.000000
-0.000000
-0.000000
-0.000000
-0.000000
-0.000000
-0.000000
-0.000000
-0.000000
-0.000000
-0.000000
-0.000000
-0.000000
-0.000000
-0.000000
-0.000000
-0.000000
-0.000000
-0.000000
-0.000000
-0.000000
-0.000000
-0.000000
-0.000000
-0.000000
-0.000000
-0.000000
-0.000000
-0.000000
-0.000000
-0.000000
-0.000000
-0.000000
-0.000000
-0.000000
-0.000000
-0.000000
-0.000000
-0.000000
-0.000000
-0.000000
-0.000000
-0.000000
-0.000000
-0.000000
-0.000000
-0.000000
-0.000000
-0.000000
-0.000000
-0.000000
-0.000000
-0.000000
-0.000000
-0.000000
-0.000000
-0.000000
-0.000000
-0.000000
-0.000000
-0.000000
-0.000000
-0.000000
-0.000000
-0.000000
-0.000000
-0.000000
-0.000000
-0.000000
-0.000000
-0.000000
-0.000000
-0.000000
-0.000000
-0.000000
-0.000000
-0.000000
-0.000000
-0.000000
-0.000000
-0.000000
-0.000000
-0.000000
-0.000000
-0.000000
-0.000000
-0.000000
-0.000000
-0.000000
-0.000000
-0.000000
-0.000000
-0.000000
-0.000000
-0.000000
-0.000000
-0.000000
-0.000000
-0.000000
-0.000000
-0.000000
-0.000000
-0.000000
-0.000000
-0.000000
-0.000000
-0.000000
-0.000000
-0.000000
-0.000000
-0.000000
-0.000000
-0.000000
-0.000000
-0.000000
-0.000000
-0.000000
-0.000000
-0.000000
-0.000000
-0.000000
-0.000000
-0.000000
-0.000000
-0.000000
-0.000000
-0.000000
-0.000000
-0.000000
-0.000000
-0.000000
-0.000000
-0.000000
-0.000000
-0.000000
-0.000000
-0.000000
-0.000000
-0.000000
-0.000000
-0.000000
-0.000000
-0.000000
-0.000000
-0.000000
-0.000000
-0.000000
-0.000000
-0.000000
-0.000000
-0.000000
-0.000000
-0.000000
-0.000000
-0.000000
-0.000000
-0.000000
-0.000000
-0.000000
-0.000000
-0.000000
-0.000000
-0.000000
-0.000000
-0.000000
-0.000000
-0.000000
-0.000000
-0.000000
-0.000000
-0.000000
-0.000000
-0.000000
-0.000000
-0.000000
-0.000000
-0.000000
-0.000000
-0.000000
-0.000000
-0.000000
-0.000000
-0.000000
-0.000000
-0.000000
-0.000000
-0.000000
-0.000000
-0.000000
-0.000000
-0.000000
-0.000000
-0.000000
-0.000000
-0.000000
-0.000000
-0.000000
-0.000000
-0.000000
-0.000000
-0.000000
-0.000000
-0.000000
-0.000000
-0.000000
-0.000000
-0.000000
-0.000000
-0.000000
-0.000000
-0.000000
-0.000000
-0.000000
-0.000000
-0.000000
-0.000000
-0.000000
-0.000000
-0.000000
-0.000000
-0.000000
-0.000000
-0.000000
-0.000000
-0.000000
-0.000000
-0.000000
-0.000000
-0.000000
-0.000000
-0.000000
-0.000000
-0.000000
-0.000000
-0.000000
-0.000000
-0.000000
-0.000000
-0.000000
-0.000000
-0.000000
-0.000000
-0.000000
-0.000000
-0.000000
-0.000000
-0.000000
-0.000000
-0.000000
-0.000000
-0.000000
-0.000000
-0.000000
-0.000000
-0.000000
-0.000000
-0.000000
-0.000000
-0.000000
-0.000000
-0.000000
-0.000000
-0.000000
-0.000000
-0.000000
-0.000000
-0.000000
-0.000000
-0.000000
-0.000000
-0.000000
-0.000000
-0.000000
-0.000000
-0.000000
-0.000000
-0.000000
-0.000000
-0.000000
-0.000000
-0.000000
-0.000000
-0.000000
-0.000000
-0.000000
-0.000000
-0.000000
-0.000000
-0.000000
-0.000000
-0.000000
-0.000000
-0.000000
-0.000000
-0.000000
-0.000000
-0.000000
-0.000000
-0.000000
-0.000000
-0.000000
-0.000000
-0.000000
-0.000000
-0.000000
-0.000000
-0.000000
-0.000000
-0.000000
-0.000000
-0.000000
-0.000000
-0.000000
-0.000000
-0.000000
-0.000000
-0.000000
-0.000000
-0.000000
-0.000000
-0.000000
-0.000000
-0.000000
-0.000000
-0.000000
-0.000000
-0.000000
-0.000000
-0.000000
-0.000000
-0.000000
-0.000000
SCALARS stress_1 float
LOOKUP_TABLE default
-0.161406
-0.200411
-0.200128
-0.199921
-0.199756
-0.199584
-0.199331
-0.199109
-0.198891
-0.198612
-0.198409
-0.198072
-0.197881
-0.197498
-0.197154
-0.196902
-0.196542
-0.196301
-0.195946
-0.195517
-0.195200
-0.194749
-0.194397
-0.194026
-0.193709
-0.193231
-0.192838
-0.192372
-0.191928
-0.191390
-0.191034
-0.190533
-0.190052
-0.189658
-0.189089
-0.188588
-0.188122
-0.187561
-0.186992
-0.186380
-0.185952
-0.185303
-0.184883
-0.184229
-0.183653
-0.183019
-0.182465
-0.181907
-0.181280
-0.180727
-0.180051
-0.179439
-0.178824
-0.178175
-0.177579
-0.177002
-0.176445
-0.175708
-0.175085
-0.174413
-0.173695
-0.173221
-0.172530
-0.172041
-0.171338
-0.170689
-0.170066
-0.169451
-0.168928
-0.168221
-0.167633
-0.166983
-0.166456
-0.165803
-0.165318
-0.164634
-0.164092
-0.163526
-0.163056
-0.162457
-0.161945
-0.182921
-0.161650
-0.161884
-0.162205
-0.162450
-0.162710
-0.162978
-0.163356
-0.163639
-0.163953
-0.164289
-0.164592
-0.164966
-0.165215
-0.165506
-0.165888
-0.166198
-0.166496
-0.166844
-0.167238
-0.167571
-0.167869
-0.168202
-0.168527
-0.168840
-0.169287
-0.169563
-0.169949
-0.170255
-0.170603
-0.170894
-0.171345
-0.171593
-0.171895
-0.172327
-0.172549
-0.172882
-0.173257
-0.173498
-0.173861
-0.174133
-0.174553
-0.174874
-0.175039
-0.175368
-0.175708
-0.175999
-0.176259
-0.176439
-0.176791
-0.177040
-0.177266
-0.177640
-0.177779
-0.178134
-0.178379
-0.178662
-0.178846
-0.179114
-0.179267
-0.179501
-0.179815
-0.179968
-0.180182
-0.180481
-0.180592
-0.180726
-0.180964
-0.181087
-0.181358
-0.181493
-0.181638
-0.181845
-0.181945
-0.182121
-0.182389
-0.182375
-0.182521
-0.182609
-0.182763
-0.182782
-0.184778
-0.186460
-0.188245
-0.189984
-0.191700
-0.193439
-0.195278
-0.196917
-0.198580
-0.161547
-0.161517
-0.161537
-0.161510
-0.161579
-0.161542
-0.161580
-0.161649
-0.161665
-0.161914
-0.161944
-0.161932
-0.161920
-0.161950
-0.161923
-0.161976
-0.161930
-0.161968
-0.162220
-0.162223
-0.162215
-0.162306
-0.162333
-0.162347
-0.162465
-0.162408
-0.162419
-0.162514
-0.162613
-0.162651
-0.162711
-0.162734
-0.162810
-0.162901
-0.162912
-0.162916
-0.162877
-0.162988
-0.163029
-0.163094
-0.163158
-0.163333
-0.163398
-0.163363
-0.163473
-0.163176
-0.163320
-0.163404
-0.163491
-0.163540
-0.163696
-0.163791
-0.163970
-0.164065
-0.163463
-0.163664
-0.163756
-0.164007
-0.164113
-0.164117
-0.164277
-0.164494
-0.164471
-0.163795
-0.164009
-0.164176
-0.164328
-0.164534
-0.164694
-0.164873
-0.164937
-0.165066
-0.164078
-0.164402
-0.164600
-0.164798
-0.164943
-0.165126
-0.165297
-0.165499
-0.165735
-0.164457
-0.164727
-0.165044
-0.165184
-0.165401
-0.165622
-0.165778
-0.166072
-0.166251
-0.164900
-0.165033
-0.165411
-0.165616
-0.165906
-0.166035
-0.166287
-0.166549
-0.166740
-0.165180
-0.165488
-0.165751
-0.166041
-0.166315
-0.166593
-0.166844
-0.167122
-0.167412
-0.165646
-0.165912
-0.166225
-0.166472
-0.166720
-0.167006
-0.167448
-0.167604
-0.167912
-0.165978
-0.166226
-0.166580
-0.166885
-0.167304
-0.167521
-0.167903
-0.168215
-0.168527
-0.166323
-0.166669
-0.167081
-0.167412
-0.167652
-0.168083
-0.168449
-0.168784
-0.169066
-0.166670
-0.167025
-0.167463
-0.167802
-0.168138
-0.168561
-0.168953
-0.169403
-0.169742
-0.167026
-0.167377
-0.167826
-0.168269
-0.168646
-0.169160
-0.169492
-0.169934
-0.170372
-0.167347
-0.167713
-0.168201
-0.168723
-0.169150
-0.169592
-0.170076
-0.170553
-0.171052
-0.167783
-0.168164
-0.168633
-0.169151
-0.169605
-0.170108
-0.170585
-0.171050
-0.171484
-0.168074
-0.168569
-0.169004
-0.169602
-0.170205
-0.170700
-0.171108
-0.171649
-0.172130
-0.168399
-0.168967
-0.169554
-0.170000
-0.170698
-0.171098
-0.171666
-0.172115
-0.172664
-0.168800
-0.169414
-0.169951
-0.170470
-0.171011
-0.171728
-0.172178
-0.172833
-0.173298
-0.169129
-0.169796
-0.170418
-0.170902
-0.171580
-0.172186
-0.172732
-0.173326
-0.173898
-0.169557
-0.170133
-0.170808
-0.171517
-0.172081
-0.172599
-0.173240
-0.173930
-0.174563
-0.169863
-0.170530
-0.171197
-0.171807
-0.172520
-0.173123
-0.173836
-0.174446
-0.175128
-0.170257
-0.170974
-0.171618
-0.172338
-0.172994
-0.173745
-0.174420
-0.175061
-0.175663
-0.170723
-0.171348
-0.172008
-0.172816
-0.173483
-0.174189
-0.174909
-0.175573
-0.176305
-0.171002
-0.171727
-0.172501
-0.173271
-0.173995
-0.174655
-0.175440
-0.176241
-0.176939
-0.171423
-0.172078
-0.172955
-0.173718
-0.174469
-0.175289
-0.175971
-0.176742
-0.177451
-0.171675
-0.172598
-0.173307
-0.174016
-0.174958
-0.175732
-0.176472
-0.177307
-0.178165
-0.172111
-0.172923
-0.173747
-0.174589
-0.175432
-0.176195
-0.177030
-0.177910
-0.178780
-0.172474
-0.173355
-0.174217
-0.175033
-0.175791
-0.176695
-0.177526
-0.178441
-0.179219
-0.172811
-0.173596
-0.174584
-0.175403
-0.176307
-0.177196
-0.178164
-0.178870
-0.179842
-0.173212
-0.174047
-0.174935
-0.175873
-0.176758
-0.177776
-0.178661
-0.179473
-0.180415
-0.173518
-0.174506
-0.175459
-0.176244
-0.177308
-0.178265
-0.179139
-0.180061
-0.180961
-0.173870
-0.174819
-0.175807
-0.176764
-0.177656
-0.178682
-0.179696
-0.180650
-0.181576
-0.174233
-0.175236
-0.176208
-0.177215
-0.178199
-0.179121
-0.180124
-0.181188
-0.182058
-0.174569
-0.175607
-0.176514
-0.177612
-0.178650
-0.179660
-0.180655
-0.181647
-0.182585
-0.174902
-0.175905
-0.176973
-0.178048
-0.179112
-0.180103
-0.181099
-0.182140
-0.183230
-0.175208
-0.176356
-0.177393
-0.178507
-0.179487
-0.180554
-0.181660
-0.182678
-0.183700
-0.175487
-0.176662
-0.177787
-0.178939
-0.180002
-0.181051
-0.182081
-0.183217
-0.184270
-0.175820
-0.177025
-0.178158
-0.179279
-0.180343
-0.181552
-0.182566
-0.183763
-0.184835
-0.176321
-0.177365
-0.178628
-0.179657
-0.180794
-0.181938
-0.183013
-0.184165
-0.185336
-0.176562
-0.177748
-0.178918
-0.180116
-0.181180
-0.182393
-0.183540
-0.184658
-0.185817
-0.176872
-0.178080
-0.179259
-0.180502
-0.181661
-0.182794
-0.184060
-0.185181
-0.186375
-0.177227
-0.178466
-0.179588
-0.180858
-0.181994
-0.183214
-0.184435
-0.185647
-0.186852
-0.177525
-0.178620
-0.180023
-0.181217
-0.182372
-0.183722
-0.184912
-0.186068
-0.187383
-0.177858
-0.179056
-0.180390
-0.181557
-0.182907
-0.184097
-0.185356
-0.186557
-0.187850
-0.178134
-0.179350
-0.180769
-0.181974
-0.183194
-0.184521
-0.185795
-0.187012
-0.188323
-0.178386
-0.179721
-0.180972
-0.182188
-0.183668
-0.184858
-0.186238
-0.187512
-0.188843
-0.178665
-0.180042
-0.181350
-0.182571
-0.183921
-0.185297
-0.186590
-0.187883
-0.189237
-0.178983
-0.180337
-0.181721
-0.183048
-0.184417
-0.185611
-0.186938
-0.188315
-0.189722
-0.179182
-0.180616
-0.182012
-0.183350
-0.184723
-0.186127
-0.187511
-0.188743
-0.190112
-0.179461
-0.180987
-0.182390
-0.183656
-0.185056
-0.186440
-0.187836
-0.189205
-0.190578
-0.179748
-0.181224
-0.182528
-0.184054
-0.185377
-0.186811
-0.188184
-0.189614
-0.190983
-0.179966
-0.181473
-0.182880
-0.184333
-0.185752
-0.187136
-0.188627
-0.189874
-0.191461
-0.180349
-0.181771
-0.183110
-0.184662
-0.186039
-0.187503
-0.188895
-0.190295
-0.191820
-0.180632
-0.182012
-0.183485
-0.185018
-0.186375
-0.187847
-0.189278
-0.190731
-0.192130
-0.180930
-0.182322
-0.183729
-0.185259
-0.186689
-0.188146
-0.189629
-0.191117
-0.192532
-0.181145
-0.182582
-0.184020
-0.185477
-0.187037
-0.188452
-0.190012
-0.191491
-0.192887
-0.181313
-0.182862
-0.184357
-0.185794
-0.187358
-0.188899
-0.190321
-0.191763
-0.193330
-0.181524
-0.183088
-0.184548
-0.186100
-0.187603
-0.189113
-0.190643
-0.192168
-0.193751
-0.181765
-0.183306
-0.184862
-0.186391
-0.187936
-0.189461
-0.191017
-0.192527
-0.193881
-0.181945
-0.183612
-0.185030
-0.186628
-0.188165
-0.189702
-0.191281
-0.192833
-0.194393
-0.182171
-0.183731
-0.185325
-0.186908
-0.188468
-0.190005
-0.191538
-0.193101
-0.194665
-0.182340
-0.183957
-0.185574
-0.187084
-0.188728
-0.190230
-0.191828
-0.193358
-0.195001
-0.182573
-0.184225
-0.185819
-0.187340
-0.189015
-0.190609
-0.192054
-0.193690
-0.195380
-0.182803
-0.184405
-0.186094
-0.187597
-0.189195
-0.190877
-0.192368
-0.193996
-0.195629
-0.182979
-0.184570
-0.186259
-0.187777
-0.189413
-0.191106
-0.192636
-0.194264
-0.195927
-0.183140
-0.184803
-0.186462
-0.188014
-0.189715
-0.191290
-0.192884
-0.194559
-0.196111
-0.183301
-0.185040
-0.186646
-0.188278
-0.189937
-0.191562
-0.193271
-0.194766
-0.196501
-0.183527
-0.185198
-0.186792
-0.188455
-0.190110
-0.191754
-0.193374
-0.195026
-0.196761
-0.183711
-0.185328
-0.187006
-0.188654
-0.190294
-0.192025
-0.193589
-0.195324
-0.196998
-0.183727
-0.185375
-0.187182
-0.188891
-0.190497
-0.192140
-0.193864
-0.195523
-0.197190
-0.183896
-0.185658
-0.187340
-0.189037
-0.190734
-0.192374
-0.194056
-0.195799
-0.197481
-0.184091
-0.185769
-0.187539
-0.189205
-0.190948
-0.192649
-0.194286
-0.196013
-0.197726
-0.184275
-0.185949
-0.187643
-0.189336
-0.191155
-0.192715
-0.194458
-0.196266
-0.197803
-0.184421
-0.186126
-0.187823
-0.189486
-0.191263
-0.192929
-0.194722
-0.196415
-0.198082
-0.184490
-0.186210
-0.187961
-0.189746
-0.191321
-0.193110
-0.194872
-0.196561
-0.198254
-0.184613
-0.186383
-0.188130
-0.189876
-0.191600
-0.193236
-0.194998
-0.196604
-0.198385
SCALARS stress_2 float
LOOKUP_TABLE default
276521.442993
276521.427230
276521.427243
276521.427310
276521.427356
276521.427513
276521.427509
276521.427681
276521.427754
276521.427824
276521.427914
276521.428042
276521.428090
276521.428188
276521.428317
276521.428426
276521.428552
276521.428663
276521.428797
276521.428917
276521.429074
276521.429212
276521.429357
276521.429521
276521.429657
276521.429827
276521.430014
276521.430111
276521.430302
276521.430459
276521.430674
276521.430862
276521.431026
276521.431259
276521.431442
276521.431629
276521.431801
276521.432024
276521.432267
276521.432484
276521.432698
276521.432868
276521.433103
276521.433384
276521.433597
276521.433819
276521.434059
276521.434258
276521.434506
276521.434785
276521.434983
276521.435283
276521.435535
276521.435779
276521.436106
276521.436329
276521.436566
276521.436837
276521.437054
276521.437377
276521.437602
276521.437906
276521.438122
276521.438415
276521.438667
276521.438961
276521.439253
276521.439452
276521.439757
276521.440057
276521.440271
276521.440559
276521.440754
276521.441073
276521.441300
276521.441554
276521.441823
276521.442101
276521.442346
276521.442623
276521.442813
276521.436879
276521.442665
276521.442623
276521.442539
276521.442449
276521.442413
276521.442308
276521.442182
276521.442157
276521.442040
276521.441958
276521.441834
276521.441736
276521.441673
276521.441583
276521.441512
276521.441438
276521.441346
276521.441184
276521.441165
276521.441044
276521.440931
276521.440830
276521.440748
276521.440671
276521.440557
276521.440406
276521.440356
276521.440264
276521.440174
276521.440069
276521.440004
276521.439878
276521.439857
276521.439712
276521.439626
276521.439559
276521.439427
276521.439377
276521.439284
276521.439217
276521.439129
276521.439043
276521.438924
276521.438876
276521.438764
276521.438695
276521.438597
276521.438572
276521.438479
276521.438358
276521.438322
276521.438287
276521.438186
276521.438100
276521.438044
276521.438004
276521.437903
276521.437830
276521.437790
276521.437713
276521.437677
276521.437612
276521.437533
276521.437547
276521.437453
276521.437409
276521.437332
276521.437328
276521.437290
276521.437217
276521.437196
276521.437154
276521.437077
276521.437081
276521.437027
276521.437044
276521.436930
276521.436941
276521.436912
276521.436902
276521.435915
276521.434918
276521.433955
276521.432994
276521.432024
276521.431048
276521.430049
276521.429122
276521.428186
276521.443010
276521.442939
276521.442879
276521.442907
276521.442868
276521.442769
276521.442804
276521.442731
276521.442729
276521.442626
276521.442653
276521.442676
276521.442677
276521.442702
276521.442699
276521.442751
276521.442755
276521.442737
276521.442521
276521.442529
276521.442539
276521.442507
276521.442517
276521.442535
276521.442491
276521.442551
276521.442569
276521.442452
276521.442393
276521.442417
276521.442408
276521.442406
276521.442361
276521.442314
276521.442354
276521.442326
276521.442354
276521.442299
276521.442287
276521.442255
276521.442250
276521.442143
276521.442136
276521.442123
276521.442089
276521.442238
276521.442189
276521.442161
276521.442077
276521.442007
276521.441981
276521.441938
276521.441887
276521.441851
276521.442104
276521.442089
276521.441996
276521.441934
276521.441845
276521.441845
276521.441728
276521.441715
276521.441658
276521.442052
276521.441938
276521.441905
276521.441779
276521.441669
276521.441589
276521.441525
276521.441484
276521.441391
276521.441936
276521.441845
276521.441717
276521.441634
276521.441541
276521.441454
276521.441342
276521.441251
276521.441188
276521.441844
276521.441669
276521.441588
276521.441470
276521.441358
276521.441244
276521.441139
276521.441014
276521.440896
276521.441691
276521.441625
276521.441482
276521.441321
276521.441180
276521.441085
276521.440952
276521.440835
276521.440671
276521.441605
276521.441430
276521.441257
276521.441199
276521.441029
276521.440803
276521.440710
276521.440626
276521.440434
276521.441517
276521.441327
276521.441202
276521.441004
276521.440846
276521.440644
276521.440490
276521.440354
276521.440205
276521.441427
276521.441212
276521.441026
276521.440880
276521.440663
276521.440453
276521.440315
276521.440063
276521.439927
276521.441256
276521.441096
276521.440833
276521.440633
276521.440447
276521.440289
276521.440023
276521.439867
276521.439659
276521.441168
276521.440964
276521.440707
276521.440530
276521.440262
276521.440081
276521.439856
276521.439630
276521.439447
276521.441066
276521.440855
276521.440621
276521.440358
276521.440141
276521.439842
276521.439637
276521.439405
276521.439163
276521.440975
276521.440735
276521.440455
276521.440211
276521.439947
276521.439686
276521.439452
276521.439162
276521.438917
276521.440820
276521.440553
276521.440325
276521.440068
276521.439748
276521.439480
276521.439225
276521.438966
276521.438688
276521.440749
276521.440458
276521.440176
276521.439883
276521.439603
276521.439312
276521.439015
276521.438738
276521.438411
276521.440615
276521.440276
276521.439996
276521.439734
276521.439414
276521.439147
276521.438791
276521.438485
276521.438207
276521.440472
276521.440206
276521.439878
276521.439537
276521.439238
276521.438872
276521.438577
276521.438326
276521.437953
276521.440430
276521.440030
276521.439691
276521.439394
276521.439028
276521.438693
276521.438344
276521.438059
276521.437695
276521.440275
276521.439934
276521.439582
276521.439239
276521.438835
276521.438498
276521.438110
276521.437780
276521.437435
276521.440183
276521.439757
276521.439378
276521.439081
276521.438660
276521.438311
276521.437898
276521.437580
276521.437203
276521.440101
276521.439686
276521.439261
276521.438907
276521.438497
276521.438071
276521.437724
276521.437328
276521.436972
276521.439985
276521.439573
276521.439139
276521.438731
276521.438360
276521.437910
276521.437569
276521.437091
276521.436718
276521.439820
276521.439438
276521.439015
276521.438601
276521.438180
276521.437708
276521.437264
276521.436868
276521.436506
276521.439782
276521.439313
276521.438887
276521.438387
276521.438014
276521.437555
276521.437103
276521.436648
276521.436239
276521.439587
276521.439195
276521.438705
276521.438286
276521.437833
276521.437337
276521.436892
276521.436385
276521.435988
276521.439480
276521.439103
276521.438577
276521.438095
276521.437611
276521.437158
276521.436687
276521.436260
276521.435801
276521.439417
276521.438922
276521.438457
276521.437910
276521.437424
276521.436963
276521.436458
276521.435993
276521.435500
276521.439266
276521.438796
276521.438337
276521.437803
276521.437289
276521.436774
276521.436254
276521.435779
276521.435273
276521.439224
276521.438635
276521.438161
276521.437614
276521.437153
276521.436566
276521.436092
276521.435539
276521.435040
276521.439100
276521.438582
276521.438010
276521.437480
276521.436945
276521.436373
276521.435851
276521.435361
276521.434872
276521.439016
276521.438444
276521.437888
276521.437354
276521.436779
276521.436199
276521.435685
276521.435121
276521.434587
276521.438897
276521.438328
276521.437762
276521.437188
276521.436643
276521.436073
276521.435481
276521.434888
276521.434412
276521.438766
276521.438192
276521.437647
276521.437056
276521.436465
276521.435861
276521.435267
276521.434745
276521.434161
276521.438697
276521.438110
276521.437475
276521.436880
276521.436326
276521.435728
276521.435127
276521.434508
276521.433921
276521.438607
276521.437976
276521.437341
276521.436766
276521.436135
276521.435548
276521.434898
276521.434332
276521.433720
276521.438511
276521.437840
276521.437208
276521.436544
276521.435969
276521.435414
276521.434764
276521.434134
276521.433501
276521.438397
276521.437707
276521.437093
276521.436474
276521.435829
276521.435222
276521.434564
276521.433908
276521.433302
276521.438295
276521.437649
276521.436990
276521.436309
276521.435658
276521.435029
276521.434371
276521.433725
276521.433081
276521.438183
276521.437491
276521.436814
276521.436185
276521.435556
276521.434843
276521.434203
276521.433549
276521.432913
276521.438106
276521.437456
276521.436690
276521.436046
276521.435381
276521.434744
276521.434026
276521.433383
276521.432678
276521.438018
276521.437288
276521.436636
276521.435929
276521.435268
276521.434582
276521.433865
276521.433188
276521.432476
276521.437898
276521.437231
276521.436503
276521.435845
276521.435085
276521.434385
276521.433701
276521.433003
276521.432336
276521.437840
276521.437141
276521.436403
276521.435679
276521.434939
276521.434261
276521.433550
276521.432841
276521.432153
276521.437737
276521.437093
276521.436300
276521.435589
276521.434876
276521.434108
276521.433418
276521.432646
276521.431968
276521.437661
276521.436934
276521.436149
276521.435431
276521.434704
276521.433932
276521.433216
276521.432463
276521.431769
276521.437611
276521.436827
276521.436082
276521.435303
276521.434536
276521.433860
276521.433111
276521.432302
276521.431565
276521.437492
276521.436703
276521.435920
276521.435197
276521.434446
276521.433638
276521.432927
276521.432125
276521.431423
276521.437406
276521.436611
276521.435866
276521.435035
276521.434359
276521.433571
276521.432765
276521.432001
276521.431196
276521.437309
276521.436573
276521.435752
276521.434972
276521.434236
276521.433388
276521.432633
276521.431852
276521.431091
276521.437219
276521.436438
276521.435666
276521.434878
276521.434083
276521.433283
276521.432517
276521.431697
276521.430917
276521.437184
276521.436342
276521.435574
276521.434767
276521.433954
276521.433142
276521.432322
276521.431563
276521.430786
276521.437106
276521.436288
276521.435511
276521.434613
276521.433877
276521.433054
276521.432236
276521.431431
276521.430619
276521.437052
276521.436189
276521.435400
276521.434529
276521.433774
276521.432922
276521.432093
276521.431330
276521.430495
276521.436999
276521.436093
276521.435323
276521.434464
276521.433623
276521.432811
276521.431967
276521.431160
276521.430301
276521.436850
276521.436063
276521.435214
276521.434379
276521.433508
276521.432738
276521.431861
276521.431070
276521.430216
276521.436813
276521.435998
276521.435126
276521.434234
276521.433428
276521.432585
276521.431737
276521.430923
276521.430029
276521.436760
276521.435891
276521.435073
276521.434165
276521.433323
276521.432469
276521.431645
276521.430778
276521.429892
276521.436739
276521.435818
276521.434966
276521.434116
276521.433273
276521.432389
276521.431502
276521.430641
276521.429815
276521.436628
276521.435755
276521.434874
276521.434058
276521.433151
276521.432249
276521.431428
276521.430507
276521.429727
276521.436588
276521.435747
276521.434817
276521.433926
276521.433019
276521.432182
276521.431292
276521.430428
276521.429519
276521.436511
276521.435655
276521.434757
276521.433837
276521.432941
276521.432077
276521.431196
276521.430310
276521.429401
276521.436465
276521.435563
276521.434717
276521.433758
276521.432832
276521.432012
276521.431093
276521.430230
276521.429309
276521.436408
276521.435477
276521.434581
276521.433685
276521.432801
276521.431897
276521.430979
276521.430106
276521.429252
276521.436333
276521.435433
276521.434537
276521.433626
276521.432711
276521.431825
276521.430891
276521.430025
276521.429063
276521.436352
276521.435403
276521.434446
276521.433557
276521.432629
276521.431727
276521.430768
276521.429928
276521.429007
276521.436293
276521.435324
276521.434430
276521.433458
276521.432608
276521.431660
276521.430759
276521.429868
276521.428950
276521.436224
276521.435324
276521.434394
276521.433467
276521.432501
276521.431572
276521.430646
276521.429758
276521.428829
276521.436143
276521.435244
276521.434302
276521.433374
276521.432455
276521.431502
276521.430609
276521.429694
276521.428749
276521.436118
276521.435175
276521.434267
276521.433328
276521.432401
276521.431440
276521.430533
276521.429595
276521.428621
276521.436137
276521.435157
276521.434178
276521.433289
276521.432370
276521.431362
276521.430500
276521.429478
276521.428535
276521.436055
276521.435062
276521.434153
276521.433178
276521.432284
276521.431333
276521.430401
276521.429438
276521.428516
276521.435988
276521.435046
276521.434120
276521.433176
276521.432195
276521.431276
276521.430305
276521.429390
276521.428441
276521.435944
276521.435044
276521.434057
276521.433134
276521.432160
276521.431197
276521.430236
276521.429333
276521.428391
276521.435940
276521.434972
276521.433942
276521.433067
276521.432068
276521.431144
276521.430181
276521.429241
276521.428330
276521.435862
276521.434954
276521.434005
276521.432996
276521.432095
276521.431107
276521.430192
276521.429168
276521.428257
SCALARS stress_3 float
LOOKUP_TABLE default
0.000287
-0.020620
-0.020272
-0.020109
-0.019811
-0.019498
-0.019283
-0.019031
-0.018691
-0.018458
-0.018089
-0.017843
-0.017568
-0.017278
-0.016970
-0.016663
-0.016293
-0.015988
-0.015725
-0.015400
-0.015131
-0.014723
-0.014434
-0.014174
-0.013883
-0.013583
-0.013188
-0.012796
-0.012607
-0.012328
-0.011903
-0.011552
-0.011296
-0.010910
-0.010628
-0.010420
-0.010040
-0.009700
-0.009397
-0.009119
-0.008697
-0.008457
-0.008164
-0.007876
-0.007540
-0.007165
-0.006960
-0.006657
-0.006274
-0.006079
-0.005717
-0.005519
-0.005180
-0.004852
-0.004655
-0.004361
-0.004070
-0.003768
-0.003573
-0.003357
-0.003112
-0.002902
-0.002658
-0.002475
-0.002193
-0.002007
-0.001782
-0.001676
-0.001428
-0.001196
-0.001003
-0.000888
-0.000777
-0.000647
-0.000403
-0.000261
-0.000180
-0.000086
0.000010
0.000205
0.000232
-0.016662
-0.000003
-0.000010
-0.000064
-0.000239
-0.000322
-0.000263
-0.000443
-0.000538
-0.000604
-0.000791
-0.000899
-0.001085
-0.001183
-0.001311
-0.001508
-0.001632
-0.001774
-0.001909
-0.002083
-0.002283
-0.002427
-0.002677
-0.002843
-0.003007
-0.003215
-0.003385
-0.003612
-0.003806
-0.004014
-0.004181
-0.004487
-0.004630
-0.004855
-0.005090
-0.005354
-0.005495
-0.005785
-0.005986
-0.006207
-0.006482
-0.006677
-0.006987
-0.007192
-0.007464
-0.007730
-0.007938
-0.008235
-0.008476
-0.008770
-0.008990
-0.009252
-0.009515
-0.009737
-0.010011
-0.010260
-0.010551
-0.010748
-0.010985
-0.011243
-0.011496
-0.011898
-0.011975
-0.012292
-0.012503
-0.012786
-0.013091
-0.013287
-0.013556
-0.013808
-0.014042
-0.014370
-0.014536
-0.014819
-0.015065
-0.015271
-0.015464
-0.015683
-0.015915
-0.016192
-0.016403
-0.017058
-0.017402
-0.017825
-0.018241
-0.018692
-0.018982
-0.019462
-0.019861
-0.020199
0.000282
0.000241
0.000281
0.000175
0.000151
0.000245
0.000140
0.000105
0.000117
0.000040
0.000068
0.000091
0.000042
0.000053
0.000128
0.000173
0.000193
0.000184
-0.000035
-0.000063
-0.000055
-0.000038
-0.000007
-0.000010
0.000076
0.000021
0.000089
-0.000133
-0.000238
-0.000118
-0.000110
-0.000075
-0.000051
-0.000032
-0.000012
-0.000029
-0.000255
-0.000296
-0.000145
-0.000195
-0.000244
-0.000165
-0.000120
-0.000114
-0.000220
-0.000320
-0.000315
-0.000341
-0.000316
-0.000338
-0.000171
-0.000281
-0.000257
-0.000264
-0.000443
-0.000416
-0.000429
-0.000456
-0.000421
-0.000392
-0.000364
-0.000304
-0.000356
-0.000546
-0.000604
-0.000537
-0.000526
-0.000508
-0.000452
-0.000464
-0.000541
-0.000491
-0.000781
-0.000719
-0.000688
-0.000678
-0.000686
-0.000602
-0.000559
-0.000647
-0.000678
-0.000823
-0.000805
-0.000759
-0.000813
-0.000803
-0.000779
-0.000708
-0.000793
-0.000755
-0.000971
-0.000929
-0.000870
-0.000921
-0.000913
-0.000944
-0.000875
-0.000935
-0.000974
-0.001055
-0.001085
-0.001082
-0.001083
-0.001055
-0.001084
-0.001116
-0.001139
-0.001038
-0.001232
-0.001212
-0.001256
-0.001188
-0.001282
-0.001278
-0.001291
-0.001269
-0.001343
-0.001292
-0.001393
-0.001319
-0.001380
-0.001392
-0.001366
-0.001418
-0.001358
-0.001391
-0.001475
-0.001552
-0.001521
-0.001567
-0.001522
-0.001556
-0.001565
-0.001553
-0.001622
-0.001725
-0.001642
-0.001710
-0.001669
-0.001688
-0.001719
-0.001767
-0.001740
-0.001746
-0.001773
-0.001921
-0.001901
-0.001855
-0.001804
-0.001962
-0.001953
-0.002005
-0.002009
-0.002006
-0.001934
-0.002093
-0.002007
-0.002146
-0.002117
-0.002159
-0.002109
-0.002229
-0.002137
-0.002120
-0.002233
-0.002212
-0.002288
-0.002291
-0.002422
-0.002447
-0.002407
-0.002356
-0.002304
-0.002472
-0.002499
-0.002545
-0.002593
-0.002546
-0.002591
-0.002633
-0.002427
-0.002614
-0.002572
-0.002670
-0.002683
-0.002738
-0.002817
-0.002784
-0.002814
-0.002683
-0.002725
-0.002855
-0.002791
-0.002923
-0.002961
-0.003045
-0.002985
-0.003096
-0.002842
-0.002958
-0.002987
-0.003032
-0.003088
-0.003177
-0.003206
-0.003265
-0.003296
-0.003120
-0.003109
-0.003117
-0.003295
-0.003319
-0.003403
-0.003390
-0.003470
-0.003508
-0.003277
-0.003354
-0.003351
-0.003485
-0.003519
-0.003561
-0.003644
-0.003712
-0.003794
-0.003511
-0.003567
-0.003614
-0.003565
-0.003760
-0.003811
-0.003878
-0.003970
-0.004083
-0.003652
-0.003759
-0.003811
-0.003849
-0.004006
-0.004128
-0.004123
-0.004235
-0.004316
-0.003943
-0.003921
-0.004064
-0.004149
-0.004232
-0.004286
-0.004413
-0.004469
-0.004488
-0.004050
-0.004228
-0.004306
-0.004363
-0.004476
-0.004545
-0.004555
-0.004728
-0.004855
-0.004305
-0.004414
-0.004507
-0.004551
-0.004727
-0.004799
-0.004947
-0.004914
-0.005100
-0.004518
-0.004672
-0.004714
-0.004853
-0.004980
-0.005059
-0.005076
-0.005298
-0.005384
-0.004670
-0.004852
-0.005029
-0.005080
-0.005207
-0.005347
-0.005393
-0.005536
-0.005615
-0.005058
-0.005053
-0.005238
-0.005365
-0.005406
-0.005508
-0.005711
-0.005731
-0.005899
-0.005207
-0.005429
-0.005524
-0.005560
-0.005719
-0.005794
-0.005941
-0.006058
-0.006169
-0.005443
-0.005600
-0.005722
-0.005819
-0.006005
-0.006062
-0.006230
-0.006327
-0.006507
-0.005685
-0.005801
-0.005890
-0.006063
-0.006282
-0.006358
-0.006540
-0.006666
-0.006779
-0.005926
-0.006006
-0.006198
-0.006383
-0.006479
-0.006684
-0.006786
-0.006924
-0.007124
-0.006133
-0.006278
-0.006459
-0.006675
-0.006765
-0.006930
-0.007117
-0.007215
-0.007409
-0.006516
-0.006517
-0.006692
-0.006849
-0.007032
-0.007193
-0.007378
-0.007533
-0.007701
-0.006660
-0.006799
-0.007004
-0.007172
-0.007295
-0.007459
-0.007669
-0.007804
-0.007936
-0.006929
-0.007108
-0.007238
-0.007424
-0.007553
-0.007809
-0.007871
-0.008118
-0.008310
-0.007138
-0.007357
-0.007541
-0.007739
-0.007864
-0.008060
-0.008257
-0.008420
-0.008539
-0.007384
-0.007624
-0.007837
-0.007922
-0.008189
-0.008325
-0.008539
-0.008670
-0.008894
-0.007648
-0.007861
-0.008040
-0.008237
-0.008470
-0.008604
-0.008803
-0.008963
-0.009204
-0.007944
-0.008100
-0.008268
-0.008481
-0.008778
-0.008908
-0.009107
-0.009311
-0.009546
-0.008171
-0.008343
-0.008653
-0.008814
-0.008963
-0.009162
-0.009432
-0.009651
-0.009788
-0.008465
-0.008661
-0.008867
-0.009007
-0.009332
-0.009467
-0.009803
-0.009903
-0.010132
-0.008708
-0.008963
-0.009101
-0.009414
-0.009494
-0.009783
-0.010023
-0.010206
-0.010434
-0.008951
-0.009197
-0.009405
-0.009683
-0.009834
-0.010069
-0.010280
-0.010586
-0.010787
-0.009278
-0.009447
-0.009722
-0.009902
-0.010215
-0.010373
-0.010566
-0.010851
-0.011065
-0.009454
-0.009695
-0.009999
-0.010249
-0.010471
-0.010733
-0.010937
-0.011139
-0.011344
-0.009719
-0.009935
-0.010253
-0.010456
-0.010701
-0.010986
-0.011230
-0.011488
-0.011690
-0.010004
-0.010222
-0.010458
-0.010758
-0.010968
-0.011258
-0.011517
-0.011795
-0.011947
-0.010240
-0.010461
-0.010757
-0.011034
-0.011239
-0.011547
-0.011762
-0.012111
-0.012382
-0.010524
-0.010765
-0.011053
-0.011356
-0.011596
-0.011805
-0.012119
-0.012392
-0.012619
-0.010706
-0.011079
-0.011260
-0.011661
-0.011902
-0.012120
-0.012456
-0.012689
-0.012870
-0.011099
-0.011312
-0.011528
-0.011908
-0.012106
-0.012411
-0.012724
-0.013025
-0.013283
-0.011276
-0.011590
-0.011881
-0.012123
-0.012423
-0.012746
-0.013097
-0.013257
-0.013558
-0.011568
-0.011862
-0.012117
-0.012437
-0.012784
-0.013034
-0.013384
-0.013628
-0.013934
-0.011827
-0.012119
-0.012456
-0.012739
-0.013057
-0.013330
-0.013629
-0.013923
-0.014203
-0.012069
-0.012354
-0.012748
-0.013030
-0.013337
-0.013597
-0.013818
-0.014274
-0.014518
-0.012319
-0.012719
-0.013055
-0.013228
-0.013568
-0.013940
-0.014179
-0.014531
-0.014809
-0.012617
-0.012821
-0.013241
-0.013564
-0.013861
-0.014203
-0.014516
-0.014710
-0.015115
-0.012860
-0.013196
-0.013513
-0.013799
-0.014163
-0.014441
-0.014729
-0.015128
-0.015390
-0.013151
-0.013458
-0.013774
-0.014025
-0.014460
-0.014734
-0.015140
-0.015402
-0.015705
-0.013342
-0.013796
-0.014069
-0.014345
-0.014734
-0.015037
-0.015331
-0.015724
-0.016037
-0.013606
-0.013946
-0.014324
-0.014647
-0.014989
-0.015341
-0.015627
-0.015879
-0.016315
-0.013898
-0.014148
-0.014547
-0.014854
-0.015218
-0.015645
-0.015940
-0.016283
-0.016613
-0.014191
-0.014472
-0.014773
-0.015128
-0.015534
-0.015863
-0.016203
-0.016531
-0.016900
-0.014386
-0.014687
-0.015095
-0.015505
-0.015802
-0.016163
-0.016507
-0.016802
-0.017190
-0.014574
-0.015001
-0.015305
-0.015743
-0.016103
-0.016390
-0.016771
-0.017122
-0.017449
-0.014926
-0.015237
-0.015642
-0.015975
-0.016420
-0.016700
-0.017053
-0.017440
-0.017775
-0.015178
-0.015427
-0.015869
-0.016245
-0.016603
-0.016906
-0.017343
-0.017709
-0.018060
-0.015394
-0.015760
-0.016126
-0.016504
-0.016853
-0.017239
-0.017547
-0.017972
-0.018340
-0.015650
-0.015962
-0.016350
-0.016800
-0.017127
-0.017457
-0.017861
-0.018236
-0.018573
-0.015820
-0.016246
-0.016586
-0.016960
-0.017335
-0.017743
-0.018096
-0.018468
-0.018850
-0.016081
-0.016576
-0.016899
-0.017253
-0.017532
-0.018067
-0.018395
-0.018810
-0.019124
-0.016335
-0.016743
-0.017115
-0.017514
-0.017868
-0.018219
-0.018636
-0.019051
-0.019360
-0.016581
-0.016975
-0.017323
-0.017718
-0.018192
-0.018509
-0.018914
-0.019333
-0.019711
-0.016814
-0.017215
-0.017596
-0.017967
-0.018387
-0.018727
-0.019139
-0.019598
-0.019929
