# vtk DataFile Version 2.0
Generated volume Mesh
ASCII
DATASET UNSTRUCTURED_GRID
POINTS 891 float
0.005000 0.100000 0.000000
0.005000 0.000000 0.000000
0.005000 0.001250 0.000000
0.005000 0.002500 0.000000
0.005000 0.003750 0.000000
0.005000 0.005000 0.000000
0.005000 0.006250 0.000000
0.005000 0.007500 0.000000
0.005000 0.008750 0.000000
0.005000 0.010000 0.000000
0.005000 0.011250 0.000000
0.005000 0.012500 0.000000
0.005000 0.013750 0.000000
0.005000 0.015000 0.000000
0.005000 0.016250 0.000000
0.005000 0.017500 0.000000
0.005000 0.018750 0.000000
0.005000 0.020000 0.000000
0.005000 0.021250 0.000000
0.005000 0.022500 0.000000
0.005000 0.023750 0.000000
0.005000 0.025000 0.000000
0.005000 0.026250 0.000000
0.005000 0.027500 0.000000
0.005000 0.028750 0.000000
0.005000 0.030000 0.000000
0.005000 0.031250 0.000000
0.005000 0.032500 0.000000
0.005000 0.033750 0.000000
0.005000 0.035000 0.000000
0.005000 0.036250 0.000000
0.005000 0.037500 0.000000
0.005000 0.038750 0.000000
0.005000 0.040000 0.000000
0.005000 0.041250 0.000000
0.005000 0.042500 0.000000
0.005000 0.043750 0.000000
0.005000 0.045000 0.000000
0.005000 0.046250 0.000000
0.005000 0.047500 0.000000
0.005000 0.048750 0.000000
0.005000 0.050000 0.000000
0.005000 0.051250 0.000000
0.005000 0.052500 0.000000
0.005000 0.053750 0.000000
0.005000 0.055000 0.000000
0.005000 0.056250 0.000000
0.005000 0.057500 0.000000
0.005000 0.058750 0.000000
0.005000 0.060000 0.000000
0.005000 0.061250 0.000000
0.005000 0.062500 0.000000
0.005000 0.063750 0.000000
0.005000 0.065000 0.000000
0.005000 0.066250 0.000000
0.005000 0.067500 0.000000
0.005000 0.068750 0.000000
0.005000 0.070000 0.000000
0.005000 0.071250 0.000000
0.005000 0.072500 0.000000
0.005000 0.073750 0.000000
0.005000 0.075000 0.000000
0.005000 0.076250 0.000000
0.005000 0.077500 0.000000
0.005000 0.078750 0.000000
0.005000 0.080000 0.000000
0.005000 0.081250 0.000000
0.005000 0.082500 0.000000
0.005000 0.083750 0.000000
0.005000 0.085000 0.000000
0.005000 0.086250 0.000000
0.005000 0.087500 0.000000
0.005000 0.088750 0.000000
0.005000 0.090000 0.000000
0.005000 0.091250 0.000000
0.005000 0.092500 0.000000
0.005000 0.093750 0.000000
0.005000 0.095000 0.000000
0.005000 0.096250 0.000000
0.005000 0.097500 0.000000
0.005000 0.098750 0.000000
0.000000 0.000000 0.000000
0.000000 0.100000 0.000000
0.000000 0.098750 0.000000
0.000000 0.097500 0.000000
0.000000 0.096250 0.000000
0.000000 0.095000 0.000000
0.000000 0.093750 0.000000
0.000000 0.092500 0.000000
0.000000 0.091250 0.000000
0.000000 0.090000 0.000000
0.000000 0.088750 0.000000
0.000000 0.087500 0.000000
0.000000 0.086250 0.000000
0.000000 0.085000 0.000000
0.000000 0.083750 0.000000
0.000000 0.082500 0.000000
0.000000 0.081250 0.000000
0.000000 0.080000 0.000000
0.000000 0.078750 0.000000
0.000000 0.077500 0.000000
0.000000 0.076250 0.000000
0.000000 0.075000 0.000000
0.000000 0.073750 0.000000
0.000000 0.072500 0.000000
0.000000 0.071250 0.000000
0.000000 0.070000 0.000000
0.000000 0.068750 0.000000
0.000000 0.067500 0.000000
0.000000 0.066250 0.000000
0.000000 0.065000 0.000000
0.000000 0.063750 0.000000
0.000000 0.062500 0.000000
0.000000 0.061250 0.000000
0.000000 0.060000 0.000000
0.000000 0.058750 0.000000
0.000000 0.057500 0.000000
0.000000 0.056250 0.000000
0.000000 0.055000 0.000000
0.000000 0.053750 0.000000
0.000000 0.052500 0.000000
0.000000 0.051250 0.000000
0.000000 0.050000 0.000000
0.000000 0.048750 0.000000
0.000000 0.047500 0.000000
0.000000 0.046250 0.000000
0.000000 0.045000 0.000000
0.000000 0.043750 0.000000
0.000000 0.042500 0.000000
0.000000 0.041250 0.000000
0.000000 0.040000 0.000000
0.000000 0.038750 0.000000
0.000000 0.037500 0.000000
0.000000 0.036250 0.000000
0.000000 0.035000 0.000000
0.000000 0.033750 0.000000
0.000000 0.032500 0.000000
0.000000 0.031250 0.000000
0.000000 0.030000 0.000000
0.000000 0.028750 0.000000
0.000000 0.027500 0.000000
0.000000 0.026250 0.000000
0.000000 0.025000 0.000000
0.000000 0.023750 0.000000
0.000000 0.022500 0.000000
0.000000 0.021250 0.000000
0.000000 0.020000 0.000000
0.000000 0.018750 0.000000
0.000000 0.017500 0.000000
0.000000 0.016250 0.000000
0.000000 0.015000 0.000000
0.000000 0.013750 0.000000
0.000000 0.012500 0.000000
0.000000 0.011250 0.000000
0.000000 0.010000 0.000000
0.000000 0.008750 0.000000
0.000000 0.007500 0.000000
0.000000 0.006250 0.000000
0.000000 0.005000 0.000000
0.000000 0.003750 0.000000
0.000000 0.002500 0.000000
0.000000 0.001250 0.000000
0.000500 0.000000 0.000000
0.001000 0.000000 0.000000
0.001500 0.000000 0.000000
0.002000 0.000000 0.000000
0.002500 0.000000 0.000000
0.003000 0.000000 0.000000
0.003500 0.000000 0.000000
0.004000 0.000000 0.000000
0.004500 0.000000 0.000000
0.004500 0.100000 0.000000
0.004000 0.100000 0.000000
0.003500 0.100000 0.000000
0.003000 0.100000 0.000000
0.002500 0.100000 0.000000
0.002000 0.100000 0.000000
0.001500 0.100000 0.000000
0.001000 0.100000 0.000000
0.000500 0.100000 0.000000
0.000500 0.098750 0.000000
0.001000 0.098750 0.000000
0.001500 0.098750 0.000000
0.002000 0.098750 0.000000
0.002500 0.098750 0.000000
0.003000 0.098750 0.000000
0.003500 0.098750 0.000000
0.004000 0.098750 0.000000
0.004500 0.098750 0.000000
0.000500 0.097500 0.000000
0.001000 0.097500 0.000000
0.001500 0.097500 0.000000
0.002000 0.097500 0.000000
0.002500 0.097500 0.000000
0.003000 0.097500 0.000000
0.003500 0.097500 0.000000
0.004000 0.097500 0.000000
0.004500 0.097500 0.000000
0.000500 0.096250 0.000000
0.001000 0.096250 0.000000
0.001500 0.096250 0.000000
0.002000 0.096250 0.000000
0.002500 0.096250 0.000000
0.003000 0.096250 0.000000
0.003500 0.096250 0.000000
0.004000 0.096250 0.000000
0.004500 0.096250 0.000000
0.000500 0.095000 0.000000
0.001000 0.095000 0.000000
0.001500 0.095000 0.000000
0.002000 0.095000 0.000000
0.002500 0.095000 0.000000
0.003000 0.095000 0.000000
0.003500 0.095000 0.000000
0.004000 0.095000 0.000000
0.004500 0.095000 0.000000
0.000500 0.093750 0.000000
0.001000 0.093750 0.000000
0.001500 0.093750 0.000000
0.002000 0.093750 0.000000
0.002500 0.093750 0.000000
0.003000 0.093750 0.000000
0.003500 0.093750 0.000000
0.004000 0.093750 0.000000
0.004500 0.093750 0.000000
0.000500 0.092500 0.000000
0.001000 0.092500 0.000000
0.001500 0.092500 0.000000
0.002000 0.092500 0.000000
0.002500 0.092500 0.000000
0.003000 0.092500 0.000000
0.003500 0.092500 0.000000
0.004000 0.092500 0.000000
0.004500 0.092500 0.000000
0.000500 0.091250 0.000000
0.001000 0.091250 0.000000
0.001500 0.091250 0.000000
0.002000 0.091250 0.000000
0.002500 0.091250 0.000000
0.003000 0.091250 0.000000
0.003500 0.091250 0.000000
0.004000 0.091250 0.000000
0.004500 0.091250 0.000000
0.000500 0.090000 0.000000
0.001000 0.090000 0.000000
0.001500 0.090000 0.000000
0.002000 0.090000 0.000000
0.002500 0.090000 0.000000
0.003000 0.090000 0.000000
0.003500 0.090000 0.000000
0.004000 0.090000 0.000000
0.004500 0.090000 0.000000
0.000500 0.088750 0.000000
0.001000 0.088750 0.000000
0.001500 0.088750 0.000000
0.002000 0.088750 0.000000
0.002500 0.088750 0.000000
0.003000 0.088750 0.000000
0.003500 0.088750 0.000000
0.004000 0.088750 0.000000
0.004500 0.088750 0.000000
0.000500 0.087500 0.000000
0.001000 0.087500 0.000000
0.001500 0.087500 0.000000
0.002000 0.087500 0.000000
0.002500 0.087500 0.000000
0.003000 0.087500 0.000000
0.003500 0.087500 0.000000
0.004000 0.087500 0.000000
0.004500 0.087500 0.000000
0.000500 0.086250 0.000000
0.001000 0.086250 0.000000
0.001500 0.086250 0.000000
0.002000 0.086250 0.000000
0.002500 0.086250 0.000000
0.003000 0.086250 0.000000
0.003500 0.086250 0.000000
0.004000 0.086250 0.000000
0.004500 0.086250 0.000000
0.000500 0.085000 0.000000
0.001000 0.085000 0.000000
0.001500 0.085000 0.000000
0.002000 0.085000 0.000000
0.002500 0.085000 0.000000
0.003000 0.085000 0.000000
0.003500 0.085000 0.000000
0.004000 0.085000 0.000000
0.004500 0.085000 0.000000
0.000500 0.083750 0.000000
0.001000 0.083750 0.000000
0.001500 0.083750 0.000000
0.002000 0.083750 0.000000
0.002500 0.083750 0.000000
0.003000 0.083750 0.000000
0.003500 0.083750 0.000000
0.004000 0.083750 0.000000
0.004500 0.083750 0.000000
0.000500 0.082500 0.000000
0.001000 0.082500 0.000000
0.001500 0.082500 0.000000
0.002000 0.082500 0.000000
0.002500 0.082500 0.000000
0.003000 0.082500 0.000000
0.003500 0.082500 0.000000
0.004000 0.082500 0.000000
0.004500 0.082500 0.000000
0.000500 0.081250 0.000000
0.001000 0.081250 0.000000
0.001500 0.081250 0.000000
0.002000 0.081250 0.000000
0.002500 0.081250 0.000000
0.003000 0.081250 0.000000
0.003500 0.081250 0.000000
0.004000 0.081250 0.000000
0.004500 0.081250 0.000000
0.000500 0.080000 0.000000
0.001000 0.080000 0.000000
0.001500 0.080000 0.000000
0.002000 0.080000 0.000000
0.002500 0.080000 0.000000
0.003000 0.080000 0.000000
0.003500 0.080000 0.000000
0.004000 0.080000 0.000000
0.004500 0.080000 0.000000
0.000500 0.078750 0.000000
0.001000 0.078750 0.000000
0.001500 0.078750 0.000000
0.002000 0.078750 0.000000
0.002500 0.078750 0.000000
0.003000 0.078750 0.000000
0.003500 0.078750 0.000000
0.004000 0.078750 0.000000
0.004500 0.078750 0.000000
0.000500 0.077500 0.000000
0.001000 0.077500 0.000000
0.001500 0.077500 0.000000
0.002000 0.077500 0.000000
0.002500 0.077500 0.000000
0.003000 0.077500 0.000000
0.003500 0.077500 0.000000
0.004000 0.077500 0.000000
0.004500 0.077500 0.000000
0.000500 0.076250 0.000000
0.001000 0.076250 0.000000
0.001500 0.076250 0.000000
0.002000 0.076250 0.000000
0.002500 0.076250 0.000000
0.003000 0.076250 0.000000
0.003500 0.076250 0.000000
0.004000 0.076250 0.000000
0.004500 0.076250 0.000000
0.000500 0.075000 0.000000
0.001000 0.075000 0.000000
0.001500 0.075000 0.000000
0.002000 0.075000 0.000000
0.002500 0.075000 0.000000
0.003000 0.075000 0.000000
0.003500 0.075000 0.000000
0.004000 0.075000 0.000000
0.004500 0.075000 0.000000
0.000500 0.073750 0.000000
0.001000 0.073750 0.000000
0.001500 0.073750 0.000000
0.002000 0.073750 0.000000
0.002500 0.073750 0.000000
0.003000 0.073750 0.000000
0.003500 0.073750 0.000000
0.004000 0.073750 0.000000
0.004500 0.073750 0.000000
0.000500 0.072500 0.000000
0.001000 0.072500 0.000000
0.001500 0.072500 0.000000
0.002000 0.072500 0.000000
0.002500 0.072500 0.000000
0.003000 0.072500 0.000000
0.003500 0.072500 0.000000
0.004000 0.072500 0.000000
0.004500 0.072500 0.000000
0.000500 0.071250 0.000000
0.001000 0.071250 0.000000
0.001500 0.071250 0.000000
0.002000 0.071250 0.000000
0.002500 0.071250 0.000000
0.003000 0.071250 0.000000
0.003500 0.071250 0.000000
0.004000 0.071250 0.000000
0.004500 0.071250 0.000000
0.000500 0.070000 0.000000
0.001000 0.070000 0.000000
0.001500 0.070000 0.000000
0.002000 0.070000 0.000000
0.002500 0.070000 0.000000
0.003000 0.070000 0.000000
0.003500 0.070000 0.000000
0.004000 0.070000 0.000000
0.004500 0.070000 0.000000
0.000500 0.068750 0.000000
0.001000 0.068750 0.000000
0.001500 0.068750 0.000000
0.002000 0.068750 0.000000
0.002500 0.068750 0.000000
0.003000 0.068750 0.000000
0.003500 0.068750 0.000000
0.004000 0.068750 0.000000
0.004500 0.068750 0.000000
0.000500 0.067500 0.000000
0.001000 0.067500 0.000000
0.001500 0.067500 0.000000
0.002000 0.067500 0.000000
0.002500 0.067500 0.000000
0.003000 0.067500 0.000000
0.003500 0.067500 0.000000
0.004000 0.067500 0.000000
0.004500 0.067500 0.000000
0.000500 0.066250 0.000000
0.001000 0.066250 0.000000
0.001500 0.066250 0.000000
0.002000 0.066250 0.000000
0.002500 0.066250 0.000000
0.003000 0.066250 0.000000
0.003500 0.066250 0.000000
0.004000 0.066250 0.000000
0.004500 0.066250 0.000000
0.000500 0.065000 0.000000
0.001000 0.065000 0.000000
0.001500 0.065000 0.000000
0.002000 0.065000 0.000000
0.002500 0.065000 0.000000
0.003000 0.065000 0.000000
0.003500 0.065000 0.000000
0.004000 0.065000 0.000000
0.004500 0.065000 0.000000
0.000500 0.063750 0.000000
0.001000 0.063750 0.000000
0.001500 0.063750 0.000000
0.002000 0.063750 0.000000
0.002500 0.063750 0.000000
0.003000 0.063750 0.000000
0.003500 0.063750 0.000000
0.004000 0.063750 0.000000
0.004500 0.063750 0.000000
0.000500 0.062500 0.000000
0.001000 0.062500 0.000000
0.001500 0.062500 0.000000
0.002000 0.062500 0.000000
0.002500 0.062500 0.000000
0.003000 0.062500 0.000000
0.003500 0.062500 0.000000
0.004000 0.062500 0.000000
0.004500 0.062500 0.000000
0.000500 0.061250 0.000000
0.001000 0.061250 0.000000
0.001500 0.061250 0.000000
0.002000 0.061250 0.000000
0.002500 0.061250 0.000000
0.003000 0.061250 0.000000
0.003500 0.061250 0.000000
0.004000 0.061250 0.000000
0.004500 0.061250 0.000000
0.000500 0.060000 0.000000
0.001000 0.060000 0.000000
0.001500 0.060000 0.000000
0.002000 0.060000 0.000000
0.002500 0.060000 0.000000
0.003000 0.060000 0.000000
0.003500 0.060000 0.000000
0.004000 0.060000 0.000000
0.004500 0.060000 0.000000
0.000500 0.058750 0.000000
0.001000 0.058750 0.000000
0.001500 0.058750 0.000000
0.002000 0.058750 0.000000
0.002500 0.058750 0.000000
0.003000 0.058750 0.000000
0.003500 0.058750 0.000000
0.004000 0.058750 0.000000
0.004500 0.058750 0.000000
0.000500 0.057500 0.000000
0.001000 0.057500 0.000000
0.001500 0.057500 0.000000
0.002000 0.057500 0.000000
0.002500 0.057500 0.000000
0.003000 0.057500 0.000000
0.003500 0.057500 0.000000
0.004000 0.057500 0.000000
0.004500 0.057500 0.000000
0.000500 0.056250 0.000000
0.001000 0.056250 0.000000
0.001500 0.056250 0.000000
0.002000 0.056250 0.000000
0.002500 0.056250 0.000000
0.003000 0.056250 0.000000
0.003500 0.056250 0.000000
0.004000 0.056250 0.000000
0.004500 0.056250 0.000000
0.000500 0.055000 0.000000
0.001000 0.055000 0.000000
0.001500 0.055000 0.000000
0.002000 0.055000 0.000000
0.002500 0.055000 0.000000
0.003000 0.055000 0.000000
0.003500 0.055000 0.000000
0.004000 0.055000 0.000000
0.004500 0.055000 0.000000
0.000500 0.053750 0.000000
0.001000 0.053750 0.000000
0.001500 0.053750 0.000000
0.002000 0.053750 0.000000
0.002500 0.053750 0.000000
0.003000 0.053750 0.000000
0.003500 0.053750 0.000000
0.004000 0.053750 0.000000
0.004500 0.053750 0.000000
0.000500 0.052500 0.000000
0.001000 0.052500 0.000000
0.001500 0.052500 0.000000
0.002000 0.052500 0.000000
0.002500 0.052500 0.000000
0.003000 0.052500 0.000000
0.003500 0.052500 0.000000
0.004000 0.052500 0.000000
0.004500 0.052500 0.000000
0.000500 0.051250 0.000000
0.001000 0.051250 0.000000
0.001500 0.051250 0.000000
0.002000 0.051250 0.000000
0.002500 0.051250 0.000000
0.003000 0.051250 0.000000
0.003500 0.051250 0.000000
0.004000 0.051250 0.000000
0.004500 0.051250 0.000000
0.000500 0.050000 0.000000
0.001000 0.050000 0.000000
0.001500 0.050000 0.000000
0.002000 0.050000 0.000000
0.002500 0.050000 0.000000
0.003000 0.050000 0.000000
0.003500 0.050000 0.000000
0.004000 0.050000 0.000000
0.004500 0.050000 0.000000
0.000500 0.048750 0.000000
0.001000 0.048750 0.000000
0.001500 0.048750 0.000000
0.002000 0.048750 0.000000
0.002500 0.048750 0.000000
0.003000 0.048750 0.000000
0.003500 0.048750 0.000000
0.004000 0.048750 0.000000
0.004500 0.048750 0.000000
0.000500 0.047500 0.000000
0.001000 0.047500 0.000000
0.001500 0.047500 0.000000
0.002000 0.047500 0.000000
0.002500 0.047500 0.000000
0.003000 0.047500 0.000000
0.003500 0.047500 0.000000
0.004000 0.047500 0.000000
0.004500 0.047500 0.000000
0.000500 0.046250 0.000000
0.001000 0.046250 0.000000
0.001500 0.046250 0.000000
0.002000 0.046250 0.000000
0.002500 0.046250 0.000000
0.003000 0.046250 0.000000
0.003500 0.046250 0.000000
0.004000 0.046250 0.000000
0.004500 0.046250 0.000000
0.000500 0.045000 0.000000
0.001000 0.045000 0.000000
0.001500 0.045000 0.000000
0.002000 0.045000 0.000000
0.002500 0.045000 0.000000
0.003000 0.045000 0.000000
0.003500 0.045000 0.000000
0.004000 0.045000 0.000000
0.004500 0.045000 0.000000
0.000500 0.043750 0.000000
0.001000 0.043750 0.000000
0.001500 0.043750 0.000000
0.002000 0.043750 0.000000
0.002500 0.043750 0.000000
0.003000 0.043750 0.000000
0.003500 0.043750 0.000000
0.004000 0.043750 0.000000
0.004500 0.043750 0.000000
0.000500 0.042500 0.000000
0.001000 0.042500 0.000000
0.001500 0.042500 0.000000
0.002000 0.042500 0.000000
0.002500 0.042500 0.000000
0.003000 0.042500 0.000000
0.003500 0.042500 0.000000
0.004000 0.042500 0.000000
0.004500 0.042500 0.000000
0.000500 0.041250 0.000000
0.001000 0.041250 0.000000
0.001500 0.041250 0.000000
0.002000 0.041250 0.000000
0.002500 0.041250 0.000000
0.003000 0.041250 0.000000
0.003500 0.041250 0.000000
0.004000 0.041250 0.000000
0.004500 0.041250 0.000000
0.000500 0.040000 0.000000
0.001000 0.040000 0.000000
0.001500 0.040000 0.000000
0.002000 0.040000 0.000000
0.002500 0.040000 0.000000
0.003000 0.040000 0.000000
0.003500 0.040000 0.000000
0.004000 0.040000 0.000000
0.004500 0.040000 0.000000
0.000500 0.038750 0.000000
0.001000 0.038750 0.000000
0.001500 0.038750 0.000000
0.002000 0.038750 0.000000
0.002500 0.038750 0.000000
0.003000 0.038750 0.000000
0.003500 0.038750 0.000000
0.004000 0.038750 0.000000
0.004500 0.038750 0.000000
0.000500 0.037500 0.000000
0.001000 0.037500 0.000000
0.001500 0.037500 0.000000
0.002000 0.037500 0.000000
0.002500 0.037500 0.000000
0.003000 0.037500 0.000000
0.003500 0.037500 0.000000
0.004000 0.037500 0.000000
0.004500 0.037500 0.000000
0.000500 0.036250 0.000000
0.001000 0.036250 0.000000
0.001500 0.036250 0.000000
0.002000 0.036250 0.000000
0.002500 0.036250 0.000000
0.003000 0.036250 0.000000
0.003500 0.036250 0.000000
0.004000 0.036250 0.000000
0.004500 0.036250 0.000000
0.000500 0.035000 0.000000
0.001000 0.035000 0.000000
0.001500 0.035000 0.000000
0.002000 0.035000 0.000000
0.002500 0.035000 0.000000
0.003000 0.035000 0.000000
0.003500 0.035000 0.000000
0.004000 0.035000 0.000000
0.004500 0.035000 0.000000
0.000500 0.033750 0.000000
0.001000 0.033750 0.000000
0.001500 0.033750 0.000000
0.002000 0.033750 0.000000
0.002500 0.033750 0.000000
0.003000 0.033750 0.000000
0.003500 0.033750 0.000000
0.004000 0.033750 0.000000
0.004500 0.033750 0.000000
0.000500 0.032500 0.000000
0.001000 0.032500 0.000000
0.001500 0.032500 0.000000
0.002000 0.032500 0.000000
0.002500 0.032500 0.000000
0.003000 0.032500 0.000000
0.003500 0.032500 0.000000
0.004000 0.032500 0.000000
0.004500 0.032500 0.000000
0.000500 0.031250 0.000000
0.001000 0.031250 0.000000
0.001500 0.031250 0.000000
0.002000 0.031250 0.000000
0.002500 0.031250 0.000000
0.003000 0.031250 0.000000
0.003500 0.031250 0.000000
0.004000 0.031250 0.000000
0.004500 0.031250 0.000000
0.000500 0.030000 0.000000
0.001000 0.030000 0.000000
0.001500 0.030000 0.000000
0.002000 0.030000 0.000000
0.002500 0.030000 0.000000
0.003000 0.030000 0.000000
0.003500 0.030000 0.000000
0.004000 0.030000 0.000000
0.004500 0.030000 0.000000
0.000500 0.028750 0.000000
0.001000 0.028750 0.000000
0.001500 0.028750 0.000000
0.002000 0.028750 0.000000
0.002500 0.028750 0.000000
0.003000 0.028750 0.000000
0.003500 0.028750 0.000000
0.004000 0.028750 0.000000
0.004500 0.028750 0.000000
0.000500 0.027500 0.000000
0.001000 0.027500 0.000000
0.001500 0.027500 0.000000
0.002000 0.027500 0.000000
0.002500 0.027500 0.000000
0.003000 0.027500 0.000000
0.003500 0.027500 0.000000
0.004000 0.027500 0.000000
0.004500 0.027500 0.000000
0.000500 0.026250 0.000000
0.001000 0.026250 0.000000
0.001500 0.026250 0.000000
0.002000 0.026250 0.000000
0.002500 0.026250 0.000000
0.003000 0.026250 0.000000
0.003500 0.026250 0.000000
0.004000 0.026250 0.000000
0.004500 0.026250 0.000000
0.000500 0.025000 0.000000
0.001000 0.025000 0.000000
0.001500 0.025000 0.000000
0.002000 0.025000 0.000000
0.002500 0.025000 0.000000
0.003000 0.025000 0.000000
0.003500 0.025000 0.000000
0.004000 0.025000 0.000000
0.004500 0.025000 0.000000
0.000500 0.023750 0.000000
0.001000 0.023750 0.000000
0.001500 0.023750 0.000000
0.002000 0.023750 0.000000
0.002500 0.023750 0.000000
0.003000 0.023750 0.000000
0.003500 0.023750 0.000000
0.004000 0.023750 0.000000
0.004500 0.023750 0.000000
0.000500 0.022500 0.000000
0.001000 0.022500 0.000000
0.001500 0.022500 0.000000
0.002000 0.022500 0.000000
0.002500 0.022500 0.000000
0.003000 0.022500 0.000000
0.003500 0.022500 0.000000
0.004000 0.022500 0.000000
0.004500 0.022500 0.000000
0.000500 0.021250 0.000000
0.001000 0.021250 0.000000
0.001500 0.021250 0.000000
0.002000 0.021250 0.000000
0.002500 0.021250 0.000000
0.003000 0.021250 0.000000
0.003500 0.021250 0.000000
0.004000 0.021250 0.000000
0.004500 0.021250 0.000000
0.000500 0.020000 0.000000
0.001000 0.020000 0.000000
0.001500 0.020000 0.000000
0.002000 0.020000 0.000000
0.002500 0.020000 0.000000
0.003000 0.020000 0.000000
0.003500 0.020000 0.000000
0.004000 0.020000 0.000000
0.004500 0.020000 0.000000
0.000500 0.018750 0.000000
0.001000 0.018750 0.000000
0.001500 0.018750 0.000000
0.002000 0.018750 0.000000
0.002500 0.018750 0.000000
0.003000 0.018750 0.000000
0.003500 0.018750 0.000000
0.004000 0.018750 0.000000
0.004500 0.018750 0.000000
0.000500 0.017500 0.000000
0.001000 0.017500 0.000000
0.001500 0.017500 0.000000
0.002000 0.017500 0.000000
0.002500 0.017500 0.000000
0.003000 0.017500 0.000000
0.003500 0.017500 0.000000
0.004000 0.017500 0.000000
0.004500 0.017500 0.000000
0.000500 0.016250 0.000000
0.001000 0.016250 0.000000
0.001500 0.016250 0.000000
0.002000 0.016250 0.000000
0.002500 0.016250 0.000000
0.003000 0.016250 0.000000
0.003500 0.016250 0.000000
0.004000 0.016250 0.000000
0.004500 0.016250 0.000000
0.000500 0.015000 0.000000
0.001000 0.015000 0.000000
0.001500 0.015000 0.000000
0.002000 0.015000 0.000000
0.002500 0.015000 0.000000
0.003000 0.015000 0.000000
0.003500 0.015000 0.000000
0.004000 0.015000 0.000000
0.004500 0.015000 0.000000
0.000500 0.013750 0.000000
0.001000 0.013750 0.000000
0.001500 0.013750 0.000000
0.002000 0.013750 0.000000
0.002500 0.013750 0.000000
0.003000 0.013750 0.000000
0.003500 0.013750 0.000000
0.004000 0.013750 0.000000
0.004500 0.013750 0.000000
0.000500 0.012500 0.000000
0.001000 0.012500 0.000000
0.001500 0.012500 0.000000
0.002000 0.012500 0.000000
0.002500 0.012500 0.000000
0.003000 0.012500 0.000000
0.003500 0.012500 0.000000
0.004000 0.012500 0.000000
0.004500 0.012500 0.000000
0.000500 0.011250 0.000000
0.001000 0.011250 0.000000
0.001500 0.011250 0.000000
0.002000 0.011250 0.000000
0.002500 0.011250 0.000000
0.003000 0.011250 0.000000
0.003500 0.011250 0.000000
0.004000 0.011250 0.000000
0.004500 0.011250 0.000000
0.000500 0.010000 0.000000
0.001000 0.010000 0.000000
0.001500 0.010000 0.000000
0.002000 0.010000 0.000000
0.002500 0.010000 0.000000
0.003000 0.010000 0.000000
0.003500 0.010000 0.000000
0.004000 0.010000 0.000000
0.004500 0.010000 0.000000
0.000500 0.008750 0.000000
0.001000 0.008750 0.000000
0.001500 0.008750 0.000000
0.002000 0.008750 0.000000
0.002500 0.008750 0.000000
0.003000 0.008750 0.000000
0.003500 0.008750 0.000000
0.004000 0.008750 0.000000
0.004500 0.008750 0.000000
0.000500 0.007500 0.000000
0.001000 0.007500 0.000000
0.001500 0.007500 0.000000
0.002000 0.007500 0.000000
0.002500 0.007500 0.000000
0.003000 0.007500 0.000000
0.003500 0.007500 0.000000
0.004000 0.007500 0.000000
0.004500 0.007500 0.000000
0.000500 0.006250 0.000000
0.001000 0.006250 0.000000
0.001500 0.006250 0.000000
0.002000 0.006250 0.000000
0.002500 0.006250 0.000000
0.003000 0.006250 0.000000
0.003500 0.006250 0.000000
0.004000 0.006250 0.000000
0.004500 0.006250 0.000000
0.000500 0.005000 0.000000
0.001000 0.005000 0.000000
0.001500 0.005000 0.000000
0.002000 0.005000 0.000000
0.002500 0.005000 0.000000
0.003000 0.005000 0.000000
0.003500 0.005000 0.000000
0.004000 0.005000 0.000000
0.004500 0.005000 0.000000
0.000500 0.003750 0.000000
0.001000 0.003750 0.000000
0.001500 0.003750 0.000000
0.002000 0.003750 0.000000
0.002500 0.003750 0.000000
0.003000 0.003750 0.000000
0.003500 0.003750 0.000000
0.004000 0.003750 0.000000
0.004500 0.003750 0.000000
0.000500 0.002500 0.000000
0.001000 0.002500 0.000000
0.001500 0.002500 0.000000
0.002000 0.002500 0.000000
0.002500 0.002500 0.000000
0.003000 0.002500 0.000000
0.003500 0.002500 0.000000
0.004000 0.002500 0.000000
0.004500 0.002500 0.000000
0.000500 0.001250 0.000000
0.001000 0.001250 0.000000
0.001500 0.001250 0.000000
0.002000 0.001250 0.000000
0.002500 0.001250 0.000000
0.003000 0.001250 0.000000
0.003500 0.001250 0.000000
0.004000 0.001250 0.000000
0.004500 0.001250 0.000000
CELLS 800 4000
4 82 83 180 179
4 179 180 181 178
4 178 181 182 177
4 177 182 183 176
4 176 183 184 175
4 175 184 185 174
4 174 185 186 173
4 173 186 187 172
4 172 187 188 171
4 171 188 80 0
4 83 84 189 180
4 180 189 190 181
4 181 190 191 182
4 182 191 192 183
4 183 192 193 184
4 184 193 194 185
4 185 194 195 186
4 186 195 196 187
4 187 196 197 188
4 188 197 79 80
4 84 85 198 189
4 189 198 199 190
4 190 199 200 191
4 191 200 201 192
4 192 201 202 193
4 193 202 203 194
4 194 203 204 195
4 195 204 205 196
4 196 205 206 197
4 197 206 78 79
4 85 86 207 198
4 198 207 208 199
4 199 208 209 200
4 200 209 210 201
4 201 210 211 202
4 202 211 212 203
4 203 212 213 204
4 204 213 214 205
4 205 214 215 206
4 206 215 77 78
4 86 87 216 207
4 207 216 217 208
4 208 217 218 209
4 209 218 219 210
4 210 219 220 211
4 211 220 221 212
4 212 221 222 213
4 213 222 223 214
4 214 223 224 215
4 215 224 76 77
4 87 88 225 216
4 216 225 226 217
4 217 226 227 218
4 218 227 228 219
4 219 228 229 220
4 220 229 230 221
4 221 230 231 222
4 222 231 232 223
4 223 232 233 224
4 224 233 75 76
4 88 89 234 225
4 225 234 235 226
4 226 235 236 227
4 227 236 237 228
4 228 237 238 229
4 229 238 239 230
4 230 239 240 231
4 231 240 241 232
4 232 241 242 233
4 233 242 74 75
4 89 90 243 234
4 234 243 244 235
4 235 244 245 236
4 236 245 246 237
4 237 246 247 238
4 238 247 248 239
4 239 248 249 240
4 240 249 250 241
4 241 250 251 242
4 242 251 73 74
4 90 91 252 243
4 243 252 253 244
4 244 253 254 245
4 245 254 255 246
4 246 255 256 247
4 247 256 257 248
4 248 257 258 249
4 249 258 259 250
4 250 259 260 251
4 251 260 72 73
4 91 92 261 252
4 252 261 262 253
4 253 262 263 254
4 254 263 264 255
4 255 264 265 256
4 256 265 266 257
4 257 266 267 258
4 258 267 268 259
4 259 268 269 260
4 260 269 71 72
4 92 93 270 261
4 261 270 271 262
4 262 271 272 263
4 263 272 273 264
4 264 273 274 265
4 265 274 275 266
4 266 275 276 267
4 267 276 277 268
4 268 277 278 269
4 269 278 70 71
4 93 94 279 270
4 270 279 280 271
4 271 280 281 272
4 272 281 282 273
4 273 282 283 274
4 274 283 284 275
4 275 284 285 276
4 276 285 286 277
4 277 286 287 278
4 278 287 69 70
4 94 95 288 279
4 279 288 289 280
4 280 289 290 281
4 281 290 291 282
4 282 291 292 283
4 283 292 293 284
4 284 293 294 285
4 285 294 295 286
4 286 295 296 287
4 287 296 68 69
4 95 96 297 288
4 288 297 298 289
4 289 298 299 290
4 290 299 300 291
4 291 300 301 292
4 292 301 302 293
4 293 302 303 294
4 294 303 304 295
4 295 304 305 296
4 296 305 67 68
4 96 97 306 297
4 297 306 307 298
4 298 307 308 299
4 299 308 309 300
4 300 309 310 301
4 301 310 311 302
4 302 311 312 303
4 303 312 313 304
4 304 313 314 305
4 305 314 66 67
4 97 98 315 306
4 306 315 316 307
4 307 316 317 308
4 308 317 318 309
4 309 318 319 310
4 310 319 320 311
4 311 320 321 312
4 312 321 322 313
4 313 322 323 314
4 314 323 65 66
4 98 99 324 315
4 315 324 325 316
4 316 325 326 317
4 317 326 327 318
4 318 327 328 319
4 319 328 329 320
4 320 329 330 321
4 321 330 331 322
4 322 331 332 323
4 323 332 64 65
4 99 100 333 324
4 324 333 334 325
4 325 334 335 326
4 326 335 336 327
4 327 336 337 328
4 328 337 338 329
4 329 338 339 330
4 330 339 340 331
4 331 340 341 332
4 332 341 63 64
4 100 101 342 333
4 333 342 343 334
4 334 343 344 335
4 335 344 345 336
4 336 345 346 337
4 337 346 347 338
4 338 347 348 339
4 339 348 349 340
4 340 349 350 341
4 341 350 62 63
4 101 102 351 342
4 342 351 352 343
4 343 352 353 344
4 344 353 354 345
4 345 354 355 346
4 346 355 356 347
4 347 356 357 348
4 348 357 358 349
4 349 358 359 350
4 350 359 61 62
4 102 103 360 351
4 351 360 361 352
4 352 361 362 353
4 353 362 363 354
4 354 363 364 355
4 355 364 365 356
4 356 365 366 357
4 357 366 367 358
4 358 367 368 359
4 359 368 60 61
4 103 104 369 360
4 360 369 370 361
4 361 370 371 362
4 362 371 372 363
4 363 372 373 364
4 364 373 374 365
4 365 374 375 366
4 366 375 376 367
4 367 376 377 368
4 368 377 59 60
4 104 105 378 369
4 369 378 379 370
4 370 379 380 371
4 371 380 381 372
4 372 381 382 373
4 373 382 383 374
4 374 383 384 375
4 375 384 385 376
4 376 385 386 377
4 377 386 58 59
4 105 106 387 378
4 378 387 388 379
4 379 388 389 380
4 380 389 390 381
4 381 390 391 382
4 382 391 392 383
4 383 392 393 384
4 384 393 394 385
4 385 394 395 386
4 386 395 57 58
4 106 107 396 387
4 387 396 397 388
4 388 397 398 389
4 389 398 399 390
4 390 399 400 391
4 391 400 401 392
4 392 401 402 393
4 393 402 403 394
4 394 403 404 395
4 395 404 56 57
4 107 108 405 396
4 396 405 406 397
4 397 406 407 398
4 398 407 408 399
4 399 408 409 400
4 400 409 410 401
4 401 410 411 402
4 402 411 412 403
4 403 412 413 404
4 404 413 55 56
4 108 109 414 405
4 405 414 415 406
4 406 415 416 407
4 407 416 417 408
4 408 417 418 409
4 409 418 419 410
4 410 419 420 411
4 411 420 421 412
4 412 421 422 413
4 413 422 54 55
4 109 110 423 414
4 414 423 424 415
4 415 424 425 416
4 416 425 426 417
4 417 426 427 418
4 418 427 428 419
4 419 428 429 420
4 420 429 430 421
4 421 430 431 422
4 422 431 53 54
4 110 111 432 423
4 423 432 433 424
4 424 433 434 425
4 425 434 435 426
4 426 435 436 427
4 427 436 437 428
4 428 437 438 429
4 429 438 439 430
4 430 439 440 431
4 431 440 52 53
4 111 112 441 432
4 432 441 442 433
4 433 442 443 434
4 434 443 444 435
4 435 444 445 436
4 436 445 446 437
4 437 446 447 438
4 438 447 448 439
4 439 448 449 440
4 440 449 51 52
4 112 113 450 441
4 441 450 451 442
4 442 451 452 443
4 443 452 453 444
4 444 453 454 445
4 445 454 455 446
4 446 455 456 447
4 447 456 457 448
4 448 457 458 449
4 449 458 50 51
4 113 114 459 450
4 450 459 460 451
4 451 460 461 452
4 452 461 462 453
4 453 462 463 454
4 454 463 464 455
4 455 464 465 456
4 456 465 466 457
4 457 466 467 458
4 458 467 49 50
4 114 115 468 459
4 459 468 469 460
4 460 469 470 461
4 461 470 471 462
4 462 471 472 463
4 463 472 473 464
4 464 473 474 465
4 465 474 475 466
4 466 475 476 467
4 467 476 48 49
4 115 116 477 468
4 468 477 478 469
4 469 478 479 470
4 470 479 480 471
4 471 480 481 472
4 472 481 482 473
4 473 482 483 474
4 474 483 484 475
4 475 484 485 476
4 476 485 47 48
4 116 117 486 477
4 477 486 487 478
4 478 487 488 479
4 479 488 489 480
4 480 489 490 481
4 481 490 491 482
4 482 491 492 483
4 483 492 493 484
4 484 493 494 485
4 485 494 46 47
4 117 118 495 486
4 486 495 496 487
4 487 496 497 488
4 488 497 498 489
4 489 498 499 490
4 490 499 500 491
4 491 500 501 492
4 492 501 502 493
4 493 502 503 494
4 494 503 45 46
4 118 119 504 495
4 495 504 505 496
4 496 505 506 497
4 497 506 507 498
4 498 507 508 499
4 499 508 509 500
4 500 509 510 501
4 501 510 511 502
4 502 511 512 503
4 503 512 44 45
4 119 120 513 504
4 504 513 514 505
4 505 514 515 506
4 506 515 516 507
4 507 516 517 508
4 508 517 518 509
4 509 518 519 510
4 510 519 520 511
4 511 520 521 512
4 512 521 43 44
4 120 121 522 513
4 513 522 523 514
4 514 523 524 515
4 515 524 525 516
4 516 525 526 517
4 517 526 527 518
4 518 527 528 519
4 519 528 529 520
4 520 529 530 521
4 521 530 42 43
4 121 122 531 522
4 522 531 532 523
4 523 532 533 524
4 524 533 534 525
4 525 534 535 526
4 526 535 536 527
4 527 536 537 528
4 528 537 538 529
4 529 538 539 530
4 530 539 41 42
4 122 123 540 531
4 531 540 541 532
4 532 541 542 533
4 533 542 543 534
4 534 543 544 535
4 535 544 545 536
4 536 545 546 537
4 537 546 547 538
4 538 547 548 539
4 539 548 40 41
4 123 124 549 540
4 540 549 550 541
4 541 550 551 542
4 542 551 552 543
4 543 552 553 544
4 544 553 554 545
4 545 554 555 546
4 546 555 556 547
4 547 556 557 548
4 548 557 39 40
4 124 125 558 549
4 549 558 559 550
4 550 559 560 551
4 551 560 561 552
4 552 561 562 553
4 553 562 563 554
4 554 563 564 555
4 555 564 565 556
4 556 565 566 557
4 557 566 38 39
4 125 126 567 558
4 558 567 568 559
4 559 568 569 560
4 560 569 570 561
4 561 570 571 562
4 562 571 572 563
4 563 572 573 564
4 564 573 574 565
4 565 574 575 566
4 566 575 37 38
4 126 127 576 567
4 567 576 577 568
4 568 577 578 569
4 569 578 579 570
4 570 579 580 571
4 571 580 581 572
4 572 581 582 573
4 573 582 583 574
4 574 583 584 575
4 575 584 36 37
4 127 128 585 576
4 576 585 586 577
4 577 586 587 578
4 578 587 588 579
4 579 588 589 580
4 580 589 590 581
4 581 590 591 582
4 582 591 592 583
4 583 592 593 584
4 584 593 35 36
4 128 129 594 585
4 585 594 595 586
4 586 595 596 587
4 587 596 597 588
4 588 597 598 589
4 589 598 599 590
4 590 599 600 591
4 591 600 601 592
4 592 601 602 593
4 593 602 34 35
4 129 130 603 594
4 594 603 604 595
4 595 604 605 596
4 596 605 606 597
4 597 606 607 598
4 598 607 608 599
4 599 608 609 600
4 600 609 610 601
4 601 610 611 602
4 602 611 33 34
4 130 131 612 603
4 603 612 613 604
4 604 613 614 605
4 605 614 615 606
4 606 615 616 607
4 607 616 617 608
4 608 617 618 609
4 609 618 619 610
4 610 619 620 611
4 611 620 32 33
4 131 132 621 612
4 612 621 622 613
4 613 622 623 614
4 614 623 624 615
4 615 624 625 616
4 616 625 626 617
4 617 626 627 618
4 618 627 628 619
4 619 628 629 620
4 620 629 31 32
4 132 133 630 621
4 621 630 631 622
4 622 631 632 623
4 623 632 633 624
4 624 633 634 625
4 625 634 635 626
4 626 635 636 627
4 627 636 637 628
4 628 637 638 629
4 629 638 30 31
4 133 134 639 630
4 630 639 640 631
4 631 640 641 632
4 632 641 642 633
4 633 642 643 634
4 634 643 644 635
4 635 644 645 636
4 636 645 646 637
4 637 646 647 638
4 638 647 29 30
4 134 135 648 639
4 639 648 649 640
4 640 649 650 641
4 641 650 651 642
4 642 651 652 643
4 643 652 653 644
4 644 653 654 645
4 645 654 655 646
4 646 655 656 647
4 647 656 28 29
4 135 136 657 648
4 648 657 658 649
4 649 658 659 650
4 650 659 660 651
4 651 660 661 652
4 652 661 662 653
4 653 662 663 654
4 654 663 664 655
4 655 664 665 656
4 656 665 27 28
4 136 137 666 657
4 657 666 667 658
4 658 667 668 659
4 659 668 669 660
4 660 669 670 661
4 661 670 671 662
4 662 671 672 663
4 663 672 673 664
4 664 673 674 665
4 665 674 26 27
4 137 138 675 666
4 666 675 676 667
4 667 676 677 668
4 668 677 678 669
4 669 678 679 670
4 670 679 680 671
4 671 680 681 672
4 672 681 682 673
4 673 682 683 674
4 674 683 25 26
4 138 139 684 675
4 675 684 685 676
4 676 685 686 677
4 677 686 687 678
4 678 687 688 679
4 679 688 689 680
4 680 689 690 681
4 681 690 691 682
4 682 691 692 683
4 683 692 24 25
4 139 140 693 684
4 684 693 694 685
4 685 694 695 686
4 686 695 696 687
4 687 696 697 688
4 688 697 698 689
4 689 698 699 690
4 690 699 700 691
4 691 700 701 692
4 692 701 23 24
4 140 141 702 693
4 693 702 703 694
4 694 703 704 695
4 695 704 705 696
4 696 705 706 697
4 697 706 707 698
4 698 707 708 699
4 699 708 709 700
4 700 709 710 701
4 701 710 22 23
4 141 142 711 702
4 702 711 712 703
4 703 712 713 704
4 704 713 714 705
4 705 714 715 706
4 706 715 716 707
4 707 716 717 708
4 708 717 718 709
4 709 718 719 710
4 710 719 21 22
4 142 143 720 711
4 711 720 721 712
4 712 721 722 713
4 713 722 723 714
4 714 723 724 715
4 715 724 725 716
4 716 725 726 717
4 717 726 727 718
4 718 727 728 719
4 719 728 20 21
4 143 144 729 720
4 720 729 730 721
4 721 730 731 722
4 722 731 732 723
4 723 732 733 724
4 724 733 734 725
4 725 734 735 726
4 726 735 736 727
4 727 736 737 728
4 728 737 19 20
4 144 145 738 729
4 729 738 739 730
4 730 739 740 731
4 731 740 741 732
4 732 741 742 733
4 733 742 743 734
4 734 743 744 735
4 735 744 745 736
4 736 745 746 737
4 737 746 18 19
4 145 146 747 738
4 738 747 748 739
4 739 748 749 740
4 740 749 750 741
4 741 750 751 742
4 742 751 752 743
4 743 752 753 744
4 744 753 754 745
4 745 754 755 746
4 746 755 17 18
4 146 147 756 747
4 747 756 757 748
4 748 757 758 749
4 749 758 759 750
4 750 759 760 751
4 751 760 761 752
4 752 761 762 753
4 753 762 763 754
4 754 763 764 755
4 755 764 16 17
4 147 148 765 756
4 756 765 766 757
4 757 766 767 758
4 758 767 768 759
4 759 768 769 760
4 760 769 770 761
4 761 770 771 762
4 762 771 772 763
4 763 772 773 764
4 764 773 15 16
4 148 149 774 765
4 765 774 775 766
4 766 775 776 767
4 767 776 777 768
4 768 777 778 769
4 769 778 779 770
4 770 779 780 771
4 771 780 781 772
4 772 781 782 773
4 773 782 14 15
4 149 150 783 774
4 774 783 784 775
4 775 784 785 776
4 776 785 786 777
4 777 786 787 778
4 778 787 788 779
4 779 788 789 780
4 780 789 790 781
4 781 790 791 782
4 782 791 13 14
4 150 151 792 783
4 783 792 793 784
4 784 793 794 785
4 785 794 795 786
4 786 795 796 787
4 787 796 797 788
4 788 797 798 789
4 789 798 799 790
4 790 799 800 791
4 791 800 12 13
4 151 152 801 792
4 792 801 802 793
4 793 802 803 794
4 794 803 804 795
4 795 804 805 796
4 796 805 806 797
4 797 806 807 798
4 798 807 808 799
4 799 808 809 800
4 800 809 11 12
4 152 153 810 801
4 801 810 811 802
4 802 811 812 803
4 803 812 813 804
4 804 813 814 805
4 805 814 815 806
4 806 815 816 807
4 807 816 817 808
4 808 817 818 809
4 809 818 10 11
4 153 154 819 810
4 810 819 820 811
4 811 820 821 812
4 812 821 822 813
4 813 822 823 814
4 814 823 824 815
4 815 824 825 816
4 816 825 826 817
4 817 826 827 818
4 818 827 9 10
4 154 155 828 819
4 819 828 829 820
4 820 829 830 821
4 821 830 831 822
4 822 831 832 823
4 823 832 833 824
4 824 833 834 825
4 825 834 835 826
4 826 835 836 827
4 827 836 8 9
4 155 156 837 828
4 828 837 838 829
4 829 838 839 830
4 830 839 840 831
4 831 840 841 832
4 832 841 842 833
4 833 842 843 834
4 834 843 844 835
4 835 844 845 836
4 836 845 7 8
4 156 157 846 837
4 837 846 847 838
4 838 847 848 839
4 839 848 849 840
4 840 849 850 841
4 841 850 851 842
4 842 851 852 843
4 843 852 853 844
4 844 853 854 845
4 845 854 6 7
4 157 158 855 846
4 846 855 856 847
4 847 856 857 848
4 848 857 858 849
4 849 858 859 850
4 850 859 860 851
4 851 860 861 852
4 852 861 862 853
4 853 862 863 854
4 854 863 5 6
4 158 159 864 855
4 855 864 865 856
4 856 865 866 857
4 857 866 867 858
4 858 867 868 859
4 859 868 869 860
4 860 869 870 861
4 861 870 871 862
4 862 871 872 863
4 863 872 4 5
4 159 160 873 864
4 864 873 874 865
4 865 874 875 866
4 866 875 876 867
4 867 876 877 868
4 868 877 878 869
4 869 878 879 870
4 870 879 880 871
4 871 880 881 872
4 872 881 3 4
4 160 161 882 873
4 873 882 883 874
4 874 883 884 875
4 875 884 885 876
4 876 885 886 877
4 877 886 887 878
4 878 887 888 879
4 879 888 889 880
4 880 889 890 881
4 881 890 2 3
4 161 81 162 882
4 882 162 163 883
4 883 163 164 884
4 884 164 165 885
4 885 165 166 886
4 886 166 167 887
4 887 167 168 888
4 888 168 169 889
4 889 169 170 890
4 890 170 1 2
CELL_TYPES 800
9
9
9
9
9
9
9
9
9
9
9
9
9
9
9
9
9
9
9
9
9
9
9
9
9
9
9
9
9
9
9
9
9
9
9
9
9
9
9
9
9
9
9
9
9
9
9
9
9
9
9
9
9
9
9
9
9
9
9
9
9
9
9
9
9
9
9
9
9
9
9
9
9
9
9
9
9
9
9
9
9
9
9
9
9
9
9
9
9
9
9
9
9
9
9
9
9
9
9
9
9
9
9
9
9
9
9
9
9
9
9
9
9
9
9
9
9
9
9
9
9
9
9
9
9
9
9
9
9
9
9
9
9
9
9
9
9
9
9
9
9
9
9
9
9
9
9
9
9
9
9
9
9
9
9
9
9
9
9
9
9
9
9
9
9
9
9
9
9
9
9
9
9
9
9
9
9
9
9
9
9
9
9
9
9
9
9
9
9
9
9
9
9
9
9
9
9
9
9
9
9
9
9
9
9
9
9
9
9
9
9
9
9
9
9
9
9
9
9
9
9
9
9
9
9
9
9
9
9
9
9
9
9
9
9
9
9
9
9
9
9
9
9
9
9
9
9
9
9
9
9
9
9
9
9
9
9
9
9
9
9
9
9
9
9
9
9
9
9
9
9
9
9
9
9
9
9
9
9
9
9
9
9
9
9
9
9
9
9
9
9
9
9
9
9
9
9
9
9
9
9
9
9
9
9
9
9
9
9
9
9
9
9
9
9
9
9
9
9
9
9
9
9
9
9
9
9
9
9
9
9
9
9
9
9
9
9
9
9
9
9
9
9
9
9
9
9
9
9
9
9
9
9
9
9
9
9
9
9
9
9
9
9
9
9
9
9
9
9
9
9
9
9
9
9
9
9
9
9
9
9
9
9
9
9
9
9
9
9
9
9
9
9
9
9
9
9
9
9
9
9
9
9
9
9
9
9
9
9
9
9
9
9
9
9
9
9
9
9
9
9
9
9
9
9
9
9
9
9
9
9
9
9
9
9
9
9
9
9
9
9
9
9
9
9
9
9
9
9
9
9
9
9
9
9
9
9
9
9
9
9
9
9
9
9
9
9
9
9
9
9
9
9
9
9
9
9
9
9
9
9
9
9
9
9
9
9
9
9
9
9
9
9
9
9
9
9
9
9
9
9
9
9
9
9
9
9
9
9
9
9
9
9
9
9
9
9
9
9
9
9
9
9
9
9
9
9
9
9
9
9
9
9
9
9
9
9
9
9
9
9
9
9
9
9
9
9
9
9
9
9
9
9
9
9
9
9
9
9
9
9
9
9
9
9
9
9
9
9
9
9
9
9
9
9
9
9
9
9
9
9
9
9
9
9
9
9
9
9
9
9
9
9
9
9
9
9
9
9
9
9
9
9
9
9
9
9
9
9
9
9
9
9
9
9
9
9
9
9
9
9
9
9
9
9
9
9
9
9
9
9
9
9
9
9
9
9
9
9
9
9
9
9
9
9
9
9
9
9
9
9
9
9
9
9
9
9
9
9
9
9
9
9
9
9
9
9
9
9
9
9
9
9
9
9
9
9
9
9
9
9
9
9
9
9
9
9
9
9
9
9
9
9
9
9
9
9
9
9
9
9
9
9
9
9
9
9
9
9
9
9
9
9
9
9
9
9
9
9
9
9
9
9
9
9
9
9
9
9
9
9
9
9
9
9
9
9
9
9
9
9
9
9
9
9
9
9
9
9
9
9
9
9
9
9
9
9
9
9
9
9
9
9
9
9
9
9
9
9
9
9
9
9
9
9
9
9
9
9
9
9
9
9
9
9
9
9
9
9
9
9
9
9
9
9
9
9
9
9
9
POINT_DATA 891
SCALARS u1 float
LOOKUP_TABLE default
-4e-19
-2e-06
-2e-06
-2e-06
-2e-06
-2e-06
-2e-06
-2e-06
-2e-06
-2e-06
-2e-06
-2e-06
-2e-06
-2e-06
-2e-06
-2e-06
-2e-06
-2e-06
-2e-06
-2e-06
-2e-06
-2e-06
-2e-06
-2e-06
-2e-06
-2e-06
-2e-06
-2e-06
-2e-06
-2e-06
-2e-06
-2e-06
-2e-06
-2e-06
-2e-06
-2e-06
-2e-06
-2e-06
-2e-06
-2e-06
-2e-06
-2e-06
-2e-06
-2e-06
-2e-06
-2e-06
-2e-06
-2e-06
-2e-06
-2e-06
-2e-06
-2e-06
-2e-06
-2e-06
-2e-06
-2e-06
-2e-06
-2e-06
-2e-06
-2e-06
-2e-06
-2e-06
-2e-06
-2e-06
-2e-06
-2e-06
-2e-06
-2e-06
-2e-06
-2e-06
-2e-06
-2e-06
-2e-06
-2e-06
-2e-06
-2e-06
-2e-06
-2e-06
-2e-06
-2e-06
-1e-06
2e-06
-5e-18
1e-06
2e-06
2e-06
2e-06
2e-06
2e-06
2e-06
2e-06
2e-06
2e-06
2e-06
2e-06
2e-06
2e-06
2e-06
2e-06
2e-06
2e-06
2e-06
2e-06
2e-06
2e-06
2e-06
2e-06
2e-06
2e-06
2e-06
2e-06
2e-06
2e-06
2e-06
2e-06
2e-06
2e-06
2e-06
2e-06
2e-06
2e-06
2e-06
2e-06
2e-06
2e-06
2e-06
2e-06
2e-06
2e-06
2e-06
2e-06
2e-06
2e-06
2e-06
2e-06
2e-06
2e-06
2e-06
2e-06
2e-06
2e-06
2e-06
2e-06
2e-06
2e-06
2e-06
2e-06
2e-06
2e-06
2e-06
2e-06
2e-06
2e-06
2e-06
2e-06
2e-06
2e-06
2e-06
2e-06
2e-06
2e-06
2e-06
2e-06
1e-06
8e-07
4e-07
2e-14
-4e-07
-8e-07
-1e-06
-2e-06
2e-17
-7e-19
-5e-17
-4e-17
3e-18
2e-17
-6e-18
2e-17
-2e-18
1e-06
7e-07
5e-07
2e-07
3e-15
-2e-07
-5e-07
-7e-07
-1e-06
1e-06
1e-06
7e-07
4e-07
1e-14
-4e-07
-7e-07
-1e-06
-1e-06
2e-06
1e-06
8e-07
4e-07
2e-14
-4e-07
-8e-07
-1e-06
-2e-06
2e-06
1e-06
8e-07
4e-07
2e-14
-4e-07
-8e-07
-1e-06
-2e-06
2e-06
1e-06
8e-07
4e-07
2e-14
-4e-07
-8e-07
-1e-06
-2e-06
2e-06
1e-06
8e-07
4e-07
2e-14
-4e-07
-8e-07
-1e-06
-2e-06
2e-06
1e-06
8e-07
4e-07
2e-14
-4e-07
-8e-07
-1e-06
-2e-06
2e-06
1e-06
8e-07
4e-07
2e-14
-4e-07
-8e-07
-1e-06
-2e-06
2e-06
1e-06
8e-07
4e-07
2e-14
-4e-07
-8e-07
-1e-06
-2e-06
2e-06
1e-06
8e-07
4e-07
2e-14
-4e-07
-8e-07
-1e-06
-2e-06
2e-06
1e-06
8e-07
4e-07
2e-14
-4e-07
-8e-07
-1e-06
-2e-06
2e-06
1e-06
8e-07
4e-07
2e-14
-4e-07
-8e-07
-1e-06
-2e-06
2e-06
1e-06
8e-07
4e-07
2e-14
-4e-07
-8e-07
-1e-06
-2e-06
2e-06
1e-06
8e-07
4e-07
2e-14
-4e-07
-8e-07
-1e-06
-2e-06
2e-06
1e-06
8e-07
4e-07
2e-14
-4e-07
-8e-07
-1e-06
-2e-06
2e-06
1e-06
8e-07
4e-07
2e-14
-4e-07
-8e-07
-1e-06
-2e-06
2e-06
1e-06
8e-07
4e-07
2e-14
-4e-07
-8e-07
-1e-06
-2e-06
2e-06
1e-06
8e-07
4e-07
2e-14
-4e-07
-8e-07
-1e-06
-2e-06
2e-06
1e-06
8e-07
4e-07
2e-14
-4e-07
-8e-07
-1e-06
-2e-06
2e-06
1e-06
8e-07
4e-07
2e-14
-4e-07
-8e-07
-1e-06
-2e-06
2e-06
1e-06
8e-07
4e-07
2e-14
-4e-07
-8e-07
-1e-06
-2e-06
2e-06
1e-06
8e-07
4e-07
2e-14
-4e-07
-8e-07
-1e-06
-2e-06
2e-06
1e-06
8e-07
4e-07
2e-14
-4e-07
-8e-07
-1e-06
-2e-06
2e-06
1e-06
8e-07
4e-07
2e-14
-4e-07
-8e-07
-1e-06
-2e-06
2e-06
1e-06
8e-07
4e-07
2e-14
-4e-07
-8e-07
-1e-06
-2e-06
2e-06
1e-06
8e-07
4e-07
2e-14
-4e-07
-8e-07
-1e-06
-2e-06
2e-06
1e-06
8e-07
4e-07
2e-14
-4e-07
-8e-07
-1e-06
-2e-06
2e-06
1e-06
8e-07
4e-07
2e-14
-4e-07
-8e-07
-1e-06
-2e-06
2e-06
1e-06
8e-07
4e-07
2e-14
-4e-07
-8e-07
-1e-06
-2e-06
2e-06
1e-06
8e-07
4e-07
2e-14
-4e-07
-8e-07
-1e-06
-2e-06
2e-06
1e-06
8e-07
4e-07
2e-14
-4e-07
-8e-07
-1e-06
-2e-06
2e-06
1e-06
8e-07
4e-07
2e-14
-4e-07
-8e-07
-1e-06
-2e-06
2e-06
1e-06
8e-07
4e-07
2e-14
-4e-07
-8e-07
-1e-06
-2e-06
2e-06
1e-06
8e-07
4e-07
2e-14
-4e-07
-8e-07
-1e-06
-2e-06
2e-06
1e-06
8e-07
4e-07
2e-14
-4e-07
-8e-07
-1e-06
-2e-06
2e-06
1e-06
8e-07
4e-07
2e-14
-4e-07
-8e-07
-1e-06
-2e-06
2e-06
1e-06
8e-07
4e-07
2e-14
-4e-07
-8e-07
-1e-06
-2e-06
2e-06
1e-06
8e-07
4e-07
2e-14
-4e-07
-8e-07
-1e-06
-2e-06
2e-06
1e-06
8e-07
4e-07
2e-14
-4e-07
-8e-07
-1e-06
-2e-06
2e-06
1e-06
8e-07
4e-07
2e-14
-4e-07
-8e-07
-1e-06
-2e-06
2e-06
1e-06
8e-07
4e-07
2e-14
-4e-07
-8e-07
-1e-06
-2e-06
2e-06
1e-06
8e-07
4e-07
2e-14
-4e-07
-8e-07
-1e-06
-2e-06
2e-06
1e-06
8e-07
4e-07
2e-14
-4e-07
-8e-07
-1e-06
-2e-06
2e-06
1e-06
8e-07
4e-07
2e-14
-4e-07
-8e-07
-1e-06
-2e-06
2e-06
1e-06
8e-07
4e-07
2e-14
-4e-07
-8e-07
-1e-06
-2e-06
2e-06
1e-06
8e-07
4e-07
2e-14
-4e-07
-8e-07
-1e-06
-2e-06
2e-06
1e-06
8e-07
4e-07
2e-14
-4e-07
-8e-07
-1e-06
-2e-06
2e-06
1e-06
8e-07
4e-07
2e-14
-4e-07
-8e-07
-1e-06
-2e-06
2e-06
1e-06
8e-07
4e-07
2e-14
-4e-07
-8e-07
-1e-06
-2e-06
2e-06
1e-06
8e-07
4e-07
2e-14
-4e-07
-8e-07
-1e-06
-2e-06
2e-06
1e-06
8e-07
4e-07
2e-14
-4e-07
-8e-07
-1e-06
-2e-06
2e-06
1e-06
8e-07
4e-07
2e-14
-4e-07
-8e-07
-1e-06
-2e-06
2e-06
1e-06
8e-07
4e-07
2e-14
-4e-07
-8e-07
-1e-06
-2e-06
2e-06
1e-06
8e-07
4e-07
2e-14
-4e-07
-8e-07
-1e-06
-2e-06
2e-06
1e-06
8e-07
4e-07
2e-14
-4e-07
-8e-07
-1e-06
-2e-06
2e-06
1e-06
8e-07
4e-07
2e-14
-4e-07
-8e-07
-1e-06
-2e-06
2e-06
1e-06
8e-07
4e-07
2e-14
-4e-07
-8e-07
-1e-06
-2e-06
2e-06
1e-06
8e-07
4e-07
2e-14
-4e-07
-8e-07
-1e-06
-2e-06
2e-06
1e-06
8e-07
4e-07
2e-14
-4e-07
-8e-07
-1e-06
-2e-06
2e-06
1e-06
8e-07
4e-07
2e-14
-4e-07
-8e-07
-1e-06
-2e-06
2e-06
1e-06
8e-07
4e-07
2e-14
-4e-07
-8e-07
-1e-06
-2e-06
2e-06
1e-06
8e-07
4e-07
2e-14
-4e-07
-8e-07
-1e-06
-2e-06
2e-06
1e-06
8e-07
4e-07
2e-14
-4e-07
-8e-07
-1e-06
-2e-06
2e-06
1e-06
8e-07
4e-07
2e-14
-4e-07
-8e-07
-1e-06
-2e-06
2e-06
1e-06
8e-07
4e-07
2e-14
-4e-07
-8e-07
-1e-06
-2e-06
2e-06
1e-06
8e-07
4e-07
2e-14
-4e-07
-8e-07
-1e-06
-2e-06
2e-06
1e-06
8e-07
4e-07
2e-14
-4e-07
-8e-07
-1e-06
-2e-06
2e-06
1e-06
8e-07
4e-07
2e-14
-4e-07
-8e-07
-1e-06
-2e-06
2e-06
1e-06
8e-07
4e-07
2e-14
-4e-07
-8e-07
-1e-06
-2e-06
2e-06
1e-06
8e-07
4e-07
2e-14
-4e-07
-8e-07
-1e-06
-2e-06
2e-06
1e-06
8e-07
4e-07
2e-14
-4e-07
-8e-07
-1e-06
-2e-06
2e-06
1e-06
8e-07
4e-07
2e-14
-4e-07
-8e-07
-1e-06
-2e-06
2e-06
1e-06
8e-07
4e-07
2e-14
-4e-07
-8e-07
-1e-06
-2e-06
2e-06
1e-06
8e-07
4e-07
2e-14
-4e-07
-8e-07
-1e-06
-2e-06
2e-06
1e-06
8e-07
4e-07
2e-14
-4e-07
-8e-07
-1e-06
-2e-06
2e-06
1e-06
8e-07
4e-07
2e-14
-4e-07
-8e-07
-1e-06
-2e-06
2e-06
1e-06
8e-07
4e-07
2e-14
-4e-07
-8e-07
-1e-06
-2e-06
2e-06
1e-06
8e-07
4e-07
2e-14
-4e-07
-8e-07
-1e-06
-2e-06
2e-06
1e-06
8e-07
4e-07
2e-14
-4e-07
-8e-07
-1e-06
-2e-06
SCALARS u2 float
LOOKUP_TABLE default
2e-18
-0.0005
-0.0005
-0.0005
-0.0005
-0.0005
-0.0005
-0.0005
-0.0005
-0.0004
-0.0004
-0.0004
-0.0004
-0.0004
-0.0004
-0.0004
-0.0004
-0.0004
-0.0004
-0.0004
-0.0004
-0.0004
-0.0004
-0.0004
-0.0004
-0.0003
-0.0003
-0.0003
-0.0003
-0.0003
-0.0003
-0.0003
-0.0003
-0.0003
-0.0003
-0.0003
-0.0003
-0.0003
-0.0003
-0.0003
-0.0003
-0.0002
-0.0002
-0.0002
-0.0002
-0.0002
-0.0002
-0.0002
-0.0002
-0.0002
-0.0002
-0.0002
-0.0002
-0.0002
-0.0002
-0.0002
-0.0002
-0.0001
-0.0001
-0.0001
-0.0001
-0.0001
-0.0001
-0.0001
-0.0001
-0.0001
-9e-05
-9e-05
-8e-05
-7e-05
-7e-05
-6e-05
-6e-05
-5e-05
-4e-05
-4e-05
-3e-05
-2e-05
-2e-05
-1e-05
-7e-06
-0.0005
-6e-18
-7e-06
-1e-05
-2e-05
-2e-05
-3e-05
-4e-05
-4e-05
-5e-05
-6e-05
-6e-05
-7e-05
-7e-05
-8e-05
-9e-05
-9e-05
-0.0001
-0.0001
-0.0001
-0.0001
-0.0001
-0.0001
-0.0001
-0.0001
-0.0001
-0.0002
-0.0002
-0.0002
-0.0002
-0.0002
-0.0002
-0.0002
-0.0002
-0.0002
-0.0002
-0.0002
-0.0002
-0.0002
-0.0002
-0.0002
-0.0002
-0.0003
-0.0003
-0.0003
-0.0003
-0.0003
-0.0003
-0.0003
-0.0003
-0.0003
-0.0003
-0.0003
-0.0003
-0.0003
-0.0003
-0.0003
-0.0003
-0.0004
-0.0004
-0.0004
-0.0004
-0.0004
-0.0004
-0.0004
-0.0004
-0.0004
-0.0004
-0.0004
-0.0004
-0.0004
-0.0004
-0.0004
-0.0004
-0.0005
-0.0005
-0.0005
-0.0005
-0.0005
-0.0005
-0.0005
-0.0005
-0.0005
-0.0005
-0.0005
-0.0005
-0.0005
-0.0005
-0.0005
-0.0005
-8e-17
-4e-17
7e-17
1e-17
-1e-17
3e-18
-2e-17
7e-17
2e-17
-6e-06
-6e-06
-6e-06
-6e-06
-6e-06
-6e-06
-6e-06
-6e-06
-6e-06
-1e-05
-1e-05
-1e-05
-1e-05
-1e-05
-1e-05
-1e-05
-1e-05
-1e-05
-2e-05
-2e-05
-2e-05
-2e-05
-2e-05
-2e-05
-2e-05
-2e-05
-2e-05
-2e-05
-2e-05
-2e-05
-2e-05
-2e-05
-2e-05
-2e-05
-2e-05
-2e-05
-3e-05
-3e-05
-3e-05
-3e-05
-3e-05
-3e-05
-3e-05
-3e-05
-3e-05
-4e-05
-4e-05
-4e-05
-4e-05
-4e-05
-4e-05
-4e-05
-4e-05
-4e-05
-4e-05
-4e-05
-4e-05
-4e-05
-4e-05
-4e-05
-4e-05
-4e-05
-4e-05
-5e-05
-5e-05
-5e-05
-5e-05
-5e-05
-5e-05
-5e-05
-5e-05
-5e-05
-6e-05
-6e-05
-6e-05
-6e-05
-6e-05
-6e-05
-6e-05
-6e-05
-6e-05
-6e-05
-6e-05
-6e-05
-6e-05
-6e-05
-6e-05
-6e-05
-6e-05
-6e-05
-7e-05
-7e-05
-7e-05
-7e-05
-7e-05
-7e-05
-7e-05
-7e-05
-7e-05
-7e-05
-7e-05
-7e-05
-7e-05
-7e-05
-7e-05
-7e-05
-7e-05
-7e-05
-8e-05
-8e-05
-8e-05
-8e-05
-8e-05
-8e-05
-8e-05
-8e-05
-8e-05
-9e-05
-9e-05
-9e-05
-9e-05
-9e-05
-9e-05
-9e-05
-9e-05
-9e-05
-9e-05
-9e-05
-9e-05
-9e-05
-9e-05
-9e-05
-9e-05
-9e-05
-9e-05
-0.0001
-0.0001
-0.0001
-0.0001
-0.0001
-0.0001
-0.0001
-0.0001
-0.0001
-0.0001
-0.0001
-0.0001
-0.0001
-0.0001
-0.0001
-0.0001
-0.0001
-0.0001
-0.0001
-0.0001
-0.0001
-0.0001
-0.0001
-0.0001
-0.0001
-0.0001
-0.0001
-0.0001
-0.0001
-0.0001
-0.0001
-0.0001
-0.0001
-0.0001
-0.0001
-0.0001
-0.0001
-0.0001
-0.0001
-0.0001
-0.0001
-0.0001
-0.0001
-0.0001
-0.0001
-0.0001
-0.0001
-0.0001
-0.0001
-0.0001
-0.0001
-0.0001
-0.0001
-0.0001
-0.0001
-0.0001
-0.0001
-0.0001
-0.0001
-0.0001
-0.0001
-0.0001
-0.0001
-0.0001
-0.0001
-0.0001
-0.0001
-0.0001
-0.0001
-0.0001
-0.0001
-0.0001
-0.0001
-0.0001
-0.0001
-0.0001
-0.0001
-0.0001
-0.0001
-0.0001
-0.0001
-0.0002
-0.0002
-0.0002
-0.0002
-0.0002
-0.0002
-0.0002
-0.0002
-0.0002
-0.0002
-0.0002
-0.0002
-0.0002
-0.0002
-0.0002
-0.0002
-0.0002
-0.0002
-0.0002
-0.0002
-0.0002
-0.0002
-0.0002
-0.0002
-0.0002
-0.0002
-0.0002
-0.0002
-0.0002
-0.0002
-0.0002
-0.0002
-0.0002
-0.0002
-0.0002
-0.0002
-0.0002
-0.0002
-0.0002
-0.0002
-0.0002
-0.0002
-0.0002
-0.0002
-0.0002
-0.0002
-0.0002
-0.0002
-0.0002
-0.0002
-0.0002
-0.0002
-0.0002
-0.0002
-0.0002
-0.0002
-0.0002
-0.0002
-0.0002
-0.0002
-0.0002
-0.0002
-0.0002
-0.0002
-0.0002
-0.0002
-0.0002
-0.0002
-0.0002
-0.0002
-0.0002
-0.0002
-0.0002
-0.0002
-0.0002
-0.0002
-0.0002
-0.0002
-0.0002
-0.0002
-0.0002
-0.0002
-0.0002
-0.0002
-0.0002
-0.0002
-0.0002
-0.0002
-0.0002
-0.0002
-0.0002
-0.0002
-0.0002
-0.0002
-0.0002
-0.0002
-0.0002
-0.0002
-0.0002
-0.0002
-0.0002
-0.0002
-0.0002
-0.0002
-0.0002
-0.0002
-0.0002
-0.0002
-0.0002
-0.0002
-0.0002
-0.0002
-0.0002
-0.0002
-0.0002
-0.0002
-0.0002
-0.0002
-0.0002
-0.0002
-0.0002
-0.0002
-0.0002
-0.0002
-0.0002
-0.0002
-0.0002
-0.0002
-0.0002
-0.0002
-0.0002
-0.0002
-0.0002
-0.0002
-0.0002
-0.0002
-0.0002
-0.0002
-0.0002
-0.0002
-0.0002
-0.0002
-0.0002
-0.0002
-0.0003
-0.0003
-0.0003
-0.0003
-0.0003
-0.0003
-0.0003
-0.0003
-0.0003
-0.0003
-0.0003
-0.0003
-0.0003
-0.0003
-0.0003
-0.0003
-0.0003
-0.0003
-0.0003
-0.0003
-0.0003
-0.0003
-0.0003
-0.0003
-0.0003
-0.0003
-0.0003
-0.0003
-0.0003
-0.0003
-0.0003
-0.0003
-0.0003
-0.0003
-0.0003
-0.0003
-0.0003
-0.0003
-0.0003
-0.0003
-0.0003
-0.0003
-0.0003
-0.0003
-0.0003
-0.0003
-0.0003
-0.0003
-0.0003
-0.0003
-0.0003
-0.0003
-0.0003
-0.0003
-0.0003
-0.0003
-0.0003
-0.0003
-0.0003
-0.0003
-0.0003
-0.0003
-0.0003
-0.0003
-0.0003
-0.0003
-0.0003
-0.0003
-0.0003
-0.0003
-0.0003
-0.0003
-0.0003
-0.0003
-0.0003
-0.0003
-0.0003
-0.0003
-0.0003
-0.0003
-0.0003
-0.0003
-0.0003
-0.0003
-0.0003
-0.0003
-0.0003
-0.0003
-0.0003
-0.0003
-0.0003
-0.0003
-0.0003
-0.0003
-0.0003
-0.0003
-0.0003
-0.0003
-0.0003
-0.0003
-0.0003
-0.0003
-0.0003
-0.0003
-0.0003
-0.0003
-0.0003
-0.0003
-0.0003
-0.0003
-0.0003
-0.0003
-0.0003
-0.0003
-0.0003
-0.0003
-0.0003
-0.0003
-0.0003
-0.0003
-0.0003
-0.0003
-0.0003
-0.0003
-0.0003
-0.0003
-0.0003
-0.0003
-0.0003
-0.0003
-0.0003
-0.0003
-0.0003
-0.0003
-0.0003
-0.0003
-0.0003
-0.0003
-0.0003
-0.0003
-0.0003
-0.0003
-0.0003
-0.0003
-0.0004
-0.0004
-0.0004
-0.0004
-0.0004
-0.0004
-0.0004
-0.0004
-0.0004
-0.0004
-0.0004
-0.0004
-0.0004
-0.0004
-0.0004
-0.0004
-0.0004
-0.0004
-0.0004
-0.0004
-0.0004
-0.0004
-0.0004
-0.0004
-0.0004
-0.0004
-0.0004
-0.0004
-0.0004
-0.0004
-0.0004
-0.0004
-0.0004
-0.0004
-0.0004
-0.0004
-0.0004
-0.0004
-0.0004
-0.0004
-0.0004
-0.0004
-0.0004
-0.0004
-0.0004
-0.0004
-0.0004
-0.0004
-0.0004
-0.0004
-0.0004
-0.0004
-0.0004
-0.0004
-0.0004
-0.0004
-0.0004
-0.0004
-0.0004
-0.0004
-0.0004
-0.0004
-0.0004
-0.0004
-0.0004
-0.0004
-0.0004
-0.0004
-0.0004
-0.0004
-0.0004
-0.0004
-0.0004
-0.0004
-0.0004
-0.0004
-0.0004
-0.0004
-0.0004
-0.0004
-0.0004
-0.0004
-0.0004
-0.0004
-0.0004
-0.0004
-0.0004
-0.0004
-0.0004
-0.0004
-0.0004
-0.0004
-0.0004
-0.0004
-0.0004
-0.0004
-0.0004
-0.0004
-0.0004
-0.0004
-0.0004
-0.0004
-0.0004
-0.0004
-0.0004
-0.0004
-0.0004
-0.0004
-0.0004
-0.0004
-0.0004
-0.0004
-0.0004
-0.0004
-0.0004
-0.0004
-0.0004
-0.0004
-0.0004
-0.0004
-0.0004
-0.0004
-0.0004
-0.0004
-0.0004
-0.0004
-0.0004
-0.0004
-0.0004
-0.0004
-0.0004
-0.0004
-0.0004
-0.0004
-0.0004
-0.0004
-0.0004
-0.0004
-0.0004
-0.0004
-0.0004
-0.0004
-0.0004
-0.0004
-0.0005
-0.0005
-0.0005
-0.0005
-0.0005
-0.0005
-0.0005
-0.0005
-0.0005
-0.0005
-0.0005
-0.0005
-0.0005
-0.0005
-0.0005
-0.0005
-0.0005
-0.0005
-0.0005
-0.0005
-0.0005
-0.0005
-0.0005
-0.0005
-0.0005
-0.0005
-0.0005
-0.0005
-0.0005
-0.0005
-0.0005
-0.0005
-0.0005
-0.0005
-0.0005
-0.0005
-0.0005
-0.0005
-0.0005
-0.0005
-0.0005
-0.0005
-0.0005
-0.0005
-0.0005
-0.0005
-0.0005
-0.0005
-0.0005
-0.0005
-0.0005
-0.0005
-0.0005
-0.0005
-0.0005
-0.0005
-0.0005
-0.0005
-0.0005
-0.0005
-0.0005
-0.0005
-0.0005
SCALARS strain_1 float
LOOKUP_TABLE default
-0.000138
-0.220349
-0.217017
-0.213668
-0.210304
-0.206924
-0.203529
-0.200121
-0.196700
-0.193268
-0.189824
-0.186371
-0.182909
-0.179437
-0.175960
-0.172476
-0.168987
-0.165493
-0.161999
-0.158503
-0.155006
-0.151510
-0.148017
-0.144527
-0.141042
-0.137564
-0.134094
-0.130634
-0.127184
-0.123747
-0.120323
-0.116915
-0.113524
-0.110151
-0.106798
-0.103468
-0.100161
-0.096879
-0.093623
-0.090397
-0.087201
-0.084036
-0.080905
-0.077810
-0.074751
-0.071731
-0.068751
-0.065813
-0.062918
-0.060069
-0.057267
-0.054513
-0.051809
-0.049156
-0.046557
-0.044011
-0.041522
-0.039089
-0.036714
-0.034399
-0.032146
-0.029953
-0.027824
-0.025758
-0.023758
-0.021823
-0.019954
-0.018153
-0.016419
-0.014753
-0.013157
-0.011628
-0.010169
-0.008780
-0.007459
-0.006208
-0.005026
-0.003913
-0.002868
-0.001891
-0.000981
-0.220545
-0.000005
-0.000851
-0.001762
-0.002742
-0.003790
-0.004907
-0.006091
-0.007346
-0.008670
-0.010063
-0.011526
-0.013057
-0.014658
-0.016328
-0.018066
-0.019871
-0.021744
-0.023684
-0.025689
-0.027758
-0.029892
-0.032089
-0.034348
-0.036667
-0.039047
-0.041485
-0.043979
-0.046530
-0.049135
-0.051793
-0.054502
-0.057261
-0.060068
-0.062922
-0.065822
-0.068766
-0.071751
-0.074775
-0.077840
-0.080941
-0.084076
-0.087246
-0.090447
-0.093679
-0.096939
-0.100226
-0.103538
-0.106873
-0.110230
-0.113607
-0.117004
-0.120417
-0.123844
-0.127286
-0.130740
-0.134206
-0.137681
-0.141162
-0.144651
-0.148145
-0.151642
-0.155141
-0.158642
-0.162143
-0.165642
-0.169138
-0.172630
-0.176118
-0.179599
-0.183073
-0.186539
-0.189996
-0.193442
-0.196878
-0.200302
-0.203713
-0.207110
-0.210492
-0.213859
-0.217210
-0.220526
-0.220508
-0.220489
-0.220469
-0.220450
-0.220431
-0.220410
-0.220390
-0.220370
-0.000112
-0.000088
-0.000069
-0.000050
-0.000037
-0.000024
-0.000015
-0.000009
-0.000006
-0.000851
-0.000853
-0.000859
-0.000868
-0.000879
-0.000895
-0.000912
-0.000932
-0.000956
-0.001763
-0.001765
-0.001771
-0.001779
-0.001790
-0.001805
-0.001822
-0.001842
-0.001865
-0.002742
-0.002744
-0.002749
-0.002757
-0.002768
-0.002782
-0.002799
-0.002820
-0.002842
-0.003789
-0.003791
-0.003796
-0.003804
-0.003814
-0.003828
-0.003845
-0.003865
-0.003887
-0.004905
-0.004906
-0.004911
-0.004919
-0.004929
-0.004943
-0.004959
-0.004979
-0.005001
-0.006089
-0.006091
-0.006095
-0.006103
-0.006113
-0.006126
-0.006142
-0.006161
-0.006183
-0.007344
-0.007345
-0.007349
-0.007356
-0.007365
-0.007378
-0.007395
-0.007412
-0.007435
-0.008667
-0.008668
-0.008671
-0.008678
-0.008688
-0.008700
-0.008715
-0.008734
-0.008756
-0.010060
-0.010060
-0.010064
-0.010070
-0.010078
-0.010091
-0.010106
-0.010125
-0.010145
-0.011523
-0.011522
-0.011525
-0.011531
-0.011540
-0.011552
-0.011566
-0.011584
-0.011605
-0.013054
-0.013054
-0.013056
-0.013062
-0.013070
-0.013081
-0.013095
-0.013113
-0.013133
-0.014654
-0.014653
-0.014656
-0.014661
-0.014668
-0.014679
-0.014694
-0.014710
-0.014730
-0.016324
-0.016322
-0.016324
-0.016329
-0.016336
-0.016348
-0.016361
-0.016377
-0.016397
-0.018061
-0.018060
-0.018061
-0.018065
-0.018072
-0.018084
-0.018096
-0.018112
-0.018132
-0.019867
-0.019865
-0.019866
-0.019869
-0.019876
-0.019886
-0.019900
-0.019914
-0.019933
-0.021739
-0.021736
-0.021738
-0.021741
-0.021747
-0.021757
-0.021769
-0.021784
-0.021803
-0.023678
-0.023675
-0.023675
-0.023679
-0.023685
-0.023694
-0.023705
-0.023720
-0.023738
-0.025683
-0.025679
-0.025679
-0.025682
-0.025688
-0.025696
-0.025708
-0.025722
-0.025739
-0.027753
-0.027749
-0.027748
-0.027751
-0.027756
-0.027764
-0.027775
-0.027789
-0.027805
-0.029885
-0.029882
-0.029882
-0.029884
-0.029888
-0.029896
-0.029905
-0.029919
-0.029935
-0.032083
-0.032078
-0.032077
-0.032079
-0.032083
-0.032090
-0.032100
-0.032113
-0.032127
-0.034341
-0.034337
-0.034335
-0.034336
-0.034340
-0.034346
-0.034356
-0.034368
-0.034382
-0.036660
-0.036656
-0.036653
-0.036654
-0.036658
-0.036663
-0.036672
-0.036683
-0.036698
-0.039039
-0.039034
-0.039031
-0.039032
-0.039035
-0.039040
-0.039048
-0.039059
-0.039073
-0.041477
-0.041471
-0.041468
-0.041468
-0.041471
-0.041475
-0.041483
-0.041494
-0.041506
-0.043971
-0.043965
-0.043962
-0.043961
-0.043963
-0.043969
-0.043975
-0.043985
-0.043997
-0.046521
-0.046514
-0.046511
-0.046510
-0.046512
-0.046515
-0.046522
-0.046531
-0.046543
-0.049125
-0.049119
-0.049115
-0.049114
-0.049114
-0.049118
-0.049123
-0.049133
-0.049143
-0.051783
-0.051776
-0.051771
-0.051770
-0.051771
-0.051773
-0.051779
-0.051787
-0.051797
-0.054492
-0.054484
-0.054479
-0.054477
-0.054478
-0.054480
-0.054485
-0.054491
-0.054502
-0.057251
-0.057243
-0.057238
-0.057235
-0.057235
-0.057236
-0.057241
-0.057247
-0.057257
-0.060058
-0.060050
-0.060045
-0.060041
-0.060040
-0.060041
-0.060045
-0.060051
-0.060059
-0.062912
-0.062903
-0.062898
-0.062894
-0.062892
-0.062893
-0.062896
-0.062903
-0.062910
-0.065812
-0.065803
-0.065796
-0.065792
-0.065790
-0.065790
-0.065792
-0.065797
-0.065804
-0.068754
-0.068745
-0.068738
-0.068733
-0.068731
-0.068730
-0.068733
-0.068737
-0.068743
-0.071739
-0.071730
-0.071723
-0.071717
-0.071714
-0.071713
-0.071715
-0.071718
-0.071724
-0.074764
-0.074754
-0.074746
-0.074742
-0.074737
-0.074736
-0.074737
-0.074740
-0.074744
-0.077827
-0.077818
-0.077810
-0.077803
-0.077800
-0.077798
-0.077797
-0.077799
-0.077804
-0.080928
-0.080917
-0.080910
-0.080903
-0.080898
-0.080896
-0.080895
-0.080897
-0.080900
-0.084064
-0.084053
-0.084045
-0.084038
-0.084033
-0.084030
-0.084028
-0.084029
-0.084032
-0.087233
-0.087222
-0.087213
-0.087206
-0.087201
-0.087197
-0.087195
-0.087196
-0.087197
-0.090434
-0.090423
-0.090414
-0.090406
-0.090399
-0.090396
-0.090393
-0.090393
-0.090394
-0.093665
-0.093654
-0.093645
-0.093637
-0.093630
-0.093625
-0.093622
-0.093621
-0.093621
-0.096926
-0.096914
-0.096903
-0.096895
-0.096888
-0.096883
-0.096880
-0.096878
-0.096878
-0.100212
-0.100200
-0.100190
-0.100180
-0.100172
-0.100168
-0.100164
-0.100161
-0.100160
-0.103524
-0.103511
-0.103500
-0.103491
-0.103483
-0.103478
-0.103473
-0.103469
-0.103468
-0.106859
-0.106846
-0.106835
-0.106826
-0.106817
-0.106810
-0.106805
-0.106801
-0.106799
-0.110216
-0.110202
-0.110191
-0.110181
-0.110172
-0.110165
-0.110159
-0.110156
-0.110152
-0.113593
-0.113580
-0.113568
-0.113558
-0.113548
-0.113540
-0.113534
-0.113529
-0.113525
-0.116989
-0.116975
-0.116963
-0.116952
-0.116943
-0.116934
-0.116928
-0.116921
-0.116917
-0.120401
-0.120387
-0.120375
-0.120364
-0.120354
-0.120345
-0.120337
-0.120332
-0.120326
-0.123829
-0.123815
-0.123803
-0.123791
-0.123781
-0.123771
-0.123763
-0.123756
-0.123751
-0.127271
-0.127257
-0.127243
-0.127232
-0.127221
-0.127211
-0.127203
-0.127195
-0.127189
-0.130725
-0.130711
-0.130697
-0.130686
-0.130674
-0.130664
-0.130654
-0.130647
-0.130639
-0.134190
-0.134175
-0.134162
-0.134149
-0.134137
-0.134126
-0.134117
-0.134109
-0.134101
-0.137665
-0.137649
-0.137636
-0.137622
-0.137611
-0.137599
-0.137589
-0.137580
-0.137572
-0.141146
-0.141131
-0.141117
-0.141104
-0.141091
-0.141079
-0.141069
-0.141060
-0.141051
-0.144635
-0.144619
-0.144606
-0.144591
-0.144578
-0.144567
-0.144555
-0.144545
-0.144535
-0.148129
-0.148113
-0.148099
-0.148084
-0.148070
-0.148059
-0.148047
-0.148036
-0.148026
-0.151626
-0.151610
-0.151594
-0.151580
-0.151567
-0.151554
-0.151542
-0.151531
-0.151520
-0.155125
-0.155109
-0.155094
-0.155080
-0.155065
-0.155052
-0.155040
-0.155027
-0.155016
-0.158625
-0.158610
-0.158593
-0.158578
-0.158565
-0.158551
-0.158538
-0.158525
-0.158513
-0.162127
-0.162109
-0.162093
-0.162079
-0.162064
-0.162050
-0.162036
-0.162024
-0.162011
-0.165624
-0.165608
-0.165592
-0.165577
-0.165562
-0.165547
-0.165533
-0.165520
-0.165506
-0.169121
-0.169104
-0.169088
-0.169072
-0.169057
-0.169041
-0.169027
-0.169013
-0.168999
-0.172613
-0.172596
-0.172580
-0.172564
-0.172548
-0.172532
-0.172518
-0.172504
-0.172490
-0.176101
-0.176083
-0.176067
-0.176051
-0.176034
-0.176019
-0.176003
-0.175988
-0.175974
-0.179582
-0.179564
-0.179548
-0.179531
-0.179515
-0.179499
-0.179483
-0.179468
-0.179453
-0.183055
-0.183038
-0.183021
-0.183005
-0.182987
-0.182971
-0.182956
-0.182939
-0.182924
-0.186522
-0.186504
-0.186487
-0.186469
-0.186454
-0.186437
-0.186419
-0.186403
-0.186388
-0.189978
-0.189961
-0.189943
-0.189925
-0.189909
-0.189892
-0.189874
-0.189857
-0.189842
-0.193424
-0.193407
-0.193390
-0.193371
-0.193354
-0.193337
-0.193320
-0.193302
-0.193285
-0.196860
-0.196842
-0.196825
-0.196807
-0.196789
-0.196772
-0.196753
-0.196736
-0.196719
-0.200283
-0.200266
-0.200247
-0.200230
-0.200212
-0.200193
-0.200176
-0.200157
-0.200140
-0.203695
-0.203676
-0.203658
-0.203640
-0.203621
-0.203603
-0.203585
-0.203566
-0.203548
-0.207091
-0.207073
-0.207054
-0.207036
-0.207018
-0.207000
-0.206980
-0.206962
-0.206943
-0.210474
-0.210455
-0.210437
-0.210418
-0.210400
-0.210380
-0.210361
-0.210342
-0.210323
-0.213841
-0.213822
-0.213804
-0.213785
-0.213765
-0.213747
-0.213727
-0.213708
-0.213689
-0.217192
-0.217173
-0.217155
-0.217136
-0.217116
-0.217096
-0.217077
-0.217058
-0.217037
SCALARS strain_2 float
LOOKUP_TABLE default
0.002554
0.001411
0.001411
0.001410
0.001410
0.001412
0.001412
0.001414
0.001412
0.001411
0.001416
0.001416
0.001418
0.001422
0.001422
0.001423
0.001429
0.001430
0.001432
0.001435
0.001444
0.001445
0.001448
0.001454
0.001458
0.001464
0.001470
0.001477
0.001481
0.001492
0.001494
0.001504
0.001509
0.001523
0.001527
0.001541
0.001548
0.001560
0.001568
0.001581
0.001592
0.001606
0.001616
0.001632
0.001644
0.001660
0.001672
0.001687
0.001708
0.001722
0.001741
0.001756
0.001775
0.001796
0.001811
0.001840
0.001856
0.001877
0.001899
0.001918
0.001942
0.001965
0.001994
0.002015
0.002045
0.002068
0.002098
0.002120
0.002152
0.002177
0.002209
0.002234
0.002266
0.002297
0.002324
0.002358
0.002391
0.002424
0.002452
0.002487
0.002519
0.005204
0.005277
0.005278
0.005283
0.005287
0.005291
0.005295
0.005296
0.005302
0.005300
0.005305
0.005312
0.005311
0.005318
0.005318
0.005325
0.005325
0.005324
0.005331
0.005331
0.005329
0.005337
0.005338
0.005343
0.005344
0.005345
0.005349
0.005347
0.005352
0.005347
0.005352
0.005351
0.005355
0.005354
0.005350
0.005355
0.005354
0.005355
0.005356
0.005355
0.005353
0.005355
0.005355
0.005353
0.005352
0.005351
0.005351
0.005354
0.005343
0.005344
0.005345
0.005341
0.005342
0.005339
0.005333
0.005335
0.005331
0.005324
0.005323
0.005317
0.005314
0.005313
0.005311
0.005307
0.005305
0.005297
0.005294
0.005284
0.005281
0.005277
0.005271
0.005266
0.005264
0.005254
0.005250
0.005240
0.005237
0.005232
0.005224
0.005218
0.005208
0.004827
0.004443
0.004068
0.003689
0.003308
0.002925
0.002549
0.002171
0.001791
0.002826
0.003101
0.003373
0.003646
0.003914
0.004191
0.004459
0.004732
0.005001
0.005002
0.004727
0.004452
0.004177
0.003903
0.003623
0.003349
0.003070
0.002797
0.005002
0.004722
0.004443
0.004162
0.003886
0.003607
0.003322
0.003047
0.002764
0.005005
0.004719
0.004438
0.004153
0.003871
0.003587
0.003304
0.003021
0.002738
0.005007
0.004717
0.004431
0.004144
0.003855
0.003570
0.003281
0.002993
0.002712
0.005004
0.004712
0.004424
0.004131
0.003839
0.003554
0.003260
0.002969
0.002678
0.005001
0.004711
0.004415
0.004120
0.003831
0.003531
0.003240
0.002944
0.002649
0.005004
0.004706
0.004406
0.004110
0.003812
0.003517
0.003216
0.002919
0.002622
0.005003
0.004702
0.004400
0.004100
0.003798
0.003499
0.003196
0.002897
0.002596
0.005001
0.004701
0.004396
0.004088
0.003789
0.003480
0.003178
0.002874
0.002569
0.005004
0.004697
0.004387
0.004078
0.003775
0.003467
0.003161
0.002852
0.002543
0.005002
0.004691
0.004382
0.004070
0.003757
0.003447
0.003135
0.002831
0.002516
0.004998
0.004689
0.004376
0.004061
0.003749
0.003432
0.003122
0.002806
0.002491
0.004997
0.004688
0.004370
0.004049
0.003733
0.003416
0.003100
0.002783
0.002463
0.005003
0.004685
0.004360
0.004043
0.003722
0.003403
0.003080
0.002763
0.002437
0.005004
0.004681
0.004353
0.004033
0.003707
0.003386
0.003063
0.002741
0.002414
0.005002
0.004677
0.004355
0.004024
0.003695
0.003370
0.003044
0.002718
0.002394
0.005001
0.004672
0.004343
0.004014
0.003685
0.003359
0.003029
0.002702
0.002371
0.005000
0.004668
0.004340
0.004004
0.003676
0.003339
0.003009
0.002678
0.002345
0.005007
0.004662
0.004331
0.003999
0.003665
0.003330
0.002996
0.002661
0.002326
0.004999
0.004667
0.004329
0.003992
0.003651
0.003314
0.002977
0.002643
0.002302
0.005000
0.004661
0.004326
0.003982
0.003642
0.003301
0.002962
0.002625
0.002280
0.004997
0.004661
0.004317
0.003978
0.003629
0.003290
0.002946
0.002606
0.002261
0.005001
0.004653
0.004311
0.003963
0.003623
0.003277
0.002933
0.002592
0.002242
0.004999
0.004648
0.004303
0.003955
0.003610
0.003265
0.002916
0.002570
0.002223
0.004998
0.004651
0.004293
0.003951
0.003604
0.003255
0.002903
0.002558
0.002203
0.004996
0.004642
0.004290
0.003943
0.003592
0.003241
0.002890
0.002534
0.002193
0.004993
0.004644
0.004289
0.003940
0.003580
0.003231
0.002873
0.002526
0.002168
0.004994
0.004640
0.004286
0.003929
0.003573
0.003219
0.002862
0.002506
0.002151
0.004995
0.004638
0.004278
0.003922
0.003567
0.003211
0.002849
0.002492
0.002133
0.004996
0.004632
0.004275
0.003916
0.003557
0.003197
0.002839
0.002477
0.002115
0.004993
0.004632
0.004274
0.003908
0.003548
0.003182
0.002821
0.002462
0.002102
0.004994
0.004629
0.004265
0.003903
0.003535
0.003177
0.002816
0.002449
0.002085
0.004993
0.004624
0.004261
0.003893
0.003533
0.003163
0.002801
0.002437
0.002071
0.004993
0.004622
0.004258
0.003890
0.003526
0.003159
0.002792
0.002426
0.002054
0.004992
0.004620
0.004256
0.003884
0.003520
0.003147
0.002780
0.002416
0.002041
0.004986
0.004617
0.004249
0.003876
0.003506
0.003138
0.002769
0.002396
0.002031
0.004987
0.004616
0.004243
0.003870
0.003500
0.003130
0.002760
0.002387
0.002017
0.004985
0.004614
0.004238
0.003867
0.003496
0.003120
0.002748
0.002379
0.002004
0.004982
0.004612
0.004236
0.003860
0.003488
0.003110
0.002741
0.002368
0.001994
0.004985
0.004607
0.004232
0.003855
0.003479
0.003106
0.002729
0.002356
0.001980
0.004978
0.004605
0.004228
0.003851
0.003474
0.003098
0.002720
0.002344
0.001967
0.004976
0.004600
0.004221
0.003845
0.003469
0.003093
0.002714
0.002335
0.001962
0.004973
0.004597
0.004219
0.003842
0.003461
0.003082
0.002704
0.002328
0.001947
0.004971
0.004594
0.004213
0.003834
0.003457
0.003075
0.002696
0.002319
0.001937
0.004970
0.004588
0.004213
0.003833
0.003450
0.003073
0.002691
0.002306
0.001928
0.004969
0.004588
0.004207
0.003829
0.003446
0.003061
0.002682
0.002301
0.001915
0.004967
0.004586
0.004203
0.003823
0.003439
0.003061
0.002676
0.002295
0.001906
0.004966
0.004580
0.004201
0.003816
0.003434
0.003049
0.002665
0.002287
0.001899
0.004963
0.004578
0.004198
0.003812
0.003428
0.003045
0.002664
0.002281
0.001894
0.004960
0.004576
0.004194
0.003805
0.003424
0.003041
0.002654
0.002275
0.001887
0.004961
0.004575
0.004188
0.003799
0.003414
0.003033
0.002652
0.002267
0.001879
0.004954
0.004570
0.004185
0.003800
0.003414
0.003028
0.002646
0.002257
0.001871
0.004951
0.004568
0.004179
0.003795
0.003406
0.003025
0.002639
0.002257
0.001868
0.004947
0.004564
0.004177
0.003794
0.003401
0.003018
0.002633
0.002248
0.001863
0.004946
0.004552
0.004173
0.003786
0.003401
0.003013
0.002628
0.002243
0.001856
0.004938
0.004555
0.004169
0.003783
0.003393
0.003009
0.002621
0.002236
0.001853
0.004938
0.004553
0.004163
0.003773
0.003393
0.003005
0.002620
0.002230
0.001849
0.004933
0.004546
0.004161
0.003770
0.003386
0.003001
0.002610
0.002227
0.001839
0.004929
0.004541
0.004157
0.003767
0.003383
0.002995
0.002608
0.002219
0.001834
0.004925
0.004539
0.004152
0.003763
0.003383
0.002995
0.002605
0.002218
0.001833
0.004924
0.004538
0.004152
0.003762
0.003378
0.002989
0.002599
0.002213
0.001826
0.004918
0.004532
0.004146
0.003759
0.003368
0.002987
0.002598
0.002212
0.001822
0.004913
0.004529
0.004141
0.003756
0.003369
0.002980
0.002598
0.002208
0.001820
0.004910
0.004522
0.004134
0.003753
0.003363
0.002974
0.002591
0.002206
0.001818
0.004908
0.004522
0.004130
0.003751
0.003363
0.002975
0.002588
0.002200
0.001814
0.004900
0.004516
0.004132
0.003741
0.003358
0.002971
0.002587
0.002199
0.001808
0.004899
0.004507
0.004124
0.003735
0.003350
0.002968
0.002577
0.002193
0.001810
0.004897
0.004506
0.004120
0.003733
0.003351
0.002961
0.002575
0.002190
0.001807
0.004887
0.004502
0.004118
0.003734
0.003345
0.002959
0.002575
0.002190
0.001801
0.004880
0.004496
0.004108
0.003729
0.003344
0.002956
0.002573
0.002183
0.001803
0.004876
0.004493
0.004105
0.003723
0.003336
0.002957
0.002570
0.002184
0.001802
0.004871
0.004488
0.004107
0.003718
0.003337
0.002949
0.002564
0.002182
0.001799
0.004869
0.004479
0.004102
0.003717
0.003332
0.002948
0.002564
0.002178
0.001796
0.004859
0.004478
0.004094
0.003709
0.003326
0.002947
0.002564
0.002176
0.001799
0.004855
0.004471
0.004086
0.003707
0.003327
0.002941
0.002557
0.002178
0.001791
0.004850
0.004468
0.004086
0.003703
0.003321
0.002940
0.002560
0.002176
0.001790
0.004843
0.004464
0.004079
0.003703
0.003316
0.002942
0.002556
0.002174
0.001790
0.004831
0.004456
0.004075
0.003698
0.003313
0.002935
0.002555
0.002172
0.001795
0.004829
0.004449
0.004072
0.003689
0.003307
0.002935
0.002550
0.002170
0.001791
SCALARS strain_3 float
LOOKUP_TABLE default
0.001120
0.073310
0.072275
0.071236
0.070190
0.069139
0.068082
0.067021
0.065956
0.064883
0.063811
0.062731
0.061648
0.060563
0.059473
0.058382
0.057286
0.056192
0.055093
0.053993
0.052891
0.051789
0.050690
0.049586
0.048482
0.047381
0.046281
0.045184
0.044086
0.042993
0.041901
0.040812
0.039729
0.038648
0.037574
0.036504
0.035439
0.034381
0.033333
0.032286
0.031253
0.030223
0.029202
0.028195
0.027194
0.026205
0.025227
0.024258
0.023303
0.022358
0.021425
0.020511
0.019606
0.018716
0.017841
0.016981
0.016137
0.015309
0.014497
0.013702
0.012926
0.012169
0.011426
0.010704
0.010000
0.009314
0.008649
0.008003
0.007378
0.006772
0.006186
0.005621
0.005077
0.004554
0.004051
0.003571
0.003109
0.002669
0.002248
0.001852
0.001476
0.071436
-0.000594
-0.000255
0.000109
0.000491
0.000898
0.001324
0.001771
0.002240
0.002730
0.003243
0.003777
0.004328
0.004905
0.005497
0.006115
0.006752
0.007408
0.008084
0.008780
0.009493
0.010227
0.010981
0.011748
0.012536
0.013343
0.014166
0.015004
0.015859
0.016728
0.017615
0.018514
0.019427
0.020357
0.021295
0.022247
0.023214
0.024193
0.025182
0.026179
0.027187
0.028206
0.029233
0.030268
0.031314
0.032365
0.033424
0.034489
0.035559
0.036634
0.037717
0.038804
0.039892
0.040987
0.042085
0.043183
0.044286
0.045388
0.046493
0.047599
0.048705
0.049810
0.050917
0.052022
0.053126
0.054228
0.055330
0.056426
0.057525
0.058618
0.059709
0.060800
0.061883
0.062961
0.064039
0.065112
0.066175
0.067239
0.068296
0.069349
0.070396
0.071625
0.071812
0.072000
0.072187
0.072374
0.072560
0.072748
0.072937
0.073123
0.000943
0.000771
0.000596
0.000422
0.000250
0.000079
-0.000092
-0.000260
-0.000428
-0.000086
0.000085
0.000256
0.000426
0.000600
0.000772
0.000947
0.001122
0.001295
0.000281
0.000451
0.000622
0.000795
0.000969
0.001145
0.001318
0.001496
0.001673
0.000663
0.000837
0.001010
0.001183
0.001360
0.001535
0.001711
0.001893
0.002068
0.001069
0.001244
0.001420
0.001593
0.001771
0.001948
0.002127
0.002307
0.002486
0.001497
0.001672
0.001848
0.002026
0.002204
0.002383
0.002564
0.002744
0.002923
0.001946
0.002124
0.002302
0.002480
0.002658
0.002837
0.003020
0.003201
0.003383
0.002418
0.002594
0.002775
0.002953
0.003135
0.003317
0.003498
0.003682
0.003864
0.002908
0.003088
0.003267
0.003449
0.003629
0.003812
0.003996
0.004183
0.004368
0.003422
0.003602
0.003784
0.003963
0.004148
0.004332
0.004517
0.004704
0.004891
0.003956
0.004136
0.004319
0.004499
0.004688
0.004872
0.005059
0.005245
0.005430
0.004511
0.004694
0.004875
0.005061
0.005246
0.005433
0.005621
0.005807
0.005996
0.005086
0.005269
0.005454
0.005638
0.005827
0.006015
0.006201
0.006391
0.006581
0.005682
0.005869
0.006053
0.006239
0.006427
0.006614
0.006805
0.006995
0.007186
0.006301
0.006486
0.006673
0.006860
0.007049
0.007237
0.007428
0.007618
0.007812
0.006939
0.007124
0.007312
0.007498
0.007690
0.007880
0.008071
0.008262
0.008455
0.007594
0.007783
0.007970
0.008161
0.008351
0.008543
0.008733
0.008926
0.009120
0.008273
0.008461
0.008649
0.008840
0.009032
0.009223
0.009414
0.009609
0.009805
0.008968
0.009157
0.009346
0.009539
0.009732
0.009925
0.010117
0.010310
0.010505
0.009683
0.009874
0.010065
0.010257
0.010453
0.010643
0.010837
0.011034
0.011229
0.010418
0.010609
0.010801
0.010995
0.011187
0.011381
0.011577
0.011773
0.011968
0.011172
0.011364
0.011555
0.011749
0.011942
0.012140
0.012332
0.012533
0.012727
0.011941
0.012133
0.012329
0.012522
0.012718
0.012913
0.013110
0.013307
0.013505
0.012728
0.012923
0.013119
0.013313
0.013509
0.013705
0.013904
0.014101
0.014301
0.013536
0.013730
0.013925
0.014119
0.014315
0.014512
0.014712
0.014910
0.015109
0.014359
0.014553
0.014746
0.014945
0.015140
0.015340
0.015538
0.015738
0.015935
0.015198
0.015391
0.015588
0.015786
0.015985
0.016181
0.016380
0.016581
0.016779
0.016055
0.016248
0.016444
0.016643
0.016841
0.017038
0.017239
0.017439
0.017638
0.016927
0.017121
0.017318
0.017516
0.017713
0.017913
0.018112
0.018312
0.018512
0.017808
0.018007
0.018205
0.018401
0.018599
0.018799
0.019001
0.019204
0.019403
0.018710
0.018906
0.019105
0.019302
0.019502
0.019702
0.019904
0.020105
0.020307
0.019624
0.019821
0.020019
0.020220
0.020419
0.020620
0.020818
0.021019
0.021224
0.020553
0.020749
0.020947
0.021148
0.021348
0.021549
0.021749
0.021951
0.022155
0.021492
0.021691
0.021889
0.022090
0.022291
0.022493
0.022693
0.022893
0.023099
0.022449
0.022646
0.022844
0.023044
0.023245
0.023447
0.023649
0.023851
0.024052
0.023413
0.023612
0.023811
0.024011
0.024212
0.024413
0.024617
0.024820
0.025022
0.024389
0.024591
0.024790
0.024991
0.025190
0.025392
0.025596
0.025795
0.025998
0.025380
0.025578
0.025777
0.025977
0.026180
0.026381
0.026585
0.026787
0.026991
0.026377
0.026578
0.026778
0.026978
0.027179
0.027381
0.027582
0.027785
0.027991
0.027388
0.027587
0.027787
0.027987
0.028190
0.028392
0.028594
0.028795
0.029002
0.028405
0.028605
0.028805
0.029008
0.029207
0.029410
0.029614
0.029816
0.030017
0.029434
0.029632
0.029833
0.030035
0.030236
0.030439
0.030639
0.030844
0.031049
0.030471
0.030670
0.030868
0.031070
0.031273
0.031475
0.031675
0.031881
0.032083
0.031513
0.031715
0.031914
0.032115
0.032317
0.032517
0.032722
0.032926
0.033129
0.032565
0.032765
0.032965
0.033166
0.033368
0.033568
0.033774
0.033974
0.034175
0.033623
0.033821
0.034025
0.034224
0.034430
0.034630
0.034829
0.035033
0.035237
0.034689
0.034888
0.035089
0.035290
0.035491
0.035694
0.035892
0.036097
0.036301
0.035761
0.035958
0.036159
0.036360
0.036561
0.036762
0.036966
0.037170
0.037370
0.036836
0.037036
0.037236
0.037436
0.037640
0.037839
0.038044
0.038245
0.038448
0.037916
0.038116
0.038317
0.038520
0.038719
0.038919
0.039121
0.039322
0.039527
0.039004
0.039204
0.039403
0.039602
0.039803
0.040003
0.040206
0.040409
0.040611
0.040092
0.040293
0.040490
0.040694
0.040892
0.041095
0.041295
0.041497
0.041698
0.041186
0.041385
0.041585
0.041787
0.041987
0.042187
0.042387
0.042589
0.042789
0.042283
0.042481
0.042680
0.042880
0.043081
0.043281
0.043482
0.043681
0.043884
0.043379
0.043582
0.043781
0.043980
0.044180
0.044380
0.044578
0.044782
0.044981
0.044483
0.044680
0.044879
0.045081
0.045281
0.045480
0.045680
0.045879
0.046083
0.045585
0.045784
0.045984
0.046182
0.046380
0.046581
0.046781
0.046981
0.047180
0.046689
0.046887
0.047089
0.047284
0.047485
0.047684
0.047883
0.048083
0.048283
0.047795
0.047993
0.048192
0.048389
0.048589
0.048786
0.048988
0.049187
0.049386
0.048900
0.049099
0.049297
0.049493
0.049694
0.049892
0.050088
0.050290
0.050487
0.050007
0.050204
0.050402
0.050601
0.050797
0.050996
0.051192
0.051391
0.051591
0.051112
0.051310
0.051507
0.051705
0.051900
0.052098
0.052298
0.052494
0.052693
0.052215
0.052415
0.052610
0.052808
0.053006
0.053202
0.053400
0.053599
0.053795
0.053321
0.053518
0.053713
0.053911
0.054107
0.054302
0.054498
0.054698
0.054895
0.054423
0.054620
0.054815
0.055013
0.055209
0.055404
0.055603
0.055799
0.055995
0.055525
0.055718
0.055915
0.056112
0.056309
0.056502
0.056700
0.056896
0.057090
0.056625
0.056818
0.057013
0.057208
0.057403
0.057601
0.057797
0.057991
0.058186
0.057721
0.057916
0.058110
0.058305
0.058501
0.058696
0.058889
0.059084
0.059278
0.058812
0.059008
0.059203
0.059395
0.059591
0.059785
0.059979
0.060175
0.060368
0.059902
0.060097
0.060292
0.060486
0.060678
0.060871
0.061069
0.061259
0.061456
0.060991
0.061185
0.061378
0.061574
0.061763
0.061958
0.062151
0.062343
0.062538
0.062076
0.062269
0.062460
0.062653
0.062846
0.063040
0.063232
0.063425
0.063616
0.063155
0.063346
0.063538
0.063732
0.063925
0.064115
0.064306
0.064499
0.064691
0.064232
0.064424
0.064615
0.064804
0.064997
0.065191
0.065382
0.065574
0.065764
0.065301
0.065492
0.065683
0.065875
0.066066
0.066258
0.066449
0.066639
0.066830
0.066368
0.066558
0.066749
0.066941
0.067132
0.067321
0.067511
0.067703
0.067890
0.067432
0.067618
0.067808
0.068000
0.068190
0.068379
0.068569
0.068758
0.068949
0.068486
0.068673
0.068867
0.069055
0.069243
0.069435
0.069625
0.069812
0.070001
0.069539
0.069726
0.069915
0.070105
0.070292
0.070482
0.070668
0.070860
0.071047
0.070583
0.070771
0.070960
0.071149
0.071336
0.071526
0.071713
0.071902
0.072087
SCALARS stress_1 float
LOOKUP_TABLE default
15803.952381
-16447019.347744
-16198153.468993
-15948014.090241
-15696689.711490
-15444174.832738
-15190639.453986
-14936094.075235
-14680511.196483
-14424082.817732
-14166850.938980
-13908809.560229
-13650124.681477
-13390799.302725
-13130974.423974
-12870639.045222
-12610003.666471
-12349087.287719
-12087867.408968
-11826628.030216
-11565342.151464
-11304168.772713
-11043123.393961
-10782399.515210
-10521998.636458
-10262101.257707
-10002792.878955
-9744154.000204
-9486353.621452
-9229490.242700
-8973618.863949
-8718909.985197
-8465448.606446
-8213367.727694
-7962873.348943
-7713918.970191
-7466711.091439
-7221397.212688
-6978135.333936
-6736926.955185
-6498040.076433
-6261492.697682
-6027379.318930
-5795951.440178
-5567313.061427
-5341530.682675
-5118731.803924
-4899064.925172
-4682693.046421
-4469668.167669
-4260088.788917
-4054179.910166
-3851949.031414
-3653536.652663
-3459161.273911
-3268766.895160
-3082550.516408
-2900595.637656
-2722950.758905
-2549822.880153
-2381210.001402
-2217136.622650
-2057812.243899
-1903281.865147
-1753596.486395
-1608771.607644
-1468904.728892
-1334103.350141
-1204321.471389
-1079555.092638
-960015.213886
-845526.835134
-736285.456383
-632178.577631
-533158.198880
-439458.820128
-350837.941377
-267407.062625
-189021.683873
-115734.305122
-47418.426370
-16422847.005501
59333.794625
-3824.584127
-71929.962878
-145138.341630
-223352.720381
-306688.099133
-395255.477885
-488960.856636
-587855.235388
-691953.614139
-801225.492891
-915662.371642
-1035284.750394
-1160007.129146
-1289865.507897
-1424806.886649
-1564691.265400
-1709669.644152
-1859468.522903
-2014201.401655
-2173609.780407
-2337833.659158
-2506623.537910
-2679991.916661
-2857768.295413
-3039958.174164
-3226364.052916
-3417012.931668
-3611700.310419
-3810360.689171
-4012822.567922
-4219023.446674
-4428896.825425
-4642165.204177
-4858891.582929
-5078848.461680
-5301987.840432
-5528003.219183
-5757045.597935
-5988826.476686
-6223257.855438
-6460156.234190
-6699439.112941
-6940983.991693
-7184634.870444
-7430314.249196
-7677831.127947
-7927120.006699
-8178012.885451
-8430471.264202
-8684310.142954
-8939403.521705
-9195601.400457
-9452858.779208
-9711038.657960
-9969955.536712
-10229695.415463
-10489973.294215
-10750709.172966
-11011825.551718
-11273203.930469
-11534774.809221
-11796485.687973
-12058019.066724
-12319578.945476
-12580855.324227
-12841955.202979
-13102619.081730
-13362779.460482
-13622390.339234
-13881379.217985
-14139770.596737
-14397370.975488
-14654111.854240
-14910001.232991
-15164885.111743
-15418767.490494
-15671485.869246
-15923170.247998
-16173659.126749
-16425330.039725
-16427861.073949
-16430297.108174
-16432816.142398
-16435211.176623
-16437665.710847
-16440000.745071
-16442327.779296
-16444713.813520
21140.486606
26205.020830
31098.555054
35784.089279
40253.123503
44430.157727
48528.691952
52340.226176
55908.260400
-7190.118351
-10862.652575
-14695.186800
-18703.221024
-23002.755249
-27443.289473
-32115.323697
-37025.357922
-42096.392146
-75302.497103
-78966.031327
-82778.565551
-86847.099776
-91146.634000
-95617.168224
-100366.702449
-105218.736673
-110349.770898
-148531.875854
-152113.910079
-156025.944303
-160035.478527
-164328.012752
-168849.546976
-173553.581200
-178481.615425
-183651.149649
-226752.254606
-230319.288830
-234256.323055
-238374.357279
-242631.391503
-247179.925728
-251900.959952
-256832.994176
-262009.028401
-310166.133357
-313818.667582
-317706.201806
-321772.236030
-326092.270255
-330611.804479
-335326.838704
-340308.872928
-345454.907152
-398666.512109
-402321.546333
-406197.580558
-410260.614782
-414609.149006
-419164.683231
-423887.217455
-428904.751679
-434073.285904
-492373.390861
-496082.425085
-499902.959309
-504047.993534
-508329.527758
-512862.561982
-517648.096207
-522611.630431
-527791.664655
-591318.769612
-594953.803836
-598863.338061
-602958.872285
-607262.406510
-611799.940734
-616611.974958
-621556.009183
-626777.043407
-695322.148364
-699060.682588
-702941.716812
-707076.751037
-711364.285261
-715856.319485
-720677.853710
-725656.387934
-730888.422159
-804629.527115
-808336.061340
-812253.595564
-816348.129788
-820690.664013
-825175.198237
-830009.232461
-834906.266686
-840239.300910
-919146.405867
-922789.940091
-926631.974316
-930826.008540
-935130.542764
-939585.076989
-944427.111213
-949391.145437
-954605.179662
-1038730.284618
-1042411.318843
-1046317.853067
-1050378.887291
-1054715.421516
-1059237.955740
-1063960.989965
-1069018.524189
-1074156.558413
-1163481.163370
-1167147.697594
-1170997.731819
-1175069.766043
-1179464.800267
-1183999.334492
-1188757.868716
-1193716.902940
-1198852.937165
-1293246.542122
-1296977.076346
-1300869.610570
-1305007.644795
-1309267.679019
-1313797.213243
-1318519.747468
-1323437.781692
-1328685.815916
-1428200.920873
-1431864.955097
-1435805.489322
-1439876.523546
-1444178.557771
-1448723.091995
-1453474.126219
-1458359.160444
-1463587.194668
-1568228.299625
-1571829.833849
-1575698.868073
-1579839.402298
-1584030.936522
-1588560.470746
-1593350.504971
-1598328.539195
-1603483.573419
-1713097.678376
-1716727.212601
-1720585.746825
-1724649.281049
-1729017.315274
-1733485.349498
-1738200.883722
-1743110.917947
-1748215.952171
-1862967.057128
-1866567.591352
-1870429.625577
-1874494.659801
-1878780.694025
-1883315.228250
-1887975.762474
-1892889.296698
-1897990.330923
-2017585.935879
-2021258.470104
-2025059.004328
-2029195.038552
-2033454.072777
-2037914.607001
-2042597.141225
-2047431.675450
-2052539.209674
-2177046.314631
-2180713.348855
-2184551.383080
-2188568.417304
-2192900.451528
-2197293.485753
-2201950.519977
-2206827.554201
-2211910.088426
-2341269.193383
-2344889.227607
-2348673.761831
-2352707.796056
-2356985.330280
-2361357.364504
-2365999.398729
-2370876.432953
-2375902.467177
-2510084.572134
-2513648.606358
-2517455.140583
-2521493.174807
-2525691.209031
-2530136.743256
-2534738.777480
-2539541.811705
-2544626.845929
-2683353.450886
-2687012.985110
-2690798.019334
-2694832.553559
-2699050.587783
-2703326.622007
-2708018.156232
-2712788.690456
-2717759.724680
-2861175.829637
-2864742.863862
-2868579.898086
-2872574.932310
-2876726.466535
-2881075.500759
-2885694.534983
-2890476.069208
-2895416.603432
-3043360.708389
-3046963.242613
-3050739.776837
-3054703.311062
-3058886.845286
-3063238.379511
-3067763.913735
-3072510.447959
-3077404.482184
-3229757.087140
-3233383.121365
-3237156.655589
-3241063.189813
-3245178.724038
-3249521.758262
-3254024.292486
-3258724.826711
-3263686.860935
-3420434.465892
-3423941.000116
-3427676.534341
-3431648.068565
-3435720.602789
-3440050.637014
-3444558.171238
-3449181.705462
-3454101.739687
-3615011.844643
-3618575.378868
-3622303.913092
-3626227.947317
-3630350.981541
-3634634.015765
-3639068.049990
-3643722.584214
-3648579.618438
-3813682.223395
-3817179.757619
-3820931.291844
-3824832.326068
-3828876.860292
-3833117.394517
-3837563.928741
-3842142.962966
-3846965.497190
-4016186.602147
-4019677.636371
-4023314.170595
-4027255.704820
-4031283.739044
-4035469.773268
-4039900.307493
-4044431.341717
-4049207.875941
-4222396.480898
-4225853.015123
-4229514.549347
-4233411.583571
-4237398.117796
-4241576.152020
-4245980.186244
-4250486.720469
-4255207.254693
-4432232.859650
-4435703.893874
-4439336.928098
-4443104.462323
-4447113.496547
-4451329.530772
-4455645.564996
-4460098.599220
-4464810.133445
-4645530.738401
-4648905.772626
-4652609.306850
-4656378.841074
-4660334.375299
-4664471.409523
-4668790.943747
-4673239.477972
-4677837.512196
-4862235.117153
-4865680.151377
-4869250.185602
-4873002.719826
-4876934.754050
-4881031.288275
-4885338.822499
-4889726.356723
-4894308.390948
-5082139.495904
-5085580.530129
-5089122.064353
-5092973.098578
-5096842.132802
-5100903.667026
-5105158.201251
-5109488.735475
-5114052.269699
-5305173.874656
-5308632.408880
-5312218.943105
-5315969.977329
-5319784.011553
-5323830.545778
-5328046.080002
-5332385.614227
-5336881.148451
-5531339.753408
-5534716.787632
-5538236.821856
-5541973.856081
-5545812.890305
-5549831.424529
-5553980.958754
-5558218.492978
-5562731.527202
-5760306.632159
-5763740.666384
-5767190.200608
-5770903.734832
-5774688.269057
-5778634.303281
-5782776.337505
-5787015.871730
-5791409.405954
-5992059.510911
-5995428.545135
-5998882.579359
-6002585.613584
-6006306.647808
-6010221.682033
-6014374.216257
-6018519.750481
-6022906.284706
-6226455.889662
-6229799.423887
-6233200.458111
-6236854.492335
-6240629.526560
-6244538.060784
-6248543.095008
-6252679.129233
-6256990.663457
-6463289.768414
-6466608.802638
-6470048.336863
-6473672.371087
-6477397.905311
-6481271.439536
-6485215.473760
-6489365.007984
-6493631.542209
-6702564.147165
-6705888.681390
-6709271.715614
-6712849.249839
-6716539.284063
-6720384.318287
-6724296.352512
-6728380.386736
-6732620.920960
-6944090.525917
-6947372.060141
-6950803.594366
-6954320.128590
-6957982.162814
-6961756.697039
-6965636.231263
-6969652.765488
-6973824.299712
-7187732.404669
-7190972.438893
-7194370.473117
-7197890.507342
-7201507.041566
-7205283.575790
-7209096.610015
-7213084.144239
-7217182.678463
-7433377.283420
-7436577.817645
-7440026.351869
-7443437.386093
-7447031.920318
-7450741.454542
-7454570.988766
-7458533.522991
-7462573.057215
-7680958.162172
-7684145.196396
-7687463.730620
-7690909.264845
-7694455.799069
-7698188.833294
-7701912.367518
-7705802.401742
-7709824.435967
-7930193.040923
-7933387.575148
-7936688.609372
-7940063.143596
-7943635.677821
-7947201.712045
-7950974.246269
-7954789.780494
-7958783.814718
-8181105.919675
-8184274.453899
-8187552.488124
-8190896.022348
-8194424.556572
-8198000.590797
-8201685.125021
-8205547.159245
-8209407.693470
-8433532.298426
-8436665.332651
-8439920.366875
-8443271.901100
-8446712.935324
-8450273.969548
-8453933.503773
-8457646.537997
-8461529.572221
-8687324.677178
-8690396.211402
-8693658.245627
-8696947.279851
-8700369.814075
-8703865.348300
-8707497.382524
-8711194.416749
-8715000.950973
-8942397.555930
-8945510.090154
-8948652.624378
-8951964.158603
-8955341.692827
-8958808.227051
-8962379.261276
-8966067.295500
-8969791.829724
-9198554.434681
-9201710.468906
-9204808.003130
-9208124.037354
-9211483.571579
-9214882.105803
-9218436.640027
-9222026.174252
-9225694.208476
-9455824.813433
-9458884.347657
-9462051.381881
-9465261.916106
-9468588.450330
-9472018.484555
-9475453.518779
-9479031.553003
-9482630.587228
-9714001.192184
-9717033.226409
-9720144.260633
-9723353.294857
-9726590.329082
-9729989.363306
-9733437.897530
-9736919.931755
-9740494.965979
-9972946.070936
-9976000.105160
-9979061.139385
-9982243.673609
-9985444.207833
-9988812.742058
-9992199.776282
-9995635.310506
-9999213.344731
-10232592.949687
-10235571.483912
-10238654.518136
-10241854.052361
-10245014.586585
-10248306.120809
-10251664.655034
-10255078.689258
-10258506.723482
-10492879.328439
-10495866.362663
-10498927.396888
-10502021.931112
-10505182.965336
-10508402.499561
-10511718.533785
-10515049.568010
-10518476.602234
-10753635.207191
-10756600.741415
-10759514.775639
-10762670.809864
-10765771.344088
-10768978.378312
-10772237.912537
-10775601.946761
-10778906.980985
-11014678.585942
-11017615.620167
-11020665.154391
-11023688.688615
-11026786.222840
-11029893.757064
-11033152.291288
-11036457.825513
-11039720.859737
-11276067.464694
-11278978.998918
-11281942.533142
-11284973.567367
-11288003.601591
-11291175.135816
-11294311.670040
-11297499.704264
-11300799.238489
-11537633.343445
-11540517.877670
-11543485.411894
-11546423.446118
-11549519.480343
-11552575.014567
-11555710.048791
-11558865.583016
-11562115.617240
-11799232.722197
-11802135.256421
-11805028.290646
-11807995.824870
-11810958.359094
-11813988.893319
-11817097.427543
-11820220.961767
-11823399.995992
-12060876.600948
-12063710.635173
-12066622.169397
-12069514.203622
-12072454.737846
-12075488.772070
-12078545.806295
-12081620.340519
-12084708.374743
-12322344.479700
-12325152.513924
-12328063.048149
-12330945.082373
-12333866.616597
-12336851.650822
-12339836.685046
-12342861.219270
-12345964.753495
-12583629.858452
-12586462.892676
-12589283.926900
-12592117.461125
-12595019.495349
-12597942.029573
-12600940.063798
-12603933.098022
-12606959.132246
-12844659.737203
-12847423.271428
-12850213.305652
-12853084.339876
-12855936.874101
-12858811.908325
-12861728.942549
-12864704.476774
-12867683.010998
-13105265.615955
-13108020.150179
-13110809.684403
-13113651.718628
-13116471.252852
-13119327.287076
-13122144.321301
-13125123.855525
-13128013.389750
-13365489.994706
-13368190.028931
-13370960.563155
-13373739.097379
-13376526.631604
-13379382.165828
-13382204.700052
-13385072.734277
-13387864.768501
-13625088.873458
-13627822.407682
-13630556.941907
-13633299.976131
-13636082.010355
-13638873.044580
-13641656.578804
-13644449.113028
-13647281.147253
-13884099.252209
-13886807.786434
-13889497.820658
-13892249.854882
-13894953.889107
-13897678.923331
-13900479.457556
-13903230.491780
-13905946.526004
-14142420.630961
-14145146.665185
-14147798.199410
-14150519.733634
-14153183.767858
-14155932.802083
-14158638.336307
-14161326.870531
-14164066.904756
-14400054.509713
-14402696.543937
-14405317.078161
-14408037.612386
-14410691.146610
-14413334.680834
-14415983.215059
-14418694.249283
-14421385.283507
-14656715.888464
-14659388.422688
-14662030.956913
-14664692.491137
-14667315.525362
-14669964.059586
-14672601.093810
-14675231.628035
-14677845.662259
-14912577.267216
-14915230.301440
-14917835.835664
-14920441.869889
-14923054.404113
-14925706.438337
-14928278.972562
-14930830.506786
-14933447.541011
-15167471.145967
-15170073.680192
-15172688.714416
-15175267.748640
-15177818.282865
-15180390.817089
-15182977.851313
-15185532.885538
-15188112.419762
-15421373.524719
-15423898.558943
-15426505.093168
-15429085.127392
-15431585.661616
-15434124.195841
-15436677.230065
-15439206.764289
-15441721.298514
-15674156.403470
-15676667.437695
-15679188.471919
-15681723.006143
-15684277.040368
-15686739.074592
-15689246.608817
-15691741.143041
-15694177.177265
-15925731.282222
-15928286.816446
-15930802.350671
-15933307.884895
-15935790.919119
-15938218.953344
-15940726.987568
-15943119.021792
-15945570.556017
-16176171.160974
-16178720.695198
-16181171.229422
-16183664.263647
-16186148.297871
-16188556.332095
-16191002.366320
-16193363.900544
-16195739.434768
SCALARS stress_2 float
LOOKUP_TABLE default
196014.001414
-2642839.270948
-2601303.805044
-2559240.339139
-2517304.873235
-2475097.407330
-2432169.941426
-2389818.475521
-2346747.009617
-2303851.543712
-2260652.077807
-2217164.611903
-2173805.145998
-2130157.680094
-2086974.214189
-2043086.748285
-1999135.282380
-1955135.816476
-1911216.350571
-1867376.884667
-1823361.418762
-1779345.952858
-1735442.486953
-1691331.021049
-1647379.555144
-1603380.089239
-1559604.623335
-1515893.157430
-1472261.691526
-1428694.225621
-1385574.759717
-1342263.293812
-1299383.827908
-1256568.362003
-1214120.896099
-1171705.430194
-1129177.964290
-1087546.498385
-1046171.032480
-1004955.566576
-964108.100671
-923388.634767
-883709.168862
-844029.702958
-804334.237053
-765630.771149
-727343.305244
-689327.839340
-652096.373435
-615232.907531
-578897.441626
-542945.975722
-507970.509817
-473459.043912
-439587.578008
-406100.112103
-373300.646199
-341365.180294
-309925.714390
-279654.248485
-249574.782581
-220231.316676
-192103.850772
-164248.384867
-137512.918963
-111385.453058
-86137.987154
-61402.521249
-37515.055344
-14651.589440
7555.876465
28355.342369
48930.808274
68722.274178
87697.740083
105521.205987
122688.671892
138944.137796
154495.603701
169135.069605
183038.535510
-2363616.667493
397844.604869
387541.138965
376645.673060
364694.207156
351862.741251
338199.275347
323335.809442
307960.343538
291912.877633
274425.411729
256601.945824
237562.479920
218043.014015
196923.548111
175724.082206
153548.616301
130109.150397
106173.684492
81230.218588
55550.752683
29071.286779
2079.820874
-26255.645030
-55167.110935
-84670.576839
-115086.042744
-146333.508648
-177804.974553
-210284.440457
-243451.906362
-277403.372267
-311466.838171
-346858.304076
-382185.769980
-418489.235885
-455352.701789
-492760.167694
-530263.633598
-568663.099503
-607398.565407
-646374.031312
-685925.497216
-726180.963121
-766916.429025
-807523.894930
-848563.360835
-890114.826739
-932114.292644
-973889.758548
-1016545.224453
-1059040.690357
-1102080.156262
-1144671.622166
-1187903.088071
-1231630.553975
-1274910.019880
-1318909.485784
-1362300.951689
-1406268.417593
-1450315.883498
-1494411.349403
-1538346.815307
-1582058.281212
-1626041.747116
-1670457.213021
-1714408.678925
-1758392.144830
-1802247.610734
-1846215.076639
-1890166.542543
-1933894.008448
-1977413.474352
-2020804.940257
-2064308.406161
-2107619.872066
-2150739.337971
-2193490.803875
-2236722.269780
-2279121.735684
-2321489.201589
-2391782.127839
-2419675.588184
-2447409.048530
-2475190.508875
-2503179.969221
-2531281.429566
-2558966.889912
-2587004.350257
-2614993.810603
216483.461760
237128.922105
257070.382451
277523.842796
297593.303142
317806.763487
337844.223833
357865.684178
378015.144524
367535.678619
346906.218274
326596.757928
306175.297583
286073.837237
265444.376892
244926.916546
224345.456201
203443.995855
356032.212715
335610.752369
314709.292024
294015.831678
273402.371333
252676.910987
231999.450642
210905.990296
189924.529951
343712.746810
322875.286465
302037.826119
281200.365774
260090.905428
238885.445083
217903.984737
196874.524392
175669.064046
330577.280906
309419.820560
288422.360215
266928.899869
245739.439524
224389.979178
203152.518833
181947.058487
160405.598142
316881.815001
295404.354656
274070.894310
252401.433965
231003.973619
209478.513274
187713.052928
165947.592583
144214.132237
301954.349097
280748.888751
258807.428406
236753.968060
214876.507715
193383.047369
171601.587024
149500.126678
127334.666333
286162.883192
264141.422847
242311.962501
220274.502156
198141.041810
176263.581465
154242.121119
132092.660774
109639.200428
269651.417288
247453.956942
225608.496597
203059.036251
180813.575906
158344.115560
135730.655215
113901.194869
91175.734524
252051.951383
229918.491038
207593.030692
185235.570347
162494.110001
139816.649656
117331.189310
94477.728965
71656.268619
234164.485479
211439.025133
188569.564788
166116.104442
143230.644097
120601.183751
97363.723406
74558.263060
51720.802715
214917.019574
191759.559229
168986.098883
146148.638538
122799.178192
100137.717847
76980.257501
53918.797156
30441.336810
194885.553670
171712.093324
148778.632979
125589.172633
102175.712288
78746.251942
55444.791597
32191.331251
8601.870906
173894.087765
150832.627420
127435.167074
103397.706729
80272.246383
56842.786038
33221.325692
9679.865347
-14165.594999
152086.621861
128689.161515
105339.701170
81542.240824
57696.780479
34091.320133
10053.859787
-13791.600558
-37557.060904
129559.155956
105553.695610
82140.235265
58198.774919
34097.314574
10379.854228
-13721.606117
-37711.066463
-61892.526808
106199.690051
82114.229706
58172.769360
34151.309015
10241.848669
-14291.611676
-38809.072022
-62830.532367
-87171.992713
82152.224147
57842.763801
33309.303456
9351.843110
-14957.617235
-39411.077581
-63912.537926
-88317.998272
-113187.458617
56808.758242
32467.297897
8093.837551
-16119.622794
-41165.083140
-65490.543485
-90264.003831
-114797.464176
-139682.924522
30857.292338
6483.831992
-18289.628353
-43223.088699
-67852.549044
-92514.009390
-117255.469735
-142380.930081
-166850.390426
4617.826433
-20523.633912
-45265.094258
-70262.554603
-95276.014949
-120145.475294
-145014.935640
-170012.395985
-195169.856331
-23301.639471
-48011.099817
-73296.560162
-98454.020508
-123531.480853
-148544.941199
-173830.401544
-199131.861890
-223841.322235
-51317.105376
-76362.565721
-101472.026067
-127013.486412
-152378.946758
-177856.407103
-202949.867449
-228603.327794
-253952.788140
-80404.571280
-105834.031626
-131247.491971
-156564.952317
-182250.412662
-207567.873008
-233381.333353
-258554.793699
-284400.254044
-110068.037185
-135401.497530
-161278.957876
-186964.418221
-212745.878567
-238479.338912
-263604.799258
-289690.259603
-315519.719949
-140451.503089
-166360.963435
-192286.423780
-217923.884126
-243449.344471
-269742.804817
-295444.265162
-321305.725508
-347423.185853
-172002.968994
-197672.429339
-223629.889685
-249363.350030
-275672.810376
-301710.270721
-327539.731067
-353769.191412
-380206.651758
-203778.434898
-229799.895244
-255997.355589
-282066.815935
-308088.276280
-334717.736626
-360723.196971
-386472.657317
-412814.117662
-236337.900803
-262455.361148
-288860.821494
-315282.281839
-341255.742185
-367581.202530
-394242.662876
-420152.123221
-446813.583567
-269585.366707
-296166.827053
-322124.287398
-348849.747744
-375143.208090
-401628.668435
-428242.128781
-454855.589126
-481261.049472
-303488.832612
-329782.292958
-356875.753303
-383281.213649
-409638.673994
-436540.134340
-462929.594685
-490071.055031
-516204.515376
-338208.298517
-364709.758862
-391579.219208
-418048.679553
-444886.139899
-471675.600244
-498513.060590
-525238.520935
-551995.981281
-372991.764421
-400085.224767
-426954.685112
-453616.145458
-480581.605803
-507115.066149
-534240.526494
-561205.986840
-588011.447185
-409263.230326
-436020.690671
-462938.151017
-489759.611362
-516789.071708
-543738.532053
-570943.992399
-598149.452744
-624890.913090
-445406.696230
-472404.156576
-499353.616921
-526351.077267
-553540.537612
-580617.997958
-607727.458303
-634532.918649
-662074.378994
-482350.162135
-509379.622480
-536361.082826
-563566.543171
-590740.003517
-617881.463862
-645310.924208
-672740.384553
-699993.844899
-519565.628039
-546979.088385
-574136.548730
-601294.009076
-628467.469421
-655944.929767
-683230.390112
-710835.850458
-738137.310803
-557485.093944
-584914.554289
-612392.014635
-639597.474980
-666866.935326
-694344.395671
-721965.856017
-749363.316362
-776984.776708
-595932.559848
-623330.020194
-650679.480539
-678428.940885
-705682.401230
-733479.861576
-761053.321921
-788546.782267
-816312.242612
-634876.025753
-662385.486098
-689910.946444
-717420.406789
-745121.867135
-772551.327480
-800540.787826
-827682.248171
-855623.708517
-673995.491657
-701968.952003
-729302.412348
-757307.872694
-784913.333039
-812550.793385
-840092.253730
-867745.714076
-895719.174421
-713914.957562
-741664.417907
-769141.878253
-797115.338598
-824896.798944
-852790.259289
-880379.719635
-908481.179980
-936262.640326
-753946.423466
-782079.883812
-809781.344157
-837306.804503
-865168.264848
-893109.725194
-920955.185539
-949056.645885
-977174.106230
-794329.889371
-822271.349716
-850308.810062
-878186.270407
-906223.730753
-934149.191098
-962234.651444
-990192.111789
-1018181.572135
-835561.355275
-863006.815621
-891380.275967
-919273.736312
-947231.196658
-975252.657003
-1003498.117349
-1031583.577694
-1059237.038040
-876760.821180
-904606.281526
-932595.741871
-960457.202217
-988718.662562
-1017092.122908
-1045001.583253
-1072975.043599
-1101572.503944
-918232.287085
-946045.747430
-974515.207776
-1002088.668121
-1030510.128467
-1058947.588812
-1086841.049158
-1115262.509503
-1143283.969849
-959943.752989
-987933.213335
-1016130.673680
-1044680.134026
-1072525.594371
-1100947.054717
-1129224.515062
-1157325.975408
-1185539.435753
-1001959.218894
-1030460.679239
-1058658.139585
-1086823.599930
-1115213.060276
-1143362.520621
-1171495.980967
-1199869.441312
-1228194.901658
-1044662.684798
-1072556.145144
-1101169.605489
-1129351.065835
-1157436.526180
-1185889.986526
-1214119.446871
-1242380.907217
-1270642.367562
-1087238.150703
-1115515.611048
-1143745.071394
-1172150.531739
-1200347.992085
-1228609.452430
-1257110.912776
-1285420.373121
-1314161.833467
-1130181.616607
-1157995.076953
-1186496.537298
-1215285.997644
-1243579.457989
-1271840.918335
-1299958.378680
-1328443.839026
-1357169.299371
-1173221.082512
-1201258.542857
-1229712.003203
-1258133.463548
-1286586.923894
-1314992.384239
-1343573.844585
-1371723.304930
-1400160.765276
-1216244.548416
-1244490.008762
-1272943.469107
-1301508.929453
-1329946.389798
-1358575.850144
-1386965.310489
-1415466.770835
-1443968.231180
-1259700.014321
-1288265.474666
-1316494.935012
-1344964.395357
-1373561.855703
-1401695.316048
-1430420.776394
-1458826.236739
-1487439.697085
-1303187.480225
-1331576.940571
-1360158.400916
-1388547.861262
-1417465.321607
-1445694.781953
-1473860.242298
-1502825.702644
-1531215.162989
-1346866.946130
-1375240.406475
-1403709.866821
-1432355.327166
-1460920.787512
-1489310.247857
-1517971.708203
-1546393.168548
-1574814.628894
-1390866.412034
-1419351.872380
-1447645.332725
-1476242.793071
-1504840.253416
-1533021.713762
-1561587.174107
-1590472.634453
-1619006.094798
-1434625.877939
-1463047.338284
-1491836.798630
-1520178.258975
-1548711.719321
-1577277.179666
-1605618.640012
-1634200.100357
-1662829.560703
-1478353.343843
-1506758.804189
-1535580.264535
-1564065.724880
-1592743.185226
-1621020.645571
-1649762.105917
-1678183.566262
-1706573.026608
-1522416.809748
-1550918.270094
-1579275.730439
-1608225.190785
-1636582.651130
-1665068.111476
-1693745.571821
-1722167.032167
-1750748.492512
-1566688.275653
-1594885.735998
-1623627.196344
-1652048.656689
-1680582.117035
-1709083.577380
-1737873.037726
-1766358.498071
-1794779.958417
-1610655.741557
-1639125.201903
-1667402.662248
-1695904.122594
-1724789.582939
-1753147.043285
-1781568.503630
-1810325.963976
-1839035.424321
-1654559.207462
-1683284.667807
-1711546.128153
-1740239.588498
-1768901.048844
-1797114.509189
-1825375.969535
-1854437.429880
-1882986.890226
-1698894.673366
-1727172.133712
-1755817.594057
-1784143.054403
-1812708.514748
-1841417.975094
-1869679.435439
-1898260.895785
-1926602.356130
-1742926.139271
-1771219.599616
-1799753.059962
-1828110.520307
-1856451.980653
-1885209.440998
-1913678.901344
-1942004.361689
-1970569.822035
-1786925.605175
-1815075.065521
-1843624.525866
-1872061.986212
-1900595.446557
-1929160.906903
-1957694.367248
-1986115.827594
-2014665.287939
-1830925.071080
-1859074.531425
-1887543.991771
-1915901.452116
-1944306.912462
-1972776.372807
-2001293.833153
-2029971.293498
-2058424.753844
-1874732.536984
-1903233.997330
-1931479.457675
-1959788.918021
-1988098.378366
-2016583.838712
-2044829.299057
-2073538.759403
-2102136.219748
-1918156.002889
-1946801.463234
-1975158.923580
-2003468.383925
-2031873.844271
-2060279.304616
-2088652.764962
-2117058.225307
-2145255.685653
-1962011.468793
-1990208.929139
-2018486.389484
-2047051.849830
-2075665.310175
-2104022.770521
-2131996.230866
-2160817.691212
-2189319.151557
-2005610.934698
-2034032.395043
-2062245.855389
-2090683.315734
-2118880.776080
-2147414.236425
-2175739.696771
-2204081.157116
-2232310.617462
-2049274.400602
-2077455.860948
-2105845.321293
-2134234.781639
-2162512.241984
-2190805.702330
-2219243.162675
-2247248.623021
-2275590.083366
-2092409.866507
-2120959.326852
-2148980.787198
-2177578.247543
-2205327.707889
-2233701.168234
-2261994.628580
-2290176.088926
-2318357.549271
-2135849.332412
-2163870.792757
-2192196.253103
-2220201.713448
-2248255.173794
-2276868.634139
-2305322.094485
-2333167.554830
-2361525.015176
-2178856.798316
-2207214.258662
-2235155.719007
-2263449.179353
-2291598.639698
-2319876.100044
-2347913.560389
-2376047.020735
-2404292.481080
-2221592.264221
-2249901.724566
-2277987.184912
-2306280.645257
-2334222.105603
-2362371.565948
-2390633.026294
-2418590.486639
-2446787.946985
-2264823.730125
-2292157.190471
-2320466.650816
-2348760.111162
-2376781.571507
-2404803.031853
-2432952.492198
-2460717.952544
-2489027.412889
-2307127.196030
-2335212.656375
-2362930.116721
-2391015.577066
-2419037.037412
-2447394.497757
-2475143.958103
-2503133.418448
-2531170.878794
-2349430.661934
-2377420.122280
-2405201.582625
-2433319.042971
-2461548.503316
-2489489.963662
-2517335.424007
-2545356.884353
-2573170.344698
SCALARS stress_3 float
LOOKUP_TABLE default
71172.479006
4714370.436124
4647814.861660
4580851.287196
4513591.712732
4445900.138268
4377904.563804
4309652.989340
4241081.414876
4172285.840412
4103050.265948
4033734.691484
3964131.117020
3894135.542556
3824003.968092
3753848.393628
3683460.819164
3612849.244700
3542117.670236
3471522.095772
3400582.521308
3329754.946844
3258783.372380
3187747.797916
3116888.223452
3046084.648988
2975401.074524
2904677.500060
2834153.925596
2763766.351132
2693666.776668
2623487.202204
2553811.627741
2484288.053277
2415268.478813
2346552.904349
2277845.329885
2210041.755421
2142390.180957
2075170.606493
2008399.032029
1942323.457565
1876759.883101
1811796.308637
1747368.734173
1683869.159709
1620897.585245
1558638.010781
1497066.436317
1436446.861853
1376555.287389
1317519.712925
1259452.138461
1202144.563997
1145940.989533
1090537.415069
1036493.840605
983122.266141
931014.691677
880075.117213
830071.542749
781203.968285
733520.393821
687052.819357
641705.244893
597693.670429
555034.095965
513478.521502
473218.947038
434287.372574
396611.798110
360328.223646
325236.649182
291633.074718
259517.500254
228465.925790
198926.351326
170714.776862
143631.202398
118411.627934
93896.053470
4597654.590305
-38095.366813
-16091.792349
7111.782115
31811.356579
57854.931043
85370.505507
113990.079971
144233.654435
175893.228899
208640.803363
242852.377827
278543.952291
315483.526755
353903.101219
393642.675683
434406.250147
476609.824611
520165.399075
564904.973539
611020.548003
658160.122467
706443.696931
756063.271395
806882.845859
858534.420323
911481.994787
965517.569251
1020441.143714
1076484.718178
1133536.292642
1191387.867106
1250103.441570
1309803.016034
1370470.590498
1431754.164962
1493821.739426
1556705.313890
1620484.888354
1684800.462818
1749684.037282
1815199.611746
1881291.186210
1948030.760674
2015298.335138
2082861.909602
2151025.484066
2219565.058530
2288480.632994
2357716.207458
2427239.781922
2497251.356386
2567558.930850
2637874.505314
2708374.079778
2779217.654242
2850109.228706
2921088.803170
2992116.377634
3063415.952098
3134507.526562
3205735.101026
3276954.675490
3347998.249954
3419177.824417
3490069.398881
3560920.973345
3631700.547809
3702344.122273
3772819.696737
3842991.271201
3912970.845665
3982742.420129
4052129.994593
4121733.569057
4190561.143521
4259124.717985
4327520.292449
4395603.866913
4463231.441377
4530563.015841
4609281.374887
4621012.159469
4632694.944051
4644393.728632
4655860.513214
4667719.297796
4679378.082378
4690972.866960
4702647.651542
60073.694424
48846.909842
37780.125260
26673.340678
15910.556097
4915.771515
-6143.013067
-16697.797649
-27460.582231
-5337.007767
5425.776815
16172.561397
27175.345979
38154.130561
49260.915142
60319.699724
71354.484306
82821.268888
17986.566697
28909.351279
39928.135861
50890.920443
61965.705025
72920.489606
84275.274188
95662.058770
106792.843352
42574.141161
53784.925743
64859.710325
75974.494907
86985.279488
98212.064070
109454.848652
120921.633234
132124.417816
68873.715625
79956.500207
91007.284789
102218.069371
113532.853952
124799.638534
136330.423116
147661.207698
159079.992280
96221.290089
107408.074671
118706.859253
130013.643835
141488.428416
152683.212998
164261.997580
175848.782162
187371.566744
125256.864553
136643.649135
147694.433717
159129.218299
170540.002880
181950.787462
193529.572044
205132.356626
216895.141208
155484.439017
166871.223599
178170.008181
189668.792763
201047.577344
212482.361926
224285.146508
236039.931090
247634.715672
187128.013481
198506.798063
210093.582645
221544.367226
233035.151808
244685.936390
256328.720972
268067.505554
279694.290136
220115.587945
231598.372527
243041.157109
254699.941690
266406.726272
278153.510854
289828.295436
301607.080018
313473.864600
254495.162409
266033.946991
277548.731573
289343.516154
301130.300736
312733.085318
324527.869900
336562.654482
348341.439064
290082.736873
301677.521455
313384.306037
325211.090618
336909.875200
348896.659782
360627.444364
372630.228946
384489.013528
327310.311337
338881.095919
350603.880501
362446.665082
374161.449664
386164.234246
398111.018828
410097.803410
422116.587992
365561.885801
377204.670383
389119.454964
400922.239546
412997.024128
424687.808710
436762.593292
448989.377874
460920.162456
405413.460265
416888.244847
428907.029428
440893.814010
452720.598592
464771.383174
476934.167756
488920.952338
501139.736920
446281.034729
457971.819311
469966.603892
482121.388474
494020.173056
506190.957638
518249.742220
530340.526802
542679.311384
488444.609193
500431.393775
512314.178356
524404.962938
536591.747520
548722.532102
560837.316684
573056.101266
585378.885848
532136.183657
544026.968239
556029.752820
568152.537402
580403.321984
592470.106566
604632.891148
617035.675730
629486.460312
576931.758121
588918.542702
600897.327284
613092.111866
625270.896448
637593.681030
649868.465612
662159.250194
674490.034776
622919.332585
634946.117166
647196.901748
659439.686330
671642.470912
683941.255494
696136.040076
708634.824658
720893.609239
670018.907049
682341.691630
694488.476212
706531.260794
719118.045376
731400.829958
743787.614540
755974.399122
768593.183703
718582.481513
730817.266094
743036.050676
755254.835258
767465.619840
779940.404422
792575.189004
804817.973586
817380.758167
768234.055977
780364.840558
792727.625140
805122.409722
817317.194304
829775.978886
842218.763468
854677.548050
867440.332631
818949.630440
831168.415022
843491.199604
855957.984186
868328.768768
880843.553350
893190.337932
905897.122514
918379.907095
870897.204904
883043.989486
895366.774068
908057.558650
920308.343232
932831.127814
945273.912396
957908.696977
970543.481559
923764.779368
936007.563950
948514.348532
960973.133114
973351.917696
985778.702278
998461.486860
1011072.271441
1023843.056023
977688.353832
990051.138414
1002533.922996
1015032.707578
1027515.492160
1040054.276742
1052593.061324
1065155.845905
1077998.630487
1032827.928296
1045086.712878
1057641.497460
1070116.282042
1082655.066624
1095185.851206
1107812.635788
1120479.420369
1133130.204951
1088783.502760
1101218.287342
1113773.071924
1126183.856506
1138794.641088
1151501.425670
1164088.210252
1176786.994833
1189397.779415
1145915.077224
1158365.861806
1170808.646388
1183363.430970
1195814.215552
1208409.000134
1221291.784715
1233806.569297
1246649.353879
1203574.651688
1216201.436270
1228748.220852
1241335.005434
1253929.790016
1266452.574598
1279343.359179
1291938.143761
1304780.928343
1262610.226152
1275117.010734
1287623.795316
1300282.579898
1312733.364480
1325656.149062
1338162.933643
1351021.718225
1363680.502807
1322357.800616
1334712.585198
1347291.369780
1359950.154362
1372624.938944
1385435.723526
1397958.508107
1410609.292689
1423636.077271
1382929.375080
1395388.159662
1407918.944244
1420585.728826
1433164.513408
1445871.297990
1458706.082571
1471436.867153
1484063.651735
1444308.949544
1456799.734126
1469314.518708
1482133.303290
1494600.087872
1507434.872453
1520109.657035
1532936.441617
1545667.226199
1506336.524008
1518947.308590
1531606.093172
1544240.877754
1556971.662336
1569574.446917
1582257.231499
1595300.016081
1608086.800663
1569260.098472
1581998.883054
1594425.667636
1607100.452218
1620039.236800
1632562.021381
1645340.805963
1658167.590545
1670962.375127
1632839.672936
1645554.457518
1658189.242100
1670832.026682
1683378.811264
1696253.595845
1709056.380427
1721803.165009
1734645.949591
1697387.247400
1710014.031982
1722472.816564
1734995.601146
1747894.385728
1760553.170309
1773251.954891
1786054.739473
1799049.524055
1761974.821864
1774801.606446
1787372.391028
1800143.175610
1813025.960191
1825652.744773
1838247.529355
1851210.313937
1863893.098519
1827786.396328
1840477.180910
1853063.965492
1865682.750074
1878189.534655
1890976.319237
1903907.103819
1916573.888401
1929568.672983
1893957.970792
1906592.755374
1919147.539956
1931886.324538
1944497.109119
1957251.893701
1969998.678283
1982753.462865
1995660.247447
1960481.545256
1973156.329838
1985919.114420
1998481.899002
2011284.683583
2023943.468165
2036674.252747
2049381.037329
2062423.821911
2027853.119720
2040431.904302
2052882.688884
2065573.473466
2078368.258047
2091115.042629
2103861.827211
2116600.611793
2129523.396375
2095480.694184
2108171.478766
2120742.263348
2133289.047929
2145939.832511
2158822.617093
2171577.401675
2184236.186257
2197142.970839
2163644.268648
2176215.053230
2188857.837812
2201516.622393
2214103.406975
2226818.191557
2239500.976139
2252335.760721
2265138.545303
2232199.843112
2244738.627694
2257341.412276
2270032.196857
2282602.981439
2295453.766021
2308208.550603
2320723.335185
2333574.119767
2301027.417576
2313694.202158
2326120.986740
2338899.771321
2351414.555903
2364225.340485
2377028.125067
2389766.909649
2402457.694231
2370278.992040
2383033.776622
2395564.561204
2408135.345785
2420818.130367
2433444.914949
2446175.699531
2458850.484113
2471533.268695
2440018.566504
2452349.351086
2465016.135667
2477546.920249
2490373.704831
2502992.489413
2515715.273995
2528350.058577
2541088.843159
2509782.140968
2522368.925550
2534923.710131
2547718.494713
2559953.279295
2572812.063877
2585358.848459
2598193.633041
2610852.417623
2579913.715432
2592492.500014
2604855.284595
2617666.069177
2630276.853759
2642927.638341
2655410.422923
2668245.207505
2680855.992087
2650269.289896
2662928.074478
2675378.859059
2688077.643641
2700592.428223
2713267.212805
2725853.997387
2738448.781969
2751067.566551
2720832.864360
2733419.648941
2746118.433523
2758593.218105
2770988.002687
2783662.787269
2796209.571851
2808740.356433
2821447.141015
2791636.438824
2803959.223405
2816570.007987
2828988.792569
2841863.577151
2854306.361733
2866837.146315
2879479.930897
2892106.715479
2862440.013288
2875034.797869
2887317.582451
2899952.367033
2912451.151615
2925053.936197
2937592.720779
2950035.505361
2962734.289942
2933475.587752
2946038.372333
2958529.156915
2970907.941497
2983286.726079
2995985.510661
3008452.295243
3020991.079825
3033545.864406
3004623.162216
3017161.946797
3029508.731379
3041991.515961
3054426.300543
3066925.085125
3079351.869707
3091882.654289
3104453.438870
3075674.736679
3088149.521261
3100456.305843
3112955.090425
3125365.875007
3137952.659589
3150331.444171
3162846.228753
3175345.013334
3146934.311143
3159297.095725
3171667.880307
3184038.664889
3196481.449471
3209052.234053
3221423.018635
3233833.803217
3246348.587798
3218241.885607
3230428.670189
3242719.454771
3255098.239353
3267613.023935
3279983.808517
3292458.593099
3304909.377680
3317200.162262
3289373.460071
3301520.244653
3313939.029235
3326197.813817
3338600.598399
3351011.382981
3363454.167563
3375832.952144
3388219.736726
3360369.034535
3372755.819117
3384982.603699
3397305.388281
3409540.172863
3422078.957445
3434441.742027
3446732.526608
3459047.311190
3431316.608999
3443671.393581
3456018.178163
3468404.962745
3480679.747327
3492914.531909
3505189.316491
3517448.101072
3529882.885654
3502432.183463
3514530.968045
3527005.752627
3539000.537209
3551659.321791
3563854.106373
3576000.890955
3588155.675536
3600590.460118
3573147.757927
3585310.542509
3597665.327091
3609932.111673
3622118.896255
3634449.680837
3646732.465418
3658815.250000
3671242.034582
3643935.332391
3656034.116973
3668340.901555
3680511.686137
3692682.470719
3704845.255301
3717128.039882
3729410.824464
3741645.609046
3714458.906855
3726701.691437
3738712.476019
3751043.260601
3763174.045183
3775440.829765
3787523.614346
3799766.398928
3811809.183510
3784790.481319
3796985.265901
3809204.050483
3821254.835065
3833329.619647
3845492.404229
3857775.188810
3869945.973392
3882020.757974
3854906.055783
3867156.840365
3879183.624947
3891346.409529
3903589.194111
3915599.978693
3927762.763274
3939661.547856
3951896.332438
3925021.630247
3937024.414829
3949147.199411
3961221.983993
3973208.768575
3985355.553156
3997398.337738
4009449.122320
4021747.906902
3994793.204711
4006859.989293
4018894.773875
4030945.558457
4042860.343039
4054935.127620
4066993.912202
4079012.696784
4091047.481366
4064196.779175
4076383.563757
4088314.348339
4100293.132921
4112231.917503
4124314.702084
4136237.486666
4148248.271248
4160179.055830
4133456.353639
4145467.138221
4157293.922803
4169296.707385
4181379.491967
4193278.276548
4205289.061130
4217299.845712
4229262.630294
4202387.928103
4214350.712685
4226209.497267
4238236.281849
4250247.066431
4262145.851012
4273940.635594
4285855.420176
4297730.204758
4271047.502567
4283098.287149
4294765.071731
4306783.856313
4318578.640894
4330557.425476
4342456.210058
4354194.994640
4366093.779222
4339427.077031
4351165.861613
4363168.646195
4374939.430777
4386830.215358
4398632.999940
4410355.784522
4422182.569104
4434121.353686
4407510.651495
4419177.436077
4431052.220659
4442807.005241
4454633.789822
4466580.574404
4478327.358986
4489994.143568
4501884.928150
4475130.225959
4486837.010541
4498575.795123
4510330.579705
4522061.364286
4533936.148868
4545538.933450
4557437.718032
4569048.502614
4542445.800423
4554128.585005
4565771.369587
4577638.154168
4589208.938750
4600891.723332
4612622.507914
4624425.292496
4636076.077078
