# vtk DataFile Version 2.0
Generated volume Mesh
ASCII
DATASET UNSTRUCTURED_GRID
POINTS 891 float
0.005000 0.100000 0.000000
0.005000 0.000000 0.000000
0.005000 0.001250 0.000000
0.005000 0.002500 0.000000
0.005000 0.003750 0.000000
0.005000 0.005000 0.000000
0.005000 0.006250 0.000000
0.005000 0.007500 0.000000
0.005000 0.008750 0.000000
0.005000 0.010000 0.000000
0.005000 0.011250 0.000000
0.005000 0.012500 0.000000
0.005000 0.013750 0.000000
0.005000 0.015000 0.000000
0.005000 0.016250 0.000000
0.005000 0.017500 0.000000
0.005000 0.018750 0.000000
0.005000 0.020000 0.000000
0.005000 0.021250 0.000000
0.005000 0.022500 0.000000
0.005000 0.023750 0.000000
0.005000 0.025000 0.000000
0.005000 0.026250 0.000000
0.005000 0.027500 0.000000
0.005000 0.028750 0.000000
0.005000 0.030000 0.000000
0.005000 0.031250 0.000000
0.005000 0.032500 0.000000
0.005000 0.033750 0.000000
0.005000 0.035000 0.000000
0.005000 0.036250 0.000000
0.005000 0.037500 0.000000
0.005000 0.038750 0.000000
0.005000 0.040000 0.000000
0.005000 0.041250 0.000000
0.005000 0.042500 0.000000
0.005000 0.043750 0.000000
0.005000 0.045000 0.000000
0.005000 0.046250 0.000000
0.005000 0.047500 0.000000
0.005000 0.048750 0.000000
0.005000 0.050000 0.000000
0.005000 0.051250 0.000000
0.005000 0.052500 0.000000
0.005000 0.053750 0.000000
0.005000 0.055000 0.000000
0.005000 0.056250 0.000000
0.005000 0.057500 0.000000
0.005000 0.058750 0.000000
0.005000 0.060000 0.000000
0.005000 0.061250 0.000000
0.005000 0.062500 0.000000
0.005000 0.063750 0.000000
0.005000 0.065000 0.000000
0.005000 0.066250 0.000000
0.005000 0.067500 0.000000
0.005000 0.068750 0.000000
0.005000 0.070000 0.000000
0.005000 0.071250 0.000000
0.005000 0.072500 0.000000
0.005000 0.073750 0.000000
0.005000 0.075000 0.000000
0.005000 0.076250 0.000000
0.005000 0.077500 0.000000
0.005000 0.078750 0.000000
0.005000 0.080000 0.000000
0.005000 0.081250 0.000000
0.005000 0.082500 0.000000
0.005000 0.083750 0.000000
0.005000 0.085000 0.000000
0.005000 0.086250 0.000000
0.005000 0.087500 0.000000
0.005000 0.088750 0.000000
0.005000 0.090000 0.000000
0.005000 0.091250 0.000000
0.005000 0.092500 0.000000
0.005000 0.093750 0.000000
0.005000 0.095000 0.000000
0.005000 0.096250 0.000000
0.005000 0.097500 0.000000
0.005000 0.098750 0.000000
0.000000 0.000000 0.000000
0.000000 0.100000 0.000000
0.000000 0.098750 0.000000
0.000000 0.097500 0.000000
0.000000 0.096250 0.000000
0.000000 0.095000 0.000000
0.000000 0.093750 0.000000
0.000000 0.092500 0.000000
0.000000 0.091250 0.000000
0.000000 0.090000 0.000000
0.000000 0.088750 0.000000
0.000000 0.087500 0.000000
0.000000 0.086250 0.000000
0.000000 0.085000 0.000000
0.000000 0.083750 0.000000
0.000000 0.082500 0.000000
0.000000 0.081250 0.000000
0.000000 0.080000 0.000000
0.000000 0.078750 0.000000
0.000000 0.077500 0.000000
0.000000 0.076250 0.000000
0.000000 0.075000 0.000000
0.000000 0.073750 0.000000
0.000000 0.072500 0.000000
0.000000 0.071250 0.000000
0.000000 0.070000 0.000000
0.000000 0.068750 0.000000
0.000000 0.067500 0.000000
0.000000 0.066250 0.000000
0.000000 0.065000 0.000000
0.000000 0.063750 0.000000
0.000000 0.062500 0.000000
0.000000 0.061250 0.000000
0.000000 0.060000 0.000000
0.000000 0.058750 0.000000
0.000000 0.057500 0.000000
0.000000 0.056250 0.000000
0.000000 0.055000 0.000000
0.000000 0.053750 0.000000
0.000000 0.052500 0.000000
0.000000 0.051250 0.000000
0.000000 0.050000 0.000000
0.000000 0.048750 0.000000
0.000000 0.047500 0.000000
0.000000 0.046250 0.000000
0.000000 0.045000 0.000000
0.000000 0.043750 0.000000
0.000000 0.042500 0.000000
0.000000 0.041250 0.000000
0.000000 0.040000 0.000000
0.000000 0.038750 0.000000
0.000000 0.037500 0.000000
0.000000 0.036250 0.000000
0.000000 0.035000 0.000000
0.000000 0.033750 0.000000
0.000000 0.032500 0.000000
0.000000 0.031250 0.000000
0.000000 0.030000 0.000000
0.000000 0.028750 0.000000
0.000000 0.027500 0.000000
0.000000 0.026250 0.000000
0.000000 0.025000 0.000000
0.000000 0.023750 0.000000
0.000000 0.022500 0.000000
0.000000 0.021250 0.000000
0.000000 0.020000 0.000000
0.000000 0.018750 0.000000
0.000000 0.017500 0.000000
0.000000 0.016250 0.000000
0.000000 0.015000 0.000000
0.000000 0.013750 0.000000
0.000000 0.012500 0.000000
0.000000 0.011250 0.000000
0.000000 0.010000 0.000000
0.000000 0.008750 0.000000
0.000000 0.007500 0.000000
0.000000 0.006250 0.000000
0.000000 0.005000 0.000000
0.000000 0.003750 0.000000
0.000000 0.002500 0.000000
0.000000 0.001250 0.000000
0.000500 0.000000 0.000000
0.001000 0.000000 0.000000
0.001500 0.000000 0.000000
0.002000 0.000000 0.000000
0.002500 0.000000 0.000000
0.003000 0.000000 0.000000
0.003500 0.000000 0.000000
0.004000 0.000000 0.000000
0.004500 0.000000 0.000000
0.004500 0.100000 0.000000
0.004000 0.100000 0.000000
0.003500 0.100000 0.000000
0.003000 0.100000 0.000000
0.002500 0.100000 0.000000
0.002000 0.100000 0.000000
0.001500 0.100000 0.000000
0.001000 0.100000 0.000000
0.000500 0.100000 0.000000
0.000500 0.098750 0.000000
0.001000 0.098750 0.000000
0.001500 0.098750 0.000000
0.002000 0.098750 0.000000
0.002500 0.098750 0.000000
0.003000 0.098750 0.000000
0.003500 0.098750 0.000000
0.004000 0.098750 0.000000
0.004500 0.098750 0.000000
0.000500 0.097500 0.000000
0.001000 0.097500 0.000000
0.001500 0.097500 0.000000
0.002000 0.097500 0.000000
0.002500 0.097500 0.000000
0.003000 0.097500 0.000000
0.003500 0.097500 0.000000
0.004000 0.097500 0.000000
0.004500 0.097500 0.000000
0.000500 0.096250 0.000000
0.001000 0.096250 0.000000
0.001500 0.096250 0.000000
0.002000 0.096250 0.000000
0.002500 0.096250 0.000000
0.003000 0.096250 0.000000
0.003500 0.096250 0.000000
0.004000 0.096250 0.000000
0.004500 0.096250 0.000000
0.000500 0.095000 0.000000
0.001000 0.095000 0.000000
0.001500 0.095000 0.000000
0.002000 0.095000 0.000000
0.002500 0.095000 0.000000
0.003000 0.095000 0.000000
0.003500 0.095000 0.000000
0.004000 0.095000 0.000000
0.004500 0.095000 0.000000
0.000500 0.093750 0.000000
0.001000 0.093750 0.000000
0.001500 0.093750 0.000000
0.002000 0.093750 0.000000
0.002500 0.093750 0.000000
0.003000 0.093750 0.000000
0.003500 0.093750 0.000000
0.004000 0.093750 0.000000
0.004500 0.093750 0.000000
0.000500 0.092500 0.000000
0.001000 0.092500 0.000000
0.001500 0.092500 0.000000
0.002000 0.092500 0.000000
0.002500 0.092500 0.000000
0.003000 0.092500 0.000000
0.003500 0.092500 0.000000
0.004000 0.092500 0.000000
0.004500 0.092500 0.000000
0.000500 0.091250 0.000000
0.001000 0.091250 0.000000
0.001500 0.091250 0.000000
0.002000 0.091250 0.000000
0.002500 0.091250 0.000000
0.003000 0.091250 0.000000
0.003500 0.091250 0.000000
0.004000 0.091250 0.000000
0.004500 0.091250 0.000000
0.000500 0.090000 0.000000
0.001000 0.090000 0.000000
0.001500 0.090000 0.000000
0.002000 0.090000 0.000000
0.002500 0.090000 0.000000
0.003000 0.090000 0.000000
0.003500 0.090000 0.000000
0.004000 0.090000 0.000000
0.004500 0.090000 0.000000
0.000500 0.088750 0.000000
0.001000 0.088750 0.000000
0.001500 0.088750 0.000000
0.002000 0.088750 0.000000
0.002500 0.088750 0.000000
0.003000 0.088750 0.000000
0.003500 0.088750 0.000000
0.004000 0.088750 0.000000
0.004500 0.088750 0.000000
0.000500 0.087500 0.000000
0.001000 0.087500 0.000000
0.001500 0.087500 0.000000
0.002000 0.087500 0.000000
0.002500 0.087500 0.000000
0.003000 0.087500 0.000000
0.003500 0.087500 0.000000
0.004000 0.087500 0.000000
0.004500 0.087500 0.000000
0.000500 0.086250 0.000000
0.001000 0.086250 0.000000
0.001500 0.086250 0.000000
0.002000 0.086250 0.000000
0.002500 0.086250 0.000000
0.003000 0.086250 0.000000
0.003500 0.086250 0.000000
0.004000 0.086250 0.000000
0.004500 0.086250 0.000000
0.000500 0.085000 0.000000
0.001000 0.085000 0.000000
0.001500 0.085000 0.000000
0.002000 0.085000 0.000000
0.002500 0.085000 0.000000
0.003000 0.085000 0.000000
0.003500 0.085000 0.000000
0.004000 0.085000 0.000000
0.004500 0.085000 0.000000
0.000500 0.083750 0.000000
0.001000 0.083750 0.000000
0.001500 0.083750 0.000000
0.002000 0.083750 0.000000
0.002500 0.083750 0.000000
0.003000 0.083750 0.000000
0.003500 0.083750 0.000000
0.004000 0.083750 0.000000
0.004500 0.083750 0.000000
0.000500 0.082500 0.000000
0.001000 0.082500 0.000000
0.001500 0.082500 0.000000
0.002000 0.082500 0.000000
0.002500 0.082500 0.000000
0.003000 0.082500 0.000000
0.003500 0.082500 0.000000
0.004000 0.082500 0.000000
0.004500 0.082500 0.000000
0.000500 0.081250 0.000000
0.001000 0.081250 0.000000
0.001500 0.081250 0.000000
0.002000 0.081250 0.000000
0.002500 0.081250 0.000000
0.003000 0.081250 0.000000
0.003500 0.081250 0.000000
0.004000 0.081250 0.000000
0.004500 0.081250 0.000000
0.000500 0.080000 0.000000
0.001000 0.080000 0.000000
0.001500 0.080000 0.000000
0.002000 0.080000 0.000000
0.002500 0.080000 0.000000
0.003000 0.080000 0.000000
0.003500 0.080000 0.000000
0.004000 0.080000 0.000000
0.004500 0.080000 0.000000
0.000500 0.078750 0.000000
0.001000 0.078750 0.000000
0.001500 0.078750 0.000000
0.002000 0.078750 0.000000
0.002500 0.078750 0.000000
0.003000 0.078750 0.000000
0.003500 0.078750 0.000000
0.004000 0.078750 0.000000
0.004500 0.078750 0.000000
0.000500 0.077500 0.000000
0.001000 0.077500 0.000000
0.001500 0.077500 0.000000
0.002000 0.077500 0.000000
0.002500 0.077500 0.000000
0.003000 0.077500 0.000000
0.003500 0.077500 0.000000
0.004000 0.077500 0.000000
0.004500 0.077500 0.000000
0.000500 0.076250 0.000000
0.001000 0.076250 0.000000
0.001500 0.076250 0.000000
0.002000 0.076250 0.000000
0.002500 0.076250 0.000000
0.003000 0.076250 0.000000
0.003500 0.076250 0.000000
0.004000 0.076250 0.000000
0.004500 0.076250 0.000000
0.000500 0.075000 0.000000
0.001000 0.075000 0.000000
0.001500 0.075000 0.000000
0.002000 0.075000 0.000000
0.002500 0.075000 0.000000
0.003000 0.075000 0.000000
0.003500 0.075000 0.000000
0.004000 0.075000 0.000000
0.004500 0.075000 0.000000
0.000500 0.073750 0.000000
0.001000 0.073750 0.000000
0.001500 0.073750 0.000000
0.002000 0.073750 0.000000
0.002500 0.073750 0.000000
0.003000 0.073750 0.000000
0.003500 0.073750 0.000000
0.004000 0.073750 0.000000
0.004500 0.073750 0.000000
0.000500 0.072500 0.000000
0.001000 0.072500 0.000000
0.001500 0.072500 0.000000
0.002000 0.072500 0.000000
0.002500 0.072500 0.000000
0.003000 0.072500 0.000000
0.003500 0.072500 0.000000
0.004000 0.072500 0.000000
0.004500 0.072500 0.000000
0.000500 0.071250 0.000000
0.001000 0.071250 0.000000
0.001500 0.071250 0.000000
0.002000 0.071250 0.000000
0.002500 0.071250 0.000000
0.003000 0.071250 0.000000
0.003500 0.071250 0.000000
0.004000 0.071250 0.000000
0.004500 0.071250 0.000000
0.000500 0.070000 0.000000
0.001000 0.070000 0.000000
0.001500 0.070000 0.000000
0.002000 0.070000 0.000000
0.002500 0.070000 0.000000
0.003000 0.070000 0.000000
0.003500 0.070000 0.000000
0.004000 0.070000 0.000000
0.004500 0.070000 0.000000
0.000500 0.068750 0.000000
0.001000 0.068750 0.000000
0.001500 0.068750 0.000000
0.002000 0.068750 0.000000
0.002500 0.068750 0.000000
0.003000 0.068750 0.000000
0.003500 0.068750 0.000000
0.004000 0.068750 0.000000
0.004500 0.068750 0.000000
0.000500 0.067500 0.000000
0.001000 0.067500 0.000000
0.001500 0.067500 0.000000
0.002000 0.067500 0.000000
0.002500 0.067500 0.000000
0.003000 0.067500 0.000000
0.003500 0.067500 0.000000
0.004000 0.067500 0.000000
0.004500 0.067500 0.000000
0.000500 0.066250 0.000000
0.001000 0.066250 0.000000
0.001500 0.066250 0.000000
0.002000 0.066250 0.000000
0.002500 0.066250 0.000000
0.003000 0.066250 0.000000
0.003500 0.066250 0.000000
0.004000 0.066250 0.000000
0.004500 0.066250 0.000000
0.000500 0.065000 0.000000
0.001000 0.065000 0.000000
0.001500 0.065000 0.000000
0.002000 0.065000 0.000000
0.002500 0.065000 0.000000
0.003000 0.065000 0.000000
0.003500 0.065000 0.000000
0.004000 0.065000 0.000000
0.004500 0.065000 0.000000
0.000500 0.063750 0.000000
0.001000 0.063750 0.000000
0.001500 0.063750 0.000000
0.002000 0.063750 0.000000
0.002500 0.063750 0.000000
0.003000 0.063750 0.000000
0.003500 0.063750 0.000000
0.004000 0.063750 0.000000
0.004500 0.063750 0.000000
0.000500 0.062500 0.000000
0.001000 0.062500 0.000000
0.001500 0.062500 0.000000
0.002000 0.062500 0.000000
0.002500 0.062500 0.000000
0.003000 0.062500 0.000000
0.003500 0.062500 0.000000
0.004000 0.062500 0.000000
0.004500 0.062500 0.000000
0.000500 0.061250 0.000000
0.001000 0.061250 0.000000
0.001500 0.061250 0.000000
0.002000 0.061250 0.000000
0.002500 0.061250 0.000000
0.003000 0.061250 0.000000
0.003500 0.061250 0.000000
0.004000 0.061250 0.000000
0.004500 0.061250 0.000000
0.000500 0.060000 0.000000
0.001000 0.060000 0.000000
0.001500 0.060000 0.000000
0.002000 0.060000 0.000000
0.002500 0.060000 0.000000
0.003000 0.060000 0.000000
0.003500 0.060000 0.000000
0.004000 0.060000 0.000000
0.004500 0.060000 0.000000
0.000500 0.058750 0.000000
0.001000 0.058750 0.000000
0.001500 0.058750 0.000000
0.002000 0.058750 0.000000
0.002500 0.058750 0.000000
0.003000 0.058750 0.000000
0.003500 0.058750 0.000000
0.004000 0.058750 0.000000
0.004500 0.058750 0.000000
0.000500 0.057500 0.000000
0.001000 0.057500 0.000000
0.001500 0.057500 0.000000
0.002000 0.057500 0.000000
0.002500 0.057500 0.000000
0.003000 0.057500 0.000000
0.003500 0.057500 0.000000
0.004000 0.057500 0.000000
0.004500 0.057500 0.000000
0.000500 0.056250 0.000000
0.001000 0.056250 0.000000
0.001500 0.056250 0.000000
0.002000 0.056250 0.000000
0.002500 0.056250 0.000000
0.003000 0.056250 0.000000
0.003500 0.056250 0.000000
0.004000 0.056250 0.000000
0.004500 0.056250 0.000000
0.000500 0.055000 0.000000
0.001000 0.055000 0.000000
0.001500 0.055000 0.000000
0.002000 0.055000 0.000000
0.002500 0.055000 0.000000
0.003000 0.055000 0.000000
0.003500 0.055000 0.000000
0.004000 0.055000 0.000000
0.004500 0.055000 0.000000
0.000500 0.053750 0.000000
0.001000 0.053750 0.000000
0.001500 0.053750 0.000000
0.002000 0.053750 0.000000
0.002500 0.053750 0.000000
0.003000 0.053750 0.000000
0.003500 0.053750 0.000000
0.004000 0.053750 0.000000
0.004500 0.053750 0.000000
0.000500 0.052500 0.000000
0.001000 0.052500 0.000000
0.001500 0.052500 0.000000
0.002000 0.052500 0.000000
0.002500 0.052500 0.000000
0.003000 0.052500 0.000000
0.003500 0.052500 0.000000
0.004000 0.052500 0.000000
0.004500 0.052500 0.000000
0.000500 0.051250 0.000000
0.001000 0.051250 0.000000
0.001500 0.051250 0.000000
0.002000 0.051250 0.000000
0.002500 0.051250 0.000000
0.003000 0.051250 0.000000
0.003500 0.051250 0.000000
0.004000 0.051250 0.000000
0.004500 0.051250 0.000000
0.000500 0.050000 0.000000
0.001000 0.050000 0.000000
0.001500 0.050000 0.000000
0.002000 0.050000 0.000000
0.002500 0.050000 0.000000
0.003000 0.050000 0.000000
0.003500 0.050000 0.000000
0.004000 0.050000 0.000000
0.004500 0.050000 0.000000
0.000500 0.048750 0.000000
0.001000 0.048750 0.000000
0.001500 0.048750 0.000000
0.002000 0.048750 0.000000
0.002500 0.048750 0.000000
0.003000 0.048750 0.000000
0.003500 0.048750 0.000000
0.004000 0.048750 0.000000
0.004500 0.048750 0.000000
0.000500 0.047500 0.000000
0.001000 0.047500 0.000000
0.001500 0.047500 0.000000
0.002000 0.047500 0.000000
0.002500 0.047500 0.000000
0.003000 0.047500 0.000000
0.003500 0.047500 0.000000
0.004000 0.047500 0.000000
0.004500 0.047500 0.000000
0.000500 0.046250 0.000000
0.001000 0.046250 0.000000
0.001500 0.046250 0.000000
0.002000 0.046250 0.000000
0.002500 0.046250 0.000000
0.003000 0.046250 0.000000
0.003500 0.046250 0.000000
0.004000 0.046250 0.000000
0.004500 0.046250 0.000000
0.000500 0.045000 0.000000
0.001000 0.045000 0.000000
0.001500 0.045000 0.000000
0.002000 0.045000 0.000000
0.002500 0.045000 0.000000
0.003000 0.045000 0.000000
0.003500 0.045000 0.000000
0.004000 0.045000 0.000000
0.004500 0.045000 0.000000
0.000500 0.043750 0.000000
0.001000 0.043750 0.000000
0.001500 0.043750 0.000000
0.002000 0.043750 0.000000
0.002500 0.043750 0.000000
0.003000 0.043750 0.000000
0.003500 0.043750 0.000000
0.004000 0.043750 0.000000
0.004500 0.043750 0.000000
0.000500 0.042500 0.000000
0.001000 0.042500 0.000000
0.001500 0.042500 0.000000
0.002000 0.042500 0.000000
0.002500 0.042500 0.000000
0.003000 0.042500 0.000000
0.003500 0.042500 0.000000
0.004000 0.042500 0.000000
0.004500 0.042500 0.000000
0.000500 0.041250 0.000000
0.001000 0.041250 0.000000
0.001500 0.041250 0.000000
0.002000 0.041250 0.000000
0.002500 0.041250 0.000000
0.003000 0.041250 0.000000
0.003500 0.041250 0.000000
0.004000 0.041250 0.000000
0.004500 0.041250 0.000000
0.000500 0.040000 0.000000
0.001000 0.040000 0.000000
0.001500 0.040000 0.000000
0.002000 0.040000 0.000000
0.002500 0.040000 0.000000
0.003000 0.040000 0.000000
0.003500 0.040000 0.000000
0.004000 0.040000 0.000000
0.004500 0.040000 0.000000
0.000500 0.038750 0.000000
0.001000 0.038750 0.000000
0.001500 0.038750 0.000000
0.002000 0.038750 0.000000
0.002500 0.038750 0.000000
0.003000 0.038750 0.000000
0.003500 0.038750 0.000000
0.004000 0.038750 0.000000
0.004500 0.038750 0.000000
0.000500 0.037500 0.000000
0.001000 0.037500 0.000000
0.001500 0.037500 0.000000
0.002000 0.037500 0.000000
0.002500 0.037500 0.000000
0.003000 0.037500 0.000000
0.003500 0.037500 0.000000
0.004000 0.037500 0.000000
0.004500 0.037500 0.000000
0.000500 0.036250 0.000000
0.001000 0.036250 0.000000
0.001500 0.036250 0.000000
0.002000 0.036250 0.000000
0.002500 0.036250 0.000000
0.003000 0.036250 0.000000
0.003500 0.036250 0.000000
0.004000 0.036250 0.000000
0.004500 0.036250 0.000000
0.000500 0.035000 0.000000
0.001000 0.035000 0.000000
0.001500 0.035000 0.000000
0.002000 0.035000 0.000000
0.002500 0.035000 0.000000
0.003000 0.035000 0.000000
0.003500 0.035000 0.000000
0.004000 0.035000 0.000000
0.004500 0.035000 0.000000
0.000500 0.033750 0.000000
0.001000 0.033750 0.000000
0.001500 0.033750 0.000000
0.002000 0.033750 0.000000
0.002500 0.033750 0.000000
0.003000 0.033750 0.000000
0.003500 0.033750 0.000000
0.004000 0.033750 0.000000
0.004500 0.033750 0.000000
0.000500 0.032500 0.000000
0.001000 0.032500 0.000000
0.001500 0.032500 0.000000
0.002000 0.032500 0.000000
0.002500 0.032500 0.000000
0.003000 0.032500 0.000000
0.003500 0.032500 0.000000
0.004000 0.032500 0.000000
0.004500 0.032500 0.000000
0.000500 0.031250 0.000000
0.001000 0.031250 0.000000
0.001500 0.031250 0.000000
0.002000 0.031250 0.000000
0.002500 0.031250 0.000000
0.003000 0.031250 0.000000
0.003500 0.031250 0.000000
0.004000 0.031250 0.000000
0.004500 0.031250 0.000000
0.000500 0.030000 0.000000
0.001000 0.030000 0.000000
0.001500 0.030000 0.000000
0.002000 0.030000 0.000000
0.002500 0.030000 0.000000
0.003000 0.030000 0.000000
0.003500 0.030000 0.000000
0.004000 0.030000 0.000000
0.004500 0.030000 0.000000
0.000500 0.028750 0.000000
0.001000 0.028750 0.000000
0.001500 0.028750 0.000000
0.002000 0.028750 0.000000
0.002500 0.028750 0.000000
0.003000 0.028750 0.000000
0.003500 0.028750 0.000000
0.004000 0.028750 0.000000
0.004500 0.028750 0.000000
0.000500 0.027500 0.000000
0.001000 0.027500 0.000000
0.001500 0.027500 0.000000
0.002000 0.027500 0.000000
0.002500 0.027500 0.000000
0.003000 0.027500 0.000000
0.003500 0.027500 0.000000
0.004000 0.027500 0.000000
0.004500 0.027500 0.000000
0.000500 0.026250 0.000000
0.001000 0.026250 0.000000
0.001500 0.026250 0.000000
0.002000 0.026250 0.000000
0.002500 0.026250 0.000000
0.003000 0.026250 0.000000
0.003500 0.026250 0.000000
0.004000 0.026250 0.000000
0.004500 0.026250 0.000000
0.000500 0.025000 0.000000
0.001000 0.025000 0.000000
0.001500 0.025000 0.000000
0.002000 0.025000 0.000000
0.002500 0.025000 0.000000
0.003000 0.025000 0.000000
0.003500 0.025000 0.000000
0.004000 0.025000 0.000000
0.004500 0.025000 0.000000
0.000500 0.023750 0.000000
0.001000 0.023750 0.000000
0.001500 0.023750 0.000000
0.002000 0.023750 0.000000
0.002500 0.023750 0.000000
0.003000 0.023750 0.000000
0.003500 0.023750 0.000000
0.004000 0.023750 0.000000
0.004500 0.023750 0.000000
0.000500 0.022500 0.000000
0.001000 0.022500 0.000000
0.001500 0.022500 0.000000
0.002000 0.022500 0.000000
0.002500 0.022500 0.000000
0.003000 0.022500 0.000000
0.003500 0.022500 0.000000
0.004000 0.022500 0.000000
0.004500 0.022500 0.000000
0.000500 0.021250 0.000000
0.001000 0.021250 0.000000
0.001500 0.021250 0.000000
0.002000 0.021250 0.000000
0.002500 0.021250 0.000000
0.003000 0.021250 0.000000
0.003500 0.021250 0.000000
0.004000 0.021250 0.000000
0.004500 0.021250 0.000000
0.000500 0.020000 0.000000
0.001000 0.020000 0.000000
0.001500 0.020000 0.000000
0.002000 0.020000 0.000000
0.002500 0.020000 0.000000
0.003000 0.020000 0.000000
0.003500 0.020000 0.000000
0.004000 0.020000 0.000000
0.004500 0.020000 0.000000
0.000500 0.018750 0.000000
0.001000 0.018750 0.000000
0.001500 0.018750 0.000000
0.002000 0.018750 0.000000
0.002500 0.018750 0.000000
0.003000 0.018750 0.000000
0.003500 0.018750 0.000000
0.004000 0.018750 0.000000
0.004500 0.018750 0.000000
0.000500 0.017500 0.000000
0.001000 0.017500 0.000000
0.001500 0.017500 0.000000
0.002000 0.017500 0.000000
0.002500 0.017500 0.000000
0.003000 0.017500 0.000000
0.003500 0.017500 0.000000
0.004000 0.017500 0.000000
0.004500 0.017500 0.000000
0.000500 0.016250 0.000000
0.001000 0.016250 0.000000
0.001500 0.016250 0.000000
0.002000 0.016250 0.000000
0.002500 0.016250 0.000000
0.003000 0.016250 0.000000
0.003500 0.016250 0.000000
0.004000 0.016250 0.000000
0.004500 0.016250 0.000000
0.000500 0.015000 0.000000
0.001000 0.015000 0.000000
0.001500 0.015000 0.000000
0.002000 0.015000 0.000000
0.002500 0.015000 0.000000
0.003000 0.015000 0.000000
0.003500 0.015000 0.000000
0.004000 0.015000 0.000000
0.004500 0.015000 0.000000
0.000500 0.013750 0.000000
0.001000 0.013750 0.000000
0.001500 0.013750 0.000000
0.002000 0.013750 0.000000
0.002500 0.013750 0.000000
0.003000 0.013750 0.000000
0.003500 0.013750 0.000000
0.004000 0.013750 0.000000
0.004500 0.013750 0.000000
0.000500 0.012500 0.000000
0.001000 0.012500 0.000000
0.001500 0.012500 0.000000
0.002000 0.012500 0.000000
0.002500 0.012500 0.000000
0.003000 0.012500 0.000000
0.003500 0.012500 0.000000
0.004000 0.012500 0.000000
0.004500 0.012500 0.000000
0.000500 0.011250 0.000000
0.001000 0.011250 0.000000
0.001500 0.011250 0.000000
0.002000 0.011250 0.000000
0.002500 0.011250 0.000000
0.003000 0.011250 0.000000
0.003500 0.011250 0.000000
0.004000 0.011250 0.000000
0.004500 0.011250 0.000000
0.000500 0.010000 0.000000
0.001000 0.010000 0.000000
0.001500 0.010000 0.000000
0.002000 0.010000 0.000000
0.002500 0.010000 0.000000
0.003000 0.010000 0.000000
0.003500 0.010000 0.000000
0.004000 0.010000 0.000000
0.004500 0.010000 0.000000
0.000500 0.008750 0.000000
0.001000 0.008750 0.000000
0.001500 0.008750 0.000000
0.002000 0.008750 0.000000
0.002500 0.008750 0.000000
0.003000 0.008750 0.000000
0.003500 0.008750 0.000000
0.004000 0.008750 0.000000
0.004500 0.008750 0.000000
0.000500 0.007500 0.000000
0.001000 0.007500 0.000000
0.001500 0.007500 0.000000
0.002000 0.007500 0.000000
0.002500 0.007500 0.000000
0.003000 0.007500 0.000000
0.003500 0.007500 0.000000
0.004000 0.007500 0.000000
0.004500 0.007500 0.000000
0.000500 0.006250 0.000000
0.001000 0.006250 0.000000
0.001500 0.006250 0.000000
0.002000 0.006250 0.000000
0.002500 0.006250 0.000000
0.003000 0.006250 0.000000
0.003500 0.006250 0.000000
0.004000 0.006250 0.000000
0.004500 0.006250 0.000000
0.000500 0.005000 0.000000
0.001000 0.005000 0.000000
0.001500 0.005000 0.000000
0.002000 0.005000 0.000000
0.002500 0.005000 0.000000
0.003000 0.005000 0.000000
0.003500 0.005000 0.000000
0.004000 0.005000 0.000000
0.004500 0.005000 0.000000
0.000500 0.003750 0.000000
0.001000 0.003750 0.000000
0.001500 0.003750 0.000000
0.002000 0.003750 0.000000
0.002500 0.003750 0.000000
0.003000 0.003750 0.000000
0.003500 0.003750 0.000000
0.004000 0.003750 0.000000
0.004500 0.003750 0.000000
0.000500 0.002500 0.000000
0.001000 0.002500 0.000000
0.001500 0.002500 0.000000
0.002000 0.002500 0.000000
0.002500 0.002500 0.000000
0.003000 0.002500 0.000000
0.003500 0.002500 0.000000
0.004000 0.002500 0.000000
0.004500 0.002500 0.000000
0.000500 0.001250 0.000000
0.001000 0.001250 0.000000
0.001500 0.001250 0.000000
0.002000 0.001250 0.000000
0.002500 0.001250 0.000000
0.003000 0.001250 0.000000
0.003500 0.001250 0.000000
0.004000 0.001250 0.000000
0.004500 0.001250 0.000000
CELLS 800 4000
4 82 83 180 179
4 179 180 181 178
4 178 181 182 177
4 177 182 183 176
4 176 183 184 175
4 175 184 185 174
4 174 185 186 173
4 173 186 187 172
4 172 187 188 171
4 171 188 80 0
4 83 84 189 180
4 180 189 190 181
4 181 190 191 182
4 182 191 192 183
4 183 192 193 184
4 184 193 194 185
4 185 194 195 186
4 186 195 196 187
4 187 196 197 188
4 188 197 79 80
4 84 85 198 189
4 189 198 199 190
4 190 199 200 191
4 191 200 201 192
4 192 201 202 193
4 193 202 203 194
4 194 203 204 195
4 195 204 205 196
4 196 205 206 197
4 197 206 78 79
4 85 86 207 198
4 198 207 208 199
4 199 208 209 200
4 200 209 210 201
4 201 210 211 202
4 202 211 212 203
4 203 212 213 204
4 204 213 214 205
4 205 214 215 206
4 206 215 77 78
4 86 87 216 207
4 207 216 217 208
4 208 217 218 209
4 209 218 219 210
4 210 219 220 211
4 211 220 221 212
4 212 221 222 213
4 213 222 223 214
4 214 223 224 215
4 215 224 76 77
4 87 88 225 216
4 216 225 226 217
4 217 226 227 218
4 218 227 228 219
4 219 228 229 220
4 220 229 230 221
4 221 230 231 222
4 222 231 232 223
4 223 232 233 224
4 224 233 75 76
4 88 89 234 225
4 225 234 235 226
4 226 235 236 227
4 227 236 237 228
4 228 237 238 229
4 229 238 239 230
4 230 239 240 231
4 231 240 241 232
4 232 241 242 233
4 233 242 74 75
4 89 90 243 234
4 234 243 244 235
4 235 244 245 236
4 236 245 246 237
4 237 246 247 238
4 238 247 248 239
4 239 248 249 240
4 240 249 250 241
4 241 250 251 242
4 242 251 73 74
4 90 91 252 243
4 243 252 253 244
4 244 253 254 245
4 245 254 255 246
4 246 255 256 247
4 247 256 257 248
4 248 257 258 249
4 249 258 259 250
4 250 259 260 251
4 251 260 72 73
4 91 92 261 252
4 252 261 262 253
4 253 262 263 254
4 254 263 264 255
4 255 264 265 256
4 256 265 266 257
4 257 266 267 258
4 258 267 268 259
4 259 268 269 260
4 260 269 71 72
4 92 93 270 261
4 261 270 271 262
4 262 271 272 263
4 263 272 273 264
4 264 273 274 265
4 265 274 275 266
4 266 275 276 267
4 267 276 277 268
4 268 277 278 269
4 269 278 70 71
4 93 94 279 270
4 270 279 280 271
4 271 280 281 272
4 272 281 282 273
4 273 282 283 274
4 274 283 284 275
4 275 284 285 276
4 276 285 286 277
4 277 286 287 278
4 278 287 69 70
4 94 95 288 279
4 279 288 289 280
4 280 289 290 281
4 281 290 291 282
4 282 291 292 283
4 283 292 293 284
4 284 293 294 285
4 285 294 295 286
4 286 295 296 287
4 287 296 68 69
4 95 96 297 288
4 288 297 298 289
4 289 298 299 290
4 290 299 300 291
4 291 300 301 292
4 292 301 302 293
4 293 302 303 294
4 294 303 304 295
4 295 304 305 296
4 296 305 67 68
4 96 97 306 297
4 297 306 307 298
4 298 307 308 299
4 299 308 309 300
4 300 309 310 301
4 301 310 311 302
4 302 311 312 303
4 303 312 313 304
4 304 313 314 305
4 305 314 66 67
4 97 98 315 306
4 306 315 316 307
4 307 316 317 308
4 308 317 318 309
4 309 318 319 310
4 310 319 320 311
4 311 320 321 312
4 312 321 322 313
4 313 322 323 314
4 314 323 65 66
4 98 99 324 315
4 315 324 325 316
4 316 325 326 317
4 317 326 327 318
4 318 327 328 319
4 319 328 329 320
4 320 329 330 321
4 321 330 331 322
4 322 331 332 323
4 323 332 64 65
4 99 100 333 324
4 324 333 334 325
4 325 334 335 326
4 326 335 336 327
4 327 336 337 328
4 328 337 338 329
4 329 338 339 330
4 330 339 340 331
4 331 340 341 332
4 332 341 63 64
4 100 101 342 333
4 333 342 343 334
4 334 343 344 335
4 335 344 345 336
4 336 345 346 337
4 337 346 347 338
4 338 347 348 339
4 339 348 349 340
4 340 349 350 341
4 341 350 62 63
4 101 102 351 342
4 342 351 352 343
4 343 352 353 344
4 344 353 354 345
4 345 354 355 346
4 346 355 356 347
4 347 356 357 348
4 348 357 358 349
4 349 358 359 350
4 350 359 61 62
4 102 103 360 351
4 351 360 361 352
4 352 361 362 353
4 353 362 363 354
4 354 363 364 355
4 355 364 365 356
4 356 365 366 357
4 357 366 367 358
4 358 367 368 359
4 359 368 60 61
4 103 104 369 360
4 360 369 370 361
4 361 370 371 362
4 362 371 372 363
4 363 372 373 364
4 364 373 374 365
4 365 374 375 366
4 366 375 376 367
4 367 376 377 368
4 368 377 59 60
4 104 105 378 369
4 369 378 379 370
4 370 379 380 371
4 371 380 381 372
4 372 381 382 373
4 373 382 383 374
4 374 383 384 375
4 375 384 385 376
4 376 385 386 377
4 377 386 58 59
4 105 106 387 378
4 378 387 388 379
4 379 388 389 380
4 380 389 390 381
4 381 390 391 382
4 382 391 392 383
4 383 392 393 384
4 384 393 394 385
4 385 394 395 386
4 386 395 57 58
4 106 107 396 387
4 387 396 397 388
4 388 397 398 389
4 389 398 399 390
4 390 399 400 391
4 391 400 401 392
4 392 401 402 393
4 393 402 403 394
4 394 403 404 395
4 395 404 56 57
4 107 108 405 396
4 396 405 406 397
4 397 406 407 398
4 398 407 408 399
4 399 408 409 400
4 400 409 410 401
4 401 410 411 402
4 402 411 412 403
4 403 412 413 404
4 404 413 55 56
4 108 109 414 405
4 405 414 415 406
4 406 415 416 407
4 407 416 417 408
4 408 417 418 409
4 409 418 419 410
4 410 419 420 411
4 411 420 421 412
4 412 421 422 413
4 413 422 54 55
4 109 110 423 414
4 414 423 424 415
4 415 424 425 416
4 416 425 426 417
4 417 426 427 418
4 418 427 428 419
4 419 428 429 420
4 420 429 430 421
4 421 430 431 422
4 422 431 53 54
4 110 111 432 423
4 423 432 433 424
4 424 433 434 425
4 425 434 435 426
4 426 435 436 427
4 427 436 437 428
4 428 437 438 429
4 429 438 439 430
4 430 439 440 431
4 431 440 52 53
4 111 112 441 432
4 432 441 442 433
4 433 442 443 434
4 434 443 444 435
4 435 444 445 436
4 436 445 446 437
4 437 446 447 438
4 438 447 448 439
4 439 448 449 440
4 440 449 51 52
4 112 113 450 441
4 441 450 451 442
4 442 451 452 443
4 443 452 453 444
4 444 453 454 445
4 445 454 455 446
4 446 455 456 447
4 447 456 457 448
4 448 457 458 449
4 449 458 50 51
4 113 114 459 450
4 450 459 460 451
4 451 460 461 452
4 452 461 462 453
4 453 462 463 454
4 454 463 464 455
4 455 464 465 456
4 456 465 466 457
4 457 466 467 458
4 458 467 49 50
4 114 115 468 459
4 459 468 469 460
4 460 469 470 461
4 461 470 471 462
4 462 471 472 463
4 463 472 473 464
4 464 473 474 465
4 465 474 475 466
4 466 475 476 467
4 467 476 48 49
4 115 116 477 468
4 468 477 478 469
4 469 478 479 470
4 470 479 480 471
4 471 480 481 472
4 472 481 482 473
4 473 482 483 474
4 474 483 484 475
4 475 484 485 476
4 476 485 47 48
4 116 117 486 477
4 477 486 487 478
4 478 487 488 479
4 479 488 489 480
4 480 489 490 481
4 481 490 491 482
4 482 491 492 483
4 483 492 493 484
4 484 493 494 485
4 485 494 46 47
4 117 118 495 486
4 486 495 496 487
4 487 496 497 488
4 488 497 498 489
4 489 498 499 490
4 490 499 500 491
4 491 500 501 492
4 492 501 502 493
4 493 502 503 494
4 494 503 45 46
4 118 119 504 495
4 495 504 505 496
4 496 505 506 497
4 497 506 507 498
4 498 507 508 499
4 499 508 509 500
4 500 509 510 501
4 501 510 511 502
4 502 511 512 503
4 503 512 44 45
4 119 120 513 504
4 504 513 514 505
4 505 514 515 506
4 506 515 516 507
4 507 516 517 508
4 508 517 518 509
4 509 518 519 510
4 510 519 520 511
4 511 520 521 512
4 512 521 43 44
4 120 121 522 513
4 513 522 523 514
4 514 523 524 515
4 515 524 525 516
4 516 525 526 517
4 517 526 527 518
4 518 527 528 519
4 519 528 529 520
4 520 529 530 521
4 521 530 42 43
4 121 122 531 522
4 522 531 532 523
4 523 532 533 524
4 524 533 534 525
4 525 534 535 526
4 526 535 536 527
4 527 536 537 528
4 528 537 538 529
4 529 538 539 530
4 530 539 41 42
4 122 123 540 531
4 531 540 541 532
4 532 541 542 533
4 533 542 543 534
4 534 543 544 535
4 535 544 545 536
4 536 545 546 537
4 537 546 547 538
4 538 547 548 539
4 539 548 40 41
4 123 124 549 540
4 540 549 550 541
4 541 550 551 542
4 542 551 552 543
4 543 552 553 544
4 544 553 554 545
4 545 554 555 546
4 546 555 556 547
4 547 556 557 548
4 548 557 39 40
4 124 125 558 549
4 549 558 559 550
4 550 559 560 551
4 551 560 561 552
4 552 561 562 553
4 553 562 563 554
4 554 563 564 555
4 555 564 565 556
4 556 565 566 557
4 557 566 38 39
4 125 126 567 558
4 558 567 568 559
4 559 568 569 560
4 560 569 570 561
4 561 570 571 562
4 562 571 572 563
4 563 572 573 564
4 564 573 574 565
4 565 574 575 566
4 566 575 37 38
4 126 127 576 567
4 567 576 577 568
4 568 577 578 569
4 569 578 579 570
4 570 579 580 571
4 571 580 581 572
4 572 581 582 573
4 573 582 583 574
4 574 583 584 575
4 575 584 36 37
4 127 128 585 576
4 576 585 586 577
4 577 586 587 578
4 578 587 588 579
4 579 588 589 580
4 580 589 590 581
4 581 590 591 582
4 582 591 592 583
4 583 592 593 584
4 584 593 35 36
4 128 129 594 585
4 585 594 595 586
4 586 595 596 587
4 587 596 597 588
4 588 597 598 589
4 589 598 599 590
4 590 599 600 591
4 591 600 601 592
4 592 601 602 593
4 593 602 34 35
4 129 130 603 594
4 594 603 604 595
4 595 604 605 596
4 596 605 606 597
4 597 606 607 598
4 598 607 608 599
4 599 608 609 600
4 600 609 610 601
4 601 610 611 602
4 602 611 33 34
4 130 131 612 603
4 603 612 613 604
4 604 613 614 605
4 605 614 615 606
4 606 615 616 607
4 607 616 617 608
4 608 617 618 609
4 609 618 619 610
4 610 619 620 611
4 611 620 32 33
4 131 132 621 612
4 612 621 622 613
4 613 622 623 614
4 614 623 624 615
4 615 624 625 616
4 616 625 626 617
4 617 626 627 618
4 618 627 628 619
4 619 628 629 620
4 620 629 31 32
4 132 133 630 621
4 621 630 631 622
4 622 631 632 623
4 623 632 633 624
4 624 633 634 625
4 625 634 635 626
4 626 635 636 627
4 627 636 637 628
4 628 637 638 629
4 629 638 30 31
4 133 134 639 630
4 630 639 640 631
4 631 640 641 632
4 632 641 642 633
4 633 642 643 634
4 634 643 644 635
4 635 644 645 636
4 636 645 646 637
4 637 646 647 638
4 638 647 29 30
4 134 135 648 639
4 639 648 649 640
4 640 649 650 641
4 641 650 651 642
4 642 651 652 643
4 643 652 653 644
4 644 653 654 645
4 645 654 655 646
4 646 655 656 647
4 647 656 28 29
4 135 136 657 648
4 648 657 658 649
4 649 658 659 650
4 650 659 660 651
4 651 660 661 652
4 652 661 662 653
4 653 662 663 654
4 654 663 664 655
4 655 664 665 656
4 656 665 27 28
4 136 137 666 657
4 657 666 667 658
4 658 667 668 659
4 659 668 669 660
4 660 669 670 661
4 661 670 671 662
4 662 671 672 663
4 663 672 673 664
4 664 673 674 665
4 665 674 26 27
4 137 138 675 666
4 666 675 676 667
4 667 676 677 668
4 668 677 678 669
4 669 678 679 670
4 670 679 680 671
4 671 680 681 672
4 672 681 682 673
4 673 682 683 674
4 674 683 25 26
4 138 139 684 675
4 675 684 685 676
4 676 685 686 677
4 677 686 687 678
4 678 687 688 679
4 679 688 689 680
4 680 689 690 681
4 681 690 691 682
4 682 691 692 683
4 683 692 24 25
4 139 140 693 684
4 684 693 694 685
4 685 694 695 686
4 686 695 696 687
4 687 696 697 688
4 688 697 698 689
4 689 698 699 690
4 690 699 700 691
4 691 700 701 692
4 692 701 23 24
4 140 141 702 693
4 693 702 703 694
4 694 703 704 695
4 695 704 705 696
4 696 705 706 697
4 697 706 707 698
4 698 707 708 699
4 699 708 709 700
4 700 709 710 701
4 701 710 22 23
4 141 142 711 702
4 702 711 712 703
4 703 712 713 704
4 704 713 714 705
4 705 714 715 706
4 706 715 716 707
4 707 716 717 708
4 708 717 718 709
4 709 718 719 710
4 710 719 21 22
4 142 143 720 711
4 711 720 721 712
4 712 721 722 713
4 713 722 723 714
4 714 723 724 715
4 715 724 725 716
4 716 725 726 717
4 717 726 727 718
4 718 727 728 719
4 719 728 20 21
4 143 144 729 720
4 720 729 730 721
4 721 730 731 722
4 722 731 732 723
4 723 732 733 724
4 724 733 734 725
4 725 734 735 726
4 726 735 736 727
4 727 736 737 728
4 728 737 19 20
4 144 145 738 729
4 729 738 739 730
4 730 739 740 731
4 731 740 741 732
4 732 741 742 733
4 733 742 743 734
4 734 743 744 735
4 735 744 745 736
4 736 745 746 737
4 737 746 18 19
4 145 146 747 738
4 738 747 748 739
4 739 748 749 740
4 740 749 750 741
4 741 750 751 742
4 742 751 752 743
4 743 752 753 744
4 744 753 754 745
4 745 754 755 746
4 746 755 17 18
4 146 147 756 747
4 747 756 757 748
4 748 757 758 749
4 749 758 759 750
4 750 759 760 751
4 751 760 761 752
4 752 761 762 753
4 753 762 763 754
4 754 763 764 755
4 755 764 16 17
4 147 148 765 756
4 756 765 766 757
4 757 766 767 758
4 758 767 768 759
4 759 768 769 760
4 760 769 770 761
4 761 770 771 762
4 762 771 772 763
4 763 772 773 764
4 764 773 15 16
4 148 149 774 765
4 765 774 775 766
4 766 775 776 767
4 767 776 777 768
4 768 777 778 769
4 769 778 779 770
4 770 779 780 771
4 771 780 781 772
4 772 781 782 773
4 773 782 14 15
4 149 150 783 774
4 774 783 784 775
4 775 784 785 776
4 776 785 786 777
4 777 786 787 778
4 778 787 788 779
4 779 788 789 780
4 780 789 790 781
4 781 790 791 782
4 782 791 13 14
4 150 151 792 783
4 783 792 793 784
4 784 793 794 785
4 785 794 795 786
4 786 795 796 787
4 787 796 797 788
4 788 797 798 789
4 789 798 799 790
4 790 799 800 791
4 791 800 12 13
4 151 152 801 792
4 792 801 802 793
4 793 802 803 794
4 794 803 804 795
4 795 804 805 796
4 796 805 806 797
4 797 806 807 798
4 798 807 808 799
4 799 808 809 800
4 800 809 11 12
4 152 153 810 801
4 801 810 811 802
4 802 811 812 803
4 803 812 813 804
4 804 813 814 805
4 805 814 815 806
4 806 815 816 807
4 807 816 817 808
4 808 817 818 809
4 809 818 10 11
4 153 154 819 810
4 810 819 820 811
4 811 820 821 812
4 812 821 822 813
4 813 822 823 814
4 814 823 824 815
4 815 824 825 816
4 816 825 826 817
4 817 826 827 818
4 818 827 9 10
4 154 155 828 819
4 819 828 829 820
4 820 829 830 821
4 821 830 831 822
4 822 831 832 823
4 823 832 833 824
4 824 833 834 825
4 825 834 835 826
4 826 835 836 827
4 827 836 8 9
4 155 156 837 828
4 828 837 838 829
4 829 838 839 830
4 830 839 840 831
4 831 840 841 832
4 832 841 842 833
4 833 842 843 834
4 834 843 844 835
4 835 844 845 836
4 836 845 7 8
4 156 157 846 837
4 837 846 847 838
4 838 847 848 839
4 839 848 849 840
4 840 849 850 841
4 841 850 851 842
4 842 851 852 843
4 843 852 853 844
4 844 853 854 845
4 845 854 6 7
4 157 158 855 846
4 846 855 856 847
4 847 856 857 848
4 848 857 858 849
4 849 858 859 850
4 850 859 860 851
4 851 860 861 852
4 852 861 862 853
4 853 862 863 854
4 854 863 5 6
4 158 159 864 855
4 855 864 865 856
4 856 865 866 857
4 857 866 867 858
4 858 867 868 859
4 859 868 869 860
4 860 869 870 861
4 861 870 871 862
4 862 871 872 863
4 863 872 4 5
4 159 160 873 864
4 864 873 874 865
4 865 874 875 866
4 866 875 876 867
4 867 876 877 868
4 868 877 878 869
4 869 878 879 870
4 870 879 880 871
4 871 880 881 872
4 872 881 3 4
4 160 161 882 873
4 873 882 883 874
4 874 883 884 875
4 875 884 885 876
4 876 885 886 877
4 877 886 887 878
4 878 887 888 879
4 879 888 889 880
4 880 889 890 881
4 881 890 2 3
4 161 81 162 882
4 882 162 163 883
4 883 163 164 884
4 884 164 165 885
4 885 165 166 886
4 886 166 167 887
4 887 167 168 888
4 888 168 169 889
4 889 169 170 890
4 890 170 1 2
CELL_TYPES 800
9
9
9
9
9
9
9
9
9
9
9
9
9
9
9
9
9
9
9
9
9
9
9
9
9
9
9
9
9
9
9
9
9
9
9
9
9
9
9
9
9
9
9
9
9
9
9
9
9
9
9
9
9
9
9
9
9
9
9
9
9
9
9
9
9
9
9
9
9
9
9
9
9
9
9
9
9
9
9
9
9
9
9
9
9
9
9
9
9
9
9
9
9
9
9
9
9
9
9
9
9
9
9
9
9
9
9
9
9
9
9
9
9
9
9
9
9
9
9
9
9
9
9
9
9
9
9
9
9
9
9
9
9
9
9
9
9
9
9
9
9
9
9
9
9
9
9
9
9
9
9
9
9
9
9
9
9
9
9
9
9
9
9
9
9
9
9
9
9
9
9
9
9
9
9
9
9
9
9
9
9
9
9
9
9
9
9
9
9
9
9
9
9
9
9
9
9
9
9
9
9
9
9
9
9
9
9
9
9
9
9
9
9
9
9
9
9
9
9
9
9
9
9
9
9
9
9
9
9
9
9
9
9
9
9
9
9
9
9
9
9
9
9
9
9
9
9
9
9
9
9
9
9
9
9
9
9
9
9
9
9
9
9
9
9
9
9
9
9
9
9
9
9
9
9
9
9
9
9
9
9
9
9
9
9
9
9
9
9
9
9
9
9
9
9
9
9
9
9
9
9
9
9
9
9
9
9
9
9
9
9
9
9
9
9
9
9
9
9
9
9
9
9
9
9
9
9
9
9
9
9
9
9
9
9
9
9
9
9
9
9
9
9
9
9
9
9
9
9
9
9
9
9
9
9
9
9
9
9
9
9
9
9
9
9
9
9
9
9
9
9
9
9
9
9
9
9
9
9
9
9
9
9
9
9
9
9
9
9
9
9
9
9
9
9
9
9
9
9
9
9
9
9
9
9
9
9
9
9
9
9
9
9
9
9
9
9
9
9
9
9
9
9
9
9
9
9
9
9
9
9
9
9
9
9
9
9
9
9
9
9
9
9
9
9
9
9
9
9
9
9
9
9
9
9
9
9
9
9
9
9
9
9
9
9
9
9
9
9
9
9
9
9
9
9
9
9
9
9
9
9
9
9
9
9
9
9
9
9
9
9
9
9
9
9
9
9
9
9
9
9
9
9
9
9
9
9
9
9
9
9
9
9
9
9
9
9
9
9
9
9
9
9
9
9
9
9
9
9
9
9
9
9
9
9
9
9
9
9
9
9
9
9
9
9
9
9
9
9
9
9
9
9
9
9
9
9
9
9
9
9
9
9
9
9
9
9
9
9
9
9
9
9
9
9
9
9
9
9
9
9
9
9
9
9
9
9
9
9
9
9
9
9
9
9
9
9
9
9
9
9
9
9
9
9
9
9
9
9
9
9
9
9
9
9
9
9
9
9
9
9
9
9
9
9
9
9
9
9
9
9
9
9
9
9
9
9
9
9
9
9
9
9
9
9
9
9
9
9
9
9
9
9
9
9
9
9
9
9
9
9
9
9
9
9
9
9
9
9
9
9
9
9
9
9
9
9
9
9
9
9
9
9
9
9
9
9
9
9
9
9
9
9
9
9
9
9
9
9
9
9
9
9
9
9
9
9
9
9
9
9
9
9
9
9
9
9
9
9
9
9
9
9
9
9
9
9
9
9
9
9
9
9
9
9
9
9
9
9
9
9
9
9
9
9
9
9
9
9
9
9
9
9
9
9
9
9
9
9
9
9
9
9
9
9
9
9
9
9
9
9
9
9
9
9
9
9
9
9
9
9
9
9
9
9
9
9
9
9
9
9
9
9
9
9
9
9
9
9
9
POINT_DATA 891
SCALARS u1 float
LOOKUP_TABLE default
-4e-18
-1e-06
-1e-06
-1e-06
-1e-06
-1e-06
-1e-06
-1e-06
-1e-06
-1e-06
-1e-06
-1e-06
-1e-06
-1e-06
-1e-06
-1e-06
-1e-06
-1e-06
-1e-06
-1e-06
-1e-06
-1e-06
-1e-06
-1e-06
-1e-06
-1e-06
-1e-06
-1e-06
-1e-06
-1e-06
-1e-06
-1e-06
-1e-06
-1e-06
-1e-06
-1e-06
-1e-06
-1e-06
-1e-06
-1e-06
-1e-06
-1e-06
-1e-06
-1e-06
-1e-06
-1e-06
-1e-06
-1e-06
-1e-06
-1e-06
-1e-06
-1e-06
-1e-06
-1e-06
-1e-06
-1e-06
-1e-06
-1e-06
-1e-06
-1e-06
-1e-06
-1e-06
-1e-06
-1e-06
-1e-06
-1e-06
-1e-06
-1e-06
-1e-06
-1e-06
-1e-06
-1e-06
-1e-06
-1e-06
-1e-06
-1e-06
-1e-06
-1e-06
-1e-06
-1e-06
-1e-06
1e-06
2e-18
1e-06
1e-06
1e-06
1e-06
1e-06
1e-06
1e-06
1e-06
1e-06
1e-06
1e-06
1e-06
1e-06
1e-06
1e-06
1e-06
1e-06
1e-06
1e-06
1e-06
1e-06
1e-06
1e-06
1e-06
1e-06
1e-06
1e-06
1e-06
1e-06
1e-06
1e-06
1e-06
1e-06
1e-06
1e-06
1e-06
1e-06
1e-06
1e-06
1e-06
1e-06
1e-06
1e-06
1e-06
1e-06
1e-06
1e-06
1e-06
1e-06
1e-06
1e-06
1e-06
1e-06
1e-06
1e-06
1e-06
1e-06
1e-06
1e-06
1e-06
1e-06
1e-06
1e-06
1e-06
1e-06
1e-06
1e-06
1e-06
1e-06
1e-06
1e-06
1e-06
1e-06
1e-06
1e-06
1e-06
1e-06
1e-06
1e-06
1e-06
8e-07
5e-07
3e-07
-4e-15
-3e-07
-5e-07
-8e-07
-1e-06
-5e-18
-1e-17
2e-17
2e-17
-2e-18
2e-17
-6e-18
-2e-17
-3e-17
7e-07
5e-07
3e-07
2e-07
8e-15
-2e-07
-3e-07
-5e-07
-7e-07
1e-06
8e-07
5e-07
2e-07
2e-15
-2e-07
-5e-07
-8e-07
-1e-06
1e-06
8e-07
5e-07
3e-07
3e-15
-3e-07
-5e-07
-8e-07
-1e-06
1e-06
8e-07
5e-07
3e-07
3e-15
-3e-07
-5e-07
-8e-07
-1e-06
1e-06
8e-07
5e-07
3e-07
3e-15
-3e-07
-5e-07
-8e-07
-1e-06
1e-06
8e-07
5e-07
3e-07
2e-15
-3e-07
-5e-07
-8e-07
-1e-06
1e-06
8e-07
5e-07
3e-07
1e-15
-3e-07
-5e-07
-8e-07
-1e-06
1e-06
8e-07
5e-07
3e-07
8e-16
-3e-07
-5e-07
-8e-07
-1e-06
1e-06
8e-07
5e-07
3e-07
1e-16
-3e-07
-5e-07
-8e-07
-1e-06
1e-06
8e-07
5e-07
3e-07
-5e-16
-3e-07
-5e-07
-8e-07
-1e-06
1e-06
8e-07
5e-07
3e-07
-1e-15
-3e-07
-5e-07
-8e-07
-1e-06
1e-06
8e-07
5e-07
3e-07
-2e-15
-3e-07
-5e-07
-8e-07
-1e-06
1e-06
8e-07
5e-07
3e-07
-2e-15
-3e-07
-5e-07
-8e-07
-1e-06
1e-06
8e-07
5e-07
3e-07
-3e-15
-3e-07
-5e-07
-8e-07
-1e-06
1e-06
8e-07
5e-07
3e-07
-3e-15
-3e-07
-5e-07
-8e-07
-1e-06
1e-06
8e-07
5e-07
3e-07
-3e-15
-3e-07
-5e-07
-8e-07
-1e-06
1e-06
8e-07
5e-07
3e-07
-3e-15
-3e-07
-5e-07
-8e-07
-1e-06
1e-06
8e-07
5e-07
3e-07
-4e-15
-3e-07
-5e-07
-8e-07
-1e-06
1e-06
8e-07
5e-07
3e-07
-4e-15
-3e-07
-5e-07
-8e-07
-1e-06
1e-06
8e-07
5e-07
3e-07
-4e-15
-3e-07
-5e-07
-8e-07
-1e-06
1e-06
8e-07
5e-07
3e-07
-4e-15
-3e-07
-5e-07
-8e-07
-1e-06
1e-06
8e-07
5e-07
3e-07
-4e-15
-3e-07
-5e-07
-8e-07
-1e-06
1e-06
8e-07
5e-07
3e-07
-4e-15
-3e-07
-5e-07
-8e-07
-1e-06
1e-06
8e-07
5e-07
3e-07
-4e-15
-3e-07
-5e-07
-8e-07
-1e-06
1e-06
8e-07
5e-07
3e-07
-4e-15
-3e-07
-5e-07
-8e-07
-1e-06
1e-06
8e-07
5e-07
3e-07
-4e-15
-3e-07
-5e-07
-8e-07
-1e-06
1e-06
8e-07
5e-07
3e-07
-4e-15
-3e-07
-5e-07
-8e-07
-1e-06
1e-06
8e-07
5e-07
3e-07
-4e-15
-3e-07
-5e-07
-8e-07
-1e-06
1e-06
8e-07
5e-07
3e-07
-4e-15
-3e-07
-5e-07
-8e-07
-1e-06
1e-06
8e-07
5e-07
3e-07
-4e-15
-3e-07
-5e-07
-8e-07
-1e-06
1e-06
8e-07
5e-07
3e-07
-4e-15
-3e-07
-5e-07
-8e-07
-1e-06
1e-06
8e-07
5e-07
3e-07
-4e-15
-3e-07
-5e-07
-8e-07
-1e-06
1e-06
8e-07
5e-07
3e-07
-4e-15
-3e-07
-5e-07
-8e-07
-1e-06
1e-06
8e-07
5e-07
3e-07
-4e-15
-3e-07
-5e-07
-8e-07
-1e-06
1e-06
8e-07
5e-07
3e-07
-4e-15
-3e-07
-5e-07
-8e-07
-1e-06
1e-06
8e-07
5e-07
3e-07
-4e-15
-3e-07
-5e-07
-8e-07
-1e-06
1e-06
8e-07
5e-07
3e-07
-4e-15
-3e-07
-5e-07
-8e-07
-1e-06
1e-06
8e-07
5e-07
3e-07
-4e-15
-3e-07
-5e-07
-8e-07
-1e-06
1e-06
8e-07
5e-07
3e-07
-4e-15
-3e-07
-5e-07
-8e-07
-1e-06
1e-06
8e-07
5e-07
3e-07
-4e-15
-3e-07
-5e-07
-8e-07
-1e-06
1e-06
8e-07
5e-07
3e-07
-4e-15
-3e-07
-5e-07
-8e-07
-1e-06
1e-06
8e-07
5e-07
3e-07
-4e-15
-3e-07
-5e-07
-8e-07
-1e-06
1e-06
8e-07
5e-07
3e-07
-4e-15
-3e-07
-5e-07
-8e-07
-1e-06
1e-06
8e-07
5e-07
3e-07
-4e-15
-3e-07
-5e-07
-8e-07
-1e-06
1e-06
8e-07
5e-07
3e-07
-4e-15
-3e-07
-5e-07
-8e-07
-1e-06
1e-06
8e-07
5e-07
3e-07
-4e-15
-3e-07
-5e-07
-8e-07
-1e-06
1e-06
8e-07
5e-07
3e-07
-4e-15
-3e-07
-5e-07
-8e-07
-1e-06
1e-06
8e-07
5e-07
3e-07
-4e-15
-3e-07
-5e-07
-8e-07
-1e-06
1e-06
8e-07
5e-07
3e-07
-4e-15
-3e-07
-5e-07
-8e-07
-1e-06
1e-06
8e-07
5e-07
3e-07
-4e-15
-3e-07
-5e-07
-8e-07
-1e-06
1e-06
8e-07
5e-07
3e-07
-4e-15
-3e-07
-5e-07
-8e-07
-1e-06
1e-06
8e-07
5e-07
3e-07
-4e-15
-3e-07
-5e-07
-8e-07
-1e-06
1e-06
8e-07
5e-07
3e-07
-4e-15
-3e-07
-5e-07
-8e-07
-1e-06
1e-06
8e-07
5e-07
3e-07
-4e-15
-3e-07
-5e-07
-8e-07
-1e-06
1e-06
8e-07
5e-07
3e-07
-4e-15
-3e-07
-5e-07
-8e-07
-1e-06
1e-06
8e-07
5e-07
3e-07
-4e-15
-3e-07
-5e-07
-8e-07
-1e-06
1e-06
8e-07
5e-07
3e-07
-4e-15
-3e-07
-5e-07
-8e-07
-1e-06
1e-06
8e-07
5e-07
3e-07
-4e-15
-3e-07
-5e-07
-8e-07
-1e-06
1e-06
8e-07
5e-07
3e-07
-4e-15
-3e-07
-5e-07
-8e-07
-1e-06
1e-06
8e-07
5e-07
3e-07
-4e-15
-3e-07
-5e-07
-8e-07
-1e-06
1e-06
8e-07
5e-07
3e-07
-4e-15
-3e-07
-5e-07
-8e-07
-1e-06
1e-06
8e-07
5e-07
3e-07
-4e-15
-3e-07
-5e-07
-8e-07
-1e-06
1e-06
8e-07
5e-07
3e-07
-4e-15
-3e-07
-5e-07
-8e-07
-1e-06
1e-06
8e-07
5e-07
3e-07
-4e-15
-3e-07
-5e-07
-8e-07
-1e-06
1e-06
8e-07
5e-07
3e-07
-4e-15
-3e-07
-5e-07
-8e-07
-1e-06
1e-06
8e-07
5e-07
3e-07
-4e-15
-3e-07
-5e-07
-8e-07
-1e-06
1e-06
8e-07
5e-07
3e-07
-4e-15
-3e-07
-5e-07
-8e-07
-1e-06
1e-06
8e-07
5e-07
3e-07
-4e-15
-3e-07
-5e-07
-8e-07
-1e-06
1e-06
8e-07
5e-07
3e-07
-4e-15
-3e-07
-5e-07
-8e-07
-1e-06
1e-06
8e-07
5e-07
3e-07
-4e-15
-3e-07
-5e-07
-8e-07
-1e-06
1e-06
8e-07
5e-07
3e-07
-4e-15
-3e-07
-5e-07
-8e-07
-1e-06
1e-06
8e-07
5e-07
3e-07
-4e-15
-3e-07
-5e-07
-8e-07
-1e-06
1e-06
8e-07
5e-07
3e-07
-4e-15
-3e-07
-5e-07
-8e-07
-1e-06
1e-06
8e-07
5e-07
3e-07
-4e-15
-3e-07
-5e-07
-8e-07
-1e-06
1e-06
8e-07
5e-07
3e-07
-4e-15
-3e-07
-5e-07
-8e-07
-1e-06
1e-06
8e-07
5e-07
3e-07
-4e-15
-3e-07
-5e-07
-8e-07
-1e-06
1e-06
8e-07
5e-07
3e-07
-4e-15
-3e-07
-5e-07
-8e-07
-1e-06
1e-06
8e-07
5e-07
3e-07
-4e-15
-3e-07
-5e-07
-8e-07
-1e-06
1e-06
8e-07
5e-07
3e-07
-4e-15
-3e-07
-5e-07
-8e-07
-1e-06
SCALARS u2 float
LOOKUP_TABLE default
-2e-17
-0.0004
-0.0003
-0.0003
-0.0003
-0.0003
-0.0003
-0.0003
-0.0003
-0.0003
-0.0003
-0.0003
-0.0003
-0.0003
-0.0003
-0.0003
-0.0003
-0.0003
-0.0003
-0.0003
-0.0003
-0.0003
-0.0003
-0.0003
-0.0003
-0.0002
-0.0002
-0.0002
-0.0002
-0.0002
-0.0002
-0.0002
-0.0002
-0.0002
-0.0002
-0.0002
-0.0002
-0.0002
-0.0002
-0.0002
-0.0002
-0.0002
-0.0002
-0.0002
-0.0002
-0.0002
-0.0002
-0.0001
-0.0001
-0.0001
-0.0001
-0.0001
-0.0001
-0.0001
-0.0001
-0.0001
-0.0001
-0.0001
-0.0001
-0.0001
-9e-05
-9e-05
-8e-05
-8e-05
-7e-05
-7e-05
-7e-05
-6e-05
-6e-05
-5e-05
-5e-05
-4e-05
-4e-05
-4e-05
-3e-05
-3e-05
-2e-05
-2e-05
-1e-05
-9e-06
-5e-06
-0.0004
1e-18
-5e-06
-9e-06
-1e-05
-2e-05
-2e-05
-3e-05
-3e-05
-4e-05
-4e-05
-4e-05
-5e-05
-5e-05
-6e-05
-6e-05
-7e-05
-7e-05
-7e-05
-8e-05
-8e-05
-9e-05
-9e-05
-0.0001
-0.0001
-0.0001
-0.0001
-0.0001
-0.0001
-0.0001
-0.0001
-0.0001
-0.0001
-0.0001
-0.0001
-0.0001
-0.0002
-0.0002
-0.0002
-0.0002
-0.0002
-0.0002
-0.0002
-0.0002
-0.0002
-0.0002
-0.0002
-0.0002
-0.0002
-0.0002
-0.0002
-0.0002
-0.0002
-0.0002
-0.0002
-0.0002
-0.0002
-0.0002
-0.0003
-0.0003
-0.0003
-0.0003
-0.0003
-0.0003
-0.0003
-0.0003
-0.0003
-0.0003
-0.0003
-0.0003
-0.0003
-0.0003
-0.0003
-0.0003
-0.0003
-0.0003
-0.0003
-0.0003
-0.0003
-0.0003
-0.0003
-0.0004
-0.0004
-0.0004
-0.0004
-0.0004
-0.0004
-0.0004
-0.0004
-0.0004
-2e-17
-2e-17
-7e-18
-1e-17
-3e-17
2e-17
6e-17
-5e-17
-4e-17
-4e-06
-4e-06
-4e-06
-4e-06
-4e-06
-4e-06
-4e-06
-4e-06
-4e-06
-9e-06
-9e-06
-9e-06
-9e-06
-9e-06
-9e-06
-9e-06
-9e-06
-9e-06
-1e-05
-1e-05
-1e-05
-1e-05
-1e-05
-1e-05
-1e-05
-1e-05
-1e-05
-2e-05
-2e-05
-2e-05
-2e-05
-2e-05
-2e-05
-2e-05
-2e-05
-2e-05
-2e-05
-2e-05
-2e-05
-2e-05
-2e-05
-2e-05
-2e-05
-2e-05
-2e-05
-3e-05
-3e-05
-3e-05
-3e-05
-3e-05
-3e-05
-3e-05
-3e-05
-3e-05
-3e-05
-3e-05
-3e-05
-3e-05
-3e-05
-3e-05
-3e-05
-3e-05
-3e-05
-4e-05
-4e-05
-4e-05
-4e-05
-4e-05
-4e-05
-4e-05
-4e-05
-4e-05
-4e-05
-4e-05
-4e-05
-4e-05
-4e-05
-4e-05
-4e-05
-4e-05
-4e-05
-4e-05
-4e-05
-4e-05
-4e-05
-4e-05
-4e-05
-4e-05
-4e-05
-4e-05
-5e-05
-5e-05
-5e-05
-5e-05
-5e-05
-5e-05
-5e-05
-5e-05
-5e-05
-5e-05
-5e-05
-5e-05
-5e-05
-5e-05
-5e-05
-5e-05
-5e-05
-5e-05
-6e-05
-6e-05
-6e-05
-6e-05
-6e-05
-6e-05
-6e-05
-6e-05
-6e-05
-6e-05
-6e-05
-6e-05
-6e-05
-6e-05
-6e-05
-6e-05
-6e-05
-6e-05
-7e-05
-7e-05
-7e-05
-7e-05
-7e-05
-7e-05
-7e-05
-7e-05
-7e-05
-7e-05
-7e-05
-7e-05
-7e-05
-7e-05
-7e-05
-7e-05
-7e-05
-7e-05
-7e-05
-7e-05
-7e-05
-7e-05
-7e-05
-7e-05
-7e-05
-7e-05
-7e-05
-8e-05
-8e-05
-8e-05
-8e-05
-8e-05
-8e-05
-8e-05
-8e-05
-8e-05
-8e-05
-8e-05
-8e-05
-8e-05
-8e-05
-8e-05
-8e-05
-8e-05
-8e-05
-9e-05
-9e-05
-9e-05
-9e-05
-9e-05
-9e-05
-9e-05
-9e-05
-9e-05
-9e-05
-9e-05
-9e-05
-9e-05
-9e-05
-9e-05
-9e-05
-9e-05
-9e-05
-0.0001
-0.0001
-0.0001
-0.0001
-0.0001
-0.0001
-0.0001
-0.0001
-0.0001
-0.0001
-0.0001
-0.0001
-0.0001
-0.0001
-0.0001
-0.0001
-0.0001
-0.0001
-0.0001
-0.0001
-0.0001
-0.0001
-0.0001
-0.0001
-0.0001
-0.0001
-0.0001
-0.0001
-0.0001
-0.0001
-0.0001
-0.0001
-0.0001
-0.0001
-0.0001
-0.0001
-0.0001
-0.0001
-0.0001
-0.0001
-0.0001
-0.0001
-0.0001
-0.0001
-0.0001
-0.0001
-0.0001
-0.0001
-0.0001
-0.0001
-0.0001
-0.0001
-0.0001
-0.0001
-0.0001
-0.0001
-0.0001
-0.0001
-0.0001
-0.0001
-0.0001
-0.0001
-0.0001
-0.0001
-0.0001
-0.0001
-0.0001
-0.0001
-0.0001
-0.0001
-0.0001
-0.0001
-0.0001
-0.0001
-0.0001
-0.0001
-0.0001
-0.0001
-0.0001
-0.0001
-0.0001
-0.0001
-0.0001
-0.0001
-0.0001
-0.0001
-0.0001
-0.0001
-0.0001
-0.0001
-0.0001
-0.0001
-0.0001
-0.0001
-0.0001
-0.0001
-0.0001
-0.0001
-0.0001
-0.0001
-0.0001
-0.0001
-0.0001
-0.0001
-0.0001
-0.0001
-0.0001
-0.0001
-0.0001
-0.0001
-0.0001
-0.0001
-0.0001
-0.0001
-0.0001
-0.0001
-0.0001
-0.0002
-0.0002
-0.0002
-0.0002
-0.0002
-0.0002
-0.0002
-0.0002
-0.0002
-0.0002
-0.0002
-0.0002
-0.0002
-0.0002
-0.0002
-0.0002
-0.0002
-0.0002
-0.0002
-0.0002
-0.0002
-0.0002
-0.0002
-0.0002
-0.0002
-0.0002
-0.0002
-0.0002
-0.0002
-0.0002
-0.0002
-0.0002
-0.0002
-0.0002
-0.0002
-0.0002
-0.0002
-0.0002
-0.0002
-0.0002
-0.0002
-0.0002
-0.0002
-0.0002
-0.0002
-0.0002
-0.0002
-0.0002
-0.0002
-0.0002
-0.0002
-0.0002
-0.0002
-0.0002
-0.0002
-0.0002
-0.0002
-0.0002
-0.0002
-0.0002
-0.0002
-0.0002
-0.0002
-0.0002
-0.0002
-0.0002
-0.0002
-0.0002
-0.0002
-0.0002
-0.0002
-0.0002
-0.0002
-0.0002
-0.0002
-0.0002
-0.0002
-0.0002
-0.0002
-0.0002
-0.0002
-0.0002
-0.0002
-0.0002
-0.0002
-0.0002
-0.0002
-0.0002
-0.0002
-0.0002
-0.0002
-0.0002
-0.0002
-0.0002
-0.0002
-0.0002
-0.0002
-0.0002
-0.0002
-0.0002
-0.0002
-0.0002
-0.0002
-0.0002
-0.0002
-0.0002
-0.0002
-0.0002
-0.0002
-0.0002
-0.0002
-0.0002
-0.0002
-0.0002
-0.0002
-0.0002
-0.0002
-0.0002
-0.0002
-0.0002
-0.0002
-0.0002
-0.0002
-0.0002
-0.0002
-0.0002
-0.0002
-0.0002
-0.0002
-0.0002
-0.0002
-0.0002
-0.0002
-0.0002
-0.0002
-0.0002
-0.0002
-0.0002
-0.0002
-0.0002
-0.0002
-0.0002
-0.0002
-0.0002
-0.0002
-0.0002
-0.0002
-0.0002
-0.0002
-0.0002
-0.0002
-0.0002
-0.0002
-0.0002
-0.0002
-0.0002
-0.0002
-0.0002
-0.0002
-0.0002
-0.0002
-0.0002
-0.0002
-0.0002
-0.0002
-0.0002
-0.0002
-0.0002
-0.0002
-0.0002
-0.0002
-0.0002
-0.0002
-0.0002
-0.0002
-0.0002
-0.0002
-0.0002
-0.0002
-0.0002
-0.0002
-0.0002
-0.0002
-0.0002
-0.0002
-0.0002
-0.0002
-0.0002
-0.0002
-0.0002
-0.0002
-0.0002
-0.0002
-0.0002
-0.0002
-0.0002
-0.0002
-0.0002
-0.0003
-0.0003
-0.0003
-0.0003
-0.0003
-0.0003
-0.0003
-0.0003
-0.0003
-0.0003
-0.0003
-0.0003
-0.0003
-0.0003
-0.0003
-0.0003
-0.0003
-0.0003
-0.0003
-0.0003
-0.0003
-0.0003
-0.0003
-0.0003
-0.0003
-0.0003
-0.0003
-0.0003
-0.0003
-0.0003
-0.0003
-0.0003
-0.0003
-0.0003
-0.0003
-0.0003
-0.0003
-0.0003
-0.0003
-0.0003
-0.0003
-0.0003
-0.0003
-0.0003
-0.0003
-0.0003
-0.0003
-0.0003
-0.0003
-0.0003
-0.0003
-0.0003
-0.0003
-0.0003
-0.0003
-0.0003
-0.0003
-0.0003
-0.0003
-0.0003
-0.0003
-0.0003
-0.0003
-0.0003
-0.0003
-0.0003
-0.0003
-0.0003
-0.0003
-0.0003
-0.0003
-0.0003
-0.0003
-0.0003
-0.0003
-0.0003
-0.0003
-0.0003
-0.0003
-0.0003
-0.0003
-0.0003
-0.0003
-0.0003
-0.0003
-0.0003
-0.0003
-0.0003
-0.0003
-0.0003
-0.0003
-0.0003
-0.0003
-0.0003
-0.0003
-0.0003
-0.0003
-0.0003
-0.0003
-0.0003
-0.0003
-0.0003
-0.0003
-0.0003
-0.0003
-0.0003
-0.0003
-0.0003
-0.0003
-0.0003
-0.0003
-0.0003
-0.0003
-0.0003
-0.0003
-0.0003
-0.0003
-0.0003
-0.0003
-0.0003
-0.0003
-0.0003
-0.0003
-0.0003
-0.0003
-0.0003
-0.0003
-0.0003
-0.0003
-0.0003
-0.0003
-0.0003
-0.0003
-0.0003
-0.0003
-0.0003
-0.0003
-0.0003
-0.0003
-0.0003
-0.0003
-0.0003
-0.0003
-0.0003
-0.0003
-0.0003
-0.0003
-0.0003
-0.0003
-0.0003
-0.0003
-0.0003
-0.0003
-0.0003
-0.0003
-0.0003
-0.0003
-0.0003
-0.0003
-0.0003
-0.0003
-0.0003
-0.0003
-0.0003
-0.0003
-0.0003
-0.0003
-0.0003
-0.0003
-0.0003
-0.0003
-0.0003
-0.0003
-0.0003
-0.0003
-0.0003
-0.0003
-0.0003
-0.0003
-0.0003
-0.0003
-0.0003
-0.0003
-0.0003
-0.0003
-0.0003
-0.0003
-0.0003
-0.0003
-0.0003
-0.0003
-0.0003
-0.0003
-0.0003
-0.0003
-0.0003
-0.0003
-0.0003
-0.0003
-0.0003
-0.0003
-0.0003
-0.0003
-0.0003
-0.0003
-0.0003
-0.0003
SCALARS strain_1 float
LOOKUP_TABLE default
-0.000094
-0.150355
-0.148080
-0.145796
-0.143500
-0.141194
-0.138877
-0.136552
-0.134218
-0.131875
-0.129526
-0.127169
-0.124806
-0.122437
-0.120064
-0.117687
-0.115306
-0.112923
-0.110538
-0.108152
-0.105766
-0.103380
-0.100997
-0.098616
-0.096238
-0.093865
-0.091497
-0.089136
-0.086782
-0.084436
-0.082100
-0.079774
-0.077460
-0.075159
-0.072871
-0.070599
-0.068342
-0.066103
-0.063882
-0.061680
-0.059499
-0.057339
-0.055204
-0.053091
-0.051004
-0.048943
-0.046910
-0.044905
-0.042931
-0.040986
-0.039074
-0.037195
-0.035349
-0.033540
-0.031766
-0.030029
-0.028330
-0.026670
-0.025050
-0.023471
-0.021932
-0.020437
-0.018984
-0.017575
-0.016210
-0.014889
-0.013614
-0.012385
-0.011203
-0.010066
-0.008976
-0.007933
-0.006938
-0.005990
-0.005089
-0.004235
-0.003429
-0.002670
-0.001957
-0.001290
-0.000669
-0.150488
-0.000003
-0.000580
-0.001203
-0.001871
-0.002586
-0.003347
-0.004156
-0.005012
-0.005915
-0.006865
-0.007863
-0.008908
-0.010001
-0.011140
-0.012325
-0.013558
-0.014835
-0.016159
-0.017527
-0.018939
-0.020395
-0.021894
-0.023435
-0.025019
-0.026642
-0.028305
-0.030007
-0.031748
-0.033525
-0.035338
-0.037187
-0.039070
-0.040985
-0.042932
-0.044911
-0.046919
-0.048956
-0.051021
-0.053111
-0.055227
-0.057367
-0.059529
-0.061714
-0.063920
-0.066143
-0.068386
-0.070647
-0.072922
-0.075213
-0.077518
-0.079835
-0.082164
-0.084503
-0.086852
-0.089209
-0.091573
-0.093944
-0.096320
-0.098700
-0.101085
-0.103471
-0.105859
-0.108248
-0.110636
-0.113024
-0.115410
-0.117793
-0.120172
-0.122548
-0.124918
-0.127284
-0.129643
-0.131994
-0.134338
-0.136675
-0.139002
-0.141320
-0.143628
-0.145926
-0.148213
-0.150475
-0.150463
-0.150450
-0.150436
-0.150424
-0.150410
-0.150396
-0.150382
-0.150369
-0.000076
-0.000061
-0.000046
-0.000034
-0.000024
-0.000017
-0.000010
-0.000006
-0.000004
-0.000580
-0.000582
-0.000586
-0.000592
-0.000600
-0.000610
-0.000622
-0.000635
-0.000651
-0.001202
-0.001204
-0.001208
-0.001214
-0.001221
-0.001231
-0.001243
-0.001257
-0.001272
-0.001870
-0.001872
-0.001876
-0.001881
-0.001889
-0.001898
-0.001909
-0.001923
-0.001939
-0.002585
-0.002586
-0.002590
-0.002595
-0.002602
-0.002612
-0.002623
-0.002637
-0.002652
-0.003346
-0.003347
-0.003350
-0.003356
-0.003362
-0.003372
-0.003383
-0.003396
-0.003412
-0.004154
-0.004155
-0.004158
-0.004163
-0.004170
-0.004179
-0.004190
-0.004203
-0.004219
-0.005010
-0.005011
-0.005013
-0.005018
-0.005025
-0.005033
-0.005045
-0.005057
-0.005072
-0.005913
-0.005913
-0.005916
-0.005921
-0.005927
-0.005936
-0.005946
-0.005959
-0.005973
-0.006863
-0.006864
-0.006866
-0.006870
-0.006876
-0.006885
-0.006895
-0.006908
-0.006922
-0.007861
-0.007861
-0.007863
-0.007867
-0.007873
-0.007881
-0.007891
-0.007903
-0.007917
-0.008906
-0.008906
-0.008908
-0.008911
-0.008917
-0.008925
-0.008934
-0.008946
-0.008960
-0.009998
-0.009998
-0.009999
-0.010003
-0.010008
-0.010016
-0.010025
-0.010037
-0.010050
-0.011137
-0.011136
-0.011137
-0.011140
-0.011146
-0.011153
-0.011162
-0.011174
-0.011187
-0.012323
-0.012321
-0.012322
-0.012326
-0.012330
-0.012338
-0.012346
-0.012358
-0.012370
-0.013555
-0.013553
-0.013554
-0.013556
-0.013561
-0.013568
-0.013576
-0.013587
-0.013600
-0.014832
-0.014831
-0.014831
-0.014833
-0.014838
-0.014844
-0.014852
-0.014863
-0.014875
-0.016155
-0.016153
-0.016153
-0.016156
-0.016160
-0.016166
-0.016174
-0.016184
-0.016196
-0.017523
-0.017521
-0.017521
-0.017523
-0.017526
-0.017532
-0.017540
-0.017549
-0.017561
-0.018935
-0.018933
-0.018933
-0.018934
-0.018937
-0.018943
-0.018950
-0.018960
-0.018971
-0.020391
-0.020388
-0.020388
-0.020389
-0.020392
-0.020397
-0.020404
-0.020413
-0.020424
-0.021890
-0.021887
-0.021886
-0.021887
-0.021890
-0.021894
-0.021902
-0.021910
-0.021920
-0.023430
-0.023427
-0.023426
-0.023427
-0.023430
-0.023434
-0.023441
-0.023449
-0.023458
-0.025013
-0.025010
-0.025009
-0.025009
-0.025011
-0.025016
-0.025021
-0.025029
-0.025039
-0.026636
-0.026633
-0.026631
-0.026631
-0.026634
-0.026637
-0.026643
-0.026650
-0.026659
-0.028299
-0.028295
-0.028294
-0.028294
-0.028295
-0.028298
-0.028304
-0.028311
-0.028320
-0.030001
-0.029998
-0.029995
-0.029995
-0.029996
-0.029999
-0.030004
-0.030010
-0.030019
-0.031742
-0.031737
-0.031735
-0.031734
-0.031735
-0.031738
-0.031742
-0.031748
-0.031756
-0.033519
-0.033514
-0.033511
-0.033510
-0.033511
-0.033514
-0.033517
-0.033523
-0.033530
-0.035332
-0.035327
-0.035324
-0.035323
-0.035323
-0.035325
-0.035328
-0.035334
-0.035341
-0.037181
-0.037175
-0.037172
-0.037170
-0.037170
-0.037172
-0.037175
-0.037180
-0.037187
-0.039062
-0.039057
-0.039054
-0.039052
-0.039052
-0.039053
-0.039056
-0.039060
-0.039066
-0.040978
-0.040973
-0.040969
-0.040967
-0.040966
-0.040967
-0.040969
-0.040974
-0.040979
-0.042925
-0.042920
-0.042916
-0.042913
-0.042912
-0.042913
-0.042915
-0.042918
-0.042924
-0.044904
-0.044898
-0.044893
-0.044891
-0.044889
-0.044890
-0.044891
-0.044894
-0.044899
-0.046912
-0.046906
-0.046901
-0.046898
-0.046896
-0.046896
-0.046897
-0.046900
-0.046904
-0.048948
-0.048942
-0.048937
-0.048934
-0.048932
-0.048931
-0.048932
-0.048934
-0.048938
-0.051013
-0.051006
-0.051001
-0.050997
-0.050995
-0.050994
-0.050994
-0.050996
-0.051000
-0.053103
-0.053096
-0.053091
-0.053087
-0.053084
-0.053083
-0.053083
-0.053084
-0.053086
-0.055219
-0.055212
-0.055206
-0.055201
-0.055199
-0.055197
-0.055196
-0.055197
-0.055200
-0.057358
-0.057351
-0.057345
-0.057340
-0.057338
-0.057336
-0.057334
-0.057335
-0.057336
-0.059521
-0.059514
-0.059507
-0.059502
-0.059499
-0.059497
-0.059495
-0.059495
-0.059496
-0.061705
-0.061697
-0.061691
-0.061686
-0.061682
-0.061679
-0.061677
-0.061677
-0.061678
-0.063910
-0.063902
-0.063895
-0.063890
-0.063886
-0.063883
-0.063881
-0.063880
-0.063880
-0.066134
-0.066127
-0.066120
-0.066114
-0.066109
-0.066106
-0.066103
-0.066102
-0.066102
-0.068377
-0.068369
-0.068362
-0.068355
-0.068351
-0.068347
-0.068344
-0.068343
-0.068342
-0.070637
-0.070628
-0.070621
-0.070615
-0.070610
-0.070605
-0.070602
-0.070600
-0.070599
-0.072913
-0.072904
-0.072897
-0.072890
-0.072884
-0.072880
-0.072876
-0.072874
-0.072872
-0.075203
-0.075195
-0.075187
-0.075180
-0.075174
-0.075169
-0.075165
-0.075162
-0.075160
-0.077507
-0.077499
-0.077491
-0.077484
-0.077477
-0.077472
-0.077468
-0.077464
-0.077462
-0.079825
-0.079816
-0.079807
-0.079800
-0.079793
-0.079788
-0.079783
-0.079779
-0.079777
-0.082153
-0.082144
-0.082136
-0.082128
-0.082121
-0.082115
-0.082110
-0.082106
-0.082102
-0.084493
-0.084483
-0.084474
-0.084466
-0.084459
-0.084453
-0.084448
-0.084443
-0.084439
-0.086841
-0.086832
-0.086823
-0.086814
-0.086807
-0.086800
-0.086795
-0.086790
-0.086785
-0.089198
-0.089188
-0.089179
-0.089171
-0.089163
-0.089156
-0.089150
-0.089145
-0.089140
-0.091562
-0.091552
-0.091543
-0.091534
-0.091526
-0.091519
-0.091512
-0.091507
-0.091502
-0.093933
-0.093923
-0.093913
-0.093905
-0.093896
-0.093889
-0.093882
-0.093875
-0.093870
-0.096309
-0.096299
-0.096289
-0.096280
-0.096271
-0.096264
-0.096257
-0.096250
-0.096243
-0.098689
-0.098679
-0.098669
-0.098660
-0.098651
-0.098643
-0.098635
-0.098628
-0.098622
-0.101073
-0.101062
-0.101053
-0.101044
-0.101034
-0.101026
-0.101018
-0.101011
-0.101003
-0.103460
-0.103449
-0.103438
-0.103429
-0.103420
-0.103411
-0.103403
-0.103395
-0.103388
-0.105848
-0.105837
-0.105827
-0.105817
-0.105807
-0.105798
-0.105789
-0.105781
-0.105773
-0.108236
-0.108225
-0.108214
-0.108205
-0.108195
-0.108185
-0.108177
-0.108168
-0.108160
-0.110625
-0.110614
-0.110603
-0.110593
-0.110583
-0.110573
-0.110563
-0.110555
-0.110546
-0.113012
-0.113001
-0.112990
-0.112980
-0.112969
-0.112959
-0.112950
-0.112941
-0.112932
-0.115398
-0.115387
-0.115375
-0.115365
-0.115355
-0.115344
-0.115334
-0.115325
-0.115315
-0.117781
-0.117769
-0.117758
-0.117748
-0.117736
-0.117726
-0.117716
-0.117706
-0.117697
-0.120161
-0.120149
-0.120138
-0.120126
-0.120115
-0.120105
-0.120094
-0.120084
-0.120074
-0.122536
-0.122524
-0.122512
-0.122501
-0.122491
-0.122480
-0.122469
-0.122458
-0.122448
-0.124907
-0.124895
-0.124883
-0.124872
-0.124861
-0.124849
-0.124838
-0.124827
-0.124817
-0.127272
-0.127260
-0.127248
-0.127236
-0.127225
-0.127213
-0.127202
-0.127190
-0.127180
-0.129630
-0.129618
-0.129606
-0.129594
-0.129583
-0.129571
-0.129560
-0.129548
-0.129537
-0.131982
-0.131970
-0.131958
-0.131946
-0.131934
-0.131922
-0.131910
-0.131899
-0.131887
-0.134326
-0.134314
-0.134302
-0.134290
-0.134277
-0.134266
-0.134253
-0.134241
-0.134230
-0.136662
-0.136650
-0.136638
-0.136626
-0.136613
-0.136601
-0.136589
-0.136576
-0.136564
-0.138990
-0.138977
-0.138965
-0.138952
-0.138940
-0.138928
-0.138915
-0.138903
-0.138890
-0.141308
-0.141296
-0.141283
-0.141270
-0.141257
-0.141245
-0.141232
-0.141219
-0.141206
-0.143616
-0.143604
-0.143591
-0.143577
-0.143565
-0.143552
-0.143539
-0.143526
-0.143513
-0.145913
-0.145901
-0.145888
-0.145875
-0.145862
-0.145849
-0.145835
-0.145823
-0.145809
-0.148200
-0.148187
-0.148175
-0.148162
-0.148148
-0.148135
-0.148121
-0.148108
-0.148095
SCALARS strain_2 float
LOOKUP_TABLE default
0.001852
0.001076
0.001077
0.001075
0.001076
0.001077
0.001074
0.001077
0.001077
0.001077
0.001079
0.001079
0.001080
0.001082
0.001082
0.001085
0.001089
0.001088
0.001091
0.001091
0.001098
0.001100
0.001100
0.001103
0.001109
0.001108
0.001114
0.001117
0.001124
0.001131
0.001134
0.001140
0.001145
0.001151
0.001156
0.001164
0.001169
0.001175
0.001185
0.001191
0.001201
0.001210
0.001217
0.001228
0.001236
0.001242
0.001253
0.001266
0.001277
0.001286
0.001300
0.001311
0.001324
0.001337
0.001351
0.001363
0.001380
0.001394
0.001406
0.001422
0.001438
0.001455
0.001470
0.001487
0.001506
0.001526
0.001540
0.001560
0.001580
0.001599
0.001618
0.001637
0.001658
0.001677
0.001697
0.001721
0.001741
0.001762
0.001785
0.001807
0.001831
0.003658
0.003703
0.003708
0.003711
0.003716
0.003713
0.003718
0.003718
0.003723
0.003724
0.003726
0.003729
0.003733
0.003734
0.003735
0.003737
0.003739
0.003739
0.003742
0.003743
0.003746
0.003747
0.003750
0.003749
0.003750
0.003757
0.003752
0.003757
0.003755
0.003755
0.003757
0.003758
0.003759
0.003758
0.003760
0.003762
0.003761
0.003759
0.003759
0.003761
0.003761
0.003762
0.003760
0.003758
0.003760
0.003757
0.003756
0.003753
0.003755
0.003755
0.003750
0.003748
0.003748
0.003749
0.003745
0.003743
0.003743
0.003742
0.003739
0.003735
0.003734
0.003732
0.003729
0.003727
0.003724
0.003722
0.003718
0.003715
0.003710
0.003707
0.003704
0.003698
0.003694
0.003693
0.003689
0.003683
0.003679
0.003676
0.003670
0.003665
0.003661
0.003399
0.003143
0.002883
0.002623
0.002370
0.002108
0.001849
0.001592
0.001334
0.002039
0.002223
0.002411
0.002595
0.002782
0.002965
0.003150
0.003337
0.003522
0.003523
0.003331
0.003142
0.002958
0.002772
0.002579
0.002395
0.002208
0.002016
0.003519
0.003330
0.003140
0.002951
0.002761
0.002568
0.002378
0.002190
0.001996
0.003519
0.003328
0.003135
0.002942
0.002748
0.002556
0.002365
0.002172
0.001978
0.003520
0.003325
0.003131
0.002939
0.002741
0.002546
0.002349
0.002156
0.001958
0.003520
0.003324
0.003124
0.002926
0.002729
0.002532
0.002334
0.002138
0.001940
0.003521
0.003322
0.003120
0.002920
0.002720
0.002523
0.002321
0.002122
0.001920
0.003520
0.003319
0.003114
0.002914
0.002711
0.002509
0.002306
0.002104
0.001899
0.003521
0.003316
0.003109
0.002908
0.002702
0.002497
0.002292
0.002086
0.001881
0.003519
0.003316
0.003105
0.002900
0.002695
0.002484
0.002277
0.002073
0.001865
0.003520
0.003310
0.003101
0.002890
0.002682
0.002471
0.002264
0.002055
0.001844
0.003518
0.003307
0.003098
0.002887
0.002676
0.002463
0.002249
0.002039
0.001829
0.003516
0.003305
0.003093
0.002883
0.002665
0.002450
0.002239
0.002026
0.001811
0.003521
0.003303
0.003088
0.002873
0.002659
0.002442
0.002228
0.002012
0.001794
0.003520
0.003302
0.003083
0.002866
0.002649
0.002431
0.002213
0.001995
0.001775
0.003521
0.003302
0.003082
0.002861
0.002639
0.002420
0.002202
0.001980
0.001761
0.003519
0.003299
0.003076
0.002852
0.002633
0.002412
0.002189
0.001965
0.001748
0.003517
0.003297
0.003070
0.002848
0.002625
0.002400
0.002178
0.001954
0.001728
0.003517
0.003293
0.003070
0.002842
0.002615
0.002389
0.002165
0.001938
0.001714
0.003518
0.003291
0.003064
0.002838
0.002607
0.002382
0.002156
0.001927
0.001698
0.003519
0.003289
0.003059
0.002830
0.002602
0.002369
0.002144
0.001914
0.001684
0.003518
0.003289
0.003054
0.002822
0.002592
0.002363
0.002132
0.001900
0.001667
0.003516
0.003287
0.003052
0.002822
0.002583
0.002354
0.002120
0.001890
0.001654
0.003516
0.003284
0.003049
0.002813
0.002583
0.002347
0.002112
0.001878
0.001642
0.003515
0.003281
0.003044
0.002810
0.002573
0.002338
0.002101
0.001865
0.001626
0.003517
0.003278
0.003043
0.002805
0.002567
0.002330
0.002090
0.001853
0.001617
0.003516
0.003275
0.003038
0.002801
0.002559
0.002320
0.002081
0.001845
0.001600
0.003516
0.003276
0.003035
0.002792
0.002552
0.002311
0.002071
0.001832
0.001589
0.003516
0.003273
0.003032
0.002789
0.002548
0.002305
0.002063
0.001821
0.001580
0.003513
0.003270
0.003028
0.002783
0.002543
0.002297
0.002050
0.001810
0.001569
0.003512
0.003268
0.003024
0.002779
0.002537
0.002292
0.002045
0.001803
0.001560
0.003512
0.003270
0.003024
0.002774
0.002528
0.002284
0.002036
0.001791
0.001546
0.003514
0.003266
0.003018
0.002772
0.002524
0.002278
0.002028
0.001782
0.001534
0.003509
0.003262
0.003015
0.002767
0.002519
0.002271
0.002020
0.001774
0.001524
0.003509
0.003261
0.003015
0.002765
0.002514
0.002264
0.002014
0.001767
0.001513
0.003512
0.003260
0.003011
0.002759
0.002508
0.002258
0.002005
0.001756
0.001507
0.003509
0.003261
0.003005
0.002757
0.002504
0.002251
0.002001
0.001747
0.001496
0.003508
0.003255
0.003006
0.002753
0.002498
0.002246
0.001992
0.001742
0.001489
0.003508
0.003252
0.003001
0.002748
0.002492
0.002242
0.001987
0.001730
0.001480
0.003504
0.003252
0.002999
0.002741
0.002487
0.002233
0.001982
0.001725
0.001468
0.003507
0.003251
0.002995
0.002738
0.002482
0.002231
0.001974
0.001720
0.001463
0.003504
0.003248
0.002990
0.002737
0.002481
0.002223
0.001967
0.001713
0.001454
0.003501
0.003244
0.002988
0.002734
0.002476
0.002217
0.001962
0.001706
0.001447
0.003502
0.003244
0.002985
0.002729
0.002469
0.002214
0.001956
0.001702
0.001443
0.003500
0.003245
0.002983
0.002726
0.002467
0.002206
0.001952
0.001692
0.001435
0.003498
0.003239
0.002980
0.002723
0.002463
0.002205
0.001945
0.001688
0.001426
0.003497
0.003238
0.002978
0.002718
0.002461
0.002199
0.001940
0.001682
0.001422
0.003494
0.003233
0.002975
0.002716
0.002457
0.002197
0.001937
0.001675
0.001417
0.003495
0.003233
0.002974
0.002712
0.002454
0.002192
0.001930
0.001672
0.001411
0.003494
0.003232
0.002969
0.002708
0.002449
0.002188
0.001927
0.001667
0.001403
0.003487
0.003229
0.002967
0.002706
0.002444
0.002186
0.001923
0.001661
0.001400
0.003489
0.003224
0.002966
0.002705
0.002441
0.002179
0.001921
0.001658
0.001396
0.003487
0.003225
0.002962
0.002699
0.002440
0.002177
0.001914
0.001654
0.001393
0.003483
0.003222
0.002960
0.002699
0.002437
0.002175
0.001913
0.001647
0.001385
0.003482
0.003220
0.002957
0.002696
0.002431
0.002172
0.001907
0.001643
0.001386
0.003479
0.003215
0.002956
0.002690
0.002429
0.002167
0.001902
0.001644
0.001378
0.003476
0.003216
0.002950
0.002689
0.002428
0.002166
0.001898
0.001637
0.001375
0.003476
0.003214
0.002948
0.002688
0.002426
0.002162
0.001899
0.001634
0.001374
0.003475
0.003211
0.002946
0.002684
0.002421
0.002159
0.001892
0.001632
0.001367
0.003466
0.003208
0.002948
0.002680
0.002419
0.002153
0.001894
0.001628
0.001365
0.003468
0.003206
0.002943
0.002677
0.002415
0.002152
0.001888
0.001626
0.001363
0.003465
0.003204
0.002939
0.002675
0.002410
0.002149
0.001883
0.001623
0.001357
0.003463
0.003201
0.002937
0.002673
0.002410
0.002150
0.001882
0.001624
0.001356
0.003458
0.003200
0.002936
0.002670
0.002408
0.002143
0.001878
0.001617
0.001357
0.003457
0.003196
0.002930
0.002668
0.002406
0.002141
0.001876
0.001615
0.001350
0.003452
0.003191
0.002927
0.002666
0.002402
0.002139
0.001872
0.001611
0.001353
0.003449
0.003186
0.002928
0.002662
0.002399
0.002136
0.001873
0.001615
0.001348
0.003448
0.003186
0.002923
0.002659
0.002394
0.002134
0.001871
0.001611
0.001344
0.003443
0.003181
0.002918
0.002656
0.002396
0.002131
0.001870
0.001604
0.001342
0.003443
0.003182
0.002920
0.002655
0.002393
0.002130
0.001869
0.001607
0.001344
0.003438
0.003177
0.002914
0.002650
0.002391
0.002127
0.001866
0.001603
0.001339
0.003434
0.003173
0.002912
0.002649
0.002388
0.002124
0.001863
0.001603
0.001342
0.003432
0.003166
0.002905
0.002646
0.002385
0.002123
0.001864
0.001602
0.001340
0.003427
0.003166
0.002904
0.002644
0.002385
0.002121
0.001862
0.001598
0.001337
0.003423
0.003163
0.002903
0.002640
0.002378
0.002119
0.001860
0.001597
0.001335
0.003419
0.003157
0.002901
0.002638
0.002377
0.002119
0.001856
0.001597
0.001337
0.003415
0.003154
0.002899
0.002636
0.002375
0.002118
0.001857
0.001597
0.001336
0.003412
0.003153
0.002895
0.002634
0.002374
0.002115
0.001854
0.001598
0.001335
0.003403
0.003147
0.002889
0.002631
0.002371
0.002112
0.001853
0.001596
0.001335
0.003404
0.003147
0.002886
0.002630
0.002367
0.002111
0.001850
0.001595
0.001333
SCALARS strain_3 float
LOOKUP_TABLE default
0.000765
0.049863
0.049159
0.048455
0.047740
0.047025
0.046306
0.045588
0.044863
0.044133
0.043403
0.042668
0.041932
0.041194
0.040455
0.039712
0.038967
0.038221
0.037473
0.036726
0.035976
0.035228
0.034478
0.033726
0.032980
0.032229
0.031481
0.030734
0.029988
0.029244
0.028502
0.027763
0.027025
0.026290
0.025560
0.024834
0.024108
0.023387
0.022673
0.021964
0.021261
0.020559
0.019867
0.019181
0.018500
0.017827
0.017161
0.016501
0.015854
0.015210
0.014577
0.013953
0.013338
0.012733
0.012139
0.011554
0.010980
0.010417
0.009864
0.009324
0.008794
0.008279
0.007775
0.007285
0.006804
0.006339
0.005886
0.005445
0.005021
0.004608
0.004210
0.003825
0.003455
0.003100
0.002757
0.002430
0.002117
0.001818
0.001534
0.001262
0.001005
0.048585
-0.000405
-0.000174
0.000073
0.000333
0.000610
0.000900
0.001204
0.001523
0.001857
0.002205
0.002566
0.002943
0.003336
0.003739
0.004159
0.004593
0.005037
0.005497
0.005972
0.006457
0.006955
0.007469
0.007990
0.008526
0.009076
0.009633
0.010205
0.010785
0.011378
0.011979
0.012592
0.013213
0.013846
0.014484
0.015133
0.015790
0.016454
0.017125
0.017806
0.018493
0.019185
0.019882
0.020588
0.021296
0.022014
0.022733
0.023458
0.024184
0.024917
0.025652
0.026393
0.027132
0.027875
0.028622
0.029370
0.030120
0.030869
0.031621
0.032372
0.033126
0.033878
0.034629
0.035381
0.036132
0.036882
0.037631
0.038378
0.039125
0.039867
0.040609
0.041350
0.042088
0.042823
0.043553
0.044283
0.045010
0.045733
0.046449
0.047165
0.047877
0.048714
0.048841
0.048970
0.049098
0.049224
0.049355
0.049482
0.049608
0.049736
0.000645
0.000524
0.000406
0.000288
0.000172
0.000055
-0.000063
-0.000178
-0.000292
-0.000059
0.000057
0.000174
0.000290
0.000407
0.000527
0.000644
0.000766
0.000886
0.000189
0.000304
0.000422
0.000539
0.000660
0.000780
0.000900
0.001019
0.001141
0.000450
0.000569
0.000689
0.000807
0.000924
0.001045
0.001165
0.001288
0.001409
0.000728
0.000845
0.000965
0.001085
0.001205
0.001326
0.001447
0.001572
0.001693
0.001019
0.001137
0.001256
0.001379
0.001500
0.001623
0.001745
0.001868
0.001991
0.001325
0.001444
0.001565
0.001687
0.001810
0.001933
0.002056
0.002180
0.002305
0.001644
0.001766
0.001887
0.002009
0.002132
0.002257
0.002381
0.002507
0.002632
0.001977
0.002100
0.002224
0.002346
0.002470
0.002594
0.002721
0.002846
0.002972
0.002328
0.002449
0.002574
0.002699
0.002822
0.002949
0.003075
0.003201
0.003328
0.002690
0.002814
0.002939
0.003062
0.003190
0.003314
0.003444
0.003568
0.003697
0.003069
0.003193
0.003317
0.003443
0.003567
0.003696
0.003824
0.003953
0.004081
0.003459
0.003585
0.003710
0.003836
0.003965
0.004093
0.004220
0.004350
0.004480
0.003866
0.003991
0.004118
0.004243
0.004372
0.004500
0.004631
0.004759
0.004891
0.004286
0.004413
0.004538
0.004669
0.004796
0.004925
0.005053
0.005185
0.005314
0.004719
0.004846
0.004974
0.005102
0.005232
0.005361
0.005492
0.005624
0.005753
0.005165
0.005293
0.005422
0.005552
0.005680
0.005813
0.005942
0.006076
0.006208
0.005626
0.005754
0.005884
0.006012
0.006144
0.006276
0.006406
0.006539
0.006672
0.006100
0.006229
0.006358
0.006488
0.006620
0.006752
0.006882
0.007017
0.007150
0.006585
0.006716
0.006847
0.006978
0.007109
0.007242
0.007374
0.007508
0.007640
0.007086
0.007217
0.007348
0.007478
0.007611
0.007742
0.007876
0.008010
0.008144
0.007599
0.007728
0.007859
0.007991
0.008126
0.008259
0.008392
0.008526
0.008660
0.008123
0.008254
0.008385
0.008518
0.008652
0.008784
0.008919
0.009054
0.009188
0.008659
0.008791
0.008922
0.009056
0.009190
0.009323
0.009458
0.009593
0.009730
0.009207
0.009339
0.009471
0.009606
0.009739
0.009873
0.010007
0.010144
0.010280
0.009767
0.009898
0.010032
0.010166
0.010302
0.010437
0.010570
0.010707
0.010843
0.010337
0.010469
0.010605
0.010738
0.010872
0.011009
0.011144
0.011281
0.011416
0.010916
0.011052
0.011186
0.011322
0.011454
0.011592
0.011726
0.011864
0.012002
0.011512
0.011645
0.011779
0.011915
0.012050
0.012185
0.012323
0.012460
0.012596
0.012114
0.012247
0.012383
0.012517
0.012653
0.012789
0.012926
0.013063
0.013199
0.012725
0.012859
0.012995
0.013130
0.013268
0.013402
0.013541
0.013676
0.013815
0.013348
0.013482
0.013618
0.013753
0.013889
0.014027
0.014163
0.014301
0.014439
0.013978
0.014113
0.014249
0.014384
0.014521
0.014659
0.014795
0.014933
0.015072
0.014618
0.014754
0.014888
0.015028
0.015162
0.015299
0.015437
0.015575
0.015713
0.015268
0.015403
0.015537
0.015674
0.015812
0.015949
0.016087
0.016226
0.016364
0.015925
0.016060
0.016196
0.016334
0.016469
0.016608
0.016744
0.016884
0.017023
0.016589
0.016724
0.016862
0.016998
0.017136
0.017273
0.017411
0.017548
0.017687
0.017261
0.017397
0.017533
0.017671
0.017807
0.017945
0.018083
0.018223
0.018360
0.017940
0.018079
0.018214
0.018350
0.018488
0.018626
0.018764
0.018901
0.019041
0.018627
0.018765
0.018900
0.019039
0.019174
0.019311
0.019449
0.019588
0.019727
0.019320
0.019458
0.019592
0.019730
0.019868
0.020004
0.020143
0.020282
0.020421
0.020019
0.020155
0.020292
0.020429
0.020566
0.020705
0.020844
0.020981
0.021120
0.020722
0.020860
0.020997
0.021134
0.021273
0.021409
0.021547
0.021685
0.021826
0.021433
0.021571
0.021706
0.021843
0.021981
0.022119
0.022257
0.022396
0.022535
0.022149
0.022284
0.022422
0.022559
0.022697
0.022835
0.022972
0.023111
0.023252
0.022868
0.023005
0.023142
0.023280
0.023417
0.023556
0.023692
0.023830
0.023970
0.023593
0.023730
0.023866
0.024004
0.024141
0.024279
0.024416
0.024554
0.024694
0.024321
0.024459
0.024594
0.024731
0.024871
0.025007
0.025145
0.025284
0.025422
0.025055
0.025190
0.025327
0.025462
0.025601
0.025739
0.025876
0.026015
0.026152
0.025790
0.025924
0.026062
0.026199
0.026335
0.026473
0.026610
0.026748
0.026888
0.026527
0.026663
0.026800
0.026937
0.027075
0.027211
0.027348
0.027486
0.027624
0.027269
0.027405
0.027541
0.027677
0.027814
0.027952
0.028090
0.028228
0.028364
0.028012
0.028147
0.028285
0.028420
0.028558
0.028695
0.028833
0.028967
0.029106
0.028757
0.028894
0.029030
0.029167
0.029302
0.029440
0.029577
0.029713
0.029852
0.029505
0.029640
0.029776
0.029913
0.030050
0.030186
0.030323
0.030460
0.030597
0.030254
0.030392
0.030526
0.030662
0.030798
0.030933
0.031070
0.031206
0.031344
0.031004
0.031141
0.031276
0.031411
0.031547
0.031684
0.031820
0.031957
0.032093
0.031757
0.031891
0.032026
0.032163
0.032298
0.032434
0.032571
0.032706
0.032842
0.032507
0.032643
0.032778
0.032913
0.033049
0.033183
0.033320
0.033457
0.033593
0.033258
0.033396
0.033530
0.033665
0.033800
0.033934
0.034071
0.034207
0.034342
0.034013
0.034146
0.034282
0.034416
0.034552
0.034687
0.034820
0.034956
0.035092
0.034762
0.034897
0.035030
0.035166
0.035302
0.035436
0.035572
0.035706
0.035840
0.035515
0.035648
0.035783
0.035917
0.036052
0.036186
0.036321
0.036456
0.036591
0.036265
0.036401
0.036533
0.036666
0.036801
0.036936
0.037072
0.037204
0.037339
0.037015
0.037149
0.037284
0.037416
0.037550
0.037684
0.037818
0.037952
0.038088
0.037765
0.037898
0.038032
0.038165
0.038298
0.038431
0.038565
0.038698
0.038832
0.038512
0.038646
0.038777
0.038910
0.039045
0.039178
0.039310
0.039444
0.039576
0.039256
0.039390
0.039523
0.039655
0.039788
0.039921
0.040055
0.040187
0.040320
0.039999
0.040133
0.040266
0.040398
0.040528
0.040663
0.040797
0.040929
0.041062
0.040742
0.040875
0.041008
0.041140
0.041270
0.041405
0.041536
0.041668
0.041799
0.041483
0.041613
0.041746
0.041879
0.042010
0.042141
0.042274
0.042406
0.042536
0.042219
0.042349
0.042482
0.042614
0.042744
0.042877
0.043009
0.043139
0.043269
0.042956
0.043085
0.043215
0.043347
0.043477
0.043610
0.043740
0.043871
0.044001
0.043685
0.043815
0.043946
0.044077
0.044208
0.044340
0.044469
0.044600
0.044730
0.044413
0.044544
0.044674
0.044804
0.044937
0.045065
0.045196
0.045326
0.045457
0.045139
0.045269
0.045400
0.045528
0.045660
0.045790
0.045919
0.046049
0.046178
0.045861
0.045990
0.046121
0.046250
0.046378
0.046506
0.046637
0.046767
0.046898
0.046579
0.046709
0.046839
0.046967
0.047096
0.047226
0.047355
0.047485
0.047612
0.047294
0.047424
0.047552
0.047680
0.047808
0.047939
0.048068
0.048196
0.048325
0.048006
0.048134
0.048263
0.048392
0.048521
0.048647
0.048777
0.048902
0.049031
SCALARS stress_1 float
LOOKUP_TABLE default
12071.959307
-11323805.054444
-11152462.310522
-10980166.316601
-10807082.572679
-10633274.328757
-10458649.334835
-10283338.090913
-10107360.846991
-9930747.353069
-9753682.359147
-9575987.115225
-9397811.371303
-9219260.877382
-9040346.883460
-8861081.389538
-8681628.145616
-8501939.151694
-8322080.657772
-8142197.413850
-7962292.669928
-7782418.176006
-7602695.932084
-7423167.688163
-7243828.444241
-7064886.200319
-6886308.456397
-6708243.212475
-6530730.718553
-6353817.224631
-6177633.480709
-6002253.736787
-5827769.992866
-5654206.498944
-5481637.255022
-5310273.761100
-5140036.517178
-4971160.773256
-4803640.779334
-4637544.535412
-4473050.041490
-4310144.797568
-4149006.803647
-3989653.809725
-3832187.815803
-3676711.821881
-3523356.077959
-3372085.084037
-3223099.090115
-3076397.596193
-2932157.852271
-2790311.858349
-2651097.364428
-2514490.870506
-2380625.626584
-2249577.882662
-2121319.638740
-1996004.894818
-1873703.650896
-1754527.406974
-1638387.163052
-1525460.169131
-1415762.175209
-1309348.931287
-1206256.687365
-1106558.693443
-1010252.449521
-917435.955599
-828043.711677
-742168.217755
-659834.973833
-581051.729912
-505791.485990
-434092.742068
-365975.248146
-301430.504224
-240422.510302
-182961.266380
-129010.022458
-78531.028536
-31536.784615
-11307274.767697
40738.496055
-2709.997867
-49607.741789
-99959.485711
-153831.229632
-211241.223554
-272145.967476
-336660.961398
-404754.705320
-476446.949242
-551673.443164
-630421.687086
-712794.681008
-798666.174929
-888097.418851
-980947.412773
-1077317.656695
-1177095.900617
-1280219.394539
-1386691.138461
-1496510.632383
-1609513.376305
-1725770.870227
-1845080.364148
-1967487.858070
-2092955.851992
-2221299.845914
-2352513.589836
-2486571.083758
-2623331.827680
-2762717.321602
-2904661.815524
-3049165.809446
-3196007.803367
-3345222.047289
-3496667.291211
-3650267.285133
-3805979.279055
-3963600.022977
-4123185.766899
-4284500.760821
-4447643.254743
-4612399.748664
-4778711.492586
-4946459.736508
-5115577.480430
-5285994.724352
-5457659.968274
-5630417.462196
-5804220.206118
-5978983.700040
-6154595.693962
-6331035.437883
-6508128.931805
-6685888.925727
-6864213.419649
-7042987.913571
-7222185.657493
-7401722.151415
-7581532.145337
-7761478.139259
-7941648.133181
-8121770.627102
-8301884.121024
-8481959.114946
-8661876.608868
-8841608.852790
-9021040.596712
-9200192.590634
-9379003.084556
-9557345.078478
-9735271.072399
-9912617.566321
-10089400.060243
-10265610.304165
-10441135.298087
-10615892.542009
-10789974.285931
-10963233.279853
-11135698.023775
-11309034.846371
-11310733.425046
-11312408.753721
-11314088.082396
-11315742.161070
-11317393.739745
-11319029.568420
-11320614.897095
-11322248.725770
15588.287982
18946.866657
22227.195332
25300.024006
28246.352681
31032.431356
33650.260031
36176.088706
38501.667380
-4943.076542
-7286.655216
-9768.733891
-12457.312566
-15277.891241
-18198.719915
-21343.798590
-24565.127265
-27971.705940
-51809.820463
-54162.899138
-56707.227813
-59369.806488
-62205.385163
-65155.713837
-68244.042512
-71555.371187
-74988.699862
-102218.064385
-104571.393060
-107097.971735
-109758.050410
-112568.379084
-115565.207759
-118708.286434
-121986.115109
-125406.443784
-156080.308307
-158457.136982
-160977.965657
-163678.044332
-166538.623006
-169498.201681
-172639.530356
-175901.859031
-179357.437705
-213487.052229
-215854.630904
-218408.459579
-221082.038253
-223958.116928
-226946.695603
-230083.524278
-233385.602953
-236824.931627
-274437.046151
-276789.624826
-279366.703501
-282057.032175
-284903.360850
-287926.439525
-291081.518200
-294373.346874
-297850.425549
-338955.790073
-341332.368748
-343898.697422
-346606.776097
-349431.854772
-352480.933447
-355602.262122
-358925.090796
-362369.919471
-407054.283995
-409457.362670
-411997.191344
-414659.520019
-417541.348694
-420559.427369
-423720.506043
-427044.834718
-430493.663393
-478667.027917
-481109.356591
-483643.935266
-486355.763941
-489203.092616
-492242.171291
-495402.749965
-498725.328640
-502160.907315
-553902.021839
-556302.850513
-558880.929188
-561605.257863
-564428.586538
-567464.415212
-570631.493887
-573966.822562
-577432.151237
-632739.265760
-635096.594435
-637678.923110
-640390.501785
-643284.330460
-646271.909134
-649443.737809
-652744.566484
-656180.645159
-715050.259682
-717477.588357
-720030.417032
-722720.495707
-725597.324381
-728588.653056
-731789.231731
-735102.810406
-738596.889081
-800938.503604
-803362.332279
-805907.410954
-808618.239629
-811491.318303
-814487.396978
-817657.225653
-820970.054328
-824430.883002
-890352.997526
-892749.576201
-895312.654876
-898026.733550
-900878.562225
-903908.390900
-907024.469575
-910377.798250
-913799.876924
-983235.741448
-985655.070123
-988168.898798
-990899.227472
-993772.306147
-996736.384822
-999909.463497
-1003224.542171
-1006660.370846
-1079581.985370
-1081984.064045
-1084531.642720
-1087226.971394
-1090094.300069
-1093084.128744
-1096242.207419
-1099504.036093
-1102969.614768
-1179341.229292
-1181766.057967
-1184306.136641
-1186992.965316
-1189846.043991
-1192821.872666
-1195981.201341
-1199258.280015
-1202700.108690
-1282534.223214
-1284893.051889
-1287434.130563
-1290115.209238
-1292975.537913
-1295968.616588
-1299100.695262
-1302373.273937
-1305768.852612
-1388985.717136
-1391394.795810
-1393932.624485
-1396617.203160
-1399447.281835
-1402416.860510
-1405538.189184
-1408786.267859
-1412197.346534
-1498762.211058
-1501150.039732
-1503694.868407
-1506384.197082
-1509200.525757
-1512181.604431
-1515267.183106
-1518528.511781
-1521954.340456
-1611803.704979
-1614178.033654
-1616715.862329
-1619404.191004
-1622210.269679
-1625172.098353
-1628268.177028
-1631486.255703
-1634895.084378
-1727998.448901
-1730366.777576
-1732917.106251
-1735592.684926
-1738398.763600
-1741326.592275
-1744401.420950
-1747639.249625
-1750997.578300
-1847346.192823
-1849724.021498
-1852260.350173
-1854906.928848
-1857683.007522
-1860632.836197
-1863711.664872
-1866908.243547
-1870236.322221
-1969762.186745
-1972146.265420
-1974627.594095
-1977289.672769
-1980084.251444
-1982990.580119
-1986033.158794
-1989248.237469
-1992539.566143
-2095225.680667
-2097551.009342
-2100041.838017
-2102681.916691
-2105445.495366
-2108323.074041
-2111399.652716
-2114599.981390
-2117865.810065
-2223534.174589
-2225902.753264
-2228408.581938
-2231015.160613
-2233763.489288
-2236688.817963
-2239662.896638
-2242824.475312
-2246109.803987
-2354777.668511
-2357123.747186
-2359591.575860
-2362208.654535
-2364961.483210
-2367815.311885
-2370852.390559
-2373968.469234
-2377247.297909
-2488763.912433
-2491142.491107
-2493616.819782
-2496207.398457
-2498934.977132
-2501791.805807
-2504760.634481
-2507880.713156
-2511119.541831
-2625534.406355
-2627863.985029
-2630338.813704
-2632908.642379
-2635632.471054
-2638464.299728
-2641430.628403
-2644521.707078
-2647753.035753
-2764922.150277
-2767269.228951
-2769728.557626
-2772263.636301
-2774979.214976
-2777821.543650
-2780748.622325
-2783790.701000
-2787014.779675
-2906909.894198
-2909244.472873
-2911652.801548
-2914222.380223
-2916889.458898
-2919710.787572
-2922608.366247
-2925667.194922
-2928831.773597
-3051344.388120
-3053649.966795
-3056075.045470
-3058646.624145
-3061308.452819
-3064061.531494
-3066977.110169
-3069995.438844
-3073148.517519
-3198216.882042
-3200503.460717
-3202947.039392
-3205430.368067
-3208127.196741
-3210846.025416
-3213757.854091
-3216703.682766
-3219828.761440
-3347415.625964
-3349706.954639
-3352092.533314
-3354643.361988
-3357250.690663
-3359989.269338
-3362816.348013
-3365808.676688
-3368884.505362
-3498824.119886
-3501115.198561
-3503487.527236
-3506031.855910
-3508622.934585
-3511303.513260
-3514169.091935
-3517129.420609
-3520172.999284
-3652447.113808
-3654716.442483
-3657076.771157
-3659577.099832
-3662143.678507
-3664853.507182
-3667649.835857
-3670579.414531
-3673604.493206
-3808086.607730
-3810366.936405
-3812721.515079
-3815175.843754
-3817785.172429
-3820459.001104
-3823245.829778
-3826107.408453
-3829088.987128
-3965772.851652
-3967995.180326
-3970363.759001
-3972827.837676
-3975352.416351
-3978010.995026
-3980783.073700
-3983623.402375
-3986570.231050
-4125291.595574
-4127558.674248
-4129857.252923
-4132310.831598
-4134871.910273
-4137463.238947
-4140201.567622
-4143038.896297
-4145953.724972
-4286691.839495
-4288900.918170
-4291190.246845
-4293626.825520
-4296157.904195
-4298763.482869
-4301460.811544
-4304247.390219
-4307169.968894
-4449773.583417
-4451956.412092
-4454296.240767
-4456717.819442
-4459166.148116
-4461750.226791
-4464442.555466
-4467212.384141
-4470070.712816
-4614488.077339
-4616676.406014
-4619011.984689
-4621327.313364
-4623892.142038
-4626410.470713
-4629026.549388
-4631809.378063
-4634621.706737
-4780788.071261
-4782975.149936
-4785253.228611
-4787640.057285
-4790098.885960
-4792612.214635
-4795227.543310
-4797974.871985
-4800717.950659
-4948562.565183
-4950732.893858
-4952960.722533
-4955311.801207
-4957749.379882
-4960282.458557
-4962845.287232
-4965537.365906
-4968291.944581
-5117635.309105
-5119819.887780
-5122021.466455
-5124411.795129
-5126810.123804
-5129314.952479
-5131859.781154
-5134518.859828
-5137258.938503
-5288097.553027
-5290211.631702
-5292469.710376
-5294764.039051
-5297201.617726
-5299653.946401
-5302146.025076
-5304786.603750
-5307494.932425
-5459721.296949
-5461848.625624
-5464080.954298
-5466362.532973
-5468710.361648
-5471152.190323
-5473689.268997
-5476244.347672
-5478944.176347
-5632491.790871
-5634596.369545
-5636812.198220
-5639051.026895
-5641388.105570
-5643814.434245
-5646277.512919
-5648828.591594
-5651485.920269
-5806246.034793
-5808393.113467
-5810541.192142
-5812800.020817
-5815142.849492
-5817514.428166
-5819951.756841
-5822464.835516
-5825114.664191
-5980980.278714
-5983076.107389
-5985286.936064
-5987500.264739
-5989805.093414
-5992141.172088
-5994581.250763
-5997084.579438
-5999634.408113
-6156618.022636
-6158708.851311
-6160894.179986
-6163072.008661
-6165323.837335
-6167663.666010
-6170055.994685
-6172563.073360
-6175087.652035
-6333016.766558
-6335087.595233
-6337235.173908
-6339411.252583
-6341671.331257
-6344017.409932
-6346359.238607
-6348792.567282
-6351265.395956
-6510145.510480
-6512197.589155
-6514289.417830
-6516467.246504
-6518720.575179
-6521014.403854
-6523363.232529
-6525746.561204
-6528179.139878
-6687860.004402
-6689943.583077
-6692028.161752
-6694205.740426
-6696392.319101
-6698677.397776
-6700968.226451
-6703357.805125
-6705783.883800
-6866233.998324
-6868258.076999
-6870303.155673
-6872435.984348
-6874632.313023
-6876847.141698
-6879150.470373
-6881456.299047
-6883876.877722
-7044982.242246
-7047009.070921
-7049028.399595
-7051168.228270
-7053354.056945
-7055544.385620
-7057814.214294
-7060092.042969
-7062510.871644
-7224181.736168
-7226196.814842
-7228228.143517
-7230312.722192
-7232448.550867
-7234646.879542
-7236883.458216
-7239141.036891
-7241466.365566
-7403693.480090
-7405697.808764
-7407708.387439
-7409766.466114
-7411918.294789
-7414041.623463
-7416299.452138
-7418483.280813
-7420792.359488
-7583479.974011
-7585440.302686
-7587480.631361
-7589527.460036
-7591635.538711
-7593717.117385
-7595911.196060
-7598142.024735
-7600388.853410
-7763445.467933
-7765402.546608
-7767382.125283
-7769419.203958
-7771493.782632
-7773627.361307
-7775762.939982
-7777974.268657
-7780146.847332
-7943483.711855
-7945448.290530
-7947424.869205
-7949459.697880
-7951519.526554
-7953621.355229
-7955747.433904
-7957887.262579
-7960056.091254
-8123636.205777
-8125564.784452
-8127567.363127
-8129555.941802
-8131589.020476
-8133632.349151
-8135768.927826
-8137844.256501
-8139991.835175
-8303780.949699
-8305674.528374
-8307659.607049
-8309633.435723
-8311646.264398
-8313694.343073
-8315766.421748
-8317815.250423
-8319925.079097
-8483841.193621
-8485765.022296
-8487682.350971
-8489616.679645
-8491618.258320
-8493654.086995
-8495679.915670
-8497736.244344
-8499806.073019
-8663770.437543
-8665642.266218
-8667517.594892
-8669497.923567
-8671445.502242
-8673457.580917
-8675457.659592
-8677504.988266
-8679535.816941
-8843427.181465
-8845357.260140
-8847263.088814
-8849164.417489
-8851097.746164
-8853077.824839
-8855044.653513
-8857072.732188
-8859054.810863
-9022927.675387
-9024764.754061
-9026659.332736
-9028599.411411
-9030500.490086
-9032445.318761
-9034378.397435
-9036351.726110
-9038343.304785
-9202064.919309
-9203911.997983
-9205754.076658
-9207669.655333
-9209567.484008
-9211466.562682
-9213376.641357
-9215344.720032
-9217321.548707
-9380830.413230
-9382675.491905
-9384498.570580
-9386392.899255
-9388289.977930
-9390189.056604
-9392075.635279
-9393993.963954
-9395885.792629
-9559186.157152
-9561041.485827
-9562848.064502
-9564743.643177
-9566565.971851
-9568412.300526
-9570319.129201
-9572199.457876
-9574069.536551
-9737080.651074
-9738885.979749
-9740716.808424
-9742529.137099
-9744382.215773
-9746194.794448
-9748062.623123
-9749927.951798
-9751759.530472
-9914421.644996
-9916222.473671
-9917995.052346
-9919815.131020
-9921660.459695
-9923473.538370
-9925281.617045
-9927108.195720
-9928977.274394
-10091172.388918
-10093013.217593
-10094760.796268
-10096594.124942
-10098349.203617
-10100180.782292
-10101992.610967
-10103777.189641
-10105578.768316
-10267360.382840
-10269148.961515
-10270929.790189
-10272720.618864
-10274468.947539
-10276252.276214
-10278003.354889
-10279806.683563
-10281559.512238
-10442861.376762
-10444635.955437
-10446394.784111
-10448186.362786
-10449916.191461
-10451679.770136
-10453410.598810
-10455146.427485
-10456910.506160
-10617679.120684
-10619458.699359
-10621168.278033
-10622948.106708
-10624642.685383
-10626382.264058
-10628117.092732
-10629860.921407
-10631541.250082
-10791726.864606
-10793461.193280
-10795216.521955
-10796924.850630
-10798632.179305
-10800331.257980
-10802035.836654
-10803712.915329
-10805389.494004
-10965029.358528
-10966691.437202
-10968468.265877
-10970134.844552
-10971830.423227
-10973527.751901
-10975199.830576
-10976866.159251
-10978524.987926
-11137431.852449
-11139171.181124
-11140836.509799
-11142553.338474
-11144201.667149
-11145898.995823
-11147552.824498
-11149134.903173
-11150810.731848
SCALARS stress_2 float
LOOKUP_TABLE default
142224.233807
-1710182.551504
-1683140.466688
-1655890.381871
-1628128.297055
-1600798.212239
-1573196.127422
-1545354.042606
-1517559.957789
-1489301.872973
-1461347.788157
-1433105.703340
-1404719.618524
-1376365.533708
-1347979.448891
-1319321.364075
-1290887.279258
-1262597.194442
-1233699.109626
-1205105.024809
-1176398.939993
-1147788.855176
-1119066.770360
-1090424.685544
-1061830.600727
-1033156.515911
-1004530.431095
-975968.346278
-947742.261462
-919228.176645
-891050.091829
-862808.007013
-834709.922196
-806931.837380
-779137.752563
-751439.667747
-724141.582931
-696779.498114
-669737.413298
-642823.328482
-616149.243665
-589795.158849
-563569.074032
-537710.989216
-512076.904400
-486634.819583
-461832.734767
-437062.649950
-412500.565134
-388482.480318
-364864.395501
-341454.310685
-318300.225869
-295930.141052
-273656.056236
-252085.971419
-230755.886603
-209633.801787
-189279.716970
-169357.632154
-149627.547338
-130649.462521
-112055.377705
-94181.292888
-76547.208072
-59329.123256
-42623.038439
-26604.953623
-11082.868806
3911.216010
18377.300826
32299.385643
45709.470459
58543.555275
70833.640092
82483.724908
94037.809725
104663.894541
114681.979357
124428.064174
133694.148990
-1518055.624861
281535.160450
274813.075633
267450.990817
259704.906001
251222.821184
242404.736368
232802.651551
222880.566735
212094.481919
201196.397102
189386.312286
176984.227470
164134.142653
150708.057837
136769.973020
122239.888204
107133.803388
91323.718571
75289.633755
58487.548938
41077.464122
23315.379306
5153.294489
-13616.790327
-32914.875143
-52628.959960
-72839.044776
-93705.129593
-114651.214409
-136285.299225
-158127.384042
-180737.468858
-203363.553675
-226725.638491
-250343.723307
-274153.808124
-298699.892940
-323245.977756
-348192.062573
-373346.147389
-398820.232206
-424710.317022
-450968.401838
-477002.486655
-504060.571471
-530638.656288
-557824.741104
-584674.825920
-612484.910737
-640006.995553
-667609.080369
-695499.165186
-723709.250002
-751759.334819
-780065.419635
-808227.504451
-836757.589268
-865271.674084
-893929.758900
-922395.843717
-951197.928533
-979792.013350
-1008482.098166
-1037444.182982
-1066022.267799
-1095048.352615
-1123578.437432
-1152060.522248
-1180798.607064
-1209376.691881
-1237858.776697
-1266468.861513
-1294854.946330
-1322969.031146
-1350923.115963
-1379229.200779
-1407375.285595
-1435249.370412
-1462691.455228
-1490293.540045
-1537322.717525
-1556541.810190
-1575760.902854
-1594659.995518
-1614167.088182
-1633498.180847
-1652573.273511
-1671888.366175
-1691379.458840
156339.326471
170182.419135
184297.511799
198396.604464
212191.697128
226114.789792
239941.882457
253704.975121
267628.067785
260585.982969
246582.890305
232643.797640
218432.704976
204397.612312
190202.519647
176263.426983
161908.334319
147681.241654
253159.898153
239092.805488
224849.712824
210590.620160
196187.527495
181992.434831
167669.342167
153218.249502
139071.156838
245077.813336
231138.720672
216319.628008
201996.535343
187513.442679
173110.350015
158547.257350
144096.164686
129469.072022
236803.728520
222368.635856
207693.543191
193194.450527
178503.357863
163636.265198
148929.172534
134126.079870
119274.987205
227601.643703
212878.551039
198219.458375
183352.365711
168485.273046
153682.180382
138623.087718
123611.995053
108600.902389
218095.558887
203244.466223
188137.373558
173254.280894
158211.188230
143024.095566
128029.002901
112809.910237
97942.817573
207821.474071
192586.381406
177575.288742
162356.196078
147089.103413
131950.010749
116794.918085
101367.825420
86228.732756
197195.389254
181656.296590
166485.203926
151186.111261
135775.018597
120523.925933
104792.833268
89701.740604
74178.647940
185849.304438
170246.211774
154835.119109
139456.026445
124124.933781
108345.841116
92630.748452
77139.655788
61136.563123
173719.219622
158276.126957
142545.034293
126909.941629
111290.848964
95623.756300
79716.663636
63809.570971
48302.478307
161397.134805
145410.042141
129774.949477
114075.856812
98056.764148
82341.671484
66114.578819
50399.486155
34284.393491
148163.049989
132175.957324
116476.864660
100265.771996
84406.679332
68275.586667
52272.494003
36077.401339
20058.308674
134672.965172
118621.872508
102474.779844
86455.687179
69892.594515
53969.501851
37678.409187
21387.316522
5112.223858
120590.880356
104283.787692
88008.695027
71893.602363
55474.509699
39135.417034
22700.324370
6169.231706
-10345.860959
105868.795540
89353.702875
73094.610211
56243.517547
40128.424882
23565.332218
6970.239554
-9608.853111
-26059.945775
90682.710723
74151.618059
57508.525395
40705.432730
24158.340066
7627.247402
-9351.845263
-25626.937927
-42590.030591
74776.625907
58373.533243
41362.440578
24639.347914
7644.255250
-8918.837415
-25881.930079
-42685.022743
-59616.115408
58470.541091
41667.448426
24624.355762
7741.263098
-9125.829567
-26136.922231
-43020.014895
-59935.107560
-77026.200224
41668.456274
24609.363610
7774.270945
-9348.821719
-26535.914383
-43483.007047
-60638.099712
-77601.192376
-95204.285040
24146.371458
7087.278793
-10051.813871
-27238.906535
-44377.999200
-61469.091864
-78896.184528
-96243.277192
-113382.369857
6272.286641
-11074.806023
-28117.898687
-45608.991352
-62940.084016
-80143.176680
-97522.269345
-114869.362009
-132328.454673
-12289.798175
-29284.890839
-46695.983504
-64011.076168
-81918.168832
-98977.261497
-116484.354161
-134247.446825
-151546.539490
-31075.882991
-48454.975656
-65898.068320
-83549.160984
-101120.253649
-118963.346313
-136422.438977
-153929.531642
-171708.624306
-50549.967808
-68089.060472
-85596.153136
-103279.245801
-121090.338465
-138789.431129
-156360.523794
-174347.616458
-191662.709122
-70488.052624
-88187.145288
-105710.237953
-123425.330617
-141252.423281
-159095.515946
-176938.608610
-194797.701274
-212624.793939
-90714.137441
-108621.230105
-126480.322769
-144323.415434
-162022.508098
-180201.600762
-198044.693426
-215951.786091
-233842.878755
-111292.222257
-129311.314921
-147346.407586
-165141.500250
-183416.592914
-201547.685579
-219614.778243
-237297.870907
-255636.963571
-132878.307073
-150657.399738
-168804.492402
-186903.585066
-204922.677731
-223149.770395
-241536.863059
-259491.955724
-277511.048388
-154400.391890
-172675.484554
-190678.577218
-209017.669883
-227116.762547
-245455.855211
-263778.947876
-281766.040540
-299881.133204
-176770.476706
-194789.569370
-212872.662035
-231387.754699
-249502.847363
-267905.940028
-286325.032692
-304568.125356
-323035.218021
-199012.561522
-217223.654187
-235914.746851
-254189.839515
-272624.932180
-290852.024844
-309335.117508
-327770.210173
-346333.302837
-221798.646339
-240153.739003
-258956.831667
-277119.924332
-295747.016996
-314230.109660
-332713.202325
-351452.294989
-370063.387653
-245160.731155
-263755.823820
-282238.916484
-300818.009148
-319333.101813
-338008.194477
-356571.287141
-375198.379805
-393729.472470
-268890.815972
-287421.908636
-306193.001300
-325012.093965
-343303.186629
-361978.279293
-380653.371958
-399280.464622
-418115.557286
-293020.900788
-311391.993452
-330307.086117
-348950.178781
-367929.271445
-386316.364110
-405135.456774
-424066.549438
-443013.642103
-317166.985604
-336098.078269
-354661.170933
-373624.263597
-392347.356262
-411198.448926
-429905.541590
-448868.634255
-467799.726919
-342001.070421
-360932.163085
-379751.255749
-398298.348414
-417149.441078
-436384.533742
-455203.626407
-474038.719071
-493161.811735
-366963.155237
-385718.247901
-404713.340566
-423580.433230
-442607.525894
-461586.618559
-480837.711223
-499704.803887
-518731.896552
-392357.240054
-411336.332718
-430251.425382
-449182.518046
-468609.610711
-487412.703375
-506487.796039
-525386.888704
-544685.981368
-417847.324870
-436794.417534
-455917.510199
-475024.602863
-494195.695527
-513014.788192
-532425.880856
-551580.973520
-570608.066184
-443657.409686
-462876.502351
-482015.595015
-501106.687679
-520085.780344
-539336.873008
-558795.965672
-577887.058337
-596642.151001
-469723.494503
-489102.587167
-508161.679831
-527380.772496
-546663.865160
-566058.957824
-585150.050489
-604193.143153
-623444.235817
-496285.579319
-515632.671983
-534595.764648
-553814.857312
-573017.949976
-592493.042641
-612016.135305
-631139.227969
-650342.320634
-522927.664135
-542210.756800
-561269.849464
-580680.942128
-600076.034793
-619343.127457
-638706.220121
-658245.312786
-677640.405450
-549953.748952
-569396.841616
-588407.934280
-607627.026945
-627166.119609
-646609.212273
-665876.304938
-685303.397602
-704730.490266
-577059.833768
-596390.926433
-615530.019097
-635149.111761
-654528.204425
-673907.297090
-693238.389754
-712489.482418
-731916.575083
-604341.918585
-623449.011249
-642972.103913
-662511.196578
-681746.289242
-701285.381906
-720696.474571
-739931.567235
-759502.659899
-631736.003401
-651131.096065
-670494.188730
-689873.281394
-709540.374058
-728823.466723
-748266.559387
-767917.652051
-787168.744716
-659450.088217
-678685.180882
-698048.273546
-717699.366210
-737174.458875
-756585.551539
-776140.644203
-795599.736868
-815122.829532
-687052.173034
-706671.265698
-725746.358362
-745621.451027
-765128.543691
-784539.636355
-804190.729020
-823809.821684
-843332.914348
-715262.257850
-734449.350514
-753700.443179
-773591.535843
-792874.628507
-812573.721172
-832144.813836
-852051.906500
-871238.999165
-742912.342667
-762531.435331
-782166.527995
-801609.620659
-821116.713324
-840799.805988
-860434.898652
-879957.991317
-899609.083981
-771266.427483
-790645.520147
-810472.612812
-830075.705476
-849534.798140
-869137.890804
-888596.983469
-908472.076133
-927947.168797
-799796.512299
-819159.604964
-838682.697628
-858285.790292
-877936.882957
-897411.975621
-916967.068285
-936650.160950
-956429.253614
-827638.597116
-847449.689780
-867036.782444
-886735.875109
-906274.967773
-925846.060437
-945753.153102
-965260.245766
-984879.338430
-856360.681932
-875867.774596
-895710.867261
-915233.959925
-934661.052589
-954392.145254
-974123.237918
-993806.330582
-1013457.423247
-884730.766748
-904445.859413
-924112.952077
-943924.044741
-963463.137406
-983114.230070
-1002653.322734
-1022560.415399
-1041971.508063
-913676.851565
-933023.944229
-952739.036893
-972214.129558
-991945.222222
-1011500.314886
-1031423.407551
-1051010.500215
-1070597.592879
-942206.936381
-961938.029045
-981557.121710
-1001176.214374
-1020715.307038
-1040302.399703
-1059937.492367
-1079332.585031
-1099271.677696
-970897.021198
-990372.113862
-1009927.206526
-1029770.299191
-1049133.391855
-1069152.484519
-1088851.577183
-1108278.669848
-1127929.762512
-999635.106014
-1019046.198678
-1038793.291343
-1058524.384007
-1078031.476671
-1097618.569336
-1117429.662000
-1136984.754664
-1156523.847329
-1028517.190830
-1048104.283495
-1067595.376159
-1087198.468823
-1106913.561488
-1126212.654152
-1145959.746816
-1165850.839481
-1185405.932145
-1056887.275647
-1076506.368311
-1096093.460975
-1115664.553640
-1135315.646304
-1154982.738968
-1174617.831633
-1194332.924297
-1214000.016961
-1085929.360463
-1105276.453127
-1124799.545792
-1144562.638456
-1164325.731120
-1183640.823785
-1203339.916449
-1223135.009113
-1242674.101778
-1114267.445279
-1133774.537944
-1153601.630608
-1173188.723272
-1192599.815937
-1212458.908601
-1232014.001265
-1251809.093930
-1271428.186594
-1142877.530096
-1162880.622760
-1182019.715424
-1201990.808089
-1221257.900753
-1241100.993417
-1260656.086082
-1280259.178746
-1300038.271410
-1171791.614912
-1191298.707577
-1210725.800241
-1230280.892905
-1250027.985570
-1269551.078234
-1289314.170898
-1308917.263562
-1328408.356227
-1200353.699729
-1219668.792393
-1239431.885057
-1258986.977722
-1278558.070386
-1298177.163050
-1317380.255715
-1337351.348379
-1356842.441043
-1228803.784545
-1248358.877209
-1268009.969874
-1287533.062538
-1307200.155202
-1326547.247867
-1346006.340531
-1365785.433195
-1385260.525860
-1257429.869361
-1276808.962026
-1296284.054690
-1315887.147354
-1335602.240019
-1355141.332683
-1374408.425347
-1394123.518012
-1413646.610676
-1285735.954178
-1305227.046842
-1324638.139506
-1344209.232171
-1363684.324835
-1383255.417499
-1402810.510164
-1422365.602828
-1441728.695492
-1314042.038994
-1333629.131658
-1353040.224323
-1372499.316987
-1392118.409651
-1411465.502316
-1431004.594980
-1450479.687644
-1470146.780309
-1342300.123811
-1361935.216475
-1381362.309139
-1400613.401803
-1420248.494468
-1439659.587132
-1459182.679796
-1478513.772461
-1498212.865125
-1370494.208627
-1389857.301291
-1409220.393956
-1428919.486620
-1448122.579284
-1467645.671949
-1487232.764613
-1506259.857277
-1525782.949941
-1398816.293443
-1418083.386108
-1437270.478772
-1456585.571436
-1476396.664101
-1495711.756765
-1514786.849429
-1534581.942094
-1553849.034758
-1426386.378260
-1445973.470924
-1465336.563588
-1484923.656253
-1503982.748917
-1523345.841581
-1542884.934246
-1562232.026910
-1581467.119574
-1454420.463076
-1473719.555740
-1493034.648405
-1512349.741069
-1531744.833733
-1551283.926398
-1570487.019062
-1589738.111726
-1608989.204391
-1482230.547892
-1501529.640557
-1520748.733221
-1540047.825885
-1559314.918550
-1578646.011214
-1597641.103878
-1617180.196543
-1636927.289207
-1509944.632709
-1529163.725373
-1548430.818037
-1567857.910702
-1586645.003366
-1606024.096030
-1625435.188695
-1644398.281359
-1663521.374023
SCALARS stress_3 float
LOOKUP_TABLE default
49240.082425
3240242.613440
3194403.381802
3148532.150164
3102284.918527
3055693.686889
3009086.455251
2962199.223614
2915023.991976
2867808.760338
2820281.528701
2772530.297063
2724587.065425
2676563.833788
2628540.602150
2580333.370512
2531854.138875
2483414.907237
2434831.675599
2386152.443962
2337513.212324
2288737.980686
2239922.749048
2191307.517411
2142628.285773
2094005.054135
2045349.822498
1996694.590860
1948303.359222
1899880.127585
1851560.895947
1803505.664309
1755618.432672
1707867.201034
1660339.969396
1613068.737759
1566149.506121
1519230.274483
1472823.042846
1426615.811208
1380872.579570
1335521.347933
1290410.116295
1245682.884657
1201403.653019
1157732.421382
1114517.189744
1071613.958106
1029438.726469
987719.494831
946504.263193
906041.031556
866145.799918
826746.568280
788163.336643
750140.105005
712828.873367
676229.641730
640350.410092
605223.178454
570975.946817
537336.715179
504609.483541
472698.251903
441539.020266
411411.788628
381924.556990
353293.325353
325654.093715
298918.862077
272991.630440
248184.398802
224001.167164
200969.935527
178658.703889
157499.472251
137052.240614
117869.008976
99005.777338
81558.545701
65015.314063
3158801.852039
-26224.678976
-11305.447338
4837.784299
21717.015937
39756.247575
58483.479212
78290.710850
98977.942488
120745.174125
143400.405763
166871.637401
191390.869039
216830.100676
243077.332314
270260.563952
298547.795589
327435.027227
357402.258865
388177.490502
419816.722140
452255.953778
485479.185415
519462.417053
554309.648691
589892.880328
626316.111966
663323.343604
701186.575241
739729.806879
778817.038517
818600.270154
859055.501792
900014.733430
941533.965068
983741.196705
1026380.428343
1069635.659981
1113482.891618
1157474.123256
1202305.354894
1247296.586531
1292559.818169
1338479.049807
1384590.281444
1431181.513082
1477996.744720
1525051.976357
1572323.207995
1620010.439633
1667777.671270
1715808.902908
1764120.134546
1812391.366184
1861006.597821
1909565.829459
1958293.061097
2007004.292734
2055923.524372
2104674.756010
2153737.987647
2202649.219285
2251632.450923
2300367.682560
2349318.914198
2398134.145836
2446733.377473
2495236.609111
2543819.840749
2592147.072386
2640394.304024
2688489.535662
2736576.767299
2784231.998937
2831799.230575
2879254.462213
2926389.693850
2973244.925488
3020164.157126
3066683.388763
3112746.620401
3167017.128179
3175184.404319
3183271.680459
3191414.956599
3199542.232739
3207797.508879
3215836.785019
3224036.061160
3232091.337300
41448.806285
33785.530145
26242.254005
18562.977865
10987.701725
3284.425584
-4106.850556
-11538.126696
-18921.402836
-3818.171198
3573.104942
11268.381082
18787.657222
26346.933362
34050.209502
41641.485643
49384.761783
57024.037923
12261.060439
19764.336580
27379.612720
35130.888860
42754.165000
50465.441140
57944.717280
65911.993420
73687.269560
29284.292077
36971.568217
44530.844357
52314.120498
59953.396638
67688.672778
75431.948918
83367.225058
91206.501198
47323.523715
54874.799855
62666.075995
70385.352135
78128.628275
86047.904415
93935.180556
101750.456696
109565.732836
66154.755353
73834.031493
81697.307633
89472.583773
97255.859913
105079.136053
113014.412193
121101.688333
128988.964473
86049.986990
93745.263130
101632.539270
109455.815411
117367.091551
125318.367691
133181.643831
141156.919971
149316.196111
106753.218628
114680.494768
122543.770908
130551.047048
138390.323188
146397.599328
154356.875469
162364.151609
170635.427749
128544.450266
136423.726406
144455.002546
152182.278686
160301.554826
168420.830966
176444.107106
184563.383246
192810.659387
151175.681903
159174.958043
167142.234183
175253.510324
183092.786464
191284.062604
199283.338744
207530.614884
215881.891024
174918.913541
182870.189681
190837.465821
198892.741961
206908.018101
215139.294242
223330.570382
231513.846522
239873.122662
199406.145179
207429.421319
215404.697459
223507.973599
231747.249739
239962.525879
248241.802019
256401.078159
264720.354300
224949.376816
232996.652956
240931.929097
249243.205237
257306.481377
265689.757517
273873.033657
282328.309797
290511.585937
251276.608454
259443.884594
267539.160734
275626.436874
283905.713014
292200.989155
300544.265295
308919.541435
317158.817575
278523.840092
286683.116232
294834.392372
302977.668512
311400.944652
319608.220792
328087.496932
336478.773073
344886.049213
306555.071729
314850.347869
323137.624010
331320.900150
339736.176290
348103.452430
356446.728570
364862.004710
373405.280850
335594.303367
343881.579507
352136.855647
360584.131787
368887.407928
377310.684068
385741.960208
394285.236348
402804.512488
365681.535005
373888.811145
382240.087285
390671.363425
398958.639565
407517.915705
415885.191845
424388.467986
433003.744126
396440.766642
404760.042783
413071.318923
421598.595063
429933.871203
438437.147343
446988.423483
455555.699623
464066.975763
428071.998280
436407.274420
444942.550560
453277.826700
461661.102841
470372.378981
478795.655121
487378.931261
496058.207401
460487.229918
469006.506058
477445.782198
485909.058338
494356.334478
502923.610618
511410.886758
520066.162899
528641.439039
493846.461555
502293.737696
510797.013836
519284.289976
527723.566116
536258.842256
544850.118396
553513.394536
562360.670676
527925.693193
536372.969333
544804.245473
553459.521613
561946.797754
570522.073894
579065.350034
587944.626174
596575.902314
562764.924831
571276.200971
579907.477111
588298.753251
596978.029391
605441.305531
614304.581672
622895.857812
631599.133952
598388.156469
606867.432609
615578.708749
624033.984889
632649.261029
641344.537169
650119.813309
658671.089449
667462.365589
634819.388106
643346.664246
651937.940386
660569.216527
669208.492667
677799.768807
686583.044947
695166.321087
703981.597227
671954.619744
680465.895884
689113.172024
697680.448164
706327.724304
714991.000444
723806.276585
732501.552725
741316.828865
709569.851382
718345.127522
726896.403662
735575.679802
744230.955942
752950.232082
761693.508222
770364.784362
779284.060503
748321.083019
756768.359159
765535.635299
774030.911440
782854.187580
791629.463720
800196.739860
809044.016000
817915.292140
787328.314657
795927.590797
804670.866937
813390.143077
821989.419217
830844.695358
839483.971498
848331.247638
857130.523778
827199.546295
835830.822435
844518.098575
853125.374715
861876.650855
870699.926995
879443.203135
888322.479275
897185.755416
867550.777932
876230.054072
884917.330213
893700.606353
902515.882493
911299.158633
920026.434773
928809.710913
937752.987053
908638.009570
917261.285710
926028.561850
934795.837990
943571.114130
952394.390271
961089.666411
969904.942551
978896.218691
950293.241208
959060.517348
967683.793488
976403.069628
985250.345768
994017.621908
1002816.898048
1011704.174188
1020551.450329
992452.472845
1001003.748985
1009979.025126
1018682.301266
1027457.577406
1036248.853546
1045112.129686
1053895.405826
1062782.681966
1035163.704483
1043818.980623
1052634.256763
1061401.532903
1070000.809043
1079064.085184
1087791.361324
1096606.637464
1105645.913604
1078426.936121
1087082.212261
1095881.488401
1104568.764541
1113448.040681
1122303.316821
1131062.592961
1140053.869102
1148877.145242
1122154.167758
1130737.443899
1139544.720039
1148367.996179
1157135.272319
1165926.548459
1174885.824599
1183813.100739
1192652.376879
1166369.399396
1174992.675536
1183807.951676
1192527.227816
1201390.503957
1210197.780097
1219029.056237
1227868.332377
1236739.608517
1210896.631034
1219687.907174
1228391.183314
1237326.459454
1245965.735594
1254941.011734
1263524.287874
1272499.564015
1281586.840155
1255879.862671
1264711.138812
1273494.414952
1282285.691092
1291100.967232
1299932.243372
1308683.519512
1317602.795652
1326482.071792
1301319.094309
1310158.370449
1318877.646589
1327716.922729
1336452.198870
1345387.475010
1354130.751150
1362986.027290
1371969.303430
1347182.325947
1355933.602087
1364788.878227
1373460.154367
1382379.430507
1391186.706647
1400041.982788
1408801.258928
1417848.535068
1393381.557584
1402140.833725
1410892.109865
1419779.386005
1428410.662145
1437329.938285
1446257.214425
1455024.490565
1463927.766705
1439876.789222
1448692.065362
1457427.341502
1466090.617643
1475041.893783
1483809.169923
1492664.446063
1501559.722203
1510374.998343
1486772.020860
1495467.297000
1504250.573140
1513017.849280
1521833.125420
1530728.401560
1539471.677701
1548374.953841
1557110.229981
1533779.252498
1542466.528638
1551305.804778
1560145.080918
1568912.357058
1577647.633198
1586502.909338
1595502.185478
1604253.461618
1581130.484135
1589865.760275
1598649.036415
1607344.312556
1616159.588696
1624902.864836
1633870.140976
1642717.417116
1651484.693256
1628697.715773
1637528.991913
1646304.268053
1655031.544193
1663790.820333
1672670.096473
1681381.372614
1690180.648754
1699067.924894
1676488.947411
1685272.223551
1694047.499691
1702734.775831
1711558.051971
1720349.328111
1729108.604251
1737971.880391
1746715.156532
1724464.179048
1733359.455188
1742054.731329
1750806.007469
1759589.283609
1768260.559749
1777083.835889
1785835.112029
1794682.388169
1772791.410686
1781494.686826
1790141.962966
1798989.239106
1807764.515246
1816451.791387
1825267.067527
1834042.343667
1842817.619807
1820966.642324
1829941.918464
1838461.194604
1847236.470744
1855995.746884
1864787.023024
1873490.299164
1882217.575304
1891024.851445
1869541.873961
1878149.150101
1887060.426242
1895755.702382
1904514.978522
1913138.254662
1921969.530802
1930688.806942
1939488.083082
1918117.105599
1926828.381739
1935587.657879
1944338.934019
1952906.210159
1961833.486300
1970536.762440
1979120.038580
1988015.314720
1966980.337237
1975547.613377
1984242.889517
1992922.165657
2001569.441797
2010360.717937
2019063.994077
2027871.270218
2036630.546358
2015603.568874
2024362.845014
2032906.121155
2041665.397295
2050344.673435
2059039.949575
2067799.225715
2076462.501855
2085245.777995
2064442.800512
2073250.076652
2081753.352792
2090488.628932
2099111.905073
2107823.181213
2116510.457353
2125221.733493
2133837.009633
2113402.032150
2121977.308290
2130696.584430
2139319.860570
2147855.136710
2156582.412850
2165365.688990
2173980.965131
2182748.241271
2162369.263787
2170856.539928
2179583.816068
2188103.092208
2196678.368348
2205389.644488
2213980.920628
2222772.196768
2231467.472908
2211176.495425
2219783.771565
2228383.047705
2237038.323845
2245637.599986
2254180.876126
2262940.152266
2271531.428406
2280114.704546
2260055.727063
2268647.003203
2277278.279343
2285941.555483
2294508.831623
2303052.107763
2311579.383903
2320258.660044
2328929.936184
2308870.958700
2317454.234841
2326093.510981
2334724.787121
2343164.063261
2351811.339401
2360434.615541
2368985.891681
2377577.167821
2357670.190338
2366341.466478
2374796.742618
2383436.018759
2392011.294899
2400594.571039
2409113.847179
2417625.123319
2426232.399459
2406501.421976
2414988.698116
2423699.974256
2432179.250396
2440546.526536
2449145.802676
2457689.078817
2466288.354957
2474935.631097
2455212.653614
2463739.929754
2472123.205894
2480810.482034
2489313.758174
2497825.034314
2506360.310454
2514735.586594
2523270.862734
2503843.885251
2512275.161391
2520770.437531
2529337.713672
2537720.989812
2546168.265952
2554767.542092
2563150.818232
2571686.094372
2552283.116889
2560538.393029
2569145.669169
2577664.945309
2586088.221449
2594607.497589
2603094.773730
2611654.049870
2620077.326010
2600674.348527
2609033.624667
2617360.900807
2625992.176947
2634447.453087
2642894.729227
2651238.005367
2659765.281507
2668188.557648
2648745.580164
2657264.856304
2665712.132444
2674095.408585
2682550.684725
2691005.960865
2699397.237005
2707852.513145
2716307.789285
2697000.811802
2705288.087942
2713719.364082
2722102.640222
2730541.916362
2738981.192503
2747260.468643
2755675.744783
2764027.020923
2744840.043440
2753279.319580
2761518.595720
2769957.871860
2778333.148000
2786684.424140
2795243.700280
2803466.976420
2811810.252561
2792687.275077
2800942.551217
2809229.827358
2817669.103498
2825956.379638
2834235.655778
2842570.931918
2851122.208058
2859337.484198
2840142.506715
2848445.782855
2856757.058995
2865036.335135
2873347.611275
2881754.887416
2890130.163556
2898361.439696
2906712.715836
2887389.738353
2895813.014493
2904140.290633
2912315.566773
2920810.842913
2928914.119053
2937161.395193
2945584.671333
2953823.947474
2934572.969990
2942868.246130
2951275.522271
2959530.798411
2967842.074551
2976065.350691
2984432.626831
2992623.902971
3000695.179111
2981644.201628
2989867.477768
2998050.753908
3006370.030048
3014553.306189
3022952.582329
3031063.858469
3039311.134609
3047654.410749
3028411.433266
3036690.709406
3044873.985546
3052937.261686
3061288.537826
3069503.813966
3077663.090106
3085862.366247
3094061.642387
3074818.664903
3083049.941044
3091225.217184
3099368.493324
3107687.769464
3115911.045604
3123854.321744
3132125.597884
3140228.874024
3121169.896541
3129121.172681
3137392.448821
3145615.724961
3153663.001102
3161846.277242
3169989.553382
3178228.829522
3186332.105662
