# vtk DataFile Version 2.0
Generated volume Mesh
ASCII
DATASET UNSTRUCTURED_GRID
POINTS 891 float
0.005000 0.100000 0.000000
0.005000 0.000000 0.000000
0.005000 0.001250 0.000000
0.005000 0.002500 0.000000
0.005000 0.003750 0.000000
0.005000 0.005000 0.000000
0.005000 0.006250 0.000000
0.005000 0.007500 0.000000
0.005000 0.008750 0.000000
0.005000 0.010000 0.000000
0.005000 0.011250 0.000000
0.005000 0.012500 0.000000
0.005000 0.013750 0.000000
0.005000 0.015000 0.000000
0.005000 0.016250 0.000000
0.005000 0.017500 0.000000
0.005000 0.018750 0.000000
0.005000 0.020000 0.000000
0.005000 0.021250 0.000000
0.005000 0.022500 0.000000
0.005000 0.023750 0.000000
0.005000 0.025000 0.000000
0.005000 0.026250 0.000000
0.005000 0.027500 0.000000
0.005000 0.028750 0.000000
0.005000 0.030000 0.000000
0.005000 0.031250 0.000000
0.005000 0.032500 0.000000
0.005000 0.033750 0.000000
0.005000 0.035000 0.000000
0.005000 0.036250 0.000000
0.005000 0.037500 0.000000
0.005000 0.038750 0.000000
0.005000 0.040000 0.000000
0.005000 0.041250 0.000000
0.005000 0.042500 0.000000
0.005000 0.043750 0.000000
0.005000 0.045000 0.000000
0.005000 0.046250 0.000000
0.005000 0.047500 0.000000
0.005000 0.048750 0.000000
0.005000 0.050000 0.000000
0.005000 0.051250 0.000000
0.005000 0.052500 0.000000
0.005000 0.053750 0.000000
0.005000 0.055000 0.000000
0.005000 0.056250 0.000000
0.005000 0.057500 0.000000
0.005000 0.058750 0.000000
0.005000 0.060000 0.000000
0.005000 0.061250 0.000000
0.005000 0.062500 0.000000
0.005000 0.063750 0.000000
0.005000 0.065000 0.000000
0.005000 0.066250 0.000000
0.005000 0.067500 0.000000
0.005000 0.068750 0.000000
0.005000 0.070000 0.000000
0.005000 0.071250 0.000000
0.005000 0.072500 0.000000
0.005000 0.073750 0.000000
0.005000 0.075000 0.000000
0.005000 0.076250 0.000000
0.005000 0.077500 0.000000
0.005000 0.078750 0.000000
0.005000 0.080000 0.000000
0.005000 0.081250 0.000000
0.005000 0.082500 0.000000
0.005000 0.083750 0.000000
0.005000 0.085000 0.000000
0.005000 0.086250 0.000000
0.005000 0.087500 0.000000
0.005000 0.088750 0.000000
0.005000 0.090000 0.000000
0.005000 0.091250 0.000000
0.005000 0.092500 0.000000
0.005000 0.093750 0.000000
0.005000 0.095000 0.000000
0.005000 0.096250 0.000000
0.005000 0.097500 0.000000
0.005000 0.098750 0.000000
0.000000 0.000000 0.000000
0.000000 0.100000 0.000000
0.000000 0.098750 0.000000
0.000000 0.097500 0.000000
0.000000 0.096250 0.000000
0.000000 0.095000 0.000000
0.000000 0.093750 0.000000
0.000000 0.092500 0.000000
0.000000 0.091250 0.000000
0.000000 0.090000 0.000000
0.000000 0.088750 0.000000
0.000000 0.087500 0.000000
0.000000 0.086250 0.000000
0.000000 0.085000 0.000000
0.000000 0.083750 0.000000
0.000000 0.082500 0.000000
0.000000 0.081250 0.000000
0.000000 0.080000 0.000000
0.000000 0.078750 0.000000
0.000000 0.077500 0.000000
0.000000 0.076250 0.000000
0.000000 0.075000 0.000000
0.000000 0.073750 0.000000
0.000000 0.072500 0.000000
0.000000 0.071250 0.000000
0.000000 0.070000 0.000000
0.000000 0.068750 0.000000
0.000000 0.067500 0.000000
0.000000 0.066250 0.000000
0.000000 0.065000 0.000000
0.000000 0.063750 0.000000
0.000000 0.062500 0.000000
0.000000 0.061250 0.000000
0.000000 0.060000 0.000000
0.000000 0.058750 0.000000
0.000000 0.057500 0.000000
0.000000 0.056250 0.000000
0.000000 0.055000 0.000000
0.000000 0.053750 0.000000
0.000000 0.052500 0.000000
0.000000 0.051250 0.000000
0.000000 0.050000 0.000000
0.000000 0.048750 0.000000
0.000000 0.047500 0.000000
0.000000 0.046250 0.000000
0.000000 0.045000 0.000000
0.000000 0.043750 0.000000
0.000000 0.042500 0.000000
0.000000 0.041250 0.000000
0.000000 0.040000 0.000000
0.000000 0.038750 0.000000
0.000000 0.037500 0.000000
0.000000 0.036250 0.000000
0.000000 0.035000 0.000000
0.000000 0.033750 0.000000
0.000000 0.032500 0.000000
0.000000 0.031250 0.000000
0.000000 0.030000 0.000000
0.000000 0.028750 0.000000
0.000000 0.027500 0.000000
0.000000 0.026250 0.000000
0.000000 0.025000 0.000000
0.000000 0.023750 0.000000
0.000000 0.022500 0.000000
0.000000 0.021250 0.000000
0.000000 0.020000 0.000000
0.000000 0.018750 0.000000
0.000000 0.017500 0.000000
0.000000 0.016250 0.000000
0.000000 0.015000 0.000000
0.000000 0.013750 0.000000
0.000000 0.012500 0.000000
0.000000 0.011250 0.000000
0.000000 0.010000 0.000000
0.000000 0.008750 0.000000
0.000000 0.007500 0.000000
0.000000 0.006250 0.000000
0.000000 0.005000 0.000000
0.000000 0.003750 0.000000
0.000000 0.002500 0.000000
0.000000 0.001250 0.000000
0.000500 0.000000 0.000000
0.001000 0.000000 0.000000
0.001500 0.000000 0.000000
0.002000 0.000000 0.000000
0.002500 0.000000 0.000000
0.003000 0.000000 0.000000
0.003500 0.000000 0.000000
0.004000 0.000000 0.000000
0.004500 0.000000 0.000000
0.004500 0.100000 0.000000
0.004000 0.100000 0.000000
0.003500 0.100000 0.000000
0.003000 0.100000 0.000000
0.002500 0.100000 0.000000
0.002000 0.100000 0.000000
0.001500 0.100000 0.000000
0.001000 0.100000 0.000000
0.000500 0.100000 0.000000
0.000500 0.098750 0.000000
0.001000 0.098750 0.000000
0.001500 0.098750 0.000000
0.002000 0.098750 0.000000
0.002500 0.098750 0.000000
0.003000 0.098750 0.000000
0.003500 0.098750 0.000000
0.004000 0.098750 0.000000
0.004500 0.098750 0.000000
0.000500 0.097500 0.000000
0.001000 0.097500 0.000000
0.001500 0.097500 0.000000
0.002000 0.097500 0.000000
0.002500 0.097500 0.000000
0.003000 0.097500 0.000000
0.003500 0.097500 0.000000
0.004000 0.097500 0.000000
0.004500 0.097500 0.000000
0.000500 0.096250 0.000000
0.001000 0.096250 0.000000
0.001500 0.096250 0.000000
0.002000 0.096250 0.000000
0.002500 0.096250 0.000000
0.003000 0.096250 0.000000
0.003500 0.096250 0.000000
0.004000 0.096250 0.000000
0.004500 0.096250 0.000000
0.000500 0.095000 0.000000
0.001000 0.095000 0.000000
0.001500 0.095000 0.000000
0.002000 0.095000 0.000000
0.002500 0.095000 0.000000
0.003000 0.095000 0.000000
0.003500 0.095000 0.000000
0.004000 0.095000 0.000000
0.004500 0.095000 0.000000
0.000500 0.093750 0.000000
0.001000 0.093750 0.000000
0.001500 0.093750 0.000000
0.002000 0.093750 0.000000
0.002500 0.093750 0.000000
0.003000 0.093750 0.000000
0.003500 0.093750 0.000000
0.004000 0.093750 0.000000
0.004500 0.093750 0.000000
0.000500 0.092500 0.000000
0.001000 0.092500 0.000000
0.001500 0.092500 0.000000
0.002000 0.092500 0.000000
0.002500 0.092500 0.000000
0.003000 0.092500 0.000000
0.003500 0.092500 0.000000
0.004000 0.092500 0.000000
0.004500 0.092500 0.000000
0.000500 0.091250 0.000000
0.001000 0.091250 0.000000
0.001500 0.091250 0.000000
0.002000 0.091250 0.000000
0.002500 0.091250 0.000000
0.003000 0.091250 0.000000
0.003500 0.091250 0.000000
0.004000 0.091250 0.000000
0.004500 0.091250 0.000000
0.000500 0.090000 0.000000
0.001000 0.090000 0.000000
0.001500 0.090000 0.000000
0.002000 0.090000 0.000000
0.002500 0.090000 0.000000
0.003000 0.090000 0.000000
0.003500 0.090000 0.000000
0.004000 0.090000 0.000000
0.004500 0.090000 0.000000
0.000500 0.088750 0.000000
0.001000 0.088750 0.000000
0.001500 0.088750 0.000000
0.002000 0.088750 0.000000
0.002500 0.088750 0.000000
0.003000 0.088750 0.000000
0.003500 0.088750 0.000000
0.004000 0.088750 0.000000
0.004500 0.088750 0.000000
0.000500 0.087500 0.000000
0.001000 0.087500 0.000000
0.001500 0.087500 0.000000
0.002000 0.087500 0.000000
0.002500 0.087500 0.000000
0.003000 0.087500 0.000000
0.003500 0.087500 0.000000
0.004000 0.087500 0.000000
0.004500 0.087500 0.000000
0.000500 0.086250 0.000000
0.001000 0.086250 0.000000
0.001500 0.086250 0.000000
0.002000 0.086250 0.000000
0.002500 0.086250 0.000000
0.003000 0.086250 0.000000
0.003500 0.086250 0.000000
0.004000 0.086250 0.000000
0.004500 0.086250 0.000000
0.000500 0.085000 0.000000
0.001000 0.085000 0.000000
0.001500 0.085000 0.000000
0.002000 0.085000 0.000000
0.002500 0.085000 0.000000
0.003000 0.085000 0.000000
0.003500 0.085000 0.000000
0.004000 0.085000 0.000000
0.004500 0.085000 0.000000
0.000500 0.083750 0.000000
0.001000 0.083750 0.000000
0.001500 0.083750 0.000000
0.002000 0.083750 0.000000
0.002500 0.083750 0.000000
0.003000 0.083750 0.000000
0.003500 0.083750 0.000000
0.004000 0.083750 0.000000
0.004500 0.083750 0.000000
0.000500 0.082500 0.000000
0.001000 0.082500 0.000000
0.001500 0.082500 0.000000
0.002000 0.082500 0.000000
0.002500 0.082500 0.000000
0.003000 0.082500 0.000000
0.003500 0.082500 0.000000
0.004000 0.082500 0.000000
0.004500 0.082500 0.000000
0.000500 0.081250 0.000000
0.001000 0.081250 0.000000
0.001500 0.081250 0.000000
0.002000 0.081250 0.000000
0.002500 0.081250 0.000000
0.003000 0.081250 0.000000
0.003500 0.081250 0.000000
0.004000 0.081250 0.000000
0.004500 0.081250 0.000000
0.000500 0.080000 0.000000
0.001000 0.080000 0.000000
0.001500 0.080000 0.000000
0.002000 0.080000 0.000000
0.002500 0.080000 0.000000
0.003000 0.080000 0.000000
0.003500 0.080000 0.000000
0.004000 0.080000 0.000000
0.004500 0.080000 0.000000
0.000500 0.078750 0.000000
0.001000 0.078750 0.000000
0.001500 0.078750 0.000000
0.002000 0.078750 0.000000
0.002500 0.078750 0.000000
0.003000 0.078750 0.000000
0.003500 0.078750 0.000000
0.004000 0.078750 0.000000
0.004500 0.078750 0.000000
0.000500 0.077500 0.000000
0.001000 0.077500 0.000000
0.001500 0.077500 0.000000
0.002000 0.077500 0.000000
0.002500 0.077500 0.000000
0.003000 0.077500 0.000000
0.003500 0.077500 0.000000
0.004000 0.077500 0.000000
0.004500 0.077500 0.000000
0.000500 0.076250 0.000000
0.001000 0.076250 0.000000
0.001500 0.076250 0.000000
0.002000 0.076250 0.000000
0.002500 0.076250 0.000000
0.003000 0.076250 0.000000
0.003500 0.076250 0.000000
0.004000 0.076250 0.000000
0.004500 0.076250 0.000000
0.000500 0.075000 0.000000
0.001000 0.075000 0.000000
0.001500 0.075000 0.000000
0.002000 0.075000 0.000000
0.002500 0.075000 0.000000
0.003000 0.075000 0.000000
0.003500 0.075000 0.000000
0.004000 0.075000 0.000000
0.004500 0.075000 0.000000
0.000500 0.073750 0.000000
0.001000 0.073750 0.000000
0.001500 0.073750 0.000000
0.002000 0.073750 0.000000
0.002500 0.073750 0.000000
0.003000 0.073750 0.000000
0.003500 0.073750 0.000000
0.004000 0.073750 0.000000
0.004500 0.073750 0.000000
0.000500 0.072500 0.000000
0.001000 0.072500 0.000000
0.001500 0.072500 0.000000
0.002000 0.072500 0.000000
0.002500 0.072500 0.000000
0.003000 0.072500 0.000000
0.003500 0.072500 0.000000
0.004000 0.072500 0.000000
0.004500 0.072500 0.000000
0.000500 0.071250 0.000000
0.001000 0.071250 0.000000
0.001500 0.071250 0.000000
0.002000 0.071250 0.000000
0.002500 0.071250 0.000000
0.003000 0.071250 0.000000
0.003500 0.071250 0.000000
0.004000 0.071250 0.000000
0.004500 0.071250 0.000000
0.000500 0.070000 0.000000
0.001000 0.070000 0.000000
0.001500 0.070000 0.000000
0.002000 0.070000 0.000000
0.002500 0.070000 0.000000
0.003000 0.070000 0.000000
0.003500 0.070000 0.000000
0.004000 0.070000 0.000000
0.004500 0.070000 0.000000
0.000500 0.068750 0.000000
0.001000 0.068750 0.000000
0.001500 0.068750 0.000000
0.002000 0.068750 0.000000
0.002500 0.068750 0.000000
0.003000 0.068750 0.000000
0.003500 0.068750 0.000000
0.004000 0.068750 0.000000
0.004500 0.068750 0.000000
0.000500 0.067500 0.000000
0.001000 0.067500 0.000000
0.001500 0.067500 0.000000
0.002000 0.067500 0.000000
0.002500 0.067500 0.000000
0.003000 0.067500 0.000000
0.003500 0.067500 0.000000
0.004000 0.067500 0.000000
0.004500 0.067500 0.000000
0.000500 0.066250 0.000000
0.001000 0.066250 0.000000
0.001500 0.066250 0.000000
0.002000 0.066250 0.000000
0.002500 0.066250 0.000000
0.003000 0.066250 0.000000
0.003500 0.066250 0.000000
0.004000 0.066250 0.000000
0.004500 0.066250 0.000000
0.000500 0.065000 0.000000
0.001000 0.065000 0.000000
0.001500 0.065000 0.000000
0.002000 0.065000 0.000000
0.002500 0.065000 0.000000
0.003000 0.065000 0.000000
0.003500 0.065000 0.000000
0.004000 0.065000 0.000000
0.004500 0.065000 0.000000
0.000500 0.063750 0.000000
0.001000 0.063750 0.000000
0.001500 0.063750 0.000000
0.002000 0.063750 0.000000
0.002500 0.063750 0.000000
0.003000 0.063750 0.000000
0.003500 0.063750 0.000000
0.004000 0.063750 0.000000
0.004500 0.063750 0.000000
0.000500 0.062500 0.000000
0.001000 0.062500 0.000000
0.001500 0.062500 0.000000
0.002000 0.062500 0.000000
0.002500 0.062500 0.000000
0.003000 0.062500 0.000000
0.003500 0.062500 0.000000
0.004000 0.062500 0.000000
0.004500 0.062500 0.000000
0.000500 0.061250 0.000000
0.001000 0.061250 0.000000
0.001500 0.061250 0.000000
0.002000 0.061250 0.000000
0.002500 0.061250 0.000000
0.003000 0.061250 0.000000
0.003500 0.061250 0.000000
0.004000 0.061250 0.000000
0.004500 0.061250 0.000000
0.000500 0.060000 0.000000
0.001000 0.060000 0.000000
0.001500 0.060000 0.000000
0.002000 0.060000 0.000000
0.002500 0.060000 0.000000
0.003000 0.060000 0.000000
0.003500 0.060000 0.000000
0.004000 0.060000 0.000000
0.004500 0.060000 0.000000
0.000500 0.058750 0.000000
0.001000 0.058750 0.000000
0.001500 0.058750 0.000000
0.002000 0.058750 0.000000
0.002500 0.058750 0.000000
0.003000 0.058750 0.000000
0.003500 0.058750 0.000000
0.004000 0.058750 0.000000
0.004500 0.058750 0.000000
0.000500 0.057500 0.000000
0.001000 0.057500 0.000000
0.001500 0.057500 0.000000
0.002000 0.057500 0.000000
0.002500 0.057500 0.000000
0.003000 0.057500 0.000000
0.003500 0.057500 0.000000
0.004000 0.057500 0.000000
0.004500 0.057500 0.000000
0.000500 0.056250 0.000000
0.001000 0.056250 0.000000
0.001500 0.056250 0.000000
0.002000 0.056250 0.000000
0.002500 0.056250 0.000000
0.003000 0.056250 0.000000
0.003500 0.056250 0.000000
0.004000 0.056250 0.000000
0.004500 0.056250 0.000000
0.000500 0.055000 0.000000
0.001000 0.055000 0.000000
0.001500 0.055000 0.000000
0.002000 0.055000 0.000000
0.002500 0.055000 0.000000
0.003000 0.055000 0.000000
0.003500 0.055000 0.000000
0.004000 0.055000 0.000000
0.004500 0.055000 0.000000
0.000500 0.053750 0.000000
0.001000 0.053750 0.000000
0.001500 0.053750 0.000000
0.002000 0.053750 0.000000
0.002500 0.053750 0.000000
0.003000 0.053750 0.000000
0.003500 0.053750 0.000000
0.004000 0.053750 0.000000
0.004500 0.053750 0.000000
0.000500 0.052500 0.000000
0.001000 0.052500 0.000000
0.001500 0.052500 0.000000
0.002000 0.052500 0.000000
0.002500 0.052500 0.000000
0.003000 0.052500 0.000000
0.003500 0.052500 0.000000
0.004000 0.052500 0.000000
0.004500 0.052500 0.000000
0.000500 0.051250 0.000000
0.001000 0.051250 0.000000
0.001500 0.051250 0.000000
0.002000 0.051250 0.000000
0.002500 0.051250 0.000000
0.003000 0.051250 0.000000
0.003500 0.051250 0.000000
0.004000 0.051250 0.000000
0.004500 0.051250 0.000000
0.000500 0.050000 0.000000
0.001000 0.050000 0.000000
0.001500 0.050000 0.000000
0.002000 0.050000 0.000000
0.002500 0.050000 0.000000
0.003000 0.050000 0.000000
0.003500 0.050000 0.000000
0.004000 0.050000 0.000000
0.004500 0.050000 0.000000
0.000500 0.048750 0.000000
0.001000 0.048750 0.000000
0.001500 0.048750 0.000000
0.002000 0.048750 0.000000
0.002500 0.048750 0.000000
0.003000 0.048750 0.000000
0.003500 0.048750 0.000000
0.004000 0.048750 0.000000
0.004500 0.048750 0.000000
0.000500 0.047500 0.000000
0.001000 0.047500 0.000000
0.001500 0.047500 0.000000
0.002000 0.047500 0.000000
0.002500 0.047500 0.000000
0.003000 0.047500 0.000000
0.003500 0.047500 0.000000
0.004000 0.047500 0.000000
0.004500 0.047500 0.000000
0.000500 0.046250 0.000000
0.001000 0.046250 0.000000
0.001500 0.046250 0.000000
0.002000 0.046250 0.000000
0.002500 0.046250 0.000000
0.003000 0.046250 0.000000
0.003500 0.046250 0.000000
0.004000 0.046250 0.000000
0.004500 0.046250 0.000000
0.000500 0.045000 0.000000
0.001000 0.045000 0.000000
0.001500 0.045000 0.000000
0.002000 0.045000 0.000000
0.002500 0.045000 0.000000
0.003000 0.045000 0.000000
0.003500 0.045000 0.000000
0.004000 0.045000 0.000000
0.004500 0.045000 0.000000
0.000500 0.043750 0.000000
0.001000 0.043750 0.000000
0.001500 0.043750 0.000000
0.002000 0.043750 0.000000
0.002500 0.043750 0.000000
0.003000 0.043750 0.000000
0.003500 0.043750 0.000000
0.004000 0.043750 0.000000
0.004500 0.043750 0.000000
0.000500 0.042500 0.000000
0.001000 0.042500 0.000000
0.001500 0.042500 0.000000
0.002000 0.042500 0.000000
0.002500 0.042500 0.000000
0.003000 0.042500 0.000000
0.003500 0.042500 0.000000
0.004000 0.042500 0.000000
0.004500 0.042500 0.000000
0.000500 0.041250 0.000000
0.001000 0.041250 0.000000
0.001500 0.041250 0.000000
0.002000 0.041250 0.000000
0.002500 0.041250 0.000000
0.003000 0.041250 0.000000
0.003500 0.041250 0.000000
0.004000 0.041250 0.000000
0.004500 0.041250 0.000000
0.000500 0.040000 0.000000
0.001000 0.040000 0.000000
0.001500 0.040000 0.000000
0.002000 0.040000 0.000000
0.002500 0.040000 0.000000
0.003000 0.040000 0.000000
0.003500 0.040000 0.000000
0.004000 0.040000 0.000000
0.004500 0.040000 0.000000
0.000500 0.038750 0.000000
0.001000 0.038750 0.000000
0.001500 0.038750 0.000000
0.002000 0.038750 0.000000
0.002500 0.038750 0.000000
0.003000 0.038750 0.000000
0.003500 0.038750 0.000000
0.004000 0.038750 0.000000
0.004500 0.038750 0.000000
0.000500 0.037500 0.000000
0.001000 0.037500 0.000000
0.001500 0.037500 0.000000
0.002000 0.037500 0.000000
0.002500 0.037500 0.000000
0.003000 0.037500 0.000000
0.003500 0.037500 0.000000
0.004000 0.037500 0.000000
0.004500 0.037500 0.000000
0.000500 0.036250 0.000000
0.001000 0.036250 0.000000
0.001500 0.036250 0.000000
0.002000 0.036250 0.000000
0.002500 0.036250 0.000000
0.003000 0.036250 0.000000
0.003500 0.036250 0.000000
0.004000 0.036250 0.000000
0.004500 0.036250 0.000000
0.000500 0.035000 0.000000
0.001000 0.035000 0.000000
0.001500 0.035000 0.000000
0.002000 0.035000 0.000000
0.002500 0.035000 0.000000
0.003000 0.035000 0.000000
0.003500 0.035000 0.000000
0.004000 0.035000 0.000000
0.004500 0.035000 0.000000
0.000500 0.033750 0.000000
0.001000 0.033750 0.000000
0.001500 0.033750 0.000000
0.002000 0.033750 0.000000
0.002500 0.033750 0.000000
0.003000 0.033750 0.000000
0.003500 0.033750 0.000000
0.004000 0.033750 0.000000
0.004500 0.033750 0.000000
0.000500 0.032500 0.000000
0.001000 0.032500 0.000000
0.001500 0.032500 0.000000
0.002000 0.032500 0.000000
0.002500 0.032500 0.000000
0.003000 0.032500 0.000000
0.003500 0.032500 0.000000
0.004000 0.032500 0.000000
0.004500 0.032500 0.000000
0.000500 0.031250 0.000000
0.001000 0.031250 0.000000
0.001500 0.031250 0.000000
0.002000 0.031250 0.000000
0.002500 0.031250 0.000000
0.003000 0.031250 0.000000
0.003500 0.031250 0.000000
0.004000 0.031250 0.000000
0.004500 0.031250 0.000000
0.000500 0.030000 0.000000
0.001000 0.030000 0.000000
0.001500 0.030000 0.000000
0.002000 0.030000 0.000000
0.002500 0.030000 0.000000
0.003000 0.030000 0.000000
0.003500 0.030000 0.000000
0.004000 0.030000 0.000000
0.004500 0.030000 0.000000
0.000500 0.028750 0.000000
0.001000 0.028750 0.000000
0.001500 0.028750 0.000000
0.002000 0.028750 0.000000
0.002500 0.028750 0.000000
0.003000 0.028750 0.000000
0.003500 0.028750 0.000000
0.004000 0.028750 0.000000
0.004500 0.028750 0.000000
0.000500 0.027500 0.000000
0.001000 0.027500 0.000000
0.001500 0.027500 0.000000
0.002000 0.027500 0.000000
0.002500 0.027500 0.000000
0.003000 0.027500 0.000000
0.003500 0.027500 0.000000
0.004000 0.027500 0.000000
0.004500 0.027500 0.000000
0.000500 0.026250 0.000000
0.001000 0.026250 0.000000
0.001500 0.026250 0.000000
0.002000 0.026250 0.000000
0.002500 0.026250 0.000000
0.003000 0.026250 0.000000
0.003500 0.026250 0.000000
0.004000 0.026250 0.000000
0.004500 0.026250 0.000000
0.000500 0.025000 0.000000
0.001000 0.025000 0.000000
0.001500 0.025000 0.000000
0.002000 0.025000 0.000000
0.002500 0.025000 0.000000
0.003000 0.025000 0.000000
0.003500 0.025000 0.000000
0.004000 0.025000 0.000000
0.004500 0.025000 0.000000
0.000500 0.023750 0.000000
0.001000 0.023750 0.000000
0.001500 0.023750 0.000000
0.002000 0.023750 0.000000
0.002500 0.023750 0.000000
0.003000 0.023750 0.000000
0.003500 0.023750 0.000000
0.004000 0.023750 0.000000
0.004500 0.023750 0.000000
0.000500 0.022500 0.000000
0.001000 0.022500 0.000000
0.001500 0.022500 0.000000
0.002000 0.022500 0.000000
0.002500 0.022500 0.000000
0.003000 0.022500 0.000000
0.003500 0.022500 0.000000
0.004000 0.022500 0.000000
0.004500 0.022500 0.000000
0.000500 0.021250 0.000000
0.001000 0.021250 0.000000
0.001500 0.021250 0.000000
0.002000 0.021250 0.000000
0.002500 0.021250 0.000000
0.003000 0.021250 0.000000
0.003500 0.021250 0.000000
0.004000 0.021250 0.000000
0.004500 0.021250 0.000000
0.000500 0.020000 0.000000
0.001000 0.020000 0.000000
0.001500 0.020000 0.000000
0.002000 0.020000 0.000000
0.002500 0.020000 0.000000
0.003000 0.020000 0.000000
0.003500 0.020000 0.000000
0.004000 0.020000 0.000000
0.004500 0.020000 0.000000
0.000500 0.018750 0.000000
0.001000 0.018750 0.000000
0.001500 0.018750 0.000000
0.002000 0.018750 0.000000
0.002500 0.018750 0.000000
0.003000 0.018750 0.000000
0.003500 0.018750 0.000000
0.004000 0.018750 0.000000
0.004500 0.018750 0.000000
0.000500 0.017500 0.000000
0.001000 0.017500 0.000000
0.001500 0.017500 0.000000
0.002000 0.017500 0.000000
0.002500 0.017500 0.000000
0.003000 0.017500 0.000000
0.003500 0.017500 0.000000
0.004000 0.017500 0.000000
0.004500 0.017500 0.000000
0.000500 0.016250 0.000000
0.001000 0.016250 0.000000
0.001500 0.016250 0.000000
0.002000 0.016250 0.000000
0.002500 0.016250 0.000000
0.003000 0.016250 0.000000
0.003500 0.016250 0.000000
0.004000 0.016250 0.000000
0.004500 0.016250 0.000000
0.000500 0.015000 0.000000
0.001000 0.015000 0.000000
0.001500 0.015000 0.000000
0.002000 0.015000 0.000000
0.002500 0.015000 0.000000
0.003000 0.015000 0.000000
0.003500 0.015000 0.000000
0.004000 0.015000 0.000000
0.004500 0.015000 0.000000
0.000500 0.013750 0.000000
0.001000 0.013750 0.000000
0.001500 0.013750 0.000000
0.002000 0.013750 0.000000
0.002500 0.013750 0.000000
0.003000 0.013750 0.000000
0.003500 0.013750 0.000000
0.004000 0.013750 0.000000
0.004500 0.013750 0.000000
0.000500 0.012500 0.000000
0.001000 0.012500 0.000000
0.001500 0.012500 0.000000
0.002000 0.012500 0.000000
0.002500 0.012500 0.000000
0.003000 0.012500 0.000000
0.003500 0.012500 0.000000
0.004000 0.012500 0.000000
0.004500 0.012500 0.000000
0.000500 0.011250 0.000000
0.001000 0.011250 0.000000
0.001500 0.011250 0.000000
0.002000 0.011250 0.000000
0.002500 0.011250 0.000000
0.003000 0.011250 0.000000
0.003500 0.011250 0.000000
0.004000 0.011250 0.000000
0.004500 0.011250 0.000000
0.000500 0.010000 0.000000
0.001000 0.010000 0.000000
0.001500 0.010000 0.000000
0.002000 0.010000 0.000000
0.002500 0.010000 0.000000
0.003000 0.010000 0.000000
0.003500 0.010000 0.000000
0.004000 0.010000 0.000000
0.004500 0.010000 0.000000
0.000500 0.008750 0.000000
0.001000 0.008750 0.000000
0.001500 0.008750 0.000000
0.002000 0.008750 0.000000
0.002500 0.008750 0.000000
0.003000 0.008750 0.000000
0.003500 0.008750 0.000000
0.004000 0.008750 0.000000
0.004500 0.008750 0.000000
0.000500 0.007500 0.000000
0.001000 0.007500 0.000000
0.001500 0.007500 0.000000
0.002000 0.007500 0.000000
0.002500 0.007500 0.000000
0.003000 0.007500 0.000000
0.003500 0.007500 0.000000
0.004000 0.007500 0.000000
0.004500 0.007500 0.000000
0.000500 0.006250 0.000000
0.001000 0.006250 0.000000
0.001500 0.006250 0.000000
0.002000 0.006250 0.000000
0.002500 0.006250 0.000000
0.003000 0.006250 0.000000
0.003500 0.006250 0.000000
0.004000 0.006250 0.000000
0.004500 0.006250 0.000000
0.000500 0.005000 0.000000
0.001000 0.005000 0.000000
0.001500 0.005000 0.000000
0.002000 0.005000 0.000000
0.002500 0.005000 0.000000
0.003000 0.005000 0.000000
0.003500 0.005000 0.000000
0.004000 0.005000 0.000000
0.004500 0.005000 0.000000
0.000500 0.003750 0.000000
0.001000 0.003750 0.000000
0.001500 0.003750 0.000000
0.002000 0.003750 0.000000
0.002500 0.003750 0.000000
0.003000 0.003750 0.000000
0.003500 0.003750 0.000000
0.004000 0.003750 0.000000
0.004500 0.003750 0.000000
0.000500 0.002500 0.000000
0.001000 0.002500 0.000000
0.001500 0.002500 0.000000
0.002000 0.002500 0.000000
0.002500 0.002500 0.000000
0.003000 0.002500 0.000000
0.003500 0.002500 0.000000
0.004000 0.002500 0.000000
0.004500 0.002500 0.000000
0.000500 0.001250 0.000000
0.001000 0.001250 0.000000
0.001500 0.001250 0.000000
0.002000 0.001250 0.000000
0.002500 0.001250 0.000000
0.003000 0.001250 0.000000
0.003500 0.001250 0.000000
0.004000 0.001250 0.000000
0.004500 0.001250 0.000000
CELLS 800 4000
4 82 83 180 179
4 179 180 181 178
4 178 181 182 177
4 177 182 183 176
4 176 183 184 175
4 175 184 185 174
4 174 185 186 173
4 173 186 187 172
4 172 187 188 171
4 171 188 80 0
4 83 84 189 180
4 180 189 190 181
4 181 190 191 182
4 182 191 192 183
4 183 192 193 184
4 184 193 194 185
4 185 194 195 186
4 186 195 196 187
4 187 196 197 188
4 188 197 79 80
4 84 85 198 189
4 189 198 199 190
4 190 199 200 191
4 191 200 201 192
4 192 201 202 193
4 193 202 203 194
4 194 203 204 195
4 195 204 205 196
4 196 205 206 197
4 197 206 78 79
4 85 86 207 198
4 198 207 208 199
4 199 208 209 200
4 200 209 210 201
4 201 210 211 202
4 202 211 212 203
4 203 212 213 204
4 204 213 214 205
4 205 214 215 206
4 206 215 77 78
4 86 87 216 207
4 207 216 217 208
4 208 217 218 209
4 209 218 219 210
4 210 219 220 211
4 211 220 221 212
4 212 221 222 213
4 213 222 223 214
4 214 223 224 215
4 215 224 76 77
4 87 88 225 216
4 216 225 226 217
4 217 226 227 218
4 218 227 228 219
4 219 228 229 220
4 220 229 230 221
4 221 230 231 222
4 222 231 232 223
4 223 232 233 224
4 224 233 75 76
4 88 89 234 225
4 225 234 235 226
4 226 235 236 227
4 227 236 237 228
4 228 237 238 229
4 229 238 239 230
4 230 239 240 231
4 231 240 241 232
4 232 241 242 233
4 233 242 74 75
4 89 90 243 234
4 234 243 244 235
4 235 244 245 236
4 236 245 246 237
4 237 246 247 238
4 238 247 248 239
4 239 248 249 240
4 240 249 250 241
4 241 250 251 242
4 242 251 73 74
4 90 91 252 243
4 243 252 253 244
4 244 253 254 245
4 245 254 255 246
4 246 255 256 247
4 247 256 257 248
4 248 257 258 249
4 249 258 259 250
4 250 259 260 251
4 251 260 72 73
4 91 92 261 252
4 252 261 262 253
4 253 262 263 254
4 254 263 264 255
4 255 264 265 256
4 256 265 266 257
4 257 266 267 258
4 258 267 268 259
4 259 268 269 260
4 260 269 71 72
4 92 93 270 261
4 261 270 271 262
4 262 271 272 263
4 263 272 273 264
4 264 273 274 265
4 265 274 275 266
4 266 275 276 267
4 267 276 277 268
4 268 277 278 269
4 269 278 70 71
4 93 94 279 270
4 270 279 280 271
4 271 280 281 272
4 272 281 282 273
4 273 282 283 274
4 274 283 284 275
4 275 284 285 276
4 276 285 286 277
4 277 286 287 278
4 278 287 69 70
4 94 95 288 279
4 279 288 289 280
4 280 289 290 281
4 281 290 291 282
4 282 291 292 283
4 283 292 293 284
4 284 293 294 285
4 285 294 295 286
4 286 295 296 287
4 287 296 68 69
4 95 96 297 288
4 288 297 298 289
4 289 298 299 290
4 290 299 300 291
4 291 300 301 292
4 292 301 302 293
4 293 302 303 294
4 294 303 304 295
4 295 304 305 296
4 296 305 67 68
4 96 97 306 297
4 297 306 307 298
4 298 307 308 299
4 299 308 309 300
4 300 309 310 301
4 301 310 311 302
4 302 311 312 303
4 303 312 313 304
4 304 313 314 305
4 305 314 66 67
4 97 98 315 306
4 306 315 316 307
4 307 316 317 308
4 308 317 318 309
4 309 318 319 310
4 310 319 320 311
4 311 320 321 312
4 312 321 322 313
4 313 322 323 314
4 314 323 65 66
4 98 99 324 315
4 315 324 325 316
4 316 325 326 317
4 317 326 327 318
4 318 327 328 319
4 319 328 329 320
4 320 329 330 321
4 321 330 331 322
4 322 331 332 323
4 323 332 64 65
4 99 100 333 324
4 324 333 334 325
4 325 334 335 326
4 326 335 336 327
4 327 336 337 328
4 328 337 338 329
4 329 338 339 330
4 330 339 340 331
4 331 340 341 332
4 332 341 63 64
4 100 101 342 333
4 333 342 343 334
4 334 343 344 335
4 335 344 345 336
4 336 345 346 337
4 337 346 347 338
4 338 347 348 339
4 339 348 349 340
4 340 349 350 341
4 341 350 62 63
4 101 102 351 342
4 342 351 352 343
4 343 352 353 344
4 344 353 354 345
4 345 354 355 346
4 346 355 356 347
4 347 356 357 348
4 348 357 358 349
4 349 358 359 350
4 350 359 61 62
4 102 103 360 351
4 351 360 361 352
4 352 361 362 353
4 353 362 363 354
4 354 363 364 355
4 355 364 365 356
4 356 365 366 357
4 357 366 367 358
4 358 367 368 359
4 359 368 60 61
4 103 104 369 360
4 360 369 370 361
4 361 370 371 362
4 362 371 372 363
4 363 372 373 364
4 364 373 374 365
4 365 374 375 366
4 366 375 376 367
4 367 376 377 368
4 368 377 59 60
4 104 105 378 369
4 369 378 379 370
4 370 379 380 371
4 371 380 381 372
4 372 381 382 373
4 373 382 383 374
4 374 383 384 375
4 375 384 385 376
4 376 385 386 377
4 377 386 58 59
4 105 106 387 378
4 378 387 388 379
4 379 388 389 380
4 380 389 390 381
4 381 390 391 382
4 382 391 392 383
4 383 392 393 384
4 384 393 394 385
4 385 394 395 386
4 386 395 57 58
4 106 107 396 387
4 387 396 397 388
4 388 397 398 389
4 389 398 399 390
4 390 399 400 391
4 391 400 401 392
4 392 401 402 393
4 393 402 403 394
4 394 403 404 395
4 395 404 56 57
4 107 108 405 396
4 396 405 406 397
4 397 406 407 398
4 398 407 408 399
4 399 408 409 400
4 400 409 410 401
4 401 410 411 402
4 402 411 412 403
4 403 412 413 404
4 404 413 55 56
4 108 109 414 405
4 405 414 415 406
4 406 415 416 407
4 407 416 417 408
4 408 417 418 409
4 409 418 419 410
4 410 419 420 411
4 411 420 421 412
4 412 421 422 413
4 413 422 54 55
4 109 110 423 414
4 414 423 424 415
4 415 424 425 416
4 416 425 426 417
4 417 426 427 418
4 418 427 428 419
4 419 428 429 420
4 420 429 430 421
4 421 430 431 422
4 422 431 53 54
4 110 111 432 423
4 423 432 433 424
4 424 433 434 425
4 425 434 435 426
4 426 435 436 427
4 427 436 437 428
4 428 437 438 429
4 429 438 439 430
4 430 439 440 431
4 431 440 52 53
4 111 112 441 432
4 432 441 442 433
4 433 442 443 434
4 434 443 444 435
4 435 444 445 436
4 436 445 446 437
4 437 446 447 438
4 438 447 448 439
4 439 448 449 440
4 440 449 51 52
4 112 113 450 441
4 441 450 451 442
4 442 451 452 443
4 443 452 453 444
4 444 453 454 445
4 445 454 455 446
4 446 455 456 447
4 447 456 457 448
4 448 457 458 449
4 449 458 50 51
4 113 114 459 450
4 450 459 460 451
4 451 460 461 452
4 452 461 462 453
4 453 462 463 454
4 454 463 464 455
4 455 464 465 456
4 456 465 466 457
4 457 466 467 458
4 458 467 49 50
4 114 115 468 459
4 459 468 469 460
4 460 469 470 461
4 461 470 471 462
4 462 471 472 463
4 463 472 473 464
4 464 473 474 465
4 465 474 475 466
4 466 475 476 467
4 467 476 48 49
4 115 116 477 468
4 468 477 478 469
4 469 478 479 470
4 470 479 480 471
4 471 480 481 472
4 472 481 482 473
4 473 482 483 474
4 474 483 484 475
4 475 484 485 476
4 476 485 47 48
4 116 117 486 477
4 477 486 487 478
4 478 487 488 479
4 479 488 489 480
4 480 489 490 481
4 481 490 491 482
4 482 491 492 483
4 483 492 493 484
4 484 493 494 485
4 485 494 46 47
4 117 118 495 486
4 486 495 496 487
4 487 496 497 488
4 488 497 498 489
4 489 498 499 490
4 490 499 500 491
4 491 500 501 492
4 492 501 502 493
4 493 502 503 494
4 494 503 45 46
4 118 119 504 495
4 495 504 505 496
4 496 505 506 497
4 497 506 507 498
4 498 507 508 499
4 499 508 509 500
4 500 509 510 501
4 501 510 511 502
4 502 511 512 503
4 503 512 44 45
4 119 120 513 504
4 504 513 514 505
4 505 514 515 506
4 506 515 516 507
4 507 516 517 508
4 508 517 518 509
4 509 518 519 510
4 510 519 520 511
4 511 520 521 512
4 512 521 43 44
4 120 121 522 513
4 513 522 523 514
4 514 523 524 515
4 515 524 525 516
4 516 525 526 517
4 517 526 527 518
4 518 527 528 519
4 519 528 529 520
4 520 529 530 521
4 521 530 42 43
4 121 122 531 522
4 522 531 532 523
4 523 532 533 524
4 524 533 534 525
4 525 534 535 526
4 526 535 536 527
4 527 536 537 528
4 528 537 538 529
4 529 538 539 530
4 530 539 41 42
4 122 123 540 531
4 531 540 541 532
4 532 541 542 533
4 533 542 543 534
4 534 543 544 535
4 535 544 545 536
4 536 545 546 537
4 537 546 547 538
4 538 547 548 539
4 539 548 40 41
4 123 124 549 540
4 540 549 550 541
4 541 550 551 542
4 542 551 552 543
4 543 552 553 544
4 544 553 554 545
4 545 554 555 546
4 546 555 556 547
4 547 556 557 548
4 548 557 39 40
4 124 125 558 549
4 549 558 559 550
4 550 559 560 551
4 551 560 561 552
4 552 561 562 553
4 553 562 563 554
4 554 563 564 555
4 555 564 565 556
4 556 565 566 557
4 557 566 38 39
4 125 126 567 558
4 558 567 568 559
4 559 568 569 560
4 560 569 570 561
4 561 570 571 562
4 562 571 572 563
4 563 572 573 564
4 564 573 574 565
4 565 574 575 566
4 566 575 37 38
4 126 127 576 567
4 567 576 577 568
4 568 577 578 569
4 569 578 579 570
4 570 579 580 571
4 571 580 581 572
4 572 581 582 573
4 573 582 583 574
4 574 583 584 575
4 575 584 36 37
4 127 128 585 576
4 576 585 586 577
4 577 586 587 578
4 578 587 588 579
4 579 588 589 580
4 580 589 590 581
4 581 590 591 582
4 582 591 592 583
4 583 592 593 584
4 584 593 35 36
4 128 129 594 585
4 585 594 595 586
4 586 595 596 587
4 587 596 597 588
4 588 597 598 589
4 589 598 599 590
4 590 599 600 591
4 591 600 601 592
4 592 601 602 593
4 593 602 34 35
4 129 130 603 594
4 594 603 604 595
4 595 604 605 596
4 596 605 606 597
4 597 606 607 598
4 598 607 608 599
4 599 608 609 600
4 600 609 610 601
4 601 610 611 602
4 602 611 33 34
4 130 131 612 603
4 603 612 613 604
4 604 613 614 605
4 605 614 615 606
4 606 615 616 607
4 607 616 617 608
4 608 617 618 609
4 609 618 619 610
4 610 619 620 611
4 611 620 32 33
4 131 132 621 612
4 612 621 622 613
4 613 622 623 614
4 614 623 624 615
4 615 624 625 616
4 616 625 626 617
4 617 626 627 618
4 618 627 628 619
4 619 628 629 620
4 620 629 31 32
4 132 133 630 621
4 621 630 631 622
4 622 631 632 623
4 623 632 633 624
4 624 633 634 625
4 625 634 635 626
4 626 635 636 627
4 627 636 637 628
4 628 637 638 629
4 629 638 30 31
4 133 134 639 630
4 630 639 640 631
4 631 640 641 632
4 632 641 642 633
4 633 642 643 634
4 634 643 644 635
4 635 644 645 636
4 636 645 646 637
4 637 646 647 638
4 638 647 29 30
4 134 135 648 639
4 639 648 649 640
4 640 649 650 641
4 641 650 651 642
4 642 651 652 643
4 643 652 653 644
4 644 653 654 645
4 645 654 655 646
4 646 655 656 647
4 647 656 28 29
4 135 136 657 648
4 648 657 658 649
4 649 658 659 650
4 650 659 660 651
4 651 660 661 652
4 652 661 662 653
4 653 662 663 654
4 654 663 664 655
4 655 664 665 656
4 656 665 27 28
4 136 137 666 657
4 657 666 667 658
4 658 667 668 659
4 659 668 669 660
4 660 669 670 661
4 661 670 671 662
4 662 671 672 663
4 663 672 673 664
4 664 673 674 665
4 665 674 26 27
4 137 138 675 666
4 666 675 676 667
4 667 676 677 668
4 668 677 678 669
4 669 678 679 670
4 670 679 680 671
4 671 680 681 672
4 672 681 682 673
4 673 682 683 674
4 674 683 25 26
4 138 139 684 675
4 675 684 685 676
4 676 685 686 677
4 677 686 687 678
4 678 687 688 679
4 679 688 689 680
4 680 689 690 681
4 681 690 691 682
4 682 691 692 683
4 683 692 24 25
4 139 140 693 684
4 684 693 694 685
4 685 694 695 686
4 686 695 696 687
4 687 696 697 688
4 688 697 698 689
4 689 698 699 690
4 690 699 700 691
4 691 700 701 692
4 692 701 23 24
4 140 141 702 693
4 693 702 703 694
4 694 703 704 695
4 695 704 705 696
4 696 705 706 697
4 697 706 707 698
4 698 707 708 699
4 699 708 709 700
4 700 709 710 701
4 701 710 22 23
4 141 142 711 702
4 702 711 712 703
4 703 712 713 704
4 704 713 714 705
4 705 714 715 706
4 706 715 716 707
4 707 716 717 708
4 708 717 718 709
4 709 718 719 710
4 710 719 21 22
4 142 143 720 711
4 711 720 721 712
4 712 721 722 713
4 713 722 723 714
4 714 723 724 715
4 715 724 725 716
4 716 725 726 717
4 717 726 727 718
4 718 727 728 719
4 719 728 20 21
4 143 144 729 720
4 720 729 730 721
4 721 730 731 722
4 722 731 732 723
4 723 732 733 724
4 724 733 734 725
4 725 734 735 726
4 726 735 736 727
4 727 736 737 728
4 728 737 19 20
4 144 145 738 729
4 729 738 739 730
4 730 739 740 731
4 731 740 741 732
4 732 741 742 733
4 733 742 743 734
4 734 743 744 735
4 735 744 745 736
4 736 745 746 737
4 737 746 18 19
4 145 146 747 738
4 738 747 748 739
4 739 748 749 740
4 740 749 750 741
4 741 750 751 742
4 742 751 752 743
4 743 752 753 744
4 744 753 754 745
4 745 754 755 746
4 746 755 17 18
4 146 147 756 747
4 747 756 757 748
4 748 757 758 749
4 749 758 759 750
4 750 759 760 751
4 751 760 761 752
4 752 761 762 753
4 753 762 763 754
4 754 763 764 755
4 755 764 16 17
4 147 148 765 756
4 756 765 766 757
4 757 766 767 758
4 758 767 768 759
4 759 768 769 760
4 760 769 770 761
4 761 770 771 762
4 762 771 772 763
4 763 772 773 764
4 764 773 15 16
4 148 149 774 765
4 765 774 775 766
4 766 775 776 767
4 767 776 777 768
4 768 777 778 769
4 769 778 779 770
4 770 779 780 771
4 771 780 781 772
4 772 781 782 773
4 773 782 14 15
4 149 150 783 774
4 774 783 784 775
4 775 784 785 776
4 776 785 786 777
4 777 786 787 778
4 778 787 788 779
4 779 788 789 780
4 780 789 790 781
4 781 790 791 782
4 782 791 13 14
4 150 151 792 783
4 783 792 793 784
4 784 793 794 785
4 785 794 795 786
4 786 795 796 787
4 787 796 797 788
4 788 797 798 789
4 789 798 799 790
4 790 799 800 791
4 791 800 12 13
4 151 152 801 792
4 792 801 802 793
4 793 802 803 794
4 794 803 804 795
4 795 804 805 796
4 796 805 806 797
4 797 806 807 798
4 798 807 808 799
4 799 808 809 800
4 800 809 11 12
4 152 153 810 801
4 801 810 811 802
4 802 811 812 803
4 803 812 813 804
4 804 813 814 805
4 805 814 815 806
4 806 815 816 807
4 807 816 817 808
4 808 817 818 809
4 809 818 10 11
4 153 154 819 810
4 810 819 820 811
4 811 820 821 812
4 812 821 822 813
4 813 822 823 814
4 814 823 824 815
4 815 824 825 816
4 816 825 826 817
4 817 826 827 818
4 818 827 9 10
4 154 155 828 819
4 819 828 829 820
4 820 829 830 821
4 821 830 831 822
4 822 831 832 823
4 823 832 833 824
4 824 833 834 825
4 825 834 835 826
4 826 835 836 827
4 827 836 8 9
4 155 156 837 828
4 828 837 838 829
4 829 838 839 830
4 830 839 840 831
4 831 840 841 832
4 832 841 842 833
4 833 842 843 834
4 834 843 844 835
4 835 844 845 836
4 836 845 7 8
4 156 157 846 837
4 837 846 847 838
4 838 847 848 839
4 839 848 849 840
4 840 849 850 841
4 841 850 851 842
4 842 851 852 843
4 843 852 853 844
4 844 853 854 845
4 845 854 6 7
4 157 158 855 846
4 846 855 856 847
4 847 856 857 848
4 848 857 858 849
4 849 858 859 850
4 850 859 860 851
4 851 860 861 852
4 852 861 862 853
4 853 862 863 854
4 854 863 5 6
4 158 159 864 855
4 855 864 865 856
4 856 865 866 857
4 857 866 867 858
4 858 867 868 859
4 859 868 869 860
4 860 869 870 861
4 861 870 871 862
4 862 871 872 863
4 863 872 4 5
4 159 160 873 864
4 864 873 874 865
4 865 874 875 866
4 866 875 876 867
4 867 876 877 868
4 868 877 878 869
4 869 878 879 870
4 870 879 880 871
4 871 880 881 872
4 872 881 3 4
4 160 161 882 873
4 873 882 883 874
4 874 883 884 875
4 875 884 885 876
4 876 885 886 877
4 877 886 887 878
4 878 887 888 879
4 879 888 889 880
4 880 889 890 881
4 881 890 2 3
4 161 81 162 882
4 882 162 163 883
4 883 163 164 884
4 884 164 165 885
4 885 165 166 886
4 886 166 167 887
4 887 167 168 888
4 888 168 169 889
4 889 169 170 890
4 890 170 1 2
CELL_TYPES 800
9
9
9
9
9
9
9
9
9
9
9
9
9
9
9
9
9
9
9
9
9
9
9
9
9
9
9
9
9
9
9
9
9
9
9
9
9
9
9
9
9
9
9
9
9
9
9
9
9
9
9
9
9
9
9
9
9
9
9
9
9
9
9
9
9
9
9
9
9
9
9
9
9
9
9
9
9
9
9
9
9
9
9
9
9
9
9
9
9
9
9
9
9
9
9
9
9
9
9
9
9
9
9
9
9
9
9
9
9
9
9
9
9
9
9
9
9
9
9
9
9
9
9
9
9
9
9
9
9
9
9
9
9
9
9
9
9
9
9
9
9
9
9
9
9
9
9
9
9
9
9
9
9
9
9
9
9
9
9
9
9
9
9
9
9
9
9
9
9
9
9
9
9
9
9
9
9
9
9
9
9
9
9
9
9
9
9
9
9
9
9
9
9
9
9
9
9
9
9
9
9
9
9
9
9
9
9
9
9
9
9
9
9
9
9
9
9
9
9
9
9
9
9
9
9
9
9
9
9
9
9
9
9
9
9
9
9
9
9
9
9
9
9
9
9
9
9
9
9
9
9
9
9
9
9
9
9
9
9
9
9
9
9
9
9
9
9
9
9
9
9
9
9
9
9
9
9
9
9
9
9
9
9
9
9
9
9
9
9
9
9
9
9
9
9
9
9
9
9
9
9
9
9
9
9
9
9
9
9
9
9
9
9
9
9
9
9
9
9
9
9
9
9
9
9
9
9
9
9
9
9
9
9
9
9
9
9
9
9
9
9
9
9
9
9
9
9
9
9
9
9
9
9
9
9
9
9
9
9
9
9
9
9
9
9
9
9
9
9
9
9
9
9
9
9
9
9
9
9
9
9
9
9
9
9
9
9
9
9
9
9
9
9
9
9
9
9
9
9
9
9
9
9
9
9
9
9
9
9
9
9
9
9
9
9
9
9
9
9
9
9
9
9
9
9
9
9
9
9
9
9
9
9
9
9
9
9
9
9
9
9
9
9
9
9
9
9
9
9
9
9
9
9
9
9
9
9
9
9
9
9
9
9
9
9
9
9
9
9
9
9
9
9
9
9
9
9
9
9
9
9
9
9
9
9
9
9
9
9
9
9
9
9
9
9
9
9
9
9
9
9
9
9
9
9
9
9
9
9
9
9
9
9
9
9
9
9
9
9
9
9
9
9
9
9
9
9
9
9
9
9
9
9
9
9
9
9
9
9
9
9
9
9
9
9
9
9
9
9
9
9
9
9
9
9
9
9
9
9
9
9
9
9
9
9
9
9
9
9
9
9
9
9
9
9
9
9
9
9
9
9
9
9
9
9
9
9
9
9
9
9
9
9
9
9
9
9
9
9
9
9
9
9
9
9
9
9
9
9
9
9
9
9
9
9
9
9
9
9
9
9
9
9
9
9
9
9
9
9
9
9
9
9
9
9
9
9
9
9
9
9
9
9
9
9
9
9
9
9
9
9
9
9
9
9
9
9
9
9
9
9
9
9
9
9
9
9
9
9
9
9
9
9
9
9
9
9
9
9
9
9
9
9
9
9
9
9
9
9
9
9
9
9
9
9
9
9
9
9
9
9
9
9
9
9
9
9
9
9
9
9
9
9
9
9
9
9
9
9
9
9
9
9
9
9
9
9
9
9
9
9
9
9
9
9
9
9
9
9
9
9
9
9
9
9
9
9
9
9
9
9
9
9
9
9
9
9
9
9
9
9
9
9
9
9
9
9
9
9
9
9
9
9
9
9
9
9
9
9
9
9
9
9
9
9
9
9
9
9
9
9
9
9
9
9
9
9
9
9
9
POINT_DATA 891
SCALARS u1 float
LOOKUP_TABLE default
6e-18
-2e-06
-2e-06
-2e-06
-2e-06
-2e-06
-2e-06
-2e-06
-2e-06
-2e-06
-2e-06
-2e-06
-2e-06
-2e-06
-2e-06
-2e-06
-2e-06
-2e-06
-2e-06
-2e-06
-2e-06
-2e-06
-2e-06
-2e-06
-2e-06
-2e-06
-2e-06
-2e-06
-2e-06
-2e-06
-2e-06
-2e-06
-2e-06
-2e-06
-2e-06
-2e-06
-2e-06
-2e-06
-2e-06
-2e-06
-2e-06
-2e-06
-2e-06
-2e-06
-2e-06
-2e-06
-2e-06
-2e-06
-2e-06
-2e-06
-2e-06
-2e-06
-2e-06
-2e-06
-2e-06
-2e-06
-2e-06
-2e-06
-2e-06
-2e-06
-2e-06
-2e-06
-2e-06
-2e-06
-2e-06
-2e-06
-2e-06
-2e-06
-2e-06
-2e-06
-2e-06
-2e-06
-2e-06
-2e-06
-2e-06
-2e-06
-2e-06
-2e-06
-2e-06
-2e-06
-1e-06
2e-06
-4e-18
1e-06
2e-06
2e-06
2e-06
2e-06
2e-06
2e-06
2e-06
2e-06
2e-06
2e-06
2e-06
2e-06
2e-06
2e-06
2e-06
2e-06
2e-06
2e-06
2e-06
2e-06
2e-06
2e-06
2e-06
2e-06
2e-06
2e-06
2e-06
2e-06
2e-06
2e-06
2e-06
2e-06
2e-06
2e-06
2e-06
2e-06
2e-06
2e-06
2e-06
2e-06
2e-06
2e-06
2e-06
2e-06
2e-06
2e-06
2e-06
2e-06
2e-06
2e-06
2e-06
2e-06
2e-06
2e-06
2e-06
2e-06
2e-06
2e-06
2e-06
2e-06
2e-06
2e-06
2e-06
2e-06
2e-06
2e-06
2e-06
2e-06
2e-06
2e-06
2e-06
2e-06
2e-06
2e-06
2e-06
2e-06
2e-06
2e-06
1e-06
1e-06
7e-07
3e-07
3e-14
-3e-07
-7e-07
-1e-06
-1e-06
-2e-18
4e-18
4e-18
-2e-17
1e-17
2e-18
-3e-17
-8e-18
5e-18
1e-06
7e-07
4e-07
2e-07
1e-14
-2e-07
-4e-07
-7e-07
-1e-06
1e-06
1e-06
6e-07
3e-07
2e-14
-3e-07
-6e-07
-1e-06
-1e-06
1e-06
1e-06
7e-07
3e-07
2e-14
-3e-07
-7e-07
-1e-06
-1e-06
1e-06
1e-06
7e-07
3e-07
2e-14
-3e-07
-7e-07
-1e-06
-1e-06
1e-06
1e-06
7e-07
3e-07
3e-14
-3e-07
-7e-07
-1e-06
-1e-06
1e-06
1e-06
7e-07
3e-07
3e-14
-3e-07
-7e-07
-1e-06
-1e-06
1e-06
1e-06
7e-07
3e-07
3e-14
-3e-07
-7e-07
-1e-06
-1e-06
1e-06
1e-06
7e-07
3e-07
3e-14
-3e-07
-7e-07
-1e-06
-1e-06
1e-06
1e-06
7e-07
3e-07
3e-14
-3e-07
-7e-07
-1e-06
-1e-06
1e-06
1e-06
7e-07
3e-07
3e-14
-3e-07
-7e-07
-1e-06
-1e-06
1e-06
1e-06
7e-07
3e-07
3e-14
-3e-07
-7e-07
-1e-06
-1e-06
1e-06
1e-06
7e-07
3e-07
3e-14
-3e-07
-7e-07
-1e-06
-1e-06
1e-06
1e-06
7e-07
3e-07
3e-14
-3e-07
-7e-07
-1e-06
-1e-06
1e-06
1e-06
7e-07
3e-07
3e-14
-3e-07
-7e-07
-1e-06
-1e-06
1e-06
1e-06
7e-07
3e-07
3e-14
-3e-07
-7e-07
-1e-06
-1e-06
1e-06
1e-06
7e-07
3e-07
3e-14
-3e-07
-7e-07
-1e-06
-1e-06
1e-06
1e-06
7e-07
3e-07
3e-14
-3e-07
-7e-07
-1e-06
-1e-06
1e-06
1e-06
7e-07
3e-07
3e-14
-3e-07
-7e-07
-1e-06
-1e-06
1e-06
1e-06
7e-07
3e-07
3e-14
-3e-07
-7e-07
-1e-06
-1e-06
1e-06
1e-06
7e-07
3e-07
3e-14
-3e-07
-7e-07
-1e-06
-1e-06
1e-06
1e-06
7e-07
3e-07
3e-14
-3e-07
-7e-07
-1e-06
-1e-06
1e-06
1e-06
7e-07
3e-07
3e-14
-3e-07
-7e-07
-1e-06
-1e-06
1e-06
1e-06
7e-07
3e-07
3e-14
-3e-07
-7e-07
-1e-06
-1e-06
1e-06
1e-06
7e-07
3e-07
3e-14
-3e-07
-7e-07
-1e-06
-1e-06
1e-06
1e-06
7e-07
3e-07
3e-14
-3e-07
-7e-07
-1e-06
-1e-06
1e-06
1e-06
7e-07
3e-07
3e-14
-3e-07
-7e-07
-1e-06
-1e-06
1e-06
1e-06
7e-07
3e-07
3e-14
-3e-07
-7e-07
-1e-06
-1e-06
1e-06
1e-06
7e-07
3e-07
3e-14
-3e-07
-7e-07
-1e-06
-1e-06
1e-06
1e-06
7e-07
3e-07
3e-14
-3e-07
-7e-07
-1e-06
-1e-06
1e-06
1e-06
7e-07
3e-07
3e-14
-3e-07
-7e-07
-1e-06
-1e-06
1e-06
1e-06
7e-07
3e-07
3e-14
-3e-07
-7e-07
-1e-06
-1e-06
1e-06
1e-06
7e-07
3e-07
3e-14
-3e-07
-7e-07
-1e-06
-1e-06
1e-06
1e-06
7e-07
3e-07
3e-14
-3e-07
-7e-07
-1e-06
-1e-06
1e-06
1e-06
7e-07
3e-07
3e-14
-3e-07
-7e-07
-1e-06
-1e-06
1e-06
1e-06
7e-07
3e-07
3e-14
-3e-07
-7e-07
-1e-06
-1e-06
1e-06
1e-06
7e-07
3e-07
3e-14
-3e-07
-7e-07
-1e-06
-1e-06
1e-06
1e-06
7e-07
3e-07
3e-14
-3e-07
-7e-07
-1e-06
-1e-06
1e-06
1e-06
7e-07
3e-07
3e-14
-3e-07
-7e-07
-1e-06
-1e-06
1e-06
1e-06
7e-07
3e-07
3e-14
-3e-07
-7e-07
-1e-06
-1e-06
1e-06
1e-06
7e-07
3e-07
3e-14
-3e-07
-7e-07
-1e-06
-1e-06
1e-06
1e-06
7e-07
3e-07
3e-14
-3e-07
-7e-07
-1e-06
-1e-06
1e-06
1e-06
7e-07
3e-07
3e-14
-3e-07
-7e-07
-1e-06
-1e-06
1e-06
1e-06
7e-07
3e-07
3e-14
-3e-07
-7e-07
-1e-06
-1e-06
1e-06
1e-06
7e-07
3e-07
3e-14
-3e-07
-7e-07
-1e-06
-1e-06
1e-06
1e-06
7e-07
3e-07
3e-14
-3e-07
-7e-07
-1e-06
-1e-06
1e-06
1e-06
7e-07
3e-07
3e-14
-3e-07
-7e-07
-1e-06
-1e-06
1e-06
1e-06
7e-07
3e-07
3e-14
-3e-07
-7e-07
-1e-06
-1e-06
1e-06
1e-06
7e-07
3e-07
3e-14
-3e-07
-7e-07
-1e-06
-1e-06
1e-06
1e-06
7e-07
3e-07
3e-14
-3e-07
-7e-07
-1e-06
-1e-06
1e-06
1e-06
7e-07
3e-07
3e-14
-3e-07
-7e-07
-1e-06
-1e-06
1e-06
1e-06
7e-07
3e-07
3e-14
-3e-07
-7e-07
-1e-06
-1e-06
1e-06
1e-06
7e-07
3e-07
3e-14
-3e-07
-7e-07
-1e-06
-1e-06
1e-06
1e-06
7e-07
3e-07
3e-14
-3e-07
-7e-07
-1e-06
-1e-06
1e-06
1e-06
7e-07
3e-07
3e-14
-3e-07
-7e-07
-1e-06
-1e-06
1e-06
1e-06
7e-07
3e-07
3e-14
-3e-07
-7e-07
-1e-06
-1e-06
1e-06
1e-06
7e-07
3e-07
3e-14
-3e-07
-7e-07
-1e-06
-1e-06
1e-06
1e-06
7e-07
3e-07
3e-14
-3e-07
-7e-07
-1e-06
-1e-06
1e-06
1e-06
7e-07
3e-07
3e-14
-3e-07
-7e-07
-1e-06
-1e-06
1e-06
1e-06
7e-07
3e-07
3e-14
-3e-07
-7e-07
-1e-06
-1e-06
1e-06
1e-06
7e-07
3e-07
3e-14
-3e-07
-7e-07
-1e-06
-1e-06
1e-06
1e-06
7e-07
3e-07
3e-14
-3e-07
-7e-07
-1e-06
-1e-06
1e-06
1e-06
7e-07
3e-07
3e-14
-3e-07
-7e-07
-1e-06
-1e-06
1e-06
1e-06
7e-07
3e-07
3e-14
-3e-07
-7e-07
-1e-06
-1e-06
1e-06
1e-06
7e-07
3e-07
3e-14
-3e-07
-7e-07
-1e-06
-1e-06
1e-06
1e-06
7e-07
3e-07
3e-14
-3e-07
-7e-07
-1e-06
-1e-06
1e-06
1e-06
7e-07
3e-07
3e-14
-3e-07
-7e-07
-1e-06
-1e-06
1e-06
1e-06
7e-07
3e-07
3e-14
-3e-07
-7e-07
-1e-06
-1e-06
1e-06
1e-06
7e-07
3e-07
3e-14
-3e-07
-7e-07
-1e-06
-1e-06
1e-06
1e-06
7e-07
3e-07
3e-14
-3e-07
-7e-07
-1e-06
-1e-06
1e-06
1e-06
7e-07
3e-07
3e-14
-3e-07
-7e-07
-1e-06
-1e-06
1e-06
1e-06
7e-07
3e-07
3e-14
-3e-07
-7e-07
-1e-06
-1e-06
1e-06
1e-06
7e-07
3e-07
3e-14
-3e-07
-7e-07
-1e-06
-1e-06
1e-06
1e-06
7e-07
3e-07
3e-14
-3e-07
-7e-07
-1e-06
-1e-06
1e-06
1e-06
7e-07
3e-07
3e-14
-3e-07
-7e-07
-1e-06
-1e-06
1e-06
1e-06
7e-07
3e-07
3e-14
-3e-07
-7e-07
-1e-06
-1e-06
1e-06
1e-06
7e-07
3e-07
3e-14
-3e-07
-7e-07
-1e-06
-1e-06
1e-06
1e-06
7e-07
3e-07
3e-14
-3e-07
-7e-07
-1e-06
-1e-06
1e-06
1e-06
7e-07
3e-07
3e-14
-3e-07
-7e-07
-1e-06
-1e-06
1e-06
1e-06
7e-07
3e-07
3e-14
-3e-07
-7e-07
-1e-06
-1e-06
SCALARS u2 float
LOOKUP_TABLE default
-2e-17
-0.0005
-0.0004
-0.0004
-0.0004
-0.0004
-0.0004
-0.0004
-0.0004
-0.0004
-0.0004
-0.0004
-0.0004
-0.0004
-0.0004
-0.0004
-0.0004
-0.0004
-0.0004
-0.0003
-0.0003
-0.0003
-0.0003
-0.0003
-0.0003
-0.0003
-0.0003
-0.0003
-0.0003
-0.0003
-0.0003
-0.0003
-0.0003
-0.0003
-0.0003
-0.0003
-0.0003
-0.0002
-0.0002
-0.0002
-0.0002
-0.0002
-0.0002
-0.0002
-0.0002
-0.0002
-0.0002
-0.0002
-0.0002
-0.0002
-0.0002
-0.0002
-0.0002
-0.0002
-0.0002
-0.0001
-0.0001
-0.0001
-0.0001
-0.0001
-0.0001
-0.0001
-0.0001
-0.0001
-0.0001
-9e-05
-8e-05
-8e-05
-7e-05
-7e-05
-6e-05
-6e-05
-5e-05
-4e-05
-4e-05
-3e-05
-3e-05
-2e-05
-2e-05
-1e-05
-6e-06
-0.0005
5e-18
-6e-06
-1e-05
-2e-05
-2e-05
-3e-05
-3e-05
-4e-05
-4e-05
-5e-05
-6e-05
-6e-05
-7e-05
-7e-05
-8e-05
-8e-05
-9e-05
-0.0001
-0.0001
-0.0001
-0.0001
-0.0001
-0.0001
-0.0001
-0.0001
-0.0001
-0.0001
-0.0002
-0.0002
-0.0002
-0.0002
-0.0002
-0.0002
-0.0002
-0.0002
-0.0002
-0.0002
-0.0002
-0.0002
-0.0002
-0.0002
-0.0002
-0.0002
-0.0002
-0.0002
-0.0003
-0.0003
-0.0003
-0.0003
-0.0003
-0.0003
-0.0003
-0.0003
-0.0003
-0.0003
-0.0003
-0.0003
-0.0003
-0.0003
-0.0003
-0.0003
-0.0003
-0.0003
-0.0004
-0.0004
-0.0004
-0.0004
-0.0004
-0.0004
-0.0004
-0.0004
-0.0004
-0.0004
-0.0004
-0.0004
-0.0004
-0.0004
-0.0004
-0.0004
-0.0004
-0.0005
-0.0005
-0.0005
-0.0005
-0.0005
-0.0005
-0.0005
-0.0005
-0.0005
2e-17
3e-17
2e-17
3e-17
-9e-18
-4e-17
4e-17
-4e-17
-6e-17
-6e-06
-6e-06
-5e-06
-5e-06
-5e-06
-5e-06
-5e-06
-6e-06
-6e-06
-1e-05
-1e-05
-1e-05
-1e-05
-1e-05
-1e-05
-1e-05
-1e-05
-1e-05
-2e-05
-2e-05
-2e-05
-2e-05
-2e-05
-2e-05
-2e-05
-2e-05
-2e-05
-2e-05
-2e-05
-2e-05
-2e-05
-2e-05
-2e-05
-2e-05
-2e-05
-2e-05
-3e-05
-3e-05
-3e-05
-3e-05
-3e-05
-3e-05
-3e-05
-3e-05
-3e-05
-3e-05
-3e-05
-3e-05
-3e-05
-3e-05
-3e-05
-3e-05
-3e-05
-3e-05
-4e-05
-4e-05
-4e-05
-4e-05
-4e-05
-4e-05
-4e-05
-4e-05
-4e-05
-4e-05
-4e-05
-4e-05
-4e-05
-4e-05
-4e-05
-4e-05
-4e-05
-4e-05
-5e-05
-5e-05
-5e-05
-5e-05
-5e-05
-5e-05
-5e-05
-5e-05
-5e-05
-6e-05
-6e-05
-6e-05
-6e-05
-6e-05
-6e-05
-6e-05
-6e-05
-6e-05
-6e-05
-6e-05
-6e-05
-6e-05
-6e-05
-6e-05
-6e-05
-6e-05
-6e-05
-7e-05
-7e-05
-7e-05
-7e-05
-7e-05
-7e-05
-7e-05
-7e-05
-7e-05
-7e-05
-7e-05
-7e-05
-7e-05
-7e-05
-7e-05
-7e-05
-7e-05
-7e-05
-8e-05
-8e-05
-8e-05
-8e-05
-8e-05
-8e-05
-8e-05
-8e-05
-8e-05
-8e-05
-8e-05
-8e-05
-8e-05
-8e-05
-8e-05
-8e-05
-8e-05
-8e-05
-9e-05
-9e-05
-9e-05
-9e-05
-9e-05
-9e-05
-9e-05
-9e-05
-9e-05
-0.0001
-0.0001
-0.0001
-0.0001
-0.0001
-0.0001
-0.0001
-0.0001
-0.0001
-0.0001
-0.0001
-0.0001
-0.0001
-0.0001
-0.0001
-0.0001
-0.0001
-0.0001
-0.0001
-0.0001
-0.0001
-0.0001
-0.0001
-0.0001
-0.0001
-0.0001
-0.0001
-0.0001
-0.0001
-0.0001
-0.0001
-0.0001
-0.0001
-0.0001
-0.0001
-0.0001
-0.0001
-0.0001
-0.0001
-0.0001
-0.0001
-0.0001
-0.0001
-0.0001
-0.0001
-0.0001
-0.0001
-0.0001
-0.0001
-0.0001
-0.0001
-0.0001
-0.0001
-0.0001
-0.0001
-0.0001
-0.0001
-0.0001
-0.0001
-0.0001
-0.0001
-0.0001
-0.0001
-0.0001
-0.0001
-0.0001
-0.0001
-0.0001
-0.0001
-0.0001
-0.0001
-0.0001
-0.0001
-0.0001
-0.0001
-0.0001
-0.0001
-0.0001
-0.0001
-0.0001
-0.0001
-0.0001
-0.0001
-0.0001
-0.0001
-0.0001
-0.0001
-0.0001
-0.0001
-0.0001
-0.0002
-0.0002
-0.0002
-0.0002
-0.0002
-0.0002
-0.0002
-0.0002
-0.0002
-0.0002
-0.0002
-0.0002
-0.0002
-0.0002
-0.0002
-0.0002
-0.0002
-0.0002
-0.0002
-0.0002
-0.0002
-0.0002
-0.0002
-0.0002
-0.0002
-0.0002
-0.0002
-0.0002
-0.0002
-0.0002
-0.0002
-0.0002
-0.0002
-0.0002
-0.0002
-0.0002
-0.0002
-0.0002
-0.0002
-0.0002
-0.0002
-0.0002
-0.0002
-0.0002
-0.0002
-0.0002
-0.0002
-0.0002
-0.0002
-0.0002
-0.0002
-0.0002
-0.0002
-0.0002
-0.0002
-0.0002
-0.0002
-0.0002
-0.0002
-0.0002
-0.0002
-0.0002
-0.0002
-0.0002
-0.0002
-0.0002
-0.0002
-0.0002
-0.0002
-0.0002
-0.0002
-0.0002
-0.0002
-0.0002
-0.0002
-0.0002
-0.0002
-0.0002
-0.0002
-0.0002
-0.0002
-0.0002
-0.0002
-0.0002
-0.0002
-0.0002
-0.0002
-0.0002
-0.0002
-0.0002
-0.0002
-0.0002
-0.0002
-0.0002
-0.0002
-0.0002
-0.0002
-0.0002
-0.0002
-0.0002
-0.0002
-0.0002
-0.0002
-0.0002
-0.0002
-0.0002
-0.0002
-0.0002
-0.0002
-0.0002
-0.0002
-0.0002
-0.0002
-0.0002
-0.0002
-0.0002
-0.0002
-0.0002
-0.0002
-0.0002
-0.0002
-0.0002
-0.0002
-0.0002
-0.0002
-0.0002
-0.0002
-0.0002
-0.0002
-0.0002
-0.0002
-0.0002
-0.0002
-0.0002
-0.0002
-0.0002
-0.0002
-0.0002
-0.0002
-0.0002
-0.0002
-0.0002
-0.0002
-0.0002
-0.0002
-0.0002
-0.0002
-0.0002
-0.0002
-0.0002
-0.0002
-0.0002
-0.0002
-0.0002
-0.0002
-0.0002
-0.0002
-0.0002
-0.0002
-0.0002
-0.0002
-0.0002
-0.0003
-0.0003
-0.0003
-0.0003
-0.0003
-0.0003
-0.0003
-0.0003
-0.0003
-0.0003
-0.0003
-0.0003
-0.0003
-0.0003
-0.0003
-0.0003
-0.0003
-0.0003
-0.0003
-0.0003
-0.0003
-0.0003
-0.0003
-0.0003
-0.0003
-0.0003
-0.0003
-0.0003
-0.0003
-0.0003
-0.0003
-0.0003
-0.0003
-0.0003
-0.0003
-0.0003
-0.0003
-0.0003
-0.0003
-0.0003
-0.0003
-0.0003
-0.0003
-0.0003
-0.0003
-0.0003
-0.0003
-0.0003
-0.0003
-0.0003
-0.0003
-0.0003
-0.0003
-0.0003
-0.0003
-0.0003
-0.0003
-0.0003
-0.0003
-0.0003
-0.0003
-0.0003
-0.0003
-0.0003
-0.0003
-0.0003
-0.0003
-0.0003
-0.0003
-0.0003
-0.0003
-0.0003
-0.0003
-0.0003
-0.0003
-0.0003
-0.0003
-0.0003
-0.0003
-0.0003
-0.0003
-0.0003
-0.0003
-0.0003
-0.0003
-0.0003
-0.0003
-0.0003
-0.0003
-0.0003
-0.0003
-0.0003
-0.0003
-0.0003
-0.0003
-0.0003
-0.0003
-0.0003
-0.0003
-0.0003
-0.0003
-0.0003
-0.0003
-0.0003
-0.0003
-0.0003
-0.0003
-0.0003
-0.0003
-0.0003
-0.0003
-0.0003
-0.0003
-0.0003
-0.0003
-0.0003
-0.0003
-0.0003
-0.0003
-0.0003
-0.0003
-0.0003
-0.0003
-0.0003
-0.0003
-0.0003
-0.0003
-0.0003
-0.0003
-0.0003
-0.0003
-0.0003
-0.0003
-0.0003
-0.0003
-0.0003
-0.0003
-0.0003
-0.0003
-0.0003
-0.0003
-0.0003
-0.0003
-0.0003
-0.0003
-0.0003
-0.0003
-0.0003
-0.0003
-0.0003
-0.0003
-0.0003
-0.0003
-0.0003
-0.0003
-0.0003
-0.0003
-0.0003
-0.0003
-0.0003
-0.0003
-0.0003
-0.0004
-0.0004
-0.0004
-0.0004
-0.0004
-0.0004
-0.0004
-0.0004
-0.0004
-0.0004
-0.0004
-0.0004
-0.0004
-0.0004
-0.0004
-0.0004
-0.0004
-0.0004
-0.0004
-0.0004
-0.0004
-0.0004
-0.0004
-0.0004
-0.0004
-0.0004
-0.0004
-0.0004
-0.0004
-0.0004
-0.0004
-0.0004
-0.0004
-0.0004
-0.0004
-0.0004
-0.0004
-0.0004
-0.0004
-0.0004
-0.0004
-0.0004
-0.0004
-0.0004
-0.0004
-0.0004
-0.0004
-0.0004
-0.0004
-0.0004
-0.0004
-0.0004
-0.0004
-0.0004
-0.0004
-0.0004
-0.0004
-0.0004
-0.0004
-0.0004
-0.0004
-0.0004
-0.0004
-0.0004
-0.0004
-0.0004
-0.0004
-0.0004
-0.0004
-0.0004
-0.0004
-0.0004
-0.0004
-0.0004
-0.0004
-0.0004
-0.0004
-0.0004
-0.0004
-0.0004
-0.0004
-0.0004
-0.0004
-0.0004
-0.0004
-0.0004
-0.0004
-0.0004
-0.0004
-0.0004
-0.0004
-0.0004
-0.0004
-0.0004
-0.0004
-0.0004
-0.0004
-0.0004
-0.0004
-0.0004
-0.0004
-0.0004
-0.0004
-0.0004
-0.0004
-0.0004
-0.0004
-0.0004
-0.0004
-0.0004
-0.0004
-0.0004
-0.0004
-0.0004
-0.0004
-0.0004
-0.0004
-0.0004
-0.0004
-0.0004
-0.0004
-0.0004
-0.0004
-0.0004
-0.0004
-0.0004
-0.0004
-0.0004
-0.0004
-0.0004
-0.0004
-0.0004
-0.0004
-0.0004
-0.0004
-0.0004
-0.0004
-0.0004
-0.0004
-0.0004
-0.0004
-0.0004
-0.0004
-0.0004
-0.0004
-0.0004
-0.0004
-0.0004
-0.0004
-0.0004
-0.0004
-0.0004
-0.0004
SCALARS strain_1 float
LOOKUP_TABLE default
-0.000124
-0.196604
-0.193630
-0.190643
-0.187640
-0.184625
-0.181596
-0.178555
-0.175504
-0.172441
-0.169369
-0.166287
-0.163197
-0.160101
-0.156998
-0.153889
-0.150776
-0.147659
-0.144541
-0.141421
-0.138302
-0.135182
-0.132065
-0.128951
-0.125842
-0.122740
-0.119643
-0.116555
-0.113478
-0.110410
-0.107355
-0.104314
-0.101290
-0.098280
-0.095288
-0.092317
-0.089366
-0.086438
-0.083534
-0.080655
-0.077803
-0.074979
-0.072186
-0.069424
-0.066694
-0.064000
-0.061341
-0.058720
-0.056138
-0.053595
-0.051095
-0.048638
-0.046225
-0.043859
-0.041539
-0.039268
-0.037046
-0.034876
-0.032757
-0.030691
-0.028681
-0.026725
-0.024825
-0.022982
-0.021198
-0.019470
-0.017803
-0.016196
-0.014649
-0.013163
-0.011739
-0.010375
-0.009073
-0.007833
-0.006656
-0.005539
-0.004485
-0.003491
-0.002558
-0.001687
-0.000875
-0.196778
-0.000004
-0.000759
-0.001573
-0.002447
-0.003381
-0.004378
-0.005434
-0.006554
-0.007735
-0.008978
-0.010283
-0.011649
-0.013078
-0.014567
-0.016119
-0.017730
-0.019400
-0.021130
-0.022920
-0.024767
-0.026671
-0.028630
-0.030646
-0.032716
-0.034838
-0.037014
-0.039239
-0.041515
-0.043839
-0.046210
-0.048628
-0.051089
-0.053594
-0.056141
-0.058728
-0.061354
-0.064017
-0.066717
-0.069450
-0.072217
-0.075015
-0.077843
-0.080700
-0.083583
-0.086491
-0.089424
-0.092379
-0.095355
-0.098351
-0.101364
-0.104394
-0.107439
-0.110498
-0.113569
-0.116651
-0.119743
-0.122843
-0.125949
-0.129062
-0.132180
-0.135300
-0.138422
-0.141546
-0.144669
-0.147792
-0.150910
-0.154027
-0.157138
-0.160245
-0.163345
-0.166437
-0.169521
-0.172597
-0.175662
-0.178716
-0.181759
-0.184790
-0.187809
-0.190812
-0.193803
-0.196762
-0.196745
-0.196729
-0.196711
-0.196694
-0.196677
-0.196659
-0.196640
-0.196622
-0.000100
-0.000079
-0.000060
-0.000045
-0.000032
-0.000021
-0.000014
-0.000008
-0.000005
-0.000759
-0.000762
-0.000767
-0.000774
-0.000785
-0.000798
-0.000813
-0.000832
-0.000851
-0.001572
-0.001575
-0.001580
-0.001587
-0.001598
-0.001609
-0.001625
-0.001643
-0.001665
-0.002446
-0.002448
-0.002453
-0.002460
-0.002469
-0.002482
-0.002498
-0.002516
-0.002536
-0.003381
-0.003382
-0.003387
-0.003393
-0.003403
-0.003415
-0.003431
-0.003448
-0.003468
-0.004376
-0.004378
-0.004382
-0.004388
-0.004397
-0.004410
-0.004425
-0.004441
-0.004462
-0.005434
-0.005434
-0.005439
-0.005445
-0.005454
-0.005465
-0.005480
-0.005497
-0.005517
-0.006552
-0.006553
-0.006557
-0.006563
-0.006572
-0.006583
-0.006597
-0.006614
-0.006633
-0.007733
-0.007733
-0.007737
-0.007743
-0.007751
-0.007762
-0.007776
-0.007793
-0.007811
-0.008976
-0.008976
-0.008978
-0.008984
-0.008993
-0.009003
-0.009017
-0.009033
-0.009052
-0.010280
-0.010280
-0.010283
-0.010288
-0.010296
-0.010307
-0.010319
-0.010336
-0.010354
-0.011647
-0.011646
-0.011649
-0.011653
-0.011661
-0.011671
-0.011684
-0.011699
-0.011717
-0.013074
-0.013074
-0.013076
-0.013080
-0.013087
-0.013098
-0.013111
-0.013125
-0.013143
-0.014564
-0.014563
-0.014565
-0.014569
-0.014575
-0.014585
-0.014597
-0.014612
-0.014629
-0.016114
-0.016113
-0.016114
-0.016118
-0.016125
-0.016134
-0.016145
-0.016160
-0.016177
-0.017725
-0.017724
-0.017724
-0.017728
-0.017734
-0.017743
-0.017754
-0.017768
-0.017785
-0.019395
-0.019394
-0.019394
-0.019397
-0.019404
-0.019411
-0.019422
-0.019437
-0.019453
-0.021126
-0.021124
-0.021124
-0.021126
-0.021132
-0.021140
-0.021150
-0.021164
-0.021179
-0.022914
-0.022912
-0.022912
-0.022914
-0.022919
-0.022927
-0.022937
-0.022949
-0.022965
-0.024761
-0.024758
-0.024758
-0.024760
-0.024764
-0.024771
-0.024781
-0.024793
-0.024808
-0.026665
-0.026661
-0.026661
-0.026662
-0.026666
-0.026673
-0.026683
-0.026694
-0.026708
-0.028625
-0.028621
-0.028620
-0.028621
-0.028625
-0.028631
-0.028640
-0.028651
-0.028665
-0.030640
-0.030635
-0.030634
-0.030635
-0.030638
-0.030644
-0.030653
-0.030663
-0.030676
-0.032709
-0.032705
-0.032703
-0.032703
-0.032706
-0.032711
-0.032719
-0.032730
-0.032742
-0.034831
-0.034827
-0.034824
-0.034825
-0.034828
-0.034832
-0.034839
-0.034849
-0.034861
-0.037006
-0.037001
-0.036999
-0.036998
-0.037001
-0.037005
-0.037012
-0.037021
-0.037033
-0.039232
-0.039226
-0.039224
-0.039223
-0.039224
-0.039229
-0.039235
-0.039244
-0.039254
-0.041507
-0.041502
-0.041498
-0.041497
-0.041499
-0.041502
-0.041508
-0.041516
-0.041527
-0.043831
-0.043825
-0.043822
-0.043820
-0.043821
-0.043824
-0.043829
-0.043837
-0.043847
-0.046203
-0.046196
-0.046192
-0.046190
-0.046190
-0.046193
-0.046198
-0.046204
-0.046214
-0.048618
-0.048613
-0.048608
-0.048606
-0.048606
-0.048608
-0.048612
-0.048618
-0.048627
-0.051081
-0.051073
-0.051069
-0.051067
-0.051066
-0.051067
-0.051072
-0.051077
-0.051085
-0.053585
-0.053578
-0.053573
-0.053570
-0.053569
-0.053570
-0.053574
-0.053579
-0.053587
-0.056132
-0.056124
-0.056118
-0.056115
-0.056114
-0.056115
-0.056117
-0.056122
-0.056129
-0.058719
-0.058711
-0.058706
-0.058701
-0.058699
-0.058700
-0.058701
-0.058705
-0.058712
-0.061344
-0.061336
-0.061330
-0.061325
-0.061324
-0.061323
-0.061325
-0.061328
-0.061334
-0.064007
-0.063998
-0.063992
-0.063988
-0.063985
-0.063985
-0.063985
-0.063989
-0.063993
-0.066706
-0.066698
-0.066691
-0.066686
-0.066683
-0.066681
-0.066681
-0.066684
-0.066689
-0.069439
-0.069431
-0.069424
-0.069418
-0.069415
-0.069413
-0.069413
-0.069415
-0.069419
-0.072206
-0.072197
-0.072189
-0.072184
-0.072180
-0.072178
-0.072177
-0.072178
-0.072182
-0.075004
-0.074994
-0.074987
-0.074981
-0.074977
-0.074974
-0.074973
-0.074973
-0.074976
-0.077832
-0.077822
-0.077814
-0.077807
-0.077802
-0.077800
-0.077797
-0.077798
-0.077800
-0.080687
-0.080677
-0.080670
-0.080662
-0.080657
-0.080654
-0.080652
-0.080651
-0.080652
-0.083571
-0.083561
-0.083552
-0.083545
-0.083539
-0.083535
-0.083532
-0.083532
-0.083532
-0.086479
-0.086469
-0.086460
-0.086452
-0.086447
-0.086441
-0.086438
-0.086437
-0.086437
-0.089412
-0.089401
-0.089392
-0.089383
-0.089377
-0.089372
-0.089369
-0.089366
-0.089365
-0.092366
-0.092356
-0.092346
-0.092338
-0.092331
-0.092325
-0.092321
-0.092318
-0.092317
-0.095342
-0.095331
-0.095321
-0.095313
-0.095305
-0.095299
-0.095294
-0.095291
-0.095289
-0.098337
-0.098327
-0.098316
-0.098306
-0.098299
-0.098293
-0.098287
-0.098284
-0.098281
-0.101351
-0.101339
-0.101329
-0.101319
-0.101311
-0.101304
-0.101299
-0.101294
-0.101291
-0.104381
-0.104369
-0.104358
-0.104348
-0.104340
-0.104332
-0.104326
-0.104321
-0.104318
-0.107425
-0.107414
-0.107402
-0.107392
-0.107383
-0.107376
-0.107369
-0.107363
-0.107359
-0.110484
-0.110472
-0.110461
-0.110450
-0.110441
-0.110432
-0.110425
-0.110419
-0.110414
-0.113555
-0.113542
-0.113531
-0.113521
-0.113510
-0.113502
-0.113495
-0.113488
-0.113482
-0.116638
-0.116624
-0.116613
-0.116601
-0.116591
-0.116582
-0.116574
-0.116567
-0.116560
-0.119729
-0.119715
-0.119703
-0.119692
-0.119681
-0.119672
-0.119664
-0.119655
-0.119649
-0.122828
-0.122815
-0.122803
-0.122791
-0.122780
-0.122770
-0.122762
-0.122753
-0.122746
-0.125935
-0.125922
-0.125909
-0.125897
-0.125886
-0.125875
-0.125867
-0.125857
-0.125850
-0.129048
-0.129033
-0.129021
-0.129009
-0.128997
-0.128987
-0.128977
-0.128968
-0.128960
-0.132165
-0.132151
-0.132139
-0.132126
-0.132114
-0.132102
-0.132092
-0.132083
-0.132073
-0.135285
-0.135271
-0.135258
-0.135246
-0.135233
-0.135222
-0.135211
-0.135201
-0.135191
-0.138407
-0.138394
-0.138379
-0.138367
-0.138355
-0.138342
-0.138332
-0.138320
-0.138310
-0.141531
-0.141517
-0.141503
-0.141490
-0.141476
-0.141464
-0.141453
-0.141441
-0.141431
-0.144655
-0.144639
-0.144625
-0.144612
-0.144599
-0.144587
-0.144575
-0.144563
-0.144551
-0.147776
-0.147761
-0.147746
-0.147733
-0.147719
-0.147707
-0.147695
-0.147683
-0.147670
-0.150895
-0.150881
-0.150866
-0.150852
-0.150838
-0.150825
-0.150812
-0.150799
-0.150787
-0.154011
-0.153996
-0.153981
-0.153967
-0.153954
-0.153940
-0.153927
-0.153914
-0.153901
-0.157122
-0.157108
-0.157094
-0.157079
-0.157064
-0.157050
-0.157036
-0.157024
-0.157010
-0.160229
-0.160214
-0.160199
-0.160184
-0.160170
-0.160155
-0.160141
-0.160127
-0.160113
-0.163329
-0.163314
-0.163298
-0.163283
-0.163268
-0.163254
-0.163239
-0.163225
-0.163210
-0.166422
-0.166405
-0.166390
-0.166375
-0.166360
-0.166345
-0.166330
-0.166316
-0.166301
-0.169505
-0.169490
-0.169474
-0.169458
-0.169442
-0.169428
-0.169413
-0.169398
-0.169383
-0.172581
-0.172564
-0.172549
-0.172533
-0.172517
-0.172502
-0.172487
-0.172471
-0.172455
-0.175645
-0.175630
-0.175614
-0.175598
-0.175582
-0.175567
-0.175550
-0.175535
-0.175519
-0.178701
-0.178685
-0.178668
-0.178652
-0.178636
-0.178620
-0.178604
-0.178588
-0.178571
-0.181744
-0.181728
-0.181711
-0.181695
-0.181679
-0.181663
-0.181645
-0.181629
-0.181613
-0.184774
-0.184758
-0.184741
-0.184725
-0.184709
-0.184692
-0.184675
-0.184658
-0.184642
-0.187792
-0.187776
-0.187759
-0.187743
-0.187726
-0.187709
-0.187692
-0.187675
-0.187658
-0.190796
-0.190780
-0.190763
-0.190747
-0.190730
-0.190712
-0.190695
-0.190678
-0.190660
-0.193787
-0.193771
-0.193753
-0.193736
-0.193719
-0.193702
-0.193684
-0.193666
-0.193649
SCALARS strain_2 float
LOOKUP_TABLE default
0.002324
0.001310
0.001307
0.001307
0.001310
0.001310
0.001305
0.001310
0.001310
0.001311
0.001310
0.001313
0.001313
0.001313
0.001316
0.001322
0.001321
0.001323
0.001327
0.001330
0.001333
0.001336
0.001343
0.001345
0.001353
0.001354
0.001362
0.001365
0.001369
0.001376
0.001386
0.001390
0.001401
0.001406
0.001412
0.001417
0.001432
0.001442
0.001451
0.001455
0.001473
0.001485
0.001494
0.001504
0.001516
0.001529
0.001541
0.001557
0.001570
0.001582
0.001603
0.001619
0.001632
0.001649
0.001668
0.001686
0.001702
0.001724
0.001741
0.001762
0.001784
0.001809
0.001825
0.001844
0.001871
0.001896
0.001916
0.001943
0.001962
0.001990
0.002016
0.002044
0.002070
0.002094
0.002123
0.002148
0.002180
0.002208
0.002238
0.002263
0.002298
0.004687
0.004756
0.004757
0.004759
0.004763
0.004765
0.004768
0.004776
0.004775
0.004780
0.004782
0.004784
0.004788
0.004788
0.004795
0.004797
0.004796
0.004799
0.004805
0.004804
0.004808
0.004806
0.004809
0.004810
0.004810
0.004816
0.004817
0.004815
0.004817
0.004821
0.004823
0.004825
0.004826
0.004822
0.004824
0.004823
0.004824
0.004827
0.004825
0.004824
0.004825
0.004826
0.004824
0.004826
0.004825
0.004825
0.004820
0.004816
0.004820
0.004819
0.004814
0.004812
0.004811
0.004804
0.004806
0.004801
0.004797
0.004801
0.004797
0.004791
0.004793
0.004786
0.004782
0.004779
0.004777
0.004770
0.004769
0.004765
0.004759
0.004757
0.004752
0.004748
0.004738
0.004734
0.004729
0.004726
0.004719
0.004708
0.004709
0.004701
0.004699
0.004355
0.004015
0.003675
0.003337
0.002995
0.002662
0.002324
0.001984
0.001650
0.002570
0.002813
0.003055
0.003301
0.003546
0.003786
0.004029
0.004268
0.004507
0.004512
0.004266
0.004019
0.003777
0.003525
0.003280
0.003033
0.002790
0.002545
0.004509
0.004259
0.004014
0.003764
0.003513
0.003265
0.003015
0.002768
0.002519
0.004509
0.004258
0.004004
0.003752
0.003501
0.003249
0.002999
0.002742
0.002490
0.004509
0.004254
0.003997
0.003744
0.003488
0.003232
0.002977
0.002717
0.002465
0.004510
0.004251
0.003995
0.003732
0.003475
0.003216
0.002955
0.002697
0.002441
0.004512
0.004248
0.003987
0.003720
0.003462
0.003200
0.002939
0.002673
0.002416
0.004510
0.004246
0.003981
0.003713
0.003451
0.003184
0.002918
0.002654
0.002393
0.004512
0.004242
0.003976
0.003704
0.003434
0.003168
0.002901
0.002636
0.002367
0.004509
0.004240
0.003967
0.003698
0.003426
0.003158
0.002884
0.002612
0.002338
0.004512
0.004236
0.003957
0.003690
0.003416
0.003137
0.002867
0.002593
0.002316
0.004509
0.004234
0.003955
0.003677
0.003400
0.003127
0.002849
0.002572
0.002295
0.004508
0.004230
0.003950
0.003668
0.003391
0.003111
0.002829
0.002548
0.002272
0.004511
0.004229
0.003947
0.003664
0.003381
0.003096
0.002814
0.002531
0.002250
0.004515
0.004224
0.003941
0.003655
0.003369
0.003083
0.002798
0.002512
0.002226
0.004509
0.004223
0.003936
0.003645
0.003353
0.003070
0.002780
0.002495
0.002203
0.004513
0.004219
0.003928
0.003635
0.003348
0.003057
0.002765
0.002477
0.002183
0.004508
0.004217
0.003922
0.003630
0.003336
0.003043
0.002748
0.002455
0.002162
0.004508
0.004214
0.003915
0.003620
0.003325
0.003028
0.002735
0.002439
0.002141
0.004512
0.004212
0.003915
0.003613
0.003315
0.003020
0.002719
0.002424
0.002122
0.004507
0.004208
0.003906
0.003610
0.003308
0.003009
0.002709
0.002404
0.002104
0.004508
0.004201
0.003902
0.003600
0.003297
0.002994
0.002693
0.002388
0.002086
0.004509
0.004203
0.003894
0.003590
0.003287
0.002984
0.002677
0.002377
0.002069
0.004510
0.004198
0.003894
0.003584
0.003276
0.002973
0.002665
0.002358
0.002052
0.004504
0.004196
0.003889
0.003579
0.003269
0.002959
0.002652
0.002340
0.002033
0.004505
0.004194
0.003881
0.003571
0.003260
0.002954
0.002639
0.002332
0.002012
0.004508
0.004192
0.003878
0.003565
0.003252
0.002939
0.002628
0.002310
0.001997
0.004506
0.004187
0.003874
0.003557
0.003245
0.002929
0.002614
0.002297
0.001982
0.004502
0.004186
0.003872
0.003553
0.003234
0.002921
0.002606
0.002285
0.001965
0.004506
0.004182
0.003867
0.003548
0.003228
0.002909
0.002587
0.002272
0.001953
0.004501
0.004183
0.003859
0.003540
0.003221
0.002898
0.002579
0.002257
0.001938
0.004505
0.004184
0.003857
0.003533
0.003213
0.002890
0.002566
0.002245
0.001920
0.004498
0.004177
0.003851
0.003531
0.003208
0.002880
0.002556
0.002236
0.001907
0.004501
0.004172
0.003850
0.003523
0.003200
0.002873
0.002545
0.002217
0.001896
0.004496
0.004171
0.003846
0.003519
0.003190
0.002868
0.002537
0.002212
0.001886
0.004498
0.004168
0.003839
0.003512
0.003181
0.002852
0.002527
0.002195
0.001871
0.004497
0.004165
0.003838
0.003507
0.003178
0.002848
0.002519
0.002190
0.001861
0.004495
0.004164
0.003830
0.003503
0.003175
0.002843
0.002509
0.002181
0.001847
0.004494
0.004163
0.003830
0.003503
0.003165
0.002836
0.002501
0.002166
0.001836
0.004489
0.004154
0.003827
0.003494
0.003162
0.002825
0.002493
0.002156
0.001826
0.004489
0.004155
0.003825
0.003485
0.003153
0.002817
0.002484
0.002150
0.001813
0.004487
0.004156
0.003822
0.003484
0.003149
0.002811
0.002477
0.002139
0.001805
0.004487
0.004152
0.003815
0.003480
0.003143
0.002809
0.002469
0.002130
0.001796
0.004483
0.004148
0.003815
0.003475
0.003134
0.002801
0.002461
0.002119
0.001788
0.004486
0.004141
0.003809
0.003466
0.003131
0.002794
0.002455
0.002114
0.001780
0.004484
0.004142
0.003803
0.003462
0.003128
0.002786
0.002448
0.002104
0.001768
0.004477
0.004140
0.003802
0.003463
0.003122
0.002781
0.002439
0.002101
0.001763
0.004477
0.004137
0.003797
0.003458
0.003114
0.002779
0.002435
0.002094
0.001755
0.004478
0.004135
0.003794
0.003453
0.003111
0.002772
0.002425
0.002087
0.001746
0.004475
0.004132
0.003789
0.003447
0.003110
0.002765
0.002421
0.002081
0.001738
0.004472
0.004131
0.003789
0.003444
0.003097
0.002762
0.002420
0.002075
0.001734
0.004468
0.004124
0.003784
0.003440
0.003100
0.002752
0.002411
0.002069
0.001728
0.004465
0.004118
0.003778
0.003435
0.003094
0.002749
0.002409
0.002066
0.001720
0.004464
0.004121
0.003779
0.003432
0.003086
0.002748
0.002404
0.002058
0.001717
0.004459
0.004119
0.003771
0.003431
0.003090
0.002742
0.002395
0.002057
0.001709
0.004455
0.004115
0.003771
0.003424
0.003082
0.002735
0.002394
0.002045
0.001703
0.004455
0.004113
0.003766
0.003424
0.003077
0.002732
0.002386
0.002042
0.001701
0.004451
0.004111
0.003761
0.003415
0.003073
0.002729
0.002379
0.002038
0.001698
0.004447
0.004108
0.003759
0.003416
0.003070
0.002724
0.002381
0.002036
0.001689
0.004443
0.004101
0.003755
0.003411
0.003063
0.002721
0.002376
0.002031
0.001687
0.004444
0.004098
0.003752
0.003405
0.003063
0.002715
0.002374
0.002027
0.001680
0.004436
0.004094
0.003750
0.003402
0.003056
0.002715
0.002368
0.002023
0.001680
0.004434
0.004087
0.003743
0.003403
0.003056
0.002712
0.002368
0.002025
0.001673
0.004432
0.004085
0.003740
0.003398
0.003051
0.002710
0.002359
0.002017
0.001670
0.004430
0.004084
0.003737
0.003395
0.003049
0.002704
0.002358
0.002014
0.001669
0.004424
0.004078
0.003734
0.003389
0.003043
0.002702
0.002358
0.002010
0.001667
0.004419
0.004079
0.003731
0.003385
0.003041
0.002694
0.002351
0.002011
0.001664
0.004416
0.004072
0.003727
0.003384
0.003040
0.002698
0.002346
0.002010
0.001662
0.004411
0.004068
0.003722
0.003378
0.003034
0.002692
0.002344
0.002002
0.001659
0.004407
0.004064
0.003723
0.003377
0.003034
0.002689
0.002346
0.001999
0.001655
0.004402
0.004057
0.003716
0.003372
0.003032
0.002686
0.002342
0.002002
0.001655
0.004397
0.004056
0.003713
0.003366
0.003024
0.002680
0.002340
0.001999
0.001654
0.004390
0.004050
0.003707
0.003369
0.003023
0.002681
0.002338
0.001994
0.001654
0.004388
0.004045
0.003707
0.003358
0.003018
0.002680
0.002340
0.001996
0.001653
0.004386
0.004040
0.003704
0.003359
0.003013
0.002674
0.002330
0.001990
0.001651
0.004378
0.004042
0.003694
0.003358
0.003014
0.002673
0.002331
0.001989
0.001647
0.004374
0.004034
0.003691
0.003348
0.003010
0.002667
0.002326
0.001990
0.001647
0.004367
0.004030
0.003687
0.003349
0.003007
0.002669
0.002328
0.001989
0.001646
0.004362
0.004022
0.003686
0.003341
0.003010
0.002659
0.002326
0.001987
0.001644
0.004355
0.004017
0.003679
0.003339
0.003001
0.002662
0.002326
0.001984
0.001651
SCALARS strain_3 float
LOOKUP_TABLE default
0.001001
0.065353
0.064433
0.063507
0.062572
0.061634
0.060694
0.059745
0.058797
0.057843
0.056884
0.055923
0.054957
0.053991
0.053021
0.052045
0.051071
0.050093
0.049115
0.048135
0.047152
0.046170
0.045184
0.044204
0.043222
0.042240
0.041261
0.040282
0.039304
0.038327
0.037354
0.036387
0.035418
0.034457
0.033499
0.032544
0.031596
0.030653
0.029715
0.028785
0.027861
0.026946
0.026036
0.025138
0.024244
0.023362
0.022490
0.021628
0.020775
0.019933
0.019100
0.018284
0.017480
0.016687
0.015906
0.015140
0.014388
0.013650
0.012928
0.012219
0.011526
0.010848
0.010187
0.009543
0.008915
0.008305
0.007711
0.007138
0.006576
0.006039
0.005516
0.005013
0.004528
0.004061
0.003613
0.003183
0.002772
0.002381
0.002007
0.001653
0.001315
0.063681
-0.000532
-0.000226
0.000096
0.000441
0.000802
0.001178
0.001580
0.001996
0.002436
0.002892
0.003364
0.003859
0.004371
0.004904
0.005451
0.006017
0.006604
0.007207
0.007828
0.008466
0.009118
0.009789
0.010476
0.011177
0.011896
0.012629
0.013375
0.014138
0.014914
0.015701
0.016504
0.017319
0.018146
0.018985
0.019836
0.020695
0.021567
0.022446
0.023339
0.024237
0.025146
0.026061
0.026984
0.027915
0.028853
0.029796
0.030747
0.031699
0.032660
0.033622
0.034592
0.035562
0.036537
0.037515
0.038496
0.039479
0.040461
0.041446
0.042431
0.043416
0.044404
0.045393
0.046372
0.047362
0.048343
0.049324
0.050304
0.051282
0.052257
0.053229
0.054199
0.055164
0.056128
0.057089
0.058044
0.058996
0.059940
0.060884
0.061823
0.062754
0.063852
0.064016
0.064184
0.064351
0.064521
0.064687
0.064854
0.065022
0.065188
0.000842
0.000686
0.000532
0.000378
0.000225
0.000071
-0.000081
-0.000231
-0.000382
-0.000075
0.000074
0.000227
0.000383
0.000535
0.000691
0.000845
0.001001
0.001158
0.000248
0.000400
0.000556
0.000709
0.000865
0.001023
0.001179
0.001334
0.001493
0.000593
0.000747
0.000901
0.001055
0.001214
0.001371
0.001527
0.001688
0.001846
0.000956
0.001110
0.001267
0.001423
0.001580
0.001738
0.001896
0.002057
0.002220
0.001336
0.001490
0.001650
0.001806
0.001967
0.002126
0.002287
0.002449
0.002611
0.001737
0.001893
0.002051
0.002212
0.002371
0.002531
0.002696
0.002857
0.003016
0.002156
0.002312
0.002474
0.002635
0.002796
0.002956
0.003118
0.003282
0.003449
0.002593
0.002751
0.002912
0.003074
0.003237
0.003401
0.003564
0.003730
0.003894
0.003050
0.003212
0.003375
0.003534
0.003699
0.003862
0.004026
0.004195
0.004361
0.003526
0.003690
0.003853
0.004014
0.004180
0.004343
0.004511
0.004678
0.004845
0.004022
0.004186
0.004348
0.004514
0.004677
0.004844
0.005011
0.005180
0.005347
0.004535
0.004698
0.004865
0.005027
0.005193
0.005362
0.005531
0.005700
0.005867
0.005066
0.005230
0.005396
0.005565
0.005731
0.005898
0.006067
0.006237
0.006408
0.005616
0.005780
0.005949
0.006118
0.006283
0.006455
0.006624
0.006793
0.006964
0.006186
0.006350
0.006519
0.006686
0.006856
0.007026
0.007197
0.007368
0.007538
0.006769
0.006938
0.007108
0.007275
0.007444
0.007617
0.007788
0.007960
0.008132
0.007373
0.007543
0.007711
0.007881
0.008051
0.008224
0.008393
0.008568
0.008741
0.007993
0.008164
0.008335
0.008504
0.008675
0.008848
0.009020
0.009195
0.009368
0.008634
0.008803
0.008974
0.009146
0.009318
0.009490
0.009661
0.009839
0.010012
0.009288
0.009459
0.009629
0.009801
0.009975
0.010145
0.010322
0.010496
0.010672
0.009961
0.010131
0.010301
0.010476
0.010650
0.010822
0.010994
0.011172
0.011351
0.010646
0.010819
0.010992
0.011165
0.011338
0.011513
0.011688
0.011862
0.012041
0.011350
0.011522
0.011695
0.011870
0.012042
0.012220
0.012394
0.012571
0.012749
0.012068
0.012239
0.012415
0.012591
0.012762
0.012938
0.013117
0.013295
0.013471
0.012800
0.012975
0.013148
0.013325
0.013500
0.013676
0.013853
0.014030
0.014209
0.013549
0.013722
0.013898
0.014074
0.014249
0.014426
0.014606
0.014782
0.014962
0.014314
0.014488
0.014661
0.014837
0.015013
0.015193
0.015370
0.015549
0.015726
0.015087
0.015263
0.015438
0.015613
0.015793
0.015970
0.016147
0.016327
0.016506
0.015876
0.016054
0.016228
0.016405
0.016581
0.016762
0.016940
0.017120
0.017297
0.016682
0.016856
0.017032
0.017211
0.017387
0.017564
0.017745
0.017923
0.018105
0.017495
0.017672
0.017847
0.018024
0.018202
0.018383
0.018561
0.018742
0.018922
0.018321
0.018499
0.018677
0.018852
0.019033
0.019212
0.019391
0.019572
0.019752
0.019160
0.019338
0.019515
0.019694
0.019873
0.020051
0.020232
0.020412
0.020592
0.020012
0.020188
0.020366
0.020548
0.020723
0.020904
0.021083
0.021264
0.021445
0.020872
0.021051
0.021229
0.021408
0.021584
0.021766
0.021945
0.022126
0.022309
0.021745
0.021919
0.022099
0.022279
0.022457
0.022638
0.022817
0.022999
0.023179
0.022626
0.022803
0.022983
0.023161
0.023339
0.023520
0.023700
0.023881
0.024066
0.023515
0.023692
0.023871
0.024050
0.024231
0.024412
0.024591
0.024773
0.024954
0.024415
0.024593
0.024771
0.024951
0.025132
0.025311
0.025492
0.025672
0.025853
0.025323
0.025502
0.025680
0.025860
0.026040
0.026219
0.026401
0.026582
0.026762
0.026241
0.026415
0.026596
0.026778
0.026956
0.027135
0.027319
0.027497
0.027680
0.027162
0.027340
0.027523
0.027699
0.027878
0.028061
0.028240
0.028421
0.028603
0.028093
0.028273
0.028450
0.028630
0.028811
0.028991
0.029169
0.029353
0.029536
0.029031
0.029209
0.029388
0.029568
0.029749
0.029928
0.030110
0.030291
0.030472
0.029974
0.030151
0.030332
0.030513
0.030692
0.030872
0.031052
0.031233
0.031414
0.030926
0.031103
0.031280
0.031460
0.031640
0.031819
0.032000
0.032183
0.032363
0.031878
0.032057
0.032235
0.032415
0.032595
0.032775
0.032956
0.033136
0.033320
0.032837
0.033016
0.033196
0.033375
0.033554
0.033736
0.033913
0.034096
0.034277
0.033802
0.033979
0.034159
0.034338
0.034516
0.034697
0.034876
0.035056
0.035237
0.034770
0.034949
0.035128
0.035305
0.035485
0.035664
0.035845
0.036025
0.036204
0.035741
0.035920
0.036099
0.036276
0.036457
0.036634
0.036814
0.036995
0.037174
0.036715
0.036894
0.037074
0.037251
0.037429
0.037607
0.037788
0.037970
0.038147
0.037694
0.037872
0.038049
0.038228
0.038407
0.038585
0.038765
0.038943
0.039122
0.038673
0.038851
0.039028
0.039209
0.039383
0.039563
0.039743
0.039921
0.040100
0.039655
0.039831
0.040011
0.040189
0.040366
0.040545
0.040723
0.040901
0.041082
0.040638
0.040813
0.040994
0.041169
0.041346
0.041527
0.041705
0.041880
0.042062
0.041620
0.041799
0.041976
0.042152
0.042332
0.042511
0.042688
0.042866
0.043044
0.042607
0.042786
0.042962
0.043135
0.043316
0.043493
0.043672
0.043849
0.044026
0.043593
0.043769
0.043947
0.044123
0.044300
0.044477
0.044653
0.044830
0.045012
0.044579
0.044757
0.044932
0.045110
0.045285
0.045463
0.045635
0.045813
0.045994
0.045563
0.045740
0.045918
0.046092
0.046269
0.046446
0.046621
0.046798
0.046976
0.046551
0.046726
0.046901
0.047077
0.047254
0.047428
0.047605
0.047782
0.047957
0.047536
0.047708
0.047884
0.048060
0.048237
0.048409
0.048586
0.048763
0.048938
0.048517
0.048692
0.048867
0.049042
0.049218
0.049391
0.049568
0.049743
0.049919
0.049499
0.049671
0.049846
0.050023
0.050198
0.050372
0.050545
0.050721
0.050895
0.050477
0.050651
0.050825
0.051001
0.051176
0.051349
0.051524
0.051697
0.051872
0.051455
0.051628
0.051802
0.051975
0.052149
0.052323
0.052497
0.052671
0.052846
0.052431
0.052606
0.052777
0.052950
0.053124
0.053297
0.053471
0.053643
0.053816
0.053402
0.053574
0.053747
0.053919
0.054096
0.054267
0.054440
0.054612
0.054786
0.054371
0.054542
0.054716
0.054888
0.055060
0.055232
0.055408
0.055578
0.055752
0.055337
0.055507
0.055682
0.055853
0.056023
0.056198
0.056369
0.056543
0.056713
0.056300
0.056472
0.056644
0.056815
0.056985
0.057157
0.057328
0.057499
0.057671
0.057259
0.057429
0.057603
0.057772
0.057942
0.058115
0.058284
0.058457
0.058627
0.058214
0.058384
0.058558
0.058724
0.058898
0.059069
0.059237
0.059406
0.059577
0.059164
0.059333
0.059505
0.059673
0.059846
0.060014
0.060185
0.060355
0.060526
0.060111
0.060281
0.060450
0.060621
0.060789
0.060957
0.061127
0.061296
0.061470
0.061054
0.061224
0.061390
0.061558
0.061730
0.061898
0.062066
0.062235
0.062404
0.061991
0.062161
0.062327
0.062496
0.062664
0.062834
0.063000
0.063167
0.063336
0.062923
0.063092
0.063257
0.063428
0.063594
0.063761
0.063929
0.064097
0.064265
SCALARS stress_1 float
LOOKUP_TABLE default
14680.899575
-14718145.673800
-14495433.152570
-14271536.756340
-14046637.110110
-13820670.463881
-13593754.942651
-13365953.671421
-13137237.275192
-12907775.503962
-12677500.732732
-12446667.086503
-12215124.565273
-11983062.794043
-11750535.897814
-11517572.751584
-11284307.480354
-11050773.459125
-10817046.187895
-10583224.166665
-10349407.645436
-10115691.499206
-9882057.602976
-9648731.956747
-9415711.685517
-9183091.539287
-8951066.893058
-8719591.996828
-8488925.100598
-8258993.454369
-8030041.058139
-7802086.036909
-7575249.390680
-7349705.494450
-7125476.848220
-6902696.451991
-6681517.930761
-6462015.909531
-6244226.513302
-6028417.492072
-5814574.595842
-5602927.324612
-5393449.178383
-5186331.782153
-4981683.135923
-4779607.489694
-4580258.343464
-4383692.572234
-4190063.676005
-3999418.154775
-3811864.008545
-3627557.737316
-3446618.091086
-3269114.444856
-3095116.298627
-2924722.152397
-2758056.881167
-2595225.109938
-2436300.463708
-2281320.567478
-2130449.671249
-1983630.650019
-1841124.003789
-1702786.482560
-1568776.961330
-1439197.065100
-1314024.418871
-1193399.772641
-1077251.376411
-965603.105182
-858586.208952
-756181.687722
-658386.541493
-565220.645263
-476710.249033
-392780.977804
-313472.081574
-238783.310344
-168596.664114
-103052.767885
-41966.746655
-14696575.644143
53059.554231
-3432.716999
-64378.863228
-129842.259458
-199885.530688
-274482.051917
-353738.323147
-437539.094377
-526041.615606
-619197.136836
-716989.533066
-819430.929295
-926445.200525
-1038065.721755
-1154264.992984
-1275006.264214
-1400192.035444
-1529969.181673
-1664004.952903
-1802456.974133
-1945121.620362
-2092040.016592
-2243077.787822
-2398272.434051
-2557374.080281
-2720429.101511
-2887209.997740
-3057780.143970
-3232034.290200
-3409745.186430
-3590977.582659
-3775456.228889
-3963280.375119
-4154177.896348
-4348062.292578
-4544927.813808
-4744573.710037
-4946898.231267
-5151809.252497
-5359209.648726
-5568969.669956
-5780962.566186
-5995123.587415
-6211231.108645
-6429338.504875
-6649160.651104
-6870664.672334
-7093762.443564
-7318314.089793
-7544188.611023
-7771297.007253
-7999576.778482
-8228877.299712
-8459145.820942
-8690153.342171
-8921914.488401
-9154307.384631
-9387219.030860
-9620543.927090
-9854196.323320
-10088128.219549
-10322207.115779
-10556360.137009
-10790494.033238
-11024532.804468
-11258384.325698
-11491963.846928
-11725205.368157
-11958029.139387
-12190410.660617
-12422213.556846
-12653432.578076
-12883937.724306
-13113692.620535
-13342671.516765
-13570797.537995
-13797997.059224
-14024194.080454
-14249467.476684
-14473545.497913
-14698817.059609
-14701017.475074
-14703240.265540
-14705431.306006
-14707625.846471
-14709748.636937
-14711914.427403
-14714000.717868
-14716094.758334
19389.690040
23866.730506
28196.520972
32323.686437
36240.351903
39964.892368
43487.807834
46850.723300
50013.388765
-6406.632464
-9609.172930
-13042.213396
-16542.128861
-20295.169327
-24244.209793
-28411.375258
-32714.790724
-37278.581189
-67384.278694
-70594.319160
-73965.859625
-77527.150091
-81349.440557
-85290.606022
-89458.271488
-93741.061954
-98350.102419
-132871.424924
-136077.465389
-139469.005855
-143051.796321
-146856.711786
-150833.877252
-155007.542718
-159338.333183
-163889.373649
-202952.071153
-206112.236619
-209507.527085
-213089.692550
-216893.608016
-220940.898482
-225069.938947
-229455.104413
-234037.894879
-277510.342383
-280730.632849
-284148.798314
-287753.463780
-291556.754246
-295516.419711
-299755.335177
-304145.375643
-308698.416108
-356729.988613
-359942.279078
-363386.819544
-367027.110010
-370809.775475
-374839.315941
-378991.856407
-383398.521872
-387986.062338
-440589.634842
-443860.050308
-447225.715774
-450838.006239
-454671.046705
-458709.712171
-462943.377636
-467287.793102
-471887.583568
-529071.406072
-532351.571538
-535750.862003
-539358.152469
-543212.817935
-547217.733400
-551442.273866
-555813.314332
-560417.729797
-622246.677302
-625500.842767
-628943.008233
-632544.798699
-636355.089164
-640330.379630
-644559.920096
-648997.335561
-653610.751027
-720035.948531
-723242.738997
-726702.904463
-730312.069928
-734116.360394
-738148.275860
-742393.191325
-746747.731791
-751362.522257
-822428.469761
-825611.260227
-829121.800692
-832680.716158
-836564.256624
-840563.172089
-844826.087555
-849183.753021
-853803.793486
-929471.865991
-932760.781456
-936163.571922
-939784.987388
-943640.152853
-947602.943319
-951830.608785
-956231.024250
-960823.564716
-1041137.012220
-1044330.552686
-1047779.593152
-1051391.383617
-1055216.674083
-1059253.589549
-1063423.755014
-1067839.045480
-1072449.335946
-1157300.033450
-1160533.823916
-1163975.739381
-1167568.279847
-1171378.070313
-1175424.985778
-1179603.526244
-1184040.066710
-1188598.107175
-1278065.304680
-1281248.720145
-1284718.635611
-1288289.426077
-1292102.966542
-1296118.507008
-1300334.797474
-1304717.462939
-1309294.378405
-1403297.450909
-1406496.116375
-1409936.781841
-1413517.697306
-1417330.862772
-1421344.403238
-1425517.818703
-1429906.859169
-1434460.024635
-1532962.097139
-1536181.137605
-1539571.178070
-1543166.093536
-1546987.884002
-1550963.549467
-1555129.339933
-1559497.130399
-1564073.920864
-1667054.993369
-1670249.658834
-1673674.449300
-1677277.239766
-1681043.030231
-1685030.070697
-1689190.986163
-1693547.901628
-1698063.692094
-1805457.264598
-1808667.180064
-1812069.595530
-1815659.510995
-1819419.301461
-1823404.966927
-1827528.757392
-1831859.047858
-1836400.213324
-1948121.285828
-1951348.451294
-1954725.866759
-1958303.532225
-1962083.072691
-1966017.863156
-1970135.903622
-1974508.819088
-1978978.609553
-2095064.307058
-2098267.222523
-2101632.762989
-2105172.428455
-2108942.718920
-2112870.634386
-2117010.049852
-2121271.715317
-2125760.255783
-2246130.203287
-2249286.118753
-2252687.909219
-2256240.824684
-2259987.615150
-2263874.280616
-2267989.821081
-2272245.236547
-2276734.402013
-2401214.474517
-2404414.889983
-2407823.930448
-2411323.970914
-2415005.886380
-2418935.551845
-2423026.842311
-2427259.007777
-2431688.423242
-2560368.620747
-2563556.911212
-2566896.326678
-2570429.367144
-2574073.782609
-2577987.198075
-2582020.238541
-2586266.529006
-2590603.569472
-2723367.141976
-2726511.432442
-2729864.847908
-2733377.888373
-2737028.803839
-2740973.969305
-2744965.009770
-2749140.300236
-2753478.215702
-2890218.788206
-2893357.078672
-2896682.619137
-2900170.534603
-2903845.450069
-2907662.490534
-2911690.781000
-2915818.571466
-2920217.486931
-3060787.434436
-3063912.474901
-3067230.640367
-3070697.930833
-3074330.721298
-3078176.886764
-3082170.052230
-3086299.217695
-3090594.758161
-3234996.580665
-3238067.621131
-3241382.661597
-3244833.327062
-3248481.492528
-3252280.282994
-3256196.698459
-3260375.738925
-3264633.654391
-3412675.851895
-3415829.642361
-3419130.932826
-3422575.348292
-3426165.388758
-3429941.054223
-3433873.469689
-3437917.135155
-3442216.925620
-3593908.248125
-3596988.413590
-3600277.204056
-3603728.994522
-3607272.159987
-3611004.075453
-3614937.990919
-3618954.406384
-3623216.571850
-3778424.769355
-3781483.684820
-3784767.975286
-3788165.640751
-3791693.556217
-3795444.096683
-3799288.387148
-3803350.552614
-3807534.468080
-3966199.915584
-3969274.956050
-3972507.871516
-3975891.911981
-3979429.702447
-3983102.367912
-3986972.033378
-3990945.073844
-3995104.739309
-4157063.311814
-4160124.227280
-4163313.267745
-4166704.183211
-4170174.723676
-4173897.264142
-4177688.804608
-4181683.970073
-4185782.260539
-4350970.833044
-4354034.248509
-4357213.913975
-4360554.454441
-4364041.369906
-4367721.660372
-4371490.075837
-4375417.491303
-4379481.281769
-4547798.479273
-4550862.144739
-4554055.435205
-4557374.725670
-4560799.516136
-4564420.556601
-4568151.472067
-4572033.762533
-4576088.552998
-4747419.125503
-4750503.540969
-4753637.331434
-4756905.746900
-4760341.162366
-4763937.077831
-4767672.993297
-4771510.283762
-4775485.574228
-4949795.771733
-4952799.812198
-4955935.977664
-4959230.393130
-4962611.933595
-4966157.349061
-4969855.014526
-4973640.304992
-4977616.595458
-5154719.042962
-5157690.458428
-5160793.623894
-5164078.539359
-5167407.579825
-5170971.745291
-5174600.160756
-5178370.826222
-5182272.241687
-5362031.939192
-5365021.854658
-5368177.895123
-5371371.810589
-5374746.101055
-5378225.516520
-5381844.431986
-5385570.097452
-5389454.637917
-5571849.210422
-5574755.875887
-5577866.916353
-5581099.081819
-5584382.497284
-5587843.912750
-5591424.703216
-5595086.868681
-5598969.659147
-5783846.856651
-5786754.897117
-5789795.437583
-5792980.353048
-5796257.268514
-5799710.808980
-5803216.599445
-5806890.639911
-5810674.805377
-5997935.252881
-6000841.043347
-6003860.958812
-6007022.749278
-6010229.664744
-6013682.330209
-6017200.620675
-6020790.286141
-6024547.576606
-6214034.649111
-6216924.939576
-6219933.355042
-6223083.520508
-6226352.560973
-6229713.101439
-6233144.141905
-6236749.557370
-6240434.472836
-6432082.545340
-6434945.210806
-6437970.251272
-6441080.041737
-6444286.707203
-6447633.747669
-6451036.913134
-6454528.703600
-6458208.244066
-6651908.566570
-6654774.107036
-6657781.772501
-6660853.062967
-6663993.853433
-6667286.643898
-6670671.434364
-6674214.724830
-6677804.265295
-6873437.712800
-6876283.128265
-6879238.293731
-6882291.584197
-6885424.874662
-6888649.165128
-6892029.955594
-6895456.371059
-6899057.661525
-7096482.359029
-7099279.899495
-7102257.314961
-7105262.980426
-7108398.395892
-7111614.936358
-7114942.976823
-7118377.142289
-7121912.682755
-7321014.755259
-7323857.920725
-7326761.836190
-7329755.626656
-7332858.792122
-7336011.707587
-7339252.748053
-7342691.288519
-7346184.328984
-7546915.151489
-7549661.816954
-7552567.357420
-7555528.147886
-7558646.688351
-7561755.478817
-7565032.019283
-7568346.559748
-7571782.475214
-7773985.172718
-7776790.338184
-7779639.628650
-7782645.669115
-7785646.959581
-7788791.625047
-7791945.165512
-7795234.330978
-7798651.121444
-8002244.693948
-8005058.609414
-8007855.399879
-8010828.065345
-8013809.855811
-8016896.521276
-8020012.811742
-8023271.852208
-8026583.142673
-8231555.715178
-8234265.255643
-8237086.046109
-8239996.086575
-8242980.127040
-8246065.042506
-8249166.332972
-8252364.873437
-8255646.538903
-8461791.986407
-8464452.901873
-8467258.442339
-8470120.732804
-8473077.023270
-8476135.438736
-8479180.604201
-8482380.894667
-8485553.560133
-8692806.507637
-8695494.673103
-8698270.463568
-8701077.129034
-8704030.294500
-8707006.584965
-8710038.750431
-8713163.665897
-8716416.956362
-8924517.778867
-8927226.569332
-8929995.484798
-8932807.775264
-8935676.815729
-8938613.356195
-8941605.146661
-8944713.187126
-8947827.727592
-9156912.550096
-9159556.840562
-9162302.506028
-9165088.046493
-9167958.336959
-9170868.752425
-9173850.917890
-9176837.708356
-9179987.498822
-9389821.696326
-9392480.611792
-9395144.152257
-9397903.817723
-9400753.358189
-9403616.773654
-9406529.939120
-9409505.229586
-9412580.770051
-9623139.967556
-9625751.508021
-9628402.673487
-9631176.088953
-9633960.129418
-9636836.669884
-9639693.960350
-9642673.875815
-9645658.541281
-9856768.488785
-9859378.654251
-9862045.569717
-9864779.360182
-9867511.025648
-9870334.691114
-9873221.106579
-9876085.772045
-9879061.062511
-10090693.760015
-10093298.175481
-10095899.590946
-10098591.631412
-10101355.921878
-10104105.462343
-10106918.877809
-10109800.918275
-10112722.208740
-10324749.031245
-10327316.321710
-10329934.862176
-10332606.652642
-10335299.943107
-10338001.983573
-10340821.024039
-10343613.314504
-10346511.979970
-10558906.302474
-10561424.967940
-10564024.883406
-10566651.548871
-10569326.464337
-10572008.379803
-10574764.295268
-10577587.210734
-10580369.876200
-10792986.698704
-10795492.614170
-10798058.904635
-10800698.945101
-10803361.735567
-10806013.776032
-10808701.691498
-10811433.856964
-10814211.022429
-11026995.969934
-11029528.760399
-11032023.800865
-11034618.716331
-11037248.881796
-11039868.547262
-11042525.837728
-11045260.753193
-11048001.043659
-11260829.616163
-11263324.906629
-11265829.697095
-11268411.487560
-11270967.778026
-11273569.693492
-11276249.483957
-11278892.649423
-11281555.189889
-11494405.012393
-11496865.552859
-11499326.593324
-11501871.508790
-11504471.049256
-11507019.964721
-11509607.880187
-11512301.795653
-11514880.336118
-11727618.658623
-11730070.824088
-11732603.239554
-11735085.280020
-11737614.070485
-11740169.360951
-11742694.526417
-11745267.941882
-11747901.232348
-11960465.179853
-11962938.470318
-11965351.010784
-11967867.301249
-11970321.341715
-11972854.757181
-11975378.672646
-11977911.588112
-11980479.753578
-12192820.201082
-12195228.991548
-12197693.407014
-12200085.197479
-12202570.362945
-12205085.778410
-12207573.943876
-12210077.234342
-12212608.024807
-12424615.097312
-12427041.387778
-12429428.428243
-12431842.343709
-12434297.134174
-12436753.424640
-12439179.465106
-12441665.255571
-12444144.796037
-12655773.743542
-12658204.409007
-12660530.574473
-12662970.114939
-12665379.530404
-12667813.195870
-12670209.486335
-12672656.026801
-12675095.317267
-12886316.389771
-12888669.055237
-12891057.845703
-12893443.261168
-12895824.301634
-12898201.592099
-12900583.882565
-12902974.048031
-12905343.463496
-13116052.536001
-13118418.951467
-13120756.866932
-13123121.282398
-13125453.197864
-13127852.488329
-13130166.153795
-13132526.444260
-13134899.609726
-13345028.557231
-13347367.222696
-13349702.388162
-13352030.553628
-13354312.469093
-13356661.884559
-13358988.675024
-13361327.965490
-13363633.505956
-13573120.328460
-13575449.868926
-13577758.159392
-13580005.699857
-13582361.240323
-13584631.780789
-13586900.321254
-13589197.111720
-13591497.402185
-13800289.349690
-13802579.640156
-13804881.805621
-13807161.721087
-13809427.011553
-13811703.177018
-13813919.342484
-13816225.007949
-13818446.923415
-14026534.620920
-14028778.911385
-14031071.826851
-14033281.742317
-14035583.782782
-14037803.823248
-14040017.363714
-14042221.529179
-14044451.319645
-14251653.392149
-14253963.682615
-14256196.098081
-14258433.513546
-14260666.804012
-14262845.844478
-14265078.134943
-14267220.050409
-14269392.340875
-14475824.413379
-14478077.078845
-14480290.494310
-14482485.909776
-14484683.950242
-14486832.365707
-14489052.656173
-14491175.821639
-14493322.237104
SCALARS stress_2 float
LOOKUP_TABLE default
178486.059695
-2318445.756110
-2281721.108412
-2245204.460715
-2207935.813017
-2170875.165320
-2133254.517622
-2095905.869924
-2058077.222227
-2020424.574529
-1982515.926832
-1944239.279134
-1906138.631437
-1868133.983739
-1829633.336041
-1791340.688344
-1752520.040646
-1714083.392949
-1675342.745251
-1636474.097554
-1598149.449856
-1559392.802159
-1520476.154461
-1481927.506763
-1443698.859066
-1404862.211368
-1366105.563671
-1327348.915973
-1289696.268276
-1251307.620578
-1212934.972880
-1175186.325183
-1137213.677485
-1099529.029788
-1062180.382090
-1024959.734393
-987867.086695
-951366.438998
-914577.791300
-878477.143602
-842456.495905
-806931.848207
-771631.200510
-736986.552812
-702293.905115
-667953.257417
-634460.609719
-601063.962022
-568307.314324
-535550.666627
-503514.018929
-472421.371232
-441440.723534
-410876.075837
-380903.428139
-351778.780441
-322878.132744
-295081.485046
-267236.837349
-240128.189651
-214123.541954
-188566.894256
-163218.246558
-139053.598861
-115400.951163
-92388.303466
-70223.655768
-48475.008071
-27350.360373
-7153.712675
12066.935022
30839.582720
49212.230417
66160.878115
82837.525812
98394.173510
113582.821207
127923.468905
141560.116603
154316.764300
166785.411998
-2068454.690369
359229.125437
349960.477739
340179.830041
329855.182344
318474.534646
306453.886949
293665.239251
280396.591554
265735.943856
250547.296158
234766.648461
218202.000763
200901.353066
182880.705368
163948.057671
144151.409973
124066.762276
102670.114578
80729.466880
58228.819183
35200.171485
11051.523788
-13609.123910
-38989.771607
-64882.419305
-92039.067003
-119355.714700
-146976.362398
-175493.010095
-204809.657793
-234190.305490
-264738.953188
-295431.600885
-326940.248583
-358256.896281
-390821.543978
-423306.191676
-456510.839373
-490499.487071
-524136.134768
-559020.782466
-593969.430164
-628886.077861
-664426.725559
-700351.373256
-736628.020954
-773048.668651
-809901.316349
-846737.964046
-883830.611744
-921643.259442
-959039.907139
-997076.554837
-1034905.202534
-1073085.850232
-1111282.497929
-1149591.145627
-1188171.793325
-1226656.441022
-1265109.088720
-1304073.736417
-1342734.384115
-1381379.031812
-1420599.679510
-1459036.327208
-1497792.974905
-1536341.622603
-1574890.270300
-1613646.917998
-1652291.565695
-1690504.213393
-1728972.861090
-1767137.508788
-1805446.156486
-1843546.804183
-1881423.451881
-1918932.099578
-1956792.747276
-1994173.394973
-2031090.042671
-2093541.796943
-2118788.903517
-2143540.010091
-2168835.116665
-2193570.223239
-2218577.329813
-2243936.436387
-2268255.542962
-2293262.649536
196501.166269
214900.272844
233075.379418
251298.485992
269473.592566
287584.699140
305647.805714
323406.912288
341070.018862
332185.371165
313530.264591
295675.158017
276972.051442
258764.944868
240397.838294
222062.731720
203663.625146
185472.518572
321604.723467
303637.616893
284998.510319
266439.403745
247816.297171
229321.190597
210714.084023
192362.977448
173243.870874
311232.075770
292496.969196
273825.862621
255138.756047
236003.649473
217332.542899
198453.436325
179686.329751
160631.223177
299595.428072
280860.321498
262045.214924
242478.108350
223711.001776
204943.895202
185712.788627
166593.682053
147026.575479
287366.780375
268199.673800
248856.567226
229705.460652
210426.354078
191291.247504
172060.140930
152525.034356
133149.927782
274418.132677
255363.026103
235699.919529
215972.812955
196741.706381
177030.599806
157591.493232
138056.386658
118329.280084
260685.484979
240798.378405
221167.271831
201664.165257
182017.058683
162257.952109
142306.845535
122611.738961
102628.632386
246104.837282
226137.730708
206474.624134
186427.517560
166588.410985
146573.304411
126350.197837
106255.091263
86159.984689
230612.189584
210485.083010
190853.976436
170390.869862
149991.763288
129896.656714
109657.550140
89482.443565
69115.336991
214767.541887
194384.435313
174129.328739
153666.222164
133523.115590
112900.009016
92324.902442
72261.795868
51510.689294
197898.894189
177387.787615
157212.681041
136093.574467
115630.467893
95215.361319
74320.254744
53681.148170
32978.041596
180150.246492
159815.139918
138760.033343
118152.926769
96937.820195
76554.713621
55563.607047
34764.500473
13693.393899
161569.598794
141090.492220
119619.385646
99220.279072
78341.172498
56822.065923
36086.959349
14791.852775
-6135.253799
142716.951097
121709.844522
100542.737948
79455.631374
58272.524800
36945.418226
15474.311652
-5772.794922
-27067.901496
123080.303399
101433.196825
80250.090251
59034.983677
37291.877102
15916.770528
-5490.336046
-27089.442620
-48304.549194
102275.655701
80804.549127
59541.442553
37894.335979
15895.229405
-5479.877169
-27158.983743
-48934.090317
-70709.196892
81055.008004
59663.901430
37984.794856
15953.688281
-5741.418293
-27724.524867
-49483.631441
-71354.738015
-93289.844589
58970.360306
37195.253732
15244.147158
-6850.959416
-28866.065990
-50705.172564
-72624.279138
-94527.385713
-116798.492287
36277.712609
14166.606035
-7928.500540
-29783.607114
-52102.713688
-74101.820262
-96532.926836
-118612.033410
-141091.139984
12561.064911
-9598.041663
-31725.148237
-54220.254811
-76251.361385
-98490.467959
-120873.574534
-143768.681108
-165959.787682
-11459.582786
-33698.689361
-55905.795935
-78560.902509
-101264.009083
-123775.115657
-146174.222231
-168701.328805
-191468.435379
-36248.230484
-58647.337058
-81462.443632
-103941.550206
-126324.656780
-149363.763355
-171938.869929
-194881.976503
-217377.083077
-61740.878182
-84235.984756
-107179.091330
-130138.197904
-152761.304478
-175640.411052
-198375.517626
-221494.624200
-244245.730775
-87809.525879
-110944.632453
-133743.739027
-156494.845601
-179485.952176
-202605.058750
-225676.165324
-248667.271898
-271626.378472
-114790.173577
-137701.280151
-160676.386725
-183843.493299
-206914.599873
-230225.706447
-253264.813021
-276543.919596
-299903.026170
-142266.821274
-165305.927848
-188329.034422
-212008.140997
-235095.247571
-258694.354145
-281397.460719
-304996.567293
-328275.673867
-170175.468972
-193326.575546
-216941.682120
-240348.788694
-263579.895268
-287163.001842
-310762.108417
-334089.214991
-357400.321565
-198900.116669
-222323.223243
-245698.329818
-269393.436392
-293056.542966
-316495.649540
-340382.756114
-363501.862688
-387468.969262
-228168.764367
-251783.870941
-275398.977515
-298822.084089
-322533.190663
-346340.297238
-369987.403812
-393762.510386
-417649.616960
-257773.412064
-281884.518639
-305563.625213
-329290.731787
-352905.838361
-376440.944935
-400472.051509
-424279.158083
-448198.264658
-288418.059762
-312241.166336
-335568.272910
-359887.379484
-383742.486059
-407613.592633
-431644.699207
-455675.805781
-479786.912355
-319270.707460
-343205.814034
-367092.920608
-391204.027182
-415155.133756
-439106.240330
-463329.346904
-487312.453479
-511679.560053
-350779.355157
-374586.461731
-398713.568305
-422760.674880
-447079.781454
-471158.888028
-495413.994602
-519541.101176
-543876.207750
-382432.002855
-406767.109429
-430718.216003
-455309.322577
-479372.429151
-503755.535725
-528122.642299
-552233.748874
-576760.855448
-415108.650552
-439379.757126
-463906.863701
-488065.970275
-511969.076849
-536656.183423
-561199.289997
-585566.396571
-609757.503145
-447865.298250
-471880.404824
-496535.511398
-520854.617972
-545237.724546
-569780.831120
-594531.937695
-618899.044269
-643298.150843
-481101.945947
-505549.052522
-530156.159096
-554715.265670
-579194.372244
-603673.478818
-628280.585392
-652775.691966
-677286.798540
-514754.593645
-539489.700219
-564160.806793
-588559.913367
-613119.019941
-637710.126516
-662525.233090
-687644.339664
-712043.446238
-549047.241343
-573878.347917
-598485.454491
-623204.561065
-647635.667639
-672418.774213
-697249.880787
-721952.987361
-747088.093936
-583787.889040
-608298.995614
-633162.102188
-657833.208762
-682584.315337
-707511.421911
-732294.528485
-757237.635059
-781956.741633
-618576.536738
-643215.643312
-668302.749886
-693037.856460
-717852.963034
-742700.069608
-767899.176182
-792650.282757
-817385.389331
-653781.184435
-678868.291009
-703795.397583
-728370.504158
-753425.610732
-778464.717306
-803567.823880
-828446.930454
-853694.037028
-689481.832133
-714376.938707
-739256.045281
-764103.151855
-789302.258429
-814453.365003
-839636.471578
-864659.578152
-889554.684726
-725486.479830
-750509.586404
-775676.692979
-800315.799553
-825418.906127
-850634.012701
-875865.119275
-901000.225849
-926039.332423
-761699.127528
-786946.234102
-811937.340676
-836864.447250
-862031.553824
-887310.660399
-912397.766973
-937628.873547
-962843.980121
-798263.775225
-823254.881800
-848453.988374
-873861.094948
-899044.201522
-923907.308096
-949266.414670
-974545.521244
-999904.627819
-834892.422923
-860235.529497
-885162.636071
-910505.742645
-935816.849220
-960903.955794
-986583.062368
-1011446.168942
-1036629.275516
-871953.070621
-897280.177195
-922255.283769
-947742.390343
-973069.496917
-998412.603491
-1023611.710065
-1049002.816640
-1074249.923214
-909445.718318
-934404.824892
-959843.931466
-985203.038041
-1010354.144615
-1035665.251189
-1061200.357763
-1086447.464337
-1111966.570911
-946554.366016
-971913.472590
-997576.579164
-1022663.685738
-1047894.792312
-1073525.898886
-1098933.005461
-1124148.112035
-1149683.218609
-984607.013713
-1009998.120287
-1035005.226862
-1060268.333436
-1085883.440010
-1111386.546584
-1136665.653158
-1162056.759732
-1187623.866306
-1022355.661411
-1047810.767985
-1073089.874559
-1098352.981133
-1124048.087707
-1149423.194282
-1174814.300856
-1200429.407430
-1225596.514004
-1060296.309108
-1085799.415683
-1111046.522257
-1136421.628831
-1162212.735405
-1187459.841979
-1212850.948553
-1238226.055127
-1263873.161701
-1098636.956806
-1123916.063380
-1149579.169954
-1175002.276528
-1200169.383103
-1225736.489677
-1251415.596251
-1276838.702825
-1302421.809399
-1136769.604504
-1162208.711078
-1187407.817652
-1213006.924226
-1238574.030800
-1264029.137374
-1289628.243948
-1315003.350522
-1340778.457097
-1174934.252201
-1200501.358775
-1226084.465349
-1251459.571924
-1277090.678498
-1302721.785072
-1328128.891646
-1353791.998220
-1379103.104794
-1213594.899899
-1239114.006473
-1264649.113047
-1289800.219621
-1315735.326195
-1341030.432769
-1366597.539343
-1392212.645918
-1417859.752492
-1251951.547596
-1277774.654170
-1303261.760745
-1328988.867319
-1354475.973893
-1379723.080467
-1405322.187041
-1430777.293615
-1456488.400189
-1290948.195294
-1316195.301868
-1341810.408442
-1367409.515016
-1392976.621590
-1418319.728164
-1444094.834739
-1469517.941313
-1495181.047887
-1329544.842991
-1355159.949566
-1380423.056140
-1405974.162714
-1431717.269288
-1457172.375862
-1482691.482436
-1508098.589010
-1534017.695584
-1367997.490689
-1393820.597263
-1419275.703837
-1444746.810411
-1470185.916985
-1495913.023560
-1521368.130134
-1546855.236708
-1572358.343282
-1406754.138387
-1432465.244961
-1457792.351535
-1483391.458109
-1509342.564683
-1534557.671257
-1560236.777831
-1585675.884405
-1611178.990980
-1445478.786084
-1470869.892658
-1496708.999232
-1522276.105806
-1547763.212381
-1573218.318955
-1598705.425529
-1624320.532103
-1649807.638677
-1484283.433782
-1509642.540356
-1535177.646930
-1560904.753504
-1586439.860078
-1611846.966652
-1637734.073226
-1663333.179801
-1688580.286375
-1523152.081479
-1548431.188053
-1574222.294627
-1599661.401202
-1625068.507776
-1650747.614350
-1676314.720924
-1701609.827498
-1727192.934072
-1561796.729177
-1587187.835751
-1612850.942325
-1638338.048899
-1663601.155473
-1689120.262047
-1714879.368622
-1739982.475196
-1765709.581770
-1600345.376874
-1625784.483448
-1651255.590023
-1676854.696597
-1702309.803171
-1727732.909745
-1753348.016319
-1778387.122893
-1804082.229467
-1639198.024572
-1664445.131146
-1689820.237720
-1715195.344294
-1740682.450868
-1766217.557443
-1791656.664017
-1817223.770591
-1842566.877165
-1677506.672269
-1702705.778844
-1728496.885418
-1754031.991992
-1779151.098566
-1804590.205140
-1830141.311714
-1855660.418288
-1880683.524862
-1715799.319967
-1741494.426541
-1766517.533115
-1792148.639689
-1817443.746264
-1842850.852838
-1868113.959412
-1893553.065986
-1919104.172560
-1754139.967665
-1779451.074239
-1805002.180813
-1830217.287387
-1855640.393961
-1880967.500535
-1906518.607109
-1931733.713683
-1957220.820258
-1792496.615362
-1817647.721936
-1842926.828510
-1868285.935085
-1893869.041659
-1919324.148233
-1944507.254807
-1969674.361381
-1995081.467955
-1830773.263060
-1856004.369634
-1881203.476208
-1906562.582782
-1931905.689356
-1957104.795930
-1982367.902504
-2007679.009079
-2033070.115653
-1868409.910757
-1893881.017331
-1919368.123906
-1944247.230480
-1969414.337054
-1994773.443628
-2020132.550202
-2045507.656776
-2070690.763350
-1906590.558455
-1931741.665029
-1956988.771603
-1982171.878177
-2007162.984751
-2032442.091325
-2057913.197900
-2082984.304474
-2108167.411048
-1944147.206152
-1969250.312727
-1994209.419301
-2019760.525875
-2044655.632449
-2070174.739023
-2095277.845597
-2120412.952171
-2145660.058745
-1981735.853850
-2006966.960424
-2032198.066998
-2057125.173572
-2082292.280146
-2107427.386721
-2132562.493295
-2157457.599869
-2183056.706443
-2019420.501548
-2044235.608122
-2069674.714696
-2094425.821270
-2119320.927844
-2144760.034418
-2169463.140992
-2194886.247566
-2220149.354141
-2056513.149245
-2081424.255819
-2106623.362393
-2131518.468967
-2156605.575542
-2181788.682116
-2206747.788690
-2231562.895264
-2256826.001838
SCALARS stress_3 float
LOOKUP_TABLE default
63838.028751
4217179.646741
4157612.576516
4097757.506291
4037646.436066
3977031.365841
3916128.295616
3855257.225391
3793906.155167
3732171.084942
3670228.014717
3608292.944492
3545989.874267
3483382.804042
3421031.733817
3357984.663592
3295113.593368
3231962.523143
3168683.452918
3105332.382693
3042021.312468
2978726.242243
2915159.172018
2851744.101793
2788449.031569
2725009.961344
2661642.891119
2598387.820894
2535324.750669
2472533.680444
2409542.610219
2346959.539994
2284688.469770
2222473.399545
2160682.329320
2099091.259095
2037884.188870
1976917.118645
1916390.048420
1856518.978195
1796767.907970
1737608.837746
1678961.767521
1620922.697296
1563267.627071
1506468.556846
1449997.486621
1394318.416396
1339431.346171
1285008.275947
1231433.205722
1178714.135497
1126643.065272
1075691.995047
1025180.924822
975701.854597
927150.784372
879687.714148
833040.643923
787241.573698
742594.503473
698907.433248
656124.363023
614677.292798
574222.222573
534831.152349
496464.082124
459505.011899
423449.941674
388578.871449
355035.801224
322380.730999
291037.660774
261126.590550
232191.520325
204408.450100
178049.379875
152850.309650
128819.239425
105868.169200
84181.098975
4112324.988586
-34224.629404
-14473.559179
6253.511045
28484.581270
51547.651495
76226.721720
101833.791945
128848.862170
157287.932395
186583.002620
217310.072844
249141.143069
282196.213294
316411.283519
351930.353744
388585.423969
426304.494194
465119.564419
505086.634643
546405.704868
588540.775093
631867.845318
676274.915543
721577.985768
767961.055993
815088.126218
863551.196442
912686.266667
962749.336892
1013796.407117
1065523.477342
1118186.547567
1171513.617792
1225800.688017
1280687.758241
1336214.828466
1392365.898691
1449388.968916
1506956.039141
1565107.109366
1623554.179591
1682777.249816
1742352.320040
1802479.390265
1862950.460490
1923869.530715
1985260.600940
2046827.671165
2108874.741390
2171073.811615
2233568.881839
2296447.952064
2359383.022289
2422486.092514
2485781.162739
2549188.232964
2612771.303189
2676186.373414
2739953.443638
2803672.513863
2867319.584088
2931158.654313
2994629.724538
3058180.794763
3121723.864988
3185042.935213
3248162.005437
3311497.075662
3374520.145887
3437279.216112
3499878.286337
3562373.356562
3624436.426787
3686403.497012
3748130.567236
3809529.637461
3870648.707686
3931583.777911
3992046.848136
4052357.918361
4122652.054401
4133291.120217
4143682.186032
4154425.251848
4164824.317663
4175351.383479
4185670.449294
4196085.515110
4206820.580925
53734.962935
43759.897120
33824.831304
23985.765489
14162.699673
4443.633858
-5475.431958
-14962.497773
-24537.563589
-4986.493364
4660.572452
14475.638267
24346.704083
34153.769898
44128.835714
54055.901529
64110.967345
73982.033160
16012.576861
25771.642676
35562.708492
45489.774307
55528.840123
65455.905938
75430.971754
85462.037569
95541.103385
38107.647086
48050.712901
57873.778717
67792.844532
77791.910348
88062.976163
97974.041979
108317.107794
118348.173610
61410.717311
71465.783126
81312.848942
91487.914757
101678.980573
111702.046388
121821.112204
132148.178019
142371.243835
86169.787536
96136.853351
105983.919167
116230.984982
126350.050798
136701.116613
146964.182429
157291.248244
167642.314059
111928.857760
121967.923576
132078.989391
142366.055207
152413.121022
162852.186838
173323.252653
183474.318469
194089.384284
138943.927985
149302.993801
159294.059616
169653.125432
179948.191247
190307.257063
200674.322878
211185.388694
221760.454509
167342.998210
177510.064026
187725.129841
197980.195657
208339.261472
218970.327288
229401.393103
239840.458919
250463.524734
196790.068435
206981.134251
217404.200066
227723.265882
238410.331697
248865.397513
259400.463328
269887.529144
280494.594959
227421.138660
237916.204475
248283.270291
258778.336106
269113.401922
279840.467737
290407.533553
300966.599368
311645.665184
259396.208885
269891.274700
280306.340516
290753.406331
301384.472147
312183.537962
322726.603778
333405.669593
344108.735409
292611.279110
303026.344925
313657.410741
324136.476556
334751.542372
345454.608187
356181.674003
366948.739818
377763.805634
327010.349335
337553.415150
348040.480966
358631.546781
369366.612597
380109.678412
390884.744228
401715.810043
412586.875858
362497.419559
373040.485375
383631.551190
394278.617006
405005.682821
415812.748637
426691.814452
437466.880268
448457.946083
399216.489784
409615.555600
420470.621415
431101.687231
441876.753046
452835.818862
463610.884677
474529.950493
485513.016308
437023.560009
447590.625825
458317.691640
469132.757456
479971.823271
490810.889087
501801.954902
512777.020718
523728.086533
475902.630234
486693.696050
497436.761865
508363.827681
519138.893496
530169.959312
541041.025127
552080.090943
563143.156758
516005.700459
526796.766274
537627.832090
548434.897905
559361.963721
570393.029536
581376.095352
592415.161167
603606.226983
557244.770684
568027.836499
578938.902315
589793.968130
600945.033946
611824.099761
622815.165577
633918.231392
645085.297208
599547.840909
610266.906724
621169.972540
632185.038355
643200.104171
654207.169986
665350.235802
676397.301617
687628.367433
642810.911134
653657.976949
664593.042765
675592.108580
686815.174396
697758.240211
708765.306027
720084.371842
731387.437658
687129.981358
698089.047174
709176.112989
720207.178805
731110.244620
742365.310436
753476.376251
764755.442067
776026.507882
732465.051583
743512.117399
754543.183214
765670.249030
776709.314845
787796.380661
799163.446476
810314.512292
821737.578107
778944.121808
789895.187624
801070.253439
812077.319255
823300.385070
834395.450886
845618.516701
856969.582517
868352.648332
826279.192033
837286.257849
848341.323664
859548.389480
870691.455295
882082.521111
893217.586926
904568.652742
915927.718557
874566.262258
885589.328073
896700.393889
907995.459704
919026.525520
930409.591335
941736.657151
953063.722966
964286.788782
923885.332483
934932.398298
946011.464114
957258.529929
968489.595745
979728.661560
991095.727376
1002462.793191
1013877.859007
973716.402708
985083.468523
996258.534339
1007425.600154
1018664.665970
1029943.731785
1041438.797601
1052645.863416
1064212.929232
1024819.472933
1036026.538748
1047065.604564
1058400.670379
1069783.736195
1081150.802010
1092413.867826
1103828.933641
1115139.999457
1076634.543157
1087865.608973
1099088.674788
1110183.740604
1121622.806419
1132933.872235
1144500.938050
1155908.003866
1167267.069681
1129409.613382
1140584.679198
1151831.745013
1162926.810829
1174405.876644
1185788.942460
1197172.008275
1208579.074091
1220090.139906
1182736.683607
1193951.749423
1205222.815238
1216589.881054
1227772.946869
1239284.012685
1250651.078500
1262074.144316
1273553.210131
1236927.753832
1248182.819648
1259461.885463
1270804.951279
1282068.017094
1293483.082910
1304938.148725
1316209.214541
1327816.280356
1291918.824057
1303013.889872
1314308.955688
1325708.021503
1336971.087319
1348474.153134
1359889.218950
1371560.284765
1382823.350581
1347509.894282
1358668.960097
1370020.025913
1381387.091728
1392626.157544
1404201.223359
1415672.289175
1427095.354990
1438566.420806
1403708.964507
1414868.030322
1426323.096138
1437738.161953
1449057.227769
1460504.293584
1471815.359400
1483534.425215
1494813.491031
1460700.034732
1471907.100547
1483218.166363
1494665.232178
1506112.297994
1517423.363809
1528726.429625
1540197.495440
1551652.561256
1518139.104956
1529282.170772
1540729.236587
1552144.302403
1563527.368218
1574886.434034
1586301.499849
1597868.565665
1609283.631480
1576186.175181
1587481.240997
1598792.306812
1610119.372628
1621614.438443
1632973.504259
1644508.570074
1655907.635890
1667562.701705
1634921.245406
1646208.311222
1657455.377037
1668854.442853
1680365.508668
1691652.574484
1703163.640299
1714650.706115
1726161.771930
1694040.315631
1705207.381447
1716622.447262
1728061.513078
1739324.578893
1750803.644709
1762202.710524
1773761.776340
1785248.842155
1753631.385856
1764886.451671
1776229.517487
1787676.583302
1799131.649118
1810474.714933
1821849.780749
1833408.846564
1844791.912380
1813766.456081
1825045.521896
1836460.587712
1847707.653527
1859122.719343
1870537.785158
1882000.850974
1893543.916789
1905070.982605
1874253.526306
1885508.592121
1896939.657937
1908298.723752
1919617.789568
1930968.855383
1942551.921199
1954030.987014
1965422.052830
1935044.596531
1946595.662346
1957818.728162
1969329.793977
1980592.859793
1992039.925608
2003310.991424
2014846.057239
2026301.123055
1996539.666755
2007866.732571
2019265.798386
2030472.864202
2041847.930017
2053358.995833
2064766.061648
2076301.127464
2087580.193279
2058170.736980
2069489.802796
2080720.868611
2092015.934427
2103543.000242
2114758.066058
2126173.131873
2137700.197689
2149179.263504
2120209.807205
2131528.873021
2142759.938836
2154047.004652
2165454.070467
2176821.136283
2188284.202098
2199595.267914
2211058.333729
2182360.877430
2193735.943246
2204943.009061
2216342.074877
2227605.140692
2238948.206508
2250235.272323
2261906.338139
2273089.403954
2244967.947655
2256095.013470
2267534.079286
2278685.145101
2290084.210917
2301459.276732
2312794.342548
2324281.408363
2335536.474179
2307671.017880
2319054.083695
2330085.149511
2341428.215326
2352779.281142
2364042.346957
2375353.412773
2386808.478588
2398111.544404
2370534.088105
2381837.153920
2393100.219736
2404355.285551
2415666.351367
2426961.417182
2438376.482998
2449655.548813
2461070.614629
2433725.158330
2444996.224145
2456299.289961
2467378.355776
2478761.421592
2490040.487407
2501319.553223
2512630.619038
2523933.684854
2496916.228554
2508323.294370
2519394.360185
2530609.426001
2542080.491816
2553183.557632
2564518.623447
2575869.689263
2587204.755078
2560363.298779
2571594.364595
2582713.430410
2594040.496226
2605111.562041
2616486.627857
2627917.693672
2639084.759488
2650387.825303
2623970.369004
2635041.434820
2646352.500635
2657543.566451
2668526.632266
2679997.698082
2691244.763897
2702323.829713
2713754.895528
2687353.439229
2698568.505045
2709719.570860
2720990.636676
2732037.702491
2743436.768307
2754627.834122
2765658.899938
2777137.965753
2751080.509454
2762159.575269
2773302.641085
2784629.706900
2795580.772716
2806883.838531
2818066.904347
2829345.970162
2840681.035978
2814815.579679
2825830.645494
2837045.711310
2848100.777125
2859227.842941
2870514.908756
2881649.974572
2892697.040387
2904008.106203
2878294.649904
2889605.715719
2900596.781535
2911675.847350
2922874.913166
2934081.978981
2945089.044797
2956264.110612
2967447.176428
2942125.720129
2953108.785944
2964387.851760
2975378.917575
2986489.983391
2997409.049206
3008736.115022
3019975.180837
3030814.246653
3005764.790353
3016755.856169
3027690.921984
3038761.987800
3049961.053615
3061088.119431
3072111.185246
3083102.251062
3094309.316877
3069243.860578
3080226.926394
3091281.992209
3102345.058025
3113304.123840
3124519.189656
3135566.255471
3146629.321287
3157588.387102
3132634.930803
3143785.996619
3154793.062434
3165760.128250
3176671.194065
3187830.259881
3198781.325696
3209756.391512
3220827.457327
3196194.001028
3207025.066844
3218080.132659
3228943.198475
3240094.264290
3251053.330106
3262044.395921
3273059.461737
3284050.527552
3259489.071253
3270208.137068
3281095.202884
3292150.268699
3303221.334515
3314180.400330
3325123.466146
3335954.531961
3347129.597777
3322512.141478
3333335.207293
3344206.273109
3355125.338924
3366156.404740
3377075.470555
3387994.536371
3399097.602186
3409904.668002
3385255.211703
3396206.277518
3407117.343334
3418044.409149
3428843.474965
3439810.540780
3450745.606596
3461664.672411
3472615.738227
3448086.281928
3458957.347743
3469844.413559
3480803.479374
3491682.545190
3502545.611005
3513368.676821
3524391.742636
3535222.808452
3510717.352152
3521644.417968
3532451.483783
3543274.549599
3553873.615414
3565072.681230
3575879.747045
3586694.812861
3597421.878676
3573076.422377
3583811.488193
3594626.554008
3605529.619824
3616376.685639
3627127.751455
3638054.817270
3648773.883086
3659524.948901
3635219.492602
3646010.558418
3656897.624233
3667528.690049
3678423.755864
3689134.821680
3699965.887495
3710820.953311
3721532.019126
3697154.562827
3707921.628643
3718656.694458
3729431.760274
3740230.826089
3750853.891905
3761636.957720
3772404.023536
3783211.089351
3758761.633052
3769528.698867
3780239.764683
3791094.830498
3801749.896314
3812252.962129
3823212.027945
3833835.093760
3844570.159576
3820232.703277
3830927.769092
3841606.834908
3852437.900723
3863052.966539
3873708.032354
3884291.098170
3894954.163985
3905649.229801
3881279.773502
3891990.839317
3902685.905133
3913356.970948
3923940.036764
3934667.102579
3945298.168395
3955881.234210
3966472.300026
3942206.843727
3952717.909542
3963364.975358
3973956.041173
3984571.106989
3995162.172804
4005993.238620
4016384.304435
4026911.370251
4002733.913951
4013284.979767
4023908.045582
4034419.111398
4045082.177213
4055513.243029
4066248.308844
4076591.374660
4087126.440475
4062876.984176
4073468.049992
4084003.115807
4094498.181623
4105097.247438
4115552.313254
4126079.379069
4136478.444885
4147069.510700
