# vtk DataFile Version 2.0
Generated volume Mesh
ASCII
DATASET UNSTRUCTURED_GRID
POINTS 891 float
0.005000 0.100000 0.000000
0.005000 0.000000 0.000000
0.005000 0.001250 0.000000
0.005000 0.002500 0.000000
0.005000 0.003750 0.000000
0.005000 0.005000 0.000000
0.005000 0.006250 0.000000
0.005000 0.007500 0.000000
0.005000 0.008750 0.000000
0.005000 0.010000 0.000000
0.005000 0.011250 0.000000
0.005000 0.012500 0.000000
0.005000 0.013750 0.000000
0.005000 0.015000 0.000000
0.005000 0.016250 0.000000
0.005000 0.017500 0.000000
0.005000 0.018750 0.000000
0.005000 0.020000 0.000000
0.005000 0.021250 0.000000
0.005000 0.022500 0.000000
0.005000 0.023750 0.000000
0.005000 0.025000 0.000000
0.005000 0.026250 0.000000
0.005000 0.027500 0.000000
0.005000 0.028750 0.000000
0.005000 0.030000 0.000000
0.005000 0.031250 0.000000
0.005000 0.032500 0.000000
0.005000 0.033750 0.000000
0.005000 0.035000 0.000000
0.005000 0.036250 0.000000
0.005000 0.037500 0.000000
0.005000 0.038750 0.000000
0.005000 0.040000 0.000000
0.005000 0.041250 0.000000
0.005000 0.042500 0.000000
0.005000 0.043750 0.000000
0.005000 0.045000 0.000000
0.005000 0.046250 0.000000
0.005000 0.047500 0.000000
0.005000 0.048750 0.000000
0.005000 0.050000 0.000000
0.005000 0.051250 0.000000
0.005000 0.052500 0.000000
0.005000 0.053750 0.000000
0.005000 0.055000 0.000000
0.005000 0.056250 0.000000
0.005000 0.057500 0.000000
0.005000 0.058750 0.000000
0.005000 0.060000 0.000000
0.005000 0.061250 0.000000
0.005000 0.062500 0.000000
0.005000 0.063750 0.000000
0.005000 0.065000 0.000000
0.005000 0.066250 0.000000
0.005000 0.067500 0.000000
0.005000 0.068750 0.000000
0.005000 0.070000 0.000000
0.005000 0.071250 0.000000
0.005000 0.072500 0.000000
0.005000 0.073750 0.000000
0.005000 0.075000 0.000000
0.005000 0.076250 0.000000
0.005000 0.077500 0.000000
0.005000 0.078750 0.000000
0.005000 0.080000 0.000000
0.005000 0.081250 0.000000
0.005000 0.082500 0.000000
0.005000 0.083750 0.000000
0.005000 0.085000 0.000000
0.005000 0.086250 0.000000
0.005000 0.087500 0.000000
0.005000 0.088750 0.000000
0.005000 0.090000 0.000000
0.005000 0.091250 0.000000
0.005000 0.092500 0.000000
0.005000 0.093750 0.000000
0.005000 0.095000 0.000000
0.005000 0.096250 0.000000
0.005000 0.097500 0.000000
0.005000 0.098750 0.000000
0.000000 0.000000 0.000000
0.000000 0.100000 0.000000
0.000000 0.098750 0.000000
0.000000 0.097500 0.000000
0.000000 0.096250 0.000000
0.000000 0.095000 0.000000
0.000000 0.093750 0.000000
0.000000 0.092500 0.000000
0.000000 0.091250 0.000000
0.000000 0.090000 0.000000
0.000000 0.088750 0.000000
0.000000 0.087500 0.000000
0.000000 0.086250 0.000000
0.000000 0.085000 0.000000
0.000000 0.083750 0.000000
0.000000 0.082500 0.000000
0.000000 0.081250 0.000000
0.000000 0.080000 0.000000
0.000000 0.078750 0.000000
0.000000 0.077500 0.000000
0.000000 0.076250 0.000000
0.000000 0.075000 0.000000
0.000000 0.073750 0.000000
0.000000 0.072500 0.000000
0.000000 0.071250 0.000000
0.000000 0.070000 0.000000
0.000000 0.068750 0.000000
0.000000 0.067500 0.000000
0.000000 0.066250 0.000000
0.000000 0.065000 0.000000
0.000000 0.063750 0.000000
0.000000 0.062500 0.000000
0.000000 0.061250 0.000000
0.000000 0.060000 0.000000
0.000000 0.058750 0.000000
0.000000 0.057500 0.000000
0.000000 0.056250 0.000000
0.000000 0.055000 0.000000
0.000000 0.053750 0.000000
0.000000 0.052500 0.000000
0.000000 0.051250 0.000000
0.000000 0.050000 0.000000
0.000000 0.048750 0.000000
0.000000 0.047500 0.000000
0.000000 0.046250 0.000000
0.000000 0.045000 0.000000
0.000000 0.043750 0.000000
0.000000 0.042500 0.000000
0.000000 0.041250 0.000000
0.000000 0.040000 0.000000
0.000000 0.038750 0.000000
0.000000 0.037500 0.000000
0.000000 0.036250 0.000000
0.000000 0.035000 0.000000
0.000000 0.033750 0.000000
0.000000 0.032500 0.000000
0.000000 0.031250 0.000000
0.000000 0.030000 0.000000
0.000000 0.028750 0.000000
0.000000 0.027500 0.000000
0.000000 0.026250 0.000000
0.000000 0.025000 0.000000
0.000000 0.023750 0.000000
0.000000 0.022500 0.000000
0.000000 0.021250 0.000000
0.000000 0.020000 0.000000
0.000000 0.018750 0.000000
0.000000 0.017500 0.000000
0.000000 0.016250 0.000000
0.000000 0.015000 0.000000
0.000000 0.013750 0.000000
0.000000 0.012500 0.000000
0.000000 0.011250 0.000000
0.000000 0.010000 0.000000
0.000000 0.008750 0.000000
0.000000 0.007500 0.000000
0.000000 0.006250 0.000000
0.000000 0.005000 0.000000
0.000000 0.003750 0.000000
0.000000 0.002500 0.000000
0.000000 0.001250 0.000000
0.000500 0.000000 0.000000
0.001000 0.000000 0.000000
0.001500 0.000000 0.000000
0.002000 0.000000 0.000000
0.002500 0.000000 0.000000
0.003000 0.000000 0.000000
0.003500 0.000000 0.000000
0.004000 0.000000 0.000000
0.004500 0.000000 0.000000
0.004500 0.100000 0.000000
0.004000 0.100000 0.000000
0.003500 0.100000 0.000000
0.003000 0.100000 0.000000
0.002500 0.100000 0.000000
0.002000 0.100000 0.000000
0.001500 0.100000 0.000000
0.001000 0.100000 0.000000
0.000500 0.100000 0.000000
0.000500 0.098750 0.000000
0.001000 0.098750 0.000000
0.001500 0.098750 0.000000
0.002000 0.098750 0.000000
0.002500 0.098750 0.000000
0.003000 0.098750 0.000000
0.003500 0.098750 0.000000
0.004000 0.098750 0.000000
0.004500 0.098750 0.000000
0.000500 0.097500 0.000000
0.001000 0.097500 0.000000
0.001500 0.097500 0.000000
0.002000 0.097500 0.000000
0.002500 0.097500 0.000000
0.003000 0.097500 0.000000
0.003500 0.097500 0.000000
0.004000 0.097500 0.000000
0.004500 0.097500 0.000000
0.000500 0.096250 0.000000
0.001000 0.096250 0.000000
0.001500 0.096250 0.000000
0.002000 0.096250 0.000000
0.002500 0.096250 0.000000
0.003000 0.096250 0.000000
0.003500 0.096250 0.000000
0.004000 0.096250 0.000000
0.004500 0.096250 0.000000
0.000500 0.095000 0.000000
0.001000 0.095000 0.000000
0.001500 0.095000 0.000000
0.002000 0.095000 0.000000
0.002500 0.095000 0.000000
0.003000 0.095000 0.000000
0.003500 0.095000 0.000000
0.004000 0.095000 0.000000
0.004500 0.095000 0.000000
0.000500 0.093750 0.000000
0.001000 0.093750 0.000000
0.001500 0.093750 0.000000
0.002000 0.093750 0.000000
0.002500 0.093750 0.000000
0.003000 0.093750 0.000000
0.003500 0.093750 0.000000
0.004000 0.093750 0.000000
0.004500 0.093750 0.000000
0.000500 0.092500 0.000000
0.001000 0.092500 0.000000
0.001500 0.092500 0.000000
0.002000 0.092500 0.000000
0.002500 0.092500 0.000000
0.003000 0.092500 0.000000
0.003500 0.092500 0.000000
0.004000 0.092500 0.000000
0.004500 0.092500 0.000000
0.000500 0.091250 0.000000
0.001000 0.091250 0.000000
0.001500 0.091250 0.000000
0.002000 0.091250 0.000000
0.002500 0.091250 0.000000
0.003000 0.091250 0.000000
0.003500 0.091250 0.000000
0.004000 0.091250 0.000000
0.004500 0.091250 0.000000
0.000500 0.090000 0.000000
0.001000 0.090000 0.000000
0.001500 0.090000 0.000000
0.002000 0.090000 0.000000
0.002500 0.090000 0.000000
0.003000 0.090000 0.000000
0.003500 0.090000 0.000000
0.004000 0.090000 0.000000
0.004500 0.090000 0.000000
0.000500 0.088750 0.000000
0.001000 0.088750 0.000000
0.001500 0.088750 0.000000
0.002000 0.088750 0.000000
0.002500 0.088750 0.000000
0.003000 0.088750 0.000000
0.003500 0.088750 0.000000
0.004000 0.088750 0.000000
0.004500 0.088750 0.000000
0.000500 0.087500 0.000000
0.001000 0.087500 0.000000
0.001500 0.087500 0.000000
0.002000 0.087500 0.000000
0.002500 0.087500 0.000000
0.003000 0.087500 0.000000
0.003500 0.087500 0.000000
0.004000 0.087500 0.000000
0.004500 0.087500 0.000000
0.000500 0.086250 0.000000
0.001000 0.086250 0.000000
0.001500 0.086250 0.000000
0.002000 0.086250 0.000000
0.002500 0.086250 0.000000
0.003000 0.086250 0.000000
0.003500 0.086250 0.000000
0.004000 0.086250 0.000000
0.004500 0.086250 0.000000
0.000500 0.085000 0.000000
0.001000 0.085000 0.000000
0.001500 0.085000 0.000000
0.002000 0.085000 0.000000
0.002500 0.085000 0.000000
0.003000 0.085000 0.000000
0.003500 0.085000 0.000000
0.004000 0.085000 0.000000
0.004500 0.085000 0.000000
0.000500 0.083750 0.000000
0.001000 0.083750 0.000000
0.001500 0.083750 0.000000
0.002000 0.083750 0.000000
0.002500 0.083750 0.000000
0.003000 0.083750 0.000000
0.003500 0.083750 0.000000
0.004000 0.083750 0.000000
0.004500 0.083750 0.000000
0.000500 0.082500 0.000000
0.001000 0.082500 0.000000
0.001500 0.082500 0.000000
0.002000 0.082500 0.000000
0.002500 0.082500 0.000000
0.003000 0.082500 0.000000
0.003500 0.082500 0.000000
0.004000 0.082500 0.000000
0.004500 0.082500 0.000000
0.000500 0.081250 0.000000
0.001000 0.081250 0.000000
0.001500 0.081250 0.000000
0.002000 0.081250 0.000000
0.002500 0.081250 0.000000
0.003000 0.081250 0.000000
0.003500 0.081250 0.000000
0.004000 0.081250 0.000000
0.004500 0.081250 0.000000
0.000500 0.080000 0.000000
0.001000 0.080000 0.000000
0.001500 0.080000 0.000000
0.002000 0.080000 0.000000
0.002500 0.080000 0.000000
0.003000 0.080000 0.000000
0.003500 0.080000 0.000000
0.004000 0.080000 0.000000
0.004500 0.080000 0.000000
0.000500 0.078750 0.000000
0.001000 0.078750 0.000000
0.001500 0.078750 0.000000
0.002000 0.078750 0.000000
0.002500 0.078750 0.000000
0.003000 0.078750 0.000000
0.003500 0.078750 0.000000
0.004000 0.078750 0.000000
0.004500 0.078750 0.000000
0.000500 0.077500 0.000000
0.001000 0.077500 0.000000
0.001500 0.077500 0.000000
0.002000 0.077500 0.000000
0.002500 0.077500 0.000000
0.003000 0.077500 0.000000
0.003500 0.077500 0.000000
0.004000 0.077500 0.000000
0.004500 0.077500 0.000000
0.000500 0.076250 0.000000
0.001000 0.076250 0.000000
0.001500 0.076250 0.000000
0.002000 0.076250 0.000000
0.002500 0.076250 0.000000
0.003000 0.076250 0.000000
0.003500 0.076250 0.000000
0.004000 0.076250 0.000000
0.004500 0.076250 0.000000
0.000500 0.075000 0.000000
0.001000 0.075000 0.000000
0.001500 0.075000 0.000000
0.002000 0.075000 0.000000
0.002500 0.075000 0.000000
0.003000 0.075000 0.000000
0.003500 0.075000 0.000000
0.004000 0.075000 0.000000
0.004500 0.075000 0.000000
0.000500 0.073750 0.000000
0.001000 0.073750 0.000000
0.001500 0.073750 0.000000
0.002000 0.073750 0.000000
0.002500 0.073750 0.000000
0.003000 0.073750 0.000000
0.003500 0.073750 0.000000
0.004000 0.073750 0.000000
0.004500 0.073750 0.000000
0.000500 0.072500 0.000000
0.001000 0.072500 0.000000
0.001500 0.072500 0.000000
0.002000 0.072500 0.000000
0.002500 0.072500 0.000000
0.003000 0.072500 0.000000
0.003500 0.072500 0.000000
0.004000 0.072500 0.000000
0.004500 0.072500 0.000000
0.000500 0.071250 0.000000
0.001000 0.071250 0.000000
0.001500 0.071250 0.000000
0.002000 0.071250 0.000000
0.002500 0.071250 0.000000
0.003000 0.071250 0.000000
0.003500 0.071250 0.000000
0.004000 0.071250 0.000000
0.004500 0.071250 0.000000
0.000500 0.070000 0.000000
0.001000 0.070000 0.000000
0.001500 0.070000 0.000000
0.002000 0.070000 0.000000
0.002500 0.070000 0.000000
0.003000 0.070000 0.000000
0.003500 0.070000 0.000000
0.004000 0.070000 0.000000
0.004500 0.070000 0.000000
0.000500 0.068750 0.000000
0.001000 0.068750 0.000000
0.001500 0.068750 0.000000
0.002000 0.068750 0.000000
0.002500 0.068750 0.000000
0.003000 0.068750 0.000000
0.003500 0.068750 0.000000
0.004000 0.068750 0.000000
0.004500 0.068750 0.000000
0.000500 0.067500 0.000000
0.001000 0.067500 0.000000
0.001500 0.067500 0.000000
0.002000 0.067500 0.000000
0.002500 0.067500 0.000000
0.003000 0.067500 0.000000
0.003500 0.067500 0.000000
0.004000 0.067500 0.000000
0.004500 0.067500 0.000000
0.000500 0.066250 0.000000
0.001000 0.066250 0.000000
0.001500 0.066250 0.000000
0.002000 0.066250 0.000000
0.002500 0.066250 0.000000
0.003000 0.066250 0.000000
0.003500 0.066250 0.000000
0.004000 0.066250 0.000000
0.004500 0.066250 0.000000
0.000500 0.065000 0.000000
0.001000 0.065000 0.000000
0.001500 0.065000 0.000000
0.002000 0.065000 0.000000
0.002500 0.065000 0.000000
0.003000 0.065000 0.000000
0.003500 0.065000 0.000000
0.004000 0.065000 0.000000
0.004500 0.065000 0.000000
0.000500 0.063750 0.000000
0.001000 0.063750 0.000000
0.001500 0.063750 0.000000
0.002000 0.063750 0.000000
0.002500 0.063750 0.000000
0.003000 0.063750 0.000000
0.003500 0.063750 0.000000
0.004000 0.063750 0.000000
0.004500 0.063750 0.000000
0.000500 0.062500 0.000000
0.001000 0.062500 0.000000
0.001500 0.062500 0.000000
0.002000 0.062500 0.000000
0.002500 0.062500 0.000000
0.003000 0.062500 0.000000
0.003500 0.062500 0.000000
0.004000 0.062500 0.000000
0.004500 0.062500 0.000000
0.000500 0.061250 0.000000
0.001000 0.061250 0.000000
0.001500 0.061250 0.000000
0.002000 0.061250 0.000000
0.002500 0.061250 0.000000
0.003000 0.061250 0.000000
0.003500 0.061250 0.000000
0.004000 0.061250 0.000000
0.004500 0.061250 0.000000
0.000500 0.060000 0.000000
0.001000 0.060000 0.000000
0.001500 0.060000 0.000000
0.002000 0.060000 0.000000
0.002500 0.060000 0.000000
0.003000 0.060000 0.000000
0.003500 0.060000 0.000000
0.004000 0.060000 0.000000
0.004500 0.060000 0.000000
0.000500 0.058750 0.000000
0.001000 0.058750 0.000000
0.001500 0.058750 0.000000
0.002000 0.058750 0.000000
0.002500 0.058750 0.000000
0.003000 0.058750 0.000000
0.003500 0.058750 0.000000
0.004000 0.058750 0.000000
0.004500 0.058750 0.000000
0.000500 0.057500 0.000000
0.001000 0.057500 0.000000
0.001500 0.057500 0.000000
0.002000 0.057500 0.000000
0.002500 0.057500 0.000000
0.003000 0.057500 0.000000
0.003500 0.057500 0.000000
0.004000 0.057500 0.000000
0.004500 0.057500 0.000000
0.000500 0.056250 0.000000
0.001000 0.056250 0.000000
0.001500 0.056250 0.000000
0.002000 0.056250 0.000000
0.002500 0.056250 0.000000
0.003000 0.056250 0.000000
0.003500 0.056250 0.000000
0.004000 0.056250 0.000000
0.004500 0.056250 0.000000
0.000500 0.055000 0.000000
0.001000 0.055000 0.000000
0.001500 0.055000 0.000000
0.002000 0.055000 0.000000
0.002500 0.055000 0.000000
0.003000 0.055000 0.000000
0.003500 0.055000 0.000000
0.004000 0.055000 0.000000
0.004500 0.055000 0.000000
0.000500 0.053750 0.000000
0.001000 0.053750 0.000000
0.001500 0.053750 0.000000
0.002000 0.053750 0.000000
0.002500 0.053750 0.000000
0.003000 0.053750 0.000000
0.003500 0.053750 0.000000
0.004000 0.053750 0.000000
0.004500 0.053750 0.000000
0.000500 0.052500 0.000000
0.001000 0.052500 0.000000
0.001500 0.052500 0.000000
0.002000 0.052500 0.000000
0.002500 0.052500 0.000000
0.003000 0.052500 0.000000
0.003500 0.052500 0.000000
0.004000 0.052500 0.000000
0.004500 0.052500 0.000000
0.000500 0.051250 0.000000
0.001000 0.051250 0.000000
0.001500 0.051250 0.000000
0.002000 0.051250 0.000000
0.002500 0.051250 0.000000
0.003000 0.051250 0.000000
0.003500 0.051250 0.000000
0.004000 0.051250 0.000000
0.004500 0.051250 0.000000
0.000500 0.050000 0.000000
0.001000 0.050000 0.000000
0.001500 0.050000 0.000000
0.002000 0.050000 0.000000
0.002500 0.050000 0.000000
0.003000 0.050000 0.000000
0.003500 0.050000 0.000000
0.004000 0.050000 0.000000
0.004500 0.050000 0.000000
0.000500 0.048750 0.000000
0.001000 0.048750 0.000000
0.001500 0.048750 0.000000
0.002000 0.048750 0.000000
0.002500 0.048750 0.000000
0.003000 0.048750 0.000000
0.003500 0.048750 0.000000
0.004000 0.048750 0.000000
0.004500 0.048750 0.000000
0.000500 0.047500 0.000000
0.001000 0.047500 0.000000
0.001500 0.047500 0.000000
0.002000 0.047500 0.000000
0.002500 0.047500 0.000000
0.003000 0.047500 0.000000
0.003500 0.047500 0.000000
0.004000 0.047500 0.000000
0.004500 0.047500 0.000000
0.000500 0.046250 0.000000
0.001000 0.046250 0.000000
0.001500 0.046250 0.000000
0.002000 0.046250 0.000000
0.002500 0.046250 0.000000
0.003000 0.046250 0.000000
0.003500 0.046250 0.000000
0.004000 0.046250 0.000000
0.004500 0.046250 0.000000
0.000500 0.045000 0.000000
0.001000 0.045000 0.000000
0.001500 0.045000 0.000000
0.002000 0.045000 0.000000
0.002500 0.045000 0.000000
0.003000 0.045000 0.000000
0.003500 0.045000 0.000000
0.004000 0.045000 0.000000
0.004500 0.045000 0.000000
0.000500 0.043750 0.000000
0.001000 0.043750 0.000000
0.001500 0.043750 0.000000
0.002000 0.043750 0.000000
0.002500 0.043750 0.000000
0.003000 0.043750 0.000000
0.003500 0.043750 0.000000
0.004000 0.043750 0.000000
0.004500 0.043750 0.000000
0.000500 0.042500 0.000000
0.001000 0.042500 0.000000
0.001500 0.042500 0.000000
0.002000 0.042500 0.000000
0.002500 0.042500 0.000000
0.003000 0.042500 0.000000
0.003500 0.042500 0.000000
0.004000 0.042500 0.000000
0.004500 0.042500 0.000000
0.000500 0.041250 0.000000
0.001000 0.041250 0.000000
0.001500 0.041250 0.000000
0.002000 0.041250 0.000000
0.002500 0.041250 0.000000
0.003000 0.041250 0.000000
0.003500 0.041250 0.000000
0.004000 0.041250 0.000000
0.004500 0.041250 0.000000
0.000500 0.040000 0.000000
0.001000 0.040000 0.000000
0.001500 0.040000 0.000000
0.002000 0.040000 0.000000
0.002500 0.040000 0.000000
0.003000 0.040000 0.000000
0.003500 0.040000 0.000000
0.004000 0.040000 0.000000
0.004500 0.040000 0.000000
0.000500 0.038750 0.000000
0.001000 0.038750 0.000000
0.001500 0.038750 0.000000
0.002000 0.038750 0.000000
0.002500 0.038750 0.000000
0.003000 0.038750 0.000000
0.003500 0.038750 0.000000
0.004000 0.038750 0.000000
0.004500 0.038750 0.000000
0.000500 0.037500 0.000000
0.001000 0.037500 0.000000
0.001500 0.037500 0.000000
0.002000 0.037500 0.000000
0.002500 0.037500 0.000000
0.003000 0.037500 0.000000
0.003500 0.037500 0.000000
0.004000 0.037500 0.000000
0.004500 0.037500 0.000000
0.000500 0.036250 0.000000
0.001000 0.036250 0.000000
0.001500 0.036250 0.000000
0.002000 0.036250 0.000000
0.002500 0.036250 0.000000
0.003000 0.036250 0.000000
0.003500 0.036250 0.000000
0.004000 0.036250 0.000000
0.004500 0.036250 0.000000
0.000500 0.035000 0.000000
0.001000 0.035000 0.000000
0.001500 0.035000 0.000000
0.002000 0.035000 0.000000
0.002500 0.035000 0.000000
0.003000 0.035000 0.000000
0.003500 0.035000 0.000000
0.004000 0.035000 0.000000
0.004500 0.035000 0.000000
0.000500 0.033750 0.000000
0.001000 0.033750 0.000000
0.001500 0.033750 0.000000
0.002000 0.033750 0.000000
0.002500 0.033750 0.000000
0.003000 0.033750 0.000000
0.003500 0.033750 0.000000
0.004000 0.033750 0.000000
0.004500 0.033750 0.000000
0.000500 0.032500 0.000000
0.001000 0.032500 0.000000
0.001500 0.032500 0.000000
0.002000 0.032500 0.000000
0.002500 0.032500 0.000000
0.003000 0.032500 0.000000
0.003500 0.032500 0.000000
0.004000 0.032500 0.000000
0.004500 0.032500 0.000000
0.000500 0.031250 0.000000
0.001000 0.031250 0.000000
0.001500 0.031250 0.000000
0.002000 0.031250 0.000000
0.002500 0.031250 0.000000
0.003000 0.031250 0.000000
0.003500 0.031250 0.000000
0.004000 0.031250 0.000000
0.004500 0.031250 0.000000
0.000500 0.030000 0.000000
0.001000 0.030000 0.000000
0.001500 0.030000 0.000000
0.002000 0.030000 0.000000
0.002500 0.030000 0.000000
0.003000 0.030000 0.000000
0.003500 0.030000 0.000000
0.004000 0.030000 0.000000
0.004500 0.030000 0.000000
0.000500 0.028750 0.000000
0.001000 0.028750 0.000000
0.001500 0.028750 0.000000
0.002000 0.028750 0.000000
0.002500 0.028750 0.000000
0.003000 0.028750 0.000000
0.003500 0.028750 0.000000
0.004000 0.028750 0.000000
0.004500 0.028750 0.000000
0.000500 0.027500 0.000000
0.001000 0.027500 0.000000
0.001500 0.027500 0.000000
0.002000 0.027500 0.000000
0.002500 0.027500 0.000000
0.003000 0.027500 0.000000
0.003500 0.027500 0.000000
0.004000 0.027500 0.000000
0.004500 0.027500 0.000000
0.000500 0.026250 0.000000
0.001000 0.026250 0.000000
0.001500 0.026250 0.000000
0.002000 0.026250 0.000000
0.002500 0.026250 0.000000
0.003000 0.026250 0.000000
0.003500 0.026250 0.000000
0.004000 0.026250 0.000000
0.004500 0.026250 0.000000
0.000500 0.025000 0.000000
0.001000 0.025000 0.000000
0.001500 0.025000 0.000000
0.002000 0.025000 0.000000
0.002500 0.025000 0.000000
0.003000 0.025000 0.000000
0.003500 0.025000 0.000000
0.004000 0.025000 0.000000
0.004500 0.025000 0.000000
0.000500 0.023750 0.000000
0.001000 0.023750 0.000000
0.001500 0.023750 0.000000
0.002000 0.023750 0.000000
0.002500 0.023750 0.000000
0.003000 0.023750 0.000000
0.003500 0.023750 0.000000
0.004000 0.023750 0.000000
0.004500 0.023750 0.000000
0.000500 0.022500 0.000000
0.001000 0.022500 0.000000
0.001500 0.022500 0.000000
0.002000 0.022500 0.000000
0.002500 0.022500 0.000000
0.003000 0.022500 0.000000
0.003500 0.022500 0.000000
0.004000 0.022500 0.000000
0.004500 0.022500 0.000000
0.000500 0.021250 0.000000
0.001000 0.021250 0.000000
0.001500 0.021250 0.000000
0.002000 0.021250 0.000000
0.002500 0.021250 0.000000
0.003000 0.021250 0.000000
0.003500 0.021250 0.000000
0.004000 0.021250 0.000000
0.004500 0.021250 0.000000
0.000500 0.020000 0.000000
0.001000 0.020000 0.000000
0.001500 0.020000 0.000000
0.002000 0.020000 0.000000
0.002500 0.020000 0.000000
0.003000 0.020000 0.000000
0.003500 0.020000 0.000000
0.004000 0.020000 0.000000
0.004500 0.020000 0.000000
0.000500 0.018750 0.000000
0.001000 0.018750 0.000000
0.001500 0.018750 0.000000
0.002000 0.018750 0.000000
0.002500 0.018750 0.000000
0.003000 0.018750 0.000000
0.003500 0.018750 0.000000
0.004000 0.018750 0.000000
0.004500 0.018750 0.000000
0.000500 0.017500 0.000000
0.001000 0.017500 0.000000
0.001500 0.017500 0.000000
0.002000 0.017500 0.000000
0.002500 0.017500 0.000000
0.003000 0.017500 0.000000
0.003500 0.017500 0.000000
0.004000 0.017500 0.000000
0.004500 0.017500 0.000000
0.000500 0.016250 0.000000
0.001000 0.016250 0.000000
0.001500 0.016250 0.000000
0.002000 0.016250 0.000000
0.002500 0.016250 0.000000
0.003000 0.016250 0.000000
0.003500 0.016250 0.000000
0.004000 0.016250 0.000000
0.004500 0.016250 0.000000
0.000500 0.015000 0.000000
0.001000 0.015000 0.000000
0.001500 0.015000 0.000000
0.002000 0.015000 0.000000
0.002500 0.015000 0.000000
0.003000 0.015000 0.000000
0.003500 0.015000 0.000000
0.004000 0.015000 0.000000
0.004500 0.015000 0.000000
0.000500 0.013750 0.000000
0.001000 0.013750 0.000000
0.001500 0.013750 0.000000
0.002000 0.013750 0.000000
0.002500 0.013750 0.000000
0.003000 0.013750 0.000000
0.003500 0.013750 0.000000
0.004000 0.013750 0.000000
0.004500 0.013750 0.000000
0.000500 0.012500 0.000000
0.001000 0.012500 0.000000
0.001500 0.012500 0.000000
0.002000 0.012500 0.000000
0.002500 0.012500 0.000000
0.003000 0.012500 0.000000
0.003500 0.012500 0.000000
0.004000 0.012500 0.000000
0.004500 0.012500 0.000000
0.000500 0.011250 0.000000
0.001000 0.011250 0.000000
0.001500 0.011250 0.000000
0.002000 0.011250 0.000000
0.002500 0.011250 0.000000
0.003000 0.011250 0.000000
0.003500 0.011250 0.000000
0.004000 0.011250 0.000000
0.004500 0.011250 0.000000
0.000500 0.010000 0.000000
0.001000 0.010000 0.000000
0.001500 0.010000 0.000000
0.002000 0.010000 0.000000
0.002500 0.010000 0.000000
0.003000 0.010000 0.000000
0.003500 0.010000 0.000000
0.004000 0.010000 0.000000
0.004500 0.010000 0.000000
0.000500 0.008750 0.000000
0.001000 0.008750 0.000000
0.001500 0.008750 0.000000
0.002000 0.008750 0.000000
0.002500 0.008750 0.000000
0.003000 0.008750 0.000000
0.003500 0.008750 0.000000
0.004000 0.008750 0.000000
0.004500 0.008750 0.000000
0.000500 0.007500 0.000000
0.001000 0.007500 0.000000
0.001500 0.007500 0.000000
0.002000 0.007500 0.000000
0.002500 0.007500 0.000000
0.003000 0.007500 0.000000
0.003500 0.007500 0.000000
0.004000 0.007500 0.000000
0.004500 0.007500 0.000000
0.000500 0.006250 0.000000
0.001000 0.006250 0.000000
0.001500 0.006250 0.000000
0.002000 0.006250 0.000000
0.002500 0.006250 0.000000
0.003000 0.006250 0.000000
0.003500 0.006250 0.000000
0.004000 0.006250 0.000000
0.004500 0.006250 0.000000
0.000500 0.005000 0.000000
0.001000 0.005000 0.000000
0.001500 0.005000 0.000000
0.002000 0.005000 0.000000
0.002500 0.005000 0.000000
0.003000 0.005000 0.000000
0.003500 0.005000 0.000000
0.004000 0.005000 0.000000
0.004500 0.005000 0.000000
0.000500 0.003750 0.000000
0.001000 0.003750 0.000000
0.001500 0.003750 0.000000
0.002000 0.003750 0.000000
0.002500 0.003750 0.000000
0.003000 0.003750 0.000000
0.003500 0.003750 0.000000
0.004000 0.003750 0.000000
0.004500 0.003750 0.000000
0.000500 0.002500 0.000000
0.001000 0.002500 0.000000
0.001500 0.002500 0.000000
0.002000 0.002500 0.000000
0.002500 0.002500 0.000000
0.003000 0.002500 0.000000
0.003500 0.002500 0.000000
0.004000 0.002500 0.000000
0.004500 0.002500 0.000000
0.000500 0.001250 0.000000
0.001000 0.001250 0.000000
0.001500 0.001250 0.000000
0.002000 0.001250 0.000000
0.002500 0.001250 0.000000
0.003000 0.001250 0.000000
0.003500 0.001250 0.000000
0.004000 0.001250 0.000000
0.004500 0.001250 0.000000
CELLS 800 4000
4 82 83 180 179
4 179 180 181 178
4 178 181 182 177
4 177 182 183 176
4 176 183 184 175
4 175 184 185 174
4 174 185 186 173
4 173 186 187 172
4 172 187 188 171
4 171 188 80 0
4 83 84 189 180
4 180 189 190 181
4 181 190 191 182
4 182 191 192 183
4 183 192 193 184
4 184 193 194 185
4 185 194 195 186
4 186 195 196 187
4 187 196 197 188
4 188 197 79 80
4 84 85 198 189
4 189 198 199 190
4 190 199 200 191
4 191 200 201 192
4 192 201 202 193
4 193 202 203 194
4 194 203 204 195
4 195 204 205 196
4 196 205 206 197
4 197 206 78 79
4 85 86 207 198
4 198 207 208 199
4 199 208 209 200
4 200 209 210 201
4 201 210 211 202
4 202 211 212 203
4 203 212 213 204
4 204 213 214 205
4 205 214 215 206
4 206 215 77 78
4 86 87 216 207
4 207 216 217 208
4 208 217 218 209
4 209 218 219 210
4 210 219 220 211
4 211 220 221 212
4 212 221 222 213
4 213 222 223 214
4 214 223 224 215
4 215 224 76 77
4 87 88 225 216
4 216 225 226 217
4 217 226 227 218
4 218 227 228 219
4 219 228 229 220
4 220 229 230 221
4 221 230 231 222
4 222 231 232 223
4 223 232 233 224
4 224 233 75 76
4 88 89 234 225
4 225 234 235 226
4 226 235 236 227
4 227 236 237 228
4 228 237 238 229
4 229 238 239 230
4 230 239 240 231
4 231 240 241 232
4 232 241 242 233
4 233 242 74 75
4 89 90 243 234
4 234 243 244 235
4 235 244 245 236
4 236 245 246 237
4 237 246 247 238
4 238 247 248 239
4 239 248 249 240
4 240 249 250 241
4 241 250 251 242
4 242 251 73 74
4 90 91 252 243
4 243 252 253 244
4 244 253 254 245
4 245 254 255 246
4 246 255 256 247
4 247 256 257 248
4 248 257 258 249
4 249 258 259 250
4 250 259 260 251
4 251 260 72 73
4 91 92 261 252
4 252 261 262 253
4 253 262 263 254
4 254 263 264 255
4 255 264 265 256
4 256 265 266 257
4 257 266 267 258
4 258 267 268 259
4 259 268 269 260
4 260 269 71 72
4 92 93 270 261
4 261 270 271 262
4 262 271 272 263
4 263 272 273 264
4 264 273 274 265
4 265 274 275 266
4 266 275 276 267
4 267 276 277 268
4 268 277 278 269
4 269 278 70 71
4 93 94 279 270
4 270 279 280 271
4 271 280 281 272
4 272 281 282 273
4 273 282 283 274
4 274 283 284 275
4 275 284 285 276
4 276 285 286 277
4 277 286 287 278
4 278 287 69 70
4 94 95 288 279
4 279 288 289 280
4 280 289 290 281
4 281 290 291 282
4 282 291 292 283
4 283 292 293 284
4 284 293 294 285
4 285 294 295 286
4 286 295 296 287
4 287 296 68 69
4 95 96 297 288
4 288 297 298 289
4 289 298 299 290
4 290 299 300 291
4 291 300 301 292
4 292 301 302 293
4 293 302 303 294
4 294 303 304 295
4 295 304 305 296
4 296 305 67 68
4 96 97 306 297
4 297 306 307 298
4 298 307 308 299
4 299 308 309 300
4 300 309 310 301
4 301 310 311 302
4 302 311 312 303
4 303 312 313 304
4 304 313 314 305
4 305 314 66 67
4 97 98 315 306
4 306 315 316 307
4 307 316 317 308
4 308 317 318 309
4 309 318 319 310
4 310 319 320 311
4 311 320 321 312
4 312 321 322 313
4 313 322 323 314
4 314 323 65 66
4 98 99 324 315
4 315 324 325 316
4 316 325 326 317
4 317 326 327 318
4 318 327 328 319
4 319 328 329 320
4 320 329 330 321
4 321 330 331 322
4 322 331 332 323
4 323 332 64 65
4 99 100 333 324
4 324 333 334 325
4 325 334 335 326
4 326 335 336 327
4 327 336 337 328
4 328 337 338 329
4 329 338 339 330
4 330 339 340 331
4 331 340 341 332
4 332 341 63 64
4 100 101 342 333
4 333 342 343 334
4 334 343 344 335
4 335 344 345 336
4 336 345 346 337
4 337 346 347 338
4 338 347 348 339
4 339 348 349 340
4 340 349 350 341
4 341 350 62 63
4 101 102 351 342
4 342 351 352 343
4 343 352 353 344
4 344 353 354 345
4 345 354 355 346
4 346 355 356 347
4 347 356 357 348
4 348 357 358 349
4 349 358 359 350
4 350 359 61 62
4 102 103 360 351
4 351 360 361 352
4 352 361 362 353
4 353 362 363 354
4 354 363 364 355
4 355 364 365 356
4 356 365 366 357
4 357 366 367 358
4 358 367 368 359
4 359 368 60 61
4 103 104 369 360
4 360 369 370 361
4 361 370 371 362
4 362 371 372 363
4 363 372 373 364
4 364 373 374 365
4 365 374 375 366
4 366 375 376 367
4 367 376 377 368
4 368 377 59 60
4 104 105 378 369
4 369 378 379 370
4 370 379 380 371
4 371 380 381 372
4 372 381 382 373
4 373 382 383 374
4 374 383 384 375
4 375 384 385 376
4 376 385 386 377
4 377 386 58 59
4 105 106 387 378
4 378 387 388 379
4 379 388 389 380
4 380 389 390 381
4 381 390 391 382
4 382 391 392 383
4 383 392 393 384
4 384 393 394 385
4 385 394 395 386
4 386 395 57 58
4 106 107 396 387
4 387 396 397 388
4 388 397 398 389
4 389 398 399 390
4 390 399 400 391
4 391 400 401 392
4 392 401 402 393
4 393 402 403 394
4 394 403 404 395
4 395 404 56 57
4 107 108 405 396
4 396 405 406 397
4 397 406 407 398
4 398 407 408 399
4 399 408 409 400
4 400 409 410 401
4 401 410 411 402
4 402 411 412 403
4 403 412 413 404
4 404 413 55 56
4 108 109 414 405
4 405 414 415 406
4 406 415 416 407
4 407 416 417 408
4 408 417 418 409
4 409 418 419 410
4 410 419 420 411
4 411 420 421 412
4 412 421 422 413
4 413 422 54 55
4 109 110 423 414
4 414 423 424 415
4 415 424 425 416
4 416 425 426 417
4 417 426 427 418
4 418 427 428 419
4 419 428 429 420
4 420 429 430 421
4 421 430 431 422
4 422 431 53 54
4 110 111 432 423
4 423 432 433 424
4 424 433 434 425
4 425 434 435 426
4 426 435 436 427
4 427 436 437 428
4 428 437 438 429
4 429 438 439 430
4 430 439 440 431
4 431 440 52 53
4 111 112 441 432
4 432 441 442 433
4 433 442 443 434
4 434 443 444 435
4 435 444 445 436
4 436 445 446 437
4 437 446 447 438
4 438 447 448 439
4 439 448 449 440
4 440 449 51 52
4 112 113 450 441
4 441 450 451 442
4 442 451 452 443
4 443 452 453 444
4 444 453 454 445
4 445 454 455 446
4 446 455 456 447
4 447 456 457 448
4 448 457 458 449
4 449 458 50 51
4 113 114 459 450
4 450 459 460 451
4 451 460 461 452
4 452 461 462 453
4 453 462 463 454
4 454 463 464 455
4 455 464 465 456
4 456 465 466 457
4 457 466 467 458
4 458 467 49 50
4 114 115 468 459
4 459 468 469 460
4 460 469 470 461
4 461 470 471 462
4 462 471 472 463
4 463 472 473 464
4 464 473 474 465
4 465 474 475 466
4 466 475 476 467
4 467 476 48 49
4 115 116 477 468
4 468 477 478 469
4 469 478 479 470
4 470 479 480 471
4 471 480 481 472
4 472 481 482 473
4 473 482 483 474
4 474 483 484 475
4 475 484 485 476
4 476 485 47 48
4 116 117 486 477
4 477 486 487 478
4 478 487 488 479
4 479 488 489 480
4 480 489 490 481
4 481 490 491 482
4 482 491 492 483
4 483 492 493 484
4 484 493 494 485
4 485 494 46 47
4 117 118 495 486
4 486 495 496 487
4 487 496 497 488
4 488 497 498 489
4 489 498 499 490
4 490 499 500 491
4 491 500 501 492
4 492 501 502 493
4 493 502 503 494
4 494 503 45 46
4 118 119 504 495
4 495 504 505 496
4 496 505 506 497
4 497 506 507 498
4 498 507 508 499
4 499 508 509 500
4 500 509 510 501
4 501 510 511 502
4 502 511 512 503
4 503 512 44 45
4 119 120 513 504
4 504 513 514 505
4 505 514 515 506
4 506 515 516 507
4 507 516 517 508
4 508 517 518 509
4 509 518 519 510
4 510 519 520 511
4 511 520 521 512
4 512 521 43 44
4 120 121 522 513
4 513 522 523 514
4 514 523 524 515
4 515 524 525 516
4 516 525 526 517
4 517 526 527 518
4 518 527 528 519
4 519 528 529 520
4 520 529 530 521
4 521 530 42 43
4 121 122 531 522
4 522 531 532 523
4 523 532 533 524
4 524 533 534 525
4 525 534 535 526
4 526 535 536 527
4 527 536 537 528
4 528 537 538 529
4 529 538 539 530
4 530 539 41 42
4 122 123 540 531
4 531 540 541 532
4 532 541 542 533
4 533 542 543 534
4 534 543 544 535
4 535 544 545 536
4 536 545 546 537
4 537 546 547 538
4 538 547 548 539
4 539 548 40 41
4 123 124 549 540
4 540 549 550 541
4 541 550 551 542
4 542 551 552 543
4 543 552 553 544
4 544 553 554 545
4 545 554 555 546
4 546 555 556 547
4 547 556 557 548
4 548 557 39 40
4 124 125 558 549
4 549 558 559 550
4 550 559 560 551
4 551 560 561 552
4 552 561 562 553
4 553 562 563 554
4 554 563 564 555
4 555 564 565 556
4 556 565 566 557
4 557 566 38 39
4 125 126 567 558
4 558 567 568 559
4 559 568 569 560
4 560 569 570 561
4 561 570 571 562
4 562 571 572 563
4 563 572 573 564
4 564 573 574 565
4 565 574 575 566
4 566 575 37 38
4 126 127 576 567
4 567 576 577 568
4 568 577 578 569
4 569 578 579 570
4 570 579 580 571
4 571 580 581 572
4 572 581 582 573
4 573 582 583 574
4 574 583 584 575
4 575 584 36 37
4 127 128 585 576
4 576 585 586 577
4 577 586 587 578
4 578 587 588 579
4 579 588 589 580
4 580 589 590 581
4 581 590 591 582
4 582 591 592 583
4 583 592 593 584
4 584 593 35 36
4 128 129 594 585
4 585 594 595 586
4 586 595 596 587
4 587 596 597 588
4 588 597 598 589
4 589 598 599 590
4 590 599 600 591
4 591 600 601 592
4 592 601 602 593
4 593 602 34 35
4 129 130 603 594
4 594 603 604 595
4 595 604 605 596
4 596 605 606 597
4 597 606 607 598
4 598 607 608 599
4 599 608 609 600
4 600 609 610 601
4 601 610 611 602
4 602 611 33 34
4 130 131 612 603
4 603 612 613 604
4 604 613 614 605
4 605 614 615 606
4 606 615 616 607
4 607 616 617 608
4 608 617 618 609
4 609 618 619 610
4 610 619 620 611
4 611 620 32 33
4 131 132 621 612
4 612 621 622 613
4 613 622 623 614
4 614 623 624 615
4 615 624 625 616
4 616 625 626 617
4 617 626 627 618
4 618 627 628 619
4 619 628 629 620
4 620 629 31 32
4 132 133 630 621
4 621 630 631 622
4 622 631 632 623
4 623 632 633 624
4 624 633 634 625
4 625 634 635 626
4 626 635 636 627
4 627 636 637 628
4 628 637 638 629
4 629 638 30 31
4 133 134 639 630
4 630 639 640 631
4 631 640 641 632
4 632 641 642 633
4 633 642 643 634
4 634 643 644 635
4 635 644 645 636
4 636 645 646 637
4 637 646 647 638
4 638 647 29 30
4 134 135 648 639
4 639 648 649 640
4 640 649 650 641
4 641 650 651 642
4 642 651 652 643
4 643 652 653 644
4 644 653 654 645
4 645 654 655 646
4 646 655 656 647
4 647 656 28 29
4 135 136 657 648
4 648 657 658 649
4 649 658 659 650
4 650 659 660 651
4 651 660 661 652
4 652 661 662 653
4 653 662 663 654
4 654 663 664 655
4 655 664 665 656
4 656 665 27 28
4 136 137 666 657
4 657 666 667 658
4 658 667 668 659
4 659 668 669 660
4 660 669 670 661
4 661 670 671 662
4 662 671 672 663
4 663 672 673 664
4 664 673 674 665
4 665 674 26 27
4 137 138 675 666
4 666 675 676 667
4 667 676 677 668
4 668 677 678 669
4 669 678 679 670
4 670 679 680 671
4 671 680 681 672
4 672 681 682 673
4 673 682 683 674
4 674 683 25 26
4 138 139 684 675
4 675 684 685 676
4 676 685 686 677
4 677 686 687 678
4 678 687 688 679
4 679 688 689 680
4 680 689 690 681
4 681 690 691 682
4 682 691 692 683
4 683 692 24 25
4 139 140 693 684
4 684 693 694 685
4 685 694 695 686
4 686 695 696 687
4 687 696 697 688
4 688 697 698 689
4 689 698 699 690
4 690 699 700 691
4 691 700 701 692
4 692 701 23 24
4 140 141 702 693
4 693 702 703 694
4 694 703 704 695
4 695 704 705 696
4 696 705 706 697
4 697 706 707 698
4 698 707 708 699
4 699 708 709 700
4 700 709 710 701
4 701 710 22 23
4 141 142 711 702
4 702 711 712 703
4 703 712 713 704
4 704 713 714 705
4 705 714 715 706
4 706 715 716 707
4 707 716 717 708
4 708 717 718 709
4 709 718 719 710
4 710 719 21 22
4 142 143 720 711
4 711 720 721 712
4 712 721 722 713
4 713 722 723 714
4 714 723 724 715
4 715 724 725 716
4 716 725 726 717
4 717 726 727 718
4 718 727 728 719
4 719 728 20 21
4 143 144 729 720
4 720 729 730 721
4 721 730 731 722
4 722 731 732 723
4 723 732 733 724
4 724 733 734 725
4 725 734 735 726
4 726 735 736 727
4 727 736 737 728
4 728 737 19 20
4 144 145 738 729
4 729 738 739 730
4 730 739 740 731
4 731 740 741 732
4 732 741 742 733
4 733 742 743 734
4 734 743 744 735
4 735 744 745 736
4 736 745 746 737
4 737 746 18 19
4 145 146 747 738
4 738 747 748 739
4 739 748 749 740
4 740 749 750 741
4 741 750 751 742
4 742 751 752 743
4 743 752 753 744
4 744 753 754 745
4 745 754 755 746
4 746 755 17 18
4 146 147 756 747
4 747 756 757 748
4 748 757 758 749
4 749 758 759 750
4 750 759 760 751
4 751 760 761 752
4 752 761 762 753
4 753 762 763 754
4 754 763 764 755
4 755 764 16 17
4 147 148 765 756
4 756 765 766 757
4 757 766 767 758
4 758 767 768 759
4 759 768 769 760
4 760 769 770 761
4 761 770 771 762
4 762 771 772 763
4 763 772 773 764
4 764 773 15 16
4 148 149 774 765
4 765 774 775 766
4 766 775 776 767
4 767 776 777 768
4 768 777 778 769
4 769 778 779 770
4 770 779 780 771
4 771 780 781 772
4 772 781 782 773
4 773 782 14 15
4 149 150 783 774
4 774 783 784 775
4 775 784 785 776
4 776 785 786 777
4 777 786 787 778
4 778 787 788 779
4 779 788 789 780
4 780 789 790 781
4 781 790 791 782
4 782 791 13 14
4 150 151 792 783
4 783 792 793 784
4 784 793 794 785
4 785 794 795 786
4 786 795 796 787
4 787 796 797 788
4 788 797 798 789
4 789 798 799 790
4 790 799 800 791
4 791 800 12 13
4 151 152 801 792
4 792 801 802 793
4 793 802 803 794
4 794 803 804 795
4 795 804 805 796
4 796 805 806 797
4 797 806 807 798
4 798 807 808 799
4 799 808 809 800
4 800 809 11 12
4 152 153 810 801
4 801 810 811 802
4 802 811 812 803
4 803 812 813 804
4 804 813 814 805
4 805 814 815 806
4 806 815 816 807
4 807 816 817 808
4 808 817 818 809
4 809 818 10 11
4 153 154 819 810
4 810 819 820 811
4 811 820 821 812
4 812 821 822 813
4 813 822 823 814
4 814 823 824 815
4 815 824 825 816
4 816 825 826 817
4 817 826 827 818
4 818 827 9 10
4 154 155 828 819
4 819 828 829 820
4 820 829 830 821
4 821 830 831 822
4 822 831 832 823
4 823 832 833 824
4 824 833 834 825
4 825 834 835 826
4 826 835 836 827
4 827 836 8 9
4 155 156 837 828
4 828 837 838 829
4 829 838 839 830
4 830 839 840 831
4 831 840 841 832
4 832 841 842 833
4 833 842 843 834
4 834 843 844 835
4 835 844 845 836
4 836 845 7 8
4 156 157 846 837
4 837 846 847 838
4 838 847 848 839
4 839 848 849 840
4 840 849 850 841
4 841 850 851 842
4 842 851 852 843
4 843 852 853 844
4 844 853 854 845
4 845 854 6 7
4 157 158 855 846
4 846 855 856 847
4 847 856 857 848
4 848 857 858 849
4 849 858 859 850
4 850 859 860 851
4 851 860 861 852
4 852 861 862 853
4 853 862 863 854
4 854 863 5 6
4 158 159 864 855
4 855 864 865 856
4 856 865 866 857
4 857 866 867 858
4 858 867 868 859
4 859 868 869 860
4 860 869 870 861
4 861 870 871 862
4 862 871 872 863
4 863 872 4 5
4 159 160 873 864
4 864 873 874 865
4 865 874 875 866
4 866 875 876 867
4 867 876 877 868
4 868 877 878 869
4 869 878 879 870
4 870 879 880 871
4 871 880 881 872
4 872 881 3 4
4 160 161 882 873
4 873 882 883 874
4 874 883 884 875
4 875 884 885 876
4 876 885 886 877
4 877 886 887 878
4 878 887 888 879
4 879 888 889 880
4 880 889 890 881
4 881 890 2 3
4 161 81 162 882
4 882 162 163 883
4 883 163 164 884
4 884 164 165 885
4 885 165 166 886
4 886 166 167 887
4 887 167 168 888
4 888 168 169 889
4 889 169 170 890
4 890 170 1 2
CELL_TYPES 800
9
9
9
9
9
9
9
9
9
9
9
9
9
9
9
9
9
9
9
9
9
9
9
9
9
9
9
9
9
9
9
9
9
9
9
9
9
9
9
9
9
9
9
9
9
9
9
9
9
9
9
9
9
9
9
9
9
9
9
9
9
9
9
9
9
9
9
9
9
9
9
9
9
9
9
9
9
9
9
9
9
9
9
9
9
9
9
9
9
9
9
9
9
9
9
9
9
9
9
9
9
9
9
9
9
9
9
9
9
9
9
9
9
9
9
9
9
9
9
9
9
9
9
9
9
9
9
9
9
9
9
9
9
9
9
9
9
9
9
9
9
9
9
9
9
9
9
9
9
9
9
9
9
9
9
9
9
9
9
9
9
9
9
9
9
9
9
9
9
9
9
9
9
9
9
9
9
9
9
9
9
9
9
9
9
9
9
9
9
9
9
9
9
9
9
9
9
9
9
9
9
9
9
9
9
9
9
9
9
9
9
9
9
9
9
9
9
9
9
9
9
9
9
9
9
9
9
9
9
9
9
9
9
9
9
9
9
9
9
9
9
9
9
9
9
9
9
9
9
9
9
9
9
9
9
9
9
9
9
9
9
9
9
9
9
9
9
9
9
9
9
9
9
9
9
9
9
9
9
9
9
9
9
9
9
9
9
9
9
9
9
9
9
9
9
9
9
9
9
9
9
9
9
9
9
9
9
9
9
9
9
9
9
9
9
9
9
9
9
9
9
9
9
9
9
9
9
9
9
9
9
9
9
9
9
9
9
9
9
9
9
9
9
9
9
9
9
9
9
9
9
9
9
9
9
9
9
9
9
9
9
9
9
9
9
9
9
9
9
9
9
9
9
9
9
9
9
9
9
9
9
9
9
9
9
9
9
9
9
9
9
9
9
9
9
9
9
9
9
9
9
9
9
9
9
9
9
9
9
9
9
9
9
9
9
9
9
9
9
9
9
9
9
9
9
9
9
9
9
9
9
9
9
9
9
9
9
9
9
9
9
9
9
9
9
9
9
9
9
9
9
9
9
9
9
9
9
9
9
9
9
9
9
9
9
9
9
9
9
9
9
9
9
9
9
9
9
9
9
9
9
9
9
9
9
9
9
9
9
9
9
9
9
9
9
9
9
9
9
9
9
9
9
9
9
9
9
9
9
9
9
9
9
9
9
9
9
9
9
9
9
9
9
9
9
9
9
9
9
9
9
9
9
9
9
9
9
9
9
9
9
9
9
9
9
9
9
9
9
9
9
9
9
9
9
9
9
9
9
9
9
9
9
9
9
9
9
9
9
9
9
9
9
9
9
9
9
9
9
9
9
9
9
9
9
9
9
9
9
9
9
9
9
9
9
9
9
9
9
9
9
9
9
9
9
9
9
9
9
9
9
9
9
9
9
9
9
9
9
9
9
9
9
9
9
9
9
9
9
9
9
9
9
9
9
9
9
9
9
9
9
9
9
9
9
9
9
9
9
9
9
9
9
9
9
9
9
9
9
9
9
9
9
9
9
9
9
9
9
9
9
9
9
9
9
9
9
9
9
9
9
9
9
9
9
9
9
9
9
9
9
9
9
9
9
9
9
9
9
9
9
9
9
9
9
9
9
9
9
9
9
9
9
9
9
9
9
9
9
9
9
9
9
9
9
9
9
9
9
9
9
9
9
9
9
9
9
9
9
9
9
9
9
9
9
9
9
9
9
9
9
9
9
9
9
9
9
9
9
9
9
9
9
9
9
9
9
9
9
9
9
9
9
9
9
9
9
9
9
9
9
9
9
9
9
9
9
9
9
9
9
9
9
9
9
9
9
9
9
9
POINT_DATA 891
SCALARS u1 float
LOOKUP_TABLE default
-5e-06
-5e-06
-5e-06
-5e-06
-5e-06
-5e-06
-5e-06
-5e-06
-5e-06
-5e-06
-5e-06
-5e-06
-5e-06
-5e-06
-5e-06
-5e-06
-5e-06
-5e-06
-5e-06
-5e-06
-5e-06
-5e-06
-5e-06
-5e-06
-5e-06
-5e-06
-5e-06
-5e-06
-5e-06
-5e-06
-5e-06
-5e-06
-5e-06
-5e-06
-5e-06
-5e-06
-5e-06
-5e-06
-5e-06
-5e-06
-5e-06
-5e-06
-5e-06
-5e-06
-5e-06
-5e-06
-5e-06
-5e-06
-5e-06
-5e-06
-5e-06
-5e-06
-5e-06
-5e-06
-5e-06
-5e-06
-5e-06
-5e-06
-5e-06
-5e-06
-5e-06
-5e-06
-5e-06
-5e-06
-5e-06
-5e-06
-5e-06
-5e-06
-5e-06
-5e-06
-5e-06
-5e-06
-5e-06
-5e-06
-5e-06
-5e-06
-5e-06
-5e-06
-5e-06
-5e-06
-5e-06
4e-05
4e-05
4e-05
4e-05
4e-05
4e-05
4e-05
4e-05
4e-05
4e-05
4e-05
4e-05
4e-05
4e-05
4e-05
4e-05
4e-05
4e-05
4e-05
4e-05
4e-05
4e-05
4e-05
4e-05
4e-05
4e-05
4e-05
4e-05
4e-05
4e-05
4e-05
4e-05
4e-05
4e-05
4e-05
4e-05
4e-05
4e-05
4e-05
4e-05
4e-05
4e-05
4e-05
4e-05
4e-05
4e-05
4e-05
4e-05
4e-05
4e-05
4e-05
4e-05
4e-05
4e-05
4e-05
4e-05
4e-05
4e-05
4e-05
4e-05
4e-05
4e-05
4e-05
4e-05
4e-05
4e-05
4e-05
4e-05
4e-05
4e-05
4e-05
4e-05
4e-05
4e-05
4e-05
4e-05
4e-05
4e-05
4e-05
4e-05
4e-05
4e-05
3e-05
3e-05
2e-05
2e-05
1e-05
9e-06
4e-06
-4e-07
-4e-07
4e-06
9e-06
1e-05
2e-05
2e-05
3e-05
3e-05
4e-05
4e-05
3e-05
3e-05
2e-05
2e-05
1e-05
9e-06
4e-06
-4e-07
4e-05
3e-05
3e-05
2e-05
2e-05
1e-05
9e-06
4e-06
-4e-07
4e-05
3e-05
3e-05
2e-05
2e-05
1e-05
9e-06
4e-06
-4e-07
4e-05
3e-05
3e-05
2e-05
2e-05
1e-05
9e-06
4e-06
-4e-07
4e-05
3e-05
3e-05
2e-05
2e-05
1e-05
9e-06
4e-06
-4e-07
4e-05
3e-05
3e-05
2e-05
2e-05
1e-05
9e-06
4e-06
-4e-07
4e-05
3e-05
3e-05
2e-05
2e-05
1e-05
9e-06
4e-06
-4e-07
4e-05
3e-05
3e-05
2e-05
2e-05
1e-05
9e-06
4e-06
-4e-07
4e-05
3e-05
3e-05
2e-05
2e-05
1e-05
9e-06
4e-06
-4e-07
4e-05
3e-05
3e-05
2e-05
2e-05
1e-05
9e-06
4e-06
-4e-07
4e-05
3e-05
3e-05
2e-05
2e-05
1e-05
9e-06
4e-06
-4e-07
4e-05
3e-05
3e-05
2e-05
2e-05
1e-05
9e-06
4e-06
-4e-07
4e-05
3e-05
3e-05
2e-05
2e-05
1e-05
9e-06
4e-06
-4e-07
4e-05
3e-05
3e-05
2e-05
2e-05
1e-05
9e-06
4e-06
-4e-07
4e-05
3e-05
3e-05
2e-05
2e-05
1e-05
9e-06
4e-06
-4e-07
4e-05
3e-05
3e-05
2e-05
2e-05
1e-05
9e-06
4e-06
-4e-07
4e-05
3e-05
3e-05
2e-05
2e-05
1e-05
9e-06
4e-06
-4e-07
4e-05
3e-05
3e-05
2e-05
2e-05
1e-05
9e-06
4e-06
-4e-07
4e-05
3e-05
3e-05
2e-05
2e-05
1e-05
9e-06
4e-06
-4e-07
4e-05
3e-05
3e-05
2e-05
2e-05
1e-05
9e-06
4e-06
-4e-07
4e-05
3e-05
3e-05
2e-05
2e-05
1e-05
9e-06
4e-06
-4e-07
4e-05
3e-05
3e-05
2e-05
2e-05
1e-05
9e-06
4e-06
-4e-07
4e-05
3e-05
3e-05
2e-05
2e-05
1e-05
9e-06
4e-06
-4e-07
4e-05
3e-05
3e-05
2e-05
2e-05
1e-05
9e-06
4e-06
-4e-07
4e-05
3e-05
3e-05
2e-05
2e-05
1e-05
9e-06
4e-06
-4e-07
4e-05
3e-05
3e-05
2e-05
2e-05
1e-05
9e-06
4e-06
-4e-07
4e-05
3e-05
3e-05
2e-05
2e-05
1e-05
9e-06
4e-06
-4e-07
4e-05
3e-05
3e-05
2e-05
2e-05
1e-05
9e-06
4e-06
-4e-07
4e-05
3e-05
3e-05
2e-05
2e-05
1e-05
9e-06
4e-06
-4e-07
4e-05
3e-05
3e-05
2e-05
2e-05
1e-05
9e-06
4e-06
-4e-07
4e-05
3e-05
3e-05
2e-05
2e-05
1e-05
9e-06
4e-06
-4e-07
4e-05
3e-05
3e-05
2e-05
2e-05
1e-05
9e-06
4e-06
-4e-07
4e-05
3e-05
3e-05
2e-05
2e-05
1e-05
9e-06
4e-06
-4e-07
4e-05
3e-05
3e-05
2e-05
2e-05
1e-05
9e-06
4e-06
-4e-07
4e-05
3e-05
3e-05
2e-05
2e-05
1e-05
9e-06
4e-06
-4e-07
4e-05
3e-05
3e-05
2e-05
2e-05
1e-05
9e-06
4e-06
-4e-07
4e-05
3e-05
3e-05
2e-05
2e-05
1e-05
9e-06
4e-06
-4e-07
4e-05
3e-05
3e-05
2e-05
2e-05
1e-05
9e-06
4e-06
-4e-07
4e-05
3e-05
3e-05
2e-05
2e-05
1e-05
9e-06
4e-06
-4e-07
4e-05
3e-05
3e-05
2e-05
2e-05
1e-05
9e-06
4e-06
-4e-07
4e-05
3e-05
3e-05
2e-05
2e-05
1e-05
9e-06
4e-06
-4e-07
4e-05
3e-05
3e-05
2e-05
2e-05
1e-05
9e-06
4e-06
-4e-07
4e-05
3e-05
3e-05
2e-05
2e-05
1e-05
9e-06
4e-06
-4e-07
4e-05
3e-05
3e-05
2e-05
2e-05
1e-05
9e-06
4e-06
-4e-07
4e-05
3e-05
3e-05
2e-05
2e-05
1e-05
9e-06
4e-06
-4e-07
4e-05
3e-05
3e-05
2e-05
2e-05
1e-05
9e-06
4e-06
-4e-07
4e-05
3e-05
3e-05
2e-05
2e-05
1e-05
9e-06
4e-06
-4e-07
4e-05
3e-05
3e-05
2e-05
2e-05
1e-05
9e-06
4e-06
-4e-07
4e-05
3e-05
3e-05
2e-05
2e-05
1e-05
9e-06
4e-06
-4e-07
4e-05
3e-05
3e-05
2e-05
2e-05
1e-05
9e-06
4e-06
-4e-07
4e-05
3e-05
3e-05
2e-05
2e-05
1e-05
9e-06
4e-06
-4e-07
4e-05
3e-05
3e-05
2e-05
2e-05
1e-05
9e-06
4e-06
-4e-07
4e-05
3e-05
3e-05
2e-05
2e-05
1e-05
9e-06
4e-06
-4e-07
4e-05
3e-05
3e-05
2e-05
2e-05
1e-05
9e-06
4e-06
-4e-07
4e-05
3e-05
3e-05
2e-05
2e-05
1e-05
9e-06
4e-06
-4e-07
4e-05
3e-05
3e-05
2e-05
2e-05
1e-05
9e-06
4e-06
-4e-07
4e-05
3e-05
3e-05
2e-05
2e-05
1e-05
9e-06
4e-06
-4e-07
4e-05
3e-05
3e-05
2e-05
2e-05
1e-05
9e-06
4e-06
-4e-07
4e-05
3e-05
3e-05
2e-05
2e-05
1e-05
9e-06
4e-06
-4e-07
4e-05
3e-05
3e-05
2e-05
2e-05
1e-05
9e-06
4e-06
-4e-07
4e-05
3e-05
3e-05
2e-05
2e-05
1e-05
9e-06
4e-06
-4e-07
4e-05
3e-05
3e-05
2e-05
2e-05
1e-05
9e-06
4e-06
-4e-07
4e-05
3e-05
3e-05
2e-05
2e-05
1e-05
9e-06
4e-06
-4e-07
4e-05
3e-05
3e-05
2e-05
2e-05
1e-05
9e-06
4e-06
-4e-07
4e-05
3e-05
3e-05
2e-05
2e-05
1e-05
9e-06
4e-06
-4e-07
4e-05
3e-05
3e-05
2e-05
2e-05
1e-05
9e-06
4e-06
-4e-07
4e-05
3e-05
3e-05
2e-05
2e-05
1e-05
9e-06
4e-06
-4e-07
4e-05
3e-05
3e-05
2e-05
2e-05
1e-05
9e-06
4e-06
-4e-07
4e-05
3e-05
3e-05
2e-05
2e-05
1e-05
9e-06
4e-06
-4e-07
4e-05
3e-05
3e-05
2e-05
2e-05
1e-05
9e-06
4e-06
-4e-07
4e-05
3e-05
3e-05
2e-05
2e-05
1e-05
9e-06
4e-06
-4e-07
4e-05
3e-05
3e-05
2e-05
2e-05
1e-05
9e-06
4e-06
-4e-07
4e-05
3e-05
3e-05
2e-05
2e-05
1e-05
9e-06
4e-06
-4e-07
4e-05
3e-05
3e-05
2e-05
2e-05
1e-05
9e-06
4e-06
-4e-07
4e-05
3e-05
3e-05
2e-05
2e-05
1e-05
9e-06
4e-06
-4e-07
4e-05
3e-05
3e-05
2e-05
2e-05
1e-05
9e-06
4e-06
-4e-07
4e-05
3e-05
3e-05
2e-05
2e-05
1e-05
9e-06
4e-06
-4e-07
4e-05
3e-05
3e-05
2e-05
2e-05
1e-05
9e-06
4e-06
-4e-07
4e-05
3e-05
3e-05
2e-05
2e-05
1e-05
9e-06
4e-06
-4e-07
SCALARS u2 float
LOOKUP_TABLE default
0.002
-0.002
-0.002
-0.002
-0.002
-0.002
-0.002
-0.002
-0.002
-0.002
-0.002
-0.002
-0.001
-0.001
-0.001
-0.001
-0.001
-0.001
-0.001
-0.001
-0.001
-0.001
-0.001
-0.0009
-0.0009
-0.0008
-0.0008
-0.0007
-0.0007
-0.0006
-0.0006
-0.0005
-0.0005
-0.0004
-0.0004
-0.0003
-0.0003
-0.0002
-0.0002
-0.0001
-5e-05
-2e-17
5e-05
0.0001
0.0002
0.0002
0.0003
0.0003
0.0004
0.0004
0.0005
0.0005
0.0006
0.0006
0.0007
0.0007
0.0008
0.0008
0.0009
0.0009
0.001
0.001
0.001
0.001
0.001
0.001
0.001
0.001
0.001
0.001
0.001
0.002
0.002
0.002
0.002
0.002
0.002
0.002
0.002
0.002
0.002
-0.002
0.002
0.002
0.002
0.002
0.002
0.002
0.002
0.002
0.002
0.002
0.002
0.001
0.001
0.001
0.001
0.001
0.001
0.001
0.001
0.001
0.001
0.001
0.0009
0.0009
0.0008
0.0008
0.0007
0.0007
0.0006
0.0006
0.0005
0.0005
0.0004
0.0004
0.0003
0.0003
0.0002
0.0002
0.0001
5e-05
1e-17
-5e-05
-0.0001
-0.0002
-0.0002
-0.0003
-0.0003
-0.0004
-0.0004
-0.0005
-0.0005
-0.0006
-0.0006
-0.0007
-0.0007
-0.0008
-0.0008
-0.0009
-0.0009
-0.001
-0.001
-0.001
-0.001
-0.001
-0.001
-0.001
-0.001
-0.001
-0.001
-0.001
-0.002
-0.002
-0.002
-0.002
-0.002
-0.002
-0.002
-0.002
-0.002
-0.002
-0.002
-0.002
-0.002
-0.002
-0.002
-0.002
-0.002
-0.002
-0.002
0.002
0.002
0.002
0.002
0.002
0.002
0.002
0.002
0.002
0.002
0.002
0.002
0.002
0.002
0.002
0.002
0.002
0.002
0.002
0.002
0.002
0.002
0.002
0.002
0.002
0.002
0.002
0.002
0.002
0.002
0.002
0.002
0.002
0.002
0.002
0.002
0.002
0.002
0.002
0.002
0.002
0.002
0.002
0.002
0.002
0.002
0.002
0.002
0.002
0.002
0.002
0.002
0.002
0.002
0.002
0.002
0.002
0.002
0.002
0.002
0.002
0.002
0.002
0.002
0.002
0.002
0.002
0.002
0.002
0.002
0.002
0.002
0.002
0.002
0.002
0.002
0.002
0.002
0.002
0.002
0.002
0.002
0.002
0.002
0.002
0.002
0.002
0.002
0.002
0.002
0.002
0.002
0.002
0.002
0.002
0.002
0.002
0.002
0.002
0.001
0.001
0.001
0.001
0.001
0.001
0.001
0.001
0.001
0.001
0.001
0.001
0.001
0.001
0.001
0.001
0.001
0.001
0.001
0.001
0.001
0.001
0.001
0.001
0.001
0.001
0.001
0.001
0.001
0.001
0.001
0.001
0.001
0.001
0.001
0.001
0.001
0.001
0.001
0.001
0.001
0.001
0.001
0.001
0.001
0.001
0.001
0.001
0.001
0.001
0.001
0.001
0.001
0.001
0.001
0.001
0.001
0.001
0.001
0.001
0.001
0.001
0.001
0.001
0.001
0.001
0.001
0.001
0.001
0.001
0.001
0.001
0.001
0.001
0.001
0.001
0.001
0.001
0.001
0.001
0.001
0.001
0.001
0.001
0.001
0.001
0.001
0.001
0.001
0.001
0.001
0.001
0.001
0.001
0.001
0.001
0.001
0.001
0.001
0.0009
0.0009
0.0009
0.0009
0.0009
0.0009
0.0009
0.0009
0.0009
0.0009
0.0009
0.0009
0.0009
0.0009
0.0009
0.0009
0.0009
0.0009
0.0008
0.0008
0.0008
0.0008
0.0008
0.0008
0.0008
0.0008
0.0008
0.0008
0.0008
0.0008
0.0008
0.0008
0.0008
0.0008
0.0008
0.0008
0.0007
0.0007
0.0007
0.0007
0.0007
0.0007
0.0007
0.0007
0.0007
0.0007
0.0007
0.0007
0.0007
0.0007
0.0007
0.0007
0.0007
0.0007
0.0006
0.0006
0.0006
0.0006
0.0006
0.0006
0.0006
0.0006
0.0006
0.0006
0.0006
0.0006
0.0006
0.0006
0.0006
0.0006
0.0006
0.0006
0.0005
0.0005
0.0005
0.0005
0.0005
0.0005
0.0005
0.0005
0.0005
0.0005
0.0005
0.0005
0.0005
0.0005
0.0005
0.0005
0.0005
0.0005
0.0004
0.0004
0.0004
0.0004
0.0004
0.0004
0.0004
0.0004
0.0004
0.0004
0.0004
0.0004
0.0004
0.0004
0.0004
0.0004
0.0004
0.0004
0.0003
0.0003
0.0003
0.0003
0.0003
0.0003
0.0003
0.0003
0.0003
0.0003
0.0003
0.0003
0.0003
0.0003
0.0003
0.0003
0.0003
0.0003
0.0002
0.0002
0.0002
0.0002
0.0002
0.0002
0.0002
0.0002
0.0002
0.0002
0.0002
0.0002
0.0002
0.0002
0.0002
0.0002
0.0002
0.0002
0.0001
0.0001
0.0001
0.0001
0.0001
0.0001
0.0001
0.0001
0.0001
5e-05
5e-05
5e-05
5e-05
5e-05
5e-05
5e-05
5e-05
5e-05
7e-18
4e-18
8e-19
-2e-18
-6e-18
-9e-18
-1e-17
-2e-17
-2e-17
-5e-05
-5e-05
-5e-05
-5e-05
-5e-05
-5e-05
-5e-05
-5e-05
-5e-05
-0.0001
-0.0001
-0.0001
-0.0001
-0.0001
-0.0001
-0.0001
-0.0001
-0.0001
-0.0002
-0.0002
-0.0002
-0.0002
-0.0002
-0.0002
-0.0002
-0.0002
-0.0002
-0.0002
-0.0002
-0.0002
-0.0002
-0.0002
-0.0002
-0.0002
-0.0002
-0.0002
-0.0003
-0.0003
-0.0003
-0.0003
-0.0003
-0.0003
-0.0003
-0.0003
-0.0003
-0.0003
-0.0003
-0.0003
-0.0003
-0.0003
-0.0003
-0.0003
-0.0003
-0.0003
-0.0004
-0.0004
-0.0004
-0.0004
-0.0004
-0.0004
-0.0004
-0.0004
-0.0004
-0.0004
-0.0004
-0.0004
-0.0004
-0.0004
-0.0004
-0.0004
-0.0004
-0.0004
-0.0005
-0.0005
-0.0005
-0.0005
-0.0005
-0.0005
-0.0005
-0.0005
-0.0005
-0.0005
-0.0005
-0.0005
-0.0005
-0.0005
-0.0005
-0.0005
-0.0005
-0.0005
-0.0006
-0.0006
-0.0006
-0.0006
-0.0006
-0.0006
-0.0006
-0.0006
-0.0006
-0.0006
-0.0006
-0.0006
-0.0006
-0.0006
-0.0006
-0.0006
-0.0006
-0.0006
-0.0007
-0.0007
-0.0007
-0.0007
-0.0007
-0.0007
-0.0007
-0.0007
-0.0007
-0.0007
-0.0007
-0.0007
-0.0007
-0.0007
-0.0007
-0.0007
-0.0007
-0.0007
-0.0008
-0.0008
-0.0008
-0.0008
-0.0008
-0.0008
-0.0008
-0.0008
-0.0008
-0.0008
-0.0008
-0.0008
-0.0008
-0.0008
-0.0008
-0.0008
-0.0008
-0.0008
-0.0009
-0.0009
-0.0009
-0.0009
-0.0009
-0.0009
-0.0009
-0.0009
-0.0009
-0.0009
-0.0009
-0.0009
-0.0009
-0.0009
-0.0009
-0.0009
-0.0009
-0.0009
-0.001
-0.001
-0.001
-0.001
-0.001
-0.001
-0.001
-0.001
-0.001
-0.001
-0.001
-0.001
-0.001
-0.001
-0.001
-0.001
-0.001
-0.001
-0.001
-0.001
-0.001
-0.001
-0.001
-0.001
-0.001
-0.001
-0.001
-0.001
-0.001
-0.001
-0.001
-0.001
-0.001
-0.001
-0.001
-0.001
-0.001
-0.001
-0.001
-0.001
-0.001
-0.001
-0.001
-0.001
-0.001
-0.001
-0.001
-0.001
-0.001
-0.001
-0.001
-0.001
-0.001
-0.001
-0.001
-0.001
-0.001
-0.001
-0.001
-0.001
-0.001
-0.001
-0.001
-0.001
-0.001
-0.001
-0.001
-0.001
-0.001
-0.001
-0.001
-0.001
-0.001
-0.001
-0.001
-0.001
-0.001
-0.001
-0.001
-0.001
-0.001
-0.001
-0.001
-0.001
-0.001
-0.001
-0.001
-0.001
-0.001
-0.001
-0.001
-0.001
-0.001
-0.001
-0.001
-0.001
-0.001
-0.001
-0.001
-0.002
-0.002
-0.002
-0.002
-0.002
-0.002
-0.002
-0.002
-0.002
-0.002
-0.002
-0.002
-0.002
-0.002
-0.002
-0.002
-0.002
-0.002
-0.002
-0.002
-0.002
-0.002
-0.002
-0.002
-0.002
-0.002
-0.002
-0.002
-0.002
-0.002
-0.002
-0.002
-0.002
-0.002
-0.002
-0.002
-0.002
-0.002
-0.002
-0.002
-0.002
-0.002
-0.002
-0.002
-0.002
-0.002
-0.002
-0.002
-0.002
-0.002
-0.002
-0.002
-0.002
-0.002
-0.002
-0.002
-0.002
-0.002
-0.002
-0.002
-0.002
-0.002
-0.002
-0.002
-0.002
-0.002
-0.002
-0.002
-0.002
-0.002
-0.002
-0.002
-0.002
-0.002
-0.002
-0.002
-0.002
-0.002
-0.002
-0.002
-0.002
-0.002
-0.002
-0.002
-0.002
-0.002
-0.002
-0.002
-0.002
-0.002
SCALARS strain_1 float
LOOKUP_TABLE default
-0.009558
-0.009558
-0.009558
-0.009558
-0.009558
-0.009558
-0.009558
-0.009558
-0.009558
-0.009558
-0.009558
-0.009558
-0.009558
-0.009558
-0.009558
-0.009558
-0.009558
-0.009558
-0.009558
-0.009558
-0.009558
-0.009558
-0.009558
-0.009558
-0.009558
-0.009558
-0.009558
-0.009558
-0.009558
-0.009558
-0.009558
-0.009558
-0.009558
-0.009558
-0.009558
-0.009558
-0.009558
-0.009558
-0.009558
-0.009558
-0.009558
-0.009558
-0.009558
-0.009558
-0.009558
-0.009558
-0.009558
-0.009558
-0.009558
-0.009558
-0.009558
-0.009558
-0.009558
-0.009558
-0.009558
-0.009558
-0.009558
-0.009558
-0.009558
-0.009558
-0.009558
-0.009558
-0.009558
-0.009558
-0.009558
-0.009558
-0.009558
-0.009558
-0.009558
-0.009558
-0.009558
-0.009558
-0.009558
-0.009558
-0.009558
-0.009558
-0.009558
-0.009558
-0.009558
-0.009558
-0.009558
-0.009558
-0.009558
-0.009558
-0.009558
-0.009558
-0.009558
-0.009558
-0.009558
-0.009558
-0.009558
-0.009558
-0.009558
-0.009558
-0.009558
-0.009558
-0.009558
-0.009558
-0.009558
-0.009558
-0.009558
-0.009558
-0.009558
-0.009558
-0.009558
-0.009558
-0.009558
-0.009558
-0.009558
-0.009558
-0.009558
-0.009558
-0.009558
-0.009558
-0.009558
-0.009558
-0.009558
-0.009558
-0.009558
-0.009558
-0.009558
-0.009558
-0.009558
-0.009558
-0.009558
-0.009558
-0.009558
-0.009558
-0.009558
-0.009558
-0.009558
-0.009558
-0.009558
-0.009558
-0.009558
-0.009558
-0.009558
-0.009558
-0.009558
-0.009558
-0.009558
-0.009558
-0.009558
-0.009558
-0.009558
-0.009558
-0.009558
-0.009558
-0.009558
-0.009558
-0.009558
-0.009558
-0.009558
-0.009558
-0.009558
-0.009558
-0.009558
-0.009558
-0.009558
-0.009558
-0.009558
-0.009558
-0.009558
-0.009558
-0.009558
-0.009558
-0.009558
-0.009558
-0.009558
-0.009558
-0.009558
-0.009558
-0.009558
-0.009558
-0.009558
-0.009558
-0.009558
-0.009558
-0.009558
-0.009558
-0.009558
-0.009558
-0.009558
-0.009558
-0.009558
-0.009558
-0.009558
-0.009558
-0.009558
-0.009558
-0.009558
-0.009558
-0.009558
-0.009558
-0.009558
-0.009558
-0.009558
-0.009558
-0.009558
-0.009558
-0.009558
-0.009558
-0.009558
-0.009558
-0.009558
-0.009558
-0.009558
-0.009558
-0.009558
-0.009558
-0.009558
-0.009558
-0.009558
-0.009558
-0.009558
-0.009558
-0.009558
-0.009558
-0.009558
-0.009558
-0.009558
-0.009558
-0.009558
-0.009558
-0.009558
-0.009558
-0.009558
-0.009558
-0.009558
-0.009558
-0.009558
-0.009558
-0.009558
-0.009558
-0.009558
-0.009558
-0.009558
-0.009558
-0.009558
-0.009558
-0.009558
-0.009558
-0.009558
-0.009558
-0.009558
-0.009558
-0.009558
-0.009558
-0.009558
-0.009558
-0.009558
-0.009558
-0.009558
-0.009558
-0.009558
-0.009558
-0.009558
-0.009558
-0.009558
-0.009558
-0.009558
-0.009558
-0.009558
-0.009558
-0.009558
-0.009558
-0.009558
-0.009558
-0.009558
-0.009558
-0.009558
-0.009558
-0.009558
-0.009558
-0.009558
-0.009558
-0.009558
-0.009558
-0.009558
-0.009558
-0.009558
-0.009558
-0.009558
-0.009558
-0.009558
-0.009558
-0.009558
-0.009558
-0.009558
-0.009558
-0.009558
-0.009558
-0.009558
-0.009558
-0.009558
-0.009558
-0.009558
-0.009558
-0.009558
-0.009558
-0.009558
-0.009558
-0.009558
-0.009558
-0.009558
-0.009558
-0.009558
-0.009558
-0.009558
-0.009558
-0.009558
-0.009558
-0.009558
-0.009558
-0.009558
-0.009558
-0.009558
-0.009558
-0.009558
-0.009558
-0.009558
-0.009558
-0.009558
-0.009558
-0.009558
-0.009558
-0.009558
-0.009558
-0.009558
-0.009558
-0.009558
-0.009558
-0.009558
-0.009558
-0.009558
-0.009558
-0.009558
-0.009558
-0.009558
-0.009558
-0.009558
-0.009558
-0.009558
-0.009558
-0.009558
-0.009558
-0.009558
-0.009558
-0.009558
-0.009558
-0.009558
-0.009558
-0.009558
-0.009558
-0.009558
-0.009558
-0.009558
-0.009558
-0.009558
-0.009558
-0.009558
-0.009558
-0.009558
-0.009558
-0.009558
-0.009558
-0.009558
-0.009558
-0.009558
-0.009558
-0.009558
-0.009558
-0.009558
-0.009558
-0.009558
-0.009558
-0.009558
-0.009558
-0.009558
-0.009558
-0.009558
-0.009558
-0.009558
-0.009558
-0.009558
-0.009558
-0.009558
-0.009558
-0.009558
-0.009558
-0.009558
-0.009558
-0.009558
-0.009558
-0.009558
-0.009558
-0.009558
-0.009558
-0.009558
-0.009558
-0.009558
-0.009558
-0.009558
-0.009558
-0.009558
-0.009558
-0.009558
-0.009558
-0.009558
-0.009558
-0.009558
-0.009558
-0.009558
-0.009558
-0.009558
-0.009558
-0.009558
-0.009558
-0.009558
-0.009558
-0.009558
-0.009558
-0.009558
-0.009558
-0.009558
-0.009558
-0.009558
-0.009558
-0.009558
-0.009558
-0.009558
-0.009558
-0.009558
-0.009558
-0.009558
-0.009558
-0.009558
-0.009558
-0.009558
-0.009558
-0.009558
-0.009558
-0.009558
-0.009558
-0.009558
-0.009558
-0.009558
-0.009558
-0.009558
-0.009558
-0.009558
-0.009558
-0.009558
-0.009558
-0.009558
-0.009558
-0.009558
-0.009558
-0.009558
-0.009558
-0.009558
-0.009558
-0.009558
-0.009558
-0.009558
-0.009558
-0.009558
-0.009558
-0.009558
-0.009558
-0.009558
-0.009558
-0.009558
-0.009558
-0.009558
-0.009558
-0.009558
-0.009558
-0.009558
-0.009558
-0.009558
-0.009558
-0.009558
-0.009558
-0.009558
-0.009558
-0.009558
-0.009558
-0.009558
-0.009558
-0.009558
-0.009558
-0.009558
-0.009558
-0.009558
-0.009558
-0.009558
-0.009558
-0.009558
-0.009558
-0.009558
-0.009558
-0.009558
-0.009558
-0.009558
-0.009558
-0.009558
-0.009558
-0.009558
-0.009558
-0.009558
-0.009558
-0.009558
-0.009558
-0.009558
-0.009558
-0.009558
-0.009558
-0.009558
-0.009558
-0.009558
-0.009558
-0.009558
-0.009558
-0.009558
-0.009558
-0.009558
-0.009558
-0.009558
-0.009558
-0.009558
-0.009558
-0.009558
-0.009558
-0.009558
-0.009558
-0.009558
-0.009558
-0.009558
-0.009558
-0.009558
-0.009558
-0.009558
-0.009558
-0.009558
-0.009558
-0.009558
-0.009558
-0.009558
-0.009558
-0.009558
-0.009558
-0.009558
-0.009558
-0.009558
-0.009558
-0.009558
-0.009558
-0.009558
-0.009558
-0.009558
-0.009558
-0.009558
-0.009558
-0.009558
-0.009558
-0.009558
-0.009558
-0.009558
-0.009558
-0.009558
-0.009558
-0.009558
-0.009558
-0.009558
-0.009558
-0.009558
-0.009558
-0.009558
-0.009558
-0.009558
-0.009558
-0.009558
-0.009558
-0.009558
-0.009558
-0.009558
-0.009558
-0.009558
-0.009558
-0.009558
-0.009558
-0.009558
-0.009558
-0.009558
-0.009558
-0.009558
-0.009558
-0.009558
-0.009558
-0.009558
-0.009558
-0.009558
-0.009558
-0.009558
-0.009558
-0.009558
-0.009558
-0.009558
-0.009558
-0.009558
-0.009558
-0.009558
-0.009558
-0.009558
-0.009558
-0.009558
-0.009558
-0.009558
-0.009558
-0.009558
-0.009558
-0.009558
-0.009558
-0.009558
-0.009558
-0.009558
-0.009558
-0.009558
-0.009558
-0.009558
-0.009558
-0.009558
-0.009558
-0.009558
-0.009558
-0.009558
-0.009558
-0.009558
-0.009558
-0.009558
-0.009558
-0.009558
-0.009558
-0.009558
-0.009558
-0.009558
-0.009558
-0.009558
-0.009558
-0.009558
-0.009558
-0.009558
-0.009558
-0.009558
-0.009558
-0.009558
-0.009558
-0.009558
-0.009558
-0.009558
-0.009558
-0.009558
-0.009558
-0.009558
-0.009558
-0.009558
-0.009558
-0.009558
-0.009558
-0.009558
-0.009558
-0.009558
-0.009558
-0.009558
-0.009558
-0.009558
-0.009558
-0.009558
-0.009558
-0.009558
-0.009558
-0.009558
-0.009558
-0.009558
-0.009558
-0.009558
-0.009558
-0.009558
-0.009558
-0.009558
-0.009558
-0.009558
-0.009558
-0.009558
-0.009558
-0.009558
-0.009558
-0.009558
-0.009558
-0.009558
-0.009558
-0.009558
-0.009558
-0.009558
-0.009558
-0.009558
-0.009558
-0.009558
-0.009558
-0.009558
-0.009558
-0.009558
-0.009558
-0.009558
-0.009558
-0.009558
-0.009558
-0.009558
-0.009558
-0.009558
-0.009558
-0.009558
-0.009558
-0.009558
-0.009558
-0.009558
-0.009558
-0.009558
-0.009558
-0.009558
-0.009558
-0.009558
-0.009558
-0.009558
-0.009558
-0.009558
-0.009558
-0.009558
-0.009558
-0.009558
-0.009558
-0.009558
-0.009558
-0.009558
-0.009558
-0.009558
-0.009558
-0.009558
-0.009558
-0.009558
-0.009558
-0.009558
-0.009558
-0.009558
-0.009558
-0.009558
-0.009558
-0.009558
-0.009558
-0.009558
-0.009558
-0.009558
-0.009558
-0.009558
-0.009558
-0.009558
-0.009558
-0.009558
-0.009558
-0.009558
-0.009558
-0.009558
-0.009558
-0.009558
-0.009558
-0.009558
-0.009558
-0.009558
-0.009558
-0.009558
-0.009558
-0.009558
-0.009558
-0.009558
-0.009558
-0.009558
-0.009558
-0.009558
-0.009558
-0.009558
-0.009558
-0.009558
-0.009558
-0.009558
-0.009558
-0.009558
-0.009558
-0.009558
-0.009558
-0.009558
-0.009558
-0.009558
-0.009558
-0.009558
-0.009558
-0.009558
-0.009558
-0.009558
-0.009558
-0.009558
-0.009558
-0.009558
-0.009558
-0.009558
-0.009558
-0.009558
-0.009558
-0.009558
-0.009558
-0.009558
-0.009558
-0.009558
-0.009558
-0.009558
-0.009558
-0.009558
-0.009558
-0.009558
-0.009558
-0.009558
-0.009558
-0.009558
-0.009558
-0.009558
-0.009558
-0.009558
-0.009558
-0.009558
-0.009558
-0.009558
-0.009558
-0.009558
-0.009558
-0.009558
-0.009558
-0.009558
-0.009558
-0.009558
-0.009558
-0.009558
-0.009558
-0.009558
-0.009558
-0.009558
-0.009558
-0.009558
-0.009558
-0.009558
-0.009558
-0.009558
-0.009558
-0.009558
-0.009558
-0.009558
-0.009558
-0.009558
-0.009558
-0.009558
-0.009558
-0.009558
-0.009558
-0.009558
-0.009558
-0.009558
-0.009558
-0.009558
-0.009558
-0.009558
-0.009558
-0.009558
-0.009558
-0.009558
-0.009558
-0.009558
-0.009558
-0.009558
-0.009558
-0.009558
-0.009558
-0.009558
SCALARS strain_2 float
LOOKUP_TABLE default
0.040099
0.040099
0.040099
0.040099
0.040099
0.040099
0.040099
0.040099
0.040099
0.040099
0.040099
0.040099
0.040099
0.040099
0.040099
0.040099
0.040099
0.040099
0.040099
0.040099
0.040099
0.040099
0.040099
0.040099
0.040099
0.040099
0.040099
0.040099
0.040099
0.040099
0.040099
0.040099
0.040099
0.040099
0.040099
0.040099
0.040099
0.040099
0.040099
0.040099
0.040099
0.040099
0.040099
0.040099
0.040099
0.040099
0.040099
0.040099
0.040099
0.040099
0.040099
0.040099
0.040099
0.040099
0.040099
0.040099
0.040099
0.040099
0.040099
0.040099
0.040099
0.040099
0.040099
0.040099
0.040099
0.040099
0.040099
0.040099
0.040099
0.040099
0.040099
0.040099
0.040099
0.040099
0.040099
0.040099
0.040099
0.040099
0.040099
0.040099
0.040099
0.040099
0.040099
0.040099
0.040099
0.040099
0.040099
0.040099
0.040099
0.040099
0.040099
0.040099
0.040099
0.040099
0.040099
0.040099
0.040099
0.040099
0.040099
0.040099
0.040099
0.040099
0.040099
0.040099
0.040099
0.040099
0.040099
0.040099
0.040099
0.040099
0.040099
0.040099
0.040099
0.040099
0.040099
0.040099
0.040099
0.040099
0.040099
0.040099
0.040099
0.040099
0.040099
0.040099
0.040099
0.040099
0.040099
0.040099
0.040099
0.040099
0.040099
0.040099
0.040099
0.040099
0.040099
0.040099
0.040099
0.040099
0.040099
0.040099
0.040099
0.040099
0.040099
0.040099
0.040099
0.040099
0.040099
0.040099
0.040099
0.040099
0.040099
0.040099
0.040099
0.040099
0.040099
0.040099
0.040099
0.040099
0.040099
0.040099
0.040099
0.040099
0.040099
0.040099
0.040099
0.040099
0.040099
0.040099
0.040099
0.040099
0.040099
0.040099
0.040099
0.040099
0.040099
0.040099
0.040099
0.040099
0.040099
0.040099
0.040099
0.040099
0.040099
0.040099
0.040099
0.040099
0.040099
0.040099
0.040099
0.040099
0.040099
0.040099
0.040099
0.040099
0.040099
0.040099
0.040099
0.040099
0.040099
0.040099
0.040099
0.040099
0.040099
0.040099
0.040099
0.040099
0.040099
0.040099
0.040099
0.040099
0.040099
0.040099
0.040099
0.040099
0.040099
0.040099
0.040099
0.040099
0.040099
0.040099
0.040099
0.040099
0.040099
0.040099
0.040099
0.040099
0.040099
0.040099
0.040099
0.040099
0.040099
0.040099
0.040099
0.040099
0.040099
0.040099
0.040099
0.040099
0.040099
0.040099
0.040099
0.040099
0.040099
0.040099
0.040099
0.040099
0.040099
0.040099
0.040099
0.040099
0.040099
0.040099
0.040099
0.040099
0.040099
0.040099
0.040099
0.040099
0.040099
0.040099
0.040099
0.040099
0.040099
0.040099
0.040099
0.040099
0.040099
0.040099
0.040099
0.040099
0.040099
0.040099
0.040099
0.040099
0.040099
0.040099
0.040099
0.040099
0.040099
0.040099
0.040099
0.040099
0.040099
0.040099
0.040099
0.040099
0.040099
0.040099
0.040099
0.040099
0.040099
0.040099
0.040099
0.040099
0.040099
0.040099
0.040099
0.040099
0.040099
0.040099
0.040099
0.040099
0.040099
0.040099
0.040099
0.040099
0.040099
0.040099
0.040099
0.040099
0.040099
0.040099
0.040099
0.040099
0.040099
0.040099
0.040099
0.040099
0.040099
0.040099
0.040099
0.040099
0.040099
0.040099
0.040099
0.040099
0.040099
0.040099
0.040099
0.040099
0.040099
0.040099
0.040099
0.040099
0.040099
0.040099
0.040099
0.040099
0.040099
0.040099
0.040099
0.040099
0.040099
0.040099
0.040099
0.040099
0.040099
0.040099
0.040099
0.040099
0.040099
0.040099
0.040099
0.040099
0.040099
0.040099
0.040099
0.040099
0.040099
0.040099
0.040099
0.040099
0.040099
0.040099
0.040099
0.040099
0.040099
0.040099
0.040099
0.040099
0.040099
0.040099
0.040099
0.040099
0.040099
0.040099
0.040099
0.040099
0.040099
0.040099
0.040099
0.040099
0.040099
0.040099
0.040099
0.040099
0.040099
0.040099
0.040099
0.040099
0.040099
0.040099
0.040099
0.040099
0.040099
0.040099
0.040099
0.040099
0.040099
0.040099
0.040099
0.040099
0.040099
0.040099
0.040099
0.040099
0.040099
0.040099
0.040099
0.040099
0.040099
0.040099
0.040099
0.040099
0.040099
0.040099
0.040099
0.040099
0.040099
0.040099
0.040099
0.040099
0.040099
0.040099
0.040099
0.040099
0.040099
0.040099
0.040099
0.040099
0.040099
0.040099
0.040099
0.040099
0.040099
0.040099
0.040099
0.040099
0.040099
0.040099
0.040099
0.040099
0.040099
0.040099
0.040099
0.040099
0.040099
0.040099
0.040099
0.040099
0.040099
0.040099
0.040099
0.040099
0.040099
0.040099
0.040099
0.040099
0.040099
0.040099
0.040099
0.040099
0.040099
0.040099
0.040099
0.040099
0.040099
0.040099
0.040099
0.040099
0.040099
0.040099
0.040099
0.040099
0.040099
0.040099
0.040099
0.040099
0.040099
0.040099
0.040099
0.040099
0.040099
0.040099
0.040099
0.040099
0.040099
0.040099
0.040099
0.040099
0.040099
0.040099
0.040099
0.040099
0.040099
0.040099
0.040099
0.040099
0.040099
0.040099
0.040099
0.040099
0.040099
0.040099
0.040099
0.040099
0.040099
0.040099
0.040099
0.040099
0.040099
0.040099
0.040099
0.040099
0.040099
0.040099
0.040099
0.040099
0.040099
0.040099
0.040099
0.040099
0.040099
0.040099
0.040099
0.040099
0.040099
0.040099
0.040099
0.040099
0.040099
0.040099
0.040099
0.040099
0.040099
0.040099
0.040099
0.040099
0.040099
0.040099
0.040099
0.040099
0.040099
0.040099
0.040099
0.040099
0.040099
0.040099
0.040099
0.040099
0.040099
0.040099
0.040099
0.040099
0.040099
0.040099
0.040099
0.040099
0.040099
0.040099
0.040099
0.040099
0.040099
0.040099
0.040099
0.040099
0.040099
0.040099
0.040099
0.040099
0.040099
0.040099
0.040099
0.040099
0.040099
0.040099
0.040099
0.040099
0.040099
0.040099
0.040099
0.040099
0.040099
0.040099
0.040099
0.040099
0.040099
0.040099
0.040099
0.040099
0.040099
0.040099
0.040099
0.040099
0.040099
0.040099
0.040099
0.040099
0.040099
0.040099
0.040099
0.040099
0.040099
0.040099
0.040099
0.040099
0.040099
0.040099
0.040099
0.040099
0.040099
0.040099
0.040099
0.040099
0.040099
0.040099
0.040099
0.040099
0.040099
0.040099
0.040099
0.040099
0.040099
0.040099
0.040099
0.040099
0.040099
0.040099
0.040099
0.040099
0.040099
0.040099
0.040099
0.040099
0.040099
0.040099
0.040099
0.040099
0.040099
0.040099
0.040099
0.040099
0.040099
0.040099
0.040099
0.040099
0.040099
0.040099
0.040099
0.040099
0.040099
0.040099
0.040099
0.040099
0.040099
0.040099
0.040099
0.040099
0.040099
0.040099
0.040099
0.040099
0.040099
0.040099
0.040099
0.040099
0.040099
0.040099
0.040099
0.040099
0.040099
0.040099
0.040099
0.040099
0.040099
0.040099
0.040099
0.040099
0.040099
0.040099
0.040099
0.040099
0.040099
0.040099
0.040099
0.040099
0.040099
0.040099
0.040099
0.040099
0.040099
0.040099
0.040099
0.040099
0.040099
0.040099
0.040099
0.040099
0.040099
0.040099
0.040099
0.040099
0.040099
0.040099
0.040099
0.040099
0.040099
0.040099
0.040099
0.040099
0.040099
0.040099
0.040099
0.040099
0.040099
0.040099
0.040099
0.040099
0.040099
0.040099
0.040099
0.040099
0.040099
0.040099
0.040099
0.040099
0.040099
0.040099
0.040099
0.040099
0.040099
0.040099
0.040099
0.040099
0.040099
0.040099
0.040099
0.040099
0.040099
0.040099
0.040099
0.040099
0.040099
0.040099
0.040099
0.040099
0.040099
0.040099
0.040099
0.040099
0.040099
0.040099
0.040099
0.040099
0.040099
0.040099
0.040099
0.040099
0.040099
0.040099
0.040099
0.040099
0.040099
0.040099
0.040099
0.040099
0.040099
0.040099
0.040099
0.040099
0.040099
0.040099
0.040099
0.040099
0.040099
0.040099
0.040099
0.040099
0.040099
0.040099
0.040099
0.040099
0.040099
0.040099
0.040099
0.040099
0.040099
0.040099
0.040099
0.040099
0.040099
0.040099
0.040099
0.040099
0.040099
0.040099
0.040099
0.040099
0.040099
0.040099
0.040099
0.040099
0.040099
0.040099
0.040099
0.040099
0.040099
0.040099
0.040099
0.040099
0.040099
0.040099
0.040099
0.040099
0.040099
0.040099
0.040099
0.040099
0.040099
0.040099
0.040099
0.040099
0.040099
0.040099
0.040099
0.040099
0.040099
0.040099
0.040099
0.040099
0.040099
0.040099
0.040099
0.040099
0.040099
0.040099
0.040099
0.040099
0.040099
0.040099
0.040099
0.040099
0.040099
0.040099
0.040099
0.040099
0.040099
0.040099
0.040099
0.040099
0.040099
0.040099
0.040099
0.040099
0.040099
0.040099
0.040099
0.040099
0.040099
0.040099
0.040099
0.040099
0.040099
0.040099
0.040099
0.040099
0.040099
0.040099
0.040099
0.040099
0.040099
0.040099
0.040099
0.040099
0.040099
0.040099
0.040099
0.040099
0.040099
0.040099
0.040099
0.040099
0.040099
0.040099
0.040099
0.040099
0.040099
0.040099
0.040099
0.040099
0.040099
SCALARS strain_3 float
LOOKUP_TABLE default
0.000000
0.000000
0.000000
0.000000
0.000000
0.000000
0.000000
0.000000
0.000000
0.000000
0.000000
0.000000
0.000000
0.000000
0.000000
0.000000
0.000000
0.000000
0.000000
0.000000
0.000000
0.000000
0.000000
0.000000
0.000000
0.000000
0.000000
0.000000
0.000000
0.000000
0.000000
0.000000
0.000000
0.000000
0.000000
0.000000
0.000000
0.000000
0.000000
0.000000
0.000000
0.000000
0.000000
0.000000
0.000000
0.000000
0.000000
0.000000
0.000000
0.000000
0.000000
0.000000
0.000000
0.000000
0.000000
0.000000
0.000000
0.000000
0.000000
0.000000
0.000000
0.000000
0.000000
0.000000
0.000000
0.000000
0.000000
0.000000
0.000000
0.000000
0.000000
0.000000
0.000000
0.000000
0.000000
0.000000
0.000000
0.000000
0.000000
0.000000
0.000000
0.000000
-0.000000
0.000000
0.000000
0.000000
0.000000
0.000000
0.000000
0.000000
0.000000
0.000000
0.000000
0.000000
0.000000
0.000000
0.000000
0.000000
0.000000
0.000000
0.000000
0.000000
0.000000
0.000000
0.000000
0.000000
0.000000
0.000000
0.000000
0.000000
0.000000
0.000000
0.000000
0.000000
0.000000
0.000000
0.000000
0.000000
0.000000
0.000000
0.000000
0.000000
0.000000
0.000000
0.000000
0.000000
0.000000
0.000000
0.000000
0.000000
0.000000
0.000000
0.000000
0.000000
0.000000
0.000000
0.000000
0.000000
0.000000
0.000000
0.000000
0.000000
0.000000
0.000000
0.000000
0.000000
0.000000
0.000000
0.000000
0.000000
0.000000
0.000000
0.000000
0.000000
0.000000
0.000000
0.000000
0.000000
0.000000
0.000000
0.000000
0.000000
0.000000
0.000000
0.000000
0.000000
0.000000
0.000000
0.000000
0.000000
0.000000
0.000000
0.000000
0.000000
0.000000
0.000000
0.000000
0.000000
-0.000000
-0.000000
0.000000
0.000000
0.000000
0.000000
0.000000
0.000000
0.000000
0.000000
0.000000
0.000000
0.000000
0.000000
0.000000
0.000000
0.000000
0.000000
0.000000
0.000000
0.000000
0.000000
0.000000
0.000000
0.000000
0.000000
0.000000
0.000000
0.000000
0.000000
0.000000
0.000000
0.000000
0.000000
0.000000
0.000000
0.000000
0.000000
0.000000
0.000000
0.000000
0.000000
0.000000
0.000000
0.000000
0.000000
0.000000
0.000000
0.000000
0.000000
0.000000
0.000000
0.000000
0.000000
0.000000
0.000000
0.000000
0.000000
0.000000
0.000000
0.000000
0.000000
0.000000
0.000000
0.000000
0.000000
0.000000
0.000000
0.000000
0.000000
0.000000
0.000000
0.000000
0.000000
0.000000
0.000000
0.000000
0.000000
0.000000
0.000000
0.000000
0.000000
0.000000
0.000000
0.000000
0.000000
0.000000
0.000000
0.000000
0.000000
0.000000
0.000000
0.000000
0.000000
0.000000
0.000000
0.000000
0.000000
0.000000
0.000000
0.000000
0.000000
0.000000
0.000000
0.000000
0.000000
0.000000
0.000000
0.000000
0.000000
0.000000
0.000000
0.000000
0.000000
0.000000
0.000000
0.000000
0.000000
0.000000
0.000000
0.000000
0.000000
0.000000
0.000000
0.000000
0.000000
0.000000
0.000000
0.000000
0.000000
0.000000
0.000000
0.000000
0.000000
0.000000
0.000000
0.000000
0.000000
0.000000
0.000000
0.000000
0.000000
0.000000
0.000000
0.000000
0.000000
0.000000
0.000000
0.000000
0.000000
0.000000
0.000000
0.000000
0.000000
0.000000
0.000000
0.000000
0.000000
0.000000
0.000000
0.000000
0.000000
0.000000
0.000000
0.000000
0.000000
0.000000
0.000000
0.000000
0.000000
0.000000
0.000000
0.000000
0.000000
0.000000
0.000000
0.000000
0.000000
0.000000
0.000000
0.000000
0.000000
0.000000
0.000000
0.000000
0.000000
0.000000
0.000000
0.000000
0.000000
0.000000
0.000000
0.000000
0.000000
0.000000
0.000000
0.000000
0.000000
0.000000
0.000000
0.000000
0.000000
0.000000
0.000000
0.000000
0.000000
0.000000
0.000000
0.000000
0.000000
0.000000
0.000000
0.000000
0.000000
0.000000
0.000000
0.000000
0.000000
0.000000
0.000000
0.000000
0.000000
0.000000
0.000000
0.000000
0.000000
0.000000
0.000000
0.000000
0.000000
0.000000
0.000000
0.000000
0.000000
0.000000
0.000000
0.000000
0.000000
0.000000
0.000000
0.000000
0.000000
0.000000
0.000000
0.000000
0.000000
0.000000
0.000000
0.000000
0.000000
0.000000
0.000000
0.000000
0.000000
0.000000
0.000000
0.000000
0.000000
0.000000
0.000000
0.000000
0.000000
0.000000
0.000000
0.000000
0.000000
0.000000
0.000000
0.000000
0.000000
0.000000
0.000000
0.000000
0.000000
0.000000
0.000000
0.000000
0.000000
0.000000
0.000000
0.000000
0.000000
0.000000
0.000000
0.000000
0.000000
0.000000
0.000000
0.000000
0.000000
0.000000
0.000000
0.000000
0.000000
0.000000
0.000000
0.000000
0.000000
0.000000
0.000000
0.000000
0.000000
0.000000
0.000000
0.000000
0.000000
0.000000
0.000000
0.000000
0.000000
0.000000
0.000000
0.000000
0.000000
0.000000
0.000000
0.000000
0.000000
0.000000
0.000000
0.000000
0.000000
0.000000
0.000000
0.000000
0.000000
0.000000
0.000000
0.000000
0.000000
0.000000
0.000000
0.000000
0.000000
0.000000
0.000000
0.000000
0.000000
0.000000
0.000000
0.000000
0.000000
0.000000
0.000000
0.000000
0.000000
0.000000
0.000000
0.000000
0.000000
0.000000
0.000000
0.000000
0.000000
0.000000
0.000000
0.000000
0.000000
0.000000
0.000000
0.000000
0.000000
0.000000
0.000000
0.000000
0.000000
0.000000
0.000000
0.000000
0.000000
0.000000
0.000000
0.000000
0.000000
0.000000
0.000000
0.000000
0.000000
0.000000
0.000000
0.000000
0.000000
0.000000
0.000000
0.000000
0.000000
0.000000
0.000000
0.000000
0.000000
0.000000
0.000000
0.000000
0.000000
0.000000
0.000000
0.000000
0.000000
0.000000
0.000000
0.000000
0.000000
0.000000
0.000000
0.000000
0.000000
0.000000
0.000000
0.000000
0.000000
0.000000
0.000000
0.000000
0.000000
0.000000
0.000000
0.000000
0.000000
0.000000
0.000000
0.000000
0.000000
0.000000
0.000000
0.000000
0.000000
0.000000
0.000000
0.000000
0.000000
0.000000
0.000000
0.000000
0.000000
0.000000
0.000000
0.000000
0.000000
0.000000
0.000000
0.000000
0.000000
0.000000
0.000000
0.000000
0.000000
0.000000
0.000000
0.000000
0.000000
0.000000
0.000000
0.000000
0.000000
0.000000
0.000000
0.000000
0.000000
0.000000
0.000000
0.000000
0.000000
0.000000
0.000000
0.000000
0.000000
0.000000
0.000000
0.000000
0.000000
0.000000
0.000000
0.000000
0.000000
0.000000
0.000000
0.000000
0.000000
0.000000
0.000000
0.000000
0.000000
0.000000
0.000000
0.000000
0.000000
0.000000
0.000000
0.000000
0.000000
0.000000
0.000000
0.000000
0.000000
0.000000
0.000000
0.000000
0.000000
0.000000
0.000000
0.000000
0.000000
0.000000
0.000000
0.000000
0.000000
0.000000
0.000000
0.000000
0.000000
0.000000
0.000000
0.000000
0.000000
0.000000
0.000000
0.000000
0.000000
0.000000
0.000000
0.000000
0.000000
0.000000
0.000000
0.000000
0.000000
0.000000
0.000000
0.000000
0.000000
0.000000
0.000000
0.000000
0.000000
0.000000
0.000000
0.000000
0.000000
0.000000
0.000000
0.000000
0.000000
0.000000
0.000000
0.000000
0.000000
0.000000
0.000000
0.000000
0.000000
0.000000
0.000000
0.000000
0.000000
0.000000
0.000000
0.000000
0.000000
0.000000
0.000000
0.000000
0.000000
0.000000
0.000000
0.000000
0.000000
0.000000
0.000000
0.000000
0.000000
0.000000
0.000000
0.000000
0.000000
0.000000
0.000000
0.000000
0.000000
0.000000
0.000000
0.000000
0.000000
0.000000
0.000000
0.000000
0.000000
0.000000
0.000000
0.000000
0.000000
0.000000
0.000000
0.000000
0.000000
0.000000
0.000000
0.000000
0.000000
0.000000
0.000000
0.000000
0.000000
0.000000
0.000000
0.000000
0.000000
0.000000
0.000000
0.000000
0.000000
0.000000
0.000000
0.000000
0.000000
0.000000
0.000000
0.000000
0.000000
0.000000
0.000000
0.000000
0.000000
0.000000
0.000000
0.000000
0.000000
0.000000
0.000000
0.000000
0.000000
0.000000
0.000000
0.000000
0.000000
0.000000
0.000000
0.000000
0.000000
0.000000
0.000000
0.000000
0.000000
0.000000
0.000000
0.000000
0.000000
0.000000
0.000000
0.000000
0.000000
0.000000
0.000000
0.000000
0.000000
0.000000
0.000000
0.000000
0.000000
0.000000
0.000000
0.000000
0.000000
0.000000
0.000000
0.000000
0.000000
0.000000
0.000000
0.000000
0.000000
0.000000
0.000000
0.000000
0.000000
0.000000
0.000000
0.000000
0.000000
0.000000
0.000000
0.000000
0.000000
0.000000
0.000000
0.000000
0.000000
0.000000
0.000000
0.000000
0.000000
0.000000
0.000000
0.000000
0.000000
0.000000
0.000000
0.000000
0.000000
0.000000
0.000000
0.000000
0.000000
0.000000
0.000000
0.000000
0.000000
0.000000
0.000000
0.000000
0.000000
0.000000
0.000000
0.000000
SCALARS stress_1 float
LOOKUP_TABLE default
-0.149456
-0.228065
-0.226854
-0.225746
-0.224615
-0.223408
-0.222266
-0.221027
-0.219869
-0.218632
-0.217455
-0.216324
-0.215079
-0.213878
-0.212658
-0.211479
-0.210242
-0.209027
-0.207803
-0.206643
-0.205368
-0.204153
-0.202971
-0.201737
-0.200568
-0.199308
-0.198042
-0.196880
-0.195624
-0.194409
-0.193225
-0.192067
-0.190826
-0.189632
-0.188523
-0.187327
-0.186105
-0.184989
-0.183752
-0.182684
-0.181504
-0.180436
-0.179231
-0.178138
-0.177045
-0.175985
-0.174906
-0.173911
-0.172831
-0.171756
-0.170784
-0.169758
-0.168791
-0.167824
-0.166879
-0.165948
-0.165056
-0.164152
-0.163307
-0.162423
-0.161534
-0.160779
-0.160015
-0.159206
-0.158465
-0.157734
-0.157050
-0.156381
-0.155687
-0.155058
-0.154484
-0.153908
-0.153315
-0.152774
-0.152301
-0.151769
-0.151297
-0.150889
-0.150519
-0.150115
-0.149795
-0.225974
-0.148951
-0.149369
-0.149664
-0.150106
-0.150499
-0.150932
-0.151401
-0.151896
-0.152481
-0.152971
-0.153509
-0.154111
-0.154769
-0.155364
-0.156004
-0.156639
-0.157446
-0.158109
-0.158858
-0.159632
-0.160389
-0.161190
-0.162056
-0.162853
-0.163697
-0.164637
-0.165438
-0.166410
-0.167318
-0.168256
-0.169177
-0.170144
-0.171158
-0.172157
-0.173244
-0.174209
-0.175271
-0.176327
-0.177386
-0.178490
-0.179590
-0.180644
-0.181731
-0.182864
-0.183951
-0.185139
-0.186193
-0.187377
-0.188609
-0.189748
-0.190867
-0.191994
-0.193157
-0.194368
-0.195500
-0.196702
-0.197911
-0.199083
-0.200277
-0.201484
-0.202611
-0.203875
-0.204977
-0.206215
-0.207416
-0.208543
-0.209701
-0.210938
-0.212096
-0.213278
-0.214475
-0.215700
-0.216788
-0.217948
-0.219130
-0.220224
-0.221439
-0.222604
-0.223693
-0.224847
-0.226193
-0.226378
-0.226617
-0.226806
-0.227024
-0.227253
-0.227442
-0.227627
-0.227849
-0.149421
-0.149314
-0.149287
-0.149277
-0.149224
-0.149094
-0.149092
-0.148965
-0.149028
-0.149352
-0.149398
-0.149438
-0.149507
-0.149529
-0.149573
-0.149623
-0.149651
-0.149713
-0.149737
-0.149737
-0.149825
-0.149808
-0.149891
-0.149921
-0.149954
-0.150052
-0.150134
-0.150101
-0.150126
-0.150166
-0.150251
-0.150283
-0.150314
-0.150337
-0.150400
-0.150462
-0.150503
-0.150534
-0.150610
-0.150679
-0.150683
-0.150670
-0.150835
-0.150886
-0.150883
-0.150985
-0.151003
-0.151081
-0.151093
-0.151126
-0.151204
-0.151241
-0.151239
-0.151239
-0.151479
-0.151512
-0.151535
-0.151539
-0.151619
-0.151658
-0.151616
-0.151712
-0.151804
-0.151957
-0.151986
-0.152027
-0.152059
-0.152056
-0.152159
-0.152207
-0.152217
-0.152234
-0.152491
-0.152532
-0.152549
-0.152555
-0.152611
-0.152597
-0.152647
-0.152718
-0.152787
-0.152977
-0.152995
-0.153067
-0.153081
-0.153158
-0.153183
-0.153194
-0.153237
-0.153231
-0.153540
-0.153603
-0.153616
-0.153632
-0.153651
-0.153768
-0.153738
-0.153814
-0.153832
-0.154159
-0.154159
-0.154242
-0.154263
-0.154246
-0.154334
-0.154338
-0.154369
-0.154386
-0.154710
-0.154781
-0.154804
-0.154844
-0.154896
-0.154916
-0.154944
-0.155000
-0.155019
-0.155442
-0.155408
-0.155418
-0.155445
-0.155472
-0.155577
-0.155560
-0.155629
-0.155614
-0.156062
-0.156083
-0.156081
-0.156106
-0.156145
-0.156191
-0.156191
-0.156254
-0.156361
-0.156792
-0.156746
-0.156773
-0.156785
-0.156808
-0.156835
-0.156931
-0.156922
-0.156973
-0.157432
-0.157431
-0.157444
-0.157496
-0.157516
-0.157564
-0.157612
-0.157625
-0.157688
-0.158180
-0.158214
-0.158161
-0.158225
-0.158271
-0.158267
-0.158370
-0.158373
-0.158451
-0.158902
-0.158922
-0.158926
-0.158932
-0.159003
-0.159039
-0.159080
-0.159150
-0.159195
-0.159646
-0.159667
-0.159626
-0.159746
-0.159796
-0.159768
-0.159892
-0.159865
-0.159911
-0.160466
-0.160476
-0.160503
-0.160528
-0.160536
-0.160608
-0.160635
-0.160660
-0.160737
-0.161209
-0.161254
-0.161280
-0.161302
-0.161380
-0.161386
-0.161449
-0.161541
-0.161515
-0.162031
-0.162077
-0.162060
-0.162146
-0.162183
-0.162235
-0.162262
-0.162306
-0.162369
-0.162878
-0.162891
-0.162947
-0.163020
-0.163026
-0.163049
-0.163133
-0.163141
-0.163206
-0.163793
-0.163734
-0.163784
-0.163870
-0.163908
-0.163914
-0.163983
-0.164018
-0.164081
-0.164605
-0.164699
-0.164714
-0.164715
-0.164785
-0.164812
-0.164876
-0.164922
-0.164960
-0.165516
-0.165475
-0.165574
-0.165592
-0.165659
-0.165760
-0.165802
-0.165768
-0.165908
-0.166418
-0.166430
-0.166558
-0.166528
-0.166645
-0.166631
-0.166727
-0.166766
-0.166796
-0.167377
-0.167408
-0.167426
-0.167476
-0.167533
-0.167655
-0.167654
-0.167694
-0.167776
-0.168293
-0.168343
-0.168417
-0.168414
-0.168458
-0.168525
-0.168569
-0.168695
-0.168688
-0.169336
-0.169281
-0.169359
-0.169418
-0.169463
-0.169579
-0.169576
-0.169666
-0.169702
-0.170207
-0.170364
-0.170309
-0.170334
-0.170473
-0.170514
-0.170615
-0.170684
-0.170717
-0.171197
-0.171243
-0.171323
-0.171358
-0.171461
-0.171452
-0.171612
-0.171626
-0.171737
-0.172230
-0.172284
-0.172318
-0.172439
-0.172468
-0.172506
-0.172592
-0.172699
-0.172724
-0.173233
-0.173300
-0.173358
-0.173468
-0.173530
-0.173608
-0.173588
-0.173695
-0.173756
-0.174307
-0.174305
-0.174416
-0.174473
-0.174550
-0.174625
-0.174714
-0.174768
-0.174871
-0.175296
-0.175407
-0.175482
-0.175516
-0.175581
-0.175629
-0.175759
-0.175809
-0.175912
-0.176312
-0.176440
-0.176584
-0.176557
-0.176661
-0.176777
-0.176760
-0.176856
-0.177011
-0.177411
-0.177531
-0.177573
-0.177686
-0.177801
-0.177805
-0.177836
-0.178017
-0.178079
-0.178543
-0.178607
-0.178700
-0.178744
-0.178836
-0.178938
-0.179014
-0.179045
-0.179162
-0.179634
-0.179655
-0.179759
-0.179831
-0.179959
-0.180063
-0.180093
-0.180206
-0.180241
-0.180702
-0.180847
-0.180855
-0.180958
-0.181046
-0.181106
-0.181236
-0.181331
-0.181406
-0.181848
-0.181930
-0.182018
-0.182081
-0.182183
-0.182217
-0.182351
-0.182445
-0.182533
-0.182971
-0.183038
-0.183063
-0.183195
-0.183352
-0.183453
-0.183476
-0.183581
-0.183683
-0.184106
-0.184144
-0.184245
-0.184316
-0.184444
-0.184557
-0.184594
-0.184725
-0.184829
-0.185179
-0.185343
-0.185391
-0.185453
-0.185619
-0.185690
-0.185820
-0.185870
-0.186024
-0.186359
-0.186425
-0.186598
-0.186654
-0.186744
-0.186872
-0.187042
-0.187027
-0.187182
-0.187521
-0.187584
-0.187754
-0.187819
-0.187905
-0.188029
-0.188154
-0.188249
-0.188343
-0.188688
-0.188736
-0.188856
-0.188950
-0.189038
-0.189172
-0.189363
-0.189420
-0.189594
-0.189889
-0.189956
-0.189975
-0.190172
-0.190285
-0.190409
-0.190537
-0.190587
-0.190784
-0.190940
-0.191089
-0.191188
-0.191318
-0.191406
-0.191546
-0.191641
-0.191779
-0.191894
-0.192181
-0.192269
-0.192365
-0.192516
-0.192607
-0.192753
-0.192823
-0.192990
-0.193066
-0.193296
-0.193404
-0.193547
-0.193688
-0.193786
-0.193946
-0.194027
-0.194199
-0.194281
-0.194534
-0.194605
-0.194737
-0.194842
-0.194987
-0.195106
-0.195299
-0.195432
-0.195507
-0.195693
-0.195823
-0.195913
-0.196062
-0.196181
-0.196320
-0.196462
-0.196596
-0.196769
-0.196855
-0.196946
-0.197113
-0.197241
-0.197348
-0.197569
-0.197661
-0.197833
-0.197950
-0.198054
-0.198235
-0.198251
-0.198467
-0.198593
-0.198738
-0.198862
-0.198970
-0.199134
-0.199246
-0.199364
-0.199506
-0.199626
-0.199775
-0.199957
-0.200087
-0.200226
-0.200368
-0.200424
-0.200556
-0.200707
-0.200826
-0.200984
-0.201101
-0.201244
-0.201422
-0.201557
-0.201631
-0.201824
-0.201977
-0.202097
-0.202174
-0.202346
-0.202510
-0.202596
-0.202747
-0.202772
-0.202943
-0.203113
-0.203205
-0.203438
-0.203481
-0.203672
-0.203803
-0.203977
-0.203992
-0.204143
-0.204219
-0.204470
-0.204596
-0.204741
-0.204884
-0.205031
-0.205211
-0.205144
-0.205319
-0.205512
-0.205688
-0.205767
-0.205986
-0.206143
-0.206225
-0.206405
-0.206351
-0.206483
-0.206647
-0.206830
-0.207014
-0.207132
-0.207317
-0.207493
-0.207657
-0.207531
-0.207680
-0.207848
-0.208053
-0.208131
-0.208353
-0.208475
-0.208708
-0.208895
-0.208763
-0.208889
-0.209082
-0.209166
-0.209328
-0.209563
-0.209711
-0.209871
-0.210087
-0.209897
-0.210109
-0.210279
-0.210457
-0.210593
-0.210753
-0.210961
-0.211162
-0.211298
-0.211093
-0.211244
-0.211464
-0.211630
-0.211807
-0.211972
-0.212123
-0.212304
-0.212491
-0.212294
-0.212445
-0.212692
-0.212778
-0.213001
-0.213116
-0.213309
-0.213486
-0.213696
-0.213446
-0.213637
-0.213851
-0.213992
-0.214073
-0.214359
-0.214562
-0.214774
-0.214902
-0.214672
-0.214838
-0.214963
-0.215199
-0.215375
-0.215515
-0.215729
-0.215891
-0.216101
-0.215809
-0.215988
-0.216187
-0.216389
-0.216548
-0.216792
-0.216899
-0.217092
-0.217365
-0.216951
-0.217207
-0.217396
-0.217547
-0.217743
-0.217933
-0.218074
-0.218286
-0.218416
-0.218162
-0.218393
-0.218559
-0.218702
-0.218865
-0.219145
-0.219296
-0.219464
-0.219663
-0.219344
-0.219466
-0.219707
-0.219888
-0.220064
-0.220284
-0.220404
-0.220652
-0.220815
-0.220471
-0.220664
-0.220868
-0.221048
-0.221216
-0.221397
-0.221659
-0.221772
-0.222058
-0.221613
-0.221798
-0.222027
-0.222190
-0.222400
-0.222593
-0.222866
-0.222944
-0.223219
-0.222761
-0.222944
-0.223137
-0.223353
-0.223580
-0.223758
-0.223983
-0.224159
-0.224329
-0.223907
-0.224128
-0.224359
-0.224468
-0.224694
-0.224912
-0.225099
-0.225335
-0.225580
-0.225089
-0.225276
-0.225406
-0.225643
-0.225899
-0.226038
-0.226281
-0.226451
-0.226684
SCALARS stress_2 float
LOOKUP_TABLE default
251090.673319
251090.656997
251090.657338
251090.657670
251090.658044
251090.658381
251090.658760
251090.659084
251090.659432
251090.659765
251090.660149
251090.660458
251090.660883
251090.661192
251090.661514
251090.661800
251090.662115
251090.662476
251090.662737
251090.663083
251090.663452
251090.663726
251090.664099
251090.664334
251090.664626
251090.664982
251090.665256
251090.665612
251090.665817
251090.666111
251090.666377
251090.666623
251090.666938
251090.667192
251090.667396
251090.667652
251090.667986
251090.668168
251090.668480
251090.668711
251090.668887
251090.669118
251090.669325
251090.669595
251090.669732
251090.669940
251090.670181
251090.670358
251090.670494
251090.670734
251090.670891
251090.670985
251090.671258
251090.671386
251090.671465
251090.671639
251090.671791
251090.671970
251090.672029
251090.672176
251090.672302
251090.672381
251090.672468
251090.672607
251090.672681
251090.672761
251090.672808
251090.672876
251090.672978
251090.673023
251090.673077
251090.673060
251090.673206
251090.673208
251090.673250
251090.673283
251090.673338
251090.673285
251090.673411
251090.673311
251090.673280
251090.649860
251090.674208
251090.674101
251090.674074
251090.673832
251090.673751
251090.673561
251090.673447
251090.673267
251090.673079
251090.672941
251090.672805
251090.672601
251090.672475
251090.672222
251090.671960
251090.671810
251090.671600
251090.671312
251090.671092
251090.670842
251090.670609
251090.670409
251090.670266
251090.669896
251090.669598
251090.669424
251090.669103
251090.668895
251090.668526
251090.668256
251090.667975
251090.667662
251090.667450
251090.667083
251090.666766
251090.666519
251090.666121
251090.665843
251090.665507
251090.665159
251090.664846
251090.664519
251090.664162
251090.663860
251090.663424
251090.663170
251090.662792
251090.662433
251090.662094
251090.661707
251090.661364
251090.660977
251090.660628
251090.660287
251090.659868
251090.659557
251090.659145
251090.658837
251090.658372
251090.658096
251090.657711
251090.657270
251090.656889
251090.656496
251090.656186
251090.655710
251090.655330
251090.654994
251090.654565
251090.654168
251090.653905
251090.653484
251090.652996
251090.652636
251090.652287
251090.651885
251090.651487
251090.651048
251090.650740
251090.650309
251090.650624
251090.651289
251090.652048
251090.652766
251090.653503
251090.654160
251090.654863
251090.655610
251090.656266
251090.673443
251090.673515
251090.673617
251090.673736
251090.673817
251090.673937
251090.673946
251090.674171
251090.674149
251090.673989
251090.674024
251090.673935
251090.673770
251090.673703
251090.673699
251090.673574
251090.673539
251090.673352
251090.673901
251090.673851
251090.673798
251090.673692
251090.673645
251090.673547
251090.673592
251090.673471
251090.673347
251090.673787
251090.673731
251090.673696
251090.673693
251090.673539
251090.673575
251090.673543
251090.673418
251090.673290
251090.673650
251090.673641
251090.673660
251090.673559
251090.673502
251090.673481
251090.673433
251090.673402
251090.673381
251090.673500
251090.673569
251090.673439
251090.673514
251090.673471
251090.673471
251090.673388
251090.673377
251090.673277
251090.673455
251090.673435
251090.673451
251090.673392
251090.673358
251090.673363
251090.673327
251090.673270
251090.673267
251090.673305
251090.673353
251090.673285
251090.673306
251090.673317
251090.673287
251090.673323
251090.673323
251090.673221
251090.673154
251090.673176
251090.673176
251090.673198
251090.673189
251090.673158
251090.673223
251090.673162
251090.673237
251090.673036
251090.673031
251090.673069
251090.673063
251090.673098
251090.673132
251090.673162
251090.673180
251090.673131
251090.672768
251090.672837
251090.672846
251090.672899
251090.672974
251090.673010
251090.673031
251090.673049
251090.673019
251090.672690
251090.672726
251090.672818
251090.672838
251090.672877
251090.672926
251090.672910
251090.672989
251090.673034
251090.672500
251090.672494
251090.672553
251090.672639
251090.672800
251090.672830
251090.672961
251090.672845
251090.672958
251090.672317
251090.672396
251090.672378
251090.672580
251090.672516
251090.672664
251090.672780
251090.672811
251090.672903
251090.672067
251090.672213
251090.672310
251090.672396
251090.672423
251090.672617
251090.672670
251090.672715
251090.672862
251090.671926
251090.672015
251090.672147
251090.672315
251090.672318
251090.672464
251090.672537
251090.672657
251090.672679
251090.671699
251090.671863
251090.671904
251090.672106
251090.672178
251090.672316
251090.672440
251090.672528
251090.672652
251090.671534
251090.671662
251090.671708
251090.671868
251090.672030
251090.672203
251090.672324
251090.672386
251090.672555
251090.671256
251090.671404
251090.671597
251090.671693
251090.671824
251090.672027
251090.672145
251090.672268
251090.672394
251090.671020
251090.671238
251090.671389
251090.671544
251090.671678
251090.671806
251090.672043
251090.672156
251090.672335
251090.670853
251090.671034
251090.671196
251090.671395
251090.671623
251090.671748
251090.671818
251090.672024
251090.672253
251090.670595
251090.670796
251090.671010
251090.671188
251090.671341
251090.671524
251090.671703
251090.671906
251090.672158
251090.670434
251090.670629
251090.670815
251090.671031
251090.671157
251090.671432
251090.671601
251090.671810
251090.671950
251090.670179
251090.670347
251090.670596
251090.670801
251090.671038
251090.671279
251090.671510
251090.671618
251090.671825
251090.669870
251090.670150
251090.670312
251090.670560
251090.670756
251090.671077
251090.671259
251090.671474
251090.671673
251090.669607
251090.669947
251090.670065
251090.670322
251090.670612
251090.670862
251090.671080
251090.671299
251090.671558
251090.669389
251090.669649
251090.669864
251090.670177
251090.670412
251090.670681
251090.670913
251090.671131
251090.671422
251090.669091
251090.669338
251090.669670
251090.669941
251090.670242
251090.670419
251090.670751
251090.670910
251090.671300
251090.668903
251090.669163
251090.669487
251090.669762
251090.669977
251090.670240
251090.670558
251090.670841
251090.671097
251090.668599
251090.668811
251090.669223
251090.669476
251090.669712
251090.670015
251090.670288
251090.670739
251090.670881
251090.668271
251090.668583
251090.668945
251090.669352
251090.669566
251090.669855
251090.670089
251090.670434
251090.670799
251090.668050
251090.668276
251090.668732
251090.668978
251090.669360
251090.669554
251090.669957
251090.670244
251090.670609
251090.667749
251090.668094
251090.668435
251090.668726
251090.669143
251090.669383
251090.669784
251090.670128
251090.670405
251090.667408
251090.667765
251090.668197
251090.668505
251090.668825
251090.669228
251090.669553
251090.669875
251090.670148
251090.667136
251090.667521
251090.667903
251090.668234
251090.668593
251090.668912
251090.669360
251090.669700
251090.670028
251090.666811
251090.667213
251090.667640
251090.668008
251090.668323
251090.668726
251090.669121
251090.669436
251090.669783
251090.666505
251090.666945
251090.667405
251090.667654
251090.668083
251090.668425
251090.668754
251090.669228
251090.669565
251090.666257
251090.666572
251090.667029
251090.667446
251090.667810
251090.668195
251090.668622
251090.668935
251090.669398
251090.665944
251090.666422
251090.666755
251090.667157
251090.667568
251090.667935
251090.668367
251090.668799
251090.669149
251090.665591
251090.666002
251090.666545
251090.666800
251090.667273
251090.667665
251090.668096
251090.668522
251090.668963
251090.665288
251090.665729
251090.666141
251090.666599
251090.667049
251090.667357
251090.667837
251090.668265
251090.668669
251090.665028
251090.665387
251090.665884
251090.666323
251090.666682
251090.667131
251090.667617
251090.668070
251090.668445
251090.664653
251090.665039
251090.665586
251090.666013
251090.666441
251090.666857
251090.667356
251090.667767
251090.668154
251090.664295
251090.664795
251090.665229
251090.665744
251090.666148
251090.666603
251090.667031
251090.667576
251090.667999
251090.663966
251090.664422
251090.664958
251090.665361
251090.665820
251090.666305
251090.666868
251090.667265
251090.667699
251090.663647
251090.664118
251090.664551
251090.665176
251090.665534
251090.666066
251090.666481
251090.667015
251090.667455
251090.663306
251090.663835
251090.664333
251090.664859
251090.665280
251090.665814
251090.666236
251090.666754
251090.667192
251090.663044
251090.663389
251090.664047
251090.664468
251090.664975
251090.665457
251090.665895
251090.666399
251090.666931
251090.662578
251090.663096
251090.663674
251090.664213
251090.664689
251090.665185
251090.665660
251090.666169
251090.666731
251090.662239
251090.662791
251090.663349
251090.663795
251090.664423
251090.664928
251090.665371
251090.665830
251090.666455
251090.661890
251090.662459
251090.663048
251090.663447
251090.664038
251090.664583
251090.665100
251090.665659
251090.666081
251090.661554
251090.662088
251090.662635
251090.663262
251090.663710
251090.664238
251090.664806
251090.665325
251090.665920
251090.661180
251090.661779
251090.662326
251090.662853
251090.663423
251090.663977
251090.664458
251090.665062
251090.665520
251090.660903
251090.661460
251090.661979
251090.662463
251090.663158
251090.663633
251090.664100
251090.664692
251090.665285
251090.660511
251090.661034
251090.661632
251090.662220
251090.662714
251090.663323
251090.663876
251090.664375
251090.665004
251090.660122
251090.660674
251090.661269
251090.661872
251090.662459
251090.662983
251090.663549
251090.664151
251090.664607
251090.659844
251090.660297
251090.660895
251090.661546
251090.662053
251090.662579
251090.663231
251090.663809
251090.664432
251090.659388
251090.659913
251090.660603
251090.661162
251090.661739
251090.662324
251090.662898
251090.663508
251090.664063
251090.659023
251090.659622
251090.660280
251090.660804
251090.661417
251090.662006
251090.662605
251090.663191
251090.663707
251090.658615
251090.659343
251090.659932
251090.660423
251090.661057
251090.661671
251090.662216
251090.662874
251090.663455
251090.658251
251090.658859
251090.659567
251090.660050
251090.660703
251090.661317
251090.661939
251090.662625
251090.663152
251090.657938
251090.658534
251090.659156
251090.659850
251090.660380
251090.661083
251090.661631
251090.662222
251090.662799
251090.657541
251090.658165
251090.658825
251090.659394
251090.660003
251090.660656
251090.661269
251090.661917
251090.662546
251090.657181
251090.657794
251090.658373
251090.659024
251090.659681
251090.660298
251090.660999
251090.661588
251090.662181
251090.656748
251090.657423
251090.658037
251090.658713
251090.659319
251090.659984
251090.660577
251090.661209
251090.661845
251090.656385
251090.657054
251090.657662
251090.658382
251090.659041
251090.659620
251090.660224
251090.660911
251090.661509
251090.656036
251090.656679
251090.657261
251090.657967
251090.658649
251090.659279
251090.660063
251090.660607
251090.661222
251090.655670
251090.656328
251090.656935
251090.657601
251090.658224
251090.658953
251090.659521
251090.660177
251090.660906
251090.655252
251090.655945
251090.656583
251090.657253
251090.657892
251090.658503
251090.659206
251090.659927
251090.660562
251090.654851
251090.655541
251090.656177
251090.656880
251090.657523
251090.658250
251090.658886
251090.659527
251090.660249
251090.654476
251090.655170
251090.655838
251090.656505
251090.657098
251090.657827
251090.658495
251090.659186
251090.659799
251090.654101
251090.654785
251090.655422
251090.656124
251090.656849
251090.657497
251090.658166
251090.658858
251090.659509
251090.653687
251090.654362
251090.655079
251090.655733
251090.656535
251090.657149
251090.657833
251090.658449
251090.659149
251090.653299
251090.654022
251090.654694
251090.655329
251090.656028
251090.656748
251090.657410
251090.658131
251090.658793
251090.652915
251090.653631
251090.654383
251090.655008
251090.655718
251090.656406
251090.657084
251090.657789
251090.658419
251090.652537
251090.653274
251090.653924
251090.654570
251090.655350
251090.656049
251090.656689
251090.657404
251090.658082
251090.652138
251090.652893
251090.653537
251090.654281
251090.654904
251090.655635
251090.656320
251090.657025
251090.657689
251090.651747
251090.652448
251090.653167
251090.653867
251090.654597
251090.655301
251090.655956
251090.656705
251090.657311
251090.651419
251090.652119
251090.652806
251090.653465
251090.654250
251090.654917
251090.655569
251090.656290
251090.656988
251090.650957
251090.651698
251090.652456
251090.653108
251090.653853
251090.654482
251090.655286
251090.655951
251090.656641
SCALARS stress_3 float
LOOKUP_TABLE default
0.000322
0.015937
0.015745
0.015581
0.015449
0.015255
0.015049
0.014911
0.014737
0.014536
0.014405
0.014207
0.014053
0.013841
0.013709
0.013508
0.013353
0.013184
0.012972
0.012792
0.012631
0.012425
0.012251
0.012059
0.011880
0.011711
0.011537
0.011325
0.011164
0.010969
0.010762
0.010582
0.010399
0.010213
0.009968
0.009769
0.009601
0.009425
0.009188
0.009000
0.008809
0.008610
0.008407
0.008218
0.008013
0.007810
0.007596
0.007397
0.007206
0.006972
0.006751
0.006567
0.006368
0.006148
0.005928
0.005758
0.005542
0.005303
0.005096
0.004893
0.004664
0.004432
0.004247
0.004042
0.003851
0.003616
0.003430
0.003189
0.002986
0.002751
0.002615
0.002351
0.002128
0.001936
0.001701
0.001538
0.001318
0.001148
0.000924
0.000744
0.000511
0.010825
-0.000039
0.000019
0.000039
0.000133
0.000202
0.000273
0.000333
0.000396
0.000454
0.000573
0.000654
0.000715
0.000829
0.000858
0.001009
0.001076
0.001172
0.001285
0.001374
0.001491
0.001602
0.001717
0.001801
0.001928
0.002066
0.002208
0.002313
0.002419
0.002543
0.002664
0.002838
0.002919
0.003091
0.003179
0.003333
0.003493
0.003639
0.003760
0.003899
0.004037
0.004198
0.004342
0.004522
0.004662
0.004801
0.004947
0.005106
0.005253
0.005437
0.005584
0.005759
0.005902
0.006061
0.006226
0.006409
0.006542
0.006681
0.006890
0.007039
0.007234
0.007403
0.007577
0.007700
0.007914
0.008052
0.008205
0.008402
0.008565
0.008752
0.008936
0.009082
0.009267
0.009415
0.009570
0.009805
0.009945
0.010125
0.010272
0.010503
0.010636
0.011321
0.011799
0.012335
0.012866
0.013364
0.013891
0.014387
0.014875
0.015412
0.000302
0.000241
0.000178
0.000194
0.000142
0.000092
0.000050
0.000021
-0.000021
0.000063
0.000109
0.000159
0.000204
0.000269
0.000317
0.000363
0.000423
0.000469
0.000134
0.000215
0.000276
0.000315
0.000411
0.000468
0.000512
0.000576
0.000670
0.000209
0.000288
0.000359
0.000441
0.000516
0.000629
0.000679
0.000758
0.000840
0.000300
0.000355
0.000451
0.000572
0.000637
0.000706
0.000834
0.000932
0.001020
0.000369
0.000495
0.000559
0.000647
0.000796
0.000861
0.000976
0.001094
0.001215
0.000459
0.000561
0.000672
0.000809
0.000922
0.001056
0.001154
0.001299
0.001383
0.000542
0.000676
0.000771
0.000955
0.001033
0.001215
0.001366
0.001475
0.001571
0.000598
0.000772
0.000907
0.001047
0.001190
0.001338
0.001489
0.001613
0.001800
0.000724
0.000843
0.001036
0.001200
0.001325
0.001483
0.001663
0.001825
0.002015
0.000807
0.000979
0.001155
0.001304
0.001524
0.001680
0.001852
0.002040
0.002189
0.000908
0.001059
0.001279
0.001476
0.001625
0.001816
0.001994
0.002195
0.002353
0.001002
0.001228
0.001392
0.001587
0.001771
0.001966
0.002151
0.002382
0.002592
0.001089
0.001312
0.001551
0.001714
0.001930
0.002170
0.002367
0.002532
0.002763
0.001198
0.001429
0.001653
0.001882
0.002087
0.002266
0.002551
0.002729
0.002966
0.001353
0.001571
0.001764
0.002022
0.002219
0.002494
0.002727
0.002905
0.003174
0.001405
0.001667
0.001936
0.002150
0.002380
0.002651
0.002884
0.003128
0.003394
0.001519
0.001794
0.002034
0.002292
0.002540
0.002821
0.003075
0.003322
0.003578
0.001643
0.001928
0.002193
0.002443
0.002713
0.002992
0.003223
0.003482
0.003798
0.001802
0.002062
0.002320
0.002591
0.002862
0.003173
0.003422
0.003727
0.004008
0.001896
0.002183
0.002456
0.002748
0.003031
0.003315
0.003605
0.003871
0.004209
0.002009
0.002317
0.002594
0.002905
0.003212
0.003464
0.003785
0.004095
0.004383
0.002128
0.002453
0.002730
0.003045
0.003354
0.003669
0.003961
0.004263
0.004584
0.002226
0.002566
0.002875
0.003194
0.003471
0.003805
0.004137
0.004441
0.004789
0.002366
0.002681
0.002979
0.003395
0.003699
0.004023
0.004289
0.004661
0.004987
0.002525
0.002866
0.003140
0.003508
0.003829
0.004171
0.004533
0.004822
0.005202
0.002615
0.002976
0.003327
0.003663
0.004013
0.004373
0.004690
0.005063
0.005404
0.002732
0.003093
0.003457
0.003812
0.004164
0.004530
0.004876
0.005246
0.005586
0.002868
0.003246
0.003607
0.003956
0.004304
0.004708
0.005063
0.005411
0.005810
0.003038
0.003450
0.003758
0.004163
0.004491
0.004873
0.005261
0.005604
0.005994
0.003174
0.003522
0.003934
0.004304
0.004692
0.005064
0.005469
0.005822
0.006198
0.003327
0.003719
0.004081
0.004439
0.004822
0.005231
0.005603
0.006017
0.006403
0.003446
0.003843
0.004231
0.004632
0.005019
0.005409
0.005814
0.006176
0.006619
0.003617
0.003989
0.004390
0.004812
0.005195
0.005617
0.005997
0.006408
0.006795
0.003753
0.004113
0.004558
0.004951
0.005341
0.005763
0.006166
0.006588
0.006981
0.003881
0.004320
0.004721
0.005118
0.005530
0.005945
0.006365
0.006771
0.007199
0.004026
0.004427
0.004861
0.005292
0.005714
0.006151
0.006546
0.006980
0.007373
0.004197
0.004598
0.005063
0.005466
0.005844
0.006312
0.006724
0.007131
0.007578
0.004363
0.004789
0.005200
0.005608
0.006049
0.006486
0.006885
0.007355
0.007794
0.004467
0.004919
0.005362
0.005794
0.006198
0.006695
0.007094
0.007535
0.007976
0.004633
0.005059
0.005538
0.005979
0.006443
0.006852
0.007296
0.007741
0.008184
0.004798
0.005231
0.005674
0.006138
0.006571
0.007037
0.007473
0.007955
0.008366
0.004928
0.005409
0.005841
0.006326
0.006742
0.007227
0.007647
0.008105
0.008588
0.005106
0.005557
0.006000
0.006464
0.006916
0.007363
0.007857
0.008308
0.008785
0.005261
0.005729
0.006183
0.006628
0.007092
0.007531
0.008033
0.008501
0.008963
0.005392
0.005848
0.006367
0.006856
0.007281
0.007742
0.008177
0.008681
0.009152
0.005562
0.006026
0.006522
0.006975
0.007467
0.007933
0.008401
0.008857
0.009288
0.005727
0.006194
0.006675
0.007149
0.007607
0.008111
0.008592
0.009063
0.009504
0.005907
0.006353
0.006851
0.007323
0.007819
0.008289
0.008722
0.009258
0.009711
0.006094
0.006533
0.007007
0.007507
0.007982
0.008434
0.008919
0.009419
0.009910
0.006259
0.006734
0.007228
0.007679
0.008179
0.008626
0.009107
0.009611
0.010069
0.006406
0.006878
0.007357
0.007819
0.008305
0.008827
0.009332
0.009779
0.010289
0.006542
0.007023
0.007546
0.008018
0.008508
0.008964
0.009501
0.009976
0.010470
0.006735
0.007205
0.007697
0.008194
0.008663
0.009154
0.009650
0.010133
0.010643
0.006869
0.007356
0.007860
0.008322
0.008858
0.009357
0.009811
0.010349
0.010857
0.007057
0.007563
0.008051
0.008536
0.009031
0.009527
0.010042
0.010529
0.011012
0.007241
0.007739
0.008210
0.008722
0.009186
0.009659
0.010222
0.010692
0.011224
0.007398
0.007892
0.008386
0.008866
0.009366
0.009883
0.010415
0.010887
0.011395
0.007549
0.008062
0.008610
0.009082
0.009576
0.010059
0.010536
0.011061
0.011573
0.007727
0.008198
0.008744
0.009237
0.009727
0.010206
0.010752
0.011226
0.011779
0.007878
0.008378
0.008915
0.009445
0.009915
0.010407
0.010932
0.011406
0.011923
0.008060
0.008545
0.009074
0.009572
0.010066
0.010602
0.011101
0.011626
0.012097
0.008238
0.008740
0.009246
0.009746
0.010248
0.010761
0.011273
0.011762
0.012288
0.008378
0.008903
0.009403
0.009943
0.010401
0.010934
0.011426
0.011938
0.012451
0.008563
0.009062
0.009579
0.010100
0.010608
0.011087
0.011682
0.012125
0.012658
0.008760
0.009251
0.009768
0.010257
0.010791
0.011259
0.011809
0.012311
0.012811
0.008954
0.009402
0.009916
0.010443
0.010933
0.011454
0.011985
0.012487
0.013004
0.009080
0.009563
0.010117
0.010640
0.011107
0.011634
0.012165
0.012659
0.013180
0.009258
0.009777
0.010275
0.010800
0.011293
0.011810
0.012333
0.012820
0.013335
0.009423
0.009898
0.010471
0.010950
0.011488
0.011967
0.012486
0.013028
0.013557
0.009580
0.010107
0.010609
0.011137
0.011639
0.012147
0.012676
0.013185
0.013705
0.009777
0.010281
0.010800
0.011300
0.011800
0.012325
0.012837
0.013335
0.013877
0.009941
0.010482
0.010987
0.011480
0.011984
0.012512
0.013024
0.013520
0.014055
0.010116
0.010616
0.011154
0.011631
0.012171
0.012669
0.013143
0.013731
0.014206
0.010255
0.010790
0.011319
0.011809
0.012349
0.012870
0.013374
0.013867
0.014390
0.010451
0.010935
0.011491
0.011978
0.012497
0.013016
0.013539
0.014062
0.014564
0.010640
0.011144
0.011669
0.012182
0.012699
0.013192
0.013686
0.014204
0.014732
0.010795
0.011322
0.011822
0.012343
0.012826
0.013345
0.013891
0.014378
0.014948
0.010973
0.011448
0.011985
0.012529
0.013019
0.013542
0.014038
0.014542
0.015067
0.011168
0.011682
0.012165
0.012693
0.013193
0.013693
0.014207
0.014736
0.015255
