# vtk DataFile Version 2.0
Generated volume Mesh
ASCII
DATASET UNSTRUCTURED_GRID
POINTS 891 float
0.005000 0.100000 0.000000
0.005000 0.000000 0.000000
0.005000 0.001250 0.000000
0.005000 0.002500 0.000000
0.005000 0.003750 0.000000
0.005000 0.005000 0.000000
0.005000 0.006250 0.000000
0.005000 0.007500 0.000000
0.005000 0.008750 0.000000
0.005000 0.010000 0.000000
0.005000 0.011250 0.000000
0.005000 0.012500 0.000000
0.005000 0.013750 0.000000
0.005000 0.015000 0.000000
0.005000 0.016250 0.000000
0.005000 0.017500 0.000000
0.005000 0.018750 0.000000
0.005000 0.020000 0.000000
0.005000 0.021250 0.000000
0.005000 0.022500 0.000000
0.005000 0.023750 0.000000
0.005000 0.025000 0.000000
0.005000 0.026250 0.000000
0.005000 0.027500 0.000000
0.005000 0.028750 0.000000
0.005000 0.030000 0.000000
0.005000 0.031250 0.000000
0.005000 0.032500 0.000000
0.005000 0.033750 0.000000
0.005000 0.035000 0.000000
0.005000 0.036250 0.000000
0.005000 0.037500 0.000000
0.005000 0.038750 0.000000
0.005000 0.040000 0.000000
0.005000 0.041250 0.000000
0.005000 0.042500 0.000000
0.005000 0.043750 0.000000
0.005000 0.045000 0.000000
0.005000 0.046250 0.000000
0.005000 0.047500 0.000000
0.005000 0.048750 0.000000
0.005000 0.050000 0.000000
0.005000 0.051250 0.000000
0.005000 0.052500 0.000000
0.005000 0.053750 0.000000
0.005000 0.055000 0.000000
0.005000 0.056250 0.000000
0.005000 0.057500 0.000000
0.005000 0.058750 0.000000
0.005000 0.060000 0.000000
0.005000 0.061250 0.000000
0.005000 0.062500 0.000000
0.005000 0.063750 0.000000
0.005000 0.065000 0.000000
0.005000 0.066250 0.000000
0.005000 0.067500 0.000000
0.005000 0.068750 0.000000
0.005000 0.070000 0.000000
0.005000 0.071250 0.000000
0.005000 0.072500 0.000000
0.005000 0.073750 0.000000
0.005000 0.075000 0.000000
0.005000 0.076250 0.000000
0.005000 0.077500 0.000000
0.005000 0.078750 0.000000
0.005000 0.080000 0.000000
0.005000 0.081250 0.000000
0.005000 0.082500 0.000000
0.005000 0.083750 0.000000
0.005000 0.085000 0.000000
0.005000 0.086250 0.000000
0.005000 0.087500 0.000000
0.005000 0.088750 0.000000
0.005000 0.090000 0.000000
0.005000 0.091250 0.000000
0.005000 0.092500 0.000000
0.005000 0.093750 0.000000
0.005000 0.095000 0.000000
0.005000 0.096250 0.000000
0.005000 0.097500 0.000000
0.005000 0.098750 0.000000
0.000000 0.000000 0.000000
0.000000 0.100000 0.000000
0.000000 0.098750 0.000000
0.000000 0.097500 0.000000
0.000000 0.096250 0.000000
0.000000 0.095000 0.000000
0.000000 0.093750 0.000000
0.000000 0.092500 0.000000
0.000000 0.091250 0.000000
0.000000 0.090000 0.000000
0.000000 0.088750 0.000000
0.000000 0.087500 0.000000
0.000000 0.086250 0.000000
0.000000 0.085000 0.000000
0.000000 0.083750 0.000000
0.000000 0.082500 0.000000
0.000000 0.081250 0.000000
0.000000 0.080000 0.000000
0.000000 0.078750 0.000000
0.000000 0.077500 0.000000
0.000000 0.076250 0.000000
0.000000 0.075000 0.000000
0.000000 0.073750 0.000000
0.000000 0.072500 0.000000
0.000000 0.071250 0.000000
0.000000 0.070000 0.000000
0.000000 0.068750 0.000000
0.000000 0.067500 0.000000
0.000000 0.066250 0.000000
0.000000 0.065000 0.000000
0.000000 0.063750 0.000000
0.000000 0.062500 0.000000
0.000000 0.061250 0.000000
0.000000 0.060000 0.000000
0.000000 0.058750 0.000000
0.000000 0.057500 0.000000
0.000000 0.056250 0.000000
0.000000 0.055000 0.000000
0.000000 0.053750 0.000000
0.000000 0.052500 0.000000
0.000000 0.051250 0.000000
0.000000 0.050000 0.000000
0.000000 0.048750 0.000000
0.000000 0.047500 0.000000
0.000000 0.046250 0.000000
0.000000 0.045000 0.000000
0.000000 0.043750 0.000000
0.000000 0.042500 0.000000
0.000000 0.041250 0.000000
0.000000 0.040000 0.000000
0.000000 0.038750 0.000000
0.000000 0.037500 0.000000
0.000000 0.036250 0.000000
0.000000 0.035000 0.000000
0.000000 0.033750 0.000000
0.000000 0.032500 0.000000
0.000000 0.031250 0.000000
0.000000 0.030000 0.000000
0.000000 0.028750 0.000000
0.000000 0.027500 0.000000
0.000000 0.026250 0.000000
0.000000 0.025000 0.000000
0.000000 0.023750 0.000000
0.000000 0.022500 0.000000
0.000000 0.021250 0.000000
0.000000 0.020000 0.000000
0.000000 0.018750 0.000000
0.000000 0.017500 0.000000
0.000000 0.016250 0.000000
0.000000 0.015000 0.000000
0.000000 0.013750 0.000000
0.000000 0.012500 0.000000
0.000000 0.011250 0.000000
0.000000 0.010000 0.000000
0.000000 0.008750 0.000000
0.000000 0.007500 0.000000
0.000000 0.006250 0.000000
0.000000 0.005000 0.000000
0.000000 0.003750 0.000000
0.000000 0.002500 0.000000
0.000000 0.001250 0.000000
0.000500 0.000000 0.000000
0.001000 0.000000 0.000000
0.001500 0.000000 0.000000
0.002000 0.000000 0.000000
0.002500 0.000000 0.000000
0.003000 0.000000 0.000000
0.003500 0.000000 0.000000
0.004000 0.000000 0.000000
0.004500 0.000000 0.000000
0.004500 0.100000 0.000000
0.004000 0.100000 0.000000
0.003500 0.100000 0.000000
0.003000 0.100000 0.000000
0.002500 0.100000 0.000000
0.002000 0.100000 0.000000
0.001500 0.100000 0.000000
0.001000 0.100000 0.000000
0.000500 0.100000 0.000000
0.000500 0.098750 0.000000
0.001000 0.098750 0.000000
0.001500 0.098750 0.000000
0.002000 0.098750 0.000000
0.002500 0.098750 0.000000
0.003000 0.098750 0.000000
0.003500 0.098750 0.000000
0.004000 0.098750 0.000000
0.004500 0.098750 0.000000
0.000500 0.097500 0.000000
0.001000 0.097500 0.000000
0.001500 0.097500 0.000000
0.002000 0.097500 0.000000
0.002500 0.097500 0.000000
0.003000 0.097500 0.000000
0.003500 0.097500 0.000000
0.004000 0.097500 0.000000
0.004500 0.097500 0.000000
0.000500 0.096250 0.000000
0.001000 0.096250 0.000000
0.001500 0.096250 0.000000
0.002000 0.096250 0.000000
0.002500 0.096250 0.000000
0.003000 0.096250 0.000000
0.003500 0.096250 0.000000
0.004000 0.096250 0.000000
0.004500 0.096250 0.000000
0.000500 0.095000 0.000000
0.001000 0.095000 0.000000
0.001500 0.095000 0.000000
0.002000 0.095000 0.000000
0.002500 0.095000 0.000000
0.003000 0.095000 0.000000
0.003500 0.095000 0.000000
0.004000 0.095000 0.000000
0.004500 0.095000 0.000000
0.000500 0.093750 0.000000
0.001000 0.093750 0.000000
0.001500 0.093750 0.000000
0.002000 0.093750 0.000000
0.002500 0.093750 0.000000
0.003000 0.093750 0.000000
0.003500 0.093750 0.000000
0.004000 0.093750 0.000000
0.004500 0.093750 0.000000
0.000500 0.092500 0.000000
0.001000 0.092500 0.000000
0.001500 0.092500 0.000000
0.002000 0.092500 0.000000
0.002500 0.092500 0.000000
0.003000 0.092500 0.000000
0.003500 0.092500 0.000000
0.004000 0.092500 0.000000
0.004500 0.092500 0.000000
0.000500 0.091250 0.000000
0.001000 0.091250 0.000000
0.001500 0.091250 0.000000
0.002000 0.091250 0.000000
0.002500 0.091250 0.000000
0.003000 0.091250 0.000000
0.003500 0.091250 0.000000
0.004000 0.091250 0.000000
0.004500 0.091250 0.000000
0.000500 0.090000 0.000000
0.001000 0.090000 0.000000
0.001500 0.090000 0.000000
0.002000 0.090000 0.000000
0.002500 0.090000 0.000000
0.003000 0.090000 0.000000
0.003500 0.090000 0.000000
0.004000 0.090000 0.000000
0.004500 0.090000 0.000000
0.000500 0.088750 0.000000
0.001000 0.088750 0.000000
0.001500 0.088750 0.000000
0.002000 0.088750 0.000000
0.002500 0.088750 0.000000
0.003000 0.088750 0.000000
0.003500 0.088750 0.000000
0.004000 0.088750 0.000000
0.004500 0.088750 0.000000
0.000500 0.087500 0.000000
0.001000 0.087500 0.000000
0.001500 0.087500 0.000000
0.002000 0.087500 0.000000
0.002500 0.087500 0.000000
0.003000 0.087500 0.000000
0.003500 0.087500 0.000000
0.004000 0.087500 0.000000
0.004500 0.087500 0.000000
0.000500 0.086250 0.000000
0.001000 0.086250 0.000000
0.001500 0.086250 0.000000
0.002000 0.086250 0.000000
0.002500 0.086250 0.000000
0.003000 0.086250 0.000000
0.003500 0.086250 0.000000
0.004000 0.086250 0.000000
0.004500 0.086250 0.000000
0.000500 0.085000 0.000000
0.001000 0.085000 0.000000
0.001500 0.085000 0.000000
0.002000 0.085000 0.000000
0.002500 0.085000 0.000000
0.003000 0.085000 0.000000
0.003500 0.085000 0.000000
0.004000 0.085000 0.000000
0.004500 0.085000 0.000000
0.000500 0.083750 0.000000
0.001000 0.083750 0.000000
0.001500 0.083750 0.000000
0.002000 0.083750 0.000000
0.002500 0.083750 0.000000
0.003000 0.083750 0.000000
0.003500 0.083750 0.000000
0.004000 0.083750 0.000000
0.004500 0.083750 0.000000
0.000500 0.082500 0.000000
0.001000 0.082500 0.000000
0.001500 0.082500 0.000000
0.002000 0.082500 0.000000
0.002500 0.082500 0.000000
0.003000 0.082500 0.000000
0.003500 0.082500 0.000000
0.004000 0.082500 0.000000
0.004500 0.082500 0.000000
0.000500 0.081250 0.000000
0.001000 0.081250 0.000000
0.001500 0.081250 0.000000
0.002000 0.081250 0.000000
0.002500 0.081250 0.000000
0.003000 0.081250 0.000000
0.003500 0.081250 0.000000
0.004000 0.081250 0.000000
0.004500 0.081250 0.000000
0.000500 0.080000 0.000000
0.001000 0.080000 0.000000
0.001500 0.080000 0.000000
0.002000 0.080000 0.000000
0.002500 0.080000 0.000000
0.003000 0.080000 0.000000
0.003500 0.080000 0.000000
0.004000 0.080000 0.000000
0.004500 0.080000 0.000000
0.000500 0.078750 0.000000
0.001000 0.078750 0.000000
0.001500 0.078750 0.000000
0.002000 0.078750 0.000000
0.002500 0.078750 0.000000
0.003000 0.078750 0.000000
0.003500 0.078750 0.000000
0.004000 0.078750 0.000000
0.004500 0.078750 0.000000
0.000500 0.077500 0.000000
0.001000 0.077500 0.000000
0.001500 0.077500 0.000000
0.002000 0.077500 0.000000
0.002500 0.077500 0.000000
0.003000 0.077500 0.000000
0.003500 0.077500 0.000000
0.004000 0.077500 0.000000
0.004500 0.077500 0.000000
0.000500 0.076250 0.000000
0.001000 0.076250 0.000000
0.001500 0.076250 0.000000
0.002000 0.076250 0.000000
0.002500 0.076250 0.000000
0.003000 0.076250 0.000000
0.003500 0.076250 0.000000
0.004000 0.076250 0.000000
0.004500 0.076250 0.000000
0.000500 0.075000 0.000000
0.001000 0.075000 0.000000
0.001500 0.075000 0.000000
0.002000 0.075000 0.000000
0.002500 0.075000 0.000000
0.003000 0.075000 0.000000
0.003500 0.075000 0.000000
0.004000 0.075000 0.000000
0.004500 0.075000 0.000000
0.000500 0.073750 0.000000
0.001000 0.073750 0.000000
0.001500 0.073750 0.000000
0.002000 0.073750 0.000000
0.002500 0.073750 0.000000
0.003000 0.073750 0.000000
0.003500 0.073750 0.000000
0.004000 0.073750 0.000000
0.004500 0.073750 0.000000
0.000500 0.072500 0.000000
0.001000 0.072500 0.000000
0.001500 0.072500 0.000000
0.002000 0.072500 0.000000
0.002500 0.072500 0.000000
0.003000 0.072500 0.000000
0.003500 0.072500 0.000000
0.004000 0.072500 0.000000
0.004500 0.072500 0.000000
0.000500 0.071250 0.000000
0.001000 0.071250 0.000000
0.001500 0.071250 0.000000
0.002000 0.071250 0.000000
0.002500 0.071250 0.000000
0.003000 0.071250 0.000000
0.003500 0.071250 0.000000
0.004000 0.071250 0.000000
0.004500 0.071250 0.000000
0.000500 0.070000 0.000000
0.001000 0.070000 0.000000
0.001500 0.070000 0.000000
0.002000 0.070000 0.000000
0.002500 0.070000 0.000000
0.003000 0.070000 0.000000
0.003500 0.070000 0.000000
0.004000 0.070000 0.000000
0.004500 0.070000 0.000000
0.000500 0.068750 0.000000
0.001000 0.068750 0.000000
0.001500 0.068750 0.000000
0.002000 0.068750 0.000000
0.002500 0.068750 0.000000
0.003000 0.068750 0.000000
0.003500 0.068750 0.000000
0.004000 0.068750 0.000000
0.004500 0.068750 0.000000
0.000500 0.067500 0.000000
0.001000 0.067500 0.000000
0.001500 0.067500 0.000000
0.002000 0.067500 0.000000
0.002500 0.067500 0.000000
0.003000 0.067500 0.000000
0.003500 0.067500 0.000000
0.004000 0.067500 0.000000
0.004500 0.067500 0.000000
0.000500 0.066250 0.000000
0.001000 0.066250 0.000000
0.001500 0.066250 0.000000
0.002000 0.066250 0.000000
0.002500 0.066250 0.000000
0.003000 0.066250 0.000000
0.003500 0.066250 0.000000
0.004000 0.066250 0.000000
0.004500 0.066250 0.000000
0.000500 0.065000 0.000000
0.001000 0.065000 0.000000
0.001500 0.065000 0.000000
0.002000 0.065000 0.000000
0.002500 0.065000 0.000000
0.003000 0.065000 0.000000
0.003500 0.065000 0.000000
0.004000 0.065000 0.000000
0.004500 0.065000 0.000000
0.000500 0.063750 0.000000
0.001000 0.063750 0.000000
0.001500 0.063750 0.000000
0.002000 0.063750 0.000000
0.002500 0.063750 0.000000
0.003000 0.063750 0.000000
0.003500 0.063750 0.000000
0.004000 0.063750 0.000000
0.004500 0.063750 0.000000
0.000500 0.062500 0.000000
0.001000 0.062500 0.000000
0.001500 0.062500 0.000000
0.002000 0.062500 0.000000
0.002500 0.062500 0.000000
0.003000 0.062500 0.000000
0.003500 0.062500 0.000000
0.004000 0.062500 0.000000
0.004500 0.062500 0.000000
0.000500 0.061250 0.000000
0.001000 0.061250 0.000000
0.001500 0.061250 0.000000
0.002000 0.061250 0.000000
0.002500 0.061250 0.000000
0.003000 0.061250 0.000000
0.003500 0.061250 0.000000
0.004000 0.061250 0.000000
0.004500 0.061250 0.000000
0.000500 0.060000 0.000000
0.001000 0.060000 0.000000
0.001500 0.060000 0.000000
0.002000 0.060000 0.000000
0.002500 0.060000 0.000000
0.003000 0.060000 0.000000
0.003500 0.060000 0.000000
0.004000 0.060000 0.000000
0.004500 0.060000 0.000000
0.000500 0.058750 0.000000
0.001000 0.058750 0.000000
0.001500 0.058750 0.000000
0.002000 0.058750 0.000000
0.002500 0.058750 0.000000
0.003000 0.058750 0.000000
0.003500 0.058750 0.000000
0.004000 0.058750 0.000000
0.004500 0.058750 0.000000
0.000500 0.057500 0.000000
0.001000 0.057500 0.000000
0.001500 0.057500 0.000000
0.002000 0.057500 0.000000
0.002500 0.057500 0.000000
0.003000 0.057500 0.000000
0.003500 0.057500 0.000000
0.004000 0.057500 0.000000
0.004500 0.057500 0.000000
0.000500 0.056250 0.000000
0.001000 0.056250 0.000000
0.001500 0.056250 0.000000
0.002000 0.056250 0.000000
0.002500 0.056250 0.000000
0.003000 0.056250 0.000000
0.003500 0.056250 0.000000
0.004000 0.056250 0.000000
0.004500 0.056250 0.000000
0.000500 0.055000 0.000000
0.001000 0.055000 0.000000
0.001500 0.055000 0.000000
0.002000 0.055000 0.000000
0.002500 0.055000 0.000000
0.003000 0.055000 0.000000
0.003500 0.055000 0.000000
0.004000 0.055000 0.000000
0.004500 0.055000 0.000000
0.000500 0.053750 0.000000
0.001000 0.053750 0.000000
0.001500 0.053750 0.000000
0.002000 0.053750 0.000000
0.002500 0.053750 0.000000
0.003000 0.053750 0.000000
0.003500 0.053750 0.000000
0.004000 0.053750 0.000000
0.004500 0.053750 0.000000
0.000500 0.052500 0.000000
0.001000 0.052500 0.000000
0.001500 0.052500 0.000000
0.002000 0.052500 0.000000
0.002500 0.052500 0.000000
0.003000 0.052500 0.000000
0.003500 0.052500 0.000000
0.004000 0.052500 0.000000
0.004500 0.052500 0.000000
0.000500 0.051250 0.000000
0.001000 0.051250 0.000000
0.001500 0.051250 0.000000
0.002000 0.051250 0.000000
0.002500 0.051250 0.000000
0.003000 0.051250 0.000000
0.003500 0.051250 0.000000
0.004000 0.051250 0.000000
0.004500 0.051250 0.000000
0.000500 0.050000 0.000000
0.001000 0.050000 0.000000
0.001500 0.050000 0.000000
0.002000 0.050000 0.000000
0.002500 0.050000 0.000000
0.003000 0.050000 0.000000
0.003500 0.050000 0.000000
0.004000 0.050000 0.000000
0.004500 0.050000 0.000000
0.000500 0.048750 0.000000
0.001000 0.048750 0.000000
0.001500 0.048750 0.000000
0.002000 0.048750 0.000000
0.002500 0.048750 0.000000
0.003000 0.048750 0.000000
0.003500 0.048750 0.000000
0.004000 0.048750 0.000000
0.004500 0.048750 0.000000
0.000500 0.047500 0.000000
0.001000 0.047500 0.000000
0.001500 0.047500 0.000000
0.002000 0.047500 0.000000
0.002500 0.047500 0.000000
0.003000 0.047500 0.000000
0.003500 0.047500 0.000000
0.004000 0.047500 0.000000
0.004500 0.047500 0.000000
0.000500 0.046250 0.000000
0.001000 0.046250 0.000000
0.001500 0.046250 0.000000
0.002000 0.046250 0.000000
0.002500 0.046250 0.000000
0.003000 0.046250 0.000000
0.003500 0.046250 0.000000
0.004000 0.046250 0.000000
0.004500 0.046250 0.000000
0.000500 0.045000 0.000000
0.001000 0.045000 0.000000
0.001500 0.045000 0.000000
0.002000 0.045000 0.000000
0.002500 0.045000 0.000000
0.003000 0.045000 0.000000
0.003500 0.045000 0.000000
0.004000 0.045000 0.000000
0.004500 0.045000 0.000000
0.000500 0.043750 0.000000
0.001000 0.043750 0.000000
0.001500 0.043750 0.000000
0.002000 0.043750 0.000000
0.002500 0.043750 0.000000
0.003000 0.043750 0.000000
0.003500 0.043750 0.000000
0.004000 0.043750 0.000000
0.004500 0.043750 0.000000
0.000500 0.042500 0.000000
0.001000 0.042500 0.000000
0.001500 0.042500 0.000000
0.002000 0.042500 0.000000
0.002500 0.042500 0.000000
0.003000 0.042500 0.000000
0.003500 0.042500 0.000000
0.004000 0.042500 0.000000
0.004500 0.042500 0.000000
0.000500 0.041250 0.000000
0.001000 0.041250 0.000000
0.001500 0.041250 0.000000
0.002000 0.041250 0.000000
0.002500 0.041250 0.000000
0.003000 0.041250 0.000000
0.003500 0.041250 0.000000
0.004000 0.041250 0.000000
0.004500 0.041250 0.000000
0.000500 0.040000 0.000000
0.001000 0.040000 0.000000
0.001500 0.040000 0.000000
0.002000 0.040000 0.000000
0.002500 0.040000 0.000000
0.003000 0.040000 0.000000
0.003500 0.040000 0.000000
0.004000 0.040000 0.000000
0.004500 0.040000 0.000000
0.000500 0.038750 0.000000
0.001000 0.038750 0.000000
0.001500 0.038750 0.000000
0.002000 0.038750 0.000000
0.002500 0.038750 0.000000
0.003000 0.038750 0.000000
0.003500 0.038750 0.000000
0.004000 0.038750 0.000000
0.004500 0.038750 0.000000
0.000500 0.037500 0.000000
0.001000 0.037500 0.000000
0.001500 0.037500 0.000000
0.002000 0.037500 0.000000
0.002500 0.037500 0.000000
0.003000 0.037500 0.000000
0.003500 0.037500 0.000000
0.004000 0.037500 0.000000
0.004500 0.037500 0.000000
0.000500 0.036250 0.000000
0.001000 0.036250 0.000000
0.001500 0.036250 0.000000
0.002000 0.036250 0.000000
0.002500 0.036250 0.000000
0.003000 0.036250 0.000000
0.003500 0.036250 0.000000
0.004000 0.036250 0.000000
0.004500 0.036250 0.000000
0.000500 0.035000 0.000000
0.001000 0.035000 0.000000
0.001500 0.035000 0.000000
0.002000 0.035000 0.000000
0.002500 0.035000 0.000000
0.003000 0.035000 0.000000
0.003500 0.035000 0.000000
0.004000 0.035000 0.000000
0.004500 0.035000 0.000000
0.000500 0.033750 0.000000
0.001000 0.033750 0.000000
0.001500 0.033750 0.000000
0.002000 0.033750 0.000000
0.002500 0.033750 0.000000
0.003000 0.033750 0.000000
0.003500 0.033750 0.000000
0.004000 0.033750 0.000000
0.004500 0.033750 0.000000
0.000500 0.032500 0.000000
0.001000 0.032500 0.000000
0.001500 0.032500 0.000000
0.002000 0.032500 0.000000
0.002500 0.032500 0.000000
0.003000 0.032500 0.000000
0.003500 0.032500 0.000000
0.004000 0.032500 0.000000
0.004500 0.032500 0.000000
0.000500 0.031250 0.000000
0.001000 0.031250 0.000000
0.001500 0.031250 0.000000
0.002000 0.031250 0.000000
0.002500 0.031250 0.000000
0.003000 0.031250 0.000000
0.003500 0.031250 0.000000
0.004000 0.031250 0.000000
0.004500 0.031250 0.000000
0.000500 0.030000 0.000000
0.001000 0.030000 0.000000
0.001500 0.030000 0.000000
0.002000 0.030000 0.000000
0.002500 0.030000 0.000000
0.003000 0.030000 0.000000
0.003500 0.030000 0.000000
0.004000 0.030000 0.000000
0.004500 0.030000 0.000000
0.000500 0.028750 0.000000
0.001000 0.028750 0.000000
0.001500 0.028750 0.000000
0.002000 0.028750 0.000000
0.002500 0.028750 0.000000
0.003000 0.028750 0.000000
0.003500 0.028750 0.000000
0.004000 0.028750 0.000000
0.004500 0.028750 0.000000
0.000500 0.027500 0.000000
0.001000 0.027500 0.000000
0.001500 0.027500 0.000000
0.002000 0.027500 0.000000
0.002500 0.027500 0.000000
0.003000 0.027500 0.000000
0.003500 0.027500 0.000000
0.004000 0.027500 0.000000
0.004500 0.027500 0.000000
0.000500 0.026250 0.000000
0.001000 0.026250 0.000000
0.001500 0.026250 0.000000
0.002000 0.026250 0.000000
0.002500 0.026250 0.000000
0.003000 0.026250 0.000000
0.003500 0.026250 0.000000
0.004000 0.026250 0.000000
0.004500 0.026250 0.000000
0.000500 0.025000 0.000000
0.001000 0.025000 0.000000
0.001500 0.025000 0.000000
0.002000 0.025000 0.000000
0.002500 0.025000 0.000000
0.003000 0.025000 0.000000
0.003500 0.025000 0.000000
0.004000 0.025000 0.000000
0.004500 0.025000 0.000000
0.000500 0.023750 0.000000
0.001000 0.023750 0.000000
0.001500 0.023750 0.000000
0.002000 0.023750 0.000000
0.002500 0.023750 0.000000
0.003000 0.023750 0.000000
0.003500 0.023750 0.000000
0.004000 0.023750 0.000000
0.004500 0.023750 0.000000
0.000500 0.022500 0.000000
0.001000 0.022500 0.000000
0.001500 0.022500 0.000000
0.002000 0.022500 0.000000
0.002500 0.022500 0.000000
0.003000 0.022500 0.000000
0.003500 0.022500 0.000000
0.004000 0.022500 0.000000
0.004500 0.022500 0.000000
0.000500 0.021250 0.000000
0.001000 0.021250 0.000000
0.001500 0.021250 0.000000
0.002000 0.021250 0.000000
0.002500 0.021250 0.000000
0.003000 0.021250 0.000000
0.003500 0.021250 0.000000
0.004000 0.021250 0.000000
0.004500 0.021250 0.000000
0.000500 0.020000 0.000000
0.001000 0.020000 0.000000
0.001500 0.020000 0.000000
0.002000 0.020000 0.000000
0.002500 0.020000 0.000000
0.003000 0.020000 0.000000
0.003500 0.020000 0.000000
0.004000 0.020000 0.000000
0.004500 0.020000 0.000000
0.000500 0.018750 0.000000
0.001000 0.018750 0.000000
0.001500 0.018750 0.000000
0.002000 0.018750 0.000000
0.002500 0.018750 0.000000
0.003000 0.018750 0.000000
0.003500 0.018750 0.000000
0.004000 0.018750 0.000000
0.004500 0.018750 0.000000
0.000500 0.017500 0.000000
0.001000 0.017500 0.000000
0.001500 0.017500 0.000000
0.002000 0.017500 0.000000
0.002500 0.017500 0.000000
0.003000 0.017500 0.000000
0.003500 0.017500 0.000000
0.004000 0.017500 0.000000
0.004500 0.017500 0.000000
0.000500 0.016250 0.000000
0.001000 0.016250 0.000000
0.001500 0.016250 0.000000
0.002000 0.016250 0.000000
0.002500 0.016250 0.000000
0.003000 0.016250 0.000000
0.003500 0.016250 0.000000
0.004000 0.016250 0.000000
0.004500 0.016250 0.000000
0.000500 0.015000 0.000000
0.001000 0.015000 0.000000
0.001500 0.015000 0.000000
0.002000 0.015000 0.000000
0.002500 0.015000 0.000000
0.003000 0.015000 0.000000
0.003500 0.015000 0.000000
0.004000 0.015000 0.000000
0.004500 0.015000 0.000000
0.000500 0.013750 0.000000
0.001000 0.013750 0.000000
0.001500 0.013750 0.000000
0.002000 0.013750 0.000000
0.002500 0.013750 0.000000
0.003000 0.013750 0.000000
0.003500 0.013750 0.000000
0.004000 0.013750 0.000000
0.004500 0.013750 0.000000
0.000500 0.012500 0.000000
0.001000 0.012500 0.000000
0.001500 0.012500 0.000000
0.002000 0.012500 0.000000
0.002500 0.012500 0.000000
0.003000 0.012500 0.000000
0.003500 0.012500 0.000000
0.004000 0.012500 0.000000
0.004500 0.012500 0.000000
0.000500 0.011250 0.000000
0.001000 0.011250 0.000000
0.001500 0.011250 0.000000
0.002000 0.011250 0.000000
0.002500 0.011250 0.000000
0.003000 0.011250 0.000000
0.003500 0.011250 0.000000
0.004000 0.011250 0.000000
0.004500 0.011250 0.000000
0.000500 0.010000 0.000000
0.001000 0.010000 0.000000
0.001500 0.010000 0.000000
0.002000 0.010000 0.000000
0.002500 0.010000 0.000000
0.003000 0.010000 0.000000
0.003500 0.010000 0.000000
0.004000 0.010000 0.000000
0.004500 0.010000 0.000000
0.000500 0.008750 0.000000
0.001000 0.008750 0.000000
0.001500 0.008750 0.000000
0.002000 0.008750 0.000000
0.002500 0.008750 0.000000
0.003000 0.008750 0.000000
0.003500 0.008750 0.000000
0.004000 0.008750 0.000000
0.004500 0.008750 0.000000
0.000500 0.007500 0.000000
0.001000 0.007500 0.000000
0.001500 0.007500 0.000000
0.002000 0.007500 0.000000
0.002500 0.007500 0.000000
0.003000 0.007500 0.000000
0.003500 0.007500 0.000000
0.004000 0.007500 0.000000
0.004500 0.007500 0.000000
0.000500 0.006250 0.000000
0.001000 0.006250 0.000000
0.001500 0.006250 0.000000
0.002000 0.006250 0.000000
0.002500 0.006250 0.000000
0.003000 0.006250 0.000000
0.003500 0.006250 0.000000
0.004000 0.006250 0.000000
0.004500 0.006250 0.000000
0.000500 0.005000 0.000000
0.001000 0.005000 0.000000
0.001500 0.005000 0.000000
0.002000 0.005000 0.000000
0.002500 0.005000 0.000000
0.003000 0.005000 0.000000
0.003500 0.005000 0.000000
0.004000 0.005000 0.000000
0.004500 0.005000 0.000000
0.000500 0.003750 0.000000
0.001000 0.003750 0.000000
0.001500 0.003750 0.000000
0.002000 0.003750 0.000000
0.002500 0.003750 0.000000
0.003000 0.003750 0.000000
0.003500 0.003750 0.000000
0.004000 0.003750 0.000000
0.004500 0.003750 0.000000
0.000500 0.002500 0.000000
0.001000 0.002500 0.000000
0.001500 0.002500 0.000000
0.002000 0.002500 0.000000
0.002500 0.002500 0.000000
0.003000 0.002500 0.000000
0.003500 0.002500 0.000000
0.004000 0.002500 0.000000
0.004500 0.002500 0.000000
0.000500 0.001250 0.000000
0.001000 0.001250 0.000000
0.001500 0.001250 0.000000
0.002000 0.001250 0.000000
0.002500 0.001250 0.000000
0.003000 0.001250 0.000000
0.003500 0.001250 0.000000
0.004000 0.001250 0.000000
0.004500 0.001250 0.000000
CELLS 800 4000
4 82 83 180 179
4 179 180 181 178
4 178 181 182 177
4 177 182 183 176
4 176 183 184 175
4 175 184 185 174
4 174 185 186 173
4 173 186 187 172
4 172 187 188 171
4 171 188 80 0
4 83 84 189 180
4 180 189 190 181
4 181 190 191 182
4 182 191 192 183
4 183 192 193 184
4 184 193 194 185
4 185 194 195 186
4 186 195 196 187
4 187 196 197 188
4 188 197 79 80
4 84 85 198 189
4 189 198 199 190
4 190 199 200 191
4 191 200 201 192
4 192 201 202 193
4 193 202 203 194
4 194 203 204 195
4 195 204 205 196
4 196 205 206 197
4 197 206 78 79
4 85 86 207 198
4 198 207 208 199
4 199 208 209 200
4 200 209 210 201
4 201 210 211 202
4 202 211 212 203
4 203 212 213 204
4 204 213 214 205
4 205 214 215 206
4 206 215 77 78
4 86 87 216 207
4 207 216 217 208
4 208 217 218 209
4 209 218 219 210
4 210 219 220 211
4 211 220 221 212
4 212 221 222 213
4 213 222 223 214
4 214 223 224 215
4 215 224 76 77
4 87 88 225 216
4 216 225 226 217
4 217 226 227 218
4 218 227 228 219
4 219 228 229 220
4 220 229 230 221
4 221 230 231 222
4 222 231 232 223
4 223 232 233 224
4 224 233 75 76
4 88 89 234 225
4 225 234 235 226
4 226 235 236 227
4 227 236 237 228
4 228 237 238 229
4 229 238 239 230
4 230 239 240 231
4 231 240 241 232
4 232 241 242 233
4 233 242 74 75
4 89 90 243 234
4 234 243 244 235
4 235 244 245 236
4 236 245 246 237
4 237 246 247 238
4 238 247 248 239
4 239 248 249 240
4 240 249 250 241
4 241 250 251 242
4 242 251 73 74
4 90 91 252 243
4 243 252 253 244
4 244 253 254 245
4 245 254 255 246
4 246 255 256 247
4 247 256 257 248
4 248 257 258 249
4 249 258 259 250
4 250 259 260 251
4 251 260 72 73
4 91 92 261 252
4 252 261 262 253
4 253 262 263 254
4 254 263 264 255
4 255 264 265 256
4 256 265 266 257
4 257 266 267 258
4 258 267 268 259
4 259 268 269 260
4 260 269 71 72
4 92 93 270 261
4 261 270 271 262
4 262 271 272 263
4 263 272 273 264
4 264 273 274 265
4 265 274 275 266
4 266 275 276 267
4 267 276 277 268
4 268 277 278 269
4 269 278 70 71
4 93 94 279 270
4 270 279 280 271
4 271 280 281 272
4 272 281 282 273
4 273 282 283 274
4 274 283 284 275
4 275 284 285 276
4 276 285 286 277
4 277 286 287 278
4 278 287 69 70
4 94 95 288 279
4 279 288 289 280
4 280 289 290 281
4 281 290 291 282
4 282 291 292 283
4 283 292 293 284
4 284 293 294 285
4 285 294 295 286
4 286 295 296 287
4 287 296 68 69
4 95 96 297 288
4 288 297 298 289
4 289 298 299 290
4 290 299 300 291
4 291 300 301 292
4 292 301 302 293
4 293 302 303 294
4 294 303 304 295
4 295 304 305 296
4 296 305 67 68
4 96 97 306 297
4 297 306 307 298
4 298 307 308 299
4 299 308 309 300
4 300 309 310 301
4 301 310 311 302
4 302 311 312 303
4 303 312 313 304
4 304 313 314 305
4 305 314 66 67
4 97 98 315 306
4 306 315 316 307
4 307 316 317 308
4 308 317 318 309
4 309 318 319 310
4 310 319 320 311
4 311 320 321 312
4 312 321 322 313
4 313 322 323 314
4 314 323 65 66
4 98 99 324 315
4 315 324 325 316
4 316 325 326 317
4 317 326 327 318
4 318 327 328 319
4 319 328 329 320
4 320 329 330 321
4 321 330 331 322
4 322 331 332 323
4 323 332 64 65
4 99 100 333 324
4 324 333 334 325
4 325 334 335 326
4 326 335 336 327
4 327 336 337 328
4 328 337 338 329
4 329 338 339 330
4 330 339 340 331
4 331 340 341 332
4 332 341 63 64
4 100 101 342 333
4 333 342 343 334
4 334 343 344 335
4 335 344 345 336
4 336 345 346 337
4 337 346 347 338
4 338 347 348 339
4 339 348 349 340
4 340 349 350 341
4 341 350 62 63
4 101 102 351 342
4 342 351 352 343
4 343 352 353 344
4 344 353 354 345
4 345 354 355 346
4 346 355 356 347
4 347 356 357 348
4 348 357 358 349
4 349 358 359 350
4 350 359 61 62
4 102 103 360 351
4 351 360 361 352
4 352 361 362 353
4 353 362 363 354
4 354 363 364 355
4 355 364 365 356
4 356 365 366 357
4 357 366 367 358
4 358 367 368 359
4 359 368 60 61
4 103 104 369 360
4 360 369 370 361
4 361 370 371 362
4 362 371 372 363
4 363 372 373 364
4 364 373 374 365
4 365 374 375 366
4 366 375 376 367
4 367 376 377 368
4 368 377 59 60
4 104 105 378 369
4 369 378 379 370
4 370 379 380 371
4 371 380 381 372
4 372 381 382 373
4 373 382 383 374
4 374 383 384 375
4 375 384 385 376
4 376 385 386 377
4 377 386 58 59
4 105 106 387 378
4 378 387 388 379
4 379 388 389 380
4 380 389 390 381
4 381 390 391 382
4 382 391 392 383
4 383 392 393 384
4 384 393 394 385
4 385 394 395 386
4 386 395 57 58
4 106 107 396 387
4 387 396 397 388
4 388 397 398 389
4 389 398 399 390
4 390 399 400 391
4 391 400 401 392
4 392 401 402 393
4 393 402 403 394
4 394 403 404 395
4 395 404 56 57
4 107 108 405 396
4 396 405 406 397
4 397 406 407 398
4 398 407 408 399
4 399 408 409 400
4 400 409 410 401
4 401 410 411 402
4 402 411 412 403
4 403 412 413 404
4 404 413 55 56
4 108 109 414 405
4 405 414 415 406
4 406 415 416 407
4 407 416 417 408
4 408 417 418 409
4 409 418 419 410
4 410 419 420 411
4 411 420 421 412
4 412 421 422 413
4 413 422 54 55
4 109 110 423 414
4 414 423 424 415
4 415 424 425 416
4 416 425 426 417
4 417 426 427 418
4 418 427 428 419
4 419 428 429 420
4 420 429 430 421
4 421 430 431 422
4 422 431 53 54
4 110 111 432 423
4 423 432 433 424
4 424 433 434 425
4 425 434 435 426
4 426 435 436 427
4 427 436 437 428
4 428 437 438 429
4 429 438 439 430
4 430 439 440 431
4 431 440 52 53
4 111 112 441 432
4 432 441 442 433
4 433 442 443 434
4 434 443 444 435
4 435 444 445 436
4 436 445 446 437
4 437 446 447 438
4 438 447 448 439
4 439 448 449 440
4 440 449 51 52
4 112 113 450 441
4 441 450 451 442
4 442 451 452 443
4 443 452 453 444
4 444 453 454 445
4 445 454 455 446
4 446 455 456 447
4 447 456 457 448
4 448 457 458 449
4 449 458 50 51
4 113 114 459 450
4 450 459 460 451
4 451 460 461 452
4 452 461 462 453
4 453 462 463 454
4 454 463 464 455
4 455 464 465 456
4 456 465 466 457
4 457 466 467 458
4 458 467 49 50
4 114 115 468 459
4 459 468 469 460
4 460 469 470 461
4 461 470 471 462
4 462 471 472 463
4 463 472 473 464
4 464 473 474 465
4 465 474 475 466
4 466 475 476 467
4 467 476 48 49
4 115 116 477 468
4 468 477 478 469
4 469 478 479 470
4 470 479 480 471
4 471 480 481 472
4 472 481 482 473
4 473 482 483 474
4 474 483 484 475
4 475 484 485 476
4 476 485 47 48
4 116 117 486 477
4 477 486 487 478
4 478 487 488 479
4 479 488 489 480
4 480 489 490 481
4 481 490 491 482
4 482 491 492 483
4 483 492 493 484
4 484 493 494 485
4 485 494 46 47
4 117 118 495 486
4 486 495 496 487
4 487 496 497 488
4 488 497 498 489
4 489 498 499 490
4 490 499 500 491
4 491 500 501 492
4 492 501 502 493
4 493 502 503 494
4 494 503 45 46
4 118 119 504 495
4 495 504 505 496
4 496 505 506 497
4 497 506 507 498
4 498 507 508 499
4 499 508 509 500
4 500 509 510 501
4 501 510 511 502
4 502 511 512 503
4 503 512 44 45
4 119 120 513 504
4 504 513 514 505
4 505 514 515 506
4 506 515 516 507
4 507 516 517 508
4 508 517 518 509
4 509 518 519 510
4 510 519 520 511
4 511 520 521 512
4 512 521 43 44
4 120 121 522 513
4 513 522 523 514
4 514 523 524 515
4 515 524 525 516
4 516 525 526 517
4 517 526 527 518
4 518 527 528 519
4 519 528 529 520
4 520 529 530 521
4 521 530 42 43
4 121 122 531 522
4 522 531 532 523
4 523 532 533 524
4 524 533 534 525
4 525 534 535 526
4 526 535 536 527
4 527 536 537 528
4 528 537 538 529
4 529 538 539 530
4 530 539 41 42
4 122 123 540 531
4 531 540 541 532
4 532 541 542 533
4 533 542 543 534
4 534 543 544 535
4 535 544 545 536
4 536 545 546 537
4 537 546 547 538
4 538 547 548 539
4 539 548 40 41
4 123 124 549 540
4 540 549 550 541
4 541 550 551 542
4 542 551 552 543
4 543 552 553 544
4 544 553 554 545
4 545 554 555 546
4 546 555 556 547
4 547 556 557 548
4 548 557 39 40
4 124 125 558 549
4 549 558 559 550
4 550 559 560 551
4 551 560 561 552
4 552 561 562 553
4 553 562 563 554
4 554 563 564 555
4 555 564 565 556
4 556 565 566 557
4 557 566 38 39
4 125 126 567 558
4 558 567 568 559
4 559 568 569 560
4 560 569 570 561
4 561 570 571 562
4 562 571 572 563
4 563 572 573 564
4 564 573 574 565
4 565 574 575 566
4 566 575 37 38
4 126 127 576 567
4 567 576 577 568
4 568 577 578 569
4 569 578 579 570
4 570 579 580 571
4 571 580 581 572
4 572 581 582 573
4 573 582 583 574
4 574 583 584 575
4 575 584 36 37
4 127 128 585 576
4 576 585 586 577
4 577 586 587 578
4 578 587 588 579
4 579 588 589 580
4 580 589 590 581
4 581 590 591 582
4 582 591 592 583
4 583 592 593 584
4 584 593 35 36
4 128 129 594 585
4 585 594 595 586
4 586 595 596 587
4 587 596 597 588
4 588 597 598 589
4 589 598 599 590
4 590 599 600 591
4 591 600 601 592
4 592 601 602 593
4 593 602 34 35
4 129 130 603 594
4 594 603 604 595
4 595 604 605 596
4 596 605 606 597
4 597 606 607 598
4 598 607 608 599
4 599 608 609 600
4 600 609 610 601
4 601 610 611 602
4 602 611 33 34
4 130 131 612 603
4 603 612 613 604
4 604 613 614 605
4 605 614 615 606
4 606 615 616 607
4 607 616 617 608
4 608 617 618 609
4 609 618 619 610
4 610 619 620 611
4 611 620 32 33
4 131 132 621 612
4 612 621 622 613
4 613 622 623 614
4 614 623 624 615
4 615 624 625 616
4 616 625 626 617
4 617 626 627 618
4 618 627 628 619
4 619 628 629 620
4 620 629 31 32
4 132 133 630 621
4 621 630 631 622
4 622 631 632 623
4 623 632 633 624
4 624 633 634 625
4 625 634 635 626
4 626 635 636 627
4 627 636 637 628
4 628 637 638 629
4 629 638 30 31
4 133 134 639 630
4 630 639 640 631
4 631 640 641 632
4 632 641 642 633
4 633 642 643 634
4 634 643 644 635
4 635 644 645 636
4 636 645 646 637
4 637 646 647 638
4 638 647 29 30
4 134 135 648 639
4 639 648 649 640
4 640 649 650 641
4 641 650 651 642
4 642 651 652 643
4 643 652 653 644
4 644 653 654 645
4 645 654 655 646
4 646 655 656 647
4 647 656 28 29
4 135 136 657 648
4 648 657 658 649
4 649 658 659 650
4 650 659 660 651
4 651 660 661 652
4 652 661 662 653
4 653 662 663 654
4 654 663 664 655
4 655 664 665 656
4 656 665 27 28
4 136 137 666 657
4 657 666 667 658
4 658 667 668 659
4 659 668 669 660
4 660 669 670 661
4 661 670 671 662
4 662 671 672 663
4 663 672 673 664
4 664 673 674 665
4 665 674 26 27
4 137 138 675 666
4 666 675 676 667
4 667 676 677 668
4 668 677 678 669
4 669 678 679 670
4 670 679 680 671
4 671 680 681 672
4 672 681 682 673
4 673 682 683 674
4 674 683 25 26
4 138 139 684 675
4 675 684 685 676
4 676 685 686 677
4 677 686 687 678
4 678 687 688 679
4 679 688 689 680
4 680 689 690 681
4 681 690 691 682
4 682 691 692 683
4 683 692 24 25
4 139 140 693 684
4 684 693 694 685
4 685 694 695 686
4 686 695 696 687
4 687 696 697 688
4 688 697 698 689
4 689 698 699 690
4 690 699 700 691
4 691 700 701 692
4 692 701 23 24
4 140 141 702 693
4 693 702 703 694
4 694 703 704 695
4 695 704 705 696
4 696 705 706 697
4 697 706 707 698
4 698 707 708 699
4 699 708 709 700
4 700 709 710 701
4 701 710 22 23
4 141 142 711 702
4 702 711 712 703
4 703 712 713 704
4 704 713 714 705
4 705 714 715 706
4 706 715 716 707
4 707 716 717 708
4 708 717 718 709
4 709 718 719 710
4 710 719 21 22
4 142 143 720 711
4 711 720 721 712
4 712 721 722 713
4 713 722 723 714
4 714 723 724 715
4 715 724 725 716
4 716 725 726 717
4 717 726 727 718
4 718 727 728 719
4 719 728 20 21
4 143 144 729 720
4 720 729 730 721
4 721 730 731 722
4 722 731 732 723
4 723 732 733 724
4 724 733 734 725
4 725 734 735 726
4 726 735 736 727
4 727 736 737 728
4 728 737 19 20
4 144 145 738 729
4 729 738 739 730
4 730 739 740 731
4 731 740 741 732
4 732 741 742 733
4 733 742 743 734
4 734 743 744 735
4 735 744 745 736
4 736 745 746 737
4 737 746 18 19
4 145 146 747 738
4 738 747 748 739
4 739 748 749 740
4 740 749 750 741
4 741 750 751 742
4 742 751 752 743
4 743 752 753 744
4 744 753 754 745
4 745 754 755 746
4 746 755 17 18
4 146 147 756 747
4 747 756 757 748
4 748 757 758 749
4 749 758 759 750
4 750 759 760 751
4 751 760 761 752
4 752 761 762 753
4 753 762 763 754
4 754 763 764 755
4 755 764 16 17
4 147 148 765 756
4 756 765 766 757
4 757 766 767 758
4 758 767 768 759
4 759 768 769 760
4 760 769 770 761
4 761 770 771 762
4 762 771 772 763
4 763 772 773 764
4 764 773 15 16
4 148 149 774 765
4 765 774 775 766
4 766 775 776 767
4 767 776 777 768
4 768 777 778 769
4 769 778 779 770
4 770 779 780 771
4 771 780 781 772
4 772 781 782 773
4 773 782 14 15
4 149 150 783 774
4 774 783 784 775
4 775 784 785 776
4 776 785 786 777
4 777 786 787 778
4 778 787 788 779
4 779 788 789 780
4 780 789 790 781
4 781 790 791 782
4 782 791 13 14
4 150 151 792 783
4 783 792 793 784
4 784 793 794 785
4 785 794 795 786
4 786 795 796 787
4 787 796 797 788
4 788 797 798 789
4 789 798 799 790
4 790 799 800 791
4 791 800 12 13
4 151 152 801 792
4 792 801 802 793
4 793 802 803 794
4 794 803 804 795
4 795 804 805 796
4 796 805 806 797
4 797 806 807 798
4 798 807 808 799
4 799 808 809 800
4 800 809 11 12
4 152 153 810 801
4 801 810 811 802
4 802 811 812 803
4 803 812 813 804
4 804 813 814 805
4 805 814 815 806
4 806 815 816 807
4 807 816 817 808
4 808 817 818 809
4 809 818 10 11
4 153 154 819 810
4 810 819 820 811
4 811 820 821 812
4 812 821 822 813
4 813 822 823 814
4 814 823 824 815
4 815 824 825 816
4 816 825 826 817
4 817 826 827 818
4 818 827 9 10
4 154 155 828 819
4 819 828 829 820
4 820 829 830 821
4 821 830 831 822
4 822 831 832 823
4 823 832 833 824
4 824 833 834 825
4 825 834 835 826
4 826 835 836 827
4 827 836 8 9
4 155 156 837 828
4 828 837 838 829
4 829 838 839 830
4 830 839 840 831
4 831 840 841 832
4 832 841 842 833
4 833 842 843 834
4 834 843 844 835
4 835 844 845 836
4 836 845 7 8
4 156 157 846 837
4 837 846 847 838
4 838 847 848 839
4 839 848 849 840
4 840 849 850 841
4 841 850 851 842
4 842 851 852 843
4 843 852 853 844
4 844 853 854 845
4 845 854 6 7
4 157 158 855 846
4 846 855 856 847
4 847 856 857 848
4 848 857 858 849
4 849 858 859 850
4 850 859 860 851
4 851 860 861 852
4 852 861 862 853
4 853 862 863 854
4 854 863 5 6
4 158 159 864 855
4 855 864 865 856
4 856 865 866 857
4 857 866 867 858
4 858 867 868 859
4 859 868 869 860
4 860 869 870 861
4 861 870 871 862
4 862 871 872 863
4 863 872 4 5
4 159 160 873 864
4 864 873 874 865
4 865 874 875 866
4 866 875 876 867
4 867 876 877 868
4 868 877 878 869
4 869 878 879 870
4 870 879 880 871
4 871 880 881 872
4 872 881 3 4
4 160 161 882 873
4 873 882 883 874
4 874 883 884 875
4 875 884 885 876
4 876 885 886 877
4 877 886 887 878
4 878 887 888 879
4 879 888 889 880
4 880 889 890 881
4 881 890 2 3
4 161 81 162 882
4 882 162 163 883
4 883 163 164 884
4 884 164 165 885
4 885 165 166 886
4 886 166 167 887
4 887 167 168 888
4 888 168 169 889
4 889 169 170 890
4 890 170 1 2
CELL_TYPES 800
9
9
9
9
9
9
9
9
9
9
9
9
9
9
9
9
9
9
9
9
9
9
9
9
9
9
9
9
9
9
9
9
9
9
9
9
9
9
9
9
9
9
9
9
9
9
9
9
9
9
9
9
9
9
9
9
9
9
9
9
9
9
9
9
9
9
9
9
9
9
9
9
9
9
9
9
9
9
9
9
9
9
9
9
9
9
9
9
9
9
9
9
9
9
9
9
9
9
9
9
9
9
9
9
9
9
9
9
9
9
9
9
9
9
9
9
9
9
9
9
9
9
9
9
9
9
9
9
9
9
9
9
9
9
9
9
9
9
9
9
9
9
9
9
9
9
9
9
9
9
9
9
9
9
9
9
9
9
9
9
9
9
9
9
9
9
9
9
9
9
9
9
9
9
9
9
9
9
9
9
9
9
9
9
9
9
9
9
9
9
9
9
9
9
9
9
9
9
9
9
9
9
9
9
9
9
9
9
9
9
9
9
9
9
9
9
9
9
9
9
9
9
9
9
9
9
9
9
9
9
9
9
9
9
9
9
9
9
9
9
9
9
9
9
9
9
9
9
9
9
9
9
9
9
9
9
9
9
9
9
9
9
9
9
9
9
9
9
9
9
9
9
9
9
9
9
9
9
9
9
9
9
9
9
9
9
9
9
9
9
9
9
9
9
9
9
9
9
9
9
9
9
9
9
9
9
9
9
9
9
9
9
9
9
9
9
9
9
9
9
9
9
9
9
9
9
9
9
9
9
9
9
9
9
9
9
9
9
9
9
9
9
9
9
9
9
9
9
9
9
9
9
9
9
9
9
9
9
9
9
9
9
9
9
9
9
9
9
9
9
9
9
9
9
9
9
9
9
9
9
9
9
9
9
9
9
9
9
9
9
9
9
9
9
9
9
9
9
9
9
9
9
9
9
9
9
9
9
9
9
9
9
9
9
9
9
9
9
9
9
9
9
9
9
9
9
9
9
9
9
9
9
9
9
9
9
9
9
9
9
9
9
9
9
9
9
9
9
9
9
9
9
9
9
9
9
9
9
9
9
9
9
9
9
9
9
9
9
9
9
9
9
9
9
9
9
9
9
9
9
9
9
9
9
9
9
9
9
9
9
9
9
9
9
9
9
9
9
9
9
9
9
9
9
9
9
9
9
9
9
9
9
9
9
9
9
9
9
9
9
9
9
9
9
9
9
9
9
9
9
9
9
9
9
9
9
9
9
9
9
9
9
9
9
9
9
9
9
9
9
9
9
9
9
9
9
9
9
9
9
9
9
9
9
9
9
9
9
9
9
9
9
9
9
9
9
9
9
9
9
9
9
9
9
9
9
9
9
9
9
9
9
9
9
9
9
9
9
9
9
9
9
9
9
9
9
9
9
9
9
9
9
9
9
9
9
9
9
9
9
9
9
9
9
9
9
9
9
9
9
9
9
9
9
9
9
9
9
9
9
9
9
9
9
9
9
9
9
9
9
9
9
9
9
9
9
9
9
9
9
9
9
9
9
9
9
9
9
9
9
9
9
9
9
9
9
9
9
9
9
9
9
9
9
9
9
9
9
9
9
9
9
9
9
9
9
9
9
9
9
9
9
9
9
9
9
9
9
9
9
9
9
9
9
9
9
9
9
9
9
9
9
9
9
9
9
9
9
9
9
9
9
9
9
9
9
9
9
9
9
9
9
9
9
9
9
9
9
9
9
9
9
9
9
9
9
9
9
9
9
9
9
9
9
9
9
9
9
9
9
9
9
9
9
9
9
9
9
9
9
9
9
9
9
9
9
9
9
9
9
9
9
9
9
9
9
9
9
9
9
POINT_DATA 891
SCALARS u1 float
LOOKUP_TABLE default
0.0001
0.0001
0.0001
0.0001
0.0001
0.0001
0.0001
0.0001
0.0001
0.0001
0.0001
0.0001
0.0001
0.0001
0.0001
0.0001
0.0001
0.0001
0.0001
0.0001
0.0001
0.0001
0.0001
0.0001
0.0001
0.0001
0.0001
0.0001
0.0001
0.0001
0.0001
0.0001
0.0001
0.0001
0.0001
0.0001
0.0001
0.0001
0.0001
0.0001
0.0001
0.0001
0.0001
0.0001
0.0001
0.0001
0.0001
0.0001
0.0001
0.0001
0.0001
0.0001
0.0001
0.0001
0.0001
0.0001
0.0001
0.0001
0.0001
0.0001
0.0001
0.0001
0.0001
0.0001
0.0001
0.0001
0.0001
0.0001
0.0001
0.0001
0.0001
0.0001
0.0001
0.0001
0.0001
0.0001
0.0001
0.0001
0.0001
0.0001
0.0001
0.0002
0.0002
0.0002
0.0002
0.0002
0.0002
0.0002
0.0002
0.0002
0.0002
0.0002
0.0002
0.0002
0.0002
0.0002
0.0002
0.0002
0.0002
0.0002
0.0002
0.0002
0.0002
0.0002
0.0002
0.0002
0.0002
0.0002
0.0002
0.0002
0.0002
0.0002
0.0002
0.0002
0.0002
0.0002
0.0002
0.0002
0.0002
0.0002
0.0002
0.0002
0.0002
0.0002
0.0002
0.0002
0.0002
0.0002
0.0002
0.0002
0.0002
0.0002
0.0002
0.0002
0.0002
0.0002
0.0002
0.0002
0.0002
0.0002
0.0002
0.0002
0.0002
0.0002
0.0002
0.0002
0.0002
0.0002
0.0002
0.0002
0.0002
0.0002
0.0002
0.0002
0.0002
0.0002
0.0002
0.0002
0.0002
0.0002
0.0002
0.0002
0.0002
0.0002
0.0002
0.0001
0.0001
0.0001
0.0001
0.0001
0.0001
0.0001
0.0001
0.0001
0.0001
0.0001
0.0001
0.0002
0.0002
0.0002
0.0002
0.0002
0.0002
0.0001
0.0001
0.0001
0.0001
0.0001
0.0001
0.0002
0.0002
0.0002
0.0001
0.0001
0.0001
0.0001
0.0001
0.0001
0.0002
0.0002
0.0002
0.0001
0.0001
0.0001
0.0001
0.0001
0.0001
0.0002
0.0002
0.0002
0.0001
0.0001
0.0001
0.0001
0.0001
0.0001
0.0002
0.0002
0.0002
0.0001
0.0001
0.0001
0.0001
0.0001
0.0001
0.0002
0.0002
0.0002
0.0001
0.0001
0.0001
0.0001
0.0001
0.0001
0.0002
0.0002
0.0002
0.0001
0.0001
0.0001
0.0001
0.0001
0.0001
0.0002
0.0002
0.0002
0.0001
0.0001
0.0001
0.0001
0.0001
0.0001
0.0002
0.0002
0.0002
0.0001
0.0001
0.0001
0.0001
0.0001
0.0001
0.0002
0.0002
0.0002
0.0001
0.0001
0.0001
0.0001
0.0001
0.0001
0.0002
0.0002
0.0002
0.0001
0.0001
0.0001
0.0001
0.0001
0.0001
0.0002
0.0002
0.0002
0.0001
0.0001
0.0001
0.0001
0.0001
0.0001
0.0002
0.0002
0.0002
0.0001
0.0001
0.0001
0.0001
0.0001
0.0001
0.0002
0.0002
0.0002
0.0001
0.0001
0.0001
0.0001
0.0001
0.0001
0.0002
0.0002
0.0002
0.0001
0.0001
0.0001
0.0001
0.0001
0.0001
0.0002
0.0002
0.0002
0.0001
0.0001
0.0001
0.0001
0.0001
0.0001
0.0002
0.0002
0.0002
0.0001
0.0001
0.0001
0.0001
0.0001
0.0001
0.0002
0.0002
0.0002
0.0001
0.0001
0.0001
0.0001
0.0001
0.0001
0.0002
0.0002
0.0002
0.0001
0.0001
0.0001
0.0001
0.0001
0.0001
0.0002
0.0002
0.0002
0.0001
0.0001
0.0001
0.0001
0.0001
0.0001
0.0002
0.0002
0.0002
0.0001
0.0001
0.0001
0.0001
0.0001
0.0001
0.0002
0.0002
0.0002
0.0001
0.0001
0.0001
0.0001
0.0001
0.0001
0.0002
0.0002
0.0002
0.0001
0.0001
0.0001
0.0001
0.0001
0.0001
0.0002
0.0002
0.0002
0.0001
0.0001
0.0001
0.0001
0.0001
0.0001
0.0002
0.0002
0.0002
0.0001
0.0001
0.0001
0.0001
0.0001
0.0001
0.0002
0.0002
0.0002
0.0001
0.0001
0.0001
0.0001
0.0001
0.0001
0.0002
0.0002
0.0002
0.0001
0.0001
0.0001
0.0001
0.0001
0.0001
0.0002
0.0002
0.0002
0.0001
0.0001
0.0001
0.0001
0.0001
0.0001
0.0002
0.0002
0.0002
0.0001
0.0001
0.0001
0.0001
0.0001
0.0001
0.0002
0.0002
0.0002
0.0001
0.0001
0.0001
0.0001
0.0001
0.0001
0.0002
0.0002
0.0002
0.0001
0.0001
0.0001
0.0001
0.0001
0.0001
0.0002
0.0002
0.0002
0.0001
0.0001
0.0001
0.0001
0.0001
0.0001
0.0002
0.0002
0.0002
0.0001
0.0001
0.0001
0.0001
0.0001
0.0001
0.0002
0.0002
0.0002
0.0001
0.0001
0.0001
0.0001
0.0001
0.0001
0.0002
0.0002
0.0002
0.0001
0.0001
0.0001
0.0001
0.0001
0.0001
0.0002
0.0002
0.0002
0.0001
0.0001
0.0001
0.0001
0.0001
0.0001
0.0002
0.0002
0.0002
0.0001
0.0001
0.0001
0.0001
0.0001
0.0001
0.0002
0.0002
0.0002
0.0001
0.0001
0.0001
0.0001
0.0001
0.0001
0.0002
0.0002
0.0002
0.0001
0.0001
0.0001
0.0001
0.0001
0.0001
0.0002
0.0002
0.0002
0.0001
0.0001
0.0001
0.0001
0.0001
0.0001
0.0002
0.0002
0.0002
0.0001
0.0001
0.0001
0.0001
0.0001
0.0001
0.0002
0.0002
0.0002
0.0001
0.0001
0.0001
0.0001
0.0001
0.0001
0.0002
0.0002
0.0002
0.0001
0.0001
0.0001
0.0001
0.0001
0.0001
0.0002
0.0002
0.0002
0.0001
0.0001
0.0001
0.0001
0.0001
0.0001
0.0002
0.0002
0.0002
0.0001
0.0001
0.0001
0.0001
0.0001
0.0001
0.0002
0.0002
0.0002
0.0001
0.0001
0.0001
0.0001
0.0001
0.0001
0.0002
0.0002
0.0002
0.0001
0.0001
0.0001
0.0001
0.0001
0.0001
0.0002
0.0002
0.0002
0.0001
0.0001
0.0001
0.0001
0.0001
0.0001
0.0002
0.0002
0.0002
0.0001
0.0001
0.0001
0.0001
0.0001
0.0001
0.0002
0.0002
0.0002
0.0001
0.0001
0.0001
0.0001
0.0001
0.0001
0.0002
0.0002
0.0002
0.0001
0.0001
0.0001
0.0001
0.0001
0.0001
0.0002
0.0002
0.0002
0.0001
0.0001
0.0001
0.0001
0.0001
0.0001
0.0002
0.0002
0.0002
0.0001
0.0001
0.0001
0.0001
0.0001
0.0001
0.0002
0.0002
0.0002
0.0001
0.0001
0.0001
0.0001
0.0001
0.0001
0.0002
0.0002
0.0002
0.0001
0.0001
0.0001
0.0001
0.0001
0.0001
0.0002
0.0002
0.0002
0.0001
0.0001
0.0001
0.0001
0.0001
0.0001
0.0002
0.0002
0.0002
0.0001
0.0001
0.0001
0.0001
0.0001
0.0001
0.0002
0.0002
0.0002
0.0001
0.0001
0.0001
0.0001
0.0001
0.0001
0.0002
0.0002
0.0002
0.0001
0.0001
0.0001
0.0001
0.0001
0.0001
0.0002
0.0002
0.0002
0.0001
0.0001
0.0001
0.0001
0.0001
0.0001
0.0002
0.0002
0.0002
0.0001
0.0001
0.0001
0.0001
0.0001
0.0001
0.0002
0.0002
0.0002
0.0001
0.0001
0.0001
0.0001
0.0001
0.0001
0.0002
0.0002
0.0002
0.0001
0.0001
0.0001
0.0001
0.0001
0.0001
0.0002
0.0002
0.0002
0.0001
0.0001
0.0001
0.0001
0.0001
0.0001
0.0002
0.0002
0.0002
0.0001
0.0001
0.0001
0.0001
0.0001
0.0001
0.0002
0.0002
0.0002
0.0001
0.0001
0.0001
0.0001
0.0001
0.0001
0.0002
0.0002
0.0002
0.0001
0.0001
0.0001
0.0001
0.0001
0.0001
0.0002
0.0002
0.0002
0.0001
0.0001
0.0001
0.0001
0.0001
0.0001
0.0002
0.0002
0.0002
0.0001
0.0001
0.0001
0.0001
0.0001
0.0001
0.0002
0.0002
0.0002
0.0001
0.0001
0.0001
0.0001
0.0001
0.0001
0.0002
0.0002
0.0002
0.0001
0.0001
0.0001
0.0001
0.0001
0.0001
0.0002
0.0002
0.0002
0.0001
0.0001
0.0001
0.0001
0.0001
0.0001
0.0002
0.0002
0.0002
0.0001
0.0001
0.0001
0.0001
0.0001
0.0001
0.0002
0.0002
0.0002
0.0001
0.0001
0.0001
0.0001
0.0001
0.0001
0.0002
0.0002
0.0002
0.0001
0.0001
0.0001
0.0001
0.0001
0.0001
0.0002
0.0002
0.0002
0.0001
0.0001
0.0001
0.0001
0.0001
0.0001
0.0002
0.0002
0.0002
0.0001
0.0001
0.0001
0.0001
0.0001
0.0001
0.0002
0.0002
0.0002
0.0001
0.0001
0.0001
0.0001
0.0001
0.0001
0.0002
0.0002
0.0002
0.0001
0.0001
0.0001
0.0001
0.0001
0.0001
SCALARS u2 float
LOOKUP_TABLE default
0.002
-0.003
-0.002
-0.002
-0.002
-0.002
-0.002
-0.002
-0.002
-0.002
-0.002
-0.002
-0.002
-0.002
-0.002
-0.002
-0.002
-0.002
-0.001
-0.001
-0.001
-0.001
-0.001
-0.001
-0.001
-0.001
-0.0009
-0.0009
-0.0008
-0.0008
-0.0007
-0.0006
-0.0006
-0.0005
-0.0004
-0.0004
-0.0003
-0.0003
-0.0002
-0.0001
-6e-05
-1e-17
6e-05
0.0001
0.0002
0.0002
0.0003
0.0004
0.0004
0.0005
0.0006
0.0006
0.0007
0.0008
0.0008
0.0009
0.0009
0.001
0.001
0.001
0.001
0.001
0.001
0.001
0.001
0.002
0.002
0.002
0.002
0.002
0.002
0.002
0.002
0.002
0.002
0.002
0.002
0.002
0.002
0.002
0.002
-0.003
0.003
0.002
0.002
0.002
0.002
0.002
0.002
0.002
0.002
0.002
0.002
0.002
0.002
0.002
0.002
0.002
0.001
0.001
0.001
0.001
0.001
0.001
0.001
0.001
0.001
0.0009
0.0009
0.0008
0.0007
0.0007
0.0006
0.0006
0.0005
0.0004
0.0004
0.0003
0.0003
0.0002
0.0001
6e-05
1e-17
-6e-05
-0.0001
-0.0002
-0.0002
-0.0003
-0.0004
-0.0004
-0.0005
-0.0006
-0.0006
-0.0007
-0.0007
-0.0008
-0.0009
-0.0009
-0.001
-0.001
-0.001
-0.001
-0.001
-0.001
-0.001
-0.001
-0.001
-0.002
-0.002
-0.002
-0.002
-0.002
-0.002
-0.002
-0.002
-0.002
-0.002
-0.002
-0.002
-0.002
-0.002
-0.002
-0.003
-0.003
-0.003
-0.003
-0.003
-0.003
-0.003
-0.003
-0.003
0.002
0.002
0.002
0.003
0.003
0.002
0.002
0.002
0.002
0.002
0.002
0.002
0.002
0.002
0.002
0.002
0.002
0.002
0.002
0.002
0.002
0.002
0.002
0.002
0.002
0.002
0.002
0.002
0.002
0.002
0.002
0.002
0.002
0.002
0.002
0.002
0.002
0.002
0.002
0.002
0.002
0.002
0.002
0.002
0.002
0.002
0.002
0.002
0.002
0.002
0.002
0.002
0.002
0.002
0.002
0.002
0.002
0.002
0.002
0.002
0.002
0.002
0.002
0.002
0.002
0.002
0.002
0.002
0.002
0.002
0.002
0.002
0.002
0.002
0.002
0.002
0.002
0.002
0.002
0.002
0.002
0.002
0.002
0.002
0.002
0.002
0.002
0.002
0.002
0.002
0.002
0.002
0.002
0.002
0.002
0.002
0.002
0.002
0.002
0.002
0.002
0.002
0.002
0.002
0.002
0.002
0.002
0.002
0.002
0.002
0.002
0.002
0.002
0.002
0.002
0.002
0.002
0.002
0.002
0.002
0.002
0.002
0.002
0.002
0.002
0.002
0.002
0.002
0.002
0.002
0.002
0.002
0.002
0.002
0.002
0.002
0.002
0.002
0.002
0.002
0.002
0.002
0.002
0.002
0.001
0.001
0.001
0.001
0.001
0.002
0.002
0.002
0.002
0.001
0.001
0.001
0.001
0.001
0.001
0.001
0.001
0.001
0.001
0.001
0.001
0.001
0.001
0.001
0.001
0.001
0.001
0.001
0.001
0.001
0.001
0.001
0.001
0.001
0.001
0.001
0.001
0.001
0.001
0.001
0.001
0.001
0.001
0.001
0.001
0.001
0.001
0.001
0.001
0.001
0.001
0.001
0.001
0.001
0.001
0.001
0.001
0.001
0.001
0.001
0.001
0.001
0.001
0.001
0.001
0.001
0.001
0.001
0.001
0.001
0.001
0.001
0.001
0.001
0.001
0.001
0.001
0.001
0.001
0.001
0.001
0.0009
0.0009
0.0009
0.0009
0.0009
0.0009
0.0009
0.0009
0.0009
0.0009
0.0009
0.0009
0.0009
0.0009
0.0009
0.0009
0.0009
0.0009
0.0008
0.0008
0.0008
0.0008
0.0008
0.0008
0.0008
0.0008
0.0008
0.0007
0.0007
0.0007
0.0007
0.0007
0.0008
0.0008
0.0008
0.0008
0.0007
0.0007
0.0007
0.0007
0.0007
0.0007
0.0007
0.0007
0.0007
0.0006
0.0006
0.0006
0.0006
0.0006
0.0006
0.0006
0.0006
0.0006
0.0006
0.0006
0.0006
0.0006
0.0006
0.0006
0.0006
0.0006
0.0006
0.0005
0.0005
0.0005
0.0005
0.0005
0.0005
0.0005
0.0005
0.0005
0.0004
0.0004
0.0004
0.0004
0.0004
0.0004
0.0004
0.0004
0.0004
0.0004
0.0004
0.0004
0.0004
0.0004
0.0004
0.0004
0.0004
0.0004
0.0003
0.0003
0.0003
0.0003
0.0003
0.0003
0.0003
0.0003
0.0003
0.0003
0.0002
0.0002
0.0002
0.0002
0.0002
0.0002
0.0002
0.0002
0.0002
0.0002
0.0002
0.0002
0.0002
0.0002
0.0002
0.0002
0.0002
0.0001
0.0001
0.0001
0.0001
0.0001
0.0001
0.0001
0.0001
0.0001
6e-05
6e-05
6e-05
6e-05
6e-05
6e-05
6e-05
6e-05
6e-05
9e-18
7e-18
4e-18
2e-18
-2e-19
-2e-18
-5e-18
-7e-18
-9e-18
-6e-05
-6e-05
-6e-05
-6e-05
-6e-05
-6e-05
-6e-05
-6e-05
-6e-05
-0.0001
-0.0001
-0.0001
-0.0001
-0.0001
-0.0001
-0.0001
-0.0001
-0.0001
-0.0002
-0.0002
-0.0002
-0.0002
-0.0002
-0.0002
-0.0002
-0.0002
-0.0002
-0.0002
-0.0002
-0.0002
-0.0002
-0.0003
-0.0003
-0.0003
-0.0003
-0.0003
-0.0003
-0.0003
-0.0003
-0.0003
-0.0003
-0.0003
-0.0003
-0.0003
-0.0003
-0.0004
-0.0004
-0.0004
-0.0004
-0.0004
-0.0004
-0.0004
-0.0004
-0.0004
-0.0004
-0.0004
-0.0004
-0.0004
-0.0004
-0.0004
-0.0004
-0.0004
-0.0004
-0.0005
-0.0005
-0.0005
-0.0005
-0.0005
-0.0005
-0.0005
-0.0005
-0.0005
-0.0006
-0.0006
-0.0006
-0.0006
-0.0006
-0.0006
-0.0006
-0.0006
-0.0006
-0.0006
-0.0006
-0.0006
-0.0006
-0.0006
-0.0006
-0.0006
-0.0006
-0.0006
-0.0007
-0.0007
-0.0007
-0.0007
-0.0007
-0.0007
-0.0007
-0.0007
-0.0007
-0.0007
-0.0007
-0.0007
-0.0007
-0.0008
-0.0008
-0.0008
-0.0008
-0.0008
-0.0008
-0.0008
-0.0008
-0.0008
-0.0008
-0.0008
-0.0008
-0.0008
-0.0008
-0.0009
-0.0009
-0.0009
-0.0009
-0.0009
-0.0009
-0.0009
-0.0009
-0.0009
-0.0009
-0.0009
-0.0009
-0.0009
-0.0009
-0.0009
-0.0009
-0.0009
-0.0009
-0.001
-0.001
-0.001
-0.001
-0.001
-0.001
-0.001
-0.001
-0.001
-0.001
-0.001
-0.001
-0.001
-0.001
-0.001
-0.001
-0.001
-0.001
-0.001
-0.001
-0.001
-0.001
-0.001
-0.001
-0.001
-0.001
-0.001
-0.001
-0.001
-0.001
-0.001
-0.001
-0.001
-0.001
-0.001
-0.001
-0.001
-0.001
-0.001
-0.001
-0.001
-0.001
-0.001
-0.001
-0.001
-0.001
-0.001
-0.001
-0.001
-0.001
-0.001
-0.001
-0.001
-0.001
-0.001
-0.001
-0.001
-0.001
-0.001
-0.001
-0.001
-0.001
-0.001
-0.001
-0.001
-0.001
-0.001
-0.001
-0.001
-0.001
-0.001
-0.001
-0.001
-0.001
-0.001
-0.001
-0.002
-0.002
-0.002
-0.002
-0.002
-0.002
-0.002
-0.002
-0.002
-0.002
-0.002
-0.002
-0.002
-0.002
-0.002
-0.002
-0.002
-0.002
-0.002
-0.002
-0.002
-0.002
-0.002
-0.002
-0.002
-0.002
-0.002
-0.002
-0.002
-0.002
-0.002
-0.002
-0.002
-0.002
-0.002
-0.002
-0.002
-0.002
-0.002
-0.002
-0.002
-0.002
-0.002
-0.002
-0.002
-0.002
-0.002
-0.002
-0.002
-0.002
-0.002
-0.002
-0.002
-0.002
-0.002
-0.002
-0.002
-0.002
-0.002
-0.002
-0.002
-0.002
-0.002
-0.002
-0.002
-0.002
-0.002
-0.002
-0.002
-0.002
-0.002
-0.002
-0.002
-0.002
-0.002
-0.002
-0.002
-0.002
-0.002
-0.002
-0.002
-0.002
-0.002
-0.002
-0.002
-0.002
-0.002
-0.002
-0.002
-0.002
-0.002
-0.002
-0.002
-0.002
-0.002
-0.002
-0.002
-0.002
-0.002
-0.002
-0.002
-0.002
-0.002
-0.002
-0.002
-0.002
-0.002
-0.002
-0.002
-0.002
-0.002
-0.002
-0.002
-0.002
-0.002
-0.002
-0.002
-0.002
-0.002
-0.002
-0.002
-0.002
-0.002
-0.002
-0.002
-0.002
-0.002
-0.002
-0.002
-0.002
-0.002
-0.002
-0.002
-0.002
-0.002
-0.002
-0.002
-0.002
-0.002
-0.002
SCALARS strain_1 float
LOOKUP_TABLE default
-0.012974
-0.012974
-0.012974
-0.012974
-0.012974
-0.012974
-0.012974
-0.012974
-0.012974
-0.012974
-0.012974
-0.012974
-0.012974
-0.012974
-0.012974
-0.012974
-0.012974
-0.012974
-0.012974
-0.012974
-0.012974
-0.012974
-0.012974
-0.012974
-0.012974
-0.012974
-0.012974
-0.012974
-0.012974
-0.012974
-0.012974
-0.012974
-0.012974
-0.012974
-0.012974
-0.012974
-0.012974
-0.012974
-0.012974
-0.012974
-0.012974
-0.012974
-0.012974
-0.012974
-0.012974
-0.012974
-0.012974
-0.012974
-0.012974
-0.012974
-0.012974
-0.012974
-0.012974
-0.012974
-0.012974
-0.012974
-0.012974
-0.012974
-0.012974
-0.012974
-0.012974
-0.012974
-0.012974
-0.012974
-0.012974
-0.012974
-0.012974
-0.012974
-0.012974
-0.012974
-0.012974
-0.012974
-0.012974
-0.012974
-0.012974
-0.012974
-0.012974
-0.012974
-0.012974
-0.012974
-0.012974
-0.012974
-0.012974
-0.012974
-0.012974
-0.012974
-0.012974
-0.012974
-0.012974
-0.012974
-0.012974
-0.012974
-0.012974
-0.012974
-0.012974
-0.012974
-0.012974
-0.012974
-0.012974
-0.012974
-0.012974
-0.012974
-0.012974
-0.012974
-0.012974
-0.012974
-0.012974
-0.012974
-0.012974
-0.012974
-0.012974
-0.012974
-0.012974
-0.012974
-0.012974
-0.012974
-0.012974
-0.012974
-0.012974
-0.012974
-0.012974
-0.012974
-0.012974
-0.012974
-0.012974
-0.012974
-0.012974
-0.012974
-0.012974
-0.012974
-0.012974
-0.012974
-0.012974
-0.012974
-0.012974
-0.012974
-0.012974
-0.012974
-0.012974
-0.012974
-0.012974
-0.012974
-0.012974
-0.012974
-0.012974
-0.012974
-0.012974
-0.012974
-0.012974
-0.012974
-0.012974
-0.012974
-0.012974
-0.012974
-0.012974
-0.012974
-0.012974
-0.012974
-0.012974
-0.012974
-0.012974
-0.012974
-0.012974
-0.012974
-0.012974
-0.012974
-0.012974
-0.012974
-0.012974
-0.012974
-0.012974
-0.012974
-0.012974
-0.012974
-0.012974
-0.012974
-0.012974
-0.012974
-0.012974
-0.012974
-0.012974
-0.012974
-0.012974
-0.012974
-0.012974
-0.012974
-0.012974
-0.012974
-0.012974
-0.012974
-0.012974
-0.012974
-0.012974
-0.012974
-0.012974
-0.012974
-0.012974
-0.012974
-0.012974
-0.012974
-0.012974
-0.012974
-0.012974
-0.012974
-0.012974
-0.012974
-0.012974
-0.012974
-0.012974
-0.012974
-0.012974
-0.012974
-0.012974
-0.012974
-0.012974
-0.012974
-0.012974
-0.012974
-0.012974
-0.012974
-0.012974
-0.012974
-0.012974
-0.012974
-0.012974
-0.012974
-0.012974
-0.012974
-0.012974
-0.012974
-0.012974
-0.012974
-0.012974
-0.012974
-0.012974
-0.012974
-0.012974
-0.012974
-0.012974
-0.012974
-0.012974
-0.012974
-0.012974
-0.012974
-0.012974
-0.012974
-0.012974
-0.012974
-0.012974
-0.012974
-0.012974
-0.012974
-0.012974
-0.012974
-0.012974
-0.012974
-0.012974
-0.012974
-0.012974
-0.012974
-0.012974
-0.012974
-0.012974
-0.012974
-0.012974
-0.012974
-0.012974
-0.012974
-0.012974
-0.012974
-0.012974
-0.012974
-0.012974
-0.012974
-0.012974
-0.012974
-0.012974
-0.012974
-0.012974
-0.012974
-0.012974
-0.012974
-0.012974
-0.012974
-0.012974
-0.012974
-0.012974
-0.012974
-0.012974
-0.012974
-0.012974
-0.012974
-0.012974
-0.012974
-0.012974
-0.012974
-0.012974
-0.012974
-0.012974
-0.012974
-0.012974
-0.012974
-0.012974
-0.012974
-0.012974
-0.012974
-0.012974
-0.012974
-0.012974
-0.012974
-0.012974
-0.012974
-0.012974
-0.012974
-0.012974
-0.012974
-0.012974
-0.012974
-0.012974
-0.012974
-0.012974
-0.012974
-0.012974
-0.012974
-0.012974
-0.012974
-0.012974
-0.012974
-0.012974
-0.012974
-0.012974
-0.012974
-0.012974
-0.012974
-0.012974
-0.012974
-0.012974
-0.012974
-0.012974
-0.012974
-0.012974
-0.012974
-0.012974
-0.012974
-0.012974
-0.012974
-0.012974
-0.012974
-0.012974
-0.012974
-0.012974
-0.012974
-0.012974
-0.012974
-0.012974
-0.012974
-0.012974
-0.012974
-0.012974
-0.012974
-0.012974
-0.012974
-0.012974
-0.012974
-0.012974
-0.012974
-0.012974
-0.012974
-0.012974
-0.012974
-0.012974
-0.012974
-0.012974
-0.012974
-0.012974
-0.012974
-0.012974
-0.012974
-0.012974
-0.012974
-0.012974
-0.012974
-0.012974
-0.012974
-0.012974
-0.012974
-0.012974
-0.012974
-0.012974
-0.012974
-0.012974
-0.012974
-0.012974
-0.012974
-0.012974
-0.012974
-0.012974
-0.012974
-0.012974
-0.012974
-0.012974
-0.012974
-0.012974
-0.012974
-0.012974
-0.012974
-0.012974
-0.012974
-0.012974
-0.012974
-0.012974
-0.012974
-0.012974
-0.012974
-0.012974
-0.012974
-0.012974
-0.012974
-0.012974
-0.012974
-0.012974
-0.012974
-0.012974
-0.012974
-0.012974
-0.012974
-0.012974
-0.012974
-0.012974
-0.012974
-0.012974
-0.012974
-0.012974
-0.012974
-0.012974
-0.012974
-0.012974
-0.012974
-0.012974
-0.012974
-0.012974
-0.012974
-0.012974
-0.012974
-0.012974
-0.012974
-0.012974
-0.012974
-0.012974
-0.012974
-0.012974
-0.012974
-0.012974
-0.012974
-0.012974
-0.012974
-0.012974
-0.012974
-0.012974
-0.012974
-0.012974
-0.012974
-0.012974
-0.012974
-0.012974
-0.012974
-0.012974
-0.012974
-0.012974
-0.012974
-0.012974
-0.012974
-0.012974
-0.012974
-0.012974
-0.012974
-0.012974
-0.012974
-0.012974
-0.012974
-0.012974
-0.012974
-0.012974
-0.012974
-0.012974
-0.012974
-0.012974
-0.012974
-0.012974
-0.012974
-0.012974
-0.012974
-0.012974
-0.012974
-0.012974
-0.012974
-0.012974
-0.012974
-0.012974
-0.012974
-0.012974
-0.012974
-0.012974
-0.012974
-0.012974
-0.012974
-0.012974
-0.012974
-0.012974
-0.012974
-0.012974
-0.012974
-0.012974
-0.012974
-0.012974
-0.012974
-0.012974
-0.012974
-0.012974
-0.012974
-0.012974
-0.012974
-0.012974
-0.012974
-0.012974
-0.012974
-0.012974
-0.012974
-0.012974
-0.012974
-0.012974
-0.012974
-0.012974
-0.012974
-0.012974
-0.012974
-0.012974
-0.012974
-0.012974
-0.012974
-0.012974
-0.012974
-0.012974
-0.012974
-0.012974
-0.012974
-0.012974
-0.012974
-0.012974
-0.012974
-0.012974
-0.012974
-0.012974
-0.012974
-0.012974
-0.012974
-0.012974
-0.012974
-0.012974
-0.012974
-0.012974
-0.012974
-0.012974
-0.012974
-0.012974
-0.012974
-0.012974
-0.012974
-0.012974
-0.012974
-0.012974
-0.012974
-0.012974
-0.012974
-0.012974
-0.012974
-0.012974
-0.012974
-0.012974
-0.012974
-0.012974
-0.012974
-0.012974
-0.012974
-0.012974
-0.012974
-0.012974
-0.012974
-0.012974
-0.012974
-0.012974
-0.012974
-0.012974
-0.012974
-0.012974
-0.012974
-0.012974
-0.012974
-0.012974
-0.012974
-0.012974
-0.012974
-0.012974
-0.012974
-0.012974
-0.012974
-0.012974
-0.012974
-0.012974
-0.012974
-0.012974
-0.012974
-0.012974
-0.012974
-0.012974
-0.012974
-0.012974
-0.012974
-0.012974
-0.012974
-0.012974
-0.012974
-0.012974
-0.012974
-0.012974
-0.012974
-0.012974
-0.012974
-0.012974
-0.012974
-0.012974
-0.012974
-0.012974
-0.012974
-0.012974
-0.012974
-0.012974
-0.012974
-0.012974
-0.012974
-0.012974
-0.012974
-0.012974
-0.012974
-0.012974
-0.012974
-0.012974
-0.012974
-0.012974
-0.012974
-0.012974
-0.012974
-0.012974
-0.012974
-0.012974
-0.012974
-0.012974
-0.012974
-0.012974
-0.012974
-0.012974
-0.012974
-0.012974
-0.012974
-0.012974
-0.012974
-0.012974
-0.012974
-0.012974
-0.012974
-0.012974
-0.012974
-0.012974
-0.012974
-0.012974
-0.012974
-0.012974
-0.012974
-0.012974
-0.012974
-0.012974
-0.012974
-0.012974
-0.012974
-0.012974
-0.012974
-0.012974
-0.012974
-0.012974
-0.012974
-0.012974
-0.012974
-0.012974
-0.012974
-0.012974
-0.012974
-0.012974
-0.012974
-0.012974
-0.012974
-0.012974
-0.012974
-0.012974
-0.012974
-0.012974
-0.012974
-0.012974
-0.012974
-0.012974
-0.012974
-0.012974
-0.012974
-0.012974
-0.012974
-0.012974
-0.012974
-0.012974
-0.012974
-0.012974
-0.012974
-0.012974
-0.012974
-0.012974
-0.012974
-0.012974
-0.012974
-0.012974
-0.012974
-0.012974
-0.012974
-0.012974
-0.012974
-0.012974
-0.012974
-0.012974
-0.012974
-0.012974
-0.012974
-0.012974
-0.012974
-0.012974
-0.012974
-0.012974
-0.012974
-0.012974
-0.012974
-0.012974
-0.012974
-0.012974
-0.012974
-0.012974
-0.012974
-0.012974
-0.012974
-0.012974
-0.012974
-0.012974
-0.012974
-0.012974
-0.012974
-0.012974
-0.012974
-0.012974
-0.012974
-0.012974
-0.012974
-0.012974
-0.012974
-0.012974
-0.012974
-0.012974
-0.012974
-0.012974
-0.012974
-0.012974
-0.012974
-0.012974
-0.012974
-0.012974
-0.012974
-0.012974
-0.012974
-0.012974
-0.012974
-0.012974
-0.012974
-0.012974
-0.012974
-0.012974
-0.012974
-0.012974
-0.012974
-0.012974
-0.012974
-0.012974
-0.012974
-0.012974
-0.012974
-0.012974
-0.012974
-0.012974
-0.012974
-0.012974
-0.012974
-0.012974
-0.012974
-0.012974
-0.012974
-0.012974
-0.012974
-0.012974
-0.012974
-0.012974
-0.012974
-0.012974
-0.012974
-0.012974
-0.012974
-0.012974
-0.012974
-0.012974
-0.012974
-0.012974
-0.012974
-0.012974
-0.012974
-0.012974
-0.012974
-0.012974
-0.012974
-0.012974
-0.012974
-0.012974
-0.012974
-0.012974
-0.012974
-0.012974
-0.012974
-0.012974
-0.012974
-0.012974
-0.012974
-0.012974
-0.012974
-0.012974
-0.012974
-0.012974
-0.012974
-0.012974
-0.012974
-0.012974
-0.012974
-0.012974
-0.012974
-0.012974
-0.012974
-0.012974
-0.012974
-0.012974
-0.012974
-0.012974
-0.012974
-0.012974
-0.012974
-0.012974
-0.012974
-0.012974
-0.012974
-0.012974
-0.012974
-0.012974
-0.012974
-0.012974
-0.012974
-0.012974
-0.012974
-0.012974
-0.012974
-0.012974
-0.012974
-0.012974
-0.012974
-0.012974
-0.012974
-0.012974
-0.012974
-0.012974
-0.012974
-0.012974
-0.012974
-0.012974
SCALARS strain_2 float
LOOKUP_TABLE default
0.050000
0.050000
0.050000
0.050000
0.050000
0.050000
0.050000
0.050000
0.050000
0.050000
0.050000
0.050000
0.050000
0.050000
0.050000
0.050000
0.050000
0.050000
0.050000
0.050000
0.050000
0.050000
0.050000
0.050000
0.050000
0.050000
0.050000
0.050000
0.050000
0.050000
0.050000
0.050000
0.050000
0.050000
0.050000
0.050000
0.050000
0.050000
0.050000
0.050000
0.050000
0.050000
0.050000
0.050000
0.050000
0.050000
0.050000
0.050000
0.050000
0.050000
0.050000
0.050000
0.050000
0.050000
0.050000
0.050000
0.050000
0.050000
0.050000
0.050000
0.050000
0.050000
0.050000
0.050000
0.050000
0.050000
0.050000
0.050000
0.050000
0.050000
0.050000
0.050000
0.050000
0.050000
0.050000
0.050000
0.050000
0.050000
0.050000
0.050000
0.050000
0.050000
0.050000
0.050000
0.050000
0.050000
0.050000
0.050000
0.050000
0.050000
0.050000
0.050000
0.050000
0.050000
0.050000
0.050000
0.050000
0.050000
0.050000
0.050000
0.050000
0.050000
0.050000
0.050000
0.050000
0.050000
0.050000
0.050000
0.050000
0.050000
0.050000
0.050000
0.050000
0.050000
0.050000
0.050000
0.050000
0.050000
0.050000
0.050000
0.050000
0.050000
0.050000
0.050000
0.050000
0.050000
0.050000
0.050000
0.050000
0.050000
0.050000
0.050000
0.050000
0.050000
0.050000
0.050000
0.050000
0.050000
0.050000
0.050000
0.050000
0.050000
0.050000
0.050000
0.050000
0.050000
0.050000
0.050000
0.050000
0.050000
0.050000
0.050000
0.050000
0.050000
0.050000
0.050000
0.050000
0.050000
0.050000
0.050000
0.050000
0.050000
0.050000
0.050000
0.050000
0.050000
0.050000
0.050000
0.050000
0.050000
0.050000
0.050000
0.050000
0.050000
0.050000
0.050000
0.050000
0.050000
0.050000
0.050000
0.050000
0.050000
0.050000
0.050000
0.050000
0.050000
0.050000
0.050000
0.050000
0.050000
0.050000
0.050000
0.050000
0.050000
0.050000
0.050000
0.050000
0.050000
0.050000
0.050000
0.050000
0.050000
0.050000
0.050000
0.050000
0.050000
0.050000
0.050000
0.050000
0.050000
0.050000
0.050000
0.050000
0.050000
0.050000
0.050000
0.050000
0.050000
0.050000
0.050000
0.050000
0.050000
0.050000
0.050000
0.050000
0.050000
0.050000
0.050000
0.050000
0.050000
0.050000
0.050000
0.050000
0.050000
0.050000
0.050000
0.050000
0.050000
0.050000
0.050000
0.050000
0.050000
0.050000
0.050000
0.050000
0.050000
0.050000
0.050000
0.050000
0.050000
0.050000
0.050000
0.050000
0.050000
0.050000
0.050000
0.050000
0.050000
0.050000
0.050000
0.050000
0.050000
0.050000
0.050000
0.050000
0.050000
0.050000
0.050000
0.050000
0.050000
0.050000
0.050000
0.050000
0.050000
0.050000
0.050000
0.050000
0.050000
0.050000
0.050000
0.050000
0.050000
0.050000
0.050000
0.050000
0.050000
0.050000
0.050000
0.050000
0.050000
0.050000
0.050000
0.050000
0.050000
0.050000
0.050000
0.050000
0.050000
0.050000
0.050000
0.050000
0.050000
0.050000
0.050000
0.050000
0.050000
0.050000
0.050000
0.050000
0.050000
0.050000
0.050000
0.050000
0.050000
0.050000
0.050000
0.050000
0.050000
0.050000
0.050000
0.050000
0.050000
0.050000
0.050000
0.050000
0.050000
0.050000
0.050000
0.050000
0.050000
0.050000
0.050000
0.050000
0.050000
0.050000
0.050000
0.050000
0.050000
0.050000
0.050000
0.050000
0.050000
0.050000
0.050000
0.050000
0.050000
0.050000
0.050000
0.050000
0.050000
0.050000
0.050000
0.050000
0.050000
0.050000
0.050000
0.050000
0.050000
0.050000
0.050000
0.050000
0.050000
0.050000
0.050000
0.050000
0.050000
0.050000
0.050000
0.050000
0.050000
0.050000
0.050000
0.050000
0.050000
0.050000
0.050000
0.050000
0.050000
0.050000
0.050000
0.050000
0.050000
0.050000
0.050000
0.050000
0.050000
0.050000
0.050000
0.050000
0.050000
0.050000
0.050000
0.050000
0.050000
0.050000
0.050000
0.050000
0.050000
0.050000
0.050000
0.050000
0.050000
0.050000
0.050000
0.050000
0.050000
0.050000
0.050000
0.050000
0.050000
0.050000
0.050000
0.050000
0.050000
0.050000
0.050000
0.050000
0.050000
0.050000
0.050000
0.050000
0.050000
0.050000
0.050000
0.050000
0.050000
0.050000
0.050000
0.050000
0.050000
0.050000
0.050000
0.050000
0.050000
0.050000
0.050000
0.050000
0.050000
0.050000
0.050000
0.050000
0.050000
0.050000
0.050000
0.050000
0.050000
0.050000
0.050000
0.050000
0.050000
0.050000
0.050000
0.050000
0.050000
0.050000
0.050000
0.050000
0.050000
0.050000
0.050000
0.050000
0.050000
0.050000
0.050000
0.050000
0.050000
0.050000
0.050000
0.050000
0.050000
0.050000
0.050000
0.050000
0.050000
0.050000
0.050000
0.050000
0.050000
0.050000
0.050000
0.050000
0.050000
0.050000
0.050000
0.050000
0.050000
0.050000
0.050000
0.050000
0.050000
0.050000
0.050000
0.050000
0.050000
0.050000
0.050000
0.050000
0.050000
0.050000
0.050000
0.050000
0.050000
0.050000
0.050000
0.050000
0.050000
0.050000
0.050000
0.050000
0.050000
0.050000
0.050000
0.050000
0.050000
0.050000
0.050000
0.050000
0.050000
0.050000
0.050000
0.050000
0.050000
0.050000
0.050000
0.050000
0.050000
0.050000
0.050000
0.050000
0.050000
0.050000
0.050000
0.050000
0.050000
0.050000
0.050000
0.050000
0.050000
0.050000
0.050000
0.050000
0.050000
0.050000
0.050000
0.050000
0.050000
0.050000
0.050000
0.050000
0.050000
0.050000
0.050000
0.050000
0.050000
0.050000
0.050000
0.050000
0.050000
0.050000
0.050000
0.050000
0.050000
0.050000
0.050000
0.050000
0.050000
0.050000
0.050000
0.050000
0.050000
0.050000
0.050000
0.050000
0.050000
0.050000
0.050000
0.050000
0.050000
0.050000
0.050000
0.050000
0.050000
0.050000
0.050000
0.050000
0.050000
0.050000
0.050000
0.050000
0.050000
0.050000
0.050000
0.050000
0.050000
0.050000
0.050000
0.050000
0.050000
0.050000
0.050000
0.050000
0.050000
0.050000
0.050000
0.050000
0.050000
0.050000
0.050000
0.050000
0.050000
0.050000
0.050000
0.050000
0.050000
0.050000
0.050000
0.050000
0.050000
0.050000
0.050000
0.050000
0.050000
0.050000
0.050000
0.050000
0.050000
0.050000
0.050000
0.050000
0.050000
0.050000
0.050000
0.050000
0.050000
0.050000
0.050000
0.050000
0.050000
0.050000
0.050000
0.050000
0.050000
0.050000
0.050000
0.050000
0.050000
0.050000
0.050000
0.050000
0.050000
0.050000
0.050000
0.050000
0.050000
0.050000
0.050000
0.050000
0.050000
0.050000
0.050000
0.050000
0.050000
0.050000
0.050000
0.050000
0.050000
0.050000
0.050000
0.050000
0.050000
0.050000
0.050000
0.050000
0.050000
0.050000
0.050000
0.050000
0.050000
0.050000
0.050000
0.050000
0.050000
0.050000
0.050000
0.050000
0.050000
0.050000
0.050000
0.050000
0.050000
0.050000
0.050000
0.050000
0.050000
0.050000
0.050000
0.050000
0.050000
0.050000
0.050000
0.050000
0.050000
0.050000
0.050000
0.050000
0.050000
0.050000
0.050000
0.050000
0.050000
0.050000
0.050000
0.050000
0.050000
0.050000
0.050000
0.050000
0.050000
0.050000
0.050000
0.050000
0.050000
0.050000
0.050000
0.050000
0.050000
0.050000
0.050000
0.050000
0.050000
0.050000
0.050000
0.050000
0.050000
0.050000
0.050000
0.050000
0.050000
0.050000
0.050000
0.050000
0.050000
0.050000
0.050000
0.050000
0.050000
0.050000
0.050000
0.050000
0.050000
0.050000
0.050000
0.050000
0.050000
0.050000
0.050000
0.050000
0.050000
0.050000
0.050000
0.050000
0.050000
0.050000
0.050000
0.050000
0.050000
0.050000
0.050000
0.050000
0.050000
0.050000
0.050000
0.050000
0.050000
0.050000
0.050000
0.050000
0.050000
0.050000
0.050000
0.050000
0.050000
0.050000
0.050000
0.050000
0.050000
0.050000
0.050000
0.050000
0.050000
0.050000
0.050000
0.050000
0.050000
0.050000
0.050000
0.050000
0.050000
0.050000
0.050000
0.050000
0.050000
0.050000
0.050000
0.050000
0.050000
0.050000
0.050000
0.050000
0.050000
0.050000
0.050000
0.050000
0.050000
0.050000
0.050000
0.050000
0.050000
0.050000
0.050000
0.050000
0.050000
0.050000
0.050000
0.050000
0.050000
0.050000
0.050000
0.050000
0.050000
0.050000
0.050000
0.050000
0.050000
0.050000
0.050000
0.050000
0.050000
0.050000
0.050000
0.050000
0.050000
0.050000
0.050000
0.050000
0.050000
0.050000
0.050000
0.050000
0.050000
0.050000
0.050000
0.050000
0.050000
0.050000
0.050000
0.050000
0.050000
0.050000
0.050000
0.050000
0.050000
0.050000
0.050000
0.050000
0.050000
0.050000
0.050000
0.050000
0.050000
0.050000
0.050000
0.050000
0.050000
0.050000
0.050000
0.050000
0.050000
0.050000
0.050000
0.050000
0.050000
0.050000
0.050000
0.050000
0.050000
0.050000
0.050000
0.050000
0.050000
0.050000
SCALARS strain_3 float
LOOKUP_TABLE default
0.000000
-0.000000
-0.000000
-0.000000
-0.000000
-0.000000
-0.000000
-0.000000
-0.000000
-0.000000
-0.000000
-0.000000
-0.000000
-0.000000
-0.000000
-0.000000
-0.000000
-0.000000
-0.000000
-0.000000
-0.000000
-0.000000
-0.000000
-0.000000
-0.000000
-0.000000
-0.000000
-0.000000
-0.000000
-0.000000
-0.000000
-0.000000
-0.000000
-0.000000
-0.000000
-0.000000
-0.000000
-0.000000
-0.000000
-0.000000
-0.000000
-0.000000
-0.000000
-0.000000
-0.000000
-0.000000
-0.000000
-0.000000
-0.000000
-0.000000
-0.000000
-0.000000
-0.000000
-0.000000
-0.000000
-0.000000
-0.000000
-0.000000
-0.000000
-0.000000
-0.000000
-0.000000
-0.000000
-0.000000
-0.000000
-0.000000
-0.000000
-0.000000
-0.000000
-0.000000
-0.000000
0.000000
0.000000
0.000000
0.000000
0.000000
0.000000
0.000000
0.000000
0.000000
0.000000
-0.000000
-0.000000
-0.000000
-0.000000
-0.000000
-0.000000
-0.000000
-0.000000
-0.000000
-0.000000
-0.000000
-0.000000
-0.000000
-0.000000
-0.000000
-0.000000
-0.000000
-0.000000
-0.000000
-0.000000
-0.000000
-0.000000
-0.000000
-0.000000
-0.000000
-0.000000
-0.000000
-0.000000
-0.000000
-0.000000
-0.000000
-0.000000
-0.000000
-0.000000
-0.000000
-0.000000
-0.000000
-0.000000
-0.000000
-0.000000
-0.000000
-0.000000
-0.000000
-0.000000
-0.000000
-0.000000
-0.000000
-0.000000
-0.000000
-0.000000
-0.000000
-0.000000
-0.000000
-0.000000
-0.000000
-0.000000
-0.000000
-0.000000
-0.000000
-0.000000
-0.000000
-0.000000
-0.000000
-0.000000
-0.000000
-0.000000
-0.000000
-0.000000
-0.000000
-0.000000
-0.000000
-0.000000
-0.000000
-0.000000
-0.000000
-0.000000
-0.000000
-0.000000
-0.000000
-0.000000
-0.000000
-0.000000
-0.000000
-0.000000
-0.000000
-0.000000
-0.000000
-0.000000
-0.000000
-0.000000
0.000000
0.000000
0.000000
0.000000
0.000000
0.000000
0.000000
-0.000000
-0.000000
-0.000000
-0.000000
0.000000
0.000000
0.000000
0.000000
0.000000
0.000000
0.000000
-0.000000
-0.000000
-0.000000
0.000000
0.000000
0.000000
0.000000
0.000000
0.000000
-0.000000
-0.000000
-0.000000
0.000000
0.000000
0.000000
0.000000
0.000000
0.000000
-0.000000
-0.000000
-0.000000
-0.000000
0.000000
0.000000
0.000000
0.000000
0.000000
-0.000000
-0.000000
-0.000000
-0.000000
0.000000
0.000000
0.000000
0.000000
0.000000
-0.000000
-0.000000
-0.000000
-0.000000
-0.000000
0.000000
0.000000
0.000000
0.000000
-0.000000
-0.000000
-0.000000
-0.000000
-0.000000
-0.000000
0.000000
0.000000
0.000000
-0.000000
-0.000000
-0.000000
-0.000000
-0.000000
-0.000000
-0.000000
0.000000
0.000000
-0.000000
-0.000000
-0.000000
-0.000000
-0.000000
-0.000000
-0.000000
-0.000000
0.000000
-0.000000
-0.000000
-0.000000
-0.000000
-0.000000
-0.000000
-0.000000
-0.000000
-0.000000
-0.000000
-0.000000
-0.000000
-0.000000
-0.000000
-0.000000
-0.000000
-0.000000
-0.000000
-0.000000
-0.000000
-0.000000
-0.000000
-0.000000
-0.000000
-0.000000
-0.000000
-0.000000
-0.000000
-0.000000
-0.000000
-0.000000
-0.000000
-0.000000
-0.000000
-0.000000
-0.000000
-0.000000
-0.000000
-0.000000
-0.000000
-0.000000
-0.000000
-0.000000
-0.000000
-0.000000
-0.000000
-0.000000
-0.000000
-0.000000
-0.000000
-0.000000
-0.000000
-0.000000
-0.000000
-0.000000
-0.000000
-0.000000
-0.000000
-0.000000
-0.000000
-0.000000
-0.000000
-0.000000
-0.000000
-0.000000
-0.000000
-0.000000
-0.000000
-0.000000
-0.000000
-0.000000
-0.000000
-0.000000
-0.000000
-0.000000
-0.000000
-0.000000
-0.000000
-0.000000
-0.000000
-0.000000
-0.000000
-0.000000
-0.000000
-0.000000
-0.000000
-0.000000
-0.000000
-0.000000
-0.000000
-0.000000
-0.000000
-0.000000
-0.000000
-0.000000
-0.000000
-0.000000
-0.000000
-0.000000
-0.000000
-0.000000
-0.000000
-0.000000
-0.000000
-0.000000
-0.000000
-0.000000
-0.000000
-0.000000
-0.000000
-0.000000
-0.000000
-0.000000
-0.000000
-0.000000
-0.000000
-0.000000
-0.000000
-0.000000
-0.000000
-0.000000
-0.000000
-0.000000
-0.000000
-0.000000
-0.000000
-0.000000
-0.000000
-0.000000
-0.000000
-0.000000
-0.000000
-0.000000
-0.000000
-0.000000
-0.000000
-0.000000
-0.000000
-0.000000
-0.000000
-0.000000
-0.000000
-0.000000
-0.000000
-0.000000
-0.000000
-0.000000
-0.000000
-0.000000
-0.000000
-0.000000
-0.000000
-0.000000
-0.000000
-0.000000
-0.000000
-0.000000
-0.000000
-0.000000
-0.000000
-0.000000
-0.000000
-0.000000
-0.000000
-0.000000
-0.000000
-0.000000
-0.000000
-0.000000
-0.000000
-0.000000
-0.000000
-0.000000
-0.000000
-0.000000
-0.000000
-0.000000
-0.000000
-0.000000
-0.000000
-0.000000
-0.000000
-0.000000
-0.000000
-0.000000
-0.000000
-0.000000
-0.000000
-0.000000
-0.000000
-0.000000
-0.000000
-0.000000
-0.000000
-0.000000
-0.000000
-0.000000
-0.000000
-0.000000
-0.000000
-0.000000
-0.000000
-0.000000
-0.000000
-0.000000
-0.000000
-0.000000
-0.000000
-0.000000
-0.000000
-0.000000
-0.000000
-0.000000
-0.000000
-0.000000
-0.000000
-0.000000
-0.000000
-0.000000
-0.000000
-0.000000
-0.000000
-0.000000
-0.000000
-0.000000
-0.000000
-0.000000
-0.000000
-0.000000
-0.000000
-0.000000
-0.000000
-0.000000
-0.000000
-0.000000
-0.000000
-0.000000
-0.000000
-0.000000
-0.000000
-0.000000
-0.000000
-0.000000
-0.000000
-0.000000
-0.000000
-0.000000
-0.000000
-0.000000
-0.000000
-0.000000
-0.000000
-0.000000
-0.000000
-0.000000
-0.000000
-0.000000
-0.000000
-0.000000
-0.000000
-0.000000
-0.000000
-0.000000
-0.000000
-0.000000
-0.000000
-0.000000
-0.000000
-0.000000
-0.000000
-0.000000
-0.000000
-0.000000
-0.000000
-0.000000
-0.000000
-0.000000
-0.000000
-0.000000
-0.000000
-0.000000
-0.000000
-0.000000
-0.000000
-0.000000
-0.000000
-0.000000
-0.000000
-0.000000
-0.000000
-0.000000
-0.000000
-0.000000
-0.000000
-0.000000
-0.000000
-0.000000
-0.000000
-0.000000
-0.000000
-0.000000
-0.000000
-0.000000
-0.000000
-0.000000
-0.000000
-0.000000
-0.000000
-0.000000
-0.000000
-0.000000
-0.000000
-0.000000
-0.000000
-0.000000
-0.000000
-0.000000
-0.000000
-0.000000
-0.000000
-0.000000
-0.000000
-0.000000
-0.000000
-0.000000
-0.000000
-0.000000
-0.000000
-0.000000
-0.000000
-0.000000
-0.000000
-0.000000
-0.000000
-0.000000
-0.000000
-0.000000
-0.000000
-0.000000
-0.000000
-0.000000
-0.000000
-0.000000
-0.000000
-0.000000
-0.000000
-0.000000
-0.000000
-0.000000
-0.000000
-0.000000
-0.000000
-0.000000
-0.000000
-0.000000
-0.000000
-0.000000
-0.000000
-0.000000
-0.000000
-0.000000
-0.000000
-0.000000
-0.000000
-0.000000
-0.000000
-0.000000
-0.000000
-0.000000
-0.000000
-0.000000
-0.000000
-0.000000
-0.000000
-0.000000
-0.000000
-0.000000
-0.000000
-0.000000
-0.000000
-0.000000
-0.000000
-0.000000
-0.000000
-0.000000
-0.000000
-0.000000
-0.000000
-0.000000
-0.000000
-0.000000
-0.000000
-0.000000
-0.000000
-0.000000
-0.000000
-0.000000
-0.000000
-0.000000
-0.000000
-0.000000
-0.000000
-0.000000
-0.000000
-0.000000
-0.000000
-0.000000
-0.000000
-0.000000
-0.000000
-0.000000
-0.000000
-0.000000
-0.000000
-0.000000
-0.000000
-0.000000
-0.000000
-0.000000
-0.000000
-0.000000
-0.000000
-0.000000
-0.000000
-0.000000
-0.000000
-0.000000
-0.000000
-0.000000
-0.000000
-0.000000
-0.000000
-0.000000
-0.000000
-0.000000
-0.000000
-0.000000
-0.000000
-0.000000
-0.000000
-0.000000
-0.000000
-0.000000
-0.000000
-0.000000
-0.000000
-0.000000
-0.000000
-0.000000
-0.000000
-0.000000
-0.000000
-0.000000
-0.000000
-0.000000
-0.000000
-0.000000
-0.000000
-0.000000
-0.000000
-0.000000
-0.000000
-0.000000
-0.000000
-0.000000
-0.000000
-0.000000
-0.000000
-0.000000
-0.000000
-0.000000
-0.000000
-0.000000
-0.000000
-0.000000
-0.000000
-0.000000
-0.000000
-0.000000
-0.000000
-0.000000
-0.000000
-0.000000
-0.000000
-0.000000
-0.000000
-0.000000
-0.000000
-0.000000
-0.000000
-0.000000
-0.000000
-0.000000
-0.000000
-0.000000
-0.000000
-0.000000
-0.000000
-0.000000
-0.000000
-0.000000
-0.000000
-0.000000
-0.000000
-0.000000
-0.000000
-0.000000
-0.000000
-0.000000
-0.000000
-0.000000
-0.000000
-0.000000
-0.000000
-0.000000
-0.000000
-0.000000
-0.000000
-0.000000
-0.000000
-0.000000
-0.000000
-0.000000
-0.000000
-0.000000
-0.000000
-0.000000
-0.000000
-0.000000
-0.000000
-0.000000
-0.000000
-0.000000
-0.000000
-0.000000
-0.000000
-0.000000
-0.000000
-0.000000
-0.000000
-0.000000
-0.000000
-0.000000
-0.000000
-0.000000
-0.000000
-0.000000
-0.000000
-0.000000
-0.000000
-0.000000
-0.000000
-0.000000
-0.000000
-0.000000
-0.000000
-0.000000
-0.000000
-0.000000
-0.000000
-0.000000
-0.000000
-0.000000
-0.000000
-0.000000
-0.000000
-0.000000
-0.000000
-0.000000
-0.000000
-0.000000
-0.000000
-0.000000
-0.000000
-0.000000
-0.000000
-0.000000
-0.000000
-0.000000
-0.000000
-0.000000
-0.000000
-0.000000
-0.000000
-0.000000
-0.000000
-0.000000
-0.000000
-0.000000
-0.000000
-0.000000
-0.000000
-0.000000
-0.000000
-0.000000
-0.000000
-0.000000
-0.000000
-0.000000
-0.000000
-0.000000
-0.000000
-0.000000
-0.000000
-0.000000
-0.000000
-0.000000
-0.000000
-0.000000
-0.000000
-0.000000
-0.000000
-0.000000
-0.000000
-0.000000
-0.000000
-0.000000
-0.000000
-0.000000
-0.000000
-0.000000
-0.000000
-0.000000
-0.000000
-0.000000
-0.000000
-0.000000
-0.000000
-0.000000
-0.000000
SCALARS stress_1 float
LOOKUP_TABLE default
-0.171702
-0.247390
-0.246192
-0.245000
-0.243789
-0.242596
-0.241374
-0.240165
-0.238937
-0.237725
-0.236485
-0.235260
-0.234030
-0.232788
-0.231564
-0.230313
-0.229083
-0.227834
-0.226596
-0.225361
-0.224122
-0.222871
-0.221651
-0.220407
-0.219161
-0.217945
-0.216720
-0.215504
-0.214272
-0.213070
-0.211868
-0.210686
-0.209485
-0.208307
-0.207126
-0.205954
-0.204802
-0.203662
-0.202535
-0.201382
-0.200281
-0.199184
-0.198088
-0.197025
-0.195986
-0.194915
-0.193902
-0.192898
-0.191909
-0.190937
-0.189976
-0.189038
-0.188104
-0.187206
-0.186355
-0.185500
-0.184674
-0.183860
-0.183042
-0.182281
-0.181552
-0.180817
-0.180132
-0.179461
-0.178795
-0.178182
-0.177582
-0.177021
-0.176472
-0.175954
-0.175441
-0.174989
-0.174521
-0.174124
-0.173736
-0.173368
-0.173014
-0.172721
-0.172418
-0.172156
-0.171927
-0.247313
-0.171647
-0.171875
-0.172116
-0.172379
-0.172669
-0.173020
-0.173341
-0.173721
-0.174111
-0.174538
-0.174971
-0.175454
-0.175934
-0.176474
-0.177030
-0.177594
-0.178186
-0.178809
-0.179469
-0.180152
-0.180828
-0.181561
-0.182304
-0.183081
-0.183865
-0.184682
-0.185512
-0.186363
-0.187260
-0.188139
-0.189063
-0.190004
-0.190969
-0.191941
-0.192916
-0.193924
-0.194972
-0.195990
-0.197036
-0.198118
-0.199192
-0.200283
-0.201403
-0.202538
-0.203667
-0.204796
-0.205962
-0.207133
-0.208295
-0.209474
-0.210663
-0.211837
-0.213071
-0.214268
-0.215479
-0.216696
-0.217928
-0.219162
-0.220378
-0.221613
-0.222840
-0.224094
-0.225325
-0.226565
-0.227805
-0.229045
-0.230287
-0.231514
-0.232739
-0.233981
-0.235207
-0.236430
-0.237679
-0.238910
-0.240109
-0.241309
-0.242538
-0.243721
-0.244918
-0.246134
-0.247328
-0.247339
-0.247342
-0.247348
-0.247347
-0.247362
-0.247356
-0.247377
-0.247381
-0.171699
-0.171696
-0.171691
-0.171685
-0.171672
-0.171668
-0.171671
-0.171660
-0.171675
-0.171880
-0.171879
-0.171883
-0.171878
-0.171894
-0.171896
-0.171900
-0.171905
-0.171925
-0.172125
-0.172129
-0.172130
-0.172115
-0.172144
-0.172129
-0.172131
-0.172129
-0.172168
-0.172387
-0.172409
-0.172401
-0.172390
-0.172389
-0.172408
-0.172404
-0.172408
-0.172416
-0.172679
-0.172700
-0.172677
-0.172679
-0.172678
-0.172697
-0.172698
-0.172697
-0.172706
-0.172986
-0.172992
-0.172996
-0.173007
-0.172993
-0.173013
-0.173014
-0.173025
-0.173014
-0.173339
-0.173339
-0.173333
-0.173356
-0.173350
-0.173332
-0.173346
-0.173356
-0.173368
-0.173700
-0.173714
-0.173717
-0.173716
-0.173709
-0.173716
-0.173702
-0.173735
-0.173726
-0.174114
-0.174107
-0.174105
-0.174099
-0.174112
-0.174102
-0.174101
-0.174113
-0.174114
-0.174531
-0.174517
-0.174525
-0.174538
-0.174510
-0.174520
-0.174524
-0.174531
-0.174548
-0.174975
-0.174977
-0.174960
-0.174973
-0.174973
-0.174968
-0.174955
-0.174973
-0.174968
-0.175434
-0.175439
-0.175436
-0.175433
-0.175429
-0.175436
-0.175442
-0.175446
-0.175454
-0.175946
-0.175938
-0.175939
-0.175940
-0.175904
-0.175933
-0.175954
-0.175937
-0.175952
-0.176467
-0.176471
-0.176468
-0.176457
-0.176449
-0.176456
-0.176467
-0.176455
-0.176463
-0.177006
-0.177015
-0.176994
-0.177009
-0.177004
-0.177007
-0.177004
-0.177001
-0.177008
-0.177582
-0.177586
-0.177575
-0.177575
-0.177572
-0.177566
-0.177566
-0.177579
-0.177576
-0.178193
-0.178195
-0.178179
-0.178176
-0.178182
-0.178182
-0.178174
-0.178199
-0.178181
-0.178804
-0.178802
-0.178799
-0.178812
-0.178805
-0.178807
-0.178799
-0.178787
-0.178798
-0.179460
-0.179459
-0.179452
-0.179454
-0.179448
-0.179464
-0.179448
-0.179449
-0.179454
-0.180126
-0.180131
-0.180130
-0.180120
-0.180128
-0.180121
-0.180106
-0.180126
-0.180127
-0.180845
-0.180825
-0.180823
-0.180829
-0.180824
-0.180805
-0.180807
-0.180820
-0.180823
-0.181562
-0.181549
-0.181549
-0.181554
-0.181553
-0.181539
-0.181522
-0.181541
-0.181516
-0.182299
-0.182297
-0.182297
-0.182287
-0.182275
-0.182280
-0.182284
-0.182280
-0.182285
-0.183073
-0.183062
-0.183056
-0.183060
-0.183040
-0.183049
-0.183053
-0.183047
-0.183049
-0.183860
-0.183852
-0.183841
-0.183841
-0.183848
-0.183841
-0.183835
-0.183833
-0.183829
-0.184675
-0.184656
-0.184663
-0.184661
-0.184646
-0.184649
-0.184660
-0.184645
-0.184652
-0.185523
-0.185505
-0.185494
-0.185507
-0.185504
-0.185479
-0.185497
-0.185469
-0.185486
-0.186365
-0.186357
-0.186351
-0.186356
-0.186352
-0.186351
-0.186343
-0.186336
-0.186340
-0.187233
-0.187229
-0.187243
-0.187238
-0.187218
-0.187203
-0.187221
-0.187224
-0.187229
-0.188153
-0.188152
-0.188143
-0.188131
-0.188120
-0.188131
-0.188108
-0.188121
-0.188113
-0.189049
-0.189062
-0.189054
-0.189040
-0.189044
-0.189039
-0.189031
-0.189048
-0.189038
-0.190000
-0.189996
-0.189985
-0.189976
-0.189984
-0.189977
-0.189965
-0.189990
-0.189977
-0.190962
-0.190948
-0.190944
-0.190943
-0.190944
-0.190928
-0.190924
-0.190928
-0.190927
-0.191923
-0.191925
-0.191913
-0.191900
-0.191899
-0.191916
-0.191907
-0.191904
-0.191897
-0.192916
-0.192914
-0.192901
-0.192901
-0.192896
-0.192904
-0.192892
-0.192902
-0.192893
-0.193922
-0.193905
-0.193906
-0.193908
-0.193910
-0.193909
-0.193892
-0.193902
-0.193913
-0.194956
-0.194936
-0.194942
-0.194933
-0.194939
-0.194922
-0.194932
-0.194924
-0.194940
-0.195998
-0.195981
-0.195972
-0.195978
-0.195964
-0.195972
-0.195966
-0.195974
-0.195966
-0.197049
-0.197044
-0.197043
-0.197032
-0.197036
-0.197039
-0.197031
-0.197029
-0.197036
-0.198108
-0.198108
-0.198093
-0.198119
-0.198095
-0.198108
-0.198099
-0.198110
-0.198085
-0.199208
-0.199190
-0.199194
-0.199196
-0.199173
-0.199194
-0.199185
-0.199192
-0.199203
-0.200300
-0.200303
-0.200287
-0.200297
-0.200280
-0.200282
-0.200286
-0.200291
-0.200280
-0.201394
-0.201393
-0.201406
-0.201399
-0.201416
-0.201404
-0.201404
-0.201403
-0.201400
-0.202527
-0.202544
-0.202523
-0.202517
-0.202517
-0.202516
-0.202501
-0.202521
-0.202518
-0.203658
-0.203654
-0.203656
-0.203654
-0.203645
-0.203647
-0.203638
-0.203651
-0.203657
-0.204807
-0.204807
-0.204787
-0.204812
-0.204800
-0.204805
-0.204781
-0.204796
-0.204804
-0.205967
-0.205960
-0.205960
-0.205941
-0.205955
-0.205952
-0.205941
-0.205953
-0.205955
-0.207128
-0.207116
-0.207115
-0.207114
-0.207116
-0.207123
-0.207124
-0.207113
-0.207103
-0.208292
-0.208285
-0.208293
-0.208285
-0.208296
-0.208307
-0.208288
-0.208283
-0.208290
-0.209477
-0.209461
-0.209481
-0.209471
-0.209477
-0.209470
-0.209472
-0.209478
-0.209469
-0.210659
-0.210661
-0.210660
-0.210674
-0.210668
-0.210660
-0.210653
-0.210654
-0.210657
-0.211870
-0.211876
-0.211863
-0.211862
-0.211856
-0.211862
-0.211865
-0.211869
-0.211873
-0.213058
-0.213067
-0.213072
-0.213079
-0.213068
-0.213058
-0.213055
-0.213064
-0.213069
-0.214273
-0.214275
-0.214274
-0.214270
-0.214272
-0.214282
-0.214282
-0.214276
-0.214282
-0.215492
-0.215495
-0.215468
-0.215485
-0.215488
-0.215509
-0.215488
-0.215506
-0.215502
-0.216698
-0.216705
-0.216707
-0.216705
-0.216700
-0.216728
-0.216698
-0.216718
-0.216723
-0.217929
-0.217936
-0.217941
-0.217937
-0.217935
-0.217925
-0.217927
-0.217934
-0.217945
-0.219158
-0.219158
-0.219158
-0.219160
-0.219151
-0.219151
-0.219164
-0.219168
-0.219177
-0.220400
-0.220392
-0.220373
-0.220395
-0.220386
-0.220388
-0.220390
-0.220413
-0.220402
-0.221624
-0.221631
-0.221630
-0.221615
-0.221618
-0.221631
-0.221623
-0.221641
-0.221638
-0.222860
-0.222850
-0.222860
-0.222860
-0.222882
-0.222867
-0.222872
-0.222868
-0.222869
-0.224092
-0.224104
-0.224092
-0.224098
-0.224099
-0.224098
-0.224099
-0.224119
-0.224118
-0.225335
-0.225331
-0.225323
-0.225333
-0.225324
-0.225344
-0.225350
-0.225350
-0.225356
-0.226565
-0.226563
-0.226570
-0.226574
-0.226571
-0.226578
-0.226574
-0.226580
-0.226590
-0.227822
-0.227810
-0.227824
-0.227826
-0.227828
-0.227837
-0.227816
-0.227824
-0.227832
-0.229041
-0.229048
-0.229050
-0.229042
-0.229063
-0.229064
-0.229066
-0.229069
-0.229077
-0.230291
-0.230295
-0.230292
-0.230279
-0.230300
-0.230302
-0.230305
-0.230315
-0.230320
-0.231526
-0.231529
-0.231528
-0.231533
-0.231531
-0.231540
-0.231523
-0.231542
-0.231547
-0.232747
-0.232744
-0.232756
-0.232748
-0.232756
-0.232772
-0.232780
-0.232780
-0.232793
-0.233984
-0.233979
-0.233992
-0.233996
-0.233993
-0.234015
-0.234013
-0.234010
-0.234009
-0.235228
-0.235217
-0.235222
-0.235234
-0.235244
-0.235242
-0.235253
-0.235259
-0.235260
-0.236448
-0.236445
-0.236463
-0.236453
-0.236462
-0.236466
-0.236482
-0.236487
-0.236488
-0.237679
-0.237674
-0.237685
-0.237683
-0.237704
-0.237687
-0.237689
-0.237710
-0.237701
-0.238892
-0.238888
-0.238908
-0.238917
-0.238909
-0.238929
-0.238922
-0.238924
-0.238945
-0.240107
-0.240109
-0.240117
-0.240123
-0.240138
-0.240134
-0.240155
-0.240141
-0.240158
-0.241328
-0.241341
-0.241326
-0.241341
-0.241361
-0.241348
-0.241357
-0.241366
-0.241355
-0.242534
-0.242536
-0.242542
-0.242557
-0.242565
-0.242562
-0.242562
-0.242575
-0.242595
-0.243744
-0.243762
-0.243753
-0.243759
-0.243746
-0.243775
-0.243771
-0.243780
-0.243788
-0.244944
-0.244945
-0.244952
-0.244958
-0.244959
-0.244978
-0.244974
-0.244991
-0.244990
-0.246140
-0.246131
-0.246141
-0.246152
-0.246146
-0.246168
-0.246178
-0.246178
-0.246184
SCALARS stress_2 float
LOOKUP_TABLE default
300990.018137
300989.991399
300989.991850
300989.992293
300989.992754
300989.993205
300989.993656
300989.994106
300989.994562
300989.995024
300989.995470
300989.995922
300989.996384
300989.996856
300989.997303
300989.997757
300989.998218
300989.998665
300989.999119
300989.999585
300990.000036
300990.000488
300990.000924
300990.001379
300990.001829
300990.002273
300990.002720
300990.003157
300990.003599
300990.004045
300990.004471
300990.004896
300990.005326
300990.005749
300990.006164
300990.006568
300990.006990
300990.007407
300990.007797
300990.008202
300990.008584
300990.008978
300990.009353
300990.009741
300990.010094
300990.010460
300990.010815
300990.011178
300990.011518
300990.011861
300990.012184
300990.012506
300990.012824
300990.013135
300990.013424
300990.013711
300990.013993
300990.014275
300990.014538
300990.014800
300990.015049
300990.015282
300990.015522
300990.015738
300990.015956
300990.016157
300990.016342
300990.016534
300990.016702
300990.016885
300990.017025
300990.017181
300990.017315
300990.017443
300990.017567
300990.017669
300990.017770
300990.017857
300990.017945
300990.018025
300990.018093
300989.989436
300990.018077
300990.018007
300990.017919
300990.017818
300990.017714
300990.017586
300990.017447
300990.017317
300990.017160
300990.017008
300990.016847
300990.016665
300990.016479
300990.016286
300990.016068
300990.015865
300990.015634
300990.015395
300990.015156
300990.014899
300990.014623
300990.014366
300990.014088
300990.013806
300990.013492
300990.013183
300990.012874
300990.012557
300990.012233
300990.011889
300990.011549
300990.011187
300990.010830
300990.010466
300990.010087
300990.009701
300990.009328
300990.008930
300990.008530
300990.008128
300990.007723
300990.007311
300990.006896
300990.006467
300990.006037
300990.005614
300990.005166
300990.004731
300990.004290
300990.003844
300990.003389
300990.002941
300990.002488
300990.002028
300990.001573
300990.001105
300990.000634
300990.000179
300989.999711
300989.999250
300989.998778
300989.998300
300989.997832
300989.997368
300989.996885
300989.996421
300989.995963
300989.995485
300989.995008
300989.994537
300989.994064
300989.993606
300989.993129
300989.992671
300989.992192
300989.991743
300989.991268
300989.990818
300989.990345
300989.989894
300989.989636
300989.989842
300989.990030
300989.990229
300989.990426
300989.990626
300989.990808
300989.991007
300989.991211
300990.018145
300990.018136
300990.018130
300990.018119
300990.018131
300990.018125
300990.018120
300990.018100
300990.018106
300990.018023
300990.018027
300990.018032
300990.018051
300990.018056
300990.018056
300990.018063
300990.018064
300990.018081
300990.017933
300990.017944
300990.017954
300990.017968
300990.017979
300990.017982
300990.017992
300990.018002
300990.018010
300990.017832
300990.017845
300990.017865
300990.017877
300990.017898
300990.017900
300990.017909
300990.017922
300990.017934
300990.017713
300990.017742
300990.017763
300990.017780
300990.017795
300990.017807
300990.017826
300990.017837
300990.017849
300990.017608
300990.017620
300990.017652
300990.017657
300990.017683
300990.017703
300990.017720
300990.017743
300990.017759
300990.017478
300990.017509
300990.017524
300990.017543
300990.017581
300990.017594
300990.017616
300990.017637
300990.017643
300990.017350
300990.017379
300990.017394
300990.017410
300990.017449
300990.017474
300990.017488
300990.017514
300990.017537
300990.017199
300990.017238
300990.017262
300990.017285
300990.017315
300990.017344
300990.017364
300990.017395
300990.017421
300990.017046
300990.017085
300990.017116
300990.017147
300990.017182
300990.017192
300990.017228
300990.017250
300990.017288
300990.016877
300990.016920
300990.016958
300990.016995
300990.017008
300990.017060
300990.017086
300990.017120
300990.017145
300990.016716
300990.016748
300990.016775
300990.016811
300990.016852
300990.016892
300990.016934
300990.016961
300990.016994
300990.016514
300990.016565
300990.016605
300990.016645
300990.016676
300990.016723
300990.016756
300990.016786
300990.016840
300990.016322
300990.016370
300990.016412
300990.016455
300990.016494
300990.016540
300990.016590
300990.016618
300990.016667
300990.016118
300990.016168
300990.016214
300990.016266
300990.016315
300990.016352
300990.016398
300990.016440
300990.016486
300990.015904
300990.015966
300990.016007
300990.016055
300990.016111
300990.016157
300990.016202
300990.016259
300990.016301
300990.015685
300990.015743
300990.015788
300990.015848
300990.015908
300990.015950
300990.016008
300990.016037
300990.016100
300990.015462
300990.015501
300990.015576
300990.015622
300990.015680
300990.015741
300990.015803
300990.015853
300990.015891
300990.015207
300990.015265
300990.015334
300990.015392
300990.015455
300990.015499
300990.015570
300990.015624
300990.015678
300990.014960
300990.015025
300990.015091
300990.015143
300990.015219
300990.015277
300990.015334
300990.015389
300990.015450
300990.014703
300990.014769
300990.014837
300990.014907
300990.014969
300990.015038
300990.015087
300990.015152
300990.015218
300990.014436
300990.014508
300990.014568
300990.014649
300990.014705
300990.014786
300990.014838
300990.014913
300990.014985
300990.014154
300990.014240
300990.014304
300990.014382
300990.014442
300990.014521
300990.014596
300990.014666
300990.014734
300990.013874
300990.013950
300990.014023
300990.014097
300990.014172
300990.014248
300990.014319
300990.014402
300990.014467
300990.013576
300990.013667
300990.013745
300990.013820
300990.013899
300990.013982
300990.014040
300990.014128
300990.014191
300990.013280
300990.013355
300990.013435
300990.013523
300990.013601
300990.013673
300990.013762
300990.013846
300990.013918
300990.012974
300990.013052
300990.013135
300990.013214
300990.013301
300990.013377
300990.013478
300990.013558
300990.013645
300990.012648
300990.012732
300990.012815
300990.012909
300990.013007
300990.013085
300990.013173
300990.013264
300990.013327
300990.012315
300990.012420
300990.012496
300990.012594
300990.012684
300990.012774
300990.012862
300990.012946
300990.013033
300990.011980
300990.012075
300990.012166
300990.012278
300990.012363
300990.012456
300990.012558
300990.012633
300990.012727
300990.011639
300990.011738
300990.011839
300990.011929
300990.012036
300990.012114
300990.012226
300990.012319
300990.012409
300990.011292
300990.011396
300990.011497
300990.011588
300990.011688
300990.011791
300990.011889
300990.011986
300990.012088
300990.010935
300990.011042
300990.011147
300990.011246
300990.011339
300990.011454
300990.011549
300990.011647
300990.011755
300990.010573
300990.010684
300990.010791
300990.010888
300990.010996
300990.011112
300990.011196
300990.011315
300990.011417
300990.010205
300990.010311
300990.010428
300990.010534
300990.010641
300990.010745
300990.010847
300990.010969
300990.011077
300990.009835
300990.009944
300990.010051
300990.010167
300990.010273
300990.010390
300990.010494
300990.010624
300990.010709
300990.009438
300990.009558
300990.009667
300990.009789
300990.009901
300990.010006
300990.010126
300990.010242
300990.010355
300990.009049
300990.009176
300990.009287
300990.009396
300990.009527
300990.009649
300990.009763
300990.009869
300990.009980
300990.008646
300990.008773
300990.008895
300990.009033
300990.009134
300990.009255
300990.009381
300990.009496
300990.009609
300990.008260
300990.008379
300990.008503
300990.008636
300990.008741
300990.008874
300990.008990
300990.009118
300990.009237
300990.007852
300990.007984
300990.008092
300990.008230
300990.008354
300990.008480
300990.008602
300990.008722
300990.008850
300990.007439
300990.007562
300990.007696
300990.007831
300990.007951
300990.008093
300990.008211
300990.008338
300990.008460
300990.007026
300990.007159
300990.007295
300990.007417
300990.007547
300990.007684
300990.007811
300990.007942
300990.008079
300990.006605
300990.006742
300990.006871
300990.007016
300990.007150
300990.007290
300990.007405
300990.007541
300990.007677
300990.006176
300990.006314
300990.006459
300990.006593
300990.006722
300990.006863
300990.006991
300990.007143
300990.007271
300990.005737
300990.005894
300990.006023
300990.006164
300990.006318
300990.006440
300990.006573
300990.006730
300990.006859
300990.005318
300990.005449
300990.005593
300990.005748
300990.005882
300990.006014
300990.006164
300990.006305
300990.006446
300990.004882
300990.005008
300990.005169
300990.005310
300990.005447
300990.005602
300990.005733
300990.005882
300990.006032
300990.004432
300990.004584
300990.004727
300990.004868
300990.005024
300990.005173
300990.005313
300990.005454
300990.005600
300990.004000
300990.004151
300990.004293
300990.004437
300990.004580
300990.004734
300990.004882
300990.005033
300990.005191
300990.003553
300990.003694
300990.003846
300990.004008
300990.004157
300990.004304
300990.004460
300990.004601
300990.004757
300990.003097
300990.003260
300990.003405
300990.003564
300990.003707
300990.003856
300990.004014
300990.004164
300990.004312
300990.002646
300990.002792
300990.002954
300990.003116
300990.003275
300990.003429
300990.003572
300990.003732
300990.003883
300990.002185
300990.002343
300990.002498
300990.002661
300990.002822
300990.002975
300990.003130
300990.003287
300990.003440
300990.001724
300990.001891
300990.002042
300990.002208
300990.002365
300990.002529
300990.002681
300990.002841
300990.003017
300990.001268
300990.001430
300990.001599
300990.001766
300990.001917
300990.002087
300990.002238
300990.002396
300990.002573
300990.000798
300990.000967
300990.001144
300990.001308
300990.001464
300990.001636
300990.001785
300990.001959
300990.002118
300990.000342
300990.000506
300990.000687
300990.000845
300990.001004
300990.001180
300990.001342
300990.001508
300990.001661
300989.999889
300990.000057
300990.000219
300990.000381
300990.000562
300990.000729
300990.000894
300990.001051
300990.001208
300989.999414
300989.999588
300989.999753
300989.999926
300990.000095
300990.000264
300990.000432
300990.000596
300990.000774
300989.998943
300989.999115
300989.999286
300989.999464
300989.999633
300989.999807
300989.999972
300990.000146
300990.000311
300989.998478
300989.998667
300989.998826
300989.999006
300989.999171
300989.999345
300989.999518
300989.999687
300989.999867
300989.998011
300989.998187
300989.998357
300989.998535
300989.998703
300989.998893
300989.999058
300989.999239
300989.999395
300989.997535
300989.997719
300989.997898
300989.998072
300989.998250
300989.998429
300989.998596
300989.998772
300989.998942
300989.997067
300989.997245
300989.997427
300989.997608
300989.997783
300989.997957
300989.998150
300989.998327
300989.998487
300989.996603
300989.996783
300989.996965
300989.997134
300989.997314
300989.997509
300989.997683
300989.997870
300989.998039
300989.996126
300989.996316
300989.996496
300989.996673
300989.996866
300989.997037
300989.997231
300989.997400
300989.997569
300989.995671
300989.995849
300989.996024
300989.996218
300989.996403
300989.996577
300989.996759
300989.996946
300989.997124
300989.995193
300989.995362
300989.995570
300989.995745
300989.995927
300989.996115
300989.996306
300989.996482
300989.996671
300989.994739
300989.994918
300989.995099
300989.995283
300989.995469
300989.995662
300989.995827
300989.996018
300989.996200
300989.994250
300989.994447
300989.994622
300989.994822
300989.994999
300989.995184
300989.995377
300989.995562
300989.995740
300989.993791
300989.993975
300989.994150
300989.994356
300989.994540
300989.994728
300989.994920
300989.995110
300989.995290
300989.993320
300989.993520
300989.993699
300989.993893
300989.994089
300989.994273
300989.994469
300989.994646
300989.994823
300989.992863
300989.993047
300989.993232
300989.993430
300989.993615
300989.993795
300989.994006
300989.994194
300989.994374
300989.992394
300989.992587
300989.992780
300989.992962
300989.993154
300989.993352
300989.993539
300989.993732
300989.993928
300989.991931
300989.992129
300989.992314
300989.992508
300989.992705
300989.992893
300989.993077
300989.993285
300989.993464
300989.991465
300989.991655
300989.991854
300989.992045
300989.992234
300989.992441
300989.992632
300989.992820
300989.993021
300989.991004
300989.991206
300989.991391
300989.991592
300989.991776
300989.991982
300989.992170
300989.992368
300989.992554
300989.990557
300989.990755
300989.990932
300989.991138
300989.991324
300989.991533
300989.991720
300989.991919
300989.992110
300989.990091
300989.990282
300989.990479
300989.990687
300989.990873
300989.991077
300989.991265
300989.991455
300989.991645
SCALARS stress_3 float
LOOKUP_TABLE default
0.000237
-0.004099
-0.004026
-0.003955
-0.003901
-0.003837
-0.003761
-0.003706
-0.003641
-0.003573
-0.003503
-0.003430
-0.003380
-0.003308
-0.003243
-0.003169
-0.003095
-0.003029
-0.002970
-0.002913
-0.002830
-0.002755
-0.002683
-0.002623
-0.002563
-0.002480
-0.002422
-0.002345
-0.002280
-0.002212
-0.002138
-0.002087
-0.002013
-0.001944
-0.001869
-0.001803
-0.001745
-0.001668
-0.001611
-0.001541
-0.001490
-0.001419
-0.001348
-0.001286
-0.001242
-0.001180
-0.001103
-0.001040
-0.000987
-0.000934
-0.000883
-0.000829
-0.000774
-0.000708
-0.000654
-0.000608
-0.000568
-0.000517
-0.000464
-0.000415
-0.000385
-0.000334
-0.000286
-0.000246
-0.000216
-0.000168
-0.000137
-0.000090
-0.000061
-0.000018
-0.000003
0.000033
0.000049
0.000093
0.000105
0.000126
0.000152
0.000174
0.000175
0.000205
0.000213
-0.003759
-0.000064
-0.000083
-0.000098
-0.000111
-0.000141
-0.000152
-0.000182
-0.000201
-0.000233
-0.000258
-0.000272
-0.000310
-0.000347
-0.000359
-0.000407
-0.000441
-0.000463
-0.000491
-0.000521
-0.000569
-0.000601
-0.000638
-0.000678
-0.000722
-0.000765
-0.000797
-0.000848
-0.000878
-0.000928
-0.000966
-0.001016
-0.001060
-0.001122
-0.001155
-0.001214
-0.001260
-0.001300
-0.001353
-0.001407
-0.001457
-0.001509
-0.001565
-0.001617
-0.001681
-0.001734
-0.001765
-0.001845
-0.001876
-0.001955
-0.001989
-0.002062
-0.002116
-0.002160
-0.002222
-0.002275
-0.002336
-0.002404
-0.002450
-0.002509
-0.002570
-0.002623
-0.002679
-0.002747
-0.002796
-0.002864
-0.002915
-0.002970
-0.003022
-0.003084
-0.003137
-0.003198
-0.003264
-0.003309
-0.003363
-0.003429
-0.003485
-0.003542
-0.003596
-0.003649
-0.003712
-0.003797
-0.003823
-0.003870
-0.003891
-0.003917
-0.003953
-0.003991
-0.004015
-0.004060
0.000207
0.000178
0.000158
0.000132
0.000093
0.000066
0.000028
-0.000006
-0.000043
-0.000053
-0.000015
0.000013
0.000042
0.000070
0.000105
0.000144
0.000166
0.000196
-0.000076
-0.000032
0.000008
0.000031
0.000042
0.000078
0.000120
0.000134
0.000178
-0.000090
-0.000064
-0.000031
0.000009
0.000050
0.000079
0.000100
0.000124
0.000165
-0.000102
-0.000081
-0.000056
-0.000016
0.000015
0.000039
0.000083
0.000116
0.000144
-0.000129
-0.000096
-0.000068
-0.000043
-0.000000
0.000015
0.000060
0.000103
0.000120
-0.000155
-0.000111
-0.000086
-0.000057
-0.000027
0.000012
0.000041
0.000067
0.000102
-0.000175
-0.000141
-0.000110
-0.000081
-0.000043
-0.000013
0.000017
0.000039
0.000080
-0.000196
-0.000167
-0.000123
-0.000099
-0.000072
-0.000049
0.000005
0.000019
0.000045
-0.000226
-0.000199
-0.000154
-0.000124
-0.000108
-0.000069
-0.000029
-0.000003
0.000027
-0.000250
-0.000218
-0.000181
-0.000152
-0.000139
-0.000089
-0.000059
-0.000027
0.000000
-0.000276
-0.000253
-0.000221
-0.000199
-0.000153
-0.000121
-0.000084
-0.000058
-0.000027
-0.000306
-0.000276
-0.000239
-0.000203
-0.000181
-0.000156
-0.000129
-0.000088
-0.000069
-0.000348
-0.000310
-0.000273
-0.000235
-0.000215
-0.000182
-0.000149
-0.000128
-0.000095
-0.000371
-0.000335
-0.000312
-0.000279
-0.000238
-0.000213
-0.000174
-0.000164
-0.000135
-0.000400
-0.000365
-0.000353
-0.000311
-0.000275
-0.000233
-0.000222
-0.000176
-0.000167
-0.000436
-0.000403
-0.000376
-0.000356
-0.000320
-0.000287
-0.000253
-0.000234
-0.000203
-0.000469
-0.000428
-0.000411
-0.000387
-0.000352
-0.000317
-0.000295
-0.000254
-0.000229
-0.000506
-0.000468
-0.000445
-0.000425
-0.000398
-0.000346
-0.000338
-0.000297
-0.000278
-0.000551
-0.000509
-0.000485
-0.000453
-0.000414
-0.000391
-0.000370
-0.000344
-0.000303
-0.000579
-0.000553
-0.000517
-0.000491
-0.000470
-0.000440
-0.000397
-0.000379
-0.000352
-0.000605
-0.000584
-0.000561
-0.000522
-0.000508
-0.000480
-0.000449
-0.000423
-0.000395
-0.000654
-0.000637
-0.000603
-0.000568
-0.000533
-0.000512
-0.000497
-0.000469
-0.000436
-0.000694
-0.000669
-0.000640
-0.000620
-0.000585
-0.000560
-0.000550
-0.000512
-0.000485
-0.000733
-0.000710
-0.000680
-0.000648
-0.000639
-0.000617
-0.000578
-0.000551
-0.000542
-0.000772
-0.000745
-0.000715
-0.000707
-0.000668
-0.000660
-0.000627
-0.000607
-0.000582
-0.000820
-0.000804
-0.000782
-0.000736
-0.000729
-0.000710
-0.000690
-0.000652
-0.000636
-0.000861
-0.000838
-0.000823
-0.000798
-0.000770
-0.000743
-0.000736
-0.000707
-0.000679
-0.000917
-0.000885
-0.000861
-0.000835
-0.000824
-0.000795
-0.000775
-0.000756
-0.000739
-0.000960
-0.000935
-0.000912
-0.000883
-0.000871
-0.000855
-0.000833
-0.000807
-0.000777
-0.001004
-0.000973
-0.000953
-0.000933
-0.000920
-0.000897
-0.000886
-0.000851
-0.000837
-0.001041
-0.001029
-0.001010
-0.000998
-0.000967
-0.000958
-0.000937
-0.000908
-0.000893
-0.001086
-0.001061
-0.001066
-0.001038
-0.001030
-0.001003
-0.000983
-0.000969
-0.000952
-0.001141
-0.001124
-0.001102
-0.001091
-0.001075
-0.001055
-0.001032
-0.001025
-0.001013
-0.001197
-0.001181
-0.001166
-0.001138
-0.001123
-0.001106
-0.001093
-0.001089
-0.001072
-0.001248
-0.001221
-0.001212
-0.001202
-0.001181
-0.001169
-0.001152
-0.001140
-0.001124
-0.001305
-0.001280
-0.001270
-0.001254
-0.001240
-0.001222
-0.001210
-0.001188
-0.001168
-0.001341
-0.001330
-0.001316
-0.001302
-0.001291
-0.001291
-0.001264
-0.001264
-0.001249
-0.001391
-0.001386
-0.001370
-0.001361
-0.001335
-0.001336
-0.001328
-0.001312
-0.001312
-0.001457
-0.001433
-0.001425
-0.001425
-0.001378
-0.001396
-0.001384
-0.001378
-0.001362
-0.001503
-0.001483
-0.001479
-0.001463
-0.001465
-0.001456
-0.001446
-0.001429
-0.001419
-0.001547
-0.001549
-0.001538
-0.001529
-0.001524
-0.001514
-0.001508
-0.001493
-0.001499
-0.001601
-0.001605
-0.001593
-0.001591
-0.001580
-0.001574
-0.001562
-0.001548
-0.001541
-0.001656
-0.001655
-0.001662
-0.001648
-0.001653
-0.001628
-0.001621
-0.001619
-0.001604
-0.001717
-0.001719
-0.001696
-0.001708
-0.001692
-0.001693
-0.001685
-0.001686
-0.001676
-0.001767
-0.001771
-0.001765
-0.001764
-0.001763
-0.001756
-0.001758
-0.001743
-0.001733
-0.001832
-0.001828
-0.001810
-0.001818
-0.001809
-0.001807
-0.001813
-0.001813
-0.001809
-0.001892
-0.001884
-0.001880
-0.001878
-0.001872
-0.001874
-0.001875
-0.001878
-0.001874
-0.001944
-0.001933
-0.001944
-0.001942
-0.001930
-0.001938
-0.001928
-0.001940
-0.001929
-0.001993
-0.001999
-0.001999
-0.001992
-0.002004
-0.001992
-0.002012
-0.002005
-0.002015
-0.002057
-0.002060
-0.002064
-0.002060
-0.002065
-0.002072
-0.002074
-0.002067
-0.002067
-0.002122
-0.002112
-0.002122
-0.002110
-0.002120
-0.002113
-0.002136
-0.002140
-0.002151
-0.002168
-0.002172
-0.002182
-0.002185
-0.002193
-0.002199
-0.002195
-0.002197
-0.002208
-0.002230
-0.002234
-0.002240
-0.002241
-0.002249
-0.002257
-0.002260
-0.002279
-0.002276
-0.002285
-0.002298
-0.002297
-0.002317
-0.002316
-0.002325
-0.002318
-0.002341
-0.002343
-0.002346
-0.002354
-0.002368
-0.002374
-0.002379
-0.002383
-0.002381
-0.002403
-0.002406
-0.002410
-0.002421
-0.002440
-0.002426
-0.002444
-0.002452
-0.002457
-0.002475
-0.002466
-0.002462
-0.002477
-0.002481
-0.002482
-0.002505
-0.002507
-0.002522
-0.002535
-0.002545
-0.002515
-0.002535
-0.002541
-0.002550
-0.002573
-0.002582
-0.002599
-0.002596
-0.002617
-0.002586
-0.002589
-0.002602
-0.002610
-0.002620
-0.002646
-0.002661
-0.002657
-0.002670
-0.002645
-0.002657
-0.002668
-0.002677
-0.002692
-0.002704
-0.002711
-0.002742
-0.002743
-0.002689
-0.002720
-0.002729
-0.002739
-0.002768
-0.002776
-0.002779
-0.002788
-0.002815
-0.002748
-0.002776
-0.002787
-0.002795
-0.002809
-0.002833
-0.002842
-0.002861
-0.002875
-0.002819
-0.002825
-0.002852
-0.002866
-0.002887
-0.002903
-0.002915
-0.002928
-0.002946
-0.002878
-0.002894
-0.002902
-0.002932
-0.002943
-0.002952
-0.002985
-0.002996
-0.003019
-0.002928
-0.002947
-0.002972
-0.002986
-0.003000
-0.003026
-0.003052
-0.003061
-0.003088
-0.002985
-0.003011
-0.003044
-0.003059
-0.003070
-0.003088
-0.003111
-0.003135
-0.003159
-0.003041
-0.003074
-0.003092
-0.003112
-0.003139
-0.003150
-0.003173
-0.003192
-0.003214
-0.003102
-0.003131
-0.003150
-0.003177
-0.003188
-0.003216
-0.003242
-0.003259
-0.003272
-0.003173
-0.003185
-0.003216
-0.003241
-0.003260
-0.003270
-0.003312
-0.003334
-0.003348
-0.003222
-0.003254
-0.003266
-0.003299
-0.003315
-0.003347
-0.003362
-0.003385
-0.003419
-0.003293
-0.003312
-0.003337
-0.003369
-0.003386
-0.003403
-0.003438
-0.003441
-0.003482
-0.003343
-0.003373
-0.003398
-0.003428
-0.003450
-0.003474
-0.003498
-0.003515
-0.003549
-0.003403
-0.003424
-0.003444
-0.003474
-0.003500
-0.003532
-0.003571
-0.003584
-0.003624
-0.003463
-0.003488
-0.003506
-0.003540
-0.003568
-0.003594
-0.003620
-0.003652
-0.003669
-0.003508
-0.003539
-0.003568
-0.003605
-0.003618
-0.003655
-0.003675
-0.003701
-0.003737
-0.003565
-0.003595
-0.003619
-0.003648
-0.003681
-0.003730
-0.003742
-0.003784
-0.003817
-0.003622
-0.003659
-0.003690
-0.003720
-0.003750
-0.003769
-0.003810
-0.003843
-0.003863
-0.003691
-0.003713
-0.003740
-0.003779
-0.003812
-0.003842
-0.003883
-0.003906
-0.003947
-0.003737
-0.003770
-0.003808
-0.003829
-0.003866
-0.003895
-0.003928
-0.003965
-0.003991
