# vtk DataFile Version 2.0
Generated volume Mesh
ASCII
DATASET UNSTRUCTURED_GRID
POINTS 891 float
0.005000 0.100000 0.000000
0.005000 0.000000 0.000000
0.005000 0.001250 0.000000
0.005000 0.002500 0.000000
0.005000 0.003750 0.000000
0.005000 0.005000 0.000000
0.005000 0.006250 0.000000
0.005000 0.007500 0.000000
0.005000 0.008750 0.000000
0.005000 0.010000 0.000000
0.005000 0.011250 0.000000
0.005000 0.012500 0.000000
0.005000 0.013750 0.000000
0.005000 0.015000 0.000000
0.005000 0.016250 0.000000
0.005000 0.017500 0.000000
0.005000 0.018750 0.000000
0.005000 0.020000 0.000000
0.005000 0.021250 0.000000
0.005000 0.022500 0.000000
0.005000 0.023750 0.000000
0.005000 0.025000 0.000000
0.005000 0.026250 0.000000
0.005000 0.027500 0.000000
0.005000 0.028750 0.000000
0.005000 0.030000 0.000000
0.005000 0.031250 0.000000
0.005000 0.032500 0.000000
0.005000 0.033750 0.000000
0.005000 0.035000 0.000000
0.005000 0.036250 0.000000
0.005000 0.037500 0.000000
0.005000 0.038750 0.000000
0.005000 0.040000 0.000000
0.005000 0.041250 0.000000
0.005000 0.042500 0.000000
0.005000 0.043750 0.000000
0.005000 0.045000 0.000000
0.005000 0.046250 0.000000
0.005000 0.047500 0.000000
0.005000 0.048750 0.000000
0.005000 0.050000 0.000000
0.005000 0.051250 0.000000
0.005000 0.052500 0.000000
0.005000 0.053750 0.000000
0.005000 0.055000 0.000000
0.005000 0.056250 0.000000
0.005000 0.057500 0.000000
0.005000 0.058750 0.000000
0.005000 0.060000 0.000000
0.005000 0.061250 0.000000
0.005000 0.062500 0.000000
0.005000 0.063750 0.000000
0.005000 0.065000 0.000000
0.005000 0.066250 0.000000
0.005000 0.067500 0.000000
0.005000 0.068750 0.000000
0.005000 0.070000 0.000000
0.005000 0.071250 0.000000
0.005000 0.072500 0.000000
0.005000 0.073750 0.000000
0.005000 0.075000 0.000000
0.005000 0.076250 0.000000
0.005000 0.077500 0.000000
0.005000 0.078750 0.000000
0.005000 0.080000 0.000000
0.005000 0.081250 0.000000
0.005000 0.082500 0.000000
0.005000 0.083750 0.000000
0.005000 0.085000 0.000000
0.005000 0.086250 0.000000
0.005000 0.087500 0.000000
0.005000 0.088750 0.000000
0.005000 0.090000 0.000000
0.005000 0.091250 0.000000
0.005000 0.092500 0.000000
0.005000 0.093750 0.000000
0.005000 0.095000 0.000000
0.005000 0.096250 0.000000
0.005000 0.097500 0.000000
0.005000 0.098750 0.000000
0.000000 0.000000 0.000000
0.000000 0.100000 0.000000
0.000000 0.098750 0.000000
0.000000 0.097500 0.000000
0.000000 0.096250 0.000000
0.000000 0.095000 0.000000
0.000000 0.093750 0.000000
0.000000 0.092500 0.000000
0.000000 0.091250 0.000000
0.000000 0.090000 0.000000
0.000000 0.088750 0.000000
0.000000 0.087500 0.000000
0.000000 0.086250 0.000000
0.000000 0.085000 0.000000
0.000000 0.083750 0.000000
0.000000 0.082500 0.000000
0.000000 0.081250 0.000000
0.000000 0.080000 0.000000
0.000000 0.078750 0.000000
0.000000 0.077500 0.000000
0.000000 0.076250 0.000000
0.000000 0.075000 0.000000
0.000000 0.073750 0.000000
0.000000 0.072500 0.000000
0.000000 0.071250 0.000000
0.000000 0.070000 0.000000
0.000000 0.068750 0.000000
0.000000 0.067500 0.000000
0.000000 0.066250 0.000000
0.000000 0.065000 0.000000
0.000000 0.063750 0.000000
0.000000 0.062500 0.000000
0.000000 0.061250 0.000000
0.000000 0.060000 0.000000
0.000000 0.058750 0.000000
0.000000 0.057500 0.000000
0.000000 0.056250 0.000000
0.000000 0.055000 0.000000
0.000000 0.053750 0.000000
0.000000 0.052500 0.000000
0.000000 0.051250 0.000000
0.000000 0.050000 0.000000
0.000000 0.048750 0.000000
0.000000 0.047500 0.000000
0.000000 0.046250 0.000000
0.000000 0.045000 0.000000
0.000000 0.043750 0.000000
0.000000 0.042500 0.000000
0.000000 0.041250 0.000000
0.000000 0.040000 0.000000
0.000000 0.038750 0.000000
0.000000 0.037500 0.000000
0.000000 0.036250 0.000000
0.000000 0.035000 0.000000
0.000000 0.033750 0.000000
0.000000 0.032500 0.000000
0.000000 0.031250 0.000000
0.000000 0.030000 0.000000
0.000000 0.028750 0.000000
0.000000 0.027500 0.000000
0.000000 0.026250 0.000000
0.000000 0.025000 0.000000
0.000000 0.023750 0.000000
0.000000 0.022500 0.000000
0.000000 0.021250 0.000000
0.000000 0.020000 0.000000
0.000000 0.018750 0.000000
0.000000 0.017500 0.000000
0.000000 0.016250 0.000000
0.000000 0.015000 0.000000
0.000000 0.013750 0.000000
0.000000 0.012500 0.000000
0.000000 0.011250 0.000000
0.000000 0.010000 0.000000
0.000000 0.008750 0.000000
0.000000 0.007500 0.000000
0.000000 0.006250 0.000000
0.000000 0.005000 0.000000
0.000000 0.003750 0.000000
0.000000 0.002500 0.000000
0.000000 0.001250 0.000000
0.000500 0.000000 0.000000
0.001000 0.000000 0.000000
0.001500 0.000000 0.000000
0.002000 0.000000 0.000000
0.002500 0.000000 0.000000
0.003000 0.000000 0.000000
0.003500 0.000000 0.000000
0.004000 0.000000 0.000000
0.004500 0.000000 0.000000
0.004500 0.100000 0.000000
0.004000 0.100000 0.000000
0.003500 0.100000 0.000000
0.003000 0.100000 0.000000
0.002500 0.100000 0.000000
0.002000 0.100000 0.000000
0.001500 0.100000 0.000000
0.001000 0.100000 0.000000
0.000500 0.100000 0.000000
0.000500 0.098750 0.000000
0.001000 0.098750 0.000000
0.001500 0.098750 0.000000
0.002000 0.098750 0.000000
0.002500 0.098750 0.000000
0.003000 0.098750 0.000000
0.003500 0.098750 0.000000
0.004000 0.098750 0.000000
0.004500 0.098750 0.000000
0.000500 0.097500 0.000000
0.001000 0.097500 0.000000
0.001500 0.097500 0.000000
0.002000 0.097500 0.000000
0.002500 0.097500 0.000000
0.003000 0.097500 0.000000
0.003500 0.097500 0.000000
0.004000 0.097500 0.000000
0.004500 0.097500 0.000000
0.000500 0.096250 0.000000
0.001000 0.096250 0.000000
0.001500 0.096250 0.000000
0.002000 0.096250 0.000000
0.002500 0.096250 0.000000
0.003000 0.096250 0.000000
0.003500 0.096250 0.000000
0.004000 0.096250 0.000000
0.004500 0.096250 0.000000
0.000500 0.095000 0.000000
0.001000 0.095000 0.000000
0.001500 0.095000 0.000000
0.002000 0.095000 0.000000
0.002500 0.095000 0.000000
0.003000 0.095000 0.000000
0.003500 0.095000 0.000000
0.004000 0.095000 0.000000
0.004500 0.095000 0.000000
0.000500 0.093750 0.000000
0.001000 0.093750 0.000000
0.001500 0.093750 0.000000
0.002000 0.093750 0.000000
0.002500 0.093750 0.000000
0.003000 0.093750 0.000000
0.003500 0.093750 0.000000
0.004000 0.093750 0.000000
0.004500 0.093750 0.000000
0.000500 0.092500 0.000000
0.001000 0.092500 0.000000
0.001500 0.092500 0.000000
0.002000 0.092500 0.000000
0.002500 0.092500 0.000000
0.003000 0.092500 0.000000
0.003500 0.092500 0.000000
0.004000 0.092500 0.000000
0.004500 0.092500 0.000000
0.000500 0.091250 0.000000
0.001000 0.091250 0.000000
0.001500 0.091250 0.000000
0.002000 0.091250 0.000000
0.002500 0.091250 0.000000
0.003000 0.091250 0.000000
0.003500 0.091250 0.000000
0.004000 0.091250 0.000000
0.004500 0.091250 0.000000
0.000500 0.090000 0.000000
0.001000 0.090000 0.000000
0.001500 0.090000 0.000000
0.002000 0.090000 0.000000
0.002500 0.090000 0.000000
0.003000 0.090000 0.000000
0.003500 0.090000 0.000000
0.004000 0.090000 0.000000
0.004500 0.090000 0.000000
0.000500 0.088750 0.000000
0.001000 0.088750 0.000000
0.001500 0.088750 0.000000
0.002000 0.088750 0.000000
0.002500 0.088750 0.000000
0.003000 0.088750 0.000000
0.003500 0.088750 0.000000
0.004000 0.088750 0.000000
0.004500 0.088750 0.000000
0.000500 0.087500 0.000000
0.001000 0.087500 0.000000
0.001500 0.087500 0.000000
0.002000 0.087500 0.000000
0.002500 0.087500 0.000000
0.003000 0.087500 0.000000
0.003500 0.087500 0.000000
0.004000 0.087500 0.000000
0.004500 0.087500 0.000000
0.000500 0.086250 0.000000
0.001000 0.086250 0.000000
0.001500 0.086250 0.000000
0.002000 0.086250 0.000000
0.002500 0.086250 0.000000
0.003000 0.086250 0.000000
0.003500 0.086250 0.000000
0.004000 0.086250 0.000000
0.004500 0.086250 0.000000
0.000500 0.085000 0.000000
0.001000 0.085000 0.000000
0.001500 0.085000 0.000000
0.002000 0.085000 0.000000
0.002500 0.085000 0.000000
0.003000 0.085000 0.000000
0.003500 0.085000 0.000000
0.004000 0.085000 0.000000
0.004500 0.085000 0.000000
0.000500 0.083750 0.000000
0.001000 0.083750 0.000000
0.001500 0.083750 0.000000
0.002000 0.083750 0.000000
0.002500 0.083750 0.000000
0.003000 0.083750 0.000000
0.003500 0.083750 0.000000
0.004000 0.083750 0.000000
0.004500 0.083750 0.000000
0.000500 0.082500 0.000000
0.001000 0.082500 0.000000
0.001500 0.082500 0.000000
0.002000 0.082500 0.000000
0.002500 0.082500 0.000000
0.003000 0.082500 0.000000
0.003500 0.082500 0.000000
0.004000 0.082500 0.000000
0.004500 0.082500 0.000000
0.000500 0.081250 0.000000
0.001000 0.081250 0.000000
0.001500 0.081250 0.000000
0.002000 0.081250 0.000000
0.002500 0.081250 0.000000
0.003000 0.081250 0.000000
0.003500 0.081250 0.000000
0.004000 0.081250 0.000000
0.004500 0.081250 0.000000
0.000500 0.080000 0.000000
0.001000 0.080000 0.000000
0.001500 0.080000 0.000000
0.002000 0.080000 0.000000
0.002500 0.080000 0.000000
0.003000 0.080000 0.000000
0.003500 0.080000 0.000000
0.004000 0.080000 0.000000
0.004500 0.080000 0.000000
0.000500 0.078750 0.000000
0.001000 0.078750 0.000000
0.001500 0.078750 0.000000
0.002000 0.078750 0.000000
0.002500 0.078750 0.000000
0.003000 0.078750 0.000000
0.003500 0.078750 0.000000
0.004000 0.078750 0.000000
0.004500 0.078750 0.000000
0.000500 0.077500 0.000000
0.001000 0.077500 0.000000
0.001500 0.077500 0.000000
0.002000 0.077500 0.000000
0.002500 0.077500 0.000000
0.003000 0.077500 0.000000
0.003500 0.077500 0.000000
0.004000 0.077500 0.000000
0.004500 0.077500 0.000000
0.000500 0.076250 0.000000
0.001000 0.076250 0.000000
0.001500 0.076250 0.000000
0.002000 0.076250 0.000000
0.002500 0.076250 0.000000
0.003000 0.076250 0.000000
0.003500 0.076250 0.000000
0.004000 0.076250 0.000000
0.004500 0.076250 0.000000
0.000500 0.075000 0.000000
0.001000 0.075000 0.000000
0.001500 0.075000 0.000000
0.002000 0.075000 0.000000
0.002500 0.075000 0.000000
0.003000 0.075000 0.000000
0.003500 0.075000 0.000000
0.004000 0.075000 0.000000
0.004500 0.075000 0.000000
0.000500 0.073750 0.000000
0.001000 0.073750 0.000000
0.001500 0.073750 0.000000
0.002000 0.073750 0.000000
0.002500 0.073750 0.000000
0.003000 0.073750 0.000000
0.003500 0.073750 0.000000
0.004000 0.073750 0.000000
0.004500 0.073750 0.000000
0.000500 0.072500 0.000000
0.001000 0.072500 0.000000
0.001500 0.072500 0.000000
0.002000 0.072500 0.000000
0.002500 0.072500 0.000000
0.003000 0.072500 0.000000
0.003500 0.072500 0.000000
0.004000 0.072500 0.000000
0.004500 0.072500 0.000000
0.000500 0.071250 0.000000
0.001000 0.071250 0.000000
0.001500 0.071250 0.000000
0.002000 0.071250 0.000000
0.002500 0.071250 0.000000
0.003000 0.071250 0.000000
0.003500 0.071250 0.000000
0.004000 0.071250 0.000000
0.004500 0.071250 0.000000
0.000500 0.070000 0.000000
0.001000 0.070000 0.000000
0.001500 0.070000 0.000000
0.002000 0.070000 0.000000
0.002500 0.070000 0.000000
0.003000 0.070000 0.000000
0.003500 0.070000 0.000000
0.004000 0.070000 0.000000
0.004500 0.070000 0.000000
0.000500 0.068750 0.000000
0.001000 0.068750 0.000000
0.001500 0.068750 0.000000
0.002000 0.068750 0.000000
0.002500 0.068750 0.000000
0.003000 0.068750 0.000000
0.003500 0.068750 0.000000
0.004000 0.068750 0.000000
0.004500 0.068750 0.000000
0.000500 0.067500 0.000000
0.001000 0.067500 0.000000
0.001500 0.067500 0.000000
0.002000 0.067500 0.000000
0.002500 0.067500 0.000000
0.003000 0.067500 0.000000
0.003500 0.067500 0.000000
0.004000 0.067500 0.000000
0.004500 0.067500 0.000000
0.000500 0.066250 0.000000
0.001000 0.066250 0.000000
0.001500 0.066250 0.000000
0.002000 0.066250 0.000000
0.002500 0.066250 0.000000
0.003000 0.066250 0.000000
0.003500 0.066250 0.000000
0.004000 0.066250 0.000000
0.004500 0.066250 0.000000
0.000500 0.065000 0.000000
0.001000 0.065000 0.000000
0.001500 0.065000 0.000000
0.002000 0.065000 0.000000
0.002500 0.065000 0.000000
0.003000 0.065000 0.000000
0.003500 0.065000 0.000000
0.004000 0.065000 0.000000
0.004500 0.065000 0.000000
0.000500 0.063750 0.000000
0.001000 0.063750 0.000000
0.001500 0.063750 0.000000
0.002000 0.063750 0.000000
0.002500 0.063750 0.000000
0.003000 0.063750 0.000000
0.003500 0.063750 0.000000
0.004000 0.063750 0.000000
0.004500 0.063750 0.000000
0.000500 0.062500 0.000000
0.001000 0.062500 0.000000
0.001500 0.062500 0.000000
0.002000 0.062500 0.000000
0.002500 0.062500 0.000000
0.003000 0.062500 0.000000
0.003500 0.062500 0.000000
0.004000 0.062500 0.000000
0.004500 0.062500 0.000000
0.000500 0.061250 0.000000
0.001000 0.061250 0.000000
0.001500 0.061250 0.000000
0.002000 0.061250 0.000000
0.002500 0.061250 0.000000
0.003000 0.061250 0.000000
0.003500 0.061250 0.000000
0.004000 0.061250 0.000000
0.004500 0.061250 0.000000
0.000500 0.060000 0.000000
0.001000 0.060000 0.000000
0.001500 0.060000 0.000000
0.002000 0.060000 0.000000
0.002500 0.060000 0.000000
0.003000 0.060000 0.000000
0.003500 0.060000 0.000000
0.004000 0.060000 0.000000
0.004500 0.060000 0.000000
0.000500 0.058750 0.000000
0.001000 0.058750 0.000000
0.001500 0.058750 0.000000
0.002000 0.058750 0.000000
0.002500 0.058750 0.000000
0.003000 0.058750 0.000000
0.003500 0.058750 0.000000
0.004000 0.058750 0.000000
0.004500 0.058750 0.000000
0.000500 0.057500 0.000000
0.001000 0.057500 0.000000
0.001500 0.057500 0.000000
0.002000 0.057500 0.000000
0.002500 0.057500 0.000000
0.003000 0.057500 0.000000
0.003500 0.057500 0.000000
0.004000 0.057500 0.000000
0.004500 0.057500 0.000000
0.000500 0.056250 0.000000
0.001000 0.056250 0.000000
0.001500 0.056250 0.000000
0.002000 0.056250 0.000000
0.002500 0.056250 0.000000
0.003000 0.056250 0.000000
0.003500 0.056250 0.000000
0.004000 0.056250 0.000000
0.004500 0.056250 0.000000
0.000500 0.055000 0.000000
0.001000 0.055000 0.000000
0.001500 0.055000 0.000000
0.002000 0.055000 0.000000
0.002500 0.055000 0.000000
0.003000 0.055000 0.000000
0.003500 0.055000 0.000000
0.004000 0.055000 0.000000
0.004500 0.055000 0.000000
0.000500 0.053750 0.000000
0.001000 0.053750 0.000000
0.001500 0.053750 0.000000
0.002000 0.053750 0.000000
0.002500 0.053750 0.000000
0.003000 0.053750 0.000000
0.003500 0.053750 0.000000
0.004000 0.053750 0.000000
0.004500 0.053750 0.000000
0.000500 0.052500 0.000000
0.001000 0.052500 0.000000
0.001500 0.052500 0.000000
0.002000 0.052500 0.000000
0.002500 0.052500 0.000000
0.003000 0.052500 0.000000
0.003500 0.052500 0.000000
0.004000 0.052500 0.000000
0.004500 0.052500 0.000000
0.000500 0.051250 0.000000
0.001000 0.051250 0.000000
0.001500 0.051250 0.000000
0.002000 0.051250 0.000000
0.002500 0.051250 0.000000
0.003000 0.051250 0.000000
0.003500 0.051250 0.000000
0.004000 0.051250 0.000000
0.004500 0.051250 0.000000
0.000500 0.050000 0.000000
0.001000 0.050000 0.000000
0.001500 0.050000 0.000000
0.002000 0.050000 0.000000
0.002500 0.050000 0.000000
0.003000 0.050000 0.000000
0.003500 0.050000 0.000000
0.004000 0.050000 0.000000
0.004500 0.050000 0.000000
0.000500 0.048750 0.000000
0.001000 0.048750 0.000000
0.001500 0.048750 0.000000
0.002000 0.048750 0.000000
0.002500 0.048750 0.000000
0.003000 0.048750 0.000000
0.003500 0.048750 0.000000
0.004000 0.048750 0.000000
0.004500 0.048750 0.000000
0.000500 0.047500 0.000000
0.001000 0.047500 0.000000
0.001500 0.047500 0.000000
0.002000 0.047500 0.000000
0.002500 0.047500 0.000000
0.003000 0.047500 0.000000
0.003500 0.047500 0.000000
0.004000 0.047500 0.000000
0.004500 0.047500 0.000000
0.000500 0.046250 0.000000
0.001000 0.046250 0.000000
0.001500 0.046250 0.000000
0.002000 0.046250 0.000000
0.002500 0.046250 0.000000
0.003000 0.046250 0.000000
0.003500 0.046250 0.000000
0.004000 0.046250 0.000000
0.004500 0.046250 0.000000
0.000500 0.045000 0.000000
0.001000 0.045000 0.000000
0.001500 0.045000 0.000000
0.002000 0.045000 0.000000
0.002500 0.045000 0.000000
0.003000 0.045000 0.000000
0.003500 0.045000 0.000000
0.004000 0.045000 0.000000
0.004500 0.045000 0.000000
0.000500 0.043750 0.000000
0.001000 0.043750 0.000000
0.001500 0.043750 0.000000
0.002000 0.043750 0.000000
0.002500 0.043750 0.000000
0.003000 0.043750 0.000000
0.003500 0.043750 0.000000
0.004000 0.043750 0.000000
0.004500 0.043750 0.000000
0.000500 0.042500 0.000000
0.001000 0.042500 0.000000
0.001500 0.042500 0.000000
0.002000 0.042500 0.000000
0.002500 0.042500 0.000000
0.003000 0.042500 0.000000
0.003500 0.042500 0.000000
0.004000 0.042500 0.000000
0.004500 0.042500 0.000000
0.000500 0.041250 0.000000
0.001000 0.041250 0.000000
0.001500 0.041250 0.000000
0.002000 0.041250 0.000000
0.002500 0.041250 0.000000
0.003000 0.041250 0.000000
0.003500 0.041250 0.000000
0.004000 0.041250 0.000000
0.004500 0.041250 0.000000
0.000500 0.040000 0.000000
0.001000 0.040000 0.000000
0.001500 0.040000 0.000000
0.002000 0.040000 0.000000
0.002500 0.040000 0.000000
0.003000 0.040000 0.000000
0.003500 0.040000 0.000000
0.004000 0.040000 0.000000
0.004500 0.040000 0.000000
0.000500 0.038750 0.000000
0.001000 0.038750 0.000000
0.001500 0.038750 0.000000
0.002000 0.038750 0.000000
0.002500 0.038750 0.000000
0.003000 0.038750 0.000000
0.003500 0.038750 0.000000
0.004000 0.038750 0.000000
0.004500 0.038750 0.000000
0.000500 0.037500 0.000000
0.001000 0.037500 0.000000
0.001500 0.037500 0.000000
0.002000 0.037500 0.000000
0.002500 0.037500 0.000000
0.003000 0.037500 0.000000
0.003500 0.037500 0.000000
0.004000 0.037500 0.000000
0.004500 0.037500 0.000000
0.000500 0.036250 0.000000
0.001000 0.036250 0.000000
0.001500 0.036250 0.000000
0.002000 0.036250 0.000000
0.002500 0.036250 0.000000
0.003000 0.036250 0.000000
0.003500 0.036250 0.000000
0.004000 0.036250 0.000000
0.004500 0.036250 0.000000
0.000500 0.035000 0.000000
0.001000 0.035000 0.000000
0.001500 0.035000 0.000000
0.002000 0.035000 0.000000
0.002500 0.035000 0.000000
0.003000 0.035000 0.000000
0.003500 0.035000 0.000000
0.004000 0.035000 0.000000
0.004500 0.035000 0.000000
0.000500 0.033750 0.000000
0.001000 0.033750 0.000000
0.001500 0.033750 0.000000
0.002000 0.033750 0.000000
0.002500 0.033750 0.000000
0.003000 0.033750 0.000000
0.003500 0.033750 0.000000
0.004000 0.033750 0.000000
0.004500 0.033750 0.000000
0.000500 0.032500 0.000000
0.001000 0.032500 0.000000
0.001500 0.032500 0.000000
0.002000 0.032500 0.000000
0.002500 0.032500 0.000000
0.003000 0.032500 0.000000
0.003500 0.032500 0.000000
0.004000 0.032500 0.000000
0.004500 0.032500 0.000000
0.000500 0.031250 0.000000
0.001000 0.031250 0.000000
0.001500 0.031250 0.000000
0.002000 0.031250 0.000000
0.002500 0.031250 0.000000
0.003000 0.031250 0.000000
0.003500 0.031250 0.000000
0.004000 0.031250 0.000000
0.004500 0.031250 0.000000
0.000500 0.030000 0.000000
0.001000 0.030000 0.000000
0.001500 0.030000 0.000000
0.002000 0.030000 0.000000
0.002500 0.030000 0.000000
0.003000 0.030000 0.000000
0.003500 0.030000 0.000000
0.004000 0.030000 0.000000
0.004500 0.030000 0.000000
0.000500 0.028750 0.000000
0.001000 0.028750 0.000000
0.001500 0.028750 0.000000
0.002000 0.028750 0.000000
0.002500 0.028750 0.000000
0.003000 0.028750 0.000000
0.003500 0.028750 0.000000
0.004000 0.028750 0.000000
0.004500 0.028750 0.000000
0.000500 0.027500 0.000000
0.001000 0.027500 0.000000
0.001500 0.027500 0.000000
0.002000 0.027500 0.000000
0.002500 0.027500 0.000000
0.003000 0.027500 0.000000
0.003500 0.027500 0.000000
0.004000 0.027500 0.000000
0.004500 0.027500 0.000000
0.000500 0.026250 0.000000
0.001000 0.026250 0.000000
0.001500 0.026250 0.000000
0.002000 0.026250 0.000000
0.002500 0.026250 0.000000
0.003000 0.026250 0.000000
0.003500 0.026250 0.000000
0.004000 0.026250 0.000000
0.004500 0.026250 0.000000
0.000500 0.025000 0.000000
0.001000 0.025000 0.000000
0.001500 0.025000 0.000000
0.002000 0.025000 0.000000
0.002500 0.025000 0.000000
0.003000 0.025000 0.000000
0.003500 0.025000 0.000000
0.004000 0.025000 0.000000
0.004500 0.025000 0.000000
0.000500 0.023750 0.000000
0.001000 0.023750 0.000000
0.001500 0.023750 0.000000
0.002000 0.023750 0.000000
0.002500 0.023750 0.000000
0.003000 0.023750 0.000000
0.003500 0.023750 0.000000
0.004000 0.023750 0.000000
0.004500 0.023750 0.000000
0.000500 0.022500 0.000000
0.001000 0.022500 0.000000
0.001500 0.022500 0.000000
0.002000 0.022500 0.000000
0.002500 0.022500 0.000000
0.003000 0.022500 0.000000
0.003500 0.022500 0.000000
0.004000 0.022500 0.000000
0.004500 0.022500 0.000000
0.000500 0.021250 0.000000
0.001000 0.021250 0.000000
0.001500 0.021250 0.000000
0.002000 0.021250 0.000000
0.002500 0.021250 0.000000
0.003000 0.021250 0.000000
0.003500 0.021250 0.000000
0.004000 0.021250 0.000000
0.004500 0.021250 0.000000
0.000500 0.020000 0.000000
0.001000 0.020000 0.000000
0.001500 0.020000 0.000000
0.002000 0.020000 0.000000
0.002500 0.020000 0.000000
0.003000 0.020000 0.000000
0.003500 0.020000 0.000000
0.004000 0.020000 0.000000
0.004500 0.020000 0.000000
0.000500 0.018750 0.000000
0.001000 0.018750 0.000000
0.001500 0.018750 0.000000
0.002000 0.018750 0.000000
0.002500 0.018750 0.000000
0.003000 0.018750 0.000000
0.003500 0.018750 0.000000
0.004000 0.018750 0.000000
0.004500 0.018750 0.000000
0.000500 0.017500 0.000000
0.001000 0.017500 0.000000
0.001500 0.017500 0.000000
0.002000 0.017500 0.000000
0.002500 0.017500 0.000000
0.003000 0.017500 0.000000
0.003500 0.017500 0.000000
0.004000 0.017500 0.000000
0.004500 0.017500 0.000000
0.000500 0.016250 0.000000
0.001000 0.016250 0.000000
0.001500 0.016250 0.000000
0.002000 0.016250 0.000000
0.002500 0.016250 0.000000
0.003000 0.016250 0.000000
0.003500 0.016250 0.000000
0.004000 0.016250 0.000000
0.004500 0.016250 0.000000
0.000500 0.015000 0.000000
0.001000 0.015000 0.000000
0.001500 0.015000 0.000000
0.002000 0.015000 0.000000
0.002500 0.015000 0.000000
0.003000 0.015000 0.000000
0.003500 0.015000 0.000000
0.004000 0.015000 0.000000
0.004500 0.015000 0.000000
0.000500 0.013750 0.000000
0.001000 0.013750 0.000000
0.001500 0.013750 0.000000
0.002000 0.013750 0.000000
0.002500 0.013750 0.000000
0.003000 0.013750 0.000000
0.003500 0.013750 0.000000
0.004000 0.013750 0.000000
0.004500 0.013750 0.000000
0.000500 0.012500 0.000000
0.001000 0.012500 0.000000
0.001500 0.012500 0.000000
0.002000 0.012500 0.000000
0.002500 0.012500 0.000000
0.003000 0.012500 0.000000
0.003500 0.012500 0.000000
0.004000 0.012500 0.000000
0.004500 0.012500 0.000000
0.000500 0.011250 0.000000
0.001000 0.011250 0.000000
0.001500 0.011250 0.000000
0.002000 0.011250 0.000000
0.002500 0.011250 0.000000
0.003000 0.011250 0.000000
0.003500 0.011250 0.000000
0.004000 0.011250 0.000000
0.004500 0.011250 0.000000
0.000500 0.010000 0.000000
0.001000 0.010000 0.000000
0.001500 0.010000 0.000000
0.002000 0.010000 0.000000
0.002500 0.010000 0.000000
0.003000 0.010000 0.000000
0.003500 0.010000 0.000000
0.004000 0.010000 0.000000
0.004500 0.010000 0.000000
0.000500 0.008750 0.000000
0.001000 0.008750 0.000000
0.001500 0.008750 0.000000
0.002000 0.008750 0.000000
0.002500 0.008750 0.000000
0.003000 0.008750 0.000000
0.003500 0.008750 0.000000
0.004000 0.008750 0.000000
0.004500 0.008750 0.000000
0.000500 0.007500 0.000000
0.001000 0.007500 0.000000
0.001500 0.007500 0.000000
0.002000 0.007500 0.000000
0.002500 0.007500 0.000000
0.003000 0.007500 0.000000
0.003500 0.007500 0.000000
0.004000 0.007500 0.000000
0.004500 0.007500 0.000000
0.000500 0.006250 0.000000
0.001000 0.006250 0.000000
0.001500 0.006250 0.000000
0.002000 0.006250 0.000000
0.002500 0.006250 0.000000
0.003000 0.006250 0.000000
0.003500 0.006250 0.000000
0.004000 0.006250 0.000000
0.004500 0.006250 0.000000
0.000500 0.005000 0.000000
0.001000 0.005000 0.000000
0.001500 0.005000 0.000000
0.002000 0.005000 0.000000
0.002500 0.005000 0.000000
0.003000 0.005000 0.000000
0.003500 0.005000 0.000000
0.004000 0.005000 0.000000
0.004500 0.005000 0.000000
0.000500 0.003750 0.000000
0.001000 0.003750 0.000000
0.001500 0.003750 0.000000
0.002000 0.003750 0.000000
0.002500 0.003750 0.000000
0.003000 0.003750 0.000000
0.003500 0.003750 0.000000
0.004000 0.003750 0.000000
0.004500 0.003750 0.000000
0.000500 0.002500 0.000000
0.001000 0.002500 0.000000
0.001500 0.002500 0.000000
0.002000 0.002500 0.000000
0.002500 0.002500 0.000000
0.003000 0.002500 0.000000
0.003500 0.002500 0.000000
0.004000 0.002500 0.000000
0.004500 0.002500 0.000000
0.000500 0.001250 0.000000
0.001000 0.001250 0.000000
0.001500 0.001250 0.000000
0.002000 0.001250 0.000000
0.002500 0.001250 0.000000
0.003000 0.001250 0.000000
0.003500 0.001250 0.000000
0.004000 0.001250 0.000000
0.004500 0.001250 0.000000
CELLS 800 4000
4 82 83 180 179
4 179 180 181 178
4 178 181 182 177
4 177 182 183 176
4 176 183 184 175
4 175 184 185 174
4 174 185 186 173
4 173 186 187 172
4 172 187 188 171
4 171 188 80 0
4 83 84 189 180
4 180 189 190 181
4 181 190 191 182
4 182 191 192 183
4 183 192 193 184
4 184 193 194 185
4 185 194 195 186
4 186 195 196 187
4 187 196 197 188
4 188 197 79 80
4 84 85 198 189
4 189 198 199 190
4 190 199 200 191
4 191 200 201 192
4 192 201 202 193
4 193 202 203 194
4 194 203 204 195
4 195 204 205 196
4 196 205 206 197
4 197 206 78 79
4 85 86 207 198
4 198 207 208 199
4 199 208 209 200
4 200 209 210 201
4 201 210 211 202
4 202 211 212 203
4 203 212 213 204
4 204 213 214 205
4 205 214 215 206
4 206 215 77 78
4 86 87 216 207
4 207 216 217 208
4 208 217 218 209
4 209 218 219 210
4 210 219 220 211
4 211 220 221 212
4 212 221 222 213
4 213 222 223 214
4 214 223 224 215
4 215 224 76 77
4 87 88 225 216
4 216 225 226 217
4 217 226 227 218
4 218 227 228 219
4 219 228 229 220
4 220 229 230 221
4 221 230 231 222
4 222 231 232 223
4 223 232 233 224
4 224 233 75 76
4 88 89 234 225
4 225 234 235 226
4 226 235 236 227
4 227 236 237 228
4 228 237 238 229
4 229 238 239 230
4 230 239 240 231
4 231 240 241 232
4 232 241 242 233
4 233 242 74 75
4 89 90 243 234
4 234 243 244 235
4 235 244 245 236
4 236 245 246 237
4 237 246 247 238
4 238 247 248 239
4 239 248 249 240
4 240 249 250 241
4 241 250 251 242
4 242 251 73 74
4 90 91 252 243
4 243 252 253 244
4 244 253 254 245
4 245 254 255 246
4 246 255 256 247
4 247 256 257 248
4 248 257 258 249
4 249 258 259 250
4 250 259 260 251
4 251 260 72 73
4 91 92 261 252
4 252 261 262 253
4 253 262 263 254
4 254 263 264 255
4 255 264 265 256
4 256 265 266 257
4 257 266 267 258
4 258 267 268 259
4 259 268 269 260
4 260 269 71 72
4 92 93 270 261
4 261 270 271 262
4 262 271 272 263
4 263 272 273 264
4 264 273 274 265
4 265 274 275 266
4 266 275 276 267
4 267 276 277 268
4 268 277 278 269
4 269 278 70 71
4 93 94 279 270
4 270 279 280 271
4 271 280 281 272
4 272 281 282 273
4 273 282 283 274
4 274 283 284 275
4 275 284 285 276
4 276 285 286 277
4 277 286 287 278
4 278 287 69 70
4 94 95 288 279
4 279 288 289 280
4 280 289 290 281
4 281 290 291 282
4 282 291 292 283
4 283 292 293 284
4 284 293 294 285
4 285 294 295 286
4 286 295 296 287
4 287 296 68 69
4 95 96 297 288
4 288 297 298 289
4 289 298 299 290
4 290 299 300 291
4 291 300 301 292
4 292 301 302 293
4 293 302 303 294
4 294 303 304 295
4 295 304 305 296
4 296 305 67 68
4 96 97 306 297
4 297 306 307 298
4 298 307 308 299
4 299 308 309 300
4 300 309 310 301
4 301 310 311 302
4 302 311 312 303
4 303 312 313 304
4 304 313 314 305
4 305 314 66 67
4 97 98 315 306
4 306 315 316 307
4 307 316 317 308
4 308 317 318 309
4 309 318 319 310
4 310 319 320 311
4 311 320 321 312
4 312 321 322 313
4 313 322 323 314
4 314 323 65 66
4 98 99 324 315
4 315 324 325 316
4 316 325 326 317
4 317 326 327 318
4 318 327 328 319
4 319 328 329 320
4 320 329 330 321
4 321 330 331 322
4 322 331 332 323
4 323 332 64 65
4 99 100 333 324
4 324 333 334 325
4 325 334 335 326
4 326 335 336 327
4 327 336 337 328
4 328 337 338 329
4 329 338 339 330
4 330 339 340 331
4 331 340 341 332
4 332 341 63 64
4 100 101 342 333
4 333 342 343 334
4 334 343 344 335
4 335 344 345 336
4 336 345 346 337
4 337 346 347 338
4 338 347 348 339
4 339 348 349 340
4 340 349 350 341
4 341 350 62 63
4 101 102 351 342
4 342 351 352 343
4 343 352 353 344
4 344 353 354 345
4 345 354 355 346
4 346 355 356 347
4 347 356 357 348
4 348 357 358 349
4 349 358 359 350
4 350 359 61 62
4 102 103 360 351
4 351 360 361 352
4 352 361 362 353
4 353 362 363 354
4 354 363 364 355
4 355 364 365 356
4 356 365 366 357
4 357 366 367 358
4 358 367 368 359
4 359 368 60 61
4 103 104 369 360
4 360 369 370 361
4 361 370 371 362
4 362 371 372 363
4 363 372 373 364
4 364 373 374 365
4 365 374 375 366
4 366 375 376 367
4 367 376 377 368
4 368 377 59 60
4 104 105 378 369
4 369 378 379 370
4 370 379 380 371
4 371 380 381 372
4 372 381 382 373
4 373 382 383 374
4 374 383 384 375
4 375 384 385 376
4 376 385 386 377
4 377 386 58 59
4 105 106 387 378
4 378 387 388 379
4 379 388 389 380
4 380 389 390 381
4 381 390 391 382
4 382 391 392 383
4 383 392 393 384
4 384 393 394 385
4 385 394 395 386
4 386 395 57 58
4 106 107 396 387
4 387 396 397 388
4 388 397 398 389
4 389 398 399 390
4 390 399 400 391
4 391 400 401 392
4 392 401 402 393
4 393 402 403 394
4 394 403 404 395
4 395 404 56 57
4 107 108 405 396
4 396 405 406 397
4 397 406 407 398
4 398 407 408 399
4 399 408 409 400
4 400 409 410 401
4 401 410 411 402
4 402 411 412 403
4 403 412 413 404
4 404 413 55 56
4 108 109 414 405
4 405 414 415 406
4 406 415 416 407
4 407 416 417 408
4 408 417 418 409
4 409 418 419 410
4 410 419 420 411
4 411 420 421 412
4 412 421 422 413
4 413 422 54 55
4 109 110 423 414
4 414 423 424 415
4 415 424 425 416
4 416 425 426 417
4 417 426 427 418
4 418 427 428 419
4 419 428 429 420
4 420 429 430 421
4 421 430 431 422
4 422 431 53 54
4 110 111 432 423
4 423 432 433 424
4 424 433 434 425
4 425 434 435 426
4 426 435 436 427
4 427 436 437 428
4 428 437 438 429
4 429 438 439 430
4 430 439 440 431
4 431 440 52 53
4 111 112 441 432
4 432 441 442 433
4 433 442 443 434
4 434 443 444 435
4 435 444 445 436
4 436 445 446 437
4 437 446 447 438
4 438 447 448 439
4 439 448 449 440
4 440 449 51 52
4 112 113 450 441
4 441 450 451 442
4 442 451 452 443
4 443 452 453 444
4 444 453 454 445
4 445 454 455 446
4 446 455 456 447
4 447 456 457 448
4 448 457 458 449
4 449 458 50 51
4 113 114 459 450
4 450 459 460 451
4 451 460 461 452
4 452 461 462 453
4 453 462 463 454
4 454 463 464 455
4 455 464 465 456
4 456 465 466 457
4 457 466 467 458
4 458 467 49 50
4 114 115 468 459
4 459 468 469 460
4 460 469 470 461
4 461 470 471 462
4 462 471 472 463
4 463 472 473 464
4 464 473 474 465
4 465 474 475 466
4 466 475 476 467
4 467 476 48 49
4 115 116 477 468
4 468 477 478 469
4 469 478 479 470
4 470 479 480 471
4 471 480 481 472
4 472 481 482 473
4 473 482 483 474
4 474 483 484 475
4 475 484 485 476
4 476 485 47 48
4 116 117 486 477
4 477 486 487 478
4 478 487 488 479
4 479 488 489 480
4 480 489 490 481
4 481 490 491 482
4 482 491 492 483
4 483 492 493 484
4 484 493 494 485
4 485 494 46 47
4 117 118 495 486
4 486 495 496 487
4 487 496 497 488
4 488 497 498 489
4 489 498 499 490
4 490 499 500 491
4 491 500 501 492
4 492 501 502 493
4 493 502 503 494
4 494 503 45 46
4 118 119 504 495
4 495 504 505 496
4 496 505 506 497
4 497 506 507 498
4 498 507 508 499
4 499 508 509 500
4 500 509 510 501
4 501 510 511 502
4 502 511 512 503
4 503 512 44 45
4 119 120 513 504
4 504 513 514 505
4 505 514 515 506
4 506 515 516 507
4 507 516 517 508
4 508 517 518 509
4 509 518 519 510
4 510 519 520 511
4 511 520 521 512
4 512 521 43 44
4 120 121 522 513
4 513 522 523 514
4 514 523 524 515
4 515 524 525 516
4 516 525 526 517
4 517 526 527 518
4 518 527 528 519
4 519 528 529 520
4 520 529 530 521
4 521 530 42 43
4 121 122 531 522
4 522 531 532 523
4 523 532 533 524
4 524 533 534 525
4 525 534 535 526
4 526 535 536 527
4 527 536 537 528
4 528 537 538 529
4 529 538 539 530
4 530 539 41 42
4 122 123 540 531
4 531 540 541 532
4 532 541 542 533
4 533 542 543 534
4 534 543 544 535
4 535 544 545 536
4 536 545 546 537
4 537 546 547 538
4 538 547 548 539
4 539 548 40 41
4 123 124 549 540
4 540 549 550 541
4 541 550 551 542
4 542 551 552 543
4 543 552 553 544
4 544 553 554 545
4 545 554 555 546
4 546 555 556 547
4 547 556 557 548
4 548 557 39 40
4 124 125 558 549
4 549 558 559 550
4 550 559 560 551
4 551 560 561 552
4 552 561 562 553
4 553 562 563 554
4 554 563 564 555
4 555 564 565 556
4 556 565 566 557
4 557 566 38 39
4 125 126 567 558
4 558 567 568 559
4 559 568 569 560
4 560 569 570 561
4 561 570 571 562
4 562 571 572 563
4 563 572 573 564
4 564 573 574 565
4 565 574 575 566
4 566 575 37 38
4 126 127 576 567
4 567 576 577 568
4 568 577 578 569
4 569 578 579 570
4 570 579 580 571
4 571 580 581 572
4 572 581 582 573
4 573 582 583 574
4 574 583 584 575
4 575 584 36 37
4 127 128 585 576
4 576 585 586 577
4 577 586 587 578
4 578 587 588 579
4 579 588 589 580
4 580 589 590 581
4 581 590 591 582
4 582 591 592 583
4 583 592 593 584
4 584 593 35 36
4 128 129 594 585
4 585 594 595 586
4 586 595 596 587
4 587 596 597 588
4 588 597 598 589
4 589 598 599 590
4 590 599 600 591
4 591 600 601 592
4 592 601 602 593
4 593 602 34 35
4 129 130 603 594
4 594 603 604 595
4 595 604 605 596
4 596 605 606 597
4 597 606 607 598
4 598 607 608 599
4 599 608 609 600
4 600 609 610 601
4 601 610 611 602
4 602 611 33 34
4 130 131 612 603
4 603 612 613 604
4 604 613 614 605
4 605 614 615 606
4 606 615 616 607
4 607 616 617 608
4 608 617 618 609
4 609 618 619 610
4 610 619 620 611
4 611 620 32 33
4 131 132 621 612
4 612 621 622 613
4 613 622 623 614
4 614 623 624 615
4 615 624 625 616
4 616 625 626 617
4 617 626 627 618
4 618 627 628 619
4 619 628 629 620
4 620 629 31 32
4 132 133 630 621
4 621 630 631 622
4 622 631 632 623
4 623 632 633 624
4 624 633 634 625
4 625 634 635 626
4 626 635 636 627
4 627 636 637 628
4 628 637 638 629
4 629 638 30 31
4 133 134 639 630
4 630 639 640 631
4 631 640 641 632
4 632 641 642 633
4 633 642 643 634
4 634 643 644 635
4 635 644 645 636
4 636 645 646 637
4 637 646 647 638
4 638 647 29 30
4 134 135 648 639
4 639 648 649 640
4 640 649 650 641
4 641 650 651 642
4 642 651 652 643
4 643 652 653 644
4 644 653 654 645
4 645 654 655 646
4 646 655 656 647
4 647 656 28 29
4 135 136 657 648
4 648 657 658 649
4 649 658 659 650
4 650 659 660 651
4 651 660 661 652
4 652 661 662 653
4 653 662 663 654
4 654 663 664 655
4 655 664 665 656
4 656 665 27 28
4 136 137 666 657
4 657 666 667 658
4 658 667 668 659
4 659 668 669 660
4 660 669 670 661
4 661 670 671 662
4 662 671 672 663
4 663 672 673 664
4 664 673 674 665
4 665 674 26 27
4 137 138 675 666
4 666 675 676 667
4 667 676 677 668
4 668 677 678 669
4 669 678 679 670
4 670 679 680 671
4 671 680 681 672
4 672 681 682 673
4 673 682 683 674
4 674 683 25 26
4 138 139 684 675
4 675 684 685 676
4 676 685 686 677
4 677 686 687 678
4 678 687 688 679
4 679 688 689 680
4 680 689 690 681
4 681 690 691 682
4 682 691 692 683
4 683 692 24 25
4 139 140 693 684
4 684 693 694 685
4 685 694 695 686
4 686 695 696 687
4 687 696 697 688
4 688 697 698 689
4 689 698 699 690
4 690 699 700 691
4 691 700 701 692
4 692 701 23 24
4 140 141 702 693
4 693 702 703 694
4 694 703 704 695
4 695 704 705 696
4 696 705 706 697
4 697 706 707 698
4 698 707 708 699
4 699 708 709 700
4 700 709 710 701
4 701 710 22 23
4 141 142 711 702
4 702 711 712 703
4 703 712 713 704
4 704 713 714 705
4 705 714 715 706
4 706 715 716 707
4 707 716 717 708
4 708 717 718 709
4 709 718 719 710
4 710 719 21 22
4 142 143 720 711
4 711 720 721 712
4 712 721 722 713
4 713 722 723 714
4 714 723 724 715
4 715 724 725 716
4 716 725 726 717
4 717 726 727 718
4 718 727 728 719
4 719 728 20 21
4 143 144 729 720
4 720 729 730 721
4 721 730 731 722
4 722 731 732 723
4 723 732 733 724
4 724 733 734 725
4 725 734 735 726
4 726 735 736 727
4 727 736 737 728
4 728 737 19 20
4 144 145 738 729
4 729 738 739 730
4 730 739 740 731
4 731 740 741 732
4 732 741 742 733
4 733 742 743 734
4 734 743 744 735
4 735 744 745 736
4 736 745 746 737
4 737 746 18 19
4 145 146 747 738
4 738 747 748 739
4 739 748 749 740
4 740 749 750 741
4 741 750 751 742
4 742 751 752 743
4 743 752 753 744
4 744 753 754 745
4 745 754 755 746
4 746 755 17 18
4 146 147 756 747
4 747 756 757 748
4 748 757 758 749
4 749 758 759 750
4 750 759 760 751
4 751 760 761 752
4 752 761 762 753
4 753 762 763 754
4 754 763 764 755
4 755 764 16 17
4 147 148 765 756
4 756 765 766 757
4 757 766 767 758
4 758 767 768 759
4 759 768 769 760
4 760 769 770 761
4 761 770 771 762
4 762 771 772 763
4 763 772 773 764
4 764 773 15 16
4 148 149 774 765
4 765 774 775 766
4 766 775 776 767
4 767 776 777 768
4 768 777 778 769
4 769 778 779 770
4 770 779 780 771
4 771 780 781 772
4 772 781 782 773
4 773 782 14 15
4 149 150 783 774
4 774 783 784 775
4 775 784 785 776
4 776 785 786 777
4 777 786 787 778
4 778 787 788 779
4 779 788 789 780
4 780 789 790 781
4 781 790 791 782
4 782 791 13 14
4 150 151 792 783
4 783 792 793 784
4 784 793 794 785
4 785 794 795 786
4 786 795 796 787
4 787 796 797 788
4 788 797 798 789
4 789 798 799 790
4 790 799 800 791
4 791 800 12 13
4 151 152 801 792
4 792 801 802 793
4 793 802 803 794
4 794 803 804 795
4 795 804 805 796
4 796 805 806 797
4 797 806 807 798
4 798 807 808 799
4 799 808 809 800
4 800 809 11 12
4 152 153 810 801
4 801 810 811 802
4 802 811 812 803
4 803 812 813 804
4 804 813 814 805
4 805 814 815 806
4 806 815 816 807
4 807 816 817 808
4 808 817 818 809
4 809 818 10 11
4 153 154 819 810
4 810 819 820 811
4 811 820 821 812
4 812 821 822 813
4 813 822 823 814
4 814 823 824 815
4 815 824 825 816
4 816 825 826 817
4 817 826 827 818
4 818 827 9 10
4 154 155 828 819
4 819 828 829 820
4 820 829 830 821
4 821 830 831 822
4 822 831 832 823
4 823 832 833 824
4 824 833 834 825
4 825 834 835 826
4 826 835 836 827
4 827 836 8 9
4 155 156 837 828
4 828 837 838 829
4 829 838 839 830
4 830 839 840 831
4 831 840 841 832
4 832 841 842 833
4 833 842 843 834
4 834 843 844 835
4 835 844 845 836
4 836 845 7 8
4 156 157 846 837
4 837 846 847 838
4 838 847 848 839
4 839 848 849 840
4 840 849 850 841
4 841 850 851 842
4 842 851 852 843
4 843 852 853 844
4 844 853 854 845
4 845 854 6 7
4 157 158 855 846
4 846 855 856 847
4 847 856 857 848
4 848 857 858 849
4 849 858 859 850
4 850 859 860 851
4 851 860 861 852
4 852 861 862 853
4 853 862 863 854
4 854 863 5 6
4 158 159 864 855
4 855 864 865 856
4 856 865 866 857
4 857 866 867 858
4 858 867 868 859
4 859 868 869 860
4 860 869 870 861
4 861 870 871 862
4 862 871 872 863
4 863 872 4 5
4 159 160 873 864
4 864 873 874 865
4 865 874 875 866
4 866 875 876 867
4 867 876 877 868
4 868 877 878 869
4 869 878 879 870
4 870 879 880 871
4 871 880 881 872
4 872 881 3 4
4 160 161 882 873
4 873 882 883 874
4 874 883 884 875
4 875 884 885 876
4 876 885 886 877
4 877 886 887 878
4 878 887 888 879
4 879 888 889 880
4 880 889 890 881
4 881 890 2 3
4 161 81 162 882
4 882 162 163 883
4 883 163 164 884
4 884 164 165 885
4 885 165 166 886
4 886 166 167 887
4 887 167 168 888
4 888 168 169 889
4 889 169 170 890
4 890 170 1 2
CELL_TYPES 800
9
9
9
9
9
9
9
9
9
9
9
9
9
9
9
9
9
9
9
9
9
9
9
9
9
9
9
9
9
9
9
9
9
9
9
9
9
9
9
9
9
9
9
9
9
9
9
9
9
9
9
9
9
9
9
9
9
9
9
9
9
9
9
9
9
9
9
9
9
9
9
9
9
9
9
9
9
9
9
9
9
9
9
9
9
9
9
9
9
9
9
9
9
9
9
9
9
9
9
9
9
9
9
9
9
9
9
9
9
9
9
9
9
9
9
9
9
9
9
9
9
9
9
9
9
9
9
9
9
9
9
9
9
9
9
9
9
9
9
9
9
9
9
9
9
9
9
9
9
9
9
9
9
9
9
9
9
9
9
9
9
9
9
9
9
9
9
9
9
9
9
9
9
9
9
9
9
9
9
9
9
9
9
9
9
9
9
9
9
9
9
9
9
9
9
9
9
9
9
9
9
9
9
9
9
9
9
9
9
9
9
9
9
9
9
9
9
9
9
9
9
9
9
9
9
9
9
9
9
9
9
9
9
9
9
9
9
9
9
9
9
9
9
9
9
9
9
9
9
9
9
9
9
9
9
9
9
9
9
9
9
9
9
9
9
9
9
9
9
9
9
9
9
9
9
9
9
9
9
9
9
9
9
9
9
9
9
9
9
9
9
9
9
9
9
9
9
9
9
9
9
9
9
9
9
9
9
9
9
9
9
9
9
9
9
9
9
9
9
9
9
9
9
9
9
9
9
9
9
9
9
9
9
9
9
9
9
9
9
9
9
9
9
9
9
9
9
9
9
9
9
9
9
9
9
9
9
9
9
9
9
9
9
9
9
9
9
9
9
9
9
9
9
9
9
9
9
9
9
9
9
9
9
9
9
9
9
9
9
9
9
9
9
9
9
9
9
9
9
9
9
9
9
9
9
9
9
9
9
9
9
9
9
9
9
9
9
9
9
9
9
9
9
9
9
9
9
9
9
9
9
9
9
9
9
9
9
9
9
9
9
9
9
9
9
9
9
9
9
9
9
9
9
9
9
9
9
9
9
9
9
9
9
9
9
9
9
9
9
9
9
9
9
9
9
9
9
9
9
9
9
9
9
9
9
9
9
9
9
9
9
9
9
9
9
9
9
9
9
9
9
9
9
9
9
9
9
9
9
9
9
9
9
9
9
9
9
9
9
9
9
9
9
9
9
9
9
9
9
9
9
9
9
9
9
9
9
9
9
9
9
9
9
9
9
9
9
9
9
9
9
9
9
9
9
9
9
9
9
9
9
9
9
9
9
9
9
9
9
9
9
9
9
9
9
9
9
9
9
9
9
9
9
9
9
9
9
9
9
9
9
9
9
9
9
9
9
9
9
9
9
9
9
9
9
9
9
9
9
9
9
9
9
9
9
9
9
9
9
9
9
9
9
9
9
9
9
9
9
9
9
9
9
9
9
9
9
9
9
9
9
9
9
9
9
9
9
9
9
9
9
9
9
9
9
9
9
9
9
9
9
9
9
9
9
9
9
9
9
9
9
9
9
9
9
9
9
9
9
9
9
9
9
9
9
9
9
9
9
9
9
9
9
9
9
9
9
9
9
9
9
9
9
9
9
9
9
9
9
9
9
9
9
9
9
9
9
9
9
9
9
9
9
9
9
9
9
9
9
9
9
9
9
9
9
9
9
9
9
9
9
9
9
9
9
9
9
9
9
9
9
9
9
9
9
9
9
9
9
9
9
9
9
9
9
9
9
9
9
9
9
9
9
9
9
9
9
9
9
9
9
9
9
9
9
9
9
9
9
9
9
9
9
9
9
9
9
9
9
9
POINT_DATA 891
SCALARS u1 float
LOOKUP_TABLE default
2e-20
-1e-06
-1e-06
-1e-06
-1e-06
-1e-06
-1e-06
-1e-06
-1e-06
-1e-06
-1e-06
-1e-06
-1e-06
-1e-06
-1e-06
-1e-06
-1e-06
-1e-06
-1e-06
-1e-06
-1e-06
-1e-06
-1e-06
-1e-06
-1e-06
-1e-06
-1e-06
-1e-06
-1e-06
-1e-06
-1e-06
-1e-06
-1e-06
-1e-06
-1e-06
-1e-06
-1e-06
-1e-06
-1e-06
-1e-06
-1e-06
-1e-06
-1e-06
-1e-06
-1e-06
-1e-06
-1e-06
-1e-06
-1e-06
-1e-06
-1e-06
-1e-06
-1e-06
-1e-06
-1e-06
-1e-06
-1e-06
-1e-06
-1e-06
-1e-06
-1e-06
-1e-06
-1e-06
-1e-06
-1e-06
-1e-06
-1e-06
-1e-06
-1e-06
-1e-06
-1e-06
-1e-06
-1e-06
-1e-06
-1e-06
-1e-06
-1e-06
-1e-06
-1e-06
-1e-06
-9e-07
1e-06
6e-19
9e-07
1e-06
1e-06
1e-06
1e-06
1e-06
1e-06
1e-06
1e-06
1e-06
1e-06
1e-06
1e-06
1e-06
1e-06
1e-06
1e-06
1e-06
1e-06
1e-06
1e-06
1e-06
1e-06
1e-06
1e-06
1e-06
1e-06
1e-06
1e-06
1e-06
1e-06
1e-06
1e-06
1e-06
1e-06
1e-06
1e-06
1e-06
1e-06
1e-06
1e-06
1e-06
1e-06
1e-06
1e-06
1e-06
1e-06
1e-06
1e-06
1e-06
1e-06
1e-06
1e-06
1e-06
1e-06
1e-06
1e-06
1e-06
1e-06
1e-06
1e-06
1e-06
1e-06
1e-06
1e-06
1e-06
1e-06
1e-06
1e-06
1e-06
1e-06
1e-06
1e-06
1e-06
1e-06
1e-06
1e-06
1e-06
1e-06
9e-07
7e-07
4e-07
2e-07
6e-17
-2e-07
-4e-07
-7e-07
-9e-07
3e-19
5e-20
-2e-19
1e-19
3e-20
-6e-20
-3e-19
-2e-19
4e-19
6e-07
4e-07
3e-07
1e-07
1e-16
-1e-07
-3e-07
-4e-07
-6e-07
9e-07
6e-07
4e-07
2e-07
2e-16
-2e-07
-4e-07
-6e-07
-9e-07
9e-07
7e-07
5e-07
2e-07
2e-16
-2e-07
-5e-07
-7e-07
-9e-07
9e-07
7e-07
4e-07
2e-07
2e-16
-2e-07
-4e-07
-7e-07
-9e-07
9e-07
7e-07
4e-07
2e-07
2e-16
-2e-07
-4e-07
-7e-07
-9e-07
9e-07
7e-07
4e-07
2e-07
2e-16
-2e-07
-4e-07
-7e-07
-9e-07
9e-07
7e-07
4e-07
2e-07
2e-16
-2e-07
-4e-07
-7e-07
-9e-07
9e-07
7e-07
4e-07
2e-07
2e-16
-2e-07
-4e-07
-7e-07
-9e-07
9e-07
7e-07
4e-07
2e-07
2e-16
-2e-07
-4e-07
-7e-07
-9e-07
9e-07
7e-07
4e-07
2e-07
2e-16
-2e-07
-4e-07
-7e-07
-9e-07
9e-07
7e-07
4e-07
2e-07
2e-16
-2e-07
-4e-07
-7e-07
-9e-07
9e-07
7e-07
4e-07
2e-07
2e-16
-2e-07
-4e-07
-7e-07
-9e-07
9e-07
7e-07
4e-07
2e-07
2e-16
-2e-07
-4e-07
-7e-07
-9e-07
9e-07
7e-07
4e-07
2e-07
2e-16
-2e-07
-4e-07
-7e-07
-9e-07
9e-07
7e-07
4e-07
2e-07
1e-16
-2e-07
-4e-07
-7e-07
-9e-07
9e-07
7e-07
4e-07
2e-07
1e-16
-2e-07
-4e-07
-7e-07
-9e-07
9e-07
7e-07
4e-07
2e-07
1e-16
-2e-07
-4e-07
-7e-07
-9e-07
9e-07
7e-07
4e-07
2e-07
1e-16
-2e-07
-4e-07
-7e-07
-9e-07
9e-07
7e-07
4e-07
2e-07
1e-16
-2e-07
-4e-07
-7e-07
-9e-07
9e-07
7e-07
4e-07
2e-07
1e-16
-2e-07
-4e-07
-7e-07
-9e-07
9e-07
7e-07
4e-07
2e-07
1e-16
-2e-07
-4e-07
-7e-07
-9e-07
9e-07
7e-07
4e-07
2e-07
1e-16
-2e-07
-4e-07
-7e-07
-9e-07
9e-07
7e-07
4e-07
2e-07
9e-17
-2e-07
-4e-07
-7e-07
-9e-07
9e-07
7e-07
4e-07
2e-07
9e-17
-2e-07
-4e-07
-7e-07
-9e-07
9e-07
7e-07
4e-07
2e-07
9e-17
-2e-07
-4e-07
-7e-07
-9e-07
9e-07
7e-07
4e-07
2e-07
8e-17
-2e-07
-4e-07
-7e-07
-9e-07
9e-07
7e-07
4e-07
2e-07
8e-17
-2e-07
-4e-07
-7e-07
-9e-07
9e-07
7e-07
4e-07
2e-07
8e-17
-2e-07
-4e-07
-7e-07
-9e-07
9e-07
7e-07
4e-07
2e-07
8e-17
-2e-07
-4e-07
-7e-07
-9e-07
9e-07
7e-07
4e-07
2e-07
7e-17
-2e-07
-4e-07
-7e-07
-9e-07
9e-07
7e-07
4e-07
2e-07
7e-17
-2e-07
-4e-07
-7e-07
-9e-07
9e-07
7e-07
4e-07
2e-07
7e-17
-2e-07
-4e-07
-7e-07
-9e-07
9e-07
7e-07
4e-07
2e-07
7e-17
-2e-07
-4e-07
-7e-07
-9e-07
9e-07
7e-07
4e-07
2e-07
7e-17
-2e-07
-4e-07
-7e-07
-9e-07
9e-07
7e-07
4e-07
2e-07
7e-17
-2e-07
-4e-07
-7e-07
-9e-07
9e-07
7e-07
4e-07
2e-07
6e-17
-2e-07
-4e-07
-7e-07
-9e-07
9e-07
7e-07
4e-07
2e-07
6e-17
-2e-07
-4e-07
-7e-07
-9e-07
9e-07
7e-07
4e-07
2e-07
6e-17
-2e-07
-4e-07
-7e-07
-9e-07
9e-07
7e-07
4e-07
2e-07
6e-17
-2e-07
-4e-07
-7e-07
-9e-07
9e-07
7e-07
4e-07
2e-07
6e-17
-2e-07
-4e-07
-7e-07
-9e-07
9e-07
7e-07
4e-07
2e-07
6e-17
-2e-07
-4e-07
-7e-07
-9e-07
9e-07
7e-07
4e-07
2e-07
6e-17
-2e-07
-4e-07
-7e-07
-9e-07
9e-07
7e-07
4e-07
2e-07
6e-17
-2e-07
-4e-07
-7e-07
-9e-07
9e-07
7e-07
4e-07
2e-07
6e-17
-2e-07
-4e-07
-7e-07
-9e-07
9e-07
7e-07
4e-07
2e-07
6e-17
-2e-07
-4e-07
-7e-07
-9e-07
9e-07
7e-07
4e-07
2e-07
6e-17
-2e-07
-4e-07
-7e-07
-9e-07
9e-07
7e-07
4e-07
2e-07
6e-17
-2e-07
-4e-07
-7e-07
-9e-07
9e-07
7e-07
4e-07
2e-07
6e-17
-2e-07
-4e-07
-7e-07
-9e-07
9e-07
7e-07
4e-07
2e-07
6e-17
-2e-07
-4e-07
-7e-07
-9e-07
9e-07
7e-07
4e-07
2e-07
6e-17
-2e-07
-4e-07
-7e-07
-9e-07
9e-07
7e-07
4e-07
2e-07
6e-17
-2e-07
-4e-07
-7e-07
-9e-07
9e-07
7e-07
4e-07
2e-07
6e-17
-2e-07
-4e-07
-7e-07
-9e-07
9e-07
7e-07
4e-07
2e-07
6e-17
-2e-07
-4e-07
-7e-07
-9e-07
9e-07
7e-07
4e-07
2e-07
6e-17
-2e-07
-4e-07
-7e-07
-9e-07
9e-07
7e-07
4e-07
2e-07
6e-17
-2e-07
-4e-07
-7e-07
-9e-07
9e-07
7e-07
4e-07
2e-07
6e-17
-2e-07
-4e-07
-7e-07
-9e-07
9e-07
7e-07
4e-07
2e-07
6e-17
-2e-07
-4e-07
-7e-07
-9e-07
9e-07
7e-07
4e-07
2e-07
6e-17
-2e-07
-4e-07
-7e-07
-9e-07
9e-07
7e-07
4e-07
2e-07
6e-17
-2e-07
-4e-07
-7e-07
-9e-07
9e-07
7e-07
4e-07
2e-07
6e-17
-2e-07
-4e-07
-7e-07
-9e-07
9e-07
7e-07
4e-07
2e-07
6e-17
-2e-07
-4e-07
-7e-07
-9e-07
9e-07
7e-07
4e-07
2e-07
6e-17
-2e-07
-4e-07
-7e-07
-9e-07
9e-07
7e-07
4e-07
2e-07
6e-17
-2e-07
-4e-07
-7e-07
-9e-07
9e-07
7e-07
4e-07
2e-07
6e-17
-2e-07
-4e-07
-7e-07
-9e-07
9e-07
7e-07
4e-07
2e-07
6e-17
-2e-07
-4e-07
-7e-07
-9e-07
9e-07
7e-07
4e-07
2e-07
6e-17
-2e-07
-4e-07
-7e-07
-9e-07
9e-07
7e-07
4e-07
2e-07
6e-17
-2e-07
-4e-07
-7e-07
-9e-07
9e-07
7e-07
4e-07
2e-07
6e-17
-2e-07
-4e-07
-7e-07
-9e-07
9e-07
7e-07
4e-07
2e-07
6e-17
-2e-07
-4e-07
-7e-07
-9e-07
9e-07
7e-07
4e-07
2e-07
6e-17
-2e-07
-4e-07
-7e-07
-9e-07
9e-07
7e-07
4e-07
2e-07
6e-17
-2e-07
-4e-07
-7e-07
-9e-07
9e-07
7e-07
4e-07
2e-07
6e-17
-2e-07
-4e-07
-7e-07
-9e-07
9e-07
7e-07
4e-07
2e-07
6e-17
-2e-07
-4e-07
-7e-07
-9e-07
9e-07
7e-07
4e-07
2e-07
6e-17
-2e-07
-4e-07
-7e-07
-9e-07
9e-07
7e-07
4e-07
2e-07
6e-17
-2e-07
-4e-07
-7e-07
-9e-07
9e-07
7e-07
4e-07
2e-07
6e-17
-2e-07
-4e-07
-7e-07
-9e-07
9e-07
7e-07
4e-07
2e-07
6e-17
-2e-07
-4e-07
-7e-07
-9e-07
9e-07
7e-07
4e-07
2e-07
6e-17
-2e-07
-4e-07
-7e-07
-9e-07
9e-07
7e-07
4e-07
2e-07
6e-17
-2e-07
-4e-07
-7e-07
-9e-07
SCALARS u2 float
LOOKUP_TABLE default
-4e-19
-0.0003
-0.0003
-0.0003
-0.0003
-0.0003
-0.0003
-0.0003
-0.0003
-0.0003
-0.0003
-0.0003
-0.0003
-0.0003
-0.0003
-0.0002
-0.0002
-0.0002
-0.0002
-0.0002
-0.0002
-0.0002
-0.0002
-0.0002
-0.0002
-0.0002
-0.0002
-0.0002
-0.0002
-0.0002
-0.0002
-0.0002
-0.0002
-0.0002
-0.0002
-0.0002
-0.0002
-0.0002
-0.0002
-0.0002
-0.0002
-0.0002
-0.0001
-0.0001
-0.0001
-0.0001
-0.0001
-0.0001
-0.0001
-0.0001
-0.0001
-0.0001
-0.0001
-0.0001
-0.0001
-0.0001
-9e-05
-9e-05
-9e-05
-8e-05
-8e-05
-8e-05
-7e-05
-7e-05
-6e-05
-6e-05
-6e-05
-5e-05
-5e-05
-5e-05
-4e-05
-4e-05
-3e-05
-3e-05
-3e-05
-2e-05
-2e-05
-1e-05
-1e-05
-8e-06
-4e-06
-0.0003
7e-19
-4e-06
-8e-06
-1e-05
-1e-05
-2e-05
-2e-05
-3e-05
-3e-05
-3e-05
-4e-05
-4e-05
-5e-05
-5e-05
-5e-05
-6e-05
-6e-05
-6e-05
-7e-05
-7e-05
-8e-05
-8e-05
-8e-05
-9e-05
-9e-05
-9e-05
-0.0001
-0.0001
-0.0001
-0.0001
-0.0001
-0.0001
-0.0001
-0.0001
-0.0001
-0.0001
-0.0001
-0.0001
-0.0001
-0.0001
-0.0002
-0.0002
-0.0002
-0.0002
-0.0002
-0.0002
-0.0002
-0.0002
-0.0002
-0.0002
-0.0002
-0.0002
-0.0002
-0.0002
-0.0002
-0.0002
-0.0002
-0.0002
-0.0002
-0.0002
-0.0002
-0.0002
-0.0002
-0.0002
-0.0002
-0.0002
-0.0002
-0.0003
-0.0003
-0.0003
-0.0003
-0.0003
-0.0003
-0.0003
-0.0003
-0.0003
-0.0003
-0.0003
-0.0003
-0.0003
-0.0003
-0.0003
-0.0003
-0.0003
-0.0003
-0.0003
-0.0003
-0.0003
-0.0003
-8e-19
1e-19
8e-19
1e-18
2e-19
-2e-19
-2e-18
4e-19
7e-19
-4e-06
-4e-06
-4e-06
-4e-06
-4e-06
-4e-06
-4e-06
-4e-06
-4e-06
-8e-06
-7e-06
-7e-06
-7e-06
-7e-06
-7e-06
-7e-06
-7e-06
-8e-06
-1e-05
-1e-05
-1e-05
-1e-05
-1e-05
-1e-05
-1e-05
-1e-05
-1e-05
-1e-05
-1e-05
-1e-05
-1e-05
-1e-05
-1e-05
-1e-05
-1e-05
-1e-05
-2e-05
-2e-05
-2e-05
-2e-05
-2e-05
-2e-05
-2e-05
-2e-05
-2e-05
-2e-05
-2e-05
-2e-05
-2e-05
-2e-05
-2e-05
-2e-05
-2e-05
-2e-05
-3e-05
-3e-05
-3e-05
-3e-05
-3e-05
-3e-05
-3e-05
-3e-05
-3e-05
-3e-05
-3e-05
-3e-05
-3e-05
-3e-05
-3e-05
-3e-05
-3e-05
-3e-05
-3e-05
-3e-05
-3e-05
-3e-05
-3e-05
-3e-05
-3e-05
-3e-05
-3e-05
-4e-05
-4e-05
-4e-05
-4e-05
-4e-05
-4e-05
-4e-05
-4e-05
-4e-05
-4e-05
-4e-05
-4e-05
-4e-05
-4e-05
-4e-05
-4e-05
-4e-05
-4e-05
-5e-05
-5e-05
-5e-05
-5e-05
-5e-05
-5e-05
-5e-05
-5e-05
-5e-05
-5e-05
-5e-05
-5e-05
-5e-05
-5e-05
-5e-05
-5e-05
-5e-05
-5e-05
-5e-05
-5e-05
-5e-05
-5e-05
-5e-05
-5e-05
-5e-05
-5e-05
-5e-05
-6e-05
-6e-05
-6e-05
-6e-05
-6e-05
-6e-05
-6e-05
-6e-05
-6e-05
-6e-05
-6e-05
-6e-05
-6e-05
-6e-05
-6e-05
-6e-05
-6e-05
-6e-05
-6e-05
-6e-05
-6e-05
-6e-05
-6e-05
-6e-05
-6e-05
-6e-05
-6e-05
-7e-05
-7e-05
-7e-05
-7e-05
-7e-05
-7e-05
-7e-05
-7e-05
-7e-05
-7e-05
-7e-05
-7e-05
-7e-05
-7e-05
-7e-05
-7e-05
-7e-05
-7e-05
-8e-05
-8e-05
-8e-05
-8e-05
-8e-05
-8e-05
-8e-05
-8e-05
-8e-05
-8e-05
-8e-05
-8e-05
-8e-05
-8e-05
-8e-05
-8e-05
-8e-05
-8e-05
-8e-05
-8e-05
-8e-05
-8e-05
-8e-05
-8e-05
-8e-05
-8e-05
-8e-05
-9e-05
-9e-05
-9e-05
-9e-05
-9e-05
-9e-05
-9e-05
-9e-05
-9e-05
-9e-05
-9e-05
-9e-05
-9e-05
-9e-05
-9e-05
-9e-05
-9e-05
-9e-05
-9e-05
-9e-05
-9e-05
-9e-05
-9e-05
-9e-05
-9e-05
-9e-05
-9e-05
-0.0001
-0.0001
-0.0001
-0.0001
-0.0001
-0.0001
-0.0001
-0.0001
-0.0001
-0.0001
-0.0001
-0.0001
-0.0001
-0.0001
-0.0001
-0.0001
-0.0001
-0.0001
-0.0001
-0.0001
-0.0001
-0.0001
-0.0001
-0.0001
-0.0001
-0.0001
-0.0001
-0.0001
-0.0001
-0.0001
-0.0001
-0.0001
-0.0001
-0.0001
-0.0001
-0.0001
-0.0001
-0.0001
-0.0001
-0.0001
-0.0001
-0.0001
-0.0001
-0.0001
-0.0001
-0.0001
-0.0001
-0.0001
-0.0001
-0.0001
-0.0001
-0.0001
-0.0001
-0.0001
-0.0001
-0.0001
-0.0001
-0.0001
-0.0001
-0.0001
-0.0001
-0.0001
-0.0001
-0.0001
-0.0001
-0.0001
-0.0001
-0.0001
-0.0001
-0.0001
-0.0001
-0.0001
-0.0001
-0.0001
-0.0001
-0.0001
-0.0001
-0.0001
-0.0001
-0.0001
-0.0001
-0.0001
-0.0001
-0.0001
-0.0001
-0.0001
-0.0001
-0.0001
-0.0001
-0.0001
-0.0001
-0.0001
-0.0001
-0.0001
-0.0001
-0.0001
-0.0001
-0.0001
-0.0001
-0.0001
-0.0001
-0.0001
-0.0001
-0.0001
-0.0001
-0.0001
-0.0001
-0.0001
-0.0001
-0.0001
-0.0001
-0.0001
-0.0001
-0.0001
-0.0001
-0.0001
-0.0001
-0.0001
-0.0001
-0.0001
-0.0001
-0.0001
-0.0001
-0.0001
-0.0001
-0.0001
-0.0002
-0.0002
-0.0002
-0.0002
-0.0002
-0.0002
-0.0002
-0.0002
-0.0002
-0.0002
-0.0002
-0.0002
-0.0002
-0.0002
-0.0002
-0.0002
-0.0002
-0.0002
-0.0002
-0.0002
-0.0002
-0.0002
-0.0002
-0.0002
-0.0002
-0.0002
-0.0002
-0.0002
-0.0002
-0.0002
-0.0002
-0.0002
-0.0002
-0.0002
-0.0002
-0.0002
-0.0002
-0.0002
-0.0002
-0.0002
-0.0002
-0.0002
-0.0002
-0.0002
-0.0002
-0.0002
-0.0002
-0.0002
-0.0002
-0.0002
-0.0002
-0.0002
-0.0002
-0.0002
-0.0002
-0.0002
-0.0002
-0.0002
-0.0002
-0.0002
-0.0002
-0.0002
-0.0002
-0.0002
-0.0002
-0.0002
-0.0002
-0.0002
-0.0002
-0.0002
-0.0002
-0.0002
-0.0002
-0.0002
-0.0002
-0.0002
-0.0002
-0.0002
-0.0002
-0.0002
-0.0002
-0.0002
-0.0002
-0.0002
-0.0002
-0.0002
-0.0002
-0.0002
-0.0002
-0.0002
-0.0002
-0.0002
-0.0002
-0.0002
-0.0002
-0.0002
-0.0002
-0.0002
-0.0002
-0.0002
-0.0002
-0.0002
-0.0002
-0.0002
-0.0002
-0.0002
-0.0002
-0.0002
-0.0002
-0.0002
-0.0002
-0.0002
-0.0002
-0.0002
-0.0002
-0.0002
-0.0002
-0.0002
-0.0002
-0.0002
-0.0002
-0.0002
-0.0002
-0.0002
-0.0002
-0.0002
-0.0002
-0.0002
-0.0002
-0.0002
-0.0002
-0.0002
-0.0002
-0.0002
-0.0002
-0.0002
-0.0002
-0.0002
-0.0002
-0.0002
-0.0002
-0.0002
-0.0002
-0.0002
-0.0002
-0.0002
-0.0002
-0.0002
-0.0002
-0.0002
-0.0002
-0.0002
-0.0002
-0.0002
-0.0002
-0.0002
-0.0002
-0.0002
-0.0002
-0.0002
-0.0002
-0.0002
-0.0002
-0.0002
-0.0002
-0.0002
-0.0002
-0.0002
-0.0002
-0.0002
-0.0002
-0.0002
-0.0002
-0.0002
-0.0002
-0.0002
-0.0002
-0.0002
-0.0002
-0.0002
-0.0002
-0.0002
-0.0002
-0.0002
-0.0002
-0.0002
-0.0002
-0.0002
-0.0002
-0.0002
-0.0002
-0.0002
-0.0002
-0.0002
-0.0002
-0.0002
-0.0002
-0.0002
-0.0002
-0.0002
-0.0002
-0.0002
-0.0002
-0.0002
-0.0002
-0.0002
-0.0002
-0.0002
-0.0002
-0.0002
-0.0002
-0.0002
-0.0002
-0.0002
-0.0002
-0.0002
-0.0002
-0.0002
-0.0002
-0.0002
-0.0002
-0.0002
-0.0002
-0.0002
-0.0002
-0.0002
-0.0002
-0.0002
-0.0002
-0.0002
-0.0002
-0.0002
-0.0002
-0.0002
-0.0002
-0.0002
-0.0002
-0.0002
-0.0002
-0.0002
-0.0002
-0.0002
-0.0002
-0.0003
-0.0003
-0.0003
-0.0003
-0.0003
-0.0003
-0.0003
-0.0003
-0.0003
-0.0003
-0.0003
-0.0003
-0.0003
-0.0003
-0.0003
-0.0003
-0.0003
-0.0003
-0.0003
-0.0003
-0.0003
-0.0003
-0.0003
-0.0003
-0.0003
-0.0003
-0.0003
-0.0003
-0.0003
-0.0003
-0.0003
-0.0003
-0.0003
-0.0003
-0.0003
-0.0003
-0.0003
-0.0003
-0.0003
-0.0003
-0.0003
-0.0003
-0.0003
-0.0003
-0.0003
-0.0003
-0.0003
-0.0003
-0.0003
-0.0003
-0.0003
-0.0003
-0.0003
-0.0003
-0.0003
-0.0003
-0.0003
-0.0003
-0.0003
-0.0003
-0.0003
-0.0003
-0.0003
-0.0003
-0.0003
-0.0003
-0.0003
-0.0003
-0.0003
-0.0003
-0.0003
-0.0003
-0.0003
-0.0003
-0.0003
-0.0003
-0.0003
-0.0003
-0.0003
-0.0003
-0.0003
-0.0003
-0.0003
-0.0003
-0.0003
-0.0003
-0.0003
-0.0003
-0.0003
-0.0003
-0.0003
-0.0003
-0.0003
-0.0003
-0.0003
-0.0003
-0.0003
-0.0003
-0.0003
-0.0003
-0.0003
-0.0003
-0.0003
-0.0003
-0.0003
-0.0003
-0.0003
-0.0003
-0.0003
-0.0003
-0.0003
-0.0003
-0.0003
-0.0003
-0.0003
-0.0003
-0.0003
SCALARS strain_1 float
LOOKUP_TABLE default
-0.000080
-0.127188
-0.125264
-0.123331
-0.121389
-0.119438
-0.117479
-0.115512
-0.113537
-0.111556
-0.109568
-0.107575
-0.105576
-0.103572
-0.101565
-0.099554
-0.097540
-0.095524
-0.093506
-0.091488
-0.089469
-0.087452
-0.085435
-0.083421
-0.081409
-0.079402
-0.077398
-0.075401
-0.073409
-0.071425
-0.069449
-0.067482
-0.065525
-0.063577
-0.061642
-0.059720
-0.057812
-0.055917
-0.054038
-0.052175
-0.050331
-0.048504
-0.046697
-0.044910
-0.043145
-0.041401
-0.039681
-0.037986
-0.036315
-0.034670
-0.033052
-0.031463
-0.029902
-0.028371
-0.026871
-0.025401
-0.023964
-0.022560
-0.021189
-0.019854
-0.018552
-0.017287
-0.016058
-0.014866
-0.013712
-0.012595
-0.011516
-0.010476
-0.009476
-0.008515
-0.007593
-0.006711
-0.005869
-0.005066
-0.004305
-0.003583
-0.002900
-0.002258
-0.001655
-0.001091
-0.000566
-0.127301
-0.000003
-0.000491
-0.001017
-0.001582
-0.002187
-0.002831
-0.003515
-0.004239
-0.005003
-0.005807
-0.006651
-0.007536
-0.008459
-0.009423
-0.010426
-0.011468
-0.012549
-0.013669
-0.014826
-0.016021
-0.017252
-0.018520
-0.019824
-0.021163
-0.022536
-0.023943
-0.025383
-0.026855
-0.028358
-0.029893
-0.031456
-0.033049
-0.034669
-0.036317
-0.037991
-0.039689
-0.041412
-0.043159
-0.044927
-0.046717
-0.048527
-0.050357
-0.052204
-0.054070
-0.055951
-0.057849
-0.059760
-0.061686
-0.063624
-0.065573
-0.067533
-0.069503
-0.071482
-0.073469
-0.075463
-0.077463
-0.079468
-0.081479
-0.083492
-0.085509
-0.087528
-0.089548
-0.091568
-0.093589
-0.095609
-0.097627
-0.099643
-0.101656
-0.103666
-0.105671
-0.107672
-0.109667
-0.111657
-0.113640
-0.115616
-0.117584
-0.119545
-0.121498
-0.123442
-0.125376
-0.127290
-0.127279
-0.127269
-0.127258
-0.127246
-0.127235
-0.127223
-0.127212
-0.127200
-0.000064
-0.000051
-0.000039
-0.000029
-0.000021
-0.000014
-0.000009
-0.000005
-0.000003
-0.000491
-0.000492
-0.000496
-0.000501
-0.000508
-0.000516
-0.000526
-0.000538
-0.000551
-0.001017
-0.001018
-0.001022
-0.001026
-0.001033
-0.001041
-0.001051
-0.001063
-0.001076
-0.001582
-0.001584
-0.001586
-0.001591
-0.001597
-0.001606
-0.001615
-0.001627
-0.001640
-0.002186
-0.002188
-0.002191
-0.002195
-0.002201
-0.002209
-0.002219
-0.002230
-0.002243
-0.002830
-0.002832
-0.002834
-0.002839
-0.002844
-0.002852
-0.002862
-0.002873
-0.002886
-0.003514
-0.003515
-0.003517
-0.003522
-0.003528
-0.003535
-0.003544
-0.003555
-0.003568
-0.004238
-0.004239
-0.004241
-0.004245
-0.004251
-0.004258
-0.004267
-0.004278
-0.004291
-0.005002
-0.005002
-0.005004
-0.005008
-0.005013
-0.005021
-0.005030
-0.005040
-0.005052
-0.005806
-0.005806
-0.005808
-0.005811
-0.005816
-0.005824
-0.005832
-0.005843
-0.005855
-0.006650
-0.006649
-0.006651
-0.006655
-0.006659
-0.006666
-0.006675
-0.006685
-0.006698
-0.007533
-0.007533
-0.007535
-0.007538
-0.007543
-0.007549
-0.007558
-0.007568
-0.007579
-0.008457
-0.008457
-0.008458
-0.008461
-0.008465
-0.008472
-0.008480
-0.008490
-0.008501
-0.009420
-0.009420
-0.009421
-0.009424
-0.009428
-0.009434
-0.009442
-0.009452
-0.009463
-0.010423
-0.010422
-0.010423
-0.010426
-0.010430
-0.010436
-0.010444
-0.010453
-0.010464
-0.011465
-0.011464
-0.011465
-0.011468
-0.011471
-0.011477
-0.011484
-0.011493
-0.011504
-0.012546
-0.012545
-0.012545
-0.012547
-0.012551
-0.012557
-0.012564
-0.012572
-0.012583
-0.013665
-0.013664
-0.013664
-0.013666
-0.013669
-0.013674
-0.013681
-0.013690
-0.013700
-0.014822
-0.014820
-0.014820
-0.014822
-0.014826
-0.014830
-0.014836
-0.014845
-0.014855
-0.016017
-0.016015
-0.016015
-0.016016
-0.016019
-0.016024
-0.016030
-0.016038
-0.016047
-0.017248
-0.017246
-0.017245
-0.017247
-0.017249
-0.017254
-0.017260
-0.017267
-0.017276
-0.018516
-0.018514
-0.018513
-0.018514
-0.018516
-0.018521
-0.018526
-0.018533
-0.018542
-0.019820
-0.019817
-0.019816
-0.019817
-0.019819
-0.019823
-0.019828
-0.019835
-0.019843
-0.021158
-0.021156
-0.021154
-0.021155
-0.021157
-0.021160
-0.021165
-0.021172
-0.021180
-0.022531
-0.022528
-0.022527
-0.022527
-0.022529
-0.022532
-0.022537
-0.022543
-0.022551
-0.023938
-0.023934
-0.023933
-0.023934
-0.023935
-0.023937
-0.023942
-0.023948
-0.023956
-0.025378
-0.025374
-0.025373
-0.025373
-0.025373
-0.025376
-0.025380
-0.025385
-0.025393
-0.026850
-0.026846
-0.026844
-0.026844
-0.026844
-0.026847
-0.026850
-0.026856
-0.026863
-0.028353
-0.028349
-0.028347
-0.028346
-0.028347
-0.028349
-0.028352
-0.028357
-0.028363
-0.029888
-0.029883
-0.029880
-0.029879
-0.029880
-0.029881
-0.029884
-0.029889
-0.029895
-0.031451
-0.031446
-0.031443
-0.031442
-0.031442
-0.031444
-0.031446
-0.031451
-0.031456
-0.033043
-0.033039
-0.033035
-0.033034
-0.033034
-0.033035
-0.033037
-0.033041
-0.033046
-0.034663
-0.034659
-0.034656
-0.034653
-0.034653
-0.034653
-0.034656
-0.034659
-0.034664
-0.036311
-0.036306
-0.036302
-0.036300
-0.036299
-0.036300
-0.036302
-0.036304
-0.036309
-0.037984
-0.037979
-0.037975
-0.037973
-0.037972
-0.037972
-0.037973
-0.037976
-0.037980
-0.039683
-0.039678
-0.039674
-0.039671
-0.039670
-0.039669
-0.039671
-0.039672
-0.039676
-0.041406
-0.041400
-0.041396
-0.041393
-0.041391
-0.041391
-0.041392
-0.041394
-0.041397
-0.043152
-0.043146
-0.043142
-0.043138
-0.043136
-0.043136
-0.043136
-0.043138
-0.043141
-0.044920
-0.044914
-0.044910
-0.044906
-0.044904
-0.044903
-0.044903
-0.044904
-0.044907
-0.046710
-0.046704
-0.046699
-0.046695
-0.046692
-0.046691
-0.046691
-0.046692
-0.046694
-0.048520
-0.048513
-0.048509
-0.048505
-0.048502
-0.048500
-0.048500
-0.048500
-0.048501
-0.050349
-0.050343
-0.050337
-0.050333
-0.050330
-0.050328
-0.050327
-0.050327
-0.050328
-0.052197
-0.052190
-0.052185
-0.052181
-0.052178
-0.052174
-0.052174
-0.052173
-0.052174
-0.054062
-0.054056
-0.054050
-0.054045
-0.054041
-0.054038
-0.054037
-0.054036
-0.054037
-0.055944
-0.055937
-0.055931
-0.055926
-0.055922
-0.055919
-0.055917
-0.055916
-0.055917
-0.057841
-0.057834
-0.057828
-0.057823
-0.057818
-0.057815
-0.057813
-0.057811
-0.057811
-0.059753
-0.059745
-0.059739
-0.059733
-0.059729
-0.059725
-0.059723
-0.059721
-0.059720
-0.061677
-0.061670
-0.061664
-0.061658
-0.061653
-0.061650
-0.061646
-0.061644
-0.061643
-0.063615
-0.063608
-0.063601
-0.063595
-0.063590
-0.063586
-0.063583
-0.063580
-0.063579
-0.065564
-0.065557
-0.065550
-0.065544
-0.065539
-0.065534
-0.065531
-0.065528
-0.065526
-0.067525
-0.067517
-0.067510
-0.067504
-0.067498
-0.067493
-0.067489
-0.067486
-0.067484
-0.069494
-0.069487
-0.069479
-0.069473
-0.069467
-0.069462
-0.069458
-0.069454
-0.069451
-0.071473
-0.071465
-0.071458
-0.071451
-0.071445
-0.071440
-0.071435
-0.071431
-0.071428
-0.073460
-0.073452
-0.073444
-0.073437
-0.073431
-0.073426
-0.073420
-0.073416
-0.073412
-0.075454
-0.075445
-0.075438
-0.075430
-0.075424
-0.075419
-0.075413
-0.075408
-0.075405
-0.077454
-0.077445
-0.077437
-0.077430
-0.077423
-0.077418
-0.077412
-0.077407
-0.077402
-0.079459
-0.079450
-0.079443
-0.079435
-0.079428
-0.079422
-0.079416
-0.079410
-0.079406
-0.081469
-0.081461
-0.081452
-0.081444
-0.081437
-0.081431
-0.081424
-0.081419
-0.081414
-0.083483
-0.083474
-0.083466
-0.083457
-0.083450
-0.083444
-0.083437
-0.083431
-0.083425
-0.085499
-0.085490
-0.085482
-0.085474
-0.085466
-0.085459
-0.085452
-0.085446
-0.085440
-0.087518
-0.087509
-0.087500
-0.087492
-0.087484
-0.087477
-0.087470
-0.087463
-0.087457
-0.089538
-0.089529
-0.089520
-0.089512
-0.089503
-0.089496
-0.089489
-0.089482
-0.089475
-0.091559
-0.091549
-0.091541
-0.091532
-0.091524
-0.091516
-0.091508
-0.091501
-0.091494
-0.093579
-0.093570
-0.093561
-0.093552
-0.093543
-0.093535
-0.093527
-0.093520
-0.093513
-0.095599
-0.095589
-0.095580
-0.095571
-0.095562
-0.095554
-0.095546
-0.095538
-0.095531
-0.097617
-0.097607
-0.097598
-0.097589
-0.097580
-0.097571
-0.097563
-0.097555
-0.097547
-0.099633
-0.099623
-0.099614
-0.099604
-0.099595
-0.099587
-0.099578
-0.099569
-0.099562
-0.101646
-0.101636
-0.101626
-0.101617
-0.101608
-0.101599
-0.101590
-0.101581
-0.101573
-0.103655
-0.103645
-0.103636
-0.103626
-0.103617
-0.103607
-0.103599
-0.103590
-0.103581
-0.105661
-0.105651
-0.105641
-0.105631
-0.105621
-0.105612
-0.105603
-0.105594
-0.105585
-0.107661
-0.107651
-0.107641
-0.107631
-0.107621
-0.107612
-0.107602
-0.107593
-0.107584
-0.109656
-0.109647
-0.109637
-0.109626
-0.109616
-0.109607
-0.109597
-0.109587
-0.109578
-0.111646
-0.111636
-0.111626
-0.111616
-0.111605
-0.111595
-0.111585
-0.111575
-0.111566
-0.113629
-0.113619
-0.113609
-0.113598
-0.113588
-0.113578
-0.113568
-0.113558
-0.113547
-0.115605
-0.115595
-0.115584
-0.115574
-0.115564
-0.115553
-0.115543
-0.115532
-0.115522
-0.117574
-0.117564
-0.117553
-0.117543
-0.117532
-0.117522
-0.117511
-0.117500
-0.117490
-0.119535
-0.119525
-0.119514
-0.119503
-0.119492
-0.119482
-0.119471
-0.119460
-0.119449
-0.121488
-0.121477
-0.121466
-0.121455
-0.121445
-0.121434
-0.121423
-0.121412
-0.121400
-0.123431
-0.123420
-0.123409
-0.123399
-0.123388
-0.123376
-0.123366
-0.123354
-0.123343
-0.125365
-0.125355
-0.125344
-0.125333
-0.125322
-0.125311
-0.125299
-0.125288
-0.125276
SCALARS strain_2 float
LOOKUP_TABLE default
0.001588
0.000923
0.000924
0.000926
0.000925
0.000926
0.000924
0.000926
0.000926
0.000927
0.000929
0.000928
0.000930
0.000931
0.000931
0.000932
0.000937
0.000935
0.000939
0.000941
0.000943
0.000944
0.000948
0.000950
0.000954
0.000956
0.000960
0.000961
0.000966
0.000969
0.000977
0.000980
0.000985
0.000989
0.000995
0.000999
0.001008
0.001011
0.001019
0.001024
0.001031
0.001039
0.001047
0.001054
0.001062
0.001070
0.001079
0.001088
0.001096
0.001107
0.001117
0.001128
0.001139
0.001148
0.001160
0.001173
0.001184
0.001197
0.001207
0.001222
0.001235
0.001248
0.001262
0.001276
0.001295
0.001309
0.001324
0.001339
0.001356
0.001371
0.001387
0.001406
0.001421
0.001440
0.001458
0.001476
0.001493
0.001512
0.001531
0.001549
0.001569
0.003128
0.003168
0.003168
0.003171
0.003173
0.003177
0.003182
0.003181
0.003183
0.003185
0.003188
0.003189
0.003191
0.003193
0.003195
0.003196
0.003197
0.003199
0.003201
0.003202
0.003202
0.003203
0.003205
0.003210
0.003207
0.003209
0.003211
0.003211
0.003213
0.003213
0.003216
0.003215
0.003214
0.003216
0.003216
0.003213
0.003214
0.003216
0.003217
0.003217
0.003214
0.003217
0.003215
0.003214
0.003214
0.003213
0.003214
0.003212
0.003213
0.003210
0.003209
0.003210
0.003207
0.003205
0.003206
0.003203
0.003200
0.003200
0.003199
0.003196
0.003194
0.003192
0.003188
0.003188
0.003184
0.003183
0.003179
0.003176
0.003172
0.003170
0.003167
0.003164
0.003161
0.003157
0.003153
0.003150
0.003148
0.003142
0.003139
0.003137
0.003131
0.002908
0.002686
0.002468
0.002249
0.002025
0.001806
0.001588
0.001366
0.001147
0.001747
0.001906
0.002063
0.002222
0.002379
0.002536
0.002695
0.002855
0.003010
0.003010
0.002853
0.002692
0.002530
0.002370
0.002210
0.002050
0.001891
0.001730
0.003012
0.002850
0.002685
0.002526
0.002363
0.002199
0.002036
0.001873
0.001711
0.003010
0.002848
0.002682
0.002519
0.002353
0.002188
0.002025
0.001860
0.001696
0.003012
0.002844
0.002679
0.002512
0.002345
0.002179
0.002012
0.001844
0.001679
0.003011
0.002842
0.002677
0.002506
0.002338
0.002168
0.002000
0.001831
0.001661
0.003011
0.002841
0.002671
0.002498
0.002332
0.002158
0.001987
0.001817
0.001646
0.003012
0.002839
0.002665
0.002494
0.002321
0.002149
0.001975
0.001803
0.001627
0.003012
0.002839
0.002662
0.002486
0.002313
0.002138
0.001962
0.001788
0.001613
0.003011
0.002834
0.002656
0.002481
0.002304
0.002128
0.001953
0.001774
0.001598
0.003010
0.002833
0.002653
0.002475
0.002296
0.002118
0.001942
0.001761
0.001585
0.003010
0.002829
0.002649
0.002470
0.002290
0.002109
0.001928
0.001749
0.001568
0.003010
0.002829
0.002646
0.002464
0.002282
0.002100
0.001920
0.001735
0.001553
0.003011
0.002829
0.002644
0.002460
0.002272
0.002089
0.001907
0.001722
0.001540
0.003010
0.002825
0.002639
0.002452
0.002267
0.002081
0.001895
0.001710
0.001526
0.003011
0.002821
0.002636
0.002446
0.002261
0.002073
0.001883
0.001699
0.001510
0.003011
0.002822
0.002633
0.002444
0.002255
0.002064
0.001877
0.001684
0.001497
0.003009
0.002818
0.002629
0.002439
0.002246
0.002057
0.001867
0.001673
0.001483
0.003010
0.002817
0.002628
0.002433
0.002241
0.002049
0.001855
0.001661
0.001472
0.003010
0.002815
0.002621
0.002426
0.002235
0.002040
0.001847
0.001653
0.001455
0.003009
0.002814
0.002619
0.002421
0.002228
0.002033
0.001835
0.001640
0.001444
0.003009
0.002814
0.002616
0.002419
0.002220
0.002023
0.001828
0.001628
0.001432
0.003008
0.002809
0.002611
0.002412
0.002215
0.002017
0.001817
0.001618
0.001419
0.003008
0.002807
0.002607
0.002409
0.002209
0.002009
0.001807
0.001608
0.001408
0.003010
0.002808
0.002607
0.002404
0.002202
0.002003
0.001800
0.001599
0.001399
0.003009
0.002806
0.002603
0.002402
0.002197
0.001994
0.001791
0.001587
0.001387
0.003008
0.002803
0.002599
0.002397
0.002192
0.001990
0.001786
0.001580
0.001377
0.003008
0.002801
0.002597
0.002392
0.002188
0.001983
0.001774
0.001570
0.001365
0.003008
0.002799
0.002592
0.002387
0.002182
0.001974
0.001768
0.001562
0.001353
0.003007
0.002797
0.002590
0.002381
0.002178
0.001968
0.001762
0.001554
0.001343
0.003004
0.002796
0.002588
0.002380
0.002172
0.001961
0.001755
0.001545
0.001335
0.003007
0.002796
0.002588
0.002376
0.002167
0.001955
0.001746
0.001538
0.001325
0.003005
0.002793
0.002584
0.002374
0.002163
0.001949
0.001739
0.001529
0.001318
0.003005
0.002792
0.002579
0.002370
0.002156
0.001945
0.001735
0.001521
0.001307
0.003003
0.002792
0.002578
0.002365
0.002152
0.001938
0.001725
0.001514
0.001299
0.003002
0.002791
0.002574
0.002361
0.002147
0.001935
0.001720
0.001505
0.001294
0.003002
0.002787
0.002574
0.002359
0.002143
0.001928
0.001712
0.001501
0.001284
0.002999
0.002784
0.002570
0.002356
0.002140
0.001923
0.001709
0.001495
0.001277
0.003002
0.002785
0.002567
0.002352
0.002134
0.001920
0.001702
0.001486
0.001269
0.002997
0.002783
0.002565
0.002350
0.002131
0.001914
0.001697
0.001480
0.001264
0.002999
0.002780
0.002563
0.002344
0.002128
0.001908
0.001692
0.001474
0.001254
0.002997
0.002780
0.002559
0.002341
0.002124
0.001903
0.001688
0.001469
0.001250
0.002998
0.002777
0.002557
0.002339
0.002119
0.001901
0.001680
0.001463
0.001242
0.002996
0.002775
0.002555
0.002336
0.002115
0.001897
0.001676
0.001457
0.001239
0.002992
0.002774
0.002555
0.002333
0.002115
0.001892
0.001672
0.001451
0.001232
0.002993
0.002771
0.002550
0.002331
0.002112
0.001888
0.001667
0.001447
0.001228
0.002991
0.002770
0.002548
0.002328
0.002105
0.001883
0.001666
0.001444
0.001224
0.002991
0.002770
0.002545
0.002327
0.002101
0.001881
0.001660
0.001439
0.001215
0.002990
0.002767
0.002544
0.002322
0.002102
0.001878
0.001655
0.001431
0.001212
0.002986
0.002763
0.002541
0.002321
0.002098
0.001874
0.001652
0.001429
0.001209
0.002986
0.002763
0.002541
0.002316
0.002094
0.001870
0.001647
0.001426
0.001201
0.002986
0.002761
0.002536
0.002314
0.002094
0.001868
0.001646
0.001421
0.001199
0.002984
0.002759
0.002535
0.002313
0.002087
0.001866
0.001642
0.001420
0.001194
0.002981
0.002758
0.002534
0.002308
0.002085
0.001862
0.001639
0.001414
0.001189
0.002978
0.002754
0.002531
0.002308
0.002083
0.001858
0.001636
0.001411
0.001188
0.002979
0.002752
0.002529
0.002305
0.002081
0.001855
0.001632
0.001408
0.001185
0.002974
0.002751
0.002526
0.002302
0.002078
0.001853
0.001630
0.001404
0.001181
0.002973
0.002747
0.002524
0.002299
0.002075
0.001850
0.001625
0.001402
0.001177
0.002969
0.002746
0.002522
0.002298
0.002073
0.001848
0.001623
0.001399
0.001175
0.002969
0.002745
0.002519
0.002295
0.002070
0.001845
0.001621
0.001396
0.001173
0.002967
0.002743
0.002520
0.002294
0.002068
0.001842
0.001618
0.001394
0.001170
0.002965
0.002739
0.002516
0.002289
0.002065
0.001840
0.001616
0.001391
0.001167
0.002963
0.002737
0.002515
0.002289
0.002064
0.001840
0.001615
0.001389
0.001164
0.002958
0.002735
0.002509
0.002288
0.002061
0.001836
0.001611
0.001387
0.001163
0.002957
0.002734
0.002509
0.002285
0.002058
0.001833
0.001609
0.001387
0.001160
0.002954
0.002731
0.002505
0.002282
0.002060
0.001833
0.001607
0.001384
0.001158
0.002952
0.002728
0.002504
0.002278
0.002054
0.001829
0.001608
0.001384
0.001158
0.002948
0.002726
0.002499
0.002280
0.002053
0.001831
0.001604
0.001379
0.001154
0.002946
0.002721
0.002499
0.002276
0.002049
0.001827
0.001602
0.001377
0.001156
0.002943
0.002718
0.002497
0.002272
0.002048
0.001824
0.001602
0.001376
0.001153
0.002942
0.002718
0.002494
0.002269
0.002048
0.001821
0.001598
0.001376
0.001152
0.002936
0.002712
0.002491
0.002267
0.002045
0.001821
0.001598
0.001375
0.001150
0.002935
0.002712
0.002488
0.002264
0.002041
0.001820
0.001598
0.001372
0.001150
0.002932
0.002708
0.002487
0.002261
0.002039
0.001817
0.001594
0.001372
0.001151
0.002929
0.002706
0.002484
0.002262
0.002039
0.001815
0.001591
0.001371
0.001146
0.002925
0.002702
0.002480
0.002261
0.002034
0.001814
0.001591
0.001369
0.001148
0.002923
0.002699
0.002477
0.002256
0.002034
0.001815
0.001590
0.001370
0.001148
0.002917
0.002694
0.002475
0.002252
0.002030
0.001811
0.001590
0.001369
0.001146
0.002914
0.002694
0.002472
0.002254
0.002032
0.001809
0.001590
0.001368
0.001145
0.002910
0.002693
0.002471
0.002249
0.002028
0.001808
0.001587
0.001368
0.001146
SCALARS strain_3 float
LOOKUP_TABLE default
0.000646
0.042485
0.041887
0.041284
0.040678
0.040070
0.039458
0.038842
0.038225
0.037603
0.036982
0.036355
0.035728
0.035098
0.034469
0.033835
0.033202
0.032565
0.031930
0.031291
0.030653
0.030016
0.029376
0.028736
0.028098
0.027461
0.026823
0.026186
0.025550
0.024918
0.024284
0.023654
0.023025
0.022402
0.021778
0.021158
0.020540
0.019927
0.019319
0.018713
0.018113
0.017517
0.016926
0.016341
0.015762
0.015189
0.014620
0.014059
0.013505
0.012959
0.012421
0.011887
0.011363
0.010846
0.010341
0.009843
0.009352
0.008873
0.008404
0.007940
0.007492
0.007053
0.006622
0.006203
0.005795
0.005398
0.005012
0.004637
0.004275
0.003924
0.003585
0.003257
0.002941
0.002638
0.002346
0.002067
0.001799
0.001544
0.001302
0.001071
0.000852
0.041404
-0.000343
-0.000146
0.000064
0.000288
0.000523
0.000768
0.001030
0.001302
0.001586
0.001883
0.002191
0.002511
0.002846
0.003190
0.003549
0.003917
0.004298
0.004690
0.005094
0.005509
0.005931
0.006369
0.006816
0.007270
0.007739
0.008216
0.008701
0.009196
0.009701
0.010212
0.010736
0.011265
0.011802
0.012349
0.012901
0.013459
0.014028
0.014600
0.015178
0.015763
0.016354
0.016948
0.017551
0.018154
0.018763
0.019376
0.019995
0.020615
0.021239
0.021865
0.022494
0.023127
0.023760
0.024396
0.025033
0.025670
0.026311
0.026951
0.027590
0.028232
0.028874
0.029515
0.030154
0.030793
0.031434
0.032072
0.032708
0.033344
0.033980
0.034611
0.035240
0.035869
0.036495
0.037119
0.037740
0.038357
0.038973
0.039586
0.040197
0.040800
0.041513
0.041621
0.041729
0.041839
0.041946
0.042054
0.042163
0.042270
0.042379
0.000545
0.000445
0.000344
0.000245
0.000146
0.000045
-0.000052
-0.000150
-0.000247
-0.000048
0.000050
0.000147
0.000247
0.000347
0.000447
0.000547
0.000650
0.000751
0.000162
0.000262
0.000360
0.000461
0.000561
0.000662
0.000764
0.000864
0.000968
0.000386
0.000484
0.000586
0.000686
0.000788
0.000891
0.000991
0.001095
0.001197
0.000623
0.000722
0.000823
0.000923
0.001027
0.001129
0.001234
0.001335
0.001439
0.000870
0.000971
0.001073
0.001176
0.001277
0.001380
0.001484
0.001589
0.001694
0.001129
0.001232
0.001334
0.001439
0.001541
0.001645
0.001749
0.001854
0.001960
0.001405
0.001506
0.001608
0.001712
0.001817
0.001921
0.002028
0.002133
0.002239
0.001689
0.001792
0.001895
0.002000
0.002104
0.002210
0.002316
0.002423
0.002530
0.001985
0.002091
0.002194
0.002300
0.002405
0.002511
0.002619
0.002725
0.002834
0.002296
0.002401
0.002506
0.002610
0.002717
0.002826
0.002931
0.003040
0.003148
0.002618
0.002724
0.002828
0.002935
0.003042
0.003149
0.003258
0.003365
0.003474
0.002951
0.003058
0.003164
0.003270
0.003379
0.003487
0.003595
0.003704
0.003814
0.003296
0.003403
0.003511
0.003619
0.003726
0.003835
0.003945
0.004054
0.004164
0.003655
0.003761
0.003869
0.003977
0.004086
0.004197
0.004306
0.004415
0.004526
0.004024
0.004132
0.004239
0.004349
0.004460
0.004568
0.004680
0.004789
0.004900
0.004405
0.004513
0.004621
0.004732
0.004841
0.004952
0.005063
0.005174
0.005287
0.004798
0.004906
0.005016
0.005125
0.005237
0.005346
0.005458
0.005570
0.005682
0.005202
0.005310
0.005421
0.005531
0.005642
0.005753
0.005866
0.005977
0.006090
0.005617
0.005726
0.005836
0.005947
0.006059
0.006171
0.006282
0.006395
0.006509
0.006042
0.006151
0.006263
0.006374
0.006487
0.006598
0.006711
0.006825
0.006937
0.006479
0.006591
0.006701
0.006811
0.006926
0.007037
0.007151
0.007263
0.007376
0.006927
0.007036
0.007148
0.007262
0.007373
0.007487
0.007600
0.007713
0.007825
0.007382
0.007494
0.007607
0.007719
0.007833
0.007945
0.008058
0.008173
0.008288
0.007849
0.007962
0.008073
0.008187
0.008300
0.008414
0.008527
0.008643
0.008757
0.008327
0.008439
0.008552
0.008665
0.008777
0.008892
0.009007
0.009123
0.009238
0.008812
0.008926
0.009039
0.009154
0.009266
0.009380
0.009495
0.009611
0.009726
0.009309
0.009421
0.009534
0.009649
0.009766
0.009877
0.009992
0.010107
0.010223
0.009813
0.009928
0.010040
0.010154
0.010268
0.010383
0.010499
0.010615
0.010730
0.010326
0.010439
0.010554
0.010669
0.010783
0.010898
0.011015
0.011130
0.011247
0.010849
0.010964
0.011077
0.011192
0.011305
0.011422
0.011537
0.011653
0.011770
0.011380
0.011493
0.011607
0.011722
0.011837
0.011953
0.012069
0.012186
0.012302
0.011916
0.012031
0.012145
0.012261
0.012377
0.012492
0.012608
0.012724
0.012842
0.012461
0.012577
0.012693
0.012808
0.012922
0.013039
0.013154
0.013270
0.013388
0.013016
0.013130
0.013244
0.013360
0.013476
0.013592
0.013708
0.013825
0.013941
0.013575
0.013690
0.013805
0.013920
0.014036
0.014153
0.014269
0.014387
0.014503
0.014140
0.014256
0.014373
0.014486
0.014602
0.014719
0.014836
0.014952
0.015069
0.014715
0.014829
0.014946
0.015060
0.015176
0.015292
0.015409
0.015526
0.015645
0.015293
0.015408
0.015524
0.015640
0.015755
0.015873
0.015990
0.016106
0.016222
0.015878
0.015992
0.016109
0.016226
0.016341
0.016457
0.016573
0.016691
0.016809
0.016468
0.016583
0.016699
0.016814
0.016932
0.017047
0.017165
0.017281
0.017401
0.017063
0.017178
0.017295
0.017411
0.017527
0.017644
0.017763
0.017877
0.017995
0.017664
0.017778
0.017895
0.018012
0.018129
0.018244
0.018363
0.018478
0.018596
0.018269
0.018385
0.018499
0.018618
0.018734
0.018849
0.018966
0.019081
0.019200
0.018878
0.018995
0.019109
0.019226
0.019343
0.019458
0.019575
0.019693
0.019811
0.019491
0.019608
0.019724
0.019840
0.019955
0.020072
0.020189
0.020306
0.020423
0.020110
0.020226
0.020341
0.020457
0.020574
0.020690
0.020806
0.020923
0.021039
0.020731
0.020846
0.020961
0.021077
0.021192
0.021310
0.021427
0.021544
0.021660
0.021355
0.021469
0.021585
0.021700
0.021817
0.021932
0.022049
0.022167
0.022284
0.021982
0.022095
0.022211
0.022328
0.022443
0.022559
0.022675
0.022792
0.022909
0.022610
0.022726
0.022839
0.022956
0.023073
0.023188
0.023305
0.023421
0.023537
0.023241
0.023357
0.023471
0.023587
0.023704
0.023819
0.023937
0.024052
0.024168
0.023876
0.023990
0.024104
0.024220
0.024336
0.024453
0.024569
0.024685
0.024800
0.024511
0.024625
0.024739
0.024856
0.024971
0.025087
0.025202
0.025319
0.025435
0.025147
0.025261
0.025377
0.025493
0.025608
0.025723
0.025841
0.025957
0.026070
0.025785
0.025900
0.026014
0.026132
0.026244
0.026360
0.026476
0.026591
0.026708
0.026425
0.026539
0.026654
0.026769
0.026883
0.027000
0.027114
0.027230
0.027345
0.027064
0.027178
0.027294
0.027408
0.027523
0.027638
0.027755
0.027868
0.027982
0.027705
0.027818
0.027933
0.028049
0.028162
0.028278
0.028391
0.028507
0.028623
0.028348
0.028461
0.028574
0.028689
0.028803
0.028917
0.029032
0.029147
0.029261
0.028987
0.029101
0.029215
0.029328
0.029443
0.029557
0.029671
0.029787
0.029901
0.029628
0.029742
0.029856
0.029969
0.030083
0.030196
0.030311
0.030424
0.030539
0.030267
0.030381
0.030495
0.030608
0.030722
0.030836
0.030949
0.031065
0.031178
0.030908
0.031020
0.031134
0.031247
0.031362
0.031474
0.031588
0.031701
0.031815
0.031546
0.031661
0.031773
0.031884
0.031999
0.032112
0.032226
0.032338
0.032454
0.032185
0.032296
0.032411
0.032524
0.032637
0.032748
0.032863
0.032975
0.033087
0.032820
0.032933
0.033046
0.033159
0.033271
0.033385
0.033497
0.033609
0.033723
0.033456
0.033569
0.033682
0.033792
0.033904
0.034018
0.034131
0.034243
0.034356
0.034090
0.034203
0.034314
0.034426
0.034538
0.034650
0.034762
0.034875
0.034986
0.034722
0.034833
0.034945
0.035057
0.035169
0.035281
0.035393
0.035505
0.035617
0.035352
0.035463
0.035576
0.035687
0.035798
0.035909
0.036021
0.036133
0.036244
0.035979
0.036092
0.036203
0.036313
0.036426
0.036536
0.036648
0.036759
0.036871
0.036606
0.036718
0.036827
0.036940
0.037049
0.037161
0.037270
0.037382
0.037492
0.037229
0.037340
0.037450
0.037561
0.037671
0.037782
0.037892
0.038003
0.038114
0.037849
0.037961
0.038069
0.038181
0.038291
0.038401
0.038510
0.038621
0.038731
0.038467
0.038578
0.038688
0.038799
0.038907
0.039018
0.039127
0.039237
0.039347
0.039084
0.039193
0.039302
0.039411
0.039522
0.039631
0.039741
0.039850
0.039959
0.039696
0.039805
0.039915
0.040023
0.040133
0.040243
0.040351
0.040460
0.040569
0.040305
0.040414
0.040522
0.040631
0.040740
0.040849
0.040957
0.041066
0.041175
0.040912
0.041019
0.041129
0.041236
0.041345
0.041453
0.041562
0.041671
0.041779
SCALARS stress_1 float
LOOKUP_TABLE default
1043.608382
-960952.048566
-946405.836448
-931789.624330
-917100.287212
-902347.637594
-887528.550476
-872653.713358
-857717.251239
-842734.289121
-827697.952003
-812621.989885
-797504.215267
-782351.190649
-767167.728531
-751955.516413
-736723.429295
-721474.217176
-706212.942558
-690947.667940
-675676.893322
-660416.681204
-645161.594086
-629926.131968
-614707.169850
-599521.332732
-584369.870614
-569257.033495
-554192.508877
-539180.421759
-524231.959641
-509348.310023
-494538.785405
-479807.323287
-465167.611169
-450620.774051
-436177.124432
-421845.287314
-407626.762696
-393532.488078
-379571.775960
-365748.563842
-352072.164224
-338550.702106
-325186.677488
-311996.090369
-298978.190751
-286143.228633
-273497.579015
-261048.554397
-248807.467279
-236772.067661
-224957.668043
-213365.143425
-202004.493806
-190880.156688
-180001.632070
-169365.669952
-158990.895334
-148871.683216
-139016.971098
-129435.883980
-120128.046862
-111096.147244
-102347.872625
-93886.973007
-85711.635889
-77832.486271
-70251.274153
-62964.249535
-55975.912417
-49289.575299
-42901.988181
-36819.276062
-31040.313944
-25560.539326
-20381.764708
-15506.427590
-10926.965472
-6643.253354
-2658.228736
-959533.257700
3456.586748
-229.625370
-4210.962488
-8484.737106
-13056.324224
-17922.473842
-23099.185960
-28570.710578
-34346.047696
-40428.197315
-46811.346933
-53495.934051
-60485.521169
-67773.670787
-75358.945405
-83241.282523
-91418.432141
-99883.144259
-108636.731377
-117671.005996
-126988.155614
-136578.055232
-146439.829850
-156570.479468
-166954.941586
-177598.841204
-188492.115822
-199629.577940
-211001.852559
-222609.752177
-234436.589295
-246483.738913
-258740.826031
-271205.975649
-283865.937767
-296719.962385
-309751.674503
-322964.011622
-336340.411240
-349878.248358
-363573.460476
-377413.985094
-391395.759712
-405506.721830
-419743.808948
-434094.708566
-448556.670684
-463123.695303
-477785.907421
-492532.057039
-507362.144157
-522265.543775
-537232.193393
-552267.530511
-567351.617629
-582484.267247
-597658.041866
-612865.316484
-628100.716102
-643355.553220
-658629.015338
-673912.289956
-689202.377074
-704485.526692
-719767.113810
-735037.325929
-750284.788047
-765517.562665
-780721.837283
-795894.736901
-811028.636519
-826125.661137
-841175.810755
-856180.835373
-871130.984991
-886026.384610
-900859.596728
-915632.371346
-930335.458464
-944969.483082
-959677.505537
-959826.815873
-959970.376210
-960113.499047
-960257.559383
-960400.807220
-960539.617556
-960677.677893
-960818.863230
1337.981219
1624.479056
1898.601892
2159.037229
2404.035065
2638.657902
2864.780739
3074.591075
3271.901412
-416.873206
-617.246043
-826.868879
-1050.241716
-1287.864553
-1534.049889
-1794.735226
-2069.858062
-2359.918399
-4396.897824
-4596.458161
-4808.830998
-5032.391334
-5270.576671
-5519.074507
-5784.322344
-6056.882681
-6344.505517
-8670.797442
-8869.795279
-9081.793116
-9308.665952
-9542.663789
-9797.474125
-10059.971962
-10337.407299
-10625.905135
-13241.134561
-13443.444897
-13657.817734
-13880.753070
-14122.750907
-14371.873744
-14638.121580
-14912.619417
-15206.492253
-18112.034179
-18314.657015
-18526.842352
-18755.715188
-18993.275525
-19244.835862
-19509.833698
-19790.644035
-20080.704372
-23283.746297
-23486.681633
-23699.991970
-23928.427307
-24169.550143
-24422.985480
-24686.108316
-24966.856153
-25258.666490
-28756.520915
-28962.768751
-29180.329088
-29404.326925
-29646.574761
-29898.635098
-30162.132935
-30444.068271
-30735.441108
-34536.420533
-34741.230870
-34954.353706
-35180.664043
-35424.786879
-35676.597216
-35942.595053
-36223.592889
-36514.778226
-40618.820151
-40821.755488
-41032.815824
-41262.501161
-41507.123998
-41758.621834
-42026.494671
-42307.242507
-42598.677844
-47001.594769
-47205.217606
-47419.340442
-47648.588279
-47892.148616
-48141.833952
-48411.019289
-48690.079625
-48984.952462
-53687.369387
-53891.179724
-54106.927561
-54335.425397
-54576.610734
-54831.171070
-55098.981407
-55376.854244
-55670.852080
-60675.019005
-60877.454342
-61097.077179
-61321.450015
-61566.010352
-61820.195688
-62086.318525
-62365.816362
-62658.939198
-67962.793624
-68167.853960
-68379.414297
-68611.599633
-68850.472470
-69107.907807
-69372.593143
-69651.153480
-69944.401316
-75549.193242
-75755.128578
-75968.876415
-76195.686751
-76436.559588
-76692.869925
-76959.805261
-77238.178098
-77527.113434
-83430.155360
-83636.153196
-83851.026033
-84080.148870
-84318.896706
-84574.769543
-84840.767379
-85120.077716
-85408.075553
-91607.929978
-91810.302814
-92026.300651
-92254.610988
-92495.671324
-92748.669161
-93013.354497
-93292.539834
-93582.412671
-100072.892096
-100276.577433
-100492.075269
-100719.823106
-100959.883442
-101211.381279
-101479.566616
-101753.876952
-102046.812289
-108826.229214
-109028.727051
-109243.349887
-109469.285224
-109711.470560
-109966.343397
-110227.028734
-110504.401570
-110792.399407
-117863.128832
-118064.376669
-118279.124505
-118508.809842
-118746.995179
-118996.243015
-119258.990852
-119536.551188
-119824.736525
-127178.903450
-127379.838787
-127596.274124
-127820.334460
-128060.519797
-128312.205133
-128576.140470
-128848.450807
-129134.386143
-136769.053068
-136972.550905
-137185.611242
-137411.734078
-137647.231915
-137897.542251
-138163.540088
-138433.037925
-138720.785761
-146629.952687
-146833.825523
-147046.010860
-147268.883696
-147509.694033
-147757.004370
-148015.752206
-148290.062543
-148574.435379
-156759.539805
-156959.600141
-157172.285478
-157396.033314
-157632.218651
-157881.841488
-158142.214324
-158410.962161
-158695.897497
-167146.376923
-167348.124759
-167558.560096
-167783.620433
-168019.618269
-168265.803606
-168524.301442
-168793.611779
-169073.922116
-177789.714041
-177987.399377
-178198.772214
-178423.895051
-178657.455387
-178903.765724
-179161.951060
-179429.511397
-179709.759234
-188680.801159
-188881.111496
-189091.484332
-189314.044669
-189548.792505
-189793.727842
-190047.350679
-190314.161015
-190591.158852
-199816.013277
-200015.761114
-200226.821450
-200446.131787
-200679.567123
-200924.377460
-201175.562797
-201439.935633
-201716.245970
-211191.350395
-211387.723232
-211596.721068
-211818.406405
-212048.966742
-212289.402078
-212543.712415
-212803.335251
-213078.770588
-222793.187513
-222992.997850
-223199.495686
-223418.431023
-223648.678860
-223887.926696
-224139.487033
-224403.172369
-224672.482706
-234621.462131
-234820.709968
-235026.082805
-235244.143141
-235473.828478
-235714.701314
-235963.761651
-236222.259488
-236493.819824
-246671.611749
-246865.359586
-247074.544923
-247289.292759
-247516.665596
-247754.913433
-248001.911269
-248260.409106
-248525.219442
-258929.386368
-259124.071704
-259329.569541
-259543.192377
-259770.002714
-260006.688051
-260250.935887
-260506.996224
-260772.931560
-271391.223486
-271585.846322
-271790.656659
-272004.529496
-272227.089832
-272463.462669
-272706.898005
-272960.770842
-273225.268679
-284049.935604
-284244.558440
-284449.243777
-284663.491614
-284885.801950
-285119.424787
-285359.235123
-285610.545460
-285872.168297
-296901.085222
-297093.520559
-297296.393395
-297508.203732
-297730.264068
-297963.074405
-298202.759742
-298452.570078
-298710.692915
-309936.859840
-310128.482677
-310328.668013
-310539.790850
-310760.413686
-310988.724023
-311227.784360
-311472.469696
-311731.217533
-323146.321958
-323334.757295
-323539.130131
-323747.252968
-323964.938305
-324193.436141
-324427.496478
-324671.056814
-324927.054651
-336521.721576
-336715.156913
-336912.279749
-337121.590086
-337339.337923
-337565.210759
-337794.396096
-338038.518932
-338291.516769
-350062.308694
-350252.181531
-350451.116868
-350655.927204
-350872.362541
-351094.735377
-351327.295714
-351567.356051
-351814.916387
-363754.020812
-363945.831149
-364140.453986
-364345.951822
-364559.262159
-364781.509995
-365010.632832
-365248.505669
-365498.066005
-377595.170431
-377782.480767
-377977.166104
-378183.351440
-378394.911777
-378615.159614
-378844.657450
-379079.842787
-379321.028123
-391573.507549
-391761.317885
-391956.065722
-392159.063558
-392370.936395
-392588.059232
-392811.307068
-393045.117405
-393281.990242
-405686.782167
-405872.530003
-406066.277840
-406266.213177
-406474.773513
-406689.583850
-406913.644186
-407142.954523
-407383.327360
-419917.681785
-420104.242121
-420298.239958
-420497.612795
-420701.485631
-420917.670968
-421139.793805
-421365.416641
-421601.351978
-434274.331403
-434456.579240
-434647.764576
-434845.449913
-435051.885249
-435262.258086
-435480.193423
-435706.253759
-435936.001596
-448735.856021
-448916.666358
-449108.164194
-449303.474531
-449506.597368
-449714.720204
-449933.093041
-450155.590877
-450384.526214
-463299.943139
-463480.690976
-463670.938812
-463864.436649
-464065.184486
-464274.244822
-464487.680159
-464707.740495
-464934.925832
-477960.655257
-478139.590594
-478330.338431
-478519.836267
-478719.521604
-478924.831940
-479137.517277
-479356.515114
-479578.825450
-492702.867375
-492886.677712
-493072.238049
-493263.360885
-493460.421222
-493665.669058
-493873.791895
-494090.852232
-494313.225068
-507535.329494
-507712.702330
-507897.200167
-508089.823003
-508282.570840
-508483.568677
-508692.941513
-508904.564350
-509123.749686
-522437.979112
-522618.976948
-522798.037285
-522986.847621
-523181.720458
-523383.968295
-523585.841131
-523796.526468
-524011.899304
-537407.878730
-537586.501566
-537765.499403
-537952.559740
-538145.057576
-538344.242913
-538544.303249
-538752.363586
-538963.298923
-552437.528348
-552611.963684
-552796.211521
-552979.084358
-553170.082194
-553363.330031
-553563.952867
-553769.263204
-553977.948541
-567523.677966
-567697.175803
-567876.673639
-568059.483976
-568247.419312
-568441.542149
-568637.664986
-568838.975322
-569047.723159
-582655.515084
-582827.950421
-583004.260757
-583184.883594
-583372.943930
-583564.566767
-583757.752104
-583958.624940
-584162.560277
-597827.164702
-598000.225039
-598171.972875
-598353.595712
-598539.218549
-598726.653885
-598921.339222
-599116.899558
-599315.647395
-613031.439320
-613203.499657
-613375.184993
-613555.245330
-613738.805667
-613925.491003
-614115.988840
-614311.299177
-614508.797013
-628266.963938
-628438.086775
-628609.272112
-628786.519948
-628968.580285
-629151.953121
-629339.825958
-629533.636295
-629726.571631
-643521.238556
-643692.048893
-643863.609230
-644039.232066
-644216.354903
-644401.602740
-644585.788076
-644775.160913
-644965.971249
-658793.138175
-658962.323511
-659134.571348
-659307.694184
-659482.754521
-659663.127358
-659846.687694
-660034.748031
-660222.558367
-674073.162793
-674243.598129
-674412.658466
-674583.781303
-674761.716639
-674939.151976
-675121.712312
-675303.647649
-675489.770486
-689362.687411
-689529.997747
-689695.058084
-689869.305921
-690041.428757
-690216.301594
-690396.486930
-690577.547267
-690759.920104
-704647.774529
-704813.209866
-704980.082702
-705151.768039
-705318.515875
-705494.451212
-705671.949049
-705848.384385
-706030.132222
-719926.611647
-720090.109484
-720257.294820
-720423.417657
-720594.227993
-720766.038330
-720940.598667
-721117.409003
-721294.906840
-735196.073765
-735360.321602
-735524.381938
-735686.754775
-735859.002612
-736024.187948
-736197.685785
-736371.058621
-736544.306458
-750446.473383
-750609.221220
-750771.531556
-750934.904393
-751099.714730
-751267.900066
-751438.147903
-751609.958239
-751782.018576
-765675.685501
-765835.808338
-765998.556175
-766160.429011
-766325.739348
-766489.424684
-766659.110021
-766826.920358
-766996.730694
-780876.335119
-781036.457956
-781194.455793
-781359.016129
-781520.076466
-781684.511802
-781849.822139
-782016.319976
-782185.005312
-796048.109738
-796206.295074
-796366.230411
-796526.103247
-796685.538584
-796848.848921
-797012.534257
-797176.407094
-797340.342430
-811183.321856
-811341.194692
-811500.067529
-811656.065365
-811815.875702
-811975.936039
-812135.746375
-812299.494212
-812461.867049
-826280.221474
-826435.156810
-826592.154647
-826746.152484
-826904.087820
-827065.023157
-827224.270993
-827379.831330
-827541.891667
-841330.558592
-841483.931428
-841639.054265
-841796.864602
-841952.737438
-842106.922775
-842262.358112
-842419.855948
-842577.041285
-856333.708210
-856485.706047
-856640.578883
-856792.639220
-856947.012056
-857100.822393
-857255.945230
-857409.818066
-857564.940903
-871283.795328
-871433.480665
-871587.666001
-871739.101338
-871891.786675
-872044.534511
-872197.469848
-872344.780184
-872500.778021
-886175.944946
-886327.067783
-886479.378119
-886631.000956
-886780.998793
-886928.246629
-887081.056966
-887228.117302
-887378.115139
-901010.469564
-901161.779901
-901311.902738
-901459.588074
-901607.710911
-901758.958747
-901906.269084
-902052.516921
-902202.264757
-915782.431682
-915931.054519
-916078.302356
-916225.425192
-916376.923029
-916521.983365
-916667.418702
-916814.354039
-916957.601875
-930485.456301
-930634.204137
-930781.451974
-930927.199810
-931072.197647
-931218.007984
-931362.943320
-931504.378657
-931647.813993
-945120.043419
-945266.791255
-945414.789092
-945557.411928
-945700.784765
-945844.345102
-945989.467938
-946127.840775
-946269.213611
SCALARS stress_2 float
LOOKUP_TABLE default
12188.190144
-142027.623385
-139780.450716
-137505.278046
-135219.105377
-132918.932708
-130613.760039
-128324.587370
-125985.414701
-123660.242032
-121332.069363
-118987.896694
-116616.724024
-114277.551355
-111901.378686
-109528.206017
-107164.033348
-104768.860679
-102392.688010
-100008.515341
-97623.342672
-95234.170002
-92855.997333
-90467.824664
-88081.651995
-85716.479326
-83313.306657
-80969.133988
-78596.961319
-76236.788650
-73885.615980
-71544.443311
-69204.270642
-66884.097973
-64570.925304
-62254.752635
-59983.579966
-57716.407297
-55456.234628
-53240.061959
-51005.889289
-48820.716620
-46636.543951
-44489.371282
-42342.198613
-40245.025944
-38152.853275
-36096.680606
-34071.507937
-32066.335267
-30093.162598
-28155.989929
-26226.817260
-24358.644591
-22517.471922
-20692.299253
-18923.126584
-17184.953915
-15480.781245
-13803.608576
-12175.435907
-10591.263238
-9046.090569
-7534.917900
-6061.745231
-4645.572562
-3252.399893
-1937.227223
-644.054554
636.118115
1820.290784
3000.463453
4116.636122
5198.808791
6205.981460
7185.154129
8159.326798
9042.499468
9875.672137
10690.844806
11453.017475
-125556.504224
24108.309305
23546.136636
22927.963966
22292.791297
21591.618628
20871.445959
20075.273290
19243.100621
18356.927952
17421.755283
16456.582614
15415.409944
14360.237275
13249.064606
12059.891937
10874.719268
9605.546599
8300.373930
6951.201261
5569.028592
4133.855922
2660.683253
1140.510584
-429.662085
-2015.834754
-3680.007423
-5346.180092
-7073.352761
-8826.525430
-10649.698099
-12456.870769
-14318.043438
-16213.216107
-18155.388776
-20091.561445
-22115.734114
-24138.906783
-26171.079452
-28250.252121
-30348.424791
-32471.597460
-34606.770129
-36774.942798
-38983.115467
-41194.288136
-43420.460805
-45656.633474
-47925.806143
-50214.978813
-52504.151482
-54818.324151
-57149.496820
-59468.669489
-61805.842158
-64168.014827
-66535.187496
-68894.360165
-71253.532835
-73638.705504
-76017.878173
-78412.050842
-80782.223511
-83178.396180
-85572.568849
-87949.741518
-90344.914187
-92740.086856
-95116.259526
-97484.432195
-99878.604864
-102239.777533
-104598.950202
-106969.122871
-109326.295540
-111669.468209
-114008.640878
-116338.813548
-118675.986217
-120959.158886
-123278.331555
-127209.116140
-128849.728056
-130499.339972
-132143.951888
-133782.563804
-135434.175720
-137090.787636
-138732.399552
-140373.011469
13382.802060
14593.413976
15772.025892
16987.637808
18167.249724
19346.861640
20549.473556
21732.085473
22907.697389
22343.524719
21149.912803
19933.300887
18722.688971
17538.077055
16302.465139
15097.853223
13897.241307
12656.629391
21737.352050
20518.740134
19288.128218
18084.516302
16842.904386
15624.292470
14406.680554
13164.068638
11927.456722
21077.179381
19839.567465
18599.955549
17359.343633
16109.731717
14879.119801
13623.507885
12394.895969
11138.284053
20331.006712
19119.394796
17868.782880
16602.170964
15338.559048
14093.947132
12835.335216
11573.723300
10309.111384
19599.834043
18330.222127
17070.610211
15802.998295
14525.386379
13253.774463
11997.162547
10701.550631
9412.938715
18797.661374
17509.049458
16240.437542
14955.825626
13670.213710
12370.601794
11079.989878
9787.377962
8492.766045
17951.488705
16653.876789
15361.264873
14064.652957
12771.041041
11460.429125
10149.817208
8849.205292
7515.593376
17053.316036
15742.704120
14432.092204
13118.480288
11800.868371
10470.256455
9156.644539
7838.032623
6523.420707
16116.143367
14798.531451
13446.919534
12124.307618
10812.695702
9463.083786
8122.471870
6804.859954
5457.248038
15109.970697
13772.358781
12438.746865
11101.134949
9752.523033
8386.911117
7048.299201
5716.687285
4347.075369
14075.798028
12731.186112
11393.574196
10014.962280
8668.350364
7287.738448
5940.126532
4573.514616
3192.902700
12995.625359
11634.013443
10260.401527
8895.789611
7533.177695
6138.565779
4767.953863
3386.341947
2003.730031
11862.452690
10492.840774
9101.228858
7709.616942
6328.005026
4946.393110
3548.781194
2154.169278
782.557362
10688.280021
9289.668105
7898.056189
6480.444273
5091.832357
3702.220441
2299.608525
890.996609
-514.615307
9463.107352
8069.495436
6658.883520
5244.271604
3844.659688
2437.047772
992.435856
-433.176060
-1838.787977
8204.934683
6792.322767
5349.710851
3932.098935
2496.487019
1080.875103
-361.736814
-1776.348730
-3199.960646
6882.762014
5457.150098
4007.538182
2572.926266
1142.314350
-296.297567
-1734.909483
-3172.521399
-4614.133315
5526.589345
4086.977429
2623.365513
1181.753596
-272.858320
-1695.470236
-3168.082152
-4627.694068
-6084.305984
4127.416676
2653.804759
1215.192843
-254.419073
-1717.030989
-3176.642905
-4639.254821
-6106.866737
-7564.478653
2677.244006
1205.632090
-233.979826
-1727.591742
-3219.203658
-4682.815574
-6148.427490
-7636.039406
-9091.651322
1170.071337
-289.540579
-1756.152495
-3246.764411
-4737.376327
-6224.988243
-7710.600159
-9198.212075
-10694.823991
-355.101332
-1825.713248
-3315.325164
-4820.937080
-6326.548996
-7798.160912
-9304.772828
-10807.384744
-12288.996660
-1920.274001
-3424.885917
-4911.497833
-6436.109749
-7917.721665
-9423.333581
-10944.945497
-12443.557413
-13959.169329
-3530.446670
-5040.058586
-6553.670502
-8075.282418
-9572.894334
-11089.506250
-12616.118166
-14129.730082
-15655.341998
-5188.619339
-6698.231255
-8230.843171
-9737.455087
-11275.067003
-12800.678919
-14318.290835
-15855.902752
-17395.514668
-6881.792008
-8408.403924
-9944.015840
-11465.627756
-13008.239672
-14535.851589
-16084.463505
-17603.075421
-19146.687337
-8625.964677
-10148.576593
-11680.188509
-13210.800426
-14767.412342
-16316.024258
-17855.636174
-19400.248090
-20954.860006
-10373.137346
-11927.749263
-13483.361179
-15012.973095
-16561.585011
-18130.196927
-19671.808843
-21235.420759
-22794.032675
-12174.310016
-13728.921932
-15294.533848
-16842.145764
-18407.757680
-19952.369596
-21533.981512
-23099.593428
-24671.205344
-14006.482685
-15570.094601
-17139.706517
-18720.318433
-20285.930349
-21872.542265
-23430.154181
-24972.766097
-26574.378013
-15883.655354
-17454.267270
-19042.879186
-20617.491102
-22183.103018
-23761.714934
-25344.326850
-26937.938766
-28500.550682
-17802.828023
-19383.439939
-20957.051855
-22523.663771
-24140.275687
-25714.887603
-27299.499519
-28888.111435
-30490.723351
-19731.000692
-21311.612608
-22896.224524
-24492.836440
-26084.448356
-27688.060272
-29273.672188
-30856.284104
-32476.896020
-21687.173361
-23294.785277
-24904.397193
-26482.009109
-28079.621025
-29690.232941
-31286.844857
-32868.456774
-34489.068690
-23702.346030
-25305.957946
-26905.569862
-28502.181778
-30111.793694
-31720.405611
-33308.017527
-34923.629443
-36557.241359
-25734.518699
-27322.130615
-28947.742531
-30559.354447
-32156.966364
-33776.578280
-35397.190196
-37025.802112
-38614.414028
-27782.691368
-29371.303284
-30990.915201
-32621.527117
-34233.139033
-35857.750949
-37491.362865
-39111.974781
-40723.586697
-29854.864038
-31473.475954
-33092.087870
-34712.699786
-36333.311702
-37984.923618
-39598.535534
-41218.147450
-42857.759366
-31961.036707
-33592.648623
-35214.260539
-36838.872455
-38480.484371
-40108.096287
-41754.708203
-43365.320119
-45004.932035
-34104.209376
-35725.821292
-37361.433208
-38985.045124
-40618.657040
-42247.268956
-43891.880872
-45535.492788
-47195.104704
-36246.382045
-37875.993961
-39525.605877
-41164.217793
-42800.829709
-44438.441625
-46086.053541
-47710.665457
-49365.277373
-38411.554714
-40067.166630
-41698.778546
-43355.390462
-44996.002378
-46629.614294
-48298.226210
-49934.838126
-51584.450042
-40623.727383
-42280.339299
-43908.951215
-45540.563131
-47213.175047
-48863.786963
-50508.398879
-52153.010795
-53809.622712
-42831.900052
-44505.511968
-46119.123884
-47789.735800
-49428.347716
-51109.959632
-52736.571549
-54403.183465
-56051.795381
-45074.072721
-46720.684637
-48376.296553
-50020.908469
-51690.520386
-53355.132302
-55003.744218
-56666.356134
-58323.968050
-47313.245390
-48998.857306
-50633.469223
-52290.081139
-53965.693055
-55611.304971
-57289.916887
-58942.528803
-60615.140719
-49597.418060
-51253.029976
-52919.641892
-54583.253808
-56265.865724
-57894.477640
-59578.089556
-61230.701472
-62891.313388
-51884.590729
-53540.202645
-55217.814561
-56881.426477
-58541.038393
-60223.650309
-61895.262225
-63530.874141
-65214.486057
-54173.763398
-55849.375314
-57521.987230
-59169.599146
-60844.211062
-62500.822978
-64192.434894
-65866.046810
-67525.658726
-56487.936067
-58151.547983
-59816.159899
-61477.771815
-63166.383731
-64830.995647
-66522.607563
-68189.219479
-69854.831395
-58821.108736
-60475.720652
-62160.332568
-63818.944484
-65497.556400
-67171.168316
-68833.780232
-70535.392148
-72216.004064
-61153.281405
-62804.893321
-64487.505237
-66160.117153
-67847.729069
-69523.340985
-71195.952901
-72855.564817
-74547.176734
-63481.454074
-65161.065990
-66843.677906
-68518.289822
-70194.901738
-71858.513654
-73555.125571
-75233.737487
-76919.349403
-65842.626743
-67507.238659
-69192.850575
-70880.462491
-72555.074407
-74238.686324
-75913.298240
-77570.910156
-79280.522072
-68210.799412
-69889.411328
-71561.023244
-73237.635161
-74927.247077
-76595.858993
-78278.470909
-79962.082825
-81650.694741
-70557.972081
-72242.583998
-73934.195914
-75608.807830
-77287.419746
-78982.031662
-80638.643578
-82336.255494
-84020.867410
-72939.144751
-74607.756667
-76304.368583
-77978.980499
-79651.592415
-81358.204331
-83028.816247
-84703.428163
-86400.040079
-75315.317420
-76990.929336
-78682.541252
-80361.153168
-82037.765084
-83732.377000
-85404.988916
-87095.600832
-88787.212748
-77696.490089
-79378.102005
-81082.713921
-82765.325837
-84443.937753
-86102.549669
-87794.161585
-89496.773501
-91164.385417
-80084.662758
-81767.274674
-83448.886590
-85126.498506
-86815.110422
-88510.722338
-90192.334254
-91860.946170
-93551.558086
-82472.835427
-84139.447343
-85841.059259
-87513.671175
-89213.283091
-90884.895007
-92577.506923
-94243.118839
-95945.730755
-84859.008096
-86546.620012
-88212.231928
-89923.843844
-91588.455760
-93276.067676
-94962.679592
-96631.291509
-98328.903425
-87261.180765
-88919.792681
-90606.404597
-92279.016513
-93967.628429
-95653.240346
-97344.852262
-99021.464178
-100697.076094
-89641.353434
-91316.965350
-93011.577266
-94672.189183
-96348.801099
-98044.413015
-99727.024931
-101408.636847
-103096.248763
-92037.526103
-93715.138020
-95374.749936
-97073.361852
-98740.973768
-100440.585684
-102111.197600
-103785.809516
-105473.421432
-94419.698773
-96079.310689
-97786.922605
-99461.534521
-101122.146437
-102829.758353
-104476.370269
-106157.982185
-107842.594101
-96796.871442
-98471.483358
-100164.095274
-101820.707190
-103505.319106
-105180.931022
-106852.542938
-108532.154854
-110215.766770
-99181.044111
-100844.656027
-102508.267943
-104206.879859
-105882.491775
-107579.103691
-109224.715607
-110906.327523
-112587.939439
-101550.216780
-103221.828696
-104896.440612
-106565.052528
-108241.664444
-109925.276360
-111587.888276
-113275.500192
-114943.112108
-103919.389449
-105591.001365
-107261.613281
-108942.225197
-110612.837113
-112289.449029
-113955.060945
-115615.672861
-117315.284777
-106280.562118
-107951.174034
-109622.785950
-111290.397866
-112958.009782
-114656.621698
-116306.233614
-117983.845531
-119660.457447
-108645.734787
-110302.346703
-111983.958619
-113638.570535
-115318.182451
-116973.794368
-118639.406284
-120328.018200
-121996.630116
-110998.907456
-112656.519372
-114328.131288
-115985.743204
-117668.355121
-119334.967037
-120983.578953
-122649.190869
-124316.802785
-113352.080125
-115000.692041
-116663.303958
-118320.915874
-119994.527790
-121659.139706
-123326.751622
-124978.363538
-126655.975454
-115670.252795
-117339.864711
-118989.476627
-120649.088543
-122316.700459
-123973.312375
-125638.924291
-127309.536207
-128963.148123
-117998.425464
-119653.037380
-121303.649296
-122956.261212
-124634.873128
-126288.485044
-127957.096960
-129601.708876
-131274.320792
-120311.598133
-121969.210049
-123634.821965
-125291.433881
-126939.045797
-128595.657713
-130268.269629
-131906.881545
-133578.493461
-122615.770802
-124270.382718
-125939.994634
-127579.606550
-129228.218466
-130889.830382
-132524.442298
-134199.054214
-135852.666130
-124928.943471
-126556.555387
-128224.167303
-129882.779219
-131526.391135
-133156.003051
-134828.614967
-136479.226883
-138112.838799
SCALARS stress_3 float
LOOKUP_TABLE default
4194.446152
277074.059200
273175.589037
269242.618874
265283.148711
261305.178548
257314.208385
253311.238222
249273.268059
245227.797895
241171.327732
237093.857569
232988.387406
228893.417243
224774.947080
220650.476917
216510.506754
212371.036591
208200.566428
204043.596264
199889.126101
195723.655938
191559.685775
187386.215612
183223.745449
179064.775286
174900.805123
170752.834960
166596.864797
162469.394633
158340.424470
154229.954307
150133.484144
146050.013981
141994.543818
137939.073655
133921.603492
129923.633329
125948.663166
122004.693002
118087.222839
114196.752676
110342.782513
106529.812350
102752.342187
99012.872024
95304.901861
91650.431698
88034.461535
84471.491371
80944.021208
77476.551045
74059.580882
70693.610719
67388.640556
64138.670393
60950.700230
57823.730067
54761.759904
51748.289740
48812.819577
45938.849414
43145.379251
40407.909088
37750.938925
35159.968762
32648.998599
30209.028436
27839.058273
25546.088109
23329.617946
21195.147783
19143.177620
17169.207457
15264.237294
13442.767131
11707.796968
10041.326805
8452.356642
6954.386478
5535.916315
270152.608880
-2237.504168
-941.534005
429.936158
1884.406321
3412.876484
5022.346647
6707.816810
8487.786973
10348.757136
12282.227299
14297.697463
16393.667626
18567.137789
20818.607952
23150.578115
25551.548278
28043.018441
30592.988604
33228.458767
35931.928930
38705.399094
41552.869257
44466.339420
47438.309583
50488.779746
53598.749909
56764.720072
59996.190235
63284.660398
66643.130561
70042.600725
73506.070888
77007.041051
80567.011214
84165.981377
87820.451540
91520.421703
95241.891866
99026.862029
102854.332192
106691.302356
110574.272519
114498.742682
118447.712845
122424.183008
126420.153171
130453.123334
134501.593497
138567.563660
142665.033823
146762.503987
150889.974150
155026.944313
159173.414476
163330.884639
167495.854802
171666.324965
175841.295128
180027.265291
184207.735454
188389.205618
192567.675781
196755.145944
200920.616107
205091.586270
209251.556433
213412.526596
217568.496759
221706.966922
225825.937085
229939.907249
234039.377412
238113.847575
242193.817738
246243.287901
250275.258064
254294.728227
258281.698390
262258.168553
266216.138716
270848.603912
271538.598944
272232.593976
272935.589008
273624.084040
274319.579072
274999.574104
275695.069136
276385.564168
3527.951120
2885.956088
2224.961056
1577.466024
931.970992
299.975960
-353.019072
-977.514104
-1602.509136
-307.538973
324.456059
962.951091
1606.446123
2251.441155
2904.436187
3554.431219
4208.926251
4877.921283
1067.431190
1702.926222
2343.421254
2999.916286
3653.911318
4304.906350
4968.401382
5618.396414
6277.891446
2524.901353
3169.896385
3819.891417
4470.386449
5128.881481
5786.876513
6452.871545
7122.866577
7790.361609
4066.371516
4709.866548
5369.861580
6016.356612
6687.851644
7348.846676
8015.341708
8692.836741
9363.331773
5672.341679
6321.836711
6994.331743
7651.826775
8316.821807
8997.816839
9669.311872
10337.306904
11013.301936
7377.811842
8037.306874
8705.801906
9368.796938
10040.291971
10713.287003
11390.282035
12070.777067
12756.272099
9154.782005
9819.777037
10490.272069
11150.267102
11838.762134
12516.257166
13199.252198
13885.747230
14572.242262
11015.752168
11689.747200
12351.242233
13043.737265
13709.232297
14405.227329
15080.722361
15779.217393
16471.712425
12955.222332
13624.217364
14308.712396
14988.207428
15667.702460
16354.197492
17047.692524
17740.187556
18437.182588
14982.192495
15636.187527
16334.182559
17011.177591
17717.672623
18403.667655
19097.162687
19787.157719
20492.152751
17071.162658
17753.157690
18440.652722
19136.147754
19820.642786
20516.137818
21221.132850
21918.127882
22624.122914
19256.132821
19938.627853
20629.122885
21320.617917
22014.112949
22708.607981
23415.603013
24125.598045
24836.093077
21512.102984
22201.598016
22889.593048
23589.588080
24282.583112
24987.078144
25704.073176
26415.068208
27125.563240
23840.073147
24542.068179
25233.563211
25937.058243
26639.053275
27348.048307
28053.043339
28766.538372
29485.533404
26243.543310
26948.038342
27650.533374
28359.528406
29055.023438
29778.018470
30484.513503
31206.008535
31924.503567
28740.513473
29434.008505
30140.503537
30854.498569
31561.493601
32273.488634
32997.483666
33714.478698
34426.973730
31284.983636
31997.478668
32696.473700
33429.468733
34135.463765
34845.458797
35567.453829
36295.448861
37027.443893
33934.953799
34640.448831
35346.943864
36060.438896
36783.933928
37502.428960
38228.423992
38948.919024
39682.914056
36634.423963
37337.418995
38056.914027
38776.409059
39483.404091
40220.399123
40943.894155
41674.389187
42405.384219
39421.894126
40122.889158
40849.384190
41557.879222
42287.374254
43008.369286
43744.364318
44472.859350
45207.854382
42255.864289
42991.359321
43696.354353
44413.849385
45149.844417
45867.339449
46596.834481
47327.329513
48077.324545
45176.834452
45887.329484
46616.324516
47346.819548
48066.314580
48806.809612
49533.304644
50267.299676
51019.794708
48154.804615
48881.299647
49598.794679
50331.289711
51054.284743
51793.279775
52523.774807
53272.269839
54010.764871
51195.274778
51926.269810
52652.264842
53379.259874
54110.754906
54855.249938
55597.744970
56335.740003
57064.735035
54313.744941
55040.239973
55757.235005
56499.230037
57244.725069
57970.720101
58714.215134
59470.710166
60204.205198
57502.215104
58217.210136
58946.205168
59684.200200
60420.695232
61159.690265
61899.685297
62643.680329
63401.675361
60723.685267
61453.180299
62185.175331
62922.670364
63664.165396
64395.660428
65145.655460
65893.650492
66630.145524
64024.155430
64748.150462
65487.145495
66214.640527
66964.635559
67703.130591
68449.125623
69193.620655
69943.115687
67371.625593
68100.620626
68836.115658
69573.110690
70308.605722
71061.600754
71809.095786
72547.590818
73304.085850
70774.095757
71506.090789
72243.585821
72986.580853
73731.575885
74468.070917
75216.065949
75971.060981
76723.056013
74229.565920
74962.060952
75711.555984
76443.551016
77197.546048
77938.541080
78685.036112
79428.031144
80193.526176
77749.036083
78475.531115
79213.526147
79960.021179
80704.016211
81449.011243
82197.506275
82960.501307
83707.996339
81295.006246
82040.501278
82775.996310
83519.491342
84267.486374
85012.481406
85763.476438
86525.471470
87269.466502
84900.476409
85640.471441
86395.966473
87125.461505
87877.456537
88624.951569
89373.446601
90129.441634
90882.436666
88561.446572
89299.441604
90045.936636
90793.431668
91539.426700
92283.921732
93032.916765
93787.411797
94546.906829
92252.416735
92988.411767
93740.906799
94480.401831
95240.396863
95973.891896
96733.886928
97499.881960
98249.876992
95996.886898
96735.881930
97479.376962
98229.371995
98967.867027
99714.862059
100477.357091
101227.852123
101986.347155
99773.857061
100521.352093
101252.847126
102004.342158
102760.837190
103502.832222
104259.327254
105017.322286
105767.317318
103595.827224
104327.822257
105072.317289
105815.312321
106569.807353
107319.802385
108076.297417
108826.792449
109585.787481
107434.797388
108185.292420
108925.287452
109678.282484
110422.277516
111177.272548
111926.767580
112684.762612
113440.757644
111328.267551
112065.262583
112808.257615
113556.752647
114316.247679
115054.242711
115819.237743
116562.732775
117317.227807
115246.737714
115990.732746
116735.227778
117468.722810
118231.217842
118984.212874
119734.707906
120494.202938
121235.197970
119194.707877
119931.202909
120673.197941
121427.692973
122178.688005
122921.683037
123675.678069
124437.673101
125183.668133
123162.678040
123907.673072
124647.668104
125406.663136
126150.158168
126898.653200
127659.148232
128402.143265
129169.138297
127175.148203
127908.143235
128661.138267
129414.133299
130155.628331
130911.623363
131655.118396
132402.613428
133157.108460
131193.118366
131949.613398
132685.108430
133436.103462
134176.598494
134935.093527
135680.588559
136432.083591
137185.078623
135235.588529
135993.583561
136732.578593
137473.073626
138227.068658
138971.563690
139731.058722
140478.053754
141230.548786
139316.058692
140061.053724
140801.548757
141543.043789
142303.038821
143051.033853
143789.528885
144547.523917
145300.518949
143406.028855
144150.023888
144880.518920
145642.013952
146389.008984
147136.504016
147876.999048
148627.994080
149386.489112
147511.499019
148253.994051
149004.989083
149730.984115
150485.979147
151226.474179
151978.969211
152729.964243
153479.459275
151636.969182
152367.464214
153112.459246
153859.454278
154609.949310
155346.944342
156091.439374
156838.434406
157592.929438
155771.939345
156508.434377
157245.429409
157988.924441
158737.919473
159481.914505
160227.909537
160968.904569
161717.399601
159916.909508
160654.404540
161379.899572
162121.394604
162877.889636
163620.384668
164365.379700
165110.374732
165851.369764
164077.379671
164807.874703
165540.369735
166290.364767
167027.359799
167762.354831
168516.349863
169260.344896
169993.839928
168232.349834
168968.844866
169704.339898
170446.834930
171189.829962
171926.324994
172665.320027
173412.315059
174154.310091
172405.319997
173125.315029
173883.310061
174615.305093
175353.300125
176097.295158
176843.290190
177577.285222
178318.780254
176581.790160
177314.285192
178053.780224
178782.275257
179526.270289
180271.765321
181002.260353
181744.255385
182476.750417
180764.760323
181489.255355
182240.750388
182955.745420
183699.240452
184431.735484
185174.730516
185915.725548
186645.220580
184936.230486
185673.725519
186402.220551
187142.715583
187874.210615
188607.705647
189347.700679
190086.195711
190826.690743
189117.700650
189850.195682
190574.190714
191323.185746
192045.680778
192787.675810
193517.170842
194255.665874
194986.160906
193304.670813
194031.665845
194757.160877
195489.655909
196220.150941
196958.145973
197691.141005
198427.636037
199158.631069
197484.140976
198213.636008
198942.131040
199663.626072
200395.121104
201119.116136
201862.611168
202585.106200
203322.601232
201650.611139
202387.606171
203099.601203
203832.596235
204563.091267
205290.586299
206021.581331
206743.576363
207475.071395
205820.581302
206551.076334
207276.071366
207997.066398
208726.061430
209454.556462
210182.551494
210904.546526
211636.041559
209989.051465
210708.546497
211428.041529
212161.536561
212876.531593
213618.526625
214331.021658
215056.516690
215776.011722
214141.021628
214858.016660
215584.011692
216308.006724
217028.001756
217750.496789
218488.491821
219197.486853
219919.481885
218286.491791
219008.986823
219721.481855
220450.476888
221163.971920
221894.966952
222612.461984
223326.457016
224050.952048
222416.461954
223132.456986
223860.452019
224566.447051
225298.942083
226010.937115
226720.432147
227443.927179
228170.922211
226541.932117
227259.427150
227979.922182
228690.417214
229404.912246
230115.407278
230839.402310
231560.897342
232273.392374
230641.902281
231366.897313
232089.892345
232787.887377
233515.382409
234227.377441
234940.372473
235664.867505
236366.362537
234751.872444
235460.867476
236171.862508
236895.857540
237591.352572
238311.847604
239025.842636
239745.337668
240454.832700
238830.342607
239543.337639
240251.332671
240965.327703
241682.322735
242379.317767
243097.812799
243811.307831
244515.802863
242909.312770
243606.807802
244319.302834
245028.297866
245729.792898
246452.787930
247149.782962
247861.277994
248560.773026
246949.282933
247652.777965
248365.772997
249065.268029
249777.763061
250478.258093
251184.753125
251889.248157
252599.743190
250980.753096
251691.248128
252390.743160
253098.738192
253800.233224
254493.728256
255198.223289
255911.718321
256615.213353
254991.223259
255694.218291
256401.713323
257103.708355
257798.703387
258498.198420
259198.193452
259910.188484
260607.683516
258987.693422
259686.188454
260383.683486
261083.178519
261790.673551
262487.668583
263186.663615
263881.658647
264586.653679
262966.663585
263664.158617
264370.153650
265059.648682
265746.143714
266450.638746
267151.133778
267846.628810
268547.123842
266917.133748
267611.628781
268312.123813
269004.618845
269700.113877
270395.108909
271082.103941
271784.598973
272471.594005
