# vtk DataFile Version 2.0
Generated volume Mesh
ASCII
DATASET UNSTRUCTURED_GRID
POINTS 891 float
0.005000 0.100000 0.000000
0.005000 0.000000 0.000000
0.005000 0.001250 0.000000
0.005000 0.002500 0.000000
0.005000 0.003750 0.000000
0.005000 0.005000 0.000000
0.005000 0.006250 0.000000
0.005000 0.007500 0.000000
0.005000 0.008750 0.000000
0.005000 0.010000 0.000000
0.005000 0.011250 0.000000
0.005000 0.012500 0.000000
0.005000 0.013750 0.000000
0.005000 0.015000 0.000000
0.005000 0.016250 0.000000
0.005000 0.017500 0.000000
0.005000 0.018750 0.000000
0.005000 0.020000 0.000000
0.005000 0.021250 0.000000
0.005000 0.022500 0.000000
0.005000 0.023750 0.000000
0.005000 0.025000 0.000000
0.005000 0.026250 0.000000
0.005000 0.027500 0.000000
0.005000 0.028750 0.000000
0.005000 0.030000 0.000000
0.005000 0.031250 0.000000
0.005000 0.032500 0.000000
0.005000 0.033750 0.000000
0.005000 0.035000 0.000000
0.005000 0.036250 0.000000
0.005000 0.037500 0.000000
0.005000 0.038750 0.000000
0.005000 0.040000 0.000000
0.005000 0.041250 0.000000
0.005000 0.042500 0.000000
0.005000 0.043750 0.000000
0.005000 0.045000 0.000000
0.005000 0.046250 0.000000
0.005000 0.047500 0.000000
0.005000 0.048750 0.000000
0.005000 0.050000 0.000000
0.005000 0.051250 0.000000
0.005000 0.052500 0.000000
0.005000 0.053750 0.000000
0.005000 0.055000 0.000000
0.005000 0.056250 0.000000
0.005000 0.057500 0.000000
0.005000 0.058750 0.000000
0.005000 0.060000 0.000000
0.005000 0.061250 0.000000
0.005000 0.062500 0.000000
0.005000 0.063750 0.000000
0.005000 0.065000 0.000000
0.005000 0.066250 0.000000
0.005000 0.067500 0.000000
0.005000 0.068750 0.000000
0.005000 0.070000 0.000000
0.005000 0.071250 0.000000
0.005000 0.072500 0.000000
0.005000 0.073750 0.000000
0.005000 0.075000 0.000000
0.005000 0.076250 0.000000
0.005000 0.077500 0.000000
0.005000 0.078750 0.000000
0.005000 0.080000 0.000000
0.005000 0.081250 0.000000
0.005000 0.082500 0.000000
0.005000 0.083750 0.000000
0.005000 0.085000 0.000000
0.005000 0.086250 0.000000
0.005000 0.087500 0.000000
0.005000 0.088750 0.000000
0.005000 0.090000 0.000000
0.005000 0.091250 0.000000
0.005000 0.092500 0.000000
0.005000 0.093750 0.000000
0.005000 0.095000 0.000000
0.005000 0.096250 0.000000
0.005000 0.097500 0.000000
0.005000 0.098750 0.000000
0.000000 0.000000 0.000000
0.000000 0.100000 0.000000
0.000000 0.098750 0.000000
0.000000 0.097500 0.000000
0.000000 0.096250 0.000000
0.000000 0.095000 0.000000
0.000000 0.093750 0.000000
0.000000 0.092500 0.000000
0.000000 0.091250 0.000000
0.000000 0.090000 0.000000
0.000000 0.088750 0.000000
0.000000 0.087500 0.000000
0.000000 0.086250 0.000000
0.000000 0.085000 0.000000
0.000000 0.083750 0.000000
0.000000 0.082500 0.000000
0.000000 0.081250 0.000000
0.000000 0.080000 0.000000
0.000000 0.078750 0.000000
0.000000 0.077500 0.000000
0.000000 0.076250 0.000000
0.000000 0.075000 0.000000
0.000000 0.073750 0.000000
0.000000 0.072500 0.000000
0.000000 0.071250 0.000000
0.000000 0.070000 0.000000
0.000000 0.068750 0.000000
0.000000 0.067500 0.000000
0.000000 0.066250 0.000000
0.000000 0.065000 0.000000
0.000000 0.063750 0.000000
0.000000 0.062500 0.000000
0.000000 0.061250 0.000000
0.000000 0.060000 0.000000
0.000000 0.058750 0.000000
0.000000 0.057500 0.000000
0.000000 0.056250 0.000000
0.000000 0.055000 0.000000
0.000000 0.053750 0.000000
0.000000 0.052500 0.000000
0.000000 0.051250 0.000000
0.000000 0.050000 0.000000
0.000000 0.048750 0.000000
0.000000 0.047500 0.000000
0.000000 0.046250 0.000000
0.000000 0.045000 0.000000
0.000000 0.043750 0.000000
0.000000 0.042500 0.000000
0.000000 0.041250 0.000000
0.000000 0.040000 0.000000
0.000000 0.038750 0.000000
0.000000 0.037500 0.000000
0.000000 0.036250 0.000000
0.000000 0.035000 0.000000
0.000000 0.033750 0.000000
0.000000 0.032500 0.000000
0.000000 0.031250 0.000000
0.000000 0.030000 0.000000
0.000000 0.028750 0.000000
0.000000 0.027500 0.000000
0.000000 0.026250 0.000000
0.000000 0.025000 0.000000
0.000000 0.023750 0.000000
0.000000 0.022500 0.000000
0.000000 0.021250 0.000000
0.000000 0.020000 0.000000
0.000000 0.018750 0.000000
0.000000 0.017500 0.000000
0.000000 0.016250 0.000000
0.000000 0.015000 0.000000
0.000000 0.013750 0.000000
0.000000 0.012500 0.000000
0.000000 0.011250 0.000000
0.000000 0.010000 0.000000
0.000000 0.008750 0.000000
0.000000 0.007500 0.000000
0.000000 0.006250 0.000000
0.000000 0.005000 0.000000
0.000000 0.003750 0.000000
0.000000 0.002500 0.000000
0.000000 0.001250 0.000000
0.000500 0.000000 0.000000
0.001000 0.000000 0.000000
0.001500 0.000000 0.000000
0.002000 0.000000 0.000000
0.002500 0.000000 0.000000
0.003000 0.000000 0.000000
0.003500 0.000000 0.000000
0.004000 0.000000 0.000000
0.004500 0.000000 0.000000
0.004500 0.100000 0.000000
0.004000 0.100000 0.000000
0.003500 0.100000 0.000000
0.003000 0.100000 0.000000
0.002500 0.100000 0.000000
0.002000 0.100000 0.000000
0.001500 0.100000 0.000000
0.001000 0.100000 0.000000
0.000500 0.100000 0.000000
0.000500 0.098750 0.000000
0.001000 0.098750 0.000000
0.001500 0.098750 0.000000
0.002000 0.098750 0.000000
0.002500 0.098750 0.000000
0.003000 0.098750 0.000000
0.003500 0.098750 0.000000
0.004000 0.098750 0.000000
0.004500 0.098750 0.000000
0.000500 0.097500 0.000000
0.001000 0.097500 0.000000
0.001500 0.097500 0.000000
0.002000 0.097500 0.000000
0.002500 0.097500 0.000000
0.003000 0.097500 0.000000
0.003500 0.097500 0.000000
0.004000 0.097500 0.000000
0.004500 0.097500 0.000000
0.000500 0.096250 0.000000
0.001000 0.096250 0.000000
0.001500 0.096250 0.000000
0.002000 0.096250 0.000000
0.002500 0.096250 0.000000
0.003000 0.096250 0.000000
0.003500 0.096250 0.000000
0.004000 0.096250 0.000000
0.004500 0.096250 0.000000
0.000500 0.095000 0.000000
0.001000 0.095000 0.000000
0.001500 0.095000 0.000000
0.002000 0.095000 0.000000
0.002500 0.095000 0.000000
0.003000 0.095000 0.000000
0.003500 0.095000 0.000000
0.004000 0.095000 0.000000
0.004500 0.095000 0.000000
0.000500 0.093750 0.000000
0.001000 0.093750 0.000000
0.001500 0.093750 0.000000
0.002000 0.093750 0.000000
0.002500 0.093750 0.000000
0.003000 0.093750 0.000000
0.003500 0.093750 0.000000
0.004000 0.093750 0.000000
0.004500 0.093750 0.000000
0.000500 0.092500 0.000000
0.001000 0.092500 0.000000
0.001500 0.092500 0.000000
0.002000 0.092500 0.000000
0.002500 0.092500 0.000000
0.003000 0.092500 0.000000
0.003500 0.092500 0.000000
0.004000 0.092500 0.000000
0.004500 0.092500 0.000000
0.000500 0.091250 0.000000
0.001000 0.091250 0.000000
0.001500 0.091250 0.000000
0.002000 0.091250 0.000000
0.002500 0.091250 0.000000
0.003000 0.091250 0.000000
0.003500 0.091250 0.000000
0.004000 0.091250 0.000000
0.004500 0.091250 0.000000
0.000500 0.090000 0.000000
0.001000 0.090000 0.000000
0.001500 0.090000 0.000000
0.002000 0.090000 0.000000
0.002500 0.090000 0.000000
0.003000 0.090000 0.000000
0.003500 0.090000 0.000000
0.004000 0.090000 0.000000
0.004500 0.090000 0.000000
0.000500 0.088750 0.000000
0.001000 0.088750 0.000000
0.001500 0.088750 0.000000
0.002000 0.088750 0.000000
0.002500 0.088750 0.000000
0.003000 0.088750 0.000000
0.003500 0.088750 0.000000
0.004000 0.088750 0.000000
0.004500 0.088750 0.000000
0.000500 0.087500 0.000000
0.001000 0.087500 0.000000
0.001500 0.087500 0.000000
0.002000 0.087500 0.000000
0.002500 0.087500 0.000000
0.003000 0.087500 0.000000
0.003500 0.087500 0.000000
0.004000 0.087500 0.000000
0.004500 0.087500 0.000000
0.000500 0.086250 0.000000
0.001000 0.086250 0.000000
0.001500 0.086250 0.000000
0.002000 0.086250 0.000000
0.002500 0.086250 0.000000
0.003000 0.086250 0.000000
0.003500 0.086250 0.000000
0.004000 0.086250 0.000000
0.004500 0.086250 0.000000
0.000500 0.085000 0.000000
0.001000 0.085000 0.000000
0.001500 0.085000 0.000000
0.002000 0.085000 0.000000
0.002500 0.085000 0.000000
0.003000 0.085000 0.000000
0.003500 0.085000 0.000000
0.004000 0.085000 0.000000
0.004500 0.085000 0.000000
0.000500 0.083750 0.000000
0.001000 0.083750 0.000000
0.001500 0.083750 0.000000
0.002000 0.083750 0.000000
0.002500 0.083750 0.000000
0.003000 0.083750 0.000000
0.003500 0.083750 0.000000
0.004000 0.083750 0.000000
0.004500 0.083750 0.000000
0.000500 0.082500 0.000000
0.001000 0.082500 0.000000
0.001500 0.082500 0.000000
0.002000 0.082500 0.000000
0.002500 0.082500 0.000000
0.003000 0.082500 0.000000
0.003500 0.082500 0.000000
0.004000 0.082500 0.000000
0.004500 0.082500 0.000000
0.000500 0.081250 0.000000
0.001000 0.081250 0.000000
0.001500 0.081250 0.000000
0.002000 0.081250 0.000000
0.002500 0.081250 0.000000
0.003000 0.081250 0.000000
0.003500 0.081250 0.000000
0.004000 0.081250 0.000000
0.004500 0.081250 0.000000
0.000500 0.080000 0.000000
0.001000 0.080000 0.000000
0.001500 0.080000 0.000000
0.002000 0.080000 0.000000
0.002500 0.080000 0.000000
0.003000 0.080000 0.000000
0.003500 0.080000 0.000000
0.004000 0.080000 0.000000
0.004500 0.080000 0.000000
0.000500 0.078750 0.000000
0.001000 0.078750 0.000000
0.001500 0.078750 0.000000
0.002000 0.078750 0.000000
0.002500 0.078750 0.000000
0.003000 0.078750 0.000000
0.003500 0.078750 0.000000
0.004000 0.078750 0.000000
0.004500 0.078750 0.000000
0.000500 0.077500 0.000000
0.001000 0.077500 0.000000
0.001500 0.077500 0.000000
0.002000 0.077500 0.000000
0.002500 0.077500 0.000000
0.003000 0.077500 0.000000
0.003500 0.077500 0.000000
0.004000 0.077500 0.000000
0.004500 0.077500 0.000000
0.000500 0.076250 0.000000
0.001000 0.076250 0.000000
0.001500 0.076250 0.000000
0.002000 0.076250 0.000000
0.002500 0.076250 0.000000
0.003000 0.076250 0.000000
0.003500 0.076250 0.000000
0.004000 0.076250 0.000000
0.004500 0.076250 0.000000
0.000500 0.075000 0.000000
0.001000 0.075000 0.000000
0.001500 0.075000 0.000000
0.002000 0.075000 0.000000
0.002500 0.075000 0.000000
0.003000 0.075000 0.000000
0.003500 0.075000 0.000000
0.004000 0.075000 0.000000
0.004500 0.075000 0.000000
0.000500 0.073750 0.000000
0.001000 0.073750 0.000000
0.001500 0.073750 0.000000
0.002000 0.073750 0.000000
0.002500 0.073750 0.000000
0.003000 0.073750 0.000000
0.003500 0.073750 0.000000
0.004000 0.073750 0.000000
0.004500 0.073750 0.000000
0.000500 0.072500 0.000000
0.001000 0.072500 0.000000
0.001500 0.072500 0.000000
0.002000 0.072500 0.000000
0.002500 0.072500 0.000000
0.003000 0.072500 0.000000
0.003500 0.072500 0.000000
0.004000 0.072500 0.000000
0.004500 0.072500 0.000000
0.000500 0.071250 0.000000
0.001000 0.071250 0.000000
0.001500 0.071250 0.000000
0.002000 0.071250 0.000000
0.002500 0.071250 0.000000
0.003000 0.071250 0.000000
0.003500 0.071250 0.000000
0.004000 0.071250 0.000000
0.004500 0.071250 0.000000
0.000500 0.070000 0.000000
0.001000 0.070000 0.000000
0.001500 0.070000 0.000000
0.002000 0.070000 0.000000
0.002500 0.070000 0.000000
0.003000 0.070000 0.000000
0.003500 0.070000 0.000000
0.004000 0.070000 0.000000
0.004500 0.070000 0.000000
0.000500 0.068750 0.000000
0.001000 0.068750 0.000000
0.001500 0.068750 0.000000
0.002000 0.068750 0.000000
0.002500 0.068750 0.000000
0.003000 0.068750 0.000000
0.003500 0.068750 0.000000
0.004000 0.068750 0.000000
0.004500 0.068750 0.000000
0.000500 0.067500 0.000000
0.001000 0.067500 0.000000
0.001500 0.067500 0.000000
0.002000 0.067500 0.000000
0.002500 0.067500 0.000000
0.003000 0.067500 0.000000
0.003500 0.067500 0.000000
0.004000 0.067500 0.000000
0.004500 0.067500 0.000000
0.000500 0.066250 0.000000
0.001000 0.066250 0.000000
0.001500 0.066250 0.000000
0.002000 0.066250 0.000000
0.002500 0.066250 0.000000
0.003000 0.066250 0.000000
0.003500 0.066250 0.000000
0.004000 0.066250 0.000000
0.004500 0.066250 0.000000
0.000500 0.065000 0.000000
0.001000 0.065000 0.000000
0.001500 0.065000 0.000000
0.002000 0.065000 0.000000
0.002500 0.065000 0.000000
0.003000 0.065000 0.000000
0.003500 0.065000 0.000000
0.004000 0.065000 0.000000
0.004500 0.065000 0.000000
0.000500 0.063750 0.000000
0.001000 0.063750 0.000000
0.001500 0.063750 0.000000
0.002000 0.063750 0.000000
0.002500 0.063750 0.000000
0.003000 0.063750 0.000000
0.003500 0.063750 0.000000
0.004000 0.063750 0.000000
0.004500 0.063750 0.000000
0.000500 0.062500 0.000000
0.001000 0.062500 0.000000
0.001500 0.062500 0.000000
0.002000 0.062500 0.000000
0.002500 0.062500 0.000000
0.003000 0.062500 0.000000
0.003500 0.062500 0.000000
0.004000 0.062500 0.000000
0.004500 0.062500 0.000000
0.000500 0.061250 0.000000
0.001000 0.061250 0.000000
0.001500 0.061250 0.000000
0.002000 0.061250 0.000000
0.002500 0.061250 0.000000
0.003000 0.061250 0.000000
0.003500 0.061250 0.000000
0.004000 0.061250 0.000000
0.004500 0.061250 0.000000
0.000500 0.060000 0.000000
0.001000 0.060000 0.000000
0.001500 0.060000 0.000000
0.002000 0.060000 0.000000
0.002500 0.060000 0.000000
0.003000 0.060000 0.000000
0.003500 0.060000 0.000000
0.004000 0.060000 0.000000
0.004500 0.060000 0.000000
0.000500 0.058750 0.000000
0.001000 0.058750 0.000000
0.001500 0.058750 0.000000
0.002000 0.058750 0.000000
0.002500 0.058750 0.000000
0.003000 0.058750 0.000000
0.003500 0.058750 0.000000
0.004000 0.058750 0.000000
0.004500 0.058750 0.000000
0.000500 0.057500 0.000000
0.001000 0.057500 0.000000
0.001500 0.057500 0.000000
0.002000 0.057500 0.000000
0.002500 0.057500 0.000000
0.003000 0.057500 0.000000
0.003500 0.057500 0.000000
0.004000 0.057500 0.000000
0.004500 0.057500 0.000000
0.000500 0.056250 0.000000
0.001000 0.056250 0.000000
0.001500 0.056250 0.000000
0.002000 0.056250 0.000000
0.002500 0.056250 0.000000
0.003000 0.056250 0.000000
0.003500 0.056250 0.000000
0.004000 0.056250 0.000000
0.004500 0.056250 0.000000
0.000500 0.055000 0.000000
0.001000 0.055000 0.000000
0.001500 0.055000 0.000000
0.002000 0.055000 0.000000
0.002500 0.055000 0.000000
0.003000 0.055000 0.000000
0.003500 0.055000 0.000000
0.004000 0.055000 0.000000
0.004500 0.055000 0.000000
0.000500 0.053750 0.000000
0.001000 0.053750 0.000000
0.001500 0.053750 0.000000
0.002000 0.053750 0.000000
0.002500 0.053750 0.000000
0.003000 0.053750 0.000000
0.003500 0.053750 0.000000
0.004000 0.053750 0.000000
0.004500 0.053750 0.000000
0.000500 0.052500 0.000000
0.001000 0.052500 0.000000
0.001500 0.052500 0.000000
0.002000 0.052500 0.000000
0.002500 0.052500 0.000000
0.003000 0.052500 0.000000
0.003500 0.052500 0.000000
0.004000 0.052500 0.000000
0.004500 0.052500 0.000000
0.000500 0.051250 0.000000
0.001000 0.051250 0.000000
0.001500 0.051250 0.000000
0.002000 0.051250 0.000000
0.002500 0.051250 0.000000
0.003000 0.051250 0.000000
0.003500 0.051250 0.000000
0.004000 0.051250 0.000000
0.004500 0.051250 0.000000
0.000500 0.050000 0.000000
0.001000 0.050000 0.000000
0.001500 0.050000 0.000000
0.002000 0.050000 0.000000
0.002500 0.050000 0.000000
0.003000 0.050000 0.000000
0.003500 0.050000 0.000000
0.004000 0.050000 0.000000
0.004500 0.050000 0.000000
0.000500 0.048750 0.000000
0.001000 0.048750 0.000000
0.001500 0.048750 0.000000
0.002000 0.048750 0.000000
0.002500 0.048750 0.000000
0.003000 0.048750 0.000000
0.003500 0.048750 0.000000
0.004000 0.048750 0.000000
0.004500 0.048750 0.000000
0.000500 0.047500 0.000000
0.001000 0.047500 0.000000
0.001500 0.047500 0.000000
0.002000 0.047500 0.000000
0.002500 0.047500 0.000000
0.003000 0.047500 0.000000
0.003500 0.047500 0.000000
0.004000 0.047500 0.000000
0.004500 0.047500 0.000000
0.000500 0.046250 0.000000
0.001000 0.046250 0.000000
0.001500 0.046250 0.000000
0.002000 0.046250 0.000000
0.002500 0.046250 0.000000
0.003000 0.046250 0.000000
0.003500 0.046250 0.000000
0.004000 0.046250 0.000000
0.004500 0.046250 0.000000
0.000500 0.045000 0.000000
0.001000 0.045000 0.000000
0.001500 0.045000 0.000000
0.002000 0.045000 0.000000
0.002500 0.045000 0.000000
0.003000 0.045000 0.000000
0.003500 0.045000 0.000000
0.004000 0.045000 0.000000
0.004500 0.045000 0.000000
0.000500 0.043750 0.000000
0.001000 0.043750 0.000000
0.001500 0.043750 0.000000
0.002000 0.043750 0.000000
0.002500 0.043750 0.000000
0.003000 0.043750 0.000000
0.003500 0.043750 0.000000
0.004000 0.043750 0.000000
0.004500 0.043750 0.000000
0.000500 0.042500 0.000000
0.001000 0.042500 0.000000
0.001500 0.042500 0.000000
0.002000 0.042500 0.000000
0.002500 0.042500 0.000000
0.003000 0.042500 0.000000
0.003500 0.042500 0.000000
0.004000 0.042500 0.000000
0.004500 0.042500 0.000000
0.000500 0.041250 0.000000
0.001000 0.041250 0.000000
0.001500 0.041250 0.000000
0.002000 0.041250 0.000000
0.002500 0.041250 0.000000
0.003000 0.041250 0.000000
0.003500 0.041250 0.000000
0.004000 0.041250 0.000000
0.004500 0.041250 0.000000
0.000500 0.040000 0.000000
0.001000 0.040000 0.000000
0.001500 0.040000 0.000000
0.002000 0.040000 0.000000
0.002500 0.040000 0.000000
0.003000 0.040000 0.000000
0.003500 0.040000 0.000000
0.004000 0.040000 0.000000
0.004500 0.040000 0.000000
0.000500 0.038750 0.000000
0.001000 0.038750 0.000000
0.001500 0.038750 0.000000
0.002000 0.038750 0.000000
0.002500 0.038750 0.000000
0.003000 0.038750 0.000000
0.003500 0.038750 0.000000
0.004000 0.038750 0.000000
0.004500 0.038750 0.000000
0.000500 0.037500 0.000000
0.001000 0.037500 0.000000
0.001500 0.037500 0.000000
0.002000 0.037500 0.000000
0.002500 0.037500 0.000000
0.003000 0.037500 0.000000
0.003500 0.037500 0.000000
0.004000 0.037500 0.000000
0.004500 0.037500 0.000000
0.000500 0.036250 0.000000
0.001000 0.036250 0.000000
0.001500 0.036250 0.000000
0.002000 0.036250 0.000000
0.002500 0.036250 0.000000
0.003000 0.036250 0.000000
0.003500 0.036250 0.000000
0.004000 0.036250 0.000000
0.004500 0.036250 0.000000
0.000500 0.035000 0.000000
0.001000 0.035000 0.000000
0.001500 0.035000 0.000000
0.002000 0.035000 0.000000
0.002500 0.035000 0.000000
0.003000 0.035000 0.000000
0.003500 0.035000 0.000000
0.004000 0.035000 0.000000
0.004500 0.035000 0.000000
0.000500 0.033750 0.000000
0.001000 0.033750 0.000000
0.001500 0.033750 0.000000
0.002000 0.033750 0.000000
0.002500 0.033750 0.000000
0.003000 0.033750 0.000000
0.003500 0.033750 0.000000
0.004000 0.033750 0.000000
0.004500 0.033750 0.000000
0.000500 0.032500 0.000000
0.001000 0.032500 0.000000
0.001500 0.032500 0.000000
0.002000 0.032500 0.000000
0.002500 0.032500 0.000000
0.003000 0.032500 0.000000
0.003500 0.032500 0.000000
0.004000 0.032500 0.000000
0.004500 0.032500 0.000000
0.000500 0.031250 0.000000
0.001000 0.031250 0.000000
0.001500 0.031250 0.000000
0.002000 0.031250 0.000000
0.002500 0.031250 0.000000
0.003000 0.031250 0.000000
0.003500 0.031250 0.000000
0.004000 0.031250 0.000000
0.004500 0.031250 0.000000
0.000500 0.030000 0.000000
0.001000 0.030000 0.000000
0.001500 0.030000 0.000000
0.002000 0.030000 0.000000
0.002500 0.030000 0.000000
0.003000 0.030000 0.000000
0.003500 0.030000 0.000000
0.004000 0.030000 0.000000
0.004500 0.030000 0.000000
0.000500 0.028750 0.000000
0.001000 0.028750 0.000000
0.001500 0.028750 0.000000
0.002000 0.028750 0.000000
0.002500 0.028750 0.000000
0.003000 0.028750 0.000000
0.003500 0.028750 0.000000
0.004000 0.028750 0.000000
0.004500 0.028750 0.000000
0.000500 0.027500 0.000000
0.001000 0.027500 0.000000
0.001500 0.027500 0.000000
0.002000 0.027500 0.000000
0.002500 0.027500 0.000000
0.003000 0.027500 0.000000
0.003500 0.027500 0.000000
0.004000 0.027500 0.000000
0.004500 0.027500 0.000000
0.000500 0.026250 0.000000
0.001000 0.026250 0.000000
0.001500 0.026250 0.000000
0.002000 0.026250 0.000000
0.002500 0.026250 0.000000
0.003000 0.026250 0.000000
0.003500 0.026250 0.000000
0.004000 0.026250 0.000000
0.004500 0.026250 0.000000
0.000500 0.025000 0.000000
0.001000 0.025000 0.000000
0.001500 0.025000 0.000000
0.002000 0.025000 0.000000
0.002500 0.025000 0.000000
0.003000 0.025000 0.000000
0.003500 0.025000 0.000000
0.004000 0.025000 0.000000
0.004500 0.025000 0.000000
0.000500 0.023750 0.000000
0.001000 0.023750 0.000000
0.001500 0.023750 0.000000
0.002000 0.023750 0.000000
0.002500 0.023750 0.000000
0.003000 0.023750 0.000000
0.003500 0.023750 0.000000
0.004000 0.023750 0.000000
0.004500 0.023750 0.000000
0.000500 0.022500 0.000000
0.001000 0.022500 0.000000
0.001500 0.022500 0.000000
0.002000 0.022500 0.000000
0.002500 0.022500 0.000000
0.003000 0.022500 0.000000
0.003500 0.022500 0.000000
0.004000 0.022500 0.000000
0.004500 0.022500 0.000000
0.000500 0.021250 0.000000
0.001000 0.021250 0.000000
0.001500 0.021250 0.000000
0.002000 0.021250 0.000000
0.002500 0.021250 0.000000
0.003000 0.021250 0.000000
0.003500 0.021250 0.000000
0.004000 0.021250 0.000000
0.004500 0.021250 0.000000
0.000500 0.020000 0.000000
0.001000 0.020000 0.000000
0.001500 0.020000 0.000000
0.002000 0.020000 0.000000
0.002500 0.020000 0.000000
0.003000 0.020000 0.000000
0.003500 0.020000 0.000000
0.004000 0.020000 0.000000
0.004500 0.020000 0.000000
0.000500 0.018750 0.000000
0.001000 0.018750 0.000000
0.001500 0.018750 0.000000
0.002000 0.018750 0.000000
0.002500 0.018750 0.000000
0.003000 0.018750 0.000000
0.003500 0.018750 0.000000
0.004000 0.018750 0.000000
0.004500 0.018750 0.000000
0.000500 0.017500 0.000000
0.001000 0.017500 0.000000
0.001500 0.017500 0.000000
0.002000 0.017500 0.000000
0.002500 0.017500 0.000000
0.003000 0.017500 0.000000
0.003500 0.017500 0.000000
0.004000 0.017500 0.000000
0.004500 0.017500 0.000000
0.000500 0.016250 0.000000
0.001000 0.016250 0.000000
0.001500 0.016250 0.000000
0.002000 0.016250 0.000000
0.002500 0.016250 0.000000
0.003000 0.016250 0.000000
0.003500 0.016250 0.000000
0.004000 0.016250 0.000000
0.004500 0.016250 0.000000
0.000500 0.015000 0.000000
0.001000 0.015000 0.000000
0.001500 0.015000 0.000000
0.002000 0.015000 0.000000
0.002500 0.015000 0.000000
0.003000 0.015000 0.000000
0.003500 0.015000 0.000000
0.004000 0.015000 0.000000
0.004500 0.015000 0.000000
0.000500 0.013750 0.000000
0.001000 0.013750 0.000000
0.001500 0.013750 0.000000
0.002000 0.013750 0.000000
0.002500 0.013750 0.000000
0.003000 0.013750 0.000000
0.003500 0.013750 0.000000
0.004000 0.013750 0.000000
0.004500 0.013750 0.000000
0.000500 0.012500 0.000000
0.001000 0.012500 0.000000
0.001500 0.012500 0.000000
0.002000 0.012500 0.000000
0.002500 0.012500 0.000000
0.003000 0.012500 0.000000
0.003500 0.012500 0.000000
0.004000 0.012500 0.000000
0.004500 0.012500 0.000000
0.000500 0.011250 0.000000
0.001000 0.011250 0.000000
0.001500 0.011250 0.000000
0.002000 0.011250 0.000000
0.002500 0.011250 0.000000
0.003000 0.011250 0.000000
0.003500 0.011250 0.000000
0.004000 0.011250 0.000000
0.004500 0.011250 0.000000
0.000500 0.010000 0.000000
0.001000 0.010000 0.000000
0.001500 0.010000 0.000000
0.002000 0.010000 0.000000
0.002500 0.010000 0.000000
0.003000 0.010000 0.000000
0.003500 0.010000 0.000000
0.004000 0.010000 0.000000
0.004500 0.010000 0.000000
0.000500 0.008750 0.000000
0.001000 0.008750 0.000000
0.001500 0.008750 0.000000
0.002000 0.008750 0.000000
0.002500 0.008750 0.000000
0.003000 0.008750 0.000000
0.003500 0.008750 0.000000
0.004000 0.008750 0.000000
0.004500 0.008750 0.000000
0.000500 0.007500 0.000000
0.001000 0.007500 0.000000
0.001500 0.007500 0.000000
0.002000 0.007500 0.000000
0.002500 0.007500 0.000000
0.003000 0.007500 0.000000
0.003500 0.007500 0.000000
0.004000 0.007500 0.000000
0.004500 0.007500 0.000000
0.000500 0.006250 0.000000
0.001000 0.006250 0.000000
0.001500 0.006250 0.000000
0.002000 0.006250 0.000000
0.002500 0.006250 0.000000
0.003000 0.006250 0.000000
0.003500 0.006250 0.000000
0.004000 0.006250 0.000000
0.004500 0.006250 0.000000
0.000500 0.005000 0.000000
0.001000 0.005000 0.000000
0.001500 0.005000 0.000000
0.002000 0.005000 0.000000
0.002500 0.005000 0.000000
0.003000 0.005000 0.000000
0.003500 0.005000 0.000000
0.004000 0.005000 0.000000
0.004500 0.005000 0.000000
0.000500 0.003750 0.000000
0.001000 0.003750 0.000000
0.001500 0.003750 0.000000
0.002000 0.003750 0.000000
0.002500 0.003750 0.000000
0.003000 0.003750 0.000000
0.003500 0.003750 0.000000
0.004000 0.003750 0.000000
0.004500 0.003750 0.000000
0.000500 0.002500 0.000000
0.001000 0.002500 0.000000
0.001500 0.002500 0.000000
0.002000 0.002500 0.000000
0.002500 0.002500 0.000000
0.003000 0.002500 0.000000
0.003500 0.002500 0.000000
0.004000 0.002500 0.000000
0.004500 0.002500 0.000000
0.000500 0.001250 0.000000
0.001000 0.001250 0.000000
0.001500 0.001250 0.000000
0.002000 0.001250 0.000000
0.002500 0.001250 0.000000
0.003000 0.001250 0.000000
0.003500 0.001250 0.000000
0.004000 0.001250 0.000000
0.004500 0.001250 0.000000
CELLS 800 4000
4 82 83 180 179
4 179 180 181 178
4 178 181 182 177
4 177 182 183 176
4 176 183 184 175
4 175 184 185 174
4 174 185 186 173
4 173 186 187 172
4 172 187 188 171
4 171 188 80 0
4 83 84 189 180
4 180 189 190 181
4 181 190 191 182
4 182 191 192 183
4 183 192 193 184
4 184 193 194 185
4 185 194 195 186
4 186 195 196 187
4 187 196 197 188
4 188 197 79 80
4 84 85 198 189
4 189 198 199 190
4 190 199 200 191
4 191 200 201 192
4 192 201 202 193
4 193 202 203 194
4 194 203 204 195
4 195 204 205 196
4 196 205 206 197
4 197 206 78 79
4 85 86 207 198
4 198 207 208 199
4 199 208 209 200
4 200 209 210 201
4 201 210 211 202
4 202 211 212 203
4 203 212 213 204
4 204 213 214 205
4 205 214 215 206
4 206 215 77 78
4 86 87 216 207
4 207 216 217 208
4 208 217 218 209
4 209 218 219 210
4 210 219 220 211
4 211 220 221 212
4 212 221 222 213
4 213 222 223 214
4 214 223 224 215
4 215 224 76 77
4 87 88 225 216
4 216 225 226 217
4 217 226 227 218
4 218 227 228 219
4 219 228 229 220
4 220 229 230 221
4 221 230 231 222
4 222 231 232 223
4 223 232 233 224
4 224 233 75 76
4 88 89 234 225
4 225 234 235 226
4 226 235 236 227
4 227 236 237 228
4 228 237 238 229
4 229 238 239 230
4 230 239 240 231
4 231 240 241 232
4 232 241 242 233
4 233 242 74 75
4 89 90 243 234
4 234 243 244 235
4 235 244 245 236
4 236 245 246 237
4 237 246 247 238
4 238 247 248 239
4 239 248 249 240
4 240 249 250 241
4 241 250 251 242
4 242 251 73 74
4 90 91 252 243
4 243 252 253 244
4 244 253 254 245
4 245 254 255 246
4 246 255 256 247
4 247 256 257 248
4 248 257 258 249
4 249 258 259 250
4 250 259 260 251
4 251 260 72 73
4 91 92 261 252
4 252 261 262 253
4 253 262 263 254
4 254 263 264 255
4 255 264 265 256
4 256 265 266 257
4 257 266 267 258
4 258 267 268 259
4 259 268 269 260
4 260 269 71 72
4 92 93 270 261
4 261 270 271 262
4 262 271 272 263
4 263 272 273 264
4 264 273 274 265
4 265 274 275 266
4 266 275 276 267
4 267 276 277 268
4 268 277 278 269
4 269 278 70 71
4 93 94 279 270
4 270 279 280 271
4 271 280 281 272
4 272 281 282 273
4 273 282 283 274
4 274 283 284 275
4 275 284 285 276
4 276 285 286 277
4 277 286 287 278
4 278 287 69 70
4 94 95 288 279
4 279 288 289 280
4 280 289 290 281
4 281 290 291 282
4 282 291 292 283
4 283 292 293 284
4 284 293 294 285
4 285 294 295 286
4 286 295 296 287
4 287 296 68 69
4 95 96 297 288
4 288 297 298 289
4 289 298 299 290
4 290 299 300 291
4 291 300 301 292
4 292 301 302 293
4 293 302 303 294
4 294 303 304 295
4 295 304 305 296
4 296 305 67 68
4 96 97 306 297
4 297 306 307 298
4 298 307 308 299
4 299 308 309 300
4 300 309 310 301
4 301 310 311 302
4 302 311 312 303
4 303 312 313 304
4 304 313 314 305
4 305 314 66 67
4 97 98 315 306
4 306 315 316 307
4 307 316 317 308
4 308 317 318 309
4 309 318 319 310
4 310 319 320 311
4 311 320 321 312
4 312 321 322 313
4 313 322 323 314
4 314 323 65 66
4 98 99 324 315
4 315 324 325 316
4 316 325 326 317
4 317 326 327 318
4 318 327 328 319
4 319 328 329 320
4 320 329 330 321
4 321 330 331 322
4 322 331 332 323
4 323 332 64 65
4 99 100 333 324
4 324 333 334 325
4 325 334 335 326
4 326 335 336 327
4 327 336 337 328
4 328 337 338 329
4 329 338 339 330
4 330 339 340 331
4 331 340 341 332
4 332 341 63 64
4 100 101 342 333
4 333 342 343 334
4 334 343 344 335
4 335 344 345 336
4 336 345 346 337
4 337 346 347 338
4 338 347 348 339
4 339 348 349 340
4 340 349 350 341
4 341 350 62 63
4 101 102 351 342
4 342 351 352 343
4 343 352 353 344
4 344 353 354 345
4 345 354 355 346
4 346 355 356 347
4 347 356 357 348
4 348 357 358 349
4 349 358 359 350
4 350 359 61 62
4 102 103 360 351
4 351 360 361 352
4 352 361 362 353
4 353 362 363 354
4 354 363 364 355
4 355 364 365 356
4 356 365 366 357
4 357 366 367 358
4 358 367 368 359
4 359 368 60 61
4 103 104 369 360
4 360 369 370 361
4 361 370 371 362
4 362 371 372 363
4 363 372 373 364
4 364 373 374 365
4 365 374 375 366
4 366 375 376 367
4 367 376 377 368
4 368 377 59 60
4 104 105 378 369
4 369 378 379 370
4 370 379 380 371
4 371 380 381 372
4 372 381 382 373
4 373 382 383 374
4 374 383 384 375
4 375 384 385 376
4 376 385 386 377
4 377 386 58 59
4 105 106 387 378
4 378 387 388 379
4 379 388 389 380
4 380 389 390 381
4 381 390 391 382
4 382 391 392 383
4 383 392 393 384
4 384 393 394 385
4 385 394 395 386
4 386 395 57 58
4 106 107 396 387
4 387 396 397 388
4 388 397 398 389
4 389 398 399 390
4 390 399 400 391
4 391 400 401 392
4 392 401 402 393
4 393 402 403 394
4 394 403 404 395
4 395 404 56 57
4 107 108 405 396
4 396 405 406 397
4 397 406 407 398
4 398 407 408 399
4 399 408 409 400
4 400 409 410 401
4 401 410 411 402
4 402 411 412 403
4 403 412 413 404
4 404 413 55 56
4 108 109 414 405
4 405 414 415 406
4 406 415 416 407
4 407 416 417 408
4 408 417 418 409
4 409 418 419 410
4 410 419 420 411
4 411 420 421 412
4 412 421 422 413
4 413 422 54 55
4 109 110 423 414
4 414 423 424 415
4 415 424 425 416
4 416 425 426 417
4 417 426 427 418
4 418 427 428 419
4 419 428 429 420
4 420 429 430 421
4 421 430 431 422
4 422 431 53 54
4 110 111 432 423
4 423 432 433 424
4 424 433 434 425
4 425 434 435 426
4 426 435 436 427
4 427 436 437 428
4 428 437 438 429
4 429 438 439 430
4 430 439 440 431
4 431 440 52 53
4 111 112 441 432
4 432 441 442 433
4 433 442 443 434
4 434 443 444 435
4 435 444 445 436
4 436 445 446 437
4 437 446 447 438
4 438 447 448 439
4 439 448 449 440
4 440 449 51 52
4 112 113 450 441
4 441 450 451 442
4 442 451 452 443
4 443 452 453 444
4 444 453 454 445
4 445 454 455 446
4 446 455 456 447
4 447 456 457 448
4 448 457 458 449
4 449 458 50 51
4 113 114 459 450
4 450 459 460 451
4 451 460 461 452
4 452 461 462 453
4 453 462 463 454
4 454 463 464 455
4 455 464 465 456
4 456 465 466 457
4 457 466 467 458
4 458 467 49 50
4 114 115 468 459
4 459 468 469 460
4 460 469 470 461
4 461 470 471 462
4 462 471 472 463
4 463 472 473 464
4 464 473 474 465
4 465 474 475 466
4 466 475 476 467
4 467 476 48 49
4 115 116 477 468
4 468 477 478 469
4 469 478 479 470
4 470 479 480 471
4 471 480 481 472
4 472 481 482 473
4 473 482 483 474
4 474 483 484 475
4 475 484 485 476
4 476 485 47 48
4 116 117 486 477
4 477 486 487 478
4 478 487 488 479
4 479 488 489 480
4 480 489 490 481
4 481 490 491 482
4 482 491 492 483
4 483 492 493 484
4 484 493 494 485
4 485 494 46 47
4 117 118 495 486
4 486 495 496 487
4 487 496 497 488
4 488 497 498 489
4 489 498 499 490
4 490 499 500 491
4 491 500 501 492
4 492 501 502 493
4 493 502 503 494
4 494 503 45 46
4 118 119 504 495
4 495 504 505 496
4 496 505 506 497
4 497 506 507 498
4 498 507 508 499
4 499 508 509 500
4 500 509 510 501
4 501 510 511 502
4 502 511 512 503
4 503 512 44 45
4 119 120 513 504
4 504 513 514 505
4 505 514 515 506
4 506 515 516 507
4 507 516 517 508
4 508 517 518 509
4 509 518 519 510
4 510 519 520 511
4 511 520 521 512
4 512 521 43 44
4 120 121 522 513
4 513 522 523 514
4 514 523 524 515
4 515 524 525 516
4 516 525 526 517
4 517 526 527 518
4 518 527 528 519
4 519 528 529 520
4 520 529 530 521
4 521 530 42 43
4 121 122 531 522
4 522 531 532 523
4 523 532 533 524
4 524 533 534 525
4 525 534 535 526
4 526 535 536 527
4 527 536 537 528
4 528 537 538 529
4 529 538 539 530
4 530 539 41 42
4 122 123 540 531
4 531 540 541 532
4 532 541 542 533
4 533 542 543 534
4 534 543 544 535
4 535 544 545 536
4 536 545 546 537
4 537 546 547 538
4 538 547 548 539
4 539 548 40 41
4 123 124 549 540
4 540 549 550 541
4 541 550 551 542
4 542 551 552 543
4 543 552 553 544
4 544 553 554 545
4 545 554 555 546
4 546 555 556 547
4 547 556 557 548
4 548 557 39 40
4 124 125 558 549
4 549 558 559 550
4 550 559 560 551
4 551 560 561 552
4 552 561 562 553
4 553 562 563 554
4 554 563 564 555
4 555 564 565 556
4 556 565 566 557
4 557 566 38 39
4 125 126 567 558
4 558 567 568 559
4 559 568 569 560
4 560 569 570 561
4 561 570 571 562
4 562 571 572 563
4 563 572 573 564
4 564 573 574 565
4 565 574 575 566
4 566 575 37 38
4 126 127 576 567
4 567 576 577 568
4 568 577 578 569
4 569 578 579 570
4 570 579 580 571
4 571 580 581 572
4 572 581 582 573
4 573 582 583 574
4 574 583 584 575
4 575 584 36 37
4 127 128 585 576
4 576 585 586 577
4 577 586 587 578
4 578 587 588 579
4 579 588 589 580
4 580 589 590 581
4 581 590 591 582
4 582 591 592 583
4 583 592 593 584
4 584 593 35 36
4 128 129 594 585
4 585 594 595 586
4 586 595 596 587
4 587 596 597 588
4 588 597 598 589
4 589 598 599 590
4 590 599 600 591
4 591 600 601 592
4 592 601 602 593
4 593 602 34 35
4 129 130 603 594
4 594 603 604 595
4 595 604 605 596
4 596 605 606 597
4 597 606 607 598
4 598 607 608 599
4 599 608 609 600
4 600 609 610 601
4 601 610 611 602
4 602 611 33 34
4 130 131 612 603
4 603 612 613 604
4 604 613 614 605
4 605 614 615 606
4 606 615 616 607
4 607 616 617 608
4 608 617 618 609
4 609 618 619 610
4 610 619 620 611
4 611 620 32 33
4 131 132 621 612
4 612 621 622 613
4 613 622 623 614
4 614 623 624 615
4 615 624 625 616
4 616 625 626 617
4 617 626 627 618
4 618 627 628 619
4 619 628 629 620
4 620 629 31 32
4 132 133 630 621
4 621 630 631 622
4 622 631 632 623
4 623 632 633 624
4 624 633 634 625
4 625 634 635 626
4 626 635 636 627
4 627 636 637 628
4 628 637 638 629
4 629 638 30 31
4 133 134 639 630
4 630 639 640 631
4 631 640 641 632
4 632 641 642 633
4 633 642 643 634
4 634 643 644 635
4 635 644 645 636
4 636 645 646 637
4 637 646 647 638
4 638 647 29 30
4 134 135 648 639
4 639 648 649 640
4 640 649 650 641
4 641 650 651 642
4 642 651 652 643
4 643 652 653 644
4 644 653 654 645
4 645 654 655 646
4 646 655 656 647
4 647 656 28 29
4 135 136 657 648
4 648 657 658 649
4 649 658 659 650
4 650 659 660 651
4 651 660 661 652
4 652 661 662 653
4 653 662 663 654
4 654 663 664 655
4 655 664 665 656
4 656 665 27 28
4 136 137 666 657
4 657 666 667 658
4 658 667 668 659
4 659 668 669 660
4 660 669 670 661
4 661 670 671 662
4 662 671 672 663
4 663 672 673 664
4 664 673 674 665
4 665 674 26 27
4 137 138 675 666
4 666 675 676 667
4 667 676 677 668
4 668 677 678 669
4 669 678 679 670
4 670 679 680 671
4 671 680 681 672
4 672 681 682 673
4 673 682 683 674
4 674 683 25 26
4 138 139 684 675
4 675 684 685 676
4 676 685 686 677
4 677 686 687 678
4 678 687 688 679
4 679 688 689 680
4 680 689 690 681
4 681 690 691 682
4 682 691 692 683
4 683 692 24 25
4 139 140 693 684
4 684 693 694 685
4 685 694 695 686
4 686 695 696 687
4 687 696 697 688
4 688 697 698 689
4 689 698 699 690
4 690 699 700 691
4 691 700 701 692
4 692 701 23 24
4 140 141 702 693
4 693 702 703 694
4 694 703 704 695
4 695 704 705 696
4 696 705 706 697
4 697 706 707 698
4 698 707 708 699
4 699 708 709 700
4 700 709 710 701
4 701 710 22 23
4 141 142 711 702
4 702 711 712 703
4 703 712 713 704
4 704 713 714 705
4 705 714 715 706
4 706 715 716 707
4 707 716 717 708
4 708 717 718 709
4 709 718 719 710
4 710 719 21 22
4 142 143 720 711
4 711 720 721 712
4 712 721 722 713
4 713 722 723 714
4 714 723 724 715
4 715 724 725 716
4 716 725 726 717
4 717 726 727 718
4 718 727 728 719
4 719 728 20 21
4 143 144 729 720
4 720 729 730 721
4 721 730 731 722
4 722 731 732 723
4 723 732 733 724
4 724 733 734 725
4 725 734 735 726
4 726 735 736 727
4 727 736 737 728
4 728 737 19 20
4 144 145 738 729
4 729 738 739 730
4 730 739 740 731
4 731 740 741 732
4 732 741 742 733
4 733 742 743 734
4 734 743 744 735
4 735 744 745 736
4 736 745 746 737
4 737 746 18 19
4 145 146 747 738
4 738 747 748 739
4 739 748 749 740
4 740 749 750 741
4 741 750 751 742
4 742 751 752 743
4 743 752 753 744
4 744 753 754 745
4 745 754 755 746
4 746 755 17 18
4 146 147 756 747
4 747 756 757 748
4 748 757 758 749
4 749 758 759 750
4 750 759 760 751
4 751 760 761 752
4 752 761 762 753
4 753 762 763 754
4 754 763 764 755
4 755 764 16 17
4 147 148 765 756
4 756 765 766 757
4 757 766 767 758
4 758 767 768 759
4 759 768 769 760
4 760 769 770 761
4 761 770 771 762
4 762 771 772 763
4 763 772 773 764
4 764 773 15 16
4 148 149 774 765
4 765 774 775 766
4 766 775 776 767
4 767 776 777 768
4 768 777 778 769
4 769 778 779 770
4 770 779 780 771
4 771 780 781 772
4 772 781 782 773
4 773 782 14 15
4 149 150 783 774
4 774 783 784 775
4 775 784 785 776
4 776 785 786 777
4 777 786 787 778
4 778 787 788 779
4 779 788 789 780
4 780 789 790 781
4 781 790 791 782
4 782 791 13 14
4 150 151 792 783
4 783 792 793 784
4 784 793 794 785
4 785 794 795 786
4 786 795 796 787
4 787 796 797 788
4 788 797 798 789
4 789 798 799 790
4 790 799 800 791
4 791 800 12 13
4 151 152 801 792
4 792 801 802 793
4 793 802 803 794
4 794 803 804 795
4 795 804 805 796
4 796 805 806 797
4 797 806 807 798
4 798 807 808 799
4 799 808 809 800
4 800 809 11 12
4 152 153 810 801
4 801 810 811 802
4 802 811 812 803
4 803 812 813 804
4 804 813 814 805
4 805 814 815 806
4 806 815 816 807
4 807 816 817 808
4 808 817 818 809
4 809 818 10 11
4 153 154 819 810
4 810 819 820 811
4 811 820 821 812
4 812 821 822 813
4 813 822 823 814
4 814 823 824 815
4 815 824 825 816
4 816 825 826 817
4 817 826 827 818
4 818 827 9 10
4 154 155 828 819
4 819 828 829 820
4 820 829 830 821
4 821 830 831 822
4 822 831 832 823
4 823 832 833 824
4 824 833 834 825
4 825 834 835 826
4 826 835 836 827
4 827 836 8 9
4 155 156 837 828
4 828 837 838 829
4 829 838 839 830
4 830 839 840 831
4 831 840 841 832
4 832 841 842 833
4 833 842 843 834
4 834 843 844 835
4 835 844 845 836
4 836 845 7 8
4 156 157 846 837
4 837 846 847 838
4 838 847 848 839
4 839 848 849 840
4 840 849 850 841
4 841 850 851 842
4 842 851 852 843
4 843 852 853 844
4 844 853 854 845
4 845 854 6 7
4 157 158 855 846
4 846 855 856 847
4 847 856 857 848
4 848 857 858 849
4 849 858 859 850
4 850 859 860 851
4 851 860 861 852
4 852 861 862 853
4 853 862 863 854
4 854 863 5 6
4 158 159 864 855
4 855 864 865 856
4 856 865 866 857
4 857 866 867 858
4 858 867 868 859
4 859 868 869 860
4 860 869 870 861
4 861 870 871 862
4 862 871 872 863
4 863 872 4 5
4 159 160 873 864
4 864 873 874 865
4 865 874 875 866
4 866 875 876 867
4 867 876 877 868
4 868 877 878 869
4 869 878 879 870
4 870 879 880 871
4 871 880 881 872
4 872 881 3 4
4 160 161 882 873
4 873 882 883 874
4 874 883 884 875
4 875 884 885 876
4 876 885 886 877
4 877 886 887 878
4 878 887 888 879
4 879 888 889 880
4 880 889 890 881
4 881 890 2 3
4 161 81 162 882
4 882 162 163 883
4 883 163 164 884
4 884 164 165 885
4 885 165 166 886
4 886 166 167 887
4 887 167 168 888
4 888 168 169 889
4 889 169 170 890
4 890 170 1 2
CELL_TYPES 800
9
9
9
9
9
9
9
9
9
9
9
9
9
9
9
9
9
9
9
9
9
9
9
9
9
9
9
9
9
9
9
9
9
9
9
9
9
9
9
9
9
9
9
9
9
9
9
9
9
9
9
9
9
9
9
9
9
9
9
9
9
9
9
9
9
9
9
9
9
9
9
9
9
9
9
9
9
9
9
9
9
9
9
9
9
9
9
9
9
9
9
9
9
9
9
9
9
9
9
9
9
9
9
9
9
9
9
9
9
9
9
9
9
9
9
9
9
9
9
9
9
9
9
9
9
9
9
9
9
9
9
9
9
9
9
9
9
9
9
9
9
9
9
9
9
9
9
9
9
9
9
9
9
9
9
9
9
9
9
9
9
9
9
9
9
9
9
9
9
9
9
9
9
9
9
9
9
9
9
9
9
9
9
9
9
9
9
9
9
9
9
9
9
9
9
9
9
9
9
9
9
9
9
9
9
9
9
9
9
9
9
9
9
9
9
9
9
9
9
9
9
9
9
9
9
9
9
9
9
9
9
9
9
9
9
9
9
9
9
9
9
9
9
9
9
9
9
9
9
9
9
9
9
9
9
9
9
9
9
9
9
9
9
9
9
9
9
9
9
9
9
9
9
9
9
9
9
9
9
9
9
9
9
9
9
9
9
9
9
9
9
9
9
9
9
9
9
9
9
9
9
9
9
9
9
9
9
9
9
9
9
9
9
9
9
9
9
9
9
9
9
9
9
9
9
9
9
9
9
9
9
9
9
9
9
9
9
9
9
9
9
9
9
9
9
9
9
9
9
9
9
9
9
9
9
9
9
9
9
9
9
9
9
9
9
9
9
9
9
9
9
9
9
9
9
9
9
9
9
9
9
9
9
9
9
9
9
9
9
9
9
9
9
9
9
9
9
9
9
9
9
9
9
9
9
9
9
9
9
9
9
9
9
9
9
9
9
9
9
9
9
9
9
9
9
9
9
9
9
9
9
9
9
9
9
9
9
9
9
9
9
9
9
9
9
9
9
9
9
9
9
9
9
9
9
9
9
9
9
9
9
9
9
9
9
9
9
9
9
9
9
9
9
9
9
9
9
9
9
9
9
9
9
9
9
9
9
9
9
9
9
9
9
9
9
9
9
9
9
9
9
9
9
9
9
9
9
9
9
9
9
9
9
9
9
9
9
9
9
9
9
9
9
9
9
9
9
9
9
9
9
9
9
9
9
9
9
9
9
9
9
9
9
9
9
9
9
9
9
9
9
9
9
9
9
9
9
9
9
9
9
9
9
9
9
9
9
9
9
9
9
9
9
9
9
9
9
9
9
9
9
9
9
9
9
9
9
9
9
9
9
9
9
9
9
9
9
9
9
9
9
9
9
9
9
9
9
9
9
9
9
9
9
9
9
9
9
9
9
9
9
9
9
9
9
9
9
9
9
9
9
9
9
9
9
9
9
9
9
9
9
9
9
9
9
9
9
9
9
9
9
9
9
9
9
9
9
9
9
9
9
9
9
9
9
9
9
9
9
9
9
9
9
9
9
9
9
9
9
9
9
9
9
9
9
9
9
9
9
9
9
9
9
9
9
9
9
9
9
9
9
9
9
9
9
9
9
9
9
9
9
9
9
9
9
9
9
9
9
9
9
9
9
9
9
9
9
9
9
9
9
9
9
9
9
9
9
9
9
9
9
9
9
9
9
9
9
9
9
9
9
9
9
9
9
9
9
9
9
9
9
9
9
9
9
9
9
9
9
9
9
9
9
9
9
9
9
9
9
9
9
9
9
9
9
9
9
9
9
9
9
9
9
9
9
9
9
9
9
9
POINT_DATA 891
SCALARS u1 float
LOOKUP_TABLE default
4e-18
-1e-06
-1e-06
-1e-06
-1e-06
-1e-06
-1e-06
-1e-06
-1e-06
-1e-06
-1e-06
-1e-06
-1e-06
-1e-06
-1e-06
-1e-06
-1e-06
-1e-06
-1e-06
-1e-06
-1e-06
-1e-06
-1e-06
-1e-06
-1e-06
-1e-06
-1e-06
-1e-06
-1e-06
-1e-06
-1e-06
-1e-06
-1e-06
-1e-06
-1e-06
-1e-06
-1e-06
-1e-06
-1e-06
-1e-06
-1e-06
-1e-06
-1e-06
-1e-06
-1e-06
-1e-06
-1e-06
-1e-06
-1e-06
-1e-06
-1e-06
-1e-06
-1e-06
-1e-06
-1e-06
-1e-06
-1e-06
-1e-06
-1e-06
-1e-06
-1e-06
-1e-06
-1e-06
-1e-06
-1e-06
-1e-06
-1e-06
-1e-06
-1e-06
-1e-06
-1e-06
-1e-06
-1e-06
-1e-06
-1e-06
-1e-06
-1e-06
-1e-06
-2e-06
-1e-06
-1e-06
1e-06
-2e-18
1e-06
1e-06
2e-06
1e-06
1e-06
1e-06
1e-06
1e-06
1e-06
1e-06
1e-06
1e-06
1e-06
1e-06
1e-06
1e-06
1e-06
1e-06
1e-06
1e-06
1e-06
1e-06
1e-06
1e-06
1e-06
1e-06
1e-06
1e-06
1e-06
1e-06
1e-06
1e-06
1e-06
1e-06
1e-06
1e-06
1e-06
1e-06
1e-06
1e-06
1e-06
1e-06
1e-06
1e-06
1e-06
1e-06
1e-06
1e-06
1e-06
1e-06
1e-06
1e-06
1e-06
1e-06
1e-06
1e-06
1e-06
1e-06
1e-06
1e-06
1e-06
1e-06
1e-06
1e-06
1e-06
1e-06
1e-06
1e-06
1e-06
1e-06
1e-06
1e-06
1e-06
1e-06
1e-06
1e-06
1e-06
1e-06
1e-06
1e-06
9e-07
6e-07
3e-07
1e-14
-3e-07
-6e-07
-9e-07
-1e-06
2e-17
2e-18
-3e-17
-8e-18
-3e-18
2e-17
2e-17
2e-17
-2e-17
8e-07
6e-07
4e-07
2e-07
9e-15
-2e-07
-4e-07
-6e-07
-8e-07
1e-06
9e-07
6e-07
3e-07
2e-14
-3e-07
-6e-07
-9e-07
-1e-06
1e-06
9e-07
6e-07
3e-07
2e-14
-3e-07
-6e-07
-9e-07
-1e-06
1e-06
9e-07
6e-07
3e-07
2e-14
-3e-07
-6e-07
-9e-07
-1e-06
1e-06
9e-07
6e-07
3e-07
2e-14
-3e-07
-6e-07
-9e-07
-1e-06
1e-06
9e-07
6e-07
3e-07
2e-14
-3e-07
-6e-07
-9e-07
-1e-06
1e-06
9e-07
6e-07
3e-07
2e-14
-3e-07
-6e-07
-9e-07
-1e-06
1e-06
9e-07
6e-07
3e-07
2e-14
-3e-07
-6e-07
-9e-07
-1e-06
1e-06
9e-07
6e-07
3e-07
2e-14
-3e-07
-6e-07
-9e-07
-1e-06
1e-06
9e-07
6e-07
3e-07
2e-14
-3e-07
-6e-07
-9e-07
-1e-06
1e-06
9e-07
6e-07
3e-07
2e-14
-3e-07
-6e-07
-9e-07
-1e-06
1e-06
9e-07
6e-07
3e-07
2e-14
-3e-07
-6e-07
-9e-07
-1e-06
1e-06
9e-07
6e-07
3e-07
2e-14
-3e-07
-6e-07
-9e-07
-1e-06
1e-06
9e-07
6e-07
3e-07
1e-14
-3e-07
-6e-07
-9e-07
-1e-06
1e-06
9e-07
6e-07
3e-07
1e-14
-3e-07
-6e-07
-9e-07
-1e-06
1e-06
9e-07
6e-07
3e-07
1e-14
-3e-07
-6e-07
-9e-07
-1e-06
1e-06
9e-07
6e-07
3e-07
1e-14
-3e-07
-6e-07
-9e-07
-1e-06
1e-06
9e-07
6e-07
3e-07
1e-14
-3e-07
-6e-07
-9e-07
-1e-06
1e-06
9e-07
6e-07
3e-07
1e-14
-3e-07
-6e-07
-9e-07
-1e-06
1e-06
9e-07
6e-07
3e-07
1e-14
-3e-07
-6e-07
-9e-07
-1e-06
1e-06
9e-07
6e-07
3e-07
1e-14
-3e-07
-6e-07
-9e-07
-1e-06
1e-06
9e-07
6e-07
3e-07
1e-14
-3e-07
-6e-07
-9e-07
-1e-06
1e-06
9e-07
6e-07
3e-07
1e-14
-3e-07
-6e-07
-9e-07
-1e-06
1e-06
9e-07
6e-07
3e-07
1e-14
-3e-07
-6e-07
-9e-07
-1e-06
1e-06
9e-07
6e-07
3e-07
1e-14
-3e-07
-6e-07
-9e-07
-1e-06
1e-06
9e-07
6e-07
3e-07
1e-14
-3e-07
-6e-07
-9e-07
-1e-06
1e-06
9e-07
6e-07
3e-07
1e-14
-3e-07
-6e-07
-9e-07
-1e-06
1e-06
9e-07
6e-07
3e-07
1e-14
-3e-07
-6e-07
-9e-07
-1e-06
1e-06
9e-07
6e-07
3e-07
1e-14
-3e-07
-6e-07
-9e-07
-1e-06
1e-06
9e-07
6e-07
3e-07
1e-14
-3e-07
-6e-07
-9e-07
-1e-06
1e-06
9e-07
6e-07
3e-07
1e-14
-3e-07
-6e-07
-9e-07
-1e-06
1e-06
9e-07
6e-07
3e-07
1e-14
-3e-07
-6e-07
-9e-07
-1e-06
1e-06
9e-07
6e-07
3e-07
1e-14
-3e-07
-6e-07
-9e-07
-1e-06
1e-06
9e-07
6e-07
3e-07
1e-14
-3e-07
-6e-07
-9e-07
-1e-06
1e-06
9e-07
6e-07
3e-07
1e-14
-3e-07
-6e-07
-9e-07
-1e-06
1e-06
9e-07
6e-07
3e-07
1e-14
-3e-07
-6e-07
-9e-07
-1e-06
1e-06
9e-07
6e-07
3e-07
1e-14
-3e-07
-6e-07
-9e-07
-1e-06
1e-06
9e-07
6e-07
3e-07
1e-14
-3e-07
-6e-07
-9e-07
-1e-06
1e-06
9e-07
6e-07
3e-07
1e-14
-3e-07
-6e-07
-9e-07
-1e-06
1e-06
9e-07
6e-07
3e-07
1e-14
-3e-07
-6e-07
-9e-07
-1e-06
1e-06
9e-07
6e-07
3e-07
1e-14
-3e-07
-6e-07
-9e-07
-1e-06
1e-06
9e-07
6e-07
3e-07
1e-14
-3e-07
-6e-07
-9e-07
-1e-06
1e-06
9e-07
6e-07
3e-07
1e-14
-3e-07
-6e-07
-9e-07
-1e-06
1e-06
9e-07
6e-07
3e-07
1e-14
-3e-07
-6e-07
-9e-07
-1e-06
1e-06
9e-07
6e-07
3e-07
1e-14
-3e-07
-6e-07
-9e-07
-1e-06
1e-06
9e-07
6e-07
3e-07
1e-14
-3e-07
-6e-07
-9e-07
-1e-06
1e-06
9e-07
6e-07
3e-07
1e-14
-3e-07
-6e-07
-9e-07
-1e-06
1e-06
9e-07
6e-07
3e-07
1e-14
-3e-07
-6e-07
-9e-07
-1e-06
1e-06
9e-07
6e-07
3e-07
1e-14
-3e-07
-6e-07
-9e-07
-1e-06
1e-06
9e-07
6e-07
3e-07
1e-14
-3e-07
-6e-07
-9e-07
-1e-06
1e-06
9e-07
6e-07
3e-07
1e-14
-3e-07
-6e-07
-9e-07
-1e-06
1e-06
9e-07
6e-07
3e-07
1e-14
-3e-07
-6e-07
-9e-07
-1e-06
1e-06
9e-07
6e-07
3e-07
1e-14
-3e-07
-6e-07
-9e-07
-1e-06
1e-06
9e-07
6e-07
3e-07
1e-14
-3e-07
-6e-07
-9e-07
-1e-06
1e-06
9e-07
6e-07
3e-07
1e-14
-3e-07
-6e-07
-9e-07
-1e-06
1e-06
9e-07
6e-07
3e-07
1e-14
-3e-07
-6e-07
-9e-07
-1e-06
1e-06
9e-07
6e-07
3e-07
1e-14
-3e-07
-6e-07
-9e-07
-1e-06
1e-06
9e-07
6e-07
3e-07
1e-14
-3e-07
-6e-07
-9e-07
-1e-06
1e-06
9e-07
6e-07
3e-07
1e-14
-3e-07
-6e-07
-9e-07
-1e-06
1e-06
9e-07
6e-07
3e-07
1e-14
-3e-07
-6e-07
-9e-07
-1e-06
1e-06
9e-07
6e-07
3e-07
1e-14
-3e-07
-6e-07
-9e-07
-1e-06
1e-06
9e-07
6e-07
3e-07
1e-14
-3e-07
-6e-07
-9e-07
-1e-06
1e-06
9e-07
6e-07
3e-07
1e-14
-3e-07
-6e-07
-9e-07
-1e-06
1e-06
9e-07
6e-07
3e-07
1e-14
-3e-07
-6e-07
-9e-07
-1e-06
1e-06
9e-07
6e-07
3e-07
1e-14
-3e-07
-6e-07
-9e-07
-1e-06
1e-06
9e-07
6e-07
3e-07
1e-14
-3e-07
-6e-07
-9e-07
-1e-06
1e-06
9e-07
6e-07
3e-07
1e-14
-3e-07
-6e-07
-9e-07
-1e-06
1e-06
9e-07
6e-07
3e-07
1e-14
-3e-07
-6e-07
-9e-07
-1e-06
1e-06
9e-07
6e-07
3e-07
1e-14
-3e-07
-6e-07
-9e-07
-1e-06
1e-06
9e-07
6e-07
3e-07
1e-14
-3e-07
-6e-07
-9e-07
-1e-06
1e-06
9e-07
6e-07
3e-07
1e-14
-3e-07
-6e-07
-9e-07
-1e-06
1e-06
9e-07
6e-07
3e-07
1e-14
-3e-07
-6e-07
-9e-07
-1e-06
1e-06
9e-07
6e-07
3e-07
1e-14
-3e-07
-6e-07
-9e-07
-1e-06
1e-06
9e-07
6e-07
3e-07
1e-14
-3e-07
-6e-07
-9e-07
-1e-06
1e-06
9e-07
6e-07
3e-07
1e-14
-3e-07
-6e-07
-9e-07
-1e-06
1e-06
9e-07
6e-07
3e-07
1e-14
-3e-07
-6e-07
-9e-07
-1e-06
1e-06
9e-07
6e-07
3e-07
1e-14
-3e-07
-6e-07
-9e-07
-1e-06
1e-06
9e-07
6e-07
3e-07
1e-14
-3e-07
-6e-07
-9e-07
-1e-06
1e-06
9e-07
6e-07
3e-07
1e-14
-3e-07
-6e-07
-9e-07
-1e-06
SCALARS u2 float
LOOKUP_TABLE default
-9e-18
-0.0004
-0.0004
-0.0004
-0.0004
-0.0004
-0.0004
-0.0004
-0.0004
-0.0004
-0.0004
-0.0004
-0.0003
-0.0003
-0.0003
-0.0003
-0.0003
-0.0003
-0.0003
-0.0003
-0.0003
-0.0003
-0.0003
-0.0003
-0.0003
-0.0003
-0.0003
-0.0003
-0.0003
-0.0003
-0.0003
-0.0003
-0.0002
-0.0002
-0.0002
-0.0002
-0.0002
-0.0002
-0.0002
-0.0002
-0.0002
-0.0002
-0.0002
-0.0002
-0.0002
-0.0002
-0.0002
-0.0002
-0.0002
-0.0002
-0.0002
-0.0002
-0.0001
-0.0001
-0.0001
-0.0001
-0.0001
-0.0001
-0.0001
-0.0001
-0.0001
-0.0001
-0.0001
-9e-05
-9e-05
-8e-05
-8e-05
-7e-05
-7e-05
-6e-05
-6e-05
-5e-05
-5e-05
-4e-05
-4e-05
-3e-05
-2e-05
-2e-05
-1e-05
-1e-05
-5e-06
-0.0004
-2e-18
-5e-06
-1e-05
-1e-05
-2e-05
-2e-05
-3e-05
-4e-05
-4e-05
-5e-05
-5e-05
-6e-05
-6e-05
-7e-05
-7e-05
-8e-05
-8e-05
-9e-05
-9e-05
-0.0001
-0.0001
-0.0001
-0.0001
-0.0001
-0.0001
-0.0001
-0.0001
-0.0001
-0.0001
-0.0001
-0.0002
-0.0002
-0.0002
-0.0002
-0.0002
-0.0002
-0.0002
-0.0002
-0.0002
-0.0002
-0.0002
-0.0002
-0.0002
-0.0002
-0.0002
-0.0002
-0.0002
-0.0002
-0.0002
-0.0002
-0.0003
-0.0003
-0.0003
-0.0003
-0.0003
-0.0003
-0.0003
-0.0003
-0.0003
-0.0003
-0.0003
-0.0003
-0.0003
-0.0003
-0.0003
-0.0003
-0.0003
-0.0003
-0.0003
-0.0003
-0.0004
-0.0004
-0.0004
-0.0004
-0.0004
-0.0004
-0.0004
-0.0004
-0.0004
-0.0004
-0.0004
-0.0004
-0.0004
-0.0004
-0.0004
-0.0004
-0.0004
-0.0004
-0.0004
2e-17
4e-17
5e-17
-3e-17
-1e-17
-2e-17
-4e-18
-1e-17
3e-17
-5e-06
-5e-06
-5e-06
-5e-06
-5e-06
-5e-06
-5e-06
-5e-06
-5e-06
-1e-05
-1e-05
-1e-05
-1e-05
-1e-05
-1e-05
-1e-05
-1e-05
-1e-05
-1e-05
-1e-05
-1e-05
-1e-05
-1e-05
-1e-05
-1e-05
-1e-05
-1e-05
-2e-05
-2e-05
-2e-05
-2e-05
-2e-05
-2e-05
-2e-05
-2e-05
-2e-05
-2e-05
-2e-05
-2e-05
-2e-05
-2e-05
-2e-05
-2e-05
-2e-05
-2e-05
-3e-05
-3e-05
-3e-05
-3e-05
-3e-05
-3e-05
-3e-05
-3e-05
-3e-05
-4e-05
-4e-05
-4e-05
-4e-05
-4e-05
-4e-05
-4e-05
-4e-05
-4e-05
-4e-05
-4e-05
-4e-05
-4e-05
-4e-05
-4e-05
-4e-05
-4e-05
-4e-05
-5e-05
-5e-05
-5e-05
-5e-05
-5e-05
-5e-05
-5e-05
-5e-05
-5e-05
-5e-05
-5e-05
-5e-05
-5e-05
-5e-05
-5e-05
-5e-05
-5e-05
-5e-05
-6e-05
-6e-05
-6e-05
-6e-05
-6e-05
-6e-05
-6e-05
-6e-05
-6e-05
-6e-05
-6e-05
-6e-05
-6e-05
-6e-05
-6e-05
-6e-05
-6e-05
-6e-05
-7e-05
-7e-05
-7e-05
-7e-05
-7e-05
-7e-05
-7e-05
-7e-05
-7e-05
-7e-05
-7e-05
-7e-05
-7e-05
-7e-05
-7e-05
-7e-05
-7e-05
-7e-05
-8e-05
-8e-05
-8e-05
-8e-05
-8e-05
-8e-05
-8e-05
-8e-05
-8e-05
-8e-05
-8e-05
-8e-05
-8e-05
-8e-05
-8e-05
-8e-05
-8e-05
-8e-05
-9e-05
-9e-05
-9e-05
-9e-05
-9e-05
-9e-05
-9e-05
-9e-05
-9e-05
-9e-05
-9e-05
-9e-05
-9e-05
-9e-05
-9e-05
-9e-05
-9e-05
-9e-05
-0.0001
-0.0001
-0.0001
-0.0001
-0.0001
-0.0001
-0.0001
-0.0001
-0.0001
-0.0001
-0.0001
-0.0001
-0.0001
-0.0001
-0.0001
-0.0001
-0.0001
-0.0001
-0.0001
-0.0001
-0.0001
-0.0001
-0.0001
-0.0001
-0.0001
-0.0001
-0.0001
-0.0001
-0.0001
-0.0001
-0.0001
-0.0001
-0.0001
-0.0001
-0.0001
-0.0001
-0.0001
-0.0001
-0.0001
-0.0001
-0.0001
-0.0001
-0.0001
-0.0001
-0.0001
-0.0001
-0.0001
-0.0001
-0.0001
-0.0001
-0.0001
-0.0001
-0.0001
-0.0001
-0.0001
-0.0001
-0.0001
-0.0001
-0.0001
-0.0001
-0.0001
-0.0001
-0.0001
-0.0001
-0.0001
-0.0001
-0.0001
-0.0001
-0.0001
-0.0001
-0.0001
-0.0001
-0.0001
-0.0001
-0.0001
-0.0001
-0.0001
-0.0001
-0.0001
-0.0001
-0.0001
-0.0001
-0.0001
-0.0001
-0.0001
-0.0001
-0.0001
-0.0001
-0.0001
-0.0001
-0.0001
-0.0001
-0.0001
-0.0001
-0.0001
-0.0001
-0.0001
-0.0001
-0.0001
-0.0002
-0.0002
-0.0002
-0.0002
-0.0002
-0.0002
-0.0002
-0.0002
-0.0002
-0.0002
-0.0002
-0.0002
-0.0002
-0.0002
-0.0002
-0.0002
-0.0002
-0.0002
-0.0002
-0.0002
-0.0002
-0.0002
-0.0002
-0.0002
-0.0002
-0.0002
-0.0002
-0.0002
-0.0002
-0.0002
-0.0002
-0.0002
-0.0002
-0.0002
-0.0002
-0.0002
-0.0002
-0.0002
-0.0002
-0.0002
-0.0002
-0.0002
-0.0002
-0.0002
-0.0002
-0.0002
-0.0002
-0.0002
-0.0002
-0.0002
-0.0002
-0.0002
-0.0002
-0.0002
-0.0002
-0.0002
-0.0002
-0.0002
-0.0002
-0.0002
-0.0002
-0.0002
-0.0002
-0.0002
-0.0002
-0.0002
-0.0002
-0.0002
-0.0002
-0.0002
-0.0002
-0.0002
-0.0002
-0.0002
-0.0002
-0.0002
-0.0002
-0.0002
-0.0002
-0.0002
-0.0002
-0.0002
-0.0002
-0.0002
-0.0002
-0.0002
-0.0002
-0.0002
-0.0002
-0.0002
-0.0002
-0.0002
-0.0002
-0.0002
-0.0002
-0.0002
-0.0002
-0.0002
-0.0002
-0.0002
-0.0002
-0.0002
-0.0002
-0.0002
-0.0002
-0.0002
-0.0002
-0.0002
-0.0002
-0.0002
-0.0002
-0.0002
-0.0002
-0.0002
-0.0002
-0.0002
-0.0002
-0.0002
-0.0002
-0.0002
-0.0002
-0.0002
-0.0002
-0.0002
-0.0002
-0.0002
-0.0002
-0.0002
-0.0002
-0.0002
-0.0002
-0.0002
-0.0002
-0.0002
-0.0002
-0.0002
-0.0002
-0.0002
-0.0002
-0.0002
-0.0002
-0.0002
-0.0002
-0.0002
-0.0002
-0.0002
-0.0002
-0.0002
-0.0002
-0.0002
-0.0002
-0.0002
-0.0002
-0.0002
-0.0002
-0.0002
-0.0002
-0.0002
-0.0002
-0.0002
-0.0002
-0.0002
-0.0002
-0.0002
-0.0002
-0.0002
-0.0002
-0.0002
-0.0002
-0.0002
-0.0002
-0.0002
-0.0002
-0.0002
-0.0002
-0.0002
-0.0002
-0.0002
-0.0002
-0.0002
-0.0003
-0.0003
-0.0003
-0.0003
-0.0003
-0.0003
-0.0003
-0.0003
-0.0003
-0.0003
-0.0003
-0.0003
-0.0003
-0.0003
-0.0003
-0.0003
-0.0003
-0.0003
-0.0003
-0.0003
-0.0003
-0.0003
-0.0003
-0.0003
-0.0003
-0.0003
-0.0003
-0.0003
-0.0003
-0.0003
-0.0003
-0.0003
-0.0003
-0.0003
-0.0003
-0.0003
-0.0003
-0.0003
-0.0003
-0.0003
-0.0003
-0.0003
-0.0003
-0.0003
-0.0003
-0.0003
-0.0003
-0.0003
-0.0003
-0.0003
-0.0003
-0.0003
-0.0003
-0.0003
-0.0003
-0.0003
-0.0003
-0.0003
-0.0003
-0.0003
-0.0003
-0.0003
-0.0003
-0.0003
-0.0003
-0.0003
-0.0003
-0.0003
-0.0003
-0.0003
-0.0003
-0.0003
-0.0003
-0.0003
-0.0003
-0.0003
-0.0003
-0.0003
-0.0003
-0.0003
-0.0003
-0.0003
-0.0003
-0.0003
-0.0003
-0.0003
-0.0003
-0.0003
-0.0003
-0.0003
-0.0003
-0.0003
-0.0003
-0.0003
-0.0003
-0.0003
-0.0003
-0.0003
-0.0003
-0.0003
-0.0003
-0.0003
-0.0003
-0.0003
-0.0003
-0.0003
-0.0003
-0.0003
-0.0003
-0.0003
-0.0003
-0.0003
-0.0003
-0.0003
-0.0003
-0.0003
-0.0003
-0.0003
-0.0003
-0.0003
-0.0003
-0.0003
-0.0003
-0.0003
-0.0003
-0.0003
-0.0003
-0.0003
-0.0003
-0.0003
-0.0003
-0.0003
-0.0003
-0.0003
-0.0003
-0.0003
-0.0003
-0.0003
-0.0003
-0.0003
-0.0003
-0.0003
-0.0003
-0.0003
-0.0003
-0.0003
-0.0003
-0.0003
-0.0003
-0.0003
-0.0003
-0.0003
-0.0003
-0.0003
-0.0003
-0.0003
-0.0003
-0.0003
-0.0003
-0.0003
-0.0003
-0.0003
-0.0003
-0.0003
-0.0003
-0.0003
-0.0003
-0.0003
-0.0003
-0.0003
-0.0003
-0.0003
-0.0003
-0.0003
-0.0003
-0.0003
-0.0003
-0.0003
-0.0003
-0.0003
-0.0004
-0.0004
-0.0004
-0.0004
-0.0004
-0.0004
-0.0004
-0.0004
-0.0004
-0.0004
-0.0004
-0.0004
-0.0004
-0.0004
-0.0004
-0.0004
-0.0004
-0.0004
-0.0004
-0.0004
-0.0004
-0.0004
-0.0004
-0.0004
-0.0004
-0.0004
-0.0004
-0.0004
-0.0004
-0.0004
-0.0004
-0.0004
-0.0004
-0.0004
-0.0004
-0.0004
-0.0004
-0.0004
-0.0004
-0.0004
-0.0004
-0.0004
-0.0004
-0.0004
-0.0004
-0.0004
-0.0004
-0.0004
-0.0004
-0.0004
-0.0004
-0.0004
-0.0004
-0.0004
-0.0004
-0.0004
-0.0004
-0.0004
-0.0004
-0.0004
-0.0004
-0.0004
-0.0004
-0.0004
-0.0004
-0.0004
-0.0004
-0.0004
-0.0004
-0.0004
-0.0004
-0.0004
-0.0004
-0.0004
-0.0004
-0.0004
-0.0004
-0.0004
-0.0004
-0.0004
-0.0004
-0.0004
-0.0004
-0.0004
-0.0004
-0.0004
-0.0004
-0.0004
-0.0004
-0.0004
SCALARS strain_1 float
LOOKUP_TABLE default
-0.000109
-0.173271
-0.170650
-0.168017
-0.165371
-0.162714
-0.160044
-0.157364
-0.154675
-0.151976
-0.149268
-0.146552
-0.143829
-0.141100
-0.138365
-0.135625
-0.132881
-0.130135
-0.127386
-0.124637
-0.121887
-0.119138
-0.116391
-0.113647
-0.110907
-0.108172
-0.105443
-0.102722
-0.100009
-0.097306
-0.094614
-0.091934
-0.089267
-0.086615
-0.083979
-0.081360
-0.078759
-0.076179
-0.073619
-0.071082
-0.068568
-0.066080
-0.063618
-0.061183
-0.058779
-0.056404
-0.054061
-0.051751
-0.049475
-0.047234
-0.045030
-0.042865
-0.040739
-0.038653
-0.036608
-0.034607
-0.032649
-0.030736
-0.028869
-0.027049
-0.025276
-0.023553
-0.021878
-0.020254
-0.018681
-0.017159
-0.015690
-0.014274
-0.012910
-0.011601
-0.010345
-0.009143
-0.007996
-0.006903
-0.005865
-0.004882
-0.003951
-0.003077
-0.002255
-0.001487
-0.000771
-0.173425
-0.000004
-0.000669
-0.001386
-0.002156
-0.002980
-0.003857
-0.004789
-0.005776
-0.006816
-0.007912
-0.009062
-0.010267
-0.011526
-0.012838
-0.014205
-0.015625
-0.017098
-0.018622
-0.020199
-0.021826
-0.023504
-0.025232
-0.027008
-0.028832
-0.030703
-0.032620
-0.034582
-0.036587
-0.038636
-0.040725
-0.042856
-0.045025
-0.047233
-0.049478
-0.051757
-0.054071
-0.056419
-0.058798
-0.061207
-0.063645
-0.066112
-0.068604
-0.071121
-0.073663
-0.076226
-0.078810
-0.081415
-0.084038
-0.086678
-0.089334
-0.092004
-0.094688
-0.097383
-0.100090
-0.102806
-0.105531
-0.108263
-0.111002
-0.113745
-0.116492
-0.119242
-0.121994
-0.124747
-0.127500
-0.130251
-0.133001
-0.135746
-0.138489
-0.141227
-0.143959
-0.146684
-0.149402
-0.152112
-0.154814
-0.157506
-0.160189
-0.162860
-0.165519
-0.168167
-0.170803
-0.173410
-0.173396
-0.173380
-0.173365
-0.173350
-0.173335
-0.173319
-0.173303
-0.173287
-0.000088
-0.000070
-0.000053
-0.000040
-0.000028
-0.000019
-0.000012
-0.000007
-0.000005
-0.000669
-0.000671
-0.000676
-0.000682
-0.000692
-0.000702
-0.000717
-0.000733
-0.000750
-0.001386
-0.001388
-0.001392
-0.001399
-0.001407
-0.001419
-0.001433
-0.001448
-0.001466
-0.002155
-0.002157
-0.002161
-0.002168
-0.002177
-0.002188
-0.002201
-0.002216
-0.002235
-0.002979
-0.002981
-0.002985
-0.002991
-0.002999
-0.003010
-0.003023
-0.003039
-0.003057
-0.003857
-0.003858
-0.003862
-0.003867
-0.003876
-0.003886
-0.003899
-0.003915
-0.003932
-0.004788
-0.004789
-0.004793
-0.004798
-0.004806
-0.004817
-0.004829
-0.004844
-0.004862
-0.005774
-0.005775
-0.005778
-0.005783
-0.005791
-0.005801
-0.005813
-0.005828
-0.005845
-0.006815
-0.006815
-0.006818
-0.006824
-0.006831
-0.006841
-0.006853
-0.006867
-0.006884
-0.007910
-0.007910
-0.007913
-0.007918
-0.007925
-0.007934
-0.007946
-0.007961
-0.007977
-0.009060
-0.009060
-0.009062
-0.009067
-0.009074
-0.009083
-0.009094
-0.009108
-0.009125
-0.010264
-0.010264
-0.010265
-0.010270
-0.010277
-0.010286
-0.010297
-0.010310
-0.010326
-0.011522
-0.011522
-0.011524
-0.011528
-0.011534
-0.011543
-0.011554
-0.011567
-0.011583
-0.012835
-0.012834
-0.012836
-0.012839
-0.012846
-0.012854
-0.012864
-0.012877
-0.012892
-0.014201
-0.014200
-0.014201
-0.014205
-0.014210
-0.014219
-0.014229
-0.014242
-0.014257
-0.015621
-0.015619
-0.015621
-0.015623
-0.015628
-0.015637
-0.015646
-0.015659
-0.015673
-0.017093
-0.017092
-0.017092
-0.017095
-0.017100
-0.017107
-0.017117
-0.017129
-0.017143
-0.018618
-0.018616
-0.018616
-0.018619
-0.018623
-0.018631
-0.018640
-0.018651
-0.018665
-0.020194
-0.020193
-0.020192
-0.020194
-0.020199
-0.020205
-0.020214
-0.020225
-0.020238
-0.021822
-0.021819
-0.021818
-0.021820
-0.021825
-0.021831
-0.021839
-0.021850
-0.021863
-0.023499
-0.023497
-0.023496
-0.023497
-0.023501
-0.023507
-0.023515
-0.023525
-0.023538
-0.025227
-0.025224
-0.025223
-0.025224
-0.025227
-0.025232
-0.025240
-0.025250
-0.025262
-0.027003
-0.026999
-0.026998
-0.026999
-0.027002
-0.027007
-0.027014
-0.027023
-0.027035
-0.028826
-0.028822
-0.028821
-0.028822
-0.028824
-0.028829
-0.028836
-0.028844
-0.028856
-0.030697
-0.030693
-0.030691
-0.030691
-0.030693
-0.030698
-0.030705
-0.030713
-0.030723
-0.032614
-0.032609
-0.032607
-0.032607
-0.032609
-0.032612
-0.032619
-0.032626
-0.032637
-0.034575
-0.034570
-0.034567
-0.034568
-0.034569
-0.034572
-0.034578
-0.034586
-0.034595
-0.036580
-0.036575
-0.036572
-0.036572
-0.036573
-0.036576
-0.036581
-0.036588
-0.036598
-0.038628
-0.038623
-0.038620
-0.038619
-0.038619
-0.038622
-0.038627
-0.038633
-0.038642
-0.040718
-0.040712
-0.040709
-0.040707
-0.040708
-0.040710
-0.040715
-0.040721
-0.040729
-0.042847
-0.042842
-0.042838
-0.042837
-0.042836
-0.042839
-0.042842
-0.042848
-0.042855
-0.045018
-0.045011
-0.045008
-0.045005
-0.045005
-0.045007
-0.045009
-0.045015
-0.045022
-0.047225
-0.047219
-0.047214
-0.047211
-0.047211
-0.047212
-0.047215
-0.047219
-0.047226
-0.049469
-0.049462
-0.049458
-0.049455
-0.049453
-0.049454
-0.049456
-0.049461
-0.049467
-0.051749
-0.051742
-0.051737
-0.051734
-0.051732
-0.051732
-0.051734
-0.051738
-0.051743
-0.054063
-0.054056
-0.054050
-0.054047
-0.054045
-0.054045
-0.054046
-0.054049
-0.054054
-0.056410
-0.056403
-0.056397
-0.056393
-0.056390
-0.056390
-0.056391
-0.056394
-0.056398
-0.058789
-0.058781
-0.058775
-0.058771
-0.058768
-0.058767
-0.058767
-0.058769
-0.058773
-0.061198
-0.061190
-0.061183
-0.061179
-0.061175
-0.061174
-0.061174
-0.061176
-0.061180
-0.063636
-0.063627
-0.063621
-0.063616
-0.063613
-0.063611
-0.063611
-0.063612
-0.063614
-0.066101
-0.066093
-0.066086
-0.066081
-0.066077
-0.066075
-0.066074
-0.066074
-0.066077
-0.068594
-0.068585
-0.068578
-0.068573
-0.068568
-0.068565
-0.068564
-0.068564
-0.068565
-0.071111
-0.071102
-0.071095
-0.071089
-0.071084
-0.071081
-0.071079
-0.071079
-0.071080
-0.073652
-0.073643
-0.073635
-0.073629
-0.073624
-0.073620
-0.073618
-0.073617
-0.073617
-0.076215
-0.076206
-0.076198
-0.076191
-0.076186
-0.076182
-0.076180
-0.076178
-0.076177
-0.078800
-0.078790
-0.078782
-0.078775
-0.078769
-0.078765
-0.078761
-0.078760
-0.078759
-0.081404
-0.081394
-0.081386
-0.081379
-0.081372
-0.081368
-0.081364
-0.081361
-0.081360
-0.084027
-0.084017
-0.084008
-0.084000
-0.083994
-0.083988
-0.083984
-0.083982
-0.083980
-0.086666
-0.086656
-0.086646
-0.086639
-0.086633
-0.086627
-0.086622
-0.086619
-0.086617
-0.089322
-0.089312
-0.089302
-0.089294
-0.089287
-0.089281
-0.089276
-0.089272
-0.089269
-0.091992
-0.091982
-0.091971
-0.091964
-0.091956
-0.091949
-0.091944
-0.091940
-0.091936
-0.094676
-0.094665
-0.094655
-0.094646
-0.094638
-0.094632
-0.094626
-0.094621
-0.094617
-0.097371
-0.097361
-0.097350
-0.097341
-0.097333
-0.097326
-0.097320
-0.097314
-0.097310
-0.100078
-0.100067
-0.100056
-0.100047
-0.100038
-0.100031
-0.100024
-0.100018
-0.100013
-0.102793
-0.102783
-0.102772
-0.102763
-0.102754
-0.102745
-0.102739
-0.102732
-0.102726
-0.105518
-0.105507
-0.105496
-0.105486
-0.105478
-0.105469
-0.105461
-0.105454
-0.105448
-0.108251
-0.108239
-0.108228
-0.108218
-0.108208
-0.108200
-0.108191
-0.108184
-0.108178
-0.110988
-0.110977
-0.110965
-0.110955
-0.110945
-0.110936
-0.110928
-0.110920
-0.110913
-0.113732
-0.113720
-0.113708
-0.113698
-0.113688
-0.113678
-0.113669
-0.113661
-0.113654
-0.116479
-0.116467
-0.116455
-0.116444
-0.116434
-0.116424
-0.116415
-0.116406
-0.116399
-0.119229
-0.119216
-0.119205
-0.119194
-0.119183
-0.119173
-0.119163
-0.119155
-0.119146
-0.121981
-0.121968
-0.121957
-0.121945
-0.121934
-0.121924
-0.121914
-0.121904
-0.121896
-0.124734
-0.124721
-0.124709
-0.124697
-0.124686
-0.124675
-0.124665
-0.124655
-0.124646
-0.127486
-0.127474
-0.127461
-0.127449
-0.127437
-0.127426
-0.127416
-0.127405
-0.127396
-0.130238
-0.130225
-0.130212
-0.130200
-0.130188
-0.130176
-0.130166
-0.130155
-0.130145
-0.132987
-0.132974
-0.132961
-0.132949
-0.132936
-0.132925
-0.132913
-0.132903
-0.132892
-0.135733
-0.135720
-0.135707
-0.135694
-0.135682
-0.135670
-0.135658
-0.135647
-0.135636
-0.138476
-0.138462
-0.138449
-0.138436
-0.138424
-0.138412
-0.138399
-0.138387
-0.138375
-0.141213
-0.141199
-0.141186
-0.141173
-0.141160
-0.141148
-0.141135
-0.141123
-0.141111
-0.143945
-0.143931
-0.143918
-0.143904
-0.143891
-0.143878
-0.143866
-0.143853
-0.143841
-0.146670
-0.146656
-0.146643
-0.146629
-0.146616
-0.146602
-0.146590
-0.146577
-0.146565
-0.149389
-0.149374
-0.149361
-0.149347
-0.149333
-0.149320
-0.149307
-0.149294
-0.149281
-0.152099
-0.152085
-0.152071
-0.152057
-0.152043
-0.152030
-0.152016
-0.152003
-0.151989
-0.154800
-0.154786
-0.154772
-0.154758
-0.154744
-0.154730
-0.154716
-0.154702
-0.154689
-0.157493
-0.157478
-0.157464
-0.157450
-0.157436
-0.157421
-0.157407
-0.157393
-0.157379
-0.160174
-0.160160
-0.160146
-0.160131
-0.160117
-0.160103
-0.160088
-0.160073
-0.160059
-0.162845
-0.162831
-0.162817
-0.162802
-0.162787
-0.162773
-0.162758
-0.162743
-0.162728
-0.165505
-0.165491
-0.165476
-0.165462
-0.165447
-0.165432
-0.165417
-0.165401
-0.165387
-0.168152
-0.168138
-0.168124
-0.168109
-0.168094
-0.168078
-0.168064
-0.168048
-0.168033
-0.170788
-0.170774
-0.170759
-0.170744
-0.170729
-0.170713
-0.170698
-0.170682
-0.170667
SCALARS strain_2 float
LOOKUP_TABLE default
0.002088
0.001195
0.001196
0.001194
0.001196
0.001195
0.001197
0.001195
0.001197
0.001198
0.001197
0.001201
0.001203
0.001201
0.001207
0.001203
0.001209
0.001207
0.001210
0.001215
0.001219
0.001222
0.001226
0.001227
0.001237
0.001236
0.001244
0.001245
0.001247
0.001256
0.001263
0.001272
0.001275
0.001282
0.001288
0.001294
0.001302
0.001316
0.001322
0.001330
0.001339
0.001348
0.001360
0.001368
0.001380
0.001391
0.001402
0.001415
0.001429
0.001438
0.001454
0.001468
0.001487
0.001500
0.001514
0.001528
0.001545
0.001562
0.001578
0.001598
0.001613
0.001635
0.001652
0.001666
0.001688
0.001713
0.001733
0.001750
0.001775
0.001797
0.001817
0.001843
0.001867
0.001891
0.001914
0.001939
0.001962
0.001985
0.002013
0.002039
0.002067
0.004175
0.004232
0.004231
0.004237
0.004237
0.004238
0.004243
0.004243
0.004249
0.004253
0.004254
0.004256
0.004260
0.004258
0.004265
0.004269
0.004271
0.004271
0.004273
0.004278
0.004274
0.004280
0.004281
0.004282
0.004282
0.004284
0.004289
0.004285
0.004289
0.004294
0.004290
0.004292
0.004294
0.004292
0.004293
0.004293
0.004295
0.004294
0.004294
0.004295
0.004292
0.004294
0.004289
0.004290
0.004291
0.004288
0.004290
0.004286
0.004288
0.004287
0.004285
0.004280
0.004279
0.004283
0.004274
0.004276
0.004272
0.004271
0.004269
0.004267
0.004259
0.004260
0.004256
0.004255
0.004247
0.004247
0.004240
0.004239
0.004237
0.004235
0.004226
0.004222
0.004216
0.004214
0.004210
0.004202
0.004198
0.004192
0.004188
0.004182
0.004179
0.003876
0.003578
0.003284
0.002985
0.002686
0.002388
0.002090
0.001793
0.001494
0.002304
0.002523
0.002736
0.002947
0.003161
0.003379
0.003587
0.003806
0.004017
0.004016
0.003802
0.003583
0.003368
0.003147
0.002935
0.002717
0.002497
0.002286
0.004020
0.003795
0.003578
0.003360
0.003138
0.002916
0.002700
0.002477
0.002260
0.004018
0.003795
0.003570
0.003349
0.003125
0.002906
0.002685
0.002459
0.002237
0.004021
0.003790
0.003567
0.003341
0.003115
0.002889
0.002665
0.002441
0.002213
0.004016
0.003787
0.003560
0.003330
0.003105
0.002877
0.002648
0.002418
0.002193
0.004017
0.003784
0.003556
0.003323
0.003095
0.002863
0.002631
0.002401
0.002169
0.004016
0.003784
0.003551
0.003317
0.003078
0.002849
0.002614
0.002382
0.002147
0.004018
0.003780
0.003543
0.003307
0.003074
0.002835
0.002598
0.002364
0.002127
0.004017
0.003780
0.003538
0.003298
0.003059
0.002825
0.002582
0.002344
0.002104
0.004017
0.003778
0.003536
0.003294
0.003052
0.002808
0.002566
0.002326
0.002084
0.004016
0.003771
0.003526
0.003284
0.003046
0.002795
0.002553
0.002307
0.002068
0.004015
0.003767
0.003522
0.003277
0.003030
0.002785
0.002534
0.002293
0.002045
0.004016
0.003766
0.003520
0.003268
0.003019
0.002770
0.002522
0.002273
0.002027
0.004016
0.003766
0.003514
0.003262
0.003010
0.002757
0.002509
0.002258
0.002005
0.004014
0.003762
0.003509
0.003254
0.003003
0.002750
0.002495
0.002238
0.001985
0.004009
0.003761
0.003502
0.003250
0.002991
0.002733
0.002479
0.002222
0.001965
0.004015
0.003758
0.003493
0.003240
0.002983
0.002724
0.002467
0.002209
0.001950
0.004015
0.003751
0.003494
0.003236
0.002972
0.002714
0.002454
0.002188
0.001932
0.004016
0.003749
0.003489
0.003226
0.002964
0.002701
0.002436
0.002178
0.001915
0.004013
0.003749
0.003483
0.003219
0.002955
0.002692
0.002427
0.002168
0.001899
0.004017
0.003749
0.003479
0.003213
0.002944
0.002680
0.002416
0.002144
0.001881
0.004013
0.003746
0.003476
0.003209
0.002941
0.002670
0.002401
0.002134
0.001866
0.004014
0.003745
0.003472
0.003202
0.002928
0.002664
0.002390
0.002119
0.001848
0.004011
0.003743
0.003469
0.003194
0.002925
0.002647
0.002378
0.002105
0.001833
0.004014
0.003737
0.003461
0.003190
0.002915
0.002642
0.002370
0.002095
0.001821
0.004010
0.003734
0.003459
0.003184
0.002908
0.002634
0.002356
0.002082
0.001806
0.004013
0.003733
0.003456
0.003177
0.002902
0.002621
0.002348
0.002068
0.001793
0.004010
0.003729
0.003452
0.003172
0.002894
0.002617
0.002337
0.002054
0.001781
0.004005
0.003729
0.003445
0.003167
0.002885
0.002605
0.002324
0.002043
0.001764
0.004009
0.003725
0.003445
0.003158
0.002879
0.002596
0.002310
0.002034
0.001754
0.004007
0.003723
0.003439
0.003157
0.002876
0.002591
0.002303
0.002023
0.001738
0.004008
0.003722
0.003441
0.003153
0.002865
0.002582
0.002298
0.002012
0.001723
0.004005
0.003718
0.003432
0.003144
0.002861
0.002574
0.002285
0.001999
0.001714
0.004008
0.003716
0.003427
0.003141
0.002851
0.002565
0.002279
0.001994
0.001705
0.004003
0.003717
0.003425
0.003137
0.002847
0.002559
0.002270
0.001979
0.001691
0.004006
0.003714
0.003426
0.003136
0.002845
0.002553
0.002263
0.001974
0.001683
0.004000
0.003710
0.003420
0.003131
0.002839
0.002544
0.002255
0.001963
0.001670
0.004000
0.003708
0.003414
0.003125
0.002829
0.002538
0.002244
0.001954
0.001660
0.004000
0.003706
0.003416
0.003118
0.002827
0.002530
0.002238
0.001946
0.001653
0.004002
0.003704
0.003413
0.003113
0.002821
0.002527
0.002231
0.001935
0.001639
0.003998
0.003699
0.003403
0.003114
0.002817
0.002519
0.002228
0.001929
0.001634
0.004001
0.003697
0.003403
0.003107
0.002813
0.002512
0.002219
0.001926
0.001624
0.003992
0.003695
0.003396
0.003104
0.002805
0.002508
0.002212
0.001913
0.001617
0.003994
0.003696
0.003396
0.003100
0.002802
0.002504
0.002208
0.001911
0.001607
0.003990
0.003689
0.003393
0.003100
0.002791
0.002494
0.002201
0.001897
0.001603
0.003988
0.003690
0.003392
0.003092
0.002791
0.002493
0.002193
0.001893
0.001595
0.003987
0.003686
0.003389
0.003089
0.002789
0.002486
0.002190
0.001888
0.001588
0.003985
0.003686
0.003385
0.003085
0.002781
0.002484
0.002180
0.001881
0.001582
0.003985
0.003681
0.003380
0.003080
0.002779
0.002477
0.002176
0.001880
0.001574
0.003979
0.003677
0.003376
0.003078
0.002773
0.002476
0.002171
0.001873
0.001571
0.003979
0.003675
0.003377
0.003074
0.002772
0.002467
0.002169
0.001868
0.001564
0.003975
0.003677
0.003368
0.003072
0.002771
0.002465
0.002165
0.001864
0.001559
0.003976
0.003673
0.003370
0.003065
0.002762
0.002462
0.002158
0.001854
0.001552
0.003970
0.003668
0.003367
0.003065
0.002759
0.002454
0.002154
0.001853
0.001548
0.003971
0.003666
0.003364
0.003055
0.002759
0.002456
0.002154
0.001850
0.001546
0.003968
0.003665
0.003358
0.003056
0.002753
0.002453
0.002148
0.001843
0.001540
0.003966
0.003660
0.003357
0.003054
0.002751
0.002443
0.002145
0.001839
0.001537
0.003964
0.003659
0.003353
0.003053
0.002748
0.002441
0.002141
0.001836
0.001533
0.003962
0.003654
0.003349
0.003047
0.002741
0.002437
0.002136
0.001833
0.001528
0.003959
0.003654
0.003350
0.003045
0.002739
0.002438
0.002131
0.001832
0.001524
0.003951
0.003646
0.003346
0.003041
0.002736
0.002434
0.002130
0.001824
0.001523
0.003952
0.003646
0.003342
0.003038
0.002735
0.002432
0.002129
0.001825
0.001520
0.003946
0.003644
0.003338
0.003037
0.002732
0.002429
0.002125
0.001819
0.001517
0.003945
0.003638
0.003337
0.003032
0.002727
0.002425
0.002117
0.001818
0.001513
0.003939
0.003636
0.003332
0.003029
0.002727
0.002420
0.002120
0.001813
0.001513
0.003936
0.003631
0.003330
0.003030
0.002722
0.002419
0.002115
0.001810
0.001507
0.003932
0.003628
0.003327
0.003022
0.002725
0.002419
0.002116
0.001812
0.001505
0.003929
0.003625
0.003325
0.003021
0.002722
0.002416
0.002108
0.001809
0.001507
0.003920
0.003624
0.003320
0.003017
0.002714
0.002410
0.002110
0.001806
0.001501
0.003920
0.003619
0.003317
0.003013
0.002714
0.002407
0.002108
0.001805
0.001502
0.003917
0.003612
0.003310
0.003011
0.002710
0.002406
0.002103
0.001802
0.001498
0.003913
0.003608
0.003312
0.003008
0.002706
0.002404
0.002104
0.001800
0.001499
0.003909
0.003611
0.003305
0.003005
0.002703
0.002407
0.002103
0.001802
0.001501
0.003904
0.003606
0.003301
0.002999
0.002701
0.002401
0.002099
0.001798
0.001498
0.003900
0.003599
0.003300
0.002995
0.002696
0.002397
0.002099
0.001796
0.001497
0.003897
0.003592
0.003297
0.002995
0.002694
0.002396
0.002095
0.001798
0.001494
0.003891
0.003593
0.003291
0.002989
0.002691
0.002392
0.002092
0.001796
0.001496
0.003886
0.003585
0.003288
0.002987
0.002687
0.002391
0.002092
0.001791
0.001497
0.003878
0.003583
0.003285
0.002988
0.002688
0.002389
0.002091
0.001792
0.001497
SCALARS strain_3 float
LOOKUP_TABLE default
0.000881
0.057539
0.056725
0.055909
0.055090
0.054265
0.053435
0.052603
0.051768
0.050925
0.050082
0.049235
0.048387
0.047535
0.046679
0.045823
0.044964
0.044102
0.043240
0.042379
0.041512
0.040649
0.039783
0.038919
0.038052
0.037190
0.036326
0.035465
0.034604
0.033744
0.032888
0.032034
0.031183
0.030335
0.029492
0.028653
0.027816
0.026989
0.026163
0.025344
0.024530
0.023725
0.022925
0.022131
0.021345
0.020569
0.019801
0.019041
0.018291
0.017551
0.016820
0.016097
0.015389
0.014691
0.014006
0.013331
0.012668
0.012017
0.011383
0.010757
0.010149
0.009552
0.008971
0.008402
0.007848
0.007313
0.006790
0.006284
0.005792
0.005317
0.004858
0.004417
0.003987
0.003575
0.003181
0.002806
0.002441
0.002099
0.001769
0.001456
0.001159
0.056064
-0.000469
-0.000201
0.000084
0.000388
0.000703
0.001040
0.001389
0.001759
0.002143
0.002545
0.002962
0.003397
0.003849
0.004316
0.004800
0.005300
0.005814
0.006345
0.006892
0.007449
0.008029
0.008618
0.009222
0.009842
0.010473
0.011118
0.011776
0.012446
0.013130
0.013824
0.014532
0.015249
0.015974
0.016715
0.017461
0.018220
0.018987
0.019764
0.020547
0.021340
0.022140
0.022944
0.023757
0.024575
0.025402
0.026234
0.027068
0.027908
0.028755
0.029601
0.030455
0.031310
0.032169
0.033029
0.033893
0.034756
0.035620
0.036488
0.037355
0.038224
0.039091
0.039960
0.040827
0.041695
0.042562
0.043422
0.044285
0.045147
0.046007
0.046861
0.047717
0.048567
0.049415
0.050260
0.051101
0.051939
0.052770
0.053599
0.054426
0.055246
0.056212
0.056359
0.056507
0.056654
0.056802
0.056950
0.057097
0.057244
0.057391
0.000744
0.000606
0.000468
0.000332
0.000198
0.000062
-0.000072
-0.000205
-0.000337
-0.000068
0.000067
0.000199
0.000337
0.000470
0.000608
0.000745
0.000880
0.001022
0.000216
0.000353
0.000487
0.000623
0.000762
0.000898
0.001040
0.001177
0.001316
0.000523
0.000655
0.000794
0.000930
0.001066
0.001208
0.001346
0.001487
0.001627
0.000839
0.000977
0.001113
0.001251
0.001391
0.001532
0.001673
0.001813
0.001954
0.001177
0.001310
0.001451
0.001592
0.001732
0.001871
0.002014
0.002156
0.002297
0.001525
0.001667
0.001805
0.001948
0.002088
0.002229
0.002373
0.002515
0.002659
0.001898
0.002038
0.002177
0.002318
0.002463
0.002604
0.002746
0.002890
0.003037
0.002283
0.002424
0.002563
0.002706
0.002850
0.002994
0.003140
0.003283
0.003429
0.002686
0.002828
0.002969
0.003113
0.003256
0.003402
0.003546
0.003693
0.003840
0.003105
0.003247
0.003391
0.003536
0.003679
0.003827
0.003971
0.004118
0.004267
0.003539
0.003683
0.003829
0.003973
0.004118
0.004266
0.004412
0.004560
0.004709
0.003992
0.004137
0.004282
0.004426
0.004573
0.004721
0.004869
0.005018
0.005167
0.004461
0.004607
0.004753
0.004898
0.005046
0.005193
0.005343
0.005491
0.005643
0.004946
0.005089
0.005239
0.005385
0.005533
0.005682
0.005830
0.005980
0.006131
0.005445
0.005592
0.005740
0.005888
0.006037
0.006187
0.006336
0.006487
0.006639
0.005961
0.006109
0.006257
0.006406
0.006554
0.006706
0.006859
0.007007
0.007161
0.006493
0.006642
0.006788
0.006940
0.007090
0.007241
0.007393
0.007544
0.007697
0.007039
0.007188
0.007338
0.007488
0.007640
0.007789
0.007943
0.008094
0.008250
0.007602
0.007751
0.007901
0.008052
0.008205
0.008355
0.008508
0.008660
0.008817
0.008177
0.008328
0.008478
0.008631
0.008781
0.008936
0.009087
0.009243
0.009395
0.008768
0.008918
0.009070
0.009222
0.009377
0.009529
0.009683
0.009838
0.009993
0.009374
0.009524
0.009677
0.009830
0.009985
0.010136
0.010289
0.010446
0.010603
0.009991
0.010143
0.010296
0.010450
0.010603
0.010758
0.010913
0.011069
0.011224
0.010625
0.010778
0.010929
0.011084
0.011238
0.011392
0.011546
0.011704
0.011862
0.011270
0.011421
0.011576
0.011730
0.011887
0.012039
0.012197
0.012353
0.012509
0.011928
0.012082
0.012236
0.012390
0.012545
0.012701
0.012858
0.013017
0.013173
0.012599
0.012753
0.012908
0.013064
0.013220
0.013376
0.013531
0.013689
0.013845
0.013284
0.013437
0.013593
0.013748
0.013904
0.014060
0.014216
0.014376
0.014533
0.013978
0.014133
0.014288
0.014445
0.014598
0.014756
0.014916
0.015072
0.015233
0.014686
0.014839
0.014996
0.015151
0.015307
0.015463
0.015624
0.015781
0.015940
0.015403
0.015558
0.015713
0.015873
0.016028
0.016184
0.016342
0.016500
0.016661
0.016130
0.016285
0.016443
0.016599
0.016756
0.016913
0.017072
0.017232
0.017390
0.016869
0.017027
0.017181
0.017340
0.017496
0.017656
0.017810
0.017972
0.018131
0.017619
0.017772
0.017934
0.018088
0.018246
0.018406
0.018563
0.018723
0.018882
0.018375
0.018532
0.018690
0.018846
0.019004
0.019162
0.019321
0.019480
0.019641
0.019142
0.019298
0.019458
0.019614
0.019772
0.019932
0.020089
0.020251
0.020409
0.019918
0.020075
0.020235
0.020391
0.020549
0.020707
0.020866
0.021025
0.021185
0.020705
0.020861
0.021020
0.021175
0.021336
0.021493
0.021652
0.021811
0.021971
0.021497
0.021652
0.021808
0.021966
0.022128
0.022283
0.022443
0.022604
0.022763
0.022293
0.022452
0.022607
0.022767
0.022925
0.023085
0.023242
0.023403
0.023564
0.023101
0.023259
0.023416
0.023575
0.023732
0.023890
0.024051
0.024209
0.024370
0.023913
0.024071
0.024229
0.024386
0.024547
0.024704
0.024863
0.025023
0.025184
0.024735
0.024891
0.025048
0.025208
0.025367
0.025525
0.025685
0.025841
0.026001
0.025560
0.025717
0.025872
0.026032
0.026193
0.026351
0.026511
0.026668
0.026827
0.026390
0.026546
0.026706
0.026863
0.027021
0.027181
0.027339
0.027500
0.027656
0.027223
0.027381
0.027540
0.027698
0.027857
0.028015
0.028174
0.028333
0.028493
0.028066
0.028222
0.028380
0.028538
0.028697
0.028855
0.029017
0.029172
0.029332
0.028910
0.029066
0.029223
0.029384
0.029541
0.029702
0.029857
0.030018
0.030178
0.029759
0.029917
0.030074
0.030232
0.030390
0.030548
0.030706
0.030865
0.031024
0.030612
0.030767
0.030924
0.031084
0.031242
0.031400
0.031558
0.031715
0.031876
0.031468
0.031625
0.031779
0.031938
0.032097
0.032255
0.032412
0.032572
0.032729
0.032322
0.032481
0.032638
0.032796
0.032953
0.033113
0.033271
0.033425
0.033586
0.033184
0.033339
0.033499
0.033655
0.033814
0.033971
0.034129
0.034285
0.034445
0.034047
0.034205
0.034361
0.034518
0.034675
0.034832
0.034990
0.035145
0.035304
0.034912
0.035069
0.035225
0.035381
0.035539
0.035698
0.035853
0.036011
0.036168
0.035779
0.035933
0.036093
0.036247
0.036404
0.036559
0.036716
0.036875
0.037032
0.036645
0.036801
0.036956
0.037113
0.037269
0.037426
0.037583
0.037739
0.037898
0.037513
0.037668
0.037822
0.037979
0.038134
0.038292
0.038450
0.038604
0.038762
0.038379
0.038538
0.038692
0.038846
0.039004
0.039157
0.039315
0.039471
0.039629
0.039247
0.039404
0.039560
0.039714
0.039870
0.040027
0.040180
0.040336
0.040491
0.040115
0.040269
0.040427
0.040582
0.040736
0.040891
0.041047
0.041200
0.041359
0.040983
0.041137
0.041292
0.041445
0.041600
0.041757
0.041912
0.042067
0.042224
0.041849
0.042003
0.042158
0.042312
0.042468
0.042622
0.042776
0.042930
0.043085
0.042713
0.042869
0.043023
0.043175
0.043331
0.043485
0.043640
0.043793
0.043949
0.043577
0.043733
0.043884
0.044036
0.044192
0.044346
0.044503
0.044653
0.044811
0.044439
0.044595
0.044747
0.044902
0.045056
0.045208
0.045361
0.045515
0.045668
0.045301
0.045452
0.045605
0.045760
0.045914
0.046066
0.046220
0.046374
0.046526
0.046159
0.046311
0.046463
0.046617
0.046770
0.046922
0.047074
0.047229
0.047381
0.047016
0.047165
0.047319
0.047470
0.047624
0.047777
0.047930
0.048081
0.048232
0.047868
0.048020
0.048175
0.048324
0.048478
0.048630
0.048780
0.048933
0.049083
0.048720
0.048870
0.049020
0.049175
0.049326
0.049476
0.049630
0.049780
0.049932
0.049567
0.049717
0.049869
0.050019
0.050170
0.050323
0.050474
0.050624
0.050776
0.050410
0.050562
0.050712
0.050861
0.051013
0.051164
0.051314
0.051465
0.051615
0.051251
0.051402
0.051551
0.051701
0.051851
0.052003
0.052153
0.052301
0.052452
0.052087
0.052240
0.052387
0.052539
0.052688
0.052837
0.052987
0.053135
0.053286
0.052921
0.053072
0.053219
0.053369
0.053518
0.053666
0.053818
0.053967
0.054116
0.053751
0.053901
0.054048
0.054198
0.054345
0.054496
0.054642
0.054793
0.054943
0.054575
0.054725
0.054874
0.055022
0.055170
0.055317
0.055466
0.055616
0.055762
0.055396
0.055544
0.055692
0.055839
0.055989
0.056136
0.056285
0.056432
0.056580
SCALARS stress_1 float
LOOKUP_TABLE default
13380.494943
-13010279.607528
-12813403.223435
-12615479.589341
-12416652.955248
-12216911.321155
-12016357.187061
-11814913.052968
-11612791.293874
-11409891.159781
-11206387.525688
-11002320.266594
-10797604.757501
-10592498.498408
-10386890.364314
-10180984.230221
-9974772.221127
-9768307.462034
-9561669.827941
-9355021.443847
-9148345.559754
-8941694.550660
-8735161.791567
-8528902.907474
-8322891.648380
-8117283.389287
-7912182.755194
-7707588.746100
-7503615.487007
-7300391.977913
-7097984.218820
-6896486.584727
-6695977.200633
-6496569.941540
-6298401.807446
-6101445.923353
-5905908.539260
-5711892.155166
-5519378.771073
-5328582.636980
-5139562.377886
-4952439.743793
-4767261.984699
-4584190.350606
-4403274.341513
-4224665.832419
-4048423.573326
-3874681.564233
-3703450.180139
-3534951.421046
-3369212.286952
-3206266.777859
-3046317.893766
-2889335.634672
-2735557.125579
-2584985.366485
-2437666.482392
-2293719.348299
-2153199.839205
-2016191.080112
-1882827.696019
-1753083.561925
-1627041.427832
-1504806.168738
-1386339.034645
-1271800.525552
-1161133.391458
-1054479.257365
-951800.998271
-853168.989178
-758521.480085
-668003.095991
-581586.711898
-499193.952805
-420932.693711
-346760.559618
-276688.175524
-210633.291431
-148679.157338
-90698.523244
-36650.264151
-12991281.012704
46857.214767
-3122.919327
-56965.303420
-114840.062513
-176706.571607
-242670.205700
-312698.964794
-386811.598887
-465039.232980
-547375.742074
-633802.001167
-724345.760261
-818960.394354
-917650.278447
-1020335.912541
-1127077.921634
-1237774.930727
-1352410.564821
-1470914.448914
-1593259.333008
-1719400.092101
-1849285.851194
-1982827.860288
-2119900.869381
-2260579.628475
-2404719.637568
-2552163.396661
-2702941.405755
-2856948.914848
-3014083.548941
-3174237.308035
-3337337.817128
-3503325.826222
-3672080.585315
-3843513.969408
-4017480.978502
-4193997.612595
-4372810.621689
-4553982.630782
-4737333.139875
-4922689.023969
-5110127.908062
-5299390.292155
-5490463.926249
-5683198.685342
-5877498.319436
-6073322.953529
-6270558.587622
-6469010.346716
-6668743.480809
-6869482.864902
-7071275.248996
-7273966.258089
-7477495.392183
-7681742.526276
-7886593.660369
-8091982.419463
-8297888.428556
-8504157.562650
-8710722.321743
-8917470.830836
-9124416.839930
-9331380.099023
-9538381.983116
-9745208.117210
-9951973.751303
-10158406.385397
-10364664.144490
-10570429.278583
-10775855.162677
-10980749.921770
-11185183.680864
-11388962.064957
-11592069.324050
-11794466.958144
-11996129.467237
-12196963.976330
-12396946.860424
-12596018.369517
-12794167.878611
-12993258.484686
-12995204.956669
-12997164.678651
-12999071.400634
-13000986.622616
-13002909.719598
-13004777.566581
-13006613.788563
-13008479.010546
17494.091925
21480.688907
25214.410890
28800.882872
32216.979855
35485.201837
38608.548819
41483.395802
44259.742784
-5702.516309
-8460.863292
-11385.835274
-14485.432256
-17740.279239
-21167.126221
-24793.473204
-28568.195186
-32562.042168
-59555.400403
-62376.122385
-65289.219367
-68399.941350
-71676.163332
-75136.135315
-78733.607297
-82567.954279
-86527.676262
-117447.159496
-120252.006478
-123141.853461
-126274.575443
-129601.172426
-133081.394408
-136688.241390
-140481.338373
-144494.060355
-179330.293589
-182104.265572
-185077.612554
-188250.209537
-191526.306519
-195000.903501
-198660.875484
-202492.347466
-206456.569449
-245278.052683
-248086.774665
-251065.121647
-254190.468630
-257496.565612
-260976.537595
-264679.259577
-268485.981560
-272531.078542
-315334.061776
-318127.158758
-321062.505741
-324269.352723
-327621.824706
-331065.421688
-334722.643671
-338553.615653
-342595.087635
-389436.570869
-392234.167852
-395224.264834
-398351.111817
-401704.458799
-405207.055782
-408869.027764
-412789.499746
-416747.221729
-467640.454963
-470483.301945
-473476.523928
-476634.745910
-479947.967892
-483456.189875
-487151.536857
-491015.883840
-495032.355822
-550018.839056
-552858.936039
-555808.283021
-559009.130003
-562270.726986
-565783.573968
-569468.420951
-573329.392933
-577381.114916
-636429.848150
-639252.820132
-642246.792114
-645414.014097
-648719.736079
-652283.458062
-655933.555044
-659835.402026
-663805.749009
-726966.482243
-729815.204225
-732799.426208
-735937.398190
-739283.120173
-742803.842155
-746470.189137
-750300.911120
-754314.508102
-821573.491336
-824397.588319
-827449.560301
-830583.657284
-833875.254266
-837391.351248
-841119.198231
-844952.420213
-848957.392196
-920300.125430
-923046.472412
-926058.444395
-929262.666377
-932590.388359
-936076.610342
-939789.582324
-943595.804307
-947614.151289
-1022968.384523
-1025786.606506
-1028831.328488
-1031988.050470
-1035275.522453
-1038765.744435
-1042467.091418
-1046274.688400
-1050279.660382
-1129696.643616
-1132507.240599
-1135479.587581
-1138677.184564
-1142000.656546
-1145476.628529
-1149140.350511
-1152979.322493
-1156990.419476
-1240387.027710
-1243219.749692
-1246210.471675
-1249370.193657
-1252643.915640
-1256160.012622
-1259804.734604
-1263640.206587
-1267619.428569
-1355056.036803
-1357842.258786
-1360811.730768
-1363948.452751
-1367314.424733
-1370754.646715
-1374405.118698
-1378219.340680
-1382203.687663
-1473541.920897
-1476306.517879
-1479289.739861
-1482447.961844
-1485754.808826
-1489218.280809
-1492855.752791
-1496687.724774
-1500655.321756
-1595917.304990
-1598682.151972
-1601679.248955
-1604813.345937
-1608079.942920
-1611541.289902
-1615187.511885
-1618957.108867
-1622929.330849
-1722038.939083
-1724845.536066
-1727749.883048
-1730899.105031
-1734215.077013
-1737628.048995
-1741276.770978
-1745028.617960
-1748981.839943
-1851904.823177
-1854672.795159
-1857641.892142
-1860728.239124
-1864002.461106
-1867457.558089
-1871035.030071
-1874825.252054
-1878760.099036
-1985413.082270
-1988192.929253
-1991141.026235
-1994246.623217
-1997513.845200
-2000915.942182
-2004579.164165
-2008260.261147
-2012174.983129
-2122557.466364
-2125346.063346
-2128260.285328
-2131365.382311
-2134634.729293
-2137987.201276
-2141557.923258
-2145299.645240
-2149164.867223
-2263175.850457
-2265970.447439
-2268895.419422
-2271957.141404
-2275228.863387
-2278627.585369
-2282154.057351
-2285806.529334
-2289684.501316
-2407309.234550
-2410031.456533
-2412955.053515
-2416010.275498
-2419228.747480
-2422618.469462
-2426146.941445
-2429820.788427
-2433659.260410
-2554798.993644
-2557501.215626
-2560427.187609
-2563473.284591
-2566690.881573
-2570024.853556
-2573549.450538
-2577229.047521
-2581009.769503
-2705560.002737
-2708293.099720
-2711193.196702
-2714218.043684
-2717402.265667
-2720720.737649
-2724198.459632
-2727869.431614
-2731669.278596
-2859542.261830
-2862245.608813
-2865122.455795
-2868155.677778
-2871334.149760
-2874661.246743
-2878099.093725
-2881719.440707
-2885478.287690
-3016658.020924
-3019366.617906
-3022235.339889
-3025227.936871
-3028383.533854
-3031703.505836
-3035138.102818
-3038737.824801
-3042439.921783
-3176755.030017
-3179502.127000
-3182370.098982
-3185358.695964
-3188503.542947
-3191759.639929
-3195190.861912
-3198733.958894
-3202456.930877
-3339922.039111
-3342616.261093
-3345442.358075
-3348457.580058
-3351557.302040
-3354773.024023
-3358193.621005
-3361684.842988
-3365403.689970
-3505814.423204
-3508558.770186
-3511396.742169
-3514356.214151
-3517456.811134
-3520684.408116
-3524096.505098
-3527561.352081
-3531197.449063
-3674624.682297
-3677307.654280
-3680115.876262
-3683061.848245
-3686109.570227
-3689354.417209
-3692663.264192
-3696173.236174
-3699727.708157
-3846037.566391
-3848694.913373
-3851478.260356
-3854417.482338
-3857466.579320
-3860652.676303
-3863958.148285
-3867370.120268
-3870956.217250
-4020051.200484
-4022674.797467
-4025477.769449
-4028383.116431
-4031416.213414
-4034514.310396
-4037803.157379
-4041254.379361
-4044760.726343
-4196483.084578
-4199116.806560
-4201892.778542
-4204790.000525
-4207793.722507
-4210916.194490
-4214169.666472
-4217512.638454
-4221081.485437
-4375319.718671
-4377940.565653
-4380751.537636
-4383601.134618
-4386589.981601
-4389677.578583
-4392864.550565
-4396228.022548
-4399724.994530
-4556464.102764
-4559117.324747
-4561807.296729
-4564635.393712
-4567642.990694
-4570721.087676
-4573905.684659
-4577251.656641
-4580637.628624
-4739792.486858
-4742394.458840
-4745070.055823
-4747932.402805
-4750843.249787
-4753942.346770
-4757128.818752
-4760348.665735
-4763785.012717
-4925168.995951
-4927772.342933
-4930467.064916
-4933295.161898
-4936163.383881
-4939232.980863
-4942370.452846
-4945588.924828
-4949006.396810
-5112583.755044
-5115118.977027
-5117802.449009
-5120640.920992
-5123519.642974
-5126512.114957
-5129595.336939
-5132814.558921
-5136110.030904
-5301852.889138
-5304436.486120
-5307034.708103
-5309818.305085
-5312722.902068
-5315644.874050
-5318716.596032
-5321894.818015
-5325212.414997
-5492893.648231
-5495407.870214
-5498108.717196
-5500792.314178
-5503648.161161
-5506614.508143
-5509640.355126
-5512789.827108
-5516030.549091
-5685625.782325
-5688190.254307
-5690777.851289
-5693487.573272
-5696322.170254
-5699217.767237
-5702265.364219
-5705330.961202
-5708552.308184
-5879966.041418
-5882461.513400
-5885050.860383
-5887752.957365
-5890561.054348
-5893424.026330
-5896429.998312
-5899523.970295
-5902632.067277
-6075736.425511
-6078255.522494
-6080854.244476
-6083509.591459
-6086294.563441
-6089133.035423
-6092098.007406
-6095101.229388
-6098244.701371
-6272935.309605
-6275412.906587
-6278013.378570
-6280660.100552
-6283405.447534
-6286218.294517
-6289083.141499
-6292106.113482
-6295205.460464
-6471406.193698
-6473905.665681
-6476430.262663
-6479049.859645
-6481723.456628
-6484569.678610
-6487466.275593
-6490403.997575
-6493450.969557
-6671086.952792
-6673517.549774
-6676088.396756
-6678679.743739
-6681368.965721
-6684136.812704
-6686979.534686
-6689933.881668
-6692888.103651
-6871858.961885
-6874283.683867
-6876787.655850
-6879352.877832
-6882076.599815
-6884793.571797
-6887589.043779
-6890511.765762
-6893479.737744
-7073580.970978
-7076032.817961
-7078537.289943
-7081106.636926
-7083748.733908
-7086502.330890
-7089200.927873
-7092078.149855
-7094954.121838
-7276287.980072
-7278705.202054
-7281177.424037
-7283720.521019
-7286330.618001
-7288976.339984
-7291777.186966
-7294546.033949
-7297485.505931
-7479804.239165
-7482177.086147
-7484639.558130
-7487152.780112
-7489752.502095
-7492398.599077
-7495108.696060
-7497874.168042
-7500705.515024
-7684035.748258
-7686400.220241
-7688838.442223
-7691299.414206
-7693869.386188
-7696460.858171
-7699176.955153
-7701926.177135
-7704707.274118
-7888899.132352
-7891220.854334
-7893625.201317
-7896135.923299
-7898654.395281
-7901225.617264
-7903896.714246
-7906573.436229
-7909329.783211
-8094268.766445
-8096659.738428
-8099001.460410
-8101436.682392
-8103957.404375
-8106523.876357
-8109142.723340
-8111803.570322
-8114526.917305
-8300163.525539
-8302475.122521
-8304860.219503
-8307284.441486
-8309744.538468
-8312294.260451
-8314849.607433
-8317499.079415
-8320170.301398
-8506426.284632
-8508745.756614
-8511079.853597
-8513475.950579
-8515903.797562
-8518429.394544
-8520985.116526
-8523554.213509
-8526220.810491
-8712951.793725
-8715251.765708
-8717587.487690
-8720003.959673
-8722393.056655
-8724854.903637
-8727396.000620
-8729929.722602
-8732531.444585
-8919724.552819
-8922023.399801
-8924334.621784
-8926666.218766
-8929067.940748
-8931498.537731
-8933986.134713
-8936517.356696
-8939063.828678
-9126616.686912
-9128871.908895
-9131176.505877
-9133565.852859
-9135907.199842
-9138302.921824
-9140765.893807
-9143229.240789
-9145796.212771
-9333610.946006
-9335803.167988
-9338110.514970
-9340456.236953
-9342756.083935
-9345142.430918
-9347558.277900
-9350007.374882
-9352491.596865
-9540536.205099
-9542770.927081
-9545065.399064
-9547316.621046
-9549625.968029
-9551965.815011
-9554378.661993
-9556763.258976
-9559233.355958
-9747397.339192
-9749605.686175
-9751835.408157
-9754126.130140
-9756397.727122
-9758727.949104
-9761083.796087
-9763481.268069
-9765837.115052
-9954102.723286
-9956295.195268
-9958521.792250
-9960738.389233
-9963065.111215
-9965328.458198
-9967667.305180
-9970001.152163
-9972322.999145
-10160557.107379
-10162761.954361
-10164910.051344
-10167172.648326
-10169388.120309
-10171703.217291
-10173989.939274
-10176284.786256
-10178628.633238
-10366752.991472
-10368915.588455
-10371142.310437
-10373339.907420
-10375514.629402
-10377751.601384
-10380042.573367
-10382269.545349
-10384553.767332
-10572569.500566
-10574720.847548
-10576867.319531
-10579034.666513
-10581254.138495
-10583470.235478
-10585682.707460
-10587931.429443
-10590201.151425
-10777988.509659
-10780122.231642
-10782242.703624
-10784437.675606
-10786553.897589
-10788727.994571
-10790948.591554
-10793148.063536
-10795341.035519
-10982916.268753
-10985036.365735
-10987095.462717
-10989273.309700
-10991377.406682
-10993542.753665
-10995682.725647
-10997874.822629
-11000083.419612
-11187290.527846
-11189343.999828
-11191441.096811
-11193525.443793
-11195691.540776
-11197798.887758
-11199938.109740
-11202101.581723
-11204257.053705
-11390995.786939
-11393064.008922
-11395181.480904
-11397238.827887
-11399366.799869
-11401445.396851
-11403568.368834
-11405686.715816
-11407807.187799
-11594143.796033
-11596151.143015
-11598270.114998
-11600339.836980
-11602409.058962
-11604439.780945
-11606521.877927
-11608603.974910
-11610699.946892
-11796497.555126
-11798566.777109
-11800601.124091
-11802664.096073
-11804705.568056
-11806747.790038
-11808819.512021
-11810856.109003
-11812904.205985
-11998165.439219
-12000179.786202
-12002218.633184
-12004256.355167
-12006272.952149
-12008285.549132
-12010300.646114
-12012314.493096
-12014329.215079
-12198997.948313
-12200997.795295
-12203019.392278
-12204996.239260
-12207046.836243
-12209013.683225
-12210994.780207
-12212958.377190
-12214939.474172
-12398943.832406
-12400978.554389
-12402944.526371
-12404936.998353
-12406908.970336
-12408859.942318
-12410818.039301
-12412769.636283
-12414723.858266
-12597998.341500
-12600032.688482
-12601967.910464
-12603959.382447
-12605906.229429
-12607839.826412
-12609768.048394
-12611748.645377
-12613585.742359
-12796104.975593
-12798139.947575
-12800072.419558
-12801991.391540
-12803915.738523
-12805875.960505
-12807815.307488
-12809663.904470
-12811522.126452
SCALARS stress_2 float
LOOKUP_TABLE default
160454.703787
-2007261.565186
-1975538.711823
-1943975.858461
-1911549.005099
-1879346.151737
-1846871.298375
-1814204.445013
-1781825.591651
-1748758.738288
-1716107.884926
-1682881.031564
-1649878.178202
-1616667.324840
-1583312.471478
-1549797.618115
-1516570.764753
-1482975.911391
-1449413.058029
-1415802.204667
-1382511.351305
-1348884.497942
-1315353.644580
-1281742.791218
-1247955.937856
-1214441.084494
-1181230.231132
-1147923.377770
-1114456.524407
-1081229.671045
-1048050.817683
-1014887.964321
-982285.110959
-949842.257597
-916983.404234
-884812.550872
-852465.697510
-820742.844148
-789355.990786
-757505.137424
-726422.284061
-695547.430699
-665056.577337
-634469.723975
-604746.870613
-575088.017251
-545701.163889
-516698.310526
-488143.457164
-460084.603802
-432649.750440
-405278.897078
-378068.043716
-351593.190353
-325518.336991
-300307.483629
-275480.630267
-250573.776905
-226978.923543
-203816.070180
-180733.216818
-158466.363456
-136583.510094
-115356.656732
-94801.803370
-74902.950007
-55516.096645
-36609.243283
-18806.389921
-1163.536559
15615.316803
32090.170165
47573.023528
62927.876890
77434.730252
91173.583614
103904.436976
116619.290338
128518.143701
139744.997063
150571.850425
-1786563.727352
320304.541620
312325.688258
304106.834896
294895.981534
284949.128172
274538.274810
263615.421447
251780.568085
239593.714723
226446.861361
212580.007999
198121.154637
183038.301274
167587.447912
150728.594550
133885.741188
116082.887826
97864.034464
78813.181102
59298.327739
39335.474377
18460.621015
-3102.232347
-24937.085709
-47875.939071
-70910.792434
-94553.645796
-118884.499158
-143583.352520
-168794.205882
-194501.059244
-220831.912607
-247546.765969
-274805.619331
-302176.472693
-330347.326055
-358934.179417
-387601.032779
-416731.886142
-446422.739504
-476193.592866
-506300.446228
-537079.299590
-568050.152952
-599181.006315
-630151.859677
-662274.713039
-694093.566401
-726168.419763
-758563.273125
-790830.126488
-823672.979850
-856371.833212
-889422.686574
-922217.539936
-955748.393298
-988863.246660
-1022682.100023
-1055988.953385
-1089407.806747
-1123050.660109
-1156645.513471
-1190256.366833
-1223771.220196
-1257190.073558
-1291072.926920
-1324891.780282
-1358150.633644
-1391569.487006
-1424924.340369
-1458583.193731
-1492082.047093
-1525052.900455
-1558151.753817
-1591202.607179
-1623917.460541
-1656744.313904
-1689363.167266
-1721950.020628
-1754312.873990
-1808476.711136
-1830533.694919
-1852878.678702
-1874935.662486
-1897136.646269
-1918953.630052
-1941202.613836
-1963275.597619
-1985428.581402
176479.687570
192728.671354
208737.655137
224842.638920
240867.622704
256796.606487
273093.590270
288750.574054
304663.557837
296188.704475
280467.720692
264362.736908
248241.753125
231768.769342
215759.785558
199270.801775
183277.817992
166772.834208
287553.851113
271592.867329
255183.883546
238742.899763
221965.915979
205812.932196
189387.948413
172962.964629
156265.980846
278454.997751
261886.013967
245317.030184
228828.046401
212163.062617
195258.078834
178609.095051
162264.111267
145119.127484
268332.144388
251603.160605
235146.176822
218353.193038
201096.209255
184111.225472
167622.241688
150573.257905
133588.274122
257873.291026
240744.307243
223711.323460
206934.339676
189549.355893
172916.372110
155595.388326
138210.404543
121369.420760
246390.437664
229453.453881
212356.470097
194779.486314
177922.502531
160153.518747
143232.534964
125847.551181
108398.567397
234587.584302
217314.600519
199721.616735
182496.632952
164807.649169
147326.665385
129909.681602
112348.697819
94675.714035
222048.730940
204231.747156
186782.763373
169189.779590
151612.795806
134019.812023
116346.828240
98401.844456
80424.860673
208709.877578
190652.893794
173267.910011
155434.926228
137617.942444
119576.958661
101679.974878
83958.991094
65950.007311
194795.024215
176722.040432
158777.056649
140560.072865
122887.089082
104686.105299
86405.121515
68332.137732
50355.153949
180064.170853
161831.187070
143726.203287
125605.219503
107420.235720
89251.251937
70538.268153
52785.284370
34344.300587
164869.317491
146604.333708
128179.349924
109914.366141
91345.382358
72792.398574
54687.414791
35782.431008
17373.447224
148890.464129
130401.480346
111912.496562
93199.512779
74806.528996
55981.545212
37668.561429
18875.577646
2.593862
132639.610767
113654.626984
94925.643200
76180.659417
57387.675634
38402.691850
19705.708067
768.724283
-17848.259500
115076.757405
96347.773621
77506.789838
58377.806055
39568.822271
20439.838488
1470.854705
-17322.129079
-36291.112862
97321.904043
78288.920259
59223.936476
40078.952693
20949.968909
2108.985126
-17531.998657
-36372.982441
-55741.966224
78815.050680
59590.066897
40509.083114
21092.099330
1755.115547
-17357.868236
-36550.852020
-56031.835803
-75544.819586
59636.197318
40123.213535
20946.229752
1593.245968
-17983.737815
-37192.721598
-56977.705382
-76378.689165
-96099.672948
39961.343956
20240.360173
967.376389
-18689.607394
-38234.591177
-57763.574961
-77436.558744
-97173.542527
-116990.526311
19566.490594
-74.493189
-19603.476973
-39340.460756
-59221.444539
-78782.428323
-98855.412106
-118688.395889
-138601.379673
-1596.362768
-21285.346552
-41198.330335
-60743.314118
-80912.297902
-100713.281685
-120562.265468
-140667.249252
-160740.233035
-23047.216130
-43328.199914
-62889.183697
-82978.167480
-103147.151264
-123076.135047
-143437.118830
-163286.102614
-183295.086397
-45058.069493
-65163.053276
-85188.037059
-105773.020843
-125734.004626
-145934.988409
-166103.972193
-186272.955976
-206617.939759
-67964.922855
-88005.906638
-108382.890421
-128759.874205
-148752.857988
-169161.841771
-189410.825555
-210123.809338
-230452.793121
-91063.776217
-111520.760000
-131785.743784
-152082.727567
-172891.711350
-193076.695134
-213517.678917
-234246.662700
-254655.646484
-115090.629579
-135163.613362
-156068.597146
-176493.580929
-197030.564712
-217455.548496
-238520.532279
-258753.516062
-279370.499846
-139309.482941
-159862.466725
-180543.450508
-200904.434291
-222065.418075
-242554.401858
-263411.385641
-283980.369425
-304933.353208
-163928.336303
-184865.320087
-205738.303870
-226739.287653
-247292.271437
-267829.255220
-288942.239003
-309687.222787
-330752.206570
-189715.189666
-210508.173449
-231157.157232
-252382.141016
-273095.124799
-294048.108582
-315193.092366
-335954.076149
-357179.059932
-215550.043028
-236423.026811
-257392.010594
-278520.994378
-299489.978161
-320554.961944
-341571.945728
-362668.929511
-383749.913294
-241768.896390
-262865.880173
-283994.863957
-305123.847740
-326412.831523
-347333.815307
-368526.799090
-389911.782873
-411008.766657
-268483.749752
-289900.733535
-311061.717319
-332142.701102
-353607.684885
-374880.668669
-396185.652452
-417218.636235
-438939.620019
-295870.603114
-317399.586898
-338448.570681
-359961.554464
-381362.538248
-402443.522031
-423764.505814
-445293.489598
-466742.473381
-323481.456476
-344962.440260
-366475.424043
-387828.407826
-409373.391610
-430694.375393
-452239.359176
-473624.342960
-495361.326743
-351908.309838
-373133.293622
-394614.277405
-416159.261188
-437528.244972
-459153.228755
-480746.212538
-502675.196322
-524172.180105
-380319.163201
-401832.146984
-423169.130767
-444986.114551
-466499.098334
-488124.082117
-509893.065901
-531566.049684
-553367.033467
-409098.016563
-430899.000346
-452443.984129
-473924.967913
-495821.951696
-517462.935479
-539055.919263
-561080.903046
-582881.886829
-438548.869925
-460317.853708
-481958.837492
-503567.821275
-525320.805058
-547121.788842
-568762.772625
-590979.756408
-612812.740192
-468239.723287
-489656.707070
-511793.690854
-533418.674637
-555523.658420
-577020.642204
-599109.625987
-620894.609770
-643015.593554
-498266.576649
-520083.560433
-541756.544216
-563877.527999
-585550.511783
-607575.495566
-629696.479349
-651513.463133
-673522.446916
-528437.430011
-550526.413795
-572327.397578
-594352.381361
-616249.365145
-638402.348928
-660299.332711
-682388.316495
-704509.300278
-558912.283374
-581161.267157
-603186.250940
-624987.234724
-647172.218507
-669117.202290
-691462.186074
-713375.169857
-735688.153640
-590059.136736
-611796.120519
-634205.104302
-656230.088086
-678335.071869
-700408.055652
-722785.039436
-744874.023219
-767059.007002
-621237.990098
-643390.973881
-665431.957665
-687616.941448
-709593.925231
-731938.909015
-754251.892798
-776388.876581
-798477.860365
-652528.843460
-674537.827243
-697106.811027
-719019.794810
-741332.778593
-763613.762377
-785734.746160
-808175.729943
-830728.713727
-684427.696822
-706628.680606
-728621.664389
-751014.648172
-773295.631956
-795880.615739
-818033.599522
-840074.583306
-862531.567089
-716214.550184
-738415.533968
-760856.517751
-783105.501534
-805498.485318
-827699.469101
-849964.452884
-872469.436668
-894782.420451
-748385.403547
-770778.387330
-793123.371113
-815468.354897
-837781.338680
-860334.322463
-882263.306247
-904880.290030
-927177.273813
-780588.256909
-803141.240692
-825342.224475
-848007.208259
-870400.192042
-892617.175825
-914930.159609
-937595.143392
-959988.127175
-813207.110271
-835760.094054
-858121.077838
-880434.061621
-902939.045404
-925396.029188
-947885.012971
-970421.996754
-992878.980538
-846049.963633
-868378.947416
-890707.931200
-913084.914983
-935557.898766
-958302.882550
-980455.866333
-1003024.850116
-1025609.833900
-878748.816995
-901285.800779
-923646.784562
-946311.768345
-968656.752129
-991177.735912
-1013762.719695
-1036171.703479
-1058548.687262
-912007.670357
-934176.654141
-956793.637924
-979330.621707
-1001611.605491
-1024580.589274
-1046893.573057
-1069334.556841
-1091743.540624
-944914.523719
-967499.507503
-989668.491286
-1012333.475070
-1035030.458853
-1057663.442636
-1080312.426420
-1102337.410203
-1125178.393986
-978061.377082
-1000806.360865
-1023295.344648
-1045896.328432
-1068273.312215
-1090938.295998
-1113363.279782
-1135996.263565
-1158469.247348
-1011496.230444
-1034129.214227
-1056730.198010
-1079059.181794
-1101324.165577
-1124085.149360
-1146798.133144
-1169271.116927
-1192080.100710
-1045187.083806
-1067580.067589
-1089877.051373
-1112478.035156
-1135271.018939
-1157808.002723
-1180360.986506
-1202609.970289
-1225514.954073
-1078317.937168
-1100854.920951
-1123423.904735
-1146136.888518
-1168561.872301
-1191146.856085
-1213971.839868
-1236284.823651
-1258933.807435
-1111784.790530
-1134689.774314
-1156954.758097
-1179459.741880
-1202524.725664
-1224693.709447
-1247214.693230
-1269895.677014
-1292576.660797
-1145427.643892
-1168124.627676
-1190565.611459
-1213214.595242
-1235303.579026
-1258416.562809
-1280745.546592
-1303314.530376
-1325979.514159
-1178878.497255
-1201383.481038
-1224096.464821
-1246697.448605
-1269330.432388
-1291915.416171
-1314420.399955
-1336909.383738
-1359494.367521
-1212937.350617
-1235266.334400
-1257931.318183
-1280404.301967
-1303069.285750
-1325526.269533
-1347951.253317
-1370680.237100
-1393217.220883
-1246228.203979
-1268781.187762
-1291462.171546
-1314079.155329
-1336712.139112
-1359025.122896
-1381402.106679
-1404595.090462
-1426988.074246
-1279807.057341
-1302568.041124
-1324913.024908
-1347514.008691
-1370018.992474
-1392555.976258
-1415188.960041
-1437853.943824
-1460198.927608
-1313721.910703
-1336226.894487
-1358555.878270
-1381140.862053
-1403677.845837
-1426198.829620
-1448703.813403
-1471256.797187
-1494001.780970
-1347076.764065
-1369789.747849
-1391990.731632
-1414671.715415
-1437320.699199
-1459969.682982
-1482202.666765
-1504947.650549
-1527276.634332
-1380591.617428
-1403192.601211
-1425665.584994
-1448010.568778
-1470563.552561
-1492988.536344
-1515701.520128
-1538206.503911
-1560903.487694
-1413930.470790
-1436515.454573
-1459116.438356
-1481765.422140
-1504110.405923
-1526727.389706
-1549008.373490
-1571545.357273
-1594114.341056
-1447477.324152
-1470126.307935
-1492471.291719
-1514704.275502
-1537593.259285
-1559874.243069
-1582283.226852
-1604772.210635
-1627245.194419
-1480880.177514
-1503417.161297
-1525890.145081
-1548091.128864
-1570708.112647
-1592845.096431
-1615606.080214
-1638031.063997
-1660280.047781
-1514091.030876
-1536660.014660
-1559004.998443
-1581525.982226
-1603854.966010
-1626151.949793
-1648784.933576
-1671065.917360
-1693490.901143
-1547397.884238
-1569582.868022
-1592231.851805
-1614496.835588
-1636729.819372
-1659442.803155
-1681563.786938
-1704068.770722
-1726589.754505
-1580672.737601
-1602777.721384
-1625138.705167
-1647611.688951
-1669748.672734
-1692125.656517
-1714678.640301
-1736847.624084
-1759432.607867
-1613275.590963
-1635876.574746
-1658429.558529
-1680262.542313
-1702719.526096
-1725304.509879
-1747409.493663
-1769754.477446
-1792051.461229
-1646246.444325
-1668735.428108
-1690888.411891
-1713153.395675
-1735546.379458
-1758019.363242
-1780060.347025
-1802277.330808
-1824558.314592
-1678993.297687
-1701274.281470
-1723475.265254
-1745772.249037
-1767749.232820
-1790590.216604
-1812519.200387
-1834832.184170
-1856905.167954
-1711676.151049
-1733893.134832
-1756094.118616
-1778215.102399
-1800512.086182
-1822409.069966
-1844802.053749
-1867211.037532
-1889332.021316
-1744119.004411
-1766191.988195
-1788504.971978
-1810657.955761
-1833034.939545
-1855043.923328
-1877100.907111
-1899189.890895
-1921246.874678
-1776241.857773
-1798698.841557
-1820787.825340
-1842716.809123
-1864949.792907
-1887358.776690
-1909287.760473
-1931344.744257
-1953369.728040
SCALARS stress_3 float
LOOKUP_TABLE default
56441.797395
3725766.034015
3673187.081057
3620384.128099
3567053.175142
3513746.222184
3460023.269226
3406012.316268
3351833.363311
3297438.410353
3242795.457395
3187984.504437
3132829.551480
3077826.598522
3022327.645564
2966788.692606
2911073.739649
2855422.786691
2799723.833733
2743672.880775
2687709.927818
2631730.974860
2575752.021902
2519645.068944
2463642.115987
2407575.163029
2351700.210071
2295889.257113
2240006.304156
2184491.351198
2128832.398240
2073573.445282
2018674.492325
1963647.539367
1908980.586409
1854657.633451
1800462.680494
1746843.727536
1693424.774578
1640221.821620
1587554.868663
1535407.915705
1483484.962747
1432306.009789
1381519.056832
1331124.103874
1281409.150916
1232158.197959
1183491.245001
1135544.292043
1088325.339085
1041650.386128
995711.433170
950380.480212
906017.527254
862366.574297
819515.621339
777296.668381
736101.715423
695714.762466
656399.809508
617836.856550
580105.903592
543262.950635
507627.997677
472737.044719
438966.091761
406083.138804
374424.185846
343453.232888
313826.279930
285087.326973
257580.374015
230817.421057
205198.468099
180739.515142
157368.562184
135085.609226
113866.656268
93695.703311
74548.750353
3632765.761172
-30214.475448
-12947.522491
5503.430467
25066.383425
45653.336383
67320.289340
90131.242298
113918.195256
138841.148214
164900.101171
192031.054129
220074.007087
249388.960045
279639.913002
310914.865960
343165.818918
376560.771876
410947.724833
446478.677791
482705.630749
520100.583707
558111.536664
597234.489622
637413.442580
678416.395538
720299.348495
762830.301453
806329.254411
850636.207369
895607.160326
941338.113284
987789.066242
1035072.019200
1082786.972157
1131293.925115
1180360.878073
1230147.831031
1280382.783988
1331177.736946
1382428.689904
1434311.642862
1486642.595819
1539221.548777
1592192.501735
1645811.454693
1699622.407650
1753817.360608
1808204.313566
1862975.266524
1917930.219481
1973077.172439
2028840.125397
2084251.078355
2140046.031312
2195968.984270
2251859.937228
2308070.890186
2364321.843143
2420492.796101
2476815.749059
2532898.702017
2589261.654974
2645352.607932
2701603.560890
2757710.513848
2813649.466805
2869436.419763
2925287.372721
2981058.325679
3036413.278636
3091728.231594
3146995.184552
3201758.137510
3256609.090467
3310988.043425
3365358.996383
3419257.949341
3473196.902298
3526647.855256
3579858.808214
3642040.988456
3651476.215740
3660823.443025
3669946.670309
3679205.897593
3688681.124878
3697892.352162
3707191.579446
3716610.806731
47558.570111
38635.342826
29992.115542
21012.888258
12553.660973
3942.433689
-4708.793595
-13224.020880
-21811.248164
-4344.295206
4250.932078
12886.159362
21497.386647
30244.613931
39039.841215
47819.068500
56822.295784
65441.523068
14130.657751
22709.885036
31521.112320
40372.339604
49031.566889
57898.794173
66846.021458
75849.248742
84644.476026
33781.610709
42496.837994
51076.065278
60039.292562
68754.519847
77757.747131
86720.974415
95860.201700
104679.428984
54504.563667
63139.790951
72031.018236
80690.245520
89941.472804
98744.700089
107827.927373
116919.154657
125890.381942
76027.516625
84990.743909
93809.971193
102789.198478
111896.425762
120883.653046
129934.880331
139066.107615
148261.334899
98902.469582
107825.696867
116844.924151
125936.151435
134843.378720
144062.606004
153121.833288
162277.060573
171568.287857
122833.422540
131788.649825
140903.877109
149691.104393
159078.331678
168249.558962
177412.786246
186664.013531
195891.240815
147796.375498
156855.602782
166010.830067
175142.057351
184225.284635
193644.511920
202679.739204
212074.966488
221334.193773
173871.328456
183074.555740
192181.783024
201433.010309
210572.237593
219903.464877
229210.692162
238501.919446
248009.146730
201098.281413
210197.508698
219368.735982
228595.963266
237975.190551
247418.417835
256589.645119
266208.872404
275684.099688
229229.234371
238488.461656
247747.688940
257086.916224
266402.143509
275861.370793
285160.598077
294539.825362
304239.052646
258464.187329
267763.414613
277238.641898
286497.869182
295925.096466
305368.323751
314715.551035
324294.778319
333890.005604
288947.140287
298230.367571
307649.594855
316980.822140
326224.049424
335899.276708
345326.503993
355001.731277
364508.958561
320390.093244
329649.320529
338892.547813
348391.775097
357883.002382
367414.229666
377113.456950
386796.684235
396359.911519
352561.046202
362068.273487
371511.500771
380930.728055
390557.955340
400153.182624
409940.409908
419439.637193
429082.864477
386011.999160
395399.226444
404946.453729
414421.681013
424112.908297
433708.135582
443495.362866
453026.590150
462885.817435
420374.952118
430090.179402
439549.406686
449208.633971
458715.861255
468375.088539
478090.315824
487829.543108
497704.770392
455881.905075
465341.132360
474952.359644
484523.586928
494294.814213
503978.041497
513757.268781
523608.496066
533459.723350
492268.858033
501928.085318
511467.312602
521190.539886
530857.767171
540516.994455
550384.221739
560243.449024
570182.676308
529591.810991
539267.038275
548758.265560
558625.492844
568340.720128
578119.947413
587867.174697
597686.401981
607769.629266
567842.763949
577469.991233
587089.218517
596932.445802
606727.673086
616618.900370
626342.127655
636401.354939
646428.582223
607125.716906
616720.944191
626516.171475
636359.398759
646186.626044
655893.853328
665969.080612
675788.307897
685759.535181
647296.669864
656843.897149
666695.124433
676418.351717
686325.579002
696112.806286
706188.033570
716103.260855
726178.488139
688251.622822
698030.850106
707738.077391
717501.304675
727376.531959
737219.759244
747278.986528
757290.213812
767349.441097
729934.575780
739633.803064
749549.030348
759384.257633
769211.484917
779222.712201
789313.939486
799317.166770
809288.394054
772705.528737
782420.756022
792335.983306
802163.210590
812086.437875
822129.665159
832084.892443
842192.119728
852123.347012
816340.481695
825951.708980
835930.936264
845750.163548
855729.390833
865676.618117
875719.845401
885723.072686
895926.299970
860495.434653
870242.661937
880189.889222
890025.116506
900164.343790
909999.571075
920106.798359
930310.025643
940265.252928
905482.387611
915349.614895
925232.842179
935140.069464
945151.296748
955042.524032
965229.751317
975376.978601
985452.205885
951261.340568
960968.567853
971139.795137
981103.022421
991002.249706
1001069.476990
1011288.704274
1021243.931559
1031415.158843
997784.293526
1007595.520811
1017486.748095
1027577.975379
1037637.202664
1047744.429948
1057739.657232
1067934.884517
1078066.111801
1044979.246484
1054782.473768
1064737.701053
1074796.928337
1084936.155621
1094875.382906
1105030.610190
1115257.837474
1125373.064759
1092838.199442
1102697.426726
1112636.654010
1122615.881295
1132867.108579
1142934.335863
1153033.563148
1163244.790432
1173240.017716
1141225.152399
1151228.379684
1161255.606968
1171202.834252
1181198.061537
1191425.288821
1201508.516105
1211679.743390
1221954.970674
1190300.105357
1200351.332642
1210442.559926
1220429.787210
1230497.014495
1240644.241779
1250767.469063
1260794.696348
1271013.923632
1240135.058315
1250050.285599
1260109.512884
1270216.740168
1280131.967452
1290303.194737
1300466.422021
1310837.649305
1320776.876590
1290266.011273
1300341.238557
1310400.465841
1320443.693126
1330526.920410
1340602.147694
1350765.374979
1361000.602263
1371067.829547
1341180.964230
1351088.191515
1361267.418799
1371254.646083
1381345.873368
1391437.100652
1401736.327936
1411827.555221
1422006.782505
1392551.917188
1402435.144472
1412566.371757
1422561.599041
1432628.826326
1442760.053610
1452955.280894
1463174.508179
1473329.735463
1444250.870146
1454422.097430
1464297.324715
1474428.551999
1484503.779283
1494611.006568
1504694.233852
1514929.461136
1525244.688421
1496549.823104
1506593.050388
1516500.277672
1526671.504957
1536778.732241
1547029.959525
1556985.186810
1567220.414094
1577343.641378
1549296.776061
1559220.003346
1569255.230630
1579314.457914
1589533.685199
1599560.912483
1609756.139767
1619879.367052
1630114.594336
1602355.729019
1612390.956303
1622394.183588
1632509.410872
1642600.638157
1652683.865441
1662711.092725
1672962.320010
1683125.547294
1655726.681977
1665857.909261
1675837.136546
1685920.363830
1696019.591114
1706078.818399
1716178.045683
1726389.272967
1736616.500252
1709657.634935
1719684.862219
1729816.089503
1739635.316788
1749726.544072
1760017.771356
1769980.998641
1780208.225925
1790363.453209
1763764.587892
1773767.815177
1783947.042461
1793894.269745
1804025.497030
1814084.724314
1824239.951598
1834323.178883
1844550.406167
1818271.540850
1828290.768134
1838037.995419
1848329.222703
1858372.449988
1868383.677272
1878634.904556
1888758.131841
1898897.359125
1872922.493808
1883021.721092
1893008.948377
1903068.175661
1913135.402945
1923090.630230
1933133.857514
1943353.084798
1953524.312083
1927989.446766
1937944.674050
1947867.901334
1957991.128619
1968034.355903
1978189.583187
1988432.810472
1998260.037756
2008439.265040
1983184.399723
1993099.627008
2003214.854292
2013266.081576
2023269.308861
2033232.536145
2043435.763429
2053542.990714
2063578.217998
2038747.352681
2048534.579965
2058553.807250
2068741.034534
2078592.261819
2088643.489103
2098646.716387
2108817.943672
2118973.170956
2094230.305639
2104161.532923
2114220.760208
2124103.987492
2134187.214776
2144334.442061
2154289.669345
2164348.896629
2174288.123914
2149913.258597
2159948.485881
2169863.713165
2179874.940450
2189886.167734
2200041.395018
2209980.622303
2219887.849587
2229987.076871
2205916.211554
2215671.438839
2225826.666123
2235733.893407
2245737.120692
2255724.347976
2265639.575260
2275658.802545
2285694.029829
2261799.164512
2271738.391796
2281621.619081
2291552.846365
2301676.073650
2311735.300934
2321738.528218
2331589.755503
2341656.982787
2317874.117470
2327885.344754
2337688.572039
2347643.799323
2357695.026607
2367642.253892
2377573.481176
2387552.708460
2397571.935745
2374093.070428
2383952.297712
2394099.524996
2403878.752281
2413809.979565
2423773.206849
2433648.434134
2443691.661418
2453630.888702
2430320.023385
2440243.250670
2450158.477954
2459985.705238
2469972.932523
2479848.159807
2489731.387091
2499702.614376
2509833.841660
2486690.976343
2496438.203627
2506281.430912
2516068.658196
2526279.885481
2536051.112765
2545886.340049
2555617.567334
2565708.794618
2542893.929301
2552657.156585
2562460.383870
2572295.611154
2582130.838438
2592070.065723
2601841.293007
2611964.520291
2621911.747576
2599008.882259
2608868.109543
2618631.336827
2628562.564112
2638365.791396
2648345.018680
2658172.245965
2667943.473249
2677842.700533
2655187.835216
2664999.062501
2674914.289785
2684741.517069
2694352.744354
2704251.971638
2714175.198922
2724106.426207
2733957.653491
2711366.788174
2721018.015458
2730973.242743
2740696.470027
2750467.697312
2760222.924596
2770146.151880
2779805.379165
2789864.606449
2767409.741132
2777292.968416
2786936.195701
2796643.422985
2806526.650269
2816369.877554
2826237.104838
2835992.332122
2845707.559407
2823420.694090
2833159.921374
2842931.148658
2852638.375943
2862401.603227
2872220.830511
2882032.057796
2891811.285080
2901334.512364
2879359.647047
2888938.874332
2898742.101616
2908465.328900
2917964.556185
2927895.783469
2937467.010753
2947406.238038
2957113.465322
2934946.600005
2944757.827289
2954361.054574
2964036.281858
2973839.509143
2983458.736427
2993229.963711
3003001.190996
3012676.418280
2990621.552963
3000296.780247
3009876.007532
3019799.234816
3029274.462100
3038965.689385
3048760.916669
3058404.143953
3068023.371238
3046192.505921
3055771.733205
3065382.960489
3075002.187774
3084685.415058
3094240.642342
3103947.869627
3113591.096911
3123354.324195
3101387.458878
3111038.686163
3120657.913447
3130189.140731
3139880.368016
3149451.595300
3159078.822584
3168634.049869
3178237.277153
3156534.411836
3166097.639120
3175708.866405
3185352.093689
3194899.320973
3204478.548258
3213953.775542
3223661.002827
3233032.230111
3211265.364794
3221004.592078
3230439.819363
3240019.046647
3249590.273931
3259145.501216
3268724.728500
3278295.955784
3287843.183069
3265964.317752
3275623.545036
3285122.772320
3294749.999605
3304217.226889
3313812.454173
3323135.681458
3332794.908742
3342342.136026
3320487.270709
3330082.497994
3339605.725278
3349072.952562
3358764.179847
3368151.407131
3377602.634415
3387197.861700
3396561.088984
3374850.223667
3384301.450951
3393832.678236
3403291.905520
3412615.132804
3422202.360089
3431669.587373
3441104.814658
3450684.041942
3428701.176625
3438232.403909
3447563.631194
3457166.858478
3466610.085762
3476013.313047
3485472.540331
3494891.767615
3504318.994900
3482512.129583
3492035.356867
3501318.584151
3510889.811436
3520149.038720
3529584.266004
3539051.493289
3548414.720573
3557737.947857
3536091.082540
3545310.309825
3554761.537109
3564124.764393
3573455.991678
3583003.218962
3592286.446246
3601569.673531
3610868.900815
3589158.035498
3598577.262782
3607916.490067
3617271.717351
3626570.944635
3635854.171920
3645329.399204
3654468.626489
3663839.853773
