# vtk DataFile Version 2.0
Generated volume Mesh
ASCII
DATASET UNSTRUCTURED_GRID
POINTS 891 float
0.005000 0.100000 0.000000
0.005000 0.000000 0.000000
0.005000 0.001250 0.000000
0.005000 0.002500 0.000000
0.005000 0.003750 0.000000
0.005000 0.005000 0.000000
0.005000 0.006250 0.000000
0.005000 0.007500 0.000000
0.005000 0.008750 0.000000
0.005000 0.010000 0.000000
0.005000 0.011250 0.000000
0.005000 0.012500 0.000000
0.005000 0.013750 0.000000
0.005000 0.015000 0.000000
0.005000 0.016250 0.000000
0.005000 0.017500 0.000000
0.005000 0.018750 0.000000
0.005000 0.020000 0.000000
0.005000 0.021250 0.000000
0.005000 0.022500 0.000000
0.005000 0.023750 0.000000
0.005000 0.025000 0.000000
0.005000 0.026250 0.000000
0.005000 0.027500 0.000000
0.005000 0.028750 0.000000
0.005000 0.030000 0.000000
0.005000 0.031250 0.000000
0.005000 0.032500 0.000000
0.005000 0.033750 0.000000
0.005000 0.035000 0.000000
0.005000 0.036250 0.000000
0.005000 0.037500 0.000000
0.005000 0.038750 0.000000
0.005000 0.040000 0.000000
0.005000 0.041250 0.000000
0.005000 0.042500 0.000000
0.005000 0.043750 0.000000
0.005000 0.045000 0.000000
0.005000 0.046250 0.000000
0.005000 0.047500 0.000000
0.005000 0.048750 0.000000
0.005000 0.050000 0.000000
0.005000 0.051250 0.000000
0.005000 0.052500 0.000000
0.005000 0.053750 0.000000
0.005000 0.055000 0.000000
0.005000 0.056250 0.000000
0.005000 0.057500 0.000000
0.005000 0.058750 0.000000
0.005000 0.060000 0.000000
0.005000 0.061250 0.000000
0.005000 0.062500 0.000000
0.005000 0.063750 0.000000
0.005000 0.065000 0.000000
0.005000 0.066250 0.000000
0.005000 0.067500 0.000000
0.005000 0.068750 0.000000
0.005000 0.070000 0.000000
0.005000 0.071250 0.000000
0.005000 0.072500 0.000000
0.005000 0.073750 0.000000
0.005000 0.075000 0.000000
0.005000 0.076250 0.000000
0.005000 0.077500 0.000000
0.005000 0.078750 0.000000
0.005000 0.080000 0.000000
0.005000 0.081250 0.000000
0.005000 0.082500 0.000000
0.005000 0.083750 0.000000
0.005000 0.085000 0.000000
0.005000 0.086250 0.000000
0.005000 0.087500 0.000000
0.005000 0.088750 0.000000
0.005000 0.090000 0.000000
0.005000 0.091250 0.000000
0.005000 0.092500 0.000000
0.005000 0.093750 0.000000
0.005000 0.095000 0.000000
0.005000 0.096250 0.000000
0.005000 0.097500 0.000000
0.005000 0.098750 0.000000
0.000000 0.000000 0.000000
0.000000 0.100000 0.000000
0.000000 0.098750 0.000000
0.000000 0.097500 0.000000
0.000000 0.096250 0.000000
0.000000 0.095000 0.000000
0.000000 0.093750 0.000000
0.000000 0.092500 0.000000
0.000000 0.091250 0.000000
0.000000 0.090000 0.000000
0.000000 0.088750 0.000000
0.000000 0.087500 0.000000
0.000000 0.086250 0.000000
0.000000 0.085000 0.000000
0.000000 0.083750 0.000000
0.000000 0.082500 0.000000
0.000000 0.081250 0.000000
0.000000 0.080000 0.000000
0.000000 0.078750 0.000000
0.000000 0.077500 0.000000
0.000000 0.076250 0.000000
0.000000 0.075000 0.000000
0.000000 0.073750 0.000000
0.000000 0.072500 0.000000
0.000000 0.071250 0.000000
0.000000 0.070000 0.000000
0.000000 0.068750 0.000000
0.000000 0.067500 0.000000
0.000000 0.066250 0.000000
0.000000 0.065000 0.000000
0.000000 0.063750 0.000000
0.000000 0.062500 0.000000
0.000000 0.061250 0.000000
0.000000 0.060000 0.000000
0.000000 0.058750 0.000000
0.000000 0.057500 0.000000
0.000000 0.056250 0.000000
0.000000 0.055000 0.000000
0.000000 0.053750 0.000000
0.000000 0.052500 0.000000
0.000000 0.051250 0.000000
0.000000 0.050000 0.000000
0.000000 0.048750 0.000000
0.000000 0.047500 0.000000
0.000000 0.046250 0.000000
0.000000 0.045000 0.000000
0.000000 0.043750 0.000000
0.000000 0.042500 0.000000
0.000000 0.041250 0.000000
0.000000 0.040000 0.000000
0.000000 0.038750 0.000000
0.000000 0.037500 0.000000
0.000000 0.036250 0.000000
0.000000 0.035000 0.000000
0.000000 0.033750 0.000000
0.000000 0.032500 0.000000
0.000000 0.031250 0.000000
0.000000 0.030000 0.000000
0.000000 0.028750 0.000000
0.000000 0.027500 0.000000
0.000000 0.026250 0.000000
0.000000 0.025000 0.000000
0.000000 0.023750 0.000000
0.000000 0.022500 0.000000
0.000000 0.021250 0.000000
0.000000 0.020000 0.000000
0.000000 0.018750 0.000000
0.000000 0.017500 0.000000
0.000000 0.016250 0.000000
0.000000 0.015000 0.000000
0.000000 0.013750 0.000000
0.000000 0.012500 0.000000
0.000000 0.011250 0.000000
0.000000 0.010000 0.000000
0.000000 0.008750 0.000000
0.000000 0.007500 0.000000
0.000000 0.006250 0.000000
0.000000 0.005000 0.000000
0.000000 0.003750 0.000000
0.000000 0.002500 0.000000
0.000000 0.001250 0.000000
0.000500 0.000000 0.000000
0.001000 0.000000 0.000000
0.001500 0.000000 0.000000
0.002000 0.000000 0.000000
0.002500 0.000000 0.000000
0.003000 0.000000 0.000000
0.003500 0.000000 0.000000
0.004000 0.000000 0.000000
0.004500 0.000000 0.000000
0.004500 0.100000 0.000000
0.004000 0.100000 0.000000
0.003500 0.100000 0.000000
0.003000 0.100000 0.000000
0.002500 0.100000 0.000000
0.002000 0.100000 0.000000
0.001500 0.100000 0.000000
0.001000 0.100000 0.000000
0.000500 0.100000 0.000000
0.000500 0.098750 0.000000
0.001000 0.098750 0.000000
0.001500 0.098750 0.000000
0.002000 0.098750 0.000000
0.002500 0.098750 0.000000
0.003000 0.098750 0.000000
0.003500 0.098750 0.000000
0.004000 0.098750 0.000000
0.004500 0.098750 0.000000
0.000500 0.097500 0.000000
0.001000 0.097500 0.000000
0.001500 0.097500 0.000000
0.002000 0.097500 0.000000
0.002500 0.097500 0.000000
0.003000 0.097500 0.000000
0.003500 0.097500 0.000000
0.004000 0.097500 0.000000
0.004500 0.097500 0.000000
0.000500 0.096250 0.000000
0.001000 0.096250 0.000000
0.001500 0.096250 0.000000
0.002000 0.096250 0.000000
0.002500 0.096250 0.000000
0.003000 0.096250 0.000000
0.003500 0.096250 0.000000
0.004000 0.096250 0.000000
0.004500 0.096250 0.000000
0.000500 0.095000 0.000000
0.001000 0.095000 0.000000
0.001500 0.095000 0.000000
0.002000 0.095000 0.000000
0.002500 0.095000 0.000000
0.003000 0.095000 0.000000
0.003500 0.095000 0.000000
0.004000 0.095000 0.000000
0.004500 0.095000 0.000000
0.000500 0.093750 0.000000
0.001000 0.093750 0.000000
0.001500 0.093750 0.000000
0.002000 0.093750 0.000000
0.002500 0.093750 0.000000
0.003000 0.093750 0.000000
0.003500 0.093750 0.000000
0.004000 0.093750 0.000000
0.004500 0.093750 0.000000
0.000500 0.092500 0.000000
0.001000 0.092500 0.000000
0.001500 0.092500 0.000000
0.002000 0.092500 0.000000
0.002500 0.092500 0.000000
0.003000 0.092500 0.000000
0.003500 0.092500 0.000000
0.004000 0.092500 0.000000
0.004500 0.092500 0.000000
0.000500 0.091250 0.000000
0.001000 0.091250 0.000000
0.001500 0.091250 0.000000
0.002000 0.091250 0.000000
0.002500 0.091250 0.000000
0.003000 0.091250 0.000000
0.003500 0.091250 0.000000
0.004000 0.091250 0.000000
0.004500 0.091250 0.000000
0.000500 0.090000 0.000000
0.001000 0.090000 0.000000
0.001500 0.090000 0.000000
0.002000 0.090000 0.000000
0.002500 0.090000 0.000000
0.003000 0.090000 0.000000
0.003500 0.090000 0.000000
0.004000 0.090000 0.000000
0.004500 0.090000 0.000000
0.000500 0.088750 0.000000
0.001000 0.088750 0.000000
0.001500 0.088750 0.000000
0.002000 0.088750 0.000000
0.002500 0.088750 0.000000
0.003000 0.088750 0.000000
0.003500 0.088750 0.000000
0.004000 0.088750 0.000000
0.004500 0.088750 0.000000
0.000500 0.087500 0.000000
0.001000 0.087500 0.000000
0.001500 0.087500 0.000000
0.002000 0.087500 0.000000
0.002500 0.087500 0.000000
0.003000 0.087500 0.000000
0.003500 0.087500 0.000000
0.004000 0.087500 0.000000
0.004500 0.087500 0.000000
0.000500 0.086250 0.000000
0.001000 0.086250 0.000000
0.001500 0.086250 0.000000
0.002000 0.086250 0.000000
0.002500 0.086250 0.000000
0.003000 0.086250 0.000000
0.003500 0.086250 0.000000
0.004000 0.086250 0.000000
0.004500 0.086250 0.000000
0.000500 0.085000 0.000000
0.001000 0.085000 0.000000
0.001500 0.085000 0.000000
0.002000 0.085000 0.000000
0.002500 0.085000 0.000000
0.003000 0.085000 0.000000
0.003500 0.085000 0.000000
0.004000 0.085000 0.000000
0.004500 0.085000 0.000000
0.000500 0.083750 0.000000
0.001000 0.083750 0.000000
0.001500 0.083750 0.000000
0.002000 0.083750 0.000000
0.002500 0.083750 0.000000
0.003000 0.083750 0.000000
0.003500 0.083750 0.000000
0.004000 0.083750 0.000000
0.004500 0.083750 0.000000
0.000500 0.082500 0.000000
0.001000 0.082500 0.000000
0.001500 0.082500 0.000000
0.002000 0.082500 0.000000
0.002500 0.082500 0.000000
0.003000 0.082500 0.000000
0.003500 0.082500 0.000000
0.004000 0.082500 0.000000
0.004500 0.082500 0.000000
0.000500 0.081250 0.000000
0.001000 0.081250 0.000000
0.001500 0.081250 0.000000
0.002000 0.081250 0.000000
0.002500 0.081250 0.000000
0.003000 0.081250 0.000000
0.003500 0.081250 0.000000
0.004000 0.081250 0.000000
0.004500 0.081250 0.000000
0.000500 0.080000 0.000000
0.001000 0.080000 0.000000
0.001500 0.080000 0.000000
0.002000 0.080000 0.000000
0.002500 0.080000 0.000000
0.003000 0.080000 0.000000
0.003500 0.080000 0.000000
0.004000 0.080000 0.000000
0.004500 0.080000 0.000000
0.000500 0.078750 0.000000
0.001000 0.078750 0.000000
0.001500 0.078750 0.000000
0.002000 0.078750 0.000000
0.002500 0.078750 0.000000
0.003000 0.078750 0.000000
0.003500 0.078750 0.000000
0.004000 0.078750 0.000000
0.004500 0.078750 0.000000
0.000500 0.077500 0.000000
0.001000 0.077500 0.000000
0.001500 0.077500 0.000000
0.002000 0.077500 0.000000
0.002500 0.077500 0.000000
0.003000 0.077500 0.000000
0.003500 0.077500 0.000000
0.004000 0.077500 0.000000
0.004500 0.077500 0.000000
0.000500 0.076250 0.000000
0.001000 0.076250 0.000000
0.001500 0.076250 0.000000
0.002000 0.076250 0.000000
0.002500 0.076250 0.000000
0.003000 0.076250 0.000000
0.003500 0.076250 0.000000
0.004000 0.076250 0.000000
0.004500 0.076250 0.000000
0.000500 0.075000 0.000000
0.001000 0.075000 0.000000
0.001500 0.075000 0.000000
0.002000 0.075000 0.000000
0.002500 0.075000 0.000000
0.003000 0.075000 0.000000
0.003500 0.075000 0.000000
0.004000 0.075000 0.000000
0.004500 0.075000 0.000000
0.000500 0.073750 0.000000
0.001000 0.073750 0.000000
0.001500 0.073750 0.000000
0.002000 0.073750 0.000000
0.002500 0.073750 0.000000
0.003000 0.073750 0.000000
0.003500 0.073750 0.000000
0.004000 0.073750 0.000000
0.004500 0.073750 0.000000
0.000500 0.072500 0.000000
0.001000 0.072500 0.000000
0.001500 0.072500 0.000000
0.002000 0.072500 0.000000
0.002500 0.072500 0.000000
0.003000 0.072500 0.000000
0.003500 0.072500 0.000000
0.004000 0.072500 0.000000
0.004500 0.072500 0.000000
0.000500 0.071250 0.000000
0.001000 0.071250 0.000000
0.001500 0.071250 0.000000
0.002000 0.071250 0.000000
0.002500 0.071250 0.000000
0.003000 0.071250 0.000000
0.003500 0.071250 0.000000
0.004000 0.071250 0.000000
0.004500 0.071250 0.000000
0.000500 0.070000 0.000000
0.001000 0.070000 0.000000
0.001500 0.070000 0.000000
0.002000 0.070000 0.000000
0.002500 0.070000 0.000000
0.003000 0.070000 0.000000
0.003500 0.070000 0.000000
0.004000 0.070000 0.000000
0.004500 0.070000 0.000000
0.000500 0.068750 0.000000
0.001000 0.068750 0.000000
0.001500 0.068750 0.000000
0.002000 0.068750 0.000000
0.002500 0.068750 0.000000
0.003000 0.068750 0.000000
0.003500 0.068750 0.000000
0.004000 0.068750 0.000000
0.004500 0.068750 0.000000
0.000500 0.067500 0.000000
0.001000 0.067500 0.000000
0.001500 0.067500 0.000000
0.002000 0.067500 0.000000
0.002500 0.067500 0.000000
0.003000 0.067500 0.000000
0.003500 0.067500 0.000000
0.004000 0.067500 0.000000
0.004500 0.067500 0.000000
0.000500 0.066250 0.000000
0.001000 0.066250 0.000000
0.001500 0.066250 0.000000
0.002000 0.066250 0.000000
0.002500 0.066250 0.000000
0.003000 0.066250 0.000000
0.003500 0.066250 0.000000
0.004000 0.066250 0.000000
0.004500 0.066250 0.000000
0.000500 0.065000 0.000000
0.001000 0.065000 0.000000
0.001500 0.065000 0.000000
0.002000 0.065000 0.000000
0.002500 0.065000 0.000000
0.003000 0.065000 0.000000
0.003500 0.065000 0.000000
0.004000 0.065000 0.000000
0.004500 0.065000 0.000000
0.000500 0.063750 0.000000
0.001000 0.063750 0.000000
0.001500 0.063750 0.000000
0.002000 0.063750 0.000000
0.002500 0.063750 0.000000
0.003000 0.063750 0.000000
0.003500 0.063750 0.000000
0.004000 0.063750 0.000000
0.004500 0.063750 0.000000
0.000500 0.062500 0.000000
0.001000 0.062500 0.000000
0.001500 0.062500 0.000000
0.002000 0.062500 0.000000
0.002500 0.062500 0.000000
0.003000 0.062500 0.000000
0.003500 0.062500 0.000000
0.004000 0.062500 0.000000
0.004500 0.062500 0.000000
0.000500 0.061250 0.000000
0.001000 0.061250 0.000000
0.001500 0.061250 0.000000
0.002000 0.061250 0.000000
0.002500 0.061250 0.000000
0.003000 0.061250 0.000000
0.003500 0.061250 0.000000
0.004000 0.061250 0.000000
0.004500 0.061250 0.000000
0.000500 0.060000 0.000000
0.001000 0.060000 0.000000
0.001500 0.060000 0.000000
0.002000 0.060000 0.000000
0.002500 0.060000 0.000000
0.003000 0.060000 0.000000
0.003500 0.060000 0.000000
0.004000 0.060000 0.000000
0.004500 0.060000 0.000000
0.000500 0.058750 0.000000
0.001000 0.058750 0.000000
0.001500 0.058750 0.000000
0.002000 0.058750 0.000000
0.002500 0.058750 0.000000
0.003000 0.058750 0.000000
0.003500 0.058750 0.000000
0.004000 0.058750 0.000000
0.004500 0.058750 0.000000
0.000500 0.057500 0.000000
0.001000 0.057500 0.000000
0.001500 0.057500 0.000000
0.002000 0.057500 0.000000
0.002500 0.057500 0.000000
0.003000 0.057500 0.000000
0.003500 0.057500 0.000000
0.004000 0.057500 0.000000
0.004500 0.057500 0.000000
0.000500 0.056250 0.000000
0.001000 0.056250 0.000000
0.001500 0.056250 0.000000
0.002000 0.056250 0.000000
0.002500 0.056250 0.000000
0.003000 0.056250 0.000000
0.003500 0.056250 0.000000
0.004000 0.056250 0.000000
0.004500 0.056250 0.000000
0.000500 0.055000 0.000000
0.001000 0.055000 0.000000
0.001500 0.055000 0.000000
0.002000 0.055000 0.000000
0.002500 0.055000 0.000000
0.003000 0.055000 0.000000
0.003500 0.055000 0.000000
0.004000 0.055000 0.000000
0.004500 0.055000 0.000000
0.000500 0.053750 0.000000
0.001000 0.053750 0.000000
0.001500 0.053750 0.000000
0.002000 0.053750 0.000000
0.002500 0.053750 0.000000
0.003000 0.053750 0.000000
0.003500 0.053750 0.000000
0.004000 0.053750 0.000000
0.004500 0.053750 0.000000
0.000500 0.052500 0.000000
0.001000 0.052500 0.000000
0.001500 0.052500 0.000000
0.002000 0.052500 0.000000
0.002500 0.052500 0.000000
0.003000 0.052500 0.000000
0.003500 0.052500 0.000000
0.004000 0.052500 0.000000
0.004500 0.052500 0.000000
0.000500 0.051250 0.000000
0.001000 0.051250 0.000000
0.001500 0.051250 0.000000
0.002000 0.051250 0.000000
0.002500 0.051250 0.000000
0.003000 0.051250 0.000000
0.003500 0.051250 0.000000
0.004000 0.051250 0.000000
0.004500 0.051250 0.000000
0.000500 0.050000 0.000000
0.001000 0.050000 0.000000
0.001500 0.050000 0.000000
0.002000 0.050000 0.000000
0.002500 0.050000 0.000000
0.003000 0.050000 0.000000
0.003500 0.050000 0.000000
0.004000 0.050000 0.000000
0.004500 0.050000 0.000000
0.000500 0.048750 0.000000
0.001000 0.048750 0.000000
0.001500 0.048750 0.000000
0.002000 0.048750 0.000000
0.002500 0.048750 0.000000
0.003000 0.048750 0.000000
0.003500 0.048750 0.000000
0.004000 0.048750 0.000000
0.004500 0.048750 0.000000
0.000500 0.047500 0.000000
0.001000 0.047500 0.000000
0.001500 0.047500 0.000000
0.002000 0.047500 0.000000
0.002500 0.047500 0.000000
0.003000 0.047500 0.000000
0.003500 0.047500 0.000000
0.004000 0.047500 0.000000
0.004500 0.047500 0.000000
0.000500 0.046250 0.000000
0.001000 0.046250 0.000000
0.001500 0.046250 0.000000
0.002000 0.046250 0.000000
0.002500 0.046250 0.000000
0.003000 0.046250 0.000000
0.003500 0.046250 0.000000
0.004000 0.046250 0.000000
0.004500 0.046250 0.000000
0.000500 0.045000 0.000000
0.001000 0.045000 0.000000
0.001500 0.045000 0.000000
0.002000 0.045000 0.000000
0.002500 0.045000 0.000000
0.003000 0.045000 0.000000
0.003500 0.045000 0.000000
0.004000 0.045000 0.000000
0.004500 0.045000 0.000000
0.000500 0.043750 0.000000
0.001000 0.043750 0.000000
0.001500 0.043750 0.000000
0.002000 0.043750 0.000000
0.002500 0.043750 0.000000
0.003000 0.043750 0.000000
0.003500 0.043750 0.000000
0.004000 0.043750 0.000000
0.004500 0.043750 0.000000
0.000500 0.042500 0.000000
0.001000 0.042500 0.000000
0.001500 0.042500 0.000000
0.002000 0.042500 0.000000
0.002500 0.042500 0.000000
0.003000 0.042500 0.000000
0.003500 0.042500 0.000000
0.004000 0.042500 0.000000
0.004500 0.042500 0.000000
0.000500 0.041250 0.000000
0.001000 0.041250 0.000000
0.001500 0.041250 0.000000
0.002000 0.041250 0.000000
0.002500 0.041250 0.000000
0.003000 0.041250 0.000000
0.003500 0.041250 0.000000
0.004000 0.041250 0.000000
0.004500 0.041250 0.000000
0.000500 0.040000 0.000000
0.001000 0.040000 0.000000
0.001500 0.040000 0.000000
0.002000 0.040000 0.000000
0.002500 0.040000 0.000000
0.003000 0.040000 0.000000
0.003500 0.040000 0.000000
0.004000 0.040000 0.000000
0.004500 0.040000 0.000000
0.000500 0.038750 0.000000
0.001000 0.038750 0.000000
0.001500 0.038750 0.000000
0.002000 0.038750 0.000000
0.002500 0.038750 0.000000
0.003000 0.038750 0.000000
0.003500 0.038750 0.000000
0.004000 0.038750 0.000000
0.004500 0.038750 0.000000
0.000500 0.037500 0.000000
0.001000 0.037500 0.000000
0.001500 0.037500 0.000000
0.002000 0.037500 0.000000
0.002500 0.037500 0.000000
0.003000 0.037500 0.000000
0.003500 0.037500 0.000000
0.004000 0.037500 0.000000
0.004500 0.037500 0.000000
0.000500 0.036250 0.000000
0.001000 0.036250 0.000000
0.001500 0.036250 0.000000
0.002000 0.036250 0.000000
0.002500 0.036250 0.000000
0.003000 0.036250 0.000000
0.003500 0.036250 0.000000
0.004000 0.036250 0.000000
0.004500 0.036250 0.000000
0.000500 0.035000 0.000000
0.001000 0.035000 0.000000
0.001500 0.035000 0.000000
0.002000 0.035000 0.000000
0.002500 0.035000 0.000000
0.003000 0.035000 0.000000
0.003500 0.035000 0.000000
0.004000 0.035000 0.000000
0.004500 0.035000 0.000000
0.000500 0.033750 0.000000
0.001000 0.033750 0.000000
0.001500 0.033750 0.000000
0.002000 0.033750 0.000000
0.002500 0.033750 0.000000
0.003000 0.033750 0.000000
0.003500 0.033750 0.000000
0.004000 0.033750 0.000000
0.004500 0.033750 0.000000
0.000500 0.032500 0.000000
0.001000 0.032500 0.000000
0.001500 0.032500 0.000000
0.002000 0.032500 0.000000
0.002500 0.032500 0.000000
0.003000 0.032500 0.000000
0.003500 0.032500 0.000000
0.004000 0.032500 0.000000
0.004500 0.032500 0.000000
0.000500 0.031250 0.000000
0.001000 0.031250 0.000000
0.001500 0.031250 0.000000
0.002000 0.031250 0.000000
0.002500 0.031250 0.000000
0.003000 0.031250 0.000000
0.003500 0.031250 0.000000
0.004000 0.031250 0.000000
0.004500 0.031250 0.000000
0.000500 0.030000 0.000000
0.001000 0.030000 0.000000
0.001500 0.030000 0.000000
0.002000 0.030000 0.000000
0.002500 0.030000 0.000000
0.003000 0.030000 0.000000
0.003500 0.030000 0.000000
0.004000 0.030000 0.000000
0.004500 0.030000 0.000000
0.000500 0.028750 0.000000
0.001000 0.028750 0.000000
0.001500 0.028750 0.000000
0.002000 0.028750 0.000000
0.002500 0.028750 0.000000
0.003000 0.028750 0.000000
0.003500 0.028750 0.000000
0.004000 0.028750 0.000000
0.004500 0.028750 0.000000
0.000500 0.027500 0.000000
0.001000 0.027500 0.000000
0.001500 0.027500 0.000000
0.002000 0.027500 0.000000
0.002500 0.027500 0.000000
0.003000 0.027500 0.000000
0.003500 0.027500 0.000000
0.004000 0.027500 0.000000
0.004500 0.027500 0.000000
0.000500 0.026250 0.000000
0.001000 0.026250 0.000000
0.001500 0.026250 0.000000
0.002000 0.026250 0.000000
0.002500 0.026250 0.000000
0.003000 0.026250 0.000000
0.003500 0.026250 0.000000
0.004000 0.026250 0.000000
0.004500 0.026250 0.000000
0.000500 0.025000 0.000000
0.001000 0.025000 0.000000
0.001500 0.025000 0.000000
0.002000 0.025000 0.000000
0.002500 0.025000 0.000000
0.003000 0.025000 0.000000
0.003500 0.025000 0.000000
0.004000 0.025000 0.000000
0.004500 0.025000 0.000000
0.000500 0.023750 0.000000
0.001000 0.023750 0.000000
0.001500 0.023750 0.000000
0.002000 0.023750 0.000000
0.002500 0.023750 0.000000
0.003000 0.023750 0.000000
0.003500 0.023750 0.000000
0.004000 0.023750 0.000000
0.004500 0.023750 0.000000
0.000500 0.022500 0.000000
0.001000 0.022500 0.000000
0.001500 0.022500 0.000000
0.002000 0.022500 0.000000
0.002500 0.022500 0.000000
0.003000 0.022500 0.000000
0.003500 0.022500 0.000000
0.004000 0.022500 0.000000
0.004500 0.022500 0.000000
0.000500 0.021250 0.000000
0.001000 0.021250 0.000000
0.001500 0.021250 0.000000
0.002000 0.021250 0.000000
0.002500 0.021250 0.000000
0.003000 0.021250 0.000000
0.003500 0.021250 0.000000
0.004000 0.021250 0.000000
0.004500 0.021250 0.000000
0.000500 0.020000 0.000000
0.001000 0.020000 0.000000
0.001500 0.020000 0.000000
0.002000 0.020000 0.000000
0.002500 0.020000 0.000000
0.003000 0.020000 0.000000
0.003500 0.020000 0.000000
0.004000 0.020000 0.000000
0.004500 0.020000 0.000000
0.000500 0.018750 0.000000
0.001000 0.018750 0.000000
0.001500 0.018750 0.000000
0.002000 0.018750 0.000000
0.002500 0.018750 0.000000
0.003000 0.018750 0.000000
0.003500 0.018750 0.000000
0.004000 0.018750 0.000000
0.004500 0.018750 0.000000
0.000500 0.017500 0.000000
0.001000 0.017500 0.000000
0.001500 0.017500 0.000000
0.002000 0.017500 0.000000
0.002500 0.017500 0.000000
0.003000 0.017500 0.000000
0.003500 0.017500 0.000000
0.004000 0.017500 0.000000
0.004500 0.017500 0.000000
0.000500 0.016250 0.000000
0.001000 0.016250 0.000000
0.001500 0.016250 0.000000
0.002000 0.016250 0.000000
0.002500 0.016250 0.000000
0.003000 0.016250 0.000000
0.003500 0.016250 0.000000
0.004000 0.016250 0.000000
0.004500 0.016250 0.000000
0.000500 0.015000 0.000000
0.001000 0.015000 0.000000
0.001500 0.015000 0.000000
0.002000 0.015000 0.000000
0.002500 0.015000 0.000000
0.003000 0.015000 0.000000
0.003500 0.015000 0.000000
0.004000 0.015000 0.000000
0.004500 0.015000 0.000000
0.000500 0.013750 0.000000
0.001000 0.013750 0.000000
0.001500 0.013750 0.000000
0.002000 0.013750 0.000000
0.002500 0.013750 0.000000
0.003000 0.013750 0.000000
0.003500 0.013750 0.000000
0.004000 0.013750 0.000000
0.004500 0.013750 0.000000
0.000500 0.012500 0.000000
0.001000 0.012500 0.000000
0.001500 0.012500 0.000000
0.002000 0.012500 0.000000
0.002500 0.012500 0.000000
0.003000 0.012500 0.000000
0.003500 0.012500 0.000000
0.004000 0.012500 0.000000
0.004500 0.012500 0.000000
0.000500 0.011250 0.000000
0.001000 0.011250 0.000000
0.001500 0.011250 0.000000
0.002000 0.011250 0.000000
0.002500 0.011250 0.000000
0.003000 0.011250 0.000000
0.003500 0.011250 0.000000
0.004000 0.011250 0.000000
0.004500 0.011250 0.000000
0.000500 0.010000 0.000000
0.001000 0.010000 0.000000
0.001500 0.010000 0.000000
0.002000 0.010000 0.000000
0.002500 0.010000 0.000000
0.003000 0.010000 0.000000
0.003500 0.010000 0.000000
0.004000 0.010000 0.000000
0.004500 0.010000 0.000000
0.000500 0.008750 0.000000
0.001000 0.008750 0.000000
0.001500 0.008750 0.000000
0.002000 0.008750 0.000000
0.002500 0.008750 0.000000
0.003000 0.008750 0.000000
0.003500 0.008750 0.000000
0.004000 0.008750 0.000000
0.004500 0.008750 0.000000
0.000500 0.007500 0.000000
0.001000 0.007500 0.000000
0.001500 0.007500 0.000000
0.002000 0.007500 0.000000
0.002500 0.007500 0.000000
0.003000 0.007500 0.000000
0.003500 0.007500 0.000000
0.004000 0.007500 0.000000
0.004500 0.007500 0.000000
0.000500 0.006250 0.000000
0.001000 0.006250 0.000000
0.001500 0.006250 0.000000
0.002000 0.006250 0.000000
0.002500 0.006250 0.000000
0.003000 0.006250 0.000000
0.003500 0.006250 0.000000
0.004000 0.006250 0.000000
0.004500 0.006250 0.000000
0.000500 0.005000 0.000000
0.001000 0.005000 0.000000
0.001500 0.005000 0.000000
0.002000 0.005000 0.000000
0.002500 0.005000 0.000000
0.003000 0.005000 0.000000
0.003500 0.005000 0.000000
0.004000 0.005000 0.000000
0.004500 0.005000 0.000000
0.000500 0.003750 0.000000
0.001000 0.003750 0.000000
0.001500 0.003750 0.000000
0.002000 0.003750 0.000000
0.002500 0.003750 0.000000
0.003000 0.003750 0.000000
0.003500 0.003750 0.000000
0.004000 0.003750 0.000000
0.004500 0.003750 0.000000
0.000500 0.002500 0.000000
0.001000 0.002500 0.000000
0.001500 0.002500 0.000000
0.002000 0.002500 0.000000
0.002500 0.002500 0.000000
0.003000 0.002500 0.000000
0.003500 0.002500 0.000000
0.004000 0.002500 0.000000
0.004500 0.002500 0.000000
0.000500 0.001250 0.000000
0.001000 0.001250 0.000000
0.001500 0.001250 0.000000
0.002000 0.001250 0.000000
0.002500 0.001250 0.000000
0.003000 0.001250 0.000000
0.003500 0.001250 0.000000
0.004000 0.001250 0.000000
0.004500 0.001250 0.000000
CELLS 800 4000
4 82 83 180 179
4 179 180 181 178
4 178 181 182 177
4 177 182 183 176
4 176 183 184 175
4 175 184 185 174
4 174 185 186 173
4 173 186 187 172
4 172 187 188 171
4 171 188 80 0
4 83 84 189 180
4 180 189 190 181
4 181 190 191 182
4 182 191 192 183
4 183 192 193 184
4 184 193 194 185
4 185 194 195 186
4 186 195 196 187
4 187 196 197 188
4 188 197 79 80
4 84 85 198 189
4 189 198 199 190
4 190 199 200 191
4 191 200 201 192
4 192 201 202 193
4 193 202 203 194
4 194 203 204 195
4 195 204 205 196
4 196 205 206 197
4 197 206 78 79
4 85 86 207 198
4 198 207 208 199
4 199 208 209 200
4 200 209 210 201
4 201 210 211 202
4 202 211 212 203
4 203 212 213 204
4 204 213 214 205
4 205 214 215 206
4 206 215 77 78
4 86 87 216 207
4 207 216 217 208
4 208 217 218 209
4 209 218 219 210
4 210 219 220 211
4 211 220 221 212
4 212 221 222 213
4 213 222 223 214
4 214 223 224 215
4 215 224 76 77
4 87 88 225 216
4 216 225 226 217
4 217 226 227 218
4 218 227 228 219
4 219 228 229 220
4 220 229 230 221
4 221 230 231 222
4 222 231 232 223
4 223 232 233 224
4 224 233 75 76
4 88 89 234 225
4 225 234 235 226
4 226 235 236 227
4 227 236 237 228
4 228 237 238 229
4 229 238 239 230
4 230 239 240 231
4 231 240 241 232
4 232 241 242 233
4 233 242 74 75
4 89 90 243 234
4 234 243 244 235
4 235 244 245 236
4 236 245 246 237
4 237 246 247 238
4 238 247 248 239
4 239 248 249 240
4 240 249 250 241
4 241 250 251 242
4 242 251 73 74
4 90 91 252 243
4 243 252 253 244
4 244 253 254 245
4 245 254 255 246
4 246 255 256 247
4 247 256 257 248
4 248 257 258 249
4 249 258 259 250
4 250 259 260 251
4 251 260 72 73
4 91 92 261 252
4 252 261 262 253
4 253 262 263 254
4 254 263 264 255
4 255 264 265 256
4 256 265 266 257
4 257 266 267 258
4 258 267 268 259
4 259 268 269 260
4 260 269 71 72
4 92 93 270 261
4 261 270 271 262
4 262 271 272 263
4 263 272 273 264
4 264 273 274 265
4 265 274 275 266
4 266 275 276 267
4 267 276 277 268
4 268 277 278 269
4 269 278 70 71
4 93 94 279 270
4 270 279 280 271
4 271 280 281 272
4 272 281 282 273
4 273 282 283 274
4 274 283 284 275
4 275 284 285 276
4 276 285 286 277
4 277 286 287 278
4 278 287 69 70
4 94 95 288 279
4 279 288 289 280
4 280 289 290 281
4 281 290 291 282
4 282 291 292 283
4 283 292 293 284
4 284 293 294 285
4 285 294 295 286
4 286 295 296 287
4 287 296 68 69
4 95 96 297 288
4 288 297 298 289
4 289 298 299 290
4 290 299 300 291
4 291 300 301 292
4 292 301 302 293
4 293 302 303 294
4 294 303 304 295
4 295 304 305 296
4 296 305 67 68
4 96 97 306 297
4 297 306 307 298
4 298 307 308 299
4 299 308 309 300
4 300 309 310 301
4 301 310 311 302
4 302 311 312 303
4 303 312 313 304
4 304 313 314 305
4 305 314 66 67
4 97 98 315 306
4 306 315 316 307
4 307 316 317 308
4 308 317 318 309
4 309 318 319 310
4 310 319 320 311
4 311 320 321 312
4 312 321 322 313
4 313 322 323 314
4 314 323 65 66
4 98 99 324 315
4 315 324 325 316
4 316 325 326 317
4 317 326 327 318
4 318 327 328 319
4 319 328 329 320
4 320 329 330 321
4 321 330 331 322
4 322 331 332 323
4 323 332 64 65
4 99 100 333 324
4 324 333 334 325
4 325 334 335 326
4 326 335 336 327
4 327 336 337 328
4 328 337 338 329
4 329 338 339 330
4 330 339 340 331
4 331 340 341 332
4 332 341 63 64
4 100 101 342 333
4 333 342 343 334
4 334 343 344 335
4 335 344 345 336
4 336 345 346 337
4 337 346 347 338
4 338 347 348 339
4 339 348 349 340
4 340 349 350 341
4 341 350 62 63
4 101 102 351 342
4 342 351 352 343
4 343 352 353 344
4 344 353 354 345
4 345 354 355 346
4 346 355 356 347
4 347 356 357 348
4 348 357 358 349
4 349 358 359 350
4 350 359 61 62
4 102 103 360 351
4 351 360 361 352
4 352 361 362 353
4 353 362 363 354
4 354 363 364 355
4 355 364 365 356
4 356 365 366 357
4 357 366 367 358
4 358 367 368 359
4 359 368 60 61
4 103 104 369 360
4 360 369 370 361
4 361 370 371 362
4 362 371 372 363
4 363 372 373 364
4 364 373 374 365
4 365 374 375 366
4 366 375 376 367
4 367 376 377 368
4 368 377 59 60
4 104 105 378 369
4 369 378 379 370
4 370 379 380 371
4 371 380 381 372
4 372 381 382 373
4 373 382 383 374
4 374 383 384 375
4 375 384 385 376
4 376 385 386 377
4 377 386 58 59
4 105 106 387 378
4 378 387 388 379
4 379 388 389 380
4 380 389 390 381
4 381 390 391 382
4 382 391 392 383
4 383 392 393 384
4 384 393 394 385
4 385 394 395 386
4 386 395 57 58
4 106 107 396 387
4 387 396 397 388
4 388 397 398 389
4 389 398 399 390
4 390 399 400 391
4 391 400 401 392
4 392 401 402 393
4 393 402 403 394
4 394 403 404 395
4 395 404 56 57
4 107 108 405 396
4 396 405 406 397
4 397 406 407 398
4 398 407 408 399
4 399 408 409 400
4 400 409 410 401
4 401 410 411 402
4 402 411 412 403
4 403 412 413 404
4 404 413 55 56
4 108 109 414 405
4 405 414 415 406
4 406 415 416 407
4 407 416 417 408
4 408 417 418 409
4 409 418 419 410
4 410 419 420 411
4 411 420 421 412
4 412 421 422 413
4 413 422 54 55
4 109 110 423 414
4 414 423 424 415
4 415 424 425 416
4 416 425 426 417
4 417 426 427 418
4 418 427 428 419
4 419 428 429 420
4 420 429 430 421
4 421 430 431 422
4 422 431 53 54
4 110 111 432 423
4 423 432 433 424
4 424 433 434 425
4 425 434 435 426
4 426 435 436 427
4 427 436 437 428
4 428 437 438 429
4 429 438 439 430
4 430 439 440 431
4 431 440 52 53
4 111 112 441 432
4 432 441 442 433
4 433 442 443 434
4 434 443 444 435
4 435 444 445 436
4 436 445 446 437
4 437 446 447 438
4 438 447 448 439
4 439 448 449 440
4 440 449 51 52
4 112 113 450 441
4 441 450 451 442
4 442 451 452 443
4 443 452 453 444
4 444 453 454 445
4 445 454 455 446
4 446 455 456 447
4 447 456 457 448
4 448 457 458 449
4 449 458 50 51
4 113 114 459 450
4 450 459 460 451
4 451 460 461 452
4 452 461 462 453
4 453 462 463 454
4 454 463 464 455
4 455 464 465 456
4 456 465 466 457
4 457 466 467 458
4 458 467 49 50
4 114 115 468 459
4 459 468 469 460
4 460 469 470 461
4 461 470 471 462
4 462 471 472 463
4 463 472 473 464
4 464 473 474 465
4 465 474 475 466
4 466 475 476 467
4 467 476 48 49
4 115 116 477 468
4 468 477 478 469
4 469 478 479 470
4 470 479 480 471
4 471 480 481 472
4 472 481 482 473
4 473 482 483 474
4 474 483 484 475
4 475 484 485 476
4 476 485 47 48
4 116 117 486 477
4 477 486 487 478
4 478 487 488 479
4 479 488 489 480
4 480 489 490 481
4 481 490 491 482
4 482 491 492 483
4 483 492 493 484
4 484 493 494 485
4 485 494 46 47
4 117 118 495 486
4 486 495 496 487
4 487 496 497 488
4 488 497 498 489
4 489 498 499 490
4 490 499 500 491
4 491 500 501 492
4 492 501 502 493
4 493 502 503 494
4 494 503 45 46
4 118 119 504 495
4 495 504 505 496
4 496 505 506 497
4 497 506 507 498
4 498 507 508 499
4 499 508 509 500
4 500 509 510 501
4 501 510 511 502
4 502 511 512 503
4 503 512 44 45
4 119 120 513 504
4 504 513 514 505
4 505 514 515 506
4 506 515 516 507
4 507 516 517 508
4 508 517 518 509
4 509 518 519 510
4 510 519 520 511
4 511 520 521 512
4 512 521 43 44
4 120 121 522 513
4 513 522 523 514
4 514 523 524 515
4 515 524 525 516
4 516 525 526 517
4 517 526 527 518
4 518 527 528 519
4 519 528 529 520
4 520 529 530 521
4 521 530 42 43
4 121 122 531 522
4 522 531 532 523
4 523 532 533 524
4 524 533 534 525
4 525 534 535 526
4 526 535 536 527
4 527 536 537 528
4 528 537 538 529
4 529 538 539 530
4 530 539 41 42
4 122 123 540 531
4 531 540 541 532
4 532 541 542 533
4 533 542 543 534
4 534 543 544 535
4 535 544 545 536
4 536 545 546 537
4 537 546 547 538
4 538 547 548 539
4 539 548 40 41
4 123 124 549 540
4 540 549 550 541
4 541 550 551 542
4 542 551 552 543
4 543 552 553 544
4 544 553 554 545
4 545 554 555 546
4 546 555 556 547
4 547 556 557 548
4 548 557 39 40
4 124 125 558 549
4 549 558 559 550
4 550 559 560 551
4 551 560 561 552
4 552 561 562 553
4 553 562 563 554
4 554 563 564 555
4 555 564 565 556
4 556 565 566 557
4 557 566 38 39
4 125 126 567 558
4 558 567 568 559
4 559 568 569 560
4 560 569 570 561
4 561 570 571 562
4 562 571 572 563
4 563 572 573 564
4 564 573 574 565
4 565 574 575 566
4 566 575 37 38
4 126 127 576 567
4 567 576 577 568
4 568 577 578 569
4 569 578 579 570
4 570 579 580 571
4 571 580 581 572
4 572 581 582 573
4 573 582 583 574
4 574 583 584 575
4 575 584 36 37
4 127 128 585 576
4 576 585 586 577
4 577 586 587 578
4 578 587 588 579
4 579 588 589 580
4 580 589 590 581
4 581 590 591 582
4 582 591 592 583
4 583 592 593 584
4 584 593 35 36
4 128 129 594 585
4 585 594 595 586
4 586 595 596 587
4 587 596 597 588
4 588 597 598 589
4 589 598 599 590
4 590 599 600 591
4 591 600 601 592
4 592 601 602 593
4 593 602 34 35
4 129 130 603 594
4 594 603 604 595
4 595 604 605 596
4 596 605 606 597
4 597 606 607 598
4 598 607 608 599
4 599 608 609 600
4 600 609 610 601
4 601 610 611 602
4 602 611 33 34
4 130 131 612 603
4 603 612 613 604
4 604 613 614 605
4 605 614 615 606
4 606 615 616 607
4 607 616 617 608
4 608 617 618 609
4 609 618 619 610
4 610 619 620 611
4 611 620 32 33
4 131 132 621 612
4 612 621 622 613
4 613 622 623 614
4 614 623 624 615
4 615 624 625 616
4 616 625 626 617
4 617 626 627 618
4 618 627 628 619
4 619 628 629 620
4 620 629 31 32
4 132 133 630 621
4 621 630 631 622
4 622 631 632 623
4 623 632 633 624
4 624 633 634 625
4 625 634 635 626
4 626 635 636 627
4 627 636 637 628
4 628 637 638 629
4 629 638 30 31
4 133 134 639 630
4 630 639 640 631
4 631 640 641 632
4 632 641 642 633
4 633 642 643 634
4 634 643 644 635
4 635 644 645 636
4 636 645 646 637
4 637 646 647 638
4 638 647 29 30
4 134 135 648 639
4 639 648 649 640
4 640 649 650 641
4 641 650 651 642
4 642 651 652 643
4 643 652 653 644
4 644 653 654 645
4 645 654 655 646
4 646 655 656 647
4 647 656 28 29
4 135 136 657 648
4 648 657 658 649
4 649 658 659 650
4 650 659 660 651
4 651 660 661 652
4 652 661 662 653
4 653 662 663 654
4 654 663 664 655
4 655 664 665 656
4 656 665 27 28
4 136 137 666 657
4 657 666 667 658
4 658 667 668 659
4 659 668 669 660
4 660 669 670 661
4 661 670 671 662
4 662 671 672 663
4 663 672 673 664
4 664 673 674 665
4 665 674 26 27
4 137 138 675 666
4 666 675 676 667
4 667 676 677 668
4 668 677 678 669
4 669 678 679 670
4 670 679 680 671
4 671 680 681 672
4 672 681 682 673
4 673 682 683 674
4 674 683 25 26
4 138 139 684 675
4 675 684 685 676
4 676 685 686 677
4 677 686 687 678
4 678 687 688 679
4 679 688 689 680
4 680 689 690 681
4 681 690 691 682
4 682 691 692 683
4 683 692 24 25
4 139 140 693 684
4 684 693 694 685
4 685 694 695 686
4 686 695 696 687
4 687 696 697 688
4 688 697 698 689
4 689 698 699 690
4 690 699 700 691
4 691 700 701 692
4 692 701 23 24
4 140 141 702 693
4 693 702 703 694
4 694 703 704 695
4 695 704 705 696
4 696 705 706 697
4 697 706 707 698
4 698 707 708 699
4 699 708 709 700
4 700 709 710 701
4 701 710 22 23
4 141 142 711 702
4 702 711 712 703
4 703 712 713 704
4 704 713 714 705
4 705 714 715 706
4 706 715 716 707
4 707 716 717 708
4 708 717 718 709
4 709 718 719 710
4 710 719 21 22
4 142 143 720 711
4 711 720 721 712
4 712 721 722 713
4 713 722 723 714
4 714 723 724 715
4 715 724 725 716
4 716 725 726 717
4 717 726 727 718
4 718 727 728 719
4 719 728 20 21
4 143 144 729 720
4 720 729 730 721
4 721 730 731 722
4 722 731 732 723
4 723 732 733 724
4 724 733 734 725
4 725 734 735 726
4 726 735 736 727
4 727 736 737 728
4 728 737 19 20
4 144 145 738 729
4 729 738 739 730
4 730 739 740 731
4 731 740 741 732
4 732 741 742 733
4 733 742 743 734
4 734 743 744 735
4 735 744 745 736
4 736 745 746 737
4 737 746 18 19
4 145 146 747 738
4 738 747 748 739
4 739 748 749 740
4 740 749 750 741
4 741 750 751 742
4 742 751 752 743
4 743 752 753 744
4 744 753 754 745
4 745 754 755 746
4 746 755 17 18
4 146 147 756 747
4 747 756 757 748
4 748 757 758 749
4 749 758 759 750
4 750 759 760 751
4 751 760 761 752
4 752 761 762 753
4 753 762 763 754
4 754 763 764 755
4 755 764 16 17
4 147 148 765 756
4 756 765 766 757
4 757 766 767 758
4 758 767 768 759
4 759 768 769 760
4 760 769 770 761
4 761 770 771 762
4 762 771 772 763
4 763 772 773 764
4 764 773 15 16
4 148 149 774 765
4 765 774 775 766
4 766 775 776 767
4 767 776 777 768
4 768 777 778 769
4 769 778 779 770
4 770 779 780 771
4 771 780 781 772
4 772 781 782 773
4 773 782 14 15
4 149 150 783 774
4 774 783 784 775
4 775 784 785 776
4 776 785 786 777
4 777 786 787 778
4 778 787 788 779
4 779 788 789 780
4 780 789 790 781
4 781 790 791 782
4 782 791 13 14
4 150 151 792 783
4 783 792 793 784
4 784 793 794 785
4 785 794 795 786
4 786 795 796 787
4 787 796 797 788
4 788 797 798 789
4 789 798 799 790
4 790 799 800 791
4 791 800 12 13
4 151 152 801 792
4 792 801 802 793
4 793 802 803 794
4 794 803 804 795
4 795 804 805 796
4 796 805 806 797
4 797 806 807 798
4 798 807 808 799
4 799 808 809 800
4 800 809 11 12
4 152 153 810 801
4 801 810 811 802
4 802 811 812 803
4 803 812 813 804
4 804 813 814 805
4 805 814 815 806
4 806 815 816 807
4 807 816 817 808
4 808 817 818 809
4 809 818 10 11
4 153 154 819 810
4 810 819 820 811
4 811 820 821 812
4 812 821 822 813
4 813 822 823 814
4 814 823 824 815
4 815 824 825 816
4 816 825 826 817
4 817 826 827 818
4 818 827 9 10
4 154 155 828 819
4 819 828 829 820
4 820 829 830 821
4 821 830 831 822
4 822 831 832 823
4 823 832 833 824
4 824 833 834 825
4 825 834 835 826
4 826 835 836 827
4 827 836 8 9
4 155 156 837 828
4 828 837 838 829
4 829 838 839 830
4 830 839 840 831
4 831 840 841 832
4 832 841 842 833
4 833 842 843 834
4 834 843 844 835
4 835 844 845 836
4 836 845 7 8
4 156 157 846 837
4 837 846 847 838
4 838 847 848 839
4 839 848 849 840
4 840 849 850 841
4 841 850 851 842
4 842 851 852 843
4 843 852 853 844
4 844 853 854 845
4 845 854 6 7
4 157 158 855 846
4 846 855 856 847
4 847 856 857 848
4 848 857 858 849
4 849 858 859 850
4 850 859 860 851
4 851 860 861 852
4 852 861 862 853
4 853 862 863 854
4 854 863 5 6
4 158 159 864 855
4 855 864 865 856
4 856 865 866 857
4 857 866 867 858
4 858 867 868 859
4 859 868 869 860
4 860 869 870 861
4 861 870 871 862
4 862 871 872 863
4 863 872 4 5
4 159 160 873 864
4 864 873 874 865
4 865 874 875 866
4 866 875 876 867
4 867 876 877 868
4 868 877 878 869
4 869 878 879 870
4 870 879 880 871
4 871 880 881 872
4 872 881 3 4
4 160 161 882 873
4 873 882 883 874
4 874 883 884 875
4 875 884 885 876
4 876 885 886 877
4 877 886 887 878
4 878 887 888 879
4 879 888 889 880
4 880 889 890 881
4 881 890 2 3
4 161 81 162 882
4 882 162 163 883
4 883 163 164 884
4 884 164 165 885
4 885 165 166 886
4 886 166 167 887
4 887 167 168 888
4 888 168 169 889
4 889 169 170 890
4 890 170 1 2
CELL_TYPES 800
9
9
9
9
9
9
9
9
9
9
9
9
9
9
9
9
9
9
9
9
9
9
9
9
9
9
9
9
9
9
9
9
9
9
9
9
9
9
9
9
9
9
9
9
9
9
9
9
9
9
9
9
9
9
9
9
9
9
9
9
9
9
9
9
9
9
9
9
9
9
9
9
9
9
9
9
9
9
9
9
9
9
9
9
9
9
9
9
9
9
9
9
9
9
9
9
9
9
9
9
9
9
9
9
9
9
9
9
9
9
9
9
9
9
9
9
9
9
9
9
9
9
9
9
9
9
9
9
9
9
9
9
9
9
9
9
9
9
9
9
9
9
9
9
9
9
9
9
9
9
9
9
9
9
9
9
9
9
9
9
9
9
9
9
9
9
9
9
9
9
9
9
9
9
9
9
9
9
9
9
9
9
9
9
9
9
9
9
9
9
9
9
9
9
9
9
9
9
9
9
9
9
9
9
9
9
9
9
9
9
9
9
9
9
9
9
9
9
9
9
9
9
9
9
9
9
9
9
9
9
9
9
9
9
9
9
9
9
9
9
9
9
9
9
9
9
9
9
9
9
9
9
9
9
9
9
9
9
9
9
9
9
9
9
9
9
9
9
9
9
9
9
9
9
9
9
9
9
9
9
9
9
9
9
9
9
9
9
9
9
9
9
9
9
9
9
9
9
9
9
9
9
9
9
9
9
9
9
9
9
9
9
9
9
9
9
9
9
9
9
9
9
9
9
9
9
9
9
9
9
9
9
9
9
9
9
9
9
9
9
9
9
9
9
9
9
9
9
9
9
9
9
9
9
9
9
9
9
9
9
9
9
9
9
9
9
9
9
9
9
9
9
9
9
9
9
9
9
9
9
9
9
9
9
9
9
9
9
9
9
9
9
9
9
9
9
9
9
9
9
9
9
9
9
9
9
9
9
9
9
9
9
9
9
9
9
9
9
9
9
9
9
9
9
9
9
9
9
9
9
9
9
9
9
9
9
9
9
9
9
9
9
9
9
9
9
9
9
9
9
9
9
9
9
9
9
9
9
9
9
9
9
9
9
9
9
9
9
9
9
9
9
9
9
9
9
9
9
9
9
9
9
9
9
9
9
9
9
9
9
9
9
9
9
9
9
9
9
9
9
9
9
9
9
9
9
9
9
9
9
9
9
9
9
9
9
9
9
9
9
9
9
9
9
9
9
9
9
9
9
9
9
9
9
9
9
9
9
9
9
9
9
9
9
9
9
9
9
9
9
9
9
9
9
9
9
9
9
9
9
9
9
9
9
9
9
9
9
9
9
9
9
9
9
9
9
9
9
9
9
9
9
9
9
9
9
9
9
9
9
9
9
9
9
9
9
9
9
9
9
9
9
9
9
9
9
9
9
9
9
9
9
9
9
9
9
9
9
9
9
9
9
9
9
9
9
9
9
9
9
9
9
9
9
9
9
9
9
9
9
9
9
9
9
9
9
9
9
9
9
9
9
9
9
9
9
9
9
9
9
9
9
9
9
9
9
9
9
9
9
9
9
9
9
9
9
9
9
9
9
9
9
9
9
9
9
9
9
9
9
9
9
9
9
9
9
9
9
9
9
9
9
9
9
9
9
9
9
9
9
9
9
9
9
9
9
9
9
9
9
9
9
9
9
9
9
9
9
9
9
9
9
9
9
9
9
9
9
9
9
9
9
9
9
9
9
9
9
9
9
9
9
9
9
9
9
9
9
9
9
9
9
9
9
9
9
9
9
9
9
9
9
9
9
9
9
9
9
9
9
9
9
9
9
9
9
9
9
9
9
9
9
9
9
9
9
9
9
9
9
POINT_DATA 891
SCALARS u1 float
LOOKUP_TABLE default
2e-19
-3e-07
-3e-07
-3e-07
-3e-07
-3e-07
-3e-07
-3e-07
-3e-07
-3e-07
-3e-07
-3e-07
-3e-07
-3e-07
-3e-07
-3e-07
-3e-07
-3e-07
-3e-07
-3e-07
-3e-07
-3e-07
-3e-07
-3e-07
-3e-07
-3e-07
-3e-07
-3e-07
-3e-07
-3e-07
-3e-07
-3e-07
-3e-07
-3e-07
-3e-07
-3e-07
-3e-07
-3e-07
-3e-07
-3e-07
-3e-07
-3e-07
-3e-07
-3e-07
-3e-07
-3e-07
-3e-07
-3e-07
-3e-07
-3e-07
-3e-07
-3e-07
-3e-07
-3e-07
-3e-07
-3e-07
-3e-07
-3e-07
-3e-07
-3e-07
-3e-07
-3e-07
-3e-07
-3e-07
-3e-07
-3e-07
-3e-07
-3e-07
-3e-07
-3e-07
-3e-07
-3e-07
-3e-07
-3e-07
-3e-07
-4e-07
-4e-07
-4e-07
-4e-07
-3e-07
-3e-07
3e-07
-5e-19
3e-07
3e-07
4e-07
4e-07
4e-07
4e-07
3e-07
3e-07
3e-07
3e-07
3e-07
3e-07
3e-07
3e-07
3e-07
3e-07
3e-07
3e-07
3e-07
3e-07
3e-07
3e-07
3e-07
3e-07
3e-07
3e-07
3e-07
3e-07
3e-07
3e-07
3e-07
3e-07
3e-07
3e-07
3e-07
3e-07
3e-07
3e-07
3e-07
3e-07
3e-07
3e-07
3e-07
3e-07
3e-07
3e-07
3e-07
3e-07
3e-07
3e-07
3e-07
3e-07
3e-07
3e-07
3e-07
3e-07
3e-07
3e-07
3e-07
3e-07
3e-07
3e-07
3e-07
3e-07
3e-07
3e-07
3e-07
3e-07
3e-07
3e-07
3e-07
3e-07
3e-07
3e-07
3e-07
3e-07
3e-07
3e-07
3e-07
3e-07
2e-07
1e-07
7e-08
3e-16
-7e-08
-1e-07
-2e-07
-3e-07
9e-20
-4e-19
-2e-19
-2e-19
-4e-19
4e-19
6e-19
2e-19
-3e-19
2e-07
1e-07
9e-08
4e-08
4e-17
-4e-08
-9e-08
-1e-07
-2e-07
3e-07
2e-07
1e-07
7e-08
2e-16
-7e-08
-1e-07
-2e-07
-3e-07
3e-07
2e-07
1e-07
7e-08
2e-16
-7e-08
-1e-07
-2e-07
-3e-07
3e-07
2e-07
1e-07
7e-08
2e-16
-7e-08
-1e-07
-2e-07
-3e-07
3e-07
2e-07
1e-07
7e-08
2e-16
-7e-08
-1e-07
-2e-07
-3e-07
3e-07
2e-07
1e-07
7e-08
2e-16
-7e-08
-1e-07
-2e-07
-3e-07
3e-07
2e-07
1e-07
7e-08
3e-16
-7e-08
-1e-07
-2e-07
-3e-07
3e-07
2e-07
1e-07
7e-08
3e-16
-7e-08
-1e-07
-2e-07
-3e-07
3e-07
2e-07
1e-07
7e-08
3e-16
-7e-08
-1e-07
-2e-07
-3e-07
3e-07
2e-07
1e-07
7e-08
3e-16
-7e-08
-1e-07
-2e-07
-3e-07
3e-07
2e-07
1e-07
7e-08
3e-16
-7e-08
-1e-07
-2e-07
-3e-07
3e-07
2e-07
1e-07
7e-08
3e-16
-7e-08
-1e-07
-2e-07
-3e-07
3e-07
2e-07
1e-07
7e-08
3e-16
-7e-08
-1e-07
-2e-07
-3e-07
3e-07
2e-07
1e-07
7e-08
3e-16
-7e-08
-1e-07
-2e-07
-3e-07
3e-07
2e-07
1e-07
7e-08
3e-16
-7e-08
-1e-07
-2e-07
-3e-07
3e-07
2e-07
1e-07
7e-08
3e-16
-7e-08
-1e-07
-2e-07
-3e-07
3e-07
2e-07
1e-07
7e-08
3e-16
-7e-08
-1e-07
-2e-07
-3e-07
3e-07
2e-07
1e-07
7e-08
3e-16
-7e-08
-1e-07
-2e-07
-3e-07
3e-07
2e-07
1e-07
7e-08
3e-16
-7e-08
-1e-07
-2e-07
-3e-07
3e-07
2e-07
1e-07
7e-08
3e-16
-7e-08
-1e-07
-2e-07
-3e-07
3e-07
2e-07
1e-07
7e-08
3e-16
-7e-08
-1e-07
-2e-07
-3e-07
3e-07
2e-07
1e-07
7e-08
3e-16
-7e-08
-1e-07
-2e-07
-3e-07
3e-07
2e-07
1e-07
7e-08
3e-16
-7e-08
-1e-07
-2e-07
-3e-07
3e-07
2e-07
1e-07
7e-08
3e-16
-7e-08
-1e-07
-2e-07
-3e-07
3e-07
2e-07
1e-07
7e-08
3e-16
-7e-08
-1e-07
-2e-07
-3e-07
3e-07
2e-07
1e-07
7e-08
3e-16
-7e-08
-1e-07
-2e-07
-3e-07
3e-07
2e-07
1e-07
7e-08
3e-16
-7e-08
-1e-07
-2e-07
-3e-07
3e-07
2e-07
1e-07
7e-08
3e-16
-7e-08
-1e-07
-2e-07
-3e-07
3e-07
2e-07
1e-07
7e-08
3e-16
-7e-08
-1e-07
-2e-07
-3e-07
3e-07
2e-07
1e-07
7e-08
3e-16
-7e-08
-1e-07
-2e-07
-3e-07
3e-07
2e-07
1e-07
7e-08
3e-16
-7e-08
-1e-07
-2e-07
-3e-07
3e-07
2e-07
1e-07
7e-08
3e-16
-7e-08
-1e-07
-2e-07
-3e-07
3e-07
2e-07
1e-07
7e-08
3e-16
-7e-08
-1e-07
-2e-07
-3e-07
3e-07
2e-07
1e-07
7e-08
3e-16
-7e-08
-1e-07
-2e-07
-3e-07
3e-07
2e-07
1e-07
7e-08
3e-16
-7e-08
-1e-07
-2e-07
-3e-07
3e-07
2e-07
1e-07
7e-08
3e-16
-7e-08
-1e-07
-2e-07
-3e-07
3e-07
2e-07
1e-07
7e-08
3e-16
-7e-08
-1e-07
-2e-07
-3e-07
3e-07
2e-07
1e-07
7e-08
3e-16
-7e-08
-1e-07
-2e-07
-3e-07
3e-07
2e-07
1e-07
7e-08
3e-16
-7e-08
-1e-07
-2e-07
-3e-07
3e-07
2e-07
1e-07
7e-08
3e-16
-7e-08
-1e-07
-2e-07
-3e-07
3e-07
2e-07
1e-07
7e-08
3e-16
-7e-08
-1e-07
-2e-07
-3e-07
3e-07
2e-07
1e-07
7e-08
3e-16
-7e-08
-1e-07
-2e-07
-3e-07
3e-07
2e-07
1e-07
7e-08
3e-16
-7e-08
-1e-07
-2e-07
-3e-07
3e-07
2e-07
1e-07
7e-08
3e-16
-7e-08
-1e-07
-2e-07
-3e-07
3e-07
2e-07
1e-07
7e-08
3e-16
-7e-08
-1e-07
-2e-07
-3e-07
3e-07
2e-07
1e-07
7e-08
3e-16
-7e-08
-1e-07
-2e-07
-3e-07
3e-07
2e-07
1e-07
7e-08
3e-16
-7e-08
-1e-07
-2e-07
-3e-07
3e-07
2e-07
1e-07
7e-08
3e-16
-7e-08
-1e-07
-2e-07
-3e-07
3e-07
2e-07
1e-07
7e-08
3e-16
-7e-08
-1e-07
-2e-07
-3e-07
3e-07
2e-07
1e-07
7e-08
3e-16
-7e-08
-1e-07
-2e-07
-3e-07
3e-07
2e-07
1e-07
7e-08
3e-16
-7e-08
-1e-07
-2e-07
-3e-07
3e-07
2e-07
1e-07
7e-08
3e-16
-7e-08
-1e-07
-2e-07
-3e-07
3e-07
2e-07
1e-07
7e-08
3e-16
-7e-08
-1e-07
-2e-07
-3e-07
3e-07
2e-07
1e-07
7e-08
3e-16
-7e-08
-1e-07
-2e-07
-3e-07
3e-07
2e-07
1e-07
7e-08
3e-16
-7e-08
-1e-07
-2e-07
-3e-07
3e-07
2e-07
1e-07
7e-08
3e-16
-7e-08
-1e-07
-2e-07
-3e-07
3e-07
2e-07
1e-07
7e-08
3e-16
-7e-08
-1e-07
-2e-07
-3e-07
3e-07
2e-07
1e-07
7e-08
3e-16
-7e-08
-1e-07
-2e-07
-3e-07
3e-07
2e-07
1e-07
7e-08
3e-16
-7e-08
-1e-07
-2e-07
-3e-07
3e-07
2e-07
1e-07
7e-08
3e-16
-7e-08
-1e-07
-2e-07
-3e-07
3e-07
2e-07
1e-07
7e-08
3e-16
-7e-08
-1e-07
-2e-07
-3e-07
3e-07
2e-07
1e-07
7e-08
3e-16
-7e-08
-1e-07
-2e-07
-3e-07
3e-07
2e-07
1e-07
7e-08
3e-16
-7e-08
-1e-07
-2e-07
-3e-07
3e-07
2e-07
1e-07
7e-08
3e-16
-7e-08
-1e-07
-2e-07
-3e-07
3e-07
2e-07
1e-07
7e-08
3e-16
-7e-08
-1e-07
-2e-07
-3e-07
3e-07
2e-07
1e-07
7e-08
3e-16
-7e-08
-1e-07
-2e-07
-3e-07
3e-07
2e-07
1e-07
7e-08
3e-16
-7e-08
-1e-07
-2e-07
-3e-07
3e-07
2e-07
1e-07
7e-08
3e-16
-7e-08
-1e-07
-2e-07
-3e-07
3e-07
2e-07
1e-07
7e-08
3e-16
-7e-08
-1e-07
-2e-07
-3e-07
3e-07
2e-07
1e-07
7e-08
3e-16
-7e-08
-1e-07
-2e-07
-3e-07
3e-07
2e-07
1e-07
7e-08
3e-16
-7e-08
-1e-07
-2e-07
-3e-07
3e-07
2e-07
1e-07
7e-08
3e-16
-7e-08
-1e-07
-2e-07
-3e-07
3e-07
2e-07
1e-07
7e-08
3e-16
-7e-08
-1e-07
-2e-07
-3e-07
3e-07
2e-07
1e-07
7e-08
3e-16
-7e-08
-1e-07
-2e-07
-3e-07
3e-07
2e-07
1e-07
7e-08
3e-16
-7e-08
-1e-07
-2e-07
-3e-07
3e-07
2e-07
1e-07
7e-08
3e-16
-7e-08
-1e-07
-2e-07
-3e-07
3e-07
2e-07
1e-07
7e-08
3e-16
-7e-08
-1e-07
-2e-07
-3e-07
3e-07
2e-07
1e-07
7e-08
3e-16
-7e-08
-1e-07
-2e-07
-3e-07
3e-07
2e-07
1e-07
7e-08
3e-16
-7e-08
-1e-07
-2e-07
-3e-07
SCALARS u2 float
LOOKUP_TABLE default
-3e-19
-0.0001
-0.0001
-0.0001
-0.0001
-0.0001
-9e-05
-9e-05
-9e-05
-9e-05
-9e-05
-9e-05
-9e-05
-9e-05
-8e-05
-8e-05
-8e-05
-8e-05
-8e-05
-8e-05
-8e-05
-8e-05
-7e-05
-7e-05
-7e-05
-7e-05
-7e-05
-7e-05
-7e-05
-7e-05
-6e-05
-6e-05
-6e-05
-6e-05
-6e-05
-6e-05
-6e-05
-6e-05
-5e-05
-5e-05
-5e-05
-5e-05
-5e-05
-5e-05
-5e-05
-5e-05
-4e-05
-4e-05
-4e-05
-4e-05
-4e-05
-4e-05
-4e-05
-4e-05
-3e-05
-3e-05
-3e-05
-3e-05
-3e-05
-3e-05
-3e-05
-3e-05
-2e-05
-2e-05
-2e-05
-2e-05
-2e-05
-2e-05
-2e-05
-2e-05
-1e-05
-1e-05
-1e-05
-1e-05
-9e-06
-8e-06
-6e-06
-5e-06
-4e-06
-3e-06
-1e-06
-0.0001
2e-19
-1e-06
-3e-06
-4e-06
-5e-06
-6e-06
-8e-06
-9e-06
-1e-05
-1e-05
-1e-05
-1e-05
-2e-05
-2e-05
-2e-05
-2e-05
-2e-05
-2e-05
-2e-05
-2e-05
-3e-05
-3e-05
-3e-05
-3e-05
-3e-05
-3e-05
-3e-05
-3e-05
-4e-05
-4e-05
-4e-05
-4e-05
-4e-05
-4e-05
-4e-05
-4e-05
-5e-05
-5e-05
-5e-05
-5e-05
-5e-05
-5e-05
-5e-05
-5e-05
-6e-05
-6e-05
-6e-05
-6e-05
-6e-05
-6e-05
-6e-05
-6e-05
-7e-05
-7e-05
-7e-05
-7e-05
-7e-05
-7e-05
-7e-05
-7e-05
-8e-05
-8e-05
-8e-05
-8e-05
-8e-05
-8e-05
-8e-05
-8e-05
-9e-05
-9e-05
-9e-05
-9e-05
-9e-05
-9e-05
-9e-05
-9e-05
-0.0001
-0.0001
-0.0001
-0.0001
-0.0001
-0.0001
-0.0001
-0.0001
-0.0001
-0.0001
-0.0001
-0.0001
-0.0001
-6e-19
4e-20
-9e-20
-7e-19
-1e-19
2e-19
5e-20
2e-19
-2e-19
-1e-06
-1e-06
-1e-06
-1e-06
-1e-06
-1e-06
-1e-06
-1e-06
-1e-06
-3e-06
-3e-06
-2e-06
-2e-06
-2e-06
-2e-06
-2e-06
-3e-06
-3e-06
-4e-06
-4e-06
-4e-06
-4e-06
-4e-06
-4e-06
-4e-06
-4e-06
-4e-06
-5e-06
-5e-06
-5e-06
-5e-06
-5e-06
-5e-06
-5e-06
-5e-06
-5e-06
-6e-06
-6e-06
-6e-06
-6e-06
-6e-06
-6e-06
-6e-06
-6e-06
-6e-06
-8e-06
-8e-06
-8e-06
-8e-06
-8e-06
-8e-06
-8e-06
-8e-06
-8e-06
-9e-06
-9e-06
-9e-06
-9e-06
-9e-06
-9e-06
-9e-06
-9e-06
-9e-06
-1e-05
-1e-05
-1e-05
-1e-05
-1e-05
-1e-05
-1e-05
-1e-05
-1e-05
-1e-05
-1e-05
-1e-05
-1e-05
-1e-05
-1e-05
-1e-05
-1e-05
-1e-05
-1e-05
-1e-05
-1e-05
-1e-05
-1e-05
-1e-05
-1e-05
-1e-05
-1e-05
-1e-05
-1e-05
-1e-05
-1e-05
-1e-05
-1e-05
-1e-05
-1e-05
-1e-05
-2e-05
-2e-05
-2e-05
-2e-05
-2e-05
-2e-05
-2e-05
-2e-05
-2e-05
-2e-05
-2e-05
-2e-05
-2e-05
-2e-05
-2e-05
-2e-05
-2e-05
-2e-05
-2e-05
-2e-05
-2e-05
-2e-05
-2e-05
-2e-05
-2e-05
-2e-05
-2e-05
-2e-05
-2e-05
-2e-05
-2e-05
-2e-05
-2e-05
-2e-05
-2e-05
-2e-05
-2e-05
-2e-05
-2e-05
-2e-05
-2e-05
-2e-05
-2e-05
-2e-05
-2e-05
-2e-05
-2e-05
-2e-05
-2e-05
-2e-05
-2e-05
-2e-05
-2e-05
-2e-05
-2e-05
-2e-05
-2e-05
-2e-05
-2e-05
-2e-05
-2e-05
-2e-05
-2e-05
-2e-05
-2e-05
-2e-05
-2e-05
-2e-05
-2e-05
-2e-05
-2e-05
-2e-05
-3e-05
-3e-05
-3e-05
-3e-05
-3e-05
-3e-05
-3e-05
-3e-05
-3e-05
-3e-05
-3e-05
-3e-05
-3e-05
-3e-05
-3e-05
-3e-05
-3e-05
-3e-05
-3e-05
-3e-05
-3e-05
-3e-05
-3e-05
-3e-05
-3e-05
-3e-05
-3e-05
-3e-05
-3e-05
-3e-05
-3e-05
-3e-05
-3e-05
-3e-05
-3e-05
-3e-05
-3e-05
-3e-05
-3e-05
-3e-05
-3e-05
-3e-05
-3e-05
-3e-05
-3e-05
-3e-05
-3e-05
-3e-05
-3e-05
-3e-05
-3e-05
-3e-05
-3e-05
-3e-05
-3e-05
-3e-05
-3e-05
-3e-05
-3e-05
-3e-05
-3e-05
-3e-05
-3e-05
-3e-05
-3e-05
-3e-05
-3e-05
-3e-05
-3e-05
-3e-05
-3e-05
-3e-05
-4e-05
-4e-05
-4e-05
-4e-05
-4e-05
-4e-05
-4e-05
-4e-05
-4e-05
-4e-05
-4e-05
-4e-05
-4e-05
-4e-05
-4e-05
-4e-05
-4e-05
-4e-05
-4e-05
-4e-05
-4e-05
-4e-05
-4e-05
-4e-05
-4e-05
-4e-05
-4e-05
-4e-05
-4e-05
-4e-05
-4e-05
-4e-05
-4e-05
-4e-05
-4e-05
-4e-05
-4e-05
-4e-05
-4e-05
-4e-05
-4e-05
-4e-05
-4e-05
-4e-05
-4e-05
-4e-05
-4e-05
-4e-05
-4e-05
-4e-05
-4e-05
-4e-05
-4e-05
-4e-05
-4e-05
-4e-05
-4e-05
-4e-05
-4e-05
-4e-05
-4e-05
-4e-05
-4e-05
-4e-05
-4e-05
-4e-05
-4e-05
-4e-05
-4e-05
-4e-05
-4e-05
-4e-05
-5e-05
-5e-05
-5e-05
-5e-05
-5e-05
-5e-05
-5e-05
-5e-05
-5e-05
-5e-05
-5e-05
-5e-05
-5e-05
-5e-05
-5e-05
-5e-05
-5e-05
-5e-05
-5e-05
-5e-05
-5e-05
-5e-05
-5e-05
-5e-05
-5e-05
-5e-05
-5e-05
-5e-05
-5e-05
-5e-05
-5e-05
-5e-05
-5e-05
-5e-05
-5e-05
-5e-05
-5e-05
-5e-05
-5e-05
-5e-05
-5e-05
-5e-05
-5e-05
-5e-05
-5e-05
-5e-05
-5e-05
-5e-05
-5e-05
-5e-05
-5e-05
-5e-05
-5e-05
-5e-05
-5e-05
-5e-05
-5e-05
-5e-05
-5e-05
-5e-05
-5e-05
-5e-05
-5e-05
-5e-05
-5e-05
-5e-05
-5e-05
-5e-05
-5e-05
-5e-05
-5e-05
-5e-05
-6e-05
-6e-05
-6e-05
-6e-05
-6e-05
-6e-05
-6e-05
-6e-05
-6e-05
-6e-05
-6e-05
-6e-05
-6e-05
-6e-05
-6e-05
-6e-05
-6e-05
-6e-05
-6e-05
-6e-05
-6e-05
-6e-05
-6e-05
-6e-05
-6e-05
-6e-05
-6e-05
-6e-05
-6e-05
-6e-05
-6e-05
-6e-05
-6e-05
-6e-05
-6e-05
-6e-05
-6e-05
-6e-05
-6e-05
-6e-05
-6e-05
-6e-05
-6e-05
-6e-05
-6e-05
-6e-05
-6e-05
-6e-05
-6e-05
-6e-05
-6e-05
-6e-05
-6e-05
-6e-05
-6e-05
-6e-05
-6e-05
-6e-05
-6e-05
-6e-05
-6e-05
-6e-05
-6e-05
-6e-05
-6e-05
-6e-05
-6e-05
-6e-05
-6e-05
-6e-05
-6e-05
-6e-05
-7e-05
-7e-05
-7e-05
-7e-05
-7e-05
-7e-05
-7e-05
-7e-05
-7e-05
-7e-05
-7e-05
-7e-05
-7e-05
-7e-05
-7e-05
-7e-05
-7e-05
-7e-05
-7e-05
-7e-05
-7e-05
-7e-05
-7e-05
-7e-05
-7e-05
-7e-05
-7e-05
-7e-05
-7e-05
-7e-05
-7e-05
-7e-05
-7e-05
-7e-05
-7e-05
-7e-05
-7e-05
-7e-05
-7e-05
-7e-05
-7e-05
-7e-05
-7e-05
-7e-05
-7e-05
-7e-05
-7e-05
-7e-05
-7e-05
-7e-05
-7e-05
-7e-05
-7e-05
-7e-05
-7e-05
-7e-05
-7e-05
-7e-05
-7e-05
-7e-05
-7e-05
-7e-05
-7e-05
-7e-05
-7e-05
-7e-05
-7e-05
-7e-05
-7e-05
-7e-05
-7e-05
-7e-05
-8e-05
-8e-05
-8e-05
-8e-05
-8e-05
-8e-05
-8e-05
-8e-05
-8e-05
-8e-05
-8e-05
-8e-05
-8e-05
-8e-05
-8e-05
-8e-05
-8e-05
-8e-05
-8e-05
-8e-05
-8e-05
-8e-05
-8e-05
-8e-05
-8e-05
-8e-05
-8e-05
-8e-05
-8e-05
-8e-05
-8e-05
-8e-05
-8e-05
-8e-05
-8e-05
-8e-05
-8e-05
-8e-05
-8e-05
-8e-05
-8e-05
-8e-05
-8e-05
-8e-05
-8e-05
-8e-05
-8e-05
-8e-05
-8e-05
-8e-05
-8e-05
-8e-05
-8e-05
-8e-05
-8e-05
-8e-05
-8e-05
-8e-05
-8e-05
-8e-05
-8e-05
-8e-05
-8e-05
-8e-05
-8e-05
-8e-05
-8e-05
-8e-05
-8e-05
-8e-05
-8e-05
-8e-05
-9e-05
-9e-05
-9e-05
-9e-05
-9e-05
-9e-05
-9e-05
-9e-05
-9e-05
-9e-05
-9e-05
-9e-05
-9e-05
-9e-05
-9e-05
-9e-05
-9e-05
-9e-05
-9e-05
-9e-05
-9e-05
-9e-05
-9e-05
-9e-05
-9e-05
-9e-05
-9e-05
-9e-05
-9e-05
-9e-05
-9e-05
-9e-05
-9e-05
-9e-05
-9e-05
-9e-05
-9e-05
-9e-05
-9e-05
-9e-05
-9e-05
-9e-05
-9e-05
-9e-05
-9e-05
-9e-05
-9e-05
-9e-05
-9e-05
-9e-05
-9e-05
-9e-05
-9e-05
-9e-05
-9e-05
-9e-05
-9e-05
-9e-05
-9e-05
-9e-05
-9e-05
-9e-05
-9e-05
-9e-05
-9e-05
-9e-05
-9e-05
-9e-05
-9e-05
-9e-05
-9e-05
-9e-05
-0.0001
-0.0001
-0.0001
-0.0001
-0.0001
-0.0001
-0.0001
-0.0001
-0.0001
-0.0001
-0.0001
-0.0001
-0.0001
-0.0001
-0.0001
-0.0001
-0.0001
-0.0001
-0.0001
-0.0001
-0.0001
-0.0001
-0.0001
-0.0001
-0.0001
-0.0001
-0.0001
-0.0001
-0.0001
-0.0001
-0.0001
-0.0001
-0.0001
-0.0001
-0.0001
-0.0001
SCALARS strain_1 float
LOOKUP_TABLE default
-0.000026
-0.040877
-0.040258
-0.039637
-0.039013
-0.038386
-0.037756
-0.037124
-0.036489
-0.035852
-0.035213
-0.034573
-0.033930
-0.033286
-0.032641
-0.031995
-0.031347
-0.030700
-0.030051
-0.029402
-0.028754
-0.028105
-0.027457
-0.026810
-0.026163
-0.025518
-0.024874
-0.024232
-0.023592
-0.022954
-0.022319
-0.021687
-0.021058
-0.020432
-0.019810
-0.019192
-0.018579
-0.017970
-0.017366
-0.016768
-0.016175
-0.015588
-0.015007
-0.014433
-0.013865
-0.013305
-0.012752
-0.012207
-0.011670
-0.011142
-0.010622
-0.010111
-0.009609
-0.009117
-0.008635
-0.008163
-0.007701
-0.007250
-0.006809
-0.006380
-0.005962
-0.005555
-0.005160
-0.004777
-0.004406
-0.004047
-0.003701
-0.003367
-0.003045
-0.002736
-0.002440
-0.002156
-0.001886
-0.001628
-0.001383
-0.001151
-0.000932
-0.000725
-0.000532
-0.000350
-0.000182
-0.040913
-0.000001
-0.000158
-0.000327
-0.000508
-0.000703
-0.000910
-0.001129
-0.001362
-0.001608
-0.001866
-0.002137
-0.002421
-0.002718
-0.003028
-0.003350
-0.003685
-0.004032
-0.004392
-0.004764
-0.005148
-0.005544
-0.005951
-0.006370
-0.006801
-0.007242
-0.007694
-0.008157
-0.008630
-0.009113
-0.009606
-0.010109
-0.010621
-0.011141
-0.011671
-0.012209
-0.012755
-0.013308
-0.013870
-0.014438
-0.015013
-0.015595
-0.016183
-0.016777
-0.017376
-0.017981
-0.018591
-0.019205
-0.019824
-0.020447
-0.021074
-0.021703
-0.022337
-0.022973
-0.023611
-0.024252
-0.024895
-0.025539
-0.026185
-0.026832
-0.027481
-0.028130
-0.028779
-0.029428
-0.030078
-0.030727
-0.031376
-0.032023
-0.032670
-0.033316
-0.033961
-0.034604
-0.035245
-0.035885
-0.036522
-0.037157
-0.037790
-0.038420
-0.039048
-0.039672
-0.040294
-0.040909
-0.040906
-0.040902
-0.040899
-0.040895
-0.040892
-0.040888
-0.040884
-0.040880
-0.000021
-0.000016
-0.000013
-0.000009
-0.000007
-0.000004
-0.000003
-0.000002
-0.000001
-0.000158
-0.000158
-0.000159
-0.000161
-0.000163
-0.000166
-0.000169
-0.000173
-0.000177
-0.000327
-0.000327
-0.000328
-0.000330
-0.000332
-0.000335
-0.000338
-0.000342
-0.000346
-0.000508
-0.000509
-0.000510
-0.000511
-0.000513
-0.000516
-0.000519
-0.000523
-0.000527
-0.000703
-0.000703
-0.000704
-0.000705
-0.000707
-0.000710
-0.000713
-0.000717
-0.000721
-0.000909
-0.000910
-0.000911
-0.000912
-0.000914
-0.000916
-0.000920
-0.000923
-0.000927
-0.001129
-0.001129
-0.001130
-0.001132
-0.001133
-0.001136
-0.001139
-0.001142
-0.001146
-0.001362
-0.001362
-0.001363
-0.001364
-0.001366
-0.001368
-0.001371
-0.001375
-0.001379
-0.001607
-0.001607
-0.001608
-0.001609
-0.001611
-0.001613
-0.001616
-0.001620
-0.001624
-0.001865
-0.001866
-0.001866
-0.001867
-0.001869
-0.001871
-0.001874
-0.001877
-0.001881
-0.002137
-0.002137
-0.002137
-0.002138
-0.002140
-0.002142
-0.002145
-0.002148
-0.002152
-0.002421
-0.002421
-0.002421
-0.002422
-0.002424
-0.002426
-0.002428
-0.002432
-0.002435
-0.002718
-0.002717
-0.002718
-0.002719
-0.002720
-0.002722
-0.002725
-0.002728
-0.002732
-0.003027
-0.003027
-0.003027
-0.003028
-0.003030
-0.003032
-0.003034
-0.003037
-0.003041
-0.003349
-0.003349
-0.003349
-0.003350
-0.003352
-0.003353
-0.003356
-0.003359
-0.003362
-0.003684
-0.003684
-0.003684
-0.003685
-0.003686
-0.003688
-0.003690
-0.003693
-0.003697
-0.004031
-0.004031
-0.004031
-0.004032
-0.004033
-0.004035
-0.004037
-0.004040
-0.004043
-0.004391
-0.004391
-0.004391
-0.004391
-0.004393
-0.004394
-0.004396
-0.004399
-0.004402
-0.004763
-0.004762
-0.004762
-0.004763
-0.004764
-0.004766
-0.004768
-0.004770
-0.004773
-0.005147
-0.005146
-0.005146
-0.005147
-0.005148
-0.005149
-0.005151
-0.005154
-0.005157
-0.005543
-0.005542
-0.005542
-0.005542
-0.005543
-0.005544
-0.005546
-0.005549
-0.005552
-0.005950
-0.005949
-0.005949
-0.005949
-0.005950
-0.005951
-0.005953
-0.005956
-0.005958
-0.006369
-0.006368
-0.006368
-0.006368
-0.006369
-0.006370
-0.006372
-0.006374
-0.006377
-0.006799
-0.006798
-0.006798
-0.006798
-0.006799
-0.006800
-0.006801
-0.006804
-0.006806
-0.007241
-0.007240
-0.007239
-0.007239
-0.007240
-0.007241
-0.007242
-0.007244
-0.007247
-0.007693
-0.007692
-0.007691
-0.007691
-0.007692
-0.007692
-0.007694
-0.007696
-0.007698
-0.008155
-0.008154
-0.008154
-0.008154
-0.008154
-0.008155
-0.008156
-0.008158
-0.008160
-0.008628
-0.008627
-0.008627
-0.008626
-0.008627
-0.008627
-0.008629
-0.008630
-0.008632
-0.009112
-0.009110
-0.009109
-0.009109
-0.009109
-0.009110
-0.009111
-0.009113
-0.009115
-0.009605
-0.009603
-0.009602
-0.009602
-0.009602
-0.009603
-0.009604
-0.009605
-0.009607
-0.010107
-0.010106
-0.010105
-0.010104
-0.010104
-0.010105
-0.010106
-0.010107
-0.010109
-0.010619
-0.010617
-0.010616
-0.010616
-0.010616
-0.010616
-0.010617
-0.010618
-0.010620
-0.011139
-0.011138
-0.011137
-0.011136
-0.011136
-0.011136
-0.011137
-0.011138
-0.011140
-0.011669
-0.011667
-0.011666
-0.011666
-0.011665
-0.011665
-0.011666
-0.011667
-0.011668
-0.012207
-0.012205
-0.012204
-0.012203
-0.012203
-0.012203
-0.012203
-0.012204
-0.012205
-0.012753
-0.012751
-0.012750
-0.012749
-0.012748
-0.012748
-0.012749
-0.012749
-0.012751
-0.013306
-0.013305
-0.013303
-0.013302
-0.013302
-0.013302
-0.013302
-0.013302
-0.013304
-0.013868
-0.013866
-0.013864
-0.013863
-0.013863
-0.013862
-0.013862
-0.013863
-0.013864
-0.014436
-0.014434
-0.014432
-0.014431
-0.014431
-0.014430
-0.014430
-0.014431
-0.014431
-0.015011
-0.015009
-0.015008
-0.015006
-0.015005
-0.015005
-0.015005
-0.015005
-0.015006
-0.015593
-0.015591
-0.015589
-0.015588
-0.015587
-0.015586
-0.015586
-0.015586
-0.015587
-0.016181
-0.016179
-0.016177
-0.016176
-0.016175
-0.016174
-0.016174
-0.016174
-0.016174
-0.016774
-0.016772
-0.016771
-0.016769
-0.016768
-0.016767
-0.016767
-0.016767
-0.016767
-0.017374
-0.017372
-0.017370
-0.017369
-0.017367
-0.017366
-0.017366
-0.017366
-0.017366
-0.017979
-0.017976
-0.017975
-0.017973
-0.017972
-0.017971
-0.017970
-0.017970
-0.017970
-0.018588
-0.018586
-0.018584
-0.018582
-0.018581
-0.018580
-0.018579
-0.018579
-0.018579
-0.019203
-0.019200
-0.019198
-0.019197
-0.019195
-0.019194
-0.019193
-0.019193
-0.019192
-0.019821
-0.019819
-0.019817
-0.019815
-0.019814
-0.019812
-0.019812
-0.019811
-0.019810
-0.020444
-0.020442
-0.020440
-0.020438
-0.020436
-0.020435
-0.020434
-0.020433
-0.020432
-0.021071
-0.021068
-0.021066
-0.021064
-0.021062
-0.021061
-0.021060
-0.021059
-0.021058
-0.021701
-0.021698
-0.021696
-0.021694
-0.021692
-0.021691
-0.021689
-0.021688
-0.021688
-0.022334
-0.022331
-0.022329
-0.022327
-0.022325
-0.022323
-0.022322
-0.022321
-0.022320
-0.022970
-0.022967
-0.022965
-0.022963
-0.022961
-0.022959
-0.022958
-0.022956
-0.022955
-0.023608
-0.023606
-0.023603
-0.023601
-0.023599
-0.023597
-0.023596
-0.023594
-0.023593
-0.024249
-0.024246
-0.024244
-0.024242
-0.024240
-0.024238
-0.024236
-0.024235
-0.024233
-0.024892
-0.024889
-0.024887
-0.024884
-0.024882
-0.024880
-0.024878
-0.024877
-0.024875
-0.025536
-0.025534
-0.025531
-0.025529
-0.025526
-0.025524
-0.025522
-0.025521
-0.025519
-0.026182
-0.026180
-0.026177
-0.026175
-0.026172
-0.026170
-0.026168
-0.026166
-0.026165
-0.026830
-0.026827
-0.026824
-0.026822
-0.026819
-0.026817
-0.026815
-0.026813
-0.026811
-0.027478
-0.027475
-0.027472
-0.027470
-0.027467
-0.027465
-0.027463
-0.027461
-0.027459
-0.028127
-0.028124
-0.028121
-0.028118
-0.028116
-0.028113
-0.028111
-0.028109
-0.028107
-0.028776
-0.028773
-0.028770
-0.028767
-0.028765
-0.028762
-0.028760
-0.028758
-0.028756
-0.029425
-0.029422
-0.029419
-0.029417
-0.029414
-0.029411
-0.029409
-0.029407
-0.029404
-0.030075
-0.030072
-0.030069
-0.030066
-0.030063
-0.030060
-0.030058
-0.030056
-0.030053
-0.030724
-0.030721
-0.030718
-0.030715
-0.030712
-0.030709
-0.030707
-0.030704
-0.030702
-0.031372
-0.031369
-0.031366
-0.031363
-0.031361
-0.031358
-0.031355
-0.031352
-0.031350
-0.032020
-0.032017
-0.032014
-0.032011
-0.032008
-0.032005
-0.032003
-0.032000
-0.031997
-0.032667
-0.032664
-0.032661
-0.032658
-0.032655
-0.032652
-0.032649
-0.032647
-0.032644
-0.033313
-0.033310
-0.033307
-0.033304
-0.033301
-0.033298
-0.033295
-0.033292
-0.033289
-0.033958
-0.033954
-0.033951
-0.033948
-0.033945
-0.033942
-0.033939
-0.033936
-0.033933
-0.034601
-0.034597
-0.034594
-0.034591
-0.034588
-0.034585
-0.034582
-0.034579
-0.034576
-0.035242
-0.035239
-0.035235
-0.035232
-0.035229
-0.035226
-0.035223
-0.035220
-0.035216
-0.035881
-0.035878
-0.035875
-0.035871
-0.035868
-0.035865
-0.035862
-0.035859
-0.035855
-0.036519
-0.036515
-0.036512
-0.036509
-0.036505
-0.036502
-0.036499
-0.036496
-0.036492
-0.037154
-0.037150
-0.037147
-0.037144
-0.037140
-0.037137
-0.037134
-0.037130
-0.037127
-0.037787
-0.037783
-0.037780
-0.037776
-0.037773
-0.037770
-0.037766
-0.037763
-0.037759
-0.038417
-0.038413
-0.038410
-0.038407
-0.038403
-0.038400
-0.038396
-0.038393
-0.038389
-0.039044
-0.039041
-0.039038
-0.039034
-0.039030
-0.039027
-0.039023
-0.039020
-0.039016
-0.039669
-0.039666
-0.039662
-0.039659
-0.039655
-0.039651
-0.039648
-0.039644
-0.039641
-0.040291
-0.040287
-0.040284
-0.040280
-0.040277
-0.040273
-0.040270
-0.040266
-0.040262
SCALARS strain_2 float
LOOKUP_TABLE default
0.000556
0.000343
0.000343
0.000343
0.000344
0.000343
0.000344
0.000344
0.000344
0.000344
0.000345
0.000344
0.000344
0.000345
0.000345
0.000346
0.000346
0.000347
0.000348
0.000348
0.000349
0.000350
0.000351
0.000351
0.000352
0.000353
0.000355
0.000356
0.000357
0.000358
0.000360
0.000361
0.000362
0.000364
0.000366
0.000367
0.000368
0.000371
0.000373
0.000375
0.000378
0.000379
0.000382
0.000385
0.000388
0.000390
0.000392
0.000395
0.000399
0.000402
0.000405
0.000408
0.000412
0.000415
0.000419
0.000422
0.000427
0.000430
0.000435
0.000439
0.000443
0.000448
0.000452
0.000456
0.000461
0.000466
0.000470
0.000477
0.000482
0.000485
0.000492
0.000497
0.000503
0.000508
0.000514
0.000520
0.000526
0.000532
0.000537
0.000544
0.000550
0.001048
0.001061
0.001061
0.001062
0.001063
0.001064
0.001065
0.001064
0.001066
0.001067
0.001067
0.001067
0.001068
0.001069
0.001070
0.001069
0.001071
0.001070
0.001072
0.001072
0.001073
0.001073
0.001073
0.001074
0.001074
0.001075
0.001075
0.001075
0.001075
0.001075
0.001075
0.001076
0.001077
0.001076
0.001076
0.001077
0.001077
0.001077
0.001077
0.001077
0.001077
0.001076
0.001076
0.001076
0.001076
0.001076
0.001076
0.001075
0.001076
0.001074
0.001075
0.001074
0.001073
0.001073
0.001073
0.001072
0.001072
0.001071
0.001070
0.001070
0.001070
0.001070
0.001067
0.001068
0.001067
0.001066
0.001065
0.001064
0.001063
0.001062
0.001061
0.001060
0.001058
0.001058
0.001057
0.001055
0.001054
0.001053
0.001052
0.001050
0.001050
0.000978
0.000907
0.000837
0.000766
0.000696
0.000626
0.000555
0.000484
0.000414
0.000607
0.000658
0.000707
0.000759
0.000809
0.000860
0.000910
0.000961
0.001012
0.001011
0.000959
0.000909
0.000857
0.000806
0.000755
0.000704
0.000653
0.000601
0.001011
0.000959
0.000908
0.000856
0.000803
0.000752
0.000700
0.000648
0.000596
0.001011
0.000959
0.000907
0.000853
0.000801
0.000747
0.000696
0.000643
0.000590
0.001011
0.000957
0.000905
0.000852
0.000798
0.000745
0.000692
0.000638
0.000585
0.001011
0.000957
0.000903
0.000850
0.000795
0.000741
0.000688
0.000633
0.000581
0.001010
0.000957
0.000902
0.000847
0.000793
0.000738
0.000683
0.000629
0.000575
0.001011
0.000955
0.000900
0.000845
0.000791
0.000734
0.000679
0.000625
0.000569
0.001011
0.000955
0.000899
0.000842
0.000787
0.000733
0.000676
0.000620
0.000565
0.001011
0.000955
0.000899
0.000841
0.000785
0.000728
0.000673
0.000615
0.000558
0.001011
0.000954
0.000897
0.000839
0.000782
0.000726
0.000668
0.000611
0.000555
0.001011
0.000953
0.000895
0.000838
0.000780
0.000723
0.000665
0.000606
0.000549
0.001011
0.000953
0.000894
0.000837
0.000778
0.000719
0.000662
0.000602
0.000545
0.001012
0.000952
0.000893
0.000834
0.000776
0.000716
0.000657
0.000599
0.000540
0.001010
0.000951
0.000891
0.000833
0.000774
0.000714
0.000655
0.000595
0.000536
0.001011
0.000951
0.000891
0.000830
0.000771
0.000711
0.000652
0.000591
0.000531
0.001011
0.000950
0.000889
0.000829
0.000769
0.000708
0.000648
0.000587
0.000527
0.001010
0.000950
0.000888
0.000827
0.000766
0.000705
0.000644
0.000583
0.000522
0.001011
0.000949
0.000888
0.000827
0.000764
0.000703
0.000641
0.000580
0.000518
0.001010
0.000949
0.000886
0.000825
0.000763
0.000700
0.000638
0.000576
0.000514
0.001010
0.000948
0.000885
0.000823
0.000760
0.000698
0.000635
0.000572
0.000511
0.001011
0.000947
0.000885
0.000821
0.000758
0.000695
0.000633
0.000569
0.000507
0.001010
0.000947
0.000883
0.000820
0.000756
0.000693
0.000629
0.000566
0.000502
0.001010
0.000947
0.000882
0.000817
0.000754
0.000690
0.000626
0.000562
0.000499
0.001010
0.000945
0.000882
0.000817
0.000752
0.000688
0.000624
0.000559
0.000494
0.001010
0.000945
0.000880
0.000816
0.000751
0.000686
0.000620
0.000557
0.000491
0.001010
0.000944
0.000879
0.000814
0.000749
0.000684
0.000618
0.000553
0.000487
0.001010
0.000944
0.000879
0.000813
0.000747
0.000681
0.000616
0.000551
0.000484
0.001009
0.000943
0.000877
0.000811
0.000746
0.000680
0.000613
0.000547
0.000481
0.001009
0.000943
0.000877
0.000810
0.000744
0.000677
0.000611
0.000545
0.000478
0.001009
0.000943
0.000877
0.000809
0.000742
0.000676
0.000609
0.000542
0.000475
0.001009
0.000941
0.000875
0.000808
0.000741
0.000673
0.000607
0.000540
0.000472
0.001009
0.000942
0.000875
0.000807
0.000739
0.000671
0.000604
0.000536
0.000469
0.001009
0.000941
0.000872
0.000805
0.000738
0.000670
0.000602
0.000534
0.000466
0.001008
0.000941
0.000872
0.000804
0.000735
0.000668
0.000600
0.000532
0.000464
0.001008
0.000940
0.000872
0.000804
0.000735
0.000667
0.000598
0.000529
0.000461
0.001008
0.000939
0.000871
0.000802
0.000733
0.000665
0.000596
0.000527
0.000459
0.001008
0.000939
0.000869
0.000801
0.000731
0.000663
0.000594
0.000525
0.000455
0.001008
0.000938
0.000869
0.000800
0.000731
0.000661
0.000593
0.000523
0.000453
0.001007
0.000938
0.000868
0.000799
0.000729
0.000660
0.000591
0.000521
0.000452
0.001006
0.000937
0.000868
0.000798
0.000728
0.000659
0.000589
0.000519
0.000450
0.001006
0.000937
0.000866
0.000797
0.000727
0.000657
0.000587
0.000518
0.000447
0.001006
0.000936
0.000865
0.000796
0.000725
0.000655
0.000586
0.000516
0.000445
0.001006
0.000935
0.000866
0.000794
0.000724
0.000654
0.000584
0.000513
0.000443
0.001006
0.000935
0.000864
0.000794
0.000723
0.000653
0.000583
0.000513
0.000441
0.001006
0.000934
0.000864
0.000794
0.000722
0.000652
0.000581
0.000510
0.000439
0.001005
0.000933
0.000863
0.000792
0.000721
0.000650
0.000580
0.000509
0.000438
0.001005
0.000934
0.000863
0.000791
0.000720
0.000649
0.000579
0.000508
0.000438
0.001003
0.000933
0.000861
0.000791
0.000719
0.000649
0.000577
0.000506
0.000435
0.001003
0.000932
0.000861
0.000789
0.000718
0.000647
0.000576
0.000505
0.000433
0.001002
0.000931
0.000860
0.000789
0.000718
0.000646
0.000575
0.000504
0.000432
0.001002
0.000932
0.000859
0.000788
0.000717
0.000645
0.000575
0.000502
0.000431
0.001002
0.000930
0.000858
0.000786
0.000716
0.000644
0.000572
0.000501
0.000430
0.001001
0.000929
0.000858
0.000786
0.000715
0.000643
0.000572
0.000500
0.000428
0.001000
0.000929
0.000857
0.000786
0.000714
0.000642
0.000570
0.000499
0.000428
0.001000
0.000928
0.000857
0.000785
0.000713
0.000642
0.000569
0.000497
0.000426
0.000999
0.000928
0.000855
0.000784
0.000712
0.000640
0.000569
0.000496
0.000425
0.000999
0.000926
0.000854
0.000783
0.000711
0.000640
0.000568
0.000496
0.000424
0.000998
0.000926
0.000854
0.000783
0.000711
0.000639
0.000567
0.000496
0.000423
0.000998
0.000926
0.000854
0.000781
0.000710
0.000638
0.000566
0.000494
0.000422
0.000996
0.000925
0.000852
0.000781
0.000709
0.000637
0.000565
0.000493
0.000422
0.000996
0.000924
0.000852
0.000781
0.000708
0.000636
0.000564
0.000493
0.000421
0.000995
0.000924
0.000851
0.000779
0.000708
0.000636
0.000564
0.000491
0.000420
0.000995
0.000922
0.000851
0.000779
0.000706
0.000635
0.000563
0.000491
0.000419
0.000994
0.000921
0.000850
0.000779
0.000706
0.000634
0.000563
0.000491
0.000419
0.000993
0.000921
0.000849
0.000778
0.000706
0.000633
0.000562
0.000490
0.000420
0.000992
0.000919
0.000848
0.000776
0.000705
0.000633
0.000562
0.000489
0.000417
0.000991
0.000919
0.000848
0.000776
0.000704
0.000632
0.000560
0.000489
0.000417
0.000990
0.000919
0.000847
0.000775
0.000704
0.000632
0.000560
0.000488
0.000417
0.000989
0.000918
0.000846
0.000775
0.000702
0.000631
0.000560
0.000487
0.000416
0.000989
0.000917
0.000845
0.000774
0.000702
0.000631
0.000559
0.000487
0.000415
0.000988
0.000917
0.000844
0.000773
0.000702
0.000630
0.000559
0.000487
0.000416
0.000987
0.000915
0.000843
0.000772
0.000701
0.000629
0.000558
0.000487
0.000415
0.000986
0.000914
0.000843
0.000772
0.000701
0.000629
0.000558
0.000487
0.000415
0.000985
0.000914
0.000842
0.000771
0.000700
0.000628
0.000557
0.000486
0.000415
0.000983
0.000912
0.000840
0.000771
0.000699
0.000629
0.000557
0.000486
0.000414
0.000983
0.000911
0.000840
0.000770
0.000698
0.000626
0.000557
0.000485
0.000415
0.000981
0.000910
0.000840
0.000769
0.000698
0.000627
0.000556
0.000486
0.000414
0.000980
0.000909
0.000839
0.000768
0.000697
0.000626
0.000555
0.000484
0.000415
0.000979
0.000907
0.000838
0.000767
0.000697
0.000626
0.000555
0.000485
0.000414
SCALARS strain_3 float
LOOKUP_TABLE default
0.000207
0.013587
0.013395
0.013202
0.013008
0.012814
0.012619
0.012421
0.012224
0.012026
0.011827
0.011627
0.011426
0.011225
0.011023
0.010821
0.010618
0.010415
0.010211
0.010008
0.009804
0.009600
0.009395
0.009191
0.008986
0.008782
0.008579
0.008375
0.008172
0.007969
0.007766
0.007565
0.007364
0.007165
0.006965
0.006767
0.006570
0.006374
0.006179
0.005985
0.005794
0.005603
0.005413
0.005227
0.005041
0.004858
0.004676
0.004497
0.004320
0.004146
0.003972
0.003803
0.003635
0.003470
0.003308
0.003149
0.002993
0.002839
0.002688
0.002541
0.002397
0.002256
0.002119
0.001985
0.001854
0.001727
0.001604
0.001485
0.001368
0.001256
0.001147
0.001043
0.000941
0.000845
0.000751
0.000662
0.000577
0.000495
0.000417
0.000343
0.000273
0.013239
-0.000110
-0.000047
0.000020
0.000091
0.000167
0.000245
0.000328
0.000416
0.000506
0.000601
0.000701
0.000803
0.000910
0.001020
0.001134
0.001252
0.001374
0.001499
0.001628
0.001760
0.001897
0.002036
0.002179
0.002325
0.002474
0.002627
0.002782
0.002941
0.003102
0.003266
0.003432
0.003602
0.003774
0.003949
0.004125
0.004304
0.004485
0.004668
0.004853
0.005040
0.005229
0.005419
0.005611
0.005805
0.006000
0.006196
0.006393
0.006591
0.006791
0.006992
0.007193
0.007395
0.007598
0.007801
0.008004
0.008209
0.008413
0.008618
0.008822
0.009028
0.009233
0.009437
0.009643
0.009847
0.010051
0.010256
0.010459
0.010662
0.010865
0.011067
0.011269
0.011469
0.011669
0.011869
0.012068
0.012265
0.012462
0.012658
0.012853
0.013047
0.013274
0.013309
0.013344
0.013379
0.013413
0.013448
0.013483
0.013517
0.013552
0.000174
0.000142
0.000110
0.000078
0.000046
0.000015
-0.000017
-0.000048
-0.000079
-0.000016
0.000015
0.000047
0.000079
0.000111
0.000143
0.000176
0.000208
0.000241
0.000051
0.000083
0.000115
0.000147
0.000180
0.000212
0.000244
0.000277
0.000310
0.000123
0.000155
0.000187
0.000220
0.000252
0.000285
0.000317
0.000351
0.000384
0.000198
0.000231
0.000263
0.000296
0.000329
0.000361
0.000394
0.000428
0.000461
0.000278
0.000310
0.000343
0.000376
0.000409
0.000442
0.000475
0.000509
0.000543
0.000361
0.000394
0.000427
0.000460
0.000493
0.000527
0.000560
0.000594
0.000628
0.000448
0.000481
0.000515
0.000548
0.000581
0.000615
0.000649
0.000683
0.000717
0.000540
0.000573
0.000606
0.000640
0.000673
0.000707
0.000741
0.000776
0.000810
0.000634
0.000668
0.000702
0.000736
0.000770
0.000804
0.000838
0.000872
0.000907
0.000734
0.000767
0.000801
0.000835
0.000869
0.000904
0.000938
0.000973
0.001007
0.000837
0.000871
0.000904
0.000939
0.000973
0.001008
0.001042
0.001077
0.001112
0.000943
0.000977
0.001012
0.001046
0.001081
0.001115
0.001150
0.001185
0.001220
0.001054
0.001088
0.001123
0.001157
0.001192
0.001227
0.001262
0.001297
0.001333
0.001168
0.001203
0.001237
0.001273
0.001307
0.001342
0.001377
0.001413
0.001448
0.001287
0.001322
0.001356
0.001391
0.001426
0.001461
0.001497
0.001532
0.001568
0.001408
0.001443
0.001479
0.001513
0.001549
0.001584
0.001619
0.001655
0.001691
0.001535
0.001569
0.001604
0.001639
0.001675
0.001711
0.001746
0.001782
0.001818
0.001664
0.001698
0.001734
0.001769
0.001805
0.001840
0.001876
0.001912
0.001948
0.001796
0.001831
0.001867
0.001902
0.001938
0.001974
0.002010
0.002046
0.002082
0.001932
0.001967
0.002003
0.002038
0.002075
0.002111
0.002147
0.002183
0.002220
0.002072
0.002107
0.002142
0.002179
0.002214
0.002251
0.002287
0.002324
0.002360
0.002214
0.002250
0.002286
0.002322
0.002358
0.002394
0.002431
0.002467
0.002504
0.002361
0.002397
0.002432
0.002469
0.002504
0.002541
0.002578
0.002615
0.002651
0.002510
0.002546
0.002582
0.002618
0.002655
0.002691
0.002728
0.002765
0.002801
0.002663
0.002699
0.002735
0.002771
0.002808
0.002844
0.002881
0.002918
0.002955
0.002818
0.002854
0.002890
0.002927
0.002963
0.003000
0.003037
0.003074
0.003112
0.002977
0.003013
0.003049
0.003086
0.003122
0.003159
0.003196
0.003234
0.003271
0.003138
0.003174
0.003211
0.003247
0.003284
0.003321
0.003358
0.003395
0.003433
0.003302
0.003339
0.003375
0.003412
0.003449
0.003486
0.003523
0.003560
0.003597
0.003469
0.003505
0.003543
0.003579
0.003616
0.003654
0.003690
0.003728
0.003765
0.003639
0.003675
0.003712
0.003749
0.003785
0.003823
0.003860
0.003897
0.003934
0.003811
0.003847
0.003884
0.003921
0.003959
0.003995
0.004033
0.004070
0.004107
0.003985
0.004022
0.004059
0.004096
0.004133
0.004170
0.004208
0.004245
0.004282
0.004162
0.004198
0.004236
0.004272
0.004310
0.004347
0.004384
0.004422
0.004460
0.004341
0.004377
0.004415
0.004452
0.004489
0.004526
0.004563
0.004601
0.004639
0.004521
0.004559
0.004596
0.004633
0.004670
0.004707
0.004745
0.004782
0.004820
0.004705
0.004743
0.004780
0.004816
0.004853
0.004891
0.004928
0.004966
0.005004
0.004890
0.004928
0.004964
0.005001
0.005038
0.005076
0.005114
0.005151
0.005189
0.005078
0.005114
0.005152
0.005188
0.005226
0.005263
0.005301
0.005339
0.005376
0.005266
0.005303
0.005340
0.005378
0.005415
0.005452
0.005490
0.005528
0.005565
0.005456
0.005494
0.005531
0.005568
0.005605
0.005643
0.005680
0.005718
0.005756
0.005648
0.005685
0.005722
0.005760
0.005798
0.005834
0.005872
0.005910
0.005948
0.005842
0.005879
0.005917
0.005954
0.005991
0.006029
0.006066
0.006104
0.006141
0.006037
0.006074
0.006111
0.006148
0.006186
0.006223
0.006261
0.006298
0.006336
0.006233
0.006270
0.006307
0.006345
0.006382
0.006419
0.006457
0.006494
0.006532
0.006430
0.006468
0.006504
0.006541
0.006579
0.006617
0.006654
0.006692
0.006729
0.006629
0.006666
0.006703
0.006740
0.006777
0.006815
0.006852
0.006890
0.006928
0.006829
0.006866
0.006902
0.006940
0.006977
0.007015
0.007052
0.007089
0.007127
0.007029
0.007065
0.007102
0.007140
0.007177
0.007214
0.007252
0.007289
0.007327
0.007229
0.007267
0.007304
0.007341
0.007378
0.007415
0.007453
0.007490
0.007527
0.007432
0.007469
0.007506
0.007543
0.007580
0.007617
0.007655
0.007692
0.007729
0.007634
0.007671
0.007708
0.007746
0.007782
0.007820
0.007857
0.007894
0.007932
0.007837
0.007875
0.007912
0.007949
0.007986
0.008023
0.008060
0.008097
0.008135
0.008041
0.008078
0.008115
0.008152
0.008189
0.008226
0.008264
0.008300
0.008337
0.008245
0.008282
0.008319
0.008356
0.008393
0.008430
0.008467
0.008505
0.008542
0.008449
0.008487
0.008523
0.008560
0.008597
0.008634
0.008672
0.008708
0.008745
0.008655
0.008691
0.008728
0.008765
0.008802
0.008838
0.008876
0.008912
0.008949
0.008859
0.008896
0.008932
0.008969
0.009007
0.009043
0.009080
0.009117
0.009154
0.009064
0.009101
0.009138
0.009174
0.009211
0.009248
0.009284
0.009322
0.009358
0.009269
0.009306
0.009342
0.009379
0.009416
0.009453
0.009489
0.009526
0.009562
0.009474
0.009511
0.009547
0.009584
0.009620
0.009657
0.009693
0.009730
0.009767
0.009679
0.009715
0.009751
0.009788
0.009825
0.009861
0.009898
0.009934
0.009971
0.009883
0.009919
0.009956
0.009992
0.010029
0.010065
0.010102
0.010138
0.010175
0.010087
0.010123
0.010160
0.010197
0.010233
0.010269
0.010305
0.010343
0.010378
0.010291
0.010328
0.010363
0.010400
0.010437
0.010473
0.010509
0.010546
0.010582
0.010495
0.010531
0.010567
0.010603
0.010640
0.010676
0.010712
0.010749
0.010784
0.010698
0.010734
0.010770
0.010806
0.010842
0.010878
0.010914
0.010951
0.010987
0.010900
0.010937
0.010973
0.011009
0.011045
0.011081
0.011117
0.011152
0.011189
0.011103
0.011138
0.011175
0.011210
0.011246
0.011282
0.011318
0.011354
0.011390
0.011304
0.011340
0.011376
0.011411
0.011447
0.011483
0.011519
0.011555
0.011591
0.011505
0.011541
0.011576
0.011612
0.011648
0.011684
0.011719
0.011756
0.011791
0.011705
0.011741
0.011776
0.011812
0.011848
0.011883
0.011919
0.011954
0.011990
0.011904
0.011940
0.011976
0.012011
0.012046
0.012082
0.012118
0.012153
0.012188
0.012103
0.012138
0.012173
0.012209
0.012244
0.012280
0.012316
0.012351
0.012386
0.012301
0.012335
0.012371
0.012407
0.012442
0.012477
0.012512
0.012548
0.012583
0.012497
0.012533
0.012568
0.012604
0.012638
0.012673
0.012708
0.012744
0.012779
0.012693
0.012728
0.012764
0.012798
0.012834
0.012869
0.012904
0.012939
0.012973
0.012888
0.012923
0.012958
0.012993
0.013028
0.013063
0.013098
0.013133
0.013167
0.013081
0.013117
0.013151
0.013187
0.013221
0.013256
0.013291
0.013326
0.013360
SCALARS stress_1 float
LOOKUP_TABLE default
384.590148
-312785.716777
-308049.139503
-303289.968479
-298507.641205
-293704.688931
-288880.361657
-284036.534383
-279175.082109
-274296.817335
-269402.333811
-264492.569037
-259572.085513
-254637.820739
-249694.649714
-244742.822440
-239784.745166
-234819.292892
-229850.871868
-224880.700844
-219910.686070
-214941.827546
-209975.156522
-205014.954248
-200061.783224
-195117.549700
-190185.159926
-185265.207652
-180361.880378
-175474.178104
-170607.475829
-165761.742305
-160940.321281
-156145.900257
-151380.572983
-146643.964459
-141942.543435
-137276.997411
-132648.138887
-128060.405363
-123515.546839
-119015.907065
-114564.423541
-110161.565017
-105811.581493
-101516.816719
-97279.708194
-93101.443420
-88984.803646
-84932.538872
-80947.117848
-77030.353074
-73183.088300
-69409.854776
-65712.058752
-62090.606478
-58548.247954
-55087.608180
-51708.968406
-48415.641132
-45209.282608
-42088.049084
-39058.221809
-36119.082035
-33271.473511
-30516.802487
-27856.443963
-25291.710439
-22823.133165
-20451.024641
-18176.228617
-15999.682593
-13921.292819
-11940.434295
-10058.825771
-8275.748497
-6590.827473
-5002.906449
-3512.485424
-2118.189400
-820.330876
-312329.589216
1121.186459
-78.297065
-1373.061839
-2764.826613
-4251.903887
-5836.856161
-7519.995935
-9302.323209
-11181.212983
-13159.884008
-15237.867532
-17414.069806
-19687.990830
-22060.286854
-24529.395378
-27093.441402
-29755.081176
-32510.658450
-35360.048224
-38300.500498
-41332.234022
-44453.311296
-47663.669820
-50959.497094
-54340.761868
-57804.526643
-61350.728917
-64974.712441
-68676.445965
-72453.241989
-76303.600513
-80225.115287
-84213.380061
-88271.144835
-92391.378359
-96574.580633
-100817.407907
-105116.891431
-109470.312455
-113878.702229
-118335.092003
-122840.481778
-127391.371552
-131984.511326
-136617.713600
-141289.197124
-145996.899398
-150737.695422
-155509.335196
-160310.256220
-165137.677244
-169988.317018
-174861.706792
-179754.127816
-184665.173840
-189590.501114
-194529.453388
-199479.468163
-204438.201687
-209404.153961
-214374.481235
-219350.308509
-224327.167033
-229302.744307
-234276.665331
-239247.523855
-244212.413629
-249170.115903
-254119.318177
-259058.082951
-263985.066475
-268899.143749
-273798.877273
-278683.704548
-283550.719322
-288398.890346
-293228.280120
-298037.701144
-302824.778418
-307588.980692
-312376.592597
-312423.127228
-312470.193109
-312516.790240
-312562.918622
-312607.547003
-312652.675384
-312697.335015
-312742.119646
476.718529
565.253160
648.475291
728.009922
803.888303
875.422935
943.988816
1006.679697
1065.870578
-134.144196
-193.428827
-257.900958
-325.748090
-397.438971
-472.879852
-553.883233
-638.292864
-727.421245
-1429.315220
-1488.256101
-1553.165732
-1621.012864
-1693.391245
-1769.613376
-1851.273007
-1936.088888
-2025.029769
-2819.986244
-2879.427125
-2944.993007
-3013.621388
-3085.562269
-3163.253150
-3244.412781
-3329.166162
-3419.013293
-4307.844768
-4368.285649
-4433.070281
-4501.604912
-4575.139543
-4651.642924
-4733.427555
-4818.868436
-4908.121817
-5892.984542
-5953.550424
-6018.241305
-6086.869686
-6160.779317
-6239.188948
-6319.911079
-6405.508210
-6496.386591
-7577.124316
-7637.596448
-7701.787329
-7772.165710
-7844.419091
-7922.578722
-8003.582103
-8091.241734
-8180.995116
-9358.014091
-9418.829972
-9484.239603
-9553.805484
-9627.121365
-9705.687246
-9786.878127
-9873.194008
-9963.478640
-11238.497615
-11299.625996
-11365.879377
-11434.476508
-11507.979889
-11586.577020
-11668.392901
-11755.115033
-11846.087164
-13217.387389
-13278.359520
-13343.831651
-13414.491282
-13487.682163
-13566.060544
-13648.563925
-13735.692307
-13825.508188
-15295.152163
-15356.624294
-15421.346425
-15491.631056
-15565.540687
-15645.419068
-15728.141200
-15813.894581
-15904.210462
-17471.166937
-17533.264068
-17598.017449
-17669.177080
-17742.180461
-17821.277592
-17903.718474
-17990.378105
-18079.756486
-19745.150461
-19807.060092
-19873.219723
-19943.473104
-20017.788985
-20095.479867
-20177.826998
-20265.392879
-20355.896260
-22117.071485
-22178.981116
-22244.578247
-22315.144128
-22388.835009
-22467.932141
-22549.623022
-22636.563903
-22727.192284
-24587.336259
-24648.433390
-24714.030521
-24783.565152
-24858.131033
-24937.134415
-25018.981546
-25106.047427
-25196.457058
-27152.351033
-27213.573164
-27279.514045
-27349.267426
-27423.145808
-27502.117939
-27584.496320
-27671.312201
-27761.753082
-29813.209557
-29873.775438
-29940.653819
-30010.688450
-30083.973082
-30162.726463
-30244.979844
-30330.826975
-30422.111606
-32567.974331
-32629.446462
-32695.543593
-32766.234475
-32841.331606
-32918.491237
-32999.682118
-33086.497999
-33177.470130
-35417.176605
-35479.086236
-35544.870867
-35614.780499
-35688.846380
-35766.381011
-35848.446892
-35934.606523
-36024.609904
-38358.285129
-38420.257260
-38485.510642
-38555.514023
-38628.892404
-38707.083285
-38788.742916
-38874.777547
-38964.093428
-41390.299903
-41451.803284
-41516.962916
-41587.122547
-41661.032178
-41738.441809
-41820.288940
-41904.917321
-41995.170702
-44512.095927
-44573.911809
-44638.571440
-44708.043571
-44782.140702
-44859.081583
-44940.397464
-45025.838345
-45115.122976
-47721.391951
-47783.926583
-47848.336214
-47917.652095
-47990.749226
-48068.752607
-48148.974738
-48234.446869
-48322.856501
-51017.562976
-51078.910107
-51144.350988
-51214.166869
-51286.420250
-51363.798631
-51444.395762
-51528.117893
-51617.683775
-54398.546500
-54459.987381
-54525.115762
-54594.806643
-54667.247524
-54743.407155
-54824.160536
-54907.882668
-54994.979799
-57862.905024
-57923.564655
-57989.130536
-58057.133917
-58130.074798
-58205.984429
-58286.675310
-58369.834942
-58457.494573
-61407.982298
-61468.266929
-61533.364060
-61601.304941
-61673.902072
-61749.467953
-61829.408835
-61913.349716
-62000.134347
-65031.965822
-65092.562953
-65158.097584
-65225.944715
-65298.073096
-65374.107727
-65452.829859
-65535.364490
-65622.305371
-68733.605596
-68794.733977
-68859.081108
-68927.178239
-68999.806620
-69073.935001
-69152.563383
-69234.816764
-69320.820145
-72510.339120
-72571.342501
-72635.283382
-72703.068013
-72775.227644
-72848.887276
-72927.453157
-73009.862788
-73094.647419
-76359.760144
-76421.388525
-76485.391906
-76552.864037
-76623.554918
-76697.683300
-76775.936681
-76856.877562
-76941.724693
-80281.556168
-80342.372049
-80406.187930
-80473.816311
-80544.100943
-80617.260574
-80694.888955
-80775.829836
-80860.051967
-84271.164692
-84331.574323
-84395.046454
-84461.956085
-84532.834467
-84606.244098
-84681.778729
-84762.282110
-84845.972991
-88327.335716
-88387.901597
-88451.092478
-88517.439610
-88587.005491
-88660.977622
-88736.731003
-88816.453134
-88899.175265
-92447.631740
-92507.853871
-92570.607252
-92637.360634
-92707.114015
-92779.461146
-92854.839527
-92933.999158
-93016.033789
-96631.365264
-96690.931145
-96753.622027
-96820.156658
-96888.660039
-96960.225920
-97035.760551
-97113.701432
-97195.079813
-100873.817538
-100933.195919
-100995.480551
-101062.046432
-101129.331063
-101200.178194
-101275.337825
-101353.091206
-101434.157087
-105172.988562
-105232.273194
-105294.745325
-105359.436206
-105428.002087
-105497.817968
-105571.977599
-105648.824730
-105729.328111
-109528.128336
-109586.287968
-109647.728849
-109713.169730
-109781.391861
-109850.957742
-109925.148623
-110001.183254
-110079.655386
-113934.049361
-113993.833992
-114055.274873
-114119.122004
-114186.312885
-114256.597516
-114329.194647
-114404.604278
-114481.732660
-118391.345385
-118450.817516
-118511.477147
-118575.824278
-118642.265159
-118711.424790
-118783.928171
-118858.712803
-118935.934934
-122896.266409
-122955.269790
-123014.835671
-123079.464052
-123145.623683
-123213.502064
-123285.880445
-123358.602577
-123435.918458
-127446.312433
-127504.565814
-127565.100445
-127628.572576
-127693.825957
-127762.235588
-127833.457720
-127906.586101
-127982.620732
-132039.139707
-132097.455588
-132157.990219
-132220.212350
-132285.621981
-132353.906612
-132424.066244
-132495.944625
-132571.135506
-136673.466981
-136730.407862
-136790.254993
-136852.914624
-136917.230505
-136984.015136
-137053.612268
-137125.521899
-137200.681530
-141343.950505
-141401.672636
-141461.644767
-141523.710648
-141586.901529
-141653.873661
-141722.377042
-141793.474173
-141867.946304
-146052.371529
-146109.281160
-146169.190791
-146230.506672
-146293.353803
-146359.075935
-146426.673066
-146498.145197
-146569.554828
-150792.230053
-150849.264684
-150908.299315
-150969.271446
-151032.337328
-151097.778209
-151165.344090
-151234.534971
-151305.475852
-155565.119827
-155621.060708
-155679.314089
-155739.692470
-155802.039602
-155867.980483
-155933.515114
-156002.174745
-156072.740626
-160364.822101
-160420.419232
-160479.391363
-160540.019745
-160601.241876
-160665.901507
-160731.061138
-160798.752019
-160868.630400
-165191.024375
-165247.777756
-165304.968637
-165364.722019
-165426.381650
-165489.353781
-165554.544662
-165621.298043
-165690.645174
-170041.914149
-170098.073780
-170155.139662
-170215.174293
-170275.427674
-170338.368555
-170402.715686
-170469.062817
-170536.597448
-174915.835173
-174970.744804
-175027.091936
-175086.251567
-175145.754948
-175209.195829
-175272.105460
-175338.077591
-175405.393472
-179807.599947
-179863.509579
-179918.512960
-179978.235091
-180036.675972
-180098.991853
-180162.276484
-180227.279865
-180292.814496
-184718.083471
-184772.555603
-184829.183984
-184886.156115
-184946.253246
-185006.444127
-185068.728758
-185132.513389
-185198.485521
-189643.535746
-189697.820377
-189753.230008
-189811.045889
-189869.299270
-189929.646401
-189991.931032
-190054.496913
-190119.281545
-194581.644270
-194635.897651
-194690.869782
-194748.591913
-194806.157794
-194865.536175
-194926.664556
-194989.230438
-195053.140069
-199531.409044
-199584.724925
-199640.822056
-199697.012937
-199754.672568
-199813.457199
-199873.710580
-199935.370212
-199997.467343
-204490.267568
-204544.239699
-204598.711830
-204654.558961
-204711.906092
-204769.378223
-204829.381604
-204890.134986
-204951.794617
-209457.032342
-209509.598223
-209563.820354
-209620.417485
-209676.045866
-209734.299247
-209793.240129
-209852.993510
-209912.965641
-214427.859616
-214480.456747
-214534.210128
-214589.213509
-214646.529390
-214702.032771
-214760.848653
-214819.414534
-214880.042915
-219402.561890
-219454.940271
-219508.443652
-219562.790783
-219619.356664
-219675.360046
-219732.582177
-219790.335558
-219849.963939
-224378.232914
-224430.517545
-224483.708426
-224538.055557
-224593.652688
-224648.874820
-224705.753201
-224763.694082
-224822.541213
-229354.653938
-229406.469819
-229458.379450
-229513.289081
-229567.573713
-229622.670844
-229679.111725
-229735.396356
-229792.649737
-234328.231212
-234380.047093
-234432.300474
-234485.616355
-234539.650987
-234594.029368
-234649.157749
-234704.411130
-234761.727011
-239298.495986
-239349.968117
-239402.033998
-239454.318630
-239507.759511
-239561.575392
-239615.735023
-239672.082154
-239727.054285
-244261.448260
-244313.951641
-244365.392522
-244417.770904
-244470.493035
-244523.558916
-244578.093547
-244632.034428
-244687.756559
-249220.494284
-249271.185165
-249321.657297
-249374.316928
-249426.570309
-249478.354940
-249532.170821
-249586.017952
-249641.021333
-254169.071558
-254219.512439
-254270.640821
-254321.894202
-254373.460083
-254425.307214
-254478.185595
-254530.688976
-254584.286107
-259108.180082
-259158.370964
-259208.186845
-259259.533976
-259310.724857
-259362.353238
-259414.731619
-259466.172500
-259519.238381
-264034.694856
-264084.885738
-264134.607869
-264185.111250
-264235.583381
-264287.305512
-264337.683893
-264389.531024
-264441.721906
-268948.647131
-268998.431762
-269048.966393
-269098.657274
-269148.098155
-269197.914036
-269250.261167
-269300.139548
-269351.580430
-273848.786905
-273897.884036
-273947.449917
-273996.515798
-274046.737929
-274096.053810
-274146.119691
-274196.810573
-274246.532704
-278732.395429
-278781.273810
-278829.589691
-278879.405572
-278927.908953
-278977.787334
-279026.290715
-279076.231597
-279125.516228
-283599.535203
-283647.663584
-283696.854465
-283744.732846
-283793.329977
-283842.427108
-283890.774239
-283939.933871
-283989.062252
-288447.893727
-288495.959608
-288544.494239
-288592.747620
-288639.844751
-288688.348132
-288736.226514
-288784.979895
-288831.608276
-293277.189751
-293324.974382
-293372.602763
-293420.637394
-293468.547025
-293515.862906
-293563.210038
-293610.244669
-293658.123050
-298085.267025
-298133.239156
-298180.898787
-298227.245918
-298275.218049
-298322.065181
-298369.099812
-298416.040693
-298461.669074
-302872.781799
-302919.160180
-302966.444811
-303014.041942
-303061.076573
-303107.017455
-303152.927086
-303199.117967
-303244.871348
-307635.734073
-307682.299954
-307730.084585
-307776.212966
-307823.153848
-307868.938479
-307914.660610
-307960.038991
-308004.854872
SCALARS stress_2 float
LOOKUP_TABLE default
4265.921891
-41910.753596
-41234.595152
-40553.936708
-39886.278265
-39195.619821
-38503.461378
-37816.302934
-37128.644491
-36423.486047
-35730.827603
-35031.169160
-34326.010716
-33620.352273
-32917.693829
-32207.535385
-31497.376942
-30783.218498
-30079.060055
-29361.901611
-28645.243168
-27936.584724
-27226.426280
-26506.767837
-25792.609393
-25084.950950
-24380.292506
-23663.134062
-22958.975619
-22257.317175
-21551.158732
-20849.500288
-20153.841845
-19456.183401
-18771.524957
-18086.366514
-17398.208070
-16719.049627
-16041.891183
-15375.232740
-14715.074296
-14055.915852
-13403.257409
-12760.098965
-12120.940522
-11489.782078
-10864.623634
-10245.965191
-9636.806747
-9042.148304
-8441.989860
-7863.331417
-7301.172973
-6725.014529
-6169.356086
-5635.697642
-5095.039199
-4574.380755
-4065.722311
-3561.063868
-3073.905424
-2602.246981
-2139.088537
-1679.930094
-1242.271650
-809.613206
-396.454763
10.203681
403.862124
772.520568
1140.679011
1487.837455
1826.995899
2153.154342
2458.312786
2759.971229
3044.129673
3312.788117
3568.946560
3815.105004
4047.263447
-36560.622234
8148.553252
7986.394809
7800.236365
7610.077922
7404.919478
7183.261034
6950.602591
6694.444147
6433.785704
6160.627260
5865.968816
5565.810373
5245.151929
4917.493486
4567.335042
4201.176599
3827.518155
3440.359711
3040.201268
2623.542824
2194.384381
1749.225937
1300.067493
836.409050
349.250606
-137.907837
-640.066281
-1153.224724
-1676.383168
-2210.541612
-2759.200055
-3319.858499
-3882.516942
-4461.675386
-5045.333829
-5638.992273
-6246.150717
-6850.809160
-7469.467604
-8098.626047
-8740.284491
-9375.442935
-10030.101378
-10681.759822
-11344.918265
-12007.576709
-12683.735152
-13354.393596
-14041.052040
-14729.210483
-15416.368927
-16107.527370
-16807.685814
-17505.344257
-18210.002701
-18916.661145
-19619.319588
-20327.478032
-21040.136475
-21746.294919
-22462.453363
-23177.611806
-23887.770250
-24609.428693
-25314.087137
-26031.745580
-26748.904024
-27459.562468
-28167.720911
-28880.879355
-29590.037798
-30300.196242
-31006.354686
-31700.013129
-32408.171573
-33103.330016
-33800.488460
-34491.146903
-35185.305347
-35871.463791
-37100.235370
-37627.348506
-38159.961643
-38707.074779
-39237.187915
-39771.301051
-40303.914187
-40842.527323
-41374.640459
4657.535027
5048.148163
5431.261299
5825.374435
6215.487572
6603.600708
6991.713844
7376.326980
7760.940116
7587.781673
7202.168536
6811.055400
6408.942264
6018.329128
5633.215992
5231.602856
4833.489720
4441.376583
7409.123229
7009.510093
6615.396957
6215.783821
5815.170684
5415.557548
5016.444412
4614.831276
4212.718140
7208.464785
6811.851649
6407.738513
6001.625377
5600.512241
5198.399105
4791.785969
4379.672832
3978.059696
6996.806342
6591.693206
6183.580070
5780.466933
5365.353797
4960.740661
4552.627525
4136.014389
3727.401253
6774.147898
6364.034762
5941.421626
5536.308490
5116.195354
4707.582218
4294.969081
3875.355945
3454.242809
6531.489455
6121.376318
5699.763182
5281.150046
4860.036910
4446.923774
4024.810638
3604.697502
3180.584366
6283.831011
5860.217875
5435.104739
5013.491603
4592.878466
4168.765330
3736.652194
3320.539058
2882.925922
6014.672567
5584.059431
5156.946295
4731.833159
4301.220023
3874.106887
3440.993751
3013.880614
2577.767478
5733.014124
5299.400988
4865.787852
4435.174715
4001.061579
3575.448443
3135.335307
2695.722171
2260.109035
5432.855680
4996.242544
4565.629408
4121.516272
3689.903136
3252.790000
2804.176863
2368.063727
1924.450591
5125.197237
4684.084101
4243.470964
3803.357828
3360.244692
2915.631556
2471.018420
2027.405284
1578.292148
4801.538793
4353.425657
3908.312521
3470.199385
3014.586249
2568.973112
2120.859976
1680.246840
1224.633704
4461.880350
4010.767213
3567.654077
3113.540941
2665.927805
2209.314669
1753.701533
1302.588397
850.975260
4110.721906
3654.108770
3206.995634
2746.882498
2294.769361
1834.656225
1378.543089
923.929953
466.316817
3741.563462
3291.450326
2829.837190
2373.224054
1910.610918
1454.497782
989.884646
526.771509
68.158373
3365.405019
2905.291883
2447.178747
1977.565610
1513.952474
1044.839338
583.726202
125.113066
-343.000070
2967.746575
2514.633439
2042.020303
1571.907167
1114.294031
636.180895
171.567758
-297.545378
-772.158514
2571.588132
2102.474996
1631.361859
1163.248723
690.135587
211.522451
-256.590685
-736.203821
-1207.816957
2150.429688
1677.816552
1202.203416
723.090280
252.477144
-220.635993
-707.249129
-1174.862265
-1654.975401
1723.271245
1242.658108
760.044972
283.931836
-197.181300
-675.794436
-1150.407572
-1635.520708
-2123.633845
1273.112801
791.499665
311.886529
-173.726607
-651.339744
-1136.452880
-1620.066016
-2110.179152
-2589.792288
815.454357
331.341221
-152.771915
-640.385051
-1125.998187
-1615.611323
-2095.224459
-2591.337596
-3074.450732
342.795914
-144.817222
-629.430359
-1117.043495
-1605.656631
-2099.769767
-2592.882903
-3081.496039
-3569.609175
-132.362530
-627.475666
-1117.588802
-1609.201938
-2105.315074
-2594.928211
-3094.541347
-3585.654483
-4079.767619
-628.020973
-1126.134110
-1613.247246
-2120.360382
-2611.473518
-3103.086654
-3608.199790
-4099.312926
-4600.926063
-1135.679417
-1629.792553
-2131.905689
-2628.518825
-3130.131962
-3633.745098
-4128.858234
-4634.471370
-5128.584506
-1645.837861
-2151.950997
-2652.564133
-3154.177269
-3659.290405
-4164.403541
-4658.516677
-5172.629814
-5672.242950
-2177.496304
-2683.609440
-3181.722576
-3691.835713
-4194.948849
-4699.561985
-5206.175121
-5718.288257
-6223.401393
-2722.654748
-3225.267884
-3730.381020
-4231.494156
-4748.107292
-5254.720428
-5767.333565
-6275.446701
-6781.559837
-3265.813191
-3775.426327
-4283.039464
-4794.652600
-5309.765736
-5816.378872
-6331.992008
-6841.105144
-7349.718280
-3822.471635
-4338.084771
-4848.197907
-5359.811043
-5871.924179
-6389.537316
-6908.150452
-7419.263588
-7927.876724
-4395.130078
-4913.243215
-5418.856351
-5939.969487
-6457.582623
-6968.195759
-7485.808895
-7998.422031
-8527.035168
-4973.288522
-5494.401658
-6005.514794
-6521.127930
-7044.241067
-7565.354203
-8082.467339
-8604.080475
-9117.693611
-5559.446966
-6080.060102
-6601.673238
-7123.286374
-7649.899510
-8162.512646
-8681.625782
-9200.238919
-9726.352055
-6154.605409
-6681.218545
-7205.331681
-7724.944818
-8250.057954
-8770.171090
-9295.284226
-9818.897362
-10340.010498
-6766.763853
-7283.876989
-7808.990125
-8333.103261
-8862.216397
-9382.329533
-9913.442670
-10439.055806
-10956.168942
-7375.922296
-7899.535432
-8430.148569
-8952.261705
-9485.374841
-10006.987977
-10534.601113
-11059.214249
-11587.827385
-8002.580740
-8526.193876
-9056.807012
-9582.420148
-10107.533284
-10641.646421
-11168.259557
-11705.372693
-12229.485829
-8623.739184
-9156.352320
-9686.965456
-10217.578592
-10745.691728
-11277.804864
-11810.918000
-12340.031136
-12869.144273
-9267.397627
-9798.010763
-10328.123899
-10862.237036
-11383.850172
-11922.963308
-12454.076444
-12994.689580
-13526.302716
-9910.056071
-10447.169207
-10977.782343
-11510.395479
-12039.008615
-12579.621751
-13107.234888
-13644.348024
-14182.961160
-10559.214514
-11091.327650
-11628.940787
-12157.553923
-12695.167059
-13229.280195
-13771.893331
-14303.506467
-14842.119603
-11216.872958
-11757.986094
-12283.599230
-12824.212366
-13360.825502
-13899.438639
-14440.051775
-14973.664911
-15502.278047
-11883.031401
-12416.144538
-12950.757674
-13486.370810
-14027.483946
-14561.097082
-15100.210218
-15641.323354
-16182.936491
-12545.689845
-13081.302981
-13624.916117
-14163.529253
-14693.142390
-15242.255526
-15780.868662
-16317.981798
-16853.594934
-13215.848289
-13752.461425
-14300.074561
-14838.687697
-15379.800833
-15914.913969
-16460.027105
-17002.140242
-17539.253378
-13897.006732
-14436.619868
-14983.733004
-15518.346141
-16062.459277
-16600.572413
-17143.185549
-17677.798685
-18226.911821
-14583.165176
-15121.278312
-15663.391448
-16204.004584
-16742.117720
-17289.730856
-17832.843993
-18374.957129
-18917.570265
-15263.823619
-15807.436755
-16353.049892
-16890.663028
-17436.776164
-17979.889300
-18527.002436
-19063.115572
-19612.728708
-15957.482063
-16505.595199
-17046.208335
-17584.821471
-18126.934607
-18671.047744
-19216.160880
-19763.274016
-20306.387152
-16654.640506
-17193.253643
-17740.366779
-18276.979915
-18824.093051
-19370.706187
-19913.319323
-20466.432459
-21005.045596
-17344.798950
-17892.912086
-18437.025222
-18979.138358
-19527.751495
-20071.364631
-20619.977767
-21167.590903
-21709.204039
-18046.957394
-18599.070530
-19138.183666
-19684.296802
-20235.409938
-20781.023074
-21321.136210
-21864.749347
-22416.862483
-18751.615837
-19292.728973
-19839.842109
-20387.955246
-20936.568382
-21478.181518
-22021.294654
-22570.407790
-23118.020926
-19460.274281
-20000.887417
-20548.500553
-21095.113689
-21641.226825
-22187.839961
-22731.453098
-23282.066234
-23826.679370
-20160.432724
-20706.545861
-21258.158997
-21808.272133
-22348.885269
-22896.498405
-23445.111541
-23991.224677
-24540.337813
-20878.091168
-21418.204304
-21964.817440
-22517.430576
-23066.543713
-23613.656849
-24155.769985
-24701.883121
-25250.996257
-21582.749612
-22127.862748
-22672.475884
-23233.589020
-23771.702156
-24313.815292
-24868.428428
-25412.541565
-25957.654701
-22294.408055
-22843.521191
-23385.134327
-23941.247464
-24485.360600
-25031.973736
-25577.586872
-26130.700008
-26674.313144
-23011.566499
-23556.179635
-24103.292771
-24648.905907
-25199.019043
-25742.632179
-26288.745316
-26841.858452
-27389.471588
-23719.724942
-24266.338078
-24809.951215
-25358.064351
-25910.177487
-26456.790623
-27006.903759
-27554.016895
-28097.130031
-24430.883386
-24983.996522
-25534.109658
-26077.222794
-26627.835930
-27174.449067
-27719.562203
-28265.675339
-28818.788475
-25152.541829
-25698.154966
-26241.268102
-26793.381238
-27341.494374
-27885.607510
-28431.720646
-28980.833782
-29527.946919
-25863.700273
-26406.813409
-26959.426545
-27502.539681
-28049.652818
-28595.765954
-29142.879090
-29695.492226
-30238.605362
-26574.858717
-27125.971853
-27665.584989
-28221.198125
-28758.811261
-29313.924397
-29857.037533
-30399.650670
-30948.263806
-27287.017160
-27838.630296
-28378.243432
-28929.356569
-29471.469705
-30023.582841
-30567.195977
-31115.809113
-31655.922249
-27997.175604
-28550.288740
-29095.401876
-29640.515012
-30187.128148
-30727.241284
-31273.354421
-31818.967557
-32357.580693
-28712.834047
-29256.447183
-29802.060320
-30343.673456
-30896.286592
-31439.899728
-31986.012864
-32532.126000
-33071.739136
-29425.992491
-29963.105627
-30508.218763
-31062.331899
-31604.445035
-32147.058172
-32691.171308
-33235.284444
-33786.397580
-30130.150934
-30671.264071
-31218.377207
-31757.990343
-32310.103479
-32849.216615
-33392.829751
-33940.442887
-34484.556024
-30837.809378
-31387.422514
-31924.035650
-32469.648786
-33011.261923
-33551.375059
-34097.988195
-34642.101331
-35186.714467
-31541.467822
-32085.580958
-32623.694094
-33165.807230
-33711.920366
-34252.533502
-34798.646638
-35343.759775
-35886.372911
-32240.626265
-32782.739401
-33324.852538
-33871.465674
-34414.578810
-34956.191946
-35496.305082
-36039.418218
-36582.531354
-32949.284709
-33484.397845
-34029.010981
-34572.624117
-35112.237253
-35648.850390
-36194.463526
-36737.576662
-37276.689798
-33642.943152
-34187.556289
-34727.669425
-35262.782561
-35802.895697
-36344.508833
-36885.121969
-37424.235105
-37973.348242
-34344.101596
-34878.214732
-35417.827868
-35961.941004
-36500.054141
-37040.167277
-37580.780413
-38119.393549
-38658.506685
-35029.760040
-35569.373176
-36115.486312
-36644.099448
-37181.712584
-37726.325720
-38262.438856
-38804.051993
-39344.665129
-35724.418483
-36258.031619
-36800.644755
-37331.757892
-37872.871028
-38407.984164
-38951.597300
-39489.210436
-40024.323572
-36407.576927
-36947.690063
-37484.803199
-38018.416335
-38559.529471
-39093.142607
-39629.755744
-40169.368880
-40702.482016
SCALARS stress_3 float
LOOKUP_TABLE default
1369.131073
89899.686996
88634.781609
87358.001223
86076.720836
84786.940449
83493.910063
82190.129676
80883.599290
79568.818903
78253.413517
76929.758130
75605.477744
74273.072357
72935.416971
71601.886584
70255.106198
68908.700811
67562.920425
66217.515038
64866.484652
63516.829265
62162.298879
60809.893492
59459.863105
58105.582719
56763.552332
55414.896946
54070.616559
52728.711173
51390.680786
50056.150400
48724.995013
47401.589627
46083.434240
44771.528854
43462.998467
42168.593081
40881.562694
39600.782308
38326.626921
37069.096534
35818.816148
34580.035761
33353.380375
32140.099988
30939.319602
29753.039215
28581.758829
27421.853442
26279.698056
25152.542669
24044.637283
22958.106896
21879.201510
20830.796123
19795.140737
18775.485350
17780.829964
16808.174577
15856.269190
14922.738804
14010.458417
13127.678031
12262.272644
11422.117258
10608.461871
9816.306485
9047.526098
8303.120712
7585.465325
6892.934939
6223.404552
5584.249166
4966.093779
4374.438393
3808.033006
3268.752619
2755.097233
2268.816846
1806.286460
87615.023322
-731.532600
-312.627214
135.028173
604.558559
1102.338946
1626.994332
2173.399719
2749.805105
3351.585492
3977.990878
4632.021265
5313.176651
6017.832038
6749.987424
7505.642811
8285.048197
9092.953584
9920.858971
10775.639357
11651.419744
12552.450130
13471.980517
14417.260903
15381.916290
16374.946676
17383.352063
18412.382449
19459.662836
20523.693222
21611.223609
22715.003995
23836.534382
24975.439768
26130.595155
27296.875542
28481.655928
29681.061315
30893.591701
32117.872088
33352.777474
34604.682861
35863.463247
37134.743634
38414.274020
39706.804407
41003.209793
42309.615180
43621.020566
44940.675953
46265.206339
47602.486726
48939.517112
50276.172499
51623.327886
52970.983272
54322.263659
55675.294045
57029.699432
58383.479818
59741.510205
61101.415591
62454.945978
63812.226364
65163.756751
66513.412137
67866.942524
69214.347910
70557.753297
71902.533683
73242.189070
74572.844457
75903.999843
77228.030230
78547.310616
79858.841003
81168.746389
82471.901776
83768.807162
85058.837549
86338.367935
87844.689689
88075.106057
88302.897424
88534.188791
88763.105159
88987.396526
89219.312893
89446.104261
89672.895628
1153.839706
942.298339
725.631971
514.715604
302.674236
94.632869
-112.283498
-321.324866
-526.241233
-105.585847
101.580521
308.996888
524.038256
734.954623
947.120990
1157.537358
1372.703725
1589.995093
339.694540
550.110907
762.402275
973.068642
1186.235010
1402.276377
1616.317744
1834.359112
2051.650479
814.974927
1025.641294
1237.557661
1449.849029
1665.765396
1883.181763
2099.223131
2316.764498
2537.430866
1310.130313
1529.421680
1739.213048
1955.254415
2171.795783
2388.212150
2603.878517
2828.669885
3048.586252
1839.410700
2051.827067
2269.243434
2485.159802
2701.576169
2921.617536
3141.408904
3363.075271
3584.741639
2391.066086
2604.857453
2821.273821
3041.065188
3260.731556
3478.522923
3703.314290
3926.355658
4151.147025
2967.721473
3186.262840
3403.179207
3622.095575
3848.386942
4065.678310
4289.344677
4515.386044
4739.302412
3569.126859
3786.918227
4007.709594
4229.500961
4454.542329
4674.958696
4900.875063
5126.916431
5356.207798
4200.157246
4419.198613
4642.364980
4865.906348
5088.447715
5313.364083
5540.655450
5768.696817
5998.238185
4855.062632
5078.104000
5298.895367
5524.311734
5751.603102
5975.644469
6203.810837
6432.352204
6665.018571
5535.468019
5757.259386
5982.175754
6211.217121
6435.883488
6663.174856
6893.716223
7120.132590
7353.173958
6241.748405
6466.539773
6692.706140
6922.872507
7148.538875
7378.455242
7607.996610
7838.037977
8073.329344
6971.403792
7201.820159
7430.236527
7655.652894
7886.569261
8115.235629
8346.276996
8579.818363
8815.609731
7730.934178
7958.225546
8188.766913
8413.183280
8649.349648
8879.266015
9114.682383
9344.098750
9579.015117
8514.964565
8738.630932
8970.172300
9200.963667
9434.380034
9664.296402
9900.712769
10134.379137
10369.295504
9320.869951
9547.786319
9780.327686
10009.869054
10243.160421
10475.701788
10713.868156
10948.159523
11188.825890
10150.275338
10379.441705
10613.358073
10845.024440
11077.690807
11315.482175
11548.523542
11786.314910
12027.106277
11005.180724
11237.222092
11468.263459
11705.429827
11938.346194
12173.887561
12408.303929
12649.845296
12887.511663
11880.836111
12115.627478
12348.418846
12586.460213
12821.751580
13057.542948
13294.709315
13536.375683
13772.417050
12785.866498
13019.032865
13252.949232
13487.615600
13723.531967
13961.698334
14199.614702
14438.906069
14682.697437
13706.396884
13942.438251
14176.354619
14416.270986
14649.437354
14891.353721
15129.770088
15371.061456
15612.602823
14653.552271
14888.718638
15126.510005
15360.926373
15600.842740
15839.259107
16080.675475
16322.716842
16564.633210
15622.082657
15856.624024
16096.040392
16330.831759
16573.998127
16812.039494
17052.455861
17294.122229
17537.913596
16608.988044
16848.779411
17085.195778
17323.612146
17561.903513
17806.319881
18045.861248
18289.402615
18529.068983
17619.268430
17853.809798
18093.351165
18335.517532
18575.808900
18814.975267
19061.891634
19301.808002
19546.974369
18646.798817
18887.090184
19126.006551
19365.047919
19608.839286
19851.505654
20094.047021
20338.713388
20581.379756
19693.954203
19933.995571
20173.536938
20414.328305
20659.244673
20902.536040
21146.327407
21389.868775
21633.285142
20765.859590
21004.275957
21246.067324
21489.608692
21731.025059
21970.441427
22217.857794
22460.774161
22707.315529
21852.514976
22091.556344
22332.972711
22575.389078
22819.430446
23061.596813
23306.888181
23553.804548
23801.095915
22955.795363
23196.961730
23438.378098
23680.044465
23921.710832
24168.752200
24413.543567
24658.834934
24907.876302
24077.950749
24318.867117
24560.908484
24803.449851
25051.366219
25295.407586
25538.198954
25781.740321
26034.531688
25214.981136
25458.147503
25701.563871
25946.355238
26189.896605
26434.187973
26678.979340
26927.270707
27177.312075
26371.636522
26612.302890
26855.094257
27095.635625
27345.426992
27591.718359
27835.384727
28082.551094
28330.967461
27537.791909
27781.208276
28027.999644
28270.166011
28513.707378
28760.123746
29008.290113
29255.581481
29503.747848
28726.447295
28969.738663
29212.155030
29455.821398
29700.987765
29945.529132
30193.570500
30441.236867
30689.903234
29924.727682
30167.394049
30409.560417
30654.226784
30901.143151
31146.559519
31392.850886
31641.017254
31891.558621
31135.258068
31378.299436
31624.590803
31867.632171
32114.548538
32361.339905
32605.006273
32854.047640
33104.339008
32360.163455
32601.954822
32849.746190
33093.787557
33338.953925
33585.870292
33838.536659
34081.828027
34331.369394
33598.318842
33842.360209
34087.651576
34331.317944
34577.984311
34822.775678
35074.942046
35322.858413
35569.149781
34847.599228
35092.140595
35337.306963
35583.348330
35829.014698
36076.056065
36322.222432
36571.013800
36820.305167
36108.379615
36352.795982
36597.587349
36842.128717
37088.295084
37335.711451
37587.252819
37830.669186
38080.210554
37377.160001
37622.951368
37868.367736
38114.159103
38362.075471
38603.991838
38854.658205
39101.824573
39351.490940
38660.315388
38903.356755
39150.023122
39395.689490
39639.230857
39885.897225
40136.813592
40383.604959
40633.396327
39949.845774
40193.387142
40438.428509
40681.344876
40930.261244
41179.302611
41425.968978
41670.010346
41921.051713
41245.751161
41491.167528
41737.583895
41983.250263
42229.791630
42470.207998
42723.999365
42970.790732
43219.207100
42553.406547
42799.572915
43042.239282
43285.405649
43534.447017
43781.363384
44027.904752
44275.696119
44524.112486
43868.311934
44110.103301
44356.894669
44599.561036
44846.727403
45092.518771
45339.435138
45586.226505
45837.392873
45185.717320
45430.758688
45673.425055
45921.466422
46167.882790
46413.674157
46659.215525
46905.256892
47153.298259
46513.747707
46753.539074
47001.080442
47247.871809
47490.663176
47741.579544
47984.120911
48230.912278
48477.828646
47845.778093
48088.069461
48332.110828
48579.902195
48819.818563
49067.859930
49315.026298
49561.442665
49806.234032
49179.933480
49423.974847
49668.391215
49916.557582
50158.973949
50404.515317
50649.556684
50895.848052
51143.639419
50521.338866
50762.755234
51009.421601
51257.712969
51498.504336
51743.045703
51989.837071
52235.378438
52480.044805
51867.994253
52111.660620
52352.826988
52596.993355
52843.284722
53087.576090
53330.242457
53578.283825
53823.200192
53214.149639
53455.691007
53701.857374
53943.898742
54190.440109
54431.731476
54679.397844
54923.439211
55165.480578
54563.055026
54806.971393
55052.887761
55296.304128
55537.845495
55783.511863
56026.428230
56271.094598
56517.760965
55916.585413
56161.001780
56404.043147
56647.209515
56890.875882
57132.042249
57378.583617
57621.999984
57864.291352
57270.740799
57514.032166
57756.323534
57999.489901
58240.156269
58484.447636
58727.864003
58973.155371
59217.196738
58627.521186
58870.062553
59108.603920
59354.020288
59596.811655
59839.228022
60082.644390
60323.310757
60564.477125
59981.926572
60224.467939
60465.509307
60704.925674
60950.592042
61191.758409
61434.924776
61674.216144
61922.007511
61338.081959
61582.248326
61821.164693
62061.956061
62306.497428
62546.663796
62785.455163
63028.746530
63271.037898
62695.612345
62933.278713
63177.570080
63413.986447
63656.777815
63899.444182
64139.985549
64380.276917
64624.818284
64050.017732
64288.184099
64530.100466
64769.516834
65008.058201
65250.849569
65493.015936
65732.432303
65974.473671
65404.673118
65642.214486
65883.755853
66124.422220
66362.963588
66602.629955
66842.546322
67081.962690
67322.629057
66758.328505
66995.244872
67234.786239
67472.327607
67713.868974
67951.535342
68190.951709
68431.868076
68673.409444
68105.983891
68346.650259
68581.816626
68819.857993
69060.149361
69301.690728
69538.357096
69779.023463
70012.814830
69452.639278
69688.555645
69926.347013
70167.138380
70407.054747
70642.346115
70882.012482
71120.053849
71359.470217
70794.794664
71033.336032
71273.752399
71511.793766
71742.710134
71985.376501
72223.292869
72461.459236
72698.750603
72137.325051
72376.741418
72609.782786
72850.074153
73086.865520
73324.531888
73561.573255
73798.614622
74035.155990
73473.855437
73712.271805
73947.938172
74185.354540
74422.270907
74655.312274
74893.353642
75129.770009
75367.436376
74809.385824
75042.927191
75279.718559
75513.259926
75753.426293
75985.842661
76221.884028
76459.425396
76694.466763
76135.041210
76372.332578
76607.498945
76843.540313
77080.331680
77312.998047
77549.289415
77784.080782
78018.372149
77461.821597
77692.237964
77932.654332
78164.195699
78397.987066
78633.778434
78870.444801
79101.111169
79337.152536
78780.726983
79014.518351
79250.809718
79481.226086
79716.642453
79949.058820
80184.350188
80416.891555
80651.057923
80095.882370
80327.173737
80560.965105
80792.131472
81024.672840
81258.339207
81493.880574
81725.796942
81958.588309
81400.662757
81636.079124
81864.870491
82100.036859
82331.703226
82563.369593
82797.660961
83026.952328
83260.743696
82701.943143
82934.234510
83167.775878
83399.942245
83630.108613
83860.274980
84093.191347
84323.607715
84557.399082
84001.223530
84230.639897
84462.306264
84693.597632
84920.138999
85156.055366
85384.221734
85612.638101
85844.679469
85287.253916
85519.170283
85747.211651
85978.503018
86209.544386
86440.710753
86669.502120
86898.293488
87127.334855
86568.534303
86802.450670
87029.117037
87260.658405
87488.699772
87719.741140
87948.657507
88175.573874
88403.115242
