# vtk DataFile Version 2.0
Generated volume Mesh
ASCII
DATASET UNSTRUCTURED_GRID
POINTS 891 float
0.005000 0.100000 0.000000
0.005000 0.000000 0.000000
0.005000 0.001250 0.000000
0.005000 0.002500 0.000000
0.005000 0.003750 0.000000
0.005000 0.005000 0.000000
0.005000 0.006250 0.000000
0.005000 0.007500 0.000000
0.005000 0.008750 0.000000
0.005000 0.010000 0.000000
0.005000 0.011250 0.000000
0.005000 0.012500 0.000000
0.005000 0.013750 0.000000
0.005000 0.015000 0.000000
0.005000 0.016250 0.000000
0.005000 0.017500 0.000000
0.005000 0.018750 0.000000
0.005000 0.020000 0.000000
0.005000 0.021250 0.000000
0.005000 0.022500 0.000000
0.005000 0.023750 0.000000
0.005000 0.025000 0.000000
0.005000 0.026250 0.000000
0.005000 0.027500 0.000000
0.005000 0.028750 0.000000
0.005000 0.030000 0.000000
0.005000 0.031250 0.000000
0.005000 0.032500 0.000000
0.005000 0.033750 0.000000
0.005000 0.035000 0.000000
0.005000 0.036250 0.000000
0.005000 0.037500 0.000000
0.005000 0.038750 0.000000
0.005000 0.040000 0.000000
0.005000 0.041250 0.000000
0.005000 0.042500 0.000000
0.005000 0.043750 0.000000
0.005000 0.045000 0.000000
0.005000 0.046250 0.000000
0.005000 0.047500 0.000000
0.005000 0.048750 0.000000
0.005000 0.050000 0.000000
0.005000 0.051250 0.000000
0.005000 0.052500 0.000000
0.005000 0.053750 0.000000
0.005000 0.055000 0.000000
0.005000 0.056250 0.000000
0.005000 0.057500 0.000000
0.005000 0.058750 0.000000
0.005000 0.060000 0.000000
0.005000 0.061250 0.000000
0.005000 0.062500 0.000000
0.005000 0.063750 0.000000
0.005000 0.065000 0.000000
0.005000 0.066250 0.000000
0.005000 0.067500 0.000000
0.005000 0.068750 0.000000
0.005000 0.070000 0.000000
0.005000 0.071250 0.000000
0.005000 0.072500 0.000000
0.005000 0.073750 0.000000
0.005000 0.075000 0.000000
0.005000 0.076250 0.000000
0.005000 0.077500 0.000000
0.005000 0.078750 0.000000
0.005000 0.080000 0.000000
0.005000 0.081250 0.000000
0.005000 0.082500 0.000000
0.005000 0.083750 0.000000
0.005000 0.085000 0.000000
0.005000 0.086250 0.000000
0.005000 0.087500 0.000000
0.005000 0.088750 0.000000
0.005000 0.090000 0.000000
0.005000 0.091250 0.000000
0.005000 0.092500 0.000000
0.005000 0.093750 0.000000
0.005000 0.095000 0.000000
0.005000 0.096250 0.000000
0.005000 0.097500 0.000000
0.005000 0.098750 0.000000
0.000000 0.000000 0.000000
0.000000 0.100000 0.000000
0.000000 0.098750 0.000000
0.000000 0.097500 0.000000
0.000000 0.096250 0.000000
0.000000 0.095000 0.000000
0.000000 0.093750 0.000000
0.000000 0.092500 0.000000
0.000000 0.091250 0.000000
0.000000 0.090000 0.000000
0.000000 0.088750 0.000000
0.000000 0.087500 0.000000
0.000000 0.086250 0.000000
0.000000 0.085000 0.000000
0.000000 0.083750 0.000000
0.000000 0.082500 0.000000
0.000000 0.081250 0.000000
0.000000 0.080000 0.000000
0.000000 0.078750 0.000000
0.000000 0.077500 0.000000
0.000000 0.076250 0.000000
0.000000 0.075000 0.000000
0.000000 0.073750 0.000000
0.000000 0.072500 0.000000
0.000000 0.071250 0.000000
0.000000 0.070000 0.000000
0.000000 0.068750 0.000000
0.000000 0.067500 0.000000
0.000000 0.066250 0.000000
0.000000 0.065000 0.000000
0.000000 0.063750 0.000000
0.000000 0.062500 0.000000
0.000000 0.061250 0.000000
0.000000 0.060000 0.000000
0.000000 0.058750 0.000000
0.000000 0.057500 0.000000
0.000000 0.056250 0.000000
0.000000 0.055000 0.000000
0.000000 0.053750 0.000000
0.000000 0.052500 0.000000
0.000000 0.051250 0.000000
0.000000 0.050000 0.000000
0.000000 0.048750 0.000000
0.000000 0.047500 0.000000
0.000000 0.046250 0.000000
0.000000 0.045000 0.000000
0.000000 0.043750 0.000000
0.000000 0.042500 0.000000
0.000000 0.041250 0.000000
0.000000 0.040000 0.000000
0.000000 0.038750 0.000000
0.000000 0.037500 0.000000
0.000000 0.036250 0.000000
0.000000 0.035000 0.000000
0.000000 0.033750 0.000000
0.000000 0.032500 0.000000
0.000000 0.031250 0.000000
0.000000 0.030000 0.000000
0.000000 0.028750 0.000000
0.000000 0.027500 0.000000
0.000000 0.026250 0.000000
0.000000 0.025000 0.000000
0.000000 0.023750 0.000000
0.000000 0.022500 0.000000
0.000000 0.021250 0.000000
0.000000 0.020000 0.000000
0.000000 0.018750 0.000000
0.000000 0.017500 0.000000
0.000000 0.016250 0.000000
0.000000 0.015000 0.000000
0.000000 0.013750 0.000000
0.000000 0.012500 0.000000
0.000000 0.011250 0.000000
0.000000 0.010000 0.000000
0.000000 0.008750 0.000000
0.000000 0.007500 0.000000
0.000000 0.006250 0.000000
0.000000 0.005000 0.000000
0.000000 0.003750 0.000000
0.000000 0.002500 0.000000
0.000000 0.001250 0.000000
0.000500 0.000000 0.000000
0.001000 0.000000 0.000000
0.001500 0.000000 0.000000
0.002000 0.000000 0.000000
0.002500 0.000000 0.000000
0.003000 0.000000 0.000000
0.003500 0.000000 0.000000
0.004000 0.000000 0.000000
0.004500 0.000000 0.000000
0.004500 0.100000 0.000000
0.004000 0.100000 0.000000
0.003500 0.100000 0.000000
0.003000 0.100000 0.000000
0.002500 0.100000 0.000000
0.002000 0.100000 0.000000
0.001500 0.100000 0.000000
0.001000 0.100000 0.000000
0.000500 0.100000 0.000000
0.000500 0.098750 0.000000
0.001000 0.098750 0.000000
0.001500 0.098750 0.000000
0.002000 0.098750 0.000000
0.002500 0.098750 0.000000
0.003000 0.098750 0.000000
0.003500 0.098750 0.000000
0.004000 0.098750 0.000000
0.004500 0.098750 0.000000
0.000500 0.097500 0.000000
0.001000 0.097500 0.000000
0.001500 0.097500 0.000000
0.002000 0.097500 0.000000
0.002500 0.097500 0.000000
0.003000 0.097500 0.000000
0.003500 0.097500 0.000000
0.004000 0.097500 0.000000
0.004500 0.097500 0.000000
0.000500 0.096250 0.000000
0.001000 0.096250 0.000000
0.001500 0.096250 0.000000
0.002000 0.096250 0.000000
0.002500 0.096250 0.000000
0.003000 0.096250 0.000000
0.003500 0.096250 0.000000
0.004000 0.096250 0.000000
0.004500 0.096250 0.000000
0.000500 0.095000 0.000000
0.001000 0.095000 0.000000
0.001500 0.095000 0.000000
0.002000 0.095000 0.000000
0.002500 0.095000 0.000000
0.003000 0.095000 0.000000
0.003500 0.095000 0.000000
0.004000 0.095000 0.000000
0.004500 0.095000 0.000000
0.000500 0.093750 0.000000
0.001000 0.093750 0.000000
0.001500 0.093750 0.000000
0.002000 0.093750 0.000000
0.002500 0.093750 0.000000
0.003000 0.093750 0.000000
0.003500 0.093750 0.000000
0.004000 0.093750 0.000000
0.004500 0.093750 0.000000
0.000500 0.092500 0.000000
0.001000 0.092500 0.000000
0.001500 0.092500 0.000000
0.002000 0.092500 0.000000
0.002500 0.092500 0.000000
0.003000 0.092500 0.000000
0.003500 0.092500 0.000000
0.004000 0.092500 0.000000
0.004500 0.092500 0.000000
0.000500 0.091250 0.000000
0.001000 0.091250 0.000000
0.001500 0.091250 0.000000
0.002000 0.091250 0.000000
0.002500 0.091250 0.000000
0.003000 0.091250 0.000000
0.003500 0.091250 0.000000
0.004000 0.091250 0.000000
0.004500 0.091250 0.000000
0.000500 0.090000 0.000000
0.001000 0.090000 0.000000
0.001500 0.090000 0.000000
0.002000 0.090000 0.000000
0.002500 0.090000 0.000000
0.003000 0.090000 0.000000
0.003500 0.090000 0.000000
0.004000 0.090000 0.000000
0.004500 0.090000 0.000000
0.000500 0.088750 0.000000
0.001000 0.088750 0.000000
0.001500 0.088750 0.000000
0.002000 0.088750 0.000000
0.002500 0.088750 0.000000
0.003000 0.088750 0.000000
0.003500 0.088750 0.000000
0.004000 0.088750 0.000000
0.004500 0.088750 0.000000
0.000500 0.087500 0.000000
0.001000 0.087500 0.000000
0.001500 0.087500 0.000000
0.002000 0.087500 0.000000
0.002500 0.087500 0.000000
0.003000 0.087500 0.000000
0.003500 0.087500 0.000000
0.004000 0.087500 0.000000
0.004500 0.087500 0.000000
0.000500 0.086250 0.000000
0.001000 0.086250 0.000000
0.001500 0.086250 0.000000
0.002000 0.086250 0.000000
0.002500 0.086250 0.000000
0.003000 0.086250 0.000000
0.003500 0.086250 0.000000
0.004000 0.086250 0.000000
0.004500 0.086250 0.000000
0.000500 0.085000 0.000000
0.001000 0.085000 0.000000
0.001500 0.085000 0.000000
0.002000 0.085000 0.000000
0.002500 0.085000 0.000000
0.003000 0.085000 0.000000
0.003500 0.085000 0.000000
0.004000 0.085000 0.000000
0.004500 0.085000 0.000000
0.000500 0.083750 0.000000
0.001000 0.083750 0.000000
0.001500 0.083750 0.000000
0.002000 0.083750 0.000000
0.002500 0.083750 0.000000
0.003000 0.083750 0.000000
0.003500 0.083750 0.000000
0.004000 0.083750 0.000000
0.004500 0.083750 0.000000
0.000500 0.082500 0.000000
0.001000 0.082500 0.000000
0.001500 0.082500 0.000000
0.002000 0.082500 0.000000
0.002500 0.082500 0.000000
0.003000 0.082500 0.000000
0.003500 0.082500 0.000000
0.004000 0.082500 0.000000
0.004500 0.082500 0.000000
0.000500 0.081250 0.000000
0.001000 0.081250 0.000000
0.001500 0.081250 0.000000
0.002000 0.081250 0.000000
0.002500 0.081250 0.000000
0.003000 0.081250 0.000000
0.003500 0.081250 0.000000
0.004000 0.081250 0.000000
0.004500 0.081250 0.000000
0.000500 0.080000 0.000000
0.001000 0.080000 0.000000
0.001500 0.080000 0.000000
0.002000 0.080000 0.000000
0.002500 0.080000 0.000000
0.003000 0.080000 0.000000
0.003500 0.080000 0.000000
0.004000 0.080000 0.000000
0.004500 0.080000 0.000000
0.000500 0.078750 0.000000
0.001000 0.078750 0.000000
0.001500 0.078750 0.000000
0.002000 0.078750 0.000000
0.002500 0.078750 0.000000
0.003000 0.078750 0.000000
0.003500 0.078750 0.000000
0.004000 0.078750 0.000000
0.004500 0.078750 0.000000
0.000500 0.077500 0.000000
0.001000 0.077500 0.000000
0.001500 0.077500 0.000000
0.002000 0.077500 0.000000
0.002500 0.077500 0.000000
0.003000 0.077500 0.000000
0.003500 0.077500 0.000000
0.004000 0.077500 0.000000
0.004500 0.077500 0.000000
0.000500 0.076250 0.000000
0.001000 0.076250 0.000000
0.001500 0.076250 0.000000
0.002000 0.076250 0.000000
0.002500 0.076250 0.000000
0.003000 0.076250 0.000000
0.003500 0.076250 0.000000
0.004000 0.076250 0.000000
0.004500 0.076250 0.000000
0.000500 0.075000 0.000000
0.001000 0.075000 0.000000
0.001500 0.075000 0.000000
0.002000 0.075000 0.000000
0.002500 0.075000 0.000000
0.003000 0.075000 0.000000
0.003500 0.075000 0.000000
0.004000 0.075000 0.000000
0.004500 0.075000 0.000000
0.000500 0.073750 0.000000
0.001000 0.073750 0.000000
0.001500 0.073750 0.000000
0.002000 0.073750 0.000000
0.002500 0.073750 0.000000
0.003000 0.073750 0.000000
0.003500 0.073750 0.000000
0.004000 0.073750 0.000000
0.004500 0.073750 0.000000
0.000500 0.072500 0.000000
0.001000 0.072500 0.000000
0.001500 0.072500 0.000000
0.002000 0.072500 0.000000
0.002500 0.072500 0.000000
0.003000 0.072500 0.000000
0.003500 0.072500 0.000000
0.004000 0.072500 0.000000
0.004500 0.072500 0.000000
0.000500 0.071250 0.000000
0.001000 0.071250 0.000000
0.001500 0.071250 0.000000
0.002000 0.071250 0.000000
0.002500 0.071250 0.000000
0.003000 0.071250 0.000000
0.003500 0.071250 0.000000
0.004000 0.071250 0.000000
0.004500 0.071250 0.000000
0.000500 0.070000 0.000000
0.001000 0.070000 0.000000
0.001500 0.070000 0.000000
0.002000 0.070000 0.000000
0.002500 0.070000 0.000000
0.003000 0.070000 0.000000
0.003500 0.070000 0.000000
0.004000 0.070000 0.000000
0.004500 0.070000 0.000000
0.000500 0.068750 0.000000
0.001000 0.068750 0.000000
0.001500 0.068750 0.000000
0.002000 0.068750 0.000000
0.002500 0.068750 0.000000
0.003000 0.068750 0.000000
0.003500 0.068750 0.000000
0.004000 0.068750 0.000000
0.004500 0.068750 0.000000
0.000500 0.067500 0.000000
0.001000 0.067500 0.000000
0.001500 0.067500 0.000000
0.002000 0.067500 0.000000
0.002500 0.067500 0.000000
0.003000 0.067500 0.000000
0.003500 0.067500 0.000000
0.004000 0.067500 0.000000
0.004500 0.067500 0.000000
0.000500 0.066250 0.000000
0.001000 0.066250 0.000000
0.001500 0.066250 0.000000
0.002000 0.066250 0.000000
0.002500 0.066250 0.000000
0.003000 0.066250 0.000000
0.003500 0.066250 0.000000
0.004000 0.066250 0.000000
0.004500 0.066250 0.000000
0.000500 0.065000 0.000000
0.001000 0.065000 0.000000
0.001500 0.065000 0.000000
0.002000 0.065000 0.000000
0.002500 0.065000 0.000000
0.003000 0.065000 0.000000
0.003500 0.065000 0.000000
0.004000 0.065000 0.000000
0.004500 0.065000 0.000000
0.000500 0.063750 0.000000
0.001000 0.063750 0.000000
0.001500 0.063750 0.000000
0.002000 0.063750 0.000000
0.002500 0.063750 0.000000
0.003000 0.063750 0.000000
0.003500 0.063750 0.000000
0.004000 0.063750 0.000000
0.004500 0.063750 0.000000
0.000500 0.062500 0.000000
0.001000 0.062500 0.000000
0.001500 0.062500 0.000000
0.002000 0.062500 0.000000
0.002500 0.062500 0.000000
0.003000 0.062500 0.000000
0.003500 0.062500 0.000000
0.004000 0.062500 0.000000
0.004500 0.062500 0.000000
0.000500 0.061250 0.000000
0.001000 0.061250 0.000000
0.001500 0.061250 0.000000
0.002000 0.061250 0.000000
0.002500 0.061250 0.000000
0.003000 0.061250 0.000000
0.003500 0.061250 0.000000
0.004000 0.061250 0.000000
0.004500 0.061250 0.000000
0.000500 0.060000 0.000000
0.001000 0.060000 0.000000
0.001500 0.060000 0.000000
0.002000 0.060000 0.000000
0.002500 0.060000 0.000000
0.003000 0.060000 0.000000
0.003500 0.060000 0.000000
0.004000 0.060000 0.000000
0.004500 0.060000 0.000000
0.000500 0.058750 0.000000
0.001000 0.058750 0.000000
0.001500 0.058750 0.000000
0.002000 0.058750 0.000000
0.002500 0.058750 0.000000
0.003000 0.058750 0.000000
0.003500 0.058750 0.000000
0.004000 0.058750 0.000000
0.004500 0.058750 0.000000
0.000500 0.057500 0.000000
0.001000 0.057500 0.000000
0.001500 0.057500 0.000000
0.002000 0.057500 0.000000
0.002500 0.057500 0.000000
0.003000 0.057500 0.000000
0.003500 0.057500 0.000000
0.004000 0.057500 0.000000
0.004500 0.057500 0.000000
0.000500 0.056250 0.000000
0.001000 0.056250 0.000000
0.001500 0.056250 0.000000
0.002000 0.056250 0.000000
0.002500 0.056250 0.000000
0.003000 0.056250 0.000000
0.003500 0.056250 0.000000
0.004000 0.056250 0.000000
0.004500 0.056250 0.000000
0.000500 0.055000 0.000000
0.001000 0.055000 0.000000
0.001500 0.055000 0.000000
0.002000 0.055000 0.000000
0.002500 0.055000 0.000000
0.003000 0.055000 0.000000
0.003500 0.055000 0.000000
0.004000 0.055000 0.000000
0.004500 0.055000 0.000000
0.000500 0.053750 0.000000
0.001000 0.053750 0.000000
0.001500 0.053750 0.000000
0.002000 0.053750 0.000000
0.002500 0.053750 0.000000
0.003000 0.053750 0.000000
0.003500 0.053750 0.000000
0.004000 0.053750 0.000000
0.004500 0.053750 0.000000
0.000500 0.052500 0.000000
0.001000 0.052500 0.000000
0.001500 0.052500 0.000000
0.002000 0.052500 0.000000
0.002500 0.052500 0.000000
0.003000 0.052500 0.000000
0.003500 0.052500 0.000000
0.004000 0.052500 0.000000
0.004500 0.052500 0.000000
0.000500 0.051250 0.000000
0.001000 0.051250 0.000000
0.001500 0.051250 0.000000
0.002000 0.051250 0.000000
0.002500 0.051250 0.000000
0.003000 0.051250 0.000000
0.003500 0.051250 0.000000
0.004000 0.051250 0.000000
0.004500 0.051250 0.000000
0.000500 0.050000 0.000000
0.001000 0.050000 0.000000
0.001500 0.050000 0.000000
0.002000 0.050000 0.000000
0.002500 0.050000 0.000000
0.003000 0.050000 0.000000
0.003500 0.050000 0.000000
0.004000 0.050000 0.000000
0.004500 0.050000 0.000000
0.000500 0.048750 0.000000
0.001000 0.048750 0.000000
0.001500 0.048750 0.000000
0.002000 0.048750 0.000000
0.002500 0.048750 0.000000
0.003000 0.048750 0.000000
0.003500 0.048750 0.000000
0.004000 0.048750 0.000000
0.004500 0.048750 0.000000
0.000500 0.047500 0.000000
0.001000 0.047500 0.000000
0.001500 0.047500 0.000000
0.002000 0.047500 0.000000
0.002500 0.047500 0.000000
0.003000 0.047500 0.000000
0.003500 0.047500 0.000000
0.004000 0.047500 0.000000
0.004500 0.047500 0.000000
0.000500 0.046250 0.000000
0.001000 0.046250 0.000000
0.001500 0.046250 0.000000
0.002000 0.046250 0.000000
0.002500 0.046250 0.000000
0.003000 0.046250 0.000000
0.003500 0.046250 0.000000
0.004000 0.046250 0.000000
0.004500 0.046250 0.000000
0.000500 0.045000 0.000000
0.001000 0.045000 0.000000
0.001500 0.045000 0.000000
0.002000 0.045000 0.000000
0.002500 0.045000 0.000000
0.003000 0.045000 0.000000
0.003500 0.045000 0.000000
0.004000 0.045000 0.000000
0.004500 0.045000 0.000000
0.000500 0.043750 0.000000
0.001000 0.043750 0.000000
0.001500 0.043750 0.000000
0.002000 0.043750 0.000000
0.002500 0.043750 0.000000
0.003000 0.043750 0.000000
0.003500 0.043750 0.000000
0.004000 0.043750 0.000000
0.004500 0.043750 0.000000
0.000500 0.042500 0.000000
0.001000 0.042500 0.000000
0.001500 0.042500 0.000000
0.002000 0.042500 0.000000
0.002500 0.042500 0.000000
0.003000 0.042500 0.000000
0.003500 0.042500 0.000000
0.004000 0.042500 0.000000
0.004500 0.042500 0.000000
0.000500 0.041250 0.000000
0.001000 0.041250 0.000000
0.001500 0.041250 0.000000
0.002000 0.041250 0.000000
0.002500 0.041250 0.000000
0.003000 0.041250 0.000000
0.003500 0.041250 0.000000
0.004000 0.041250 0.000000
0.004500 0.041250 0.000000
0.000500 0.040000 0.000000
0.001000 0.040000 0.000000
0.001500 0.040000 0.000000
0.002000 0.040000 0.000000
0.002500 0.040000 0.000000
0.003000 0.040000 0.000000
0.003500 0.040000 0.000000
0.004000 0.040000 0.000000
0.004500 0.040000 0.000000
0.000500 0.038750 0.000000
0.001000 0.038750 0.000000
0.001500 0.038750 0.000000
0.002000 0.038750 0.000000
0.002500 0.038750 0.000000
0.003000 0.038750 0.000000
0.003500 0.038750 0.000000
0.004000 0.038750 0.000000
0.004500 0.038750 0.000000
0.000500 0.037500 0.000000
0.001000 0.037500 0.000000
0.001500 0.037500 0.000000
0.002000 0.037500 0.000000
0.002500 0.037500 0.000000
0.003000 0.037500 0.000000
0.003500 0.037500 0.000000
0.004000 0.037500 0.000000
0.004500 0.037500 0.000000
0.000500 0.036250 0.000000
0.001000 0.036250 0.000000
0.001500 0.036250 0.000000
0.002000 0.036250 0.000000
0.002500 0.036250 0.000000
0.003000 0.036250 0.000000
0.003500 0.036250 0.000000
0.004000 0.036250 0.000000
0.004500 0.036250 0.000000
0.000500 0.035000 0.000000
0.001000 0.035000 0.000000
0.001500 0.035000 0.000000
0.002000 0.035000 0.000000
0.002500 0.035000 0.000000
0.003000 0.035000 0.000000
0.003500 0.035000 0.000000
0.004000 0.035000 0.000000
0.004500 0.035000 0.000000
0.000500 0.033750 0.000000
0.001000 0.033750 0.000000
0.001500 0.033750 0.000000
0.002000 0.033750 0.000000
0.002500 0.033750 0.000000
0.003000 0.033750 0.000000
0.003500 0.033750 0.000000
0.004000 0.033750 0.000000
0.004500 0.033750 0.000000
0.000500 0.032500 0.000000
0.001000 0.032500 0.000000
0.001500 0.032500 0.000000
0.002000 0.032500 0.000000
0.002500 0.032500 0.000000
0.003000 0.032500 0.000000
0.003500 0.032500 0.000000
0.004000 0.032500 0.000000
0.004500 0.032500 0.000000
0.000500 0.031250 0.000000
0.001000 0.031250 0.000000
0.001500 0.031250 0.000000
0.002000 0.031250 0.000000
0.002500 0.031250 0.000000
0.003000 0.031250 0.000000
0.003500 0.031250 0.000000
0.004000 0.031250 0.000000
0.004500 0.031250 0.000000
0.000500 0.030000 0.000000
0.001000 0.030000 0.000000
0.001500 0.030000 0.000000
0.002000 0.030000 0.000000
0.002500 0.030000 0.000000
0.003000 0.030000 0.000000
0.003500 0.030000 0.000000
0.004000 0.030000 0.000000
0.004500 0.030000 0.000000
0.000500 0.028750 0.000000
0.001000 0.028750 0.000000
0.001500 0.028750 0.000000
0.002000 0.028750 0.000000
0.002500 0.028750 0.000000
0.003000 0.028750 0.000000
0.003500 0.028750 0.000000
0.004000 0.028750 0.000000
0.004500 0.028750 0.000000
0.000500 0.027500 0.000000
0.001000 0.027500 0.000000
0.001500 0.027500 0.000000
0.002000 0.027500 0.000000
0.002500 0.027500 0.000000
0.003000 0.027500 0.000000
0.003500 0.027500 0.000000
0.004000 0.027500 0.000000
0.004500 0.027500 0.000000
0.000500 0.026250 0.000000
0.001000 0.026250 0.000000
0.001500 0.026250 0.000000
0.002000 0.026250 0.000000
0.002500 0.026250 0.000000
0.003000 0.026250 0.000000
0.003500 0.026250 0.000000
0.004000 0.026250 0.000000
0.004500 0.026250 0.000000
0.000500 0.025000 0.000000
0.001000 0.025000 0.000000
0.001500 0.025000 0.000000
0.002000 0.025000 0.000000
0.002500 0.025000 0.000000
0.003000 0.025000 0.000000
0.003500 0.025000 0.000000
0.004000 0.025000 0.000000
0.004500 0.025000 0.000000
0.000500 0.023750 0.000000
0.001000 0.023750 0.000000
0.001500 0.023750 0.000000
0.002000 0.023750 0.000000
0.002500 0.023750 0.000000
0.003000 0.023750 0.000000
0.003500 0.023750 0.000000
0.004000 0.023750 0.000000
0.004500 0.023750 0.000000
0.000500 0.022500 0.000000
0.001000 0.022500 0.000000
0.001500 0.022500 0.000000
0.002000 0.022500 0.000000
0.002500 0.022500 0.000000
0.003000 0.022500 0.000000
0.003500 0.022500 0.000000
0.004000 0.022500 0.000000
0.004500 0.022500 0.000000
0.000500 0.021250 0.000000
0.001000 0.021250 0.000000
0.001500 0.021250 0.000000
0.002000 0.021250 0.000000
0.002500 0.021250 0.000000
0.003000 0.021250 0.000000
0.003500 0.021250 0.000000
0.004000 0.021250 0.000000
0.004500 0.021250 0.000000
0.000500 0.020000 0.000000
0.001000 0.020000 0.000000
0.001500 0.020000 0.000000
0.002000 0.020000 0.000000
0.002500 0.020000 0.000000
0.003000 0.020000 0.000000
0.003500 0.020000 0.000000
0.004000 0.020000 0.000000
0.004500 0.020000 0.000000
0.000500 0.018750 0.000000
0.001000 0.018750 0.000000
0.001500 0.018750 0.000000
0.002000 0.018750 0.000000
0.002500 0.018750 0.000000
0.003000 0.018750 0.000000
0.003500 0.018750 0.000000
0.004000 0.018750 0.000000
0.004500 0.018750 0.000000
0.000500 0.017500 0.000000
0.001000 0.017500 0.000000
0.001500 0.017500 0.000000
0.002000 0.017500 0.000000
0.002500 0.017500 0.000000
0.003000 0.017500 0.000000
0.003500 0.017500 0.000000
0.004000 0.017500 0.000000
0.004500 0.017500 0.000000
0.000500 0.016250 0.000000
0.001000 0.016250 0.000000
0.001500 0.016250 0.000000
0.002000 0.016250 0.000000
0.002500 0.016250 0.000000
0.003000 0.016250 0.000000
0.003500 0.016250 0.000000
0.004000 0.016250 0.000000
0.004500 0.016250 0.000000
0.000500 0.015000 0.000000
0.001000 0.015000 0.000000
0.001500 0.015000 0.000000
0.002000 0.015000 0.000000
0.002500 0.015000 0.000000
0.003000 0.015000 0.000000
0.003500 0.015000 0.000000
0.004000 0.015000 0.000000
0.004500 0.015000 0.000000
0.000500 0.013750 0.000000
0.001000 0.013750 0.000000
0.001500 0.013750 0.000000
0.002000 0.013750 0.000000
0.002500 0.013750 0.000000
0.003000 0.013750 0.000000
0.003500 0.013750 0.000000
0.004000 0.013750 0.000000
0.004500 0.013750 0.000000
0.000500 0.012500 0.000000
0.001000 0.012500 0.000000
0.001500 0.012500 0.000000
0.002000 0.012500 0.000000
0.002500 0.012500 0.000000
0.003000 0.012500 0.000000
0.003500 0.012500 0.000000
0.004000 0.012500 0.000000
0.004500 0.012500 0.000000
0.000500 0.011250 0.000000
0.001000 0.011250 0.000000
0.001500 0.011250 0.000000
0.002000 0.011250 0.000000
0.002500 0.011250 0.000000
0.003000 0.011250 0.000000
0.003500 0.011250 0.000000
0.004000 0.011250 0.000000
0.004500 0.011250 0.000000
0.000500 0.010000 0.000000
0.001000 0.010000 0.000000
0.001500 0.010000 0.000000
0.002000 0.010000 0.000000
0.002500 0.010000 0.000000
0.003000 0.010000 0.000000
0.003500 0.010000 0.000000
0.004000 0.010000 0.000000
0.004500 0.010000 0.000000
0.000500 0.008750 0.000000
0.001000 0.008750 0.000000
0.001500 0.008750 0.000000
0.002000 0.008750 0.000000
0.002500 0.008750 0.000000
0.003000 0.008750 0.000000
0.003500 0.008750 0.000000
0.004000 0.008750 0.000000
0.004500 0.008750 0.000000
0.000500 0.007500 0.000000
0.001000 0.007500 0.000000
0.001500 0.007500 0.000000
0.002000 0.007500 0.000000
0.002500 0.007500 0.000000
0.003000 0.007500 0.000000
0.003500 0.007500 0.000000
0.004000 0.007500 0.000000
0.004500 0.007500 0.000000
0.000500 0.006250 0.000000
0.001000 0.006250 0.000000
0.001500 0.006250 0.000000
0.002000 0.006250 0.000000
0.002500 0.006250 0.000000
0.003000 0.006250 0.000000
0.003500 0.006250 0.000000
0.004000 0.006250 0.000000
0.004500 0.006250 0.000000
0.000500 0.005000 0.000000
0.001000 0.005000 0.000000
0.001500 0.005000 0.000000
0.002000 0.005000 0.000000
0.002500 0.005000 0.000000
0.003000 0.005000 0.000000
0.003500 0.005000 0.000000
0.004000 0.005000 0.000000
0.004500 0.005000 0.000000
0.000500 0.003750 0.000000
0.001000 0.003750 0.000000
0.001500 0.003750 0.000000
0.002000 0.003750 0.000000
0.002500 0.003750 0.000000
0.003000 0.003750 0.000000
0.003500 0.003750 0.000000
0.004000 0.003750 0.000000
0.004500 0.003750 0.000000
0.000500 0.002500 0.000000
0.001000 0.002500 0.000000
0.001500 0.002500 0.000000
0.002000 0.002500 0.000000
0.002500 0.002500 0.000000
0.003000 0.002500 0.000000
0.003500 0.002500 0.000000
0.004000 0.002500 0.000000
0.004500 0.002500 0.000000
0.000500 0.001250 0.000000
0.001000 0.001250 0.000000
0.001500 0.001250 0.000000
0.002000 0.001250 0.000000
0.002500 0.001250 0.000000
0.003000 0.001250 0.000000
0.003500 0.001250 0.000000
0.004000 0.001250 0.000000
0.004500 0.001250 0.000000
CELLS 800 4000
4 82 83 180 179
4 179 180 181 178
4 178 181 182 177
4 177 182 183 176
4 176 183 184 175
4 175 184 185 174
4 174 185 186 173
4 173 186 187 172
4 172 187 188 171
4 171 188 80 0
4 83 84 189 180
4 180 189 190 181
4 181 190 191 182
4 182 191 192 183
4 183 192 193 184
4 184 193 194 185
4 185 194 195 186
4 186 195 196 187
4 187 196 197 188
4 188 197 79 80
4 84 85 198 189
4 189 198 199 190
4 190 199 200 191
4 191 200 201 192
4 192 201 202 193
4 193 202 203 194
4 194 203 204 195
4 195 204 205 196
4 196 205 206 197
4 197 206 78 79
4 85 86 207 198
4 198 207 208 199
4 199 208 209 200
4 200 209 210 201
4 201 210 211 202
4 202 211 212 203
4 203 212 213 204
4 204 213 214 205
4 205 214 215 206
4 206 215 77 78
4 86 87 216 207
4 207 216 217 208
4 208 217 218 209
4 209 218 219 210
4 210 219 220 211
4 211 220 221 212
4 212 221 222 213
4 213 222 223 214
4 214 223 224 215
4 215 224 76 77
4 87 88 225 216
4 216 225 226 217
4 217 226 227 218
4 218 227 228 219
4 219 228 229 220
4 220 229 230 221
4 221 230 231 222
4 222 231 232 223
4 223 232 233 224
4 224 233 75 76
4 88 89 234 225
4 225 234 235 226
4 226 235 236 227
4 227 236 237 228
4 228 237 238 229
4 229 238 239 230
4 230 239 240 231
4 231 240 241 232
4 232 241 242 233
4 233 242 74 75
4 89 90 243 234
4 234 243 244 235
4 235 244 245 236
4 236 245 246 237
4 237 246 247 238
4 238 247 248 239
4 239 248 249 240
4 240 249 250 241
4 241 250 251 242
4 242 251 73 74
4 90 91 252 243
4 243 252 253 244
4 244 253 254 245
4 245 254 255 246
4 246 255 256 247
4 247 256 257 248
4 248 257 258 249
4 249 258 259 250
4 250 259 260 251
4 251 260 72 73
4 91 92 261 252
4 252 261 262 253
4 253 262 263 254
4 254 263 264 255
4 255 264 265 256
4 256 265 266 257
4 257 266 267 258
4 258 267 268 259
4 259 268 269 260
4 260 269 71 72
4 92 93 270 261
4 261 270 271 262
4 262 271 272 263
4 263 272 273 264
4 264 273 274 265
4 265 274 275 266
4 266 275 276 267
4 267 276 277 268
4 268 277 278 269
4 269 278 70 71
4 93 94 279 270
4 270 279 280 271
4 271 280 281 272
4 272 281 282 273
4 273 282 283 274
4 274 283 284 275
4 275 284 285 276
4 276 285 286 277
4 277 286 287 278
4 278 287 69 70
4 94 95 288 279
4 279 288 289 280
4 280 289 290 281
4 281 290 291 282
4 282 291 292 283
4 283 292 293 284
4 284 293 294 285
4 285 294 295 286
4 286 295 296 287
4 287 296 68 69
4 95 96 297 288
4 288 297 298 289
4 289 298 299 290
4 290 299 300 291
4 291 300 301 292
4 292 301 302 293
4 293 302 303 294
4 294 303 304 295
4 295 304 305 296
4 296 305 67 68
4 96 97 306 297
4 297 306 307 298
4 298 307 308 299
4 299 308 309 300
4 300 309 310 301
4 301 310 311 302
4 302 311 312 303
4 303 312 313 304
4 304 313 314 305
4 305 314 66 67
4 97 98 315 306
4 306 315 316 307
4 307 316 317 308
4 308 317 318 309
4 309 318 319 310
4 310 319 320 311
4 311 320 321 312
4 312 321 322 313
4 313 322 323 314
4 314 323 65 66
4 98 99 324 315
4 315 324 325 316
4 316 325 326 317
4 317 326 327 318
4 318 327 328 319
4 319 328 329 320
4 320 329 330 321
4 321 330 331 322
4 322 331 332 323
4 323 332 64 65
4 99 100 333 324
4 324 333 334 325
4 325 334 335 326
4 326 335 336 327
4 327 336 337 328
4 328 337 338 329
4 329 338 339 330
4 330 339 340 331
4 331 340 341 332
4 332 341 63 64
4 100 101 342 333
4 333 342 343 334
4 334 343 344 335
4 335 344 345 336
4 336 345 346 337
4 337 346 347 338
4 338 347 348 339
4 339 348 349 340
4 340 349 350 341
4 341 350 62 63
4 101 102 351 342
4 342 351 352 343
4 343 352 353 344
4 344 353 354 345
4 345 354 355 346
4 346 355 356 347
4 347 356 357 348
4 348 357 358 349
4 349 358 359 350
4 350 359 61 62
4 102 103 360 351
4 351 360 361 352
4 352 361 362 353
4 353 362 363 354
4 354 363 364 355
4 355 364 365 356
4 356 365 366 357
4 357 366 367 358
4 358 367 368 359
4 359 368 60 61
4 103 104 369 360
4 360 369 370 361
4 361 370 371 362
4 362 371 372 363
4 363 372 373 364
4 364 373 374 365
4 365 374 375 366
4 366 375 376 367
4 367 376 377 368
4 368 377 59 60
4 104 105 378 369
4 369 378 379 370
4 370 379 380 371
4 371 380 381 372
4 372 381 382 373
4 373 382 383 374
4 374 383 384 375
4 375 384 385 376
4 376 385 386 377
4 377 386 58 59
4 105 106 387 378
4 378 387 388 379
4 379 388 389 380
4 380 389 390 381
4 381 390 391 382
4 382 391 392 383
4 383 392 393 384
4 384 393 394 385
4 385 394 395 386
4 386 395 57 58
4 106 107 396 387
4 387 396 397 388
4 388 397 398 389
4 389 398 399 390
4 390 399 400 391
4 391 400 401 392
4 392 401 402 393
4 393 402 403 394
4 394 403 404 395
4 395 404 56 57
4 107 108 405 396
4 396 405 406 397
4 397 406 407 398
4 398 407 408 399
4 399 408 409 400
4 400 409 410 401
4 401 410 411 402
4 402 411 412 403
4 403 412 413 404
4 404 413 55 56
4 108 109 414 405
4 405 414 415 406
4 406 415 416 407
4 407 416 417 408
4 408 417 418 409
4 409 418 419 410
4 410 419 420 411
4 411 420 421 412
4 412 421 422 413
4 413 422 54 55
4 109 110 423 414
4 414 423 424 415
4 415 424 425 416
4 416 425 426 417
4 417 426 427 418
4 418 427 428 419
4 419 428 429 420
4 420 429 430 421
4 421 430 431 422
4 422 431 53 54
4 110 111 432 423
4 423 432 433 424
4 424 433 434 425
4 425 434 435 426
4 426 435 436 427
4 427 436 437 428
4 428 437 438 429
4 429 438 439 430
4 430 439 440 431
4 431 440 52 53
4 111 112 441 432
4 432 441 442 433
4 433 442 443 434
4 434 443 444 435
4 435 444 445 436
4 436 445 446 437
4 437 446 447 438
4 438 447 448 439
4 439 448 449 440
4 440 449 51 52
4 112 113 450 441
4 441 450 451 442
4 442 451 452 443
4 443 452 453 444
4 444 453 454 445
4 445 454 455 446
4 446 455 456 447
4 447 456 457 448
4 448 457 458 449
4 449 458 50 51
4 113 114 459 450
4 450 459 460 451
4 451 460 461 452
4 452 461 462 453
4 453 462 463 454
4 454 463 464 455
4 455 464 465 456
4 456 465 466 457
4 457 466 467 458
4 458 467 49 50
4 114 115 468 459
4 459 468 469 460
4 460 469 470 461
4 461 470 471 462
4 462 471 472 463
4 463 472 473 464
4 464 473 474 465
4 465 474 475 466
4 466 475 476 467
4 467 476 48 49
4 115 116 477 468
4 468 477 478 469
4 469 478 479 470
4 470 479 480 471
4 471 480 481 472
4 472 481 482 473
4 473 482 483 474
4 474 483 484 475
4 475 484 485 476
4 476 485 47 48
4 116 117 486 477
4 477 486 487 478
4 478 487 488 479
4 479 488 489 480
4 480 489 490 481
4 481 490 491 482
4 482 491 492 483
4 483 492 493 484
4 484 493 494 485
4 485 494 46 47
4 117 118 495 486
4 486 495 496 487
4 487 496 497 488
4 488 497 498 489
4 489 498 499 490
4 490 499 500 491
4 491 500 501 492
4 492 501 502 493
4 493 502 503 494
4 494 503 45 46
4 118 119 504 495
4 495 504 505 496
4 496 505 506 497
4 497 506 507 498
4 498 507 508 499
4 499 508 509 500
4 500 509 510 501
4 501 510 511 502
4 502 511 512 503
4 503 512 44 45
4 119 120 513 504
4 504 513 514 505
4 505 514 515 506
4 506 515 516 507
4 507 516 517 508
4 508 517 518 509
4 509 518 519 510
4 510 519 520 511
4 511 520 521 512
4 512 521 43 44
4 120 121 522 513
4 513 522 523 514
4 514 523 524 515
4 515 524 525 516
4 516 525 526 517
4 517 526 527 518
4 518 527 528 519
4 519 528 529 520
4 520 529 530 521
4 521 530 42 43
4 121 122 531 522
4 522 531 532 523
4 523 532 533 524
4 524 533 534 525
4 525 534 535 526
4 526 535 536 527
4 527 536 537 528
4 528 537 538 529
4 529 538 539 530
4 530 539 41 42
4 122 123 540 531
4 531 540 541 532
4 532 541 542 533
4 533 542 543 534
4 534 543 544 535
4 535 544 545 536
4 536 545 546 537
4 537 546 547 538
4 538 547 548 539
4 539 548 40 41
4 123 124 549 540
4 540 549 550 541
4 541 550 551 542
4 542 551 552 543
4 543 552 553 544
4 544 553 554 545
4 545 554 555 546
4 546 555 556 547
4 547 556 557 548
4 548 557 39 40
4 124 125 558 549
4 549 558 559 550
4 550 559 560 551
4 551 560 561 552
4 552 561 562 553
4 553 562 563 554
4 554 563 564 555
4 555 564 565 556
4 556 565 566 557
4 557 566 38 39
4 125 126 567 558
4 558 567 568 559
4 559 568 569 560
4 560 569 570 561
4 561 570 571 562
4 562 571 572 563
4 563 572 573 564
4 564 573 574 565
4 565 574 575 566
4 566 575 37 38
4 126 127 576 567
4 567 576 577 568
4 568 577 578 569
4 569 578 579 570
4 570 579 580 571
4 571 580 581 572
4 572 581 582 573
4 573 582 583 574
4 574 583 584 575
4 575 584 36 37
4 127 128 585 576
4 576 585 586 577
4 577 586 587 578
4 578 587 588 579
4 579 588 589 580
4 580 589 590 581
4 581 590 591 582
4 582 591 592 583
4 583 592 593 584
4 584 593 35 36
4 128 129 594 585
4 585 594 595 586
4 586 595 596 587
4 587 596 597 588
4 588 597 598 589
4 589 598 599 590
4 590 599 600 591
4 591 600 601 592
4 592 601 602 593
4 593 602 34 35
4 129 130 603 594
4 594 603 604 595
4 595 604 605 596
4 596 605 606 597
4 597 606 607 598
4 598 607 608 599
4 599 608 609 600
4 600 609 610 601
4 601 610 611 602
4 602 611 33 34
4 130 131 612 603
4 603 612 613 604
4 604 613 614 605
4 605 614 615 606
4 606 615 616 607
4 607 616 617 608
4 608 617 618 609
4 609 618 619 610
4 610 619 620 611
4 611 620 32 33
4 131 132 621 612
4 612 621 622 613
4 613 622 623 614
4 614 623 624 615
4 615 624 625 616
4 616 625 626 617
4 617 626 627 618
4 618 627 628 619
4 619 628 629 620
4 620 629 31 32
4 132 133 630 621
4 621 630 631 622
4 622 631 632 623
4 623 632 633 624
4 624 633 634 625
4 625 634 635 626
4 626 635 636 627
4 627 636 637 628
4 628 637 638 629
4 629 638 30 31
4 133 134 639 630
4 630 639 640 631
4 631 640 641 632
4 632 641 642 633
4 633 642 643 634
4 634 643 644 635
4 635 644 645 636
4 636 645 646 637
4 637 646 647 638
4 638 647 29 30
4 134 135 648 639
4 639 648 649 640
4 640 649 650 641
4 641 650 651 642
4 642 651 652 643
4 643 652 653 644
4 644 653 654 645
4 645 654 655 646
4 646 655 656 647
4 647 656 28 29
4 135 136 657 648
4 648 657 658 649
4 649 658 659 650
4 650 659 660 651
4 651 660 661 652
4 652 661 662 653
4 653 662 663 654
4 654 663 664 655
4 655 664 665 656
4 656 665 27 28
4 136 137 666 657
4 657 666 667 658
4 658 667 668 659
4 659 668 669 660
4 660 669 670 661
4 661 670 671 662
4 662 671 672 663
4 663 672 673 664
4 664 673 674 665
4 665 674 26 27
4 137 138 675 666
4 666 675 676 667
4 667 676 677 668
4 668 677 678 669
4 669 678 679 670
4 670 679 680 671
4 671 680 681 672
4 672 681 682 673
4 673 682 683 674
4 674 683 25 26
4 138 139 684 675
4 675 684 685 676
4 676 685 686 677
4 677 686 687 678
4 678 687 688 679
4 679 688 689 680
4 680 689 690 681
4 681 690 691 682
4 682 691 692 683
4 683 692 24 25
4 139 140 693 684
4 684 693 694 685
4 685 694 695 686
4 686 695 696 687
4 687 696 697 688
4 688 697 698 689
4 689 698 699 690
4 690 699 700 691
4 691 700 701 692
4 692 701 23 24
4 140 141 702 693
4 693 702 703 694
4 694 703 704 695
4 695 704 705 696
4 696 705 706 697
4 697 706 707 698
4 698 707 708 699
4 699 708 709 700
4 700 709 710 701
4 701 710 22 23
4 141 142 711 702
4 702 711 712 703
4 703 712 713 704
4 704 713 714 705
4 705 714 715 706
4 706 715 716 707
4 707 716 717 708
4 708 717 718 709
4 709 718 719 710
4 710 719 21 22
4 142 143 720 711
4 711 720 721 712
4 712 721 722 713
4 713 722 723 714
4 714 723 724 715
4 715 724 725 716
4 716 725 726 717
4 717 726 727 718
4 718 727 728 719
4 719 728 20 21
4 143 144 729 720
4 720 729 730 721
4 721 730 731 722
4 722 731 732 723
4 723 732 733 724
4 724 733 734 725
4 725 734 735 726
4 726 735 736 727
4 727 736 737 728
4 728 737 19 20
4 144 145 738 729
4 729 738 739 730
4 730 739 740 731
4 731 740 741 732
4 732 741 742 733
4 733 742 743 734
4 734 743 744 735
4 735 744 745 736
4 736 745 746 737
4 737 746 18 19
4 145 146 747 738
4 738 747 748 739
4 739 748 749 740
4 740 749 750 741
4 741 750 751 742
4 742 751 752 743
4 743 752 753 744
4 744 753 754 745
4 745 754 755 746
4 746 755 17 18
4 146 147 756 747
4 747 756 757 748
4 748 757 758 749
4 749 758 759 750
4 750 759 760 751
4 751 760 761 752
4 752 761 762 753
4 753 762 763 754
4 754 763 764 755
4 755 764 16 17
4 147 148 765 756
4 756 765 766 757
4 757 766 767 758
4 758 767 768 759
4 759 768 769 760
4 760 769 770 761
4 761 770 771 762
4 762 771 772 763
4 763 772 773 764
4 764 773 15 16
4 148 149 774 765
4 765 774 775 766
4 766 775 776 767
4 767 776 777 768
4 768 777 778 769
4 769 778 779 770
4 770 779 780 771
4 771 780 781 772
4 772 781 782 773
4 773 782 14 15
4 149 150 783 774
4 774 783 784 775
4 775 784 785 776
4 776 785 786 777
4 777 786 787 778
4 778 787 788 779
4 779 788 789 780
4 780 789 790 781
4 781 790 791 782
4 782 791 13 14
4 150 151 792 783
4 783 792 793 784
4 784 793 794 785
4 785 794 795 786
4 786 795 796 787
4 787 796 797 788
4 788 797 798 789
4 789 798 799 790
4 790 799 800 791
4 791 800 12 13
4 151 152 801 792
4 792 801 802 793
4 793 802 803 794
4 794 803 804 795
4 795 804 805 796
4 796 805 806 797
4 797 806 807 798
4 798 807 808 799
4 799 808 809 800
4 800 809 11 12
4 152 153 810 801
4 801 810 811 802
4 802 811 812 803
4 803 812 813 804
4 804 813 814 805
4 805 814 815 806
4 806 815 816 807
4 807 816 817 808
4 808 817 818 809
4 809 818 10 11
4 153 154 819 810
4 810 819 820 811
4 811 820 821 812
4 812 821 822 813
4 813 822 823 814
4 814 823 824 815
4 815 824 825 816
4 816 825 826 817
4 817 826 827 818
4 818 827 9 10
4 154 155 828 819
4 819 828 829 820
4 820 829 830 821
4 821 830 831 822
4 822 831 832 823
4 823 832 833 824
4 824 833 834 825
4 825 834 835 826
4 826 835 836 827
4 827 836 8 9
4 155 156 837 828
4 828 837 838 829
4 829 838 839 830
4 830 839 840 831
4 831 840 841 832
4 832 841 842 833
4 833 842 843 834
4 834 843 844 835
4 835 844 845 836
4 836 845 7 8
4 156 157 846 837
4 837 846 847 838
4 838 847 848 839
4 839 848 849 840
4 840 849 850 841
4 841 850 851 842
4 842 851 852 843
4 843 852 853 844
4 844 853 854 845
4 845 854 6 7
4 157 158 855 846
4 846 855 856 847
4 847 856 857 848
4 848 857 858 849
4 849 858 859 850
4 850 859 860 851
4 851 860 861 852
4 852 861 862 853
4 853 862 863 854
4 854 863 5 6
4 158 159 864 855
4 855 864 865 856
4 856 865 866 857
4 857 866 867 858
4 858 867 868 859
4 859 868 869 860
4 860 869 870 861
4 861 870 871 862
4 862 871 872 863
4 863 872 4 5
4 159 160 873 864
4 864 873 874 865
4 865 874 875 866
4 866 875 876 867
4 867 876 877 868
4 868 877 878 869
4 869 878 879 870
4 870 879 880 871
4 871 880 881 872
4 872 881 3 4
4 160 161 882 873
4 873 882 883 874
4 874 883 884 875
4 875 884 885 876
4 876 885 886 877
4 877 886 887 878
4 878 887 888 879
4 879 888 889 880
4 880 889 890 881
4 881 890 2 3
4 161 81 162 882
4 882 162 163 883
4 883 163 164 884
4 884 164 165 885
4 885 165 166 886
4 886 166 167 887
4 887 167 168 888
4 888 168 169 889
4 889 169 170 890
4 890 170 1 2
CELL_TYPES 800
9
9
9
9
9
9
9
9
9
9
9
9
9
9
9
9
9
9
9
9
9
9
9
9
9
9
9
9
9
9
9
9
9
9
9
9
9
9
9
9
9
9
9
9
9
9
9
9
9
9
9
9
9
9
9
9
9
9
9
9
9
9
9
9
9
9
9
9
9
9
9
9
9
9
9
9
9
9
9
9
9
9
9
9
9
9
9
9
9
9
9
9
9
9
9
9
9
9
9
9
9
9
9
9
9
9
9
9
9
9
9
9
9
9
9
9
9
9
9
9
9
9
9
9
9
9
9
9
9
9
9
9
9
9
9
9
9
9
9
9
9
9
9
9
9
9
9
9
9
9
9
9
9
9
9
9
9
9
9
9
9
9
9
9
9
9
9
9
9
9
9
9
9
9
9
9
9
9
9
9
9
9
9
9
9
9
9
9
9
9
9
9
9
9
9
9
9
9
9
9
9
9
9
9
9
9
9
9
9
9
9
9
9
9
9
9
9
9
9
9
9
9
9
9
9
9
9
9
9
9
9
9
9
9
9
9
9
9
9
9
9
9
9
9
9
9
9
9
9
9
9
9
9
9
9
9
9
9
9
9
9
9
9
9
9
9
9
9
9
9
9
9
9
9
9
9
9
9
9
9
9
9
9
9
9
9
9
9
9
9
9
9
9
9
9
9
9
9
9
9
9
9
9
9
9
9
9
9
9
9
9
9
9
9
9
9
9
9
9
9
9
9
9
9
9
9
9
9
9
9
9
9
9
9
9
9
9
9
9
9
9
9
9
9
9
9
9
9
9
9
9
9
9
9
9
9
9
9
9
9
9
9
9
9
9
9
9
9
9
9
9
9
9
9
9
9
9
9
9
9
9
9
9
9
9
9
9
9
9
9
9
9
9
9
9
9
9
9
9
9
9
9
9
9
9
9
9
9
9
9
9
9
9
9
9
9
9
9
9
9
9
9
9
9
9
9
9
9
9
9
9
9
9
9
9
9
9
9
9
9
9
9
9
9
9
9
9
9
9
9
9
9
9
9
9
9
9
9
9
9
9
9
9
9
9
9
9
9
9
9
9
9
9
9
9
9
9
9
9
9
9
9
9
9
9
9
9
9
9
9
9
9
9
9
9
9
9
9
9
9
9
9
9
9
9
9
9
9
9
9
9
9
9
9
9
9
9
9
9
9
9
9
9
9
9
9
9
9
9
9
9
9
9
9
9
9
9
9
9
9
9
9
9
9
9
9
9
9
9
9
9
9
9
9
9
9
9
9
9
9
9
9
9
9
9
9
9
9
9
9
9
9
9
9
9
9
9
9
9
9
9
9
9
9
9
9
9
9
9
9
9
9
9
9
9
9
9
9
9
9
9
9
9
9
9
9
9
9
9
9
9
9
9
9
9
9
9
9
9
9
9
9
9
9
9
9
9
9
9
9
9
9
9
9
9
9
9
9
9
9
9
9
9
9
9
9
9
9
9
9
9
9
9
9
9
9
9
9
9
9
9
9
9
9
9
9
9
9
9
9
9
9
9
9
9
9
9
9
9
9
9
9
9
9
9
9
9
9
9
9
9
9
9
9
9
9
9
9
9
9
9
9
9
9
9
9
9
9
9
9
9
9
9
9
9
9
9
9
9
9
9
9
9
9
9
9
9
9
9
9
9
9
9
9
9
9
9
9
9
9
9
9
9
9
9
9
9
9
9
9
9
9
9
9
9
9
9
9
9
9
9
9
9
9
9
9
9
9
9
9
9
9
9
9
9
9
9
9
9
9
9
9
9
9
9
9
9
9
9
9
9
9
9
9
9
9
9
9
9
9
POINT_DATA 891
SCALARS u1 float
LOOKUP_TABLE default
2e-19
-7e-07
-7e-07
-7e-07
-7e-07
-7e-07
-7e-07
-7e-07
-7e-07
-7e-07
-7e-07
-7e-07
-7e-07
-7e-07
-7e-07
-7e-07
-7e-07
-7e-07
-7e-07
-7e-07
-7e-07
-7e-07
-7e-07
-7e-07
-7e-07
-7e-07
-7e-07
-7e-07
-7e-07
-7e-07
-7e-07
-7e-07
-7e-07
-7e-07
-7e-07
-7e-07
-7e-07
-7e-07
-7e-07
-7e-07
-7e-07
-7e-07
-7e-07
-7e-07
-7e-07
-7e-07
-7e-07
-7e-07
-7e-07
-7e-07
-7e-07
-7e-07
-7e-07
-7e-07
-7e-07
-7e-07
-7e-07
-7e-07
-7e-07
-7e-07
-7e-07
-7e-07
-7e-07
-7e-07
-7e-07
-7e-07
-7e-07
-7e-07
-7e-07
-7e-07
-7e-07
-7e-07
-7e-07
-7e-07
-7e-07
-7e-07
-7e-07
-7e-07
-7e-07
-7e-07
-6e-07
7e-07
3e-19
6e-07
7e-07
7e-07
7e-07
7e-07
7e-07
7e-07
7e-07
7e-07
7e-07
7e-07
7e-07
7e-07
7e-07
7e-07
7e-07
7e-07
7e-07
7e-07
7e-07
7e-07
7e-07
7e-07
7e-07
7e-07
7e-07
7e-07
7e-07
7e-07
7e-07
7e-07
7e-07
7e-07
7e-07
7e-07
7e-07
7e-07
7e-07
7e-07
7e-07
7e-07
7e-07
7e-07
7e-07
7e-07
7e-07
7e-07
7e-07
7e-07
7e-07
7e-07
7e-07
7e-07
7e-07
7e-07
7e-07
7e-07
7e-07
7e-07
7e-07
7e-07
7e-07
7e-07
7e-07
7e-07
7e-07
7e-07
7e-07
7e-07
7e-07
7e-07
7e-07
7e-07
7e-07
7e-07
7e-07
7e-07
7e-07
7e-07
6e-07
4e-07
3e-07
1e-07
-5e-16
-1e-07
-3e-07
-4e-07
-6e-07
-2e-19
-4e-19
-2e-19
3e-19
2e-19
-1e-19
-1e-19
-7e-20
2e-19
4e-07
3e-07
2e-07
9e-08
4e-17
-9e-08
-2e-07
-3e-07
-4e-07
6e-07
4e-07
3e-07
1e-07
-1e-16
-1e-07
-3e-07
-4e-07
-6e-07
6e-07
4e-07
3e-07
1e-07
-1e-16
-1e-07
-3e-07
-4e-07
-6e-07
6e-07
4e-07
3e-07
1e-07
-2e-16
-1e-07
-3e-07
-4e-07
-6e-07
6e-07
4e-07
3e-07
1e-07
-2e-16
-1e-07
-3e-07
-4e-07
-6e-07
6e-07
4e-07
3e-07
1e-07
-2e-16
-1e-07
-3e-07
-4e-07
-6e-07
6e-07
4e-07
3e-07
1e-07
-3e-16
-1e-07
-3e-07
-4e-07
-6e-07
6e-07
4e-07
3e-07
1e-07
-3e-16
-1e-07
-3e-07
-4e-07
-6e-07
6e-07
4e-07
3e-07
1e-07
-3e-16
-1e-07
-3e-07
-4e-07
-6e-07
6e-07
4e-07
3e-07
1e-07
-3e-16
-1e-07
-3e-07
-4e-07
-6e-07
6e-07
4e-07
3e-07
1e-07
-4e-16
-1e-07
-3e-07
-4e-07
-6e-07
6e-07
4e-07
3e-07
1e-07
-4e-16
-1e-07
-3e-07
-4e-07
-6e-07
6e-07
4e-07
3e-07
1e-07
-4e-16
-1e-07
-3e-07
-4e-07
-6e-07
6e-07
4e-07
3e-07
1e-07
-4e-16
-1e-07
-3e-07
-4e-07
-6e-07
6e-07
4e-07
3e-07
1e-07
-4e-16
-1e-07
-3e-07
-4e-07
-6e-07
6e-07
4e-07
3e-07
1e-07
-4e-16
-1e-07
-3e-07
-4e-07
-6e-07
6e-07
4e-07
3e-07
1e-07
-5e-16
-1e-07
-3e-07
-4e-07
-6e-07
6e-07
4e-07
3e-07
1e-07
-5e-16
-1e-07
-3e-07
-4e-07
-6e-07
6e-07
4e-07
3e-07
1e-07
-5e-16
-1e-07
-3e-07
-4e-07
-6e-07
6e-07
4e-07
3e-07
1e-07
-5e-16
-1e-07
-3e-07
-4e-07
-6e-07
6e-07
4e-07
3e-07
1e-07
-5e-16
-1e-07
-3e-07
-4e-07
-6e-07
6e-07
4e-07
3e-07
1e-07
-5e-16
-1e-07
-3e-07
-4e-07
-6e-07
6e-07
4e-07
3e-07
1e-07
-5e-16
-1e-07
-3e-07
-4e-07
-6e-07
6e-07
4e-07
3e-07
1e-07
-5e-16
-1e-07
-3e-07
-4e-07
-6e-07
6e-07
4e-07
3e-07
1e-07
-5e-16
-1e-07
-3e-07
-4e-07
-6e-07
6e-07
4e-07
3e-07
1e-07
-5e-16
-1e-07
-3e-07
-4e-07
-6e-07
6e-07
4e-07
3e-07
1e-07
-5e-16
-1e-07
-3e-07
-4e-07
-6e-07
6e-07
4e-07
3e-07
1e-07
-5e-16
-1e-07
-3e-07
-4e-07
-6e-07
6e-07
4e-07
3e-07
1e-07
-5e-16
-1e-07
-3e-07
-4e-07
-6e-07
6e-07
4e-07
3e-07
1e-07
-5e-16
-1e-07
-3e-07
-4e-07
-6e-07
6e-07
4e-07
3e-07
1e-07
-5e-16
-1e-07
-3e-07
-4e-07
-6e-07
6e-07
4e-07
3e-07
1e-07
-5e-16
-1e-07
-3e-07
-4e-07
-6e-07
6e-07
4e-07
3e-07
1e-07
-5e-16
-1e-07
-3e-07
-4e-07
-6e-07
6e-07
4e-07
3e-07
1e-07
-5e-16
-1e-07
-3e-07
-4e-07
-6e-07
6e-07
4e-07
3e-07
1e-07
-5e-16
-1e-07
-3e-07
-4e-07
-6e-07
6e-07
4e-07
3e-07
1e-07
-5e-16
-1e-07
-3e-07
-4e-07
-6e-07
6e-07
4e-07
3e-07
1e-07
-5e-16
-1e-07
-3e-07
-4e-07
-6e-07
6e-07
4e-07
3e-07
1e-07
-5e-16
-1e-07
-3e-07
-4e-07
-6e-07
6e-07
4e-07
3e-07
1e-07
-5e-16
-1e-07
-3e-07
-4e-07
-6e-07
6e-07
4e-07
3e-07
1e-07
-5e-16
-1e-07
-3e-07
-4e-07
-6e-07
6e-07
4e-07
3e-07
1e-07
-5e-16
-1e-07
-3e-07
-4e-07
-6e-07
6e-07
4e-07
3e-07
1e-07
-5e-16
-1e-07
-3e-07
-4e-07
-6e-07
6e-07
4e-07
3e-07
1e-07
-5e-16
-1e-07
-3e-07
-4e-07
-6e-07
6e-07
4e-07
3e-07
1e-07
-5e-16
-1e-07
-3e-07
-4e-07
-6e-07
6e-07
4e-07
3e-07
1e-07
-5e-16
-1e-07
-3e-07
-4e-07
-6e-07
6e-07
4e-07
3e-07
1e-07
-5e-16
-1e-07
-3e-07
-4e-07
-6e-07
6e-07
4e-07
3e-07
1e-07
-5e-16
-1e-07
-3e-07
-4e-07
-6e-07
6e-07
4e-07
3e-07
1e-07
-5e-16
-1e-07
-3e-07
-4e-07
-6e-07
6e-07
4e-07
3e-07
1e-07
-5e-16
-1e-07
-3e-07
-4e-07
-6e-07
6e-07
4e-07
3e-07
1e-07
-5e-16
-1e-07
-3e-07
-4e-07
-6e-07
6e-07
4e-07
3e-07
1e-07
-5e-16
-1e-07
-3e-07
-4e-07
-6e-07
6e-07
4e-07
3e-07
1e-07
-5e-16
-1e-07
-3e-07
-4e-07
-6e-07
6e-07
4e-07
3e-07
1e-07
-5e-16
-1e-07
-3e-07
-4e-07
-6e-07
6e-07
4e-07
3e-07
1e-07
-5e-16
-1e-07
-3e-07
-4e-07
-6e-07
6e-07
4e-07
3e-07
1e-07
-5e-16
-1e-07
-3e-07
-4e-07
-6e-07
6e-07
4e-07
3e-07
1e-07
-5e-16
-1e-07
-3e-07
-4e-07
-6e-07
6e-07
4e-07
3e-07
1e-07
-5e-16
-1e-07
-3e-07
-4e-07
-6e-07
6e-07
4e-07
3e-07
1e-07
-5e-16
-1e-07
-3e-07
-4e-07
-6e-07
6e-07
4e-07
3e-07
1e-07
-5e-16
-1e-07
-3e-07
-4e-07
-6e-07
6e-07
4e-07
3e-07
1e-07
-5e-16
-1e-07
-3e-07
-4e-07
-6e-07
6e-07
4e-07
3e-07
1e-07
-5e-16
-1e-07
-3e-07
-4e-07
-6e-07
6e-07
4e-07
3e-07
1e-07
-5e-16
-1e-07
-3e-07
-4e-07
-6e-07
6e-07
4e-07
3e-07
1e-07
-5e-16
-1e-07
-3e-07
-4e-07
-6e-07
6e-07
4e-07
3e-07
1e-07
-5e-16
-1e-07
-3e-07
-4e-07
-6e-07
6e-07
4e-07
3e-07
1e-07
-5e-16
-1e-07
-3e-07
-4e-07
-6e-07
6e-07
4e-07
3e-07
1e-07
-5e-16
-1e-07
-3e-07
-4e-07
-6e-07
6e-07
4e-07
3e-07
1e-07
-5e-16
-1e-07
-3e-07
-4e-07
-6e-07
6e-07
4e-07
3e-07
1e-07
-5e-16
-1e-07
-3e-07
-4e-07
-6e-07
6e-07
4e-07
3e-07
1e-07
-5e-16
-1e-07
-3e-07
-4e-07
-6e-07
6e-07
4e-07
3e-07
1e-07
-5e-16
-1e-07
-3e-07
-4e-07
-6e-07
6e-07
4e-07
3e-07
1e-07
-5e-16
-1e-07
-3e-07
-4e-07
-6e-07
6e-07
4e-07
3e-07
1e-07
-5e-16
-1e-07
-3e-07
-4e-07
-6e-07
6e-07
4e-07
3e-07
1e-07
-5e-16
-1e-07
-3e-07
-4e-07
-6e-07
6e-07
4e-07
3e-07
1e-07
-5e-16
-1e-07
-3e-07
-4e-07
-6e-07
6e-07
4e-07
3e-07
1e-07
-5e-16
-1e-07
-3e-07
-4e-07
-6e-07
6e-07
4e-07
3e-07
1e-07
-5e-16
-1e-07
-3e-07
-4e-07
-6e-07
6e-07
4e-07
3e-07
1e-07
-5e-16
-1e-07
-3e-07
-4e-07
-6e-07
6e-07
4e-07
3e-07
1e-07
-5e-16
-1e-07
-3e-07
-4e-07
-6e-07
6e-07
4e-07
3e-07
1e-07
-5e-16
-1e-07
-3e-07
-4e-07
-6e-07
SCALARS u2 float
LOOKUP_TABLE default
-2e-19
-0.0002
-0.0002
-0.0002
-0.0002
-0.0002
-0.0002
-0.0002
-0.0002
-0.0002
-0.0002
-0.0002
-0.0002
-0.0002
-0.0002
-0.0002
-0.0002
-0.0002
-0.0002
-0.0002
-0.0002
-0.0002
-0.0001
-0.0001
-0.0001
-0.0001
-0.0001
-0.0001
-0.0001
-0.0001
-0.0001
-0.0001
-0.0001
-0.0001
-0.0001
-0.0001
-0.0001
-0.0001
-0.0001
-0.0001
-0.0001
-0.0001
-0.0001
-0.0001
-9e-05
-9e-05
-9e-05
-9e-05
-8e-05
-8e-05
-8e-05
-8e-05
-7e-05
-7e-05
-7e-05
-7e-05
-6e-05
-6e-05
-6e-05
-6e-05
-5e-05
-5e-05
-5e-05
-5e-05
-4e-05
-4e-05
-4e-05
-4e-05
-3e-05
-3e-05
-3e-05
-3e-05
-2e-05
-2e-05
-2e-05
-2e-05
-1e-05
-1e-05
-8e-06
-5e-06
-3e-06
-0.0002
-1e-19
-3e-06
-5e-06
-8e-06
-1e-05
-1e-05
-2e-05
-2e-05
-2e-05
-2e-05
-3e-05
-3e-05
-3e-05
-3e-05
-4e-05
-4e-05
-4e-05
-4e-05
-5e-05
-5e-05
-5e-05
-5e-05
-6e-05
-6e-05
-6e-05
-6e-05
-7e-05
-7e-05
-7e-05
-7e-05
-8e-05
-8e-05
-8e-05
-8e-05
-9e-05
-9e-05
-9e-05
-9e-05
-0.0001
-0.0001
-0.0001
-0.0001
-0.0001
-0.0001
-0.0001
-0.0001
-0.0001
-0.0001
-0.0001
-0.0001
-0.0001
-0.0001
-0.0001
-0.0001
-0.0001
-0.0001
-0.0001
-0.0001
-0.0001
-0.0001
-0.0002
-0.0002
-0.0002
-0.0002
-0.0002
-0.0002
-0.0002
-0.0002
-0.0002
-0.0002
-0.0002
-0.0002
-0.0002
-0.0002
-0.0002
-0.0002
-0.0002
-0.0002
-0.0002
-0.0002
-0.0002
-0.0002
-0.0002
-0.0002
-0.0002
-0.0002
-0.0002
-0.0002
-0.0002
-5e-19
5e-19
7e-19
3e-19
-2e-19
-2e-19
-7e-19
1e-18
-2e-19
-3e-06
-2e-06
-2e-06
-2e-06
-2e-06
-2e-06
-2e-06
-2e-06
-3e-06
-5e-06
-5e-06
-5e-06
-5e-06
-5e-06
-5e-06
-5e-06
-5e-06
-5e-06
-8e-06
-7e-06
-7e-06
-7e-06
-7e-06
-7e-06
-7e-06
-7e-06
-8e-06
-1e-05
-1e-05
-1e-05
-1e-05
-1e-05
-1e-05
-1e-05
-1e-05
-1e-05
-1e-05
-1e-05
-1e-05
-1e-05
-1e-05
-1e-05
-1e-05
-1e-05
-1e-05
-2e-05
-2e-05
-2e-05
-2e-05
-2e-05
-2e-05
-2e-05
-2e-05
-2e-05
-2e-05
-2e-05
-2e-05
-2e-05
-2e-05
-2e-05
-2e-05
-2e-05
-2e-05
-2e-05
-2e-05
-2e-05
-2e-05
-2e-05
-2e-05
-2e-05
-2e-05
-2e-05
-2e-05
-2e-05
-2e-05
-2e-05
-2e-05
-2e-05
-2e-05
-2e-05
-2e-05
-3e-05
-3e-05
-3e-05
-3e-05
-3e-05
-3e-05
-3e-05
-3e-05
-3e-05
-3e-05
-3e-05
-3e-05
-3e-05
-3e-05
-3e-05
-3e-05
-3e-05
-3e-05
-3e-05
-3e-05
-3e-05
-3e-05
-3e-05
-3e-05
-3e-05
-3e-05
-3e-05
-3e-05
-3e-05
-3e-05
-3e-05
-3e-05
-3e-05
-3e-05
-3e-05
-3e-05
-4e-05
-4e-05
-4e-05
-4e-05
-4e-05
-4e-05
-4e-05
-4e-05
-4e-05
-4e-05
-4e-05
-4e-05
-4e-05
-4e-05
-4e-05
-4e-05
-4e-05
-4e-05
-4e-05
-4e-05
-4e-05
-4e-05
-4e-05
-4e-05
-4e-05
-4e-05
-4e-05
-4e-05
-4e-05
-4e-05
-4e-05
-4e-05
-4e-05
-4e-05
-4e-05
-4e-05
-5e-05
-5e-05
-5e-05
-5e-05
-5e-05
-5e-05
-5e-05
-5e-05
-5e-05
-5e-05
-5e-05
-5e-05
-5e-05
-5e-05
-5e-05
-5e-05
-5e-05
-5e-05
-5e-05
-5e-05
-5e-05
-5e-05
-5e-05
-5e-05
-5e-05
-5e-05
-5e-05
-5e-05
-5e-05
-5e-05
-5e-05
-5e-05
-5e-05
-5e-05
-5e-05
-5e-05
-6e-05
-6e-05
-6e-05
-6e-05
-6e-05
-6e-05
-6e-05
-6e-05
-6e-05
-6e-05
-6e-05
-6e-05
-6e-05
-6e-05
-6e-05
-6e-05
-6e-05
-6e-05
-6e-05
-6e-05
-6e-05
-6e-05
-6e-05
-6e-05
-6e-05
-6e-05
-6e-05
-6e-05
-6e-05
-6e-05
-6e-05
-6e-05
-6e-05
-6e-05
-6e-05
-6e-05
-7e-05
-7e-05
-7e-05
-7e-05
-7e-05
-7e-05
-7e-05
-7e-05
-7e-05
-7e-05
-7e-05
-7e-05
-7e-05
-7e-05
-7e-05
-7e-05
-7e-05
-7e-05
-7e-05
-7e-05
-7e-05
-7e-05
-7e-05
-7e-05
-7e-05
-7e-05
-7e-05
-7e-05
-7e-05
-7e-05
-7e-05
-7e-05
-7e-05
-7e-05
-7e-05
-7e-05
-8e-05
-8e-05
-8e-05
-8e-05
-8e-05
-8e-05
-8e-05
-8e-05
-8e-05
-8e-05
-8e-05
-8e-05
-8e-05
-8e-05
-8e-05
-8e-05
-8e-05
-8e-05
-8e-05
-8e-05
-8e-05
-8e-05
-8e-05
-8e-05
-8e-05
-8e-05
-8e-05
-8e-05
-8e-05
-8e-05
-8e-05
-8e-05
-8e-05
-8e-05
-8e-05
-8e-05
-9e-05
-9e-05
-9e-05
-9e-05
-9e-05
-9e-05
-9e-05
-9e-05
-9e-05
-9e-05
-9e-05
-9e-05
-9e-05
-9e-05
-9e-05
-9e-05
-9e-05
-9e-05
-9e-05
-9e-05
-9e-05
-9e-05
-9e-05
-9e-05
-9e-05
-9e-05
-9e-05
-9e-05
-9e-05
-9e-05
-9e-05
-9e-05
-9e-05
-9e-05
-9e-05
-9e-05
-0.0001
-0.0001
-0.0001
-0.0001
-0.0001
-0.0001
-0.0001
-0.0001
-0.0001
-0.0001
-0.0001
-0.0001
-0.0001
-0.0001
-0.0001
-0.0001
-0.0001
-0.0001
-0.0001
-0.0001
-0.0001
-0.0001
-0.0001
-0.0001
-0.0001
-0.0001
-0.0001
-0.0001
-0.0001
-0.0001
-0.0001
-0.0001
-0.0001
-0.0001
-0.0001
-0.0001
-0.0001
-0.0001
-0.0001
-0.0001
-0.0001
-0.0001
-0.0001
-0.0001
-0.0001
-0.0001
-0.0001
-0.0001
-0.0001
-0.0001
-0.0001
-0.0001
-0.0001
-0.0001
-0.0001
-0.0001
-0.0001
-0.0001
-0.0001
-0.0001
-0.0001
-0.0001
-0.0001
-0.0001
-0.0001
-0.0001
-0.0001
-0.0001
-0.0001
-0.0001
-0.0001
-0.0001
-0.0001
-0.0001
-0.0001
-0.0001
-0.0001
-0.0001
-0.0001
-0.0001
-0.0001
-0.0001
-0.0001
-0.0001
-0.0001
-0.0001
-0.0001
-0.0001
-0.0001
-0.0001
-0.0001
-0.0001
-0.0001
-0.0001
-0.0001
-0.0001
-0.0001
-0.0001
-0.0001
-0.0001
-0.0001
-0.0001
-0.0001
-0.0001
-0.0001
-0.0001
-0.0001
-0.0001
-0.0001
-0.0001
-0.0001
-0.0001
-0.0001
-0.0001
-0.0001
-0.0001
-0.0001
-0.0001
-0.0001
-0.0001
-0.0001
-0.0001
-0.0001
-0.0001
-0.0001
-0.0001
-0.0001
-0.0001
-0.0001
-0.0001
-0.0001
-0.0001
-0.0001
-0.0001
-0.0001
-0.0001
-0.0001
-0.0001
-0.0001
-0.0001
-0.0001
-0.0001
-0.0001
-0.0001
-0.0001
-0.0001
-0.0001
-0.0001
-0.0001
-0.0001
-0.0001
-0.0001
-0.0001
-0.0001
-0.0001
-0.0001
-0.0001
-0.0001
-0.0001
-0.0001
-0.0001
-0.0001
-0.0001
-0.0001
-0.0001
-0.0001
-0.0001
-0.0001
-0.0001
-0.0001
-0.0001
-0.0001
-0.0001
-0.0001
-0.0001
-0.0001
-0.0001
-0.0001
-0.0001
-0.0001
-0.0001
-0.0001
-0.0001
-0.0001
-0.0001
-0.0001
-0.0001
-0.0001
-0.0001
-0.0001
-0.0001
-0.0001
-0.0001
-0.0001
-0.0001
-0.0001
-0.0001
-0.0001
-0.0002
-0.0002
-0.0002
-0.0002
-0.0002
-0.0002
-0.0002
-0.0002
-0.0002
-0.0002
-0.0002
-0.0002
-0.0002
-0.0002
-0.0002
-0.0002
-0.0002
-0.0002
-0.0002
-0.0002
-0.0002
-0.0002
-0.0002
-0.0002
-0.0002
-0.0002
-0.0002
-0.0002
-0.0002
-0.0002
-0.0002
-0.0002
-0.0002
-0.0002
-0.0002
-0.0002
-0.0002
-0.0002
-0.0002
-0.0002
-0.0002
-0.0002
-0.0002
-0.0002
-0.0002
-0.0002
-0.0002
-0.0002
-0.0002
-0.0002
-0.0002
-0.0002
-0.0002
-0.0002
-0.0002
-0.0002
-0.0002
-0.0002
-0.0002
-0.0002
-0.0002
-0.0002
-0.0002
-0.0002
-0.0002
-0.0002
-0.0002
-0.0002
-0.0002
-0.0002
-0.0002
-0.0002
-0.0002
-0.0002
-0.0002
-0.0002
-0.0002
-0.0002
-0.0002
-0.0002
-0.0002
-0.0002
-0.0002
-0.0002
-0.0002
-0.0002
-0.0002
-0.0002
-0.0002
-0.0002
-0.0002
-0.0002
-0.0002
-0.0002
-0.0002
-0.0002
-0.0002
-0.0002
-0.0002
-0.0002
-0.0002
-0.0002
-0.0002
-0.0002
-0.0002
-0.0002
-0.0002
-0.0002
-0.0002
-0.0002
-0.0002
-0.0002
-0.0002
-0.0002
-0.0002
-0.0002
-0.0002
-0.0002
-0.0002
-0.0002
-0.0002
-0.0002
-0.0002
-0.0002
-0.0002
-0.0002
-0.0002
-0.0002
-0.0002
-0.0002
-0.0002
-0.0002
-0.0002
-0.0002
-0.0002
-0.0002
-0.0002
-0.0002
-0.0002
-0.0002
-0.0002
-0.0002
-0.0002
-0.0002
-0.0002
-0.0002
-0.0002
-0.0002
-0.0002
-0.0002
-0.0002
-0.0002
-0.0002
-0.0002
-0.0002
-0.0002
-0.0002
-0.0002
-0.0002
-0.0002
-0.0002
-0.0002
-0.0002
-0.0002
-0.0002
-0.0002
-0.0002
-0.0002
-0.0002
-0.0002
-0.0002
-0.0002
-0.0002
-0.0002
-0.0002
-0.0002
-0.0002
-0.0002
-0.0002
-0.0002
SCALARS strain_1 float
LOOKUP_TABLE default
-0.000052
-0.083154
-0.081897
-0.080633
-0.079363
-0.078088
-0.076807
-0.075520
-0.074230
-0.072934
-0.071635
-0.070331
-0.069024
-0.067714
-0.066402
-0.065087
-0.063770
-0.062452
-0.061133
-0.059813
-0.058493
-0.057174
-0.055856
-0.054539
-0.053224
-0.051911
-0.050602
-0.049296
-0.047994
-0.046696
-0.045404
-0.044118
-0.042839
-0.041566
-0.040301
-0.039044
-0.037796
-0.036557
-0.035329
-0.034111
-0.032905
-0.031711
-0.030529
-0.029361
-0.028207
-0.027067
-0.025942
-0.024834
-0.023741
-0.022666
-0.021609
-0.020570
-0.019549
-0.018548
-0.017567
-0.016606
-0.015667
-0.014749
-0.013853
-0.012980
-0.012129
-0.011302
-0.010498
-0.009719
-0.008964
-0.008234
-0.007529
-0.006849
-0.006195
-0.005566
-0.004964
-0.004387
-0.003837
-0.003312
-0.002814
-0.002342
-0.001896
-0.001476
-0.001082
-0.000713
-0.000370
-0.083228
-0.000002
-0.000321
-0.000665
-0.001034
-0.001430
-0.001851
-0.002298
-0.002771
-0.003271
-0.003796
-0.004348
-0.004926
-0.005530
-0.006160
-0.006816
-0.007497
-0.008204
-0.008936
-0.009692
-0.010473
-0.011278
-0.012108
-0.012960
-0.013835
-0.014733
-0.015653
-0.016594
-0.017557
-0.018540
-0.019543
-0.020565
-0.021606
-0.022666
-0.023743
-0.024837
-0.025947
-0.027074
-0.028215
-0.029372
-0.030542
-0.031726
-0.032922
-0.034130
-0.035349
-0.036580
-0.037820
-0.039070
-0.040329
-0.041596
-0.042870
-0.044152
-0.045440
-0.046734
-0.048032
-0.049336
-0.050644
-0.051955
-0.053269
-0.054586
-0.055904
-0.057224
-0.058545
-0.059866
-0.061187
-0.062508
-0.063827
-0.065145
-0.066461
-0.067775
-0.069087
-0.070394
-0.071699
-0.073000
-0.074297
-0.075589
-0.076876
-0.078158
-0.079434
-0.080705
-0.081970
-0.083221
-0.083214
-0.083207
-0.083200
-0.083193
-0.083185
-0.083178
-0.083170
-0.083162
-0.000042
-0.000033
-0.000026
-0.000019
-0.000013
-0.000009
-0.000006
-0.000003
-0.000002
-0.000321
-0.000322
-0.000324
-0.000327
-0.000332
-0.000337
-0.000344
-0.000352
-0.000360
-0.000665
-0.000666
-0.000668
-0.000671
-0.000675
-0.000681
-0.000687
-0.000695
-0.000703
-0.001034
-0.001035
-0.001037
-0.001040
-0.001044
-0.001050
-0.001056
-0.001064
-0.001072
-0.001429
-0.001430
-0.001432
-0.001435
-0.001439
-0.001444
-0.001450
-0.001458
-0.001466
-0.001850
-0.001851
-0.001853
-0.001856
-0.001860
-0.001864
-0.001871
-0.001878
-0.001886
-0.002297
-0.002298
-0.002299
-0.002302
-0.002306
-0.002311
-0.002317
-0.002324
-0.002333
-0.002770
-0.002771
-0.002772
-0.002775
-0.002779
-0.002784
-0.002789
-0.002796
-0.002805
-0.003270
-0.003270
-0.003271
-0.003274
-0.003277
-0.003282
-0.003288
-0.003295
-0.003303
-0.003795
-0.003795
-0.003797
-0.003799
-0.003802
-0.003807
-0.003813
-0.003820
-0.003828
-0.004347
-0.004347
-0.004348
-0.004350
-0.004354
-0.004358
-0.004364
-0.004370
-0.004378
-0.004925
-0.004925
-0.004926
-0.004928
-0.004931
-0.004935
-0.004941
-0.004947
-0.004955
-0.005529
-0.005529
-0.005529
-0.005531
-0.005534
-0.005538
-0.005544
-0.005550
-0.005558
-0.006159
-0.006158
-0.006159
-0.006161
-0.006164
-0.006168
-0.006173
-0.006179
-0.006186
-0.006814
-0.006814
-0.006814
-0.006816
-0.006819
-0.006823
-0.006828
-0.006833
-0.006841
-0.007495
-0.007495
-0.007495
-0.007497
-0.007499
-0.007503
-0.007508
-0.007514
-0.007521
-0.008202
-0.008201
-0.008201
-0.008203
-0.008205
-0.008209
-0.008213
-0.008219
-0.008226
-0.008933
-0.008933
-0.008933
-0.008934
-0.008936
-0.008940
-0.008944
-0.008949
-0.008956
-0.009690
-0.009689
-0.009689
-0.009690
-0.009692
-0.009695
-0.009700
-0.009705
-0.009711
-0.010471
-0.010470
-0.010470
-0.010470
-0.010472
-0.010475
-0.010479
-0.010485
-0.010491
-0.011276
-0.011275
-0.011274
-0.011275
-0.011277
-0.011280
-0.011284
-0.011289
-0.011294
-0.012105
-0.012104
-0.012103
-0.012103
-0.012105
-0.012108
-0.012112
-0.012116
-0.012122
-0.012957
-0.012956
-0.012955
-0.012955
-0.012957
-0.012959
-0.012963
-0.012967
-0.012973
-0.013832
-0.013831
-0.013830
-0.013830
-0.013831
-0.013833
-0.013837
-0.013841
-0.013847
-0.014730
-0.014728
-0.014727
-0.014727
-0.014728
-0.014731
-0.014733
-0.014738
-0.014743
-0.015650
-0.015648
-0.015647
-0.015647
-0.015647
-0.015649
-0.015652
-0.015656
-0.015661
-0.016591
-0.016589
-0.016588
-0.016587
-0.016588
-0.016590
-0.016592
-0.016596
-0.016601
-0.017554
-0.017551
-0.017550
-0.017549
-0.017550
-0.017551
-0.017554
-0.017557
-0.017562
-0.018536
-0.018534
-0.018532
-0.018532
-0.018532
-0.018533
-0.018536
-0.018539
-0.018543
-0.019539
-0.019537
-0.019535
-0.019534
-0.019534
-0.019535
-0.019537
-0.019540
-0.019544
-0.020561
-0.020559
-0.020557
-0.020556
-0.020556
-0.020557
-0.020558
-0.020561
-0.020565
-0.021602
-0.021600
-0.021598
-0.021596
-0.021596
-0.021597
-0.021599
-0.021601
-0.021604
-0.022662
-0.022659
-0.022657
-0.022655
-0.022655
-0.022655
-0.022657
-0.022659
-0.022662
-0.023739
-0.023736
-0.023733
-0.023732
-0.023731
-0.023732
-0.023733
-0.023735
-0.023738
-0.024833
-0.024830
-0.024827
-0.024825
-0.024825
-0.024825
-0.024826
-0.024828
-0.024830
-0.025943
-0.025940
-0.025937
-0.025936
-0.025935
-0.025935
-0.025935
-0.025937
-0.025939
-0.027070
-0.027066
-0.027064
-0.027062
-0.027060
-0.027060
-0.027061
-0.027062
-0.027064
-0.028211
-0.028207
-0.028205
-0.028203
-0.028201
-0.028201
-0.028201
-0.028202
-0.028204
-0.029367
-0.029364
-0.029361
-0.029358
-0.029357
-0.029356
-0.029356
-0.029357
-0.029359
-0.030537
-0.030534
-0.030530
-0.030528
-0.030527
-0.030525
-0.030525
-0.030526
-0.030527
-0.031721
-0.031717
-0.031714
-0.031711
-0.031709
-0.031708
-0.031708
-0.031708
-0.031709
-0.032917
-0.032913
-0.032909
-0.032907
-0.032905
-0.032903
-0.032903
-0.032903
-0.032903
-0.034125
-0.034121
-0.034117
-0.034114
-0.034112
-0.034111
-0.034110
-0.034109
-0.034110
-0.035344
-0.035340
-0.035336
-0.035333
-0.035331
-0.035329
-0.035328
-0.035328
-0.035328
-0.036575
-0.036570
-0.036566
-0.036563
-0.036561
-0.036558
-0.036557
-0.036556
-0.036557
-0.037815
-0.037810
-0.037806
-0.037803
-0.037800
-0.037798
-0.037797
-0.037796
-0.037795
-0.039065
-0.039060
-0.039056
-0.039053
-0.039050
-0.039047
-0.039046
-0.039044
-0.039044
-0.040323
-0.040319
-0.040314
-0.040311
-0.040308
-0.040305
-0.040303
-0.040302
-0.040301
-0.041590
-0.041585
-0.041581
-0.041577
-0.041574
-0.041571
-0.041569
-0.041568
-0.041566
-0.042865
-0.042860
-0.042856
-0.042851
-0.042848
-0.042845
-0.042842
-0.042841
-0.042839
-0.044146
-0.044141
-0.044137
-0.044133
-0.044129
-0.044126
-0.044123
-0.044121
-0.044119
-0.045434
-0.045429
-0.045424
-0.045420
-0.045416
-0.045413
-0.045410
-0.045408
-0.045406
-0.046728
-0.046722
-0.046718
-0.046713
-0.046709
-0.046706
-0.046703
-0.046701
-0.046698
-0.048027
-0.048021
-0.048017
-0.048012
-0.048008
-0.048004
-0.048001
-0.047998
-0.047996
-0.049330
-0.049325
-0.049320
-0.049315
-0.049311
-0.049307
-0.049304
-0.049301
-0.049298
-0.050638
-0.050632
-0.050627
-0.050623
-0.050618
-0.050614
-0.050610
-0.050607
-0.050604
-0.051949
-0.051943
-0.051938
-0.051933
-0.051929
-0.051925
-0.051921
-0.051918
-0.051914
-0.053263
-0.053258
-0.053252
-0.053247
-0.053242
-0.053238
-0.053234
-0.053230
-0.053227
-0.054580
-0.054574
-0.054569
-0.054563
-0.054558
-0.054554
-0.054550
-0.054546
-0.054543
-0.055898
-0.055892
-0.055887
-0.055881
-0.055877
-0.055872
-0.055867
-0.055863
-0.055860
-0.057218
-0.057212
-0.057207
-0.057201
-0.057196
-0.057191
-0.057187
-0.057182
-0.057178
-0.058539
-0.058533
-0.058527
-0.058521
-0.058516
-0.058511
-0.058506
-0.058502
-0.058498
-0.059860
-0.059854
-0.059848
-0.059842
-0.059837
-0.059832
-0.059827
-0.059822
-0.059818
-0.061181
-0.061175
-0.061169
-0.061163
-0.061157
-0.061152
-0.061147
-0.061142
-0.061138
-0.062501
-0.062495
-0.062489
-0.062483
-0.062478
-0.062472
-0.062467
-0.062462
-0.062457
-0.063821
-0.063815
-0.063809
-0.063802
-0.063797
-0.063791
-0.063786
-0.063780
-0.063775
-0.065139
-0.065133
-0.065126
-0.065120
-0.065114
-0.065108
-0.065103
-0.065097
-0.065092
-0.066455
-0.066448
-0.066442
-0.066436
-0.066430
-0.066424
-0.066418
-0.066413
-0.066407
-0.067769
-0.067762
-0.067756
-0.067750
-0.067743
-0.067738
-0.067731
-0.067726
-0.067720
-0.069080
-0.069073
-0.069067
-0.069060
-0.069054
-0.069048
-0.069042
-0.069036
-0.069030
-0.070388
-0.070382
-0.070375
-0.070368
-0.070362
-0.070356
-0.070349
-0.070343
-0.070337
-0.071692
-0.071686
-0.071679
-0.071673
-0.071666
-0.071660
-0.071653
-0.071647
-0.071640
-0.072993
-0.072986
-0.072980
-0.072973
-0.072967
-0.072960
-0.072954
-0.072947
-0.072940
-0.074290
-0.074283
-0.074276
-0.074270
-0.074263
-0.074256
-0.074249
-0.074243
-0.074236
-0.075582
-0.075575
-0.075568
-0.075561
-0.075555
-0.075548
-0.075541
-0.075534
-0.075527
-0.076869
-0.076862
-0.076855
-0.076848
-0.076841
-0.076834
-0.076828
-0.076821
-0.076814
-0.078151
-0.078144
-0.078137
-0.078130
-0.078123
-0.078116
-0.078109
-0.078102
-0.078095
-0.079427
-0.079421
-0.079413
-0.079406
-0.079399
-0.079392
-0.079385
-0.079378
-0.079371
-0.080698
-0.080691
-0.080684
-0.080677
-0.080670
-0.080663
-0.080655
-0.080648
-0.080641
-0.081963
-0.081956
-0.081949
-0.081942
-0.081934
-0.081927
-0.081920
-0.081912
-0.081905
SCALARS strain_2 float
LOOKUP_TABLE default
0.001083
0.000650
0.000648
0.000648
0.000648
0.000649
0.000648
0.000650
0.000648
0.000651
0.000650
0.000652
0.000651
0.000651
0.000653
0.000654
0.000656
0.000655
0.000656
0.000658
0.000658
0.000663
0.000665
0.000666
0.000667
0.000669
0.000672
0.000675
0.000676
0.000679
0.000681
0.000684
0.000686
0.000691
0.000694
0.000698
0.000702
0.000705
0.000709
0.000713
0.000717
0.000722
0.000729
0.000732
0.000738
0.000744
0.000748
0.000753
0.000762
0.000765
0.000774
0.000780
0.000787
0.000795
0.000803
0.000810
0.000818
0.000827
0.000834
0.000844
0.000851
0.000861
0.000869
0.000878
0.000890
0.000900
0.000908
0.000919
0.000931
0.000941
0.000950
0.000962
0.000975
0.000984
0.000996
0.001008
0.001020
0.001031
0.001045
0.001058
0.001070
0.002087
0.002115
0.002115
0.002117
0.002119
0.002121
0.002121
0.002122
0.002124
0.002126
0.002126
0.002127
0.002129
0.002130
0.002130
0.002133
0.002133
0.002133
0.002134
0.002137
0.002137
0.002138
0.002139
0.002137
0.002139
0.002141
0.002140
0.002142
0.002143
0.002143
0.002144
0.002142
0.002144
0.002145
0.002144
0.002144
0.002145
0.002145
0.002146
0.002147
0.002144
0.002144
0.002144
0.002145
0.002144
0.002141
0.002143
0.002143
0.002142
0.002141
0.002141
0.002138
0.002140
0.002140
0.002136
0.002136
0.002136
0.002134
0.002132
0.002131
0.002129
0.002128
0.002126
0.002126
0.002124
0.002124
0.002121
0.002118
0.002117
0.002115
0.002113
0.002111
0.002108
0.002106
0.002105
0.002102
0.002100
0.002097
0.002096
0.002092
0.002091
0.001943
0.001800
0.001656
0.001512
0.001366
0.001225
0.001081
0.000936
0.000792
0.001187
0.001290
0.001393
0.001495
0.001599
0.001701
0.001805
0.001907
0.002011
0.002012
0.001906
0.001803
0.001697
0.001593
0.001489
0.001385
0.001280
0.001176
0.002011
0.001905
0.001799
0.001694
0.001589
0.001482
0.001376
0.001270
0.001164
0.002010
0.001904
0.001798
0.001690
0.001581
0.001475
0.001367
0.001258
0.001152
0.002010
0.001903
0.001796
0.001685
0.001578
0.001467
0.001360
0.001250
0.001139
0.002010
0.001902
0.001790
0.001681
0.001573
0.001461
0.001351
0.001242
0.001130
0.002010
0.001901
0.001788
0.001677
0.001566
0.001456
0.001343
0.001231
0.001119
0.002011
0.001899
0.001785
0.001673
0.001559
0.001447
0.001335
0.001222
0.001110
0.002011
0.001897
0.001783
0.001669
0.001556
0.001442
0.001326
0.001212
0.001097
0.002011
0.001897
0.001781
0.001666
0.001550
0.001436
0.001318
0.001205
0.001088
0.002012
0.001894
0.001779
0.001661
0.001544
0.001429
0.001311
0.001195
0.001078
0.002010
0.001892
0.001774
0.001658
0.001540
0.001422
0.001303
0.001187
0.001070
0.002012
0.001891
0.001774
0.001655
0.001535
0.001417
0.001298
0.001178
0.001060
0.002010
0.001891
0.001771
0.001651
0.001530
0.001411
0.001291
0.001170
0.001050
0.002011
0.001889
0.001769
0.001646
0.001526
0.001403
0.001282
0.001160
0.001040
0.002011
0.001889
0.001766
0.001642
0.001522
0.001398
0.001277
0.001155
0.001031
0.002009
0.001888
0.001764
0.001640
0.001517
0.001393
0.001270
0.001147
0.001022
0.002011
0.001887
0.001761
0.001636
0.001512
0.001388
0.001262
0.001138
0.001014
0.002010
0.001885
0.001759
0.001633
0.001507
0.001382
0.001255
0.001131
0.001004
0.002010
0.001883
0.001758
0.001628
0.001505
0.001376
0.001249
0.001123
0.000998
0.002011
0.001882
0.001755
0.001628
0.001501
0.001372
0.001243
0.001117
0.000989
0.002010
0.001880
0.001752
0.001624
0.001496
0.001366
0.001237
0.001109
0.000982
0.002010
0.001882
0.001751
0.001621
0.001491
0.001362
0.001231
0.001102
0.000972
0.002011
0.001880
0.001750
0.001617
0.001487
0.001358
0.001227
0.001095
0.000964
0.002009
0.001877
0.001747
0.001615
0.001483
0.001352
0.001222
0.001089
0.000959
0.002009
0.001878
0.001745
0.001612
0.001478
0.001347
0.001217
0.001082
0.000950
0.002008
0.001877
0.001744
0.001610
0.001475
0.001343
0.001210
0.001077
0.000944
0.002008
0.001874
0.001742
0.001607
0.001473
0.001337
0.001204
0.001070
0.000936
0.002009
0.001874
0.001739
0.001604
0.001470
0.001334
0.001200
0.001064
0.000931
0.002007
0.001873
0.001738
0.001600
0.001468
0.001330
0.001195
0.001060
0.000923
0.002007
0.001873
0.001735
0.001598
0.001462
0.001326
0.001188
0.001055
0.000916
0.002008
0.001871
0.001734
0.001596
0.001459
0.001324
0.001186
0.001048
0.000910
0.002007
0.001868
0.001732
0.001594
0.001457
0.001319
0.001181
0.001044
0.000904
0.002008
0.001868
0.001730
0.001592
0.001455
0.001314
0.001176
0.001038
0.000900
0.002006
0.001866
0.001728
0.001589
0.001449
0.001312
0.001172
0.001033
0.000894
0.002005
0.001867
0.001726
0.001587
0.001446
0.001308
0.001168
0.001029
0.000887
0.002003
0.001867
0.001725
0.001585
0.001446
0.001305
0.001164
0.001024
0.000884
0.002006
0.001862
0.001723
0.001581
0.001442
0.001301
0.001160
0.001019
0.000880
0.002004
0.001862
0.001722
0.001580
0.001439
0.001298
0.001157
0.001015
0.000873
0.002004
0.001862
0.001720
0.001579
0.001436
0.001295
0.001153
0.001010
0.000870
0.002004
0.001861
0.001718
0.001575
0.001435
0.001291
0.001151
0.001007
0.000865
0.002002
0.001860
0.001717
0.001575
0.001432
0.001289
0.001147
0.001002
0.000860
0.002003
0.001856
0.001715
0.001573
0.001429
0.001287
0.001142
0.000999
0.000856
0.002001
0.001858
0.001713
0.001571
0.001426
0.001282
0.001139
0.000995
0.000853
0.001999
0.001857
0.001713
0.001568
0.001425
0.001281
0.001137
0.000994
0.000849
0.001998
0.001854
0.001710
0.001567
0.001424
0.001279
0.001134
0.000989
0.000844
0.001997
0.001854
0.001709
0.001564
0.001420
0.001277
0.001130
0.000986
0.000842
0.001999
0.001852
0.001708
0.001562
0.001419
0.001273
0.001128
0.000985
0.000839
0.001996
0.001852
0.001706
0.001561
0.001416
0.001272
0.001126
0.000981
0.000835
0.001995
0.001851
0.001704
0.001561
0.001414
0.001270
0.001124
0.000978
0.000832
0.001995
0.001849
0.001703
0.001558
0.001411
0.001268
0.001122
0.000976
0.000827
0.001992
0.001848
0.001702
0.001556
0.001410
0.001266
0.001118
0.000971
0.000826
0.001992
0.001845
0.001701
0.001555
0.001409
0.001261
0.001117
0.000971
0.000824
0.001992
0.001844
0.001699
0.001554
0.001406
0.001262
0.001115
0.000968
0.000820
0.001991
0.001844
0.001699
0.001553
0.001405
0.001258
0.001112
0.000965
0.000820
0.001990
0.001841
0.001696
0.001549
0.001403
0.001257
0.001110
0.000965
0.000818
0.001987
0.001842
0.001695
0.001547
0.001401
0.001255
0.001108
0.000962
0.000816
0.001988
0.001839
0.001693
0.001545
0.001401
0.001254
0.001110
0.000959
0.000813
0.001984
0.001838
0.001692
0.001545
0.001399
0.001253
0.001103
0.000959
0.000810
0.001984
0.001837
0.001691
0.001542
0.001396
0.001250
0.001104
0.000957
0.000809
0.001982
0.001835
0.001689
0.001543
0.001394
0.001251
0.001103
0.000956
0.000809
0.001980
0.001834
0.001688
0.001540
0.001394
0.001248
0.001100
0.000953
0.000807
0.001978
0.001832
0.001687
0.001539
0.001392
0.001246
0.001100
0.000951
0.000805
0.001978
0.001832
0.001686
0.001539
0.001391
0.001243
0.001096
0.000952
0.000804
0.001975
0.001830
0.001683
0.001537
0.001389
0.001242
0.001094
0.000949
0.000804
0.001974
0.001827
0.001682
0.001535
0.001387
0.001241
0.001095
0.000949
0.000801
0.001974
0.001826
0.001680
0.001533
0.001386
0.001239
0.001094
0.000947
0.000800
0.001971
0.001823
0.001679
0.001531
0.001385
0.001238
0.001093
0.000946
0.000799
0.001967
0.001824
0.001677
0.001531
0.001385
0.001238
0.001091
0.000944
0.000799
0.001968
0.001820
0.001675
0.001529
0.001381
0.001235
0.001091
0.000944
0.000797
0.001965
0.001818
0.001673
0.001528
0.001382
0.001234
0.001090
0.000942
0.000796
0.001965
0.001818
0.001672
0.001526
0.001379
0.001235
0.001089
0.000942
0.000797
0.001962
0.001816
0.001669
0.001524
0.001378
0.001233
0.001087
0.000941
0.000794
0.001960
0.001812
0.001668
0.001522
0.001376
0.001233
0.001085
0.000941
0.000796
0.001957
0.001813
0.001667
0.001520
0.001376
0.001229
0.001085
0.000939
0.000795
0.001955
0.001811
0.001666
0.001520
0.001374
0.001229
0.001084
0.000939
0.000792
0.001953
0.001809
0.001663
0.001517
0.001373
0.001231
0.001086
0.000936
0.000794
0.001951
0.001806
0.001661
0.001517
0.001372
0.001227
0.001082
0.000938
0.000794
0.001949
0.001803
0.001659
0.001513
0.001372
0.001228
0.001082
0.000938
0.000793
0.001945
0.001800
0.001657
0.001513
0.001370
0.001226
0.001080
0.000937
0.000792
SCALARS strain_3 float
LOOKUP_TABLE default
0.000422
0.027737
0.027346
0.026953
0.026558
0.026160
0.025760
0.025358
0.024955
0.024550
0.024144
0.023736
0.023325
0.022916
0.022504
0.022090
0.021676
0.021261
0.020846
0.020430
0.020014
0.019596
0.019179
0.018763
0.018345
0.017928
0.017513
0.017097
0.016682
0.016268
0.015855
0.015444
0.015034
0.014626
0.014219
0.013814
0.013411
0.013011
0.012613
0.012218
0.011826
0.011437
0.011052
0.010670
0.010291
0.009916
0.009548
0.009181
0.008817
0.008461
0.008109
0.007762
0.007419
0.007083
0.006752
0.006427
0.006107
0.005794
0.005487
0.005187
0.004892
0.004606
0.004324
0.004050
0.003784
0.003526
0.003274
0.003028
0.002790
0.002562
0.002341
0.002127
0.001921
0.001723
0.001532
0.001349
0.001176
0.001009
0.000850
0.000700
0.000557
0.027030
-0.000225
-0.000096
0.000041
0.000186
0.000341
0.000502
0.000671
0.000850
0.001036
0.001230
0.001431
0.001640
0.001857
0.002083
0.002316
0.002558
0.002806
0.003062
0.003326
0.003596
0.003873
0.004158
0.004450
0.004748
0.005052
0.005363
0.005680
0.006004
0.006333
0.006668
0.007008
0.007354
0.007706
0.008062
0.008422
0.008787
0.009157
0.009532
0.009910
0.010291
0.010678
0.011066
0.011457
0.011852
0.012251
0.012651
0.013054
0.013459
0.013867
0.014275
0.014686
0.015098
0.015513
0.015927
0.016344
0.016760
0.017178
0.017594
0.018013
0.018432
0.018851
0.019268
0.019687
0.020105
0.020522
0.020939
0.021353
0.021768
0.022181
0.022596
0.023007
0.023417
0.023825
0.024232
0.024638
0.025042
0.025444
0.025843
0.026242
0.026638
0.027102
0.027172
0.027243
0.027314
0.027385
0.027455
0.027527
0.027597
0.027666
0.000356
0.000289
0.000224
0.000159
0.000094
0.000030
-0.000034
-0.000097
-0.000162
-0.000031
0.000031
0.000096
0.000162
0.000227
0.000292
0.000358
0.000423
0.000490
0.000106
0.000171
0.000235
0.000301
0.000367
0.000433
0.000498
0.000564
0.000633
0.000252
0.000317
0.000382
0.000449
0.000514
0.000581
0.000647
0.000715
0.000782
0.000405
0.000472
0.000538
0.000603
0.000671
0.000737
0.000804
0.000873
0.000941
0.000567
0.000634
0.000700
0.000766
0.000833
0.000902
0.000970
0.001038
0.001107
0.000737
0.000804
0.000872
0.000939
0.001007
0.001075
0.001144
0.001210
0.001281
0.000916
0.000984
0.001051
0.001119
0.001188
0.001253
0.001323
0.001393
0.001462
0.001102
0.001170
0.001238
0.001305
0.001375
0.001443
0.001512
0.001583
0.001651
0.001296
0.001364
0.001432
0.001502
0.001571
0.001640
0.001709
0.001780
0.001850
0.001499
0.001567
0.001636
0.001705
0.001774
0.001845
0.001914
0.001985
0.002056
0.001709
0.001778
0.001847
0.001917
0.001986
0.002056
0.002128
0.002197
0.002269
0.001926
0.001996
0.002065
0.002136
0.002205
0.002276
0.002347
0.002419
0.002491
0.002153
0.002222
0.002292
0.002362
0.002433
0.002505
0.002576
0.002648
0.002720
0.002386
0.002456
0.002527
0.002597
0.002668
0.002739
0.002811
0.002883
0.002956
0.002627
0.002697
0.002768
0.002840
0.002911
0.002983
0.003055
0.003127
0.003199
0.002876
0.002947
0.003018
0.003089
0.003160
0.003234
0.003307
0.003379
0.003452
0.003133
0.003203
0.003275
0.003346
0.003420
0.003492
0.003564
0.003637
0.003711
0.003395
0.003466
0.003539
0.003611
0.003684
0.003757
0.003830
0.003904
0.003976
0.003667
0.003738
0.003811
0.003883
0.003957
0.004029
0.004102
0.004176
0.004249
0.003944
0.004017
0.004090
0.004162
0.004234
0.004308
0.004382
0.004456
0.004530
0.004230
0.004302
0.004375
0.004448
0.004521
0.004595
0.004668
0.004743
0.004817
0.004522
0.004594
0.004668
0.004740
0.004814
0.004888
0.004962
0.005036
0.005111
0.004820
0.004893
0.004966
0.005040
0.005113
0.005188
0.005262
0.005337
0.005411
0.005124
0.005199
0.005271
0.005344
0.005419
0.005494
0.005569
0.005643
0.005718
0.005437
0.005509
0.005584
0.005657
0.005732
0.005806
0.005881
0.005956
0.006032
0.005754
0.005827
0.005902
0.005975
0.006050
0.006125
0.006200
0.006275
0.006350
0.006078
0.006152
0.006225
0.006300
0.006374
0.006448
0.006525
0.006599
0.006675
0.006407
0.006482
0.006555
0.006630
0.006705
0.006780
0.006855
0.006931
0.007007
0.006742
0.006817
0.006891
0.006964
0.007041
0.007116
0.007190
0.007267
0.007342
0.007082
0.007156
0.007232
0.007306
0.007381
0.007457
0.007534
0.007609
0.007685
0.007429
0.007504
0.007579
0.007653
0.007729
0.007804
0.007880
0.007956
0.008032
0.007780
0.007855
0.007930
0.008004
0.008081
0.008155
0.008233
0.008309
0.008384
0.008137
0.008211
0.008286
0.008362
0.008437
0.008513
0.008588
0.008665
0.008741
0.008496
0.008572
0.008647
0.008722
0.008799
0.008874
0.008951
0.009026
0.009103
0.008863
0.008937
0.009013
0.009087
0.009164
0.009240
0.009316
0.009392
0.009469
0.009232
0.009307
0.009383
0.009459
0.009534
0.009610
0.009687
0.009763
0.009840
0.009607
0.009682
0.009756
0.009833
0.009910
0.009985
0.010061
0.010137
0.010214
0.009985
0.010060
0.010136
0.010211
0.010287
0.010363
0.010440
0.010516
0.010593
0.010367
0.010441
0.010517
0.010592
0.010670
0.010745
0.010822
0.010898
0.010976
0.010751
0.010828
0.010903
0.010978
0.011055
0.011130
0.011208
0.011283
0.011360
0.011141
0.011215
0.011291
0.011368
0.011443
0.011518
0.011595
0.011673
0.011749
0.011533
0.011608
0.011685
0.011760
0.011837
0.011912
0.011988
0.012065
0.012141
0.011928
0.012003
0.012079
0.012154
0.012230
0.012307
0.012382
0.012460
0.012537
0.012326
0.012402
0.012477
0.012553
0.012628
0.012706
0.012781
0.012858
0.012934
0.012726
0.012802
0.012877
0.012954
0.013029
0.013105
0.013182
0.013258
0.013334
0.013129
0.013205
0.013279
0.013357
0.013432
0.013507
0.013584
0.013660
0.013736
0.013534
0.013610
0.013686
0.013762
0.013837
0.013913
0.013990
0.014065
0.014143
0.013941
0.014017
0.014092
0.014169
0.014244
0.014320
0.014396
0.014473
0.014549
0.014351
0.014427
0.014502
0.014577
0.014652
0.014729
0.014805
0.014882
0.014957
0.014761
0.014837
0.014913
0.014988
0.015063
0.015139
0.015215
0.015292
0.015368
0.015173
0.015249
0.015324
0.015400
0.015475
0.015551
0.015627
0.015703
0.015779
0.015586
0.015662
0.015737
0.015813
0.015889
0.015965
0.016040
0.016116
0.016192
0.016001
0.016076
0.016153
0.016228
0.016303
0.016380
0.016454
0.016531
0.016605
0.016418
0.016493
0.016568
0.016643
0.016719
0.016793
0.016870
0.016946
0.017021
0.016835
0.016910
0.016984
0.017059
0.017135
0.017211
0.017287
0.017361
0.017437
0.017252
0.017326
0.017401
0.017477
0.017552
0.017627
0.017703
0.017778
0.017853
0.017670
0.017743
0.017819
0.017893
0.017969
0.018044
0.018119
0.018194
0.018270
0.018087
0.018163
0.018237
0.018312
0.018387
0.018461
0.018538
0.018611
0.018687
0.018506
0.018581
0.018655
0.018729
0.018804
0.018879
0.018955
0.019030
0.019105
0.018925
0.018999
0.019073
0.019148
0.019222
0.019297
0.019372
0.019447
0.019522
0.019342
0.019417
0.019491
0.019565
0.019640
0.019715
0.019789
0.019864
0.019939
0.019761
0.019834
0.019909
0.019984
0.020057
0.020132
0.020206
0.020281
0.020357
0.020179
0.020253
0.020326
0.020400
0.020474
0.020549
0.020623
0.020698
0.020772
0.020596
0.020669
0.020744
0.020817
0.020891
0.020965
0.021039
0.021114
0.021188
0.021012
0.021086
0.021159
0.021233
0.021307
0.021381
0.021455
0.021529
0.021603
0.021427
0.021500
0.021575
0.021648
0.021722
0.021797
0.021870
0.021943
0.022018
0.021843
0.021916
0.021989
0.022063
0.022137
0.022209
0.022283
0.022356
0.022429
0.022257
0.022329
0.022402
0.022475
0.022549
0.022622
0.022695
0.022769
0.022842
0.022669
0.022742
0.022815
0.022887
0.022962
0.023034
0.023107
0.023181
0.023253
0.023079
0.023152
0.023226
0.023298
0.023372
0.023444
0.023518
0.023589
0.023662
0.023490
0.023563
0.023635
0.023708
0.023781
0.023853
0.023926
0.023999
0.024071
0.023897
0.023971
0.024043
0.024116
0.024188
0.024261
0.024332
0.024406
0.024478
0.024305
0.024377
0.024450
0.024521
0.024595
0.024666
0.024739
0.024811
0.024883
0.024710
0.024782
0.024854
0.024927
0.024998
0.025071
0.025143
0.025214
0.025287
0.025114
0.025185
0.025258
0.025330
0.025402
0.025474
0.025546
0.025618
0.025688
0.025517
0.025587
0.025659
0.025730
0.025802
0.025873
0.025945
0.026017
0.026088
0.025916
0.025987
0.026058
0.026130
0.026201
0.026273
0.026344
0.026415
0.026486
0.026313
0.026385
0.026455
0.026526
0.026597
0.026669
0.026740
0.026811
0.026881
0.026708
0.026779
0.026850
0.026922
0.026992
0.027064
0.027135
0.027206
0.027276
SCALARS stress_1 float
LOOKUP_TABLE default
729.336155
-632221.465461
-622651.386691
-613032.995421
-603366.916651
-593659.337881
-583909.134110
-574120.367840
-564294.351570
-554435.647800
-544543.569030
-534623.302759
-524676.348989
-514705.395219
-504715.566449
-494705.112678
-484684.283908
-474648.017638
-464608.751368
-454563.235098
-444518.218827
-434474.077557
-424437.123787
-414414.420017
-404401.716247
-394411.012476
-384439.683706
-374496.542436
-364583.651166
-354706.072396
-344871.368625
-335076.664855
-325333.711085
-315642.007315
-306009.991045
-296438.474774
-286936.646004
-277504.004734
-268149.988464
-258878.284693
-249693.018423
-240596.814653
-231599.548383
-222702.032113
-213911.078342
-205230.124572
-196666.670802
-188221.342032
-179901.450762
-171710.746991
-163655.855721
-155736.339451
-147963.698181
-140337.056911
-132863.103140
-125542.961870
-118383.820600
-111386.804330
-104561.475560
-97904.396789
-91420.630519
-85116.176749
-78991.347979
-73047.394209
-67291.565438
-61727.861668
-56349.345398
-51166.141628
-46175.687857
-41381.234087
-36785.655317
-32386.014047
-28183.935277
-24180.356506
-20378.090236
-16773.136466
-13366.182696
-10157.978926
-7144.025155
-4327.696385
-1705.742615
-631291.821125
2270.605492
-154.410779
-2772.489549
-5583.755819
-8590.584589
-11795.163359
-15198.492130
-18796.570900
-22599.337170
-26599.290940
-30799.369710
-35198.698481
-39796.089751
-44587.918521
-49577.622291
-54763.326061
-60142.029832
-65712.671102
-71470.749872
-77415.703642
-83545.282412
-89853.548683
-96343.814953
-103004.831223
-109839.909993
-116842.113763
-124006.567534
-131333.396304
-138817.162574
-146449.678844
-154233.320115
-162159.836385
-170223.477655
-178423.743925
-186753.010195
-195207.463966
-203783.667736
-212473.184006
-221275.637776
-230183.154046
-239191.732817
-248298.436587
-257495.515357
-266779.656627
-276144.735397
-285588.439168
-295105.330438
-304688.346708
-314332.112978
-324034.504248
-333792.583019
-343597.224289
-353445.928059
-363336.694329
-373261.898099
-383216.164370
-393198.118140
-403204.196910
-413226.838180
-423265.229451
-433312.245721
-443368.636991
-453425.965761
-463485.107031
-473538.498302
-483583.202072
-493618.030842
-503638.922112
-513641.875882
-523622.892153
-533583.658423
-543515.674693
-553419.190963
-563290.769733
-573126.223504
-582927.302274
-592686.568544
-602405.147314
-612081.601084
-621710.804855
-631389.048059
-631485.274992
-631579.126926
-631673.041359
-631767.143293
-631859.620227
-631952.284660
-632043.824094
-632132.426028
920.125589
1105.727522
1278.641956
1444.806390
1603.658323
1753.072757
1895.299691
2026.526624
2152.628558
-271.825212
-397.864646
-529.966579
-674.568513
-825.670447
-986.084880
-1150.749314
-1325.413748
-1511.515681
-2889.028982
-3015.068416
-3149.670350
-3294.709783
-3443.999217
-3605.351151
-3773.703084
-3949.117518
-4134.031952
-5703.295253
-5829.147186
-5963.749120
-6108.476054
-6260.327987
-6420.367421
-6589.156854
-6766.383788
-6951.985722
-8709.874023
-8837.413456
-8972.015390
-9117.367324
-9268.031757
-9431.758691
-9599.673125
-9777.525058
-9963.876992
-11915.577793
-12042.367227
-12177.406660
-12323.071094
-12474.985528
-12637.837461
-12805.626895
-12984.478829
-13170.643262
-15317.781563
-15445.008497
-15579.235431
-15724.462364
-15879.376798
-16041.791231
-16213.518165
-16389.870099
-16578.784532
-18918.485333
-19047.899767
-19182.501701
-19328.228634
-19481.580568
-19642.682502
-19815.534435
-19993.011369
-20183.488303
-22719.814104
-22848.603537
-22984.580471
-23130.369905
-23285.409338
-23446.761272
-23617.800706
-23797.215139
-23985.192073
-26718.642874
-26848.244807
-26984.659241
-27129.636175
-27285.488108
-27447.027542
-27620.629476
-27800.106409
-27987.770843
-30918.971644
-31046.386078
-31186.175511
-31330.589945
-31486.816879
-31648.668812
-31818.958246
-31999.872680
-32187.912113
-35316.550414
-35448.589848
-35584.254282
-35730.168715
-35883.958149
-36047.560082
-36218.349516
-36397.951450
-36587.303383
-39917.316684
-40044.856118
-40181.645552
-40329.434985
-40482.849419
-40645.701353
-40817.490786
-40996.217720
-41185.632154
-44709.645455
-44837.434888
-44975.411822
-45124.076256
-45277.990689
-45441.217623
-45611.757057
-45792.296490
-45978.398424
-49701.661725
-49829.638659
-49967.115592
-50113.842526
-50267.131959
-50431.671393
-50600.398327
-50781.687760
-50968.289694
-54886.865495
-55015.279929
-55153.569362
-55297.921296
-55455.335730
-55616.687663
-55786.664597
-55966.391531
-56154.118464
-60262.944265
-60394.046199
-60531.148133
-60677.187566
-60830.664500
-60993.141434
-61163.493367
-61344.720301
-61531.447234
-65834.273035
-65963.249969
-66101.539403
-66245.391336
-66400.993270
-66562.532704
-66733.447137
-66912.361571
-67099.026005
-71591.601806
-71719.953739
-71859.368173
-72003.907607
-72159.947040
-72320.173974
-72489.588408
-72667.065341
-72854.979775
-77537.555576
-77666.595010
-77803.009443
-77948.611377
-78102.900810
-78263.877744
-78433.854678
-78611.456611
-78797.808545
-83666.009346
-83797.361280
-83931.650713
-84077.190147
-84230.542081
-84391.706514
-84560.308448
-84738.847882
-84922.324815
-89974.775616
-90104.127550
-90242.979484
-90387.581417
-90539.370851
-90699.535285
-90869.199718
-91043.864152
-91229.716086
-96463.041887
-96591.768820
-96727.558254
-96871.972687
-97025.262121
-97185.051555
-97354.278488
-97528.505422
-97711.857356
-103123.808157
-103254.972590
-103390.324524
-103535.863958
-103687.590891
-103846.380325
-104014.107259
-104188.521692
-104369.748626
-109959.386927
-110088.238861
-110224.715794
-110367.630228
-110518.482162
-110676.459095
-110845.561029
-111017.725462
-111199.202396
-116962.278197
-117091.130131
-117225.982064
-117368.333998
-117519.935932
-117677.475365
-117842.514799
-118016.991733
-118195.281166
-124128.544467
-124256.208901
-124391.373335
-124533.787768
-124683.327202
-124841.179136
-125004.906069
-125175.758003
-125356.172437
-131452.935738
-131581.725171
-131717.202105
-131857.429038
-132007.093472
-132164.507906
-132327.422339
-132499.586773
-132677.501207
-138936.202008
-139061.491441
-139195.905875
-139337.632809
-139486.172242
-139642.961676
-139804.438610
-139976.290543
-140153.079977
-146571.343278
-146698.007712
-146830.172145
-146972.836579
-147118.438513
-147272.602946
-147436.892380
-147603.556814
-147782.658747
-154352.609548
-154477.273982
-154612.000915
-154752.165349
-154900.017283
-155053.619216
-155213.971150
-155383.198084
-155555.362517
-162277.875818
-162402.790252
-162536.142186
-162677.681619
-162823.721053
-162977.072987
-163134.237420
-163301.464354
-163475.941288
-170341.079589
-170467.431522
-170598.408456
-170738.510390
-170882.424823
-171036.464257
-171193.941190
-171360.668124
-171534.207558
-178540.033359
-178665.822792
-178799.112226
-178936.714160
-179080.191093
-179231.543027
-179390.332461
-179552.934394
-179725.786328
-186870.674629
-186994.589063
-187127.003496
-187264.355430
-187405.832364
-187557.809297
-187714.286231
-187877.825665
-188046.990098
-195323.940899
-195448.480333
-195579.894767
-195715.371700
-195860.161134
-196009.075567
-196163.427501
-196324.904435
-196490.756368
-203899.957169
-204024.309103
-204153.286037
-204288.825470
-204431.364904
-204578.154338
-204733.381271
-204891.858205
-205058.210139
-212590.098440
-212713.262873
-212841.989807
-212977.591741
-213119.943674
-213266.670608
-213418.772542
-213576.749475
-213741.288909
-221393.239710
-221514.091643
-221645.256077
-221776.170511
-221918.209944
-222062.686878
-222214.976312
-222371.453245
-222534.992679
-230299.818480
-230421.295414
-230548.959847
-230682.311781
-230820.913715
-230966.078148
-231116.117582
-231271.219516
-231432.508949
-239308.272250
-239430.686684
-239556.726118
-239691.078051
-239827.679985
-239969.969418
-240119.258852
-240273.548286
-240431.962719
-248415.351020
-248534.452954
-248660.304888
-248792.906821
-248928.883755
-249072.923189
-249218.400122
-249369.877056
-249530.103990
-257610.242291
-257730.469224
-257857.883658
-257986.673092
-258123.337525
-258265.814459
-258410.728893
-258561.268326
-258716.932760
-266895.508561
-267014.235495
-267140.212428
-267270.876862
-267403.416295
-267543.830729
-267687.182663
-267837.909596
-267991.949030
-276260.649831
-276381.314265
-276503.041198
-276632.768132
-276766.432566
-276905.409499
-277047.448933
-277196.050867
-277348.340300
-285700.916101
-285822.580535
-285943.557469
-286073.471902
-286204.448836
-286344.425770
-286483.777703
-286630.129637
-286783.106570
-295217.932371
-295336.534305
-295458.511239
-295585.863172
-295716.590106
-295852.442040
-295992.168973
-296135.958407
-296285.872841
-304799.698642
-304917.613075
-305038.777509
-305165.754443
-305293.668876
-305429.083310
-305570.122744
-305712.349677
-305858.951611
-314444.527412
-314561.254346
-314683.293779
-314809.083213
-314936.185146
-315070.412080
-315207.389014
-315347.428447
-315493.092881
-324147.918682
-324262.333116
-324385.060049
-324506.536983
-324637.388917
-324766.740850
-324903.155284
-325041.882218
-325186.796651
-333902.497452
-334019.099386
-334139.138820
-334260.678253
-334387.405187
-334518.069621
-334651.546554
-334790.398488
-334932.187922
-343708.576223
-343824.490656
-343941.592590
-344064.132023
-344189.921457
-344319.210891
-344450.062824
-344587.914758
-344726.829192
-353557.904993
-353672.444426
-353789.671360
-353911.023294
-354034.125227
-354162.539661
-354292.766595
-354427.743528
-354565.595462
-363446.608763
-363558.710697
-363677.000130
-363797.539564
-363919.391498
-364044.055931
-364176.907865
-364307.822298
-364446.986732
-373370.375033
-373482.664467
-373601.266400
-373718.993334
-373840.720268
-373965.072201
-374094.361635
-374224.776069
-374360.253002
-383326.266303
-383437.743237
-383553.345171
-383672.884604
-383792.799038
-383915.338472
-384041.190405
-384171.479839
-384303.706773
-393306.720074
-393418.384507
-393532.673941
-393651.213375
-393771.252808
-393893.354742
-394017.519175
-394145.558609
-394275.660543
-403312.173844
-403422.900777
-403536.752711
-403652.479645
-403772.144078
-403890.496012
-404014.722946
-404143.012379
-404270.551813
-413334.877614
-413445.542048
-413558.331481
-413672.495915
-413791.097849
-413909.699782
-414032.239216
-414156.278650
-414284.380583
-423373.643884
-423482.245818
-423592.660251
-423708.012185
-423824.051619
-423942.528552
-424061.505486
-424186.044920
-424310.834353
-433419.972654
-433530.512088
-433642.114022
-433754.778455
-433867.755389
-433985.607323
-434105.334256
-434224.248690
-434349.663124
-443475.051425
-443583.403358
-443694.005292
-443805.544726
-443919.334159
-444035.811093
-444152.288026
-444270.639960
-444394.741894
-453532.630195
-453639.732128
-453749.709062
-453860.623496
-453975.287929
-454088.202363
-454204.491797
-454322.093730
-454441.508164
-463589.333965
-463696.685899
-463803.475332
-463914.827266
-464027.241700
-464140.343633
-464254.508067
-464371.797501
-464490.274434
-473642.850235
-473749.077169
-473856.054103
-473966.281036
-474076.132970
-474186.734903
-474299.711837
-474415.688771
-474531.915704
-483689.804005
-483792.468439
-483901.882873
-484007.297306
-484117.086740
-484227.313674
-484339.853107
-484453.830041
-484566.306975
-493721.882776
-493828.109709
-493932.086643
-494039.438577
-494148.853010
-494256.017444
-494368.369378
-494479.908811
-494593.073245
-503742.399046
-503845.313479
-503951.415413
-504057.517347
-504165.306780
-504273.846214
-504381.823148
-504491.737581
-504602.777015
-513745.540316
-513848.392250
-513953.056683
-514056.908617
-514162.948051
-514269.362484
-514377.214418
-514486.878852
-514595.105785
-523725.431586
-523829.471020
-523933.197954
-524037.049887
-524143.464321
-524247.253754
-524353.980688
-524458.520122
-524567.434555
-533685.385356
-533784.799790
-533891.026724
-533992.941157
-534096.043091
-534199.770025
-534305.559458
-534411.973892
-534517.700826
-543616.589127
-543716.253560
-543820.355494
-543922.207428
-544024.246861
-544127.723795
-544230.388229
-544334.490162
-544440.404596
-553519.542897
-553622.832331
-553721.559264
-553822.661198
-553924.825631
-554027.302565
-554126.591999
-554228.818932
-554332.608366
-563389.809167
-563489.973601
-563590.450534
-563691.302468
-563790.091902
-563891.881335
-563993.045769
-564093.147703
-564195.062136
-573226.075437
-573325.177371
-573425.341805
-573523.068738
-573623.858172
-573722.772606
-573823.874539
-573922.538973
-574022.515906
-583026.091707
-583125.006141
-583222.670575
-583322.397508
-583420.749442
-583519.913876
-583615.765809
-583715.680243
-583811.907177
-592785.607978
-592884.959911
-592981.999345
-593080.476279
-593177.578212
-593274.555146
-593371.344580
-593466.821513
-593565.110947
-602504.936748
-602600.413682
-602698.515615
-602797.305049
-602892.781983
-602989.946416
-603083.985850
-603179.462783
-603274.189717
-612179.265518
-612276.929952
-612373.594385
-612469.446319
-612563.548253
-612659.087686
-612753.564620
-612845.916554
-612939.643487
-621808.219288
-621904.508722
-622000.235656
-622095.462589
-622189.314523
-622283.291457
-622376.580890
-622468.620324
-622559.409758
SCALARS stress_2 float
LOOKUP_TABLE default
8293.417750
-89156.050429
-87721.344577
-86288.638725
-84845.932872
-83410.227020
-81956.521168
-80487.815316
-79032.109463
-77566.403611
-76092.697759
-74606.991907
-73124.286054
-71632.580202
-70128.874350
-68641.168498
-67141.462645
-65636.756793
-64128.050941
-62640.345089
-61128.639237
-59612.933384
-58116.227532
-56605.521680
-55100.815828
-53596.109975
-52103.404123
-50607.698271
-49102.992419
-47616.286566
-46134.580714
-44653.874862
-43178.169010
-41722.463157
-40249.757305
-38798.051453
-37348.345601
-35934.639748
-34501.933896
-33087.228044
-31703.522192
-30303.816339
-28925.110487
-27575.404635
-26224.698783
-24885.992930
-23565.287078
-22270.581226
-20986.875374
-19717.169521
-18468.463669
-17234.757817
-16043.051965
-14847.346112
-13672.640260
-12541.934408
-11406.228556
-10308.522703
-9233.816851
-8181.110999
-7149.405147
-6137.699294
-5157.993442
-4211.287590
-3277.581738
-2371.875885
-1490.170033
-661.464181
180.241671
962.947523
1728.653376
2466.359228
3177.065080
3862.770932
4515.476785
5145.182637
5732.888489
6294.594341
6834.300194
7355.006046
7852.711898
-78310.903873
16149.564306
15806.858454
15413.152602
15017.446749
14580.740897
14104.035045
13612.329193
13092.623340
12517.917488
11952.211636
11322.505784
10688.799931
10017.094079
9321.388227
8583.682375
7807.976522
7021.270670
6190.564818
5340.858966
4463.153113
3572.447261
2632.741409
1677.035557
677.329705
-323.376148
-1380.082000
-2424.787852
-3498.493704
-4607.199557
-5762.905409
-6909.611261
-8090.317113
-9282.022966
-10503.728818
-11739.434670
-12994.140522
-14267.846375
-15570.552227
-16878.258079
-18198.963931
-19535.669784
-20900.375636
-22262.081488
-23647.787340
-25041.493193
-26448.199045
-27874.904897
-29300.610749
-30734.316602
-32187.022454
-33648.728306
-35108.434158
-36583.140011
-38058.845863
-39544.551715
-41029.257567
-42532.963420
-44028.669272
-45536.375124
-47039.080976
-48537.786829
-50044.492681
-51546.198533
-53071.904385
-54564.610238
-56081.316090
-57589.021942
-59085.727794
-60594.433647
-62092.139499
-63587.845351
-65088.551203
-66572.257055
-68069.962908
-69548.668760
-71012.374612
-72497.080464
-73945.786317
-75407.492169
-76868.198021
-79398.218529
-80483.533185
-81553.847840
-82662.162496
-83723.477151
-84819.791807
-85900.106462
-86984.421118
-88074.735774
9091.732406
9881.047062
10670.361717
11451.676373
12231.991028
13017.305684
13800.620339
14596.934995
15375.249651
15009.543798
14214.229143
13431.914487
12634.599832
11845.285176
11045.970520
10235.655865
9447.341209
8644.026554
14622.837946
13821.523291
13012.208635
12211.893979
11406.579324
10601.264668
9791.950013
8986.635357
8168.320702
14204.132094
13394.817438
12574.502783
11766.188127
10952.873472
10123.558816
9310.244160
8488.929505
7666.614849
13757.426242
12928.111586
12121.796930
11297.482275
10469.167619
9631.852964
8802.538308
7970.223653
7129.908997
13291.720389
12449.405734
11616.091078
10769.776423
9952.461767
9102.147111
8263.832456
7422.517800
6583.203145
12764.014537
11946.699882
11084.385226
10245.070570
9400.755915
8534.441259
7689.126604
6841.811948
5991.497293
12233.308685
11392.994029
10535.679374
9675.364718
8817.050063
7965.735407
7093.420751
6234.106096
5377.791440
11669.602833
10806.288177
9947.973521
9065.658866
8228.344210
7351.029555
6475.714899
5604.400244
4724.085588
11079.896980
10204.582325
9329.267669
8451.953014
7583.638358
6708.323703
5820.009047
4933.694391
4059.379736
10462.191128
9563.876473
8689.561817
7808.247161
6923.932506
6025.617850
5135.303195
4245.988539
3345.673884
9799.485276
8900.170620
8008.855965
7120.541309
6222.226654
5326.911998
4436.597342
3532.282687
2627.968031
9121.779424
8211.464768
7320.150112
6408.835457
5500.520801
4602.206146
3698.891490
2782.576835
1868.262179
8404.073571
7488.758916
6586.444260
5665.129605
4757.814949
3845.500294
2913.185638
2014.870982
1085.556327
7653.367719
6741.053064
5828.738408
4897.423752
3978.109097
3057.794441
2134.479786
1211.165130
280.850475
6882.661867
5968.347211
5031.032556
4106.717900
3168.403245
2224.088589
1301.773933
370.459278
-561.855378
6087.956015
5150.641359
4211.326704
3280.012048
2343.697392
1402.382737
455.068081
-477.246574
-1418.561230
5251.250162
4310.935507
3372.620851
2427.306196
1469.991540
533.676885
-424.637771
-1372.952427
-2323.267082
4400.544310
3456.229655
2495.914999
1548.600343
585.285688
-368.028968
-1326.343623
-2276.658279
-3235.972934
3507.838458
2541.523802
1576.209147
636.894491
-330.420164
-1302.734820
-2259.049476
-3224.364131
-4182.678787
2605.132606
1631.817950
664.503295
-300.811361
-1266.126017
-2235.440672
-3205.755328
-4186.069983
-5163.384639
1664.426753
691.112098
-291.202558
-1264.517213
-2240.831869
-3213.146524
-4196.461180
-5175.775836
-6150.090491
678.720901
-287.593754
-1267.908410
-2245.223066
-3230.537721
-4221.852377
-5205.167032
-6190.481688
-7177.796343
-307.984951
-1285.299607
-2281.614262
-3263.928918
-4254.243573
-5251.558229
-6243.872884
-7232.187540
-8231.502196
-1312.690803
-2324.005459
-3311.320114
-4306.634770
-5301.949426
-6316.264081
-7302.578737
-8300.893392
-9306.208048
-2366.396656
-3361.711311
-4371.025967
-5366.340622
-6366.655278
-7376.969933
-8387.284589
-9386.599245
-10396.913900
-3429.102508
-4431.417163
-5451.731819
-6458.046475
-7453.361130
-8485.675786
-9484.990441
-10502.305097
-11505.619752
-4527.808360
-5539.123016
-6534.437671
-7560.752327
-8569.066982
-9596.381638
-10613.696293
-11634.010949
-12654.325605
-5637.514212
-6661.828868
-7680.143523
-8700.458179
-9729.772835
-10750.087490
-11754.402146
-12790.716801
-13826.031457
-6784.220065
-7806.534720
-8814.849376
-9854.164031
-10878.478687
-11910.793342
-12941.107998
-13974.422654
-14997.737309
-7930.925917
-8964.240572
-9984.555228
-11033.869883
-12062.184539
-13099.499195
-14139.813850
-15177.128506
-16204.443161
-9112.631769
-10149.946425
-11191.261080
-12222.575736
-13263.890391
-14309.205047
-15352.519702
-16382.834358
-17440.149014
-10314.337621
-11349.652277
-12404.966932
-13432.281588
-14488.596244
-15535.910899
-16581.225555
-17622.540210
-18671.854866
-11545.043474
-12588.358129
-13625.672785
-14691.987440
-15726.302096
-16786.616751
-17836.931407
-18883.246063
-19931.560718
-12785.749326
-13837.063981
-14867.378637
-15930.693292
-16991.007948
-18034.322604
-19100.637259
-20158.951915
-21205.266570
-14040.455178
-15093.769834
-16157.084489
-17212.399145
-18273.713800
-19326.028456
-20388.343111
-21450.657767
-22505.972423
-15317.161030
-16378.475686
-17438.790341
-18497.104997
-19571.419653
-20631.734308
-21702.048964
-22761.363619
-23823.678275
-16624.866882
-17684.181538
-18735.496194
-19813.810849
-20876.125505
-21949.440160
-22998.754816
-24075.069471
-25160.384127
-17930.572735
-18998.887390
-20066.202046
-21136.516701
-22207.831357
-23273.146013
-24355.460668
-25415.775324
-26492.089979
-19260.278587
-20334.593243
-21415.907898
-22482.222554
-23547.537209
-24616.851865
-25714.166520
-26778.481176
-27860.795832
-20603.984439
-21683.299095
-22761.613750
-23832.928406
-24898.243062
-25975.557717
-27061.872373
-28146.187028
-29219.501684
-21959.690291
-23038.004947
-24111.319603
-25198.634258
-26280.948914
-27373.263569
-28456.578225
-29523.892880
-30608.207536
-23343.396144
-24429.710799
-25501.025455
-26587.340110
-27673.654766
-28746.969422
-29834.284077
-30920.598733
-32011.913388
-24732.101996
-25816.416652
-26887.731307
-27976.045963
-29056.360618
-30142.675274
-31243.989929
-32340.304585
-33419.619241
-26123.807848
-27217.122504
-28297.437159
-29390.751815
-30474.066470
-31573.381126
-32651.695782
-33747.010437
-34841.325093
-27533.513700
-28618.828356
-29718.143012
-30801.457667
-31900.772323
-33003.086978
-34095.401634
-35172.716289
-36269.030945
-28956.219553
-30045.534208
-31144.848864
-32228.163519
-33334.478175
-34424.792831
-35514.107486
-36616.422142
-37716.736797
-30398.925405
-31492.240061
-32585.554716
-33672.869372
-34764.184027
-35865.498683
-36966.813338
-38065.127994
-39166.442650
-31828.631257
-32924.945913
-34025.260568
-35118.575224
-36212.889879
-37313.204535
-38409.519191
-39515.833846
-40622.148502
-33279.337109
-34373.651765
-35478.966421
-36573.281076
-37671.595732
-38771.910387
-39885.225043
-40976.539698
-42087.854354
-34746.042962
-35845.357617
-36942.672273
-38034.986928
-39141.301584
-40240.616240
-41352.930895
-42457.245551
-43557.560206
-36204.748814
-37316.063469
-38413.378125
-39520.692781
-40632.007436
-41709.322092
-42815.636747
-43928.951403
-45038.266058
-37686.454666
-38781.769322
-39889.083977
-40986.398633
-42100.713288
-43202.027944
-44304.342600
-45401.657255
-46517.971911
-39171.160518
-40268.475174
-41371.789830
-42473.104485
-43577.419141
-44666.733796
-45795.048452
-46892.363107
-48011.677763
-40645.866371
-41758.181026
-42852.495682
-43964.810337
-45060.124993
-46160.439649
-47280.754304
-48387.068960
-49491.383615
-42140.572223
-43249.886878
-44354.201534
-45446.516190
-46556.830845
-47669.145501
-48778.460156
-49881.774812
-50997.089467
-43626.278075
-44738.592731
-45846.907386
-46953.222042
-48062.536697
-49163.851353
-50264.166009
-51384.480664
-52495.795320
-45123.983927
-46240.298583
-47357.613239
-48458.927894
-49559.242550
-50666.557205
-51777.871861
-52892.186516
-53988.501172
-46633.689780
-47736.004435
-48852.319091
-49950.633746
-51062.948402
-52165.263057
-53283.577713
-54384.892369
-55503.207024
-48142.395632
-49244.710287
-50350.024943
-51458.339599
-52568.654254
-53666.968910
-54781.283565
-55886.598221
-57016.912876
-49646.101484
-50750.416140
-51854.730795
-52966.045451
-54086.360106
-55180.674762
-56298.989418
-57403.304073
-58513.618729
-51138.807336
-52256.121992
-53359.436648
-54470.751303
-55583.065959
-56686.380614
-57791.695270
-58900.009925
-60018.324581
-52657.513189
-53765.827844
-54868.142500
-55975.457155
-57090.771811
-58199.086466
-59300.401122
-60416.715778
-61519.030433
-54161.219041
-55281.533696
-56383.848352
-57481.163008
-58593.477663
-59702.792319
-60817.106974
-61922.421630
-63028.736285
-55675.924893
-56792.239549
-57882.554204
-58990.868860
-60113.183515
-61210.498171
-62316.812827
-63432.127482
-64538.442138
-57184.630745
-58290.945401
-59398.260056
-60503.574712
-61604.889368
-62723.204023
-63823.518679
-64928.833334
-66033.147990
-58682.336598
-59795.651253
-60902.965909
-62007.280564
-63119.595220
-64212.909875
-65324.224531
-66424.539187
-67536.853842
-60199.042450
-61295.357105
-62409.671761
-63502.986417
-64621.301072
-65716.615728
-66821.930383
-67921.245039
-69041.559694
-61695.748302
-62808.062958
-63888.377613
-65001.692269
-66107.006924
-67209.321580
-68303.636236
-69418.950891
-70534.265547
-63180.454154
-64291.768810
-65393.083465
-66504.398121
-67601.712777
-68707.027432
-69806.342088
-70921.656743
-72014.971399
-64684.160007
-65791.474662
-66889.789318
-67989.103973
-69096.418629
-70205.733284
-71301.047940
-72396.362596
-73511.677251
-66183.865859
-67293.180514
-68377.495170
-69479.809826
-70587.124481
-71684.439137
-72770.753792
-73893.068448
-74976.383103
-67674.571711
-68767.886367
-69867.201022
-70955.515678
-72077.830333
-73163.144989
-74261.459644
-75364.774300
-76464.088956
-69151.277563
-70251.592219
-71355.906874
-72445.221530
-73537.536186
-74648.850841
-75742.165497
-76843.480152
-77933.794808
-70631.983416
-71727.298071
-72821.612727
-73928.927382
-75021.242038
-76112.556693
-77215.871349
-78310.186005
-79398.500660
-72106.689268
-73205.003923
-74291.318579
-75399.633235
-76480.947890
-77575.262546
-78683.577201
-79774.891857
-80863.206512
-73574.395120
-74674.709776
-75763.024431
-76857.339087
-77947.653742
-79032.968398
-80130.283053
-81225.597709
-82309.912365
-75045.100972
-76140.415628
-77226.730283
-78319.044939
-79401.359595
-80494.674250
-81581.988906
-82670.303561
-83770.618217
-76488.806825
-77582.121480
-78681.436136
-79764.750791
-80853.065447
-81940.380102
-83028.694758
-84120.009414
-85199.324069
-77952.512677
-79044.827332
-80113.141988
-81198.456643
-82287.771299
-83384.085955
-84465.400610
-85566.715266
-86640.029921
SCALARS stress_3 float
LOOKUP_TABLE default
2759.229057
182198.180081
179631.205693
177035.981305
174444.256918
171834.032530
169200.058142
166570.083754
163921.109366
161258.884979
158588.160591
155907.936203
153211.961815
150516.487427
147809.263040
145096.288652
142374.814264
139656.089876
136920.115488
134191.641101
131454.166713
128712.192325
125972.467937
123231.243549
120491.019162
117752.044774
115018.820386
112290.095998
109567.871610
106842.147223
104132.672835
101426.948447
98737.724059
96046.999671
93376.025284
90720.300896
88073.576508
85445.852120
82833.877732
80234.153345
77658.428957
75105.704569
72578.980181
70064.755793
67579.531405
65121.557018
62683.582630
60281.858242
57901.383854
55559.409466
53240.685079
50959.710691
48716.986303
46504.761915
44323.537527
42186.813140
40095.338752
38035.614364
36016.139976
34045.415588
32111.191201
30223.716813
28388.992425
26589.518037
24835.293649
23135.819262
21477.344874
19866.120486
18325.396098
16810.671710
15353.197323
13951.472935
12596.498547
11297.024159
10049.049771
8852.825384
7703.850996
6612.376608
5568.402220
4580.177832
3644.453445
177619.334632
-1470.116393
-627.642005
275.582383
1229.306771
2240.031159
3298.255546
4411.479934
5574.204322
6799.928710
8071.653098
9401.627485
10776.351873
12203.826261
13688.300649
15223.025037
16802.999424
18432.723812
20120.448200
21849.922588
23622.146976
25452.621363
27315.095751
29231.820139
31185.794527
33195.268915
35237.993302
37321.467690
39446.942078
41610.416466
43815.640854
46052.365241
48321.089629
50631.064017
52971.288405
55339.262793
57743.487180
60170.961568
62625.685956
65108.160344
67619.634732
70142.359119
72704.083507
75286.057895
77876.032283
80494.756671
83123.731058
85768.205446
88428.429834
91105.654222
93799.878610
96497.602997
99205.327385
101922.551773
104650.776161
107386.500549
110120.974936
112859.699324
115606.673712
118355.148100
121103.372488
123861.096875
126610.321263
129349.545651
132099.520039
134841.744427
137573.468815
140312.943202
143034.417590
145759.891978
148470.116366
151170.590754
153872.315141
156550.289529
159224.513917
161891.238305
164538.962693
167179.937080
169811.911468
172425.385856
175027.360244
178071.369176
178534.653721
178985.688266
179451.222811
179909.757356
180368.541901
180825.576446
181281.610991
181743.645536
2324.944512
1888.909967
1470.875422
1034.590877
612.556332
191.521787
-234.012758
-652.297303
-1060.331848
-206.357460
208.927085
626.961630
1054.496175
1488.030720
1906.815265
2339.849810
2768.634355
3210.418900
704.866928
1112.651473
1541.436018
1973.470563
2398.255108
2833.789653
3265.824198
3705.358742
4148.643287
1656.841316
2083.625861
2513.910406
2937.694951
3371.229495
3809.014040
4251.298585
4685.833130
5123.617675
2667.815703
3094.100248
3528.134793
3960.919338
4395.953883
4833.488428
5272.772973
5721.557518
6162.592063
3731.790091
4162.324636
4596.109181
5034.643726
5468.178271
5911.962816
6360.247361
6809.781906
7255.066451
4845.764479
5279.549024
5723.583569
6161.868114
6605.902659
7053.437204
7497.721749
7944.506294
8395.540839
6017.988867
6458.273412
6896.807957
7341.842502
7787.377047
8238.661592
8687.196137
9137.980682
9586.015226
7242.963255
7675.747800
8124.782345
8571.316890
9017.601434
9469.635979
9922.170524
10383.705069
10838.739614
8515.687642
8963.972187
9407.756732
9854.791277
10308.825822
10757.860367
11220.894912
11675.179457
12138.214002
9841.162030
10292.196575
10739.481120
11195.515665
11649.300210
12104.084755
12563.869300
13026.153845
13487.938390
11227.386418
11676.920963
12133.205508
12581.490053
13042.274598
13497.559143
13958.343688
14421.378233
14886.912778
12653.610806
13108.145351
13566.179896
14020.964441
14481.498986
14940.283531
15406.568076
15879.852621
16345.887165
14132.085194
14593.369739
15053.904284
15511.938829
15983.473373
16433.257918
16900.542463
17377.577008
17840.861553
15672.809581
16130.844126
16592.128671
17057.663216
17521.947761
17987.232306
18449.266851
18922.301396
19402.085941
17259.033969
17719.318514
18182.353059
18642.887604
19114.672149
19584.706694
20058.241239
20526.025784
21002.810329
18892.758357
19354.542902
19826.077447
20287.861992
20761.146537
21226.431082
21701.465627
22177.500172
22653.784717
20573.482745
21042.267290
21515.301835
21977.836380
22446.870925
22923.905470
23397.940015
23872.974560
24356.259104
22308.457133
22775.741678
23251.526223
23718.310768
24190.845312
24667.629857
25141.414402
25620.948947
26102.983492
24085.431521
24559.466065
25029.500610
25504.535155
25982.569700
26456.604245
26927.638790
27419.173335
27902.457880
25911.655908
26390.440453
26857.974998
27338.759543
27814.294088
28291.328633
28769.113178
29250.397723
29738.932268
27785.630296
28259.914841
28738.199386
29210.233931
29690.518476
30170.053021
30654.337566
31137.872111
31622.906656
29706.854684
30176.139229
30656.173774
31131.458319
31613.992864
32094.277409
32582.311954
33070.596499
33551.881044
31667.579072
32143.863617
32621.898162
33099.432707
33584.717252
34065.001796
34554.786341
35044.070886
35531.355431
33669.053460
34142.838004
34625.622549
35103.657094
35593.191639
36075.476184
36569.760729
37051.295274
37541.329819
35711.027847
36190.812392
36670.596937
37157.381482
37645.166027
38127.700572
38623.485117
39106.019662
39601.304207
37806.002235
38281.536780
38768.821325
39244.605870
39729.890415
40223.424960
40715.209505
41209.494050
41693.528595
39927.726623
40410.511168
40890.545713
41382.580258
41864.614803
42353.399348
42842.683893
43333.968438
43839.002983
42090.701011
42575.735556
43054.020101
43544.304646
44041.089191
44528.373735
45017.158280
45510.192825
46005.227370
44296.175399
44776.959943
45263.494488
45751.279033
46240.813578
46732.098123
47225.632668
47724.917213
48217.201758
46530.899786
47017.184331
47505.218876
47995.253421
48484.037966
48974.822511
49469.107056
49967.391601
50463.926146
48805.874174
49294.158719
49778.193264
50271.477809
50763.262354
51258.296899
51753.081444
52242.615989
52736.650534
51112.348562
51600.383107
52090.667652
52582.202197
53069.486742
53566.021287
54063.305832
54561.340377
55055.124922
53456.322950
53939.107495
54431.642040
54922.926585
55417.961130
55908.245674
56408.780219
56905.564764
57400.599309
55822.047338
56315.081883
56802.366427
57298.150972
57786.185517
58290.220062
58780.504607
59275.039152
59777.323697
58226.771725
58715.556270
59209.840815
59697.875360
60193.409905
60686.944450
61188.228995
61681.763540
62178.298085
60654.496113
61148.280658
61639.565203
62133.099748
62623.134293
63119.418838
63617.703383
64108.237928
64612.022473
63110.720501
63605.755046
64098.539591
64590.324136
65085.608681
65579.893226
66078.677771
66576.962316
67075.746861
65601.194889
66087.979434
66582.763979
67074.048524
67572.333069
68063.867614
68565.402158
69058.936703
69564.221248
68107.419277
68602.453822
69087.738366
69584.272911
70079.057456
70577.842001
71076.126546
71571.411091
72076.195636
70641.393664
71128.428209
71620.712754
72123.247299
72615.781844
73112.316389
73610.850934
74106.385479
74606.420024
73190.618052
73685.152597
74180.187142
74673.221687
75170.506232
75668.790777
76162.825322
76660.859867
77159.894412
75766.842440
76260.376985
76749.411530
77247.946075
77748.480620
78240.265165
78735.049710
79234.584255
79737.618800
78364.066828
78856.851373
79353.135918
79845.670463
80344.455008
80839.239553
81335.024097
81834.308642
82337.593187
80981.291216
81473.575761
81961.860305
82454.144850
82959.179395
83451.463940
83948.748485
84449.783030
84941.067575
83611.015603
84100.300148
84598.084693
85087.869238
85590.153783
86084.688328
86577.472873
87079.257418
87583.041963
86257.489991
86753.024536
87242.559081
87734.343626
88230.128171
88727.662716
89222.447261
89724.231806
90221.266351
88923.464379
89409.498924
89908.033469
90400.818014
90896.102559
91385.387104
91882.921649
92382.956194
92879.240739
91596.188767
92088.723312
92579.007857
93072.792402
93569.826947
94063.611492
94562.646036
95049.930581
95553.465126
94291.413155
94775.447700
95270.232244
95761.266789
96255.551334
96746.335879
97243.870424
97743.404969
98240.439514
96984.387542
97476.422087
97963.456632
98457.741177
98952.275722
99442.310267
99942.844812
100434.129357
100934.413902
99694.361930
100185.896475
100672.181020
101167.215565
101656.250110
102149.284655
102649.569200
103142.353745
103639.888290
102408.336318
102905.620863
103393.655408
103874.939953
104375.974498
104872.259043
105360.293588
105857.828133
106343.112678
105137.310706
105628.095251
106118.629796
106608.664341
107101.448886
107591.733431
108086.267975
108578.802520
109071.087065
107868.785094
108357.319639
108841.104184
109334.388728
109831.423273
110320.457818
110812.242363
111299.026908
111793.311453
110606.009481
111097.044026
111580.828571
112077.363116
112560.897661
113057.682206
113545.466751
114038.501296
114528.035841
113348.733869
113837.518414
114323.052959
114810.337504
115303.872049
115791.656594
116284.441139
116772.725684
117262.760229
116095.958257
116586.992802
117070.527347
117560.811892
118046.096437
118539.130982
119023.665527
119517.200072
120004.234617
118835.932645
119325.717190
119823.001735
120303.036280
120792.070825
121274.855370
121766.139915
122251.674459
122739.459004
121592.657033
122076.691578
122562.226123
123051.760667
123533.545212
124017.579757
124507.364302
124996.148847
125483.933392
124343.881420
124818.665965
125312.450510
125788.985055
126276.769600
126770.054145
127253.338690
127737.373235
128228.907780
127092.355808
127569.890353
128054.174898
128541.709443
129026.743988
129507.528533
129997.563078
130476.847623
130961.632168
129835.830196
130314.364741
130802.649286
131279.683831
131765.218376
132253.252921
132734.037466
133221.822011
133705.606556
132583.054584
133061.339129
133541.623674
134020.158219
134501.942764
134991.477309
135468.011854
135951.546398
136439.080943
135319.778972
135799.563517
136280.598062
136759.882606
137242.417151
137722.201696
138213.236241
138687.270786
139172.305331
138057.253359
138535.037904
139017.572449
139497.856994
139982.391539
140460.176084
140939.210629
141416.995174
141895.529719
140786.227747
141263.012292
141747.546837
142224.331382
142698.365927
143185.400472
143660.685017
144135.219562
144618.754107
143517.202135
143986.236680
144464.771225
144941.805770
145421.840315
145896.624860
146378.659405
146851.943950
147336.728495
146232.426523
146709.711068
147177.495613
147659.030158
148135.564703
148607.849248
149086.633793
149566.918337
150045.202882
148942.150911
149416.185456
149886.720001
150364.254546
150840.289090
151319.823635
151796.858180
152261.892725
152732.427270
151641.625298
152116.409843
152594.444388
153064.728933
153536.013478
154012.798023
154490.832568
154958.117113
155432.401658
154334.599686
154810.634231
155278.168776
155753.953321
156224.737866
156699.772411
157169.806956
157645.841501
158113.376046
157013.574074
157493.358619
157967.393164
158433.427709
158902.962254
159374.996799
159852.781344
160314.815889
160796.600434
159693.048462
160167.083007
160635.617552
161103.402097
161583.436642
162038.971187
162510.005732
162983.790277
163446.824821
162358.772850
162828.057395
163294.341940
163762.626485
164230.661029
164701.695574
165165.980119
165630.514664
166103.549209
165010.747237
165478.281782
165949.066327
166407.100872
166875.135417
167344.669962
167808.954507
168278.989052
168740.773597
167649.721625
168113.506170
168584.290715
169045.825260
169508.859805
169973.644350
170436.678895
170905.713440
171364.747985
170278.696013
170739.730558
171205.765103
171671.049648
172135.334193
172595.118738
173053.153283
173522.937828
173983.222373
172892.420401
173350.204946
173816.739491
174278.774036
174735.558581
175204.093126
175653.127671
176125.412216
176578.696760
175484.144789
175948.429334
176412.713879
176872.748424
177331.782968
177789.817513
178250.852058
178712.386603
179167.171148
