# vtk DataFile Version 2.0
Generated volume Mesh
ASCII
DATASET UNSTRUCTURED_GRID
POINTS 891 float
0.005000 0.100000 0.000000
0.005000 0.000000 0.000000
0.005000 0.001250 0.000000
0.005000 0.002500 0.000000
0.005000 0.003750 0.000000
0.005000 0.005000 0.000000
0.005000 0.006250 0.000000
0.005000 0.007500 0.000000
0.005000 0.008750 0.000000
0.005000 0.010000 0.000000
0.005000 0.011250 0.000000
0.005000 0.012500 0.000000
0.005000 0.013750 0.000000
0.005000 0.015000 0.000000
0.005000 0.016250 0.000000
0.005000 0.017500 0.000000
0.005000 0.018750 0.000000
0.005000 0.020000 0.000000
0.005000 0.021250 0.000000
0.005000 0.022500 0.000000
0.005000 0.023750 0.000000
0.005000 0.025000 0.000000
0.005000 0.026250 0.000000
0.005000 0.027500 0.000000
0.005000 0.028750 0.000000
0.005000 0.030000 0.000000
0.005000 0.031250 0.000000
0.005000 0.032500 0.000000
0.005000 0.033750 0.000000
0.005000 0.035000 0.000000
0.005000 0.036250 0.000000
0.005000 0.037500 0.000000
0.005000 0.038750 0.000000
0.005000 0.040000 0.000000
0.005000 0.041250 0.000000
0.005000 0.042500 0.000000
0.005000 0.043750 0.000000
0.005000 0.045000 0.000000
0.005000 0.046250 0.000000
0.005000 0.047500 0.000000
0.005000 0.048750 0.000000
0.005000 0.050000 0.000000
0.005000 0.051250 0.000000
0.005000 0.052500 0.000000
0.005000 0.053750 0.000000
0.005000 0.055000 0.000000
0.005000 0.056250 0.000000
0.005000 0.057500 0.000000
0.005000 0.058750 0.000000
0.005000 0.060000 0.000000
0.005000 0.061250 0.000000
0.005000 0.062500 0.000000
0.005000 0.063750 0.000000
0.005000 0.065000 0.000000
0.005000 0.066250 0.000000
0.005000 0.067500 0.000000
0.005000 0.068750 0.000000
0.005000 0.070000 0.000000
0.005000 0.071250 0.000000
0.005000 0.072500 0.000000
0.005000 0.073750 0.000000
0.005000 0.075000 0.000000
0.005000 0.076250 0.000000
0.005000 0.077500 0.000000
0.005000 0.078750 0.000000
0.005000 0.080000 0.000000
0.005000 0.081250 0.000000
0.005000 0.082500 0.000000
0.005000 0.083750 0.000000
0.005000 0.085000 0.000000
0.005000 0.086250 0.000000
0.005000 0.087500 0.000000
0.005000 0.088750 0.000000
0.005000 0.090000 0.000000
0.005000 0.091250 0.000000
0.005000 0.092500 0.000000
0.005000 0.093750 0.000000
0.005000 0.095000 0.000000
0.005000 0.096250 0.000000
0.005000 0.097500 0.000000
0.005000 0.098750 0.000000
0.000000 0.000000 0.000000
0.000000 0.100000 0.000000
0.000000 0.098750 0.000000
0.000000 0.097500 0.000000
0.000000 0.096250 0.000000
0.000000 0.095000 0.000000
0.000000 0.093750 0.000000
0.000000 0.092500 0.000000
0.000000 0.091250 0.000000
0.000000 0.090000 0.000000
0.000000 0.088750 0.000000
0.000000 0.087500 0.000000
0.000000 0.086250 0.000000
0.000000 0.085000 0.000000
0.000000 0.083750 0.000000
0.000000 0.082500 0.000000
0.000000 0.081250 0.000000
0.000000 0.080000 0.000000
0.000000 0.078750 0.000000
0.000000 0.077500 0.000000
0.000000 0.076250 0.000000
0.000000 0.075000 0.000000
0.000000 0.073750 0.000000
0.000000 0.072500 0.000000
0.000000 0.071250 0.000000
0.000000 0.070000 0.000000
0.000000 0.068750 0.000000
0.000000 0.067500 0.000000
0.000000 0.066250 0.000000
0.000000 0.065000 0.000000
0.000000 0.063750 0.000000
0.000000 0.062500 0.000000
0.000000 0.061250 0.000000
0.000000 0.060000 0.000000
0.000000 0.058750 0.000000
0.000000 0.057500 0.000000
0.000000 0.056250 0.000000
0.000000 0.055000 0.000000
0.000000 0.053750 0.000000
0.000000 0.052500 0.000000
0.000000 0.051250 0.000000
0.000000 0.050000 0.000000
0.000000 0.048750 0.000000
0.000000 0.047500 0.000000
0.000000 0.046250 0.000000
0.000000 0.045000 0.000000
0.000000 0.043750 0.000000
0.000000 0.042500 0.000000
0.000000 0.041250 0.000000
0.000000 0.040000 0.000000
0.000000 0.038750 0.000000
0.000000 0.037500 0.000000
0.000000 0.036250 0.000000
0.000000 0.035000 0.000000
0.000000 0.033750 0.000000
0.000000 0.032500 0.000000
0.000000 0.031250 0.000000
0.000000 0.030000 0.000000
0.000000 0.028750 0.000000
0.000000 0.027500 0.000000
0.000000 0.026250 0.000000
0.000000 0.025000 0.000000
0.000000 0.023750 0.000000
0.000000 0.022500 0.000000
0.000000 0.021250 0.000000
0.000000 0.020000 0.000000
0.000000 0.018750 0.000000
0.000000 0.017500 0.000000
0.000000 0.016250 0.000000
0.000000 0.015000 0.000000
0.000000 0.013750 0.000000
0.000000 0.012500 0.000000
0.000000 0.011250 0.000000
0.000000 0.010000 0.000000
0.000000 0.008750 0.000000
0.000000 0.007500 0.000000
0.000000 0.006250 0.000000
0.000000 0.005000 0.000000
0.000000 0.003750 0.000000
0.000000 0.002500 0.000000
0.000000 0.001250 0.000000
0.000500 0.000000 0.000000
0.001000 0.000000 0.000000
0.001500 0.000000 0.000000
0.002000 0.000000 0.000000
0.002500 0.000000 0.000000
0.003000 0.000000 0.000000
0.003500 0.000000 0.000000
0.004000 0.000000 0.000000
0.004500 0.000000 0.000000
0.004500 0.100000 0.000000
0.004000 0.100000 0.000000
0.003500 0.100000 0.000000
0.003000 0.100000 0.000000
0.002500 0.100000 0.000000
0.002000 0.100000 0.000000
0.001500 0.100000 0.000000
0.001000 0.100000 0.000000
0.000500 0.100000 0.000000
0.000500 0.098750 0.000000
0.001000 0.098750 0.000000
0.001500 0.098750 0.000000
0.002000 0.098750 0.000000
0.002500 0.098750 0.000000
0.003000 0.098750 0.000000
0.003500 0.098750 0.000000
0.004000 0.098750 0.000000
0.004500 0.098750 0.000000
0.000500 0.097500 0.000000
0.001000 0.097500 0.000000
0.001500 0.097500 0.000000
0.002000 0.097500 0.000000
0.002500 0.097500 0.000000
0.003000 0.097500 0.000000
0.003500 0.097500 0.000000
0.004000 0.097500 0.000000
0.004500 0.097500 0.000000
0.000500 0.096250 0.000000
0.001000 0.096250 0.000000
0.001500 0.096250 0.000000
0.002000 0.096250 0.000000
0.002500 0.096250 0.000000
0.003000 0.096250 0.000000
0.003500 0.096250 0.000000
0.004000 0.096250 0.000000
0.004500 0.096250 0.000000
0.000500 0.095000 0.000000
0.001000 0.095000 0.000000
0.001500 0.095000 0.000000
0.002000 0.095000 0.000000
0.002500 0.095000 0.000000
0.003000 0.095000 0.000000
0.003500 0.095000 0.000000
0.004000 0.095000 0.000000
0.004500 0.095000 0.000000
0.000500 0.093750 0.000000
0.001000 0.093750 0.000000
0.001500 0.093750 0.000000
0.002000 0.093750 0.000000
0.002500 0.093750 0.000000
0.003000 0.093750 0.000000
0.003500 0.093750 0.000000
0.004000 0.093750 0.000000
0.004500 0.093750 0.000000
0.000500 0.092500 0.000000
0.001000 0.092500 0.000000
0.001500 0.092500 0.000000
0.002000 0.092500 0.000000
0.002500 0.092500 0.000000
0.003000 0.092500 0.000000
0.003500 0.092500 0.000000
0.004000 0.092500 0.000000
0.004500 0.092500 0.000000
0.000500 0.091250 0.000000
0.001000 0.091250 0.000000
0.001500 0.091250 0.000000
0.002000 0.091250 0.000000
0.002500 0.091250 0.000000
0.003000 0.091250 0.000000
0.003500 0.091250 0.000000
0.004000 0.091250 0.000000
0.004500 0.091250 0.000000
0.000500 0.090000 0.000000
0.001000 0.090000 0.000000
0.001500 0.090000 0.000000
0.002000 0.090000 0.000000
0.002500 0.090000 0.000000
0.003000 0.090000 0.000000
0.003500 0.090000 0.000000
0.004000 0.090000 0.000000
0.004500 0.090000 0.000000
0.000500 0.088750 0.000000
0.001000 0.088750 0.000000
0.001500 0.088750 0.000000
0.002000 0.088750 0.000000
0.002500 0.088750 0.000000
0.003000 0.088750 0.000000
0.003500 0.088750 0.000000
0.004000 0.088750 0.000000
0.004500 0.088750 0.000000
0.000500 0.087500 0.000000
0.001000 0.087500 0.000000
0.001500 0.087500 0.000000
0.002000 0.087500 0.000000
0.002500 0.087500 0.000000
0.003000 0.087500 0.000000
0.003500 0.087500 0.000000
0.004000 0.087500 0.000000
0.004500 0.087500 0.000000
0.000500 0.086250 0.000000
0.001000 0.086250 0.000000
0.001500 0.086250 0.000000
0.002000 0.086250 0.000000
0.002500 0.086250 0.000000
0.003000 0.086250 0.000000
0.003500 0.086250 0.000000
0.004000 0.086250 0.000000
0.004500 0.086250 0.000000
0.000500 0.085000 0.000000
0.001000 0.085000 0.000000
0.001500 0.085000 0.000000
0.002000 0.085000 0.000000
0.002500 0.085000 0.000000
0.003000 0.085000 0.000000
0.003500 0.085000 0.000000
0.004000 0.085000 0.000000
0.004500 0.085000 0.000000
0.000500 0.083750 0.000000
0.001000 0.083750 0.000000
0.001500 0.083750 0.000000
0.002000 0.083750 0.000000
0.002500 0.083750 0.000000
0.003000 0.083750 0.000000
0.003500 0.083750 0.000000
0.004000 0.083750 0.000000
0.004500 0.083750 0.000000
0.000500 0.082500 0.000000
0.001000 0.082500 0.000000
0.001500 0.082500 0.000000
0.002000 0.082500 0.000000
0.002500 0.082500 0.000000
0.003000 0.082500 0.000000
0.003500 0.082500 0.000000
0.004000 0.082500 0.000000
0.004500 0.082500 0.000000
0.000500 0.081250 0.000000
0.001000 0.081250 0.000000
0.001500 0.081250 0.000000
0.002000 0.081250 0.000000
0.002500 0.081250 0.000000
0.003000 0.081250 0.000000
0.003500 0.081250 0.000000
0.004000 0.081250 0.000000
0.004500 0.081250 0.000000
0.000500 0.080000 0.000000
0.001000 0.080000 0.000000
0.001500 0.080000 0.000000
0.002000 0.080000 0.000000
0.002500 0.080000 0.000000
0.003000 0.080000 0.000000
0.003500 0.080000 0.000000
0.004000 0.080000 0.000000
0.004500 0.080000 0.000000
0.000500 0.078750 0.000000
0.001000 0.078750 0.000000
0.001500 0.078750 0.000000
0.002000 0.078750 0.000000
0.002500 0.078750 0.000000
0.003000 0.078750 0.000000
0.003500 0.078750 0.000000
0.004000 0.078750 0.000000
0.004500 0.078750 0.000000
0.000500 0.077500 0.000000
0.001000 0.077500 0.000000
0.001500 0.077500 0.000000
0.002000 0.077500 0.000000
0.002500 0.077500 0.000000
0.003000 0.077500 0.000000
0.003500 0.077500 0.000000
0.004000 0.077500 0.000000
0.004500 0.077500 0.000000
0.000500 0.076250 0.000000
0.001000 0.076250 0.000000
0.001500 0.076250 0.000000
0.002000 0.076250 0.000000
0.002500 0.076250 0.000000
0.003000 0.076250 0.000000
0.003500 0.076250 0.000000
0.004000 0.076250 0.000000
0.004500 0.076250 0.000000
0.000500 0.075000 0.000000
0.001000 0.075000 0.000000
0.001500 0.075000 0.000000
0.002000 0.075000 0.000000
0.002500 0.075000 0.000000
0.003000 0.075000 0.000000
0.003500 0.075000 0.000000
0.004000 0.075000 0.000000
0.004500 0.075000 0.000000
0.000500 0.073750 0.000000
0.001000 0.073750 0.000000
0.001500 0.073750 0.000000
0.002000 0.073750 0.000000
0.002500 0.073750 0.000000
0.003000 0.073750 0.000000
0.003500 0.073750 0.000000
0.004000 0.073750 0.000000
0.004500 0.073750 0.000000
0.000500 0.072500 0.000000
0.001000 0.072500 0.000000
0.001500 0.072500 0.000000
0.002000 0.072500 0.000000
0.002500 0.072500 0.000000
0.003000 0.072500 0.000000
0.003500 0.072500 0.000000
0.004000 0.072500 0.000000
0.004500 0.072500 0.000000
0.000500 0.071250 0.000000
0.001000 0.071250 0.000000
0.001500 0.071250 0.000000
0.002000 0.071250 0.000000
0.002500 0.071250 0.000000
0.003000 0.071250 0.000000
0.003500 0.071250 0.000000
0.004000 0.071250 0.000000
0.004500 0.071250 0.000000
0.000500 0.070000 0.000000
0.001000 0.070000 0.000000
0.001500 0.070000 0.000000
0.002000 0.070000 0.000000
0.002500 0.070000 0.000000
0.003000 0.070000 0.000000
0.003500 0.070000 0.000000
0.004000 0.070000 0.000000
0.004500 0.070000 0.000000
0.000500 0.068750 0.000000
0.001000 0.068750 0.000000
0.001500 0.068750 0.000000
0.002000 0.068750 0.000000
0.002500 0.068750 0.000000
0.003000 0.068750 0.000000
0.003500 0.068750 0.000000
0.004000 0.068750 0.000000
0.004500 0.068750 0.000000
0.000500 0.067500 0.000000
0.001000 0.067500 0.000000
0.001500 0.067500 0.000000
0.002000 0.067500 0.000000
0.002500 0.067500 0.000000
0.003000 0.067500 0.000000
0.003500 0.067500 0.000000
0.004000 0.067500 0.000000
0.004500 0.067500 0.000000
0.000500 0.066250 0.000000
0.001000 0.066250 0.000000
0.001500 0.066250 0.000000
0.002000 0.066250 0.000000
0.002500 0.066250 0.000000
0.003000 0.066250 0.000000
0.003500 0.066250 0.000000
0.004000 0.066250 0.000000
0.004500 0.066250 0.000000
0.000500 0.065000 0.000000
0.001000 0.065000 0.000000
0.001500 0.065000 0.000000
0.002000 0.065000 0.000000
0.002500 0.065000 0.000000
0.003000 0.065000 0.000000
0.003500 0.065000 0.000000
0.004000 0.065000 0.000000
0.004500 0.065000 0.000000
0.000500 0.063750 0.000000
0.001000 0.063750 0.000000
0.001500 0.063750 0.000000
0.002000 0.063750 0.000000
0.002500 0.063750 0.000000
0.003000 0.063750 0.000000
0.003500 0.063750 0.000000
0.004000 0.063750 0.000000
0.004500 0.063750 0.000000
0.000500 0.062500 0.000000
0.001000 0.062500 0.000000
0.001500 0.062500 0.000000
0.002000 0.062500 0.000000
0.002500 0.062500 0.000000
0.003000 0.062500 0.000000
0.003500 0.062500 0.000000
0.004000 0.062500 0.000000
0.004500 0.062500 0.000000
0.000500 0.061250 0.000000
0.001000 0.061250 0.000000
0.001500 0.061250 0.000000
0.002000 0.061250 0.000000
0.002500 0.061250 0.000000
0.003000 0.061250 0.000000
0.003500 0.061250 0.000000
0.004000 0.061250 0.000000
0.004500 0.061250 0.000000
0.000500 0.060000 0.000000
0.001000 0.060000 0.000000
0.001500 0.060000 0.000000
0.002000 0.060000 0.000000
0.002500 0.060000 0.000000
0.003000 0.060000 0.000000
0.003500 0.060000 0.000000
0.004000 0.060000 0.000000
0.004500 0.060000 0.000000
0.000500 0.058750 0.000000
0.001000 0.058750 0.000000
0.001500 0.058750 0.000000
0.002000 0.058750 0.000000
0.002500 0.058750 0.000000
0.003000 0.058750 0.000000
0.003500 0.058750 0.000000
0.004000 0.058750 0.000000
0.004500 0.058750 0.000000
0.000500 0.057500 0.000000
0.001000 0.057500 0.000000
0.001500 0.057500 0.000000
0.002000 0.057500 0.000000
0.002500 0.057500 0.000000
0.003000 0.057500 0.000000
0.003500 0.057500 0.000000
0.004000 0.057500 0.000000
0.004500 0.057500 0.000000
0.000500 0.056250 0.000000
0.001000 0.056250 0.000000
0.001500 0.056250 0.000000
0.002000 0.056250 0.000000
0.002500 0.056250 0.000000
0.003000 0.056250 0.000000
0.003500 0.056250 0.000000
0.004000 0.056250 0.000000
0.004500 0.056250 0.000000
0.000500 0.055000 0.000000
0.001000 0.055000 0.000000
0.001500 0.055000 0.000000
0.002000 0.055000 0.000000
0.002500 0.055000 0.000000
0.003000 0.055000 0.000000
0.003500 0.055000 0.000000
0.004000 0.055000 0.000000
0.004500 0.055000 0.000000
0.000500 0.053750 0.000000
0.001000 0.053750 0.000000
0.001500 0.053750 0.000000
0.002000 0.053750 0.000000
0.002500 0.053750 0.000000
0.003000 0.053750 0.000000
0.003500 0.053750 0.000000
0.004000 0.053750 0.000000
0.004500 0.053750 0.000000
0.000500 0.052500 0.000000
0.001000 0.052500 0.000000
0.001500 0.052500 0.000000
0.002000 0.052500 0.000000
0.002500 0.052500 0.000000
0.003000 0.052500 0.000000
0.003500 0.052500 0.000000
0.004000 0.052500 0.000000
0.004500 0.052500 0.000000
0.000500 0.051250 0.000000
0.001000 0.051250 0.000000
0.001500 0.051250 0.000000
0.002000 0.051250 0.000000
0.002500 0.051250 0.000000
0.003000 0.051250 0.000000
0.003500 0.051250 0.000000
0.004000 0.051250 0.000000
0.004500 0.051250 0.000000
0.000500 0.050000 0.000000
0.001000 0.050000 0.000000
0.001500 0.050000 0.000000
0.002000 0.050000 0.000000
0.002500 0.050000 0.000000
0.003000 0.050000 0.000000
0.003500 0.050000 0.000000
0.004000 0.050000 0.000000
0.004500 0.050000 0.000000
0.000500 0.048750 0.000000
0.001000 0.048750 0.000000
0.001500 0.048750 0.000000
0.002000 0.048750 0.000000
0.002500 0.048750 0.000000
0.003000 0.048750 0.000000
0.003500 0.048750 0.000000
0.004000 0.048750 0.000000
0.004500 0.048750 0.000000
0.000500 0.047500 0.000000
0.001000 0.047500 0.000000
0.001500 0.047500 0.000000
0.002000 0.047500 0.000000
0.002500 0.047500 0.000000
0.003000 0.047500 0.000000
0.003500 0.047500 0.000000
0.004000 0.047500 0.000000
0.004500 0.047500 0.000000
0.000500 0.046250 0.000000
0.001000 0.046250 0.000000
0.001500 0.046250 0.000000
0.002000 0.046250 0.000000
0.002500 0.046250 0.000000
0.003000 0.046250 0.000000
0.003500 0.046250 0.000000
0.004000 0.046250 0.000000
0.004500 0.046250 0.000000
0.000500 0.045000 0.000000
0.001000 0.045000 0.000000
0.001500 0.045000 0.000000
0.002000 0.045000 0.000000
0.002500 0.045000 0.000000
0.003000 0.045000 0.000000
0.003500 0.045000 0.000000
0.004000 0.045000 0.000000
0.004500 0.045000 0.000000
0.000500 0.043750 0.000000
0.001000 0.043750 0.000000
0.001500 0.043750 0.000000
0.002000 0.043750 0.000000
0.002500 0.043750 0.000000
0.003000 0.043750 0.000000
0.003500 0.043750 0.000000
0.004000 0.043750 0.000000
0.004500 0.043750 0.000000
0.000500 0.042500 0.000000
0.001000 0.042500 0.000000
0.001500 0.042500 0.000000
0.002000 0.042500 0.000000
0.002500 0.042500 0.000000
0.003000 0.042500 0.000000
0.003500 0.042500 0.000000
0.004000 0.042500 0.000000
0.004500 0.042500 0.000000
0.000500 0.041250 0.000000
0.001000 0.041250 0.000000
0.001500 0.041250 0.000000
0.002000 0.041250 0.000000
0.002500 0.041250 0.000000
0.003000 0.041250 0.000000
0.003500 0.041250 0.000000
0.004000 0.041250 0.000000
0.004500 0.041250 0.000000
0.000500 0.040000 0.000000
0.001000 0.040000 0.000000
0.001500 0.040000 0.000000
0.002000 0.040000 0.000000
0.002500 0.040000 0.000000
0.003000 0.040000 0.000000
0.003500 0.040000 0.000000
0.004000 0.040000 0.000000
0.004500 0.040000 0.000000
0.000500 0.038750 0.000000
0.001000 0.038750 0.000000
0.001500 0.038750 0.000000
0.002000 0.038750 0.000000
0.002500 0.038750 0.000000
0.003000 0.038750 0.000000
0.003500 0.038750 0.000000
0.004000 0.038750 0.000000
0.004500 0.038750 0.000000
0.000500 0.037500 0.000000
0.001000 0.037500 0.000000
0.001500 0.037500 0.000000
0.002000 0.037500 0.000000
0.002500 0.037500 0.000000
0.003000 0.037500 0.000000
0.003500 0.037500 0.000000
0.004000 0.037500 0.000000
0.004500 0.037500 0.000000
0.000500 0.036250 0.000000
0.001000 0.036250 0.000000
0.001500 0.036250 0.000000
0.002000 0.036250 0.000000
0.002500 0.036250 0.000000
0.003000 0.036250 0.000000
0.003500 0.036250 0.000000
0.004000 0.036250 0.000000
0.004500 0.036250 0.000000
0.000500 0.035000 0.000000
0.001000 0.035000 0.000000
0.001500 0.035000 0.000000
0.002000 0.035000 0.000000
0.002500 0.035000 0.000000
0.003000 0.035000 0.000000
0.003500 0.035000 0.000000
0.004000 0.035000 0.000000
0.004500 0.035000 0.000000
0.000500 0.033750 0.000000
0.001000 0.033750 0.000000
0.001500 0.033750 0.000000
0.002000 0.033750 0.000000
0.002500 0.033750 0.000000
0.003000 0.033750 0.000000
0.003500 0.033750 0.000000
0.004000 0.033750 0.000000
0.004500 0.033750 0.000000
0.000500 0.032500 0.000000
0.001000 0.032500 0.000000
0.001500 0.032500 0.000000
0.002000 0.032500 0.000000
0.002500 0.032500 0.000000
0.003000 0.032500 0.000000
0.003500 0.032500 0.000000
0.004000 0.032500 0.000000
0.004500 0.032500 0.000000
0.000500 0.031250 0.000000
0.001000 0.031250 0.000000
0.001500 0.031250 0.000000
0.002000 0.031250 0.000000
0.002500 0.031250 0.000000
0.003000 0.031250 0.000000
0.003500 0.031250 0.000000
0.004000 0.031250 0.000000
0.004500 0.031250 0.000000
0.000500 0.030000 0.000000
0.001000 0.030000 0.000000
0.001500 0.030000 0.000000
0.002000 0.030000 0.000000
0.002500 0.030000 0.000000
0.003000 0.030000 0.000000
0.003500 0.030000 0.000000
0.004000 0.030000 0.000000
0.004500 0.030000 0.000000
0.000500 0.028750 0.000000
0.001000 0.028750 0.000000
0.001500 0.028750 0.000000
0.002000 0.028750 0.000000
0.002500 0.028750 0.000000
0.003000 0.028750 0.000000
0.003500 0.028750 0.000000
0.004000 0.028750 0.000000
0.004500 0.028750 0.000000
0.000500 0.027500 0.000000
0.001000 0.027500 0.000000
0.001500 0.027500 0.000000
0.002000 0.027500 0.000000
0.002500 0.027500 0.000000
0.003000 0.027500 0.000000
0.003500 0.027500 0.000000
0.004000 0.027500 0.000000
0.004500 0.027500 0.000000
0.000500 0.026250 0.000000
0.001000 0.026250 0.000000
0.001500 0.026250 0.000000
0.002000 0.026250 0.000000
0.002500 0.026250 0.000000
0.003000 0.026250 0.000000
0.003500 0.026250 0.000000
0.004000 0.026250 0.000000
0.004500 0.026250 0.000000
0.000500 0.025000 0.000000
0.001000 0.025000 0.000000
0.001500 0.025000 0.000000
0.002000 0.025000 0.000000
0.002500 0.025000 0.000000
0.003000 0.025000 0.000000
0.003500 0.025000 0.000000
0.004000 0.025000 0.000000
0.004500 0.025000 0.000000
0.000500 0.023750 0.000000
0.001000 0.023750 0.000000
0.001500 0.023750 0.000000
0.002000 0.023750 0.000000
0.002500 0.023750 0.000000
0.003000 0.023750 0.000000
0.003500 0.023750 0.000000
0.004000 0.023750 0.000000
0.004500 0.023750 0.000000
0.000500 0.022500 0.000000
0.001000 0.022500 0.000000
0.001500 0.022500 0.000000
0.002000 0.022500 0.000000
0.002500 0.022500 0.000000
0.003000 0.022500 0.000000
0.003500 0.022500 0.000000
0.004000 0.022500 0.000000
0.004500 0.022500 0.000000
0.000500 0.021250 0.000000
0.001000 0.021250 0.000000
0.001500 0.021250 0.000000
0.002000 0.021250 0.000000
0.002500 0.021250 0.000000
0.003000 0.021250 0.000000
0.003500 0.021250 0.000000
0.004000 0.021250 0.000000
0.004500 0.021250 0.000000
0.000500 0.020000 0.000000
0.001000 0.020000 0.000000
0.001500 0.020000 0.000000
0.002000 0.020000 0.000000
0.002500 0.020000 0.000000
0.003000 0.020000 0.000000
0.003500 0.020000 0.000000
0.004000 0.020000 0.000000
0.004500 0.020000 0.000000
0.000500 0.018750 0.000000
0.001000 0.018750 0.000000
0.001500 0.018750 0.000000
0.002000 0.018750 0.000000
0.002500 0.018750 0.000000
0.003000 0.018750 0.000000
0.003500 0.018750 0.000000
0.004000 0.018750 0.000000
0.004500 0.018750 0.000000
0.000500 0.017500 0.000000
0.001000 0.017500 0.000000
0.001500 0.017500 0.000000
0.002000 0.017500 0.000000
0.002500 0.017500 0.000000
0.003000 0.017500 0.000000
0.003500 0.017500 0.000000
0.004000 0.017500 0.000000
0.004500 0.017500 0.000000
0.000500 0.016250 0.000000
0.001000 0.016250 0.000000
0.001500 0.016250 0.000000
0.002000 0.016250 0.000000
0.002500 0.016250 0.000000
0.003000 0.016250 0.000000
0.003500 0.016250 0.000000
0.004000 0.016250 0.000000
0.004500 0.016250 0.000000
0.000500 0.015000 0.000000
0.001000 0.015000 0.000000
0.001500 0.015000 0.000000
0.002000 0.015000 0.000000
0.002500 0.015000 0.000000
0.003000 0.015000 0.000000
0.003500 0.015000 0.000000
0.004000 0.015000 0.000000
0.004500 0.015000 0.000000
0.000500 0.013750 0.000000
0.001000 0.013750 0.000000
0.001500 0.013750 0.000000
0.002000 0.013750 0.000000
0.002500 0.013750 0.000000
0.003000 0.013750 0.000000
0.003500 0.013750 0.000000
0.004000 0.013750 0.000000
0.004500 0.013750 0.000000
0.000500 0.012500 0.000000
0.001000 0.012500 0.000000
0.001500 0.012500 0.000000
0.002000 0.012500 0.000000
0.002500 0.012500 0.000000
0.003000 0.012500 0.000000
0.003500 0.012500 0.000000
0.004000 0.012500 0.000000
0.004500 0.012500 0.000000
0.000500 0.011250 0.000000
0.001000 0.011250 0.000000
0.001500 0.011250 0.000000
0.002000 0.011250 0.000000
0.002500 0.011250 0.000000
0.003000 0.011250 0.000000
0.003500 0.011250 0.000000
0.004000 0.011250 0.000000
0.004500 0.011250 0.000000
0.000500 0.010000 0.000000
0.001000 0.010000 0.000000
0.001500 0.010000 0.000000
0.002000 0.010000 0.000000
0.002500 0.010000 0.000000
0.003000 0.010000 0.000000
0.003500 0.010000 0.000000
0.004000 0.010000 0.000000
0.004500 0.010000 0.000000
0.000500 0.008750 0.000000
0.001000 0.008750 0.000000
0.001500 0.008750 0.000000
0.002000 0.008750 0.000000
0.002500 0.008750 0.000000
0.003000 0.008750 0.000000
0.003500 0.008750 0.000000
0.004000 0.008750 0.000000
0.004500 0.008750 0.000000
0.000500 0.007500 0.000000
0.001000 0.007500 0.000000
0.001500 0.007500 0.000000
0.002000 0.007500 0.000000
0.002500 0.007500 0.000000
0.003000 0.007500 0.000000
0.003500 0.007500 0.000000
0.004000 0.007500 0.000000
0.004500 0.007500 0.000000
0.000500 0.006250 0.000000
0.001000 0.006250 0.000000
0.001500 0.006250 0.000000
0.002000 0.006250 0.000000
0.002500 0.006250 0.000000
0.003000 0.006250 0.000000
0.003500 0.006250 0.000000
0.004000 0.006250 0.000000
0.004500 0.006250 0.000000
0.000500 0.005000 0.000000
0.001000 0.005000 0.000000
0.001500 0.005000 0.000000
0.002000 0.005000 0.000000
0.002500 0.005000 0.000000
0.003000 0.005000 0.000000
0.003500 0.005000 0.000000
0.004000 0.005000 0.000000
0.004500 0.005000 0.000000
0.000500 0.003750 0.000000
0.001000 0.003750 0.000000
0.001500 0.003750 0.000000
0.002000 0.003750 0.000000
0.002500 0.003750 0.000000
0.003000 0.003750 0.000000
0.003500 0.003750 0.000000
0.004000 0.003750 0.000000
0.004500 0.003750 0.000000
0.000500 0.002500 0.000000
0.001000 0.002500 0.000000
0.001500 0.002500 0.000000
0.002000 0.002500 0.000000
0.002500 0.002500 0.000000
0.003000 0.002500 0.000000
0.003500 0.002500 0.000000
0.004000 0.002500 0.000000
0.004500 0.002500 0.000000
0.000500 0.001250 0.000000
0.001000 0.001250 0.000000
0.001500 0.001250 0.000000
0.002000 0.001250 0.000000
0.002500 0.001250 0.000000
0.003000 0.001250 0.000000
0.003500 0.001250 0.000000
0.004000 0.001250 0.000000
0.004500 0.001250 0.000000
CELLS 800 4000
4 82 83 180 179
4 179 180 181 178
4 178 181 182 177
4 177 182 183 176
4 176 183 184 175
4 175 184 185 174
4 174 185 186 173
4 173 186 187 172
4 172 187 188 171
4 171 188 80 0
4 83 84 189 180
4 180 189 190 181
4 181 190 191 182
4 182 191 192 183
4 183 192 193 184
4 184 193 194 185
4 185 194 195 186
4 186 195 196 187
4 187 196 197 188
4 188 197 79 80
4 84 85 198 189
4 189 198 199 190
4 190 199 200 191
4 191 200 201 192
4 192 201 202 193
4 193 202 203 194
4 194 203 204 195
4 195 204 205 196
4 196 205 206 197
4 197 206 78 79
4 85 86 207 198
4 198 207 208 199
4 199 208 209 200
4 200 209 210 201
4 201 210 211 202
4 202 211 212 203
4 203 212 213 204
4 204 213 214 205
4 205 214 215 206
4 206 215 77 78
4 86 87 216 207
4 207 216 217 208
4 208 217 218 209
4 209 218 219 210
4 210 219 220 211
4 211 220 221 212
4 212 221 222 213
4 213 222 223 214
4 214 223 224 215
4 215 224 76 77
4 87 88 225 216
4 216 225 226 217
4 217 226 227 218
4 218 227 228 219
4 219 228 229 220
4 220 229 230 221
4 221 230 231 222
4 222 231 232 223
4 223 232 233 224
4 224 233 75 76
4 88 89 234 225
4 225 234 235 226
4 226 235 236 227
4 227 236 237 228
4 228 237 238 229
4 229 238 239 230
4 230 239 240 231
4 231 240 241 232
4 232 241 242 233
4 233 242 74 75
4 89 90 243 234
4 234 243 244 235
4 235 244 245 236
4 236 245 246 237
4 237 246 247 238
4 238 247 248 239
4 239 248 249 240
4 240 249 250 241
4 241 250 251 242
4 242 251 73 74
4 90 91 252 243
4 243 252 253 244
4 244 253 254 245
4 245 254 255 246
4 246 255 256 247
4 247 256 257 248
4 248 257 258 249
4 249 258 259 250
4 250 259 260 251
4 251 260 72 73
4 91 92 261 252
4 252 261 262 253
4 253 262 263 254
4 254 263 264 255
4 255 264 265 256
4 256 265 266 257
4 257 266 267 258
4 258 267 268 259
4 259 268 269 260
4 260 269 71 72
4 92 93 270 261
4 261 270 271 262
4 262 271 272 263
4 263 272 273 264
4 264 273 274 265
4 265 274 275 266
4 266 275 276 267
4 267 276 277 268
4 268 277 278 269
4 269 278 70 71
4 93 94 279 270
4 270 279 280 271
4 271 280 281 272
4 272 281 282 273
4 273 282 283 274
4 274 283 284 275
4 275 284 285 276
4 276 285 286 277
4 277 286 287 278
4 278 287 69 70
4 94 95 288 279
4 279 288 289 280
4 280 289 290 281
4 281 290 291 282
4 282 291 292 283
4 283 292 293 284
4 284 293 294 285
4 285 294 295 286
4 286 295 296 287
4 287 296 68 69
4 95 96 297 288
4 288 297 298 289
4 289 298 299 290
4 290 299 300 291
4 291 300 301 292
4 292 301 302 293
4 293 302 303 294
4 294 303 304 295
4 295 304 305 296
4 296 305 67 68
4 96 97 306 297
4 297 306 307 298
4 298 307 308 299
4 299 308 309 300
4 300 309 310 301
4 301 310 311 302
4 302 311 312 303
4 303 312 313 304
4 304 313 314 305
4 305 314 66 67
4 97 98 315 306
4 306 315 316 307
4 307 316 317 308
4 308 317 318 309
4 309 318 319 310
4 310 319 320 311
4 311 320 321 312
4 312 321 322 313
4 313 322 323 314
4 314 323 65 66
4 98 99 324 315
4 315 324 325 316
4 316 325 326 317
4 317 326 327 318
4 318 327 328 319
4 319 328 329 320
4 320 329 330 321
4 321 330 331 322
4 322 331 332 323
4 323 332 64 65
4 99 100 333 324
4 324 333 334 325
4 325 334 335 326
4 326 335 336 327
4 327 336 337 328
4 328 337 338 329
4 329 338 339 330
4 330 339 340 331
4 331 340 341 332
4 332 341 63 64
4 100 101 342 333
4 333 342 343 334
4 334 343 344 335
4 335 344 345 336
4 336 345 346 337
4 337 346 347 338
4 338 347 348 339
4 339 348 349 340
4 340 349 350 341
4 341 350 62 63
4 101 102 351 342
4 342 351 352 343
4 343 352 353 344
4 344 353 354 345
4 345 354 355 346
4 346 355 356 347
4 347 356 357 348
4 348 357 358 349
4 349 358 359 350
4 350 359 61 62
4 102 103 360 351
4 351 360 361 352
4 352 361 362 353
4 353 362 363 354
4 354 363 364 355
4 355 364 365 356
4 356 365 366 357
4 357 366 367 358
4 358 367 368 359
4 359 368 60 61
4 103 104 369 360
4 360 369 370 361
4 361 370 371 362
4 362 371 372 363
4 363 372 373 364
4 364 373 374 365
4 365 374 375 366
4 366 375 376 367
4 367 376 377 368
4 368 377 59 60
4 104 105 378 369
4 369 378 379 370
4 370 379 380 371
4 371 380 381 372
4 372 381 382 373
4 373 382 383 374
4 374 383 384 375
4 375 384 385 376
4 376 385 386 377
4 377 386 58 59
4 105 106 387 378
4 378 387 388 379
4 379 388 389 380
4 380 389 390 381
4 381 390 391 382
4 382 391 392 383
4 383 392 393 384
4 384 393 394 385
4 385 394 395 386
4 386 395 57 58
4 106 107 396 387
4 387 396 397 388
4 388 397 398 389
4 389 398 399 390
4 390 399 400 391
4 391 400 401 392
4 392 401 402 393
4 393 402 403 394
4 394 403 404 395
4 395 404 56 57
4 107 108 405 396
4 396 405 406 397
4 397 406 407 398
4 398 407 408 399
4 399 408 409 400
4 400 409 410 401
4 401 410 411 402
4 402 411 412 403
4 403 412 413 404
4 404 413 55 56
4 108 109 414 405
4 405 414 415 406
4 406 415 416 407
4 407 416 417 408
4 408 417 418 409
4 409 418 419 410
4 410 419 420 411
4 411 420 421 412
4 412 421 422 413
4 413 422 54 55
4 109 110 423 414
4 414 423 424 415
4 415 424 425 416
4 416 425 426 417
4 417 426 427 418
4 418 427 428 419
4 419 428 429 420
4 420 429 430 421
4 421 430 431 422
4 422 431 53 54
4 110 111 432 423
4 423 432 433 424
4 424 433 434 425
4 425 434 435 426
4 426 435 436 427
4 427 436 437 428
4 428 437 438 429
4 429 438 439 430
4 430 439 440 431
4 431 440 52 53
4 111 112 441 432
4 432 441 442 433
4 433 442 443 434
4 434 443 444 435
4 435 444 445 436
4 436 445 446 437
4 437 446 447 438
4 438 447 448 439
4 439 448 449 440
4 440 449 51 52
4 112 113 450 441
4 441 450 451 442
4 442 451 452 443
4 443 452 453 444
4 444 453 454 445
4 445 454 455 446
4 446 455 456 447
4 447 456 457 448
4 448 457 458 449
4 449 458 50 51
4 113 114 459 450
4 450 459 460 451
4 451 460 461 452
4 452 461 462 453
4 453 462 463 454
4 454 463 464 455
4 455 464 465 456
4 456 465 466 457
4 457 466 467 458
4 458 467 49 50
4 114 115 468 459
4 459 468 469 460
4 460 469 470 461
4 461 470 471 462
4 462 471 472 463
4 463 472 473 464
4 464 473 474 465
4 465 474 475 466
4 466 475 476 467
4 467 476 48 49
4 115 116 477 468
4 468 477 478 469
4 469 478 479 470
4 470 479 480 471
4 471 480 481 472
4 472 481 482 473
4 473 482 483 474
4 474 483 484 475
4 475 484 485 476
4 476 485 47 48
4 116 117 486 477
4 477 486 487 478
4 478 487 488 479
4 479 488 489 480
4 480 489 490 481
4 481 490 491 482
4 482 491 492 483
4 483 492 493 484
4 484 493 494 485
4 485 494 46 47
4 117 118 495 486
4 486 495 496 487
4 487 496 497 488
4 488 497 498 489
4 489 498 499 490
4 490 499 500 491
4 491 500 501 492
4 492 501 502 493
4 493 502 503 494
4 494 503 45 46
4 118 119 504 495
4 495 504 505 496
4 496 505 506 497
4 497 506 507 498
4 498 507 508 499
4 499 508 509 500
4 500 509 510 501
4 501 510 511 502
4 502 511 512 503
4 503 512 44 45
4 119 120 513 504
4 504 513 514 505
4 505 514 515 506
4 506 515 516 507
4 507 516 517 508
4 508 517 518 509
4 509 518 519 510
4 510 519 520 511
4 511 520 521 512
4 512 521 43 44
4 120 121 522 513
4 513 522 523 514
4 514 523 524 515
4 515 524 525 516
4 516 525 526 517
4 517 526 527 518
4 518 527 528 519
4 519 528 529 520
4 520 529 530 521
4 521 530 42 43
4 121 122 531 522
4 522 531 532 523
4 523 532 533 524
4 524 533 534 525
4 525 534 535 526
4 526 535 536 527
4 527 536 537 528
4 528 537 538 529
4 529 538 539 530
4 530 539 41 42
4 122 123 540 531
4 531 540 541 532
4 532 541 542 533
4 533 542 543 534
4 534 543 544 535
4 535 544 545 536
4 536 545 546 537
4 537 546 547 538
4 538 547 548 539
4 539 548 40 41
4 123 124 549 540
4 540 549 550 541
4 541 550 551 542
4 542 551 552 543
4 543 552 553 544
4 544 553 554 545
4 545 554 555 546
4 546 555 556 547
4 547 556 557 548
4 548 557 39 40
4 124 125 558 549
4 549 558 559 550
4 550 559 560 551
4 551 560 561 552
4 552 561 562 553
4 553 562 563 554
4 554 563 564 555
4 555 564 565 556
4 556 565 566 557
4 557 566 38 39
4 125 126 567 558
4 558 567 568 559
4 559 568 569 560
4 560 569 570 561
4 561 570 571 562
4 562 571 572 563
4 563 572 573 564
4 564 573 574 565
4 565 574 575 566
4 566 575 37 38
4 126 127 576 567
4 567 576 577 568
4 568 577 578 569
4 569 578 579 570
4 570 579 580 571
4 571 580 581 572
4 572 581 582 573
4 573 582 583 574
4 574 583 584 575
4 575 584 36 37
4 127 128 585 576
4 576 585 586 577
4 577 586 587 578
4 578 587 588 579
4 579 588 589 580
4 580 589 590 581
4 581 590 591 582
4 582 591 592 583
4 583 592 593 584
4 584 593 35 36
4 128 129 594 585
4 585 594 595 586
4 586 595 596 587
4 587 596 597 588
4 588 597 598 589
4 589 598 599 590
4 590 599 600 591
4 591 600 601 592
4 592 601 602 593
4 593 602 34 35
4 129 130 603 594
4 594 603 604 595
4 595 604 605 596
4 596 605 606 597
4 597 606 607 598
4 598 607 608 599
4 599 608 609 600
4 600 609 610 601
4 601 610 611 602
4 602 611 33 34
4 130 131 612 603
4 603 612 613 604
4 604 613 614 605
4 605 614 615 606
4 606 615 616 607
4 607 616 617 608
4 608 617 618 609
4 609 618 619 610
4 610 619 620 611
4 611 620 32 33
4 131 132 621 612
4 612 621 622 613
4 613 622 623 614
4 614 623 624 615
4 615 624 625 616
4 616 625 626 617
4 617 626 627 618
4 618 627 628 619
4 619 628 629 620
4 620 629 31 32
4 132 133 630 621
4 621 630 631 622
4 622 631 632 623
4 623 632 633 624
4 624 633 634 625
4 625 634 635 626
4 626 635 636 627
4 627 636 637 628
4 628 637 638 629
4 629 638 30 31
4 133 134 639 630
4 630 639 640 631
4 631 640 641 632
4 632 641 642 633
4 633 642 643 634
4 634 643 644 635
4 635 644 645 636
4 636 645 646 637
4 637 646 647 638
4 638 647 29 30
4 134 135 648 639
4 639 648 649 640
4 640 649 650 641
4 641 650 651 642
4 642 651 652 643
4 643 652 653 644
4 644 653 654 645
4 645 654 655 646
4 646 655 656 647
4 647 656 28 29
4 135 136 657 648
4 648 657 658 649
4 649 658 659 650
4 650 659 660 651
4 651 660 661 652
4 652 661 662 653
4 653 662 663 654
4 654 663 664 655
4 655 664 665 656
4 656 665 27 28
4 136 137 666 657
4 657 666 667 658
4 658 667 668 659
4 659 668 669 660
4 660 669 670 661
4 661 670 671 662
4 662 671 672 663
4 663 672 673 664
4 664 673 674 665
4 665 674 26 27
4 137 138 675 666
4 666 675 676 667
4 667 676 677 668
4 668 677 678 669
4 669 678 679 670
4 670 679 680 671
4 671 680 681 672
4 672 681 682 673
4 673 682 683 674
4 674 683 25 26
4 138 139 684 675
4 675 684 685 676
4 676 685 686 677
4 677 686 687 678
4 678 687 688 679
4 679 688 689 680
4 680 689 690 681
4 681 690 691 682
4 682 691 692 683
4 683 692 24 25
4 139 140 693 684
4 684 693 694 685
4 685 694 695 686
4 686 695 696 687
4 687 696 697 688
4 688 697 698 689
4 689 698 699 690
4 690 699 700 691
4 691 700 701 692
4 692 701 23 24
4 140 141 702 693
4 693 702 703 694
4 694 703 704 695
4 695 704 705 696
4 696 705 706 697
4 697 706 707 698
4 698 707 708 699
4 699 708 709 700
4 700 709 710 701
4 701 710 22 23
4 141 142 711 702
4 702 711 712 703
4 703 712 713 704
4 704 713 714 705
4 705 714 715 706
4 706 715 716 707
4 707 716 717 708
4 708 717 718 709
4 709 718 719 710
4 710 719 21 22
4 142 143 720 711
4 711 720 721 712
4 712 721 722 713
4 713 722 723 714
4 714 723 724 715
4 715 724 725 716
4 716 725 726 717
4 717 726 727 718
4 718 727 728 719
4 719 728 20 21
4 143 144 729 720
4 720 729 730 721
4 721 730 731 722
4 722 731 732 723
4 723 732 733 724
4 724 733 734 725
4 725 734 735 726
4 726 735 736 727
4 727 736 737 728
4 728 737 19 20
4 144 145 738 729
4 729 738 739 730
4 730 739 740 731
4 731 740 741 732
4 732 741 742 733
4 733 742 743 734
4 734 743 744 735
4 735 744 745 736
4 736 745 746 737
4 737 746 18 19
4 145 146 747 738
4 738 747 748 739
4 739 748 749 740
4 740 749 750 741
4 741 750 751 742
4 742 751 752 743
4 743 752 753 744
4 744 753 754 745
4 745 754 755 746
4 746 755 17 18
4 146 147 756 747
4 747 756 757 748
4 748 757 758 749
4 749 758 759 750
4 750 759 760 751
4 751 760 761 752
4 752 761 762 753
4 753 762 763 754
4 754 763 764 755
4 755 764 16 17
4 147 148 765 756
4 756 765 766 757
4 757 766 767 758
4 758 767 768 759
4 759 768 769 760
4 760 769 770 761
4 761 770 771 762
4 762 771 772 763
4 763 772 773 764
4 764 773 15 16
4 148 149 774 765
4 765 774 775 766
4 766 775 776 767
4 767 776 777 768
4 768 777 778 769
4 769 778 779 770
4 770 779 780 771
4 771 780 781 772
4 772 781 782 773
4 773 782 14 15
4 149 150 783 774
4 774 783 784 775
4 775 784 785 776
4 776 785 786 777
4 777 786 787 778
4 778 787 788 779
4 779 788 789 780
4 780 789 790 781
4 781 790 791 782
4 782 791 13 14
4 150 151 792 783
4 783 792 793 784
4 784 793 794 785
4 785 794 795 786
4 786 795 796 787
4 787 796 797 788
4 788 797 798 789
4 789 798 799 790
4 790 799 800 791
4 791 800 12 13
4 151 152 801 792
4 792 801 802 793
4 793 802 803 794
4 794 803 804 795
4 795 804 805 796
4 796 805 806 797
4 797 806 807 798
4 798 807 808 799
4 799 808 809 800
4 800 809 11 12
4 152 153 810 801
4 801 810 811 802
4 802 811 812 803
4 803 812 813 804
4 804 813 814 805
4 805 814 815 806
4 806 815 816 807
4 807 816 817 808
4 808 817 818 809
4 809 818 10 11
4 153 154 819 810
4 810 819 820 811
4 811 820 821 812
4 812 821 822 813
4 813 822 823 814
4 814 823 824 815
4 815 824 825 816
4 816 825 826 817
4 817 826 827 818
4 818 827 9 10
4 154 155 828 819
4 819 828 829 820
4 820 829 830 821
4 821 830 831 822
4 822 831 832 823
4 823 832 833 824
4 824 833 834 825
4 825 834 835 826
4 826 835 836 827
4 827 836 8 9
4 155 156 837 828
4 828 837 838 829
4 829 838 839 830
4 830 839 840 831
4 831 840 841 832
4 832 841 842 833
4 833 842 843 834
4 834 843 844 835
4 835 844 845 836
4 836 845 7 8
4 156 157 846 837
4 837 846 847 838
4 838 847 848 839
4 839 848 849 840
4 840 849 850 841
4 841 850 851 842
4 842 851 852 843
4 843 852 853 844
4 844 853 854 845
4 845 854 6 7
4 157 158 855 846
4 846 855 856 847
4 847 856 857 848
4 848 857 858 849
4 849 858 859 850
4 850 859 860 851
4 851 860 861 852
4 852 861 862 853
4 853 862 863 854
4 854 863 5 6
4 158 159 864 855
4 855 864 865 856
4 856 865 866 857
4 857 866 867 858
4 858 867 868 859
4 859 868 869 860
4 860 869 870 861
4 861 870 871 862
4 862 871 872 863
4 863 872 4 5
4 159 160 873 864
4 864 873 874 865
4 865 874 875 866
4 866 875 876 867
4 867 876 877 868
4 868 877 878 869
4 869 878 879 870
4 870 879 880 871
4 871 880 881 872
4 872 881 3 4
4 160 161 882 873
4 873 882 883 874
4 874 883 884 875
4 875 884 885 876
4 876 885 886 877
4 877 886 887 878
4 878 887 888 879
4 879 888 889 880
4 880 889 890 881
4 881 890 2 3
4 161 81 162 882
4 882 162 163 883
4 883 163 164 884
4 884 164 165 885
4 885 165 166 886
4 886 166 167 887
4 887 167 168 888
4 888 168 169 889
4 889 169 170 890
4 890 170 1 2
CELL_TYPES 800
9
9
9
9
9
9
9
9
9
9
9
9
9
9
9
9
9
9
9
9
9
9
9
9
9
9
9
9
9
9
9
9
9
9
9
9
9
9
9
9
9
9
9
9
9
9
9
9
9
9
9
9
9
9
9
9
9
9
9
9
9
9
9
9
9
9
9
9
9
9
9
9
9
9
9
9
9
9
9
9
9
9
9
9
9
9
9
9
9
9
9
9
9
9
9
9
9
9
9
9
9
9
9
9
9
9
9
9
9
9
9
9
9
9
9
9
9
9
9
9
9
9
9
9
9
9
9
9
9
9
9
9
9
9
9
9
9
9
9
9
9
9
9
9
9
9
9
9
9
9
9
9
9
9
9
9
9
9
9
9
9
9
9
9
9
9
9
9
9
9
9
9
9
9
9
9
9
9
9
9
9
9
9
9
9
9
9
9
9
9
9
9
9
9
9
9
9
9
9
9
9
9
9
9
9
9
9
9
9
9
9
9
9
9
9
9
9
9
9
9
9
9
9
9
9
9
9
9
9
9
9
9
9
9
9
9
9
9
9
9
9
9
9
9
9
9
9
9
9
9
9
9
9
9
9
9
9
9
9
9
9
9
9
9
9
9
9
9
9
9
9
9
9
9
9
9
9
9
9
9
9
9
9
9
9
9
9
9
9
9
9
9
9
9
9
9
9
9
9
9
9
9
9
9
9
9
9
9
9
9
9
9
9
9
9
9
9
9
9
9
9
9
9
9
9
9
9
9
9
9
9
9
9
9
9
9
9
9
9
9
9
9
9
9
9
9
9
9
9
9
9
9
9
9
9
9
9
9
9
9
9
9
9
9
9
9
9
9
9
9
9
9
9
9
9
9
9
9
9
9
9
9
9
9
9
9
9
9
9
9
9
9
9
9
9
9
9
9
9
9
9
9
9
9
9
9
9
9
9
9
9
9
9
9
9
9
9
9
9
9
9
9
9
9
9
9
9
9
9
9
9
9
9
9
9
9
9
9
9
9
9
9
9
9
9
9
9
9
9
9
9
9
9
9
9
9
9
9
9
9
9
9
9
9
9
9
9
9
9
9
9
9
9
9
9
9
9
9
9
9
9
9
9
9
9
9
9
9
9
9
9
9
9
9
9
9
9
9
9
9
9
9
9
9
9
9
9
9
9
9
9
9
9
9
9
9
9
9
9
9
9
9
9
9
9
9
9
9
9
9
9
9
9
9
9
9
9
9
9
9
9
9
9
9
9
9
9
9
9
9
9
9
9
9
9
9
9
9
9
9
9
9
9
9
9
9
9
9
9
9
9
9
9
9
9
9
9
9
9
9
9
9
9
9
9
9
9
9
9
9
9
9
9
9
9
9
9
9
9
9
9
9
9
9
9
9
9
9
9
9
9
9
9
9
9
9
9
9
9
9
9
9
9
9
9
9
9
9
9
9
9
9
9
9
9
9
9
9
9
9
9
9
9
9
9
9
9
9
9
9
9
9
9
9
9
9
9
9
9
9
9
9
9
9
9
9
9
9
9
9
9
9
9
9
9
9
9
9
9
9
9
9
9
9
9
9
9
9
9
9
9
9
9
9
9
9
9
9
9
9
9
9
9
9
9
9
9
9
9
9
9
9
9
9
9
9
9
9
9
9
9
9
9
9
9
9
9
9
9
9
9
9
9
9
9
9
9
9
9
9
9
9
9
9
9
9
9
9
9
9
9
9
9
9
9
9
9
9
9
9
9
9
9
9
9
9
9
9
9
9
9
9
9
9
9
9
9
9
9
9
9
9
9
9
9
9
9
9
9
9
9
9
9
9
9
9
9
9
9
9
POINT_DATA 891
SCALARS u1 float
LOOKUP_TABLE default
-2e-07
-2e-07
-2e-07
-2e-07
-2e-07
-2e-07
-2e-07
-2e-07
-2e-07
-2e-07
-2e-07
-2e-07
-2e-07
-2e-07
-2e-07
-2e-07
-2e-07
-2e-07
-2e-07
-2e-07
-2e-07
-2e-07
-2e-07
-2e-07
-2e-07
-2e-07
-2e-07
-2e-07
-2e-07
-2e-07
-2e-07
-2e-07
-2e-07
-2e-07
-2e-07
-2e-07
-2e-07
-2e-07
-2e-07
-2e-07
-2e-07
-2e-07
-2e-07
-2e-07
-2e-07
-2e-07
-2e-07
-2e-07
-2e-07
-2e-07
-2e-07
-2e-07
-2e-07
-2e-07
-2e-07
-2e-07
-2e-07
-2e-07
-2e-07
-2e-07
-2e-07
-2e-07
-2e-07
-2e-07
-2e-07
-2e-07
-2e-07
-2e-07
-2e-07
-2e-07
-2e-07
-2e-07
-2e-07
-2e-07
-2e-07
-2e-07
-2e-07
-2e-07
-2e-07
-2e-07
-2e-07
4e-05
4e-05
4e-05
4e-05
4e-05
4e-05
4e-05
4e-05
4e-05
4e-05
4e-05
4e-05
4e-05
4e-05
4e-05
4e-05
4e-05
4e-05
4e-05
4e-05
4e-05
4e-05
4e-05
4e-05
4e-05
4e-05
4e-05
4e-05
4e-05
4e-05
4e-05
4e-05
4e-05
4e-05
4e-05
4e-05
4e-05
4e-05
4e-05
4e-05
4e-05
4e-05
4e-05
4e-05
4e-05
4e-05
4e-05
4e-05
4e-05
4e-05
4e-05
4e-05
4e-05
4e-05
4e-05
4e-05
4e-05
4e-05
4e-05
4e-05
4e-05
4e-05
4e-05
4e-05
4e-05
4e-05
4e-05
4e-05
4e-05
4e-05
4e-05
4e-05
4e-05
4e-05
4e-05
4e-05
4e-05
4e-05
4e-05
4e-05
4e-05
4e-05
3e-05
3e-05
2e-05
2e-05
2e-05
1e-05
8e-06
4e-06
4e-06
8e-06
1e-05
2e-05
2e-05
2e-05
3e-05
3e-05
4e-05
4e-05
3e-05
3e-05
2e-05
2e-05
2e-05
1e-05
8e-06
4e-06
4e-05
3e-05
3e-05
2e-05
2e-05
2e-05
1e-05
8e-06
4e-06
4e-05
3e-05
3e-05
2e-05
2e-05
2e-05
1e-05
8e-06
4e-06
4e-05
3e-05
3e-05
2e-05
2e-05
2e-05
1e-05
8e-06
4e-06
4e-05
3e-05
3e-05
2e-05
2e-05
2e-05
1e-05
8e-06
4e-06
4e-05
3e-05
3e-05
2e-05
2e-05
2e-05
1e-05
8e-06
4e-06
4e-05
3e-05
3e-05
2e-05
2e-05
2e-05
1e-05
8e-06
4e-06
4e-05
3e-05
3e-05
2e-05
2e-05
2e-05
1e-05
8e-06
4e-06
4e-05
3e-05
3e-05
2e-05
2e-05
2e-05
1e-05
8e-06
4e-06
4e-05
3e-05
3e-05
2e-05
2e-05
2e-05
1e-05
8e-06
4e-06
4e-05
3e-05
3e-05
2e-05
2e-05
2e-05
1e-05
8e-06
4e-06
4e-05
3e-05
3e-05
2e-05
2e-05
2e-05
1e-05
8e-06
4e-06
4e-05
3e-05
3e-05
2e-05
2e-05
2e-05
1e-05
8e-06
4e-06
4e-05
3e-05
3e-05
2e-05
2e-05
2e-05
1e-05
8e-06
4e-06
4e-05
3e-05
3e-05
2e-05
2e-05
2e-05
1e-05
8e-06
4e-06
4e-05
3e-05
3e-05
2e-05
2e-05
2e-05
1e-05
8e-06
4e-06
4e-05
3e-05
3e-05
2e-05
2e-05
2e-05
1e-05
8e-06
4e-06
4e-05
3e-05
3e-05
2e-05
2e-05
2e-05
1e-05
8e-06
4e-06
4e-05
3e-05
3e-05
2e-05
2e-05
2e-05
1e-05
8e-06
4e-06
4e-05
3e-05
3e-05
2e-05
2e-05
2e-05
1e-05
8e-06
4e-06
4e-05
3e-05
3e-05
2e-05
2e-05
2e-05
1e-05
8e-06
4e-06
4e-05
3e-05
3e-05
2e-05
2e-05
2e-05
1e-05
8e-06
4e-06
4e-05
3e-05
3e-05
2e-05
2e-05
2e-05
1e-05
8e-06
4e-06
4e-05
3e-05
3e-05
2e-05
2e-05
2e-05
1e-05
8e-06
4e-06
4e-05
3e-05
3e-05
2e-05
2e-05
2e-05
1e-05
8e-06
4e-06
4e-05
3e-05
3e-05
2e-05
2e-05
2e-05
1e-05
8e-06
4e-06
4e-05
3e-05
3e-05
2e-05
2e-05
2e-05
1e-05
8e-06
4e-06
4e-05
3e-05
3e-05
2e-05
2e-05
2e-05
1e-05
8e-06
4e-06
4e-05
3e-05
3e-05
2e-05
2e-05
2e-05
1e-05
8e-06
4e-06
4e-05
3e-05
3e-05
2e-05
2e-05
2e-05
1e-05
8e-06
4e-06
4e-05
3e-05
3e-05
2e-05
2e-05
2e-05
1e-05
8e-06
4e-06
4e-05
3e-05
3e-05
2e-05
2e-05
2e-05
1e-05
8e-06
4e-06
4e-05
3e-05
3e-05
2e-05
2e-05
2e-05
1e-05
8e-06
4e-06
4e-05
3e-05
3e-05
2e-05
2e-05
2e-05
1e-05
8e-06
4e-06
4e-05
3e-05
3e-05
2e-05
2e-05
2e-05
1e-05
8e-06
4e-06
4e-05
3e-05
3e-05
2e-05
2e-05
2e-05
1e-05
8e-06
4e-06
4e-05
3e-05
3e-05
2e-05
2e-05
2e-05
1e-05
8e-06
4e-06
4e-05
3e-05
3e-05
2e-05
2e-05
2e-05
1e-05
8e-06
4e-06
4e-05
3e-05
3e-05
2e-05
2e-05
2e-05
1e-05
8e-06
4e-06
4e-05
3e-05
3e-05
2e-05
2e-05
2e-05
1e-05
8e-06
4e-06
4e-05
3e-05
3e-05
2e-05
2e-05
2e-05
1e-05
8e-06
4e-06
4e-05
3e-05
3e-05
2e-05
2e-05
2e-05
1e-05
8e-06
4e-06
4e-05
3e-05
3e-05
2e-05
2e-05
2e-05
1e-05
8e-06
4e-06
4e-05
3e-05
3e-05
2e-05
2e-05
2e-05
1e-05
8e-06
4e-06
4e-05
3e-05
3e-05
2e-05
2e-05
2e-05
1e-05
8e-06
4e-06
4e-05
3e-05
3e-05
2e-05
2e-05
2e-05
1e-05
8e-06
4e-06
4e-05
3e-05
3e-05
2e-05
2e-05
2e-05
1e-05
8e-06
4e-06
4e-05
3e-05
3e-05
2e-05
2e-05
2e-05
1e-05
8e-06
4e-06
4e-05
3e-05
3e-05
2e-05
2e-05
2e-05
1e-05
8e-06
4e-06
4e-05
3e-05
3e-05
2e-05
2e-05
2e-05
1e-05
8e-06
4e-06
4e-05
3e-05
3e-05
2e-05
2e-05
2e-05
1e-05
8e-06
4e-06
4e-05
3e-05
3e-05
2e-05
2e-05
2e-05
1e-05
8e-06
4e-06
4e-05
3e-05
3e-05
2e-05
2e-05
2e-05
1e-05
8e-06
4e-06
4e-05
3e-05
3e-05
2e-05
2e-05
2e-05
1e-05
8e-06
4e-06
4e-05
3e-05
3e-05
2e-05
2e-05
2e-05
1e-05
8e-06
4e-06
4e-05
3e-05
3e-05
2e-05
2e-05
2e-05
1e-05
8e-06
4e-06
4e-05
3e-05
3e-05
2e-05
2e-05
2e-05
1e-05
8e-06
4e-06
4e-05
3e-05
3e-05
2e-05
2e-05
2e-05
1e-05
8e-06
4e-06
4e-05
3e-05
3e-05
2e-05
2e-05
2e-05
1e-05
8e-06
4e-06
4e-05
3e-05
3e-05
2e-05
2e-05
2e-05
1e-05
8e-06
4e-06
4e-05
3e-05
3e-05
2e-05
2e-05
2e-05
1e-05
8e-06
4e-06
4e-05
3e-05
3e-05
2e-05
2e-05
2e-05
1e-05
8e-06
4e-06
4e-05
3e-05
3e-05
2e-05
2e-05
2e-05
1e-05
8e-06
4e-06
4e-05
3e-05
3e-05
2e-05
2e-05
2e-05
1e-05
8e-06
4e-06
4e-05
3e-05
3e-05
2e-05
2e-05
2e-05
1e-05
8e-06
4e-06
4e-05
3e-05
3e-05
2e-05
2e-05
2e-05
1e-05
8e-06
4e-06
4e-05
3e-05
3e-05
2e-05
2e-05
2e-05
1e-05
8e-06
4e-06
4e-05
3e-05
3e-05
2e-05
2e-05
2e-05
1e-05
8e-06
4e-06
4e-05
3e-05
3e-05
2e-05
2e-05
2e-05
1e-05
8e-06
4e-06
4e-05
3e-05
3e-05
2e-05
2e-05
2e-05
1e-05
8e-06
4e-06
4e-05
3e-05
3e-05
2e-05
2e-05
2e-05
1e-05
8e-06
4e-06
4e-05
3e-05
3e-05
2e-05
2e-05
2e-05
1e-05
8e-06
4e-06
4e-05
3e-05
3e-05
2e-05
2e-05
2e-05
1e-05
8e-06
4e-06
4e-05
3e-05
3e-05
2e-05
2e-05
2e-05
1e-05
8e-06
4e-06
4e-05
3e-05
3e-05
2e-05
2e-05
2e-05
1e-05
8e-06
4e-06
4e-05
3e-05
3e-05
2e-05
2e-05
2e-05
1e-05
8e-06
4e-06
4e-05
3e-05
3e-05
2e-05
2e-05
2e-05
1e-05
8e-06
4e-06
4e-05
3e-05
3e-05
2e-05
2e-05
2e-05
1e-05
8e-06
4e-06
4e-05
3e-05
3e-05
2e-05
2e-05
2e-05
1e-05
8e-06
4e-06
SCALARS u2 float
LOOKUP_TABLE default
0.002
-0.002
-0.002
-0.002
-0.002
-0.002
-0.002
-0.001
-0.001
-0.001
-0.001
-0.001
-0.001
-0.001
-0.001
-0.001
-0.001
-0.001
-0.001
-0.001
-0.0009
-0.0009
-0.0008
-0.0008
-0.0007
-0.0007
-0.0007
-0.0006
-0.0006
-0.0005
-0.0005
-0.0004
-0.0004
-0.0004
-0.0003
-0.0003
-0.0002
-0.0002
-0.0001
-9e-05
-4e-05
-1e-17
4e-05
9e-05
0.0001
0.0002
0.0002
0.0003
0.0003
0.0004
0.0004
0.0004
0.0005
0.0005
0.0006
0.0006
0.0007
0.0007
0.0007
0.0008
0.0008
0.0009
0.0009
0.001
0.001
0.001
0.001
0.001
0.001
0.001
0.001
0.001
0.001
0.001
0.001
0.001
0.002
0.002
0.002
0.002
0.002
-0.002
0.002
0.002
0.002
0.002
0.002
0.002
0.001
0.001
0.001
0.001
0.001
0.001
0.001
0.001
0.001
0.001
0.001
0.001
0.001
0.0009
0.0009
0.0008
0.0008
0.0007
0.0007
0.0007
0.0006
0.0006
0.0005
0.0005
0.0004
0.0004
0.0004
0.0003
0.0003
0.0002
0.0002
0.0001
9e-05
4e-05
2e-17
-4e-05
-9e-05
-0.0001
-0.0002
-0.0002
-0.0003
-0.0003
-0.0004
-0.0004
-0.0004
-0.0005
-0.0005
-0.0006
-0.0006
-0.0007
-0.0007
-0.0007
-0.0008
-0.0008
-0.0009
-0.0009
-0.001
-0.001
-0.001
-0.001
-0.001
-0.001
-0.001
-0.001
-0.001
-0.001
-0.001
-0.001
-0.001
-0.002
-0.002
-0.002
-0.002
-0.002
-0.002
-0.002
-0.002
-0.002
-0.002
-0.002
-0.002
-0.002
-0.002
0.002
0.002
0.002
0.002
0.002
0.002
0.002
0.002
0.002
0.002
0.002
0.002
0.002
0.002
0.002
0.002
0.002
0.002
0.002
0.002
0.002
0.002
0.002
0.002
0.002
0.002
0.002
0.002
0.002
0.002
0.002
0.002
0.002
0.002
0.002
0.002
0.002
0.002
0.002
0.002
0.002
0.002
0.002
0.002
0.002
0.002
0.002
0.002
0.002
0.002
0.002
0.002
0.002
0.002
0.001
0.001
0.001
0.001
0.001
0.001
0.001
0.001
0.001
0.001
0.001
0.001
0.001
0.001
0.001
0.001
0.001
0.001
0.001
0.001
0.001
0.001
0.001
0.001
0.001
0.001
0.001
0.001
0.001
0.001
0.001
0.001
0.001
0.001
0.001
0.001
0.001
0.001
0.001
0.001
0.001
0.001
0.001
0.001
0.001
0.001
0.001
0.001
0.001
0.001
0.001
0.001
0.001
0.001
0.001
0.001
0.001
0.001
0.001
0.001
0.001
0.001
0.001
0.001
0.001
0.001
0.001
0.001
0.001
0.001
0.001
0.001
0.001
0.001
0.001
0.001
0.001
0.001
0.001
0.001
0.001
0.001
0.001
0.001
0.001
0.001
0.001
0.001
0.001
0.001
0.001
0.001
0.001
0.001
0.001
0.001
0.001
0.001
0.001
0.001
0.001
0.001
0.001
0.001
0.001
0.001
0.001
0.001
0.001
0.001
0.001
0.001
0.001
0.001
0.001
0.001
0.001
0.0009
0.0009
0.0009
0.0009
0.0009
0.0009
0.0009
0.0009
0.0009
0.0009
0.0009
0.0009
0.0009
0.0009
0.0009
0.0009
0.0009
0.0009
0.0008
0.0008
0.0008
0.0008
0.0008
0.0008
0.0008
0.0008
0.0008
0.0008
0.0008
0.0008
0.0008
0.0008
0.0008
0.0008
0.0008
0.0008
0.0007
0.0007
0.0007
0.0007
0.0007
0.0007
0.0007
0.0007
0.0007
0.0007
0.0007
0.0007
0.0007
0.0007
0.0007
0.0007
0.0007
0.0007
0.0007
0.0007
0.0007
0.0007
0.0007
0.0007
0.0007
0.0007
0.0007
0.0006
0.0006
0.0006
0.0006
0.0006
0.0006
0.0006
0.0006
0.0006
0.0006
0.0006
0.0006
0.0006
0.0006
0.0006
0.0006
0.0006
0.0006
0.0005
0.0005
0.0005
0.0005
0.0005
0.0005
0.0005
0.0005
0.0005
0.0005
0.0005
0.0005
0.0005
0.0005
0.0005
0.0005
0.0005
0.0005
0.0004
0.0004
0.0004
0.0004
0.0004
0.0004
0.0004
0.0004
0.0004
0.0004
0.0004
0.0004
0.0004
0.0004
0.0004
0.0004
0.0004
0.0004
0.0004
0.0004
0.0004
0.0004
0.0004
0.0004
0.0004
0.0004
0.0004
0.0003
0.0003
0.0003
0.0003
0.0003
0.0003
0.0003
0.0003
0.0003
0.0003
0.0003
0.0003
0.0003
0.0003
0.0003
0.0003
0.0003
0.0003
0.0002
0.0002
0.0002
0.0002
0.0002
0.0002
0.0002
0.0002
0.0002
0.0002
0.0002
0.0002
0.0002
0.0002
0.0002
0.0002
0.0002
0.0002
0.0001
0.0001
0.0001
0.0001
0.0001
0.0001
0.0001
0.0001
0.0001
9e-05
9e-05
9e-05
9e-05
9e-05
9e-05
9e-05
9e-05
9e-05
4e-05
4e-05
4e-05
4e-05
4e-05
4e-05
4e-05
4e-05
4e-05
1e-17
1e-17
9e-18
6e-18
3e-18
-2e-19
-3e-18
-6e-18
-9e-18
-4e-05
-4e-05
-4e-05
-4e-05
-4e-05
-4e-05
-4e-05
-4e-05
-4e-05
-9e-05
-9e-05
-9e-05
-9e-05
-9e-05
-9e-05
-9e-05
-9e-05
-9e-05
-0.0001
-0.0001
-0.0001
-0.0001
-0.0001
-0.0001
-0.0001
-0.0001
-0.0001
-0.0002
-0.0002
-0.0002
-0.0002
-0.0002
-0.0002
-0.0002
-0.0002
-0.0002
-0.0002
-0.0002
-0.0002
-0.0002
-0.0002
-0.0002
-0.0002
-0.0002
-0.0002
-0.0003
-0.0003
-0.0003
-0.0003
-0.0003
-0.0003
-0.0003
-0.0003
-0.0003
-0.0003
-0.0003
-0.0003
-0.0003
-0.0003
-0.0003
-0.0003
-0.0003
-0.0003
-0.0004
-0.0004
-0.0004
-0.0004
-0.0004
-0.0004
-0.0004
-0.0004
-0.0004
-0.0004
-0.0004
-0.0004
-0.0004
-0.0004
-0.0004
-0.0004
-0.0004
-0.0004
-0.0004
-0.0004
-0.0004
-0.0004
-0.0004
-0.0004
-0.0004
-0.0004
-0.0004
-0.0005
-0.0005
-0.0005
-0.0005
-0.0005
-0.0005
-0.0005
-0.0005
-0.0005
-0.0005
-0.0005
-0.0005
-0.0005
-0.0005
-0.0005
-0.0005
-0.0005
-0.0005
-0.0006
-0.0006
-0.0006
-0.0006
-0.0006
-0.0006
-0.0006
-0.0006
-0.0006
-0.0006
-0.0006
-0.0006
-0.0006
-0.0006
-0.0006
-0.0006
-0.0006
-0.0006
-0.0007
-0.0007
-0.0007
-0.0007
-0.0007
-0.0007
-0.0007
-0.0007
-0.0007
-0.0007
-0.0007
-0.0007
-0.0007
-0.0007
-0.0007
-0.0007
-0.0007
-0.0007
-0.0007
-0.0007
-0.0007
-0.0007
-0.0007
-0.0007
-0.0007
-0.0007
-0.0007
-0.0008
-0.0008
-0.0008
-0.0008
-0.0008
-0.0008
-0.0008
-0.0008
-0.0008
-0.0008
-0.0008
-0.0008
-0.0008
-0.0008
-0.0008
-0.0008
-0.0008
-0.0008
-0.0009
-0.0009
-0.0009
-0.0009
-0.0009
-0.0009
-0.0009
-0.0009
-0.0009
-0.0009
-0.0009
-0.0009
-0.0009
-0.0009
-0.0009
-0.0009
-0.0009
-0.0009
-0.001
-0.001
-0.001
-0.001
-0.001
-0.001
-0.001
-0.001
-0.001
-0.001
-0.001
-0.001
-0.001
-0.001
-0.001
-0.001
-0.001
-0.001
-0.001
-0.001
-0.001
-0.001
-0.001
-0.001
-0.001
-0.001
-0.001
-0.001
-0.001
-0.001
-0.001
-0.001
-0.001
-0.001
-0.001
-0.001
-0.001
-0.001
-0.001
-0.001
-0.001
-0.001
-0.001
-0.001
-0.001
-0.001
-0.001
-0.001
-0.001
-0.001
-0.001
-0.001
-0.001
-0.001
-0.001
-0.001
-0.001
-0.001
-0.001
-0.001
-0.001
-0.001
-0.001
-0.001
-0.001
-0.001
-0.001
-0.001
-0.001
-0.001
-0.001
-0.001
-0.001
-0.001
-0.001
-0.001
-0.001
-0.001
-0.001
-0.001
-0.001
-0.001
-0.001
-0.001
-0.001
-0.001
-0.001
-0.001
-0.001
-0.001
-0.001
-0.001
-0.001
-0.001
-0.001
-0.001
-0.001
-0.001
-0.001
-0.001
-0.001
-0.001
-0.001
-0.001
-0.001
-0.001
-0.001
-0.001
-0.001
-0.001
-0.001
-0.001
-0.001
-0.001
-0.001
-0.001
-0.001
-0.002
-0.002
-0.002
-0.002
-0.002
-0.002
-0.002
-0.002
-0.002
-0.002
-0.002
-0.002
-0.002
-0.002
-0.002
-0.002
-0.002
-0.002
-0.002
-0.002
-0.002
-0.002
-0.002
-0.002
-0.002
-0.002
-0.002
-0.002
-0.002
-0.002
-0.002
-0.002
-0.002
-0.002
-0.002
-0.002
-0.002
-0.002
-0.002
-0.002
-0.002
-0.002
-0.002
-0.002
-0.002
SCALARS strain_1 float
LOOKUP_TABLE default
-0.007991
-0.007991
-0.007991
-0.007991
-0.007991
-0.007991
-0.007991
-0.007991
-0.007991
-0.007991
-0.007991
-0.007991
-0.007991
-0.007991
-0.007991
-0.007991
-0.007991
-0.007991
-0.007991
-0.007991
-0.007991
-0.007991
-0.007991
-0.007991
-0.007991
-0.007991
-0.007991
-0.007991
-0.007991
-0.007991
-0.007991
-0.007991
-0.007991
-0.007991
-0.007991
-0.007991
-0.007991
-0.007991
-0.007991
-0.007991
-0.007991
-0.007991
-0.007991
-0.007991
-0.007991
-0.007991
-0.007991
-0.007991
-0.007991
-0.007991
-0.007991
-0.007991
-0.007991
-0.007991
-0.007991
-0.007991
-0.007991
-0.007991
-0.007991
-0.007991
-0.007991
-0.007991
-0.007991
-0.007991
-0.007991
-0.007991
-0.007991
-0.007991
-0.007991
-0.007991
-0.007991
-0.007991
-0.007991
-0.007991
-0.007991
-0.007991
-0.007991
-0.007991
-0.007991
-0.007991
-0.007991
-0.007991
-0.007991
-0.007991
-0.007991
-0.007991
-0.007991
-0.007991
-0.007991
-0.007991
-0.007991
-0.007991
-0.007991
-0.007991
-0.007991
-0.007991
-0.007991
-0.007991
-0.007991
-0.007991
-0.007991
-0.007991
-0.007991
-0.007991
-0.007991
-0.007991
-0.007991
-0.007991
-0.007991
-0.007991
-0.007991
-0.007991
-0.007991
-0.007991
-0.007991
-0.007991
-0.007991
-0.007991
-0.007991
-0.007991
-0.007991
-0.007991
-0.007991
-0.007991
-0.007991
-0.007991
-0.007991
-0.007991
-0.007991
-0.007991
-0.007991
-0.007991
-0.007991
-0.007991
-0.007991
-0.007991
-0.007991
-0.007991
-0.007991
-0.007991
-0.007991
-0.007991
-0.007991
-0.007991
-0.007991
-0.007991
-0.007991
-0.007991
-0.007991
-0.007991
-0.007991
-0.007991
-0.007991
-0.007991
-0.007991
-0.007991
-0.007991
-0.007991
-0.007991
-0.007991
-0.007991
-0.007991
-0.007991
-0.007991
-0.007991
-0.007991
-0.007991
-0.007991
-0.007991
-0.007991
-0.007991
-0.007991
-0.007991
-0.007991
-0.007991
-0.007991
-0.007991
-0.007991
-0.007991
-0.007991
-0.007991
-0.007991
-0.007991
-0.007991
-0.007991
-0.007991
-0.007991
-0.007991
-0.007991
-0.007991
-0.007991
-0.007991
-0.007991
-0.007991
-0.007991
-0.007991
-0.007991
-0.007991
-0.007991
-0.007991
-0.007991
-0.007991
-0.007991
-0.007991
-0.007991
-0.007991
-0.007991
-0.007991
-0.007991
-0.007991
-0.007991
-0.007991
-0.007991
-0.007991
-0.007991
-0.007991
-0.007991
-0.007991
-0.007991
-0.007991
-0.007991
-0.007991
-0.007991
-0.007991
-0.007991
-0.007991
-0.007991
-0.007991
-0.007991
-0.007991
-0.007991
-0.007991
-0.007991
-0.007991
-0.007991
-0.007991
-0.007991
-0.007991
-0.007991
-0.007991
-0.007991
-0.007991
-0.007991
-0.007991
-0.007991
-0.007991
-0.007991
-0.007991
-0.007991
-0.007991
-0.007991
-0.007991
-0.007991
-0.007991
-0.007991
-0.007991
-0.007991
-0.007991
-0.007991
-0.007991
-0.007991
-0.007991
-0.007991
-0.007991
-0.007991
-0.007991
-0.007991
-0.007991
-0.007991
-0.007991
-0.007991
-0.007991
-0.007991
-0.007991
-0.007991
-0.007991
-0.007991
-0.007991
-0.007991
-0.007991
-0.007991
-0.007991
-0.007991
-0.007991
-0.007991
-0.007991
-0.007991
-0.007991
-0.007991
-0.007991
-0.007991
-0.007991
-0.007991
-0.007991
-0.007991
-0.007991
-0.007991
-0.007991
-0.007991
-0.007991
-0.007991
-0.007991
-0.007991
-0.007991
-0.007991
-0.007991
-0.007991
-0.007991
-0.007991
-0.007991
-0.007991
-0.007991
-0.007991
-0.007991
-0.007991
-0.007991
-0.007991
-0.007991
-0.007991
-0.007991
-0.007991
-0.007991
-0.007991
-0.007991
-0.007991
-0.007991
-0.007991
-0.007991
-0.007991
-0.007991
-0.007991
-0.007991
-0.007991
-0.007991
-0.007991
-0.007991
-0.007991
-0.007991
-0.007991
-0.007991
-0.007991
-0.007991
-0.007991
-0.007991
-0.007991
-0.007991
-0.007991
-0.007991
-0.007991
-0.007991
-0.007991
-0.007991
-0.007991
-0.007991
-0.007991
-0.007991
-0.007991
-0.007991
-0.007991
-0.007991
-0.007991
-0.007991
-0.007991
-0.007991
-0.007991
-0.007991
-0.007991
-0.007991
-0.007991
-0.007991
-0.007991
-0.007991
-0.007991
-0.007991
-0.007991
-0.007991
-0.007991
-0.007991
-0.007991
-0.007991
-0.007991
-0.007991
-0.007991
-0.007991
-0.007991
-0.007991
-0.007991
-0.007991
-0.007991
-0.007991
-0.007991
-0.007991
-0.007991
-0.007991
-0.007991
-0.007991
-0.007991
-0.007991
-0.007991
-0.007991
-0.007991
-0.007991
-0.007991
-0.007991
-0.007991
-0.007991
-0.007991
-0.007991
-0.007991
-0.007991
-0.007991
-0.007991
-0.007991
-0.007991
-0.007991
-0.007991
-0.007991
-0.007991
-0.007991
-0.007991
-0.007991
-0.007991
-0.007991
-0.007991
-0.007991
-0.007991
-0.007991
-0.007991
-0.007991
-0.007991
-0.007991
-0.007991
-0.007991
-0.007991
-0.007991
-0.007991
-0.007991
-0.007991
-0.007991
-0.007991
-0.007991
-0.007991
-0.007991
-0.007991
-0.007991
-0.007991
-0.007991
-0.007991
-0.007991
-0.007991
-0.007991
-0.007991
-0.007991
-0.007991
-0.007991
-0.007991
-0.007991
-0.007991
-0.007991
-0.007991
-0.007991
-0.007991
-0.007991
-0.007991
-0.007991
-0.007991
-0.007991
-0.007991
-0.007991
-0.007991
-0.007991
-0.007991
-0.007991
-0.007991
-0.007991
-0.007991
-0.007991
-0.007991
-0.007991
-0.007991
-0.007991
-0.007991
-0.007991
-0.007991
-0.007991
-0.007991
-0.007991
-0.007991
-0.007991
-0.007991
-0.007991
-0.007991
-0.007991
-0.007991
-0.007991
-0.007991
-0.007991
-0.007991
-0.007991
-0.007991
-0.007991
-0.007991
-0.007991
-0.007991
-0.007991
-0.007991
-0.007991
-0.007991
-0.007991
-0.007991
-0.007991
-0.007991
-0.007991
-0.007991
-0.007991
-0.007991
-0.007991
-0.007991
-0.007991
-0.007991
-0.007991
-0.007991
-0.007991
-0.007991
-0.007991
-0.007991
-0.007991
-0.007991
-0.007991
-0.007991
-0.007991
-0.007991
-0.007991
-0.007991
-0.007991
-0.007991
-0.007991
-0.007991
-0.007991
-0.007991
-0.007991
-0.007991
-0.007991
-0.007991
-0.007991
-0.007991
-0.007991
-0.007991
-0.007991
-0.007991
-0.007991
-0.007991
-0.007991
-0.007991
-0.007991
-0.007991
-0.007991
-0.007991
-0.007991
-0.007991
-0.007991
-0.007991
-0.007991
-0.007991
-0.007991
-0.007991
-0.007991
-0.007991
-0.007991
-0.007991
-0.007991
-0.007991
-0.007991
-0.007991
-0.007991
-0.007991
-0.007991
-0.007991
-0.007991
-0.007991
-0.007991
-0.007991
-0.007991
-0.007991
-0.007991
-0.007991
-0.007991
-0.007991
-0.007991
-0.007991
-0.007991
-0.007991
-0.007991
-0.007991
-0.007991
-0.007991
-0.007991
-0.007991
-0.007991
-0.007991
-0.007991
-0.007991
-0.007991
-0.007991
-0.007991
-0.007991
-0.007991
-0.007991
-0.007991
-0.007991
-0.007991
-0.007991
-0.007991
-0.007991
-0.007991
-0.007991
-0.007991
-0.007991
-0.007991
-0.007991
-0.007991
-0.007991
-0.007991
-0.007991
-0.007991
-0.007991
-0.007991
-0.007991
-0.007991
-0.007991
-0.007991
-0.007991
-0.007991
-0.007991
-0.007991
-0.007991
-0.007991
-0.007991
-0.007991
-0.007991
-0.007991
-0.007991
-0.007991
-0.007991
-0.007991
-0.007991
-0.007991
-0.007991
-0.007991
-0.007991
-0.007991
-0.007991
-0.007991
-0.007991
-0.007991
-0.007991
-0.007991
-0.007991
-0.007991
-0.007991
-0.007991
-0.007991
-0.007991
-0.007991
-0.007991
-0.007991
-0.007991
-0.007991
-0.007991
-0.007991
-0.007991
-0.007991
-0.007991
-0.007991
-0.007991
-0.007991
-0.007991
-0.007991
-0.007991
-0.007991
-0.007991
-0.007991
-0.007991
-0.007991
-0.007991
-0.007991
-0.007991
-0.007991
-0.007991
-0.007991
-0.007991
-0.007991
-0.007991
-0.007991
-0.007991
-0.007991
-0.007991
-0.007991
-0.007991
-0.007991
-0.007991
-0.007991
-0.007991
-0.007991
-0.007991
-0.007991
-0.007991
-0.007991
-0.007991
-0.007991
-0.007991
-0.007991
-0.007991
-0.007991
-0.007991
-0.007991
-0.007991
-0.007991
-0.007991
-0.007991
-0.007991
-0.007991
-0.007991
-0.007991
-0.007991
-0.007991
-0.007991
-0.007991
-0.007991
-0.007991
-0.007991
-0.007991
-0.007991
-0.007991
-0.007991
-0.007991
-0.007991
-0.007991
-0.007991
-0.007991
-0.007991
-0.007991
-0.007991
-0.007991
-0.007991
-0.007991
-0.007991
-0.007991
-0.007991
-0.007991
-0.007991
-0.007991
-0.007991
-0.007991
-0.007991
-0.007991
-0.007991
-0.007991
-0.007991
-0.007991
-0.007991
-0.007991
-0.007991
-0.007991
-0.007991
-0.007991
-0.007991
-0.007991
-0.007991
-0.007991
-0.007991
-0.007991
-0.007991
-0.007991
-0.007991
-0.007991
-0.007991
-0.007991
-0.007991
-0.007991
-0.007991
-0.007991
-0.007991
-0.007991
-0.007991
-0.007991
-0.007991
-0.007991
-0.007991
-0.007991
-0.007991
-0.007991
-0.007991
-0.007991
-0.007991
-0.007991
-0.007991
-0.007991
-0.007991
-0.007991
-0.007991
-0.007991
-0.007991
-0.007991
-0.007991
-0.007991
-0.007991
-0.007991
-0.007991
-0.007991
-0.007991
-0.007991
-0.007991
-0.007991
-0.007991
-0.007991
-0.007991
-0.007991
-0.007991
-0.007991
-0.007991
-0.007991
-0.007991
-0.007991
-0.007991
-0.007991
-0.007991
-0.007991
-0.007991
-0.007991
-0.007991
-0.007991
-0.007991
-0.007991
-0.007991
-0.007991
-0.007991
-0.007991
-0.007991
-0.007991
-0.007991
-0.007991
-0.007991
-0.007991
-0.007991
-0.007991
-0.007991
-0.007991
-0.007991
-0.007991
-0.007991
-0.007991
-0.007991
-0.007991
-0.007991
-0.007991
-0.007991
-0.007991
-0.007991
-0.007991
-0.007991
-0.007991
-0.007991
-0.007991
-0.007991
-0.007991
-0.007991
-0.007991
-0.007991
-0.007991
-0.007991
-0.007991
-0.007991
-0.007991
-0.007991
-0.007991
-0.007991
-0.007991
-0.007991
-0.007991
-0.007991
-0.007991
-0.007991
-0.007991
-0.007991
-0.007991
-0.007991
-0.007991
-0.007991
-0.007991
-0.007991
SCALARS strain_2 float
LOOKUP_TABLE default
0.035149
0.035149
0.035149
0.035149
0.035149
0.035149
0.035149
0.035149
0.035149
0.035149
0.035149
0.035149
0.035149
0.035149
0.035149
0.035149
0.035149
0.035149
0.035149
0.035149
0.035149
0.035149
0.035149
0.035149
0.035149
0.035149
0.035149
0.035149
0.035149
0.035149
0.035149
0.035149
0.035149
0.035149
0.035149
0.035149
0.035149
0.035149
0.035149
0.035149
0.035149
0.035149
0.035149
0.035149
0.035149
0.035149
0.035149
0.035149
0.035149
0.035149
0.035149
0.035149
0.035149
0.035149
0.035149
0.035149
0.035149
0.035149
0.035149
0.035149
0.035149
0.035149
0.035149
0.035149
0.035149
0.035149
0.035149
0.035149
0.035149
0.035149
0.035149
0.035149
0.035149
0.035149
0.035149
0.035149
0.035149
0.035149
0.035149
0.035149
0.035149
0.035149
0.035149
0.035149
0.035149
0.035149
0.035149
0.035149
0.035149
0.035149
0.035149
0.035149
0.035149
0.035149
0.035149
0.035149
0.035149
0.035149
0.035149
0.035149
0.035149
0.035149
0.035149
0.035149
0.035149
0.035149
0.035149
0.035149
0.035149
0.035149
0.035149
0.035149
0.035149
0.035149
0.035149
0.035149
0.035149
0.035149
0.035149
0.035149
0.035149
0.035149
0.035149
0.035149
0.035149
0.035149
0.035149
0.035149
0.035149
0.035149
0.035149
0.035149
0.035149
0.035149
0.035149
0.035149
0.035149
0.035149
0.035149
0.035149
0.035149
0.035149
0.035149
0.035149
0.035149
0.035149
0.035149
0.035149
0.035149
0.035149
0.035149
0.035149
0.035149
0.035149
0.035149
0.035149
0.035149
0.035149
0.035149
0.035149
0.035149
0.035149
0.035149
0.035149
0.035149
0.035149
0.035149
0.035149
0.035149
0.035149
0.035149
0.035149
0.035149
0.035149
0.035149
0.035149
0.035149
0.035149
0.035149
0.035149
0.035149
0.035149
0.035149
0.035149
0.035149
0.035149
0.035149
0.035149
0.035149
0.035149
0.035149
0.035149
0.035149
0.035149
0.035149
0.035149
0.035149
0.035149
0.035149
0.035149
0.035149
0.035149
0.035149
0.035149
0.035149
0.035149
0.035149
0.035149
0.035149
0.035149
0.035149
0.035149
0.035149
0.035149
0.035149
0.035149
0.035149
0.035149
0.035149
0.035149
0.035149
0.035149
0.035149
0.035149
0.035149
0.035149
0.035149
0.035149
0.035149
0.035149
0.035149
0.035149
0.035149
0.035149
0.035149
0.035149
0.035149
0.035149
0.035149
0.035149
0.035149
0.035149
0.035149
0.035149
0.035149
0.035149
0.035149
0.035149
0.035149
0.035149
0.035149
0.035149
0.035149
0.035149
0.035149
0.035149
0.035149
0.035149
0.035149
0.035149
0.035149
0.035149
0.035149
0.035149
0.035149
0.035149
0.035149
0.035149
0.035149
0.035149
0.035149
0.035149
0.035149
0.035149
0.035149
0.035149
0.035149
0.035149
0.035149
0.035149
0.035149
0.035149
0.035149
0.035149
0.035149
0.035149
0.035149
0.035149
0.035149
0.035149
0.035149
0.035149
0.035149
0.035149
0.035149
0.035149
0.035149
0.035149
0.035149
0.035149
0.035149
0.035149
0.035149
0.035149
0.035149
0.035149
0.035149
0.035149
0.035149
0.035149
0.035149
0.035149
0.035149
0.035149
0.035149
0.035149
0.035149
0.035149
0.035149
0.035149
0.035149
0.035149
0.035149
0.035149
0.035149
0.035149
0.035149
0.035149
0.035149
0.035149
0.035149
0.035149
0.035149
0.035149
0.035149
0.035149
0.035149
0.035149
0.035149
0.035149
0.035149
0.035149
0.035149
0.035149
0.035149
0.035149
0.035149
0.035149
0.035149
0.035149
0.035149
0.035149
0.035149
0.035149
0.035149
0.035149
0.035149
0.035149
0.035149
0.035149
0.035149
0.035149
0.035149
0.035149
0.035149
0.035149
0.035149
0.035149
0.035149
0.035149
0.035149
0.035149
0.035149
0.035149
0.035149
0.035149
0.035149
0.035149
0.035149
0.035149
0.035149
0.035149
0.035149
0.035149
0.035149
0.035149
0.035149
0.035149
0.035149
0.035149
0.035149
0.035149
0.035149
0.035149
0.035149
0.035149
0.035149
0.035149
0.035149
0.035149
0.035149
0.035149
0.035149
0.035149
0.035149
0.035149
0.035149
0.035149
0.035149
0.035149
0.035149
0.035149
0.035149
0.035149
0.035149
0.035149
0.035149
0.035149
0.035149
0.035149
0.035149
0.035149
0.035149
0.035149
0.035149
0.035149
0.035149
0.035149
0.035149
0.035149
0.035149
0.035149
0.035149
0.035149
0.035149
0.035149
0.035149
0.035149
0.035149
0.035149
0.035149
0.035149
0.035149
0.035149
0.035149
0.035149
0.035149
0.035149
0.035149
0.035149
0.035149
0.035149
0.035149
0.035149
0.035149
0.035149
0.035149
0.035149
0.035149
0.035149
0.035149
0.035149
0.035149
0.035149
0.035149
0.035149
0.035149
0.035149
0.035149
0.035149
0.035149
0.035149
0.035149
0.035149
0.035149
0.035149
0.035149
0.035149
0.035149
0.035149
0.035149
0.035149
0.035149
0.035149
0.035149
0.035149
0.035149
0.035149
0.035149
0.035149
0.035149
0.035149
0.035149
0.035149
0.035149
0.035149
0.035149
0.035149
0.035149
0.035149
0.035149
0.035149
0.035149
0.035149
0.035149
0.035149
0.035149
0.035149
0.035149
0.035149
0.035149
0.035149
0.035149
0.035149
0.035149
0.035149
0.035149
0.035149
0.035149
0.035149
0.035149
0.035149
0.035149
0.035149
0.035149
0.035149
0.035149
0.035149
0.035149
0.035149
0.035149
0.035149
0.035149
0.035149
0.035149
0.035149
0.035149
0.035149
0.035149
0.035149
0.035149
0.035149
0.035149
0.035149
0.035149
0.035149
0.035149
0.035149
0.035149
0.035149
0.035149
0.035149
0.035149
0.035149
0.035149
0.035149
0.035149
0.035149
0.035149
0.035149
0.035149
0.035149
0.035149
0.035149
0.035149
0.035149
0.035149
0.035149
0.035149
0.035149
0.035149
0.035149
0.035149
0.035149
0.035149
0.035149
0.035149
0.035149
0.035149
0.035149
0.035149
0.035149
0.035149
0.035149
0.035149
0.035149
0.035149
0.035149
0.035149
0.035149
0.035149
0.035149
0.035149
0.035149
0.035149
0.035149
0.035149
0.035149
0.035149
0.035149
0.035149
0.035149
0.035149
0.035149
0.035149
0.035149
0.035149
0.035149
0.035149
0.035149
0.035149
0.035149
0.035149
0.035149
0.035149
0.035149
0.035149
0.035149
0.035149
0.035149
0.035149
0.035149
0.035149
0.035149
0.035149
0.035149
0.035149
0.035149
0.035149
0.035149
0.035149
0.035149
0.035149
0.035149
0.035149
0.035149
0.035149
0.035149
0.035149
0.035149
0.035149
0.035149
0.035149
0.035149
0.035149
0.035149
0.035149
0.035149
0.035149
0.035149
0.035149
0.035149
0.035149
0.035149
0.035149
0.035149
0.035149
0.035149
0.035149
0.035149
0.035149
0.035149
0.035149
0.035149
0.035149
0.035149
0.035149
0.035149
0.035149
0.035149
0.035149
0.035149
0.035149
0.035149
0.035149
0.035149
0.035149
0.035149
0.035149
0.035149
0.035149
0.035149
0.035149
0.035149
0.035149
0.035149
0.035149
0.035149
0.035149
0.035149
0.035149
0.035149
0.035149
0.035149
0.035149
0.035149
0.035149
0.035149
0.035149
0.035149
0.035149
0.035149
0.035149
0.035149
0.035149
0.035149
0.035149
0.035149
0.035149
0.035149
0.035149
0.035149
0.035149
0.035149
0.035149
0.035149
0.035149
0.035149
0.035149
0.035149
0.035149
0.035149
0.035149
0.035149
0.035149
0.035149
0.035149
0.035149
0.035149
0.035149
0.035149
0.035149
0.035149
0.035149
0.035149
0.035149
0.035149
0.035149
0.035149
0.035149
0.035149
0.035149
0.035149
0.035149
0.035149
0.035149
0.035149
0.035149
0.035149
0.035149
0.035149
0.035149
0.035149
0.035149
0.035149
0.035149
0.035149
0.035149
0.035149
0.035149
0.035149
0.035149
0.035149
0.035149
0.035149
0.035149
0.035149
0.035149
0.035149
0.035149
0.035149
0.035149
0.035149
0.035149
0.035149
0.035149
0.035149
0.035149
0.035149
0.035149
0.035149
0.035149
0.035149
0.035149
0.035149
0.035149
0.035149
0.035149
0.035149
0.035149
0.035149
0.035149
0.035149
0.035149
0.035149
0.035149
0.035149
0.035149
0.035149
0.035149
0.035149
0.035149
0.035149
0.035149
0.035149
0.035149
0.035149
0.035149
0.035149
0.035149
0.035149
0.035149
0.035149
0.035149
0.035149
0.035149
0.035149
0.035149
0.035149
0.035149
0.035149
0.035149
0.035149
0.035149
0.035149
0.035149
0.035149
0.035149
0.035149
0.035149
0.035149
0.035149
0.035149
0.035149
0.035149
0.035149
0.035149
0.035149
0.035149
0.035149
0.035149
0.035149
0.035149
0.035149
0.035149
0.035149
0.035149
0.035149
0.035149
0.035149
0.035149
0.035149
0.035149
0.035149
0.035149
0.035149
0.035149
0.035149
0.035149
0.035149
0.035149
0.035149
0.035149
0.035149
0.035149
0.035149
0.035149
0.035149
0.035149
0.035149
0.035149
0.035149
0.035149
0.035149
0.035149
0.035149
0.035149
0.035149
0.035149
0.035149
0.035149
0.035149
0.035149
0.035149
0.035149
0.035149
0.035149
0.035149
0.035149
0.035149
0.035149
SCALARS strain_3 float
LOOKUP_TABLE default
-0.000000
-0.000000
-0.000000
-0.000000
-0.000000
-0.000000
-0.000000
-0.000000
-0.000000
-0.000000
-0.000000
-0.000000
-0.000000
-0.000000
-0.000000
-0.000000
-0.000000
-0.000000
-0.000000
-0.000000
-0.000000
-0.000000
-0.000000
-0.000000
-0.000000
-0.000000
-0.000000
-0.000000
-0.000000
-0.000000
-0.000000
-0.000000
-0.000000
-0.000000
-0.000000
-0.000000
-0.000000
-0.000000
-0.000000
-0.000000
-0.000000
-0.000000
-0.000000
-0.000000
-0.000000
-0.000000
-0.000000
-0.000000
-0.000000
-0.000000
-0.000000
-0.000000
-0.000000
-0.000000
-0.000000
-0.000000
-0.000000
-0.000000
-0.000000
-0.000000
-0.000000
-0.000000
-0.000000
-0.000000
-0.000000
-0.000000
-0.000000
-0.000000
-0.000000
-0.000000
-0.000000
-0.000000
-0.000000
-0.000000
-0.000000
-0.000000
-0.000000
-0.000000
-0.000000
-0.000000
-0.000000
-0.000000
0.000000
0.000000
0.000000
0.000000
0.000000
0.000000
-0.000000
-0.000000
-0.000000
-0.000000
-0.000000
-0.000000
-0.000000
-0.000000
-0.000000
-0.000000
-0.000000
-0.000000
-0.000000
-0.000000
-0.000000
-0.000000
-0.000000
-0.000000
-0.000000
-0.000000
-0.000000
-0.000000
-0.000000
-0.000000
-0.000000
-0.000000
-0.000000
-0.000000
-0.000000
-0.000000
-0.000000
-0.000000
-0.000000
-0.000000
-0.000000
-0.000000
-0.000000
-0.000000
-0.000000
-0.000000
-0.000000
-0.000000
-0.000000
-0.000000
-0.000000
-0.000000
-0.000000
-0.000000
-0.000000
-0.000000
-0.000000
-0.000000
-0.000000
-0.000000
-0.000000
-0.000000
-0.000000
-0.000000
-0.000000
-0.000000
-0.000000
-0.000000
-0.000000
-0.000000
-0.000000
-0.000000
-0.000000
-0.000000
-0.000000
-0.000000
-0.000000
-0.000000
-0.000000
-0.000000
-0.000000
-0.000000
-0.000000
-0.000000
-0.000000
-0.000000
-0.000000
-0.000000
-0.000000
-0.000000
-0.000000
-0.000000
-0.000000
-0.000000
-0.000000
-0.000000
0.000000
0.000000
0.000000
-0.000000
-0.000000
-0.000000
-0.000000
-0.000000
-0.000000
-0.000000
-0.000000
0.000000
-0.000000
-0.000000
-0.000000
-0.000000
-0.000000
-0.000000
-0.000000
-0.000000
-0.000000
-0.000000
-0.000000
-0.000000
-0.000000
-0.000000
-0.000000
-0.000000
-0.000000
-0.000000
-0.000000
-0.000000
-0.000000
-0.000000
-0.000000
-0.000000
-0.000000
-0.000000
-0.000000
-0.000000
-0.000000
-0.000000
-0.000000
-0.000000
-0.000000
-0.000000
-0.000000
-0.000000
-0.000000
-0.000000
-0.000000
-0.000000
-0.000000
-0.000000
-0.000000
-0.000000
-0.000000
-0.000000
-0.000000
-0.000000
-0.000000
-0.000000
-0.000000
-0.000000
-0.000000
-0.000000
-0.000000
-0.000000
-0.000000
-0.000000
-0.000000
-0.000000
-0.000000
-0.000000
-0.000000
-0.000000
-0.000000
-0.000000
-0.000000
-0.000000
-0.000000
-0.000000
-0.000000
-0.000000
-0.000000
-0.000000
-0.000000
-0.000000
-0.000000
-0.000000
-0.000000
-0.000000
-0.000000
-0.000000
-0.000000
-0.000000
-0.000000
-0.000000
-0.000000
-0.000000
-0.000000
-0.000000
-0.000000
-0.000000
-0.000000
-0.000000
-0.000000
-0.000000
-0.000000
-0.000000
-0.000000
-0.000000
-0.000000
-0.000000
-0.000000
-0.000000
-0.000000
-0.000000
-0.000000
-0.000000
-0.000000
-0.000000
-0.000000
-0.000000
-0.000000
-0.000000
-0.000000
-0.000000
-0.000000
-0.000000
-0.000000
-0.000000
-0.000000
-0.000000
-0.000000
-0.000000
-0.000000
-0.000000
-0.000000
-0.000000
-0.000000
-0.000000
-0.000000
-0.000000
-0.000000
-0.000000
-0.000000
-0.000000
-0.000000
-0.000000
-0.000000
-0.000000
-0.000000
-0.000000
-0.000000
-0.000000
-0.000000
-0.000000
-0.000000
-0.000000
-0.000000
-0.000000
-0.000000
-0.000000
-0.000000
-0.000000
-0.000000
-0.000000
-0.000000
-0.000000
-0.000000
-0.000000
-0.000000
-0.000000
-0.000000
-0.000000
-0.000000
-0.000000
-0.000000
-0.000000
-0.000000
-0.000000
-0.000000
-0.000000
-0.000000
-0.000000
-0.000000
-0.000000
-0.000000
-0.000000
-0.000000
-0.000000
-0.000000
-0.000000
-0.000000
-0.000000
-0.000000
-0.000000
-0.000000
-0.000000
-0.000000
-0.000000
-0.000000
-0.000000
-0.000000
-0.000000
-0.000000
-0.000000
-0.000000
-0.000000
-0.000000
-0.000000
-0.000000
-0.000000
-0.000000
-0.000000
-0.000000
-0.000000
-0.000000
-0.000000
-0.000000
-0.000000
-0.000000
-0.000000
-0.000000
-0.000000
-0.000000
-0.000000
-0.000000
-0.000000
-0.000000
-0.000000
-0.000000
-0.000000
-0.000000
-0.000000
-0.000000
-0.000000
-0.000000
-0.000000
-0.000000
-0.000000
-0.000000
-0.000000
-0.000000
-0.000000
-0.000000
-0.000000
-0.000000
-0.000000
-0.000000
-0.000000
-0.000000
-0.000000
-0.000000
-0.000000
-0.000000
-0.000000
-0.000000
-0.000000
-0.000000
-0.000000
-0.000000
-0.000000
-0.000000
-0.000000
-0.000000
-0.000000
-0.000000
-0.000000
-0.000000
-0.000000
-0.000000
-0.000000
-0.000000
-0.000000
-0.000000
-0.000000
-0.000000
-0.000000
-0.000000
-0.000000
-0.000000
-0.000000
-0.000000
-0.000000
-0.000000
-0.000000
-0.000000
-0.000000
-0.000000
-0.000000
-0.000000
-0.000000
-0.000000
-0.000000
-0.000000
-0.000000
-0.000000
-0.000000
-0.000000
-0.000000
-0.000000
-0.000000
-0.000000
-0.000000
-0.000000
-0.000000
-0.000000
-0.000000
-0.000000
-0.000000
-0.000000
-0.000000
-0.000000
-0.000000
-0.000000
-0.000000
-0.000000
-0.000000
-0.000000
-0.000000
-0.000000
-0.000000
-0.000000
-0.000000
-0.000000
-0.000000
-0.000000
-0.000000
-0.000000
-0.000000
-0.000000
-0.000000
-0.000000
-0.000000
-0.000000
-0.000000
-0.000000
-0.000000
-0.000000
-0.000000
-0.000000
-0.000000
-0.000000
-0.000000
-0.000000
-0.000000
-0.000000
-0.000000
-0.000000
-0.000000
-0.000000
-0.000000
-0.000000
-0.000000
-0.000000
-0.000000
-0.000000
-0.000000
-0.000000
-0.000000
-0.000000
-0.000000
-0.000000
-0.000000
-0.000000
-0.000000
-0.000000
-0.000000
-0.000000
-0.000000
-0.000000
-0.000000
-0.000000
-0.000000
-0.000000
-0.000000
-0.000000
-0.000000
-0.000000
-0.000000
-0.000000
-0.000000
-0.000000
-0.000000
-0.000000
-0.000000
-0.000000
-0.000000
-0.000000
-0.000000
-0.000000
-0.000000
-0.000000
-0.000000
-0.000000
-0.000000
-0.000000
-0.000000
-0.000000
-0.000000
-0.000000
-0.000000
-0.000000
-0.000000
-0.000000
-0.000000
-0.000000
-0.000000
-0.000000
-0.000000
-0.000000
-0.000000
-0.000000
-0.000000
-0.000000
-0.000000
-0.000000
-0.000000
-0.000000
-0.000000
-0.000000
-0.000000
-0.000000
-0.000000
-0.000000
-0.000000
-0.000000
-0.000000
-0.000000
-0.000000
-0.000000
-0.000000
-0.000000
-0.000000
-0.000000
-0.000000
-0.000000
-0.000000
-0.000000
-0.000000
-0.000000
-0.000000
-0.000000
-0.000000
-0.000000
-0.000000
-0.000000
-0.000000
-0.000000
-0.000000
-0.000000
-0.000000
-0.000000
-0.000000
-0.000000
-0.000000
-0.000000
-0.000000
-0.000000
-0.000000
-0.000000
-0.000000
-0.000000
-0.000000
-0.000000
-0.000000
-0.000000
-0.000000
-0.000000
-0.000000
-0.000000
-0.000000
-0.000000
-0.000000
-0.000000
-0.000000
-0.000000
-0.000000
-0.000000
-0.000000
-0.000000
-0.000000
-0.000000
-0.000000
-0.000000
-0.000000
-0.000000
-0.000000
-0.000000
-0.000000
-0.000000
-0.000000
-0.000000
-0.000000
-0.000000
-0.000000
-0.000000
-0.000000
-0.000000
-0.000000
-0.000000
-0.000000
-0.000000
-0.000000
-0.000000
-0.000000
-0.000000
-0.000000
-0.000000
-0.000000
-0.000000
-0.000000
-0.000000
-0.000000
-0.000000
-0.000000
-0.000000
-0.000000
-0.000000
-0.000000
-0.000000
-0.000000
-0.000000
-0.000000
-0.000000
-0.000000
-0.000000
-0.000000
-0.000000
-0.000000
-0.000000
-0.000000
-0.000000
-0.000000
-0.000000
-0.000000
-0.000000
-0.000000
-0.000000
-0.000000
-0.000000
-0.000000
-0.000000
-0.000000
-0.000000
-0.000000
-0.000000
-0.000000
-0.000000
-0.000000
-0.000000
-0.000000
-0.000000
-0.000000
-0.000000
-0.000000
-0.000000
-0.000000
-0.000000
-0.000000
-0.000000
-0.000000
-0.000000
-0.000000
-0.000000
-0.000000
-0.000000
-0.000000
-0.000000
-0.000000
-0.000000
-0.000000
-0.000000
-0.000000
-0.000000
-0.000000
-0.000000
-0.000000
-0.000000
-0.000000
-0.000000
-0.000000
-0.000000
-0.000000
-0.000000
-0.000000
-0.000000
-0.000000
-0.000000
-0.000000
-0.000000
-0.000000
-0.000000
-0.000000
-0.000000
-0.000000
-0.000000
-0.000000
-0.000000
-0.000000
-0.000000
-0.000000
-0.000000
-0.000000
-0.000000
-0.000000
-0.000000
-0.000000
-0.000000
-0.000000
-0.000000
-0.000000
-0.000000
-0.000000
-0.000000
-0.000000
-0.000000
-0.000000
-0.000000
-0.000000
-0.000000
-0.000000
-0.000000
-0.000000
-0.000000
-0.000000
-0.000000
-0.000000
-0.000000
-0.000000
-0.000000
-0.000000
-0.000000
-0.000000
-0.000000
-0.000000
-0.000000
-0.000000
-0.000000
-0.000000
-0.000000
-0.000000
-0.000000
-0.000000
-0.000000
-0.000000
-0.000000
-0.000000
-0.000000
-0.000000
-0.000000
-0.000000
-0.000000
-0.000000
-0.000000
-0.000000
-0.000000
-0.000000
-0.000000
-0.000000
-0.000000
-0.000000
-0.000000
-0.000000
-0.000000
-0.000000
-0.000000
-0.000000
-0.000000
-0.000000
-0.000000
-0.000000
-0.000000
-0.000000
-0.000000
-0.000000
-0.000000
-0.000000
-0.000000
-0.000000
-0.000000
-0.000000
-0.000000
-0.000000
-0.000000
-0.000000
-0.000000
-0.000000
-0.000000
-0.000000
-0.000000
-0.000000
-0.000000
-0.000000
-0.000000
-0.000000
-0.000000
-0.000000
-0.000000
-0.000000
-0.000000
-0.000000
-0.000000
-0.000000
-0.000000
-0.000000
-0.000000
-0.000000
-0.000000
-0.000000
-0.000000
SCALARS stress_1 float
LOOKUP_TABLE default
-0.133955
0.011073
0.008772
0.006508
0.004242
0.001980
-0.000317
-0.002650
-0.004931
-0.007235
-0.009553
-0.011895
-0.014209
-0.016530
-0.018877
-0.021206
-0.023588
-0.025904
-0.028235
-0.030609
-0.032898
-0.035231
-0.037623
-0.039912
-0.042230
-0.044580
-0.046894
-0.049148
-0.051458
-0.053764
-0.056065
-0.058285
-0.060519
-0.062794
-0.065011
-0.067197
-0.069369
-0.071569
-0.073734
-0.075866
-0.077980
-0.080015
-0.082087
-0.084149
-0.086119
-0.088109
-0.090060
-0.091960
-0.093858
-0.095737
-0.097587
-0.099392
-0.101114
-0.102884
-0.104548
-0.106213
-0.107779
-0.109345
-0.110924
-0.112399
-0.113853
-0.115251
-0.116641
-0.117940
-0.119257
-0.120478
-0.121626
-0.122788
-0.123890
-0.124966
-0.125945
-0.126912
-0.127833
-0.128675
-0.129526
-0.130254
-0.131038
-0.131670
-0.132339
-0.132927
-0.133486
0.015949
-0.134193
-0.133609
-0.132966
-0.132348
-0.131625
-0.130860
-0.130068
-0.129231
-0.128345
-0.127374
-0.126369
-0.125375
-0.124271
-0.123124
-0.121934
-0.120709
-0.119456
-0.118132
-0.116770
-0.115368
-0.113899
-0.112432
-0.110904
-0.109323
-0.107683
-0.106008
-0.104327
-0.102626
-0.100806
-0.099003
-0.097166
-0.095293
-0.093367
-0.091459
-0.089451
-0.087471
-0.085409
-0.083343
-0.081279
-0.079198
-0.077035
-0.074915
-0.072720
-0.070502
-0.068314
-0.066049
-0.063808
-0.061525
-0.059286
-0.056928
-0.054628
-0.052356
-0.049971
-0.047646
-0.045315
-0.042944
-0.040569
-0.038185
-0.035768
-0.033390
-0.031022
-0.028682
-0.026265
-0.023887
-0.021512
-0.019103
-0.016734
-0.014328
-0.011980
-0.009603
-0.007250
-0.004907
-0.002563
-0.000222
0.002137
0.004451
0.006759
0.009096
0.011381
0.013683
0.015447
0.014953
0.014514
0.013974
0.013489
0.012978
0.012504
0.012023
0.011512
-0.134009
-0.134037
-0.134052
-0.134053
-0.134141
-0.134144
-0.134127
-0.134157
-0.134185
-0.133592
-0.133604
-0.133595
-0.133566
-0.133563
-0.133576
-0.133521
-0.133465
-0.133513
-0.132991
-0.132990
-0.132988
-0.133038
-0.132996
-0.132964
-0.132983
-0.133001
-0.132965
-0.132329
-0.132354
-0.132349
-0.132378
-0.132378
-0.132369
-0.132323
-0.132322
-0.132353
-0.131619
-0.131654
-0.131643
-0.131681
-0.131672
-0.131676
-0.131711
-0.131705
-0.131717
-0.130885
-0.130948
-0.130964
-0.130958
-0.130968
-0.131003
-0.131011
-0.131013
-0.131013
-0.130074
-0.130136
-0.130159
-0.130199
-0.130215
-0.130249
-0.130242
-0.130282
-0.130286
-0.129235
-0.129281
-0.129314
-0.129341
-0.129432
-0.129414
-0.129439
-0.129477
-0.129521
-0.128353
-0.128415
-0.128491
-0.128522
-0.128534
-0.128584
-0.128586
-0.128649
-0.128655
-0.127428
-0.127463
-0.127549
-0.127606
-0.127643
-0.127641
-0.127724
-0.127762
-0.127793
-0.126448
-0.126517
-0.126526
-0.126622
-0.126663
-0.126712
-0.126749
-0.126837
-0.126866
-0.125410
-0.125477
-0.125538
-0.125636
-0.125678
-0.125722
-0.125782
-0.125845
-0.125916
-0.124332
-0.124439
-0.124474
-0.124554
-0.124635
-0.124698
-0.124773
-0.124840
-0.124870
-0.123184
-0.123255
-0.123364
-0.123423
-0.123542
-0.123592
-0.123727
-0.123785
-0.123838
-0.122060
-0.122165
-0.122217
-0.122320
-0.122384
-0.122493
-0.122571
-0.122627
-0.122692
-0.120843
-0.120941
-0.121012
-0.121136
-0.121218
-0.121270
-0.121408
-0.121499
-0.121565
-0.119548
-0.119651
-0.119806
-0.119881
-0.119971
-0.120070
-0.120181
-0.120269
-0.120365
-0.118228
-0.118371
-0.118478
-0.118589
-0.118729
-0.118845
-0.118905
-0.119056
-0.119148
-0.116902
-0.117036
-0.117135
-0.117286
-0.117374
-0.117464
-0.117634
-0.117759
-0.117837
-0.115500
-0.115580
-0.115768
-0.115905
-0.116009
-0.116135
-0.116255
-0.116414
-0.116527
-0.114039
-0.114176
-0.114324
-0.114503
-0.114626
-0.114735
-0.114851
-0.115016
-0.115132
-0.112604
-0.112732
-0.112861
-0.113027
-0.113168
-0.113321
-0.113447
-0.113604
-0.113702
-0.111052
-0.111220
-0.111367
-0.111514
-0.111663
-0.111826
-0.111969
-0.112108
-0.112263
-0.109487
-0.109631
-0.109799
-0.109998
-0.110129
-0.110298
-0.110458
-0.110600
-0.110745
-0.107860
-0.108023
-0.108225
-0.108367
-0.108521
-0.108709
-0.108902
-0.109053
-0.109207
-0.106199
-0.106371
-0.106613
-0.106772
-0.106936
-0.107112
-0.107328
-0.107477
-0.107643
-0.104541
-0.104705
-0.104938
-0.105114
-0.105294
-0.105493
-0.105634
-0.105854
-0.106026
-0.102822
-0.103033
-0.103243
-0.103407
-0.103596
-0.103764
-0.103986
-0.104171
-0.104364
-0.101041
-0.101240
-0.101480
-0.101644
-0.101855
-0.102069
-0.102261
-0.102432
-0.102682
-0.099238
-0.099469
-0.099653
-0.099893
-0.100111
-0.100285
-0.100505
-0.100726
-0.100948
-0.097388
-0.097627
-0.097846
-0.098068
-0.098314
-0.098511
-0.098715
-0.098926
-0.099147
-0.095534
-0.095776
-0.095981
-0.096233
-0.096456
-0.096686
-0.096903
-0.097138
-0.097325
-0.093626
-0.093877
-0.094142
-0.094341
-0.094625
-0.094822
-0.095057
-0.095275
-0.095527
-0.091709
-0.091969
-0.092185
-0.092441
-0.092683
-0.092941
-0.093180
-0.093411
-0.093655
-0.089741
-0.090037
-0.090239
-0.090539
-0.090778
-0.091003
-0.091263
-0.091475
-0.091755
-0.087713
-0.088015
-0.088286
-0.088528
-0.088769
-0.089054
-0.089338
-0.089579
-0.089774
-0.085705
-0.086012
-0.086251
-0.086522
-0.086806
-0.087072
-0.087335
-0.087603
-0.087828
-0.083654
-0.083925
-0.084242
-0.084563
-0.084773
-0.085021
-0.085338
-0.085605
-0.085877
-0.081577
-0.081884
-0.082191
-0.082438
-0.082724
-0.083018
-0.083316
-0.083580
-0.083832
-0.079475
-0.079761
-0.080086
-0.080362
-0.080660
-0.080956
-0.081210
-0.081514
-0.081831
-0.077329
-0.077651
-0.077957
-0.078257
-0.078553
-0.078864
-0.079150
-0.079461
-0.079753
-0.075211
-0.075513
-0.075836
-0.076147
-0.076439
-0.076745
-0.077065
-0.077380
-0.077640
-0.073018
-0.073361
-0.073652
-0.073995
-0.074327
-0.074604
-0.074937
-0.075227
-0.075528
-0.070851
-0.071160
-0.071477
-0.071825
-0.072109
-0.072458
-0.072762
-0.073064
-0.073405
-0.068596
-0.068972
-0.069289
-0.069629
-0.069936
-0.070257
-0.070595
-0.070918
-0.071233
-0.066387
-0.066731
-0.067088
-0.067426
-0.067762
-0.068100
-0.068411
-0.068715
-0.069079
-0.064163
-0.064537
-0.064881
-0.065187
-0.065538
-0.065872
-0.066235
-0.066546
-0.066861
-0.061893
-0.062271
-0.062575
-0.062964
-0.063245
-0.063638
-0.063989
-0.064329
-0.064648
-0.059656
-0.059984
-0.060339
-0.060681
-0.061023
-0.061416
-0.061750
-0.062098
-0.062418
-0.057342
-0.057686
-0.058031
-0.058404
-0.058780
-0.059140
-0.059469
-0.059860
-0.060240
-0.054984
-0.055397
-0.055782
-0.056095
-0.056485
-0.056830
-0.057205
-0.057565
-0.057955
-0.052694
-0.053062
-0.053461
-0.053827
-0.054224
-0.054570
-0.054942
-0.055303
-0.055689
-0.050366
-0.050746
-0.051166
-0.051506
-0.051878
-0.052247
-0.052649
-0.052985
-0.053405
-0.048015
-0.048425
-0.048793
-0.049179
-0.049601
-0.049971
-0.050351
-0.050737
-0.051130
-0.045686
-0.046098
-0.046424
-0.046856
-0.047264
-0.047640
-0.048020
-0.048417
-0.048816
-0.043318
-0.043733
-0.044131
-0.044548
-0.044950
-0.045323
-0.045706
-0.046069
-0.046495
-0.041008
-0.041352
-0.041799
-0.042165
-0.042593
-0.042973
-0.043404
-0.043774
-0.044162
-0.038588
-0.039023
-0.039395
-0.039836
-0.040250
-0.040636
-0.041067
-0.041438
-0.041842
-0.036223
-0.036627
-0.037051
-0.037456
-0.037887
-0.038313
-0.038698
-0.039103
-0.039511
-0.033850
-0.034235
-0.034693
-0.035094
-0.035525
-0.035957
-0.036365
-0.036764
-0.037199
-0.031473
-0.031843
-0.032292
-0.032723
-0.033160
-0.033578
-0.034008
-0.034439
-0.034832
-0.029079
-0.029507
-0.029923
-0.030366
-0.030784
-0.031184
-0.031660
-0.032081
-0.032509
-0.026699
-0.027155
-0.027561
-0.027995
-0.028458
-0.028905
-0.029311
-0.029709
-0.030155
-0.024324
-0.024767
-0.025188
-0.025606
-0.026080
-0.026488
-0.026933
-0.027355
-0.027817
-0.021978
-0.022394
-0.022812
-0.023289
-0.023705
-0.024136
-0.024589
-0.025014
-0.025463
-0.019565
-0.020028
-0.020462
-0.020931
-0.021372
-0.021809
-0.022248
-0.022704
-0.023124
-0.017209
-0.017648
-0.018064
-0.018577
-0.018997
-0.019440
-0.019858
-0.020329
-0.020799
-0.014828
-0.015265
-0.015731
-0.016201
-0.016628
-0.017075
-0.017548
-0.017989
-0.018432
-0.012434
-0.012927
-0.013358
-0.013833
-0.014288
-0.014759
-0.015206
-0.015633
-0.016082
-0.010107
-0.010550
-0.010970
-0.011457
-0.011934
-0.012400
-0.012858
-0.013289
-0.013751
-0.007740
-0.008206
-0.008656
-0.009122
-0.009586
-0.010030
-0.010506
-0.010973
-0.011422
-0.005396
-0.005835
-0.006291
-0.006780
-0.007209
-0.007711
-0.008152
-0.008635
-0.009116
-0.003019
-0.003460
-0.003956
-0.004416
-0.004876
-0.005353
-0.005842
-0.006290
-0.006768
-0.000684
-0.001142
-0.001644
-0.002110
-0.002536
-0.003019
-0.003479
-0.003990
-0.004461
0.001656
0.001200
0.000723
0.000215
-0.000220
-0.000714
-0.001197
-0.001659
-0.002182
0.003987
0.003508
0.003006
0.002529
0.002071
0.001584
0.001117
0.000605
0.000162
0.006287
0.005848
0.005329
0.004826
0.004350
0.003896
0.003428
0.002911
0.002444
0.008599
0.008141
0.007637
0.007120
0.006655
0.006134
0.005691
0.005225
0.004740
0.010877
0.010426
0.009936
0.009449
0.008942
0.008438
0.007989
0.007508
0.006999
0.013187
0.012700
0.012210
0.011715
0.011234
0.010744
0.010234
0.009774
0.009265
SCALARS stress_2 float
LOOKUP_TABLE default
224642.243854
224642.293095
224642.292316
224642.291546
224642.290772
224642.289992
224642.289223
224642.288429
224642.287656
224642.286857
224642.286068
224642.285286
224642.284477
224642.283681
224642.282885
224642.282096
224642.281301
224642.280510
224642.279709
224642.278897
224642.278121
224642.277307
224642.276520
224642.275717
224642.274933
224642.274145
224642.273357
224642.272573
224642.271796
224642.271015
224642.270246
224642.269468
224642.268705
224642.267939
224642.267187
224642.266444
224642.265693
224642.264950
224642.264227
224642.263485
224642.262781
224642.262067
224642.261372
224642.260704
224642.260007
224642.259335
224642.258677
224642.258021
224642.257387
224642.256740
224642.256127
224642.255514
224642.254909
224642.254341
224642.253752
224642.253212
224642.252651
224642.252127
224642.251584
224642.251096
224642.250608
224642.250122
224642.249659
224642.249224
224642.248799
224642.248375
224642.247984
224642.247590
224642.247225
224642.246867
224642.246515
224642.246210
224642.245892
224642.245608
224642.245347
224642.245080
224642.244841
224642.244601
224642.244392
224642.244213
224642.244016
224642.294690
224642.243422
224642.243611
224642.243841
224642.244072
224642.244314
224642.244591
224642.244848
224642.245167
224642.245476
224642.245796
224642.246139
224642.246500
224642.246891
224642.247288
224642.247680
224642.248101
224642.248561
224642.249001
224642.249473
224642.249957
224642.250436
224642.250976
224642.251494
224642.252036
224642.252574
224642.253169
224642.253730
224642.254333
224642.254929
224642.255552
224642.256174
224642.256826
224642.257482
224642.258128
224642.258802
224642.259505
224642.260181
224642.260901
224642.261609
224642.262331
224642.263035
224642.263787
224642.264527
224642.265272
224642.266041
224642.266776
224642.267546
224642.268332
224642.269119
224642.269904
224642.270669
224642.271478
224642.272275
224642.273058
224642.273849
224642.274663
224642.275476
224642.276273
224642.277073
224642.277901
224642.278700
224642.279511
224642.280324
224642.281129
224642.281961
224642.282759
224642.283568
224642.284378
224642.285173
224642.286007
224642.286803
224642.287580
224642.288405
224642.289197
224642.289971
224642.290785
224642.291557
224642.292364
224642.293146
224642.293920
224642.294526
224642.294368
224642.294201
224642.294058
224642.293893
224642.293728
224642.293565
224642.293412
224642.293256
224642.243819
224642.243760
224642.243712
224642.243658
224642.243619
224642.243588
224642.243530
224642.243480
224642.243456
224642.243660
224642.243675
224642.243719
224642.243766
224642.243800
224642.243852
224642.243888
224642.243925
224642.243976
224642.243862
224642.243895
224642.243947
224642.243963
224642.244000
224642.244029
224642.244072
224642.244123
224642.244150
224642.244105
224642.244107
224642.244148
224642.244187
224642.244236
224642.244243
224642.244284
224642.244330
224642.244376
224642.244337
224642.244368
224642.244403
224642.244420
224642.244458
224642.244477
224642.244514
224642.244534
224642.244573
224642.244583
224642.244619
224642.244643
224642.244678
224642.244684
224642.244724
224642.244741
224642.244781
224642.244812
224642.244867
224642.244901
224642.244918
224642.244924
224642.244964
224642.244980
224642.244997
224642.245019
224642.245067
224642.245179
224642.245202
224642.245199
224642.245207
224642.245234
224642.245252
224642.245270
224642.245294
224642.245324
224642.245491
224642.245485
224642.245478
224642.245527
224642.245529
224642.245553
224642.245564
224642.245573
224642.245583
224642.245813
224642.245809
224642.245817
224642.245825
224642.245830
224642.245847
224642.245857
224642.245868
224642.245889
224642.246139
224642.246149
224642.246147
224642.246172
224642.246162
224642.246166
224642.246185
224642.246183
224642.246197
224642.246515
224642.246507
224642.246513
224642.246500
224642.246488
224642.246511
224642.246521
224642.246512
224642.246533
224642.246868
224642.246875
224642.246867
224642.246865
224642.246859
224642.246863
224642.246861
224642.246863
224642.246864
224642.247281
224642.247256
224642.247250
224642.247244
224642.247239
224642.247227
224642.247225
224642.247209
224642.247222
224642.247680
224642.247665
224642.247652
224642.247640
224642.247624
224642.247605
224642.247603
224642.247601
224642.247607
224642.248080
224642.248077
224642.248052
224642.248037
224642.248030
224642.248014
224642.248010
224642.247980
224642.247986
224642.248538
224642.248504
224642.248487
224642.248462
224642.248460
224642.248428
224642.248427
224642.248400
224642.248388
224642.248977
224642.248950
224642.248921
224642.248910
224642.248879
224642.248865
224642.248830
224642.248817
224642.248807
224642.249452
224642.249414
224642.249390
224642.249363
224642.249331
224642.249315
224642.249289
224642.249274
224642.249261
224642.249927
224642.249900
224642.249851
224642.249832
224642.249790
224642.249780
224642.249740
224642.249717
224642.249693
224642.250415
224642.250377
224642.250353
224642.250304
224642.250274
224642.250259
224642.250221
224642.250187
224642.250156
224642.250920
224642.250902
224642.250845
224642.250810
224642.250781
224642.250724
224642.250704
224642.250673
224642.250633
224642.251449
224642.251409
224642.251378
224642.251329
224642.251279
224642.251246
224642.251191
224642.251169
224642.251121
224642.251981
224642.251927
224642.251891
224642.251846
224642.251796
224642.251759
224642.251722
224642.251681
224642.251643
224642.252533
224642.252486
224642.252441
224642.252389
224642.252336
224642.252306
224642.252247
224642.252207
224642.252148
224642.253094
224642.253055
224642.252975
224642.252945
224642.252885
224642.252841
224642.252791
224642.252734
224642.252702
224642.253679
224642.253621
224642.253570
224642.253511
224642.253463
224642.253395
224642.253351
224642.253302
224642.253243
224642.254257
224642.254210
224642.254168
224642.254083
224642.254050
224642.253964
224642.253909
224642.253876
224642.253813
224642.254863
224642.254831
224642.254756
224642.254674
224642.254627
224642.254561
224642.254500
224642.254447
224642.254381
224642.255480
224642.255423
224642.255348
224642.255288
224642.255216
224642.255152
224642.255098
224642.255042
224642.254967
224642.256120
224642.256030
224642.255972
224642.255900
224642.255846
224642.255774
224642.255692
224642.255644
224642.255594
224642.256766
224642.256679
224642.256595
224642.256536
224642.256459
224642.256400
224642.256320
224642.256265
224642.256194
224642.257409
224642.257316
224642.257254
224642.257165
224642.257104
224642.257040
224642.256950
224642.256896
224642.256807
224642.258054
224642.257982
224642.257887
224642.257819
224642.257755
224642.257677
224642.257602
224642.257521
224642.257443
224642.258736
224642.258657
224642.258558
224642.258483
224642.258410
224642.258334
224642.258235
224642.258159
224642.258110
224642.259414
224642.259310
224642.259240
224642.259159
224642.259081
224642.258996
224642.258908
224642.258839
224642.258739
224642.260112
224642.260012
224642.259927
224642.259844
224642.259748
224642.259671
224642.259577
224642.259495
224642.259428
224642.260792
224642.260718
224642.260632
224642.260527
224642.260430
224642.260347
224642.260267
224642.260182
224642.260096
224642.261502
224642.261403
224642.261310
224642.261228
224642.261141
224642.261051
224642.260954
224642.260859
224642.260780
224642.262223
224642.262117
224642.262021
224642.261944
224642.261830
224642.261741
224642.261644
224642.261562
224642.261470
224642.262947
224642.262832
224642.262744
224642.262649
224642.262547
224642.262450
224642.262360
224642.262265
224642.262173
224642.263683
224642.263589
224642.263474
224642.263371
224642.263296
224642.263164
224642.263079
224642.262973
224642.262873
224642.264421
224642.264319
224642.264197
224642.264118
224642.264009
224642.263897
224642.263802
224642.263706
224642.263604
224642.265171
224642.265064
224642.264955
224642.264845
224642.264726
224642.264634
224642.264525
224642.264419
224642.264339
224642.265924
224642.265802
224642.265701
224642.265605
224642.265494
224642.265387
224642.265277
224642.265157
224642.265062
224642.266688
224642.266570
224642.266453
224642.266350
224642.266234
224642.266127
224642.266014
224642.265899
224642.265812
224642.267446
224642.267345
224642.267214
224642.267094
224642.266997
224642.266889
224642.266771
224642.266670
224642.266544
224642.268205
224642.268112
224642.267973
224642.267878
224642.267757
224642.267640
224642.267525
224642.267403
224642.267313
224642.268988
224642.268885
224642.268759
224642.268622
224642.268528
224642.268399
224642.268295
224642.268179
224642.268062
224642.269776
224642.269644
224642.269525
224642.269419
224642.269302
224642.269191
224642.269057
224642.268933
224642.268825
224642.270551
224642.270440
224642.270309
224642.270195
224642.270048
224642.269937
224642.269820
224642.269714
224642.269594
224642.271343
224642.271222
224642.271085
224642.270979
224642.270851
224642.270730
224642.270601
224642.270473
224642.270357
224642.272138
224642.272006
224642.271887
224642.271744
224642.271628
224642.271508
224642.271377
224642.271263
224642.271137
224642.272925
224642.272790
224642.272669
224642.272532
224642.272431
224642.272291
224642.272163
224642.272048
224642.271908
224642.273721
224642.273590
224642.273450
224642.273327
224642.273201
224642.273073
224642.272947
224642.272827
224642.272697
224642.274541
224642.274399
224642.274265
224642.274129
224642.273997
224642.273879
224642.273736
224642.273608
224642.273487
224642.275339
224642.275205
224642.275069
224642.274928
224642.274801
224642.274665
224642.274541
224642.274397
224642.274281
224642.276132
224642.276000
224642.275873
224642.275729
224642.275604
224642.275466
224642.275328
224642.275196
224642.275066
224642.276940
224642.276808
224642.276665
224642.276529
224642.276401
224642.276254
224642.276128
224642.275994
224642.275855
224642.277738
224642.277616
224642.277487
224642.277333
224642.277202
224642.277063
224642.276923
224642.276785
224642.276649
224642.278549
224642.278420
224642.278286
224642.278131
224642.277989
224642.277861
224642.277716
224642.277584
224642.277452
224642.279367
224642.279233
224642.279087
224642.278955
224642.278818
224642.278677
224642.278517
224642.278382
224642.278253
224642.280176
224642.280044
224642.279917
224642.279745
224642.279603
224642.279464
224642.279331
224642.279170
224642.279027
224642.280983
224642.280843
224642.280703
224642.280553
224642.280407
224642.280280
224642.280126
224642.279982
224642.279855
224642.281801
224642.281653
224642.281508
224642.281362
224642.281212
224642.281068
224642.280943
224642.280775
224642.280644
224642.282630
224642.282472
224642.282327
224642.282169
224642.282026
224642.281885
224642.281729
224642.281599
224642.281433
224642.283406
224642.283266
224642.283111
224642.282981
224642.282825
224642.282684
224642.282537
224642.282391
224642.282239
224642.284222
224642.284084
224642.283926
224642.283789
224642.283634
224642.283483
224642.283335
224642.283194
224642.283050
224642.285040
224642.284867
224642.284731
224642.284576
224642.284431
224642.284286
224642.284132
224642.283977
224642.283832
224642.285844
224642.285697
224642.285520
224642.285375
224642.285231
224642.285085
224642.284929
224642.284778
224642.284631
224642.286644
224642.286500
224642.286344
224642.286185
224642.286039
224642.285872
224642.285725
224642.285591
224642.285420
224642.287450
224642.287280
224642.287128
224642.286980
224642.286828
224642.286680
224642.286527
224642.286372
224642.286217
224642.288246
224642.288078
224642.287918
224642.287774
224642.287617
224642.287473
224642.287320
224642.287159
224642.287019
224642.289038
224642.288863
224642.288723
224642.288567
224642.288409
224642.288264
224642.288100
224642.287956
224642.287814
224642.289833
224642.289675
224642.289514
224642.289359
224642.289203
224642.289069
224642.288907
224642.288747
224642.288591
224642.290619
224642.290474
224642.290314
224642.290162
224642.289984
224642.289839
224642.289691
224642.289530
224642.289375
224642.291411
224642.291262
224642.291104
224642.290932
224642.290780
224642.290615
224642.290472
224642.290300
224642.290157
224642.292198
224642.292042
224642.291884
224642.291732
224642.291559
224642.291413
224642.291244
224642.291085
224642.290922
224642.292977
224642.292809
224642.292663
224642.292495
224642.292339
224642.292179
224642.292035
224642.291871
224642.291718
224642.293765
224642.293598
224642.293435
224642.293283
224642.293117
224642.292953
224642.292793
224642.292640
224642.292486
SCALARS stress_3 float
LOOKUP_TABLE default
-0.000754
-0.009513
-0.009414
-0.009286
-0.009179
-0.009082
-0.008960
-0.008855
-0.008729
-0.008621
-0.008502
-0.008411
-0.008282
-0.008174
-0.008056
-0.007937
-0.007814
-0.007700
-0.007579
-0.007455
-0.007348
-0.007222
-0.007111
-0.006984
-0.006866
-0.006737
-0.006639
-0.006505
-0.006385
-0.006257
-0.006135
-0.006027
-0.005907
-0.005788
-0.005655
-0.005538
-0.005414
-0.005302
-0.005179
-0.005063
-0.004932
-0.004816
-0.004692
-0.004568
-0.004450
-0.004334
-0.004221
-0.004105
-0.003985
-0.003863
-0.003756
-0.003640
-0.003523
-0.003409
-0.003290
-0.003174
-0.003073
-0.002956
-0.002843
-0.002737
-0.002648
-0.002521
-0.002440
-0.002331
-0.002228
-0.002136
-0.002045
-0.001939
-0.001831
-0.001749
-0.001645
-0.001553
-0.001478
-0.001384
-0.001293
-0.001219
-0.001132
-0.001066
-0.000981
-0.000897
-0.000834
-0.006734
0.000220
0.000190
0.000155
0.000082
0.000062
0.000008
-0.000035
-0.000086
-0.000146
-0.000198
-0.000244
-0.000296
-0.000358
-0.000414
-0.000475
-0.000544
-0.000604
-0.000661
-0.000720
-0.000802
-0.000873
-0.000944
-0.001009
-0.001104
-0.001161
-0.001247
-0.001331
-0.001397
-0.001489
-0.001556
-0.001646
-0.001738
-0.001817
-0.001911
-0.002006
-0.002093
-0.002187
-0.002273
-0.002378
-0.002463
-0.002548
-0.002666
-0.002751
-0.002848
-0.002953
-0.003034
-0.003137
-0.003244
-0.003348
-0.003459
-0.003548
-0.003644
-0.003756
-0.003862
-0.003969
-0.004060
-0.004160
-0.004272
-0.004380
-0.004492
-0.004595
-0.004705
-0.004808
-0.004910
-0.005009
-0.005127
-0.005233
-0.005337
-0.005441
-0.005563
-0.005667
-0.005767
-0.005878
-0.005981
-0.006092
-0.006203
-0.006301
-0.006412
-0.006522
-0.006643
-0.007014
-0.007283
-0.007566
-0.007846
-0.008113
-0.008404
-0.008673
-0.008960
-0.009241
-0.000650
-0.000560
-0.000459
-0.000374
-0.000260
-0.000165
-0.000067
0.000018
0.000108
0.000080
-0.000019
-0.000125
-0.000224
-0.000328
-0.000419
-0.000517
-0.000619
-0.000720
0.000034
-0.000063
-0.000168
-0.000279
-0.000372
-0.000477
-0.000580
-0.000690
-0.000796
-0.000016
-0.000109
-0.000226
-0.000326
-0.000427
-0.000535
-0.000648
-0.000762
-0.000868
-0.000069
-0.000171
-0.000267
-0.000383
-0.000500
-0.000601
-0.000705
-0.000824
-0.000946
-0.000110
-0.000230
-0.000329
-0.000436
-0.000554
-0.000674
-0.000785
-0.000905
-0.001005
-0.000147
-0.000285
-0.000382
-0.000508
-0.000619
-0.000738
-0.000860
-0.000973
-0.001106
-0.000216
-0.000321
-0.000450
-0.000567
-0.000676
-0.000812
-0.000926
-0.001053
-0.001166
-0.000266
-0.000371
-0.000510
-0.000635
-0.000759
-0.000887
-0.000985
-0.001131
-0.001257
-0.000328
-0.000448
-0.000563
-0.000702
-0.000809
-0.000954
-0.001088
-0.001217
-0.001326
-0.000382
-0.000499
-0.000651
-0.000766
-0.000894
-0.001023
-0.001156
-0.001295
-0.001424
-0.000439
-0.000576
-0.000705
-0.000830
-0.000965
-0.001108
-0.001245
-0.001383
-0.001519
-0.000491
-0.000645
-0.000766
-0.000904
-0.001047
-0.001175
-0.001329
-0.001453
-0.001605
-0.000567
-0.000694
-0.000837
-0.000969
-0.001117
-0.001269
-0.001405
-0.001552
-0.001694
-0.000637
-0.000769
-0.000907
-0.001059
-0.001205
-0.001352
-0.001496
-0.001640
-0.001777
-0.000677
-0.000827
-0.000980
-0.001129
-0.001274
-0.001420
-0.001565
-0.001735
-0.001881
-0.000746
-0.000901
-0.001050
-0.001204
-0.001344
-0.001512
-0.001652
-0.001813
-0.001969
-0.000831
-0.000980
-0.001123
-0.001277
-0.001444
-0.001589
-0.001751
-0.001903
-0.002072
-0.000891
-0.001047
-0.001198
-0.001359
-0.001535
-0.001686
-0.001835
-0.002015
-0.002175
-0.000949
-0.001122
-0.001277
-0.001448
-0.001612
-0.001768
-0.001931
-0.002100
-0.002269
-0.001033
-0.001201
-0.001352
-0.001537
-0.001701
-0.001867
-0.002036
-0.002210
-0.002358
-0.001104
-0.001277
-0.001455
-0.001604
-0.001788
-0.001948
-0.002117
-0.002299
-0.002467
-0.001169
-0.001353
-0.001532
-0.001703
-0.001878
-0.002042
-0.002229
-0.002394
-0.002572
-0.001264
-0.001440
-0.001613
-0.001801
-0.001956
-0.002141
-0.002314
-0.002499
-0.002679
-0.001333
-0.001524
-0.001714
-0.001879
-0.002052
-0.002242
-0.002432
-0.002607
-0.002791
-0.001428
-0.001608
-0.001782
-0.001978
-0.002158
-0.002332
-0.002520
-0.002714
-0.002883
-0.001508
-0.001699
-0.001884
-0.002066
-0.002245
-0.002439
-0.002607
-0.002799
-0.002997
-0.001599
-0.001784
-0.001975
-0.002158
-0.002352
-0.002532
-0.002703
-0.002910
-0.003106
-0.001675
-0.001871
-0.002063
-0.002251
-0.002450
-0.002634
-0.002830
-0.003014
-0.003217
-0.001763
-0.001961
-0.002154
-0.002332
-0.002538
-0.002728
-0.002942
-0.003131
-0.003315
-0.001853
-0.002058
-0.002241
-0.002444
-0.002647
-0.002840
-0.003042
-0.003233
-0.003433
-0.001938
-0.002145
-0.002337
-0.002528
-0.002740
-0.002949
-0.003137
-0.003347
-0.003547
-0.002035
-0.002229
-0.002443
-0.002641
-0.002844
-0.003044
-0.003252
-0.003434
-0.003663
-0.002104
-0.002326
-0.002540
-0.002735
-0.002934
-0.003151
-0.003363
-0.003562
-0.003765
-0.002214
-0.002419
-0.002623
-0.002828
-0.003038
-0.003258
-0.003465
-0.003667
-0.003890
-0.002306
-0.002514
-0.002727
-0.002959
-0.003147
-0.003361
-0.003580
-0.003806
-0.004000
-0.002397
-0.002611
-0.002827
-0.003030
-0.003262
-0.003443
-0.003683
-0.003903
-0.004115
-0.002478
-0.002711
-0.002925
-0.003134
-0.003373
-0.003579
-0.003797
-0.004016
-0.004231
-0.002585
-0.002798
-0.003021
-0.003244
-0.003463
-0.003685
-0.003905
-0.004142
-0.004348
-0.002684
-0.002907
-0.003118
-0.003364
-0.003587
-0.003790
-0.004023
-0.004230
-0.004464
-0.002788
-0.003003
-0.003232
-0.003448
-0.003673
-0.003908
-0.004132
-0.004366
-0.004581
-0.002881
-0.003099
-0.003324
-0.003558
-0.003780
-0.004026
-0.004244
-0.004468
-0.004713
-0.002968
-0.003209
-0.003434
-0.003663
-0.003881
-0.004123
-0.004338
-0.004589
-0.004827
-0.003087
-0.003317
-0.003546
-0.003777
-0.004005
-0.004246
-0.004472
-0.004698
-0.004946
-0.003192
-0.003407
-0.003658
-0.003886
-0.004129
-0.004343
-0.004595
-0.004816
-0.005059
-0.003278
-0.003510
-0.003758
-0.003996
-0.004221
-0.004465
-0.004708
-0.004936
-0.005187
-0.003386
-0.003620
-0.003856
-0.004097
-0.004334
-0.004575
-0.004822
-0.005059
-0.005301
-0.003480
-0.003721
-0.003963
-0.004202
-0.004429
-0.004681
-0.004932
-0.005168
-0.005409
-0.003574
-0.003824
-0.004072
-0.004311
-0.004555
-0.004804
-0.005053
-0.005289
-0.005532
-0.003694
-0.003936
-0.004192
-0.004419
-0.004677
-0.004915
-0.005160
-0.005403
-0.005652
-0.003789
-0.004040
-0.004288
-0.004532
-0.004775
-0.005029
-0.005278
-0.005523
-0.005768
-0.003908
-0.004148
-0.004394
-0.004639
-0.004884
-0.005128
-0.005396
-0.005637
-0.005896
-0.004012
-0.004247
-0.004510
-0.004769
-0.005003
-0.005261
-0.005505
-0.005759
-0.006004
-0.004103
-0.004358
-0.004611
-0.004864
-0.005112
-0.005373
-0.005619
-0.005888
-0.006126
-0.004219
-0.004471
-0.004725
-0.004979
-0.005230
-0.005476
-0.005741
-0.005987
-0.006242
-0.004331
-0.004576
-0.004829
-0.005083
-0.005350
-0.005597
-0.005856
-0.006116
-0.006355
-0.004423
-0.004689
-0.004933
-0.005190
-0.005450
-0.005719
-0.005955
-0.006227
-0.006488
-0.004532
-0.004798
-0.005049
-0.005294
-0.005564
-0.005821
-0.006081
-0.006342
-0.006600
-0.004634
-0.004906
-0.005161
-0.005417
-0.005677
-0.005925
-0.006203
-0.006460
-0.006717
-0.004753
-0.005034
-0.005278
-0.005530
-0.005796
-0.006059
-0.006307
-0.006581
-0.006844
-0.004853
-0.005124
-0.005378
-0.005639
-0.005911
-0.006168
-0.006445
-0.006696
-0.006947
-0.004960
-0.005216
-0.005490
-0.005745
-0.006021
-0.006290
-0.006557
-0.006820
-0.007082
-0.005068
-0.005331
-0.005601
-0.005868
-0.006130
-0.006385
-0.006669
-0.006930
-0.007190
-0.005180
-0.005437
-0.005716
-0.005984
-0.006249
-0.006506
-0.006770
-0.007042
-0.007315
-0.005287
-0.005544
-0.005817
-0.006083
-0.006347
-0.006621
-0.006871
-0.007166
-0.007430
-0.005409
-0.005664
-0.005938
-0.006202
-0.006454
-0.006720
-0.007003
-0.007275
-0.007548
-0.005504
-0.005766
-0.006040
-0.006312
-0.006585
-0.006859
-0.007115
-0.007394
-0.007666
-0.005608
-0.005885
-0.006163
-0.006424
-0.006692
-0.006961
-0.007233
-0.007500
-0.007765
-0.005723
-0.005994
-0.006267
-0.006532
-0.006804
-0.007074
-0.007346
-0.007618
-0.007902
-0.005815
-0.006094
-0.006367
-0.006620
-0.006919
-0.007183
-0.007458
-0.007745
-0.007998
-0.005928
-0.006201
-0.006486
-0.006754
-0.007022
-0.007300
-0.007581
-0.007845
-0.008120
-0.006033
-0.006319
-0.006578
-0.006863
-0.007135
-0.007419
-0.007686
-0.007975
-0.008249
-0.006143
-0.006421
-0.006691
-0.006968
-0.007250
-0.007528
-0.007790
-0.008066
-0.008332
-0.006262
-0.006532
-0.006810
-0.007078
-0.007353
-0.007632
-0.007919
-0.008195
-0.008468
-0.006355
-0.006635
-0.006910
-0.007205
-0.007476
-0.007735
-0.008016
-0.008295
-0.008584
-0.006477
-0.006755
-0.007031
-0.007308
-0.007573
-0.007846
-0.008127
-0.008409
-0.008693
-0.006584
-0.006862
-0.007122
-0.007410
-0.007696
-0.007957
-0.008247
-0.008522
-0.008810
-0.006690
-0.006965
-0.007241
-0.007520
-0.007807
-0.008077
-0.008348
-0.008624
-0.008912
-0.006797
-0.007083
-0.007357
-0.007630
-0.007929
-0.008177
-0.008472
-0.008753
-0.009011
-0.006904
-0.007191
-0.007466
-0.007726
-0.008017
-0.008298
-0.008573
-0.008846
-0.009122
