# vtk DataFile Version 2.0
Generated volume Mesh
ASCII
DATASET UNSTRUCTURED_GRID
POINTS 891 float
0.005000 0.100000 0.000000
0.005000 0.000000 0.000000
0.005000 0.001250 0.000000
0.005000 0.002500 0.000000
0.005000 0.003750 0.000000
0.005000 0.005000 0.000000
0.005000 0.006250 0.000000
0.005000 0.007500 0.000000
0.005000 0.008750 0.000000
0.005000 0.010000 0.000000
0.005000 0.011250 0.000000
0.005000 0.012500 0.000000
0.005000 0.013750 0.000000
0.005000 0.015000 0.000000
0.005000 0.016250 0.000000
0.005000 0.017500 0.000000
0.005000 0.018750 0.000000
0.005000 0.020000 0.000000
0.005000 0.021250 0.000000
0.005000 0.022500 0.000000
0.005000 0.023750 0.000000
0.005000 0.025000 0.000000
0.005000 0.026250 0.000000
0.005000 0.027500 0.000000
0.005000 0.028750 0.000000
0.005000 0.030000 0.000000
0.005000 0.031250 0.000000
0.005000 0.032500 0.000000
0.005000 0.033750 0.000000
0.005000 0.035000 0.000000
0.005000 0.036250 0.000000
0.005000 0.037500 0.000000
0.005000 0.038750 0.000000
0.005000 0.040000 0.000000
0.005000 0.041250 0.000000
0.005000 0.042500 0.000000
0.005000 0.043750 0.000000
0.005000 0.045000 0.000000
0.005000 0.046250 0.000000
0.005000 0.047500 0.000000
0.005000 0.048750 0.000000
0.005000 0.050000 0.000000
0.005000 0.051250 0.000000
0.005000 0.052500 0.000000
0.005000 0.053750 0.000000
0.005000 0.055000 0.000000
0.005000 0.056250 0.000000
0.005000 0.057500 0.000000
0.005000 0.058750 0.000000
0.005000 0.060000 0.000000
0.005000 0.061250 0.000000
0.005000 0.062500 0.000000
0.005000 0.063750 0.000000
0.005000 0.065000 0.000000
0.005000 0.066250 0.000000
0.005000 0.067500 0.000000
0.005000 0.068750 0.000000
0.005000 0.070000 0.000000
0.005000 0.071250 0.000000
0.005000 0.072500 0.000000
0.005000 0.073750 0.000000
0.005000 0.075000 0.000000
0.005000 0.076250 0.000000
0.005000 0.077500 0.000000
0.005000 0.078750 0.000000
0.005000 0.080000 0.000000
0.005000 0.081250 0.000000
0.005000 0.082500 0.000000
0.005000 0.083750 0.000000
0.005000 0.085000 0.000000
0.005000 0.086250 0.000000
0.005000 0.087500 0.000000
0.005000 0.088750 0.000000
0.005000 0.090000 0.000000
0.005000 0.091250 0.000000
0.005000 0.092500 0.000000
0.005000 0.093750 0.000000
0.005000 0.095000 0.000000
0.005000 0.096250 0.000000
0.005000 0.097500 0.000000
0.005000 0.098750 0.000000
0.000000 0.000000 0.000000
0.000000 0.100000 0.000000
0.000000 0.098750 0.000000
0.000000 0.097500 0.000000
0.000000 0.096250 0.000000
0.000000 0.095000 0.000000
0.000000 0.093750 0.000000
0.000000 0.092500 0.000000
0.000000 0.091250 0.000000
0.000000 0.090000 0.000000
0.000000 0.088750 0.000000
0.000000 0.087500 0.000000
0.000000 0.086250 0.000000
0.000000 0.085000 0.000000
0.000000 0.083750 0.000000
0.000000 0.082500 0.000000
0.000000 0.081250 0.000000
0.000000 0.080000 0.000000
0.000000 0.078750 0.000000
0.000000 0.077500 0.000000
0.000000 0.076250 0.000000
0.000000 0.075000 0.000000
0.000000 0.073750 0.000000
0.000000 0.072500 0.000000
0.000000 0.071250 0.000000
0.000000 0.070000 0.000000
0.000000 0.068750 0.000000
0.000000 0.067500 0.000000
0.000000 0.066250 0.000000
0.000000 0.065000 0.000000
0.000000 0.063750 0.000000
0.000000 0.062500 0.000000
0.000000 0.061250 0.000000
0.000000 0.060000 0.000000
0.000000 0.058750 0.000000
0.000000 0.057500 0.000000
0.000000 0.056250 0.000000
0.000000 0.055000 0.000000
0.000000 0.053750 0.000000
0.000000 0.052500 0.000000
0.000000 0.051250 0.000000
0.000000 0.050000 0.000000
0.000000 0.048750 0.000000
0.000000 0.047500 0.000000
0.000000 0.046250 0.000000
0.000000 0.045000 0.000000
0.000000 0.043750 0.000000
0.000000 0.042500 0.000000
0.000000 0.041250 0.000000
0.000000 0.040000 0.000000
0.000000 0.038750 0.000000
0.000000 0.037500 0.000000
0.000000 0.036250 0.000000
0.000000 0.035000 0.000000
0.000000 0.033750 0.000000
0.000000 0.032500 0.000000
0.000000 0.031250 0.000000
0.000000 0.030000 0.000000
0.000000 0.028750 0.000000
0.000000 0.027500 0.000000
0.000000 0.026250 0.000000
0.000000 0.025000 0.000000
0.000000 0.023750 0.000000
0.000000 0.022500 0.000000
0.000000 0.021250 0.000000
0.000000 0.020000 0.000000
0.000000 0.018750 0.000000
0.000000 0.017500 0.000000
0.000000 0.016250 0.000000
0.000000 0.015000 0.000000
0.000000 0.013750 0.000000
0.000000 0.012500 0.000000
0.000000 0.011250 0.000000
0.000000 0.010000 0.000000
0.000000 0.008750 0.000000
0.000000 0.007500 0.000000
0.000000 0.006250 0.000000
0.000000 0.005000 0.000000
0.000000 0.003750 0.000000
0.000000 0.002500 0.000000
0.000000 0.001250 0.000000
0.000500 0.000000 0.000000
0.001000 0.000000 0.000000
0.001500 0.000000 0.000000
0.002000 0.000000 0.000000
0.002500 0.000000 0.000000
0.003000 0.000000 0.000000
0.003500 0.000000 0.000000
0.004000 0.000000 0.000000
0.004500 0.000000 0.000000
0.004500 0.100000 0.000000
0.004000 0.100000 0.000000
0.003500 0.100000 0.000000
0.003000 0.100000 0.000000
0.002500 0.100000 0.000000
0.002000 0.100000 0.000000
0.001500 0.100000 0.000000
0.001000 0.100000 0.000000
0.000500 0.100000 0.000000
0.000500 0.098750 0.000000
0.001000 0.098750 0.000000
0.001500 0.098750 0.000000
0.002000 0.098750 0.000000
0.002500 0.098750 0.000000
0.003000 0.098750 0.000000
0.003500 0.098750 0.000000
0.004000 0.098750 0.000000
0.004500 0.098750 0.000000
0.000500 0.097500 0.000000
0.001000 0.097500 0.000000
0.001500 0.097500 0.000000
0.002000 0.097500 0.000000
0.002500 0.097500 0.000000
0.003000 0.097500 0.000000
0.003500 0.097500 0.000000
0.004000 0.097500 0.000000
0.004500 0.097500 0.000000
0.000500 0.096250 0.000000
0.001000 0.096250 0.000000
0.001500 0.096250 0.000000
0.002000 0.096250 0.000000
0.002500 0.096250 0.000000
0.003000 0.096250 0.000000
0.003500 0.096250 0.000000
0.004000 0.096250 0.000000
0.004500 0.096250 0.000000
0.000500 0.095000 0.000000
0.001000 0.095000 0.000000
0.001500 0.095000 0.000000
0.002000 0.095000 0.000000
0.002500 0.095000 0.000000
0.003000 0.095000 0.000000
0.003500 0.095000 0.000000
0.004000 0.095000 0.000000
0.004500 0.095000 0.000000
0.000500 0.093750 0.000000
0.001000 0.093750 0.000000
0.001500 0.093750 0.000000
0.002000 0.093750 0.000000
0.002500 0.093750 0.000000
0.003000 0.093750 0.000000
0.003500 0.093750 0.000000
0.004000 0.093750 0.000000
0.004500 0.093750 0.000000
0.000500 0.092500 0.000000
0.001000 0.092500 0.000000
0.001500 0.092500 0.000000
0.002000 0.092500 0.000000
0.002500 0.092500 0.000000
0.003000 0.092500 0.000000
0.003500 0.092500 0.000000
0.004000 0.092500 0.000000
0.004500 0.092500 0.000000
0.000500 0.091250 0.000000
0.001000 0.091250 0.000000
0.001500 0.091250 0.000000
0.002000 0.091250 0.000000
0.002500 0.091250 0.000000
0.003000 0.091250 0.000000
0.003500 0.091250 0.000000
0.004000 0.091250 0.000000
0.004500 0.091250 0.000000
0.000500 0.090000 0.000000
0.001000 0.090000 0.000000
0.001500 0.090000 0.000000
0.002000 0.090000 0.000000
0.002500 0.090000 0.000000
0.003000 0.090000 0.000000
0.003500 0.090000 0.000000
0.004000 0.090000 0.000000
0.004500 0.090000 0.000000
0.000500 0.088750 0.000000
0.001000 0.088750 0.000000
0.001500 0.088750 0.000000
0.002000 0.088750 0.000000
0.002500 0.088750 0.000000
0.003000 0.088750 0.000000
0.003500 0.088750 0.000000
0.004000 0.088750 0.000000
0.004500 0.088750 0.000000
0.000500 0.087500 0.000000
0.001000 0.087500 0.000000
0.001500 0.087500 0.000000
0.002000 0.087500 0.000000
0.002500 0.087500 0.000000
0.003000 0.087500 0.000000
0.003500 0.087500 0.000000
0.004000 0.087500 0.000000
0.004500 0.087500 0.000000
0.000500 0.086250 0.000000
0.001000 0.086250 0.000000
0.001500 0.086250 0.000000
0.002000 0.086250 0.000000
0.002500 0.086250 0.000000
0.003000 0.086250 0.000000
0.003500 0.086250 0.000000
0.004000 0.086250 0.000000
0.004500 0.086250 0.000000
0.000500 0.085000 0.000000
0.001000 0.085000 0.000000
0.001500 0.085000 0.000000
0.002000 0.085000 0.000000
0.002500 0.085000 0.000000
0.003000 0.085000 0.000000
0.003500 0.085000 0.000000
0.004000 0.085000 0.000000
0.004500 0.085000 0.000000
0.000500 0.083750 0.000000
0.001000 0.083750 0.000000
0.001500 0.083750 0.000000
0.002000 0.083750 0.000000
0.002500 0.083750 0.000000
0.003000 0.083750 0.000000
0.003500 0.083750 0.000000
0.004000 0.083750 0.000000
0.004500 0.083750 0.000000
0.000500 0.082500 0.000000
0.001000 0.082500 0.000000
0.001500 0.082500 0.000000
0.002000 0.082500 0.000000
0.002500 0.082500 0.000000
0.003000 0.082500 0.000000
0.003500 0.082500 0.000000
0.004000 0.082500 0.000000
0.004500 0.082500 0.000000
0.000500 0.081250 0.000000
0.001000 0.081250 0.000000
0.001500 0.081250 0.000000
0.002000 0.081250 0.000000
0.002500 0.081250 0.000000
0.003000 0.081250 0.000000
0.003500 0.081250 0.000000
0.004000 0.081250 0.000000
0.004500 0.081250 0.000000
0.000500 0.080000 0.000000
0.001000 0.080000 0.000000
0.001500 0.080000 0.000000
0.002000 0.080000 0.000000
0.002500 0.080000 0.000000
0.003000 0.080000 0.000000
0.003500 0.080000 0.000000
0.004000 0.080000 0.000000
0.004500 0.080000 0.000000
0.000500 0.078750 0.000000
0.001000 0.078750 0.000000
0.001500 0.078750 0.000000
0.002000 0.078750 0.000000
0.002500 0.078750 0.000000
0.003000 0.078750 0.000000
0.003500 0.078750 0.000000
0.004000 0.078750 0.000000
0.004500 0.078750 0.000000
0.000500 0.077500 0.000000
0.001000 0.077500 0.000000
0.001500 0.077500 0.000000
0.002000 0.077500 0.000000
0.002500 0.077500 0.000000
0.003000 0.077500 0.000000
0.003500 0.077500 0.000000
0.004000 0.077500 0.000000
0.004500 0.077500 0.000000
0.000500 0.076250 0.000000
0.001000 0.076250 0.000000
0.001500 0.076250 0.000000
0.002000 0.076250 0.000000
0.002500 0.076250 0.000000
0.003000 0.076250 0.000000
0.003500 0.076250 0.000000
0.004000 0.076250 0.000000
0.004500 0.076250 0.000000
0.000500 0.075000 0.000000
0.001000 0.075000 0.000000
0.001500 0.075000 0.000000
0.002000 0.075000 0.000000
0.002500 0.075000 0.000000
0.003000 0.075000 0.000000
0.003500 0.075000 0.000000
0.004000 0.075000 0.000000
0.004500 0.075000 0.000000
0.000500 0.073750 0.000000
0.001000 0.073750 0.000000
0.001500 0.073750 0.000000
0.002000 0.073750 0.000000
0.002500 0.073750 0.000000
0.003000 0.073750 0.000000
0.003500 0.073750 0.000000
0.004000 0.073750 0.000000
0.004500 0.073750 0.000000
0.000500 0.072500 0.000000
0.001000 0.072500 0.000000
0.001500 0.072500 0.000000
0.002000 0.072500 0.000000
0.002500 0.072500 0.000000
0.003000 0.072500 0.000000
0.003500 0.072500 0.000000
0.004000 0.072500 0.000000
0.004500 0.072500 0.000000
0.000500 0.071250 0.000000
0.001000 0.071250 0.000000
0.001500 0.071250 0.000000
0.002000 0.071250 0.000000
0.002500 0.071250 0.000000
0.003000 0.071250 0.000000
0.003500 0.071250 0.000000
0.004000 0.071250 0.000000
0.004500 0.071250 0.000000
0.000500 0.070000 0.000000
0.001000 0.070000 0.000000
0.001500 0.070000 0.000000
0.002000 0.070000 0.000000
0.002500 0.070000 0.000000
0.003000 0.070000 0.000000
0.003500 0.070000 0.000000
0.004000 0.070000 0.000000
0.004500 0.070000 0.000000
0.000500 0.068750 0.000000
0.001000 0.068750 0.000000
0.001500 0.068750 0.000000
0.002000 0.068750 0.000000
0.002500 0.068750 0.000000
0.003000 0.068750 0.000000
0.003500 0.068750 0.000000
0.004000 0.068750 0.000000
0.004500 0.068750 0.000000
0.000500 0.067500 0.000000
0.001000 0.067500 0.000000
0.001500 0.067500 0.000000
0.002000 0.067500 0.000000
0.002500 0.067500 0.000000
0.003000 0.067500 0.000000
0.003500 0.067500 0.000000
0.004000 0.067500 0.000000
0.004500 0.067500 0.000000
0.000500 0.066250 0.000000
0.001000 0.066250 0.000000
0.001500 0.066250 0.000000
0.002000 0.066250 0.000000
0.002500 0.066250 0.000000
0.003000 0.066250 0.000000
0.003500 0.066250 0.000000
0.004000 0.066250 0.000000
0.004500 0.066250 0.000000
0.000500 0.065000 0.000000
0.001000 0.065000 0.000000
0.001500 0.065000 0.000000
0.002000 0.065000 0.000000
0.002500 0.065000 0.000000
0.003000 0.065000 0.000000
0.003500 0.065000 0.000000
0.004000 0.065000 0.000000
0.004500 0.065000 0.000000
0.000500 0.063750 0.000000
0.001000 0.063750 0.000000
0.001500 0.063750 0.000000
0.002000 0.063750 0.000000
0.002500 0.063750 0.000000
0.003000 0.063750 0.000000
0.003500 0.063750 0.000000
0.004000 0.063750 0.000000
0.004500 0.063750 0.000000
0.000500 0.062500 0.000000
0.001000 0.062500 0.000000
0.001500 0.062500 0.000000
0.002000 0.062500 0.000000
0.002500 0.062500 0.000000
0.003000 0.062500 0.000000
0.003500 0.062500 0.000000
0.004000 0.062500 0.000000
0.004500 0.062500 0.000000
0.000500 0.061250 0.000000
0.001000 0.061250 0.000000
0.001500 0.061250 0.000000
0.002000 0.061250 0.000000
0.002500 0.061250 0.000000
0.003000 0.061250 0.000000
0.003500 0.061250 0.000000
0.004000 0.061250 0.000000
0.004500 0.061250 0.000000
0.000500 0.060000 0.000000
0.001000 0.060000 0.000000
0.001500 0.060000 0.000000
0.002000 0.060000 0.000000
0.002500 0.060000 0.000000
0.003000 0.060000 0.000000
0.003500 0.060000 0.000000
0.004000 0.060000 0.000000
0.004500 0.060000 0.000000
0.000500 0.058750 0.000000
0.001000 0.058750 0.000000
0.001500 0.058750 0.000000
0.002000 0.058750 0.000000
0.002500 0.058750 0.000000
0.003000 0.058750 0.000000
0.003500 0.058750 0.000000
0.004000 0.058750 0.000000
0.004500 0.058750 0.000000
0.000500 0.057500 0.000000
0.001000 0.057500 0.000000
0.001500 0.057500 0.000000
0.002000 0.057500 0.000000
0.002500 0.057500 0.000000
0.003000 0.057500 0.000000
0.003500 0.057500 0.000000
0.004000 0.057500 0.000000
0.004500 0.057500 0.000000
0.000500 0.056250 0.000000
0.001000 0.056250 0.000000
0.001500 0.056250 0.000000
0.002000 0.056250 0.000000
0.002500 0.056250 0.000000
0.003000 0.056250 0.000000
0.003500 0.056250 0.000000
0.004000 0.056250 0.000000
0.004500 0.056250 0.000000
0.000500 0.055000 0.000000
0.001000 0.055000 0.000000
0.001500 0.055000 0.000000
0.002000 0.055000 0.000000
0.002500 0.055000 0.000000
0.003000 0.055000 0.000000
0.003500 0.055000 0.000000
0.004000 0.055000 0.000000
0.004500 0.055000 0.000000
0.000500 0.053750 0.000000
0.001000 0.053750 0.000000
0.001500 0.053750 0.000000
0.002000 0.053750 0.000000
0.002500 0.053750 0.000000
0.003000 0.053750 0.000000
0.003500 0.053750 0.000000
0.004000 0.053750 0.000000
0.004500 0.053750 0.000000
0.000500 0.052500 0.000000
0.001000 0.052500 0.000000
0.001500 0.052500 0.000000
0.002000 0.052500 0.000000
0.002500 0.052500 0.000000
0.003000 0.052500 0.000000
0.003500 0.052500 0.000000
0.004000 0.052500 0.000000
0.004500 0.052500 0.000000
0.000500 0.051250 0.000000
0.001000 0.051250 0.000000
0.001500 0.051250 0.000000
0.002000 0.051250 0.000000
0.002500 0.051250 0.000000
0.003000 0.051250 0.000000
0.003500 0.051250 0.000000
0.004000 0.051250 0.000000
0.004500 0.051250 0.000000
0.000500 0.050000 0.000000
0.001000 0.050000 0.000000
0.001500 0.050000 0.000000
0.002000 0.050000 0.000000
0.002500 0.050000 0.000000
0.003000 0.050000 0.000000
0.003500 0.050000 0.000000
0.004000 0.050000 0.000000
0.004500 0.050000 0.000000
0.000500 0.048750 0.000000
0.001000 0.048750 0.000000
0.001500 0.048750 0.000000
0.002000 0.048750 0.000000
0.002500 0.048750 0.000000
0.003000 0.048750 0.000000
0.003500 0.048750 0.000000
0.004000 0.048750 0.000000
0.004500 0.048750 0.000000
0.000500 0.047500 0.000000
0.001000 0.047500 0.000000
0.001500 0.047500 0.000000
0.002000 0.047500 0.000000
0.002500 0.047500 0.000000
0.003000 0.047500 0.000000
0.003500 0.047500 0.000000
0.004000 0.047500 0.000000
0.004500 0.047500 0.000000
0.000500 0.046250 0.000000
0.001000 0.046250 0.000000
0.001500 0.046250 0.000000
0.002000 0.046250 0.000000
0.002500 0.046250 0.000000
0.003000 0.046250 0.000000
0.003500 0.046250 0.000000
0.004000 0.046250 0.000000
0.004500 0.046250 0.000000
0.000500 0.045000 0.000000
0.001000 0.045000 0.000000
0.001500 0.045000 0.000000
0.002000 0.045000 0.000000
0.002500 0.045000 0.000000
0.003000 0.045000 0.000000
0.003500 0.045000 0.000000
0.004000 0.045000 0.000000
0.004500 0.045000 0.000000
0.000500 0.043750 0.000000
0.001000 0.043750 0.000000
0.001500 0.043750 0.000000
0.002000 0.043750 0.000000
0.002500 0.043750 0.000000
0.003000 0.043750 0.000000
0.003500 0.043750 0.000000
0.004000 0.043750 0.000000
0.004500 0.043750 0.000000
0.000500 0.042500 0.000000
0.001000 0.042500 0.000000
0.001500 0.042500 0.000000
0.002000 0.042500 0.000000
0.002500 0.042500 0.000000
0.003000 0.042500 0.000000
0.003500 0.042500 0.000000
0.004000 0.042500 0.000000
0.004500 0.042500 0.000000
0.000500 0.041250 0.000000
0.001000 0.041250 0.000000
0.001500 0.041250 0.000000
0.002000 0.041250 0.000000
0.002500 0.041250 0.000000
0.003000 0.041250 0.000000
0.003500 0.041250 0.000000
0.004000 0.041250 0.000000
0.004500 0.041250 0.000000
0.000500 0.040000 0.000000
0.001000 0.040000 0.000000
0.001500 0.040000 0.000000
0.002000 0.040000 0.000000
0.002500 0.040000 0.000000
0.003000 0.040000 0.000000
0.003500 0.040000 0.000000
0.004000 0.040000 0.000000
0.004500 0.040000 0.000000
0.000500 0.038750 0.000000
0.001000 0.038750 0.000000
0.001500 0.038750 0.000000
0.002000 0.038750 0.000000
0.002500 0.038750 0.000000
0.003000 0.038750 0.000000
0.003500 0.038750 0.000000
0.004000 0.038750 0.000000
0.004500 0.038750 0.000000
0.000500 0.037500 0.000000
0.001000 0.037500 0.000000
0.001500 0.037500 0.000000
0.002000 0.037500 0.000000
0.002500 0.037500 0.000000
0.003000 0.037500 0.000000
0.003500 0.037500 0.000000
0.004000 0.037500 0.000000
0.004500 0.037500 0.000000
0.000500 0.036250 0.000000
0.001000 0.036250 0.000000
0.001500 0.036250 0.000000
0.002000 0.036250 0.000000
0.002500 0.036250 0.000000
0.003000 0.036250 0.000000
0.003500 0.036250 0.000000
0.004000 0.036250 0.000000
0.004500 0.036250 0.000000
0.000500 0.035000 0.000000
0.001000 0.035000 0.000000
0.001500 0.035000 0.000000
0.002000 0.035000 0.000000
0.002500 0.035000 0.000000
0.003000 0.035000 0.000000
0.003500 0.035000 0.000000
0.004000 0.035000 0.000000
0.004500 0.035000 0.000000
0.000500 0.033750 0.000000
0.001000 0.033750 0.000000
0.001500 0.033750 0.000000
0.002000 0.033750 0.000000
0.002500 0.033750 0.000000
0.003000 0.033750 0.000000
0.003500 0.033750 0.000000
0.004000 0.033750 0.000000
0.004500 0.033750 0.000000
0.000500 0.032500 0.000000
0.001000 0.032500 0.000000
0.001500 0.032500 0.000000
0.002000 0.032500 0.000000
0.002500 0.032500 0.000000
0.003000 0.032500 0.000000
0.003500 0.032500 0.000000
0.004000 0.032500 0.000000
0.004500 0.032500 0.000000
0.000500 0.031250 0.000000
0.001000 0.031250 0.000000
0.001500 0.031250 0.000000
0.002000 0.031250 0.000000
0.002500 0.031250 0.000000
0.003000 0.031250 0.000000
0.003500 0.031250 0.000000
0.004000 0.031250 0.000000
0.004500 0.031250 0.000000
0.000500 0.030000 0.000000
0.001000 0.030000 0.000000
0.001500 0.030000 0.000000
0.002000 0.030000 0.000000
0.002500 0.030000 0.000000
0.003000 0.030000 0.000000
0.003500 0.030000 0.000000
0.004000 0.030000 0.000000
0.004500 0.030000 0.000000
0.000500 0.028750 0.000000
0.001000 0.028750 0.000000
0.001500 0.028750 0.000000
0.002000 0.028750 0.000000
0.002500 0.028750 0.000000
0.003000 0.028750 0.000000
0.003500 0.028750 0.000000
0.004000 0.028750 0.000000
0.004500 0.028750 0.000000
0.000500 0.027500 0.000000
0.001000 0.027500 0.000000
0.001500 0.027500 0.000000
0.002000 0.027500 0.000000
0.002500 0.027500 0.000000
0.003000 0.027500 0.000000
0.003500 0.027500 0.000000
0.004000 0.027500 0.000000
0.004500 0.027500 0.000000
0.000500 0.026250 0.000000
0.001000 0.026250 0.000000
0.001500 0.026250 0.000000
0.002000 0.026250 0.000000
0.002500 0.026250 0.000000
0.003000 0.026250 0.000000
0.003500 0.026250 0.000000
0.004000 0.026250 0.000000
0.004500 0.026250 0.000000
0.000500 0.025000 0.000000
0.001000 0.025000 0.000000
0.001500 0.025000 0.000000
0.002000 0.025000 0.000000
0.002500 0.025000 0.000000
0.003000 0.025000 0.000000
0.003500 0.025000 0.000000
0.004000 0.025000 0.000000
0.004500 0.025000 0.000000
0.000500 0.023750 0.000000
0.001000 0.023750 0.000000
0.001500 0.023750 0.000000
0.002000 0.023750 0.000000
0.002500 0.023750 0.000000
0.003000 0.023750 0.000000
0.003500 0.023750 0.000000
0.004000 0.023750 0.000000
0.004500 0.023750 0.000000
0.000500 0.022500 0.000000
0.001000 0.022500 0.000000
0.001500 0.022500 0.000000
0.002000 0.022500 0.000000
0.002500 0.022500 0.000000
0.003000 0.022500 0.000000
0.003500 0.022500 0.000000
0.004000 0.022500 0.000000
0.004500 0.022500 0.000000
0.000500 0.021250 0.000000
0.001000 0.021250 0.000000
0.001500 0.021250 0.000000
0.002000 0.021250 0.000000
0.002500 0.021250 0.000000
0.003000 0.021250 0.000000
0.003500 0.021250 0.000000
0.004000 0.021250 0.000000
0.004500 0.021250 0.000000
0.000500 0.020000 0.000000
0.001000 0.020000 0.000000
0.001500 0.020000 0.000000
0.002000 0.020000 0.000000
0.002500 0.020000 0.000000
0.003000 0.020000 0.000000
0.003500 0.020000 0.000000
0.004000 0.020000 0.000000
0.004500 0.020000 0.000000
0.000500 0.018750 0.000000
0.001000 0.018750 0.000000
0.001500 0.018750 0.000000
0.002000 0.018750 0.000000
0.002500 0.018750 0.000000
0.003000 0.018750 0.000000
0.003500 0.018750 0.000000
0.004000 0.018750 0.000000
0.004500 0.018750 0.000000
0.000500 0.017500 0.000000
0.001000 0.017500 0.000000
0.001500 0.017500 0.000000
0.002000 0.017500 0.000000
0.002500 0.017500 0.000000
0.003000 0.017500 0.000000
0.003500 0.017500 0.000000
0.004000 0.017500 0.000000
0.004500 0.017500 0.000000
0.000500 0.016250 0.000000
0.001000 0.016250 0.000000
0.001500 0.016250 0.000000
0.002000 0.016250 0.000000
0.002500 0.016250 0.000000
0.003000 0.016250 0.000000
0.003500 0.016250 0.000000
0.004000 0.016250 0.000000
0.004500 0.016250 0.000000
0.000500 0.015000 0.000000
0.001000 0.015000 0.000000
0.001500 0.015000 0.000000
0.002000 0.015000 0.000000
0.002500 0.015000 0.000000
0.003000 0.015000 0.000000
0.003500 0.015000 0.000000
0.004000 0.015000 0.000000
0.004500 0.015000 0.000000
0.000500 0.013750 0.000000
0.001000 0.013750 0.000000
0.001500 0.013750 0.000000
0.002000 0.013750 0.000000
0.002500 0.013750 0.000000
0.003000 0.013750 0.000000
0.003500 0.013750 0.000000
0.004000 0.013750 0.000000
0.004500 0.013750 0.000000
0.000500 0.012500 0.000000
0.001000 0.012500 0.000000
0.001500 0.012500 0.000000
0.002000 0.012500 0.000000
0.002500 0.012500 0.000000
0.003000 0.012500 0.000000
0.003500 0.012500 0.000000
0.004000 0.012500 0.000000
0.004500 0.012500 0.000000
0.000500 0.011250 0.000000
0.001000 0.011250 0.000000
0.001500 0.011250 0.000000
0.002000 0.011250 0.000000
0.002500 0.011250 0.000000
0.003000 0.011250 0.000000
0.003500 0.011250 0.000000
0.004000 0.011250 0.000000
0.004500 0.011250 0.000000
0.000500 0.010000 0.000000
0.001000 0.010000 0.000000
0.001500 0.010000 0.000000
0.002000 0.010000 0.000000
0.002500 0.010000 0.000000
0.003000 0.010000 0.000000
0.003500 0.010000 0.000000
0.004000 0.010000 0.000000
0.004500 0.010000 0.000000
0.000500 0.008750 0.000000
0.001000 0.008750 0.000000
0.001500 0.008750 0.000000
0.002000 0.008750 0.000000
0.002500 0.008750 0.000000
0.003000 0.008750 0.000000
0.003500 0.008750 0.000000
0.004000 0.008750 0.000000
0.004500 0.008750 0.000000
0.000500 0.007500 0.000000
0.001000 0.007500 0.000000
0.001500 0.007500 0.000000
0.002000 0.007500 0.000000
0.002500 0.007500 0.000000
0.003000 0.007500 0.000000
0.003500 0.007500 0.000000
0.004000 0.007500 0.000000
0.004500 0.007500 0.000000
0.000500 0.006250 0.000000
0.001000 0.006250 0.000000
0.001500 0.006250 0.000000
0.002000 0.006250 0.000000
0.002500 0.006250 0.000000
0.003000 0.006250 0.000000
0.003500 0.006250 0.000000
0.004000 0.006250 0.000000
0.004500 0.006250 0.000000
0.000500 0.005000 0.000000
0.001000 0.005000 0.000000
0.001500 0.005000 0.000000
0.002000 0.005000 0.000000
0.002500 0.005000 0.000000
0.003000 0.005000 0.000000
0.003500 0.005000 0.000000
0.004000 0.005000 0.000000
0.004500 0.005000 0.000000
0.000500 0.003750 0.000000
0.001000 0.003750 0.000000
0.001500 0.003750 0.000000
0.002000 0.003750 0.000000
0.002500 0.003750 0.000000
0.003000 0.003750 0.000000
0.003500 0.003750 0.000000
0.004000 0.003750 0.000000
0.004500 0.003750 0.000000
0.000500 0.002500 0.000000
0.001000 0.002500 0.000000
0.001500 0.002500 0.000000
0.002000 0.002500 0.000000
0.002500 0.002500 0.000000
0.003000 0.002500 0.000000
0.003500 0.002500 0.000000
0.004000 0.002500 0.000000
0.004500 0.002500 0.000000
0.000500 0.001250 0.000000
0.001000 0.001250 0.000000
0.001500 0.001250 0.000000
0.002000 0.001250 0.000000
0.002500 0.001250 0.000000
0.003000 0.001250 0.000000
0.003500 0.001250 0.000000
0.004000 0.001250 0.000000
0.004500 0.001250 0.000000
CELLS 800 4000
4 82 83 180 179
4 179 180 181 178
4 178 181 182 177
4 177 182 183 176
4 176 183 184 175
4 175 184 185 174
4 174 185 186 173
4 173 186 187 172
4 172 187 188 171
4 171 188 80 0
4 83 84 189 180
4 180 189 190 181
4 181 190 191 182
4 182 191 192 183
4 183 192 193 184
4 184 193 194 185
4 185 194 195 186
4 186 195 196 187
4 187 196 197 188
4 188 197 79 80
4 84 85 198 189
4 189 198 199 190
4 190 199 200 191
4 191 200 201 192
4 192 201 202 193
4 193 202 203 194
4 194 203 204 195
4 195 204 205 196
4 196 205 206 197
4 197 206 78 79
4 85 86 207 198
4 198 207 208 199
4 199 208 209 200
4 200 209 210 201
4 201 210 211 202
4 202 211 212 203
4 203 212 213 204
4 204 213 214 205
4 205 214 215 206
4 206 215 77 78
4 86 87 216 207
4 207 216 217 208
4 208 217 218 209
4 209 218 219 210
4 210 219 220 211
4 211 220 221 212
4 212 221 222 213
4 213 222 223 214
4 214 223 224 215
4 215 224 76 77
4 87 88 225 216
4 216 225 226 217
4 217 226 227 218
4 218 227 228 219
4 219 228 229 220
4 220 229 230 221
4 221 230 231 222
4 222 231 232 223
4 223 232 233 224
4 224 233 75 76
4 88 89 234 225
4 225 234 235 226
4 226 235 236 227
4 227 236 237 228
4 228 237 238 229
4 229 238 239 230
4 230 239 240 231
4 231 240 241 232
4 232 241 242 233
4 233 242 74 75
4 89 90 243 234
4 234 243 244 235
4 235 244 245 236
4 236 245 246 237
4 237 246 247 238
4 238 247 248 239
4 239 248 249 240
4 240 249 250 241
4 241 250 251 242
4 242 251 73 74
4 90 91 252 243
4 243 252 253 244
4 244 253 254 245
4 245 254 255 246
4 246 255 256 247
4 247 256 257 248
4 248 257 258 249
4 249 258 259 250
4 250 259 260 251
4 251 260 72 73
4 91 92 261 252
4 252 261 262 253
4 253 262 263 254
4 254 263 264 255
4 255 264 265 256
4 256 265 266 257
4 257 266 267 258
4 258 267 268 259
4 259 268 269 260
4 260 269 71 72
4 92 93 270 261
4 261 270 271 262
4 262 271 272 263
4 263 272 273 264
4 264 273 274 265
4 265 274 275 266
4 266 275 276 267
4 267 276 277 268
4 268 277 278 269
4 269 278 70 71
4 93 94 279 270
4 270 279 280 271
4 271 280 281 272
4 272 281 282 273
4 273 282 283 274
4 274 283 284 275
4 275 284 285 276
4 276 285 286 277
4 277 286 287 278
4 278 287 69 70
4 94 95 288 279
4 279 288 289 280
4 280 289 290 281
4 281 290 291 282
4 282 291 292 283
4 283 292 293 284
4 284 293 294 285
4 285 294 295 286
4 286 295 296 287
4 287 296 68 69
4 95 96 297 288
4 288 297 298 289
4 289 298 299 290
4 290 299 300 291
4 291 300 301 292
4 292 301 302 293
4 293 302 303 294
4 294 303 304 295
4 295 304 305 296
4 296 305 67 68
4 96 97 306 297
4 297 306 307 298
4 298 307 308 299
4 299 308 309 300
4 300 309 310 301
4 301 310 311 302
4 302 311 312 303
4 303 312 313 304
4 304 313 314 305
4 305 314 66 67
4 97 98 315 306
4 306 315 316 307
4 307 316 317 308
4 308 317 318 309
4 309 318 319 310
4 310 319 320 311
4 311 320 321 312
4 312 321 322 313
4 313 322 323 314
4 314 323 65 66
4 98 99 324 315
4 315 324 325 316
4 316 325 326 317
4 317 326 327 318
4 318 327 328 319
4 319 328 329 320
4 320 329 330 321
4 321 330 331 322
4 322 331 332 323
4 323 332 64 65
4 99 100 333 324
4 324 333 334 325
4 325 334 335 326
4 326 335 336 327
4 327 336 337 328
4 328 337 338 329
4 329 338 339 330
4 330 339 340 331
4 331 340 341 332
4 332 341 63 64
4 100 101 342 333
4 333 342 343 334
4 334 343 344 335
4 335 344 345 336
4 336 345 346 337
4 337 346 347 338
4 338 347 348 339
4 339 348 349 340
4 340 349 350 341
4 341 350 62 63
4 101 102 351 342
4 342 351 352 343
4 343 352 353 344
4 344 353 354 345
4 345 354 355 346
4 346 355 356 347
4 347 356 357 348
4 348 357 358 349
4 349 358 359 350
4 350 359 61 62
4 102 103 360 351
4 351 360 361 352
4 352 361 362 353
4 353 362 363 354
4 354 363 364 355
4 355 364 365 356
4 356 365 366 357
4 357 366 367 358
4 358 367 368 359
4 359 368 60 61
4 103 104 369 360
4 360 369 370 361
4 361 370 371 362
4 362 371 372 363
4 363 372 373 364
4 364 373 374 365
4 365 374 375 366
4 366 375 376 367
4 367 376 377 368
4 368 377 59 60
4 104 105 378 369
4 369 378 379 370
4 370 379 380 371
4 371 380 381 372
4 372 381 382 373
4 373 382 383 374
4 374 383 384 375
4 375 384 385 376
4 376 385 386 377
4 377 386 58 59
4 105 106 387 378
4 378 387 388 379
4 379 388 389 380
4 380 389 390 381
4 381 390 391 382
4 382 391 392 383
4 383 392 393 384
4 384 393 394 385
4 385 394 395 386
4 386 395 57 58
4 106 107 396 387
4 387 396 397 388
4 388 397 398 389
4 389 398 399 390
4 390 399 400 391
4 391 400 401 392
4 392 401 402 393
4 393 402 403 394
4 394 403 404 395
4 395 404 56 57
4 107 108 405 396
4 396 405 406 397
4 397 406 407 398
4 398 407 408 399
4 399 408 409 400
4 400 409 410 401
4 401 410 411 402
4 402 411 412 403
4 403 412 413 404
4 404 413 55 56
4 108 109 414 405
4 405 414 415 406
4 406 415 416 407
4 407 416 417 408
4 408 417 418 409
4 409 418 419 410
4 410 419 420 411
4 411 420 421 412
4 412 421 422 413
4 413 422 54 55
4 109 110 423 414
4 414 423 424 415
4 415 424 425 416
4 416 425 426 417
4 417 426 427 418
4 418 427 428 419
4 419 428 429 420
4 420 429 430 421
4 421 430 431 422
4 422 431 53 54
4 110 111 432 423
4 423 432 433 424
4 424 433 434 425
4 425 434 435 426
4 426 435 436 427
4 427 436 437 428
4 428 437 438 429
4 429 438 439 430
4 430 439 440 431
4 431 440 52 53
4 111 112 441 432
4 432 441 442 433
4 433 442 443 434
4 434 443 444 435
4 435 444 445 436
4 436 445 446 437
4 437 446 447 438
4 438 447 448 439
4 439 448 449 440
4 440 449 51 52
4 112 113 450 441
4 441 450 451 442
4 442 451 452 443
4 443 452 453 444
4 444 453 454 445
4 445 454 455 446
4 446 455 456 447
4 447 456 457 448
4 448 457 458 449
4 449 458 50 51
4 113 114 459 450
4 450 459 460 451
4 451 460 461 452
4 452 461 462 453
4 453 462 463 454
4 454 463 464 455
4 455 464 465 456
4 456 465 466 457
4 457 466 467 458
4 458 467 49 50
4 114 115 468 459
4 459 468 469 460
4 460 469 470 461
4 461 470 471 462
4 462 471 472 463
4 463 472 473 464
4 464 473 474 465
4 465 474 475 466
4 466 475 476 467
4 467 476 48 49
4 115 116 477 468
4 468 477 478 469
4 469 478 479 470
4 470 479 480 471
4 471 480 481 472
4 472 481 482 473
4 473 482 483 474
4 474 483 484 475
4 475 484 485 476
4 476 485 47 48
4 116 117 486 477
4 477 486 487 478
4 478 487 488 479
4 479 488 489 480
4 480 489 490 481
4 481 490 491 482
4 482 491 492 483
4 483 492 493 484
4 484 493 494 485
4 485 494 46 47
4 117 118 495 486
4 486 495 496 487
4 487 496 497 488
4 488 497 498 489
4 489 498 499 490
4 490 499 500 491
4 491 500 501 492
4 492 501 502 493
4 493 502 503 494
4 494 503 45 46
4 118 119 504 495
4 495 504 505 496
4 496 505 506 497
4 497 506 507 498
4 498 507 508 499
4 499 508 509 500
4 500 509 510 501
4 501 510 511 502
4 502 511 512 503
4 503 512 44 45
4 119 120 513 504
4 504 513 514 505
4 505 514 515 506
4 506 515 516 507
4 507 516 517 508
4 508 517 518 509
4 509 518 519 510
4 510 519 520 511
4 511 520 521 512
4 512 521 43 44
4 120 121 522 513
4 513 522 523 514
4 514 523 524 515
4 515 524 525 516
4 516 525 526 517
4 517 526 527 518
4 518 527 528 519
4 519 528 529 520
4 520 529 530 521
4 521 530 42 43
4 121 122 531 522
4 522 531 532 523
4 523 532 533 524
4 524 533 534 525
4 525 534 535 526
4 526 535 536 527
4 527 536 537 528
4 528 537 538 529
4 529 538 539 530
4 530 539 41 42
4 122 123 540 531
4 531 540 541 532
4 532 541 542 533
4 533 542 543 534
4 534 543 544 535
4 535 544 545 536
4 536 545 546 537
4 537 546 547 538
4 538 547 548 539
4 539 548 40 41
4 123 124 549 540
4 540 549 550 541
4 541 550 551 542
4 542 551 552 543
4 543 552 553 544
4 544 553 554 545
4 545 554 555 546
4 546 555 556 547
4 547 556 557 548
4 548 557 39 40
4 124 125 558 549
4 549 558 559 550
4 550 559 560 551
4 551 560 561 552
4 552 561 562 553
4 553 562 563 554
4 554 563 564 555
4 555 564 565 556
4 556 565 566 557
4 557 566 38 39
4 125 126 567 558
4 558 567 568 559
4 559 568 569 560
4 560 569 570 561
4 561 570 571 562
4 562 571 572 563
4 563 572 573 564
4 564 573 574 565
4 565 574 575 566
4 566 575 37 38
4 126 127 576 567
4 567 576 577 568
4 568 577 578 569
4 569 578 579 570
4 570 579 580 571
4 571 580 581 572
4 572 581 582 573
4 573 582 583 574
4 574 583 584 575
4 575 584 36 37
4 127 128 585 576
4 576 585 586 577
4 577 586 587 578
4 578 587 588 579
4 579 588 589 580
4 580 589 590 581
4 581 590 591 582
4 582 591 592 583
4 583 592 593 584
4 584 593 35 36
4 128 129 594 585
4 585 594 595 586
4 586 595 596 587
4 587 596 597 588
4 588 597 598 589
4 589 598 599 590
4 590 599 600 591
4 591 600 601 592
4 592 601 602 593
4 593 602 34 35
4 129 130 603 594
4 594 603 604 595
4 595 604 605 596
4 596 605 606 597
4 597 606 607 598
4 598 607 608 599
4 599 608 609 600
4 600 609 610 601
4 601 610 611 602
4 602 611 33 34
4 130 131 612 603
4 603 612 613 604
4 604 613 614 605
4 605 614 615 606
4 606 615 616 607
4 607 616 617 608
4 608 617 618 609
4 609 618 619 610
4 610 619 620 611
4 611 620 32 33
4 131 132 621 612
4 612 621 622 613
4 613 622 623 614
4 614 623 624 615
4 615 624 625 616
4 616 625 626 617
4 617 626 627 618
4 618 627 628 619
4 619 628 629 620
4 620 629 31 32
4 132 133 630 621
4 621 630 631 622
4 622 631 632 623
4 623 632 633 624
4 624 633 634 625
4 625 634 635 626
4 626 635 636 627
4 627 636 637 628
4 628 637 638 629
4 629 638 30 31
4 133 134 639 630
4 630 639 640 631
4 631 640 641 632
4 632 641 642 633
4 633 642 643 634
4 634 643 644 635
4 635 644 645 636
4 636 645 646 637
4 637 646 647 638
4 638 647 29 30
4 134 135 648 639
4 639 648 649 640
4 640 649 650 641
4 641 650 651 642
4 642 651 652 643
4 643 652 653 644
4 644 653 654 645
4 645 654 655 646
4 646 655 656 647
4 647 656 28 29
4 135 136 657 648
4 648 657 658 649
4 649 658 659 650
4 650 659 660 651
4 651 660 661 652
4 652 661 662 653
4 653 662 663 654
4 654 663 664 655
4 655 664 665 656
4 656 665 27 28
4 136 137 666 657
4 657 666 667 658
4 658 667 668 659
4 659 668 669 660
4 660 669 670 661
4 661 670 671 662
4 662 671 672 663
4 663 672 673 664
4 664 673 674 665
4 665 674 26 27
4 137 138 675 666
4 666 675 676 667
4 667 676 677 668
4 668 677 678 669
4 669 678 679 670
4 670 679 680 671
4 671 680 681 672
4 672 681 682 673
4 673 682 683 674
4 674 683 25 26
4 138 139 684 675
4 675 684 685 676
4 676 685 686 677
4 677 686 687 678
4 678 687 688 679
4 679 688 689 680
4 680 689 690 681
4 681 690 691 682
4 682 691 692 683
4 683 692 24 25
4 139 140 693 684
4 684 693 694 685
4 685 694 695 686
4 686 695 696 687
4 687 696 697 688
4 688 697 698 689
4 689 698 699 690
4 690 699 700 691
4 691 700 701 692
4 692 701 23 24
4 140 141 702 693
4 693 702 703 694
4 694 703 704 695
4 695 704 705 696
4 696 705 706 697
4 697 706 707 698
4 698 707 708 699
4 699 708 709 700
4 700 709 710 701
4 701 710 22 23
4 141 142 711 702
4 702 711 712 703
4 703 712 713 704
4 704 713 714 705
4 705 714 715 706
4 706 715 716 707
4 707 716 717 708
4 708 717 718 709
4 709 718 719 710
4 710 719 21 22
4 142 143 720 711
4 711 720 721 712
4 712 721 722 713
4 713 722 723 714
4 714 723 724 715
4 715 724 725 716
4 716 725 726 717
4 717 726 727 718
4 718 727 728 719
4 719 728 20 21
4 143 144 729 720
4 720 729 730 721
4 721 730 731 722
4 722 731 732 723
4 723 732 733 724
4 724 733 734 725
4 725 734 735 726
4 726 735 736 727
4 727 736 737 728
4 728 737 19 20
4 144 145 738 729
4 729 738 739 730
4 730 739 740 731
4 731 740 741 732
4 732 741 742 733
4 733 742 743 734
4 734 743 744 735
4 735 744 745 736
4 736 745 746 737
4 737 746 18 19
4 145 146 747 738
4 738 747 748 739
4 739 748 749 740
4 740 749 750 741
4 741 750 751 742
4 742 751 752 743
4 743 752 753 744
4 744 753 754 745
4 745 754 755 746
4 746 755 17 18
4 146 147 756 747
4 747 756 757 748
4 748 757 758 749
4 749 758 759 750
4 750 759 760 751
4 751 760 761 752
4 752 761 762 753
4 753 762 763 754
4 754 763 764 755
4 755 764 16 17
4 147 148 765 756
4 756 765 766 757
4 757 766 767 758
4 758 767 768 759
4 759 768 769 760
4 760 769 770 761
4 761 770 771 762
4 762 771 772 763
4 763 772 773 764
4 764 773 15 16
4 148 149 774 765
4 765 774 775 766
4 766 775 776 767
4 767 776 777 768
4 768 777 778 769
4 769 778 779 770
4 770 779 780 771
4 771 780 781 772
4 772 781 782 773
4 773 782 14 15
4 149 150 783 774
4 774 783 784 775
4 775 784 785 776
4 776 785 786 777
4 777 786 787 778
4 778 787 788 779
4 779 788 789 780
4 780 789 790 781
4 781 790 791 782
4 782 791 13 14
4 150 151 792 783
4 783 792 793 784
4 784 793 794 785
4 785 794 795 786
4 786 795 796 787
4 787 796 797 788
4 788 797 798 789
4 789 798 799 790
4 790 799 800 791
4 791 800 12 13
4 151 152 801 792
4 792 801 802 793
4 793 802 803 794
4 794 803 804 795
4 795 804 805 796
4 796 805 806 797
4 797 806 807 798
4 798 807 808 799
4 799 808 809 800
4 800 809 11 12
4 152 153 810 801
4 801 810 811 802
4 802 811 812 803
4 803 812 813 804
4 804 813 814 805
4 805 814 815 806
4 806 815 816 807
4 807 816 817 808
4 808 817 818 809
4 809 818 10 11
4 153 154 819 810
4 810 819 820 811
4 811 820 821 812
4 812 821 822 813
4 813 822 823 814
4 814 823 824 815
4 815 824 825 816
4 816 825 826 817
4 817 826 827 818
4 818 827 9 10
4 154 155 828 819
4 819 828 829 820
4 820 829 830 821
4 821 830 831 822
4 822 831 832 823
4 823 832 833 824
4 824 833 834 825
4 825 834 835 826
4 826 835 836 827
4 827 836 8 9
4 155 156 837 828
4 828 837 838 829
4 829 838 839 830
4 830 839 840 831
4 831 840 841 832
4 832 841 842 833
4 833 842 843 834
4 834 843 844 835
4 835 844 845 836
4 836 845 7 8
4 156 157 846 837
4 837 846 847 838
4 838 847 848 839
4 839 848 849 840
4 840 849 850 841
4 841 850 851 842
4 842 851 852 843
4 843 852 853 844
4 844 853 854 845
4 845 854 6 7
4 157 158 855 846
4 846 855 856 847
4 847 856 857 848
4 848 857 858 849
4 849 858 859 850
4 850 859 860 851
4 851 860 861 852
4 852 861 862 853
4 853 862 863 854
4 854 863 5 6
4 158 159 864 855
4 855 864 865 856
4 856 865 866 857
4 857 866 867 858
4 858 867 868 859
4 859 868 869 860
4 860 869 870 861
4 861 870 871 862
4 862 871 872 863
4 863 872 4 5
4 159 160 873 864
4 864 873 874 865
4 865 874 875 866
4 866 875 876 867
4 867 876 877 868
4 868 877 878 869
4 869 878 879 870
4 870 879 880 871
4 871 880 881 872
4 872 881 3 4
4 160 161 882 873
4 873 882 883 874
4 874 883 884 875
4 875 884 885 876
4 876 885 886 877
4 877 886 887 878
4 878 887 888 879
4 879 888 889 880
4 880 889 890 881
4 881 890 2 3
4 161 81 162 882
4 882 162 163 883
4 883 163 164 884
4 884 164 165 885
4 885 165 166 886
4 886 166 167 887
4 887 167 168 888
4 888 168 169 889
4 889 169 170 890
4 890 170 1 2
CELL_TYPES 800
9
9
9
9
9
9
9
9
9
9
9
9
9
9
9
9
9
9
9
9
9
9
9
9
9
9
9
9
9
9
9
9
9
9
9
9
9
9
9
9
9
9
9
9
9
9
9
9
9
9
9
9
9
9
9
9
9
9
9
9
9
9
9
9
9
9
9
9
9
9
9
9
9
9
9
9
9
9
9
9
9
9
9
9
9
9
9
9
9
9
9
9
9
9
9
9
9
9
9
9
9
9
9
9
9
9
9
9
9
9
9
9
9
9
9
9
9
9
9
9
9
9
9
9
9
9
9
9
9
9
9
9
9
9
9
9
9
9
9
9
9
9
9
9
9
9
9
9
9
9
9
9
9
9
9
9
9
9
9
9
9
9
9
9
9
9
9
9
9
9
9
9
9
9
9
9
9
9
9
9
9
9
9
9
9
9
9
9
9
9
9
9
9
9
9
9
9
9
9
9
9
9
9
9
9
9
9
9
9
9
9
9
9
9
9
9
9
9
9
9
9
9
9
9
9
9
9
9
9
9
9
9
9
9
9
9
9
9
9
9
9
9
9
9
9
9
9
9
9
9
9
9
9
9
9
9
9
9
9
9
9
9
9
9
9
9
9
9
9
9
9
9
9
9
9
9
9
9
9
9
9
9
9
9
9
9
9
9
9
9
9
9
9
9
9
9
9
9
9
9
9
9
9
9
9
9
9
9
9
9
9
9
9
9
9
9
9
9
9
9
9
9
9
9
9
9
9
9
9
9
9
9
9
9
9
9
9
9
9
9
9
9
9
9
9
9
9
9
9
9
9
9
9
9
9
9
9
9
9
9
9
9
9
9
9
9
9
9
9
9
9
9
9
9
9
9
9
9
9
9
9
9
9
9
9
9
9
9
9
9
9
9
9
9
9
9
9
9
9
9
9
9
9
9
9
9
9
9
9
9
9
9
9
9
9
9
9
9
9
9
9
9
9
9
9
9
9
9
9
9
9
9
9
9
9
9
9
9
9
9
9
9
9
9
9
9
9
9
9
9
9
9
9
9
9
9
9
9
9
9
9
9
9
9
9
9
9
9
9
9
9
9
9
9
9
9
9
9
9
9
9
9
9
9
9
9
9
9
9
9
9
9
9
9
9
9
9
9
9
9
9
9
9
9
9
9
9
9
9
9
9
9
9
9
9
9
9
9
9
9
9
9
9
9
9
9
9
9
9
9
9
9
9
9
9
9
9
9
9
9
9
9
9
9
9
9
9
9
9
9
9
9
9
9
9
9
9
9
9
9
9
9
9
9
9
9
9
9
9
9
9
9
9
9
9
9
9
9
9
9
9
9
9
9
9
9
9
9
9
9
9
9
9
9
9
9
9
9
9
9
9
9
9
9
9
9
9
9
9
9
9
9
9
9
9
9
9
9
9
9
9
9
9
9
9
9
9
9
9
9
9
9
9
9
9
9
9
9
9
9
9
9
9
9
9
9
9
9
9
9
9
9
9
9
9
9
9
9
9
9
9
9
9
9
9
9
9
9
9
9
9
9
9
9
9
9
9
9
9
9
9
9
9
9
9
9
9
9
9
9
9
9
9
9
9
9
9
9
9
9
9
9
9
9
9
9
9
9
9
9
9
9
9
9
9
9
9
9
9
9
9
9
9
9
9
9
9
9
9
9
9
9
9
9
9
9
9
9
9
9
9
9
9
9
9
9
9
9
9
9
9
9
9
9
9
9
9
9
9
9
9
9
9
9
9
9
9
9
9
9
9
9
9
9
9
9
9
9
9
9
9
9
9
9
9
9
9
9
9
9
9
9
9
9
9
9
9
9
9
9
POINT_DATA 891
SCALARS u1 float
LOOKUP_TABLE default
4e-18
-7e-07
-7e-07
-7e-07
-7e-07
-7e-07
-7e-07
-7e-07
-7e-07
-7e-07
-7e-07
-7e-07
-7e-07
-7e-07
-7e-07
-7e-07
-7e-07
-7e-07
-7e-07
-7e-07
-7e-07
-7e-07
-7e-07
-7e-07
-7e-07
-7e-07
-7e-07
-7e-07
-7e-07
-7e-07
-7e-07
-7e-07
-7e-07
-7e-07
-7e-07
-7e-07
-7e-07
-7e-07
-7e-07
-7e-07
-7e-07
-7e-07
-7e-07
-7e-07
-7e-07
-7e-07
-7e-07
-7e-07
-7e-07
-7e-07
-7e-07
-7e-07
-7e-07
-7e-07
-7e-07
-7e-07
-7e-07
-7e-07
-7e-07
-7e-07
-7e-07
-7e-07
-7e-07
-7e-07
-7e-07
-7e-07
-7e-07
-7e-07
-7e-07
-7e-07
-7e-07
-7e-07
-7e-07
-7e-07
-7e-07
-7e-07
-7e-07
-7e-07
-7e-07
-7e-07
-6e-07
7e-07
-3e-18
6e-07
7e-07
7e-07
7e-07
7e-07
7e-07
7e-07
7e-07
7e-07
7e-07
7e-07
7e-07
7e-07
7e-07
7e-07
7e-07
7e-07
7e-07
7e-07
7e-07
7e-07
7e-07
7e-07
7e-07
7e-07
7e-07
7e-07
7e-07
7e-07
7e-07
7e-07
7e-07
7e-07
7e-07
7e-07
7e-07
7e-07
7e-07
7e-07
7e-07
7e-07
7e-07
7e-07
7e-07
7e-07
7e-07
7e-07
7e-07
7e-07
7e-07
7e-07
7e-07
7e-07
7e-07
7e-07
7e-07
7e-07
7e-07
7e-07
7e-07
7e-07
7e-07
7e-07
7e-07
7e-07
7e-07
7e-07
7e-07
7e-07
7e-07
7e-07
7e-07
7e-07
7e-07
7e-07
7e-07
7e-07
7e-07
7e-07
6e-07
4e-07
3e-07
1e-07
-2e-14
-1e-07
-3e-07
-4e-07
-6e-07
-3e-19
-2e-18
1e-18
-1e-17
-5e-18
5e-18
1e-18
1e-17
3e-18
4e-07
3e-07
2e-07
9e-08
-1e-14
-9e-08
-2e-07
-3e-07
-4e-07
6e-07
4e-07
3e-07
1e-07
-9e-15
-1e-07
-3e-07
-4e-07
-6e-07
6e-07
4e-07
3e-07
1e-07
-1e-14
-1e-07
-3e-07
-4e-07
-6e-07
6e-07
4e-07
3e-07
1e-07
-1e-14
-1e-07
-3e-07
-4e-07
-6e-07
6e-07
4e-07
3e-07
1e-07
-1e-14
-1e-07
-3e-07
-4e-07
-6e-07
6e-07
4e-07
3e-07
1e-07
-2e-14
-1e-07
-3e-07
-4e-07
-6e-07
6e-07
4e-07
3e-07
1e-07
-2e-14
-1e-07
-3e-07
-4e-07
-6e-07
6e-07
4e-07
3e-07
1e-07
-2e-14
-1e-07
-3e-07
-4e-07
-6e-07
6e-07
4e-07
3e-07
1e-07
-2e-14
-1e-07
-3e-07
-4e-07
-6e-07
6e-07
4e-07
3e-07
1e-07
-2e-14
-1e-07
-3e-07
-4e-07
-6e-07
6e-07
4e-07
3e-07
1e-07
-2e-14
-1e-07
-3e-07
-4e-07
-6e-07
6e-07
4e-07
3e-07
1e-07
-2e-14
-1e-07
-3e-07
-4e-07
-6e-07
6e-07
4e-07
3e-07
1e-07
-2e-14
-1e-07
-3e-07
-4e-07
-6e-07
6e-07
4e-07
3e-07
1e-07
-2e-14
-1e-07
-3e-07
-4e-07
-6e-07
6e-07
4e-07
3e-07
1e-07
-2e-14
-1e-07
-3e-07
-4e-07
-6e-07
6e-07
4e-07
3e-07
1e-07
-2e-14
-1e-07
-3e-07
-4e-07
-6e-07
6e-07
4e-07
3e-07
1e-07
-2e-14
-1e-07
-3e-07
-4e-07
-6e-07
6e-07
4e-07
3e-07
1e-07
-2e-14
-1e-07
-3e-07
-4e-07
-6e-07
6e-07
4e-07
3e-07
1e-07
-2e-14
-1e-07
-3e-07
-4e-07
-6e-07
6e-07
4e-07
3e-07
1e-07
-2e-14
-1e-07
-3e-07
-4e-07
-6e-07
6e-07
4e-07
3e-07
1e-07
-2e-14
-1e-07
-3e-07
-4e-07
-6e-07
6e-07
4e-07
3e-07
1e-07
-2e-14
-1e-07
-3e-07
-4e-07
-6e-07
6e-07
4e-07
3e-07
1e-07
-2e-14
-1e-07
-3e-07
-4e-07
-6e-07
6e-07
4e-07
3e-07
1e-07
-2e-14
-1e-07
-3e-07
-4e-07
-6e-07
6e-07
4e-07
3e-07
1e-07
-2e-14
-1e-07
-3e-07
-4e-07
-6e-07
6e-07
4e-07
3e-07
1e-07
-2e-14
-1e-07
-3e-07
-4e-07
-6e-07
6e-07
4e-07
3e-07
1e-07
-2e-14
-1e-07
-3e-07
-4e-07
-6e-07
6e-07
4e-07
3e-07
1e-07
-2e-14
-1e-07
-3e-07
-4e-07
-6e-07
6e-07
4e-07
3e-07
1e-07
-2e-14
-1e-07
-3e-07
-4e-07
-6e-07
6e-07
4e-07
3e-07
1e-07
-2e-14
-1e-07
-3e-07
-4e-07
-6e-07
6e-07
4e-07
3e-07
1e-07
-2e-14
-1e-07
-3e-07
-4e-07
-6e-07
6e-07
4e-07
3e-07
1e-07
-2e-14
-1e-07
-3e-07
-4e-07
-6e-07
6e-07
4e-07
3e-07
1e-07
-2e-14
-1e-07
-3e-07
-4e-07
-6e-07
6e-07
4e-07
3e-07
1e-07
-2e-14
-1e-07
-3e-07
-4e-07
-6e-07
6e-07
4e-07
3e-07
1e-07
-2e-14
-1e-07
-3e-07
-4e-07
-6e-07
6e-07
4e-07
3e-07
1e-07
-2e-14
-1e-07
-3e-07
-4e-07
-6e-07
6e-07
4e-07
3e-07
1e-07
-2e-14
-1e-07
-3e-07
-4e-07
-6e-07
6e-07
4e-07
3e-07
1e-07
-2e-14
-1e-07
-3e-07
-4e-07
-6e-07
6e-07
4e-07
3e-07
1e-07
-2e-14
-1e-07
-3e-07
-4e-07
-6e-07
6e-07
4e-07
3e-07
1e-07
-2e-14
-1e-07
-3e-07
-4e-07
-6e-07
6e-07
4e-07
3e-07
1e-07
-2e-14
-1e-07
-3e-07
-4e-07
-6e-07
6e-07
4e-07
3e-07
1e-07
-2e-14
-1e-07
-3e-07
-4e-07
-6e-07
6e-07
4e-07
3e-07
1e-07
-2e-14
-1e-07
-3e-07
-4e-07
-6e-07
6e-07
4e-07
3e-07
1e-07
-2e-14
-1e-07
-3e-07
-4e-07
-6e-07
6e-07
4e-07
3e-07
1e-07
-2e-14
-1e-07
-3e-07
-4e-07
-6e-07
6e-07
4e-07
3e-07
1e-07
-2e-14
-1e-07
-3e-07
-4e-07
-6e-07
6e-07
4e-07
3e-07
1e-07
-2e-14
-1e-07
-3e-07
-4e-07
-6e-07
6e-07
4e-07
3e-07
1e-07
-2e-14
-1e-07
-3e-07
-4e-07
-6e-07
6e-07
4e-07
3e-07
1e-07
-2e-14
-1e-07
-3e-07
-4e-07
-6e-07
6e-07
4e-07
3e-07
1e-07
-2e-14
-1e-07
-3e-07
-4e-07
-6e-07
6e-07
4e-07
3e-07
1e-07
-2e-14
-1e-07
-3e-07
-4e-07
-6e-07
6e-07
4e-07
3e-07
1e-07
-2e-14
-1e-07
-3e-07
-4e-07
-6e-07
6e-07
4e-07
3e-07
1e-07
-2e-14
-1e-07
-3e-07
-4e-07
-6e-07
6e-07
4e-07
3e-07
1e-07
-2e-14
-1e-07
-3e-07
-4e-07
-6e-07
6e-07
4e-07
3e-07
1e-07
-2e-14
-1e-07
-3e-07
-4e-07
-6e-07
6e-07
4e-07
3e-07
1e-07
-2e-14
-1e-07
-3e-07
-4e-07
-6e-07
6e-07
4e-07
3e-07
1e-07
-2e-14
-1e-07
-3e-07
-4e-07
-6e-07
6e-07
4e-07
3e-07
1e-07
-2e-14
-1e-07
-3e-07
-4e-07
-6e-07
6e-07
4e-07
3e-07
1e-07
-2e-14
-1e-07
-3e-07
-4e-07
-6e-07
6e-07
4e-07
3e-07
1e-07
-2e-14
-1e-07
-3e-07
-4e-07
-6e-07
6e-07
4e-07
3e-07
1e-07
-2e-14
-1e-07
-3e-07
-4e-07
-6e-07
6e-07
4e-07
3e-07
1e-07
-2e-14
-1e-07
-3e-07
-4e-07
-6e-07
6e-07
4e-07
3e-07
1e-07
-2e-14
-1e-07
-3e-07
-4e-07
-6e-07
6e-07
4e-07
3e-07
1e-07
-2e-14
-1e-07
-3e-07
-4e-07
-6e-07
6e-07
4e-07
3e-07
1e-07
-2e-14
-1e-07
-3e-07
-4e-07
-6e-07
6e-07
4e-07
3e-07
1e-07
-2e-14
-1e-07
-3e-07
-4e-07
-6e-07
6e-07
4e-07
3e-07
1e-07
-2e-14
-1e-07
-3e-07
-4e-07
-6e-07
6e-07
4e-07
3e-07
1e-07
-2e-14
-1e-07
-3e-07
-4e-07
-6e-07
6e-07
4e-07
3e-07
1e-07
-2e-14
-1e-07
-3e-07
-4e-07
-6e-07
6e-07
4e-07
3e-07
1e-07
-2e-14
-1e-07
-3e-07
-4e-07
-6e-07
6e-07
4e-07
3e-07
1e-07
-2e-14
-1e-07
-3e-07
-4e-07
-6e-07
6e-07
4e-07
3e-07
1e-07
-2e-14
-1e-07
-3e-07
-4e-07
-6e-07
6e-07
4e-07
3e-07
1e-07
-2e-14
-1e-07
-3e-07
-4e-07
-6e-07
6e-07
4e-07
3e-07
1e-07
-2e-14
-1e-07
-3e-07
-4e-07
-6e-07
6e-07
4e-07
3e-07
1e-07
-2e-14
-1e-07
-3e-07
-4e-07
-6e-07
6e-07
4e-07
3e-07
1e-07
-2e-14
-1e-07
-3e-07
-4e-07
-6e-07
6e-07
4e-07
3e-07
1e-07
-2e-14
-1e-07
-3e-07
-4e-07
-6e-07
6e-07
4e-07
3e-07
1e-07
-2e-14
-1e-07
-3e-07
-4e-07
-6e-07
6e-07
4e-07
3e-07
1e-07
-2e-14
-1e-07
-3e-07
-4e-07
-6e-07
SCALARS u2 float
LOOKUP_TABLE default
-7e-18
-0.0002
-0.0002
-0.0002
-0.0002
-0.0002
-0.0002
-0.0002
-0.0002
-0.0002
-0.0002
-0.0002
-0.0002
-0.0002
-0.0002
-0.0002
-0.0002
-0.0002
-0.0002
-0.0002
-0.0002
-0.0002
-0.0001
-0.0001
-0.0001
-0.0001
-0.0001
-0.0001
-0.0001
-0.0001
-0.0001
-0.0001
-0.0001
-0.0001
-0.0001
-0.0001
-0.0001
-0.0001
-0.0001
-0.0001
-0.0001
-0.0001
-0.0001
-0.0001
-9e-05
-9e-05
-9e-05
-9e-05
-8e-05
-8e-05
-8e-05
-8e-05
-7e-05
-7e-05
-7e-05
-7e-05
-6e-05
-6e-05
-6e-05
-6e-05
-5e-05
-5e-05
-5e-05
-5e-05
-4e-05
-4e-05
-4e-05
-4e-05
-3e-05
-3e-05
-3e-05
-3e-05
-2e-05
-2e-05
-2e-05
-2e-05
-1e-05
-1e-05
-8e-06
-5e-06
-3e-06
-0.0002
2e-17
-3e-06
-5e-06
-8e-06
-1e-05
-1e-05
-2e-05
-2e-05
-2e-05
-2e-05
-3e-05
-3e-05
-3e-05
-3e-05
-4e-05
-4e-05
-4e-05
-4e-05
-5e-05
-5e-05
-5e-05
-5e-05
-6e-05
-6e-05
-6e-05
-6e-05
-7e-05
-7e-05
-7e-05
-7e-05
-8e-05
-8e-05
-8e-05
-8e-05
-9e-05
-9e-05
-9e-05
-9e-05
-0.0001
-0.0001
-0.0001
-0.0001
-0.0001
-0.0001
-0.0001
-0.0001
-0.0001
-0.0001
-0.0001
-0.0001
-0.0001
-0.0001
-0.0001
-0.0001
-0.0001
-0.0001
-0.0001
-0.0001
-0.0001
-0.0001
-0.0002
-0.0002
-0.0002
-0.0002
-0.0002
-0.0002
-0.0002
-0.0002
-0.0002
-0.0002
-0.0002
-0.0002
-0.0002
-0.0002
-0.0002
-0.0002
-0.0002
-0.0002
-0.0002
-0.0002
-0.0002
-0.0002
-0.0002
-0.0002
-0.0002
-0.0002
-0.0002
-0.0002
-0.0002
-5e-17
5e-18
-2e-18
2e-17
2e-17
2e-17
5e-19
5e-18
1e-17
-3e-06
-2e-06
-2e-06
-2e-06
-2e-06
-2e-06
-2e-06
-2e-06
-3e-06
-5e-06
-5e-06
-5e-06
-5e-06
-5e-06
-5e-06
-5e-06
-5e-06
-5e-06
-8e-06
-8e-06
-8e-06
-8e-06
-8e-06
-8e-06
-8e-06
-8e-06
-8e-06
-1e-05
-1e-05
-1e-05
-1e-05
-1e-05
-1e-05
-1e-05
-1e-05
-1e-05
-1e-05
-1e-05
-1e-05
-1e-05
-1e-05
-1e-05
-1e-05
-1e-05
-1e-05
-2e-05
-2e-05
-2e-05
-2e-05
-2e-05
-2e-05
-2e-05
-2e-05
-2e-05
-2e-05
-2e-05
-2e-05
-2e-05
-2e-05
-2e-05
-2e-05
-2e-05
-2e-05
-2e-05
-2e-05
-2e-05
-2e-05
-2e-05
-2e-05
-2e-05
-2e-05
-2e-05
-2e-05
-2e-05
-2e-05
-2e-05
-2e-05
-2e-05
-2e-05
-2e-05
-2e-05
-3e-05
-3e-05
-3e-05
-3e-05
-3e-05
-3e-05
-3e-05
-3e-05
-3e-05
-3e-05
-3e-05
-3e-05
-3e-05
-3e-05
-3e-05
-3e-05
-3e-05
-3e-05
-3e-05
-3e-05
-3e-05
-3e-05
-3e-05
-3e-05
-3e-05
-3e-05
-3e-05
-3e-05
-3e-05
-3e-05
-3e-05
-3e-05
-3e-05
-3e-05
-3e-05
-3e-05
-4e-05
-4e-05
-4e-05
-4e-05
-4e-05
-4e-05
-4e-05
-4e-05
-4e-05
-4e-05
-4e-05
-4e-05
-4e-05
-4e-05
-4e-05
-4e-05
-4e-05
-4e-05
-4e-05
-4e-05
-4e-05
-4e-05
-4e-05
-4e-05
-4e-05
-4e-05
-4e-05
-4e-05
-4e-05
-4e-05
-4e-05
-4e-05
-4e-05
-4e-05
-4e-05
-4e-05
-5e-05
-5e-05
-5e-05
-5e-05
-5e-05
-5e-05
-5e-05
-5e-05
-5e-05
-5e-05
-5e-05
-5e-05
-5e-05
-5e-05
-5e-05
-5e-05
-5e-05
-5e-05
-5e-05
-5e-05
-5e-05
-5e-05
-5e-05
-5e-05
-5e-05
-5e-05
-5e-05
-5e-05
-5e-05
-5e-05
-5e-05
-5e-05
-5e-05
-5e-05
-5e-05
-5e-05
-6e-05
-6e-05
-6e-05
-6e-05
-6e-05
-6e-05
-6e-05
-6e-05
-6e-05
-6e-05
-6e-05
-6e-05
-6e-05
-6e-05
-6e-05
-6e-05
-6e-05
-6e-05
-6e-05
-6e-05
-6e-05
-6e-05
-6e-05
-6e-05
-6e-05
-6e-05
-6e-05
-6e-05
-6e-05
-6e-05
-6e-05
-6e-05
-6e-05
-6e-05
-6e-05
-6e-05
-7e-05
-7e-05
-7e-05
-7e-05
-7e-05
-7e-05
-7e-05
-7e-05
-7e-05
-7e-05
-7e-05
-7e-05
-7e-05
-7e-05
-7e-05
-7e-05
-7e-05
-7e-05
-7e-05
-7e-05
-7e-05
-7e-05
-7e-05
-7e-05
-7e-05
-7e-05
-7e-05
-7e-05
-7e-05
-7e-05
-7e-05
-7e-05
-7e-05
-7e-05
-7e-05
-7e-05
-8e-05
-8e-05
-8e-05
-8e-05
-8e-05
-8e-05
-8e-05
-8e-05
-8e-05
-8e-05
-8e-05
-8e-05
-8e-05
-8e-05
-8e-05
-8e-05
-8e-05
-8e-05
-8e-05
-8e-05
-8e-05
-8e-05
-8e-05
-8e-05
-8e-05
-8e-05
-8e-05
-8e-05
-8e-05
-8e-05
-8e-05
-8e-05
-8e-05
-8e-05
-8e-05
-8e-05
-9e-05
-9e-05
-9e-05
-9e-05
-9e-05
-9e-05
-9e-05
-9e-05
-9e-05
-9e-05
-9e-05
-9e-05
-9e-05
-9e-05
-9e-05
-9e-05
-9e-05
-9e-05
-9e-05
-9e-05
-9e-05
-9e-05
-9e-05
-9e-05
-9e-05
-9e-05
-9e-05
-9e-05
-9e-05
-9e-05
-9e-05
-9e-05
-9e-05
-9e-05
-9e-05
-9e-05
-0.0001
-0.0001
-0.0001
-0.0001
-0.0001
-0.0001
-0.0001
-0.0001
-0.0001
-0.0001
-0.0001
-0.0001
-0.0001
-0.0001
-0.0001
-0.0001
-0.0001
-0.0001
-0.0001
-0.0001
-0.0001
-0.0001
-0.0001
-0.0001
-0.0001
-0.0001
-0.0001
-0.0001
-0.0001
-0.0001
-0.0001
-0.0001
-0.0001
-0.0001
-0.0001
-0.0001
-0.0001
-0.0001
-0.0001
-0.0001
-0.0001
-0.0001
-0.0001
-0.0001
-0.0001
-0.0001
-0.0001
-0.0001
-0.0001
-0.0001
-0.0001
-0.0001
-0.0001
-0.0001
-0.0001
-0.0001
-0.0001
-0.0001
-0.0001
-0.0001
-0.0001
-0.0001
-0.0001
-0.0001
-0.0001
-0.0001
-0.0001
-0.0001
-0.0001
-0.0001
-0.0001
-0.0001
-0.0001
-0.0001
-0.0001
-0.0001
-0.0001
-0.0001
-0.0001
-0.0001
-0.0001
-0.0001
-0.0001
-0.0001
-0.0001
-0.0001
-0.0001
-0.0001
-0.0001
-0.0001
-0.0001
-0.0001
-0.0001
-0.0001
-0.0001
-0.0001
-0.0001
-0.0001
-0.0001
-0.0001
-0.0001
-0.0001
-0.0001
-0.0001
-0.0001
-0.0001
-0.0001
-0.0001
-0.0001
-0.0001
-0.0001
-0.0001
-0.0001
-0.0001
-0.0001
-0.0001
-0.0001
-0.0001
-0.0001
-0.0001
-0.0001
-0.0001
-0.0001
-0.0001
-0.0001
-0.0001
-0.0001
-0.0001
-0.0001
-0.0001
-0.0001
-0.0001
-0.0001
-0.0001
-0.0001
-0.0001
-0.0001
-0.0001
-0.0001
-0.0001
-0.0001
-0.0001
-0.0001
-0.0001
-0.0001
-0.0001
-0.0001
-0.0001
-0.0001
-0.0001
-0.0001
-0.0001
-0.0001
-0.0001
-0.0001
-0.0001
-0.0001
-0.0001
-0.0001
-0.0001
-0.0001
-0.0001
-0.0001
-0.0001
-0.0001
-0.0001
-0.0001
-0.0001
-0.0001
-0.0001
-0.0001
-0.0001
-0.0001
-0.0001
-0.0001
-0.0001
-0.0001
-0.0001
-0.0001
-0.0001
-0.0001
-0.0001
-0.0001
-0.0001
-0.0001
-0.0001
-0.0001
-0.0001
-0.0001
-0.0001
-0.0001
-0.0001
-0.0001
-0.0001
-0.0001
-0.0001
-0.0001
-0.0001
-0.0002
-0.0002
-0.0002
-0.0002
-0.0002
-0.0002
-0.0002
-0.0002
-0.0002
-0.0002
-0.0002
-0.0002
-0.0002
-0.0002
-0.0002
-0.0002
-0.0002
-0.0002
-0.0002
-0.0002
-0.0002
-0.0002
-0.0002
-0.0002
-0.0002
-0.0002
-0.0002
-0.0002
-0.0002
-0.0002
-0.0002
-0.0002
-0.0002
-0.0002
-0.0002
-0.0002
-0.0002
-0.0002
-0.0002
-0.0002
-0.0002
-0.0002
-0.0002
-0.0002
-0.0002
-0.0002
-0.0002
-0.0002
-0.0002
-0.0002
-0.0002
-0.0002
-0.0002
-0.0002
-0.0002
-0.0002
-0.0002
-0.0002
-0.0002
-0.0002
-0.0002
-0.0002
-0.0002
-0.0002
-0.0002
-0.0002
-0.0002
-0.0002
-0.0002
-0.0002
-0.0002
-0.0002
-0.0002
-0.0002
-0.0002
-0.0002
-0.0002
-0.0002
-0.0002
-0.0002
-0.0002
-0.0002
-0.0002
-0.0002
-0.0002
-0.0002
-0.0002
-0.0002
-0.0002
-0.0002
-0.0002
-0.0002
-0.0002
-0.0002
-0.0002
-0.0002
-0.0002
-0.0002
-0.0002
-0.0002
-0.0002
-0.0002
-0.0002
-0.0002
-0.0002
-0.0002
-0.0002
-0.0002
-0.0002
-0.0002
-0.0002
-0.0002
-0.0002
-0.0002
-0.0002
-0.0002
-0.0002
-0.0002
-0.0002
-0.0002
-0.0002
-0.0002
-0.0002
-0.0002
-0.0002
-0.0002
-0.0002
-0.0002
-0.0002
-0.0002
-0.0002
-0.0002
-0.0002
-0.0002
-0.0002
-0.0002
-0.0002
-0.0002
-0.0002
-0.0002
-0.0002
-0.0002
-0.0002
-0.0002
-0.0002
-0.0002
-0.0002
-0.0002
-0.0002
-0.0002
-0.0002
-0.0002
-0.0002
-0.0002
-0.0002
-0.0002
-0.0002
-0.0002
-0.0002
-0.0002
-0.0002
-0.0002
-0.0002
-0.0002
-0.0002
-0.0002
-0.0002
-0.0002
-0.0002
-0.0002
-0.0002
-0.0002
-0.0002
-0.0002
-0.0002
-0.0002
-0.0002
-0.0002
-0.0002
-0.0002
SCALARS strain_1 float
LOOKUP_TABLE default
-0.000053
-0.084142
-0.082869
-0.081590
-0.080305
-0.079014
-0.077718
-0.076417
-0.075111
-0.073800
-0.072485
-0.071166
-0.069844
-0.068519
-0.067190
-0.065860
-0.064527
-0.063194
-0.061859
-0.060523
-0.059188
-0.057853
-0.056519
-0.055187
-0.053856
-0.052528
-0.051203
-0.049881
-0.048564
-0.047251
-0.045944
-0.044642
-0.043347
-0.042060
-0.040779
-0.039507
-0.038245
-0.036991
-0.035748
-0.034516
-0.033296
-0.032087
-0.030892
-0.029710
-0.028542
-0.027389
-0.026251
-0.025129
-0.024024
-0.022936
-0.021865
-0.020814
-0.019781
-0.018768
-0.017776
-0.016804
-0.015853
-0.014924
-0.014017
-0.013134
-0.012273
-0.011436
-0.010623
-0.009834
-0.009071
-0.008332
-0.007618
-0.006930
-0.006268
-0.005632
-0.005023
-0.004439
-0.003882
-0.003352
-0.002847
-0.002370
-0.001919
-0.001494
-0.001095
-0.000722
-0.000374
-0.084216
-0.000002
-0.000325
-0.000673
-0.001047
-0.001447
-0.001873
-0.002326
-0.002804
-0.003310
-0.003842
-0.004400
-0.004985
-0.005596
-0.006234
-0.006897
-0.007586
-0.008302
-0.009042
-0.009808
-0.010598
-0.011413
-0.012252
-0.013114
-0.014000
-0.014908
-0.015839
-0.016792
-0.017765
-0.018760
-0.019775
-0.020809
-0.021863
-0.022935
-0.024025
-0.025132
-0.026256
-0.027396
-0.028551
-0.029721
-0.030905
-0.032103
-0.033313
-0.034535
-0.035770
-0.037014
-0.038269
-0.039534
-0.040808
-0.042090
-0.043379
-0.044676
-0.045979
-0.047289
-0.048603
-0.049922
-0.051245
-0.052572
-0.053902
-0.055234
-0.056568
-0.057904
-0.059240
-0.060577
-0.061914
-0.063250
-0.064585
-0.065919
-0.067250
-0.068580
-0.069907
-0.071230
-0.072550
-0.073866
-0.075179
-0.076486
-0.077788
-0.079086
-0.080377
-0.081663
-0.082943
-0.084209
-0.084202
-0.084195
-0.084187
-0.084180
-0.084173
-0.084165
-0.084157
-0.084149
-0.000043
-0.000034
-0.000026
-0.000019
-0.000013
-0.000009
-0.000006
-0.000003
-0.000002
-0.000325
-0.000326
-0.000328
-0.000331
-0.000336
-0.000341
-0.000348
-0.000356
-0.000365
-0.000672
-0.000674
-0.000676
-0.000679
-0.000683
-0.000689
-0.000695
-0.000703
-0.000712
-0.001047
-0.001047
-0.001049
-0.001052
-0.001057
-0.001062
-0.001069
-0.001076
-0.001085
-0.001446
-0.001447
-0.001449
-0.001452
-0.001456
-0.001461
-0.001468
-0.001475
-0.001484
-0.001873
-0.001873
-0.001875
-0.001878
-0.001882
-0.001887
-0.001893
-0.001900
-0.001909
-0.002325
-0.002325
-0.002327
-0.002330
-0.002333
-0.002339
-0.002345
-0.002352
-0.002360
-0.002804
-0.002804
-0.002805
-0.002808
-0.002812
-0.002817
-0.002823
-0.002830
-0.002838
-0.003309
-0.003309
-0.003310
-0.003313
-0.003316
-0.003321
-0.003327
-0.003334
-0.003342
-0.003841
-0.003840
-0.003842
-0.003844
-0.003848
-0.003852
-0.003858
-0.003865
-0.003873
-0.004399
-0.004399
-0.004400
-0.004402
-0.004405
-0.004410
-0.004415
-0.004422
-0.004430
-0.004984
-0.004983
-0.004984
-0.004986
-0.004990
-0.004994
-0.005000
-0.005006
-0.005014
-0.005595
-0.005594
-0.005595
-0.005597
-0.005600
-0.005604
-0.005610
-0.005616
-0.005624
-0.006232
-0.006231
-0.006232
-0.006234
-0.006237
-0.006241
-0.006246
-0.006252
-0.006260
-0.006895
-0.006895
-0.006895
-0.006897
-0.006900
-0.006904
-0.006909
-0.006915
-0.006922
-0.007585
-0.007584
-0.007585
-0.007586
-0.007588
-0.007592
-0.007597
-0.007603
-0.007610
-0.008300
-0.008299
-0.008299
-0.008300
-0.008303
-0.008306
-0.008311
-0.008317
-0.008324
-0.009040
-0.009039
-0.009039
-0.009040
-0.009042
-0.009046
-0.009051
-0.009056
-0.009063
-0.009805
-0.009804
-0.009804
-0.009805
-0.009808
-0.009811
-0.009815
-0.009820
-0.009827
-0.010596
-0.010594
-0.010594
-0.010595
-0.010597
-0.010600
-0.010604
-0.010609
-0.010616
-0.011410
-0.011409
-0.011408
-0.011409
-0.011411
-0.011414
-0.011418
-0.011423
-0.011429
-0.012249
-0.012247
-0.012247
-0.012247
-0.012249
-0.012252
-0.012256
-0.012260
-0.012266
-0.013111
-0.013110
-0.013109
-0.013110
-0.013111
-0.013113
-0.013117
-0.013121
-0.013127
-0.013997
-0.013995
-0.013994
-0.013995
-0.013996
-0.013998
-0.014001
-0.014006
-0.014011
-0.014905
-0.014903
-0.014902
-0.014902
-0.014903
-0.014906
-0.014909
-0.014913
-0.014918
-0.015836
-0.015834
-0.015833
-0.015833
-0.015833
-0.015835
-0.015838
-0.015842
-0.015847
-0.016788
-0.016786
-0.016785
-0.016785
-0.016785
-0.016787
-0.016790
-0.016793
-0.016798
-0.017762
-0.017760
-0.017758
-0.017758
-0.017758
-0.017760
-0.017762
-0.017766
-0.017770
-0.018757
-0.018754
-0.018752
-0.018752
-0.018752
-0.018754
-0.018756
-0.018759
-0.018763
-0.019771
-0.019769
-0.019767
-0.019766
-0.019767
-0.019768
-0.019770
-0.019773
-0.019777
-0.020806
-0.020803
-0.020801
-0.020800
-0.020800
-0.020801
-0.020803
-0.020806
-0.020809
-0.021859
-0.021856
-0.021854
-0.021853
-0.021853
-0.021854
-0.021855
-0.021858
-0.021861
-0.022931
-0.022928
-0.022926
-0.022924
-0.022924
-0.022925
-0.022926
-0.022928
-0.022932
-0.024021
-0.024018
-0.024016
-0.024014
-0.024013
-0.024014
-0.024015
-0.024017
-0.024020
-0.025128
-0.025125
-0.025122
-0.025121
-0.025120
-0.025120
-0.025121
-0.025123
-0.025125
-0.026251
-0.026248
-0.026246
-0.026244
-0.026243
-0.026243
-0.026244
-0.026245
-0.026248
-0.027391
-0.027388
-0.027385
-0.027383
-0.027382
-0.027382
-0.027382
-0.027384
-0.027386
-0.028547
-0.028543
-0.028540
-0.028538
-0.028537
-0.028536
-0.028536
-0.028537
-0.028539
-0.029716
-0.029712
-0.029709
-0.029707
-0.029706
-0.029705
-0.029705
-0.029706
-0.029707
-0.030900
-0.030897
-0.030893
-0.030891
-0.030889
-0.030888
-0.030888
-0.030889
-0.030890
-0.032098
-0.032094
-0.032091
-0.032088
-0.032086
-0.032085
-0.032084
-0.032085
-0.032086
-0.033308
-0.033304
-0.033300
-0.033298
-0.033296
-0.033294
-0.033294
-0.033293
-0.033295
-0.034530
-0.034526
-0.034523
-0.034520
-0.034517
-0.034516
-0.034515
-0.034515
-0.034515
-0.035764
-0.035760
-0.035756
-0.035753
-0.035751
-0.035749
-0.035748
-0.035747
-0.035747
-0.037009
-0.037005
-0.037001
-0.036998
-0.036995
-0.036993
-0.036992
-0.036991
-0.036991
-0.038264
-0.038260
-0.038256
-0.038252
-0.038249
-0.038247
-0.038246
-0.038245
-0.038244
-0.039529
-0.039524
-0.039520
-0.039516
-0.039513
-0.039511
-0.039509
-0.039508
-0.039508
-0.040802
-0.040798
-0.040793
-0.040790
-0.040786
-0.040784
-0.040782
-0.040781
-0.040780
-0.042084
-0.042079
-0.042075
-0.042071
-0.042068
-0.042065
-0.042063
-0.042061
-0.042060
-0.043374
-0.043369
-0.043364
-0.043360
-0.043357
-0.043354
-0.043352
-0.043349
-0.043348
-0.044670
-0.044666
-0.044661
-0.044657
-0.044653
-0.044650
-0.044647
-0.044645
-0.044643
-0.045974
-0.045969
-0.045964
-0.045960
-0.045956
-0.045952
-0.045950
-0.045947
-0.045945
-0.047283
-0.047278
-0.047273
-0.047268
-0.047264
-0.047261
-0.047258
-0.047255
-0.047253
-0.048597
-0.048592
-0.048587
-0.048582
-0.048578
-0.048574
-0.048571
-0.048568
-0.048566
-0.049916
-0.049911
-0.049906
-0.049901
-0.049897
-0.049893
-0.049889
-0.049886
-0.049883
-0.051239
-0.051234
-0.051229
-0.051224
-0.051219
-0.051215
-0.051212
-0.051208
-0.051205
-0.052566
-0.052560
-0.052555
-0.052550
-0.052546
-0.052541
-0.052538
-0.052534
-0.052531
-0.053896
-0.053890
-0.053885
-0.053879
-0.053875
-0.053870
-0.053866
-0.053863
-0.053859
-0.055228
-0.055222
-0.055217
-0.055211
-0.055206
-0.055202
-0.055198
-0.055194
-0.055190
-0.056562
-0.056556
-0.056550
-0.056545
-0.056540
-0.056535
-0.056531
-0.056527
-0.056523
-0.057898
-0.057892
-0.057886
-0.057880
-0.057875
-0.057870
-0.057865
-0.057861
-0.057857
-0.059234
-0.059228
-0.059222
-0.059216
-0.059211
-0.059206
-0.059201
-0.059197
-0.059192
-0.060571
-0.060564
-0.060558
-0.060553
-0.060548
-0.060542
-0.060537
-0.060532
-0.060528
-0.061907
-0.061901
-0.061895
-0.061890
-0.061884
-0.061878
-0.061873
-0.061868
-0.061864
-0.063243
-0.063237
-0.063231
-0.063225
-0.063219
-0.063214
-0.063209
-0.063203
-0.063198
-0.064579
-0.064572
-0.064566
-0.064560
-0.064554
-0.064548
-0.064543
-0.064538
-0.064532
-0.065912
-0.065906
-0.065899
-0.065893
-0.065887
-0.065882
-0.065876
-0.065871
-0.065865
-0.067244
-0.067238
-0.067231
-0.067225
-0.067219
-0.067213
-0.067207
-0.067201
-0.067196
-0.068574
-0.068567
-0.068560
-0.068554
-0.068548
-0.068542
-0.068536
-0.068530
-0.068524
-0.069900
-0.069893
-0.069887
-0.069880
-0.069874
-0.069868
-0.069862
-0.069856
-0.069850
-0.071224
-0.071217
-0.071210
-0.071204
-0.071197
-0.071191
-0.071185
-0.071178
-0.071172
-0.072544
-0.072537
-0.072530
-0.072524
-0.072517
-0.072511
-0.072504
-0.072498
-0.072491
-0.073860
-0.073853
-0.073846
-0.073839
-0.073833
-0.073826
-0.073820
-0.073813
-0.073807
-0.075172
-0.075165
-0.075158
-0.075151
-0.075144
-0.075138
-0.075131
-0.075124
-0.075118
-0.076479
-0.076472
-0.076465
-0.076458
-0.076452
-0.076445
-0.076438
-0.076431
-0.076424
-0.077782
-0.077775
-0.077768
-0.077761
-0.077754
-0.077747
-0.077740
-0.077732
-0.077726
-0.079079
-0.079072
-0.079065
-0.079058
-0.079051
-0.079043
-0.079036
-0.079029
-0.079022
-0.080371
-0.080363
-0.080356
-0.080349
-0.080342
-0.080334
-0.080327
-0.080320
-0.080313
-0.081656
-0.081649
-0.081642
-0.081635
-0.081627
-0.081620
-0.081613
-0.081605
-0.081598
-0.082936
-0.082929
-0.082921
-0.082914
-0.082907
-0.082900
-0.082892
-0.082884
-0.082877
SCALARS strain_2 float
LOOKUP_TABLE default
0.001109
0.000676
0.000677
0.000678
0.000678
0.000677
0.000676
0.000678
0.000678
0.000678
0.000679
0.000679
0.000679
0.000682
0.000681
0.000681
0.000683
0.000686
0.000686
0.000686
0.000688
0.000690
0.000690
0.000692
0.000695
0.000697
0.000700
0.000701
0.000705
0.000705
0.000709
0.000711
0.000716
0.000719
0.000721
0.000724
0.000730
0.000733
0.000737
0.000741
0.000745
0.000749
0.000755
0.000761
0.000767
0.000772
0.000778
0.000783
0.000790
0.000795
0.000801
0.000808
0.000814
0.000821
0.000828
0.000838
0.000845
0.000855
0.000862
0.000871
0.000879
0.000887
0.000897
0.000907
0.000914
0.000926
0.000935
0.000946
0.000956
0.000968
0.000975
0.000988
0.000999
0.001011
0.001022
0.001036
0.001047
0.001058
0.001072
0.001085
0.001094
0.002110
0.002138
0.002139
0.002140
0.002141
0.002142
0.002144
0.002145
0.002146
0.002146
0.002147
0.002149
0.002154
0.002154
0.002152
0.002156
0.002156
0.002156
0.002159
0.002159
0.002161
0.002160
0.002162
0.002162
0.002162
0.002164
0.002165
0.002166
0.002167
0.002166
0.002166
0.002167
0.002167
0.002167
0.002167
0.002169
0.002168
0.002168
0.002167
0.002169
0.002168
0.002168
0.002167
0.002167
0.002168
0.002166
0.002168
0.002167
0.002165
0.002165
0.002165
0.002163
0.002161
0.002161
0.002161
0.002159
0.002158
0.002158
0.002157
0.002155
0.002154
0.002153
0.002151
0.002149
0.002147
0.002146
0.002144
0.002142
0.002140
0.002139
0.002137
0.002136
0.002134
0.002132
0.002129
0.002126
0.002122
0.002120
0.002119
0.002116
0.002114
0.001968
0.001824
0.001681
0.001538
0.001394
0.001251
0.001107
0.000964
0.000820
0.001210
0.001316
0.001418
0.001520
0.001623
0.001726
0.001830
0.001931
0.002035
0.002034
0.001931
0.001826
0.001722
0.001618
0.001514
0.001410
0.001304
0.001202
0.002035
0.001929
0.001824
0.001717
0.001612
0.001507
0.001401
0.001295
0.001190
0.002034
0.001927
0.001821
0.001713
0.001607
0.001499
0.001392
0.001284
0.001176
0.002034
0.001926
0.001817
0.001709
0.001601
0.001493
0.001383
0.001276
0.001169
0.002036
0.001925
0.001815
0.001704
0.001595
0.001486
0.001377
0.001265
0.001158
0.002034
0.001923
0.001813
0.001701
0.001589
0.001479
0.001367
0.001256
0.001147
0.002035
0.001922
0.001810
0.001698
0.001585
0.001472
0.001362
0.001247
0.001136
0.002035
0.001920
0.001808
0.001695
0.001578
0.001466
0.001353
0.001239
0.001125
0.002034
0.001920
0.001805
0.001689
0.001575
0.001460
0.001345
0.001230
0.001114
0.002035
0.001918
0.001804
0.001686
0.001569
0.001452
0.001337
0.001222
0.001104
0.002035
0.001918
0.001799
0.001682
0.001566
0.001447
0.001330
0.001212
0.001095
0.002034
0.001914
0.001797
0.001678
0.001560
0.001442
0.001322
0.001203
0.001086
0.002034
0.001916
0.001795
0.001676
0.001556
0.001435
0.001316
0.001198
0.001075
0.002034
0.001914
0.001793
0.001672
0.001552
0.001431
0.001309
0.001187
0.001066
0.002035
0.001912
0.001790
0.001670
0.001547
0.001424
0.001301
0.001180
0.001057
0.002034
0.001911
0.001790
0.001666
0.001542
0.001417
0.001295
0.001170
0.001048
0.002035
0.001909
0.001785
0.001662
0.001539
0.001412
0.001288
0.001165
0.001040
0.002034
0.001909
0.001784
0.001659
0.001533
0.001407
0.001281
0.001157
0.001032
0.002033
0.001907
0.001781
0.001655
0.001527
0.001402
0.001277
0.001150
0.001023
0.002035
0.001907
0.001779
0.001651
0.001525
0.001397
0.001271
0.001141
0.001015
0.002034
0.001904
0.001776
0.001650
0.001518
0.001392
0.001264
0.001134
0.001007
0.002034
0.001903
0.001774
0.001645
0.001516
0.001388
0.001256
0.001129
0.000999
0.002033
0.001905
0.001773
0.001643
0.001513
0.001383
0.001252
0.001122
0.000991
0.002033
0.001901
0.001770
0.001640
0.001508
0.001379
0.001247
0.001116
0.000985
0.002034
0.001901
0.001768
0.001636
0.001505
0.001372
0.001240
0.001110
0.000977
0.002033
0.001899
0.001767
0.001634
0.001500
0.001368
0.001236
0.001103
0.000969
0.002032
0.001899
0.001765
0.001630
0.001498
0.001363
0.001231
0.001097
0.000963
0.002031
0.001897
0.001763
0.001627
0.001495
0.001360
0.001226
0.001090
0.000956
0.002032
0.001897
0.001760
0.001626
0.001491
0.001356
0.001221
0.001085
0.000949
0.002031
0.001893
0.001760
0.001623
0.001488
0.001351
0.001216
0.001079
0.000944
0.002032
0.001894
0.001759
0.001620
0.001485
0.001348
0.001211
0.001074
0.000937
0.002030
0.001894
0.001755
0.001618
0.001482
0.001345
0.001207
0.001070
0.000931
0.002030
0.001893
0.001754
0.001616
0.001478
0.001342
0.001202
0.001065
0.000926
0.002029
0.001892
0.001753
0.001616
0.001477
0.001336
0.001199
0.001059
0.000920
0.002029
0.001890
0.001750
0.001612
0.001472
0.001332
0.001195
0.001054
0.000915
0.002028
0.001889
0.001749
0.001610
0.001470
0.001331
0.001190
0.001050
0.000910
0.002026
0.001889
0.001748
0.001606
0.001467
0.001327
0.001186
0.001047
0.000906
0.002025
0.001888
0.001747
0.001604
0.001465
0.001323
0.001182
0.001042
0.000900
0.002027
0.001886
0.001743
0.001604
0.001462
0.001320
0.001178
0.001039
0.000896
0.002026
0.001886
0.001742
0.001601
0.001459
0.001318
0.001176
0.001034
0.000893
0.002026
0.001884
0.001740
0.001599
0.001458
0.001316
0.001172
0.001030
0.000889
0.002025
0.001884
0.001740
0.001598
0.001456
0.001312
0.001169
0.001025
0.000884
0.002024
0.001880
0.001738
0.001596
0.001453
0.001308
0.001166
0.001023
0.000880
0.002025
0.001879
0.001736
0.001593
0.001451
0.001307
0.001163
0.001020
0.000876
0.002023
0.001880
0.001735
0.001591
0.001447
0.001301
0.001161
0.001016
0.000872
0.002022
0.001878
0.001733
0.001590
0.001444
0.001302
0.001156
0.001013
0.000868
0.002022
0.001877
0.001731
0.001588
0.001445
0.001298
0.001154
0.001012
0.000866
0.002022
0.001875
0.001730
0.001586
0.001440
0.001296
0.001152
0.001008
0.000863
0.002018
0.001876
0.001729
0.001585
0.001439
0.001294
0.001151
0.001003
0.000860
0.002019
0.001872
0.001728
0.001583
0.001438
0.001293
0.001149
0.001002
0.000857
0.002018
0.001872
0.001727
0.001581
0.001436
0.001291
0.001145
0.000999
0.000855
0.002017
0.001872
0.001726
0.001579
0.001434
0.001288
0.001144
0.000998
0.000851
0.002016
0.001870
0.001723
0.001577
0.001434
0.001286
0.001140
0.000996
0.000850
0.002014
0.001867
0.001723
0.001576
0.001431
0.001284
0.001139
0.000993
0.000847
0.002013
0.001868
0.001721
0.001574
0.001429
0.001283
0.001138
0.000991
0.000847
0.002011
0.001866
0.001720
0.001572
0.001428
0.001281
0.001135
0.000988
0.000843
0.002011
0.001865
0.001718
0.001571
0.001426
0.001279
0.001135
0.000987
0.000841
0.002009
0.001863
0.001716
0.001570
0.001424
0.001278
0.001131
0.000984
0.000840
0.002006
0.001862
0.001714
0.001567
0.001424
0.001278
0.001129
0.000985
0.000837
0.002007
0.001861
0.001713
0.001566
0.001421
0.001275
0.001128
0.000983
0.000836
0.002004
0.001858
0.001712
0.001566
0.001421
0.001273
0.001127
0.000980
0.000833
0.002003
0.001857
0.001711
0.001564
0.001417
0.001272
0.001126
0.000980
0.000833
0.002001
0.001854
0.001710
0.001563
0.001417
0.001270
0.001123
0.000977
0.000833
0.002000
0.001853
0.001708
0.001561
0.001416
0.001268
0.001124
0.000977
0.000830
0.001998
0.001851
0.001708
0.001560
0.001413
0.001267
0.001122
0.000975
0.000828
0.001997
0.001850
0.001704
0.001560
0.001412
0.001266
0.001122
0.000975
0.000825
0.001995
0.001851
0.001702
0.001556
0.001412
0.001266
0.001119
0.000973
0.000828
0.001993
0.001847
0.001702
0.001555
0.001410
0.001264
0.001117
0.000972
0.000828
0.001991
0.001846
0.001700
0.001555
0.001408
0.001262
0.001117
0.000970
0.000827
0.001989
0.001844
0.001699
0.001552
0.001406
0.001262
0.001117
0.000970
0.000825
0.001987
0.001843
0.001698
0.001550
0.001406
0.001260
0.001113
0.000970
0.000824
0.001984
0.001840
0.001695
0.001550
0.001405
0.001258
0.001115
0.000969
0.000824
0.001983
0.001839
0.001693
0.001549
0.001403
0.001258
0.001115
0.000967
0.000824
0.001980
0.001837
0.001692
0.001547
0.001404
0.001258
0.001111
0.000967
0.000823
0.001979
0.001835
0.001690
0.001546
0.001400
0.001255
0.001111
0.000968
0.000820
0.001977
0.001833
0.001689
0.001544
0.001399
0.001256
0.001110
0.000966
0.000822
0.001974
0.001831
0.001686
0.001541
0.001399
0.001253
0.001110
0.000967
0.000821
0.001972
0.001828
0.001685
0.001541
0.001396
0.001253
0.001108
0.000966
0.000820
0.001970
0.001825
0.001684
0.001538
0.001394
0.001252
0.001108
0.000965
0.000821
SCALARS strain_3 float
LOOKUP_TABLE default
0.000427
0.027704
0.027313
0.026920
0.026525
0.026127
0.025728
0.025328
0.024926
0.024520
0.024115
0.023707
0.023298
0.022888
0.022477
0.022063
0.021650
0.021236
0.020821
0.020406
0.019990
0.019574
0.019157
0.018740
0.018324
0.017908
0.017493
0.017077
0.016662
0.016249
0.015837
0.015427
0.015017
0.014608
0.014202
0.013799
0.013396
0.012997
0.012599
0.012205
0.011814
0.011424
0.011040
0.010659
0.010282
0.009907
0.009536
0.009171
0.008809
0.008453
0.008102
0.007755
0.007414
0.007077
0.006746
0.006422
0.006104
0.005790
0.005483
0.005183
0.004890
0.004603
0.004322
0.004050
0.003783
0.003524
0.003273
0.003028
0.002793
0.002564
0.002342
0.002129
0.001922
0.001724
0.001535
0.001353
0.001179
0.001013
0.000854
0.000703
0.000561
0.026989
-0.000228
-0.000099
0.000038
0.000184
0.000338
0.000498
0.000669
0.000844
0.001030
0.001223
0.001424
0.001633
0.001850
0.002076
0.002308
0.002548
0.002797
0.003052
0.003316
0.003585
0.003862
0.004146
0.004437
0.004735
0.005040
0.005350
0.005668
0.005989
0.006318
0.006654
0.006993
0.007338
0.007690
0.008044
0.008405
0.008770
0.009139
0.009512
0.009889
0.010271
0.010656
0.011044
0.011435
0.011829
0.012227
0.012627
0.013030
0.013433
0.013840
0.014248
0.014659
0.015071
0.015484
0.015899
0.016314
0.016730
0.017147
0.017564
0.017982
0.018400
0.018819
0.019236
0.019653
0.020071
0.020486
0.020903
0.021318
0.021733
0.022146
0.022558
0.022969
0.023380
0.023786
0.024194
0.024600
0.025001
0.025404
0.025802
0.026199
0.026596
0.027060
0.027132
0.027203
0.027275
0.027346
0.027418
0.027490
0.027562
0.027633
0.000360
0.000293
0.000227
0.000161
0.000095
0.000030
-0.000035
-0.000099
-0.000164
-0.000033
0.000031
0.000095
0.000162
0.000228
0.000294
0.000360
0.000427
0.000494
0.000103
0.000169
0.000234
0.000301
0.000367
0.000435
0.000501
0.000568
0.000636
0.000248
0.000315
0.000381
0.000448
0.000515
0.000582
0.000650
0.000717
0.000786
0.000402
0.000469
0.000536
0.000603
0.000670
0.000738
0.000806
0.000875
0.000943
0.000565
0.000631
0.000699
0.000765
0.000834
0.000902
0.000971
0.001040
0.001109
0.000734
0.000802
0.000869
0.000937
0.001005
0.001073
0.001144
0.001213
0.001283
0.000911
0.000980
0.001048
0.001117
0.001185
0.001255
0.001324
0.001394
0.001465
0.001098
0.001166
0.001234
0.001304
0.001373
0.001443
0.001513
0.001583
0.001654
0.001292
0.001359
0.001429
0.001498
0.001568
0.001639
0.001710
0.001779
0.001852
0.001493
0.001562
0.001632
0.001701
0.001772
0.001844
0.001914
0.001984
0.002057
0.001703
0.001772
0.001843
0.001913
0.001983
0.002056
0.002126
0.002198
0.002270
0.001921
0.001992
0.002062
0.002132
0.002203
0.002274
0.002346
0.002419
0.002491
0.002146
0.002216
0.002287
0.002359
0.002430
0.002502
0.002575
0.002647
0.002719
0.002378
0.002449
0.002521
0.002593
0.002665
0.002737
0.002810
0.002883
0.002954
0.002620
0.002691
0.002762
0.002836
0.002907
0.002979
0.003052
0.003126
0.003200
0.002868
0.002940
0.003012
0.003084
0.003157
0.003230
0.003303
0.003376
0.003451
0.003124
0.003196
0.003268
0.003342
0.003415
0.003487
0.003561
0.003634
0.003710
0.003387
0.003460
0.003533
0.003605
0.003678
0.003751
0.003826
0.003900
0.003974
0.003657
0.003731
0.003803
0.003877
0.003951
0.004024
0.004098
0.004173
0.004247
0.003936
0.004008
0.004081
0.004155
0.004229
0.004303
0.004377
0.004452
0.004527
0.004220
0.004293
0.004367
0.004440
0.004515
0.004589
0.004663
0.004738
0.004814
0.004510
0.004584
0.004658
0.004732
0.004807
0.004881
0.004956
0.005031
0.005108
0.004808
0.004883
0.004957
0.005032
0.005105
0.005181
0.005256
0.005331
0.005408
0.005113
0.005187
0.005261
0.005337
0.005411
0.005487
0.005562
0.005637
0.005713
0.005424
0.005498
0.005572
0.005648
0.005723
0.005798
0.005874
0.005951
0.006027
0.005741
0.005816
0.005890
0.005966
0.006041
0.006116
0.006192
0.006269
0.006345
0.006063
0.006139
0.006214
0.006289
0.006365
0.006441
0.006518
0.006594
0.006670
0.006393
0.006469
0.006543
0.006619
0.006694
0.006771
0.006847
0.006924
0.007001
0.006728
0.006804
0.006878
0.006954
0.007030
0.007107
0.007182
0.007260
0.007336
0.007068
0.007143
0.007219
0.007296
0.007370
0.007446
0.007523
0.007601
0.007677
0.007413
0.007489
0.007565
0.007640
0.007717
0.007794
0.007871
0.007946
0.008025
0.007765
0.007840
0.007916
0.007992
0.008067
0.008144
0.008221
0.008299
0.008376
0.008120
0.008195
0.008272
0.008348
0.008425
0.008500
0.008578
0.008655
0.008732
0.008480
0.008556
0.008631
0.008708
0.008785
0.008862
0.008938
0.009016
0.009093
0.008845
0.008920
0.008997
0.009074
0.009150
0.009227
0.009303
0.009382
0.009460
0.009214
0.009290
0.009367
0.009444
0.009520
0.009597
0.009674
0.009750
0.009829
0.009588
0.009664
0.009741
0.009818
0.009894
0.009971
0.010048
0.010125
0.010203
0.009966
0.010042
0.010118
0.010195
0.010272
0.010348
0.010425
0.010503
0.010580
0.010347
0.010425
0.010501
0.010576
0.010653
0.010730
0.010807
0.010884
0.010963
0.010731
0.010809
0.010885
0.010961
0.011038
0.011114
0.011193
0.011270
0.011347
0.011120
0.011196
0.011272
0.011350
0.011426
0.011503
0.011580
0.011659
0.011736
0.011511
0.011588
0.011665
0.011741
0.011819
0.011895
0.011973
0.012049
0.012127
0.011906
0.011983
0.012058
0.012135
0.012213
0.012290
0.012367
0.012444
0.012521
0.012303
0.012378
0.012456
0.012533
0.012610
0.012687
0.012764
0.012841
0.012919
0.012703
0.012780
0.012857
0.012932
0.013009
0.013086
0.013164
0.013241
0.013318
0.013105
0.013182
0.013259
0.013335
0.013412
0.013489
0.013566
0.013642
0.013721
0.013510
0.013587
0.013662
0.013739
0.013817
0.013894
0.013970
0.014047
0.014125
0.013918
0.013993
0.014070
0.014146
0.014223
0.014300
0.014377
0.014454
0.014532
0.014325
0.014401
0.014478
0.014555
0.014632
0.014709
0.014785
0.014863
0.014939
0.014734
0.014811
0.014888
0.014963
0.015041
0.015118
0.015195
0.015272
0.015349
0.015147
0.015224
0.015299
0.015377
0.015453
0.015529
0.015607
0.015683
0.015761
0.015561
0.015636
0.015713
0.015789
0.015865
0.015942
0.016019
0.016096
0.016173
0.015975
0.016051
0.016128
0.016203
0.016279
0.016355
0.016432
0.016509
0.016586
0.016390
0.016466
0.016542
0.016618
0.016694
0.016771
0.016846
0.016925
0.017001
0.016806
0.016882
0.016956
0.017034
0.017109
0.017186
0.017262
0.017340
0.017415
0.017223
0.017298
0.017373
0.017450
0.017526
0.017602
0.017679
0.017756
0.017831
0.017640
0.017716
0.017791
0.017867
0.017944
0.018019
0.018096
0.018172
0.018248
0.018056
0.018133
0.018209
0.018284
0.018361
0.018437
0.018513
0.018588
0.018665
0.018474
0.018550
0.018626
0.018701
0.018776
0.018853
0.018929
0.019005
0.019081
0.018893
0.018968
0.019044
0.019119
0.019195
0.019270
0.019347
0.019422
0.019497
0.019312
0.019386
0.019461
0.019537
0.019612
0.019687
0.019762
0.019839
0.019914
0.019729
0.019804
0.019879
0.019953
0.020029
0.020105
0.020179
0.020255
0.020330
0.020144
0.020220
0.020294
0.020368
0.020445
0.020522
0.020595
0.020670
0.020746
0.020562
0.020636
0.020712
0.020786
0.020862
0.020936
0.021011
0.021087
0.021161
0.020978
0.021052
0.021128
0.021203
0.021276
0.021352
0.021426
0.021501
0.021576
0.021392
0.021467
0.021541
0.021616
0.021691
0.021766
0.021841
0.021914
0.021990
0.021807
0.021881
0.021956
0.022030
0.022104
0.022179
0.022253
0.022328
0.022402
0.022220
0.022295
0.022368
0.022443
0.022517
0.022591
0.022665
0.022739
0.022814
0.022631
0.022705
0.022780
0.022854
0.022929
0.023002
0.023075
0.023150
0.023225
0.023043
0.023117
0.023190
0.023264
0.023338
0.023412
0.023486
0.023559
0.023634
0.023452
0.023526
0.023600
0.023673
0.023746
0.023821
0.023894
0.023967
0.024041
0.023860
0.023933
0.024006
0.024080
0.024154
0.024226
0.024300
0.024374
0.024448
0.024267
0.024339
0.024412
0.024487
0.024559
0.024632
0.024706
0.024779
0.024852
0.024671
0.024745
0.024817
0.024891
0.024962
0.025037
0.025109
0.025181
0.025255
0.025074
0.025147
0.025220
0.025293
0.025366
0.025439
0.025511
0.025584
0.025657
0.025476
0.025548
0.025621
0.025694
0.025765
0.025839
0.025911
0.025984
0.026056
0.025876
0.025948
0.026019
0.026092
0.026164
0.026235
0.026309
0.026381
0.026453
0.026273
0.026344
0.026417
0.026488
0.026561
0.026633
0.026705
0.026776
0.026848
0.026667
0.026740
0.026811
0.026883
0.026955
0.027027
0.027098
0.027171
0.027242
SCALARS stress_1 float
LOOKUP_TABLE default
7520.253868
-6396089.234331
-6299265.153228
-6201934.072126
-6104166.991023
-6005960.409921
-5907310.328818
-5808287.247716
-5708872.666613
-5609120.585511
-5509049.004408
-5408663.923306
-5308037.342203
-5207172.761101
-5106092.679998
-5004827.098896
-4903435.517793
-4801915.436691
-4700323.355588
-4598708.774486
-4497066.693383
-4395463.612281
-4293917.531179
-4192491.450076
-4091218.868974
-3990113.287871
-3889261.206769
-3788655.625666
-3688375.544564
-3588449.463461
-3488927.382359
-3389851.801256
-3291277.220154
-3193230.639051
-3095774.557949
-2998950.976846
-2902799.895744
-2807379.314641
-2712756.233539
-2618942.152436
-2525993.571334
-2433991.990231
-2342964.909129
-2252943.328026
-2164011.246924
-2076177.165821
-1989522.084719
-1904090.003616
-1819913.422514
-1737046.341411
-1655558.760309
-1575458.679206
-1496803.598104
-1419650.017001
-1344034.435899
-1269977.854796
-1197568.773694
-1126781.692591
-1057702.611489
-990347.530386
-924769.949284
-860962.868181
-799008.787079
-738907.705976
-680665.124874
-624337.543771
-569946.462669
-517499.881566
-467003.800464
-418528.219361
-372007.138259
-327488.057156
-284986.976054
-244500.394951
-206011.813849
-169548.232747
-135077.651644
-102613.570542
-72138.489439
-43640.408337
-17090.327234
-6386930.757053
22961.231146
-1579.849956
-28060.931059
-56513.012161
-86924.093264
-119353.674366
-153762.755469
-190218.336571
-228659.917674
-269134.998776
-311617.079879
-356126.160981
-402620.742084
-451132.323186
-501624.904289
-554096.485391
-608511.066494
-664867.147596
-723128.728699
-783258.809801
-845291.890904
-909102.472006
-974745.553109
-1042160.634211
-1111295.215314
-1182143.796416
-1254635.377519
-1328766.958621
-1404476.039723
-1481720.620826
-1560439.201928
-1640637.783031
-1722251.864133
-1805181.945236
-1889453.526338
-1974996.607441
-2061745.188543
-2149666.769646
-2238727.850748
-2328844.431851
-2420002.012953
-2512123.594056
-2605181.675158
-2699108.756261
-2793855.837363
-2889394.918466
-2985655.999568
-3082602.580671
-3180199.661773
-3278354.242876
-3377062.823978
-3476275.405081
-3575931.486183
-3675983.567286
-3776391.648388
-3877100.729491
-3978107.810593
-4079316.891696
-4180718.472798
-4282288.553901
-4383966.135003
-4485673.716106
-4587441.297208
-4689196.378311
-4790911.959413
-4892540.040516
-4994050.621618
-5095444.702721
-5196635.783823
-5297630.364926
-5398389.446028
-5498856.527131
-5599069.108233
-5698943.689336
-5798451.270438
-5897583.851541
-5996349.432643
-6094665.013746
-6192557.594848
-6289975.675951
-6387863.204781
-6388822.652509
-6389740.100236
-6390675.547964
-6391616.995692
-6392510.443420
-6393413.391147
-6394318.338875
-6395208.786603
9444.701596
11278.149324
13030.597052
14694.544780
16288.992507
17799.440235
19223.387963
20560.835691
21796.283418
-2754.297684
-4005.745412
-5344.693140
-6774.640867
-8283.088595
-9886.536323
-11558.484051
-13302.431779
-15160.379506
-29250.378787
-30503.326514
-31844.274242
-33267.221970
-34789.669698
-36394.117425
-38084.565153
-39843.012881
-41700.460609
-57683.459889
-58956.907617
-60317.355345
-61734.803072
-63269.750800
-64870.698528
-66564.146256
-68337.093983
-70203.541711
-88119.040992
-89393.488719
-90748.936447
-92173.384175
-93700.331903
-95318.279630
-97031.227358
-98805.175086
-100661.622814
-120531.122094
-121801.569822
-123174.017550
-124608.965277
-126134.413005
-127767.860733
-129464.308461
-131256.256188
-133121.703916
-154970.203196
-156246.150924
-157610.098652
-159054.546380
-160583.994108
-162219.441835
-163908.889563
-165714.337291
-167588.285019
-191395.284299
-192676.732027
-194041.179755
-195494.127482
-197038.075210
-198658.022938
-200363.470666
-202171.918393
-204057.866121
-229857.365401
-231135.813129
-232491.760857
-233953.208585
-235509.656313
-237122.604040
-238862.051768
-240641.499496
-242510.447224
-270339.946504
-271616.894232
-272982.841960
-274434.789687
-275993.237415
-277609.185143
-279319.132871
-281137.080598
-283017.028326
-312800.527606
-314101.475334
-315478.423062
-316934.370790
-318470.318518
-320113.766245
-321828.213973
-323634.161701
-325524.109429
-357326.108709
-358620.056437
-359988.504164
-361434.951892
-362990.399620
-364603.847348
-366338.795076
-368130.242803
-370024.690531
-403831.689811
-405117.137539
-406497.585267
-407963.532995
-409499.480723
-411126.928450
-412855.876178
-414651.323906
-416552.271634
-452346.270914
-453617.718642
-454998.166369
-456460.614097
-458014.561825
-459646.009553
-461362.957281
-463167.905008
-465042.852736
-502840.352016
-504130.799744
-505486.747472
-506976.195200
-508505.642928
-510137.090655
-511841.538383
-513645.486111
-515530.933839
-555303.433119
-556590.380847
-557951.328574
-559427.276302
-560971.224030
-562596.671758
-564309.119486
-566104.567213
-567990.514941
-609720.514221
-611007.961949
-612370.409677
-613835.357405
-615381.305133
-616998.252860
-618712.700588
-620510.148316
-622390.596044
-666067.095324
-667355.043052
-668718.990779
-670180.938507
-671734.386235
-673347.833963
-675046.781691
-676832.729418
-678712.177146
-724317.676426
-725614.124154
-726990.071882
-728438.519610
-729982.467337
-731601.915065
-733299.862793
-735082.810521
-736940.258249
-784466.757529
-785757.705257
-787141.652984
-788574.100712
-790116.548440
-791739.996168
-793424.443896
-795207.391623
-797057.839351
-846474.838631
-847763.786359
-849140.734087
-850572.181815
-852125.629542
-853714.077270
-855416.524998
-857182.472726
-859045.920454
-910311.919734
-911597.367462
-912968.315189
-914410.262917
-915929.710645
-917551.158373
-919230.106101
-920987.053828
-922831.501556
-975962.000836
-977226.948564
-978609.396292
-980043.344020
-981563.791747
-983158.739475
-984835.187203
-986599.134931
-988424.582659
-1043372.081939
-1044649.529667
-1045999.977394
-1047452.925122
-1048960.872850
-1050546.820578
-1052210.768306
-1053961.716033
-1055794.663761
-1112513.163041
-1113771.610769
-1115139.058497
-1116570.506225
-1118087.453952
-1119674.401680
-1121314.849408
-1123067.797136
-1124884.244864
-1183339.244144
-1184616.191872
-1185957.139599
-1187394.587327
-1188890.535055
-1190482.482783
-1192130.930510
-1193859.378238
-1195665.325966
-1255844.325246
-1257124.772974
-1258472.720702
-1259870.168430
-1261376.616157
-1262936.063885
-1264588.511613
-1266309.959341
-1268100.407069
-1329951.406349
-1331232.354077
-1332578.301804
-1333993.749532
-1335479.697260
-1337048.144988
-1338684.592715
-1340379.040443
-1342166.488171
-1405653.987451
-1406924.935179
-1408268.382907
-1409673.830635
-1411146.778362
-1412706.226090
-1414315.673818
-1416041.121546
-1417803.569274
-1482904.068554
-1484162.516282
-1485498.464009
-1486899.411737
-1488366.859465
-1489901.307193
-1491541.254920
-1493233.702648
-1494981.650376
-1561619.649656
-1562897.597384
-1564218.045112
-1565599.492840
-1567089.440567
-1568609.888295
-1570229.336023
-1571903.283751
-1573647.231479
-1641815.730759
-1643067.678487
-1644398.126214
-1645776.073942
-1647239.521670
-1648772.469398
-1650376.417125
-1652028.864853
-1653760.312581
-1723405.811861
-1724654.759589
-1725979.207317
-1727351.655045
-1728816.102772
-1730323.050500
-1731922.498228
-1733560.445956
-1735276.393683
-1806358.892964
-1807603.840692
-1808902.288419
-1810286.236147
-1811723.183875
-1813241.131603
-1814813.579330
-1816454.027058
-1818147.974786
-1890622.474066
-1891859.421794
-1893162.369522
-1894538.317250
-1895964.764977
-1897473.212705
-1899029.160433
-1900657.608161
-1902338.555888
-1976162.555169
-1977403.502896
-1978691.950624
-1980052.398352
-1981486.346080
-1982968.293808
-1984512.241535
-1986137.189263
-1987804.136991
-2062914.136271
-2064151.583999
-2065442.531727
-2066789.979455
-2068200.427182
-2069682.374910
-2071229.822638
-2072800.770366
-2074467.718093
-2150853.717374
-2152077.165101
-2153335.112829
-2154696.560557
-2156102.508285
-2157568.956013
-2159070.403740
-2160673.351468
-2162308.299196
-2239898.798476
-2241088.246204
-2242385.193932
-2243723.641660
-2245115.589387
-2246567.037115
-2248080.484843
-2249646.932571
-2251268.380298
-2330016.879579
-2331215.827306
-2332471.775034
-2333820.722762
-2335207.170490
-2336630.118218
-2338134.065945
-2339695.513673
-2341294.461401
-2421161.960681
-2422370.908409
-2423626.856137
-2424943.803865
-2426328.251592
-2427730.699320
-2429229.147048
-2430748.094776
-2432364.042503
-2513273.041784
-2514483.989511
-2515718.937239
-2517040.884967
-2518384.332695
-2519827.280423
-2521261.728150
-2522810.175878
-2524364.623606
-2606319.622886
-2607513.070614
-2608764.018342
-2610073.966069
-2611432.413797
-2612824.861525
-2614263.309253
-2615777.256981
-2617342.204708
-2700254.203989
-2701446.651716
-2702674.599444
-2703962.547172
-2705305.994900
-2706680.442628
-2708136.390355
-2709623.338083
-2711158.285811
-2794993.785091
-2796189.732819
-2797417.180547
-2798718.628274
-2800020.576002
-2801395.023730
-2802837.471458
-2804309.419186
-2805812.366913
-2890533.366194
-2891713.813921
-2892929.761649
-2894206.709377
-2895537.157105
-2896894.604833
-2898302.552560
-2899744.500288
-2901243.448016
-2986801.447296
-2987971.395024
-2989186.342752
-2990445.790479
-2991750.738207
-2993103.685935
-2994491.633663
-2995932.081391
-2997411.529118
-3083742.528399
-3084896.976126
-3086095.423854
-3087364.371582
-3088651.319310
-3089999.767037
-3091387.214765
-3092791.162493
-3094262.110221
-3181315.109501
-3182475.057229
-3183680.004957
-3184922.452684
-3186207.400412
-3187534.348140
-3188894.295868
-3190284.243596
-3191728.691323
-3279485.690604
-3280629.638331
-3281810.586059
-3283061.533787
-3284327.981515
-3285643.429242
-3286975.376970
-3288366.824698
-3289810.272426
-3378170.271706
-3379336.219434
-3380505.667162
-3381721.614889
-3382998.062617
-3384287.010345
-3385628.958073
-3386986.405801
-3388406.853528
-3477369.852809
-3478522.800536
-3479687.748264
-3480912.695992
-3482147.143720
-3483435.091447
-3484757.039175
-3486123.486903
-3487512.434631
-3577027.433911
-3578152.881639
-3579319.829367
-3580529.777094
-3581757.224822
-3583033.172550
-3584321.620278
-3585678.068006
-3587061.015733
-3677070.015014
-3678195.462741
-3679348.910469
-3680548.858197
-3681770.805925
-3683035.753652
-3684315.201380
-3685646.149108
-3686985.596836
-3777482.096116
-3778597.043844
-3779752.991572
-3780919.939299
-3782141.387027
-3783381.334755
-3784653.282483
-3785954.730210
-3787287.677938
-3878182.177219
-3879298.624946
-3880440.572674
-3881614.020402
-3882815.468130
-3884053.915857
-3885305.863585
-3886595.311313
-3887910.759041
-3979172.258321
-3980289.206049
-3981419.653777
-3982580.101504
-3983782.549232
-3984990.996960
-3986224.944688
-3987497.392415
-3988802.840143
-4080396.339423
-4081499.287151
-4082614.734879
-4083772.682607
-4084948.630335
-4086166.078062
-4087389.525790
-4088628.473518
-4089903.921246
-4181804.920526
-4182889.868254
-4184010.315982
-4185153.763709
-4186323.711437
-4187509.159165
-4188707.606893
-4189950.554620
-4191223.502348
-4283340.501628
-4284444.949356
-4285537.397084
-4286683.344812
-4287824.292540
-4289006.740267
-4290196.187995
-4291430.135723
-4292675.583451
-4385008.582731
-4386085.030459
-4387175.978187
-4388319.425914
-4389444.873642
-4390615.821370
-4391788.269098
-4392995.216825
-4394219.664553
-4486736.163833
-4487805.111561
-4488896.559289
-4490000.007017
-4491125.954745
-4492283.902472
-4493444.350200
-4494633.797928
-4495842.245656
-4588462.744936
-4589560.192664
-4590638.140392
-4591715.088119
-4592862.035847
-4593991.983575
-4595139.431303
-4596314.879030
-4597497.826758
-4690237.826038
-4691294.273766
-4692357.221494
-4693461.669222
-4694579.116950
-4695684.064677
-4696811.012405
-4697981.960133
-4699147.407861
-4791942.907141
-4792985.854869
-4794058.302596
-4795143.750324
-4796237.698052
-4797352.645780
-4798467.593508
-4799598.541235
-4800759.488963
-4893573.988243
-4894602.435971
-4895660.883699
-4896739.831427
-4897823.279155
-4898917.726882
-4900033.174610
-4901146.622338
-4902282.570066
-4995079.069346
-4996118.017074
-4997171.464801
-4998231.412529
-4999301.360257
-5000390.307985
-5001479.255713
-5002585.703440
-5003714.651168
-5096458.150448
-5097484.598176
-5098526.045904
-5099572.493632
-5100638.941360
-5101710.889087
-5102784.336815
-5103882.784543
-5104980.732271
-5197638.231551
-5198669.679279
-5199705.127006
-5200753.574734
-5201797.522462
-5202851.470190
-5203915.917918
-5205003.365645
-5206066.313373
-5298644.312653
-5299641.760381
-5300674.708109
-5301703.655837
-5302741.103565
-5303790.051292
-5304848.999020
-5305890.946748
-5306986.894476
-5399380.893756
-5400394.341484
-5401418.289211
-5402428.736939
-5403470.184667
-5404503.132395
-5405536.080123
-5406564.027850
-5407614.475578
-5499867.474858
-5500890.422586
-5501877.870314
-5502910.318042
-5503905.765769
-5504925.713497
-5505954.661225
-5506978.608953
-5508016.056681
-5600051.055961
-5601053.503689
-5602059.451416
-5603036.399144
-5604042.346872
-5605059.794600
-5606085.742328
-5607089.690055
-5608100.637783
-5699933.637063
-5700922.084791
-5701902.032519
-5702893.480247
-5703896.927974
-5704871.875702
-5705875.823430
-5706876.771158
-5707868.218886
-5799441.718166
-5800421.665894
-5801403.113621
-5802375.561349
-5803368.009077
-5804357.956805
-5805332.904533
-5806306.352260
-5807305.299988
-5898579.299268
-5899565.246996
-5900546.694724
-5901489.142452
-5902469.090179
-5903437.537907
-5904416.485635
-5905382.933363
-5906363.381091
-5997309.880371
-5998292.328099
-5999256.275826
-6000217.223554
-6001199.671282
-6002160.119010
-6003092.566738
-6004069.014465
-6004996.962193
-6095646.461473
-6096612.909201
-6097571.856929
-6098531.304657
-6099474.752384
-6100410.200112
-6101371.147840
-6102299.595568
-6103247.543296
-6193529.042576
-6194487.990304
-6195432.938031
-6196384.385759
-6197325.833487
-6198269.781215
-6199183.728942
-6200122.176670
-6201034.124398
-6290932.123678
-6291896.571406
-6292824.519134
-6293779.966862
-6294705.914589
-6295627.862317
-6296546.810045
-6297445.757773
-6298363.705501
SCALARS stress_2 float
LOOKUP_TABLE default
84977.273982
-901370.785629
-886932.834884
-872446.884139
-857744.933394
-843234.982649
-828453.031903
-813639.081158
-798961.130413
-783955.179668
-769053.228923
-754055.278178
-739033.327433
-723795.376687
-708749.425942
-693687.475197
-678545.524452
-663179.573707
-648053.622962
-632815.672217
-617417.721472
-602267.770726
-587085.819981
-571775.869236
-556585.918491
-541355.967746
-526110.017001
-511000.066256
-495794.115510
-480740.164765
-465670.214020
-450720.263275
-435794.312530
-421068.361785
-406190.411040
-391632.460294
-377050.509549
-362476.558804
-348030.608059
-333696.657314
-319554.706569
-305556.755824
-291502.805079
-277856.854333
-264058.903588
-250700.952843
-237367.002098
-224209.051353
-211203.100608
-198381.149863
-185831.199117
-173281.248372
-161123.297627
-149029.346882
-137287.396137
-125569.445392
-114211.494647
-103093.543901
-92183.593156
-81657.642411
-71091.691666
-60901.740921
-51143.790176
-41369.839431
-32107.888685
-22933.937940
-13895.987195
-5554.036450
2827.914295
10905.865040
18535.815785
26053.766530
33091.717276
40057.668021
46823.618766
53013.569511
59043.520256
64777.471001
70263.421746
75365.372492
80339.323237
-793334.605250
163381.454361
159815.503616
155929.552871
151747.602126
147381.651381
142663.700636
137577.749891
132371.799145
126613.848400
120663.897655
114425.946910
107939.996165
101110.045420
93824.094675
86570.143930
78740.193184
70750.242439
62360.291694
53858.340949
44980.390204
35750.439459
26320.488714
16546.537968
6572.587223
-3745.363522
-14199.314267
-24973.265012
-35915.215757
-47241.166502
-58663.117248
-70261.067993
-82035.018738
-94320.969483
-106646.920228
-119308.870973
-131898.821718
-144776.772463
-157878.723209
-171196.673954
-184594.624699
-198208.575444
-211966.526189
-225772.476934
-239706.427679
-254032.378425
-268286.329170
-282532.279915
-296994.230660
-311696.181405
-326302.132150
-341020.082895
-355898.033641
-370767.984386
-385837.935131
-400763.885876
-415897.836621
-430959.787366
-446213.738111
-461347.688856
-476633.639602
-491791.590347
-507253.541092
-522371.491837
-537721.442582
-552919.393327
-568317.344072
-583419.294818
-598753.245563
-613863.196308
-629117.147053
-644347.097798
-659449.048543
-674470.999288
-689692.950034
-704538.900779
-719456.851524
-734358.802269
-749236.753014
-763898.703759
-778664.654504
-804073.423287
-814924.241325
-825679.059363
-836481.877401
-847332.695439
-858047.513477
-868890.331515
-879709.149553
-890583.967591
92884.092020
100718.910058
108697.728096
116388.546134
124295.364172
132034.182210
139885.000248
147847.818286
155530.636323
151860.685578
144017.867540
136071.049502
128124.231464
120201.413427
112342.595389
104179.777351
96352.959313
88302.141275
147966.734833
139931.916795
131937.098757
123870.280719
115899.462681
107768.644643
99677.826605
91611.008567
83472.190530
143728.784088
135605.966050
127499.148012
119272.329974
111141.511936
103042.693898
94815.875860
86701.057822
78314.239784
139106.833343
131072.015305
122741.197267
114522.379229
106391.561191
98116.743153
89681.925115
81423.107077
72996.289039
134292.882598
125994.064560
117671.246522
109364.428484
100977.610446
92726.792408
84307.974370
75769.156332
67486.338294
129166.931853
120852.113815
112401.295777
104006.477739
95467.659701
87016.841663
78534.023625
69995.205587
61488.387549
123744.981108
115310.163070
106843.345032
98320.526994
89637.708956
81050.890918
72544.072880
63973.254842
55394.436804
118075.030362
109472.212324
100853.394286
92338.576249
83583.758211
74852.940173
66090.122135
57511.304097
48796.486059
111909.079617
103402.261579
94511.443541
85940.625503
77185.807465
68366.989427
59612.171389
50905.353352
42038.535314
105719.128872
96948.310834
88049.492796
79302.674758
70419.856720
61553.038682
52806.220644
43875.402606
34952.584568
99041.178127
90254.360089
81459.542051
72360.724013
63445.905975
54467.087937
45552.269899
36549.451861
27602.633823
92131.227382
83096.409344
74117.591306
65090.773268
56095.955230
47165.137192
38082.319154
29047.501116
19940.683078
84901.276637
75882.458599
66711.640561
57492.822523
48466.004485
39487.186447
30260.368409
21145.550371
12014.732333
77487.325892
68180.507854
59017.689816
49878.871778
40668.053740
31441.235702
22278.417664
13091.599626
3808.781588
69553.375146
60422.557108
51139.739071
41912.921033
32518.102995
23299.284957
13960.466919
4565.648881
-4733.169157
61499.424401
52104.606363
42781.788325
33530.970287
24064.152249
14741.334211
5418.516174
-4112.301864
-13475.119902
53021.473656
43626.655618
34279.837580
24829.019542
15370.201504
5911.383466
-3603.434572
-12982.252610
-22465.070648
44359.522911
34932.704873
25289.886835
15791.068797
6228.250759
-3110.567279
-12729.385317
-22188.203355
-31759.021393
35441.572166
25822.754128
16315.936090
6761.118052
-2929.699986
-12540.518024
-22167.336062
-31762.154100
-41484.972138
26163.621421
16496.803383
6917.985345
-2780.832693
-12367.650731
-22098.468769
-31821.286807
-41496.104845
-51194.922883
16565.670676
7034.852638
-2775.965400
-12482.783438
-22253.601476
-32048.419514
-41691.237552
-51606.055590
-61360.873628
6903.719930
-2819.098107
-12685.916145
-22536.734183
-32347.552221
-42246.370259
-51921.188297
-61780.006335
-71670.824373
-3126.230815
-13121.048853
-22787.866891
-32806.684929
-42657.502967
-52588.321004
-62455.139042
-72361.957080
-82196.775118
-13596.181560
-23406.999598
-33257.817636
-43348.635674
-53063.453712
-63130.271750
-73069.089788
-83087.907826
-93218.725863
-24106.132305
-34036.950343
-43903.768381
-54034.586419
-64085.404457
-74072.222495
-84195.040533
-94085.858571
-104160.676609
-34872.083050
-44842.901088
-54885.719126
-65016.537164
-75131.355202
-85086.173240
-95312.991278
-105363.809316
-115566.627354
-46062.033795
-56136.851833
-66203.669871
-76318.487909
-86345.305947
-96556.123985
-106686.942023
-116817.760061
-127044.578099
-57283.984540
-67366.802578
-77617.620616
-87788.438654
-97991.256692
-108202.074730
-118388.892768
-128751.710806
-138818.528844
-68777.935285
-79068.753323
-89159.571361
-99450.389399
-109725.207437
-119984.025475
-130130.843513
-140509.661551
-150840.479589
-80511.886031
-90914.704069
-101053.522107
-111440.340145
-121531.158182
-131949.976220
-142216.794258
-152603.612296
-162958.430334
-92429.836776
-102736.654814
-113147.472852
-123462.290890
-133809.108928
-144211.926966
-154486.745004
-165009.563041
-175260.381079
-104675.787521
-114974.605559
-125393.423597
-135756.241635
-146127.059673
-156529.877711
-166972.695749
-177479.513787
-187930.331825
-117065.738266
-127452.556304
-137935.374342
-148298.192380
-158749.010418
-169311.828456
-179802.646494
-190261.464532
-200624.282570
-129567.689011
-140210.507049
-150469.325087
-160968.143125
-171506.961163
-181933.779201
-192608.597239
-203051.415277
-213694.233315
-142533.639756
-152992.457794
-163403.275832
-174046.093870
-184504.911908
-195027.729946
-205574.547984
-216201.366022
-226724.184060
-155411.590501
-165806.408539
-176489.226577
-186964.044615
-197558.862653
-208249.680691
-218836.498729
-229399.316767
-239970.134805
-168505.541247
-179156.359285
-189615.177322
-200313.995360
-210948.813398
-221599.631436
-232210.449474
-242805.267512
-253496.085550
-181823.491992
-192386.310030
-203037.128068
-213663.946106
-224274.764144
-235013.582182
-245816.400219
-256315.218257
-267014.036295
-195189.442737
-205976.260775
-216603.078813
-227381.896851
-237960.714889
-248643.532927
-259390.350965
-270017.169003
-280923.987041
-208731.393482
-219598.211520
-230281.029558
-240995.847596
-251798.665634
-262377.483672
-273212.301710
-284015.119748
-294809.937786
-222721.344227
-233356.162265
-244054.980303
-254905.798341
-265660.616379
-276311.434417
-287130.252455
-297885.070493
-308823.888531
-236535.294972
-247370.113010
-258148.931048
-268839.749086
-279634.567124
-290461.385162
-301360.203200
-312083.021238
-322973.839276
-250653.245717
-261392.063755
-272162.881793
-283029.699831
-293672.517869
-304659.335907
-315686.153945
-326240.971983
-337107.790021
-264739.196463
-275686.014500
-286496.832538
-297411.650576
-308078.468614
-319017.286652
-329636.104690
-340638.922728
-351529.740766
-279073.147208
-289867.965246
-300750.783284
-311537.601322
-322492.419360
-333303.237397
-344194.055435
-355092.873473
-366167.691511
-293487.097953
-304385.915991
-315204.734029
-326143.552067
-336922.370105
-347917.188143
-358792.006181
-369650.824219
-380693.642257
-308021.048698
-318863.866736
-329730.684774
-340733.502812
-351608.320850
-362459.138888
-373453.956926
-384312.774964
-395235.593002
-322514.999443
-333493.817481
-344392.635519
-355251.453557
-366326.271595
-377185.089633
-388123.907671
-399150.725709
-410025.543747
-337304.950188
-348091.768226
-359134.586264
-369993.404302
-380868.222340
-391967.040378
-402817.858416
-413828.676454
-424911.494492
-351966.900933
-362953.718971
-373900.537009
-384831.355047
-395946.173085
-406884.991123
-417855.809161
-428746.627199
-439797.445237
-366876.851678
-377807.669716
-388810.487754
-399749.305792
-410712.123830
-421890.941868
-432861.759906
-443656.577944
-454835.395982
-381778.802424
-392781.620462
-403776.438500
-414715.256538
-425734.074575
-436744.892613
-447747.710651
-458742.528689
-469817.346727
-396816.753169
-407699.571207
-418622.389245
-429713.207283
-440716.025321
-451798.843359
-462825.661397
-473796.479435
-484735.297472
-411806.703914
-422681.521952
-433828.339990
-444839.158028
-455889.976066
-466900.794104
-477959.612142
-488986.430180
-500045.248218
-426956.654659
-437887.472697
-448874.290735
-459813.108773
-470903.926811
-481970.744849
-492965.562887
-504008.380925
-515219.198963
-442034.605404
-453037.423442
-464152.241480
-475083.059518
-486213.877556
-497168.695594
-508123.513632
-519206.331670
-530465.149708
-457296.556149
-468155.374187
-479222.192225
-490281.010263
-501435.828301
-512390.646339
-523249.464377
-534356.282415
-545527.100453
-472382.506894
-483457.324932
-494540.142970
-505534.961008
-516521.779046
-527548.597084
-538703.415122
-549770.233160
-560685.051198
-487796.457640
-498727.275678
-509578.093716
-520724.911753
-531735.729791
-542810.547829
-553949.365867
-565016.183905
-575995.001943
-502930.408385
-513869.226423
-524864.044461
-536034.862499
-547077.680537
-557920.498575
-568971.316612
-580246.134650
-591232.952688
-518256.359130
-529235.177168
-540229.995206
-551184.813244
-562435.631282
-573406.449320
-584401.267358
-595372.085396
-606550.903434
-533510.309875
-544441.127913
-555451.945951
-566382.763989
-577545.582027
-588532.400065
-599647.218103
-610666.036141
-621748.854179
-548764.260620
-559663.078658
-570785.896696
-581740.714734
-592943.532772
-603826.350810
-614877.168848
-625991.986886
-637034.804924
-563994.211365
-574949.029403
-585919.847441
-596938.665479
-608053.483517
-619056.301555
-630067.119593
-641173.937631
-652280.755669
-579184.162110
-590170.980148
-601261.798186
-612288.616224
-623259.434262
-634270.252300
-645369.070338
-656411.888376
-667430.706414
-594502.112856
-605472.930894
-616419.748931
-627542.566969
-638473.385007
-649564.203045
-660487.021083
-671481.839121
-682564.657159
-609732.063601
-620670.881639
-631569.699677
-642732.517715
-653599.335753
-664666.153790
-675780.971828
-686807.789866
-697626.607904
-624954.014346
-635956.832384
-646919.650422
-657802.468460
-669013.286498
-679936.104536
-690866.922574
-701941.740612
-712880.558650
-640071.965091
-651042.783129
-662173.601167
-673096.419205
-683979.237243
-695014.055281
-705992.873319
-717003.691357
-727966.509395
-655205.915836
-666272.733874
-677275.551912
-688190.369950
-699057.187988
-710140.006026
-721086.824064
-732193.642102
-743092.460140
-670395.866581
-681358.684619
-692273.502657
-703260.320695
-714191.138733
-725113.956771
-736180.774809
-747119.592847
-758026.410885
-685457.817326
-696284.635364
-707335.453402
-718282.271440
-729269.089478
-740239.907516
-751138.725554
-762109.543592
-773032.361630
-700423.768072
-711434.586109
-722341.404147
-733200.222185
-744363.040223
-755157.858261
-766120.676299
-776947.494337
-787846.312375
-715413.718817
-726368.536855
-737275.354893
-748166.172931
-759096.990968
-770067.809006
-780774.627044
-791849.445082
-802700.263120
-730403.669562
-741222.487600
-752249.305638
-763012.123676
-773926.941714
-784873.759752
-795732.577790
-806551.395828
-817530.213865
-745185.620307
-756196.438345
-766943.256383
-777898.074421
-788780.892459
-799655.710497
-810466.528535
-821437.346573
-832288.164611
-760039.571052
-770882.389090
-781797.207128
-792664.025166
-803570.843204
-814389.661242
-825328.479280
-835963.297318
-847030.115356
-774749.521797
-785656.339835
-796451.157873
-807421.975911
-818096.793949
-828963.611987
-839814.430025
-850737.248063
-861676.066101
-789483.472542
-800278.290580
-811257.108618
-821987.926656
-832902.744694
-843745.562732
-854316.380770
-865263.198808
-876178.016846
SCALARS stress_3 float
LOOKUP_TABLE default
27888.957060
1819587.970964
1793881.433291
1768054.895617
1742156.357943
1715981.820269
1689799.282595
1663452.744922
1637042.207248
1610467.669574
1583741.131900
1557022.594226
1530160.056553
1503185.518879
1476166.981205
1449028.443531
1421925.905857
1394727.368184
1367412.830510
1340058.292836
1312763.755162
1285477.217488
1258110.679815
1230744.142141
1203377.604467
1176075.066793
1148800.529119
1121477.991446
1094347.453772
1067140.916098
1040062.378424
1012987.840750
986181.303076
959334.765403
932652.227729
906025.690055
879675.152381
853444.614707
827362.077034
801539.539360
775705.001686
750214.464012
724867.926338
699913.388665
675038.850991
650496.313317
626157.775643
602147.237969
578428.700296
554990.162622
531923.624948
509109.087274
486730.549600
464620.011927
442921.474253
421550.936579
400632.398905
379997.861231
359955.323558
340252.785884
320926.248210
302091.710536
283713.172862
265838.635188
248300.097515
231293.559841
214775.022167
198744.484493
183233.946819
168159.409146
153656.871472
139646.333798
126159.796124
113121.258450
100630.720777
88732.183103
77325.645429
66291.107755
55940.570081
46062.032408
36735.494734
1773151.739626
-14915.274279
-6408.736605
2533.801069
12056.338743
22114.876416
32705.414090
43827.951764
55510.489438
67637.027112
80311.564785
93582.102459
107256.640133
121571.177807
136417.715481
151640.253154
167422.790828
183769.328502
200479.866176
217838.403850
235532.941524
253763.479197
272422.016871
291568.554545
311059.092219
331121.629893
351488.167566
372318.705240
393445.242914
415111.780588
437074.318262
459456.855935
482111.393609
505157.931283
528464.468957
552119.006631
576113.544304
600432.081978
624898.619652
649645.157326
674823.695000
700042.232673
725608.770347
751267.308021
777193.845695
803272.383369
829546.921042
856077.458716
882567.996390
909294.534064
936181.071738
963159.609411
990178.147085
1017296.684759
1044467.222433
1071813.760107
1099160.297781
1126562.835454
1153929.373128
1181387.910802
1208866.448476
1236312.986150
1263759.523823
1291258.061497
1318636.599171
1346019.136845
1373349.674519
1400596.212192
1427886.749866
1454953.287540
1482155.825214
1509090.362888
1535976.900561
1562755.438235
1589453.975909
1616160.513583
1642683.051257
1668941.588930
1695216.126604
1721254.664278
1747309.201952
1777778.562760
1782437.385893
1787128.209027
1791735.032161
1796409.855295
1801000.678429
1805699.501563
1810246.324697
1814961.147831
23494.133926
19203.310792
14820.487658
10437.664524
6238.841391
1952.018257
-2346.804877
-6561.628011
-10692.451145
-2197.913471
2044.909663
6299.732797
10546.555931
14853.379064
19216.202198
23555.025332
27893.848466
32356.671600
6748.624203
11059.447337
15398.270470
19697.093604
24039.916738
28314.739872
32809.563006
37244.386140
41627.209274
16331.161876
20665.985010
25072.808144
29327.631278
33706.454412
38161.277546
42588.100680
46986.923814
51489.746948
26393.699550
30768.522684
35123.345818
39534.168952
43996.992086
48391.815220
52866.638354
57361.461487
61840.284621
37056.237224
41419.060358
45833.883492
50280.706626
54727.529760
59198.352894
63745.176027
68143.999161
72706.822295
48182.774898
52585.598032
57088.421166
61519.244300
66002.067433
70464.890567
74967.713701
79566.536835
84077.359969
59949.312572
64340.135706
68762.958839
73301.781973
77768.605107
82295.428241
86906.251375
91417.074509
96107.897643
72099.850246
76534.673379
81101.496513
85612.319647
90155.142781
94653.965915
99260.789049
103851.612183
108554.435317
84854.387919
89325.211053
93848.034187
98398.857321
102913.680455
107564.503589
112151.326723
116846.149856
121480.972990
98108.925593
102547.748727
107214.571861
111749.394995
116340.218129
120959.041263
125613.864396
130296.687530
134947.510664
111863.463267
116382.286401
120981.109535
125611.932669
130242.755802
134937.578936
139544.402070
144163.225204
148902.048338
126154.000941
130708.824075
135327.647209
139938.470342
144601.293476
149248.116610
153950.939744
158721.762878
163492.586012
140932.538615
145575.361748
150166.184882
154813.008016
159547.831150
164150.654284
168997.477418
173740.300552
178379.123686
156295.076288
160809.899422
165560.722556
170279.545690
174906.368824
179625.191958
184388.015092
189174.838226
193969.661359
172073.613962
176748.437096
181431.260230
186182.083364
190860.906498
195615.729632
200398.552765
205133.375899
209956.199033
188388.151636
193102.974770
197725.797904
202524.621038
207191.444171
211994.267305
216829.090439
221611.913573
226470.736707
205214.689310
209893.512444
214648.335578
219355.158711
224197.981845
228988.804979
233723.628113
238582.451247
243377.274381
222469.226984
227228.050117
231954.873251
236721.696385
241524.519519
246279.342653
251202.165787
256016.988921
260831.812055
240303.764657
244950.587791
249745.410925
254600.234059
259363.057193
264177.880327
268992.703461
273935.526595
278834.349728
258458.302331
263293.125465
268015.948599
272830.771733
277597.594867
282460.418001
287359.241134
292206.064268
297180.887402
277188.840005
281987.663139
286734.486273
291625.309407
296440.132541
301274.955674
306145.778808
311124.601942
315923.425076
296299.377679
301094.200813
305953.023947
310787.847080
315618.670214
320541.493348
325416.316482
330283.139616
335253.962750
315937.915353
320648.738486
325555.561620
330378.384754
335273.207888
340172.031022
345110.854156
350061.677290
355004.500424
335956.453026
340719.276160
345602.099294
350388.922428
355323.745562
360278.568696
365157.391830
370104.214964
375143.038097
356358.990700
361177.813834
366032.636968
370943.460102
375810.283236
380757.106370
385663.929503
390642.752637
395533.575771
377117.528374
382020.351508
386871.174642
391789.997776
396740.820910
401583.644043
406546.467177
411497.290311
416512.113445
398328.066048
403234.889182
408153.712316
413056.535449
417999.358583
422878.181717
427909.004851
432919.827985
437850.651119
419958.603722
424809.426856
429744.249989
434719.073123
439629.896257
444576.719391
449579.542525
454538.365659
459605.188793
441957.141395
446867.964529
451734.787663
456721.610797
461640.433931
466623.257065
471630.080199
476648.903333
481687.726466
464259.679069
469174.502203
474229.325337
479084.148471
484034.971605
489061.794739
494012.617873
499043.441006
504110.264140
486998.216743
491925.039877
496895.863011
501814.686145
506769.509279
511780.332412
516759.155546
521857.978680
526864.801814
510048.754417
514951.577551
519898.400685
524817.223819
529836.046952
534858.870086
539853.693220
544872.516354
549931.339488
533375.292091
538346.115225
543320.938358
548227.761492
553226.584626
558289.407760
563256.230894
568347.054028
573373.877162
557057.829764
562028.652898
567035.476032
571958.299166
576945.122300
582003.945434
586990.768568
592009.591702
597056.414836
580992.367438
585979.190572
591014.013706
595956.836840
601035.659974
606006.483108
611013.306242
616000.129375
621126.952509
605334.905112
610305.728246
615300.551380
620311.374514
625266.197648
630237.020781
635311.843915
640338.667049
645405.490183
629829.442786
634812.265920
639811.089054
644805.912188
649808.735321
654795.558455
659878.381589
664921.204723
669996.027857
654711.980460
659634.803594
664569.626727
669600.449861
674659.272995
679638.096129
684696.919263
689719.742397
694726.565531
679718.518134
684677.341267
689700.164401
694722.987535
699733.810669
704672.633803
709723.456937
714770.280071
719829.103205
705005.055807
709955.878941
714902.702075
719977.525209
724952.348343
729951.171477
734993.994611
740072.817744
745187.640878
730479.593481
735458.416615
740493.239749
745440.062883
750474.886017
755557.709151
760568.532284
765623.355418
770630.178552
756214.131155
761192.954289
766203.777423
771238.600557
776169.423690
781276.246824
786215.069958
791357.893092
796432.716226
782184.668829
787083.491963
792038.315096
797117.138230
802135.961364
807138.784498
812157.607632
817240.430766
822331.253900
808299.206503
813246.029636
818160.852770
823167.675904
828194.499038
833253.322172
838300.145306
843350.968440
848401.791574
834457.744176
839464.567310
844423.390444
849514.213578
854473.036712
859547.859846
864554.682980
869613.506113
874664.329247
860956.281850
865887.104984
870913.928118
875916.751252
880927.574386
885938.397520
890917.220653
896020.043787
901094.866921
887534.819524
892517.642658
897476.465792
902483.288926
907458.112059
912500.935193
917559.758327
922550.581461
927541.404595
914265.357198
919272.180332
924235.003466
929197.826599
934164.649733
939203.472867
944234.296001
949249.119135
954335.942269
941099.894872
946094.718005
951045.541139
956136.364273
961043.187407
966010.010541
971080.833675
976015.656809
981186.479943
968062.432545
972989.255679
978024.078813
982986.901947
987921.725081
992924.548215
998019.371349
1003034.194483
1007961.017616
995044.970219
1000043.793353
1004942.616487
1010041.439621
1015012.262755
1019955.085889
1024969.909022
1030024.732156
1034995.555290
1022251.507893
1027114.331027
1032201.154161
1037107.977295
1042094.800428
1047069.623562
1052112.446696
1057139.269830
1062114.092964
1049466.045567
1054424.868701
1059315.691835
1064302.514968
1069277.338102
1074312.161236
1079202.984370
1084245.807504
1089252.630638
1076728.583241
1081695.406374
1086630.229508
1091625.052642
1096531.875776
1101510.698910
1106497.522044
1111436.345178
1116535.168312
1104135.120914
1109001.944048
1114012.767182
1118963.590316
1123854.413450
1128845.236584
1133756.059718
1138754.882852
1143745.705985
1131453.658588
1136372.481722
1141307.304856
1146286.127990
1151196.951124
1156211.774258
1161054.597391
1166089.420525
1171100.243659
1158884.196262
1163763.019396
1168765.842530
1173664.665664
1178567.488798
1183526.311931
1188469.135065
1193475.958199
1198398.781333
1186270.733936
1191213.557070
1196108.380204
1201059.203337
1206042.026471
1210912.849605
1215891.672739
1220866.495873
1225777.319007
1213757.271610
1218596.094744
1223534.917877
1228481.741011
1233360.564145
1238335.387279
1243242.210413
1248253.033547
1253159.856681
1241207.809283
1246122.632417
1250985.455551
1255968.278685
1260827.101819
1265737.924953
1270656.748087
1275575.571221
1280522.394354
1268646.346957
1273533.170091
1278483.993225
1283358.816359
1288233.639493
1293180.462627
1298091.285761
1303010.108894
1307876.932028
1296108.884631
1300939.707765
1305858.530899
1310757.354033
1315616.177167
1320623.000300
1325397.823434
1330332.646568
1335235.469702
1323463.422305
1328338.245439
1333261.068573
1338143.891706
1342986.714840
1347865.537974
1352784.361108
1357671.184242
1362550.007376
1350897.959979
1355696.783113
1360607.606246
1365450.429380
1370333.252514
1375184.075648
1380022.898782
1384981.721916
1389856.545050
1378172.497652
1383031.320786
1387930.143920
1392808.967054
1397563.790188
1402458.613322
1407373.436456
1412196.259590
1417031.082723
1405471.035326
1410285.858460
1415176.681594
1419999.504728
1424826.327862
1429697.150996
1434503.974130
1439362.797263
1444229.620397
1432665.573000
1437556.396134
1442283.219268
1447194.042402
1451972.865536
1456867.688669
1461634.511803
1466513.334937
1471288.158071
1459820.110674
1464642.933808
1469473.756942
1474252.580076
1479111.403209
1483842.226343
1488721.049477
1493567.872611
1498366.695745
1486874.648348
1491681.471482
1496540.294615
1501291.117749
1506025.940883
1510908.764017
1515791.587151
1520550.410285
1525369.233419
1513857.186021
1518636.009155
1523482.832289
1528285.655423
1533044.478557
1537875.301691
1542634.124825
1547388.947959
1552231.771093
1540699.723695
1545618.546829
1550333.369963
1555156.193097
1559883.016231
1564697.839365
1569448.662499
1574211.485632
1578994.308766
1567546.261369
1572313.084503
1577103.907637
1581846.730771
1586605.553905
1591428.377038
1596183.200172
1600970.023306
1605756.846440
1594300.799043
1599063.622177
1603782.445311
1608481.268445
1613296.091578
1618110.914712
1622789.737846
1627552.560980
1632227.384114
1620831.336717
1625578.159851
1630360.982984
1635079.806118
1639838.629252
1644525.452386
1649320.275520
1654039.098654
1658765.921788
1647321.874391
1652108.697524
1656795.520658
1661426.343792
1666273.166926
1670983.990060
1675682.813194
1680397.636328
1685064.459462
1673704.412064
1678411.235198
1683158.058332
1687928.881466
1692471.704600
1697250.527734
1701833.350868
1706592.174001
1711386.997135
1699854.949738
1704553.772872
1709348.596006
1714031.419140
1718730.242274
1723417.065408
1728139.888541
1732778.711675
1737437.534809
1726049.487412
1730660.310546
1735355.133680
1740077.956814
1744792.779947
1749411.603081
1754022.426215
1758773.249349
1763380.072483
1751956.025086
1756666.848220
1761313.671353
1765932.494487
1770647.317621
1775278.140755
1779956.963889
1784627.787023
1789202.610157
