# vtk DataFile Version 2.0
Generated volume Mesh
ASCII
DATASET UNSTRUCTURED_GRID
POINTS 891 float
0.005000 0.100000 0.000000
0.005000 0.000000 0.000000
0.005000 0.001250 0.000000
0.005000 0.002500 0.000000
0.005000 0.003750 0.000000
0.005000 0.005000 0.000000
0.005000 0.006250 0.000000
0.005000 0.007500 0.000000
0.005000 0.008750 0.000000
0.005000 0.010000 0.000000
0.005000 0.011250 0.000000
0.005000 0.012500 0.000000
0.005000 0.013750 0.000000
0.005000 0.015000 0.000000
0.005000 0.016250 0.000000
0.005000 0.017500 0.000000
0.005000 0.018750 0.000000
0.005000 0.020000 0.000000
0.005000 0.021250 0.000000
0.005000 0.022500 0.000000
0.005000 0.023750 0.000000
0.005000 0.025000 0.000000
0.005000 0.026250 0.000000
0.005000 0.027500 0.000000
0.005000 0.028750 0.000000
0.005000 0.030000 0.000000
0.005000 0.031250 0.000000
0.005000 0.032500 0.000000
0.005000 0.033750 0.000000
0.005000 0.035000 0.000000
0.005000 0.036250 0.000000
0.005000 0.037500 0.000000
0.005000 0.038750 0.000000
0.005000 0.040000 0.000000
0.005000 0.041250 0.000000
0.005000 0.042500 0.000000
0.005000 0.043750 0.000000
0.005000 0.045000 0.000000
0.005000 0.046250 0.000000
0.005000 0.047500 0.000000
0.005000 0.048750 0.000000
0.005000 0.050000 0.000000
0.005000 0.051250 0.000000
0.005000 0.052500 0.000000
0.005000 0.053750 0.000000
0.005000 0.055000 0.000000
0.005000 0.056250 0.000000
0.005000 0.057500 0.000000
0.005000 0.058750 0.000000
0.005000 0.060000 0.000000
0.005000 0.061250 0.000000
0.005000 0.062500 0.000000
0.005000 0.063750 0.000000
0.005000 0.065000 0.000000
0.005000 0.066250 0.000000
0.005000 0.067500 0.000000
0.005000 0.068750 0.000000
0.005000 0.070000 0.000000
0.005000 0.071250 0.000000
0.005000 0.072500 0.000000
0.005000 0.073750 0.000000
0.005000 0.075000 0.000000
0.005000 0.076250 0.000000
0.005000 0.077500 0.000000
0.005000 0.078750 0.000000
0.005000 0.080000 0.000000
0.005000 0.081250 0.000000
0.005000 0.082500 0.000000
0.005000 0.083750 0.000000
0.005000 0.085000 0.000000
0.005000 0.086250 0.000000
0.005000 0.087500 0.000000
0.005000 0.088750 0.000000
0.005000 0.090000 0.000000
0.005000 0.091250 0.000000
0.005000 0.092500 0.000000
0.005000 0.093750 0.000000
0.005000 0.095000 0.000000
0.005000 0.096250 0.000000
0.005000 0.097500 0.000000
0.005000 0.098750 0.000000
0.000000 0.000000 0.000000
0.000000 0.100000 0.000000
0.000000 0.098750 0.000000
0.000000 0.097500 0.000000
0.000000 0.096250 0.000000
0.000000 0.095000 0.000000
0.000000 0.093750 0.000000
0.000000 0.092500 0.000000
0.000000 0.091250 0.000000
0.000000 0.090000 0.000000
0.000000 0.088750 0.000000
0.000000 0.087500 0.000000
0.000000 0.086250 0.000000
0.000000 0.085000 0.000000
0.000000 0.083750 0.000000
0.000000 0.082500 0.000000
0.000000 0.081250 0.000000
0.000000 0.080000 0.000000
0.000000 0.078750 0.000000
0.000000 0.077500 0.000000
0.000000 0.076250 0.000000
0.000000 0.075000 0.000000
0.000000 0.073750 0.000000
0.000000 0.072500 0.000000
0.000000 0.071250 0.000000
0.000000 0.070000 0.000000
0.000000 0.068750 0.000000
0.000000 0.067500 0.000000
0.000000 0.066250 0.000000
0.000000 0.065000 0.000000
0.000000 0.063750 0.000000
0.000000 0.062500 0.000000
0.000000 0.061250 0.000000
0.000000 0.060000 0.000000
0.000000 0.058750 0.000000
0.000000 0.057500 0.000000
0.000000 0.056250 0.000000
0.000000 0.055000 0.000000
0.000000 0.053750 0.000000
0.000000 0.052500 0.000000
0.000000 0.051250 0.000000
0.000000 0.050000 0.000000
0.000000 0.048750 0.000000
0.000000 0.047500 0.000000
0.000000 0.046250 0.000000
0.000000 0.045000 0.000000
0.000000 0.043750 0.000000
0.000000 0.042500 0.000000
0.000000 0.041250 0.000000
0.000000 0.040000 0.000000
0.000000 0.038750 0.000000
0.000000 0.037500 0.000000
0.000000 0.036250 0.000000
0.000000 0.035000 0.000000
0.000000 0.033750 0.000000
0.000000 0.032500 0.000000
0.000000 0.031250 0.000000
0.000000 0.030000 0.000000
0.000000 0.028750 0.000000
0.000000 0.027500 0.000000
0.000000 0.026250 0.000000
0.000000 0.025000 0.000000
0.000000 0.023750 0.000000
0.000000 0.022500 0.000000
0.000000 0.021250 0.000000
0.000000 0.020000 0.000000
0.000000 0.018750 0.000000
0.000000 0.017500 0.000000
0.000000 0.016250 0.000000
0.000000 0.015000 0.000000
0.000000 0.013750 0.000000
0.000000 0.012500 0.000000
0.000000 0.011250 0.000000
0.000000 0.010000 0.000000
0.000000 0.008750 0.000000
0.000000 0.007500 0.000000
0.000000 0.006250 0.000000
0.000000 0.005000 0.000000
0.000000 0.003750 0.000000
0.000000 0.002500 0.000000
0.000000 0.001250 0.000000
0.000500 0.000000 0.000000
0.001000 0.000000 0.000000
0.001500 0.000000 0.000000
0.002000 0.000000 0.000000
0.002500 0.000000 0.000000
0.003000 0.000000 0.000000
0.003500 0.000000 0.000000
0.004000 0.000000 0.000000
0.004500 0.000000 0.000000
0.004500 0.100000 0.000000
0.004000 0.100000 0.000000
0.003500 0.100000 0.000000
0.003000 0.100000 0.000000
0.002500 0.100000 0.000000
0.002000 0.100000 0.000000
0.001500 0.100000 0.000000
0.001000 0.100000 0.000000
0.000500 0.100000 0.000000
0.000500 0.098750 0.000000
0.001000 0.098750 0.000000
0.001500 0.098750 0.000000
0.002000 0.098750 0.000000
0.002500 0.098750 0.000000
0.003000 0.098750 0.000000
0.003500 0.098750 0.000000
0.004000 0.098750 0.000000
0.004500 0.098750 0.000000
0.000500 0.097500 0.000000
0.001000 0.097500 0.000000
0.001500 0.097500 0.000000
0.002000 0.097500 0.000000
0.002500 0.097500 0.000000
0.003000 0.097500 0.000000
0.003500 0.097500 0.000000
0.004000 0.097500 0.000000
0.004500 0.097500 0.000000
0.000500 0.096250 0.000000
0.001000 0.096250 0.000000
0.001500 0.096250 0.000000
0.002000 0.096250 0.000000
0.002500 0.096250 0.000000
0.003000 0.096250 0.000000
0.003500 0.096250 0.000000
0.004000 0.096250 0.000000
0.004500 0.096250 0.000000
0.000500 0.095000 0.000000
0.001000 0.095000 0.000000
0.001500 0.095000 0.000000
0.002000 0.095000 0.000000
0.002500 0.095000 0.000000
0.003000 0.095000 0.000000
0.003500 0.095000 0.000000
0.004000 0.095000 0.000000
0.004500 0.095000 0.000000
0.000500 0.093750 0.000000
0.001000 0.093750 0.000000
0.001500 0.093750 0.000000
0.002000 0.093750 0.000000
0.002500 0.093750 0.000000
0.003000 0.093750 0.000000
0.003500 0.093750 0.000000
0.004000 0.093750 0.000000
0.004500 0.093750 0.000000
0.000500 0.092500 0.000000
0.001000 0.092500 0.000000
0.001500 0.092500 0.000000
0.002000 0.092500 0.000000
0.002500 0.092500 0.000000
0.003000 0.092500 0.000000
0.003500 0.092500 0.000000
0.004000 0.092500 0.000000
0.004500 0.092500 0.000000
0.000500 0.091250 0.000000
0.001000 0.091250 0.000000
0.001500 0.091250 0.000000
0.002000 0.091250 0.000000
0.002500 0.091250 0.000000
0.003000 0.091250 0.000000
0.003500 0.091250 0.000000
0.004000 0.091250 0.000000
0.004500 0.091250 0.000000
0.000500 0.090000 0.000000
0.001000 0.090000 0.000000
0.001500 0.090000 0.000000
0.002000 0.090000 0.000000
0.002500 0.090000 0.000000
0.003000 0.090000 0.000000
0.003500 0.090000 0.000000
0.004000 0.090000 0.000000
0.004500 0.090000 0.000000
0.000500 0.088750 0.000000
0.001000 0.088750 0.000000
0.001500 0.088750 0.000000
0.002000 0.088750 0.000000
0.002500 0.088750 0.000000
0.003000 0.088750 0.000000
0.003500 0.088750 0.000000
0.004000 0.088750 0.000000
0.004500 0.088750 0.000000
0.000500 0.087500 0.000000
0.001000 0.087500 0.000000
0.001500 0.087500 0.000000
0.002000 0.087500 0.000000
0.002500 0.087500 0.000000
0.003000 0.087500 0.000000
0.003500 0.087500 0.000000
0.004000 0.087500 0.000000
0.004500 0.087500 0.000000
0.000500 0.086250 0.000000
0.001000 0.086250 0.000000
0.001500 0.086250 0.000000
0.002000 0.086250 0.000000
0.002500 0.086250 0.000000
0.003000 0.086250 0.000000
0.003500 0.086250 0.000000
0.004000 0.086250 0.000000
0.004500 0.086250 0.000000
0.000500 0.085000 0.000000
0.001000 0.085000 0.000000
0.001500 0.085000 0.000000
0.002000 0.085000 0.000000
0.002500 0.085000 0.000000
0.003000 0.085000 0.000000
0.003500 0.085000 0.000000
0.004000 0.085000 0.000000
0.004500 0.085000 0.000000
0.000500 0.083750 0.000000
0.001000 0.083750 0.000000
0.001500 0.083750 0.000000
0.002000 0.083750 0.000000
0.002500 0.083750 0.000000
0.003000 0.083750 0.000000
0.003500 0.083750 0.000000
0.004000 0.083750 0.000000
0.004500 0.083750 0.000000
0.000500 0.082500 0.000000
0.001000 0.082500 0.000000
0.001500 0.082500 0.000000
0.002000 0.082500 0.000000
0.002500 0.082500 0.000000
0.003000 0.082500 0.000000
0.003500 0.082500 0.000000
0.004000 0.082500 0.000000
0.004500 0.082500 0.000000
0.000500 0.081250 0.000000
0.001000 0.081250 0.000000
0.001500 0.081250 0.000000
0.002000 0.081250 0.000000
0.002500 0.081250 0.000000
0.003000 0.081250 0.000000
0.003500 0.081250 0.000000
0.004000 0.081250 0.000000
0.004500 0.081250 0.000000
0.000500 0.080000 0.000000
0.001000 0.080000 0.000000
0.001500 0.080000 0.000000
0.002000 0.080000 0.000000
0.002500 0.080000 0.000000
0.003000 0.080000 0.000000
0.003500 0.080000 0.000000
0.004000 0.080000 0.000000
0.004500 0.080000 0.000000
0.000500 0.078750 0.000000
0.001000 0.078750 0.000000
0.001500 0.078750 0.000000
0.002000 0.078750 0.000000
0.002500 0.078750 0.000000
0.003000 0.078750 0.000000
0.003500 0.078750 0.000000
0.004000 0.078750 0.000000
0.004500 0.078750 0.000000
0.000500 0.077500 0.000000
0.001000 0.077500 0.000000
0.001500 0.077500 0.000000
0.002000 0.077500 0.000000
0.002500 0.077500 0.000000
0.003000 0.077500 0.000000
0.003500 0.077500 0.000000
0.004000 0.077500 0.000000
0.004500 0.077500 0.000000
0.000500 0.076250 0.000000
0.001000 0.076250 0.000000
0.001500 0.076250 0.000000
0.002000 0.076250 0.000000
0.002500 0.076250 0.000000
0.003000 0.076250 0.000000
0.003500 0.076250 0.000000
0.004000 0.076250 0.000000
0.004500 0.076250 0.000000
0.000500 0.075000 0.000000
0.001000 0.075000 0.000000
0.001500 0.075000 0.000000
0.002000 0.075000 0.000000
0.002500 0.075000 0.000000
0.003000 0.075000 0.000000
0.003500 0.075000 0.000000
0.004000 0.075000 0.000000
0.004500 0.075000 0.000000
0.000500 0.073750 0.000000
0.001000 0.073750 0.000000
0.001500 0.073750 0.000000
0.002000 0.073750 0.000000
0.002500 0.073750 0.000000
0.003000 0.073750 0.000000
0.003500 0.073750 0.000000
0.004000 0.073750 0.000000
0.004500 0.073750 0.000000
0.000500 0.072500 0.000000
0.001000 0.072500 0.000000
0.001500 0.072500 0.000000
0.002000 0.072500 0.000000
0.002500 0.072500 0.000000
0.003000 0.072500 0.000000
0.003500 0.072500 0.000000
0.004000 0.072500 0.000000
0.004500 0.072500 0.000000
0.000500 0.071250 0.000000
0.001000 0.071250 0.000000
0.001500 0.071250 0.000000
0.002000 0.071250 0.000000
0.002500 0.071250 0.000000
0.003000 0.071250 0.000000
0.003500 0.071250 0.000000
0.004000 0.071250 0.000000
0.004500 0.071250 0.000000
0.000500 0.070000 0.000000
0.001000 0.070000 0.000000
0.001500 0.070000 0.000000
0.002000 0.070000 0.000000
0.002500 0.070000 0.000000
0.003000 0.070000 0.000000
0.003500 0.070000 0.000000
0.004000 0.070000 0.000000
0.004500 0.070000 0.000000
0.000500 0.068750 0.000000
0.001000 0.068750 0.000000
0.001500 0.068750 0.000000
0.002000 0.068750 0.000000
0.002500 0.068750 0.000000
0.003000 0.068750 0.000000
0.003500 0.068750 0.000000
0.004000 0.068750 0.000000
0.004500 0.068750 0.000000
0.000500 0.067500 0.000000
0.001000 0.067500 0.000000
0.001500 0.067500 0.000000
0.002000 0.067500 0.000000
0.002500 0.067500 0.000000
0.003000 0.067500 0.000000
0.003500 0.067500 0.000000
0.004000 0.067500 0.000000
0.004500 0.067500 0.000000
0.000500 0.066250 0.000000
0.001000 0.066250 0.000000
0.001500 0.066250 0.000000
0.002000 0.066250 0.000000
0.002500 0.066250 0.000000
0.003000 0.066250 0.000000
0.003500 0.066250 0.000000
0.004000 0.066250 0.000000
0.004500 0.066250 0.000000
0.000500 0.065000 0.000000
0.001000 0.065000 0.000000
0.001500 0.065000 0.000000
0.002000 0.065000 0.000000
0.002500 0.065000 0.000000
0.003000 0.065000 0.000000
0.003500 0.065000 0.000000
0.004000 0.065000 0.000000
0.004500 0.065000 0.000000
0.000500 0.063750 0.000000
0.001000 0.063750 0.000000
0.001500 0.063750 0.000000
0.002000 0.063750 0.000000
0.002500 0.063750 0.000000
0.003000 0.063750 0.000000
0.003500 0.063750 0.000000
0.004000 0.063750 0.000000
0.004500 0.063750 0.000000
0.000500 0.062500 0.000000
0.001000 0.062500 0.000000
0.001500 0.062500 0.000000
0.002000 0.062500 0.000000
0.002500 0.062500 0.000000
0.003000 0.062500 0.000000
0.003500 0.062500 0.000000
0.004000 0.062500 0.000000
0.004500 0.062500 0.000000
0.000500 0.061250 0.000000
0.001000 0.061250 0.000000
0.001500 0.061250 0.000000
0.002000 0.061250 0.000000
0.002500 0.061250 0.000000
0.003000 0.061250 0.000000
0.003500 0.061250 0.000000
0.004000 0.061250 0.000000
0.004500 0.061250 0.000000
0.000500 0.060000 0.000000
0.001000 0.060000 0.000000
0.001500 0.060000 0.000000
0.002000 0.060000 0.000000
0.002500 0.060000 0.000000
0.003000 0.060000 0.000000
0.003500 0.060000 0.000000
0.004000 0.060000 0.000000
0.004500 0.060000 0.000000
0.000500 0.058750 0.000000
0.001000 0.058750 0.000000
0.001500 0.058750 0.000000
0.002000 0.058750 0.000000
0.002500 0.058750 0.000000
0.003000 0.058750 0.000000
0.003500 0.058750 0.000000
0.004000 0.058750 0.000000
0.004500 0.058750 0.000000
0.000500 0.057500 0.000000
0.001000 0.057500 0.000000
0.001500 0.057500 0.000000
0.002000 0.057500 0.000000
0.002500 0.057500 0.000000
0.003000 0.057500 0.000000
0.003500 0.057500 0.000000
0.004000 0.057500 0.000000
0.004500 0.057500 0.000000
0.000500 0.056250 0.000000
0.001000 0.056250 0.000000
0.001500 0.056250 0.000000
0.002000 0.056250 0.000000
0.002500 0.056250 0.000000
0.003000 0.056250 0.000000
0.003500 0.056250 0.000000
0.004000 0.056250 0.000000
0.004500 0.056250 0.000000
0.000500 0.055000 0.000000
0.001000 0.055000 0.000000
0.001500 0.055000 0.000000
0.002000 0.055000 0.000000
0.002500 0.055000 0.000000
0.003000 0.055000 0.000000
0.003500 0.055000 0.000000
0.004000 0.055000 0.000000
0.004500 0.055000 0.000000
0.000500 0.053750 0.000000
0.001000 0.053750 0.000000
0.001500 0.053750 0.000000
0.002000 0.053750 0.000000
0.002500 0.053750 0.000000
0.003000 0.053750 0.000000
0.003500 0.053750 0.000000
0.004000 0.053750 0.000000
0.004500 0.053750 0.000000
0.000500 0.052500 0.000000
0.001000 0.052500 0.000000
0.001500 0.052500 0.000000
0.002000 0.052500 0.000000
0.002500 0.052500 0.000000
0.003000 0.052500 0.000000
0.003500 0.052500 0.000000
0.004000 0.052500 0.000000
0.004500 0.052500 0.000000
0.000500 0.051250 0.000000
0.001000 0.051250 0.000000
0.001500 0.051250 0.000000
0.002000 0.051250 0.000000
0.002500 0.051250 0.000000
0.003000 0.051250 0.000000
0.003500 0.051250 0.000000
0.004000 0.051250 0.000000
0.004500 0.051250 0.000000
0.000500 0.050000 0.000000
0.001000 0.050000 0.000000
0.001500 0.050000 0.000000
0.002000 0.050000 0.000000
0.002500 0.050000 0.000000
0.003000 0.050000 0.000000
0.003500 0.050000 0.000000
0.004000 0.050000 0.000000
0.004500 0.050000 0.000000
0.000500 0.048750 0.000000
0.001000 0.048750 0.000000
0.001500 0.048750 0.000000
0.002000 0.048750 0.000000
0.002500 0.048750 0.000000
0.003000 0.048750 0.000000
0.003500 0.048750 0.000000
0.004000 0.048750 0.000000
0.004500 0.048750 0.000000
0.000500 0.047500 0.000000
0.001000 0.047500 0.000000
0.001500 0.047500 0.000000
0.002000 0.047500 0.000000
0.002500 0.047500 0.000000
0.003000 0.047500 0.000000
0.003500 0.047500 0.000000
0.004000 0.047500 0.000000
0.004500 0.047500 0.000000
0.000500 0.046250 0.000000
0.001000 0.046250 0.000000
0.001500 0.046250 0.000000
0.002000 0.046250 0.000000
0.002500 0.046250 0.000000
0.003000 0.046250 0.000000
0.003500 0.046250 0.000000
0.004000 0.046250 0.000000
0.004500 0.046250 0.000000
0.000500 0.045000 0.000000
0.001000 0.045000 0.000000
0.001500 0.045000 0.000000
0.002000 0.045000 0.000000
0.002500 0.045000 0.000000
0.003000 0.045000 0.000000
0.003500 0.045000 0.000000
0.004000 0.045000 0.000000
0.004500 0.045000 0.000000
0.000500 0.043750 0.000000
0.001000 0.043750 0.000000
0.001500 0.043750 0.000000
0.002000 0.043750 0.000000
0.002500 0.043750 0.000000
0.003000 0.043750 0.000000
0.003500 0.043750 0.000000
0.004000 0.043750 0.000000
0.004500 0.043750 0.000000
0.000500 0.042500 0.000000
0.001000 0.042500 0.000000
0.001500 0.042500 0.000000
0.002000 0.042500 0.000000
0.002500 0.042500 0.000000
0.003000 0.042500 0.000000
0.003500 0.042500 0.000000
0.004000 0.042500 0.000000
0.004500 0.042500 0.000000
0.000500 0.041250 0.000000
0.001000 0.041250 0.000000
0.001500 0.041250 0.000000
0.002000 0.041250 0.000000
0.002500 0.041250 0.000000
0.003000 0.041250 0.000000
0.003500 0.041250 0.000000
0.004000 0.041250 0.000000
0.004500 0.041250 0.000000
0.000500 0.040000 0.000000
0.001000 0.040000 0.000000
0.001500 0.040000 0.000000
0.002000 0.040000 0.000000
0.002500 0.040000 0.000000
0.003000 0.040000 0.000000
0.003500 0.040000 0.000000
0.004000 0.040000 0.000000
0.004500 0.040000 0.000000
0.000500 0.038750 0.000000
0.001000 0.038750 0.000000
0.001500 0.038750 0.000000
0.002000 0.038750 0.000000
0.002500 0.038750 0.000000
0.003000 0.038750 0.000000
0.003500 0.038750 0.000000
0.004000 0.038750 0.000000
0.004500 0.038750 0.000000
0.000500 0.037500 0.000000
0.001000 0.037500 0.000000
0.001500 0.037500 0.000000
0.002000 0.037500 0.000000
0.002500 0.037500 0.000000
0.003000 0.037500 0.000000
0.003500 0.037500 0.000000
0.004000 0.037500 0.000000
0.004500 0.037500 0.000000
0.000500 0.036250 0.000000
0.001000 0.036250 0.000000
0.001500 0.036250 0.000000
0.002000 0.036250 0.000000
0.002500 0.036250 0.000000
0.003000 0.036250 0.000000
0.003500 0.036250 0.000000
0.004000 0.036250 0.000000
0.004500 0.036250 0.000000
0.000500 0.035000 0.000000
0.001000 0.035000 0.000000
0.001500 0.035000 0.000000
0.002000 0.035000 0.000000
0.002500 0.035000 0.000000
0.003000 0.035000 0.000000
0.003500 0.035000 0.000000
0.004000 0.035000 0.000000
0.004500 0.035000 0.000000
0.000500 0.033750 0.000000
0.001000 0.033750 0.000000
0.001500 0.033750 0.000000
0.002000 0.033750 0.000000
0.002500 0.033750 0.000000
0.003000 0.033750 0.000000
0.003500 0.033750 0.000000
0.004000 0.033750 0.000000
0.004500 0.033750 0.000000
0.000500 0.032500 0.000000
0.001000 0.032500 0.000000
0.001500 0.032500 0.000000
0.002000 0.032500 0.000000
0.002500 0.032500 0.000000
0.003000 0.032500 0.000000
0.003500 0.032500 0.000000
0.004000 0.032500 0.000000
0.004500 0.032500 0.000000
0.000500 0.031250 0.000000
0.001000 0.031250 0.000000
0.001500 0.031250 0.000000
0.002000 0.031250 0.000000
0.002500 0.031250 0.000000
0.003000 0.031250 0.000000
0.003500 0.031250 0.000000
0.004000 0.031250 0.000000
0.004500 0.031250 0.000000
0.000500 0.030000 0.000000
0.001000 0.030000 0.000000
0.001500 0.030000 0.000000
0.002000 0.030000 0.000000
0.002500 0.030000 0.000000
0.003000 0.030000 0.000000
0.003500 0.030000 0.000000
0.004000 0.030000 0.000000
0.004500 0.030000 0.000000
0.000500 0.028750 0.000000
0.001000 0.028750 0.000000
0.001500 0.028750 0.000000
0.002000 0.028750 0.000000
0.002500 0.028750 0.000000
0.003000 0.028750 0.000000
0.003500 0.028750 0.000000
0.004000 0.028750 0.000000
0.004500 0.028750 0.000000
0.000500 0.027500 0.000000
0.001000 0.027500 0.000000
0.001500 0.027500 0.000000
0.002000 0.027500 0.000000
0.002500 0.027500 0.000000
0.003000 0.027500 0.000000
0.003500 0.027500 0.000000
0.004000 0.027500 0.000000
0.004500 0.027500 0.000000
0.000500 0.026250 0.000000
0.001000 0.026250 0.000000
0.001500 0.026250 0.000000
0.002000 0.026250 0.000000
0.002500 0.026250 0.000000
0.003000 0.026250 0.000000
0.003500 0.026250 0.000000
0.004000 0.026250 0.000000
0.004500 0.026250 0.000000
0.000500 0.025000 0.000000
0.001000 0.025000 0.000000
0.001500 0.025000 0.000000
0.002000 0.025000 0.000000
0.002500 0.025000 0.000000
0.003000 0.025000 0.000000
0.003500 0.025000 0.000000
0.004000 0.025000 0.000000
0.004500 0.025000 0.000000
0.000500 0.023750 0.000000
0.001000 0.023750 0.000000
0.001500 0.023750 0.000000
0.002000 0.023750 0.000000
0.002500 0.023750 0.000000
0.003000 0.023750 0.000000
0.003500 0.023750 0.000000
0.004000 0.023750 0.000000
0.004500 0.023750 0.000000
0.000500 0.022500 0.000000
0.001000 0.022500 0.000000
0.001500 0.022500 0.000000
0.002000 0.022500 0.000000
0.002500 0.022500 0.000000
0.003000 0.022500 0.000000
0.003500 0.022500 0.000000
0.004000 0.022500 0.000000
0.004500 0.022500 0.000000
0.000500 0.021250 0.000000
0.001000 0.021250 0.000000
0.001500 0.021250 0.000000
0.002000 0.021250 0.000000
0.002500 0.021250 0.000000
0.003000 0.021250 0.000000
0.003500 0.021250 0.000000
0.004000 0.021250 0.000000
0.004500 0.021250 0.000000
0.000500 0.020000 0.000000
0.001000 0.020000 0.000000
0.001500 0.020000 0.000000
0.002000 0.020000 0.000000
0.002500 0.020000 0.000000
0.003000 0.020000 0.000000
0.003500 0.020000 0.000000
0.004000 0.020000 0.000000
0.004500 0.020000 0.000000
0.000500 0.018750 0.000000
0.001000 0.018750 0.000000
0.001500 0.018750 0.000000
0.002000 0.018750 0.000000
0.002500 0.018750 0.000000
0.003000 0.018750 0.000000
0.003500 0.018750 0.000000
0.004000 0.018750 0.000000
0.004500 0.018750 0.000000
0.000500 0.017500 0.000000
0.001000 0.017500 0.000000
0.001500 0.017500 0.000000
0.002000 0.017500 0.000000
0.002500 0.017500 0.000000
0.003000 0.017500 0.000000
0.003500 0.017500 0.000000
0.004000 0.017500 0.000000
0.004500 0.017500 0.000000
0.000500 0.016250 0.000000
0.001000 0.016250 0.000000
0.001500 0.016250 0.000000
0.002000 0.016250 0.000000
0.002500 0.016250 0.000000
0.003000 0.016250 0.000000
0.003500 0.016250 0.000000
0.004000 0.016250 0.000000
0.004500 0.016250 0.000000
0.000500 0.015000 0.000000
0.001000 0.015000 0.000000
0.001500 0.015000 0.000000
0.002000 0.015000 0.000000
0.002500 0.015000 0.000000
0.003000 0.015000 0.000000
0.003500 0.015000 0.000000
0.004000 0.015000 0.000000
0.004500 0.015000 0.000000
0.000500 0.013750 0.000000
0.001000 0.013750 0.000000
0.001500 0.013750 0.000000
0.002000 0.013750 0.000000
0.002500 0.013750 0.000000
0.003000 0.013750 0.000000
0.003500 0.013750 0.000000
0.004000 0.013750 0.000000
0.004500 0.013750 0.000000
0.000500 0.012500 0.000000
0.001000 0.012500 0.000000
0.001500 0.012500 0.000000
0.002000 0.012500 0.000000
0.002500 0.012500 0.000000
0.003000 0.012500 0.000000
0.003500 0.012500 0.000000
0.004000 0.012500 0.000000
0.004500 0.012500 0.000000
0.000500 0.011250 0.000000
0.001000 0.011250 0.000000
0.001500 0.011250 0.000000
0.002000 0.011250 0.000000
0.002500 0.011250 0.000000
0.003000 0.011250 0.000000
0.003500 0.011250 0.000000
0.004000 0.011250 0.000000
0.004500 0.011250 0.000000
0.000500 0.010000 0.000000
0.001000 0.010000 0.000000
0.001500 0.010000 0.000000
0.002000 0.010000 0.000000
0.002500 0.010000 0.000000
0.003000 0.010000 0.000000
0.003500 0.010000 0.000000
0.004000 0.010000 0.000000
0.004500 0.010000 0.000000
0.000500 0.008750 0.000000
0.001000 0.008750 0.000000
0.001500 0.008750 0.000000
0.002000 0.008750 0.000000
0.002500 0.008750 0.000000
0.003000 0.008750 0.000000
0.003500 0.008750 0.000000
0.004000 0.008750 0.000000
0.004500 0.008750 0.000000
0.000500 0.007500 0.000000
0.001000 0.007500 0.000000
0.001500 0.007500 0.000000
0.002000 0.007500 0.000000
0.002500 0.007500 0.000000
0.003000 0.007500 0.000000
0.003500 0.007500 0.000000
0.004000 0.007500 0.000000
0.004500 0.007500 0.000000
0.000500 0.006250 0.000000
0.001000 0.006250 0.000000
0.001500 0.006250 0.000000
0.002000 0.006250 0.000000
0.002500 0.006250 0.000000
0.003000 0.006250 0.000000
0.003500 0.006250 0.000000
0.004000 0.006250 0.000000
0.004500 0.006250 0.000000
0.000500 0.005000 0.000000
0.001000 0.005000 0.000000
0.001500 0.005000 0.000000
0.002000 0.005000 0.000000
0.002500 0.005000 0.000000
0.003000 0.005000 0.000000
0.003500 0.005000 0.000000
0.004000 0.005000 0.000000
0.004500 0.005000 0.000000
0.000500 0.003750 0.000000
0.001000 0.003750 0.000000
0.001500 0.003750 0.000000
0.002000 0.003750 0.000000
0.002500 0.003750 0.000000
0.003000 0.003750 0.000000
0.003500 0.003750 0.000000
0.004000 0.003750 0.000000
0.004500 0.003750 0.000000
0.000500 0.002500 0.000000
0.001000 0.002500 0.000000
0.001500 0.002500 0.000000
0.002000 0.002500 0.000000
0.002500 0.002500 0.000000
0.003000 0.002500 0.000000
0.003500 0.002500 0.000000
0.004000 0.002500 0.000000
0.004500 0.002500 0.000000
0.000500 0.001250 0.000000
0.001000 0.001250 0.000000
0.001500 0.001250 0.000000
0.002000 0.001250 0.000000
0.002500 0.001250 0.000000
0.003000 0.001250 0.000000
0.003500 0.001250 0.000000
0.004000 0.001250 0.000000
0.004500 0.001250 0.000000
CELLS 800 4000
4 82 83 180 179
4 179 180 181 178
4 178 181 182 177
4 177 182 183 176
4 176 183 184 175
4 175 184 185 174
4 174 185 186 173
4 173 186 187 172
4 172 187 188 171
4 171 188 80 0
4 83 84 189 180
4 180 189 190 181
4 181 190 191 182
4 182 191 192 183
4 183 192 193 184
4 184 193 194 185
4 185 194 195 186
4 186 195 196 187
4 187 196 197 188
4 188 197 79 80
4 84 85 198 189
4 189 198 199 190
4 190 199 200 191
4 191 200 201 192
4 192 201 202 193
4 193 202 203 194
4 194 203 204 195
4 195 204 205 196
4 196 205 206 197
4 197 206 78 79
4 85 86 207 198
4 198 207 208 199
4 199 208 209 200
4 200 209 210 201
4 201 210 211 202
4 202 211 212 203
4 203 212 213 204
4 204 213 214 205
4 205 214 215 206
4 206 215 77 78
4 86 87 216 207
4 207 216 217 208
4 208 217 218 209
4 209 218 219 210
4 210 219 220 211
4 211 220 221 212
4 212 221 222 213
4 213 222 223 214
4 214 223 224 215
4 215 224 76 77
4 87 88 225 216
4 216 225 226 217
4 217 226 227 218
4 218 227 228 219
4 219 228 229 220
4 220 229 230 221
4 221 230 231 222
4 222 231 232 223
4 223 232 233 224
4 224 233 75 76
4 88 89 234 225
4 225 234 235 226
4 226 235 236 227
4 227 236 237 228
4 228 237 238 229
4 229 238 239 230
4 230 239 240 231
4 231 240 241 232
4 232 241 242 233
4 233 242 74 75
4 89 90 243 234
4 234 243 244 235
4 235 244 245 236
4 236 245 246 237
4 237 246 247 238
4 238 247 248 239
4 239 248 249 240
4 240 249 250 241
4 241 250 251 242
4 242 251 73 74
4 90 91 252 243
4 243 252 253 244
4 244 253 254 245
4 245 254 255 246
4 246 255 256 247
4 247 256 257 248
4 248 257 258 249
4 249 258 259 250
4 250 259 260 251
4 251 260 72 73
4 91 92 261 252
4 252 261 262 253
4 253 262 263 254
4 254 263 264 255
4 255 264 265 256
4 256 265 266 257
4 257 266 267 258
4 258 267 268 259
4 259 268 269 260
4 260 269 71 72
4 92 93 270 261
4 261 270 271 262
4 262 271 272 263
4 263 272 273 264
4 264 273 274 265
4 265 274 275 266
4 266 275 276 267
4 267 276 277 268
4 268 277 278 269
4 269 278 70 71
4 93 94 279 270
4 270 279 280 271
4 271 280 281 272
4 272 281 282 273
4 273 282 283 274
4 274 283 284 275
4 275 284 285 276
4 276 285 286 277
4 277 286 287 278
4 278 287 69 70
4 94 95 288 279
4 279 288 289 280
4 280 289 290 281
4 281 290 291 282
4 282 291 292 283
4 283 292 293 284
4 284 293 294 285
4 285 294 295 286
4 286 295 296 287
4 287 296 68 69
4 95 96 297 288
4 288 297 298 289
4 289 298 299 290
4 290 299 300 291
4 291 300 301 292
4 292 301 302 293
4 293 302 303 294
4 294 303 304 295
4 295 304 305 296
4 296 305 67 68
4 96 97 306 297
4 297 306 307 298
4 298 307 308 299
4 299 308 309 300
4 300 309 310 301
4 301 310 311 302
4 302 311 312 303
4 303 312 313 304
4 304 313 314 305
4 305 314 66 67
4 97 98 315 306
4 306 315 316 307
4 307 316 317 308
4 308 317 318 309
4 309 318 319 310
4 310 319 320 311
4 311 320 321 312
4 312 321 322 313
4 313 322 323 314
4 314 323 65 66
4 98 99 324 315
4 315 324 325 316
4 316 325 326 317
4 317 326 327 318
4 318 327 328 319
4 319 328 329 320
4 320 329 330 321
4 321 330 331 322
4 322 331 332 323
4 323 332 64 65
4 99 100 333 324
4 324 333 334 325
4 325 334 335 326
4 326 335 336 327
4 327 336 337 328
4 328 337 338 329
4 329 338 339 330
4 330 339 340 331
4 331 340 341 332
4 332 341 63 64
4 100 101 342 333
4 333 342 343 334
4 334 343 344 335
4 335 344 345 336
4 336 345 346 337
4 337 346 347 338
4 338 347 348 339
4 339 348 349 340
4 340 349 350 341
4 341 350 62 63
4 101 102 351 342
4 342 351 352 343
4 343 352 353 344
4 344 353 354 345
4 345 354 355 346
4 346 355 356 347
4 347 356 357 348
4 348 357 358 349
4 349 358 359 350
4 350 359 61 62
4 102 103 360 351
4 351 360 361 352
4 352 361 362 353
4 353 362 363 354
4 354 363 364 355
4 355 364 365 356
4 356 365 366 357
4 357 366 367 358
4 358 367 368 359
4 359 368 60 61
4 103 104 369 360
4 360 369 370 361
4 361 370 371 362
4 362 371 372 363
4 363 372 373 364
4 364 373 374 365
4 365 374 375 366
4 366 375 376 367
4 367 376 377 368
4 368 377 59 60
4 104 105 378 369
4 369 378 379 370
4 370 379 380 371
4 371 380 381 372
4 372 381 382 373
4 373 382 383 374
4 374 383 384 375
4 375 384 385 376
4 376 385 386 377
4 377 386 58 59
4 105 106 387 378
4 378 387 388 379
4 379 388 389 380
4 380 389 390 381
4 381 390 391 382
4 382 391 392 383
4 383 392 393 384
4 384 393 394 385
4 385 394 395 386
4 386 395 57 58
4 106 107 396 387
4 387 396 397 388
4 388 397 398 389
4 389 398 399 390
4 390 399 400 391
4 391 400 401 392
4 392 401 402 393
4 393 402 403 394
4 394 403 404 395
4 395 404 56 57
4 107 108 405 396
4 396 405 406 397
4 397 406 407 398
4 398 407 408 399
4 399 408 409 400
4 400 409 410 401
4 401 410 411 402
4 402 411 412 403
4 403 412 413 404
4 404 413 55 56
4 108 109 414 405
4 405 414 415 406
4 406 415 416 407
4 407 416 417 408
4 408 417 418 409
4 409 418 419 410
4 410 419 420 411
4 411 420 421 412
4 412 421 422 413
4 413 422 54 55
4 109 110 423 414
4 414 423 424 415
4 415 424 425 416
4 416 425 426 417
4 417 426 427 418
4 418 427 428 419
4 419 428 429 420
4 420 429 430 421
4 421 430 431 422
4 422 431 53 54
4 110 111 432 423
4 423 432 433 424
4 424 433 434 425
4 425 434 435 426
4 426 435 436 427
4 427 436 437 428
4 428 437 438 429
4 429 438 439 430
4 430 439 440 431
4 431 440 52 53
4 111 112 441 432
4 432 441 442 433
4 433 442 443 434
4 434 443 444 435
4 435 444 445 436
4 436 445 446 437
4 437 446 447 438
4 438 447 448 439
4 439 448 449 440
4 440 449 51 52
4 112 113 450 441
4 441 450 451 442
4 442 451 452 443
4 443 452 453 444
4 444 453 454 445
4 445 454 455 446
4 446 455 456 447
4 447 456 457 448
4 448 457 458 449
4 449 458 50 51
4 113 114 459 450
4 450 459 460 451
4 451 460 461 452
4 452 461 462 453
4 453 462 463 454
4 454 463 464 455
4 455 464 465 456
4 456 465 466 457
4 457 466 467 458
4 458 467 49 50
4 114 115 468 459
4 459 468 469 460
4 460 469 470 461
4 461 470 471 462
4 462 471 472 463
4 463 472 473 464
4 464 473 474 465
4 465 474 475 466
4 466 475 476 467
4 467 476 48 49
4 115 116 477 468
4 468 477 478 469
4 469 478 479 470
4 470 479 480 471
4 471 480 481 472
4 472 481 482 473
4 473 482 483 474
4 474 483 484 475
4 475 484 485 476
4 476 485 47 48
4 116 117 486 477
4 477 486 487 478
4 478 487 488 479
4 479 488 489 480
4 480 489 490 481
4 481 490 491 482
4 482 491 492 483
4 483 492 493 484
4 484 493 494 485
4 485 494 46 47
4 117 118 495 486
4 486 495 496 487
4 487 496 497 488
4 488 497 498 489
4 489 498 499 490
4 490 499 500 491
4 491 500 501 492
4 492 501 502 493
4 493 502 503 494
4 494 503 45 46
4 118 119 504 495
4 495 504 505 496
4 496 505 506 497
4 497 506 507 498
4 498 507 508 499
4 499 508 509 500
4 500 509 510 501
4 501 510 511 502
4 502 511 512 503
4 503 512 44 45
4 119 120 513 504
4 504 513 514 505
4 505 514 515 506
4 506 515 516 507
4 507 516 517 508
4 508 517 518 509
4 509 518 519 510
4 510 519 520 511
4 511 520 521 512
4 512 521 43 44
4 120 121 522 513
4 513 522 523 514
4 514 523 524 515
4 515 524 525 516
4 516 525 526 517
4 517 526 527 518
4 518 527 528 519
4 519 528 529 520
4 520 529 530 521
4 521 530 42 43
4 121 122 531 522
4 522 531 532 523
4 523 532 533 524
4 524 533 534 525
4 525 534 535 526
4 526 535 536 527
4 527 536 537 528
4 528 537 538 529
4 529 538 539 530
4 530 539 41 42
4 122 123 540 531
4 531 540 541 532
4 532 541 542 533
4 533 542 543 534
4 534 543 544 535
4 535 544 545 536
4 536 545 546 537
4 537 546 547 538
4 538 547 548 539
4 539 548 40 41
4 123 124 549 540
4 540 549 550 541
4 541 550 551 542
4 542 551 552 543
4 543 552 553 544
4 544 553 554 545
4 545 554 555 546
4 546 555 556 547
4 547 556 557 548
4 548 557 39 40
4 124 125 558 549
4 549 558 559 550
4 550 559 560 551
4 551 560 561 552
4 552 561 562 553
4 553 562 563 554
4 554 563 564 555
4 555 564 565 556
4 556 565 566 557
4 557 566 38 39
4 125 126 567 558
4 558 567 568 559
4 559 568 569 560
4 560 569 570 561
4 561 570 571 562
4 562 571 572 563
4 563 572 573 564
4 564 573 574 565
4 565 574 575 566
4 566 575 37 38
4 126 127 576 567
4 567 576 577 568
4 568 577 578 569
4 569 578 579 570
4 570 579 580 571
4 571 580 581 572
4 572 581 582 573
4 573 582 583 574
4 574 583 584 575
4 575 584 36 37
4 127 128 585 576
4 576 585 586 577
4 577 586 587 578
4 578 587 588 579
4 579 588 589 580
4 580 589 590 581
4 581 590 591 582
4 582 591 592 583
4 583 592 593 584
4 584 593 35 36
4 128 129 594 585
4 585 594 595 586
4 586 595 596 587
4 587 596 597 588
4 588 597 598 589
4 589 598 599 590
4 590 599 600 591
4 591 600 601 592
4 592 601 602 593
4 593 602 34 35
4 129 130 603 594
4 594 603 604 595
4 595 604 605 596
4 596 605 606 597
4 597 606 607 598
4 598 607 608 599
4 599 608 609 600
4 600 609 610 601
4 601 610 611 602
4 602 611 33 34
4 130 131 612 603
4 603 612 613 604
4 604 613 614 605
4 605 614 615 606
4 606 615 616 607
4 607 616 617 608
4 608 617 618 609
4 609 618 619 610
4 610 619 620 611
4 611 620 32 33
4 131 132 621 612
4 612 621 622 613
4 613 622 623 614
4 614 623 624 615
4 615 624 625 616
4 616 625 626 617
4 617 626 627 618
4 618 627 628 619
4 619 628 629 620
4 620 629 31 32
4 132 133 630 621
4 621 630 631 622
4 622 631 632 623
4 623 632 633 624
4 624 633 634 625
4 625 634 635 626
4 626 635 636 627
4 627 636 637 628
4 628 637 638 629
4 629 638 30 31
4 133 134 639 630
4 630 639 640 631
4 631 640 641 632
4 632 641 642 633
4 633 642 643 634
4 634 643 644 635
4 635 644 645 636
4 636 645 646 637
4 637 646 647 638
4 638 647 29 30
4 134 135 648 639
4 639 648 649 640
4 640 649 650 641
4 641 650 651 642
4 642 651 652 643
4 643 652 653 644
4 644 653 654 645
4 645 654 655 646
4 646 655 656 647
4 647 656 28 29
4 135 136 657 648
4 648 657 658 649
4 649 658 659 650
4 650 659 660 651
4 651 660 661 652
4 652 661 662 653
4 653 662 663 654
4 654 663 664 655
4 655 664 665 656
4 656 665 27 28
4 136 137 666 657
4 657 666 667 658
4 658 667 668 659
4 659 668 669 660
4 660 669 670 661
4 661 670 671 662
4 662 671 672 663
4 663 672 673 664
4 664 673 674 665
4 665 674 26 27
4 137 138 675 666
4 666 675 676 667
4 667 676 677 668
4 668 677 678 669
4 669 678 679 670
4 670 679 680 671
4 671 680 681 672
4 672 681 682 673
4 673 682 683 674
4 674 683 25 26
4 138 139 684 675
4 675 684 685 676
4 676 685 686 677
4 677 686 687 678
4 678 687 688 679
4 679 688 689 680
4 680 689 690 681
4 681 690 691 682
4 682 691 692 683
4 683 692 24 25
4 139 140 693 684
4 684 693 694 685
4 685 694 695 686
4 686 695 696 687
4 687 696 697 688
4 688 697 698 689
4 689 698 699 690
4 690 699 700 691
4 691 700 701 692
4 692 701 23 24
4 140 141 702 693
4 693 702 703 694
4 694 703 704 695
4 695 704 705 696
4 696 705 706 697
4 697 706 707 698
4 698 707 708 699
4 699 708 709 700
4 700 709 710 701
4 701 710 22 23
4 141 142 711 702
4 702 711 712 703
4 703 712 713 704
4 704 713 714 705
4 705 714 715 706
4 706 715 716 707
4 707 716 717 708
4 708 717 718 709
4 709 718 719 710
4 710 719 21 22
4 142 143 720 711
4 711 720 721 712
4 712 721 722 713
4 713 722 723 714
4 714 723 724 715
4 715 724 725 716
4 716 725 726 717
4 717 726 727 718
4 718 727 728 719
4 719 728 20 21
4 143 144 729 720
4 720 729 730 721
4 721 730 731 722
4 722 731 732 723
4 723 732 733 724
4 724 733 734 725
4 725 734 735 726
4 726 735 736 727
4 727 736 737 728
4 728 737 19 20
4 144 145 738 729
4 729 738 739 730
4 730 739 740 731
4 731 740 741 732
4 732 741 742 733
4 733 742 743 734
4 734 743 744 735
4 735 744 745 736
4 736 745 746 737
4 737 746 18 19
4 145 146 747 738
4 738 747 748 739
4 739 748 749 740
4 740 749 750 741
4 741 750 751 742
4 742 751 752 743
4 743 752 753 744
4 744 753 754 745
4 745 754 755 746
4 746 755 17 18
4 146 147 756 747
4 747 756 757 748
4 748 757 758 749
4 749 758 759 750
4 750 759 760 751
4 751 760 761 752
4 752 761 762 753
4 753 762 763 754
4 754 763 764 755
4 755 764 16 17
4 147 148 765 756
4 756 765 766 757
4 757 766 767 758
4 758 767 768 759
4 759 768 769 760
4 760 769 770 761
4 761 770 771 762
4 762 771 772 763
4 763 772 773 764
4 764 773 15 16
4 148 149 774 765
4 765 774 775 766
4 766 775 776 767
4 767 776 777 768
4 768 777 778 769
4 769 778 779 770
4 770 779 780 771
4 771 780 781 772
4 772 781 782 773
4 773 782 14 15
4 149 150 783 774
4 774 783 784 775
4 775 784 785 776
4 776 785 786 777
4 777 786 787 778
4 778 787 788 779
4 779 788 789 780
4 780 789 790 781
4 781 790 791 782
4 782 791 13 14
4 150 151 792 783
4 783 792 793 784
4 784 793 794 785
4 785 794 795 786
4 786 795 796 787
4 787 796 797 788
4 788 797 798 789
4 789 798 799 790
4 790 799 800 791
4 791 800 12 13
4 151 152 801 792
4 792 801 802 793
4 793 802 803 794
4 794 803 804 795
4 795 804 805 796
4 796 805 806 797
4 797 806 807 798
4 798 807 808 799
4 799 808 809 800
4 800 809 11 12
4 152 153 810 801
4 801 810 811 802
4 802 811 812 803
4 803 812 813 804
4 804 813 814 805
4 805 814 815 806
4 806 815 816 807
4 807 816 817 808
4 808 817 818 809
4 809 818 10 11
4 153 154 819 810
4 810 819 820 811
4 811 820 821 812
4 812 821 822 813
4 813 822 823 814
4 814 823 824 815
4 815 824 825 816
4 816 825 826 817
4 817 826 827 818
4 818 827 9 10
4 154 155 828 819
4 819 828 829 820
4 820 829 830 821
4 821 830 831 822
4 822 831 832 823
4 823 832 833 824
4 824 833 834 825
4 825 834 835 826
4 826 835 836 827
4 827 836 8 9
4 155 156 837 828
4 828 837 838 829
4 829 838 839 830
4 830 839 840 831
4 831 840 841 832
4 832 841 842 833
4 833 842 843 834
4 834 843 844 835
4 835 844 845 836
4 836 845 7 8
4 156 157 846 837
4 837 846 847 838
4 838 847 848 839
4 839 848 849 840
4 840 849 850 841
4 841 850 851 842
4 842 851 852 843
4 843 852 853 844
4 844 853 854 845
4 845 854 6 7
4 157 158 855 846
4 846 855 856 847
4 847 856 857 848
4 848 857 858 849
4 849 858 859 850
4 850 859 860 851
4 851 860 861 852
4 852 861 862 853
4 853 862 863 854
4 854 863 5 6
4 158 159 864 855
4 855 864 865 856
4 856 865 866 857
4 857 866 867 858
4 858 867 868 859
4 859 868 869 860
4 860 869 870 861
4 861 870 871 862
4 862 871 872 863
4 863 872 4 5
4 159 160 873 864
4 864 873 874 865
4 865 874 875 866
4 866 875 876 867
4 867 876 877 868
4 868 877 878 869
4 869 878 879 870
4 870 879 880 871
4 871 880 881 872
4 872 881 3 4
4 160 161 882 873
4 873 882 883 874
4 874 883 884 875
4 875 884 885 876
4 876 885 886 877
4 877 886 887 878
4 878 887 888 879
4 879 888 889 880
4 880 889 890 881
4 881 890 2 3
4 161 81 162 882
4 882 162 163 883
4 883 163 164 884
4 884 164 165 885
4 885 165 166 886
4 886 166 167 887
4 887 167 168 888
4 888 168 169 889
4 889 169 170 890
4 890 170 1 2
CELL_TYPES 800
9
9
9
9
9
9
9
9
9
9
9
9
9
9
9
9
9
9
9
9
9
9
9
9
9
9
9
9
9
9
9
9
9
9
9
9
9
9
9
9
9
9
9
9
9
9
9
9
9
9
9
9
9
9
9
9
9
9
9
9
9
9
9
9
9
9
9
9
9
9
9
9
9
9
9
9
9
9
9
9
9
9
9
9
9
9
9
9
9
9
9
9
9
9
9
9
9
9
9
9
9
9
9
9
9
9
9
9
9
9
9
9
9
9
9
9
9
9
9
9
9
9
9
9
9
9
9
9
9
9
9
9
9
9
9
9
9
9
9
9
9
9
9
9
9
9
9
9
9
9
9
9
9
9
9
9
9
9
9
9
9
9
9
9
9
9
9
9
9
9
9
9
9
9
9
9
9
9
9
9
9
9
9
9
9
9
9
9
9
9
9
9
9
9
9
9
9
9
9
9
9
9
9
9
9
9
9
9
9
9
9
9
9
9
9
9
9
9
9
9
9
9
9
9
9
9
9
9
9
9
9
9
9
9
9
9
9
9
9
9
9
9
9
9
9
9
9
9
9
9
9
9
9
9
9
9
9
9
9
9
9
9
9
9
9
9
9
9
9
9
9
9
9
9
9
9
9
9
9
9
9
9
9
9
9
9
9
9
9
9
9
9
9
9
9
9
9
9
9
9
9
9
9
9
9
9
9
9
9
9
9
9
9
9
9
9
9
9
9
9
9
9
9
9
9
9
9
9
9
9
9
9
9
9
9
9
9
9
9
9
9
9
9
9
9
9
9
9
9
9
9
9
9
9
9
9
9
9
9
9
9
9
9
9
9
9
9
9
9
9
9
9
9
9
9
9
9
9
9
9
9
9
9
9
9
9
9
9
9
9
9
9
9
9
9
9
9
9
9
9
9
9
9
9
9
9
9
9
9
9
9
9
9
9
9
9
9
9
9
9
9
9
9
9
9
9
9
9
9
9
9
9
9
9
9
9
9
9
9
9
9
9
9
9
9
9
9
9
9
9
9
9
9
9
9
9
9
9
9
9
9
9
9
9
9
9
9
9
9
9
9
9
9
9
9
9
9
9
9
9
9
9
9
9
9
9
9
9
9
9
9
9
9
9
9
9
9
9
9
9
9
9
9
9
9
9
9
9
9
9
9
9
9
9
9
9
9
9
9
9
9
9
9
9
9
9
9
9
9
9
9
9
9
9
9
9
9
9
9
9
9
9
9
9
9
9
9
9
9
9
9
9
9
9
9
9
9
9
9
9
9
9
9
9
9
9
9
9
9
9
9
9
9
9
9
9
9
9
9
9
9
9
9
9
9
9
9
9
9
9
9
9
9
9
9
9
9
9
9
9
9
9
9
9
9
9
9
9
9
9
9
9
9
9
9
9
9
9
9
9
9
9
9
9
9
9
9
9
9
9
9
9
9
9
9
9
9
9
9
9
9
9
9
9
9
9
9
9
9
9
9
9
9
9
9
9
9
9
9
9
9
9
9
9
9
9
9
9
9
9
9
9
9
9
9
9
9
9
9
9
9
9
9
9
9
9
9
9
9
9
9
9
9
9
9
9
9
9
9
9
9
9
9
9
9
9
9
9
9
9
9
9
9
9
9
9
9
9
9
9
9
9
9
9
9
9
9
9
9
9
9
9
9
9
9
9
9
9
9
9
9
9
9
9
9
9
9
9
9
9
9
9
9
9
9
9
9
9
9
9
9
9
9
9
9
9
9
9
9
9
9
9
9
9
9
9
9
9
9
9
9
9
9
9
9
9
9
9
9
9
9
9
9
9
9
9
9
9
9
9
POINT_DATA 891
SCALARS u1 float
LOOKUP_TABLE default
-1e-17
-1e-06
-1e-06
-1e-06
-1e-06
-1e-06
-1e-06
-1e-06
-1e-06
-1e-06
-1e-06
-1e-06
-1e-06
-1e-06
-1e-06
-1e-06
-1e-06
-1e-06
-1e-06
-1e-06
-1e-06
-1e-06
-1e-06
-1e-06
-1e-06
-1e-06
-1e-06
-1e-06
-1e-06
-1e-06
-1e-06
-1e-06
-1e-06
-1e-06
-1e-06
-1e-06
-1e-06
-1e-06
-1e-06
-1e-06
-1e-06
-1e-06
-1e-06
-1e-06
-1e-06
-1e-06
-1e-06
-1e-06
-1e-06
-1e-06
-1e-06
-1e-06
-1e-06
-1e-06
-1e-06
-1e-06
-1e-06
-1e-06
-1e-06
-1e-06
-1e-06
-1e-06
-1e-06
-1e-06
-1e-06
-1e-06
-1e-06
-1e-06
-1e-06
-1e-06
-1e-06
-1e-06
-1e-06
-1e-06
-1e-06
-1e-06
-1e-06
-1e-06
-1e-06
-1e-06
-9e-07
1e-06
3e-18
9e-07
1e-06
1e-06
1e-06
1e-06
1e-06
1e-06
1e-06
1e-06
1e-06
1e-06
1e-06
1e-06
1e-06
1e-06
1e-06
1e-06
1e-06
1e-06
1e-06
1e-06
1e-06
1e-06
1e-06
1e-06
1e-06
1e-06
1e-06
1e-06
1e-06
1e-06
1e-06
1e-06
1e-06
1e-06
1e-06
1e-06
1e-06
1e-06
1e-06
1e-06
1e-06
1e-06
1e-06
1e-06
1e-06
1e-06
1e-06
1e-06
1e-06
1e-06
1e-06
1e-06
1e-06
1e-06
1e-06
1e-06
1e-06
1e-06
1e-06
1e-06
1e-06
1e-06
1e-06
1e-06
1e-06
1e-06
1e-06
1e-06
1e-06
1e-06
1e-06
1e-06
1e-06
1e-06
1e-06
1e-06
1e-06
1e-06
9e-07
7e-07
4e-07
2e-07
-2e-14
-2e-07
-4e-07
-7e-07
-9e-07
1e-17
4e-18
-1e-18
-4e-18
2e-18
6e-18
2e-17
-7e-18
-7e-18
6e-07
4e-07
3e-07
1e-07
-7e-15
-1e-07
-3e-07
-4e-07
-6e-07
9e-07
6e-07
4e-07
2e-07
-8e-15
-2e-07
-4e-07
-6e-07
-9e-07
9e-07
7e-07
5e-07
2e-07
-9e-15
-2e-07
-5e-07
-7e-07
-9e-07
9e-07
7e-07
4e-07
2e-07
-1e-14
-2e-07
-4e-07
-7e-07
-9e-07
9e-07
7e-07
4e-07
2e-07
-1e-14
-2e-07
-4e-07
-7e-07
-9e-07
9e-07
7e-07
4e-07
2e-07
-1e-14
-2e-07
-4e-07
-7e-07
-9e-07
9e-07
7e-07
4e-07
2e-07
-1e-14
-2e-07
-4e-07
-7e-07
-9e-07
9e-07
7e-07
4e-07
2e-07
-1e-14
-2e-07
-4e-07
-7e-07
-9e-07
9e-07
7e-07
4e-07
2e-07
-1e-14
-2e-07
-4e-07
-7e-07
-9e-07
9e-07
7e-07
4e-07
2e-07
-1e-14
-2e-07
-4e-07
-7e-07
-9e-07
9e-07
7e-07
4e-07
2e-07
-2e-14
-2e-07
-4e-07
-7e-07
-9e-07
9e-07
7e-07
4e-07
2e-07
-2e-14
-2e-07
-4e-07
-7e-07
-9e-07
9e-07
7e-07
4e-07
2e-07
-2e-14
-2e-07
-4e-07
-7e-07
-9e-07
9e-07
7e-07
4e-07
2e-07
-2e-14
-2e-07
-4e-07
-7e-07
-9e-07
9e-07
7e-07
4e-07
2e-07
-2e-14
-2e-07
-4e-07
-7e-07
-9e-07
9e-07
7e-07
4e-07
2e-07
-2e-14
-2e-07
-4e-07
-7e-07
-9e-07
9e-07
7e-07
4e-07
2e-07
-2e-14
-2e-07
-4e-07
-7e-07
-9e-07
9e-07
7e-07
4e-07
2e-07
-2e-14
-2e-07
-4e-07
-7e-07
-9e-07
9e-07
7e-07
4e-07
2e-07
-2e-14
-2e-07
-4e-07
-7e-07
-9e-07
9e-07
7e-07
4e-07
2e-07
-2e-14
-2e-07
-4e-07
-7e-07
-9e-07
9e-07
7e-07
4e-07
2e-07
-2e-14
-2e-07
-4e-07
-7e-07
-9e-07
9e-07
7e-07
4e-07
2e-07
-2e-14
-2e-07
-4e-07
-7e-07
-9e-07
9e-07
7e-07
4e-07
2e-07
-2e-14
-2e-07
-4e-07
-7e-07
-9e-07
9e-07
7e-07
4e-07
2e-07
-2e-14
-2e-07
-4e-07
-7e-07
-9e-07
9e-07
7e-07
4e-07
2e-07
-2e-14
-2e-07
-4e-07
-7e-07
-9e-07
9e-07
7e-07
4e-07
2e-07
-2e-14
-2e-07
-4e-07
-7e-07
-9e-07
9e-07
7e-07
4e-07
2e-07
-2e-14
-2e-07
-4e-07
-7e-07
-9e-07
9e-07
7e-07
4e-07
2e-07
-2e-14
-2e-07
-4e-07
-7e-07
-9e-07
9e-07
7e-07
4e-07
2e-07
-2e-14
-2e-07
-4e-07
-7e-07
-9e-07
9e-07
7e-07
4e-07
2e-07
-2e-14
-2e-07
-4e-07
-7e-07
-9e-07
9e-07
7e-07
4e-07
2e-07
-2e-14
-2e-07
-4e-07
-7e-07
-9e-07
9e-07
7e-07
4e-07
2e-07
-2e-14
-2e-07
-4e-07
-7e-07
-9e-07
9e-07
7e-07
4e-07
2e-07
-2e-14
-2e-07
-4e-07
-7e-07
-9e-07
9e-07
7e-07
4e-07
2e-07
-2e-14
-2e-07
-4e-07
-7e-07
-9e-07
9e-07
7e-07
4e-07
2e-07
-2e-14
-2e-07
-4e-07
-7e-07
-9e-07
9e-07
7e-07
4e-07
2e-07
-2e-14
-2e-07
-4e-07
-7e-07
-9e-07
9e-07
7e-07
4e-07
2e-07
-2e-14
-2e-07
-4e-07
-7e-07
-9e-07
9e-07
7e-07
4e-07
2e-07
-2e-14
-2e-07
-4e-07
-7e-07
-9e-07
9e-07
7e-07
4e-07
2e-07
-2e-14
-2e-07
-4e-07
-7e-07
-9e-07
9e-07
7e-07
4e-07
2e-07
-2e-14
-2e-07
-4e-07
-7e-07
-9e-07
9e-07
7e-07
4e-07
2e-07
-2e-14
-2e-07
-4e-07
-7e-07
-9e-07
9e-07
7e-07
4e-07
2e-07
-2e-14
-2e-07
-4e-07
-7e-07
-9e-07
9e-07
7e-07
4e-07
2e-07
-2e-14
-2e-07
-4e-07
-7e-07
-9e-07
9e-07
7e-07
4e-07
2e-07
-2e-14
-2e-07
-4e-07
-7e-07
-9e-07
9e-07
7e-07
4e-07
2e-07
-2e-14
-2e-07
-4e-07
-7e-07
-9e-07
9e-07
7e-07
4e-07
2e-07
-2e-14
-2e-07
-4e-07
-7e-07
-9e-07
9e-07
7e-07
4e-07
2e-07
-2e-14
-2e-07
-4e-07
-7e-07
-9e-07
9e-07
7e-07
4e-07
2e-07
-2e-14
-2e-07
-4e-07
-7e-07
-9e-07
9e-07
7e-07
4e-07
2e-07
-2e-14
-2e-07
-4e-07
-7e-07
-9e-07
9e-07
7e-07
4e-07
2e-07
-2e-14
-2e-07
-4e-07
-7e-07
-9e-07
9e-07
7e-07
4e-07
2e-07
-2e-14
-2e-07
-4e-07
-7e-07
-9e-07
9e-07
7e-07
4e-07
2e-07
-2e-14
-2e-07
-4e-07
-7e-07
-9e-07
9e-07
7e-07
4e-07
2e-07
-2e-14
-2e-07
-4e-07
-7e-07
-9e-07
9e-07
7e-07
4e-07
2e-07
-2e-14
-2e-07
-4e-07
-7e-07
-9e-07
9e-07
7e-07
4e-07
2e-07
-2e-14
-2e-07
-4e-07
-7e-07
-9e-07
9e-07
7e-07
4e-07
2e-07
-2e-14
-2e-07
-4e-07
-7e-07
-9e-07
9e-07
7e-07
4e-07
2e-07
-2e-14
-2e-07
-4e-07
-7e-07
-9e-07
9e-07
7e-07
4e-07
2e-07
-2e-14
-2e-07
-4e-07
-7e-07
-9e-07
9e-07
7e-07
4e-07
2e-07
-2e-14
-2e-07
-4e-07
-7e-07
-9e-07
9e-07
7e-07
4e-07
2e-07
-2e-14
-2e-07
-4e-07
-7e-07
-9e-07
9e-07
7e-07
4e-07
2e-07
-2e-14
-2e-07
-4e-07
-7e-07
-9e-07
9e-07
7e-07
4e-07
2e-07
-2e-14
-2e-07
-4e-07
-7e-07
-9e-07
9e-07
7e-07
4e-07
2e-07
-2e-14
-2e-07
-4e-07
-7e-07
-9e-07
9e-07
7e-07
4e-07
2e-07
-2e-14
-2e-07
-4e-07
-7e-07
-9e-07
9e-07
7e-07
4e-07
2e-07
-2e-14
-2e-07
-4e-07
-7e-07
-9e-07
9e-07
7e-07
4e-07
2e-07
-2e-14
-2e-07
-4e-07
-7e-07
-9e-07
9e-07
7e-07
4e-07
2e-07
-2e-14
-2e-07
-4e-07
-7e-07
-9e-07
9e-07
7e-07
4e-07
2e-07
-2e-14
-2e-07
-4e-07
-7e-07
-9e-07
9e-07
7e-07
4e-07
2e-07
-2e-14
-2e-07
-4e-07
-7e-07
-9e-07
9e-07
7e-07
4e-07
2e-07
-2e-14
-2e-07
-4e-07
-7e-07
-9e-07
9e-07
7e-07
4e-07
2e-07
-2e-14
-2e-07
-4e-07
-7e-07
-9e-07
9e-07
7e-07
4e-07
2e-07
-2e-14
-2e-07
-4e-07
-7e-07
-9e-07
9e-07
7e-07
4e-07
2e-07
-2e-14
-2e-07
-4e-07
-7e-07
-9e-07
9e-07
7e-07
4e-07
2e-07
-2e-14
-2e-07
-4e-07
-7e-07
-9e-07
9e-07
7e-07
4e-07
2e-07
-2e-14
-2e-07
-4e-07
-7e-07
-9e-07
9e-07
7e-07
4e-07
2e-07
-2e-14
-2e-07
-4e-07
-7e-07
-9e-07
9e-07
7e-07
4e-07
2e-07
-2e-14
-2e-07
-4e-07
-7e-07
-9e-07
9e-07
7e-07
4e-07
2e-07
-2e-14
-2e-07
-4e-07
-7e-07
-9e-07
9e-07
7e-07
4e-07
2e-07
-2e-14
-2e-07
-4e-07
-7e-07
-9e-07
SCALARS u2 float
LOOKUP_TABLE default
1e-17
-0.0003
-0.0003
-0.0003
-0.0003
-0.0003
-0.0003
-0.0003
-0.0003
-0.0003
-0.0003
-0.0003
-0.0003
-0.0003
-0.0003
-0.0002
-0.0002
-0.0002
-0.0002
-0.0002
-0.0002
-0.0002
-0.0002
-0.0002
-0.0002
-0.0002
-0.0002
-0.0002
-0.0002
-0.0002
-0.0002
-0.0002
-0.0002
-0.0002
-0.0002
-0.0002
-0.0002
-0.0002
-0.0002
-0.0002
-0.0002
-0.0002
-0.0001
-0.0001
-0.0001
-0.0001
-0.0001
-0.0001
-0.0001
-0.0001
-0.0001
-0.0001
-0.0001
-0.0001
-0.0001
-0.0001
-9e-05
-9e-05
-9e-05
-8e-05
-8e-05
-8e-05
-7e-05
-7e-05
-6e-05
-6e-05
-6e-05
-5e-05
-5e-05
-5e-05
-4e-05
-4e-05
-3e-05
-3e-05
-3e-05
-2e-05
-2e-05
-2e-05
-1e-05
-8e-06
-4e-06
-0.0003
-3e-17
-4e-06
-8e-06
-1e-05
-2e-05
-2e-05
-2e-05
-3e-05
-3e-05
-3e-05
-4e-05
-4e-05
-5e-05
-5e-05
-5e-05
-6e-05
-6e-05
-6e-05
-7e-05
-7e-05
-8e-05
-8e-05
-8e-05
-9e-05
-9e-05
-9e-05
-0.0001
-0.0001
-0.0001
-0.0001
-0.0001
-0.0001
-0.0001
-0.0001
-0.0001
-0.0001
-0.0001
-0.0001
-0.0001
-0.0001
-0.0002
-0.0002
-0.0002
-0.0002
-0.0002
-0.0002
-0.0002
-0.0002
-0.0002
-0.0002
-0.0002
-0.0002
-0.0002
-0.0002
-0.0002
-0.0002
-0.0002
-0.0002
-0.0002
-0.0002
-0.0002
-0.0002
-0.0002
-0.0002
-0.0002
-0.0002
-0.0002
-0.0003
-0.0003
-0.0003
-0.0003
-0.0003
-0.0003
-0.0003
-0.0003
-0.0003
-0.0003
-0.0003
-0.0003
-0.0003
-0.0003
-0.0003
-0.0003
-0.0003
-0.0003
-0.0003
-0.0003
-0.0003
-0.0003
-9e-17
2e-17
-5e-17
-3e-17
-4e-17
3e-17
4e-17
-5e-18
-3e-17
-4e-06
-4e-06
-4e-06
-4e-06
-4e-06
-4e-06
-4e-06
-4e-06
-4e-06
-8e-06
-7e-06
-7e-06
-7e-06
-7e-06
-7e-06
-7e-06
-7e-06
-8e-06
-1e-05
-1e-05
-1e-05
-1e-05
-1e-05
-1e-05
-1e-05
-1e-05
-1e-05
-2e-05
-2e-05
-2e-05
-2e-05
-2e-05
-2e-05
-2e-05
-2e-05
-2e-05
-2e-05
-2e-05
-2e-05
-2e-05
-2e-05
-2e-05
-2e-05
-2e-05
-2e-05
-2e-05
-2e-05
-2e-05
-2e-05
-2e-05
-2e-05
-2e-05
-2e-05
-2e-05
-3e-05
-3e-05
-3e-05
-3e-05
-3e-05
-3e-05
-3e-05
-3e-05
-3e-05
-3e-05
-3e-05
-3e-05
-3e-05
-3e-05
-3e-05
-3e-05
-3e-05
-3e-05
-3e-05
-3e-05
-3e-05
-3e-05
-3e-05
-3e-05
-3e-05
-3e-05
-3e-05
-4e-05
-4e-05
-4e-05
-4e-05
-4e-05
-4e-05
-4e-05
-4e-05
-4e-05
-4e-05
-4e-05
-4e-05
-4e-05
-4e-05
-4e-05
-4e-05
-4e-05
-4e-05
-5e-05
-5e-05
-5e-05
-5e-05
-5e-05
-5e-05
-5e-05
-5e-05
-5e-05
-5e-05
-5e-05
-5e-05
-5e-05
-5e-05
-5e-05
-5e-05
-5e-05
-5e-05
-5e-05
-5e-05
-5e-05
-5e-05
-5e-05
-5e-05
-5e-05
-5e-05
-5e-05
-6e-05
-6e-05
-6e-05
-6e-05
-6e-05
-6e-05
-6e-05
-6e-05
-6e-05
-6e-05
-6e-05
-6e-05
-6e-05
-6e-05
-6e-05
-6e-05
-6e-05
-6e-05
-6e-05
-6e-05
-6e-05
-6e-05
-6e-05
-6e-05
-6e-05
-6e-05
-6e-05
-7e-05
-7e-05
-7e-05
-7e-05
-7e-05
-7e-05
-7e-05
-7e-05
-7e-05
-7e-05
-7e-05
-7e-05
-7e-05
-7e-05
-7e-05
-7e-05
-7e-05
-7e-05
-8e-05
-8e-05
-8e-05
-8e-05
-8e-05
-8e-05
-8e-05
-8e-05
-8e-05
-8e-05
-8e-05
-8e-05
-8e-05
-8e-05
-8e-05
-8e-05
-8e-05
-8e-05
-8e-05
-8e-05
-8e-05
-8e-05
-8e-05
-8e-05
-8e-05
-8e-05
-8e-05
-9e-05
-9e-05
-9e-05
-9e-05
-9e-05
-9e-05
-9e-05
-9e-05
-9e-05
-9e-05
-9e-05
-9e-05
-9e-05
-9e-05
-9e-05
-9e-05
-9e-05
-9e-05
-9e-05
-9e-05
-9e-05
-9e-05
-9e-05
-9e-05
-9e-05
-9e-05
-9e-05
-0.0001
-0.0001
-0.0001
-0.0001
-0.0001
-0.0001
-0.0001
-0.0001
-0.0001
-0.0001
-0.0001
-0.0001
-0.0001
-0.0001
-0.0001
-0.0001
-0.0001
-0.0001
-0.0001
-0.0001
-0.0001
-0.0001
-0.0001
-0.0001
-0.0001
-0.0001
-0.0001
-0.0001
-0.0001
-0.0001
-0.0001
-0.0001
-0.0001
-0.0001
-0.0001
-0.0001
-0.0001
-0.0001
-0.0001
-0.0001
-0.0001
-0.0001
-0.0001
-0.0001
-0.0001
-0.0001
-0.0001
-0.0001
-0.0001
-0.0001
-0.0001
-0.0001
-0.0001
-0.0001
-0.0001
-0.0001
-0.0001
-0.0001
-0.0001
-0.0001
-0.0001
-0.0001
-0.0001
-0.0001
-0.0001
-0.0001
-0.0001
-0.0001
-0.0001
-0.0001
-0.0001
-0.0001
-0.0001
-0.0001
-0.0001
-0.0001
-0.0001
-0.0001
-0.0001
-0.0001
-0.0001
-0.0001
-0.0001
-0.0001
-0.0001
-0.0001
-0.0001
-0.0001
-0.0001
-0.0001
-0.0001
-0.0001
-0.0001
-0.0001
-0.0001
-0.0001
-0.0001
-0.0001
-0.0001
-0.0001
-0.0001
-0.0001
-0.0001
-0.0001
-0.0001
-0.0001
-0.0001
-0.0001
-0.0001
-0.0001
-0.0001
-0.0001
-0.0001
-0.0001
-0.0001
-0.0001
-0.0001
-0.0001
-0.0001
-0.0001
-0.0001
-0.0001
-0.0001
-0.0001
-0.0001
-0.0001
-0.0002
-0.0002
-0.0002
-0.0002
-0.0002
-0.0002
-0.0002
-0.0002
-0.0002
-0.0002
-0.0002
-0.0002
-0.0002
-0.0002
-0.0002
-0.0002
-0.0002
-0.0002
-0.0002
-0.0002
-0.0002
-0.0002
-0.0002
-0.0002
-0.0002
-0.0002
-0.0002
-0.0002
-0.0002
-0.0002
-0.0002
-0.0002
-0.0002
-0.0002
-0.0002
-0.0002
-0.0002
-0.0002
-0.0002
-0.0002
-0.0002
-0.0002
-0.0002
-0.0002
-0.0002
-0.0002
-0.0002
-0.0002
-0.0002
-0.0002
-0.0002
-0.0002
-0.0002
-0.0002
-0.0002
-0.0002
-0.0002
-0.0002
-0.0002
-0.0002
-0.0002
-0.0002
-0.0002
-0.0002
-0.0002
-0.0002
-0.0002
-0.0002
-0.0002
-0.0002
-0.0002
-0.0002
-0.0002
-0.0002
-0.0002
-0.0002
-0.0002
-0.0002
-0.0002
-0.0002
-0.0002
-0.0002
-0.0002
-0.0002
-0.0002
-0.0002
-0.0002
-0.0002
-0.0002
-0.0002
-0.0002
-0.0002
-0.0002
-0.0002
-0.0002
-0.0002
-0.0002
-0.0002
-0.0002
-0.0002
-0.0002
-0.0002
-0.0002
-0.0002
-0.0002
-0.0002
-0.0002
-0.0002
-0.0002
-0.0002
-0.0002
-0.0002
-0.0002
-0.0002
-0.0002
-0.0002
-0.0002
-0.0002
-0.0002
-0.0002
-0.0002
-0.0002
-0.0002
-0.0002
-0.0002
-0.0002
-0.0002
-0.0002
-0.0002
-0.0002
-0.0002
-0.0002
-0.0002
-0.0002
-0.0002
-0.0002
-0.0002
-0.0002
-0.0002
-0.0002
-0.0002
-0.0002
-0.0002
-0.0002
-0.0002
-0.0002
-0.0002
-0.0002
-0.0002
-0.0002
-0.0002
-0.0002
-0.0002
-0.0002
-0.0002
-0.0002
-0.0002
-0.0002
-0.0002
-0.0002
-0.0002
-0.0002
-0.0002
-0.0002
-0.0002
-0.0002
-0.0002
-0.0002
-0.0002
-0.0002
-0.0002
-0.0002
-0.0002
-0.0002
-0.0002
-0.0002
-0.0002
-0.0002
-0.0002
-0.0002
-0.0002
-0.0002
-0.0002
-0.0002
-0.0002
-0.0002
-0.0002
-0.0002
-0.0002
-0.0002
-0.0002
-0.0002
-0.0002
-0.0002
-0.0002
-0.0002
-0.0002
-0.0002
-0.0002
-0.0002
-0.0002
-0.0002
-0.0002
-0.0002
-0.0002
-0.0002
-0.0002
-0.0002
-0.0002
-0.0002
-0.0002
-0.0002
-0.0002
-0.0002
-0.0002
-0.0002
-0.0002
-0.0002
-0.0002
-0.0002
-0.0002
-0.0002
-0.0002
-0.0002
-0.0002
-0.0002
-0.0002
-0.0002
-0.0002
-0.0002
-0.0002
-0.0002
-0.0002
-0.0002
-0.0002
-0.0002
-0.0002
-0.0002
-0.0002
-0.0002
-0.0002
-0.0002
-0.0002
-0.0003
-0.0003
-0.0003
-0.0003
-0.0003
-0.0003
-0.0003
-0.0003
-0.0003
-0.0003
-0.0003
-0.0003
-0.0003
-0.0003
-0.0003
-0.0003
-0.0003
-0.0003
-0.0003
-0.0003
-0.0003
-0.0003
-0.0003
-0.0003
-0.0003
-0.0003
-0.0003
-0.0003
-0.0003
-0.0003
-0.0003
-0.0003
-0.0003
-0.0003
-0.0003
-0.0003
-0.0003
-0.0003
-0.0003
-0.0003
-0.0003
-0.0003
-0.0003
-0.0003
-0.0003
-0.0003
-0.0003
-0.0003
-0.0003
-0.0003
-0.0003
-0.0003
-0.0003
-0.0003
-0.0003
-0.0003
-0.0003
-0.0003
-0.0003
-0.0003
-0.0003
-0.0003
-0.0003
-0.0003
-0.0003
-0.0003
-0.0003
-0.0003
-0.0003
-0.0003
-0.0003
-0.0003
-0.0003
-0.0003
-0.0003
-0.0003
-0.0003
-0.0003
-0.0003
-0.0003
-0.0003
-0.0003
-0.0003
-0.0003
-0.0003
-0.0003
-0.0003
-0.0003
-0.0003
-0.0003
-0.0003
-0.0003
-0.0003
-0.0003
-0.0003
-0.0003
-0.0003
-0.0003
-0.0003
-0.0003
-0.0003
-0.0003
-0.0003
-0.0003
-0.0003
-0.0003
-0.0003
-0.0003
-0.0003
-0.0003
-0.0003
-0.0003
-0.0003
-0.0003
-0.0003
-0.0003
-0.0003
SCALARS strain_1 float
LOOKUP_TABLE default
-0.000080
-0.127859
-0.125925
-0.123981
-0.122029
-0.120068
-0.118098
-0.116121
-0.114136
-0.112144
-0.110146
-0.108142
-0.106132
-0.104118
-0.102100
-0.100079
-0.098054
-0.096027
-0.093999
-0.091970
-0.089941
-0.087912
-0.085885
-0.083861
-0.081839
-0.079820
-0.077807
-0.075799
-0.073797
-0.071802
-0.069815
-0.067838
-0.065870
-0.063913
-0.061968
-0.060035
-0.058116
-0.056212
-0.054323
-0.052451
-0.050596
-0.048760
-0.046943
-0.045147
-0.043372
-0.041620
-0.039890
-0.038186
-0.036507
-0.034853
-0.033227
-0.031629
-0.030060
-0.028521
-0.027012
-0.025536
-0.024091
-0.022679
-0.021301
-0.019959
-0.018650
-0.017378
-0.016143
-0.014945
-0.013784
-0.012661
-0.011577
-0.010532
-0.009526
-0.008560
-0.007633
-0.006746
-0.005900
-0.005094
-0.004327
-0.003602
-0.002916
-0.002270
-0.001664
-0.001097
-0.000569
-0.127972
-0.000003
-0.000493
-0.001022
-0.001591
-0.002199
-0.002846
-0.003534
-0.004262
-0.005030
-0.005838
-0.006686
-0.007575
-0.008505
-0.009473
-0.010481
-0.011529
-0.012615
-0.013741
-0.014904
-0.016105
-0.017343
-0.018618
-0.019928
-0.021274
-0.022655
-0.024070
-0.025516
-0.026997
-0.028508
-0.030051
-0.031622
-0.033224
-0.034853
-0.036509
-0.038191
-0.039898
-0.041631
-0.043386
-0.045164
-0.046963
-0.048783
-0.050622
-0.052480
-0.054355
-0.056247
-0.058154
-0.060076
-0.062011
-0.063959
-0.065919
-0.067889
-0.069870
-0.071859
-0.073856
-0.075861
-0.077871
-0.079887
-0.081908
-0.083933
-0.085960
-0.087989
-0.090020
-0.092051
-0.094083
-0.096113
-0.098142
-0.100168
-0.102192
-0.104212
-0.106228
-0.108239
-0.110245
-0.112245
-0.114239
-0.116226
-0.118204
-0.120175
-0.122138
-0.124092
-0.126037
-0.127961
-0.127951
-0.127939
-0.127928
-0.127917
-0.127905
-0.127893
-0.127882
-0.127870
-0.000065
-0.000051
-0.000039
-0.000029
-0.000021
-0.000014
-0.000008
-0.000005
-0.000003
-0.000494
-0.000495
-0.000498
-0.000503
-0.000510
-0.000519
-0.000529
-0.000541
-0.000554
-0.001022
-0.001024
-0.001027
-0.001032
-0.001039
-0.001047
-0.001057
-0.001069
-0.001082
-0.001591
-0.001592
-0.001595
-0.001600
-0.001606
-0.001614
-0.001624
-0.001635
-0.001649
-0.002198
-0.002199
-0.002202
-0.002207
-0.002213
-0.002221
-0.002231
-0.002242
-0.002255
-0.002846
-0.002846
-0.002849
-0.002853
-0.002859
-0.002867
-0.002877
-0.002888
-0.002901
-0.003533
-0.003534
-0.003536
-0.003540
-0.003546
-0.003554
-0.003563
-0.003574
-0.003587
-0.004260
-0.004261
-0.004263
-0.004267
-0.004273
-0.004281
-0.004290
-0.004300
-0.004313
-0.005029
-0.005028
-0.005031
-0.005035
-0.005040
-0.005047
-0.005056
-0.005067
-0.005079
-0.005837
-0.005836
-0.005838
-0.005842
-0.005847
-0.005854
-0.005863
-0.005874
-0.005886
-0.006685
-0.006685
-0.006686
-0.006690
-0.006695
-0.006701
-0.006711
-0.006720
-0.006733
-0.007573
-0.007573
-0.007574
-0.007578
-0.007583
-0.007589
-0.007598
-0.007607
-0.007619
-0.008502
-0.008501
-0.008502
-0.008506
-0.008510
-0.008517
-0.008525
-0.008534
-0.008546
-0.009471
-0.009470
-0.009471
-0.009473
-0.009478
-0.009484
-0.009492
-0.009502
-0.009513
-0.010479
-0.010477
-0.010479
-0.010481
-0.010485
-0.010491
-0.010499
-0.010508
-0.010519
-0.011526
-0.011525
-0.011525
-0.011528
-0.011532
-0.011537
-0.011545
-0.011554
-0.011565
-0.012612
-0.012611
-0.012612
-0.012614
-0.012618
-0.012623
-0.012630
-0.012638
-0.012649
-0.013737
-0.013736
-0.013736
-0.013738
-0.013741
-0.013747
-0.013754
-0.013762
-0.013772
-0.014901
-0.014899
-0.014899
-0.014900
-0.014903
-0.014909
-0.014915
-0.014924
-0.014933
-0.016102
-0.016100
-0.016099
-0.016101
-0.016104
-0.016108
-0.016114
-0.016122
-0.016132
-0.017340
-0.017337
-0.017337
-0.017338
-0.017341
-0.017345
-0.017351
-0.017358
-0.017368
-0.018614
-0.018611
-0.018611
-0.018612
-0.018614
-0.018618
-0.018624
-0.018631
-0.018640
-0.019924
-0.019922
-0.019921
-0.019922
-0.019924
-0.019927
-0.019933
-0.019939
-0.019948
-0.021270
-0.021267
-0.021266
-0.021266
-0.021268
-0.021272
-0.021277
-0.021284
-0.021292
-0.022651
-0.022647
-0.022646
-0.022646
-0.022648
-0.022651
-0.022656
-0.022662
-0.022670
-0.024065
-0.024062
-0.024060
-0.024059
-0.024061
-0.024064
-0.024068
-0.024074
-0.024082
-0.025512
-0.025509
-0.025507
-0.025506
-0.025507
-0.025510
-0.025514
-0.025520
-0.025527
-0.026991
-0.026988
-0.026986
-0.026985
-0.026986
-0.026988
-0.026992
-0.026997
-0.027004
-0.028503
-0.028499
-0.028497
-0.028496
-0.028496
-0.028498
-0.028502
-0.028507
-0.028513
-0.030045
-0.030041
-0.030038
-0.030037
-0.030038
-0.030039
-0.030042
-0.030047
-0.030053
-0.031617
-0.031613
-0.031610
-0.031609
-0.031608
-0.031610
-0.031612
-0.031617
-0.031622
-0.033218
-0.033213
-0.033210
-0.033208
-0.033208
-0.033209
-0.033212
-0.033215
-0.033221
-0.034846
-0.034842
-0.034839
-0.034836
-0.034836
-0.034837
-0.034839
-0.034842
-0.034847
-0.036502
-0.036498
-0.036494
-0.036492
-0.036491
-0.036492
-0.036493
-0.036496
-0.036501
-0.038184
-0.038180
-0.038176
-0.038173
-0.038173
-0.038173
-0.038174
-0.038177
-0.038181
-0.039892
-0.039887
-0.039883
-0.039880
-0.039879
-0.039879
-0.039880
-0.039882
-0.039886
-0.041624
-0.041618
-0.041614
-0.041612
-0.041610
-0.041609
-0.041610
-0.041612
-0.041615
-0.043379
-0.043374
-0.043369
-0.043366
-0.043364
-0.043363
-0.043363
-0.043365
-0.043368
-0.045157
-0.045152
-0.045146
-0.045143
-0.045141
-0.045140
-0.045140
-0.045141
-0.045143
-0.046956
-0.046950
-0.046945
-0.046941
-0.046939
-0.046938
-0.046938
-0.046938
-0.046940
-0.048776
-0.048769
-0.048765
-0.048761
-0.048758
-0.048756
-0.048755
-0.048756
-0.048757
-0.050614
-0.050608
-0.050603
-0.050599
-0.050596
-0.050594
-0.050593
-0.050593
-0.050594
-0.052472
-0.052466
-0.052460
-0.052456
-0.052453
-0.052450
-0.052449
-0.052448
-0.052449
-0.054348
-0.054341
-0.054335
-0.054330
-0.054326
-0.054324
-0.054322
-0.054322
-0.054322
-0.056239
-0.056232
-0.056226
-0.056221
-0.056218
-0.056214
-0.056212
-0.056211
-0.056211
-0.058146
-0.058139
-0.058133
-0.058127
-0.058123
-0.058120
-0.058118
-0.058116
-0.058116
-0.060068
-0.060060
-0.060054
-0.060049
-0.060044
-0.060040
-0.060038
-0.060036
-0.060035
-0.062003
-0.061996
-0.061989
-0.061983
-0.061979
-0.061975
-0.061972
-0.061970
-0.061968
-0.063951
-0.063943
-0.063937
-0.063931
-0.063926
-0.063921
-0.063918
-0.063916
-0.063914
-0.065911
-0.065903
-0.065896
-0.065890
-0.065885
-0.065880
-0.065876
-0.065874
-0.065871
-0.067881
-0.067873
-0.067866
-0.067860
-0.067854
-0.067850
-0.067845
-0.067842
-0.067840
-0.069861
-0.069853
-0.069846
-0.069840
-0.069834
-0.069829
-0.069824
-0.069821
-0.069818
-0.071851
-0.071842
-0.071835
-0.071828
-0.071822
-0.071817
-0.071812
-0.071808
-0.071805
-0.073847
-0.073839
-0.073832
-0.073825
-0.073818
-0.073813
-0.073808
-0.073804
-0.073800
-0.075852
-0.075843
-0.075836
-0.075828
-0.075822
-0.075816
-0.075811
-0.075807
-0.075802
-0.077862
-0.077853
-0.077846
-0.077838
-0.077832
-0.077826
-0.077820
-0.077815
-0.077811
-0.079878
-0.079870
-0.079861
-0.079854
-0.079847
-0.079840
-0.079835
-0.079829
-0.079825
-0.081899
-0.081890
-0.081882
-0.081874
-0.081867
-0.081860
-0.081854
-0.081848
-0.081843
-0.083923
-0.083914
-0.083906
-0.083898
-0.083891
-0.083883
-0.083877
-0.083871
-0.083866
-0.085950
-0.085941
-0.085932
-0.085925
-0.085917
-0.085910
-0.085903
-0.085897
-0.085891
-0.087980
-0.087971
-0.087962
-0.087954
-0.087946
-0.087938
-0.087931
-0.087924
-0.087918
-0.090010
-0.090001
-0.089992
-0.089984
-0.089976
-0.089968
-0.089960
-0.089953
-0.089947
-0.092041
-0.092032
-0.092023
-0.092014
-0.092006
-0.091998
-0.091990
-0.091984
-0.091976
-0.094073
-0.094063
-0.094054
-0.094045
-0.094036
-0.094029
-0.094021
-0.094013
-0.094006
-0.096103
-0.096093
-0.096084
-0.096075
-0.096067
-0.096058
-0.096050
-0.096042
-0.096034
-0.098132
-0.098122
-0.098113
-0.098103
-0.098095
-0.098086
-0.098078
-0.098069
-0.098061
-0.100158
-0.100149
-0.100139
-0.100129
-0.100120
-0.100112
-0.100103
-0.100094
-0.100086
-0.102182
-0.102172
-0.102162
-0.102153
-0.102144
-0.102135
-0.102126
-0.102117
-0.102109
-0.104202
-0.104192
-0.104182
-0.104172
-0.104163
-0.104154
-0.104145
-0.104136
-0.104127
-0.106218
-0.106208
-0.106198
-0.106188
-0.106178
-0.106169
-0.106159
-0.106150
-0.106141
-0.108229
-0.108219
-0.108209
-0.108199
-0.108189
-0.108179
-0.108170
-0.108160
-0.108151
-0.110235
-0.110225
-0.110214
-0.110204
-0.110194
-0.110184
-0.110175
-0.110165
-0.110155
-0.112235
-0.112225
-0.112214
-0.112204
-0.112194
-0.112184
-0.112174
-0.112164
-0.112154
-0.114228
-0.114218
-0.114207
-0.114197
-0.114187
-0.114177
-0.114166
-0.114156
-0.114146
-0.116215
-0.116204
-0.116194
-0.116183
-0.116173
-0.116162
-0.116152
-0.116142
-0.116131
-0.118194
-0.118183
-0.118173
-0.118162
-0.118152
-0.118141
-0.118130
-0.118119
-0.118109
-0.120165
-0.120155
-0.120144
-0.120133
-0.120122
-0.120112
-0.120101
-0.120090
-0.120079
-0.122128
-0.122117
-0.122107
-0.122095
-0.122085
-0.122073
-0.122063
-0.122051
-0.122041
-0.124082
-0.124071
-0.124060
-0.124049
-0.124038
-0.124027
-0.124016
-0.124005
-0.123993
-0.126026
-0.126016
-0.126005
-0.125993
-0.125982
-0.125971
-0.125959
-0.125948
-0.125937
SCALARS strain_2 float
LOOKUP_TABLE default
0.001609
0.000953
0.000953
0.000953
0.000954
0.000952
0.000952
0.000952
0.000955
0.000954
0.000954
0.000954
0.000957
0.000957
0.000957
0.000960
0.000961
0.000963
0.000966
0.000965
0.000968
0.000971
0.000974
0.000977
0.000980
0.000983
0.000987
0.000988
0.000993
0.000995
0.001001
0.001004
0.001010
0.001014
0.001020
0.001025
0.001031
0.001036
0.001045
0.001048
0.001058
0.001065
0.001072
0.001080
0.001088
0.001098
0.001102
0.001112
0.001121
0.001133
0.001142
0.001152
0.001161
0.001175
0.001187
0.001195
0.001210
0.001220
0.001234
0.001247
0.001261
0.001273
0.001287
0.001302
0.001315
0.001331
0.001346
0.001361
0.001379
0.001392
0.001411
0.001428
0.001444
0.001462
0.001481
0.001497
0.001515
0.001534
0.001554
0.001574
0.001589
0.003144
0.003185
0.003185
0.003187
0.003189
0.003191
0.003193
0.003196
0.003197
0.003201
0.003200
0.003201
0.003207
0.003208
0.003209
0.003211
0.003211
0.003214
0.003215
0.003215
0.003218
0.003221
0.003220
0.003222
0.003224
0.003224
0.003224
0.003226
0.003227
0.003228
0.003227
0.003229
0.003231
0.003230
0.003230
0.003231
0.003232
0.003232
0.003231
0.003233
0.003230
0.003231
0.003232
0.003230
0.003230
0.003231
0.003226
0.003227
0.003226
0.003224
0.003225
0.003225
0.003222
0.003222
0.003219
0.003214
0.003216
0.003215
0.003212
0.003213
0.003208
0.003204
0.003203
0.003204
0.003199
0.003198
0.003195
0.003193
0.003188
0.003186
0.003181
0.003179
0.003176
0.003172
0.003169
0.003165
0.003162
0.003158
0.003155
0.003150
0.003147
0.002924
0.002705
0.002486
0.002267
0.002049
0.001830
0.001609
0.001392
0.001170
0.001769
0.001924
0.002083
0.002240
0.002397
0.002556
0.002711
0.002870
0.003026
0.003027
0.002867
0.002708
0.002550
0.002389
0.002230
0.002070
0.001912
0.001752
0.003025
0.002868
0.002703
0.002542
0.002379
0.002218
0.002057
0.001894
0.001733
0.003027
0.002863
0.002699
0.002535
0.002372
0.002207
0.002045
0.001880
0.001717
0.003025
0.002861
0.002696
0.002530
0.002364
0.002201
0.002034
0.001863
0.001699
0.003028
0.002860
0.002692
0.002525
0.002354
0.002187
0.002020
0.001853
0.001684
0.003027
0.002855
0.002689
0.002518
0.002347
0.002176
0.002008
0.001839
0.001668
0.003028
0.002855
0.002682
0.002510
0.002338
0.002164
0.001995
0.001824
0.001654
0.003027
0.002852
0.002677
0.002507
0.002330
0.002156
0.001983
0.001810
0.001635
0.003028
0.002852
0.002674
0.002498
0.002321
0.002148
0.001973
0.001795
0.001618
0.003028
0.002852
0.002672
0.002492
0.002316
0.002139
0.001959
0.001781
0.001606
0.003026
0.002847
0.002666
0.002487
0.002306
0.002128
0.001948
0.001770
0.001592
0.003026
0.002845
0.002662
0.002483
0.002302
0.002119
0.001938
0.001756
0.001577
0.003026
0.002843
0.002662
0.002478
0.002295
0.002111
0.001928
0.001744
0.001561
0.003026
0.002841
0.002656
0.002473
0.002285
0.002103
0.001914
0.001732
0.001545
0.003026
0.002839
0.002655
0.002466
0.002280
0.002093
0.001906
0.001720
0.001532
0.003026
0.002838
0.002649
0.002461
0.002271
0.002084
0.001897
0.001706
0.001519
0.003026
0.002837
0.002647
0.002456
0.002266
0.002077
0.001886
0.001696
0.001506
0.003026
0.002833
0.002642
0.002452
0.002259
0.002067
0.001877
0.001685
0.001492
0.003026
0.002832
0.002639
0.002445
0.002253
0.002059
0.001866
0.001674
0.001480
0.003027
0.002831
0.002633
0.002442
0.002245
0.002053
0.001859
0.001663
0.001468
0.003024
0.002829
0.002632
0.002437
0.002241
0.002046
0.001850
0.001651
0.001455
0.003026
0.002827
0.002627
0.002431
0.002234
0.002037
0.001837
0.001642
0.001444
0.003024
0.002824
0.002627
0.002427
0.002227
0.002029
0.001829
0.001632
0.001432
0.003024
0.002823
0.002623
0.002424
0.002224
0.002024
0.001822
0.001624
0.001421
0.003023
0.002822
0.002622
0.002416
0.002216
0.002015
0.001813
0.001610
0.001410
0.003023
0.002820
0.002617
0.002413
0.002211
0.002009
0.001804
0.001603
0.001399
0.003021
0.002817
0.002615
0.002412
0.002206
0.002002
0.001797
0.001593
0.001389
0.003021
0.002816
0.002610
0.002405
0.002199
0.001995
0.001790
0.001585
0.001382
0.003022
0.002816
0.002610
0.002403
0.002196
0.001989
0.001783
0.001576
0.001368
0.003020
0.002813
0.002607
0.002399
0.002190
0.001984
0.001775
0.001568
0.001360
0.003019
0.002813
0.002604
0.002394
0.002184
0.001975
0.001768
0.001561
0.001350
0.003019
0.002810
0.002602
0.002388
0.002181
0.001972
0.001762
0.001552
0.001341
0.003021
0.002809
0.002596
0.002387
0.002176
0.001966
0.001754
0.001544
0.001333
0.003020
0.002807
0.002595
0.002383
0.002171
0.001960
0.001746
0.001537
0.001327
0.003018
0.002807
0.002593
0.002382
0.002168
0.001954
0.001741
0.001530
0.001319
0.003019
0.002805
0.002590
0.002378
0.002163
0.001952
0.001734
0.001525
0.001308
0.003015
0.002802
0.002588
0.002375
0.002161
0.001945
0.001731
0.001516
0.001301
0.003014
0.002800
0.002585
0.002368
0.002156
0.001938
0.001726
0.001509
0.001293
0.003015
0.002800
0.002584
0.002368
0.002151
0.001935
0.001719
0.001504
0.001288
0.003015
0.002798
0.002582
0.002363
0.002149
0.001930
0.001713
0.001499
0.001281
0.003013
0.002798
0.002577
0.002363
0.002145
0.001926
0.001709
0.001491
0.001275
0.003012
0.002795
0.002576
0.002359
0.002142
0.001922
0.001706
0.001484
0.001268
0.003011
0.002792
0.002574
0.002354
0.002136
0.001918
0.001698
0.001479
0.001262
0.003009
0.002791
0.002572
0.002352
0.002133
0.001912
0.001696
0.001475
0.001257
0.003008
0.002787
0.002571
0.002351
0.002132
0.001911
0.001691
0.001471
0.001250
0.003005
0.002787
0.002567
0.002346
0.002127
0.001907
0.001687
0.001467
0.001246
0.003005
0.002786
0.002566
0.002342
0.002124
0.001901
0.001681
0.001460
0.001239
0.003004
0.002784
0.002563
0.002341
0.002119
0.001899
0.001678
0.001457
0.001237
0.003001
0.002783
0.002561
0.002336
0.002118
0.001895
0.001673
0.001453
0.001232
0.003001
0.002779
0.002558
0.002336
0.002114
0.001894
0.001671
0.001448
0.001227
0.002999
0.002778
0.002557
0.002332
0.002114
0.001890
0.001667
0.001447
0.001223
0.002998
0.002776
0.002554
0.002333
0.002109
0.001886
0.001662
0.001442
0.001218
0.002997
0.002774
0.002551
0.002328
0.002106
0.001882
0.001660
0.001441
0.001216
0.002995
0.002771
0.002549
0.002327
0.002103
0.001880
0.001657
0.001435
0.001212
0.002992
0.002767
0.002546
0.002323
0.002103
0.001875
0.001653
0.001434
0.001209
0.002992
0.002768
0.002544
0.002321
0.002099
0.001875
0.001652
0.001428
0.001204
0.002991
0.002767
0.002543
0.002318
0.002095
0.001873
0.001650
0.001428
0.001202
0.002986
0.002764
0.002541
0.002317
0.002094
0.001870
0.001647
0.001423
0.001198
0.002985
0.002761
0.002537
0.002312
0.002091
0.001867
0.001643
0.001422
0.001197
0.002983
0.002760
0.002536
0.002311
0.002090
0.001866
0.001638
0.001419
0.001196
0.002982
0.002757
0.002534
0.002310
0.002086
0.001863
0.001639
0.001417
0.001193
0.002979
0.002755
0.002533
0.002308
0.002084
0.001860
0.001637
0.001415
0.001190
0.002976
0.002753
0.002531
0.002306
0.002083
0.001859
0.001635
0.001411
0.001186
0.002972
0.002750
0.002528
0.002303
0.002080
0.001858
0.001632
0.001410
0.001187
0.002970
0.002749
0.002524
0.002301
0.002077
0.001853
0.001632
0.001409
0.001184
0.002967
0.002745
0.002520
0.002299
0.002074
0.001853
0.001630
0.001406
0.001181
0.002966
0.002743
0.002518
0.002296
0.002073
0.001849
0.001626
0.001405
0.001180
0.002962
0.002739
0.002517
0.002294
0.002070
0.001848
0.001625
0.001404
0.001180
0.002959
0.002737
0.002516
0.002291
0.002073
0.001848
0.001626
0.001401
0.001179
0.002957
0.002735
0.002514
0.002290
0.002068
0.001846
0.001622
0.001401
0.001177
0.002954
0.002731
0.002509
0.002287
0.002064
0.001844
0.001620
0.001399
0.001178
0.002951
0.002729
0.002505
0.002286
0.002065
0.001840
0.001619
0.001396
0.001176
0.002948
0.002726
0.002506
0.002283
0.002061
0.001840
0.001619
0.001395
0.001176
0.002945
0.002725
0.002501
0.002280
0.002058
0.001837
0.001615
0.001396
0.001172
0.002942
0.002720
0.002501
0.002278
0.002056
0.001834
0.001616
0.001393
0.001174
0.002939
0.002720
0.002497
0.002275
0.002056
0.001834
0.001615
0.001393
0.001172
0.002935
0.002716
0.002494
0.002274
0.002055
0.001833
0.001615
0.001393
0.001172
0.002931
0.002711
0.002491
0.002273
0.002054
0.001833
0.001612
0.001390
0.001173
0.002929
0.002710
0.002488
0.002271
0.002051
0.001831
0.001610
0.001389
0.001172
SCALARS strain_3 float
LOOKUP_TABLE default
0.000649
0.042333
0.041736
0.041135
0.040532
0.039924
0.039316
0.038702
0.038086
0.037469
0.036850
0.036225
0.035601
0.034973
0.034344
0.033714
0.033081
0.032450
0.031815
0.031180
0.030544
0.029908
0.029271
0.028634
0.027999
0.027362
0.026730
0.026094
0.025460
0.024829
0.024200
0.023570
0.022945
0.022320
0.021701
0.021083
0.020468
0.019858
0.019251
0.018645
0.018050
0.017456
0.016867
0.016286
0.015707
0.015135
0.014571
0.014010
0.013460
0.012913
0.012378
0.011847
0.011326
0.010812
0.010306
0.009810
0.009323
0.008844
0.008377
0.007917
0.007468
0.007031
0.006603
0.006187
0.005777
0.005383
0.004997
0.004626
0.004265
0.003916
0.003576
0.003249
0.002935
0.002634
0.002342
0.002065
0.001799
0.001544
0.001303
0.001074
0.000855
0.041246
-0.000346
-0.000150
0.000061
0.000284
0.000516
0.000764
0.001022
0.001293
0.001575
0.001871
0.002178
0.002499
0.002830
0.003175
0.003532
0.003898
0.004277
0.004668
0.005068
0.005482
0.005905
0.006340
0.006785
0.007239
0.007704
0.008179
0.008663
0.009155
0.009658
0.010169
0.010690
0.011217
0.011753
0.012296
0.012846
0.013405
0.013968
0.014540
0.015115
0.015699
0.016287
0.016879
0.017476
0.018081
0.018688
0.019300
0.019914
0.020532
0.021153
0.021777
0.022404
0.023033
0.023667
0.024299
0.024934
0.025570
0.026207
0.026845
0.027483
0.028121
0.028760
0.029399
0.030037
0.030674
0.031310
0.031946
0.032581
0.033214
0.033846
0.034475
0.035103
0.035730
0.036353
0.036975
0.037595
0.038209
0.038824
0.039433
0.040041
0.040645
0.041355
0.041463
0.041571
0.041682
0.041790
0.041898
0.042009
0.042117
0.042224
0.000547
0.000447
0.000346
0.000245
0.000146
0.000047
-0.000051
-0.000150
-0.000250
-0.000051
0.000048
0.000147
0.000248
0.000347
0.000447
0.000549
0.000649
0.000753
0.000161
0.000259
0.000360
0.000459
0.000561
0.000663
0.000763
0.000866
0.000970
0.000382
0.000482
0.000584
0.000685
0.000787
0.000889
0.000990
0.001095
0.001200
0.000617
0.000718
0.000820
0.000922
0.001024
0.001128
0.001231
0.001335
0.001439
0.000865
0.000965
0.001067
0.001171
0.001274
0.001378
0.001482
0.001587
0.001692
0.001124
0.001225
0.001329
0.001432
0.001536
0.001642
0.001746
0.001852
0.001957
0.001395
0.001499
0.001602
0.001706
0.001811
0.001916
0.002021
0.002129
0.002235
0.001679
0.001783
0.001886
0.001992
0.002099
0.002204
0.002311
0.002417
0.002525
0.001975
0.002079
0.002185
0.002291
0.002396
0.002503
0.002611
0.002717
0.002826
0.002284
0.002388
0.002495
0.002602
0.002709
0.002815
0.002923
0.003031
0.003140
0.002605
0.002710
0.002817
0.002924
0.003031
0.003139
0.003249
0.003357
0.003466
0.002937
0.003043
0.003150
0.003258
0.003366
0.003476
0.003584
0.003694
0.003802
0.003283
0.003389
0.003497
0.003605
0.003712
0.003823
0.003932
0.004042
0.004153
0.003638
0.003746
0.003854
0.003963
0.004071
0.004182
0.004292
0.004403
0.004514
0.004005
0.004114
0.004224
0.004331
0.004442
0.004553
0.004663
0.004773
0.004886
0.004385
0.004493
0.004603
0.004714
0.004824
0.004933
0.005045
0.005158
0.005271
0.004776
0.004887
0.004995
0.005106
0.005216
0.005326
0.005440
0.005551
0.005665
0.005178
0.005287
0.005399
0.005510
0.005621
0.005733
0.005846
0.005958
0.006071
0.005590
0.005703
0.005813
0.005924
0.006035
0.006148
0.006260
0.006374
0.006488
0.006015
0.006126
0.006236
0.006350
0.006462
0.006576
0.006688
0.006801
0.006915
0.006451
0.006562
0.006674
0.006786
0.006898
0.007011
0.007125
0.007238
0.007354
0.006896
0.007007
0.007119
0.007232
0.007345
0.007459
0.007571
0.007688
0.007801
0.007351
0.007463
0.007576
0.007688
0.007802
0.007916
0.008031
0.008145
0.008260
0.007816
0.007927
0.008041
0.008155
0.008269
0.008383
0.008498
0.008612
0.008730
0.008291
0.008404
0.008517
0.008632
0.008744
0.008859
0.008976
0.009089
0.009207
0.008775
0.008888
0.009003
0.009117
0.009231
0.009346
0.009461
0.009576
0.009694
0.009269
0.009383
0.009497
0.009612
0.009728
0.009842
0.009956
0.010074
0.010189
0.009772
0.009885
0.010001
0.010115
0.010230
0.010345
0.010461
0.010578
0.010695
0.010284
0.010399
0.010512
0.010628
0.010743
0.010858
0.010974
0.011090
0.011208
0.010803
0.010919
0.011033
0.011149
0.011264
0.011379
0.011495
0.011613
0.011728
0.011332
0.011446
0.011560
0.011676
0.011793
0.011909
0.012026
0.012143
0.012259
0.011868
0.011983
0.012097
0.012214
0.012329
0.012445
0.012562
0.012681
0.012797
0.012411
0.012527
0.012641
0.012759
0.012873
0.012989
0.013108
0.013224
0.013343
0.012962
0.013077
0.013192
0.013309
0.013424
0.013541
0.013659
0.013776
0.013892
0.013519
0.013635
0.013749
0.013865
0.013983
0.014099
0.014215
0.014334
0.014452
0.014083
0.014197
0.014315
0.014431
0.014548
0.014665
0.014781
0.014898
0.015018
0.014654
0.014770
0.014886
0.015003
0.015118
0.015235
0.015353
0.015471
0.015589
0.015232
0.015346
0.015463
0.015581
0.015696
0.015812
0.015932
0.016050
0.016166
0.015814
0.015929
0.016044
0.016162
0.016280
0.016397
0.016514
0.016630
0.016748
0.016401
0.016518
0.016634
0.016749
0.016868
0.016985
0.017103
0.017220
0.017338
0.016995
0.017112
0.017228
0.017345
0.017462
0.017579
0.017696
0.017814
0.017932
0.017592
0.017710
0.017826
0.017943
0.018059
0.018176
0.018295
0.018412
0.018530
0.018198
0.018313
0.018428
0.018545
0.018664
0.018780
0.018898
0.019016
0.019133
0.018803
0.018919
0.019036
0.019154
0.019269
0.019386
0.019503
0.019621
0.019739
0.019414
0.019532
0.019647
0.019763
0.019880
0.019997
0.020115
0.020233
0.020350
0.020028
0.020145
0.020262
0.020379
0.020496
0.020613
0.020729
0.020847
0.020964
0.020648
0.020763
0.020881
0.020997
0.021114
0.021230
0.021347
0.021464
0.021582
0.021269
0.021385
0.021502
0.021619
0.021736
0.021852
0.021969
0.022087
0.022204
0.021893
0.022009
0.022126
0.022243
0.022358
0.022476
0.022592
0.022710
0.022827
0.022521
0.022635
0.022751
0.022868
0.022984
0.023101
0.023219
0.023336
0.023453
0.023151
0.023266
0.023381
0.023498
0.023614
0.023731
0.023846
0.023966
0.024080
0.023781
0.023897
0.024013
0.024129
0.024245
0.024360
0.024477
0.024595
0.024711
0.024413
0.024529
0.024646
0.024762
0.024877
0.024994
0.025112
0.025227
0.025344
0.025049
0.025163
0.025279
0.025395
0.025512
0.025628
0.025745
0.025860
0.025977
0.025684
0.025802
0.025915
0.026031
0.026146
0.026262
0.026378
0.026495
0.026611
0.026321
0.026436
0.026552
0.026668
0.026783
0.026898
0.027015
0.027130
0.027246
0.026959
0.027074
0.027188
0.027305
0.027419
0.027536
0.027651
0.027768
0.027882
0.027597
0.027711
0.027827
0.027942
0.028059
0.028172
0.028288
0.028403
0.028520
0.028236
0.028349
0.028465
0.028580
0.028697
0.028810
0.028925
0.029040
0.029156
0.028874
0.028987
0.029102
0.029218
0.029334
0.029449
0.029563
0.029678
0.029795
0.029513
0.029626
0.029742
0.029855
0.029970
0.030085
0.030200
0.030314
0.030429
0.030151
0.030264
0.030378
0.030493
0.030607
0.030723
0.030836
0.030950
0.031065
0.030788
0.030900
0.031015
0.031130
0.031244
0.031358
0.031472
0.031586
0.031701
0.031425
0.031538
0.031650
0.031765
0.031879
0.031993
0.032107
0.032221
0.032335
0.032060
0.032172
0.032285
0.032400
0.032513
0.032627
0.032741
0.032855
0.032969
0.032695
0.032806
0.032921
0.033034
0.033147
0.033260
0.033374
0.033486
0.033601
0.033327
0.033441
0.033552
0.033665
0.033778
0.033892
0.034006
0.034118
0.034231
0.033960
0.034070
0.034184
0.034296
0.034410
0.034522
0.034635
0.034747
0.034862
0.034589
0.034700
0.034813
0.034925
0.035038
0.035150
0.035264
0.035375
0.035487
0.035215
0.035328
0.035439
0.035552
0.035663
0.035775
0.035890
0.036000
0.036112
0.035841
0.035953
0.036065
0.036177
0.036288
0.036400
0.036513
0.036624
0.036735
0.036465
0.036577
0.036689
0.036799
0.036911
0.037021
0.037134
0.037246
0.037357
0.037086
0.037197
0.037309
0.037419
0.037533
0.037642
0.037752
0.037863
0.037975
0.037704
0.037816
0.037928
0.038036
0.038148
0.038257
0.038370
0.038481
0.038591
0.038320
0.038432
0.038541
0.038653
0.038762
0.038873
0.038984
0.039094
0.039205
0.038934
0.039043
0.039154
0.039264
0.039374
0.039484
0.039594
0.039704
0.039814
0.039543
0.039654
0.039763
0.039874
0.039983
0.040093
0.040202
0.040312
0.040422
0.040150
0.040261
0.040370
0.040480
0.040588
0.040698
0.040807
0.040915
0.041025
0.040753
0.040864
0.040974
0.041082
0.041191
0.041299
0.041410
0.041517
0.041627
SCALARS stress_1 float
LOOKUP_TABLE default
10646.080097
-9659024.151512
-9512842.773617
-9365867.895721
-9218245.517826
-9069952.639931
-8920993.762036
-8771468.384141
-8621358.006246
-8470718.628351
-8319613.250456
-8168079.872561
-8016134.494665
-7863792.616770
-7711137.738875
-7558241.860980
-7405149.483085
-7251893.105190
-7098479.227295
-6945037.849400
-6791542.971505
-6638110.593609
-6484799.715714
-6331657.837819
-6178683.959924
-6026061.582029
-5873749.704134
-5721830.326239
-5570400.448344
-5419518.070449
-5269248.192553
-5119621.814658
-4970763.436763
-4822710.558868
-4675543.680973
-4529357.303078
-4384119.425183
-4240059.547288
-4097182.669393
-3955517.791497
-3815163.913602
-3676230.535707
-3538752.657812
-3402840.779917
-3268539.402022
-3135913.524127
-3005063.646232
-2876069.268337
-2748959.390441
-2623814.012546
-2500738.634651
-2379778.256756
-2261047.878861
-2144528.000966
-2030329.123071
-1918520.245176
-1809134.867281
-1702251.989385
-1597934.111490
-1496231.733595
-1397203.855700
-1300869.977805
-1207279.599910
-1116519.722015
-1028597.844120
-943525.966225
-861403.088329
-782188.710434
-705987.332539
-632736.954644
-562489.576749
-495275.198854
-431086.820959
-369968.443064
-311838.565169
-256752.687273
-204735.809378
-155720.431483
-109666.553588
-66629.675693
-26524.297798
-9644989.047816
34722.183793
-2349.194102
-42335.071997
-85282.949892
-131233.327788
-180179.705683
-232181.083578
-287212.961473
-345271.339368
-406382.717263
-470557.095158
-537751.473053
-608011.850948
-681275.728844
-757542.606739
-836761.484634
-918928.362529
-1004034.740424
-1092017.118319
-1182860.996214
-1276494.374109
-1372900.252004
-1472038.129900
-1573822.007795
-1678251.885690
-1785243.763585
-1894706.641480
-2006629.519375
-2120972.397270
-2237632.275165
-2356535.653060
-2477623.030956
-2600834.408851
-2726134.786746
-2853394.164641
-2982558.542536
-3113590.920431
-3246383.798326
-3380870.676221
-3516948.554116
-3654617.432012
-3793725.809907
-3934240.687802
-4076095.565697
-4219180.943592
-4363447.321487
-4508826.699382
-4655244.077277
-4802601.455172
-4950864.333068
-5099936.710963
-5249740.588858
-5400227.466753
-5551303.344648
-5702935.722543
-5855041.600438
-6007563.978333
-6160425.356228
-6313531.234124
-6466897.112019
-6620400.489914
-6774035.367809
-6927720.745704
-7081344.623599
-7234962.501494
-7388429.879389
-7541738.757284
-7694827.135180
-7847646.513075
-8000148.890970
-8152272.268865
-8304026.646760
-8455340.024655
-8606126.902550
-8756407.780445
-8906110.158340
-9055236.036236
-9203725.414131
-9351534.292026
-9498608.169921
-9646458.158186
-9647899.768555
-9649321.378925
-9650769.989294
-9652181.099664
-9653552.210033
-9654926.320403
-9656352.930773
-9657690.541142
13569.190467
16455.800836
19181.911206
21782.021575
24256.131945
26594.242315
28827.852684
30923.463054
32888.073423
-4180.304472
-6159.414841
-8285.025211
-10486.135581
-12861.245950
-15339.856320
-17957.966689
-20672.077059
-23544.687428
-44176.182367
-46197.292736
-48288.403106
-50504.013476
-52883.123845
-55387.234215
-58025.844584
-60754.454954
-63612.565323
-87161.560262
-89146.670632
-91240.781001
-93533.391371
-95904.501740
-98413.112110
-101000.222479
-103776.332849
-106657.943219
-133123.938157
-135092.048527
-137228.158896
-139494.769266
-141871.879635
-144374.490005
-146987.100375
-149774.710744
-152675.321114
-182063.316052
-184065.426422
-186203.536791
-188475.647161
-190854.257531
-193359.867900
-196028.978270
-198799.588639
-201694.199009
-234066.693947
-236069.304317
-238189.914686
-240443.025056
-242855.135426
-245382.745795
-248047.856165
-250821.466534
-253732.076904
-289095.071842
-291109.682212
-293218.292582
-295483.402951
-297882.513321
-300434.123690
-303079.234060
-305880.844429
-308797.954799
-347153.949738
-349177.060107
-351315.670477
-353585.780846
-355997.891216
-358516.501585
-361190.111955
-364006.722325
-366911.332694
-408278.327633
-410298.438002
-412449.048372
-414704.658741
-417138.769111
-419658.379481
-422299.989850
-425137.100220
-428025.210589
-472454.205528
-474469.815897
-476621.426267
-478905.536637
-481320.147006
-483848.757376
-486523.367745
-489302.478115
-492240.588484
-539665.583423
-541677.693792
-543835.304162
-546153.414532
-548547.024901
-551083.135271
-553721.745640
-556522.356010
-559444.966379
-609914.461318
-611911.071688
-614061.682057
-616351.292427
-618789.402796
-621283.013166
-623968.623535
-626732.233905
-629697.344275
-683173.339213
-685182.949583
-687355.559952
-689631.170322
-692008.780691
-694564.391061
-697200.001431
-700017.611800
-702916.722170
-759394.217108
-761405.827478
-763587.937847
-765862.548217
-768277.658587
-770802.768956
-773477.379326
-776254.489695
-779151.100065
-838628.595003
-840696.705373
-842806.815742
-845091.426112
-847508.536482
-850039.146851
-852682.257221
-855473.367590
-858377.977960
-920819.972898
-922830.583268
-924989.193638
-927280.804007
-929656.414377
-932178.524746
-934844.635116
-937616.745485
-940512.855855
-1005906.850794
-1007941.961163
-1010103.571533
-1012362.181902
-1014721.792272
-1017261.402641
-1019914.513011
-1022670.123381
-1025559.233750
-1093913.728689
-1095907.339058
-1098066.449428
-1100348.059797
-1102751.170167
-1105227.280537
-1107887.390906
-1110598.001276
-1113514.611645
-1184729.106584
-1186759.216953
-1188906.327323
-1191160.437692
-1193521.548062
-1196022.658432
-1198668.268801
-1201455.379171
-1204283.489540
-1278382.484479
-1280397.594848
-1282529.705218
-1284782.815588
-1287177.425957
-1289653.036327
-1292265.646696
-1295045.757066
-1297885.867435
-1374806.362374
-1376813.472744
-1378920.083113
-1381148.193483
-1383537.803852
-1386046.914222
-1388659.024591
-1391379.634961
-1394201.745331
-1473916.240269
-1475924.350639
-1478040.461008
-1480267.571378
-1482672.181747
-1485116.792117
-1487722.902487
-1490459.512856
-1493262.623226
-1575704.618164
-1577708.728534
-1579802.338903
-1582058.449273
-1584437.059643
-1586906.170012
-1589497.280382
-1592174.890751
-1595009.001121
-1680145.496059
-1682126.606429
-1684243.216798
-1686471.327168
-1688817.437538
-1691269.547907
-1693845.158277
-1696539.268646
-1699348.879016
-1787117.873954
-1789096.984324
-1791204.094694
-1793444.205063
-1795740.815433
-1798186.425802
-1800764.536172
-1803444.646541
-1806221.256911
-1896579.251850
-1898590.862219
-1900681.972589
-1902884.582958
-1905208.693328
-1907649.303697
-1910182.914067
-1912864.524437
-1915628.134806
-2008528.129745
-2010477.240114
-2012574.850484
-2014779.960853
-2017118.071223
-2019532.181593
-2022060.291962
-2024702.902332
-2027453.012701
-2122831.007640
-2124814.618009
-2126884.728379
-2129094.338748
-2131386.949118
-2133782.059488
-2136308.669857
-2138953.280227
-2141647.890596
-2239470.385535
-2241456.495904
-2243530.106274
-2245716.716644
-2247992.327013
-2250390.937383
-2252886.547752
-2255500.658122
-2258231.268491
-2358406.263430
-2360358.373800
-2362389.984169
-2364585.094539
-2366850.204908
-2369238.815278
-2371707.925647
-2374303.036017
-2376979.146387
-2479495.141325
-2481445.251695
-2483486.862064
-2485627.472434
-2487914.582803
-2490271.693173
-2492734.303543
-2495309.913912
-2497979.024282
-2602724.019220
-2604631.629590
-2606707.239959
-2608833.350329
-2611075.460699
-2613414.071068
-2615878.181438
-2618415.791807
-2621086.902177
-2727954.397115
-2729882.507485
-2731927.617854
-2734075.228224
-2736298.838594
-2738653.448963
-2741063.559333
-2743575.669702
-2746227.780072
-2855211.275010
-2857161.885380
-2859191.495750
-2861273.606119
-2863501.216489
-2865842.326858
-2868241.437228
-2870729.047597
-2873333.157967
-2984410.652906
-2986325.763275
-2988329.373645
-2990444.484014
-2992621.594384
-2994932.704753
-2997334.815123
-2999840.925493
-3002391.035862
-3115396.530801
-3117300.641170
-3119307.251540
-3121421.861909
-3123622.472279
-3125889.582649
-3128264.193018
-3130722.803388
-3133265.913757
-3248179.408696
-3250089.019065
-3252049.129435
-3254168.239804
-3256311.350174
-3258586.460544
-3260923.570913
-3263374.181283
-3265913.291652
-3382675.786591
-3384553.396960
-3386538.007330
-3388583.117700
-3390761.228069
-3393016.838439
-3395344.448808
-3397728.059178
-3400247.169547
-3518751.164486
-3520638.774856
-3522599.885225
-3524655.495595
-3526797.605964
-3529011.716334
-3531354.326703
-3533714.437073
-3536206.047443
-3656409.542381
-3658276.152751
-3660267.263120
-3662251.373490
-3664394.483859
-3666603.594229
-3668881.704599
-3671240.314968
-3673702.425338
-3795510.920276
-3797392.530646
-3799324.141015
-3801343.751385
-3803457.861754
-3805658.972124
-3807911.582494
-3810281.692863
-3812679.303233
-3936032.798171
-3937870.908541
-3939824.518910
-3941817.629280
-3943891.739650
-3946076.350019
-3948320.460389
-3950643.570758
-3953042.181128
-4077879.176066
-4079747.786436
-4081648.396806
-4083634.507175
-4085680.117545
-4087854.727914
-4090100.338284
-4092382.448653
-4094737.559023
-4220939.053962
-4222793.664331
-4224686.274701
-4226671.885070
-4228740.495440
-4230884.605809
-4233056.216179
-4235319.326549
-4237645.436918
-4365212.931857
-4367046.542226
-4368957.652596
-4370907.262965
-4372943.373335
-4375063.983705
-4377226.594074
-4379469.704444
-4381766.314813
-4510583.309752
-4512426.420121
-4514274.030491
-4516215.140860
-4518254.751230
-4520306.361600
-4522471.471969
-4524714.082339
-4526996.192708
-4656987.187647
-4658791.798016
-4660629.908386
-4662595.518756
-4664581.129125
-4666658.739495
-4668783.349864
-4670968.960234
-4673234.070603
-4804355.565542
-4806150.175912
-4807991.786281
-4809904.896651
-4811885.507020
-4813914.617390
-4816047.227759
-4818222.338129
-4820439.948499
-4952595.943437
-4954366.553807
-4956228.664176
-4958109.774546
-4960095.384915
-4962095.495285
-4964174.605655
-4966279.716024
-4968510.326394
-5101628.321332
-5103412.931702
-5105245.042071
-5107125.152441
-5109077.262810
-5111080.373180
-5113107.983550
-5115222.593919
-5117398.204289
-5251445.699227
-5253195.309597
-5255020.419966
-5256884.530336
-5258826.640706
-5260794.751075
-5262838.861445
-5264899.471814
-5267039.082184
-5401905.577122
-5403654.187492
-5405457.797862
-5407305.908231
-5409235.518601
-5411174.628970
-5413187.739340
-5415226.349709
-5417340.960079
-5553012.455018
-5554707.565387
-5556517.175757
-5558370.286126
-5560253.896496
-5562172.006865
-5564186.117235
-5566175.727605
-5568264.337974
-5704624.332913
-5706320.443282
-5708111.553652
-5709963.164021
-5711789.774391
-5713724.384761
-5715685.495130
-5717693.605500
-5719745.215869
-5856707.710808
-5858405.821177
-5860169.931547
-5861998.541916
-5863819.152286
-5865742.262656
-5867684.873025
-5869654.483395
-5871678.593764
-6009190.588703
-6010914.199072
-6012661.309442
-6014445.919812
-6016266.030181
-6018142.640551
-6020070.750920
-6022028.861290
-6024023.471659
-6162035.966598
-6163752.076968
-6165483.187337
-6167270.297707
-6169085.908076
-6170917.518446
-6172812.128815
-6174735.239185
-6176687.849555
-6315193.344493
-6316885.454863
-6318575.065232
-6320343.175602
-6322131.285971
-6323973.396341
-6325854.506711
-6327719.617080
-6329670.227450
-6468521.722388
-6470214.332758
-6471923.443127
-6473634.553497
-6475425.663866
-6477229.774236
-6479077.884606
-6480949.494975
-6482853.605345
-6622053.600283
-6623707.210653
-6625395.321022
-6627139.931392
-6628876.541762
-6630657.152131
-6632483.262501
-6634316.872870
-6636250.483240
-6775660.478178
-6777313.588548
-6778950.698918
-6780699.309287
-6782434.919657
-6784217.030026
-6785987.140396
-6787808.750765
-6789666.861135
-6929299.856074
-6930941.966443
-6932609.576813
-6934320.687182
-6936036.297552
-6937801.407921
-6939544.018291
-6941358.628661
-6943136.739030
-7082948.233969
-7084590.344338
-7086248.454708
-7087901.565077
-7089615.675447
-7091348.285816
-7093099.396186
-7094859.006556
-7096655.616925
-7236527.111864
-7238168.722233
-7239801.832603
-7241449.942972
-7243144.053342
-7244857.663712
-7246594.274081
-7248308.384451
-7250086.994820
-7389986.989759
-7391614.100128
-7393254.710498
-7394908.320868
-7396538.931237
-7398256.041607
-7399938.651976
-7401686.762346
-7403398.372715
-7543323.367654
-7544918.478024
-7546502.088393
-7548158.198763
-7549800.809132
-7551456.919502
-7553163.529871
-7554826.140241
-7556538.250611
-7696359.245549
-7697972.855919
-7699593.966288
-7701161.076658
-7702798.187027
-7704449.297397
-7706142.907767
-7707786.518136
-7709447.628506
-7849197.123444
-7850778.233814
-7852341.844183
-7853953.454553
-7855559.564922
-7857193.675292
-7858824.785662
-7860456.896031
-7862113.006401
-8001700.501339
-8003251.611709
-8004838.222078
-8006424.832448
-8008009.442818
-8009599.053187
-8011216.163557
-8012869.273926
-8014463.384296
-8153829.379234
-8155381.989604
-8156978.099974
-8158541.210343
-8160076.820713
-8161681.431082
-8163246.541452
-8164852.151821
-8166446.262191
-8305574.757130
-8307089.367499
-8308623.477869
-8310171.588238
-8311772.198608
-8313322.308977
-8314899.919347
-8316469.529717
-8318015.140086
-8456854.635025
-8458372.245394
-8459889.855764
-8461436.466133
-8462982.576503
-8464530.686872
-8466064.297242
-8467641.907612
-8469171.517981
-8607628.512920
-8609158.623289
-8610682.733659
-8612208.344028
-8613739.954398
-8615240.064768
-8616805.175137
-8618315.785507
-8619837.895876
-8757918.890815
-8759415.501184
-8760922.111554
-8762455.721924
-8763954.332293
-8765440.442663
-8766960.053032
-8768468.163402
-8769992.273771
-8907628.768710
-8909137.379080
-8910618.989449
-8912116.099819
-8913591.210188
-8915078.820558
-8916569.430927
-8918028.541297
-8919558.651667
-9056745.146605
-9058202.256975
-9059666.867344
-9061151.477714
-9062646.088083
-9064111.198453
-9065638.808822
-9067028.419192
-9068499.529562
-9205203.524500
-9206678.634870
-9208130.245239
-9209581.855609
-9211067.965978
-9212502.076348
-9213951.186718
-9215394.297087
-9216829.407457
-9353013.402395
-9354492.512765
-9355929.623134
-9357377.233504
-9358829.843874
-9360254.454243
-9361642.564613
-9363070.174982
-9364502.785352
-9500099.280290
-9501562.390660
-9502992.501030
-9504424.111399
-9505849.721769
-9507272.832138
-9508673.942508
-9510088.552877
-9511469.663247
SCALARS stress_2 float
LOOKUP_TABLE default
123414.051866
-1426933.451849
-1404187.108052
-1381520.764256
-1358502.420459
-1335436.076663
-1312257.732866
-1288967.389070
-1265837.045273
-1242130.701477
-1218696.357681
-1195166.013884
-1171635.670088
-1147721.326291
-1124094.982495
-1099956.638698
-1076378.294902
-1052303.951106
-1028421.607309
-1004379.263513
-980464.919716
-956262.575920
-932460.232123
-908337.888327
-884311.544530
-860685.200734
-836546.856938
-812776.513141
-788974.169345
-765235.825548
-741673.481752
-718143.137955
-694468.794159
-671162.450363
-648064.106566
-624949.762770
-601963.418973
-579169.075177
-556358.731380
-534012.387584
-511666.043787
-489511.699991
-467709.356195
-446115.012398
-424520.668602
-403470.324805
-382451.981009
-361865.637212
-341375.293416
-321076.949620
-301338.605823
-281904.262027
-262629.918230
-243739.574434
-225057.230637
-206774.886841
-188876.543044
-171602.199248
-154471.855452
-137581.511655
-121187.167859
-105224.824062
-89646.480266
-74612.136469
-60073.792673
-45471.448877
-31653.105080
-18186.761284
-5104.417487
7369.926309
19476.270106
31262.613902
42616.957699
53283.301495
63469.645291
73511.989088
82930.332884
91788.676681
100375.020477
108545.364274
116091.708070
-1263247.111932
241852.391783
236434.047987
230295.704191
223693.360394
216947.016598
209464.672801
201614.329005
193171.985208
184345.641412
174911.297615
165316.953819
154922.610023
144096.266226
133045.922430
121035.578633
108785.234837
96230.891040
83148.547244
69714.203448
55783.859651
41213.515855
26419.172058
11096.828262
-4577.515535
-20763.859331
-37270.203128
-54208.546924
-71466.890720
-89173.234517
-107135.578313
-125497.922110
-144356.265906
-163422.609703
-182888.953499
-202659.297295
-222541.641092
-242903.984888
-263474.328685
-284316.672481
-305527.016278
-326945.360074
-348651.703871
-370166.047667
-392496.391463
-414714.735260
-437013.079056
-459775.422853
-482521.766649
-505508.110446
-528446.454242
-551624.798038
-575203.141835
-598509.485631
-621879.829428
-645650.173224
-669340.517021
-692998.860817
-717153.204614
-741227.548410
-765141.892206
-789072.236003
-812954.579799
-836916.923596
-860847.267392
-884953.611189
-909043.954985
-933038.298781
-957064.642578
-980850.986374
-1004957.330171
-1028583.673967
-1052482.017764
-1076172.361560
-1099830.705357
-1123505.049153
-1146923.392949
-1170453.736746
-1193792.080542
-1217098.424339
-1240052.768135
-1279740.545923
-1295833.979915
-1312167.413907
-1328708.847898
-1345122.281890
-1361343.715882
-1378045.149873
-1394106.583865
-1410648.017857
135523.485858
147376.919850
159278.353842
171115.787833
183017.221825
194726.655817
206740.089808
218529.523800
230254.957792
224580.613995
212535.180004
200473.746012
188620.312020
176782.878029
164737.444037
152548.010045
140470.576053
128313.142062
218138.270199
206236.836207
194223.402215
181985.968224
169908.534232
157751.100240
145385.666249
133084.232257
120718.798265
211679.926402
199394.492411
187253.058419
174775.624427
162362.190436
149916.756444
137679.322452
125249.888461
112932.454469
204613.582606
192264.148614
179658.714623
167117.280631
154719.846639
142242.412647
129524.978656
116999.544664
104554.110672
196987.238810
184525.804818
171744.370826
159202.936834
146325.502843
133752.068851
121130.634859
108349.200868
95599.766876
188800.895013
175955.461021
163398.027030
150552.593038
137755.159046
125005.725055
112160.291063
99266.857071
86373.423080
180342.551217
167529.117225
154603.683233
141630.249242
128752.815250
115603.381258
102645.947266
89624.513275
76683.079283
171292.207420
158286.773429
145169.339437
132083.905445
119158.471453
105977.037462
92907.603470
79646.169478
66496.735487
161889.863624
148692.429632
135430.995640
122137.561649
109020.127657
95662.693665
82385.259674
69139.825682
55830.391690
151687.519827
138778.085836
125068.651844
111759.217852
98481.783861
85108.349869
71734.915877
58121.481885
44620.047894
141277.176031
127967.742039
114466.308048
101076.874056
87271.440064
73914.006072
60300.572081
46671.138089
33073.704097
130482.832234
116997.398243
103143.964251
89722.530259
76141.096268
62383.662276
48578.228284
34932.794293
21047.360301
119032.488438
105483.054446
91741.620455
78032.186463
64210.752471
50245.318480
36375.884488
22666.450496
8685.016504
107310.144642
93600.710650
79587.276658
65621.842667
51752.408675
37658.974683
23661.540691
9824.106700
-4173.327292
94867.800845
80998.366853
67176.932862
53067.498870
38942.064878
24864.630887
10787.196895
-3338.237097
-17431.671088
82281.457049
68076.023057
54174.589065
39985.155074
25635.721082
11638.287090
-2631.146901
-17172.580893
-31266.014885
68991.113252
54657.679261
40564.245269
26278.811277
11945.377286
-2532.056706
-16753.490698
-31022.924690
-45596.358681
55364.769456
41063.335464
26585.901472
12268.467481
-2160.966511
-16686.400503
-31179.834494
-45641.268486
-60134.702478
41210.425659
26652.991668
12447.557676
-2253.876316
-16715.310307
-31416.744299
-45846.178291
-60467.612282
-75153.046274
26816.081863
11986.647871
-2506.786120
-17128.220112
-31621.654104
-46355.088096
-61184.522087
-75885.956079
-90603.390071
11845.738067
-2855.695925
-17749.129917
-32402.563909
-47087.997900
-62029.431892
-76810.865884
-91496.299875
-106405.733867
-3668.605730
-18546.039722
-33295.473713
-48108.907705
-62986.341697
-77831.775688
-92933.209680
-107922.643672
-122752.077663
-19374.949526
-34332.383518
-49321.817510
-64263.251501
-79300.685493
-94258.119485
-109311.553477
-124364.987468
-139354.421460
-35593.293323
-50822.727314
-65764.161306
-80833.595298
-95983.029290
-111116.463281
-126089.897273
-141095.331265
-156340.765256
-52419.637119
-67553.071111
-82558.505103
-97723.939094
-112825.373086
-128150.807078
-143172.241069
-158753.675061
-173791.109053
-69325.980916
-84683.414907
-99656.848899
-114966.282891
-130099.716882
-145441.150874
-160814.584866
-176236.018858
-191657.452849
-86680.324712
-102005.758704
-117315.192695
-132832.626687
-148206.060679
-163387.494671
-178824.928662
-194230.362654
-209699.796646
-104594.668509
-119888.102500
-135293.536492
-150698.970484
-166152.404475
-181637.838467
-197123.272459
-212640.706450
-228190.140442
-122749.012305
-138250.446297
-153575.880288
-169205.314280
-184770.748272
-200112.182263
-215773.616255
-231419.050247
-247016.484239
-141191.356101
-156804.790093
-172194.224085
-187855.658076
-203549.092068
-219098.526060
-234743.960052
-250565.394043
-266114.828035
-160065.699898
-175839.133890
-191212.567881
-206858.001873
-222535.435865
-238420.869856
-254210.303848
-269791.737840
-285629.171831
-179260.043694
-194953.477686
-210646.911678
-226372.345669
-242161.779661
-257871.213653
-273724.647644
-289482.081636
-305479.515628
-198678.387491
-214371.821482
-230081.255474
-245982.689466
-261916.123457
-277929.557449
-293510.991441
-309444.425433
-325185.859424
-218432.731287
-234238.165279
-250043.599271
-266137.033262
-281990.467254
-297827.901246
-313921.335237
-329550.769229
-345772.203221
-238523.075084
-254520.509075
-270357.943067
-286163.377059
-302272.811050
-318222.245042
-334379.679034
-350553.113025
-366214.547017
-259061.418880
-275010.852872
-290944.286863
-307021.720855
-323035.154847
-338920.588839
-355062.022830
-371315.456822
-387312.890814
-279663.762676
-295629.196668
-311658.630660
-327752.064652
-343781.498643
-360114.932635
-376208.366627
-392397.800618
-408683.234610
-300570.106473
-316663.540465
-332612.974456
-348898.408448
-364959.842440
-381197.276431
-397242.710423
-413496.144415
-429717.578406
-321748.450269
-337745.884261
-354111.318253
-370188.752244
-386522.186236
-402855.620228
-418869.054220
-435154.488211
-451455.922203
-343118.794066
-359372.228057
-375689.662049
-391879.096041
-408100.530033
-424337.964024
-440671.398016
-457132.832008
-473274.265999
-364905.137862
-381126.571854
-397284.005846
-413601.439837
-430062.873829
-446460.307821
-462617.741812
-478855.175804
-495316.609796
-386787.481659
-403056.915650
-419262.349642
-435675.783634
-452169.217625
-468166.651617
-484660.085609
-501393.519601
-517662.953592
-409037.825455
-425243.259447
-441720.693438
-457990.127430
-474435.561422
-490784.995414
-507038.429405
-523467.863397
-540137.297389
-431208.169252
-447541.603243
-463747.037235
-480208.471227
-496573.905218
-513259.339210
-529624.773202
-546150.207193
-562755.641185
-453458.513048
-469807.947040
-486285.381031
-502906.815023
-519368.249015
-535749.683006
-552307.116998
-568864.550990
-585325.984982
-476108.856844
-492586.290836
-509207.724828
-525573.158819
-542146.592811
-558912.026803
-575101.460795
-591674.894786
-608456.328778
-499047.200641
-515524.634633
-532034.068624
-548479.502616
-565180.936608
-581786.370599
-598327.804591
-614725.238583
-631186.672574
-522065.544437
-538574.978429
-554860.412421
-571433.846412
-588199.280404
-604660.714396
-621362.148387
-637935.582379
-654669.016371
-544891.888234
-561657.322225
-578230.756217
-594724.190209
-611377.624200
-628095.058192
-644748.492184
-661289.926176
-677975.360167
-568342.232030
-584931.666022
-601313.100014
-618190.534005
-634795.967997
-651321.401989
-668118.835980
-684660.269972
-701377.703964
-591728.575827
-608318.009818
-624971.443810
-641528.877802
-658150.311793
-674755.745785
-691409.179777
-708222.613768
-724924.047760
-615146.919623
-631816.353615
-648469.787606
-665155.221598
-681776.655590
-698446.089582
-715147.523573
-731848.957565
-748406.391557
-638725.263419
-655538.697411
-672208.131403
-688701.565395
-705290.999386
-722200.433378
-738853.867370
-755587.301361
-772080.735353
-662335.607216
-679101.041208
-695786.475199
-712535.909191
-729173.343183
-745826.777174
-762496.211166
-779101.645158
-795835.079149
-686169.951012
-702839.385004
-719684.818996
-736018.252987
-752927.686979
-769773.120971
-786442.554963
-802951.988954
-819813.422946
-709972.294809
-726657.728800
-743407.162792
-760012.596784
-776938.030776
-793463.464767
-810372.898759
-827010.332751
-843727.766742
-733678.638605
-750556.072597
-767129.506589
-783878.940580
-800644.374572
-817585.808564
-834271.242555
-851036.676547
-867690.110539
-757720.982402
-774422.416393
-791155.850385
-807937.284377
-824606.718368
-841292.152360
-858073.586352
-874711.020344
-891748.454335
-781779.326198
-798560.760190
-815118.194181
-832043.628173
-848457.062165
-865286.496157
-882211.930148
-898945.364140
-915614.798132
-805805.669995
-822395.103986
-839080.537978
-855797.971970
-872531.405961
-889408.839953
-906142.273945
-923067.707936
-939561.141928
-829784.013791
-846389.447783
-863074.881774
-879824.315766
-896685.749758
-913259.183749
-929944.617741
-946806.051733
-963491.485725
-853650.357587
-870383.791579
-887149.225571
-903930.659562
-920328.093554
-937381.527546
-954146.961538
-970800.395529
-987645.829521
-877740.701384
-894378.135376
-911239.569367
-927957.003359
-944658.437351
-961119.871342
-978045.305334
-994842.739326
-1011592.173317
-901703.045180
-918532.479172
-935089.913164
-951727.347155
-968476.781147
-985226.215139
-1002055.649130
-1018741.083122
-1035538.517114
-925665.388977
-942478.822968
-959036.256960
-975817.690952
-992295.124943
-1009476.558935
-1026225.992927
-1042719.426919
-1059436.860910
-949659.732773
-966505.166765
-983190.600757
-999828.034748
-1016401.468740
-1033518.902732
-1049868.336723
-1066825.770715
-1083383.204707
-973670.076570
-990259.510561
-1007152.944553
-1023662.378545
-1040395.812536
-1057129.246528
-1073798.680520
-1090420.114511
-1107281.548503
-997552.420366
-1014285.854358
-1031019.288349
-1047800.722341
-1064214.156333
-1080979.590325
-1097665.024316
-1114382.458308
-1131035.892300
-1021610.764162
-1038120.198154
-1054741.632146
-1071411.066138
-1088160.500129
-1104861.934121
-1121531.368113
-1138024.802104
-1154886.236096
-1045205.107959
-1061874.541951
-1078607.975942
-1095309.409934
-1111770.843926
-1128616.277917
-1145333.711909
-1161683.145901
-1178384.579892
-1069007.451755
-1085612.885747
-1102282.319739
-1118999.753730
-1135509.187722
-1152194.621714
-1168800.055706
-1185293.489697
-1202138.923689
-1092761.795552
-1109431.229543
-1125972.663535
-1142546.097527
-1159183.531519
-1175916.965510
-1192522.399502
-1209111.833494
-1225669.267485
-1116388.139348
-1133121.573340
-1149615.007332
-1166380.441323
-1182841.875315
-1199415.309307
-1215988.743298
-1232610.177290
-1249279.611282
-1140078.483145
-1156667.917136
-1173081.351128
-1189750.785120
-1206164.219111
-1222881.653103
-1239359.087095
-1255868.521087
-1272489.955078
-1163432.826941
-1180070.260933
-1196547.694924
-1213057.128916
-1229790.562908
-1246027.996900
-1262729.430891
-1279238.864883
-1295796.298875
-1186995.170738
-1203312.604729
-1220078.038721
-1236251.472713
-1252888.906704
-1269494.340696
-1285827.774688
-1302321.208679
-1319102.642671
-1210237.514534
-1226522.948526
-1243016.382517
-1259861.816509
-1276115.250501
-1292656.684492
-1308942.118484
-1325483.552476
-1342168.986468
-1233303.858330
-1249893.292322
-1266274.726314
-1282736.160305
-1299085.594297
-1315739.028289
-1332120.462281
-1348389.896272
-1364963.330264
-1256530.202127
-1272895.636119
-1289437.070110
-1305802.504102
-1322183.938094
-1338629.372085
-1355170.806077
-1371488.240069
-1388029.674060
SCALARS stress_3 float
LOOKUP_TABLE default
42085.496951
2760682.743723
2721546.828139
2682474.912554
2643070.996969
2603459.081385
2563755.165800
2523795.250215
2483611.334631
2443323.419046
2402795.503461
2362191.587877
2321359.672292
2280563.756707
2239563.841123
2198371.925538
2157156.009953
2115840.094369
2074464.178784
2033136.263199
1991548.347615
1950108.432030
1908524.516445
1866988.600861
1825560.685276
1784016.769692
1742588.854107
1701220.938522
1659949.022938
1618773.107353
1577681.191768
1536745.276184
1495829.360599
1455233.445014
1414849.529430
1374493.613845
1334365.698260
1294517.782676
1254953.867091
1215617.951506
1176682.035922
1137738.120337
1099570.204752
1061482.289168
1023898.373583
986554.457998
949714.542414
913294.626829
877286.711244
841678.795660
806702.880075
772086.964491
738063.048906
704539.133321
671619.217737
639211.302152
607511.386567
576243.470983
545751.555398
515787.639813
486675.724229
457963.808644
430047.893059
402851.977475
376340.061890
350476.146305
325636.230721
301232.315136
277632.399551
254824.483967
232644.568382
211552.652797
190992.737213
171276.821628
152340.906043
134196.990459
116953.074874
100345.159290
84533.243705
69665.328120
55461.412536
2690954.545178
-22486.701594
-9558.786009
4105.129575
18401.045160
33788.960745
49828.876329
66692.791914
84284.707499
102828.623083
122084.538668
142072.454253
162972.369837
184696.285422
207124.201006
230300.116591
254236.032176
278935.947760
304451.863345
330663.778930
357527.694514
385255.610099
413571.525684
442475.441268
472187.356853
502511.272438
533511.188022
565159.103607
597243.019192
630146.934776
663398.850361
697314.765946
731634.681530
766710.597115
802106.512700
838022.428284
874442.343869
911218.259454
948430.175038
986174.090623
1024118.006208
1062493.921792
1101217.837377
1140229.752961
1179629.668546
1219129.584131
1259097.499715
1299229.415300
1339509.330885
1380153.246469
1420705.162054
1461777.077639
1502860.993223
1543964.908808
1585328.824393
1626720.739977
1668144.655562
1709720.571147
1751284.486731
1792896.402316
1834732.317901
1876248.233485
1918092.149070
1959564.064655
2001319.980239
2042695.895824
2084203.811409
2125687.726993
2166999.642578
2208163.558162
2249279.473747
2290263.389332
2331111.304916
2371735.220501
2412295.136086
2452655.051670
2492806.967255
2532946.882840
2572722.798424
2612346.714009
2651746.629594
2697905.765033
2704904.984887
2711924.204742
2718855.424596
2725810.644451
2732777.864305
2739761.084160
2746696.304014
2753663.523869
35494.277096
28871.057242
22307.837387
15776.617533
9333.397678
2982.177824
-3417.042031
-9816.261885
-16159.481740
-3231.566155
3147.653700
9530.873554
16066.093409
22529.313263
29052.533118
35603.752972
42106.972827
48702.192681
10424.349430
16823.569284
23454.789139
29842.008993
36377.228848
42928.448702
49675.668557
56262.888411
62878.108266
24920.265014
31431.484869
37918.704723
44557.924578
51133.144432
57732.364287
64463.584141
71126.803996
77842.023850
40356.180599
46799.400454
53398.620308
59961.840163
66601.060017
73356.279872
79955.499726
86846.719581
93613.939435
56288.096184
62911.316038
69562.535893
76281.755747
82888.975602
89688.195456
96371.415311
103214.635165
110133.855020
73276.011768
79959.231623
86538.451477
93285.671332
100036.891186
106856.111041
113691.330895
120506.550750
127389.770604
91007.927353
97663.147208
104402.367062
111153.586917
118024.806771
124820.026626
131623.246480
138426.466334
145405.686189
109483.842938
116167.062792
122986.282647
129829.502501
136552.722356
143487.942210
150303.162065
157346.381919
164233.601774
128879.758522
135574.978377
142422.198231
149309.418086
156124.637940
163051.857795
169955.077649
176986.297504
184005.517358
148919.674107
155778.893962
162546.113816
169457.333670
176368.553525
183419.773379
190398.993234
197430.213088
204457.432943
169943.589692
176674.809546
183562.029401
190477.249255
197460.469110
204475.688964
211518.908819
218626.128673
225589.348528
191511.505276
198378.725131
205313.944985
212397.164840
219456.384694
226415.604549
233410.824403
240514.044258
247645.264112
213975.420861
220914.640715
227833.860570
234773.080424
242080.300279
249139.520133
256050.739988
263369.959842
270353.179697
237259.336446
244210.556300
251293.776155
258276.996009
265368.215864
272363.435718
279646.655573
286785.875427
293965.095282
261251.252030
268274.471885
275261.691739
282356.911594
289540.131448
296591.351303
303822.571157
310981.791012
318289.010866
286055.167615
292994.387469
300205.607324
307240.827178
314372.047033
321515.266887
328814.486742
336001.706596
343264.926451
311443.083200
318586.303054
325665.522909
332760.742763
340003.962618
347163.182472
354478.402327
361725.622181
369040.842036
337706.998784
344850.218639
351993.438493
359244.658348
366379.878202
373639.098057
380850.317911
388257.537766
395468.757620
364730.914369
371894.134223
379009.354078
386124.573932
393399.793787
400743.013641
408018.233496
415389.453350
422676.673205
392338.829954
399470.049808
406737.269663
413916.489517
421199.709372
428554.929226
435906.149080
443245.368935
450668.588789
420686.745538
427861.965393
435069.185247
442340.405102
449727.624956
457022.844811
464394.064665
471769.284520
479188.504374
449738.661123
456961.880977
464201.100832
471456.320686
478787.540541
486238.760395
493533.980250
500961.200104
508360.419959
479414.576708
486637.796562
493909.016417
501372.236271
508567.456125
516022.675980
523409.895834
530785.115689
538212.335543
509794.492292
517181.712147
524416.932001
531728.151856
539083.371710
546458.591565
553937.811419
561301.031274
568808.251128
540798.407877
548069.627731
555384.847586
562780.067440
570103.287295
577466.507149
585013.727004
592488.946858
599912.166713
572446.323461
579617.543316
586992.763170
594411.983025
601831.202879
609266.422734
616653.642588
624188.862443
631732.082297
604570.239046
611969.458901
619192.678755
626699.898610
634091.118464
641554.338319
649141.558173
656568.778028
664035.997882
637454.154631
644797.374485
652092.594340
659499.814194
667019.034049
674430.253903
681913.473758
689544.693612
697007.913467
670846.070215
678129.290070
685472.509924
692935.729779
700550.949633
707826.169488
715389.389342
722988.609197
730443.829051
704641.985800
712037.205655
719396.425509
726987.645364
734414.865218
741850.085073
749425.304927
756948.524782
764479.744636
739157.901385
746537.121239
753856.341094
761403.560948
768962.780803
776422.000657
783901.220512
791472.440366
799043.660221
774057.816969
781505.036824
788952.256678
796419.476533
803930.696387
811421.916242
818981.136096
826444.355951
834127.575805
809469.732554
816984.952409
824376.172263
831943.392118
839394.611972
846877.831827
854557.051681
862028.271535
869583.491390
845509.648139
852920.867993
860384.087848
867875.307702
875398.527557
882897.747411
890476.967266
898008.187120
905643.406975
881829.563723
889368.783578
896732.003432
904263.223287
911706.443141
919301.662996
926852.882850
934484.102705
942079.322559
918641.479308
926096.699163
933607.919017
941107.138871
948638.358726
956157.578580
963752.798435
971288.018289
978979.238144
955921.394893
963332.614747
970815.834602
978395.054456
985922.274311
993373.494165
1001020.714020
1008559.933874
1016207.153729
993557.310477
1001008.530332
1008519.750186
1015978.970041
1023526.189895
1031101.409750
1038740.629604
1046243.849459
1053847.069313
1031537.226062
1039040.445916
1046459.665771
1053954.885625
1061598.105480
1069113.325334
1076660.545189
1084355.765043
1091886.984898
1069913.141647
1077356.361501
1084899.581356
1092470.801210
1099966.021065
1107477.240919
1115056.460774
1122607.680628
1130282.900483
1108717.057231
1116192.277086
1123563.496940
1131114.716795
1138709.936649
1146281.156504
1153760.376358
1161467.596213
1169018.816067
1147688.972816
1155180.192670
1162683.412525
1170170.632379
1177717.852234
1185209.072088
1192848.291943
1200483.511797
1208022.731652
1186980.888401
1194512.108255
1201999.328110
1209438.547964
1216973.767819
1224548.987673
1232112.207528
1239835.427382
1247458.647237
1226648.803985
1234080.023840
1241619.243694
1249062.463549
1256661.683403
1264184.903258
1271752.123112
1279303.342967
1286958.562821
1266408.719570
1273935.939424
1281467.159279
1288982.379133
1296545.598988
1304088.818842
1311544.038697
1319219.258551
1326798.478406
1306644.635155
1314095.855009
1321591.074864
1329142.294718
1336581.514573
1344104.734427
1351735.954282
1359319.174136
1366766.393990
1347020.550739
1354415.770594
1361962.990448
1369478.210303
1376945.430157
1384492.650012
1392023.869866
1399599.089721
1407254.309575
1387540.466324
1394903.686178
1402486.906033
1410034.125887
1417461.345742
1425056.565596
1432563.785451
1440031.005305
1447694.225160
1428224.381909
1435683.601763
1443130.821618
1450686.041472
1458269.261326
1465812.481181
1473219.701035
1480778.920890
1488314.140744
1469084.297493
1476723.517348
1484142.737202
1491497.957057
1499109.176911
1506572.396766
1514071.616620
1521626.836475
1529234.056329
1510216.213078
1517707.432932
1525106.652787
1532541.872641
1540045.092496
1547568.312350
1555079.532205
1562650.752059
1570197.971914
1551492.128662
1558747.348517
1566274.568371
1573741.788226
1581209.008080
1588664.227935
1596235.447789
1603746.667644
1611185.887498
1592700.044247
1600047.264102
1607598.483956
1615033.703811
1622420.923665
1630024.143520
1637387.363374
1644990.583229
1652493.803083
1634135.959832
1641523.179686
1648890.399541
1656321.619395
1663852.839250
1671344.059104
1678843.278959
1686242.498813
1693717.718668
1675635.875416
1683007.095271
1690478.315125
1697857.534980
1705256.754834
1712731.974689
1720215.194543
1727774.414398
1735109.634252
1717067.791001
1724487.010856
1731942.230710
1739361.450565
1746872.670419
1754323.890274
1761767.110128
1769122.329983
1776629.549837
1758735.706586
1766058.926440
1773530.146295
1780841.366149
1788336.586004
1795775.805858
1803159.025713
1810694.245567
1818049.465422
1800355.622170
1807670.842025
1815094.061879
1822597.281734
1829888.501588
1837375.721443
1844722.941297
1852170.161152
1859665.381006
1842051.537755
1849350.757610
1856821.977464
1864201.197319
1871596.417173
1878927.637028
1886338.856882
1893714.076736
1901101.296591
1883655.453340
1890994.673194
1898433.893049
1905777.112903
1913112.332758
1920567.552612
1927826.772467
1935221.992321
1942761.212176
1925351.368924
1932658.588779
1940037.808633
1947421.028488
1954728.248342
1962059.468197
1969494.688051
1976881.907906
1984181.127760
1967059.284509
1974230.504364
1981633.724218
1988952.944072
1996268.163927
2003667.383781
2010994.603636
2018349.823490
2025637.043345
2008495.200094
2015758.419948
2023053.639803
2030468.859657
2037776.079512
2045083.299366
2052506.519221
2059797.739075
2067080.958930
2050055.115678
2057454.335533
2064661.555387
2071924.775242
2079239.995096
2086591.214951
2093878.434805
2101205.654660
2108636.874514
2091527.031263
2098762.251117
2106137.470972
2113400.690826
2120755.910681
2128011.130535
2135270.350390
2142589.570244
2149880.790099
2132994.946848
2140254.166702
2147493.386557
2154720.606411
2161843.826266
2169267.046120
2176506.265975
2183801.485829
2191092.705684
2174262.862432
2181394.082287
2188689.302141
2195932.521996
2203219.741850
2210346.961705
2217770.181559
2224965.401414
2232248.621268
2215454.778017
2222717.997871
2229813.217726
2237108.437580
2244259.657435
2251522.877289
2258862.097144
2265961.316998
2273280.536853
2256462.693602
2263685.913456
2270941.133311
2278052.353165
2285399.573020
2292666.792874
2299774.012729
2307009.232583
2314216.452438
2297470.609186
2304617.829041
2311777.048895
2318980.268750
2326119.488604
2333402.708459
2340645.928313
2347661.148168
2355028.368022
2338334.524771
2345429.744625
2352568.964480
2359748.184334
2366903.404189
2374106.624043
2381237.843898
2388509.063752
2395544.283607
2378922.440356
2386049.660210
2393308.880065
2400436.099919
2407559.319774
2414618.539628
2421829.759483
2429004.979337
2436164.199191
2419454.355940
2426561.575795
2433680.795649
2440876.015504
2447943.235358
2455082.455213
2462241.675067
2469304.894922
2476440.114776
2459798.271525
2466913.491379
2474076.711234
2481119.931088
2488175.150943
2495318.370797
2502449.590652
2509572.810506
2516576.030361
2500002.187110
2507065.406964
2514188.626819
2521287.846673
2528339.066527
2535458.286382
2542473.506236
2549612.726091
2556623.945945
2539962.102694
2547025.322549
2554108.542403
2561207.762258
2568186.982112
2575314.201967
2582329.421821
2589456.641676
2596447.861530
2579742.018279
2586805.238133
2593792.457988
2600943.677842
2607906.897697
2614962.117551
2622053.337406
2629084.557260
2636103.777115
2619453.933863
2626433.153718
2633384.373572
2640399.593427
2647542.813281
2654546.033136
2661413.252990
2668476.472845
2675447.692699
2658721.849448
2665693.069303
2672820.289157
2679843.509012
2686722.728866
2693697.948721
2700749.168575
2707728.388430
2714595.608284
