# vtk DataFile Version 2.0
Generated volume Mesh
ASCII
DATASET UNSTRUCTURED_GRID
POINTS 891 float
0.005000 0.100000 0.000000
0.005000 0.000000 0.000000
0.005000 0.001250 0.000000
0.005000 0.002500 0.000000
0.005000 0.003750 0.000000
0.005000 0.005000 0.000000
0.005000 0.006250 0.000000
0.005000 0.007500 0.000000
0.005000 0.008750 0.000000
0.005000 0.010000 0.000000
0.005000 0.011250 0.000000
0.005000 0.012500 0.000000
0.005000 0.013750 0.000000
0.005000 0.015000 0.000000
0.005000 0.016250 0.000000
0.005000 0.017500 0.000000
0.005000 0.018750 0.000000
0.005000 0.020000 0.000000
0.005000 0.021250 0.000000
0.005000 0.022500 0.000000
0.005000 0.023750 0.000000
0.005000 0.025000 0.000000
0.005000 0.026250 0.000000
0.005000 0.027500 0.000000
0.005000 0.028750 0.000000
0.005000 0.030000 0.000000
0.005000 0.031250 0.000000
0.005000 0.032500 0.000000
0.005000 0.033750 0.000000
0.005000 0.035000 0.000000
0.005000 0.036250 0.000000
0.005000 0.037500 0.000000
0.005000 0.038750 0.000000
0.005000 0.040000 0.000000
0.005000 0.041250 0.000000
0.005000 0.042500 0.000000
0.005000 0.043750 0.000000
0.005000 0.045000 0.000000
0.005000 0.046250 0.000000
0.005000 0.047500 0.000000
0.005000 0.048750 0.000000
0.005000 0.050000 0.000000
0.005000 0.051250 0.000000
0.005000 0.052500 0.000000
0.005000 0.053750 0.000000
0.005000 0.055000 0.000000
0.005000 0.056250 0.000000
0.005000 0.057500 0.000000
0.005000 0.058750 0.000000
0.005000 0.060000 0.000000
0.005000 0.061250 0.000000
0.005000 0.062500 0.000000
0.005000 0.063750 0.000000
0.005000 0.065000 0.000000
0.005000 0.066250 0.000000
0.005000 0.067500 0.000000
0.005000 0.068750 0.000000
0.005000 0.070000 0.000000
0.005000 0.071250 0.000000
0.005000 0.072500 0.000000
0.005000 0.073750 0.000000
0.005000 0.075000 0.000000
0.005000 0.076250 0.000000
0.005000 0.077500 0.000000
0.005000 0.078750 0.000000
0.005000 0.080000 0.000000
0.005000 0.081250 0.000000
0.005000 0.082500 0.000000
0.005000 0.083750 0.000000
0.005000 0.085000 0.000000
0.005000 0.086250 0.000000
0.005000 0.087500 0.000000
0.005000 0.088750 0.000000
0.005000 0.090000 0.000000
0.005000 0.091250 0.000000
0.005000 0.092500 0.000000
0.005000 0.093750 0.000000
0.005000 0.095000 0.000000
0.005000 0.096250 0.000000
0.005000 0.097500 0.000000
0.005000 0.098750 0.000000
0.000000 0.000000 0.000000
0.000000 0.100000 0.000000
0.000000 0.098750 0.000000
0.000000 0.097500 0.000000
0.000000 0.096250 0.000000
0.000000 0.095000 0.000000
0.000000 0.093750 0.000000
0.000000 0.092500 0.000000
0.000000 0.091250 0.000000
0.000000 0.090000 0.000000
0.000000 0.088750 0.000000
0.000000 0.087500 0.000000
0.000000 0.086250 0.000000
0.000000 0.085000 0.000000
0.000000 0.083750 0.000000
0.000000 0.082500 0.000000
0.000000 0.081250 0.000000
0.000000 0.080000 0.000000
0.000000 0.078750 0.000000
0.000000 0.077500 0.000000
0.000000 0.076250 0.000000
0.000000 0.075000 0.000000
0.000000 0.073750 0.000000
0.000000 0.072500 0.000000
0.000000 0.071250 0.000000
0.000000 0.070000 0.000000
0.000000 0.068750 0.000000
0.000000 0.067500 0.000000
0.000000 0.066250 0.000000
0.000000 0.065000 0.000000
0.000000 0.063750 0.000000
0.000000 0.062500 0.000000
0.000000 0.061250 0.000000
0.000000 0.060000 0.000000
0.000000 0.058750 0.000000
0.000000 0.057500 0.000000
0.000000 0.056250 0.000000
0.000000 0.055000 0.000000
0.000000 0.053750 0.000000
0.000000 0.052500 0.000000
0.000000 0.051250 0.000000
0.000000 0.050000 0.000000
0.000000 0.048750 0.000000
0.000000 0.047500 0.000000
0.000000 0.046250 0.000000
0.000000 0.045000 0.000000
0.000000 0.043750 0.000000
0.000000 0.042500 0.000000
0.000000 0.041250 0.000000
0.000000 0.040000 0.000000
0.000000 0.038750 0.000000
0.000000 0.037500 0.000000
0.000000 0.036250 0.000000
0.000000 0.035000 0.000000
0.000000 0.033750 0.000000
0.000000 0.032500 0.000000
0.000000 0.031250 0.000000
0.000000 0.030000 0.000000
0.000000 0.028750 0.000000
0.000000 0.027500 0.000000
0.000000 0.026250 0.000000
0.000000 0.025000 0.000000
0.000000 0.023750 0.000000
0.000000 0.022500 0.000000
0.000000 0.021250 0.000000
0.000000 0.020000 0.000000
0.000000 0.018750 0.000000
0.000000 0.017500 0.000000
0.000000 0.016250 0.000000
0.000000 0.015000 0.000000
0.000000 0.013750 0.000000
0.000000 0.012500 0.000000
0.000000 0.011250 0.000000
0.000000 0.010000 0.000000
0.000000 0.008750 0.000000
0.000000 0.007500 0.000000
0.000000 0.006250 0.000000
0.000000 0.005000 0.000000
0.000000 0.003750 0.000000
0.000000 0.002500 0.000000
0.000000 0.001250 0.000000
0.000500 0.000000 0.000000
0.001000 0.000000 0.000000
0.001500 0.000000 0.000000
0.002000 0.000000 0.000000
0.002500 0.000000 0.000000
0.003000 0.000000 0.000000
0.003500 0.000000 0.000000
0.004000 0.000000 0.000000
0.004500 0.000000 0.000000
0.004500 0.100000 0.000000
0.004000 0.100000 0.000000
0.003500 0.100000 0.000000
0.003000 0.100000 0.000000
0.002500 0.100000 0.000000
0.002000 0.100000 0.000000
0.001500 0.100000 0.000000
0.001000 0.100000 0.000000
0.000500 0.100000 0.000000
0.000500 0.098750 0.000000
0.001000 0.098750 0.000000
0.001500 0.098750 0.000000
0.002000 0.098750 0.000000
0.002500 0.098750 0.000000
0.003000 0.098750 0.000000
0.003500 0.098750 0.000000
0.004000 0.098750 0.000000
0.004500 0.098750 0.000000
0.000500 0.097500 0.000000
0.001000 0.097500 0.000000
0.001500 0.097500 0.000000
0.002000 0.097500 0.000000
0.002500 0.097500 0.000000
0.003000 0.097500 0.000000
0.003500 0.097500 0.000000
0.004000 0.097500 0.000000
0.004500 0.097500 0.000000
0.000500 0.096250 0.000000
0.001000 0.096250 0.000000
0.001500 0.096250 0.000000
0.002000 0.096250 0.000000
0.002500 0.096250 0.000000
0.003000 0.096250 0.000000
0.003500 0.096250 0.000000
0.004000 0.096250 0.000000
0.004500 0.096250 0.000000
0.000500 0.095000 0.000000
0.001000 0.095000 0.000000
0.001500 0.095000 0.000000
0.002000 0.095000 0.000000
0.002500 0.095000 0.000000
0.003000 0.095000 0.000000
0.003500 0.095000 0.000000
0.004000 0.095000 0.000000
0.004500 0.095000 0.000000
0.000500 0.093750 0.000000
0.001000 0.093750 0.000000
0.001500 0.093750 0.000000
0.002000 0.093750 0.000000
0.002500 0.093750 0.000000
0.003000 0.093750 0.000000
0.003500 0.093750 0.000000
0.004000 0.093750 0.000000
0.004500 0.093750 0.000000
0.000500 0.092500 0.000000
0.001000 0.092500 0.000000
0.001500 0.092500 0.000000
0.002000 0.092500 0.000000
0.002500 0.092500 0.000000
0.003000 0.092500 0.000000
0.003500 0.092500 0.000000
0.004000 0.092500 0.000000
0.004500 0.092500 0.000000
0.000500 0.091250 0.000000
0.001000 0.091250 0.000000
0.001500 0.091250 0.000000
0.002000 0.091250 0.000000
0.002500 0.091250 0.000000
0.003000 0.091250 0.000000
0.003500 0.091250 0.000000
0.004000 0.091250 0.000000
0.004500 0.091250 0.000000
0.000500 0.090000 0.000000
0.001000 0.090000 0.000000
0.001500 0.090000 0.000000
0.002000 0.090000 0.000000
0.002500 0.090000 0.000000
0.003000 0.090000 0.000000
0.003500 0.090000 0.000000
0.004000 0.090000 0.000000
0.004500 0.090000 0.000000
0.000500 0.088750 0.000000
0.001000 0.088750 0.000000
0.001500 0.088750 0.000000
0.002000 0.088750 0.000000
0.002500 0.088750 0.000000
0.003000 0.088750 0.000000
0.003500 0.088750 0.000000
0.004000 0.088750 0.000000
0.004500 0.088750 0.000000
0.000500 0.087500 0.000000
0.001000 0.087500 0.000000
0.001500 0.087500 0.000000
0.002000 0.087500 0.000000
0.002500 0.087500 0.000000
0.003000 0.087500 0.000000
0.003500 0.087500 0.000000
0.004000 0.087500 0.000000
0.004500 0.087500 0.000000
0.000500 0.086250 0.000000
0.001000 0.086250 0.000000
0.001500 0.086250 0.000000
0.002000 0.086250 0.000000
0.002500 0.086250 0.000000
0.003000 0.086250 0.000000
0.003500 0.086250 0.000000
0.004000 0.086250 0.000000
0.004500 0.086250 0.000000
0.000500 0.085000 0.000000
0.001000 0.085000 0.000000
0.001500 0.085000 0.000000
0.002000 0.085000 0.000000
0.002500 0.085000 0.000000
0.003000 0.085000 0.000000
0.003500 0.085000 0.000000
0.004000 0.085000 0.000000
0.004500 0.085000 0.000000
0.000500 0.083750 0.000000
0.001000 0.083750 0.000000
0.001500 0.083750 0.000000
0.002000 0.083750 0.000000
0.002500 0.083750 0.000000
0.003000 0.083750 0.000000
0.003500 0.083750 0.000000
0.004000 0.083750 0.000000
0.004500 0.083750 0.000000
0.000500 0.082500 0.000000
0.001000 0.082500 0.000000
0.001500 0.082500 0.000000
0.002000 0.082500 0.000000
0.002500 0.082500 0.000000
0.003000 0.082500 0.000000
0.003500 0.082500 0.000000
0.004000 0.082500 0.000000
0.004500 0.082500 0.000000
0.000500 0.081250 0.000000
0.001000 0.081250 0.000000
0.001500 0.081250 0.000000
0.002000 0.081250 0.000000
0.002500 0.081250 0.000000
0.003000 0.081250 0.000000
0.003500 0.081250 0.000000
0.004000 0.081250 0.000000
0.004500 0.081250 0.000000
0.000500 0.080000 0.000000
0.001000 0.080000 0.000000
0.001500 0.080000 0.000000
0.002000 0.080000 0.000000
0.002500 0.080000 0.000000
0.003000 0.080000 0.000000
0.003500 0.080000 0.000000
0.004000 0.080000 0.000000
0.004500 0.080000 0.000000
0.000500 0.078750 0.000000
0.001000 0.078750 0.000000
0.001500 0.078750 0.000000
0.002000 0.078750 0.000000
0.002500 0.078750 0.000000
0.003000 0.078750 0.000000
0.003500 0.078750 0.000000
0.004000 0.078750 0.000000
0.004500 0.078750 0.000000
0.000500 0.077500 0.000000
0.001000 0.077500 0.000000
0.001500 0.077500 0.000000
0.002000 0.077500 0.000000
0.002500 0.077500 0.000000
0.003000 0.077500 0.000000
0.003500 0.077500 0.000000
0.004000 0.077500 0.000000
0.004500 0.077500 0.000000
0.000500 0.076250 0.000000
0.001000 0.076250 0.000000
0.001500 0.076250 0.000000
0.002000 0.076250 0.000000
0.002500 0.076250 0.000000
0.003000 0.076250 0.000000
0.003500 0.076250 0.000000
0.004000 0.076250 0.000000
0.004500 0.076250 0.000000
0.000500 0.075000 0.000000
0.001000 0.075000 0.000000
0.001500 0.075000 0.000000
0.002000 0.075000 0.000000
0.002500 0.075000 0.000000
0.003000 0.075000 0.000000
0.003500 0.075000 0.000000
0.004000 0.075000 0.000000
0.004500 0.075000 0.000000
0.000500 0.073750 0.000000
0.001000 0.073750 0.000000
0.001500 0.073750 0.000000
0.002000 0.073750 0.000000
0.002500 0.073750 0.000000
0.003000 0.073750 0.000000
0.003500 0.073750 0.000000
0.004000 0.073750 0.000000
0.004500 0.073750 0.000000
0.000500 0.072500 0.000000
0.001000 0.072500 0.000000
0.001500 0.072500 0.000000
0.002000 0.072500 0.000000
0.002500 0.072500 0.000000
0.003000 0.072500 0.000000
0.003500 0.072500 0.000000
0.004000 0.072500 0.000000
0.004500 0.072500 0.000000
0.000500 0.071250 0.000000
0.001000 0.071250 0.000000
0.001500 0.071250 0.000000
0.002000 0.071250 0.000000
0.002500 0.071250 0.000000
0.003000 0.071250 0.000000
0.003500 0.071250 0.000000
0.004000 0.071250 0.000000
0.004500 0.071250 0.000000
0.000500 0.070000 0.000000
0.001000 0.070000 0.000000
0.001500 0.070000 0.000000
0.002000 0.070000 0.000000
0.002500 0.070000 0.000000
0.003000 0.070000 0.000000
0.003500 0.070000 0.000000
0.004000 0.070000 0.000000
0.004500 0.070000 0.000000
0.000500 0.068750 0.000000
0.001000 0.068750 0.000000
0.001500 0.068750 0.000000
0.002000 0.068750 0.000000
0.002500 0.068750 0.000000
0.003000 0.068750 0.000000
0.003500 0.068750 0.000000
0.004000 0.068750 0.000000
0.004500 0.068750 0.000000
0.000500 0.067500 0.000000
0.001000 0.067500 0.000000
0.001500 0.067500 0.000000
0.002000 0.067500 0.000000
0.002500 0.067500 0.000000
0.003000 0.067500 0.000000
0.003500 0.067500 0.000000
0.004000 0.067500 0.000000
0.004500 0.067500 0.000000
0.000500 0.066250 0.000000
0.001000 0.066250 0.000000
0.001500 0.066250 0.000000
0.002000 0.066250 0.000000
0.002500 0.066250 0.000000
0.003000 0.066250 0.000000
0.003500 0.066250 0.000000
0.004000 0.066250 0.000000
0.004500 0.066250 0.000000
0.000500 0.065000 0.000000
0.001000 0.065000 0.000000
0.001500 0.065000 0.000000
0.002000 0.065000 0.000000
0.002500 0.065000 0.000000
0.003000 0.065000 0.000000
0.003500 0.065000 0.000000
0.004000 0.065000 0.000000
0.004500 0.065000 0.000000
0.000500 0.063750 0.000000
0.001000 0.063750 0.000000
0.001500 0.063750 0.000000
0.002000 0.063750 0.000000
0.002500 0.063750 0.000000
0.003000 0.063750 0.000000
0.003500 0.063750 0.000000
0.004000 0.063750 0.000000
0.004500 0.063750 0.000000
0.000500 0.062500 0.000000
0.001000 0.062500 0.000000
0.001500 0.062500 0.000000
0.002000 0.062500 0.000000
0.002500 0.062500 0.000000
0.003000 0.062500 0.000000
0.003500 0.062500 0.000000
0.004000 0.062500 0.000000
0.004500 0.062500 0.000000
0.000500 0.061250 0.000000
0.001000 0.061250 0.000000
0.001500 0.061250 0.000000
0.002000 0.061250 0.000000
0.002500 0.061250 0.000000
0.003000 0.061250 0.000000
0.003500 0.061250 0.000000
0.004000 0.061250 0.000000
0.004500 0.061250 0.000000
0.000500 0.060000 0.000000
0.001000 0.060000 0.000000
0.001500 0.060000 0.000000
0.002000 0.060000 0.000000
0.002500 0.060000 0.000000
0.003000 0.060000 0.000000
0.003500 0.060000 0.000000
0.004000 0.060000 0.000000
0.004500 0.060000 0.000000
0.000500 0.058750 0.000000
0.001000 0.058750 0.000000
0.001500 0.058750 0.000000
0.002000 0.058750 0.000000
0.002500 0.058750 0.000000
0.003000 0.058750 0.000000
0.003500 0.058750 0.000000
0.004000 0.058750 0.000000
0.004500 0.058750 0.000000
0.000500 0.057500 0.000000
0.001000 0.057500 0.000000
0.001500 0.057500 0.000000
0.002000 0.057500 0.000000
0.002500 0.057500 0.000000
0.003000 0.057500 0.000000
0.003500 0.057500 0.000000
0.004000 0.057500 0.000000
0.004500 0.057500 0.000000
0.000500 0.056250 0.000000
0.001000 0.056250 0.000000
0.001500 0.056250 0.000000
0.002000 0.056250 0.000000
0.002500 0.056250 0.000000
0.003000 0.056250 0.000000
0.003500 0.056250 0.000000
0.004000 0.056250 0.000000
0.004500 0.056250 0.000000
0.000500 0.055000 0.000000
0.001000 0.055000 0.000000
0.001500 0.055000 0.000000
0.002000 0.055000 0.000000
0.002500 0.055000 0.000000
0.003000 0.055000 0.000000
0.003500 0.055000 0.000000
0.004000 0.055000 0.000000
0.004500 0.055000 0.000000
0.000500 0.053750 0.000000
0.001000 0.053750 0.000000
0.001500 0.053750 0.000000
0.002000 0.053750 0.000000
0.002500 0.053750 0.000000
0.003000 0.053750 0.000000
0.003500 0.053750 0.000000
0.004000 0.053750 0.000000
0.004500 0.053750 0.000000
0.000500 0.052500 0.000000
0.001000 0.052500 0.000000
0.001500 0.052500 0.000000
0.002000 0.052500 0.000000
0.002500 0.052500 0.000000
0.003000 0.052500 0.000000
0.003500 0.052500 0.000000
0.004000 0.052500 0.000000
0.004500 0.052500 0.000000
0.000500 0.051250 0.000000
0.001000 0.051250 0.000000
0.001500 0.051250 0.000000
0.002000 0.051250 0.000000
0.002500 0.051250 0.000000
0.003000 0.051250 0.000000
0.003500 0.051250 0.000000
0.004000 0.051250 0.000000
0.004500 0.051250 0.000000
0.000500 0.050000 0.000000
0.001000 0.050000 0.000000
0.001500 0.050000 0.000000
0.002000 0.050000 0.000000
0.002500 0.050000 0.000000
0.003000 0.050000 0.000000
0.003500 0.050000 0.000000
0.004000 0.050000 0.000000
0.004500 0.050000 0.000000
0.000500 0.048750 0.000000
0.001000 0.048750 0.000000
0.001500 0.048750 0.000000
0.002000 0.048750 0.000000
0.002500 0.048750 0.000000
0.003000 0.048750 0.000000
0.003500 0.048750 0.000000
0.004000 0.048750 0.000000
0.004500 0.048750 0.000000
0.000500 0.047500 0.000000
0.001000 0.047500 0.000000
0.001500 0.047500 0.000000
0.002000 0.047500 0.000000
0.002500 0.047500 0.000000
0.003000 0.047500 0.000000
0.003500 0.047500 0.000000
0.004000 0.047500 0.000000
0.004500 0.047500 0.000000
0.000500 0.046250 0.000000
0.001000 0.046250 0.000000
0.001500 0.046250 0.000000
0.002000 0.046250 0.000000
0.002500 0.046250 0.000000
0.003000 0.046250 0.000000
0.003500 0.046250 0.000000
0.004000 0.046250 0.000000
0.004500 0.046250 0.000000
0.000500 0.045000 0.000000
0.001000 0.045000 0.000000
0.001500 0.045000 0.000000
0.002000 0.045000 0.000000
0.002500 0.045000 0.000000
0.003000 0.045000 0.000000
0.003500 0.045000 0.000000
0.004000 0.045000 0.000000
0.004500 0.045000 0.000000
0.000500 0.043750 0.000000
0.001000 0.043750 0.000000
0.001500 0.043750 0.000000
0.002000 0.043750 0.000000
0.002500 0.043750 0.000000
0.003000 0.043750 0.000000
0.003500 0.043750 0.000000
0.004000 0.043750 0.000000
0.004500 0.043750 0.000000
0.000500 0.042500 0.000000
0.001000 0.042500 0.000000
0.001500 0.042500 0.000000
0.002000 0.042500 0.000000
0.002500 0.042500 0.000000
0.003000 0.042500 0.000000
0.003500 0.042500 0.000000
0.004000 0.042500 0.000000
0.004500 0.042500 0.000000
0.000500 0.041250 0.000000
0.001000 0.041250 0.000000
0.001500 0.041250 0.000000
0.002000 0.041250 0.000000
0.002500 0.041250 0.000000
0.003000 0.041250 0.000000
0.003500 0.041250 0.000000
0.004000 0.041250 0.000000
0.004500 0.041250 0.000000
0.000500 0.040000 0.000000
0.001000 0.040000 0.000000
0.001500 0.040000 0.000000
0.002000 0.040000 0.000000
0.002500 0.040000 0.000000
0.003000 0.040000 0.000000
0.003500 0.040000 0.000000
0.004000 0.040000 0.000000
0.004500 0.040000 0.000000
0.000500 0.038750 0.000000
0.001000 0.038750 0.000000
0.001500 0.038750 0.000000
0.002000 0.038750 0.000000
0.002500 0.038750 0.000000
0.003000 0.038750 0.000000
0.003500 0.038750 0.000000
0.004000 0.038750 0.000000
0.004500 0.038750 0.000000
0.000500 0.037500 0.000000
0.001000 0.037500 0.000000
0.001500 0.037500 0.000000
0.002000 0.037500 0.000000
0.002500 0.037500 0.000000
0.003000 0.037500 0.000000
0.003500 0.037500 0.000000
0.004000 0.037500 0.000000
0.004500 0.037500 0.000000
0.000500 0.036250 0.000000
0.001000 0.036250 0.000000
0.001500 0.036250 0.000000
0.002000 0.036250 0.000000
0.002500 0.036250 0.000000
0.003000 0.036250 0.000000
0.003500 0.036250 0.000000
0.004000 0.036250 0.000000
0.004500 0.036250 0.000000
0.000500 0.035000 0.000000
0.001000 0.035000 0.000000
0.001500 0.035000 0.000000
0.002000 0.035000 0.000000
0.002500 0.035000 0.000000
0.003000 0.035000 0.000000
0.003500 0.035000 0.000000
0.004000 0.035000 0.000000
0.004500 0.035000 0.000000
0.000500 0.033750 0.000000
0.001000 0.033750 0.000000
0.001500 0.033750 0.000000
0.002000 0.033750 0.000000
0.002500 0.033750 0.000000
0.003000 0.033750 0.000000
0.003500 0.033750 0.000000
0.004000 0.033750 0.000000
0.004500 0.033750 0.000000
0.000500 0.032500 0.000000
0.001000 0.032500 0.000000
0.001500 0.032500 0.000000
0.002000 0.032500 0.000000
0.002500 0.032500 0.000000
0.003000 0.032500 0.000000
0.003500 0.032500 0.000000
0.004000 0.032500 0.000000
0.004500 0.032500 0.000000
0.000500 0.031250 0.000000
0.001000 0.031250 0.000000
0.001500 0.031250 0.000000
0.002000 0.031250 0.000000
0.002500 0.031250 0.000000
0.003000 0.031250 0.000000
0.003500 0.031250 0.000000
0.004000 0.031250 0.000000
0.004500 0.031250 0.000000
0.000500 0.030000 0.000000
0.001000 0.030000 0.000000
0.001500 0.030000 0.000000
0.002000 0.030000 0.000000
0.002500 0.030000 0.000000
0.003000 0.030000 0.000000
0.003500 0.030000 0.000000
0.004000 0.030000 0.000000
0.004500 0.030000 0.000000
0.000500 0.028750 0.000000
0.001000 0.028750 0.000000
0.001500 0.028750 0.000000
0.002000 0.028750 0.000000
0.002500 0.028750 0.000000
0.003000 0.028750 0.000000
0.003500 0.028750 0.000000
0.004000 0.028750 0.000000
0.004500 0.028750 0.000000
0.000500 0.027500 0.000000
0.001000 0.027500 0.000000
0.001500 0.027500 0.000000
0.002000 0.027500 0.000000
0.002500 0.027500 0.000000
0.003000 0.027500 0.000000
0.003500 0.027500 0.000000
0.004000 0.027500 0.000000
0.004500 0.027500 0.000000
0.000500 0.026250 0.000000
0.001000 0.026250 0.000000
0.001500 0.026250 0.000000
0.002000 0.026250 0.000000
0.002500 0.026250 0.000000
0.003000 0.026250 0.000000
0.003500 0.026250 0.000000
0.004000 0.026250 0.000000
0.004500 0.026250 0.000000
0.000500 0.025000 0.000000
0.001000 0.025000 0.000000
0.001500 0.025000 0.000000
0.002000 0.025000 0.000000
0.002500 0.025000 0.000000
0.003000 0.025000 0.000000
0.003500 0.025000 0.000000
0.004000 0.025000 0.000000
0.004500 0.025000 0.000000
0.000500 0.023750 0.000000
0.001000 0.023750 0.000000
0.001500 0.023750 0.000000
0.002000 0.023750 0.000000
0.002500 0.023750 0.000000
0.003000 0.023750 0.000000
0.003500 0.023750 0.000000
0.004000 0.023750 0.000000
0.004500 0.023750 0.000000
0.000500 0.022500 0.000000
0.001000 0.022500 0.000000
0.001500 0.022500 0.000000
0.002000 0.022500 0.000000
0.002500 0.022500 0.000000
0.003000 0.022500 0.000000
0.003500 0.022500 0.000000
0.004000 0.022500 0.000000
0.004500 0.022500 0.000000
0.000500 0.021250 0.000000
0.001000 0.021250 0.000000
0.001500 0.021250 0.000000
0.002000 0.021250 0.000000
0.002500 0.021250 0.000000
0.003000 0.021250 0.000000
0.003500 0.021250 0.000000
0.004000 0.021250 0.000000
0.004500 0.021250 0.000000
0.000500 0.020000 0.000000
0.001000 0.020000 0.000000
0.001500 0.020000 0.000000
0.002000 0.020000 0.000000
0.002500 0.020000 0.000000
0.003000 0.020000 0.000000
0.003500 0.020000 0.000000
0.004000 0.020000 0.000000
0.004500 0.020000 0.000000
0.000500 0.018750 0.000000
0.001000 0.018750 0.000000
0.001500 0.018750 0.000000
0.002000 0.018750 0.000000
0.002500 0.018750 0.000000
0.003000 0.018750 0.000000
0.003500 0.018750 0.000000
0.004000 0.018750 0.000000
0.004500 0.018750 0.000000
0.000500 0.017500 0.000000
0.001000 0.017500 0.000000
0.001500 0.017500 0.000000
0.002000 0.017500 0.000000
0.002500 0.017500 0.000000
0.003000 0.017500 0.000000
0.003500 0.017500 0.000000
0.004000 0.017500 0.000000
0.004500 0.017500 0.000000
0.000500 0.016250 0.000000
0.001000 0.016250 0.000000
0.001500 0.016250 0.000000
0.002000 0.016250 0.000000
0.002500 0.016250 0.000000
0.003000 0.016250 0.000000
0.003500 0.016250 0.000000
0.004000 0.016250 0.000000
0.004500 0.016250 0.000000
0.000500 0.015000 0.000000
0.001000 0.015000 0.000000
0.001500 0.015000 0.000000
0.002000 0.015000 0.000000
0.002500 0.015000 0.000000
0.003000 0.015000 0.000000
0.003500 0.015000 0.000000
0.004000 0.015000 0.000000
0.004500 0.015000 0.000000
0.000500 0.013750 0.000000
0.001000 0.013750 0.000000
0.001500 0.013750 0.000000
0.002000 0.013750 0.000000
0.002500 0.013750 0.000000
0.003000 0.013750 0.000000
0.003500 0.013750 0.000000
0.004000 0.013750 0.000000
0.004500 0.013750 0.000000
0.000500 0.012500 0.000000
0.001000 0.012500 0.000000
0.001500 0.012500 0.000000
0.002000 0.012500 0.000000
0.002500 0.012500 0.000000
0.003000 0.012500 0.000000
0.003500 0.012500 0.000000
0.004000 0.012500 0.000000
0.004500 0.012500 0.000000
0.000500 0.011250 0.000000
0.001000 0.011250 0.000000
0.001500 0.011250 0.000000
0.002000 0.011250 0.000000
0.002500 0.011250 0.000000
0.003000 0.011250 0.000000
0.003500 0.011250 0.000000
0.004000 0.011250 0.000000
0.004500 0.011250 0.000000
0.000500 0.010000 0.000000
0.001000 0.010000 0.000000
0.001500 0.010000 0.000000
0.002000 0.010000 0.000000
0.002500 0.010000 0.000000
0.003000 0.010000 0.000000
0.003500 0.010000 0.000000
0.004000 0.010000 0.000000
0.004500 0.010000 0.000000
0.000500 0.008750 0.000000
0.001000 0.008750 0.000000
0.001500 0.008750 0.000000
0.002000 0.008750 0.000000
0.002500 0.008750 0.000000
0.003000 0.008750 0.000000
0.003500 0.008750 0.000000
0.004000 0.008750 0.000000
0.004500 0.008750 0.000000
0.000500 0.007500 0.000000
0.001000 0.007500 0.000000
0.001500 0.007500 0.000000
0.002000 0.007500 0.000000
0.002500 0.007500 0.000000
0.003000 0.007500 0.000000
0.003500 0.007500 0.000000
0.004000 0.007500 0.000000
0.004500 0.007500 0.000000
0.000500 0.006250 0.000000
0.001000 0.006250 0.000000
0.001500 0.006250 0.000000
0.002000 0.006250 0.000000
0.002500 0.006250 0.000000
0.003000 0.006250 0.000000
0.003500 0.006250 0.000000
0.004000 0.006250 0.000000
0.004500 0.006250 0.000000
0.000500 0.005000 0.000000
0.001000 0.005000 0.000000
0.001500 0.005000 0.000000
0.002000 0.005000 0.000000
0.002500 0.005000 0.000000
0.003000 0.005000 0.000000
0.003500 0.005000 0.000000
0.004000 0.005000 0.000000
0.004500 0.005000 0.000000
0.000500 0.003750 0.000000
0.001000 0.003750 0.000000
0.001500 0.003750 0.000000
0.002000 0.003750 0.000000
0.002500 0.003750 0.000000
0.003000 0.003750 0.000000
0.003500 0.003750 0.000000
0.004000 0.003750 0.000000
0.004500 0.003750 0.000000
0.000500 0.002500 0.000000
0.001000 0.002500 0.000000
0.001500 0.002500 0.000000
0.002000 0.002500 0.000000
0.002500 0.002500 0.000000
0.003000 0.002500 0.000000
0.003500 0.002500 0.000000
0.004000 0.002500 0.000000
0.004500 0.002500 0.000000
0.000500 0.001250 0.000000
0.001000 0.001250 0.000000
0.001500 0.001250 0.000000
0.002000 0.001250 0.000000
0.002500 0.001250 0.000000
0.003000 0.001250 0.000000
0.003500 0.001250 0.000000
0.004000 0.001250 0.000000
0.004500 0.001250 0.000000
CELLS 800 4000
4 82 83 180 179
4 179 180 181 178
4 178 181 182 177
4 177 182 183 176
4 176 183 184 175
4 175 184 185 174
4 174 185 186 173
4 173 186 187 172
4 172 187 188 171
4 171 188 80 0
4 83 84 189 180
4 180 189 190 181
4 181 190 191 182
4 182 191 192 183
4 183 192 193 184
4 184 193 194 185
4 185 194 195 186
4 186 195 196 187
4 187 196 197 188
4 188 197 79 80
4 84 85 198 189
4 189 198 199 190
4 190 199 200 191
4 191 200 201 192
4 192 201 202 193
4 193 202 203 194
4 194 203 204 195
4 195 204 205 196
4 196 205 206 197
4 197 206 78 79
4 85 86 207 198
4 198 207 208 199
4 199 208 209 200
4 200 209 210 201
4 201 210 211 202
4 202 211 212 203
4 203 212 213 204
4 204 213 214 205
4 205 214 215 206
4 206 215 77 78
4 86 87 216 207
4 207 216 217 208
4 208 217 218 209
4 209 218 219 210
4 210 219 220 211
4 211 220 221 212
4 212 221 222 213
4 213 222 223 214
4 214 223 224 215
4 215 224 76 77
4 87 88 225 216
4 216 225 226 217
4 217 226 227 218
4 218 227 228 219
4 219 228 229 220
4 220 229 230 221
4 221 230 231 222
4 222 231 232 223
4 223 232 233 224
4 224 233 75 76
4 88 89 234 225
4 225 234 235 226
4 226 235 236 227
4 227 236 237 228
4 228 237 238 229
4 229 238 239 230
4 230 239 240 231
4 231 240 241 232
4 232 241 242 233
4 233 242 74 75
4 89 90 243 234
4 234 243 244 235
4 235 244 245 236
4 236 245 246 237
4 237 246 247 238
4 238 247 248 239
4 239 248 249 240
4 240 249 250 241
4 241 250 251 242
4 242 251 73 74
4 90 91 252 243
4 243 252 253 244
4 244 253 254 245
4 245 254 255 246
4 246 255 256 247
4 247 256 257 248
4 248 257 258 249
4 249 258 259 250
4 250 259 260 251
4 251 260 72 73
4 91 92 261 252
4 252 261 262 253
4 253 262 263 254
4 254 263 264 255
4 255 264 265 256
4 256 265 266 257
4 257 266 267 258
4 258 267 268 259
4 259 268 269 260
4 260 269 71 72
4 92 93 270 261
4 261 270 271 262
4 262 271 272 263
4 263 272 273 264
4 264 273 274 265
4 265 274 275 266
4 266 275 276 267
4 267 276 277 268
4 268 277 278 269
4 269 278 70 71
4 93 94 279 270
4 270 279 280 271
4 271 280 281 272
4 272 281 282 273
4 273 282 283 274
4 274 283 284 275
4 275 284 285 276
4 276 285 286 277
4 277 286 287 278
4 278 287 69 70
4 94 95 288 279
4 279 288 289 280
4 280 289 290 281
4 281 290 291 282
4 282 291 292 283
4 283 292 293 284
4 284 293 294 285
4 285 294 295 286
4 286 295 296 287
4 287 296 68 69
4 95 96 297 288
4 288 297 298 289
4 289 298 299 290
4 290 299 300 291
4 291 300 301 292
4 292 301 302 293
4 293 302 303 294
4 294 303 304 295
4 295 304 305 296
4 296 305 67 68
4 96 97 306 297
4 297 306 307 298
4 298 307 308 299
4 299 308 309 300
4 300 309 310 301
4 301 310 311 302
4 302 311 312 303
4 303 312 313 304
4 304 313 314 305
4 305 314 66 67
4 97 98 315 306
4 306 315 316 307
4 307 316 317 308
4 308 317 318 309
4 309 318 319 310
4 310 319 320 311
4 311 320 321 312
4 312 321 322 313
4 313 322 323 314
4 314 323 65 66
4 98 99 324 315
4 315 324 325 316
4 316 325 326 317
4 317 326 327 318
4 318 327 328 319
4 319 328 329 320
4 320 329 330 321
4 321 330 331 322
4 322 331 332 323
4 323 332 64 65
4 99 100 333 324
4 324 333 334 325
4 325 334 335 326
4 326 335 336 327
4 327 336 337 328
4 328 337 338 329
4 329 338 339 330
4 330 339 340 331
4 331 340 341 332
4 332 341 63 64
4 100 101 342 333
4 333 342 343 334
4 334 343 344 335
4 335 344 345 336
4 336 345 346 337
4 337 346 347 338
4 338 347 348 339
4 339 348 349 340
4 340 349 350 341
4 341 350 62 63
4 101 102 351 342
4 342 351 352 343
4 343 352 353 344
4 344 353 354 345
4 345 354 355 346
4 346 355 356 347
4 347 356 357 348
4 348 357 358 349
4 349 358 359 350
4 350 359 61 62
4 102 103 360 351
4 351 360 361 352
4 352 361 362 353
4 353 362 363 354
4 354 363 364 355
4 355 364 365 356
4 356 365 366 357
4 357 366 367 358
4 358 367 368 359
4 359 368 60 61
4 103 104 369 360
4 360 369 370 361
4 361 370 371 362
4 362 371 372 363
4 363 372 373 364
4 364 373 374 365
4 365 374 375 366
4 366 375 376 367
4 367 376 377 368
4 368 377 59 60
4 104 105 378 369
4 369 378 379 370
4 370 379 380 371
4 371 380 381 372
4 372 381 382 373
4 373 382 383 374
4 374 383 384 375
4 375 384 385 376
4 376 385 386 377
4 377 386 58 59
4 105 106 387 378
4 378 387 388 379
4 379 388 389 380
4 380 389 390 381
4 381 390 391 382
4 382 391 392 383
4 383 392 393 384
4 384 393 394 385
4 385 394 395 386
4 386 395 57 58
4 106 107 396 387
4 387 396 397 388
4 388 397 398 389
4 389 398 399 390
4 390 399 400 391
4 391 400 401 392
4 392 401 402 393
4 393 402 403 394
4 394 403 404 395
4 395 404 56 57
4 107 108 405 396
4 396 405 406 397
4 397 406 407 398
4 398 407 408 399
4 399 408 409 400
4 400 409 410 401
4 401 410 411 402
4 402 411 412 403
4 403 412 413 404
4 404 413 55 56
4 108 109 414 405
4 405 414 415 406
4 406 415 416 407
4 407 416 417 408
4 408 417 418 409
4 409 418 419 410
4 410 419 420 411
4 411 420 421 412
4 412 421 422 413
4 413 422 54 55
4 109 110 423 414
4 414 423 424 415
4 415 424 425 416
4 416 425 426 417
4 417 426 427 418
4 418 427 428 419
4 419 428 429 420
4 420 429 430 421
4 421 430 431 422
4 422 431 53 54
4 110 111 432 423
4 423 432 433 424
4 424 433 434 425
4 425 434 435 426
4 426 435 436 427
4 427 436 437 428
4 428 437 438 429
4 429 438 439 430
4 430 439 440 431
4 431 440 52 53
4 111 112 441 432
4 432 441 442 433
4 433 442 443 434
4 434 443 444 435
4 435 444 445 436
4 436 445 446 437
4 437 446 447 438
4 438 447 448 439
4 439 448 449 440
4 440 449 51 52
4 112 113 450 441
4 441 450 451 442
4 442 451 452 443
4 443 452 453 444
4 444 453 454 445
4 445 454 455 446
4 446 455 456 447
4 447 456 457 448
4 448 457 458 449
4 449 458 50 51
4 113 114 459 450
4 450 459 460 451
4 451 460 461 452
4 452 461 462 453
4 453 462 463 454
4 454 463 464 455
4 455 464 465 456
4 456 465 466 457
4 457 466 467 458
4 458 467 49 50
4 114 115 468 459
4 459 468 469 460
4 460 469 470 461
4 461 470 471 462
4 462 471 472 463
4 463 472 473 464
4 464 473 474 465
4 465 474 475 466
4 466 475 476 467
4 467 476 48 49
4 115 116 477 468
4 468 477 478 469
4 469 478 479 470
4 470 479 480 471
4 471 480 481 472
4 472 481 482 473
4 473 482 483 474
4 474 483 484 475
4 475 484 485 476
4 476 485 47 48
4 116 117 486 477
4 477 486 487 478
4 478 487 488 479
4 479 488 489 480
4 480 489 490 481
4 481 490 491 482
4 482 491 492 483
4 483 492 493 484
4 484 493 494 485
4 485 494 46 47
4 117 118 495 486
4 486 495 496 487
4 487 496 497 488
4 488 497 498 489
4 489 498 499 490
4 490 499 500 491
4 491 500 501 492
4 492 501 502 493
4 493 502 503 494
4 494 503 45 46
4 118 119 504 495
4 495 504 505 496
4 496 505 506 497
4 497 506 507 498
4 498 507 508 499
4 499 508 509 500
4 500 509 510 501
4 501 510 511 502
4 502 511 512 503
4 503 512 44 45
4 119 120 513 504
4 504 513 514 505
4 505 514 515 506
4 506 515 516 507
4 507 516 517 508
4 508 517 518 509
4 509 518 519 510
4 510 519 520 511
4 511 520 521 512
4 512 521 43 44
4 120 121 522 513
4 513 522 523 514
4 514 523 524 515
4 515 524 525 516
4 516 525 526 517
4 517 526 527 518
4 518 527 528 519
4 519 528 529 520
4 520 529 530 521
4 521 530 42 43
4 121 122 531 522
4 522 531 532 523
4 523 532 533 524
4 524 533 534 525
4 525 534 535 526
4 526 535 536 527
4 527 536 537 528
4 528 537 538 529
4 529 538 539 530
4 530 539 41 42
4 122 123 540 531
4 531 540 541 532
4 532 541 542 533
4 533 542 543 534
4 534 543 544 535
4 535 544 545 536
4 536 545 546 537
4 537 546 547 538
4 538 547 548 539
4 539 548 40 41
4 123 124 549 540
4 540 549 550 541
4 541 550 551 542
4 542 551 552 543
4 543 552 553 544
4 544 553 554 545
4 545 554 555 546
4 546 555 556 547
4 547 556 557 548
4 548 557 39 40
4 124 125 558 549
4 549 558 559 550
4 550 559 560 551
4 551 560 561 552
4 552 561 562 553
4 553 562 563 554
4 554 563 564 555
4 555 564 565 556
4 556 565 566 557
4 557 566 38 39
4 125 126 567 558
4 558 567 568 559
4 559 568 569 560
4 560 569 570 561
4 561 570 571 562
4 562 571 572 563
4 563 572 573 564
4 564 573 574 565
4 565 574 575 566
4 566 575 37 38
4 126 127 576 567
4 567 576 577 568
4 568 577 578 569
4 569 578 579 570
4 570 579 580 571
4 571 580 581 572
4 572 581 582 573
4 573 582 583 574
4 574 583 584 575
4 575 584 36 37
4 127 128 585 576
4 576 585 586 577
4 577 586 587 578
4 578 587 588 579
4 579 588 589 580
4 580 589 590 581
4 581 590 591 582
4 582 591 592 583
4 583 592 593 584
4 584 593 35 36
4 128 129 594 585
4 585 594 595 586
4 586 595 596 587
4 587 596 597 588
4 588 597 598 589
4 589 598 599 590
4 590 599 600 591
4 591 600 601 592
4 592 601 602 593
4 593 602 34 35
4 129 130 603 594
4 594 603 604 595
4 595 604 605 596
4 596 605 606 597
4 597 606 607 598
4 598 607 608 599
4 599 608 609 600
4 600 609 610 601
4 601 610 611 602
4 602 611 33 34
4 130 131 612 603
4 603 612 613 604
4 604 613 614 605
4 605 614 615 606
4 606 615 616 607
4 607 616 617 608
4 608 617 618 609
4 609 618 619 610
4 610 619 620 611
4 611 620 32 33
4 131 132 621 612
4 612 621 622 613
4 613 622 623 614
4 614 623 624 615
4 615 624 625 616
4 616 625 626 617
4 617 626 627 618
4 618 627 628 619
4 619 628 629 620
4 620 629 31 32
4 132 133 630 621
4 621 630 631 622
4 622 631 632 623
4 623 632 633 624
4 624 633 634 625
4 625 634 635 626
4 626 635 636 627
4 627 636 637 628
4 628 637 638 629
4 629 638 30 31
4 133 134 639 630
4 630 639 640 631
4 631 640 641 632
4 632 641 642 633
4 633 642 643 634
4 634 643 644 635
4 635 644 645 636
4 636 645 646 637
4 637 646 647 638
4 638 647 29 30
4 134 135 648 639
4 639 648 649 640
4 640 649 650 641
4 641 650 651 642
4 642 651 652 643
4 643 652 653 644
4 644 653 654 645
4 645 654 655 646
4 646 655 656 647
4 647 656 28 29
4 135 136 657 648
4 648 657 658 649
4 649 658 659 650
4 650 659 660 651
4 651 660 661 652
4 652 661 662 653
4 653 662 663 654
4 654 663 664 655
4 655 664 665 656
4 656 665 27 28
4 136 137 666 657
4 657 666 667 658
4 658 667 668 659
4 659 668 669 660
4 660 669 670 661
4 661 670 671 662
4 662 671 672 663
4 663 672 673 664
4 664 673 674 665
4 665 674 26 27
4 137 138 675 666
4 666 675 676 667
4 667 676 677 668
4 668 677 678 669
4 669 678 679 670
4 670 679 680 671
4 671 680 681 672
4 672 681 682 673
4 673 682 683 674
4 674 683 25 26
4 138 139 684 675
4 675 684 685 676
4 676 685 686 677
4 677 686 687 678
4 678 687 688 679
4 679 688 689 680
4 680 689 690 681
4 681 690 691 682
4 682 691 692 683
4 683 692 24 25
4 139 140 693 684
4 684 693 694 685
4 685 694 695 686
4 686 695 696 687
4 687 696 697 688
4 688 697 698 689
4 689 698 699 690
4 690 699 700 691
4 691 700 701 692
4 692 701 23 24
4 140 141 702 693
4 693 702 703 694
4 694 703 704 695
4 695 704 705 696
4 696 705 706 697
4 697 706 707 698
4 698 707 708 699
4 699 708 709 700
4 700 709 710 701
4 701 710 22 23
4 141 142 711 702
4 702 711 712 703
4 703 712 713 704
4 704 713 714 705
4 705 714 715 706
4 706 715 716 707
4 707 716 717 708
4 708 717 718 709
4 709 718 719 710
4 710 719 21 22
4 142 143 720 711
4 711 720 721 712
4 712 721 722 713
4 713 722 723 714
4 714 723 724 715
4 715 724 725 716
4 716 725 726 717
4 717 726 727 718
4 718 727 728 719
4 719 728 20 21
4 143 144 729 720
4 720 729 730 721
4 721 730 731 722
4 722 731 732 723
4 723 732 733 724
4 724 733 734 725
4 725 734 735 726
4 726 735 736 727
4 727 736 737 728
4 728 737 19 20
4 144 145 738 729
4 729 738 739 730
4 730 739 740 731
4 731 740 741 732
4 732 741 742 733
4 733 742 743 734
4 734 743 744 735
4 735 744 745 736
4 736 745 746 737
4 737 746 18 19
4 145 146 747 738
4 738 747 748 739
4 739 748 749 740
4 740 749 750 741
4 741 750 751 742
4 742 751 752 743
4 743 752 753 744
4 744 753 754 745
4 745 754 755 746
4 746 755 17 18
4 146 147 756 747
4 747 756 757 748
4 748 757 758 749
4 749 758 759 750
4 750 759 760 751
4 751 760 761 752
4 752 761 762 753
4 753 762 763 754
4 754 763 764 755
4 755 764 16 17
4 147 148 765 756
4 756 765 766 757
4 757 766 767 758
4 758 767 768 759
4 759 768 769 760
4 760 769 770 761
4 761 770 771 762
4 762 771 772 763
4 763 772 773 764
4 764 773 15 16
4 148 149 774 765
4 765 774 775 766
4 766 775 776 767
4 767 776 777 768
4 768 777 778 769
4 769 778 779 770
4 770 779 780 771
4 771 780 781 772
4 772 781 782 773
4 773 782 14 15
4 149 150 783 774
4 774 783 784 775
4 775 784 785 776
4 776 785 786 777
4 777 786 787 778
4 778 787 788 779
4 779 788 789 780
4 780 789 790 781
4 781 790 791 782
4 782 791 13 14
4 150 151 792 783
4 783 792 793 784
4 784 793 794 785
4 785 794 795 786
4 786 795 796 787
4 787 796 797 788
4 788 797 798 789
4 789 798 799 790
4 790 799 800 791
4 791 800 12 13
4 151 152 801 792
4 792 801 802 793
4 793 802 803 794
4 794 803 804 795
4 795 804 805 796
4 796 805 806 797
4 797 806 807 798
4 798 807 808 799
4 799 808 809 800
4 800 809 11 12
4 152 153 810 801
4 801 810 811 802
4 802 811 812 803
4 803 812 813 804
4 804 813 814 805
4 805 814 815 806
4 806 815 816 807
4 807 816 817 808
4 808 817 818 809
4 809 818 10 11
4 153 154 819 810
4 810 819 820 811
4 811 820 821 812
4 812 821 822 813
4 813 822 823 814
4 814 823 824 815
4 815 824 825 816
4 816 825 826 817
4 817 826 827 818
4 818 827 9 10
4 154 155 828 819
4 819 828 829 820
4 820 829 830 821
4 821 830 831 822
4 822 831 832 823
4 823 832 833 824
4 824 833 834 825
4 825 834 835 826
4 826 835 836 827
4 827 836 8 9
4 155 156 837 828
4 828 837 838 829
4 829 838 839 830
4 830 839 840 831
4 831 840 841 832
4 832 841 842 833
4 833 842 843 834
4 834 843 844 835
4 835 844 845 836
4 836 845 7 8
4 156 157 846 837
4 837 846 847 838
4 838 847 848 839
4 839 848 849 840
4 840 849 850 841
4 841 850 851 842
4 842 851 852 843
4 843 852 853 844
4 844 853 854 845
4 845 854 6 7
4 157 158 855 846
4 846 855 856 847
4 847 856 857 848
4 848 857 858 849
4 849 858 859 850
4 850 859 860 851
4 851 860 861 852
4 852 861 862 853
4 853 862 863 854
4 854 863 5 6
4 158 159 864 855
4 855 864 865 856
4 856 865 866 857
4 857 866 867 858
4 858 867 868 859
4 859 868 869 860
4 860 869 870 861
4 861 870 871 862
4 862 871 872 863
4 863 872 4 5
4 159 160 873 864
4 864 873 874 865
4 865 874 875 866
4 866 875 876 867
4 867 876 877 868
4 868 877 878 869
4 869 878 879 870
4 870 879 880 871
4 871 880 881 872
4 872 881 3 4
4 160 161 882 873
4 873 882 883 874
4 874 883 884 875
4 875 884 885 876
4 876 885 886 877
4 877 886 887 878
4 878 887 888 879
4 879 888 889 880
4 880 889 890 881
4 881 890 2 3
4 161 81 162 882
4 882 162 163 883
4 883 163 164 884
4 884 164 165 885
4 885 165 166 886
4 886 166 167 887
4 887 167 168 888
4 888 168 169 889
4 889 169 170 890
4 890 170 1 2
CELL_TYPES 800
9
9
9
9
9
9
9
9
9
9
9
9
9
9
9
9
9
9
9
9
9
9
9
9
9
9
9
9
9
9
9
9
9
9
9
9
9
9
9
9
9
9
9
9
9
9
9
9
9
9
9
9
9
9
9
9
9
9
9
9
9
9
9
9
9
9
9
9
9
9
9
9
9
9
9
9
9
9
9
9
9
9
9
9
9
9
9
9
9
9
9
9
9
9
9
9
9
9
9
9
9
9
9
9
9
9
9
9
9
9
9
9
9
9
9
9
9
9
9
9
9
9
9
9
9
9
9
9
9
9
9
9
9
9
9
9
9
9
9
9
9
9
9
9
9
9
9
9
9
9
9
9
9
9
9
9
9
9
9
9
9
9
9
9
9
9
9
9
9
9
9
9
9
9
9
9
9
9
9
9
9
9
9
9
9
9
9
9
9
9
9
9
9
9
9
9
9
9
9
9
9
9
9
9
9
9
9
9
9
9
9
9
9
9
9
9
9
9
9
9
9
9
9
9
9
9
9
9
9
9
9
9
9
9
9
9
9
9
9
9
9
9
9
9
9
9
9
9
9
9
9
9
9
9
9
9
9
9
9
9
9
9
9
9
9
9
9
9
9
9
9
9
9
9
9
9
9
9
9
9
9
9
9
9
9
9
9
9
9
9
9
9
9
9
9
9
9
9
9
9
9
9
9
9
9
9
9
9
9
9
9
9
9
9
9
9
9
9
9
9
9
9
9
9
9
9
9
9
9
9
9
9
9
9
9
9
9
9
9
9
9
9
9
9
9
9
9
9
9
9
9
9
9
9
9
9
9
9
9
9
9
9
9
9
9
9
9
9
9
9
9
9
9
9
9
9
9
9
9
9
9
9
9
9
9
9
9
9
9
9
9
9
9
9
9
9
9
9
9
9
9
9
9
9
9
9
9
9
9
9
9
9
9
9
9
9
9
9
9
9
9
9
9
9
9
9
9
9
9
9
9
9
9
9
9
9
9
9
9
9
9
9
9
9
9
9
9
9
9
9
9
9
9
9
9
9
9
9
9
9
9
9
9
9
9
9
9
9
9
9
9
9
9
9
9
9
9
9
9
9
9
9
9
9
9
9
9
9
9
9
9
9
9
9
9
9
9
9
9
9
9
9
9
9
9
9
9
9
9
9
9
9
9
9
9
9
9
9
9
9
9
9
9
9
9
9
9
9
9
9
9
9
9
9
9
9
9
9
9
9
9
9
9
9
9
9
9
9
9
9
9
9
9
9
9
9
9
9
9
9
9
9
9
9
9
9
9
9
9
9
9
9
9
9
9
9
9
9
9
9
9
9
9
9
9
9
9
9
9
9
9
9
9
9
9
9
9
9
9
9
9
9
9
9
9
9
9
9
9
9
9
9
9
9
9
9
9
9
9
9
9
9
9
9
9
9
9
9
9
9
9
9
9
9
9
9
9
9
9
9
9
9
9
9
9
9
9
9
9
9
9
9
9
9
9
9
9
9
9
9
9
9
9
9
9
9
9
9
9
9
9
9
9
9
9
9
9
9
9
9
9
9
9
9
9
9
9
9
9
9
9
9
9
9
9
9
9
9
9
9
9
9
9
9
9
9
9
9
9
9
9
9
9
9
9
9
9
9
9
9
9
9
9
9
9
9
9
9
9
9
9
9
9
9
9
9
9
9
9
9
9
9
9
9
9
9
9
9
9
9
9
9
9
9
9
9
9
9
9
9
9
9
9
9
9
9
9
9
9
9
9
9
9
9
9
9
9
9
9
9
9
9
9
9
9
9
9
9
9
9
9
9
9
9
9
9
9
9
9
9
POINT_DATA 891
SCALARS u1 float
LOOKUP_TABLE default
8e-19
-9e-07
-9e-07
-9e-07
-9e-07
-9e-07
-9e-07
-9e-07
-9e-07
-9e-07
-9e-07
-9e-07
-9e-07
-9e-07
-9e-07
-9e-07
-9e-07
-9e-07
-9e-07
-9e-07
-9e-07
-9e-07
-9e-07
-9e-07
-9e-07
-9e-07
-9e-07
-9e-07
-9e-07
-9e-07
-9e-07
-9e-07
-9e-07
-9e-07
-9e-07
-9e-07
-9e-07
-9e-07
-9e-07
-9e-07
-9e-07
-9e-07
-9e-07
-9e-07
-9e-07
-9e-07
-9e-07
-9e-07
-9e-07
-9e-07
-9e-07
-9e-07
-9e-07
-9e-07
-9e-07
-9e-07
-9e-07
-9e-07
-9e-07
-9e-07
-9e-07
-9e-07
-9e-07
-9e-07
-9e-07
-9e-07
-9e-07
-9e-07
-9e-07
-9e-07
-9e-07
-9e-07
-9e-07
-9e-07
-9e-07
-9e-07
-9e-07
-9e-07
-9e-07
-9e-07
-7e-07
9e-07
8e-19
7e-07
9e-07
9e-07
9e-07
9e-07
9e-07
9e-07
9e-07
9e-07
9e-07
9e-07
9e-07
9e-07
9e-07
9e-07
9e-07
9e-07
9e-07
9e-07
9e-07
9e-07
9e-07
9e-07
9e-07
9e-07
9e-07
9e-07
9e-07
9e-07
9e-07
9e-07
9e-07
9e-07
9e-07
9e-07
9e-07
9e-07
9e-07
9e-07
9e-07
9e-07
9e-07
9e-07
9e-07
9e-07
9e-07
9e-07
9e-07
9e-07
9e-07
9e-07
9e-07
9e-07
9e-07
9e-07
9e-07
9e-07
9e-07
9e-07
9e-07
9e-07
9e-07
9e-07
9e-07
9e-07
9e-07
9e-07
9e-07
9e-07
9e-07
9e-07
9e-07
9e-07
9e-07
9e-07
9e-07
9e-07
9e-07
9e-07
7e-07
5e-07
4e-07
2e-07
-1e-14
-2e-07
-4e-07
-5e-07
-7e-07
-1e-17
9e-18
-8e-18
-2e-17
3e-18
6e-20
-3e-18
-3e-18
1e-18
5e-07
4e-07
2e-07
1e-07
1e-16
-1e-07
-2e-07
-4e-07
-5e-07
7e-07
5e-07
3e-07
2e-07
3e-16
-2e-07
-3e-07
-5e-07
-7e-07
7e-07
6e-07
4e-07
2e-07
-1e-15
-2e-07
-4e-07
-6e-07
-7e-07
7e-07
6e-07
4e-07
2e-07
-3e-15
-2e-07
-4e-07
-6e-07
-7e-07
7e-07
5e-07
4e-07
2e-07
-5e-15
-2e-07
-4e-07
-5e-07
-7e-07
7e-07
5e-07
4e-07
2e-07
-7e-15
-2e-07
-4e-07
-5e-07
-7e-07
7e-07
5e-07
4e-07
2e-07
-8e-15
-2e-07
-4e-07
-5e-07
-7e-07
7e-07
5e-07
4e-07
2e-07
-9e-15
-2e-07
-4e-07
-5e-07
-7e-07
7e-07
5e-07
4e-07
2e-07
-1e-14
-2e-07
-4e-07
-5e-07
-7e-07
7e-07
5e-07
4e-07
2e-07
-1e-14
-2e-07
-4e-07
-5e-07
-7e-07
7e-07
5e-07
4e-07
2e-07
-1e-14
-2e-07
-4e-07
-5e-07
-7e-07
7e-07
5e-07
4e-07
2e-07
-1e-14
-2e-07
-4e-07
-5e-07
-7e-07
7e-07
5e-07
4e-07
2e-07
-1e-14
-2e-07
-4e-07
-5e-07
-7e-07
7e-07
5e-07
4e-07
2e-07
-1e-14
-2e-07
-4e-07
-5e-07
-7e-07
7e-07
5e-07
4e-07
2e-07
-1e-14
-2e-07
-4e-07
-5e-07
-7e-07
7e-07
5e-07
4e-07
2e-07
-1e-14
-2e-07
-4e-07
-5e-07
-7e-07
7e-07
5e-07
4e-07
2e-07
-1e-14
-2e-07
-4e-07
-5e-07
-7e-07
7e-07
5e-07
4e-07
2e-07
-1e-14
-2e-07
-4e-07
-5e-07
-7e-07
7e-07
5e-07
4e-07
2e-07
-1e-14
-2e-07
-4e-07
-5e-07
-7e-07
7e-07
5e-07
4e-07
2e-07
-1e-14
-2e-07
-4e-07
-5e-07
-7e-07
7e-07
5e-07
4e-07
2e-07
-1e-14
-2e-07
-4e-07
-5e-07
-7e-07
7e-07
5e-07
4e-07
2e-07
-1e-14
-2e-07
-4e-07
-5e-07
-7e-07
7e-07
5e-07
4e-07
2e-07
-1e-14
-2e-07
-4e-07
-5e-07
-7e-07
7e-07
5e-07
4e-07
2e-07
-1e-14
-2e-07
-4e-07
-5e-07
-7e-07
7e-07
5e-07
4e-07
2e-07
-1e-14
-2e-07
-4e-07
-5e-07
-7e-07
7e-07
5e-07
4e-07
2e-07
-1e-14
-2e-07
-4e-07
-5e-07
-7e-07
7e-07
5e-07
4e-07
2e-07
-1e-14
-2e-07
-4e-07
-5e-07
-7e-07
7e-07
5e-07
4e-07
2e-07
-1e-14
-2e-07
-4e-07
-5e-07
-7e-07
7e-07
5e-07
4e-07
2e-07
-1e-14
-2e-07
-4e-07
-5e-07
-7e-07
7e-07
5e-07
4e-07
2e-07
-1e-14
-2e-07
-4e-07
-5e-07
-7e-07
7e-07
5e-07
4e-07
2e-07
-1e-14
-2e-07
-4e-07
-5e-07
-7e-07
7e-07
5e-07
4e-07
2e-07
-1e-14
-2e-07
-4e-07
-5e-07
-7e-07
7e-07
5e-07
4e-07
2e-07
-1e-14
-2e-07
-4e-07
-5e-07
-7e-07
7e-07
5e-07
4e-07
2e-07
-1e-14
-2e-07
-4e-07
-5e-07
-7e-07
7e-07
5e-07
4e-07
2e-07
-1e-14
-2e-07
-4e-07
-5e-07
-7e-07
7e-07
5e-07
4e-07
2e-07
-1e-14
-2e-07
-4e-07
-5e-07
-7e-07
7e-07
5e-07
4e-07
2e-07
-1e-14
-2e-07
-4e-07
-5e-07
-7e-07
7e-07
5e-07
4e-07
2e-07
-1e-14
-2e-07
-4e-07
-5e-07
-7e-07
7e-07
5e-07
4e-07
2e-07
-1e-14
-2e-07
-4e-07
-5e-07
-7e-07
7e-07
5e-07
4e-07
2e-07
-1e-14
-2e-07
-4e-07
-5e-07
-7e-07
7e-07
5e-07
4e-07
2e-07
-1e-14
-2e-07
-4e-07
-5e-07
-7e-07
7e-07
5e-07
4e-07
2e-07
-1e-14
-2e-07
-4e-07
-5e-07
-7e-07
7e-07
5e-07
4e-07
2e-07
-1e-14
-2e-07
-4e-07
-5e-07
-7e-07
7e-07
5e-07
4e-07
2e-07
-1e-14
-2e-07
-4e-07
-5e-07
-7e-07
7e-07
5e-07
4e-07
2e-07
-1e-14
-2e-07
-4e-07
-5e-07
-7e-07
7e-07
5e-07
4e-07
2e-07
-1e-14
-2e-07
-4e-07
-5e-07
-7e-07
7e-07
5e-07
4e-07
2e-07
-1e-14
-2e-07
-4e-07
-5e-07
-7e-07
7e-07
5e-07
4e-07
2e-07
-1e-14
-2e-07
-4e-07
-5e-07
-7e-07
7e-07
5e-07
4e-07
2e-07
-1e-14
-2e-07
-4e-07
-5e-07
-7e-07
7e-07
5e-07
4e-07
2e-07
-1e-14
-2e-07
-4e-07
-5e-07
-7e-07
7e-07
5e-07
4e-07
2e-07
-1e-14
-2e-07
-4e-07
-5e-07
-7e-07
7e-07
5e-07
4e-07
2e-07
-1e-14
-2e-07
-4e-07
-5e-07
-7e-07
7e-07
5e-07
4e-07
2e-07
-1e-14
-2e-07
-4e-07
-5e-07
-7e-07
7e-07
5e-07
4e-07
2e-07
-1e-14
-2e-07
-4e-07
-5e-07
-7e-07
7e-07
5e-07
4e-07
2e-07
-1e-14
-2e-07
-4e-07
-5e-07
-7e-07
7e-07
5e-07
4e-07
2e-07
-1e-14
-2e-07
-4e-07
-5e-07
-7e-07
7e-07
5e-07
4e-07
2e-07
-1e-14
-2e-07
-4e-07
-5e-07
-7e-07
7e-07
5e-07
4e-07
2e-07
-1e-14
-2e-07
-4e-07
-5e-07
-7e-07
7e-07
5e-07
4e-07
2e-07
-1e-14
-2e-07
-4e-07
-5e-07
-7e-07
7e-07
5e-07
4e-07
2e-07
-1e-14
-2e-07
-4e-07
-5e-07
-7e-07
7e-07
5e-07
4e-07
2e-07
-1e-14
-2e-07
-4e-07
-5e-07
-7e-07
7e-07
5e-07
4e-07
2e-07
-1e-14
-2e-07
-4e-07
-5e-07
-7e-07
7e-07
5e-07
4e-07
2e-07
-1e-14
-2e-07
-4e-07
-5e-07
-7e-07
7e-07
5e-07
4e-07
2e-07
-1e-14
-2e-07
-4e-07
-5e-07
-7e-07
7e-07
5e-07
4e-07
2e-07
-1e-14
-2e-07
-4e-07
-5e-07
-7e-07
7e-07
5e-07
4e-07
2e-07
-1e-14
-2e-07
-4e-07
-5e-07
-7e-07
7e-07
5e-07
4e-07
2e-07
-1e-14
-2e-07
-4e-07
-5e-07
-7e-07
7e-07
5e-07
4e-07
2e-07
-1e-14
-2e-07
-4e-07
-5e-07
-7e-07
7e-07
5e-07
4e-07
2e-07
-1e-14
-2e-07
-4e-07
-5e-07
-7e-07
7e-07
5e-07
4e-07
2e-07
-1e-14
-2e-07
-4e-07
-5e-07
-7e-07
7e-07
5e-07
4e-07
2e-07
-1e-14
-2e-07
-4e-07
-5e-07
-7e-07
7e-07
5e-07
4e-07
2e-07
-1e-14
-2e-07
-4e-07
-5e-07
-7e-07
7e-07
5e-07
4e-07
2e-07
-1e-14
-2e-07
-4e-07
-5e-07
-7e-07
7e-07
5e-07
4e-07
2e-07
-1e-14
-2e-07
-4e-07
-5e-07
-7e-07
7e-07
5e-07
4e-07
2e-07
-1e-14
-2e-07
-4e-07
-5e-07
-7e-07
7e-07
5e-07
4e-07
2e-07
-1e-14
-2e-07
-4e-07
-5e-07
-7e-07
7e-07
5e-07
4e-07
2e-07
-1e-14
-2e-07
-4e-07
-5e-07
-7e-07
7e-07
5e-07
4e-07
2e-07
-1e-14
-2e-07
-4e-07
-5e-07
-7e-07
7e-07
5e-07
4e-07
2e-07
-1e-14
-2e-07
-4e-07
-5e-07
-7e-07
SCALARS u2 float
LOOKUP_TABLE default
7e-18
-0.0003
-0.0002
-0.0002
-0.0002
-0.0002
-0.0002
-0.0002
-0.0002
-0.0002
-0.0002
-0.0002
-0.0002
-0.0002
-0.0002
-0.0002
-0.0002
-0.0002
-0.0002
-0.0002
-0.0002
-0.0002
-0.0002
-0.0002
-0.0002
-0.0002
-0.0002
-0.0002
-0.0002
-0.0002
-0.0002
-0.0002
-0.0002
-0.0002
-0.0001
-0.0001
-0.0001
-0.0001
-0.0001
-0.0001
-0.0001
-0.0001
-0.0001
-0.0001
-0.0001
-0.0001
-0.0001
-0.0001
-0.0001
-0.0001
-0.0001
-9e-05
-9e-05
-9e-05
-9e-05
-8e-05
-8e-05
-8e-05
-7e-05
-7e-05
-7e-05
-6e-05
-6e-05
-6e-05
-5e-05
-5e-05
-5e-05
-4e-05
-4e-05
-4e-05
-3e-05
-3e-05
-3e-05
-3e-05
-2e-05
-2e-05
-2e-05
-1e-05
-9e-06
-6e-06
-3e-06
-0.0003
-6e-18
-3e-06
-6e-06
-9e-06
-1e-05
-2e-05
-2e-05
-2e-05
-3e-05
-3e-05
-3e-05
-3e-05
-4e-05
-4e-05
-4e-05
-5e-05
-5e-05
-5e-05
-6e-05
-6e-05
-6e-05
-7e-05
-7e-05
-7e-05
-8e-05
-8e-05
-8e-05
-9e-05
-9e-05
-9e-05
-9e-05
-0.0001
-0.0001
-0.0001
-0.0001
-0.0001
-0.0001
-0.0001
-0.0001
-0.0001
-0.0001
-0.0001
-0.0001
-0.0001
-0.0001
-0.0001
-0.0001
-0.0001
-0.0002
-0.0002
-0.0002
-0.0002
-0.0002
-0.0002
-0.0002
-0.0002
-0.0002
-0.0002
-0.0002
-0.0002
-0.0002
-0.0002
-0.0002
-0.0002
-0.0002
-0.0002
-0.0002
-0.0002
-0.0002
-0.0002
-0.0002
-0.0002
-0.0002
-0.0002
-0.0002
-0.0002
-0.0002
-0.0002
-0.0002
-0.0002
-0.0003
-0.0003
-0.0003
-0.0003
-0.0003
-0.0003
-0.0003
-0.0003
-0.0003
3e-17
-5e-17
3e-17
1e-17
-3e-17
2e-17
-4e-17
-2e-17
-6e-18
-3e-06
-3e-06
-3e-06
-3e-06
-3e-06
-3e-06
-3e-06
-3e-06
-3e-06
-6e-06
-6e-06
-6e-06
-6e-06
-6e-06
-6e-06
-6e-06
-6e-06
-6e-06
-9e-06
-9e-06
-9e-06
-9e-06
-9e-06
-9e-06
-9e-06
-9e-06
-9e-06
-1e-05
-1e-05
-1e-05
-1e-05
-1e-05
-1e-05
-1e-05
-1e-05
-1e-05
-2e-05
-2e-05
-2e-05
-2e-05
-2e-05
-2e-05
-2e-05
-2e-05
-2e-05
-2e-05
-2e-05
-2e-05
-2e-05
-2e-05
-2e-05
-2e-05
-2e-05
-2e-05
-2e-05
-2e-05
-2e-05
-2e-05
-2e-05
-2e-05
-2e-05
-2e-05
-2e-05
-3e-05
-3e-05
-3e-05
-3e-05
-3e-05
-3e-05
-3e-05
-3e-05
-3e-05
-3e-05
-3e-05
-3e-05
-3e-05
-3e-05
-3e-05
-3e-05
-3e-05
-3e-05
-3e-05
-3e-05
-3e-05
-3e-05
-3e-05
-3e-05
-3e-05
-3e-05
-3e-05
-3e-05
-3e-05
-3e-05
-3e-05
-3e-05
-3e-05
-3e-05
-3e-05
-3e-05
-4e-05
-4e-05
-4e-05
-4e-05
-4e-05
-4e-05
-4e-05
-4e-05
-4e-05
-4e-05
-4e-05
-4e-05
-4e-05
-4e-05
-4e-05
-4e-05
-4e-05
-4e-05
-4e-05
-4e-05
-4e-05
-4e-05
-4e-05
-4e-05
-4e-05
-4e-05
-4e-05
-5e-05
-5e-05
-5e-05
-5e-05
-5e-05
-5e-05
-5e-05
-5e-05
-5e-05
-5e-05
-5e-05
-5e-05
-5e-05
-5e-05
-5e-05
-5e-05
-5e-05
-5e-05
-5e-05
-5e-05
-5e-05
-5e-05
-5e-05
-5e-05
-5e-05
-5e-05
-5e-05
-6e-05
-6e-05
-6e-05
-6e-05
-6e-05
-6e-05
-6e-05
-6e-05
-6e-05
-6e-05
-6e-05
-6e-05
-6e-05
-6e-05
-6e-05
-6e-05
-6e-05
-6e-05
-6e-05
-6e-05
-6e-05
-6e-05
-6e-05
-6e-05
-6e-05
-6e-05
-6e-05
-7e-05
-7e-05
-7e-05
-7e-05
-7e-05
-7e-05
-7e-05
-7e-05
-7e-05
-7e-05
-7e-05
-7e-05
-7e-05
-7e-05
-7e-05
-7e-05
-7e-05
-7e-05
-7e-05
-7e-05
-7e-05
-7e-05
-7e-05
-7e-05
-7e-05
-7e-05
-7e-05
-8e-05
-8e-05
-8e-05
-8e-05
-8e-05
-8e-05
-8e-05
-8e-05
-8e-05
-8e-05
-8e-05
-8e-05
-8e-05
-8e-05
-8e-05
-8e-05
-8e-05
-8e-05
-8e-05
-8e-05
-8e-05
-8e-05
-8e-05
-8e-05
-8e-05
-8e-05
-8e-05
-9e-05
-9e-05
-9e-05
-9e-05
-9e-05
-9e-05
-9e-05
-9e-05
-9e-05
-9e-05
-9e-05
-9e-05
-9e-05
-9e-05
-9e-05
-9e-05
-9e-05
-9e-05
-9e-05
-9e-05
-9e-05
-9e-05
-9e-05
-9e-05
-9e-05
-9e-05
-9e-05
-9e-05
-9e-05
-9e-05
-9e-05
-9e-05
-9e-05
-9e-05
-9e-05
-9e-05
-0.0001
-0.0001
-0.0001
-0.0001
-0.0001
-0.0001
-0.0001
-0.0001
-0.0001
-0.0001
-0.0001
-0.0001
-0.0001
-0.0001
-0.0001
-0.0001
-0.0001
-0.0001
-0.0001
-0.0001
-0.0001
-0.0001
-0.0001
-0.0001
-0.0001
-0.0001
-0.0001
-0.0001
-0.0001
-0.0001
-0.0001
-0.0001
-0.0001
-0.0001
-0.0001
-0.0001
-0.0001
-0.0001
-0.0001
-0.0001
-0.0001
-0.0001
-0.0001
-0.0001
-0.0001
-0.0001
-0.0001
-0.0001
-0.0001
-0.0001
-0.0001
-0.0001
-0.0001
-0.0001
-0.0001
-0.0001
-0.0001
-0.0001
-0.0001
-0.0001
-0.0001
-0.0001
-0.0001
-0.0001
-0.0001
-0.0001
-0.0001
-0.0001
-0.0001
-0.0001
-0.0001
-0.0001
-0.0001
-0.0001
-0.0001
-0.0001
-0.0001
-0.0001
-0.0001
-0.0001
-0.0001
-0.0001
-0.0001
-0.0001
-0.0001
-0.0001
-0.0001
-0.0001
-0.0001
-0.0001
-0.0001
-0.0001
-0.0001
-0.0001
-0.0001
-0.0001
-0.0001
-0.0001
-0.0001
-0.0001
-0.0001
-0.0001
-0.0001
-0.0001
-0.0001
-0.0001
-0.0001
-0.0001
-0.0001
-0.0001
-0.0001
-0.0001
-0.0001
-0.0001
-0.0001
-0.0001
-0.0001
-0.0001
-0.0001
-0.0001
-0.0001
-0.0001
-0.0001
-0.0001
-0.0001
-0.0001
-0.0001
-0.0001
-0.0001
-0.0001
-0.0001
-0.0001
-0.0001
-0.0001
-0.0001
-0.0001
-0.0001
-0.0001
-0.0001
-0.0001
-0.0001
-0.0001
-0.0001
-0.0001
-0.0001
-0.0001
-0.0001
-0.0001
-0.0001
-0.0001
-0.0001
-0.0001
-0.0001
-0.0002
-0.0002
-0.0002
-0.0002
-0.0002
-0.0002
-0.0002
-0.0002
-0.0002
-0.0002
-0.0002
-0.0002
-0.0002
-0.0002
-0.0002
-0.0002
-0.0002
-0.0002
-0.0002
-0.0002
-0.0002
-0.0002
-0.0002
-0.0002
-0.0002
-0.0002
-0.0002
-0.0002
-0.0002
-0.0002
-0.0002
-0.0002
-0.0002
-0.0002
-0.0002
-0.0002
-0.0002
-0.0002
-0.0002
-0.0002
-0.0002
-0.0002
-0.0002
-0.0002
-0.0002
-0.0002
-0.0002
-0.0002
-0.0002
-0.0002
-0.0002
-0.0002
-0.0002
-0.0002
-0.0002
-0.0002
-0.0002
-0.0002
-0.0002
-0.0002
-0.0002
-0.0002
-0.0002
-0.0002
-0.0002
-0.0002
-0.0002
-0.0002
-0.0002
-0.0002
-0.0002
-0.0002
-0.0002
-0.0002
-0.0002
-0.0002
-0.0002
-0.0002
-0.0002
-0.0002
-0.0002
-0.0002
-0.0002
-0.0002
-0.0002
-0.0002
-0.0002
-0.0002
-0.0002
-0.0002
-0.0002
-0.0002
-0.0002
-0.0002
-0.0002
-0.0002
-0.0002
-0.0002
-0.0002
-0.0002
-0.0002
-0.0002
-0.0002
-0.0002
-0.0002
-0.0002
-0.0002
-0.0002
-0.0002
-0.0002
-0.0002
-0.0002
-0.0002
-0.0002
-0.0002
-0.0002
-0.0002
-0.0002
-0.0002
-0.0002
-0.0002
-0.0002
-0.0002
-0.0002
-0.0002
-0.0002
-0.0002
-0.0002
-0.0002
-0.0002
-0.0002
-0.0002
-0.0002
-0.0002
-0.0002
-0.0002
-0.0002
-0.0002
-0.0002
-0.0002
-0.0002
-0.0002
-0.0002
-0.0002
-0.0002
-0.0002
-0.0002
-0.0002
-0.0002
-0.0002
-0.0002
-0.0002
-0.0002
-0.0002
-0.0002
-0.0002
-0.0002
-0.0002
-0.0002
-0.0002
-0.0002
-0.0002
-0.0002
-0.0002
-0.0002
-0.0002
-0.0002
-0.0002
-0.0002
-0.0002
-0.0002
-0.0002
-0.0002
-0.0002
-0.0002
-0.0002
-0.0002
-0.0002
-0.0002
-0.0002
-0.0002
-0.0002
-0.0002
-0.0002
-0.0002
-0.0002
-0.0002
-0.0002
-0.0002
-0.0002
-0.0002
-0.0002
-0.0002
-0.0002
-0.0002
-0.0002
-0.0002
-0.0002
-0.0002
-0.0002
-0.0002
-0.0002
-0.0002
-0.0002
-0.0002
-0.0002
-0.0002
-0.0002
-0.0002
-0.0002
-0.0002
-0.0002
-0.0002
-0.0002
-0.0002
-0.0002
-0.0002
-0.0002
-0.0002
-0.0002
-0.0002
-0.0002
-0.0002
-0.0002
-0.0002
-0.0002
-0.0002
-0.0002
-0.0002
-0.0002
-0.0002
-0.0002
-0.0002
-0.0002
-0.0002
-0.0002
-0.0002
-0.0002
-0.0002
-0.0002
-0.0002
-0.0002
-0.0002
-0.0002
-0.0002
-0.0002
-0.0002
-0.0002
-0.0002
-0.0002
-0.0002
-0.0002
-0.0002
-0.0002
-0.0002
-0.0002
-0.0002
-0.0002
-0.0002
-0.0002
-0.0002
-0.0002
-0.0002
-0.0002
-0.0002
-0.0002
-0.0002
-0.0002
-0.0002
-0.0002
-0.0002
-0.0002
-0.0002
-0.0002
-0.0002
-0.0002
-0.0002
-0.0002
-0.0002
-0.0002
-0.0002
-0.0002
-0.0002
-0.0002
-0.0002
-0.0002
-0.0002
-0.0002
SCALARS strain_1 float
LOOKUP_TABLE default
-0.000066
-0.105786
-0.104186
-0.102579
-0.100963
-0.099340
-0.097711
-0.096075
-0.094432
-0.092784
-0.091131
-0.089473
-0.087810
-0.086144
-0.084475
-0.082801
-0.081126
-0.079450
-0.077772
-0.076093
-0.074414
-0.072736
-0.071058
-0.069383
-0.067710
-0.066041
-0.064375
-0.062713
-0.061057
-0.059406
-0.057762
-0.056127
-0.054498
-0.052879
-0.051270
-0.049671
-0.048083
-0.046507
-0.044945
-0.043396
-0.041861
-0.040342
-0.038839
-0.037352
-0.035884
-0.034434
-0.033003
-0.031593
-0.030204
-0.028836
-0.027491
-0.026169
-0.024871
-0.023597
-0.022349
-0.021127
-0.019931
-0.018763
-0.017624
-0.016513
-0.015431
-0.014378
-0.013356
-0.012364
-0.011404
-0.010475
-0.009578
-0.008713
-0.007881
-0.007082
-0.006315
-0.005581
-0.004881
-0.004214
-0.003580
-0.002980
-0.002412
-0.001878
-0.001376
-0.000908
-0.000471
-0.105880
-0.000003
-0.000408
-0.000846
-0.001316
-0.001819
-0.002355
-0.002924
-0.003526
-0.004161
-0.004830
-0.005532
-0.006267
-0.007036
-0.007837
-0.008671
-0.009538
-0.010437
-0.011368
-0.012331
-0.013324
-0.014349
-0.015403
-0.016488
-0.017601
-0.018744
-0.019914
-0.021111
-0.022336
-0.023587
-0.024862
-0.026163
-0.027487
-0.028835
-0.030206
-0.031597
-0.033010
-0.034444
-0.035896
-0.037367
-0.038855
-0.040361
-0.041883
-0.043420
-0.044971
-0.046536
-0.048114
-0.049704
-0.051306
-0.052917
-0.054539
-0.056169
-0.057808
-0.059453
-0.061106
-0.062764
-0.064428
-0.066096
-0.067768
-0.069443
-0.071120
-0.072799
-0.074479
-0.076160
-0.077841
-0.079520
-0.081199
-0.082876
-0.084550
-0.086222
-0.087890
-0.089553
-0.091213
-0.092868
-0.094517
-0.096161
-0.097799
-0.099429
-0.101054
-0.102670
-0.104279
-0.105871
-0.105862
-0.105853
-0.105844
-0.105835
-0.105825
-0.105815
-0.105806
-0.105796
-0.000054
-0.000043
-0.000033
-0.000024
-0.000017
-0.000011
-0.000007
-0.000004
-0.000002
-0.000408
-0.000409
-0.000412
-0.000417
-0.000422
-0.000429
-0.000437
-0.000447
-0.000458
-0.000846
-0.000847
-0.000850
-0.000854
-0.000859
-0.000866
-0.000874
-0.000884
-0.000895
-0.001316
-0.001317
-0.001319
-0.001323
-0.001329
-0.001335
-0.001343
-0.001353
-0.001364
-0.001818
-0.001819
-0.001822
-0.001826
-0.001831
-0.001837
-0.001845
-0.001855
-0.001866
-0.002354
-0.002355
-0.002357
-0.002361
-0.002366
-0.002372
-0.002380
-0.002389
-0.002400
-0.002923
-0.002923
-0.002925
-0.002929
-0.002934
-0.002940
-0.002948
-0.002957
-0.002968
-0.003525
-0.003525
-0.003527
-0.003531
-0.003535
-0.003541
-0.003549
-0.003558
-0.003568
-0.004160
-0.004160
-0.004162
-0.004165
-0.004170
-0.004176
-0.004183
-0.004192
-0.004202
-0.004829
-0.004829
-0.004831
-0.004833
-0.004838
-0.004843
-0.004851
-0.004859
-0.004869
-0.005530
-0.005530
-0.005532
-0.005535
-0.005539
-0.005545
-0.005551
-0.005560
-0.005570
-0.006266
-0.006266
-0.006267
-0.006269
-0.006273
-0.006279
-0.006286
-0.006294
-0.006304
-0.007034
-0.007034
-0.007035
-0.007037
-0.007041
-0.007046
-0.007053
-0.007061
-0.007071
-0.007835
-0.007835
-0.007835
-0.007838
-0.007842
-0.007847
-0.007853
-0.007861
-0.007870
-0.008670
-0.008669
-0.008669
-0.008671
-0.008675
-0.008680
-0.008686
-0.008694
-0.008703
-0.009536
-0.009535
-0.009535
-0.009537
-0.009541
-0.009545
-0.009552
-0.009559
-0.009568
-0.010435
-0.010434
-0.010434
-0.010436
-0.010439
-0.010444
-0.010449
-0.010457
-0.010465
-0.011366
-0.011364
-0.011365
-0.011366
-0.011369
-0.011373
-0.011379
-0.011385
-0.011394
-0.012328
-0.012327
-0.012326
-0.012328
-0.012331
-0.012334
-0.012340
-0.012347
-0.012355
-0.013321
-0.013320
-0.013320
-0.013321
-0.013323
-0.013327
-0.013332
-0.013339
-0.013346
-0.014346
-0.014344
-0.014344
-0.014344
-0.014347
-0.014350
-0.014355
-0.014362
-0.014369
-0.015400
-0.015398
-0.015398
-0.015398
-0.015400
-0.015404
-0.015408
-0.015414
-0.015422
-0.016484
-0.016483
-0.016481
-0.016482
-0.016484
-0.016487
-0.016491
-0.016497
-0.016504
-0.017598
-0.017595
-0.017594
-0.017595
-0.017596
-0.017599
-0.017603
-0.017609
-0.017616
-0.018740
-0.018737
-0.018736
-0.018736
-0.018737
-0.018740
-0.018744
-0.018749
-0.018756
-0.019910
-0.019907
-0.019906
-0.019905
-0.019907
-0.019909
-0.019913
-0.019918
-0.019924
-0.021108
-0.021105
-0.021103
-0.021102
-0.021104
-0.021106
-0.021109
-0.021114
-0.021120
-0.022332
-0.022328
-0.022327
-0.022326
-0.022327
-0.022329
-0.022332
-0.022336
-0.022342
-0.023582
-0.023579
-0.023577
-0.023576
-0.023577
-0.023578
-0.023581
-0.023585
-0.023590
-0.024858
-0.024854
-0.024852
-0.024851
-0.024852
-0.024853
-0.024856
-0.024859
-0.024864
-0.026158
-0.026155
-0.026152
-0.026151
-0.026151
-0.026153
-0.026154
-0.026158
-0.026163
-0.027483
-0.027479
-0.027476
-0.027475
-0.027475
-0.027476
-0.027478
-0.027481
-0.027485
-0.028830
-0.028827
-0.028824
-0.028822
-0.028822
-0.028822
-0.028824
-0.028827
-0.028831
-0.030201
-0.030197
-0.030194
-0.030192
-0.030191
-0.030191
-0.030193
-0.030195
-0.030199
-0.031592
-0.031588
-0.031585
-0.031583
-0.031582
-0.031582
-0.031584
-0.031586
-0.031589
-0.033005
-0.033001
-0.032997
-0.032995
-0.032994
-0.032994
-0.032995
-0.032997
-0.033000
-0.034438
-0.034434
-0.034430
-0.034428
-0.034426
-0.034426
-0.034426
-0.034428
-0.034431
-0.035890
-0.035886
-0.035882
-0.035879
-0.035878
-0.035877
-0.035877
-0.035879
-0.035881
-0.037361
-0.037356
-0.037353
-0.037350
-0.037348
-0.037347
-0.037347
-0.037348
-0.037350
-0.038849
-0.038845
-0.038841
-0.038838
-0.038835
-0.038834
-0.038834
-0.038835
-0.038836
-0.040355
-0.040350
-0.040346
-0.040343
-0.040340
-0.040339
-0.040338
-0.040339
-0.040340
-0.041877
-0.041871
-0.041867
-0.041864
-0.041861
-0.041859
-0.041858
-0.041858
-0.041859
-0.043413
-0.043408
-0.043403
-0.043400
-0.043397
-0.043395
-0.043394
-0.043394
-0.043395
-0.044965
-0.044960
-0.044955
-0.044951
-0.044947
-0.044945
-0.044944
-0.044943
-0.044944
-0.046530
-0.046524
-0.046519
-0.046515
-0.046512
-0.046510
-0.046508
-0.046507
-0.046507
-0.048108
-0.048102
-0.048097
-0.048093
-0.048089
-0.048086
-0.048084
-0.048083
-0.048083
-0.049697
-0.049692
-0.049687
-0.049682
-0.049678
-0.049675
-0.049673
-0.049672
-0.049671
-0.051299
-0.051293
-0.051287
-0.051283
-0.051279
-0.051276
-0.051273
-0.051272
-0.051271
-0.052911
-0.052904
-0.052899
-0.052894
-0.052890
-0.052886
-0.052883
-0.052881
-0.052880
-0.054532
-0.054526
-0.054520
-0.054515
-0.054510
-0.054507
-0.054504
-0.054501
-0.054500
-0.056162
-0.056156
-0.056150
-0.056144
-0.056140
-0.056136
-0.056133
-0.056130
-0.056128
-0.057800
-0.057794
-0.057788
-0.057783
-0.057778
-0.057773
-0.057770
-0.057767
-0.057765
-0.059446
-0.059440
-0.059433
-0.059428
-0.059423
-0.059418
-0.059414
-0.059411
-0.059409
-0.061099
-0.061092
-0.061086
-0.061080
-0.061074
-0.061070
-0.061066
-0.061062
-0.061059
-0.062757
-0.062750
-0.062744
-0.062738
-0.062732
-0.062728
-0.062723
-0.062719
-0.062716
-0.064421
-0.064414
-0.064407
-0.064401
-0.064396
-0.064390
-0.064386
-0.064381
-0.064378
-0.066089
-0.066081
-0.066075
-0.066068
-0.066063
-0.066057
-0.066052
-0.066048
-0.066044
-0.067760
-0.067753
-0.067746
-0.067740
-0.067733
-0.067728
-0.067723
-0.067719
-0.067714
-0.069435
-0.069428
-0.069421
-0.069414
-0.069408
-0.069402
-0.069397
-0.069392
-0.069388
-0.071112
-0.071105
-0.071098
-0.071091
-0.071085
-0.071079
-0.071073
-0.071068
-0.071063
-0.072791
-0.072784
-0.072776
-0.072770
-0.072763
-0.072757
-0.072751
-0.072746
-0.072741
-0.074472
-0.074464
-0.074456
-0.074450
-0.074442
-0.074437
-0.074430
-0.074424
-0.074419
-0.076152
-0.076144
-0.076137
-0.076130
-0.076123
-0.076116
-0.076110
-0.076104
-0.076098
-0.077833
-0.077825
-0.077817
-0.077810
-0.077803
-0.077796
-0.077789
-0.077783
-0.077777
-0.079512
-0.079504
-0.079497
-0.079489
-0.079482
-0.079475
-0.079469
-0.079462
-0.079455
-0.081191
-0.081183
-0.081175
-0.081167
-0.081160
-0.081153
-0.081146
-0.081139
-0.081133
-0.082868
-0.082859
-0.082852
-0.082844
-0.082836
-0.082829
-0.082822
-0.082815
-0.082808
-0.084542
-0.084534
-0.084526
-0.084518
-0.084510
-0.084503
-0.084496
-0.084488
-0.084481
-0.086213
-0.086205
-0.086197
-0.086189
-0.086181
-0.086173
-0.086166
-0.086158
-0.086151
-0.087881
-0.087873
-0.087865
-0.087857
-0.087849
-0.087841
-0.087833
-0.087825
-0.087818
-0.089545
-0.089537
-0.089529
-0.089520
-0.089512
-0.089504
-0.089496
-0.089488
-0.089481
-0.091205
-0.091196
-0.091188
-0.091180
-0.091171
-0.091163
-0.091155
-0.091147
-0.091139
-0.092859
-0.092851
-0.092842
-0.092834
-0.092826
-0.092817
-0.092809
-0.092801
-0.092793
-0.094509
-0.094500
-0.094492
-0.094483
-0.094475
-0.094466
-0.094458
-0.094449
-0.094441
-0.096152
-0.096144
-0.096136
-0.096127
-0.096118
-0.096109
-0.096101
-0.096092
-0.096083
-0.097790
-0.097781
-0.097773
-0.097764
-0.097755
-0.097746
-0.097737
-0.097729
-0.097720
-0.099421
-0.099412
-0.099403
-0.099394
-0.099385
-0.099377
-0.099367
-0.099359
-0.099349
-0.101045
-0.101036
-0.101027
-0.101018
-0.101009
-0.101000
-0.100991
-0.100982
-0.100972
-0.102661
-0.102652
-0.102643
-0.102634
-0.102626
-0.102616
-0.102607
-0.102597
-0.102588
-0.104270
-0.104261
-0.104253
-0.104243
-0.104234
-0.104225
-0.104215
-0.104206
-0.104196
SCALARS strain_2 float
LOOKUP_TABLE default
0.001360
0.000818
0.000817
0.000816
0.000820
0.000817
0.000817
0.000817
0.000816
0.000818
0.000817
0.000819
0.000821
0.000821
0.000823
0.000821
0.000825
0.000826
0.000827
0.000828
0.000831
0.000832
0.000834
0.000838
0.000840
0.000842
0.000845
0.000849
0.000850
0.000854
0.000859
0.000861
0.000865
0.000869
0.000872
0.000876
0.000882
0.000887
0.000893
0.000896
0.000905
0.000909
0.000913
0.000921
0.000928
0.000937
0.000942
0.000952
0.000959
0.000963
0.000975
0.000984
0.000991
0.001002
0.001009
0.001018
0.001029
0.001038
0.001051
0.001061
0.001069
0.001083
0.001096
0.001107
0.001118
0.001129
0.001144
0.001154
0.001169
0.001182
0.001196
0.001210
0.001222
0.001237
0.001253
0.001270
0.001284
0.001299
0.001313
0.001331
0.001344
0.002626
0.002661
0.002658
0.002663
0.002664
0.002667
0.002669
0.002669
0.002672
0.002674
0.002674
0.002677
0.002678
0.002677
0.002679
0.002683
0.002682
0.002685
0.002684
0.002687
0.002689
0.002690
0.002689
0.002691
0.002692
0.002694
0.002693
0.002693
0.002693
0.002696
0.002696
0.002698
0.002699
0.002698
0.002698
0.002698
0.002699
0.002697
0.002695
0.002698
0.002697
0.002699
0.002699
0.002697
0.002698
0.002697
0.002695
0.002696
0.002694
0.002695
0.002694
0.002693
0.002691
0.002691
0.002688
0.002686
0.002684
0.002685
0.002683
0.002680
0.002681
0.002678
0.002676
0.002673
0.002671
0.002670
0.002667
0.002664
0.002661
0.002662
0.002656
0.002656
0.002653
0.002652
0.002646
0.002645
0.002639
0.002640
0.002635
0.002632
0.002630
0.002445
0.002265
0.002082
0.001901
0.001722
0.001540
0.001361
0.001178
0.000997
0.001493
0.001622
0.001750
0.001881
0.002010
0.002142
0.002270
0.002402
0.002529
0.002529
0.002400
0.002265
0.002135
0.002006
0.001873
0.001741
0.001611
0.001479
0.002529
0.002397
0.002265
0.002130
0.001996
0.001863
0.001732
0.001596
0.001463
0.002528
0.002394
0.002262
0.002123
0.001989
0.001853
0.001720
0.001583
0.001450
0.002529
0.002393
0.002256
0.002121
0.001982
0.001845
0.001709
0.001570
0.001435
0.002529
0.002391
0.002254
0.002116
0.001977
0.001839
0.001698
0.001558
0.001422
0.002531
0.002390
0.002249
0.002112
0.001969
0.001832
0.001688
0.001548
0.001408
0.002530
0.002389
0.002245
0.002106
0.001964
0.001821
0.001679
0.001536
0.001393
0.002530
0.002386
0.002244
0.002098
0.001958
0.001815
0.001669
0.001527
0.001384
0.002529
0.002385
0.002241
0.002094
0.001950
0.001805
0.001660
0.001515
0.001369
0.002530
0.002383
0.002235
0.002091
0.001944
0.001796
0.001649
0.001505
0.001355
0.002530
0.002382
0.002234
0.002086
0.001937
0.001789
0.001640
0.001493
0.001346
0.002530
0.002381
0.002229
0.002081
0.001933
0.001782
0.001631
0.001482
0.001332
0.002529
0.002380
0.002229
0.002075
0.001924
0.001773
0.001622
0.001470
0.001321
0.002528
0.002377
0.002225
0.002071
0.001920
0.001766
0.001614
0.001462
0.001308
0.002529
0.002376
0.002221
0.002068
0.001913
0.001759
0.001605
0.001451
0.001296
0.002530
0.002373
0.002219
0.002064
0.001908
0.001751
0.001598
0.001442
0.001286
0.002532
0.002372
0.002216
0.002056
0.001900
0.001743
0.001591
0.001431
0.001274
0.002529
0.002371
0.002213
0.002055
0.001896
0.001738
0.001579
0.001421
0.001263
0.002529
0.002370
0.002212
0.002050
0.001894
0.001729
0.001572
0.001415
0.001253
0.002527
0.002367
0.002205
0.002047
0.001887
0.001726
0.001565
0.001402
0.001241
0.002529
0.002367
0.002207
0.002041
0.001881
0.001717
0.001557
0.001397
0.001232
0.002527
0.002365
0.002201
0.002039
0.001875
0.001710
0.001551
0.001389
0.001224
0.002528
0.002364
0.002199
0.002035
0.001869
0.001706
0.001542
0.001377
0.001214
0.002528
0.002361
0.002197
0.002032
0.001866
0.001700
0.001535
0.001372
0.001205
0.002527
0.002360
0.002195
0.002028
0.001861
0.001695
0.001527
0.001361
0.001196
0.002527
0.002361
0.002191
0.002023
0.001858
0.001690
0.001523
0.001355
0.001187
0.002527
0.002358
0.002188
0.002021
0.001853
0.001685
0.001515
0.001346
0.001176
0.002524
0.002358
0.002186
0.002019
0.001846
0.001679
0.001507
0.001339
0.001170
0.002527
0.002354
0.002184
0.002014
0.001844
0.001675
0.001503
0.001330
0.001159
0.002526
0.002355
0.002181
0.002011
0.001839
0.001669
0.001497
0.001325
0.001154
0.002526
0.002351
0.002179
0.002008
0.001834
0.001663
0.001490
0.001318
0.001146
0.002522
0.002351
0.002178
0.002005
0.001830
0.001659
0.001485
0.001313
0.001138
0.002523
0.002351
0.002176
0.002003
0.001827
0.001654
0.001481
0.001304
0.001131
0.002522
0.002348
0.002173
0.001999
0.001826
0.001649
0.001474
0.001302
0.001125
0.002522
0.002345
0.002171
0.001995
0.001819
0.001644
0.001469
0.001292
0.001120
0.002523
0.002347
0.002166
0.001993
0.001817
0.001642
0.001464
0.001288
0.001112
0.002521
0.002346
0.002168
0.001991
0.001814
0.001638
0.001459
0.001280
0.001106
0.002519
0.002343
0.002166
0.001987
0.001809
0.001632
0.001456
0.001280
0.001099
0.002518
0.002343
0.002163
0.001985
0.001807
0.001626
0.001450
0.001274
0.001094
0.002518
0.002338
0.002162
0.001983
0.001803
0.001627
0.001448
0.001266
0.001090
0.002521
0.002340
0.002160
0.001980
0.001801
0.001623
0.001444
0.001265
0.001084
0.002517
0.002337
0.002158
0.001979
0.001797
0.001619
0.001438
0.001258
0.001078
0.002516
0.002336
0.002156
0.001976
0.001795
0.001612
0.001436
0.001253
0.001074
0.002517
0.002336
0.002153
0.001972
0.001792
0.001611
0.001431
0.001249
0.001070
0.002515
0.002334
0.002153
0.001971
0.001790
0.001607
0.001426
0.001244
0.001065
0.002515
0.002332
0.002151
0.001968
0.001786
0.001603
0.001423
0.001241
0.001060
0.002512
0.002331
0.002147
0.001965
0.001784
0.001600
0.001421
0.001238
0.001056
0.002511
0.002330
0.002145
0.001964
0.001781
0.001598
0.001417
0.001234
0.001051
0.002510
0.002328
0.002145
0.001961
0.001777
0.001596
0.001412
0.001230
0.001048
0.002508
0.002325
0.002143
0.001960
0.001778
0.001593
0.001411
0.001227
0.001043
0.002508
0.002324
0.002141
0.001957
0.001773
0.001590
0.001406
0.001224
0.001040
0.002506
0.002323
0.002138
0.001956
0.001771
0.001589
0.001404
0.001221
0.001040
0.002505
0.002322
0.002136
0.001953
0.001771
0.001586
0.001402
0.001218
0.001032
0.002503
0.002319
0.002135
0.001950
0.001768
0.001583
0.001400
0.001215
0.001031
0.002501
0.002319
0.002134
0.001949
0.001766
0.001579
0.001398
0.001213
0.001028
0.002501
0.002316
0.002133
0.001947
0.001763
0.001580
0.001394
0.001208
0.001026
0.002499
0.002315
0.002131
0.001945
0.001760
0.001577
0.001392
0.001207
0.001022
0.002497
0.002312
0.002127
0.001944
0.001759
0.001576
0.001390
0.001206
0.001020
0.002494
0.002312
0.002128
0.001942
0.001757
0.001573
0.001389
0.001204
0.001018
0.002494
0.002310
0.002125
0.001939
0.001757
0.001572
0.001387
0.001200
0.001019
0.002492
0.002305
0.002122
0.001937
0.001754
0.001568
0.001382
0.001199
0.001016
0.002490
0.002305
0.002122
0.001934
0.001751
0.001565
0.001382
0.001198
0.001014
0.002487
0.002302
0.002119
0.001935
0.001751
0.001565
0.001381
0.001195
0.001012
0.002487
0.002302
0.002119
0.001934
0.001745
0.001563
0.001379
0.001195
0.001010
0.002484
0.002299
0.002116
0.001929
0.001744
0.001563
0.001377
0.001193
0.001009
0.002480
0.002298
0.002114
0.001930
0.001745
0.001562
0.001376
0.001192
0.001007
0.002479
0.002297
0.002112
0.001927
0.001743
0.001559
0.001376
0.001190
0.001006
0.002477
0.002292
0.002110
0.001924
0.001740
0.001557
0.001373
0.001187
0.001005
0.002475
0.002290
0.002108
0.001924
0.001739
0.001554
0.001371
0.001188
0.001002
0.002472
0.002287
0.002107
0.001920
0.001739
0.001553
0.001370
0.001187
0.001005
0.002468
0.002285
0.002103
0.001919
0.001736
0.001551
0.001370
0.001186
0.001003
0.002467
0.002282
0.002100
0.001920
0.001735
0.001550
0.001366
0.001182
0.001000
0.002465
0.002282
0.002099
0.001914
0.001731
0.001550
0.001368
0.001183
0.001000
0.002462
0.002280
0.002095
0.001913
0.001732
0.001548
0.001365
0.001184
0.000999
0.002459
0.002275
0.002093
0.001911
0.001729
0.001549
0.001364
0.001181
0.000999
0.002456
0.002276
0.002092
0.001910
0.001729
0.001547
0.001362
0.001181
0.000998
0.002455
0.002272
0.002088
0.001910
0.001725
0.001544
0.001361
0.001180
0.000999
0.002451
0.002270
0.002088
0.001907
0.001726
0.001544
0.001360
0.001179
0.000997
0.002447
0.002268
0.002085
0.001904
0.001723
0.001543
0.001359
0.001181
0.000999
SCALARS strain_3 float
LOOKUP_TABLE default
0.000538
0.034946
0.034452
0.033956
0.033459
0.032958
0.032453
0.031948
0.031440
0.030930
0.030418
0.029903
0.029388
0.028870
0.028352
0.027830
0.027310
0.026787
0.026264
0.025739
0.025214
0.024688
0.024164
0.023638
0.023112
0.022587
0.022064
0.021540
0.021018
0.020496
0.019976
0.019457
0.018942
0.018427
0.017915
0.017404
0.016897
0.016394
0.015892
0.015395
0.014900
0.014411
0.013925
0.013444
0.012968
0.012495
0.012028
0.011567
0.011111
0.010662
0.010218
0.009780
0.009350
0.008925
0.008509
0.008100
0.007697
0.007302
0.006916
0.006537
0.006166
0.005805
0.005450
0.005107
0.004771
0.004445
0.004127
0.003820
0.003521
0.003232
0.002953
0.002683
0.002424
0.002175
0.001935
0.001706
0.001486
0.001275
0.001076
0.000887
0.000707
0.034045
-0.000286
-0.000124
0.000049
0.000233
0.000425
0.000629
0.000842
0.001066
0.001300
0.001544
0.001797
0.002063
0.002336
0.002620
0.002913
0.003217
0.003530
0.003852
0.004184
0.004525
0.004873
0.005232
0.005599
0.005975
0.006359
0.006751
0.007151
0.007558
0.007972
0.008394
0.008823
0.009258
0.009701
0.010148
0.010605
0.011064
0.011530
0.012000
0.012476
0.012957
0.013443
0.013933
0.014426
0.014923
0.015425
0.015930
0.016437
0.016948
0.017460
0.017976
0.018493
0.019013
0.019533
0.020057
0.020581
0.021107
0.021631
0.022157
0.022685
0.023211
0.023738
0.024266
0.024793
0.025319
0.025845
0.026369
0.026894
0.027417
0.027938
0.028457
0.028976
0.029493
0.030007
0.030519
0.031031
0.031541
0.032045
0.032550
0.033051
0.033550
0.034136
0.034227
0.034316
0.034406
0.034497
0.034586
0.034676
0.034765
0.034857
0.000453
0.000369
0.000286
0.000202
0.000120
0.000038
-0.000043
-0.000125
-0.000204
-0.000042
0.000039
0.000121
0.000204
0.000287
0.000370
0.000453
0.000538
0.000621
0.000132
0.000213
0.000296
0.000379
0.000463
0.000547
0.000632
0.000716
0.000801
0.000315
0.000398
0.000482
0.000565
0.000648
0.000734
0.000818
0.000904
0.000990
0.000509
0.000593
0.000677
0.000761
0.000846
0.000931
0.001017
0.001103
0.001190
0.000713
0.000797
0.000881
0.000966
0.001052
0.001138
0.001225
0.001311
0.001398
0.000927
0.001013
0.001096
0.001182
0.001269
0.001355
0.001443
0.001530
0.001618
0.001151
0.001236
0.001322
0.001408
0.001496
0.001582
0.001670
0.001757
0.001846
0.001386
0.001470
0.001557
0.001645
0.001733
0.001820
0.001908
0.001997
0.002086
0.001630
0.001717
0.001803
0.001891
0.001978
0.002067
0.002156
0.002244
0.002335
0.001885
0.001972
0.002059
0.002147
0.002236
0.002324
0.002413
0.002502
0.002594
0.002149
0.002237
0.002324
0.002413
0.002502
0.002592
0.002681
0.002772
0.002862
0.002423
0.002511
0.002600
0.002691
0.002779
0.002870
0.002959
0.003050
0.003141
0.002708
0.002797
0.002886
0.002975
0.003065
0.003154
0.003246
0.003338
0.003429
0.003002
0.003092
0.003181
0.003270
0.003362
0.003452
0.003544
0.003635
0.003728
0.003306
0.003395
0.003485
0.003576
0.003667
0.003758
0.003850
0.003942
0.004035
0.003619
0.003710
0.003799
0.003890
0.003981
0.004074
0.004167
0.004257
0.004352
0.003943
0.004031
0.004124
0.004214
0.004306
0.004399
0.004491
0.004584
0.004677
0.004274
0.004365
0.004455
0.004547
0.004640
0.004731
0.004825
0.004918
0.005012
0.004615
0.004706
0.004798
0.004890
0.004984
0.005076
0.005168
0.005263
0.005356
0.004964
0.005057
0.005149
0.005241
0.005335
0.005428
0.005521
0.005615
0.005710
0.005323
0.005417
0.005507
0.005601
0.005695
0.005788
0.005883
0.005976
0.006072
0.005691
0.005784
0.005876
0.005970
0.006062
0.006158
0.006251
0.006346
0.006441
0.006067
0.006161
0.006252
0.006347
0.006441
0.006535
0.006630
0.006725
0.006820
0.006451
0.006544
0.006638
0.006730
0.006826
0.006921
0.007016
0.007110
0.007205
0.006844
0.006937
0.007030
0.007125
0.007219
0.007313
0.007409
0.007505
0.007601
0.007243
0.007337
0.007432
0.007526
0.007621
0.007716
0.007811
0.007906
0.008003
0.007651
0.007745
0.007839
0.007934
0.008030
0.008125
0.008220
0.008316
0.008412
0.008066
0.008160
0.008255
0.008349
0.008444
0.008540
0.008636
0.008732
0.008829
0.008488
0.008583
0.008677
0.008772
0.008868
0.008962
0.009060
0.009156
0.009253
0.008917
0.009011
0.009106
0.009202
0.009298
0.009393
0.009489
0.009587
0.009683
0.009353
0.009448
0.009544
0.009640
0.009734
0.009831
0.009928
0.010024
0.010120
0.009796
0.009890
0.009986
0.010082
0.010177
0.010273
0.010370
0.010467
0.010564
0.010244
0.010340
0.010434
0.010532
0.010627
0.010722
0.010820
0.010917
0.011014
0.010698
0.010794
0.010890
0.010985
0.011081
0.011178
0.011274
0.011372
0.011469
0.011158
0.011254
0.011350
0.011447
0.011542
0.011639
0.011736
0.011834
0.011931
0.011623
0.011720
0.011816
0.011912
0.012009
0.012105
0.012203
0.012300
0.012397
0.012096
0.012191
0.012288
0.012383
0.012481
0.012577
0.012674
0.012771
0.012869
0.012572
0.012668
0.012764
0.012860
0.012956
0.013054
0.013150
0.013247
0.013346
0.013052
0.013149
0.013244
0.013343
0.013438
0.013535
0.013632
0.013730
0.013827
0.013540
0.013634
0.013730
0.013827
0.013923
0.014022
0.014118
0.014215
0.014313
0.014028
0.014124
0.014220
0.014318
0.014414
0.014510
0.014608
0.014705
0.014804
0.014522
0.014618
0.014714
0.014810
0.014907
0.015005
0.015102
0.015200
0.015297
0.015020
0.015115
0.015213
0.015309
0.015405
0.015503
0.015600
0.015696
0.015794
0.015520
0.015617
0.015713
0.015810
0.015907
0.016004
0.016100
0.016198
0.016295
0.016025
0.016121
0.016217
0.016315
0.016411
0.016507
0.016605
0.016703
0.016800
0.016532
0.016629
0.016724
0.016823
0.016918
0.017015
0.017112
0.017210
0.017307
0.017043
0.017139
0.017235
0.017331
0.017429
0.017525
0.017622
0.017719
0.017817
0.017556
0.017652
0.017748
0.017845
0.017941
0.018038
0.018135
0.018233
0.018329
0.018072
0.018166
0.018263
0.018360
0.018456
0.018552
0.018650
0.018748
0.018844
0.018589
0.018686
0.018780
0.018878
0.018973
0.019071
0.019167
0.019265
0.019361
0.019108
0.019204
0.019300
0.019396
0.019492
0.019590
0.019685
0.019784
0.019879
0.019630
0.019725
0.019820
0.019917
0.020013
0.020109
0.020206
0.020302
0.020399
0.020152
0.020248
0.020344
0.020439
0.020536
0.020632
0.020728
0.020826
0.020921
0.020675
0.020772
0.020867
0.020963
0.021058
0.021155
0.021251
0.021348
0.021444
0.021201
0.021296
0.021392
0.021487
0.021583
0.021680
0.021775
0.021871
0.021967
0.021727
0.021822
0.021916
0.022013
0.022108
0.022204
0.022299
0.022395
0.022492
0.022253
0.022347
0.022443
0.022538
0.022635
0.022730
0.022826
0.022922
0.023018
0.022779
0.022875
0.022970
0.023065
0.023162
0.023255
0.023351
0.023447
0.023542
0.023307
0.023401
0.023498
0.023592
0.023687
0.023782
0.023877
0.023973
0.024068
0.023834
0.023928
0.024024
0.024118
0.024214
0.024309
0.024403
0.024499
0.024594
0.024360
0.024455
0.024549
0.024644
0.024739
0.024834
0.024929
0.025024
0.025119
0.024887
0.024981
0.025076
0.025171
0.025265
0.025359
0.025454
0.025549
0.025645
0.025413
0.025508
0.025602
0.025696
0.025790
0.025885
0.025980
0.026073
0.026168
0.025939
0.026033
0.026127
0.026220
0.026315
0.026410
0.026504
0.026598
0.026692
0.026463
0.026557
0.026652
0.026745
0.026840
0.026933
0.027027
0.027121
0.027215
0.026988
0.027080
0.027174
0.027269
0.027363
0.027456
0.027549
0.027643
0.027737
0.027510
0.027604
0.027697
0.027790
0.027883
0.027976
0.028071
0.028164
0.028258
0.028031
0.028125
0.028217
0.028311
0.028404
0.028497
0.028590
0.028684
0.028777
0.028552
0.028644
0.028737
0.028830
0.028923
0.029016
0.029109
0.029202
0.029295
0.029069
0.029161
0.029255
0.029346
0.029440
0.029533
0.029626
0.029718
0.029811
0.029585
0.029678
0.029771
0.029862
0.029955
0.030048
0.030141
0.030233
0.030325
0.030101
0.030193
0.030283
0.030378
0.030469
0.030562
0.030653
0.030745
0.030837
0.030613
0.030704
0.030797
0.030889
0.030980
0.031073
0.031164
0.031256
0.031349
0.031123
0.031215
0.031306
0.031399
0.031490
0.031583
0.031674
0.031764
0.031857
0.031631
0.031723
0.031814
0.031906
0.031997
0.032088
0.032180
0.032270
0.032362
0.032137
0.032229
0.032321
0.032412
0.032502
0.032593
0.032684
0.032776
0.032867
0.032641
0.032733
0.032822
0.032914
0.033004
0.033095
0.033187
0.033277
0.033368
0.033142
0.033233
0.033323
0.033414
0.033503
0.033595
0.033686
0.033776
0.033866
0.033640
0.033730
0.033822
0.033912
0.034002
0.034092
0.034181
0.034272
0.034362
SCALARS stress_1 float
LOOKUP_TABLE default
9121.937294
-8016341.183597
-7894968.869586
-7773023.055574
-7650491.241563
-7527381.927552
-7403765.113541
-7279666.299530
-7155083.985519
-7030060.171508
-6904647.857496
-6778848.543485
-6652751.229474
-6526334.415463
-6399637.101452
-6272729.287441
-6145670.473430
-6018440.659419
-5891123.345407
-5763771.031396
-5636376.717385
-5509052.403374
-5381815.589363
-5254681.275352
-5127738.461341
-5001057.647329
-4874642.833318
-4748561.019307
-4622874.205296
-4497659.891285
-4372920.577274
-4248767.263263
-4125207.449252
-4002319.135240
-3880193.821229
-3758840.007218
-3638340.193207
-3518777.379196
-3400152.565185
-3282594.251174
-3166094.437162
-3050784.623151
-2936716.809140
-2823899.495129
-2712423.681118
-2602357.867107
-2493765.553096
-2386699.239084
-2281190.925073
-2177345.111062
-2075207.797051
-1974829.983040
-1876254.669029
-1779544.855018
-1684776.041007
-1591972.726995
-1501195.912984
-1412497.098973
-1325927.284962
-1241510.470951
-1159310.156940
-1079346.842929
-1001693.028917
-926345.714906
-853404.900895
-782794.586884
-714623.772873
-648889.458862
-585628.144851
-524829.330840
-466545.016828
-410765.202817
-357481.388806
-306726.074795
-258514.260784
-212796.946773
-169628.132762
-128929.318750
-90726.504739
-54999.190728
-21729.376717
-8004747.015256
28796.105634
-1956.208377
-35130.522388
-70837.836399
-108942.650410
-149567.964421
-192723.778432
-238369.092444
-286568.906455
-337295.720466
-390549.034477
-446320.348488
-504611.162499
-565396.476510
-628698.290522
-694448.104533
-762632.918544
-833268.232555
-906296.546566
-981668.860577
-1059377.674588
-1139416.488599
-1221678.302611
-1306161.616622
-1392817.430633
-1481583.244644
-1572478.058655
-1665385.372666
-1760242.186677
-1857053.000689
-1955750.814700
-2056249.628711
-2158502.942722
-2262492.256733
-2368088.070744
-2475307.884755
-2584035.698766
-2694225.512778
-2805844.326789
-2918796.640800
-3033045.954811
-3148510.268822
-3265118.582833
-3382854.896844
-3501597.210856
-3621366.024867
-3742010.338878
-3863518.152889
-3985807.466900
-4108854.780911
-4232572.594922
-4356897.408934
-4481761.722945
-4607167.536956
-4733007.350967
-4859237.164978
-4985809.978989
-5112681.293000
-5239783.607011
-5367069.921023
-5494464.735034
-5621977.049045
-5749523.363056
-5877036.677067
-6004493.491078
-6131878.305089
-6259107.619101
-6386178.933112
-6513013.747123
-6639566.061134
-6765837.875145
-6891794.689156
-7017353.503167
-7142527.317178
-7267246.131190
-7391505.445201
-7515271.759212
-7638505.573223
-7761181.387234
-7883266.201245
-8005954.832090
-8007140.648924
-8008332.465759
-8009503.282593
-8010671.099427
-8011800.416261
-8012955.233095
-8014115.049929
-8015216.866763
11569.754128
13879.570962
16121.387796
18243.704630
20280.021464
22187.338298
23981.655132
25694.471966
27296.788800
-3459.525211
-5083.342045
-6770.158879
-8600.475713
-10536.292547
-12558.609381
-14712.426215
-16929.243049
-19282.059883
-36658.839222
-38261.656056
-39993.472890
-41815.789724
-43753.606558
-45806.423392
-47922.240226
-50191.557060
-52536.873894
-72308.153233
-73929.470067
-75669.786901
-77491.103735
-79442.920569
-81492.737403
-83645.554237
-85879.371071
-88261.687905
-110423.467244
-112070.784078
-113811.100912
-115659.917746
-117608.734580
-119662.051414
-121804.368248
-124070.685082
-126429.001916
-151094.281255
-152707.098089
-154456.914923
-156313.731757
-158270.048591
-160314.865425
-162500.682260
-164740.999094
-167133.315928
-194237.595266
-195851.912101
-197608.728935
-199447.545769
-201410.362603
-203493.679437
-205664.496271
-207932.313105
-210321.129939
-239923.909278
-241547.226112
-243292.042946
-245132.859780
-247105.676614
-249169.493448
-251336.310282
-253641.127116
-256007.443950
-288103.723289
-289739.540123
-291503.856957
-293336.673791
-295310.990625
-297367.807459
-299562.124293
-301852.441127
-304240.757961
-338816.037300
-340473.354134
-342219.170968
-344073.487802
-346041.804636
-348102.621470
-350283.938304
-352586.755138
-354987.571972
-392094.351311
-393726.668145
-395467.484979
-397366.801813
-399302.118647
-401363.935481
-403563.252315
-405851.069149
-408258.885983
-447866.165322
-449482.482156
-451254.798990
-453123.115824
-455082.432658
-457166.749492
-459352.066326
-461621.883160
-464036.199994
-506161.979333
-507813.796167
-509574.113001
-511392.929835
-513390.246669
-515465.063503
-517635.380337
-519936.197171
-522329.014005
-566947.793344
-568609.110178
-570345.427012
-572206.243847
-574197.560681
-576273.377515
-578440.694349
-580719.011183
-583120.828017
-630236.607356
-631874.424190
-633623.741024
-635499.557858
-637484.874692
-639561.191526
-641729.508360
-644008.825194
-646410.142028
-695974.921367
-697633.238201
-699383.555035
-701285.371869
-703231.688703
-705296.505537
-707463.822371
-709738.139205
-712133.956039
-764197.235378
-765834.552212
-767602.869046
-769482.185880
-771424.002714
-773468.819548
-775660.136382
-777917.453216
-780327.270050
-834801.549389
-836463.866223
-838249.183057
-840077.499891
-842027.316725
-844085.133559
-846260.950393
-848526.267227
-850890.084061
-907849.863400
-909478.180234
-911232.997068
-913083.313902
-915034.630736
-917099.447570
-919260.264404
-921502.081238
-923899.898072
-983219.677411
-984869.494245
-986606.811079
-988465.127913
-990407.444747
-992468.761581
-994628.078415
-996881.895249
-999242.212083
-1060934.991422
-1062588.808256
-1064315.125090
-1066157.941924
-1068098.758758
-1070160.575592
-1072307.892427
-1074554.709261
-1076912.026095
-1140926.805434
-1142608.622268
-1144339.439102
-1146154.255936
-1148094.572770
-1150144.889604
-1152288.706438
-1154511.523272
-1156858.840106
-1223231.119445
-1224843.936279
-1226584.753113
-1228416.069947
-1230366.886781
-1232384.703615
-1234513.020449
-1236738.337283
-1239071.154117
-1307687.933456
-1309341.250290
-1311034.567124
-1312899.883958
-1314818.700792
-1316857.017626
-1318971.334460
-1321201.151294
-1323509.468128
-1394356.747467
-1395985.064301
-1397697.881135
-1399536.197969
-1401474.514803
-1403467.831637
-1405564.648471
-1407794.465305
-1410088.782139
-1483139.561478
-1484751.878312
-1486511.695146
-1488302.511980
-1490216.328814
-1492224.645648
-1494315.962482
-1496506.279316
-1498812.096150
-1574022.375489
-1575624.192323
-1577329.509157
-1579135.825991
-1581056.642825
-1583041.459659
-1585146.276493
-1587322.093327
-1589597.410161
-1666896.189500
-1668500.506334
-1670214.323168
-1672035.640002
-1673930.456836
-1675914.773670
-1677983.090504
-1680147.907338
-1682419.724173
-1761788.503511
-1763384.320345
-1765077.637179
-1766891.954014
-1768768.270848
-1770746.087682
-1772795.404516
-1774973.721350
-1777222.038184
-1858593.817523
-1860179.634357
-1861884.451191
-1863657.268025
-1865519.084859
-1867503.401693
-1869556.218527
-1871693.535361
-1873909.352195
-1957254.631534
-1958867.948368
-1960545.765202
-1962322.582036
-1964197.398870
-1966127.715704
-1968190.532538
-1970299.349372
-1972523.666206
-2057756.445545
-2059363.262379
-2061042.579213
-2062812.396047
-2064664.712881
-2066578.529715
-2068604.346549
-2070736.163383
-2072937.980217
-2160028.759556
-2161603.076390
-2163280.393224
-2165028.210058
-2166896.526892
-2168809.843726
-2170814.660560
-2172892.977394
-2175080.294228
-2263975.573567
-2265582.390401
-2267223.207235
-2268973.024069
-2270807.840903
-2272717.657737
-2274731.974571
-2276786.291405
-2278965.108239
-2369598.387578
-2371177.204412
-2372837.021246
-2374578.838080
-2376394.154914
-2378296.971748
-2380258.288582
-2382333.105416
-2384446.922250
-2476768.201589
-2478361.518423
-2480000.335257
-2481732.652091
-2483556.468925
-2485408.285760
-2487407.602594
-2489437.419428
-2491555.736262
-2585521.515601
-2587108.832435
-2588750.649269
-2590439.466103
-2592263.782937
-2594117.099771
-2596060.416605
-2598094.233439
-2600198.550273
-2695731.829612
-2697283.146446
-2698901.963280
-2700634.280114
-2702412.596948
-2704263.413782
-2706196.730616
-2708192.047450
-2710270.364284
-2807327.143623
-2808879.960457
-2810504.277291
-2812198.594125
-2813955.910959
-2815805.727793
-2817729.544627
-2819708.361461
-2821763.178295
-2920280.457634
-2921810.274468
-2923446.091302
-2925132.408136
-2926877.224970
-2928719.041804
-2930600.858638
-2932568.675472
-2934612.492306
-3034507.271645
-3036037.588479
-3037663.405313
-3039330.722147
-3041045.038981
-3042870.355815
-3044752.672649
-3046701.989483
-3048701.306317
-3149981.085656
-3151497.902490
-3153079.219324
-3154759.036158
-3156476.852992
-3158280.669826
-3160140.986660
-3162055.303494
-3164061.620328
-3266567.899667
-3268105.716501
-3269704.533335
-3271332.350169
-3273083.667003
-3274815.983837
-3276676.300671
-3278578.617506
-3280542.934340
-3384320.213678
-3385816.030512
-3387408.347347
-3389042.164181
-3390742.481015
-3392504.797849
-3394320.114683
-3396214.931517
-3398163.248351
-3503055.527690
-3504563.844524
-3506134.661358
-3507753.978192
-3509449.795026
-3511189.611860
-3512998.928694
-3514850.245528
-3516778.562362
-3622791.841701
-3624284.158535
-3625823.475369
-3627451.792203
-3629128.609037
-3630852.425871
-3632641.742705
-3634508.059539
-3636385.376373
-3743429.155712
-3744916.972546
-3746463.789380
-3748061.606214
-3749745.423048
-3751434.239882
-3753211.056716
-3755021.873550
-3756913.690384
-3864921.469723
-3866422.286557
-3867930.603391
-3869534.420225
-3871179.737059
-3872856.553893
-3874629.870727
-3876421.187561
-3878287.504395
-3987238.283734
-3988697.100568
-3990232.917402
-3991812.234236
-3993444.551070
-3995109.867904
-3996837.184738
-3998618.001572
-4000458.818406
-4110275.597745
-4111708.914579
-4113240.231413
-4114794.048247
-4116403.865081
-4118086.681915
-4119769.498749
-4121537.815583
-4123343.132417
-4233963.911756
-4235421.728590
-4236892.045424
-4238486.362258
-4240078.179093
-4241697.495927
-4243404.312761
-4245157.129595
-4246950.446429
-4358277.225768
-4359717.542602
-4361222.359436
-4362766.176270
-4364342.493104
-4365953.309938
-4367642.126772
-4369362.443606
-4371143.760440
-4483187.039779
-4484622.856613
-4486110.673447
-4487610.990281
-4489178.807115
-4490801.123949
-4492460.940783
-4494132.257617
-4495867.574451
-4608548.853790
-4609987.170624
-4611467.987458
-4612961.804292
-4614504.621126
-4616107.937960
-4617766.754794
-4619422.571628
-4621127.888462
-4734378.167801
-4735813.484635
-4737273.801469
-4738765.618303
-4740315.935137
-4741887.251971
-4743482.068805
-4745154.885639
-4746834.202473
-4860626.981812
-4862058.298646
-4863507.115480
-4864961.432314
-4866485.749148
-4868051.065982
-4869645.382816
-4871273.699650
-4872932.016484
-4987197.295823
-4988584.612657
-4990029.429491
-4991499.246325
-4993013.563159
-4994557.379993
-4996134.196827
-4997733.513661
-4999390.330495
-5114043.609834
-5115444.926668
-5116859.743502
-5118343.060336
-5119825.877170
-5121319.694004
-5122886.010839
-5124478.827673
-5126085.144507
-5241139.923845
-5242526.740680
-5243949.557514
-5245366.374348
-5246860.191182
-5248361.008016
-5249888.324850
-5251456.641684
-5253060.958518
-5368416.237857
-5369791.054691
-5371183.871525
-5372628.688359
-5374087.505193
-5375591.322027
-5377096.638861
-5378647.455695
-5380196.272529
-5495833.051868
-5497173.868702
-5498569.185536
-5500001.502370
-5501446.819204
-5502909.636038
-5504400.952872
-5505913.269706
-5507464.086540
-5623308.365879
-5624661.182713
-5626034.999547
-5627464.316381
-5628882.633215
-5630354.950049
-5631822.266883
-5633313.083717
-5634826.400551
-5750817.679890
-5752171.996724
-5753563.813558
-5754949.630392
-5756349.447226
-5757791.764060
-5759245.580894
-5760716.897728
-5762231.214562
-5878364.493901
-5879686.810735
-5881058.127569
-5882431.444403
-5883844.261237
-5885260.078071
-5886692.894905
-5888151.211739
-5889627.528573
-6005813.807912
-6007169.124746
-6008486.941580
-6009863.758414
-6011271.075248
-6012647.392082
-6014100.208916
-6015502.025750
-6016969.342585
-6133185.621923
-6134519.938757
-6135853.755591
-6137206.572426
-6138558.389260
-6139955.206094
-6141335.522928
-6142782.339762
-6144218.156596
-6260414.435935
-6261713.252769
-6263061.069603
-6264411.886437
-6265763.703271
-6267124.520105
-6268500.336939
-6269911.153773
-6271314.470607
-6387449.249946
-6388779.066780
-6390096.383614
-6391420.200448
-6392755.017282
-6394122.834116
-6395487.150950
-6396844.967784
-6398233.284618
-6514268.063957
-6515602.380791
-6516893.697625
-6518220.514459
-6519523.831293
-6520883.148127
-6522212.464961
-6523531.781795
-6524926.598629
-6640853.877968
-6642148.194802
-6643432.011636
-6644746.828470
-6646048.645304
-6647374.962138
-6648694.778972
-6650057.595806
-6651391.912640
-6767134.191979
-6768374.508813
-6769699.825647
-6770971.642481
-6772269.459315
-6773572.276149
-6774898.092983
-6776221.909817
-6777527.726651
-6893043.505990
-6894322.322824
-6895593.639658
-6896879.956492
-6898143.773326
-6899463.590160
-6900725.906994
-6902044.723828
-6903357.040662
-7018614.820001
-7019863.636835
-7021127.453669
-7022394.270503
-7023671.087337
-7024940.404172
-7026229.221006
-7027502.537840
-7028803.354674
-7143750.134013
-7145014.450847
-7146280.267681
-7147522.584515
-7148785.901349
-7150055.718183
-7151298.035017
-7152569.351851
-7153846.668685
-7268510.448024
-7269751.764858
-7270966.081692
-7272228.898526
-7273465.215360
-7274719.532194
-7275937.349028
-7277166.165862
-7278423.982696
-7392744.262035
-7393973.578869
-7395198.895703
-7396435.712537
-7397676.029371
-7398883.846205
-7400115.163039
-7401348.979873
-7402572.296707
-7516489.076046
-7517708.892880
-7518951.209714
-7520158.526548
-7521380.343382
-7522592.660216
-7523795.477050
-7525001.793884
-7526193.610718
-7639709.890057
-7640948.206891
-7642138.023725
-7643361.840559
-7644552.657393
-7645766.974227
-7646954.791061
-7648135.607895
-7649311.424729
-7762380.204068
-7763607.020902
-7764800.337736
-7765994.154570
-7767201.471404
-7768378.288238
-7769538.605072
-7770711.421906
-7771882.738740
-7884481.018079
-7885674.334913
-7886866.651747
-7888071.968581
-7889262.785415
-7890388.102249
-7891547.419083
-7892720.735917
-7893848.052752
SCALARS stress_2 float
LOOKUP_TABLE default
104278.099593
-1157220.455843
-1138768.823900
-1120277.191957
-1101521.560014
-1082885.928072
-1063930.296129
-1045014.664186
-1026011.032243
-1007143.400300
-988067.768357
-968744.136414
-949444.504471
-930248.872528
-910853.240585
-891401.608642
-872093.976699
-852538.344756
-833038.712813
-813683.080870
-794167.448927
-774419.816984
-754960.185041
-735596.553098
-716080.921155
-696533.289212
-677121.657269
-657662.025326
-638410.393383
-619190.761441
-599811.129498
-580687.497555
-561531.865612
-542432.233669
-523660.601726
-504864.969783
-486237.337840
-467745.705897
-449214.073954
-430906.442011
-412782.810068
-394883.178125
-376967.546182
-359387.914239
-341880.282296
-324700.650353
-307729.018410
-290693.386467
-274185.754524
-257742.122581
-241498.490638
-225742.858695
-210035.226753
-194751.594810
-179515.962867
-164736.330924
-150276.698981
-135921.067038
-121949.435095
-108265.803152
-95022.171209
-81986.539266
-69334.907323
-57003.275380
-45047.643437
-33444.011494
-22104.379551
-11244.747608
-577.115665
9786.516278
19654.148221
29177.780164
38277.412107
47129.044050
55540.675993
63672.307936
71347.939878
78663.571821
85539.203764
92174.835707
98546.467650
-1021436.368304
202686.187133
198114.555190
193230.923247
187907.291304
182255.659361
176188.027418
169832.395475
162988.763532
155793.131589
148093.499646
140137.867703
131742.235760
122898.603817
113822.971874
104475.339931
94455.707988
84332.076045
73688.444102
62636.812159
51233.180216
39485.548273
27433.916330
15038.284387
2210.652445
-11064.979498
-24468.611441
-38104.243384
-52315.875327
-66727.507270
-81283.139213
-96294.771156
-111378.403099
-126998.035042
-142873.666985
-158885.298928
-175240.930871
-191652.562814
-208528.194757
-225475.826700
-242599.458643
-259843.090586
-277606.722529
-295338.354472
-313277.986415
-331425.618358
-349621.250301
-367952.882244
-386484.514186
-405224.146129
-423803.778072
-442831.410015
-461771.041958
-480950.673901
-500002.305844
-519285.937787
-538585.569730
-557877.201673
-577224.833616
-596780.465559
-616200.097502
-635827.729445
-655343.361388
-674786.993331
-694310.625274
-713978.257217
-733565.889160
-752897.521103
-772397.153046
-791960.784989
-811428.416932
-830680.048874
-850203.680817
-869535.312760
-888706.944703
-907918.576646
-927138.208589
-946173.840532
-965129.472475
-983997.104418
-1002808.736361
-1035092.377058
-1048700.385812
-1062380.394566
-1075716.403320
-1089476.412074
-1102940.420828
-1116564.429582
-1130228.438335
-1143764.447089
114142.108347
124230.117101
133958.125855
143926.134609
153702.143363
163550.152117
173478.160871
183270.169625
192974.178379
188386.546436
178402.537682
168274.528928
158354.520174
148482.511420
138682.502666
128610.493912
118530.485158
108498.476404
183342.914493
173310.905739
163094.896985
153078.888231
142966.879477
132790.870723
122886.861969
112566.853215
102470.844461
177803.282550
167675.273796
157459.265042
147363.256288
136939.247534
126731.238780
116443.230026
106219.221272
95835.212518
171999.650607
161735.641853
151391.633099
141047.624345
130575.615591
120311.606837
109799.598083
99399.589329
89127.580575
165860.018664
155428.009910
144796.001156
134563.992402
123995.983648
113379.974894
102963.966140
92419.957386
81859.948632
159280.386721
148784.377967
138136.369213
127464.360459
116896.351705
106456.342951
95504.334197
84856.325443
74272.316689
152244.754778
141516.746024
130924.737270
120140.728516
109444.719762
98684.711008
88020.702254
77156.693500
66340.684746
144897.122835
134177.114081
123305.105327
112585.096573
101553.087819
90801.079065
79857.070311
69041.061557
58105.052804
137413.490892
126365.482138
115565.473384
104429.464630
93517.455876
82597.447122
71373.438368
60413.429614
49269.420861
129073.858949
118073.850195
106969.841441
96009.832687
84921.823933
73873.815179
62673.806425
51529.797672
40241.788918
120758.227006
109566.218252
98166.209498
87150.200744
75942.191990
64894.183236
53398.174483
42182.165729
30862.156975
111850.595063
100450.586309
89274.577555
77970.568801
66786.560047
55186.551293
44074.542540
32554.533786
21242.525032
102606.963120
91190.954366
79846.945612
68326.936858
56862.928104
45470.919351
34102.910597
22510.901843
11070.893089
92851.331177
81539.322423
70059.313669
58299.304915
46891.296161
35291.287408
23675.278654
12107.269900
451.261146
83023.699234
71351.690480
59735.681726
47991.672972
36551.664219
24743.655465
13111.646711
1391.637957
-10280.370797
72380.067291
60876.058537
49148.049783
37372.041030
25596.032276
13900.023522
2116.014768
-9771.993986
-21556.002740
61744.435348
50128.426594
38088.417840
26488.409087
14648.400333
2624.391579
-9319.617175
-21103.625929
-33127.634683
50716.803405
38884.794651
26796.785898
15020.777144
3116.768390
-8995.240364
-20971.249118
-32987.257872
-44995.266626
39057.171462
27225.162708
15417.153955
3121.145201
-8734.863553
-21070.872307
-33022.881061
-45206.889815
-57190.898569
27381.539519
15437.530766
3133.522012
-8986.486742
-21122.495496
-33314.504250
-45386.513004
-57546.521758
-69642.530512
15289.907576
3009.898823
-9222.109931
-21406.118685
-33550.127439
-45814.136193
-58270.144947
-70406.153701
-82734.162455
2782.275634
-9705.733120
-21897.741874
-34305.750628
-46505.759382
-58857.768136
-71209.776890
-83649.785644
-95881.794398
-10325.356309
-22405.365063
-34853.373817
-47461.382571
-59605.391325
-72221.400079
-84581.408833
-96997.417587
-109581.426341
-23424.988252
-35648.997006
-48289.005760
-60705.014514
-73153.023268
-85833.032022
-98201.040776
-110777.049530
-123369.058284
-36844.620195
-49412.628949
-62052.637703
-74380.646457
-87212.655211
-99708.663965
-112364.672719
-124956.681473
-137548.690227
-50728.252138
-63312.260892
-75872.269646
-88584.278400
-101216.287154
-113976.295908
-126512.304662
-139208.313416
-151944.322170
-64803.884081
-77595.892835
-90195.901589
-103131.910343
-115699.919097
-128459.927851
-141075.936605
-153979.945359
-166771.954113
-79215.516024
-92119.524778
-104863.533532
-117631.542286
-130551.551040
-143215.559794
-156039.568548
-168863.577302
-181919.586056
-94155.147967
-106979.156721
-119715.165475
-132755.174229
-145491.182983
-158403.191737
-171187.200491
-184163.209245
-197195.217999
-109038.779910
-121902.788664
-134886.797418
-147782.806172
-160774.814926
-173774.823680
-186662.832434
-199638.841188
-212542.849942
-124506.411853
-137346.420607
-150338.429361
-163354.438115
-176442.446869
-189402.455623
-202530.464377
-215538.473131
-228538.481884
-140070.043796
-153142.052550
-166062.061304
-179134.070058
-192302.078812
-205286.087566
-218318.096320
-231438.105074
-244526.113827
-155857.675739
-169001.684493
-182025.693247
-195129.702001
-208329.710755
-221529.719509
-234657.728263
-247705.737016
-260817.745770
-171933.307682
-185117.316436
-198317.325190
-211445.333944
-224589.342698
-237901.351452
-250973.360206
-264357.368959
-277541.377713
-188440.939625
-201568.948379
-214832.957133
-228008.965887
-241240.974641
-254576.983395
-267696.992148
-281097.000902
-294409.009656
-204932.571568
-218172.580322
-231484.589076
-244796.597830
-258100.606584
-271452.615337
-284700.624091
-298028.632845
-311372.641599
-221704.203511
-234968.212265
-248440.221019
-261648.229773
-274872.238527
-288296.247280
-301752.256034
-314952.264788
-328472.273542
-238691.835454
-252075.844208
-265531.852962
-278779.861716
-292227.870469
-305627.879223
-318995.887977
-332499.896731
-345963.905485
-255863.467397
-269335.476151
-282711.484905
-296239.493659
-309559.502412
-323159.511166
-336551.519920
-349951.528674
-363543.537428
-273427.099340
-286763.108094
-300251.116848
-313739.125601
-327211.134355
-340683.143109
-354387.151863
-367851.160617
-381339.169371
-291014.731283
-304574.740037
-317998.748791
-331478.757544
-344966.766298
-358462.775052
-372142.783806
-385710.792560
-399182.801314
-308810.363226
-322306.371980
-335890.380733
-349378.389487
-363130.398241
-376570.406995
-390154.415749
-403762.424503
-417378.433257
-326837.995169
-340382.003922
-354102.012676
-367558.021430
-381030.030184
-394726.038938
-408406.047692
-421878.056446
-435590.065200
-344817.627112
-358553.635865
-372169.644619
-385777.653373
-399409.662127
-412985.670881
-426545.679635
-440313.688389
-454025.697143
-363285.259054
-376869.267808
-390549.276562
-404109.285316
-417789.294070
-431453.302824
-445181.311578
-458797.320332
-472437.329086
-381784.890997
-395280.899751
-409008.908505
-422712.917259
-436432.926013
-450000.934767
-463640.943521
-477472.952275
-491136.961029
-400132.522940
-413764.531694
-427484.540448
-441156.549202
-454932.557956
-468692.566710
-482508.575464
-496236.584218
-509964.592972
-418928.154883
-432520.163637
-446296.172391
-460072.181145
-473768.189899
-487512.198653
-501232.207407
-515064.216161
-528856.224915
-437755.786826
-451459.795580
-465179.804334
-478795.813088
-492635.821842
-506435.830596
-520371.839350
-534075.848104
-547883.856858
-456615.418769
-470319.427523
-483935.436277
-497815.445031
-511591.453785
-525503.462539
-539255.471293
-552959.480047
-566815.488801
-475523.050712
-489395.059466
-503003.068220
-517003.076974
-530795.085728
-544491.094482
-558347.103236
-572099.111990
-585947.120744
-494662.682655
-508398.691409
-522262.700163
-536062.708917
-549910.717671
-563766.726425
-577678.735179
-591470.743933
-605214.752687
-513754.314598
-527658.323352
-541394.332106
-555370.340860
-569218.349614
-582842.358368
-596794.367122
-610610.375876
-624450.384630
-533221.946541
-546917.955295
-560837.964049
-574501.972803
-588349.981557
-602229.990311
-616197.999065
-630062.007819
-643806.016573
-552385.578484
-566185.587238
-580041.595992
-593985.604746
-607913.613500
-621569.622254
-635529.631008
-649361.639762
-663265.648515
-571749.210427
-585741.219181
-599413.227935
-613389.236689
-627221.245443
-641109.254197
-654885.262951
-668869.271705
-682653.280458
-591200.842370
-605144.851124
-618840.859878
-632736.868632
-646560.877386
-660496.886140
-674344.894894
-688248.903647
-702296.912401
-610668.474313
-624532.483067
-638236.491821
-652188.500575
-666020.509329
-680020.518083
-693964.526836
-707660.535590
-721644.544344
-630136.106256
-644048.115010
-657768.123764
-671640.132518
-685512.141272
-699440.150026
-713440.158779
-727272.167533
-741056.176287
-649699.738199
-663563.746953
-677211.755707
-691267.764461
-705051.773215
-718875.781968
-732875.790722
-746779.799476
-760699.808230
-669127.370142
-683055.378896
-696903.387650
-710831.396404
-724535.405158
-738559.413911
-752335.422665
-766207.431419
-780223.440173
-688603.002085
-702515.010839
-716435.019593
-730115.028347
-744227.037100
-758051.045854
-771883.054608
-785707.063362
-799571.072116
-708238.634028
-722158.642782
-735942.651536
-749838.660289
-763670.669043
-777670.677797
-791350.686551
-805246.695305
-819150.704059
-727794.265971
-741722.274725
-755394.283479
-769258.292232
-783218.300986
-797194.309740
-810994.318494
-824802.327248
-838674.336002
-747381.897914
-761149.906668
-774973.915421
-788829.924175
-802757.932929
-816629.941683
-830493.950437
-844261.959191
-858221.967945
-766865.529857
-780785.538611
-794513.547364
-808377.556118
-822185.564872
-836017.573626
-849961.582380
-863593.591134
-877729.599888
-786125.161800
-800141.170553
-814013.179307
-827861.188061
-841621.196815
-855557.205569
-869301.214323
-883117.223077
-896997.231831
-805712.793743
-819648.802496
-833472.811250
-847264.820004
-861056.828758
-874864.837512
-888880.846266
-902440.855020
-916368.863774
-825284.425685
-838852.434439
-852732.443193
-866540.451947
-880548.460701
-894300.469455
-908012.478209
-921796.486963
-935540.495717
-844576.057628
-858304.066382
-872264.075136
-886016.083890
-899808.092644
-913488.101398
-927376.110152
-941000.118906
-955080.127660
-863995.689571
-877755.698325
-891459.707079
-905275.715833
-918947.724587
-932675.733341
-946523.742095
-960419.750849
-974115.759603
-883247.321514
-896999.330268
-910615.339022
-924615.347776
-938255.356530
-952023.365284
-965727.374038
-979551.382792
-993455.391546
-902322.953457
-916138.962211
-929890.970965
-943810.979719
-957466.988473
-971258.997227
-984947.005981
-998635.014735
-1012475.023489
-921526.585400
-935350.594154
-949150.602908
-962726.611662
-976398.620416
-990278.629170
-1003894.637924
-1017750.646678
-1031302.655432
-940778.217343
-954498.226097
-968138.234851
-981714.243605
-995602.252359
-1009234.261113
-1022930.269867
-1036586.278621
-1050370.287375
-959757.849286
-973493.858040
-987013.866794
-1000765.875548
-1014429.884302
-1028037.893056
-1041829.901810
-1055437.910564
-1069125.919318
-978761.481229
-992369.489983
-1005977.498737
-1019817.507491
-1033129.516245
-1046873.524999
-1060641.533753
-1074321.542507
-1087905.551261
-997653.113172
-1011309.121926
-1024845.130680
-1038469.139434
-1052085.148188
-1065789.156942
-1079405.165696
-1092981.174450
-1106501.183203
-1016480.745115
-1030048.753869
-1043560.762623
-1057184.771377
-1070768.780131
-1084368.788885
-1098024.797639
-1111656.806393
-1125136.815146
SCALARS stress_3 float
LOOKUP_TABLE default
34961.181158
2286946.324963
2254673.310665
2222236.296368
2189615.282070
2156814.267772
2123857.253475
2090744.239177
2057495.224880
2024090.210582
1990625.196285
1956928.181987
1923219.167689
1889286.153392
1855297.139094
1821236.124797
1787027.110499
1752934.096202
1718609.081904
1684296.067607
1649995.053309
1615562.039011
1581161.024714
1546832.010416
1512410.996119
1478061.981821
1443772.967524
1409507.953226
1375242.938929
1341125.924631
1307136.910333
1273127.896036
1239358.881738
1205637.867441
1172128.853143
1138723.838846
1105530.824548
1072489.810251
1039740.795953
1007267.781655
974826.767358
942801.753060
910976.738763
879559.724465
848350.710168
817481.695870
786892.681573
756619.667275
726818.652977
697413.638680
668372.624382
639731.610085
611498.595787
583789.581490
556544.567192
529699.552894
503406.538597
477569.524299
452272.510002
427443.495704
403234.481407
379577.467109
356376.452812
333931.438514
311942.424216
290533.409919
269876.395621
249643.381324
230130.367026
211185.352729
193012.338431
175363.324134
158338.309836
142021.295538
126392.281241
111315.266943
97022.252646
83301.238348
70284.224051
57763.209753
46038.195456
2228939.663225
-18649.480580
-7972.466282
3300.548015
15269.562313
27954.576611
41215.590908
55116.605206
69773.619503
85166.633801
101079.648098
117676.662396
134985.676693
152994.690991
171483.705289
190672.719586
210557.733884
230990.748181
252195.762479
273852.776776
296197.791074
319022.805371
342499.819669
366488.833967
391185.848264
416294.862562
441839.876859
468088.891157
494733.905454
521890.919752
549563.934049
577520.948347
606097.962645
635066.976942
664407.991240
694197.005537
724274.019835
754807.034132
785624.048430
816797.062727
848254.077025
880015.091323
912120.105620
944429.119918
977054.134215
1009859.148513
1042928.162810
1076129.177108
1109506.191406
1143059.205703
1176784.220001
1210729.234298
1244774.248596
1278867.262893
1313100.277191
1347317.291488
1381778.305786
1416247.320084
1450620.334381
1485113.348679
1519594.362976
1554255.377274
1588736.391571
1623189.405869
1657642.420166
1692015.434464
1726440.448762
1760701.463059
1794922.477357
1829019.491654
1863188.505952
1897021.520249
1930858.534547
1964575.548844
1998152.563142
2031577.577440
2064862.591737
2098083.606035
2131084.620332
2163853.634630
2196562.648927
2234754.729399
2240545.795572
2246384.861746
2252183.927920
2257978.994094
2263842.060268
2269645.126441
2275396.192615
2281155.258789
29478.114984
23963.048810
18615.982637
13136.916463
7861.850289
2442.784115
-2836.282058
-8111.348232
-13486.414406
-2713.400108
2529.666065
7952.732239
13331.798413
18670.864587
24089.930760
29544.996934
35060.063108
40611.129282
8551.614189
13966.680363
19317.746537
24772.812710
30167.878884
35742.945058
41086.011232
46685.077406
52276.143579
20572.628487
26019.694660
31490.760834
36845.827008
42280.893182
47891.959356
53431.025529
59022.091703
64537.157877
33273.642784
38760.708958
44215.775132
49674.841306
55209.907479
60748.973653
66412.039827
71927.106001
77710.172174
46662.657082
52165.723256
57688.789429
63215.855603
68758.921777
74329.987951
79877.054124
85660.120298
91331.186472
60687.671379
66130.737553
71705.803727
77276.869901
82807.936074
88647.002248
94258.068422
99897.134596
105596.200770
75332.685677
80903.751851
86430.818024
92073.884198
97728.950372
103432.016546
109187.082720
114810.148893
120549.215067
90693.699975
96260.766148
101839.832322
107562.898496
113229.964670
118901.030843
124660.097017
130379.163191
136226.229365
106694.714272
112337.780446
118024.846620
123595.912793
129382.978967
135138.045141
140949.111315
146708.177488
152503.243662
123331.728570
128938.794743
134649.860917
140448.927091
146207.993265
151987.059438
157810.125612
163585.191786
169488.257960
140620.742867
146347.809041
152110.875215
157873.941389
163625.007562
169460.073736
175227.139910
181122.206084
187037.272257
158545.757165
164388.823339
170115.889512
175930.955686
181734.021860
187597.088034
193464.154207
199307.220381
205286.286555
177294.771462
182985.837636
188808.903810
194627.969984
200503.036157
206390.102331
212197.168505
218176.234679
224159.300852
196499.785760
202266.851934
208157.918107
213936.984281
219860.050455
225723.116629
231774.182802
237677.248976
243600.315150
216348.800057
222223.866231
228042.932405
233909.998579
239853.064753
245840.130926
251827.197100
257702.263274
263753.329448
236889.814355
242676.880529
248635.946703
254583.012876
260446.079050
266445.145224
272380.211398
278431.277571
284478.343745
258014.828653
263885.894826
269788.961000
275836.027174
281703.093348
287718.159521
293729.225695
299752.291869
305831.358043
279691.842950
285750.909124
291617.975298
297561.041471
303556.107645
309619.173819
315570.239993
321673.306166
327752.372340
302060.857248
307983.923421
314002.989595
319914.055769
325997.121943
332052.188117
338023.254290
344234.320464
350293.386638
324989.871545
330968.937719
336932.003893
342959.070067
348974.136240
355001.202414
361184.268588
367223.334762
373402.400935
348510.885843
354493.952017
360493.018190
366388.084364
372595.150538
378622.216712
384777.282885
390896.349059
397035.415233
372543.900140
378526.966314
384570.032488
390629.098662
396680.164835
402755.231009
408978.297183
415093.363357
421268.429530
397156.914438
403159.980612
409167.046785
415322.112959
421389.179133
427556.245307
433623.311481
439866.377654
446021.443828
422289.928735
428352.994909
434256.061083
440535.127257
446582.193431
452761.259604
458980.325778
465139.391952
471278.458126
447910.943033
454010.009207
460125.075381
466188.141554
472363.207728
478506.273902
484709.340076
490884.406249
497131.472423
474059.957331
480227.023504
486278.089678
492445.155852
498628.222026
504791.288199
510966.354373
517233.420547
523428.486721
500816.971628
506900.037802
513043.103976
519154.170149
525373.236323
531544.302497
537735.368671
544038.434845
550181.501018
527969.985926
534053.052099
540240.118273
546455.184447
552594.250621
558761.316795
564980.382968
571263.449142
577518.515316
555655.000223
561726.066397
567917.132571
574044.198745
580315.264918
586426.331092
592769.397266
598912.463440
605263.529613
583692.014521
589859.080695
596090.146868
602141.213042
608456.279216
614575.345390
620866.411563
627101.477737
633448.543911
612257.028818
618416.094992
624599.161166
630822.227340
637029.293513
643260.359687
649439.425861
655742.492035
662109.558209
641234.043116
647353.109290
653516.175463
659735.241637
665942.307811
672269.373985
678564.440159
684823.506332
691126.572506
670563.057413
676714.123587
682921.189761
689132.255935
695355.322109
701678.388282
707937.454456
714240.520630
720551.586804
700364.071711
706503.137885
712706.204059
718961.270232
725180.336406
731467.402580
737810.468754
744117.534927
750432.601101
730493.086009
736640.152182
742891.218356
749094.284530
755373.350704
761616.416877
767915.483051
774146.549225
780545.615399
760946.100306
767225.166480
773472.232654
779655.298827
785870.365001
792105.431175
798404.497349
804731.563523
811086.629696
791835.114604
798002.180777
804185.246951
810544.313125
816719.379299
822978.445473
829309.511646
835624.577820
841907.643994
822988.128901
829203.195075
835414.261249
841717.327423
847932.393596
854215.459770
860518.525944
866829.592118
873168.658291
854517.143199
860680.209373
866895.275546
873166.341720
879409.407894
885736.474068
892023.540241
898318.606415
904665.672589
886226.157496
892485.223670
898684.289844
904891.356018
911150.422191
917485.488365
923840.554539
930131.620713
936458.686887
918323.171794
924518.237968
930745.304141
937100.370315
943287.436489
949510.502663
955929.568837
962192.635010
968475.701184
950596.186091
956919.252265
963106.318439
969333.384613
975628.450787
981911.516960
988234.583134
994513.649308
1000812.715482
983265.200389
989432.266563
995691.332737
1001990.398910
1008193.465084
1014484.531258
1020831.597432
1027114.663605
1033377.729779
1016026.214687
1022245.280860
1028532.347034
1034679.413208
1041002.479382
1047357.545555
1053596.611729
1059855.677903
1066242.744077
1049087.228984
1055342.295158
1061517.361332
1067776.427505
1074051.493679
1080294.559853
1086613.626027
1092956.692201
1099179.758374
1082300.243282
1088571.309455
1094750.375629
1100993.441803
1107180.507977
1113487.574151
1119806.640324
1126089.706498
1132480.772672
1115757.257579
1121916.323753
1128143.389927
1134410.456101
1140701.522274
1146956.588448
1153239.654622
1159502.720796
1165865.786969
1149286.271877
1155557.338051
1161724.404224
1168007.470398
1174306.536572
1180497.602746
1186792.668919
1193051.735093
1199334.801267
1183067.286174
1189230.352348
1195445.418522
1201760.484696
1207951.550869
1214210.617043
1220457.683217
1226732.749391
1233055.815565
1216920.300472
1223091.366646
1229338.432819
1235565.498993
1241844.565167
1248079.631341
1254318.697515
1260573.763688
1266900.829862
1250953.314770
1257096.380943
1263255.447117
1269650.513291
1275805.579465
1282064.645638
1288307.711812
1294570.777986
1300809.844160
1285078.329067
1291253.395241
1297452.461415
1303667.527588
1309926.593762
1316113.659936
1322384.726110
1328575.792283
1334922.858457
1319259.343365
1325378.409538
1331597.475712
1337872.541886
1344043.608060
1350282.674233
1356517.740407
1362700.806581
1369027.872755
1353512.357662
1359787.423836
1365866.490010
1372141.556183
1378392.622357
1384587.688531
1390746.754705
1396993.820879
1403160.887052
1387897.371960
1394108.438134
1400259.504307
1406458.570481
1412693.636655
1418928.702829
1425063.769002
1431294.835176
1437517.901350
1422394.386257
1428437.452431
1434736.518605
1440763.584779
1447042.650952
1453285.717126
1459432.783300
1465679.849474
1471850.915647
1456819.400555
1462894.466729
1469057.532902
1475336.599076
1481423.665250
1487722.731424
1493869.797597
1500024.863771
1506251.929945
1491224.414852
1497399.481026
1503590.547200
1509781.613374
1515924.679547
1522151.745721
1528246.811895
1534433.878069
1540568.944243
1525745.429150
1531896.495324
1538087.561498
1544238.627671
1550385.693845
1556544.760019
1562703.826193
1568798.892366
1575125.958540
1560258.443448
1566409.509621
1572556.575795
1578639.641969
1584818.708143
1591013.774316
1597136.840490
1603243.906664
1609414.972838
1594823.457745
1600862.523919
1607077.590093
1613168.656266
1619323.722440
1625446.788614
1631533.854788
1637720.920961
1643871.987135
1629240.472043
1635403.538216
1641466.604390
1647653.670564
1653700.736738
1659795.802911
1665886.869085
1672025.935259
1678201.001433
1663745.486340
1669828.552514
1675887.618688
1682026.684862
1688081.751035
1694140.817209
1700287.883383
1706394.949557
1712494.015730
1698142.500638
1704189.566812
1710264.632985
1716371.699159
1722498.765333
1728569.831507
1734632.897680
1740715.963854
1746791.030028
1732463.514935
1738538.581109
1744621.647283
1750772.713457
1756763.779630
1762838.845804
1768913.911978
1775004.978152
1781080.044325
1766740.529233
1772843.595407
1778806.661580
1784917.727754
1790924.793928
1797023.860102
1803114.926275
1809165.992449
1815149.058623
1800985.543530
1807020.609704
1813127.675878
1819126.742052
1825089.808226
1831148.874399
1837187.940573
1843199.006747
1849298.072921
1835106.557828
1841033.624002
1847112.690176
1853227.756349
1859150.822523
1865185.888697
1871244.954871
1877212.021044
1883223.087218
1869115.572126
1875166.638299
1881129.704473
1887064.770647
1893151.836821
1899150.902994
1905161.969168
1911153.035342
1917152.101516
1902992.586423
1909007.652597
1915050.718771
1920973.784944
1927072.851118
1932947.917292
1939038.983466
1944938.049639
1950993.115813
1936853.600721
1942800.666894
1948739.733068
1954758.799242
1960753.865416
1966744.931590
1972623.997763
1978711.063937
1984610.130111
1970550.615018
1976525.681192
1982464.747366
1988455.813540
1994442.879713
2000337.945887
2006305.012061
2012244.078235
2018207.144408
2004103.629316
2009962.695490
2015989.761663
2021944.827837
2027855.894011
2033802.960185
2039758.026358
2045709.092532
2051580.158706
2037432.643613
2043471.709787
2049402.775961
2055269.842135
2061184.908308
2067155.974482
2073059.040656
2078962.106830
2084893.173004
2070861.657911
2076756.724085
2082679.790258
2088486.856432
2094433.922606
2100284.988780
2106200.054954
2112087.121127
2117946.187301
2103998.672208
2109841.738382
2115740.804556
2121587.870730
2127502.936904
2133270.003077
2139205.069251
2145136.135425
2150987.201599
2136935.686506
2142806.752680
2148665.818854
2154520.885027
2160379.951201
2166171.017375
2172046.083549
2177913.149722
2183820.215896
2169724.700804
2175555.766977
2181474.833151
2187337.899325
2193132.965499
2198928.031672
2204787.097846
2210602.164020
2216397.230194
2202357.715101
2208116.781275
2213979.847449
2219906.913622
2225645.979796
2231449.045970
2237292.112144
2243087.178318
2248942.244491
