# vtk DataFile Version 2.0
Generated volume Mesh
ASCII
DATASET UNSTRUCTURED_GRID
POINTS 891 float
0.005000 0.100000 0.000000
0.005000 0.000000 0.000000
0.005000 0.001250 0.000000
0.005000 0.002500 0.000000
0.005000 0.003750 0.000000
0.005000 0.005000 0.000000
0.005000 0.006250 0.000000
0.005000 0.007500 0.000000
0.005000 0.008750 0.000000
0.005000 0.010000 0.000000
0.005000 0.011250 0.000000
0.005000 0.012500 0.000000
0.005000 0.013750 0.000000
0.005000 0.015000 0.000000
0.005000 0.016250 0.000000
0.005000 0.017500 0.000000
0.005000 0.018750 0.000000
0.005000 0.020000 0.000000
0.005000 0.021250 0.000000
0.005000 0.022500 0.000000
0.005000 0.023750 0.000000
0.005000 0.025000 0.000000
0.005000 0.026250 0.000000
0.005000 0.027500 0.000000
0.005000 0.028750 0.000000
0.005000 0.030000 0.000000
0.005000 0.031250 0.000000
0.005000 0.032500 0.000000
0.005000 0.033750 0.000000
0.005000 0.035000 0.000000
0.005000 0.036250 0.000000
0.005000 0.037500 0.000000
0.005000 0.038750 0.000000
0.005000 0.040000 0.000000
0.005000 0.041250 0.000000
0.005000 0.042500 0.000000
0.005000 0.043750 0.000000
0.005000 0.045000 0.000000
0.005000 0.046250 0.000000
0.005000 0.047500 0.000000
0.005000 0.048750 0.000000
0.005000 0.050000 0.000000
0.005000 0.051250 0.000000
0.005000 0.052500 0.000000
0.005000 0.053750 0.000000
0.005000 0.055000 0.000000
0.005000 0.056250 0.000000
0.005000 0.057500 0.000000
0.005000 0.058750 0.000000
0.005000 0.060000 0.000000
0.005000 0.061250 0.000000
0.005000 0.062500 0.000000
0.005000 0.063750 0.000000
0.005000 0.065000 0.000000
0.005000 0.066250 0.000000
0.005000 0.067500 0.000000
0.005000 0.068750 0.000000
0.005000 0.070000 0.000000
0.005000 0.071250 0.000000
0.005000 0.072500 0.000000
0.005000 0.073750 0.000000
0.005000 0.075000 0.000000
0.005000 0.076250 0.000000
0.005000 0.077500 0.000000
0.005000 0.078750 0.000000
0.005000 0.080000 0.000000
0.005000 0.081250 0.000000
0.005000 0.082500 0.000000
0.005000 0.083750 0.000000
0.005000 0.085000 0.000000
0.005000 0.086250 0.000000
0.005000 0.087500 0.000000
0.005000 0.088750 0.000000
0.005000 0.090000 0.000000
0.005000 0.091250 0.000000
0.005000 0.092500 0.000000
0.005000 0.093750 0.000000
0.005000 0.095000 0.000000
0.005000 0.096250 0.000000
0.005000 0.097500 0.000000
0.005000 0.098750 0.000000
0.000000 0.000000 0.000000
0.000000 0.100000 0.000000
0.000000 0.098750 0.000000
0.000000 0.097500 0.000000
0.000000 0.096250 0.000000
0.000000 0.095000 0.000000
0.000000 0.093750 0.000000
0.000000 0.092500 0.000000
0.000000 0.091250 0.000000
0.000000 0.090000 0.000000
0.000000 0.088750 0.000000
0.000000 0.087500 0.000000
0.000000 0.086250 0.000000
0.000000 0.085000 0.000000
0.000000 0.083750 0.000000
0.000000 0.082500 0.000000
0.000000 0.081250 0.000000
0.000000 0.080000 0.000000
0.000000 0.078750 0.000000
0.000000 0.077500 0.000000
0.000000 0.076250 0.000000
0.000000 0.075000 0.000000
0.000000 0.073750 0.000000
0.000000 0.072500 0.000000
0.000000 0.071250 0.000000
0.000000 0.070000 0.000000
0.000000 0.068750 0.000000
0.000000 0.067500 0.000000
0.000000 0.066250 0.000000
0.000000 0.065000 0.000000
0.000000 0.063750 0.000000
0.000000 0.062500 0.000000
0.000000 0.061250 0.000000
0.000000 0.060000 0.000000
0.000000 0.058750 0.000000
0.000000 0.057500 0.000000
0.000000 0.056250 0.000000
0.000000 0.055000 0.000000
0.000000 0.053750 0.000000
0.000000 0.052500 0.000000
0.000000 0.051250 0.000000
0.000000 0.050000 0.000000
0.000000 0.048750 0.000000
0.000000 0.047500 0.000000
0.000000 0.046250 0.000000
0.000000 0.045000 0.000000
0.000000 0.043750 0.000000
0.000000 0.042500 0.000000
0.000000 0.041250 0.000000
0.000000 0.040000 0.000000
0.000000 0.038750 0.000000
0.000000 0.037500 0.000000
0.000000 0.036250 0.000000
0.000000 0.035000 0.000000
0.000000 0.033750 0.000000
0.000000 0.032500 0.000000
0.000000 0.031250 0.000000
0.000000 0.030000 0.000000
0.000000 0.028750 0.000000
0.000000 0.027500 0.000000
0.000000 0.026250 0.000000
0.000000 0.025000 0.000000
0.000000 0.023750 0.000000
0.000000 0.022500 0.000000
0.000000 0.021250 0.000000
0.000000 0.020000 0.000000
0.000000 0.018750 0.000000
0.000000 0.017500 0.000000
0.000000 0.016250 0.000000
0.000000 0.015000 0.000000
0.000000 0.013750 0.000000
0.000000 0.012500 0.000000
0.000000 0.011250 0.000000
0.000000 0.010000 0.000000
0.000000 0.008750 0.000000
0.000000 0.007500 0.000000
0.000000 0.006250 0.000000
0.000000 0.005000 0.000000
0.000000 0.003750 0.000000
0.000000 0.002500 0.000000
0.000000 0.001250 0.000000
0.000500 0.000000 0.000000
0.001000 0.000000 0.000000
0.001500 0.000000 0.000000
0.002000 0.000000 0.000000
0.002500 0.000000 0.000000
0.003000 0.000000 0.000000
0.003500 0.000000 0.000000
0.004000 0.000000 0.000000
0.004500 0.000000 0.000000
0.004500 0.100000 0.000000
0.004000 0.100000 0.000000
0.003500 0.100000 0.000000
0.003000 0.100000 0.000000
0.002500 0.100000 0.000000
0.002000 0.100000 0.000000
0.001500 0.100000 0.000000
0.001000 0.100000 0.000000
0.000500 0.100000 0.000000
0.000500 0.098750 0.000000
0.001000 0.098750 0.000000
0.001500 0.098750 0.000000
0.002000 0.098750 0.000000
0.002500 0.098750 0.000000
0.003000 0.098750 0.000000
0.003500 0.098750 0.000000
0.004000 0.098750 0.000000
0.004500 0.098750 0.000000
0.000500 0.097500 0.000000
0.001000 0.097500 0.000000
0.001500 0.097500 0.000000
0.002000 0.097500 0.000000
0.002500 0.097500 0.000000
0.003000 0.097500 0.000000
0.003500 0.097500 0.000000
0.004000 0.097500 0.000000
0.004500 0.097500 0.000000
0.000500 0.096250 0.000000
0.001000 0.096250 0.000000
0.001500 0.096250 0.000000
0.002000 0.096250 0.000000
0.002500 0.096250 0.000000
0.003000 0.096250 0.000000
0.003500 0.096250 0.000000
0.004000 0.096250 0.000000
0.004500 0.096250 0.000000
0.000500 0.095000 0.000000
0.001000 0.095000 0.000000
0.001500 0.095000 0.000000
0.002000 0.095000 0.000000
0.002500 0.095000 0.000000
0.003000 0.095000 0.000000
0.003500 0.095000 0.000000
0.004000 0.095000 0.000000
0.004500 0.095000 0.000000
0.000500 0.093750 0.000000
0.001000 0.093750 0.000000
0.001500 0.093750 0.000000
0.002000 0.093750 0.000000
0.002500 0.093750 0.000000
0.003000 0.093750 0.000000
0.003500 0.093750 0.000000
0.004000 0.093750 0.000000
0.004500 0.093750 0.000000
0.000500 0.092500 0.000000
0.001000 0.092500 0.000000
0.001500 0.092500 0.000000
0.002000 0.092500 0.000000
0.002500 0.092500 0.000000
0.003000 0.092500 0.000000
0.003500 0.092500 0.000000
0.004000 0.092500 0.000000
0.004500 0.092500 0.000000
0.000500 0.091250 0.000000
0.001000 0.091250 0.000000
0.001500 0.091250 0.000000
0.002000 0.091250 0.000000
0.002500 0.091250 0.000000
0.003000 0.091250 0.000000
0.003500 0.091250 0.000000
0.004000 0.091250 0.000000
0.004500 0.091250 0.000000
0.000500 0.090000 0.000000
0.001000 0.090000 0.000000
0.001500 0.090000 0.000000
0.002000 0.090000 0.000000
0.002500 0.090000 0.000000
0.003000 0.090000 0.000000
0.003500 0.090000 0.000000
0.004000 0.090000 0.000000
0.004500 0.090000 0.000000
0.000500 0.088750 0.000000
0.001000 0.088750 0.000000
0.001500 0.088750 0.000000
0.002000 0.088750 0.000000
0.002500 0.088750 0.000000
0.003000 0.088750 0.000000
0.003500 0.088750 0.000000
0.004000 0.088750 0.000000
0.004500 0.088750 0.000000
0.000500 0.087500 0.000000
0.001000 0.087500 0.000000
0.001500 0.087500 0.000000
0.002000 0.087500 0.000000
0.002500 0.087500 0.000000
0.003000 0.087500 0.000000
0.003500 0.087500 0.000000
0.004000 0.087500 0.000000
0.004500 0.087500 0.000000
0.000500 0.086250 0.000000
0.001000 0.086250 0.000000
0.001500 0.086250 0.000000
0.002000 0.086250 0.000000
0.002500 0.086250 0.000000
0.003000 0.086250 0.000000
0.003500 0.086250 0.000000
0.004000 0.086250 0.000000
0.004500 0.086250 0.000000
0.000500 0.085000 0.000000
0.001000 0.085000 0.000000
0.001500 0.085000 0.000000
0.002000 0.085000 0.000000
0.002500 0.085000 0.000000
0.003000 0.085000 0.000000
0.003500 0.085000 0.000000
0.004000 0.085000 0.000000
0.004500 0.085000 0.000000
0.000500 0.083750 0.000000
0.001000 0.083750 0.000000
0.001500 0.083750 0.000000
0.002000 0.083750 0.000000
0.002500 0.083750 0.000000
0.003000 0.083750 0.000000
0.003500 0.083750 0.000000
0.004000 0.083750 0.000000
0.004500 0.083750 0.000000
0.000500 0.082500 0.000000
0.001000 0.082500 0.000000
0.001500 0.082500 0.000000
0.002000 0.082500 0.000000
0.002500 0.082500 0.000000
0.003000 0.082500 0.000000
0.003500 0.082500 0.000000
0.004000 0.082500 0.000000
0.004500 0.082500 0.000000
0.000500 0.081250 0.000000
0.001000 0.081250 0.000000
0.001500 0.081250 0.000000
0.002000 0.081250 0.000000
0.002500 0.081250 0.000000
0.003000 0.081250 0.000000
0.003500 0.081250 0.000000
0.004000 0.081250 0.000000
0.004500 0.081250 0.000000
0.000500 0.080000 0.000000
0.001000 0.080000 0.000000
0.001500 0.080000 0.000000
0.002000 0.080000 0.000000
0.002500 0.080000 0.000000
0.003000 0.080000 0.000000
0.003500 0.080000 0.000000
0.004000 0.080000 0.000000
0.004500 0.080000 0.000000
0.000500 0.078750 0.000000
0.001000 0.078750 0.000000
0.001500 0.078750 0.000000
0.002000 0.078750 0.000000
0.002500 0.078750 0.000000
0.003000 0.078750 0.000000
0.003500 0.078750 0.000000
0.004000 0.078750 0.000000
0.004500 0.078750 0.000000
0.000500 0.077500 0.000000
0.001000 0.077500 0.000000
0.001500 0.077500 0.000000
0.002000 0.077500 0.000000
0.002500 0.077500 0.000000
0.003000 0.077500 0.000000
0.003500 0.077500 0.000000
0.004000 0.077500 0.000000
0.004500 0.077500 0.000000
0.000500 0.076250 0.000000
0.001000 0.076250 0.000000
0.001500 0.076250 0.000000
0.002000 0.076250 0.000000
0.002500 0.076250 0.000000
0.003000 0.076250 0.000000
0.003500 0.076250 0.000000
0.004000 0.076250 0.000000
0.004500 0.076250 0.000000
0.000500 0.075000 0.000000
0.001000 0.075000 0.000000
0.001500 0.075000 0.000000
0.002000 0.075000 0.000000
0.002500 0.075000 0.000000
0.003000 0.075000 0.000000
0.003500 0.075000 0.000000
0.004000 0.075000 0.000000
0.004500 0.075000 0.000000
0.000500 0.073750 0.000000
0.001000 0.073750 0.000000
0.001500 0.073750 0.000000
0.002000 0.073750 0.000000
0.002500 0.073750 0.000000
0.003000 0.073750 0.000000
0.003500 0.073750 0.000000
0.004000 0.073750 0.000000
0.004500 0.073750 0.000000
0.000500 0.072500 0.000000
0.001000 0.072500 0.000000
0.001500 0.072500 0.000000
0.002000 0.072500 0.000000
0.002500 0.072500 0.000000
0.003000 0.072500 0.000000
0.003500 0.072500 0.000000
0.004000 0.072500 0.000000
0.004500 0.072500 0.000000
0.000500 0.071250 0.000000
0.001000 0.071250 0.000000
0.001500 0.071250 0.000000
0.002000 0.071250 0.000000
0.002500 0.071250 0.000000
0.003000 0.071250 0.000000
0.003500 0.071250 0.000000
0.004000 0.071250 0.000000
0.004500 0.071250 0.000000
0.000500 0.070000 0.000000
0.001000 0.070000 0.000000
0.001500 0.070000 0.000000
0.002000 0.070000 0.000000
0.002500 0.070000 0.000000
0.003000 0.070000 0.000000
0.003500 0.070000 0.000000
0.004000 0.070000 0.000000
0.004500 0.070000 0.000000
0.000500 0.068750 0.000000
0.001000 0.068750 0.000000
0.001500 0.068750 0.000000
0.002000 0.068750 0.000000
0.002500 0.068750 0.000000
0.003000 0.068750 0.000000
0.003500 0.068750 0.000000
0.004000 0.068750 0.000000
0.004500 0.068750 0.000000
0.000500 0.067500 0.000000
0.001000 0.067500 0.000000
0.001500 0.067500 0.000000
0.002000 0.067500 0.000000
0.002500 0.067500 0.000000
0.003000 0.067500 0.000000
0.003500 0.067500 0.000000
0.004000 0.067500 0.000000
0.004500 0.067500 0.000000
0.000500 0.066250 0.000000
0.001000 0.066250 0.000000
0.001500 0.066250 0.000000
0.002000 0.066250 0.000000
0.002500 0.066250 0.000000
0.003000 0.066250 0.000000
0.003500 0.066250 0.000000
0.004000 0.066250 0.000000
0.004500 0.066250 0.000000
0.000500 0.065000 0.000000
0.001000 0.065000 0.000000
0.001500 0.065000 0.000000
0.002000 0.065000 0.000000
0.002500 0.065000 0.000000
0.003000 0.065000 0.000000
0.003500 0.065000 0.000000
0.004000 0.065000 0.000000
0.004500 0.065000 0.000000
0.000500 0.063750 0.000000
0.001000 0.063750 0.000000
0.001500 0.063750 0.000000
0.002000 0.063750 0.000000
0.002500 0.063750 0.000000
0.003000 0.063750 0.000000
0.003500 0.063750 0.000000
0.004000 0.063750 0.000000
0.004500 0.063750 0.000000
0.000500 0.062500 0.000000
0.001000 0.062500 0.000000
0.001500 0.062500 0.000000
0.002000 0.062500 0.000000
0.002500 0.062500 0.000000
0.003000 0.062500 0.000000
0.003500 0.062500 0.000000
0.004000 0.062500 0.000000
0.004500 0.062500 0.000000
0.000500 0.061250 0.000000
0.001000 0.061250 0.000000
0.001500 0.061250 0.000000
0.002000 0.061250 0.000000
0.002500 0.061250 0.000000
0.003000 0.061250 0.000000
0.003500 0.061250 0.000000
0.004000 0.061250 0.000000
0.004500 0.061250 0.000000
0.000500 0.060000 0.000000
0.001000 0.060000 0.000000
0.001500 0.060000 0.000000
0.002000 0.060000 0.000000
0.002500 0.060000 0.000000
0.003000 0.060000 0.000000
0.003500 0.060000 0.000000
0.004000 0.060000 0.000000
0.004500 0.060000 0.000000
0.000500 0.058750 0.000000
0.001000 0.058750 0.000000
0.001500 0.058750 0.000000
0.002000 0.058750 0.000000
0.002500 0.058750 0.000000
0.003000 0.058750 0.000000
0.003500 0.058750 0.000000
0.004000 0.058750 0.000000
0.004500 0.058750 0.000000
0.000500 0.057500 0.000000
0.001000 0.057500 0.000000
0.001500 0.057500 0.000000
0.002000 0.057500 0.000000
0.002500 0.057500 0.000000
0.003000 0.057500 0.000000
0.003500 0.057500 0.000000
0.004000 0.057500 0.000000
0.004500 0.057500 0.000000
0.000500 0.056250 0.000000
0.001000 0.056250 0.000000
0.001500 0.056250 0.000000
0.002000 0.056250 0.000000
0.002500 0.056250 0.000000
0.003000 0.056250 0.000000
0.003500 0.056250 0.000000
0.004000 0.056250 0.000000
0.004500 0.056250 0.000000
0.000500 0.055000 0.000000
0.001000 0.055000 0.000000
0.001500 0.055000 0.000000
0.002000 0.055000 0.000000
0.002500 0.055000 0.000000
0.003000 0.055000 0.000000
0.003500 0.055000 0.000000
0.004000 0.055000 0.000000
0.004500 0.055000 0.000000
0.000500 0.053750 0.000000
0.001000 0.053750 0.000000
0.001500 0.053750 0.000000
0.002000 0.053750 0.000000
0.002500 0.053750 0.000000
0.003000 0.053750 0.000000
0.003500 0.053750 0.000000
0.004000 0.053750 0.000000
0.004500 0.053750 0.000000
0.000500 0.052500 0.000000
0.001000 0.052500 0.000000
0.001500 0.052500 0.000000
0.002000 0.052500 0.000000
0.002500 0.052500 0.000000
0.003000 0.052500 0.000000
0.003500 0.052500 0.000000
0.004000 0.052500 0.000000
0.004500 0.052500 0.000000
0.000500 0.051250 0.000000
0.001000 0.051250 0.000000
0.001500 0.051250 0.000000
0.002000 0.051250 0.000000
0.002500 0.051250 0.000000
0.003000 0.051250 0.000000
0.003500 0.051250 0.000000
0.004000 0.051250 0.000000
0.004500 0.051250 0.000000
0.000500 0.050000 0.000000
0.001000 0.050000 0.000000
0.001500 0.050000 0.000000
0.002000 0.050000 0.000000
0.002500 0.050000 0.000000
0.003000 0.050000 0.000000
0.003500 0.050000 0.000000
0.004000 0.050000 0.000000
0.004500 0.050000 0.000000
0.000500 0.048750 0.000000
0.001000 0.048750 0.000000
0.001500 0.048750 0.000000
0.002000 0.048750 0.000000
0.002500 0.048750 0.000000
0.003000 0.048750 0.000000
0.003500 0.048750 0.000000
0.004000 0.048750 0.000000
0.004500 0.048750 0.000000
0.000500 0.047500 0.000000
0.001000 0.047500 0.000000
0.001500 0.047500 0.000000
0.002000 0.047500 0.000000
0.002500 0.047500 0.000000
0.003000 0.047500 0.000000
0.003500 0.047500 0.000000
0.004000 0.047500 0.000000
0.004500 0.047500 0.000000
0.000500 0.046250 0.000000
0.001000 0.046250 0.000000
0.001500 0.046250 0.000000
0.002000 0.046250 0.000000
0.002500 0.046250 0.000000
0.003000 0.046250 0.000000
0.003500 0.046250 0.000000
0.004000 0.046250 0.000000
0.004500 0.046250 0.000000
0.000500 0.045000 0.000000
0.001000 0.045000 0.000000
0.001500 0.045000 0.000000
0.002000 0.045000 0.000000
0.002500 0.045000 0.000000
0.003000 0.045000 0.000000
0.003500 0.045000 0.000000
0.004000 0.045000 0.000000
0.004500 0.045000 0.000000
0.000500 0.043750 0.000000
0.001000 0.043750 0.000000
0.001500 0.043750 0.000000
0.002000 0.043750 0.000000
0.002500 0.043750 0.000000
0.003000 0.043750 0.000000
0.003500 0.043750 0.000000
0.004000 0.043750 0.000000
0.004500 0.043750 0.000000
0.000500 0.042500 0.000000
0.001000 0.042500 0.000000
0.001500 0.042500 0.000000
0.002000 0.042500 0.000000
0.002500 0.042500 0.000000
0.003000 0.042500 0.000000
0.003500 0.042500 0.000000
0.004000 0.042500 0.000000
0.004500 0.042500 0.000000
0.000500 0.041250 0.000000
0.001000 0.041250 0.000000
0.001500 0.041250 0.000000
0.002000 0.041250 0.000000
0.002500 0.041250 0.000000
0.003000 0.041250 0.000000
0.003500 0.041250 0.000000
0.004000 0.041250 0.000000
0.004500 0.041250 0.000000
0.000500 0.040000 0.000000
0.001000 0.040000 0.000000
0.001500 0.040000 0.000000
0.002000 0.040000 0.000000
0.002500 0.040000 0.000000
0.003000 0.040000 0.000000
0.003500 0.040000 0.000000
0.004000 0.040000 0.000000
0.004500 0.040000 0.000000
0.000500 0.038750 0.000000
0.001000 0.038750 0.000000
0.001500 0.038750 0.000000
0.002000 0.038750 0.000000
0.002500 0.038750 0.000000
0.003000 0.038750 0.000000
0.003500 0.038750 0.000000
0.004000 0.038750 0.000000
0.004500 0.038750 0.000000
0.000500 0.037500 0.000000
0.001000 0.037500 0.000000
0.001500 0.037500 0.000000
0.002000 0.037500 0.000000
0.002500 0.037500 0.000000
0.003000 0.037500 0.000000
0.003500 0.037500 0.000000
0.004000 0.037500 0.000000
0.004500 0.037500 0.000000
0.000500 0.036250 0.000000
0.001000 0.036250 0.000000
0.001500 0.036250 0.000000
0.002000 0.036250 0.000000
0.002500 0.036250 0.000000
0.003000 0.036250 0.000000
0.003500 0.036250 0.000000
0.004000 0.036250 0.000000
0.004500 0.036250 0.000000
0.000500 0.035000 0.000000
0.001000 0.035000 0.000000
0.001500 0.035000 0.000000
0.002000 0.035000 0.000000
0.002500 0.035000 0.000000
0.003000 0.035000 0.000000
0.003500 0.035000 0.000000
0.004000 0.035000 0.000000
0.004500 0.035000 0.000000
0.000500 0.033750 0.000000
0.001000 0.033750 0.000000
0.001500 0.033750 0.000000
0.002000 0.033750 0.000000
0.002500 0.033750 0.000000
0.003000 0.033750 0.000000
0.003500 0.033750 0.000000
0.004000 0.033750 0.000000
0.004500 0.033750 0.000000
0.000500 0.032500 0.000000
0.001000 0.032500 0.000000
0.001500 0.032500 0.000000
0.002000 0.032500 0.000000
0.002500 0.032500 0.000000
0.003000 0.032500 0.000000
0.003500 0.032500 0.000000
0.004000 0.032500 0.000000
0.004500 0.032500 0.000000
0.000500 0.031250 0.000000
0.001000 0.031250 0.000000
0.001500 0.031250 0.000000
0.002000 0.031250 0.000000
0.002500 0.031250 0.000000
0.003000 0.031250 0.000000
0.003500 0.031250 0.000000
0.004000 0.031250 0.000000
0.004500 0.031250 0.000000
0.000500 0.030000 0.000000
0.001000 0.030000 0.000000
0.001500 0.030000 0.000000
0.002000 0.030000 0.000000
0.002500 0.030000 0.000000
0.003000 0.030000 0.000000
0.003500 0.030000 0.000000
0.004000 0.030000 0.000000
0.004500 0.030000 0.000000
0.000500 0.028750 0.000000
0.001000 0.028750 0.000000
0.001500 0.028750 0.000000
0.002000 0.028750 0.000000
0.002500 0.028750 0.000000
0.003000 0.028750 0.000000
0.003500 0.028750 0.000000
0.004000 0.028750 0.000000
0.004500 0.028750 0.000000
0.000500 0.027500 0.000000
0.001000 0.027500 0.000000
0.001500 0.027500 0.000000
0.002000 0.027500 0.000000
0.002500 0.027500 0.000000
0.003000 0.027500 0.000000
0.003500 0.027500 0.000000
0.004000 0.027500 0.000000
0.004500 0.027500 0.000000
0.000500 0.026250 0.000000
0.001000 0.026250 0.000000
0.001500 0.026250 0.000000
0.002000 0.026250 0.000000
0.002500 0.026250 0.000000
0.003000 0.026250 0.000000
0.003500 0.026250 0.000000
0.004000 0.026250 0.000000
0.004500 0.026250 0.000000
0.000500 0.025000 0.000000
0.001000 0.025000 0.000000
0.001500 0.025000 0.000000
0.002000 0.025000 0.000000
0.002500 0.025000 0.000000
0.003000 0.025000 0.000000
0.003500 0.025000 0.000000
0.004000 0.025000 0.000000
0.004500 0.025000 0.000000
0.000500 0.023750 0.000000
0.001000 0.023750 0.000000
0.001500 0.023750 0.000000
0.002000 0.023750 0.000000
0.002500 0.023750 0.000000
0.003000 0.023750 0.000000
0.003500 0.023750 0.000000
0.004000 0.023750 0.000000
0.004500 0.023750 0.000000
0.000500 0.022500 0.000000
0.001000 0.022500 0.000000
0.001500 0.022500 0.000000
0.002000 0.022500 0.000000
0.002500 0.022500 0.000000
0.003000 0.022500 0.000000
0.003500 0.022500 0.000000
0.004000 0.022500 0.000000
0.004500 0.022500 0.000000
0.000500 0.021250 0.000000
0.001000 0.021250 0.000000
0.001500 0.021250 0.000000
0.002000 0.021250 0.000000
0.002500 0.021250 0.000000
0.003000 0.021250 0.000000
0.003500 0.021250 0.000000
0.004000 0.021250 0.000000
0.004500 0.021250 0.000000
0.000500 0.020000 0.000000
0.001000 0.020000 0.000000
0.001500 0.020000 0.000000
0.002000 0.020000 0.000000
0.002500 0.020000 0.000000
0.003000 0.020000 0.000000
0.003500 0.020000 0.000000
0.004000 0.020000 0.000000
0.004500 0.020000 0.000000
0.000500 0.018750 0.000000
0.001000 0.018750 0.000000
0.001500 0.018750 0.000000
0.002000 0.018750 0.000000
0.002500 0.018750 0.000000
0.003000 0.018750 0.000000
0.003500 0.018750 0.000000
0.004000 0.018750 0.000000
0.004500 0.018750 0.000000
0.000500 0.017500 0.000000
0.001000 0.017500 0.000000
0.001500 0.017500 0.000000
0.002000 0.017500 0.000000
0.002500 0.017500 0.000000
0.003000 0.017500 0.000000
0.003500 0.017500 0.000000
0.004000 0.017500 0.000000
0.004500 0.017500 0.000000
0.000500 0.016250 0.000000
0.001000 0.016250 0.000000
0.001500 0.016250 0.000000
0.002000 0.016250 0.000000
0.002500 0.016250 0.000000
0.003000 0.016250 0.000000
0.003500 0.016250 0.000000
0.004000 0.016250 0.000000
0.004500 0.016250 0.000000
0.000500 0.015000 0.000000
0.001000 0.015000 0.000000
0.001500 0.015000 0.000000
0.002000 0.015000 0.000000
0.002500 0.015000 0.000000
0.003000 0.015000 0.000000
0.003500 0.015000 0.000000
0.004000 0.015000 0.000000
0.004500 0.015000 0.000000
0.000500 0.013750 0.000000
0.001000 0.013750 0.000000
0.001500 0.013750 0.000000
0.002000 0.013750 0.000000
0.002500 0.013750 0.000000
0.003000 0.013750 0.000000
0.003500 0.013750 0.000000
0.004000 0.013750 0.000000
0.004500 0.013750 0.000000
0.000500 0.012500 0.000000
0.001000 0.012500 0.000000
0.001500 0.012500 0.000000
0.002000 0.012500 0.000000
0.002500 0.012500 0.000000
0.003000 0.012500 0.000000
0.003500 0.012500 0.000000
0.004000 0.012500 0.000000
0.004500 0.012500 0.000000
0.000500 0.011250 0.000000
0.001000 0.011250 0.000000
0.001500 0.011250 0.000000
0.002000 0.011250 0.000000
0.002500 0.011250 0.000000
0.003000 0.011250 0.000000
0.003500 0.011250 0.000000
0.004000 0.011250 0.000000
0.004500 0.011250 0.000000
0.000500 0.010000 0.000000
0.001000 0.010000 0.000000
0.001500 0.010000 0.000000
0.002000 0.010000 0.000000
0.002500 0.010000 0.000000
0.003000 0.010000 0.000000
0.003500 0.010000 0.000000
0.004000 0.010000 0.000000
0.004500 0.010000 0.000000
0.000500 0.008750 0.000000
0.001000 0.008750 0.000000
0.001500 0.008750 0.000000
0.002000 0.008750 0.000000
0.002500 0.008750 0.000000
0.003000 0.008750 0.000000
0.003500 0.008750 0.000000
0.004000 0.008750 0.000000
0.004500 0.008750 0.000000
0.000500 0.007500 0.000000
0.001000 0.007500 0.000000
0.001500 0.007500 0.000000
0.002000 0.007500 0.000000
0.002500 0.007500 0.000000
0.003000 0.007500 0.000000
0.003500 0.007500 0.000000
0.004000 0.007500 0.000000
0.004500 0.007500 0.000000
0.000500 0.006250 0.000000
0.001000 0.006250 0.000000
0.001500 0.006250 0.000000
0.002000 0.006250 0.000000
0.002500 0.006250 0.000000
0.003000 0.006250 0.000000
0.003500 0.006250 0.000000
0.004000 0.006250 0.000000
0.004500 0.006250 0.000000
0.000500 0.005000 0.000000
0.001000 0.005000 0.000000
0.001500 0.005000 0.000000
0.002000 0.005000 0.000000
0.002500 0.005000 0.000000
0.003000 0.005000 0.000000
0.003500 0.005000 0.000000
0.004000 0.005000 0.000000
0.004500 0.005000 0.000000
0.000500 0.003750 0.000000
0.001000 0.003750 0.000000
0.001500 0.003750 0.000000
0.002000 0.003750 0.000000
0.002500 0.003750 0.000000
0.003000 0.003750 0.000000
0.003500 0.003750 0.000000
0.004000 0.003750 0.000000
0.004500 0.003750 0.000000
0.000500 0.002500 0.000000
0.001000 0.002500 0.000000
0.001500 0.002500 0.000000
0.002000 0.002500 0.000000
0.002500 0.002500 0.000000
0.003000 0.002500 0.000000
0.003500 0.002500 0.000000
0.004000 0.002500 0.000000
0.004500 0.002500 0.000000
0.000500 0.001250 0.000000
0.001000 0.001250 0.000000
0.001500 0.001250 0.000000
0.002000 0.001250 0.000000
0.002500 0.001250 0.000000
0.003000 0.001250 0.000000
0.003500 0.001250 0.000000
0.004000 0.001250 0.000000
0.004500 0.001250 0.000000
CELLS 800 4000
4 82 83 180 179
4 179 180 181 178
4 178 181 182 177
4 177 182 183 176
4 176 183 184 175
4 175 184 185 174
4 174 185 186 173
4 173 186 187 172
4 172 187 188 171
4 171 188 80 0
4 83 84 189 180
4 180 189 190 181
4 181 190 191 182
4 182 191 192 183
4 183 192 193 184
4 184 193 194 185
4 185 194 195 186
4 186 195 196 187
4 187 196 197 188
4 188 197 79 80
4 84 85 198 189
4 189 198 199 190
4 190 199 200 191
4 191 200 201 192
4 192 201 202 193
4 193 202 203 194
4 194 203 204 195
4 195 204 205 196
4 196 205 206 197
4 197 206 78 79
4 85 86 207 198
4 198 207 208 199
4 199 208 209 200
4 200 209 210 201
4 201 210 211 202
4 202 211 212 203
4 203 212 213 204
4 204 213 214 205
4 205 214 215 206
4 206 215 77 78
4 86 87 216 207
4 207 216 217 208
4 208 217 218 209
4 209 218 219 210
4 210 219 220 211
4 211 220 221 212
4 212 221 222 213
4 213 222 223 214
4 214 223 224 215
4 215 224 76 77
4 87 88 225 216
4 216 225 226 217
4 217 226 227 218
4 218 227 228 219
4 219 228 229 220
4 220 229 230 221
4 221 230 231 222
4 222 231 232 223
4 223 232 233 224
4 224 233 75 76
4 88 89 234 225
4 225 234 235 226
4 226 235 236 227
4 227 236 237 228
4 228 237 238 229
4 229 238 239 230
4 230 239 240 231
4 231 240 241 232
4 232 241 242 233
4 233 242 74 75
4 89 90 243 234
4 234 243 244 235
4 235 244 245 236
4 236 245 246 237
4 237 246 247 238
4 238 247 248 239
4 239 248 249 240
4 240 249 250 241
4 241 250 251 242
4 242 251 73 74
4 90 91 252 243
4 243 252 253 244
4 244 253 254 245
4 245 254 255 246
4 246 255 256 247
4 247 256 257 248
4 248 257 258 249
4 249 258 259 250
4 250 259 260 251
4 251 260 72 73
4 91 92 261 252
4 252 261 262 253
4 253 262 263 254
4 254 263 264 255
4 255 264 265 256
4 256 265 266 257
4 257 266 267 258
4 258 267 268 259
4 259 268 269 260
4 260 269 71 72
4 92 93 270 261
4 261 270 271 262
4 262 271 272 263
4 263 272 273 264
4 264 273 274 265
4 265 274 275 266
4 266 275 276 267
4 267 276 277 268
4 268 277 278 269
4 269 278 70 71
4 93 94 279 270
4 270 279 280 271
4 271 280 281 272
4 272 281 282 273
4 273 282 283 274
4 274 283 284 275
4 275 284 285 276
4 276 285 286 277
4 277 286 287 278
4 278 287 69 70
4 94 95 288 279
4 279 288 289 280
4 280 289 290 281
4 281 290 291 282
4 282 291 292 283
4 283 292 293 284
4 284 293 294 285
4 285 294 295 286
4 286 295 296 287
4 287 296 68 69
4 95 96 297 288
4 288 297 298 289
4 289 298 299 290
4 290 299 300 291
4 291 300 301 292
4 292 301 302 293
4 293 302 303 294
4 294 303 304 295
4 295 304 305 296
4 296 305 67 68
4 96 97 306 297
4 297 306 307 298
4 298 307 308 299
4 299 308 309 300
4 300 309 310 301
4 301 310 311 302
4 302 311 312 303
4 303 312 313 304
4 304 313 314 305
4 305 314 66 67
4 97 98 315 306
4 306 315 316 307
4 307 316 317 308
4 308 317 318 309
4 309 318 319 310
4 310 319 320 311
4 311 320 321 312
4 312 321 322 313
4 313 322 323 314
4 314 323 65 66
4 98 99 324 315
4 315 324 325 316
4 316 325 326 317
4 317 326 327 318
4 318 327 328 319
4 319 328 329 320
4 320 329 330 321
4 321 330 331 322
4 322 331 332 323
4 323 332 64 65
4 99 100 333 324
4 324 333 334 325
4 325 334 335 326
4 326 335 336 327
4 327 336 337 328
4 328 337 338 329
4 329 338 339 330
4 330 339 340 331
4 331 340 341 332
4 332 341 63 64
4 100 101 342 333
4 333 342 343 334
4 334 343 344 335
4 335 344 345 336
4 336 345 346 337
4 337 346 347 338
4 338 347 348 339
4 339 348 349 340
4 340 349 350 341
4 341 350 62 63
4 101 102 351 342
4 342 351 352 343
4 343 352 353 344
4 344 353 354 345
4 345 354 355 346
4 346 355 356 347
4 347 356 357 348
4 348 357 358 349
4 349 358 359 350
4 350 359 61 62
4 102 103 360 351
4 351 360 361 352
4 352 361 362 353
4 353 362 363 354
4 354 363 364 355
4 355 364 365 356
4 356 365 366 357
4 357 366 367 358
4 358 367 368 359
4 359 368 60 61
4 103 104 369 360
4 360 369 370 361
4 361 370 371 362
4 362 371 372 363
4 363 372 373 364
4 364 373 374 365
4 365 374 375 366
4 366 375 376 367
4 367 376 377 368
4 368 377 59 60
4 104 105 378 369
4 369 378 379 370
4 370 379 380 371
4 371 380 381 372
4 372 381 382 373
4 373 382 383 374
4 374 383 384 375
4 375 384 385 376
4 376 385 386 377
4 377 386 58 59
4 105 106 387 378
4 378 387 388 379
4 379 388 389 380
4 380 389 390 381
4 381 390 391 382
4 382 391 392 383
4 383 392 393 384
4 384 393 394 385
4 385 394 395 386
4 386 395 57 58
4 106 107 396 387
4 387 396 397 388
4 388 397 398 389
4 389 398 399 390
4 390 399 400 391
4 391 400 401 392
4 392 401 402 393
4 393 402 403 394
4 394 403 404 395
4 395 404 56 57
4 107 108 405 396
4 396 405 406 397
4 397 406 407 398
4 398 407 408 399
4 399 408 409 400
4 400 409 410 401
4 401 410 411 402
4 402 411 412 403
4 403 412 413 404
4 404 413 55 56
4 108 109 414 405
4 405 414 415 406
4 406 415 416 407
4 407 416 417 408
4 408 417 418 409
4 409 418 419 410
4 410 419 420 411
4 411 420 421 412
4 412 421 422 413
4 413 422 54 55
4 109 110 423 414
4 414 423 424 415
4 415 424 425 416
4 416 425 426 417
4 417 426 427 418
4 418 427 428 419
4 419 428 429 420
4 420 429 430 421
4 421 430 431 422
4 422 431 53 54
4 110 111 432 423
4 423 432 433 424
4 424 433 434 425
4 425 434 435 426
4 426 435 436 427
4 427 436 437 428
4 428 437 438 429
4 429 438 439 430
4 430 439 440 431
4 431 440 52 53
4 111 112 441 432
4 432 441 442 433
4 433 442 443 434
4 434 443 444 435
4 435 444 445 436
4 436 445 446 437
4 437 446 447 438
4 438 447 448 439
4 439 448 449 440
4 440 449 51 52
4 112 113 450 441
4 441 450 451 442
4 442 451 452 443
4 443 452 453 444
4 444 453 454 445
4 445 454 455 446
4 446 455 456 447
4 447 456 457 448
4 448 457 458 449
4 449 458 50 51
4 113 114 459 450
4 450 459 460 451
4 451 460 461 452
4 452 461 462 453
4 453 462 463 454
4 454 463 464 455
4 455 464 465 456
4 456 465 466 457
4 457 466 467 458
4 458 467 49 50
4 114 115 468 459
4 459 468 469 460
4 460 469 470 461
4 461 470 471 462
4 462 471 472 463
4 463 472 473 464
4 464 473 474 465
4 465 474 475 466
4 466 475 476 467
4 467 476 48 49
4 115 116 477 468
4 468 477 478 469
4 469 478 479 470
4 470 479 480 471
4 471 480 481 472
4 472 481 482 473
4 473 482 483 474
4 474 483 484 475
4 475 484 485 476
4 476 485 47 48
4 116 117 486 477
4 477 486 487 478
4 478 487 488 479
4 479 488 489 480
4 480 489 490 481
4 481 490 491 482
4 482 491 492 483
4 483 492 493 484
4 484 493 494 485
4 485 494 46 47
4 117 118 495 486
4 486 495 496 487
4 487 496 497 488
4 488 497 498 489
4 489 498 499 490
4 490 499 500 491
4 491 500 501 492
4 492 501 502 493
4 493 502 503 494
4 494 503 45 46
4 118 119 504 495
4 495 504 505 496
4 496 505 506 497
4 497 506 507 498
4 498 507 508 499
4 499 508 509 500
4 500 509 510 501
4 501 510 511 502
4 502 511 512 503
4 503 512 44 45
4 119 120 513 504
4 504 513 514 505
4 505 514 515 506
4 506 515 516 507
4 507 516 517 508
4 508 517 518 509
4 509 518 519 510
4 510 519 520 511
4 511 520 521 512
4 512 521 43 44
4 120 121 522 513
4 513 522 523 514
4 514 523 524 515
4 515 524 525 516
4 516 525 526 517
4 517 526 527 518
4 518 527 528 519
4 519 528 529 520
4 520 529 530 521
4 521 530 42 43
4 121 122 531 522
4 522 531 532 523
4 523 532 533 524
4 524 533 534 525
4 525 534 535 526
4 526 535 536 527
4 527 536 537 528
4 528 537 538 529
4 529 538 539 530
4 530 539 41 42
4 122 123 540 531
4 531 540 541 532
4 532 541 542 533
4 533 542 543 534
4 534 543 544 535
4 535 544 545 536
4 536 545 546 537
4 537 546 547 538
4 538 547 548 539
4 539 548 40 41
4 123 124 549 540
4 540 549 550 541
4 541 550 551 542
4 542 551 552 543
4 543 552 553 544
4 544 553 554 545
4 545 554 555 546
4 546 555 556 547
4 547 556 557 548
4 548 557 39 40
4 124 125 558 549
4 549 558 559 550
4 550 559 560 551
4 551 560 561 552
4 552 561 562 553
4 553 562 563 554
4 554 563 564 555
4 555 564 565 556
4 556 565 566 557
4 557 566 38 39
4 125 126 567 558
4 558 567 568 559
4 559 568 569 560
4 560 569 570 561
4 561 570 571 562
4 562 571 572 563
4 563 572 573 564
4 564 573 574 565
4 565 574 575 566
4 566 575 37 38
4 126 127 576 567
4 567 576 577 568
4 568 577 578 569
4 569 578 579 570
4 570 579 580 571
4 571 580 581 572
4 572 581 582 573
4 573 582 583 574
4 574 583 584 575
4 575 584 36 37
4 127 128 585 576
4 576 585 586 577
4 577 586 587 578
4 578 587 588 579
4 579 588 589 580
4 580 589 590 581
4 581 590 591 582
4 582 591 592 583
4 583 592 593 584
4 584 593 35 36
4 128 129 594 585
4 585 594 595 586
4 586 595 596 587
4 587 596 597 588
4 588 597 598 589
4 589 598 599 590
4 590 599 600 591
4 591 600 601 592
4 592 601 602 593
4 593 602 34 35
4 129 130 603 594
4 594 603 604 595
4 595 604 605 596
4 596 605 606 597
4 597 606 607 598
4 598 607 608 599
4 599 608 609 600
4 600 609 610 601
4 601 610 611 602
4 602 611 33 34
4 130 131 612 603
4 603 612 613 604
4 604 613 614 605
4 605 614 615 606
4 606 615 616 607
4 607 616 617 608
4 608 617 618 609
4 609 618 619 610
4 610 619 620 611
4 611 620 32 33
4 131 132 621 612
4 612 621 622 613
4 613 622 623 614
4 614 623 624 615
4 615 624 625 616
4 616 625 626 617
4 617 626 627 618
4 618 627 628 619
4 619 628 629 620
4 620 629 31 32
4 132 133 630 621
4 621 630 631 622
4 622 631 632 623
4 623 632 633 624
4 624 633 634 625
4 625 634 635 626
4 626 635 636 627
4 627 636 637 628
4 628 637 638 629
4 629 638 30 31
4 133 134 639 630
4 630 639 640 631
4 631 640 641 632
4 632 641 642 633
4 633 642 643 634
4 634 643 644 635
4 635 644 645 636
4 636 645 646 637
4 637 646 647 638
4 638 647 29 30
4 134 135 648 639
4 639 648 649 640
4 640 649 650 641
4 641 650 651 642
4 642 651 652 643
4 643 652 653 644
4 644 653 654 645
4 645 654 655 646
4 646 655 656 647
4 647 656 28 29
4 135 136 657 648
4 648 657 658 649
4 649 658 659 650
4 650 659 660 651
4 651 660 661 652
4 652 661 662 653
4 653 662 663 654
4 654 663 664 655
4 655 664 665 656
4 656 665 27 28
4 136 137 666 657
4 657 666 667 658
4 658 667 668 659
4 659 668 669 660
4 660 669 670 661
4 661 670 671 662
4 662 671 672 663
4 663 672 673 664
4 664 673 674 665
4 665 674 26 27
4 137 138 675 666
4 666 675 676 667
4 667 676 677 668
4 668 677 678 669
4 669 678 679 670
4 670 679 680 671
4 671 680 681 672
4 672 681 682 673
4 673 682 683 674
4 674 683 25 26
4 138 139 684 675
4 675 684 685 676
4 676 685 686 677
4 677 686 687 678
4 678 687 688 679
4 679 688 689 680
4 680 689 690 681
4 681 690 691 682
4 682 691 692 683
4 683 692 24 25
4 139 140 693 684
4 684 693 694 685
4 685 694 695 686
4 686 695 696 687
4 687 696 697 688
4 688 697 698 689
4 689 698 699 690
4 690 699 700 691
4 691 700 701 692
4 692 701 23 24
4 140 141 702 693
4 693 702 703 694
4 694 703 704 695
4 695 704 705 696
4 696 705 706 697
4 697 706 707 698
4 698 707 708 699
4 699 708 709 700
4 700 709 710 701
4 701 710 22 23
4 141 142 711 702
4 702 711 712 703
4 703 712 713 704
4 704 713 714 705
4 705 714 715 706
4 706 715 716 707
4 707 716 717 708
4 708 717 718 709
4 709 718 719 710
4 710 719 21 22
4 142 143 720 711
4 711 720 721 712
4 712 721 722 713
4 713 722 723 714
4 714 723 724 715
4 715 724 725 716
4 716 725 726 717
4 717 726 727 718
4 718 727 728 719
4 719 728 20 21
4 143 144 729 720
4 720 729 730 721
4 721 730 731 722
4 722 731 732 723
4 723 732 733 724
4 724 733 734 725
4 725 734 735 726
4 726 735 736 727
4 727 736 737 728
4 728 737 19 20
4 144 145 738 729
4 729 738 739 730
4 730 739 740 731
4 731 740 741 732
4 732 741 742 733
4 733 742 743 734
4 734 743 744 735
4 735 744 745 736
4 736 745 746 737
4 737 746 18 19
4 145 146 747 738
4 738 747 748 739
4 739 748 749 740
4 740 749 750 741
4 741 750 751 742
4 742 751 752 743
4 743 752 753 744
4 744 753 754 745
4 745 754 755 746
4 746 755 17 18
4 146 147 756 747
4 747 756 757 748
4 748 757 758 749
4 749 758 759 750
4 750 759 760 751
4 751 760 761 752
4 752 761 762 753
4 753 762 763 754
4 754 763 764 755
4 755 764 16 17
4 147 148 765 756
4 756 765 766 757
4 757 766 767 758
4 758 767 768 759
4 759 768 769 760
4 760 769 770 761
4 761 770 771 762
4 762 771 772 763
4 763 772 773 764
4 764 773 15 16
4 148 149 774 765
4 765 774 775 766
4 766 775 776 767
4 767 776 777 768
4 768 777 778 769
4 769 778 779 770
4 770 779 780 771
4 771 780 781 772
4 772 781 782 773
4 773 782 14 15
4 149 150 783 774
4 774 783 784 775
4 775 784 785 776
4 776 785 786 777
4 777 786 787 778
4 778 787 788 779
4 779 788 789 780
4 780 789 790 781
4 781 790 791 782
4 782 791 13 14
4 150 151 792 783
4 783 792 793 784
4 784 793 794 785
4 785 794 795 786
4 786 795 796 787
4 787 796 797 788
4 788 797 798 789
4 789 798 799 790
4 790 799 800 791
4 791 800 12 13
4 151 152 801 792
4 792 801 802 793
4 793 802 803 794
4 794 803 804 795
4 795 804 805 796
4 796 805 806 797
4 797 806 807 798
4 798 807 808 799
4 799 808 809 800
4 800 809 11 12
4 152 153 810 801
4 801 810 811 802
4 802 811 812 803
4 803 812 813 804
4 804 813 814 805
4 805 814 815 806
4 806 815 816 807
4 807 816 817 808
4 808 817 818 809
4 809 818 10 11
4 153 154 819 810
4 810 819 820 811
4 811 820 821 812
4 812 821 822 813
4 813 822 823 814
4 814 823 824 815
4 815 824 825 816
4 816 825 826 817
4 817 826 827 818
4 818 827 9 10
4 154 155 828 819
4 819 828 829 820
4 820 829 830 821
4 821 830 831 822
4 822 831 832 823
4 823 832 833 824
4 824 833 834 825
4 825 834 835 826
4 826 835 836 827
4 827 836 8 9
4 155 156 837 828
4 828 837 838 829
4 829 838 839 830
4 830 839 840 831
4 831 840 841 832
4 832 841 842 833
4 833 842 843 834
4 834 843 844 835
4 835 844 845 836
4 836 845 7 8
4 156 157 846 837
4 837 846 847 838
4 838 847 848 839
4 839 848 849 840
4 840 849 850 841
4 841 850 851 842
4 842 851 852 843
4 843 852 853 844
4 844 853 854 845
4 845 854 6 7
4 157 158 855 846
4 846 855 856 847
4 847 856 857 848
4 848 857 858 849
4 849 858 859 850
4 850 859 860 851
4 851 860 861 852
4 852 861 862 853
4 853 862 863 854
4 854 863 5 6
4 158 159 864 855
4 855 864 865 856
4 856 865 866 857
4 857 866 867 858
4 858 867 868 859
4 859 868 869 860
4 860 869 870 861
4 861 870 871 862
4 862 871 872 863
4 863 872 4 5
4 159 160 873 864
4 864 873 874 865
4 865 874 875 866
4 866 875 876 867
4 867 876 877 868
4 868 877 878 869
4 869 878 879 870
4 870 879 880 871
4 871 880 881 872
4 872 881 3 4
4 160 161 882 873
4 873 882 883 874
4 874 883 884 875
4 875 884 885 876
4 876 885 886 877
4 877 886 887 878
4 878 887 888 879
4 879 888 889 880
4 880 889 890 881
4 881 890 2 3
4 161 81 162 882
4 882 162 163 883
4 883 163 164 884
4 884 164 165 885
4 885 165 166 886
4 886 166 167 887
4 887 167 168 888
4 888 168 169 889
4 889 169 170 890
4 890 170 1 2
CELL_TYPES 800
9
9
9
9
9
9
9
9
9
9
9
9
9
9
9
9
9
9
9
9
9
9
9
9
9
9
9
9
9
9
9
9
9
9
9
9
9
9
9
9
9
9
9
9
9
9
9
9
9
9
9
9
9
9
9
9
9
9
9
9
9
9
9
9
9
9
9
9
9
9
9
9
9
9
9
9
9
9
9
9
9
9
9
9
9
9
9
9
9
9
9
9
9
9
9
9
9
9
9
9
9
9
9
9
9
9
9
9
9
9
9
9
9
9
9
9
9
9
9
9
9
9
9
9
9
9
9
9
9
9
9
9
9
9
9
9
9
9
9
9
9
9
9
9
9
9
9
9
9
9
9
9
9
9
9
9
9
9
9
9
9
9
9
9
9
9
9
9
9
9
9
9
9
9
9
9
9
9
9
9
9
9
9
9
9
9
9
9
9
9
9
9
9
9
9
9
9
9
9
9
9
9
9
9
9
9
9
9
9
9
9
9
9
9
9
9
9
9
9
9
9
9
9
9
9
9
9
9
9
9
9
9
9
9
9
9
9
9
9
9
9
9
9
9
9
9
9
9
9
9
9
9
9
9
9
9
9
9
9
9
9
9
9
9
9
9
9
9
9
9
9
9
9
9
9
9
9
9
9
9
9
9
9
9
9
9
9
9
9
9
9
9
9
9
9
9
9
9
9
9
9
9
9
9
9
9
9
9
9
9
9
9
9
9
9
9
9
9
9
9
9
9
9
9
9
9
9
9
9
9
9
9
9
9
9
9
9
9
9
9
9
9
9
9
9
9
9
9
9
9
9
9
9
9
9
9
9
9
9
9
9
9
9
9
9
9
9
9
9
9
9
9
9
9
9
9
9
9
9
9
9
9
9
9
9
9
9
9
9
9
9
9
9
9
9
9
9
9
9
9
9
9
9
9
9
9
9
9
9
9
9
9
9
9
9
9
9
9
9
9
9
9
9
9
9
9
9
9
9
9
9
9
9
9
9
9
9
9
9
9
9
9
9
9
9
9
9
9
9
9
9
9
9
9
9
9
9
9
9
9
9
9
9
9
9
9
9
9
9
9
9
9
9
9
9
9
9
9
9
9
9
9
9
9
9
9
9
9
9
9
9
9
9
9
9
9
9
9
9
9
9
9
9
9
9
9
9
9
9
9
9
9
9
9
9
9
9
9
9
9
9
9
9
9
9
9
9
9
9
9
9
9
9
9
9
9
9
9
9
9
9
9
9
9
9
9
9
9
9
9
9
9
9
9
9
9
9
9
9
9
9
9
9
9
9
9
9
9
9
9
9
9
9
9
9
9
9
9
9
9
9
9
9
9
9
9
9
9
9
9
9
9
9
9
9
9
9
9
9
9
9
9
9
9
9
9
9
9
9
9
9
9
9
9
9
9
9
9
9
9
9
9
9
9
9
9
9
9
9
9
9
9
9
9
9
9
9
9
9
9
9
9
9
9
9
9
9
9
9
9
9
9
9
9
9
9
9
9
9
9
9
9
9
9
9
9
9
9
9
9
9
9
9
9
9
9
9
9
9
9
9
9
9
9
9
9
9
9
9
9
9
9
9
9
9
9
9
9
9
9
9
9
9
9
9
9
9
9
9
9
9
9
9
9
9
9
9
9
9
9
9
9
9
9
9
9
9
9
9
9
9
9
9
9
9
9
9
9
9
9
9
9
9
9
9
9
9
9
9
9
9
9
9
9
9
9
9
9
9
9
9
9
9
9
9
9
9
9
9
9
9
9
9
9
9
9
9
9
9
9
9
9
9
9
9
9
9
9
9
9
9
9
9
9
9
9
9
9
9
9
POINT_DATA 891
SCALARS u1 float
LOOKUP_TABLE default
-2e-19
-2e-06
-2e-06
-2e-06
-2e-06
-2e-06
-2e-06
-2e-06
-2e-06
-2e-06
-2e-06
-2e-06
-2e-06
-2e-06
-2e-06
-2e-06
-2e-06
-2e-06
-2e-06
-2e-06
-2e-06
-2e-06
-2e-06
-2e-06
-2e-06
-2e-06
-2e-06
-2e-06
-2e-06
-2e-06
-2e-06
-2e-06
-2e-06
-2e-06
-2e-06
-2e-06
-2e-06
-2e-06
-2e-06
-2e-06
-2e-06
-2e-06
-2e-06
-2e-06
-2e-06
-2e-06
-2e-06
-2e-06
-2e-06
-2e-06
-2e-06
-2e-06
-2e-06
-2e-06
-2e-06
-2e-06
-2e-06
-2e-06
-2e-06
-2e-06
-2e-06
-2e-06
-2e-06
-2e-06
-2e-06
-2e-06
-2e-06
-2e-06
-2e-06
-2e-06
-2e-06
-2e-06
-2e-06
-2e-06
-2e-06
-2e-06
-2e-06
-2e-06
-2e-06
-2e-06
-1e-06
2e-06
1e-19
1e-06
2e-06
2e-06
2e-06
2e-06
2e-06
2e-06
2e-06
2e-06
2e-06
2e-06
2e-06
2e-06
2e-06
2e-06
2e-06
2e-06
2e-06
2e-06
2e-06
2e-06
2e-06
2e-06
2e-06
2e-06
2e-06
2e-06
2e-06
2e-06
2e-06
2e-06
2e-06
2e-06
2e-06
2e-06
2e-06
2e-06
2e-06
2e-06
2e-06
2e-06
2e-06
2e-06
2e-06
2e-06
2e-06
2e-06
2e-06
2e-06
2e-06
2e-06
2e-06
2e-06
2e-06
2e-06
2e-06
2e-06
2e-06
2e-06
2e-06
2e-06
2e-06
2e-06
2e-06
2e-06
2e-06
2e-06
2e-06
2e-06
2e-06
2e-06
2e-06
2e-06
2e-06
2e-06
2e-06
2e-06
2e-06
2e-06
2e-06
1e-06
8e-07
4e-07
2e-17
-4e-07
-8e-07
-1e-06
-2e-06
-4e-19
-5e-20
2e-19
1e-19
1e-19
1e-19
-9e-20
-2e-20
-3e-19
1e-06
7e-07
5e-07
2e-07
-8e-17
-2e-07
-5e-07
-7e-07
-1e-06
1e-06
1e-06
7e-07
4e-07
-1e-16
-4e-07
-7e-07
-1e-06
-1e-06
2e-06
1e-06
8e-07
4e-07
-1e-16
-4e-07
-8e-07
-1e-06
-2e-06
2e-06
1e-06
8e-07
4e-07
-1e-16
-4e-07
-8e-07
-1e-06
-2e-06
2e-06
1e-06
8e-07
4e-07
-1e-16
-4e-07
-8e-07
-1e-06
-2e-06
2e-06
1e-06
8e-07
4e-07
-8e-17
-4e-07
-8e-07
-1e-06
-2e-06
2e-06
1e-06
8e-07
4e-07
-7e-17
-4e-07
-8e-07
-1e-06
-2e-06
2e-06
1e-06
8e-07
4e-07
-5e-17
-4e-07
-8e-07
-1e-06
-2e-06
2e-06
1e-06
8e-07
4e-07
-4e-17
-4e-07
-8e-07
-1e-06
-2e-06
2e-06
1e-06
8e-07
4e-07
-3e-17
-4e-07
-8e-07
-1e-06
-2e-06
2e-06
1e-06
8e-07
4e-07
-3e-17
-4e-07
-8e-07
-1e-06
-2e-06
2e-06
1e-06
8e-07
4e-07
-2e-17
-4e-07
-8e-07
-1e-06
-2e-06
2e-06
1e-06
8e-07
4e-07
-1e-17
-4e-07
-8e-07
-1e-06
-2e-06
2e-06
1e-06
8e-07
4e-07
-7e-18
-4e-07
-8e-07
-1e-06
-2e-06
2e-06
1e-06
8e-07
4e-07
-2e-18
-4e-07
-8e-07
-1e-06
-2e-06
2e-06
1e-06
8e-07
4e-07
2e-18
-4e-07
-8e-07
-1e-06
-2e-06
2e-06
1e-06
8e-07
4e-07
5e-18
-4e-07
-8e-07
-1e-06
-2e-06
2e-06
1e-06
8e-07
4e-07
8e-18
-4e-07
-8e-07
-1e-06
-2e-06
2e-06
1e-06
8e-07
4e-07
1e-17
-4e-07
-8e-07
-1e-06
-2e-06
2e-06
1e-06
8e-07
4e-07
1e-17
-4e-07
-8e-07
-1e-06
-2e-06
2e-06
1e-06
8e-07
4e-07
1e-17
-4e-07
-8e-07
-1e-06
-2e-06
2e-06
1e-06
8e-07
4e-07
2e-17
-4e-07
-8e-07
-1e-06
-2e-06
2e-06
1e-06
8e-07
4e-07
2e-17
-4e-07
-8e-07
-1e-06
-2e-06
2e-06
1e-06
8e-07
4e-07
2e-17
-4e-07
-8e-07
-1e-06
-2e-06
2e-06
1e-06
8e-07
4e-07
2e-17
-4e-07
-8e-07
-1e-06
-2e-06
2e-06
1e-06
8e-07
4e-07
2e-17
-4e-07
-8e-07
-1e-06
-2e-06
2e-06
1e-06
8e-07
4e-07
2e-17
-4e-07
-8e-07
-1e-06
-2e-06
2e-06
1e-06
8e-07
4e-07
2e-17
-4e-07
-8e-07
-1e-06
-2e-06
2e-06
1e-06
8e-07
4e-07
2e-17
-4e-07
-8e-07
-1e-06
-2e-06
2e-06
1e-06
8e-07
4e-07
2e-17
-4e-07
-8e-07
-1e-06
-2e-06
2e-06
1e-06
8e-07
4e-07
2e-17
-4e-07
-8e-07
-1e-06
-2e-06
2e-06
1e-06
8e-07
4e-07
2e-17
-4e-07
-8e-07
-1e-06
-2e-06
2e-06
1e-06
8e-07
4e-07
2e-17
-4e-07
-8e-07
-1e-06
-2e-06
2e-06
1e-06
8e-07
4e-07
2e-17
-4e-07
-8e-07
-1e-06
-2e-06
2e-06
1e-06
8e-07
4e-07
2e-17
-4e-07
-8e-07
-1e-06
-2e-06
2e-06
1e-06
8e-07
4e-07
2e-17
-4e-07
-8e-07
-1e-06
-2e-06
2e-06
1e-06
8e-07
4e-07
2e-17
-4e-07
-8e-07
-1e-06
-2e-06
2e-06
1e-06
8e-07
4e-07
2e-17
-4e-07
-8e-07
-1e-06
-2e-06
2e-06
1e-06
8e-07
4e-07
2e-17
-4e-07
-8e-07
-1e-06
-2e-06
2e-06
1e-06
8e-07
4e-07
2e-17
-4e-07
-8e-07
-1e-06
-2e-06
2e-06
1e-06
8e-07
4e-07
2e-17
-4e-07
-8e-07
-1e-06
-2e-06
2e-06
1e-06
8e-07
4e-07
2e-17
-4e-07
-8e-07
-1e-06
-2e-06
2e-06
1e-06
8e-07
4e-07
2e-17
-4e-07
-8e-07
-1e-06
-2e-06
2e-06
1e-06
8e-07
4e-07
2e-17
-4e-07
-8e-07
-1e-06
-2e-06
2e-06
1e-06
8e-07
4e-07
2e-17
-4e-07
-8e-07
-1e-06
-2e-06
2e-06
1e-06
8e-07
4e-07
2e-17
-4e-07
-8e-07
-1e-06
-2e-06
2e-06
1e-06
8e-07
4e-07
2e-17
-4e-07
-8e-07
-1e-06
-2e-06
2e-06
1e-06
8e-07
4e-07
2e-17
-4e-07
-8e-07
-1e-06
-2e-06
2e-06
1e-06
8e-07
4e-07
2e-17
-4e-07
-8e-07
-1e-06
-2e-06
2e-06
1e-06
8e-07
4e-07
2e-17
-4e-07
-8e-07
-1e-06
-2e-06
2e-06
1e-06
8e-07
4e-07
2e-17
-4e-07
-8e-07
-1e-06
-2e-06
2e-06
1e-06
8e-07
4e-07
2e-17
-4e-07
-8e-07
-1e-06
-2e-06
2e-06
1e-06
8e-07
4e-07
2e-17
-4e-07
-8e-07
-1e-06
-2e-06
2e-06
1e-06
8e-07
4e-07
2e-17
-4e-07
-8e-07
-1e-06
-2e-06
2e-06
1e-06
8e-07
4e-07
2e-17
-4e-07
-8e-07
-1e-06
-2e-06
2e-06
1e-06
8e-07
4e-07
2e-17
-4e-07
-8e-07
-1e-06
-2e-06
2e-06
1e-06
8e-07
4e-07
2e-17
-4e-07
-8e-07
-1e-06
-2e-06
2e-06
1e-06
8e-07
4e-07
2e-17
-4e-07
-8e-07
-1e-06
-2e-06
2e-06
1e-06
8e-07
4e-07
2e-17
-4e-07
-8e-07
-1e-06
-2e-06
2e-06
1e-06
8e-07
4e-07
2e-17
-4e-07
-8e-07
-1e-06
-2e-06
2e-06
1e-06
8e-07
4e-07
2e-17
-4e-07
-8e-07
-1e-06
-2e-06
2e-06
1e-06
8e-07
4e-07
2e-17
-4e-07
-8e-07
-1e-06
-2e-06
2e-06
1e-06
8e-07
4e-07
2e-17
-4e-07
-8e-07
-1e-06
-2e-06
2e-06
1e-06
8e-07
4e-07
2e-17
-4e-07
-8e-07
-1e-06
-2e-06
2e-06
1e-06
8e-07
4e-07
2e-17
-4e-07
-8e-07
-1e-06
-2e-06
2e-06
1e-06
8e-07
4e-07
2e-17
-4e-07
-8e-07
-1e-06
-2e-06
2e-06
1e-06
8e-07
4e-07
2e-17
-4e-07
-8e-07
-1e-06
-2e-06
2e-06
1e-06
8e-07
4e-07
2e-17
-4e-07
-8e-07
-1e-06
-2e-06
2e-06
1e-06
8e-07
4e-07
2e-17
-4e-07
-8e-07
-1e-06
-2e-06
2e-06
1e-06
8e-07
4e-07
2e-17
-4e-07
-8e-07
-1e-06
-2e-06
2e-06
1e-06
8e-07
4e-07
2e-17
-4e-07
-8e-07
-1e-06
-2e-06
2e-06
1e-06
8e-07
4e-07
2e-17
-4e-07
-8e-07
-1e-06
-2e-06
2e-06
1e-06
8e-07
4e-07
2e-17
-4e-07
-8e-07
-1e-06
-2e-06
2e-06
1e-06
8e-07
4e-07
2e-17
-4e-07
-8e-07
-1e-06
-2e-06
2e-06
1e-06
8e-07
4e-07
2e-17
-4e-07
-8e-07
-1e-06
-2e-06
2e-06
1e-06
8e-07
4e-07
2e-17
-4e-07
-8e-07
-1e-06
-2e-06
2e-06
1e-06
8e-07
4e-07
2e-17
-4e-07
-8e-07
-1e-06
-2e-06
2e-06
1e-06
8e-07
4e-07
2e-17
-4e-07
-8e-07
-1e-06
-2e-06
2e-06
1e-06
8e-07
4e-07
2e-17
-4e-07
-8e-07
-1e-06
-2e-06
SCALARS u2 float
LOOKUP_TABLE default
-6e-20
-0.0005
-0.0005
-0.0005
-0.0005
-0.0005
-0.0005
-0.0005
-0.0005
-0.0004
-0.0004
-0.0004
-0.0004
-0.0004
-0.0004
-0.0004
-0.0004
-0.0004
-0.0004
-0.0004
-0.0004
-0.0004
-0.0004
-0.0004
-0.0004
-0.0003
-0.0003
-0.0003
-0.0003
-0.0003
-0.0003
-0.0003
-0.0003
-0.0003
-0.0003
-0.0003
-0.0003
-0.0003
-0.0003
-0.0003
-0.0003
-0.0002
-0.0002
-0.0002
-0.0002
-0.0002
-0.0002
-0.0002
-0.0002
-0.0002
-0.0002
-0.0002
-0.0002
-0.0002
-0.0002
-0.0002
-0.0002
-0.0001
-0.0001
-0.0001
-0.0001
-0.0001
-0.0001
-0.0001
-0.0001
-0.0001
-9e-05
-9e-05
-8e-05
-7e-05
-7e-05
-6e-05
-6e-05
-5e-05
-4e-05
-4e-05
-3e-05
-2e-05
-2e-05
-1e-05
-7e-06
-0.0005
-3e-21
-7e-06
-1e-05
-2e-05
-2e-05
-3e-05
-4e-05
-4e-05
-5e-05
-6e-05
-6e-05
-7e-05
-7e-05
-8e-05
-9e-05
-9e-05
-0.0001
-0.0001
-0.0001
-0.0001
-0.0001
-0.0001
-0.0001
-0.0001
-0.0001
-0.0002
-0.0002
-0.0002
-0.0002
-0.0002
-0.0002
-0.0002
-0.0002
-0.0002
-0.0002
-0.0002
-0.0002
-0.0002
-0.0002
-0.0002
-0.0002
-0.0003
-0.0003
-0.0003
-0.0003
-0.0003
-0.0003
-0.0003
-0.0003
-0.0003
-0.0003
-0.0003
-0.0003
-0.0003
-0.0003
-0.0003
-0.0003
-0.0004
-0.0004
-0.0004
-0.0004
-0.0004
-0.0004
-0.0004
-0.0004
-0.0004
-0.0004
-0.0004
-0.0004
-0.0004
-0.0004
-0.0004
-0.0004
-0.0005
-0.0005
-0.0005
-0.0005
-0.0005
-0.0005
-0.0005
-0.0005
-0.0005
-0.0005
-0.0005
-0.0005
-0.0005
-0.0005
-0.0005
-0.0005
6e-19
5e-20
2e-19
-5e-20
7e-19
-1e-19
3e-19
3e-19
-7e-19
-6e-06
-6e-06
-6e-06
-6e-06
-6e-06
-6e-06
-6e-06
-6e-06
-6e-06
-1e-05
-1e-05
-1e-05
-1e-05
-1e-05
-1e-05
-1e-05
-1e-05
-1e-05
-2e-05
-2e-05
-2e-05
-2e-05
-2e-05
-2e-05
-2e-05
-2e-05
-2e-05
-2e-05
-2e-05
-2e-05
-2e-05
-2e-05
-2e-05
-2e-05
-2e-05
-2e-05
-3e-05
-3e-05
-3e-05
-3e-05
-3e-05
-3e-05
-3e-05
-3e-05
-3e-05
-4e-05
-4e-05
-4e-05
-4e-05
-4e-05
-4e-05
-4e-05
-4e-05
-4e-05
-4e-05
-4e-05
-4e-05
-4e-05
-4e-05
-4e-05
-4e-05
-4e-05
-4e-05
-5e-05
-5e-05
-5e-05
-5e-05
-5e-05
-5e-05
-5e-05
-5e-05
-5e-05
-6e-05
-6e-05
-6e-05
-6e-05
-6e-05
-6e-05
-6e-05
-6e-05
-6e-05
-6e-05
-6e-05
-6e-05
-6e-05
-6e-05
-6e-05
-6e-05
-6e-05
-6e-05
-7e-05
-7e-05
-7e-05
-7e-05
-7e-05
-7e-05
-7e-05
-7e-05
-7e-05
-7e-05
-7e-05
-7e-05
-7e-05
-7e-05
-7e-05
-7e-05
-7e-05
-7e-05
-8e-05
-8e-05
-8e-05
-8e-05
-8e-05
-8e-05
-8e-05
-8e-05
-8e-05
-9e-05
-9e-05
-9e-05
-9e-05
-9e-05
-9e-05
-9e-05
-9e-05
-9e-05
-9e-05
-9e-05
-9e-05
-9e-05
-9e-05
-9e-05
-9e-05
-9e-05
-9e-05
-0.0001
-0.0001
-0.0001
-0.0001
-0.0001
-0.0001
-0.0001
-0.0001
-0.0001
-0.0001
-0.0001
-0.0001
-0.0001
-0.0001
-0.0001
-0.0001
-0.0001
-0.0001
-0.0001
-0.0001
-0.0001
-0.0001
-0.0001
-0.0001
-0.0001
-0.0001
-0.0001
-0.0001
-0.0001
-0.0001
-0.0001
-0.0001
-0.0001
-0.0001
-0.0001
-0.0001
-0.0001
-0.0001
-0.0001
-0.0001
-0.0001
-0.0001
-0.0001
-0.0001
-0.0001
-0.0001
-0.0001
-0.0001
-0.0001
-0.0001
-0.0001
-0.0001
-0.0001
-0.0001
-0.0001
-0.0001
-0.0001
-0.0001
-0.0001
-0.0001
-0.0001
-0.0001
-0.0001
-0.0001
-0.0001
-0.0001
-0.0001
-0.0001
-0.0001
-0.0001
-0.0001
-0.0001
-0.0001
-0.0001
-0.0001
-0.0001
-0.0001
-0.0001
-0.0001
-0.0001
-0.0001
-0.0002
-0.0002
-0.0002
-0.0002
-0.0002
-0.0002
-0.0002
-0.0002
-0.0002
-0.0002
-0.0002
-0.0002
-0.0002
-0.0002
-0.0002
-0.0002
-0.0002
-0.0002
-0.0002
-0.0002
-0.0002
-0.0002
-0.0002
-0.0002
-0.0002
-0.0002
-0.0002
-0.0002
-0.0002
-0.0002
-0.0002
-0.0002
-0.0002
-0.0002
-0.0002
-0.0002
-0.0002
-0.0002
-0.0002
-0.0002
-0.0002
-0.0002
-0.0002
-0.0002
-0.0002
-0.0002
-0.0002
-0.0002
-0.0002
-0.0002
-0.0002
-0.0002
-0.0002
-0.0002
-0.0002
-0.0002
-0.0002
-0.0002
-0.0002
-0.0002
-0.0002
-0.0002
-0.0002
-0.0002
-0.0002
-0.0002
-0.0002
-0.0002
-0.0002
-0.0002
-0.0002
-0.0002
-0.0002
-0.0002
-0.0002
-0.0002
-0.0002
-0.0002
-0.0002
-0.0002
-0.0002
-0.0002
-0.0002
-0.0002
-0.0002
-0.0002
-0.0002
-0.0002
-0.0002
-0.0002
-0.0002
-0.0002
-0.0002
-0.0002
-0.0002
-0.0002
-0.0002
-0.0002
-0.0002
-0.0002
-0.0002
-0.0002
-0.0002
-0.0002
-0.0002
-0.0002
-0.0002
-0.0002
-0.0002
-0.0002
-0.0002
-0.0002
-0.0002
-0.0002
-0.0002
-0.0002
-0.0002
-0.0002
-0.0002
-0.0002
-0.0002
-0.0002
-0.0002
-0.0002
-0.0002
-0.0002
-0.0002
-0.0002
-0.0002
-0.0002
-0.0002
-0.0002
-0.0002
-0.0002
-0.0002
-0.0002
-0.0002
-0.0002
-0.0002
-0.0002
-0.0002
-0.0002
-0.0002
-0.0002
-0.0003
-0.0003
-0.0003
-0.0003
-0.0003
-0.0003
-0.0003
-0.0003
-0.0003
-0.0003
-0.0003
-0.0003
-0.0003
-0.0003
-0.0003
-0.0003
-0.0003
-0.0003
-0.0003
-0.0003
-0.0003
-0.0003
-0.0003
-0.0003
-0.0003
-0.0003
-0.0003
-0.0003
-0.0003
-0.0003
-0.0003
-0.0003
-0.0003
-0.0003
-0.0003
-0.0003
-0.0003
-0.0003
-0.0003
-0.0003
-0.0003
-0.0003
-0.0003
-0.0003
-0.0003
-0.0003
-0.0003
-0.0003
-0.0003
-0.0003
-0.0003
-0.0003
-0.0003
-0.0003
-0.0003
-0.0003
-0.0003
-0.0003
-0.0003
-0.0003
-0.0003
-0.0003
-0.0003
-0.0003
-0.0003
-0.0003
-0.0003
-0.0003
-0.0003
-0.0003
-0.0003
-0.0003
-0.0003
-0.0003
-0.0003
-0.0003
-0.0003
-0.0003
-0.0003
-0.0003
-0.0003
-0.0003
-0.0003
-0.0003
-0.0003
-0.0003
-0.0003
-0.0003
-0.0003
-0.0003
-0.0003
-0.0003
-0.0003
-0.0003
-0.0003
-0.0003
-0.0003
-0.0003
-0.0003
-0.0003
-0.0003
-0.0003
-0.0003
-0.0003
-0.0003
-0.0003
-0.0003
-0.0003
-0.0003
-0.0003
-0.0003
-0.0003
-0.0003
-0.0003
-0.0003
-0.0003
-0.0003
-0.0003
-0.0003
-0.0003
-0.0003
-0.0003
-0.0003
-0.0003
-0.0003
-0.0003
-0.0003
-0.0003
-0.0003
-0.0003
-0.0003
-0.0003
-0.0003
-0.0003
-0.0003
-0.0003
-0.0003
-0.0003
-0.0003
-0.0003
-0.0003
-0.0003
-0.0003
-0.0003
-0.0004
-0.0004
-0.0004
-0.0004
-0.0004
-0.0004
-0.0004
-0.0004
-0.0004
-0.0004
-0.0004
-0.0004
-0.0004
-0.0004
-0.0004
-0.0004
-0.0004
-0.0004
-0.0004
-0.0004
-0.0004
-0.0004
-0.0004
-0.0004
-0.0004
-0.0004
-0.0004
-0.0004
-0.0004
-0.0004
-0.0004
-0.0004
-0.0004
-0.0004
-0.0004
-0.0004
-0.0004
-0.0004
-0.0004
-0.0004
-0.0004
-0.0004
-0.0004
-0.0004
-0.0004
-0.0004
-0.0004
-0.0004
-0.0004
-0.0004
-0.0004
-0.0004
-0.0004
-0.0004
-0.0004
-0.0004
-0.0004
-0.0004
-0.0004
-0.0004
-0.0004
-0.0004
-0.0004
-0.0004
-0.0004
-0.0004
-0.0004
-0.0004
-0.0004
-0.0004
-0.0004
-0.0004
-0.0004
-0.0004
-0.0004
-0.0004
-0.0004
-0.0004
-0.0004
-0.0004
-0.0004
-0.0004
-0.0004
-0.0004
-0.0004
-0.0004
-0.0004
-0.0004
-0.0004
-0.0004
-0.0004
-0.0004
-0.0004
-0.0004
-0.0004
-0.0004
-0.0004
-0.0004
-0.0004
-0.0004
-0.0004
-0.0004
-0.0004
-0.0004
-0.0004
-0.0004
-0.0004
-0.0004
-0.0004
-0.0004
-0.0004
-0.0004
-0.0004
-0.0004
-0.0004
-0.0004
-0.0004
-0.0004
-0.0004
-0.0004
-0.0004
-0.0004
-0.0004
-0.0004
-0.0004
-0.0004
-0.0004
-0.0004
-0.0004
-0.0004
-0.0004
-0.0004
-0.0004
-0.0004
-0.0004
-0.0004
-0.0004
-0.0004
-0.0004
-0.0004
-0.0004
-0.0004
-0.0004
-0.0004
-0.0005
-0.0005
-0.0005
-0.0005
-0.0005
-0.0005
-0.0005
-0.0005
-0.0005
-0.0005
-0.0005
-0.0005
-0.0005
-0.0005
-0.0005
-0.0005
-0.0005
-0.0005
-0.0005
-0.0005
-0.0005
-0.0005
-0.0005
-0.0005
-0.0005
-0.0005
-0.0005
-0.0005
-0.0005
-0.0005
-0.0005
-0.0005
-0.0005
-0.0005
-0.0005
-0.0005
-0.0005
-0.0005
-0.0005
-0.0005
-0.0005
-0.0005
-0.0005
-0.0005
-0.0005
-0.0005
-0.0005
-0.0005
-0.0005
-0.0005
-0.0005
-0.0005
-0.0005
-0.0005
-0.0005
-0.0005
-0.0005
-0.0005
-0.0005
-0.0005
-0.0005
-0.0005
-0.0005
SCALARS strain_1 float
LOOKUP_TABLE default
-0.000138
-0.220393
-0.217061
-0.213711
-0.210346
-0.206965
-0.203570
-0.200162
-0.196740
-0.193307
-0.189863
-0.186408
-0.182945
-0.179474
-0.175995
-0.172510
-0.169021
-0.165527
-0.162032
-0.158534
-0.155037
-0.151540
-0.148046
-0.144556
-0.141071
-0.137592
-0.134121
-0.130660
-0.127209
-0.123770
-0.120347
-0.116938
-0.113546
-0.110173
-0.106819
-0.103488
-0.100181
-0.096899
-0.093643
-0.090415
-0.087218
-0.084053
-0.080922
-0.077825
-0.074766
-0.071745
-0.068764
-0.065825
-0.062931
-0.060081
-0.057279
-0.054524
-0.051819
-0.049167
-0.046566
-0.044020
-0.041530
-0.039096
-0.036722
-0.034406
-0.032152
-0.029959
-0.027829
-0.025763
-0.023762
-0.021827
-0.019958
-0.018156
-0.016422
-0.014756
-0.013159
-0.011630
-0.010171
-0.008781
-0.007460
-0.006209
-0.005026
-0.003914
-0.002868
-0.001891
-0.000982
-0.220589
-0.000005
-0.000851
-0.001763
-0.002743
-0.003790
-0.004907
-0.006092
-0.007347
-0.008671
-0.010065
-0.011527
-0.013060
-0.014661
-0.016331
-0.018069
-0.019876
-0.021748
-0.023688
-0.025693
-0.027764
-0.029898
-0.032096
-0.034355
-0.036675
-0.039055
-0.041493
-0.043989
-0.046539
-0.049144
-0.051802
-0.054513
-0.057272
-0.060081
-0.062935
-0.065834
-0.068778
-0.071765
-0.074790
-0.077855
-0.080956
-0.084093
-0.087262
-0.090465
-0.093697
-0.096958
-0.100246
-0.103558
-0.106893
-0.110252
-0.113630
-0.117026
-0.120440
-0.123869
-0.127312
-0.130767
-0.134233
-0.137707
-0.141190
-0.144680
-0.148174
-0.151672
-0.155172
-0.158675
-0.162175
-0.165675
-0.169172
-0.172665
-0.176153
-0.179636
-0.183110
-0.186578
-0.190034
-0.193482
-0.196918
-0.200343
-0.203754
-0.207152
-0.210535
-0.213903
-0.217254
-0.220571
-0.220552
-0.220533
-0.220513
-0.220495
-0.220475
-0.220455
-0.220434
-0.220414
-0.000112
-0.000089
-0.000067
-0.000050
-0.000036
-0.000023
-0.000015
-0.000008
-0.000006
-0.000851
-0.000853
-0.000859
-0.000868
-0.000880
-0.000894
-0.000912
-0.000932
-0.000955
-0.001762
-0.001766
-0.001771
-0.001779
-0.001790
-0.001805
-0.001822
-0.001843
-0.001864
-0.002742
-0.002744
-0.002750
-0.002758
-0.002768
-0.002783
-0.002800
-0.002819
-0.002842
-0.003790
-0.003792
-0.003796
-0.003804
-0.003814
-0.003829
-0.003846
-0.003865
-0.003887
-0.004905
-0.004907
-0.004912
-0.004919
-0.004930
-0.004944
-0.004959
-0.004979
-0.005002
-0.006091
-0.006092
-0.006096
-0.006104
-0.006114
-0.006128
-0.006143
-0.006162
-0.006184
-0.007345
-0.007346
-0.007350
-0.007357
-0.007367
-0.007379
-0.007396
-0.007414
-0.007436
-0.008669
-0.008669
-0.008673
-0.008680
-0.008688
-0.008701
-0.008716
-0.008736
-0.008757
-0.010062
-0.010062
-0.010065
-0.010072
-0.010080
-0.010092
-0.010109
-0.010126
-0.010146
-0.011525
-0.011524
-0.011526
-0.011533
-0.011542
-0.011554
-0.011568
-0.011586
-0.011607
-0.013056
-0.013056
-0.013058
-0.013064
-0.013073
-0.013084
-0.013098
-0.013115
-0.013136
-0.014657
-0.014656
-0.014659
-0.014664
-0.014672
-0.014682
-0.014696
-0.014713
-0.014733
-0.016327
-0.016325
-0.016328
-0.016332
-0.016340
-0.016351
-0.016364
-0.016380
-0.016399
-0.018065
-0.018063
-0.018064
-0.018069
-0.018076
-0.018086
-0.018099
-0.018116
-0.018134
-0.019870
-0.019868
-0.019869
-0.019874
-0.019880
-0.019890
-0.019903
-0.019918
-0.019937
-0.021743
-0.021741
-0.021742
-0.021745
-0.021752
-0.021761
-0.021774
-0.021788
-0.021806
-0.023682
-0.023680
-0.023680
-0.023683
-0.023689
-0.023698
-0.023709
-0.023724
-0.023742
-0.025687
-0.025685
-0.025684
-0.025687
-0.025693
-0.025701
-0.025712
-0.025727
-0.025744
-0.027758
-0.027754
-0.027754
-0.027756
-0.027761
-0.027769
-0.027780
-0.027794
-0.027810
-0.029891
-0.029888
-0.029887
-0.029888
-0.029894
-0.029901
-0.029911
-0.029924
-0.029941
-0.032089
-0.032084
-0.032084
-0.032085
-0.032089
-0.032096
-0.032106
-0.032119
-0.032134
-0.034348
-0.034343
-0.034340
-0.034342
-0.034346
-0.034353
-0.034362
-0.034374
-0.034389
-0.036667
-0.036662
-0.036660
-0.036661
-0.036664
-0.036670
-0.036679
-0.036691
-0.036705
-0.039046
-0.039042
-0.039039
-0.039039
-0.039042
-0.039048
-0.039056
-0.039066
-0.039080
-0.041485
-0.041478
-0.041476
-0.041476
-0.041478
-0.041483
-0.041491
-0.041501
-0.041515
-0.043980
-0.043974
-0.043971
-0.043970
-0.043972
-0.043976
-0.043983
-0.043993
-0.044005
-0.046530
-0.046523
-0.046520
-0.046520
-0.046520
-0.046524
-0.046531
-0.046540
-0.046552
-0.049135
-0.049129
-0.049124
-0.049123
-0.049124
-0.049128
-0.049134
-0.049142
-0.049152
-0.051793
-0.051787
-0.051781
-0.051780
-0.051780
-0.051783
-0.051788
-0.051796
-0.051807
-0.054503
-0.054495
-0.054490
-0.054488
-0.054487
-0.054491
-0.054496
-0.054503
-0.054512
-0.057262
-0.057255
-0.057249
-0.057246
-0.057245
-0.057248
-0.057252
-0.057259
-0.057268
-0.060070
-0.060062
-0.060057
-0.060052
-0.060051
-0.060053
-0.060057
-0.060063
-0.060071
-0.062924
-0.062916
-0.062910
-0.062907
-0.062905
-0.062906
-0.062909
-0.062913
-0.062921
-0.065824
-0.065816
-0.065809
-0.065804
-0.065803
-0.065803
-0.065806
-0.065810
-0.065816
-0.068767
-0.068758
-0.068751
-0.068747
-0.068745
-0.068744
-0.068746
-0.068750
-0.068757
-0.071752
-0.071744
-0.071737
-0.071732
-0.071729
-0.071727
-0.071729
-0.071732
-0.071738
-0.074779
-0.074768
-0.074762
-0.074756
-0.074752
-0.074751
-0.074751
-0.074755
-0.074759
-0.077843
-0.077832
-0.077825
-0.077819
-0.077815
-0.077813
-0.077813
-0.077815
-0.077819
-0.080944
-0.080934
-0.080925
-0.080919
-0.080914
-0.080911
-0.080911
-0.080913
-0.080915
-0.084080
-0.084070
-0.084061
-0.084055
-0.084049
-0.084046
-0.084045
-0.084046
-0.084049
-0.087250
-0.087240
-0.087230
-0.087223
-0.087217
-0.087214
-0.087212
-0.087212
-0.087214
-0.090451
-0.090441
-0.090432
-0.090424
-0.090418
-0.090414
-0.090411
-0.090411
-0.090413
-0.093684
-0.093672
-0.093663
-0.093655
-0.093649
-0.093643
-0.093641
-0.093640
-0.093640
-0.096944
-0.096933
-0.096923
-0.096915
-0.096908
-0.096902
-0.096899
-0.096896
-0.096897
-0.100232
-0.100220
-0.100209
-0.100200
-0.100193
-0.100188
-0.100183
-0.100181
-0.100179
-0.103544
-0.103532
-0.103521
-0.103512
-0.103504
-0.103498
-0.103493
-0.103490
-0.103488
-0.106880
-0.106868
-0.106856
-0.106846
-0.106838
-0.106832
-0.106826
-0.106823
-0.106821
-0.110238
-0.110225
-0.110213
-0.110203
-0.110194
-0.110187
-0.110182
-0.110177
-0.110173
-0.113616
-0.113603
-0.113591
-0.113580
-0.113571
-0.113563
-0.113557
-0.113552
-0.113548
-0.117012
-0.116999
-0.116986
-0.116976
-0.116966
-0.116958
-0.116951
-0.116945
-0.116941
-0.120425
-0.120411
-0.120399
-0.120388
-0.120378
-0.120369
-0.120361
-0.120355
-0.120351
-0.123854
-0.123840
-0.123827
-0.123816
-0.123805
-0.123796
-0.123788
-0.123781
-0.123776
-0.127297
-0.127282
-0.127269
-0.127257
-0.127247
-0.127237
-0.127229
-0.127221
-0.127215
-0.130751
-0.130736
-0.130723
-0.130711
-0.130700
-0.130689
-0.130680
-0.130672
-0.130666
-0.134217
-0.134202
-0.134189
-0.134176
-0.134164
-0.134153
-0.134145
-0.134135
-0.134128
-0.137692
-0.137677
-0.137663
-0.137650
-0.137637
-0.137627
-0.137616
-0.137608
-0.137599
-0.141174
-0.141160
-0.141145
-0.141132
-0.141119
-0.141108
-0.141097
-0.141088
-0.141078
-0.144664
-0.144649
-0.144634
-0.144619
-0.144608
-0.144596
-0.144584
-0.144574
-0.144565
-0.148158
-0.148143
-0.148127
-0.148114
-0.148100
-0.148088
-0.148077
-0.148065
-0.148055
-0.151656
-0.151640
-0.151625
-0.151610
-0.151597
-0.151585
-0.151572
-0.151561
-0.151550
-0.155155
-0.155140
-0.155125
-0.155111
-0.155096
-0.155083
-0.155071
-0.155058
-0.155048
-0.158658
-0.158641
-0.158626
-0.158611
-0.158597
-0.158583
-0.158569
-0.158557
-0.158546
-0.162158
-0.162142
-0.162126
-0.162111
-0.162096
-0.162083
-0.162069
-0.162056
-0.162043
-0.165658
-0.165642
-0.165626
-0.165610
-0.165595
-0.165581
-0.165566
-0.165553
-0.165540
-0.169156
-0.169138
-0.169122
-0.169106
-0.169091
-0.169076
-0.169061
-0.169047
-0.169034
-0.172648
-0.172631
-0.172615
-0.172598
-0.172583
-0.172568
-0.172552
-0.172538
-0.172524
-0.176136
-0.176119
-0.176102
-0.176086
-0.176070
-0.176054
-0.176039
-0.176024
-0.176009
-0.179618
-0.179601
-0.179584
-0.179566
-0.179550
-0.179535
-0.179519
-0.179504
-0.179489
-0.183092
-0.183076
-0.183058
-0.183041
-0.183024
-0.183009
-0.182992
-0.182976
-0.182961
-0.186559
-0.186542
-0.186525
-0.186507
-0.186491
-0.186473
-0.186457
-0.186441
-0.186425
-0.190016
-0.189998
-0.189982
-0.189964
-0.189947
-0.189929
-0.189913
-0.189896
-0.189879
-0.193464
-0.193446
-0.193428
-0.193411
-0.193394
-0.193376
-0.193358
-0.193342
-0.193325
-0.196900
-0.196882
-0.196864
-0.196847
-0.196829
-0.196811
-0.196793
-0.196776
-0.196758
-0.200324
-0.200306
-0.200289
-0.200270
-0.200251
-0.200234
-0.200216
-0.200198
-0.200180
-0.203735
-0.203717
-0.203699
-0.203681
-0.203663
-0.203643
-0.203627
-0.203607
-0.203589
-0.207134
-0.207115
-0.207096
-0.207078
-0.207059
-0.207041
-0.207022
-0.207003
-0.206984
-0.210516
-0.210497
-0.210480
-0.210460
-0.210442
-0.210423
-0.210404
-0.210385
-0.210365
-0.213884
-0.213866
-0.213847
-0.213828
-0.213809
-0.213790
-0.213771
-0.213751
-0.213731
-0.217235
-0.217217
-0.217198
-0.217180
-0.217160
-0.217140
-0.217121
-0.217101
-0.217081
SCALARS strain_2 float
LOOKUP_TABLE default
0.002540
0.001389
0.001390
0.001386
0.001391
0.001392
0.001390
0.001391
0.001387
0.001390
0.001392
0.001400
0.001394
0.001397
0.001403
0.001401
0.001406
0.001406
0.001409
0.001417
0.001419
0.001423
0.001430
0.001432
0.001440
0.001443
0.001451
0.001453
0.001464
0.001469
0.001476
0.001482
0.001491
0.001499
0.001513
0.001517
0.001528
0.001537
0.001549
0.001562
0.001572
0.001584
0.001599
0.001613
0.001625
0.001643
0.001654
0.001670
0.001687
0.001704
0.001722
0.001742
0.001759
0.001779
0.001797
0.001814
0.001835
0.001863
0.001881
0.001903
0.001922
0.001952
0.001976
0.002001
0.002020
0.002053
0.002077
0.002104
0.002137
0.002164
0.002188
0.002215
0.002249
0.002280
0.002310
0.002340
0.002374
0.002405
0.002440
0.002470
0.002503
0.005201
0.005277
0.005282
0.005282
0.005287
0.005290
0.005296
0.005301
0.005302
0.005306
0.005309
0.005318
0.005315
0.005321
0.005321
0.005325
0.005329
0.005335
0.005334
0.005336
0.005337
0.005339
0.005339
0.005346
0.005347
0.005348
0.005349
0.005355
0.005349
0.005355
0.005352
0.005358
0.005360
0.005357
0.005361
0.005361
0.005356
0.005356
0.005357
0.005361
0.005361
0.005362
0.005358
0.005359
0.005357
0.005354
0.005354
0.005349
0.005352
0.005351
0.005349
0.005347
0.005344
0.005342
0.005338
0.005339
0.005332
0.005332
0.005329
0.005327
0.005322
0.005319
0.005313
0.005309
0.005304
0.005300
0.005298
0.005293
0.005290
0.005282
0.005276
0.005274
0.005263
0.005259
0.005249
0.005246
0.005241
0.005240
0.005227
0.005220
0.005216
0.004828
0.004445
0.004065
0.003681
0.003301
0.002916
0.002538
0.002157
0.001770
0.002816
0.003090
0.003361
0.003638
0.003906
0.004186
0.004458
0.004729
0.005005
0.005003
0.004729
0.004446
0.004170
0.003897
0.003617
0.003341
0.003062
0.002785
0.005004
0.004722
0.004437
0.004163
0.003878
0.003596
0.003318
0.003040
0.002755
0.005006
0.004719
0.004436
0.004147
0.003868
0.003582
0.003295
0.003011
0.002724
0.005002
0.004718
0.004427
0.004139
0.003849
0.003564
0.003274
0.002981
0.002695
0.005004
0.004715
0.004421
0.004127
0.003833
0.003546
0.003251
0.002958
0.002664
0.005003
0.004709
0.004411
0.004118
0.003818
0.003524
0.003234
0.002936
0.002638
0.005005
0.004705
0.004408
0.004109
0.003806
0.003509
0.003215
0.002909
0.002610
0.005003
0.004704
0.004399
0.004097
0.003795
0.003493
0.003187
0.002883
0.002582
0.005006
0.004700
0.004392
0.004090
0.003781
0.003475
0.003168
0.002862
0.002554
0.005009
0.004693
0.004386
0.004079
0.003766
0.003454
0.003150
0.002842
0.002529
0.005004
0.004695
0.004379
0.004069
0.003754
0.003442
0.003132
0.002813
0.002503
0.005004
0.004691
0.004370
0.004054
0.003742
0.003425
0.003111
0.002792
0.002476
0.005005
0.004683
0.004363
0.004044
0.003732
0.003407
0.003090
0.002770
0.002450
0.005007
0.004685
0.004361
0.004034
0.003716
0.003390
0.003069
0.002747
0.002429
0.005003
0.004679
0.004354
0.004030
0.003705
0.003383
0.003050
0.002730
0.002403
0.005002
0.004676
0.004348
0.004016
0.003692
0.003365
0.003035
0.002707
0.002381
0.005004
0.004673
0.004345
0.004013
0.003680
0.003350
0.003020
0.002687
0.002358
0.005006
0.004674
0.004337
0.004003
0.003670
0.003338
0.002999
0.002669
0.002332
0.005002
0.004669
0.004333
0.003995
0.003661
0.003319
0.002981
0.002647
0.002309
0.005001
0.004664
0.004325
0.003984
0.003650
0.003309
0.002970
0.002632
0.002289
0.004998
0.004661
0.004319
0.003977
0.003638
0.003292
0.002954
0.002606
0.002272
0.005001
0.004660
0.004316
0.003972
0.003626
0.003280
0.002935
0.002590
0.002248
0.005004
0.004655
0.004306
0.003962
0.003611
0.003268
0.002920
0.002576
0.002226
0.005001
0.004651
0.004303
0.003955
0.003604
0.003254
0.002907
0.002562
0.002206
0.004999
0.004644
0.004300
0.003947
0.003593
0.003241
0.002886
0.002543
0.002186
0.004997
0.004648
0.004291
0.003940
0.003587
0.003231
0.002877
0.002522
0.002169
0.004999
0.004635
0.004288
0.003928
0.003573
0.003219
0.002861
0.002507
0.002156
0.005000
0.004642
0.004282
0.003924
0.003573
0.003210
0.002853
0.002490
0.002131
0.004996
0.004638
0.004273
0.003923
0.003557
0.003198
0.002837
0.002478
0.002115
0.004998
0.004631
0.004274
0.003909
0.003546
0.003184
0.002825
0.002461
0.002101
0.004992
0.004632
0.004267
0.003902
0.003541
0.003178
0.002810
0.002449
0.002082
0.004994
0.004632
0.004263
0.003895
0.003533
0.003167
0.002805
0.002431
0.002067
0.004992
0.004625
0.004257
0.003894
0.003528
0.003158
0.002789
0.002422
0.002058
0.004992
0.004626
0.004258
0.003887
0.003514
0.003144
0.002777
0.002409
0.002045
0.004995
0.004621
0.004248
0.003879
0.003511
0.003141
0.002766
0.002395
0.002030
0.004991
0.004619
0.004243
0.003871
0.003503
0.003132
0.002756
0.002384
0.002011
0.004986
0.004616
0.004244
0.003865
0.003493
0.003118
0.002746
0.002371
0.001995
0.004987
0.004608
0.004236
0.003859
0.003487
0.003112
0.002737
0.002361
0.001983
0.004983
0.004610
0.004230
0.003857
0.003479
0.003101
0.002729
0.002351
0.001973
0.004983
0.004601
0.004228
0.003850
0.003471
0.003093
0.002715
0.002340
0.001963
0.004979
0.004604
0.004226
0.003847
0.003467
0.003082
0.002709
0.002334
0.001947
0.004980
0.004599
0.004221
0.003839
0.003461
0.003080
0.002695
0.002317
0.001943
0.004977
0.004595
0.004217
0.003833
0.003452
0.003072
0.002692
0.002312
0.001930
0.004974
0.004598
0.004210
0.003826
0.003447
0.003066
0.002686
0.002303
0.001920
0.004975
0.004595
0.004206
0.003826
0.003443
0.003059
0.002677
0.002295
0.001910
0.004970
0.004586
0.004204
0.003820
0.003438
0.003050
0.002670
0.002284
0.001899
0.004968
0.004587
0.004198
0.003818
0.003427
0.003048
0.002664
0.002276
0.001889
0.004969
0.004580
0.004198
0.003810
0.003425
0.003039
0.002656
0.002269
0.001882
0.004968
0.004576
0.004192
0.003804
0.003421
0.003036
0.002651
0.002262
0.001876
0.004959
0.004575
0.004188
0.003798
0.003414
0.003028
0.002645
0.002254
0.001870
0.004958
0.004574
0.004187
0.003796
0.003408
0.003024
0.002638
0.002251
0.001862
0.004952
0.004568
0.004178
0.003793
0.003403
0.003018
0.002627
0.002246
0.001854
0.004953
0.004563
0.004175
0.003789
0.003400
0.003013
0.002626
0.002236
0.001849
0.004946
0.004559
0.004175
0.003782
0.003396
0.003007
0.002621
0.002232
0.001841
0.004945
0.004559
0.004171
0.003779
0.003391
0.003002
0.002616
0.002225
0.001838
0.004941
0.004553
0.004164
0.003776
0.003387
0.003001
0.002610
0.002221
0.001832
0.004940
0.004549
0.004159
0.003773
0.003385
0.002994
0.002601
0.002215
0.001829
0.004937
0.004544
0.004156
0.003768
0.003378
0.002987
0.002598
0.002210
0.001821
0.004934
0.004542
0.004154
0.003761
0.003373
0.002984
0.002598
0.002206
0.001817
0.004925
0.004537
0.004147
0.003759
0.003371
0.002980
0.002589
0.002203
0.001812
0.004925
0.004534
0.004144
0.003755
0.003368
0.002976
0.002588
0.002198
0.001809
0.004922
0.004532
0.004142
0.003750
0.003359
0.002975
0.002583
0.002195
0.001806
0.004915
0.004527
0.004137
0.003749
0.003356
0.002972
0.002578
0.002190
0.001801
0.004911
0.004527
0.004131
0.003742
0.003353
0.002964
0.002574
0.002188
0.001794
0.004911
0.004521
0.004128
0.003740
0.003352
0.002963
0.002575
0.002184
0.001793
0.004897
0.004515
0.004125
0.003739
0.003345
0.002961
0.002571
0.002177
0.001792
0.004897
0.004511
0.004124
0.003732
0.003346
0.002954
0.002567
0.002180
0.001793
0.004890
0.004501
0.004117
0.003733
0.003340
0.002950
0.002563
0.002180
0.001783
0.004887
0.004503
0.004113
0.003726
0.003334
0.002949
0.002562
0.002170
0.001786
0.004885
0.004497
0.004108
0.003720
0.003335
0.002945
0.002556
0.002169
0.001781
0.004882
0.004492
0.004105
0.003715
0.003325
0.002943
0.002556
0.002171
0.001779
0.004870
0.004483
0.004097
0.003713
0.003327
0.002938
0.002552
0.002165
0.001779
0.004865
0.004483
0.004094
0.003709
0.003325
0.002935
0.002550
0.002165
0.001781
0.004859
0.004478
0.004089
0.003706
0.003321
0.002932
0.002544
0.002159
0.001773
0.004854
0.004472
0.004087
0.003702
0.003313
0.002933
0.002545
0.002160
0.001773
0.004849
0.004468
0.004079
0.003696
0.003313
0.002929
0.002543
0.002158
0.001778
0.004845
0.004458
0.004076
0.003691
0.003311
0.002925
0.002540
0.002157
0.001771
0.004837
0.004455
0.004070
0.003692
0.003309
0.002921
0.002538
0.002154
0.001772
0.004828
0.004450
0.004069
0.003683
0.003304
0.002917
0.002535
0.002154
0.001771
SCALARS strain_3 float
LOOKUP_TABLE default
0.001122
0.073729
0.072693
0.071646
0.070592
0.069536
0.068473
0.067407
0.066333
0.065258
0.064175
0.063090
0.062003
0.060909
0.059814
0.058718
0.057616
0.056514
0.055407
0.054302
0.053194
0.052087
0.050976
0.049870
0.048760
0.047651
0.046547
0.045442
0.044339
0.043240
0.042141
0.041048
0.039954
0.038869
0.037790
0.036711
0.035643
0.034578
0.033521
0.032472
0.031429
0.030394
0.029371
0.028356
0.027347
0.026354
0.025369
0.024394
0.023432
0.022482
0.021546
0.020625
0.019715
0.018819
0.017941
0.017076
0.016228
0.015395
0.014578
0.013777
0.012998
0.012235
0.011488
0.010764
0.010055
0.009364
0.008695
0.008047
0.007415
0.006804
0.006217
0.005649
0.005101
0.004573
0.004070
0.003587
0.003118
0.002676
0.002256
0.001858
0.001479
0.071855
-0.000594
-0.000252
0.000113
0.000500
0.000907
0.001335
0.001787
0.002259
0.002751
0.003266
0.003802
0.004360
0.004938
0.005538
0.006158
0.006795
0.007457
0.008138
0.008837
0.009554
0.010294
0.011050
0.011824
0.012618
0.013428
0.014252
0.015100
0.015958
0.016834
0.017724
0.018626
0.019547
0.020482
0.021427
0.022385
0.023358
0.024341
0.025335
0.026337
0.027355
0.028377
0.029413
0.030455
0.031502
0.032561
0.033624
0.034696
0.035774
0.036858
0.037941
0.039037
0.040129
0.041234
0.042335
0.043442
0.044548
0.045660
0.046768
0.047884
0.048994
0.050107
0.051220
0.052331
0.053438
0.054552
0.055658
0.056764
0.057867
0.058967
0.060064
0.061156
0.062250
0.063335
0.064416
0.065495
0.066565
0.067636
0.068702
0.069755
0.070811
0.072044
0.072232
0.072420
0.072607
0.072797
0.072982
0.073170
0.073358
0.073541
0.000944
0.000770
0.000594
0.000422
0.000248
0.000080
-0.000092
-0.000259
-0.000427
-0.000083
0.000087
0.000256
0.000430
0.000601
0.000776
0.000949
0.001124
0.001301
0.000284
0.000455
0.000627
0.000800
0.000973
0.001149
0.001325
0.001502
0.001679
0.000670
0.000844
0.001018
0.001191
0.001366
0.001543
0.001720
0.001898
0.002077
0.001080
0.001253
0.001428
0.001603
0.001781
0.001960
0.002138
0.002317
0.002497
0.001511
0.001683
0.001859
0.002038
0.002218
0.002396
0.002576
0.002759
0.002938
0.001962
0.002139
0.002316
0.002496
0.002672
0.002853
0.003037
0.003217
0.003400
0.002435
0.002613
0.002792
0.002972
0.003154
0.003333
0.003517
0.003700
0.003884
0.002928
0.003109
0.003290
0.003471
0.003651
0.003834
0.004016
0.004203
0.004388
0.003445
0.003626
0.003807
0.003991
0.004172
0.004359
0.004539
0.004727
0.004914
0.003984
0.004166
0.004349
0.004529
0.004714
0.004898
0.005085
0.005272
0.005460
0.004544
0.004724
0.004905
0.005091
0.005277
0.005461
0.005650
0.005837
0.006026
0.005119
0.005305
0.005487
0.005677
0.005862
0.006048
0.006236
0.006424
0.006616
0.005721
0.005907
0.006090
0.006279
0.006466
0.006652
0.006842
0.007036
0.007226
0.006342
0.006527
0.006715
0.006901
0.007090
0.007279
0.007472
0.007662
0.007852
0.006983
0.007170
0.007358
0.007545
0.007734
0.007927
0.008117
0.008308
0.008502
0.007644
0.007832
0.008020
0.008211
0.008400
0.008592
0.008784
0.008975
0.009170
0.008323
0.008515
0.008703
0.008893
0.009085
0.009277
0.009471
0.009662
0.009858
0.009026
0.009214
0.009408
0.009597
0.009788
0.009982
0.010174
0.010370
0.010565
0.009747
0.009935
0.010128
0.010319
0.010512
0.010706
0.010899
0.011094
0.011290
0.010483
0.010676
0.010868
0.011060
0.011253
0.011448
0.011644
0.011840
0.012036
0.011240
0.011433
0.011625
0.011819
0.012014
0.012208
0.012405
0.012603
0.012798
0.012016
0.012209
0.012403
0.012597
0.012794
0.012988
0.013186
0.013383
0.013580
0.012808
0.013001
0.013198
0.013392
0.013587
0.013785
0.013984
0.014180
0.014380
0.013619
0.013816
0.014010
0.014205
0.014402
0.014597
0.014798
0.014996
0.015195
0.014448
0.014641
0.014839
0.015033
0.015231
0.015429
0.015628
0.015826
0.016027
0.015292
0.015488
0.015682
0.015878
0.016077
0.016277
0.016476
0.016674
0.016873
0.016154
0.016347
0.016544
0.016742
0.016940
0.017138
0.017339
0.017538
0.017737
0.017028
0.017226
0.017421
0.017621
0.017816
0.018015
0.018215
0.018416
0.018617
0.017920
0.018116
0.018315
0.018512
0.018711
0.018911
0.019110
0.019312
0.019512
0.018825
0.019020
0.019219
0.019419
0.019617
0.019818
0.020018
0.020218
0.020423
0.019745
0.019942
0.020140
0.020338
0.020539
0.020740
0.020940
0.021140
0.021344
0.020680
0.020874
0.021074
0.021274
0.021472
0.021674
0.021877
0.022076
0.022280
0.021625
0.021821
0.022019
0.022222
0.022424
0.022623
0.022827
0.023027
0.023231
0.022583
0.022783
0.022981
0.023180
0.023383
0.023583
0.023787
0.023989
0.024191
0.023556
0.023753
0.023953
0.024152
0.024353
0.024558
0.024758
0.024961
0.025163
0.024539
0.024737
0.024936
0.025138
0.025338
0.025540
0.025742
0.025946
0.026149
0.025532
0.025730
0.025932
0.026132
0.026332
0.026536
0.026738
0.026942
0.027146
0.026537
0.026738
0.026936
0.027138
0.027339
0.027543
0.027743
0.027948
0.028150
0.027553
0.027752
0.027951
0.028153
0.028356
0.028556
0.028760
0.028962
0.029168
0.028576
0.028778
0.028978
0.029180
0.029380
0.029580
0.029784
0.029987
0.030191
0.029610
0.029809
0.030011
0.030213
0.030414
0.030616
0.030818
0.031021
0.031225
0.030653
0.030850
0.031053
0.031254
0.031457
0.031656
0.031860
0.032064
0.032267
0.031702
0.031902
0.032104
0.032305
0.032508
0.032710
0.032913
0.033113
0.033316
0.032763
0.032961
0.033163
0.033362
0.033565
0.033765
0.033970
0.034173
0.034374
0.033826
0.034026
0.034224
0.034426
0.034628
0.034831
0.035034
0.035237
0.035439
0.034897
0.035094
0.035299
0.035499
0.035698
0.035902
0.036104
0.036307
0.036508
0.035972
0.036172
0.036372
0.036577
0.036776
0.036978
0.037180
0.037384
0.037585
0.037056
0.037255
0.037457
0.037657
0.037858
0.038062
0.038262
0.038465
0.038666
0.038143
0.038343
0.038543
0.038743
0.038948
0.039145
0.039349
0.039551
0.039753
0.039238
0.039436
0.039637
0.039836
0.040039
0.040240
0.040441
0.040642
0.040844
0.040333
0.040532
0.040731
0.040932
0.041133
0.041333
0.041535
0.041736
0.041938
0.041431
0.041631
0.041832
0.042031
0.042232
0.042431
0.042634
0.042835
0.043036
0.042536
0.042736
0.042933
0.043132
0.043337
0.043536
0.043736
0.043938
0.044138
0.043641
0.043840
0.044039
0.044237
0.044439
0.044638
0.044840
0.045038
0.045240
0.044747
0.044945
0.045146
0.045346
0.045544
0.045744
0.045943
0.046143
0.046345
0.045856
0.046055
0.046254
0.046453
0.046652
0.046852
0.047053
0.047250
0.047452
0.046969
0.047166
0.047365
0.047564
0.047762
0.047962
0.048163
0.048363
0.048559
0.048080
0.048277
0.048477
0.048676
0.048875
0.049072
0.049270
0.049470
0.049672
0.049192
0.049391
0.049586
0.049786
0.049985
0.050183
0.050382
0.050579
0.050778
0.050303
0.050502
0.050698
0.050896
0.051093
0.051293
0.051490
0.051690
0.051886
0.051417
0.051612
0.051810
0.052006
0.052205
0.052403
0.052601
0.052799
0.052997
0.052529
0.052724
0.052921
0.053119
0.053315
0.053512
0.053710
0.053909
0.054105
0.053638
0.053831
0.054031
0.054229
0.054424
0.054619
0.054818
0.055014
0.055211
0.054746
0.054942
0.055139
0.055334
0.055529
0.055727
0.055924
0.056121
0.056315
0.055852
0.056048
0.056246
0.056440
0.056636
0.056832
0.057029
0.057223
0.057422
0.056960
0.057154
0.057348
0.057545
0.057741
0.057933
0.058129
0.058326
0.058521
0.058063
0.058257
0.058452
0.058644
0.058839
0.059035
0.059231
0.059426
0.059618
0.059161
0.059356
0.059549
0.059744
0.059939
0.060134
0.060326
0.060522
0.060714
0.060258
0.060453
0.060646
0.060840
0.061031
0.061226
0.061422
0.061615
0.061810
0.061351
0.061543
0.061738
0.061933
0.062125
0.062319
0.062512
0.062704
0.062897
0.062440
0.062634
0.062825
0.063018
0.063211
0.063405
0.063597
0.063791
0.063981
0.063527
0.063721
0.063912
0.064104
0.064295
0.064489
0.064678
0.064873
0.065066
0.064607
0.064802
0.064993
0.065184
0.065378
0.065568
0.065758
0.065950
0.066142
0.065687
0.065879
0.066069
0.066259
0.066452
0.066642
0.066834
0.067026
0.067217
0.066760
0.066950
0.067141
0.067332
0.067522
0.067714
0.067902
0.068094
0.068284
0.067828
0.068018
0.068207
0.068397
0.068587
0.068778
0.068967
0.069157
0.069345
0.068890
0.069080
0.069270
0.069457
0.069647
0.069838
0.070025
0.070216
0.070405
0.069947
0.070135
0.070324
0.070514
0.070702
0.070891
0.071079
0.071269
0.071459
0.070998
0.071186
0.071374
0.071564
0.071753
0.071942
0.072126
0.072315
0.072505
SCALARS stress_1 float
LOOKUP_TABLE default
1567.064388
-1645057.635354
-1620161.793014
-1595144.138173
-1570006.545833
-1544756.515992
-1519395.923652
-1493924.518811
-1468371.801471
-1442719.396630
-1416993.866790
-1391185.774449
-1365312.682109
-1339374.027268
-1313387.747428
-1287351.530087
-1261278.812746
-1235174.845406
-1209055.503065
-1182929.035725
-1156792.380884
-1130666.976044
-1104556.758703
-1078475.978863
-1052435.074022
-1026439.856682
-1000503.889341
-974635.359501
-948848.704660
-923158.924820
-897560.582479
-872087.427638
-846738.647798
-821523.555457
-796466.900617
-771563.745776
-746847.653436
-722312.561095
-697973.968755
-673853.376414
-649950.409074
-626292.254233
-602887.474393
-579734.132052
-556861.727212
-534273.384871
-511994.230031
-490027.575190
-468384.857849
-447076.578009
-426114.735668
-405522.018328
-385291.238487
-365448.521147
-346002.616306
-326963.898966
-308339.119125
-290137.964285
-272376.059444
-255050.467104
-238186.937263
-221785.407423
-205847.565082
-190385.285241
-175418.755401
-160930.600560
-146942.883220
-133453.415879
-120472.261039
-107997.356198
-96039.576358
-84594.609017
-73659.829177
-63243.799336
-53354.144496
-43974.739655
-35110.334815
-26761.117474
-18925.087634
-11592.807793
-4762.840452
-1642615.120090
5931.267152
-382.450188
-7193.792529
-14507.447369
-22337.914710
-30677.319550
-39527.911891
-48901.566731
-58794.471572
-69210.563913
-80135.593753
-91577.748594
-103543.528434
-116019.745775
-129009.775615
-142506.242956
-156503.022796
-170999.490137
-185977.582477
-201454.674818
-217408.642158
-233828.109499
-250708.951839
-268047.919180
-285832.824021
-304056.916361
-322702.883702
-341764.163542
-361238.943383
-381104.098223
-401361.878064
-421987.282904
-442971.187745
-464310.155085
-485983.997426
-507986.777266
-530299.057107
-552916.899447
-575818.304288
-599002.271628
-622442.863969
-646142.643810
-670072.736150
-694231.765991
-718600.670831
-743173.950672
-767933.605512
-792862.510353
-817959.665193
-843212.070034
-868598.287374
-894112.692215
-919740.159555
-945475.314396
-971292.406736
-997198.874077
-1023175.591418
-1049200.808758
-1075281.776099
-1101399.118439
-1127545.585780
-1153704.303120
-1179874.395461
-1206041.550301
-1232206.767642
-1258334.609982
-1284442.514823
-1310517.669663
-1336541.574504
-1362508.729344
-1388419.259185
-1414261.539025
-1440022.568866
-1465707.598707
-1491299.253547
-1516792.095888
-1542183.875728
-1567469.155569
-1592637.810409
-1617689.090250
-1642865.865367
-1643117.735643
-1643371.605920
-1643616.663696
-1643864.283972
-1644103.716749
-1644346.649525
-1644587.894802
-1644822.952578
2094.434664
2609.492441
3099.987717
3566.982994
4012.790770
4438.973547
4844.093823
5230.214099
5594.334376
-719.195465
-1083.128241
-1470.998518
-1878.118794
-2308.926570
-2751.296847
-3227.104623
-3715.974900
-4230.345176
-7534.537805
-7898.158082
-8291.153358
-8694.398634
-9120.393911
-9573.201687
-10047.759464
-10541.067240
-11055.250017
-14852.567646
-15220.125422
-15604.808199
-16019.115975
-16445.423751
-16900.731528
-17368.476804
-17871.534581
-18385.967357
-22680.034986
-23046.405263
-23440.650539
-23844.020816
-24272.578592
-24727.073868
-25205.131645
-25706.814421
-26222.997198
-31026.752327
-31387.185103
-31779.430380
-32186.113156
-32618.733433
-33076.853709
-33548.536485
-34055.281762
-34571.527038
-39880.094667
-40245.027444
-40632.710220
-41049.267997
-41483.325773
-41934.071049
-42407.878826
-42910.999102
-43429.431879
-49246.937008
-49620.682284
-50009.490061
-50420.110337
-50854.543114
-51309.913390
-51784.721166
-52288.528943
-52810.024219
-59141.341848
-59505.774625
-59898.457401
-60308.140178
-60745.010454
-61201.130731
-61681.251007
-62181.746283
-62707.554060
-69551.184189
-69919.116965
-70309.612242
-70724.232518
-71158.165295
-71615.473071
-72092.843347
-72591.338624
-73118.396400
-80481.089030
-80854.146806
-81240.954582
-81651.637359
-82088.132635
-82543.690412
-83024.685688
-83529.430964
-84048.551241
-91929.806370
-92299.864146
-92689.109423
-93104.104699
-93536.787476
-93990.907752
-94469.778029
-94972.898305
-95497.206081
-103894.898711
-104260.081487
-104652.701763
-105064.072040
-105499.504816
-105956.062593
-106436.682869
-106936.428145
-107453.423422
-116370.741051
-116734.923828
-117127.856604
-117545.226880
-117977.784657
-118432.967433
-118907.025210
-119405.270486
-119929.265762
-129359.895892
-129729.266168
-130116.011444
-130528.319221
-130961.626997
-131419.184774
-131894.742550
-132396.925327
-132914.670603
-142849.925732
-143220.171009
-143614.666285
-144023.724061
-144457.531838
-144910.902114
-145389.147391
-145883.830167
-146403.575443
-156850.518073
-157215.263349
-157607.071126
-158019.691402
-158447.186678
-158900.681955
-159380.802231
-159874.547508
-160390.980284
-171346.860413
-171705.418190
-172096.225966
-172512.283742
-172938.404019
-173397.461795
-173869.457072
-174365.139848
-174877.947625
-186331.640254
-186691.823030
-187090.255807
-187490.876083
-187923.308859
-188374.866636
-188843.986912
-189342.232189
-189852.039965
-201802.232594
-202170.852871
-202555.598147
-202962.968424
-203387.526200
-203838.833976
-204312.954253
-204801.137029
-205311.757306
-217748.074935
-218115.882711
-218508.377988
-218907.498264
-219337.993540
-219781.738817
-220256.734093
-220743.104370
-221248.849646
-234168.979775
-234534.162552
-234923.032828
-235326.778105
-235753.085881
-236200.268657
-236668.701434
-237152.259210
-237662.566987
-251053.822116
-251421.692392
-251798.000169
-252202.932945
-252630.490722
-253072.798498
-253539.793774
-254021.351551
-254529.659327
-268392.664456
-268756.972233
-269141.967509
-269545.150286
-269958.833062
-270407.640838
-270863.761115
-271345.068891
-271852.689168
-286175.506797
-286537.564573
-286920.122350
-287318.055126
-287739.862903
-288180.545679
-288637.853455
-289121.723732
-289623.094008
-304396.599137
-304758.344414
-305139.277190
-305538.647467
-305954.767743
-306395.200520
-306850.508296
-307324.816072
-307821.186349
-323042.878978
-323406.499254
-323782.932031
-324176.989807
-324599.547584
-325033.230360
-325487.413136
-325954.345913
-326457.091189
-342109.908819
-342465.466595
-342840.524371
-343244.082148
-343653.952424
-344086.322701
-344535.567977
-345004.250753
-345495.058530
-361578.876159
-361933.746435
-362310.116712
-362702.611988
-363119.669765
-363544.415041
-363991.347818
-364461.780594
-364946.838370
-381449.031000
-381799.963776
-382173.521552
-382567.266829
-382975.387105
-383403.069882
-383845.815158
-384312.497934
-384791.493211
-401691.060840
-402049.243617
-402417.926393
-402810.359169
-403214.354446
-403644.287222
-404087.407499
-404542.965275
-405019.960551
-422321.903181
-422671.460957
-423043.643733
-423426.014010
-423831.071786
-424257.504563
-424692.312339
-425150.807616
-425628.740392
-443302.933021
-443652.803298
-444022.423574
-444409.606350
-444806.351627
-445226.284403
-445665.654680
-446114.962456
-446588.270233
-464641.775362
-464987.895638
-465357.140915
-465738.011191
-466134.443967
-466556.814244
-466986.559520
-467433.679797
-467901.925073
-486312.742702
-486660.550479
-487030.420755
-487406.666031
-487800.723808
-488215.594084
-488644.089361
-489090.084637
-489548.267414
-508312.710043
-508658.267819
-509024.263096
-509397.445872
-509797.628648
-510202.561425
-510624.556701
-511066.739478
-511525.547254
-530627.989883
-530969.797660
-531333.167936
-531709.975713
-532093.720989
-532500.153765
-532924.086542
-533361.269318
-533809.764595
-553244.394724
-553587.390000
-553937.885277
-554312.818053
-554702.688330
-555103.496106
-555522.053882
-555953.861659
-556400.669435
-576147.112064
-576486.669841
-576843.977617
-577209.722894
-577593.905670
-577994.963446
-578410.708723
-578831.766499
-579284.324276
-599326.454405
-599659.637181
-600017.132458
-600381.815234
-600763.935511
-601155.493287
-601571.363563
-601989.608840
-602429.291616
-622769.671745
-623100.354522
-623451.099798
-623818.157575
-624193.777851
-624589.460628
-624992.330904
-625414.263680
-625847.821457
-646456.826586
-646793.446862
-647141.754639
-647502.437415
-647879.120192
-648265.865468
-648671.735744
-649081.606021
-649512.163797
-670391.043927
-670722.289203
-671070.096979
-671426.029756
-671802.650032
-672188.145309
-672580.390585
-672990.573361
-673414.506138
-694548.261267
-694877.256543
-695216.126820
-695580.747096
-695945.054873
-696326.925149
-696719.170426
-697121.478202
-697545.410978
-718917.853608
-719242.161384
-719585.969160
-719940.714437
-720300.209713
-720683.392490
-721072.887766
-721467.945542
-721885.440819
-743484.320948
-743814.503725
-744154.686501
-744502.744277
-744861.302054
-745244.547330
-745618.855107
-746017.600383
-746425.408159
-768245.600789
-768571.908565
-768903.466341
-769246.649118
-769611.894394
-769978.202171
-770361.197447
-770749.005224
-771155.125500
-793173.380629
-793503.063406
-793835.683682
-794183.678958
-794531.986735
-794896.544511
-795274.289788
-795658.785064
-796062.655340
-818277.222970
-818593.843246
-818923.713523
-819265.896299
-819619.516575
-819973.574352
-820349.007128
-820735.939905
-821125.810181
-843524.127810
-843835.685587
-844167.743363
-844505.551139
-844850.796416
-845206.729192
-845571.974469
-845952.594745
-846342.527522
-868906.220151
-869222.652927
-869541.335704
-869886.018480
-870221.701256
-870574.009033
-870943.566809
-871312.624586
-871703.182362
-894416.999991
-894726.057768
-895050.740544
-895385.485821
-895722.731097
-896072.726373
-896434.096650
-896801.779426
-897179.462203
-920046.154832
-920355.587608
-920676.957885
-920999.390661
-921339.448437
-921684.756214
-922041.188990
-922398.371767
-922773.742043
-945772.122172
-946075.617449
-946399.425225
-946721.858002
-947060.415778
-947392.348554
-947754.843831
-948111.214107
-948475.959384
-971594.839513
-971896.959789
-972213.392566
-972541.762842
-972870.633119
-973208.440895
-973554.436171
-973906.993948
-974265.676724
-997494.681853
-997804.802130
-998112.422406
-998433.105183
-998758.162959
-999089.658235
-999435.091012
-999784.836288
-1000141.831565
-1023470.774194
-1023771.706970
-1024076.202247
-1024397.760023
-1024716.880300
-1025048.625576
-1025386.870852
-1025730.553629
-1026086.923905
-1049495.929034
-1049801.736811
-1050104.169587
-1050418.477364
-1050741.910140
-1051063.092917
-1051395.650693
-1051733.458469
-1052083.578746
-1075573.458875
-1075875.141651
-1076176.574428
-1076489.194704
-1076805.627481
-1077127.122757
-1077457.868033
-1077791.925810
-1078131.858586
-1101691.238716
-1101988.358992
-1102287.354268
-1102596.349545
-1102913.969821
-1103223.840098
-1103546.210374
-1103878.205650
-1104218.263427
-1127829.268556
-1128126.388832
-1128428.884109
-1128728.441885
-1129040.562162
-1129353.619938
-1129675.115215
-1130001.172991
-1130327.668267
-1153994.985897
-1154280.981173
-1154578.726449
-1154887.971726
-1155189.779502
-1155506.462279
-1155818.020055
-1156135.952831
-1156460.698108
-1180162.515737
-1180447.948514
-1180748.256290
-1181040.314066
-1181350.746843
-1181653.679619
-1181964.612396
-1182279.920172
-1182602.915448
-1206327.920578
-1206618.540854
-1206907.661130
-1207201.531407
-1207501.401683
-1207804.271960
-1208113.454736
-1208421.950013
-1208737.945289
-1232480.887918
-1232765.133195
-1233056.378471
-1233347.623747
-1233647.619024
-1233940.739300
-1234245.234577
-1234549.542353
-1234864.162629
-1258615.105259
-1258898.663035
-1259187.845812
-1259477.028588
-1259773.586364
-1260067.206641
-1260366.639417
-1260663.072194
-1260967.567470
-1284717.322599
-1285003.755376
-1285284.625652
-1285578.308428
-1285860.803705
-1286150.111481
-1286452.794258
-1286749.352034
-1287044.722311
-1310792.539940
-1311067.347716
-1311353.030493
-1311637.400769
-1311922.208545
-1312207.953822
-1312495.199098
-1312794.631875
-1313087.564651
-1336812.257280
-1337094.252557
-1337368.810333
-1337644.805610
-1337933.550886
-1338214.483662
-1338500.978939
-1338787.036715
-1339079.469492
-1362782.162121
-1363058.219897
-1363330.715174
-1363609.897950
-1363889.830726
-1364168.701003
-1364453.821279
-1364736.879056
-1365023.686832
-1388689.441961
-1388962.062238
-1389238.120014
-1389510.177791
-1389790.110567
-1390063.230843
-1390342.413620
-1390622.283896
-1390905.591673
-1414527.409302
-1414796.217078
-1415071.087355
-1415344.270131
-1415609.077908
-1415889.635684
-1416163.318460
-1416433.126237
-1416714.934013
-1440292.001642
-1440555.934419
-1440823.804695
-1441099.799972
-1441364.545248
-1441632.478025
-1441907.910801
-1442177.718577
-1442449.338854
-1465970.093983
-1466237.714259
-1466504.584536
-1466764.392312
-1467035.762589
-1467304.382865
-1467572.253141
-1467836.498418
-1468103.868694
-1491558.686323
-1491820.681600
-1492090.989376
-1492349.859653
-1492616.917429
-1492882.475206
-1493142.470482
-1493407.028258
-1493668.398535
-1517053.716164
-1517321.773940
-1517578.019217
-1517837.639493
-1518102.759770
-1518360.317546
-1518621.312823
-1518878.995599
-1519132.803375
-1542442.683505
-1542703.491281
-1542964.549057
-1543223.481834
-1543479.102110
-1543736.659887
-1543993.780163
-1544245.212939
-1544499.708216
-1567725.838345
-1567986.958622
-1568240.766398
-1568496.824174
-1568754.319451
-1569009.689727
-1569257.747504
-1569511.555280
-1569759.300556
-1592897.180686
-1593149.113462
-1593406.733738
-1593659.729015
-1593907.536791
-1594162.969568
-1594406.027344
-1594652.272621
-1594897.392897
-1617943.710526
-1618199.143303
-1618450.826079
-1618701.258855
-1618951.629132
-1619195.186908
-1619437.557185
-1619683.364961
-1619925.422737
SCALARS stress_2 float
LOOKUP_TABLE default
19496.239006
-264502.539332
-260386.179602
-256151.819873
-251969.460144
-247725.100415
-243476.740686
-239196.380956
-234936.021227
-230619.661498
-226321.301769
-221980.942039
-217620.582310
-213258.222581
-208891.862852
-204517.503123
-200155.143393
-195746.783664
-191376.423935
-186952.064206
-182551.704476
-178159.344747
-173732.985018
-169334.625289
-164952.265560
-160575.905830
-156185.546101
-151805.186372
-147430.826643
-143074.466914
-138730.107184
-134415.747455
-130175.387726
-125857.027997
-121582.668267
-117346.308538
-113131.948809
-108955.589080
-104813.229351
-100656.869621
-96588.509892
-92512.150163
-88533.790434
-84575.430704
-80649.070975
-76734.711246
-72922.351517
-69131.991788
-65375.632058
-61691.272329
-58028.912600
-54468.552871
-50920.193141
-47515.833412
-44105.473683
-40795.113954
-37508.754225
-34296.394495
-31138.034766
-28105.675037
-25147.315308
-22216.955578
-19310.595849
-16582.236120
-13901.876391
-11283.516662
-8721.156932
-6300.797203
-3912.437474
-1594.077745
590.281984
2756.641714
4785.001443
6745.361172
8623.720901
10430.080631
12126.440360
13756.800089
15301.159818
16785.519547
18161.879277
-236439.639339
39793.138998
38788.779269
37694.419540
36458.059811
35175.700081
33805.340352
32346.980623
30832.620894
29166.261164
27457.901435
25671.541706
23757.181977
21784.822248
19730.462518
17598.102789
15327.743060
13021.383331
10627.023601
8144.663872
5544.304143
2895.944414
213.584685
-2650.775045
-5463.134774
-8451.494503
-11517.854232
-14612.213962
-17802.573691
-21028.933420
-24375.293149
-27719.652878
-31162.012608
-34646.372337
-38218.732066
-41849.091795
-45529.451524
-49267.811254
-53024.170983
-56880.530712
-60758.890441
-64673.250171
-68615.609900
-72637.969629
-76680.329358
-80742.689087
-84851.048817
-89011.408546
-93199.768275
-97414.128004
-101658.487734
-105934.847463
-110197.207192
-114485.566921
-118795.926650
-123136.286380
-127510.646109
-131873.005838
-136249.365567
-140625.725297
-145012.085026
-149442.444755
-153848.804484
-158283.164213
-162669.523943
-167057.883672
-171464.243401
-175860.603130
-180254.962859
-184659.322589
-189039.682318
-193432.042047
-197750.401776
-202138.761506
-206471.121235
-210821.480964
-215123.840693
-219396.200422
-223696.560152
-227968.919881
-232195.279610
-239227.129339
-242032.619338
-244836.109337
-247653.599336
-250477.089336
-253280.579335
-256082.069334
-258889.559333
-261745.049332
21511.729005
23597.219004
25632.709004
27676.199003
29717.689002
31705.179001
33756.669001
35784.159000
37797.648999
36725.289270
34719.799271
32640.309271
30562.819272
28571.329273
26465.839274
24420.349274
22356.859275
20241.369276
35652.929541
33529.439541
31443.949542
29368.459543
27294.969544
25243.479544
23107.989545
21024.499546
18881.009547
34388.569811
32265.079812
30175.589813
28042.099814
25952.609814
23829.119815
21675.629816
19582.139817
17458.649817
33064.210082
30930.720083
28817.230084
26683.740084
24534.250085
22380.760086
20213.270087
18105.780087
15916.290088
31645.850353
29522.360354
27328.870354
25187.380355
23051.890356
20844.400357
18692.910357
16511.420358
14339.930359
30185.490624
28026.000624
25834.510625
23617.020626
21439.530627
19246.040628
17048.550628
14851.060629
12643.570630
28585.130894
26441.640895
24214.150896
22006.660897
19729.170898
17561.680898
15296.190899
13130.700900
10865.210901
26936.771165
24703.281166
22501.791167
20254.301168
18036.811168
15791.321169
13525.831170
11234.341171
8998.851171
25222.411436
22964.921437
20703.431438
18429.941438
16164.451439
13910.961440
11635.471441
9361.981441
7066.491442
23374.051707
21098.561708
18857.071708
16533.581709
14222.091710
11958.601711
9633.111711
7343.621712
5032.131713
21509.691978
19190.201978
16868.711979
14573.221980
12241.731981
9934.241981
7606.751982
5279.261983
2927.771984
19439.332248
17135.842249
14838.352250
12492.862251
10117.372251
7797.882252
5444.392253
3094.902254
727.412254
17406.972519
15043.482520
12681.992521
10348.502521
7951.012522
5595.522523
3230.032524
854.542525
-1534.947475
15218.612790
12855.122791
10469.632791
8072.142792
5710.652793
3307.162794
913.672795
-1473.817205
-3889.307204
12950.253061
10564.763061
8145.273062
5779.783063
3346.293064
936.803065
-1490.686935
-3890.176934
-6339.666933
10637.893331
8208.403332
5786.913333
3357.423334
941.933335
-1493.556665
-3915.046664
-6356.536663
-8856.026662
8183.533602
5768.043603
3306.553604
873.063605
-1594.426395
-4043.916394
-6463.406393
-8972.896392
-11416.386392
5673.173873
3223.683874
780.193875
-1711.296125
-4166.786124
-6662.276123
-9091.766122
-11639.256122
-14072.746121
3074.814144
583.324145
-1880.165855
-4361.655854
-6821.145853
-9332.635852
-11844.125852
-14367.615851
-16855.105850
424.454415
-2041.035585
-4586.525584
-7062.015583
-9581.505582
-12088.995582
-14628.485581
-17129.975580
-19681.465579
-2363.905315
-4843.395314
-7372.885313
-9912.375312
-12421.865312
-14929.355311
-17488.845310
-19996.335309
-22553.825308
-5162.265044
-7665.755043
-10215.245042
-12762.735042
-15304.225041
-17833.715040
-20437.205039
-22952.695038
-25576.185038
-8062.624773
-10596.114772
-13183.604772
-15725.094771
-18302.584770
-20870.074769
-23421.564768
-25987.054768
-28586.544767
-11044.984502
-13600.474502
-16179.964501
-18757.454500
-21322.944499
-23946.434498
-26529.924498
-29107.414497
-31692.904496
-14093.344232
-16636.834231
-19258.324230
-21871.814229
-24475.304228
-27040.794228
-29682.284227
-32269.774226
-34873.264225
-17205.703961
-19809.193960
-22420.683959
-25030.173958
-27629.663958
-30261.153957
-32882.643956
-35520.133955
-38129.623955
-20372.063690
-23023.553689
-25647.043688
-28280.533688
-30914.023687
-33517.513686
-36199.003685
-38816.493685
-41453.983684
-23636.423419
-26261.913418
-28941.403418
-31592.893417
-34214.383416
-36891.873415
-39527.363415
-42194.853414
-44822.343413
-26970.783148
-29620.273148
-32295.763147
-34949.253146
-37594.743145
-40270.233145
-42935.723144
-45635.213143
-48280.703142
-30361.142878
-33022.632877
-35710.122876
-38389.612875
-41033.102875
-43714.592874
-46404.082873
-49123.572872
-51773.062871
-33835.502607
-36548.992606
-39192.482605
-41857.972605
-44581.462604
-47262.952603
-49944.442602
-52693.932601
-55355.422601
-37341.862336
-40055.352335
-42706.842335
-45436.332334
-48119.822333
-50863.312332
-53518.802331
-56280.292331
-59003.782330
-40916.222065
-43659.712064
-46353.202064
-49038.692063
-51732.182062
-54499.672061
-57197.162061
-59890.652060
-62662.142059
-44564.581794
-47240.071794
-49991.561793
-52693.051792
-55476.541791
-58182.031791
-60903.521790
-63629.011789
-66390.501788
-48240.941524
-50968.431523
-53699.921522
-56477.411521
-59192.901521
-61914.391520
-64651.881519
-67409.371518
-70166.861518
-51977.301253
-54734.791252
-57468.281251
-60231.771251
-62953.261250
-65694.751249
-68434.241248
-71201.731248
-73987.221247
-55767.660982
-58523.150981
-61280.640981
-64032.130980
-66795.620979
-69535.110978
-72336.600978
-75082.090977
-77837.580976
-59602.020711
-62365.510711
-65175.000710
-67902.490709
-70667.980708
-73453.470708
-76208.960707
-79014.450706
-81807.940705
-63510.380441
-66279.870440
-69013.360439
-71796.850438
-74606.340438
-77419.830437
-80181.320436
-82938.810435
-85736.300434
-67410.740170
-70240.230169
-73001.720168
-75777.210167
-78574.700167
-81340.190166
-84153.680165
-86965.170164
-89734.660164
-71403.099899
-74176.589898
-77002.079897
-79789.569897
-82575.059896
-85398.549895
-88182.039894
-91003.529894
-93797.019893
-75421.459628
-78220.949627
-81022.439627
-83855.929626
-86637.419625
-89406.909624
-92254.399624
-95075.889623
-97877.379622
-79483.819357
-82295.309357
-85112.799356
-87900.289355
-90707.779354
-93531.269354
-96342.759353
-99166.249352
-101959.739351
-83554.179087
-86383.669086
-89211.159085
-92006.649084
-94836.139084
-97653.629083
-100467.119082
-103300.609081
-106134.099081
-87706.538816
-90528.028815
-93333.518814
-96153.008814
-98956.498813
-101809.988812
-104647.478811
-107486.968811
-110298.458810
-91826.898545
-94678.388544
-97501.878544
-100329.368543
-103182.858542
-105978.348541
-108837.838541
-111667.328540
-114506.818539
-96023.258274
-98862.748274
-101666.238273
-104515.728272
-107353.218271
-110232.708270
-113098.198270
-115885.688269
-118747.178268
-100237.618004
-103109.108003
-105926.598002
-108780.088001
-111629.578000
-114421.068000
-117252.557999
-120130.047998
-122993.537997
-104487.977733
-107307.467732
-110176.957731
-113016.447730
-115883.937730
-118709.427729
-121548.917728
-124432.407727
-127269.897727
-108740.337462
-111591.827461
-114475.317460
-117318.807460
-120162.297459
-122971.787458
-125873.277457
-128710.767457
-131586.257456
-113034.697191
-115914.187190
-118725.677190
-121587.167189
-124432.657188
-127280.147187
-130177.637187
-133029.127186
-135880.617185
-117333.056920
-120200.546920
-123038.036919
-125897.526918
-128763.016917
-131606.506917
-134469.996916
-137347.486915
-140220.976914
-121647.416650
-124534.906649
-127372.396648
-130263.886647
-133115.376647
-135968.866646
-138834.356645
-141679.846644
-144597.336643
-126015.776379
-128857.266378
-131740.756377
-134578.246377
-137439.736376
-140319.226375
-143202.716374
-146094.206373
-148957.696373
-130390.136108
-133259.626107
-136087.116107
-138984.606106
-141824.096105
-144671.586104
-147583.076103
-150428.566103
-153294.056102
-134704.495837
-137589.985837
-140441.475836
-143346.965835
-146206.455834
-149115.945833
-151977.435833
-154796.925832
-157662.415831
-139104.855567
-141992.345566
-144855.835565
-147711.325564
-150572.815563
-153436.305563
-156349.795562
-159193.285561
-162096.775560
-143489.215296
-146398.705295
-149248.195294
-152133.685293
-154975.175293
-157834.665292
-160706.155291
-163603.645290
-166525.135290
-147889.575025
-150759.065024
-153630.555023
-156474.045023
-159401.535022
-162245.025021
-165126.515020
-168000.005020
-170887.495019
-152333.934754
-155173.424753
-158008.914753
-160902.404752
-163789.894751
-166643.384750
-169522.874750
-172390.364749
-175269.854748
-156668.294483
-159575.784483
-162405.274482
-165298.764481
-168192.254480
-171083.744480
-173909.234479
-176790.724478
-179696.214477
-161106.654213
-163986.144212
-166835.634211
-169731.124210
-172598.614210
-175454.104209
-178341.594208
-181219.084207
-184122.574206
-165515.013942
-168368.503941
-171255.993940
-174095.483940
-177018.973939
-179862.463938
-182741.953937
-185583.443936
-188484.933936
-169901.373671
-172774.863670
-175674.353670
-178533.843669
-181387.333668
-184236.823667
-187128.313666
-190009.803666
-192897.293665
-174319.733400
-177195.223400
-180070.713399
-182962.203398
-185765.693397
-188667.183396
-191548.673396
-194434.163395
-197275.653394
-178722.093130
-181611.583129
-184473.073128
-187346.563127
-190220.053126
-193069.543126
-195927.033125
-198792.523124
-201644.013123
-183110.452859
-186001.942858
-188843.432857
-191716.922856
-194594.412856
-197415.902855
-200301.392854
-203158.882853
-206042.372853
-187526.812588
-190380.302587
-193217.792586
-196095.282586
-198944.772585
-201828.262584
-204701.752583
-207541.242583
-210400.732582
-191913.172317
-194720.662316
-197610.152316
-200421.642315
-203343.132314
-206186.622313
-209044.112313
-211929.602312
-214777.092311
-196241.532046
-199131.022046
-201974.512045
-204814.002044
-207687.492043
-210534.982043
-213384.472042
-216229.962041
-219117.452040
-200639.891776
-203471.381775
-206326.871774
-209182.361773
-212055.851773
-214869.341772
-217740.831771
-220602.321770
-223437.811769
-204958.251505
-207833.741504
-210659.231503
-213532.721503
-216362.211502
-219217.701501
-222083.191500
-224918.681499
-227770.171499
-209310.611234
-212160.101233
-215001.591233
-217845.081232
-220690.571231
-223552.061230
-226389.551229
-229247.041229
-232076.531228
-213646.970963
-216486.460962
-219333.950962
-222185.440961
-225000.930960
-227836.420959
-230703.910959
-233501.400958
-236366.890957
-217909.330692
-220792.820692
-223626.310691
-226463.800690
-229273.290689
-232148.780689
-234954.270688
-237783.760687
-240641.250686
-222263.690422
-225073.180421
-227914.670420
-230732.160419
-233555.650419
-236389.140418
-239216.630417
-242028.120416
-244881.610416
-226530.050151
-229333.540150
-232175.030149
-234992.520149
-237826.010148
-240653.500147
-243472.990146
-246300.480146
-249131.970145
-230784.409880
-233609.899879
-236407.389879
-239204.879878
-242048.369877
-244889.859876
-247707.349876
-250508.839875
-253338.329874
-235032.769609
-237820.259609
-240627.749608
-243435.239607
-246302.729606
-249116.219606
-251909.709605
-254721.199604
-257550.689603
SCALARS stress_3 float
LOOKUP_TABLE default
7101.381678
474094.158567
467408.198856
460680.239145
453903.279434
447091.319723
440268.360012
433396.400301
426482.440589
419573.480878
412621.521167
405642.561456
398640.601745
391630.642034
384554.682323
377509.722612
370424.762900
363343.803189
356211.843478
349095.883767
341982.924056
334856.964345
327716.004634
320596.044923
313438.085212
306321.125500
299211.165789
292105.206078
285007.246367
277930.286656
270855.326945
263832.367234
256816.407523
249828.447811
242866.488100
235951.528389
229053.568678
222226.608967
215417.649256
208675.689545
201971.729834
195317.770122
188727.810411
182194.850700
175725.890989
169316.931278
162981.971567
156715.011856
150548.052145
144427.092433
138403.132722
132458.173011
126626.213300
120882.253589
115217.293878
109656.334167
104196.374456
98859.414745
93614.455033
88468.495322
83438.535611
78520.575900
73732.616189
69075.656478
64526.696767
60075.737056
55764.777344
51587.817633
47565.857922
43630.898211
39859.938500
36204.978789
32694.019078
29304.059367
26045.099655
22948.139944
19958.180233
17113.220522
14411.260811
11842.301100
9411.341389
462442.243761
-3810.533129
-1612.573418
721.386294
3233.346005
5827.305716
8605.265427
11474.225138
14523.184849
17715.144560
21027.104271
24454.063983
28055.023694
31759.983405
35620.943116
39631.902827
43710.862538
47970.822249
52357.781960
56846.741671
61469.701383
66221.661094
71102.620805
76077.580516
81182.540227
86405.499938
91714.459649
97146.419360
102679.379072
108315.338783
114049.298494
119858.258205
125776.217916
131783.177627
137867.137338
144036.097049
150308.056761
156624.016472
163009.976183
169487.935894
176017.895605
182598.855316
189261.815027
195952.774738
202726.734450
209539.694161
216387.653872
223289.613583
230199.573294
237181.533005
244184.492716
251211.452427
258272.412138
265337.371850
272431.331561
279565.291272
286698.250983
293813.210694
300973.170405
308131.130116
315291.089827
322458.049539
329611.009250
336776.968961
343903.928672
351037.888383
358177.848094
365285.807805
372415.767516
379478.727228
386555.686939
393583.646650
400597.606361
407593.566072
414568.525783
421511.485494
428389.445205
435280.404916
442117.364628
448928.324339
455702.284050
463606.535242
464773.826722
465929.118203
467122.409684
468262.701164
469438.992645
470600.284125
471768.575606
472932.867087
6005.090197
4872.798716
3767.507236
2681.215755
1585.924274
494.632794
-599.658687
-1672.950167
-2742.241648
-539.281937
552.009544
1620.301024
2741.592505
3814.883986
4928.175466
6036.466947
7161.758427
8276.049908
1810.677774
2916.969255
4001.260735
5116.552216
6232.843697
7317.135177
8452.426658
9571.718139
10714.009619
4314.637485
5421.928966
6514.220447
7635.511927
8752.803408
9869.094888
11000.386369
12111.677850
13266.969330
6935.597196
8043.888677
9160.180158
10283.471638
11402.763119
12533.054600
13678.346080
14818.637561
15961.929041
9701.556908
10816.848388
11934.139869
13082.431349
14206.722830
15344.014311
16492.305791
17654.597272
18804.888753
12607.516619
13717.808099
14871.099580
15996.391061
17160.682541
18285.974022
19435.265502
20582.556983
21769.848464
15648.476330
16795.767810
17926.059291
19079.350772
20231.642252
21361.933733
22525.225214
23704.516694
24855.808175
18827.436041
19993.727522
21113.019002
22273.310483
23438.601963
24599.893444
25757.184925
26941.476405
28121.767886
22159.395752
23305.687233
24444.978713
25603.270194
26777.561675
27934.853155
29124.144636
30298.436116
31495.727597
25619.355463
26777.646944
27938.938424
29076.229905
30275.521386
31449.812866
32615.104347
33802.395828
34997.687308
29211.315174
30368.606655
31534.898136
32704.189616
33870.481097
35068.772577
36243.064058
37435.355539
38651.647019
32914.274885
34094.566366
35280.857847
36458.149327
37627.440808
38825.732289
40011.023769
41202.315250
42419.606730
36794.234597
37958.526077
39140.817558
40337.109038
41522.400519
42709.692000
43932.983480
45130.274961
46334.566442
40777.194308
41962.485788
43151.777269
44330.068750
45537.360230
46738.651711
47953.943191
49156.234672
50377.526153
44911.154019
46099.445499
47282.736980
48486.028461
49689.319941
50896.611422
52096.902903
53325.194383
54534.485864
49161.113730
50340.405211
51548.696691
52750.988172
53956.279652
55171.571133
56390.862614
57626.154094
58848.445575
53551.073441
54739.364922
55944.656402
57160.947883
58362.239364
59573.530844
60795.822325
62033.113805
63281.405286
58053.033152
59256.324633
60465.616113
61668.907594
62885.199075
64123.490555
65343.782036
66556.073517
67810.364997
62672.992863
63887.284344
65099.575825
66319.867305
67539.158786
68766.450266
69995.741747
71243.033228
72490.324708
67418.952574
68649.244055
69860.535536
71077.827016
72313.118497
73545.409978
74787.701458
76017.992939
77283.284419
72295.912285
73518.203766
74743.495247
75970.786727
77205.078208
78437.369689
79678.661169
80935.952650
82182.244131
77296.871997
78520.163477
79726.454958
80971.746438
82197.037919
83445.329400
84695.620880
85948.912361
87203.203842
82393.831708
83622.123188
84860.414669
86100.706150
87327.997630
88569.289111
89823.580592
91079.872072
92328.163553
87608.791419
88836.082899
90081.374380
91310.665861
92553.957341
93807.248822
95074.540303
96297.831783
97581.123264
92932.751130
94153.042611
95424.334091
96661.625572
97902.917052
99150.208533
100389.500014
101679.791494
102936.082975
98375.710841
99621.002322
100870.293802
102089.585283
103345.876764
104587.168244
105859.459725
107111.751206
108381.042686
103896.670552
105132.962033
106391.253513
107619.544994
108889.836475
110146.127955
111393.419436
112669.710917
113926.002397
109546.630263
110783.921744
112023.213225
113267.504705
114533.796186
115792.087666
117050.379147
118328.670628
119594.962108
115271.589974
116513.881455
117745.172936
119024.464416
120273.755897
121531.047378
122806.338858
124078.630339
125345.921820
121090.549686
122340.841166
123600.132647
124860.424127
126090.715608
127377.007089
128642.298569
129928.590050
131187.881531
127019.509397
128257.800877
129510.092358
130768.383839
132039.675319
133289.966800
134588.258280
135858.549761
137133.841242
133031.469108
134277.760588
135525.052069
136789.343550
138053.635030
139325.926511
140592.217992
141869.509472
143164.800953
139123.428819
140364.720300
141623.011780
142874.303261
144153.594741
145408.886222
146688.177703
147964.469183
149249.760664
145283.388530
146544.680011
147802.971491
149057.262972
150342.554453
151599.845933
152872.137414
154144.428894
155420.720375
151536.348241
152797.639722
154051.931202
155321.222683
156582.514164
157847.805644
159145.097125
160429.388606
161705.680086
157856.307952
159127.599433
160384.890914
161650.182394
162929.473875
164195.765355
165450.056836
166742.348317
168035.639797
164278.267663
165539.559144
166797.850625
168054.142105
169318.433586
170593.725067
171881.016547
173129.308028
174433.599508
170711.227375
171981.518855
173246.810336
174525.101816
175782.393297
177073.684778
178346.976258
179619.267739
180894.559220
177282.187086
178515.478566
179787.770047
181052.061528
182307.353008
183592.644489
184862.935969
186141.227450
187433.518931
183850.146797
185119.438277
186383.729758
187667.021239
188906.312719
190206.604200
191484.895681
192753.187161
194026.478642
190505.106508
191769.397989
193041.689469
194305.980950
195557.272430
196840.563911
198121.855392
199413.146872
200679.438353
197220.066219
198513.357700
199740.649180
201009.940661
202275.232142
203530.523622
204834.815103
206098.106583
207376.398064
203982.025930
205242.317411
206493.608891
207765.900372
209040.191853
210315.483333
211589.774814
212865.066295
214147.357775
210813.985641
212041.277122
213314.568603
214558.860083
215834.151564
217116.443044
218389.734525
219653.026006
220939.317486
217633.945352
218915.236833
220164.528314
221422.819794
222683.111275
223966.402756
225231.694236
226490.985717
227792.277197
224522.905063
225795.196544
227047.488025
228308.779505
229576.070986
230854.362467
232122.653947
233402.945428
234675.236909
231464.864775
232721.156255
233979.447736
235233.739217
236501.030697
237754.322178
239046.613658
240318.905139
241591.196620
238428.824486
239676.115966
240948.407447
242209.698928
243480.990408
244742.281889
245997.573370
247269.864850
248548.156331
245425.784197
246685.075677
247939.367158
249197.658639
250463.950119
251722.241600
252993.533081
254259.824561
255543.116042
252460.743908
253720.035389
254959.326869
256215.618350
257500.909831
258759.201311
260014.492792
261291.784272
262549.075753
259515.703619
260774.995100
262010.286580
263273.578061
264529.869542
265799.161022
267054.452503
268332.743984
269604.035464
266581.663330
267820.954811
269102.246291
270359.537772
271618.829253
272872.120733
274137.412214
275397.703695
276655.995175
273674.623041
274937.914522
276193.206003
277455.497483
278694.788964
279954.080445
281210.371925
282475.663406
283729.954886
280805.582752
282054.874233
283296.165714
284548.457194
285806.748675
287064.040156
288318.331636
289572.623117
290845.914598
287948.542464
289170.833944
290435.125425
291681.416905
292910.708386
294196.999867
295438.291347
296687.582828
297958.874309
295092.502175
296313.793655
297545.085136
298823.376617
300057.668097
301284.959578
302578.251059
303809.542539
305084.834020
302210.461886
303455.753366
304712.044847
305964.336328
307189.627808
308461.919289
309700.210770
310967.502250
312197.793731
309366.421597
310604.713078
311862.004558
313106.296039
314344.587519
315596.879000
316835.170481
318076.461961
319332.753442
316532.381308
317770.672789
319015.964269
320253.255750
321487.547231
322727.838711
323969.130192
325227.421672
326466.713153
323689.341019
324919.632500
326155.923980
327406.215461
328641.506942
329888.798422
331112.089903
332358.381384
333601.672864
330840.300730
332075.592211
333316.883692
334558.175172
335779.466653
337018.758133
338266.049614
339505.341095
340732.632575
338001.260441
339226.551922
340455.843403
341683.134883
342934.426364
344165.717845
345396.009325
346638.300806
347867.592286
345164.220153
346367.511633
347586.803114
348837.094594
350073.386075
351284.677556
352534.969036
353764.260517
354979.551998
352279.179864
353498.471344
354735.762825
355939.054306
357187.345786
358405.637267
359641.928747
360884.220228
362099.511709
359415.139575
360627.431055
361853.722536
363058.014017
364303.305497
365530.596978
366750.888459
367965.179939
369195.471420
366518.099286
367739.390767
368947.682247
370171.973728
371396.265208
372625.556689
373841.848170
375069.139650
376288.431131
373616.058997
374816.350478
376030.641958
377269.933439
378493.224920
379696.516400
380911.807881
382132.099361
383361.390842
380683.018708
381919.310189
383114.601669
384329.893150
385552.184631
386767.476111
387949.767592
389170.059073
390400.350553
387764.978419
388942.269900
390169.561381
391381.852861
392607.144342
393810.435822
395021.727303
396220.018784
397436.310264
394791.938130
395996.229611
397186.521092
398416.812572
399624.104053
400817.395534
402022.687014
403250.978495
404427.269975
401788.897842
402998.189322
404199.480803
405396.772283
406623.063764
407821.355245
409020.646725
410232.938206
411421.229687
408780.857553
409983.149033
411193.440514
412370.731995
413579.023475
414794.314956
415984.606436
417195.897917
418378.189398
415753.817264
416953.108744
418149.400225
419322.691706
420528.983186
421720.274667
422923.566148
424119.857628
425299.149109
422682.776975
423888.068456
425078.359936
426252.651417
427452.942897
428639.234378
429824.525859
431021.817339
432215.108820
429584.736686
430768.028167
431966.319647
433150.611128
434338.902609
435521.194089
436725.485570
437880.777050
439074.068531
436453.696397
437626.987878
438829.279358
440010.570839
441189.862320
442359.153800
443550.445281
444741.736762
445927.028242
443294.656108
444482.947589
445669.239070
446838.530550
448026.822031
449200.113511
450374.404992
451551.696473
452738.987953
450093.615819
451294.907300
452447.198781
453621.490261
454809.781742
455980.073223
457156.364703
458316.656184
459502.947664
456879.575530
458028.867011
459212.158492
460383.449972
461557.741453
462734.032934
463902.324414
465065.615895
466252.907376
