# vtk DataFile Version 2.0
Generated volume Mesh
ASCII
DATASET UNSTRUCTURED_GRID
POINTS 891 float
0.005000 0.100000 0.000000
0.005000 0.000000 0.000000
0.005000 0.001250 0.000000
0.005000 0.002500 0.000000
0.005000 0.003750 0.000000
0.005000 0.005000 0.000000
0.005000 0.006250 0.000000
0.005000 0.007500 0.000000
0.005000 0.008750 0.000000
0.005000 0.010000 0.000000
0.005000 0.011250 0.000000
0.005000 0.012500 0.000000
0.005000 0.013750 0.000000
0.005000 0.015000 0.000000
0.005000 0.016250 0.000000
0.005000 0.017500 0.000000
0.005000 0.018750 0.000000
0.005000 0.020000 0.000000
0.005000 0.021250 0.000000
0.005000 0.022500 0.000000
0.005000 0.023750 0.000000
0.005000 0.025000 0.000000
0.005000 0.026250 0.000000
0.005000 0.027500 0.000000
0.005000 0.028750 0.000000
0.005000 0.030000 0.000000
0.005000 0.031250 0.000000
0.005000 0.032500 0.000000
0.005000 0.033750 0.000000
0.005000 0.035000 0.000000
0.005000 0.036250 0.000000
0.005000 0.037500 0.000000
0.005000 0.038750 0.000000
0.005000 0.040000 0.000000
0.005000 0.041250 0.000000
0.005000 0.042500 0.000000
0.005000 0.043750 0.000000
0.005000 0.045000 0.000000
0.005000 0.046250 0.000000
0.005000 0.047500 0.000000
0.005000 0.048750 0.000000
0.005000 0.050000 0.000000
0.005000 0.051250 0.000000
0.005000 0.052500 0.000000
0.005000 0.053750 0.000000
0.005000 0.055000 0.000000
0.005000 0.056250 0.000000
0.005000 0.057500 0.000000
0.005000 0.058750 0.000000
0.005000 0.060000 0.000000
0.005000 0.061250 0.000000
0.005000 0.062500 0.000000
0.005000 0.063750 0.000000
0.005000 0.065000 0.000000
0.005000 0.066250 0.000000
0.005000 0.067500 0.000000
0.005000 0.068750 0.000000
0.005000 0.070000 0.000000
0.005000 0.071250 0.000000
0.005000 0.072500 0.000000
0.005000 0.073750 0.000000
0.005000 0.075000 0.000000
0.005000 0.076250 0.000000
0.005000 0.077500 0.000000
0.005000 0.078750 0.000000
0.005000 0.080000 0.000000
0.005000 0.081250 0.000000
0.005000 0.082500 0.000000
0.005000 0.083750 0.000000
0.005000 0.085000 0.000000
0.005000 0.086250 0.000000
0.005000 0.087500 0.000000
0.005000 0.088750 0.000000
0.005000 0.090000 0.000000
0.005000 0.091250 0.000000
0.005000 0.092500 0.000000
0.005000 0.093750 0.000000
0.005000 0.095000 0.000000
0.005000 0.096250 0.000000
0.005000 0.097500 0.000000
0.005000 0.098750 0.000000
0.000000 0.000000 0.000000
0.000000 0.100000 0.000000
0.000000 0.098750 0.000000
0.000000 0.097500 0.000000
0.000000 0.096250 0.000000
0.000000 0.095000 0.000000
0.000000 0.093750 0.000000
0.000000 0.092500 0.000000
0.000000 0.091250 0.000000
0.000000 0.090000 0.000000
0.000000 0.088750 0.000000
0.000000 0.087500 0.000000
0.000000 0.086250 0.000000
0.000000 0.085000 0.000000
0.000000 0.083750 0.000000
0.000000 0.082500 0.000000
0.000000 0.081250 0.000000
0.000000 0.080000 0.000000
0.000000 0.078750 0.000000
0.000000 0.077500 0.000000
0.000000 0.076250 0.000000
0.000000 0.075000 0.000000
0.000000 0.073750 0.000000
0.000000 0.072500 0.000000
0.000000 0.071250 0.000000
0.000000 0.070000 0.000000
0.000000 0.068750 0.000000
0.000000 0.067500 0.000000
0.000000 0.066250 0.000000
0.000000 0.065000 0.000000
0.000000 0.063750 0.000000
0.000000 0.062500 0.000000
0.000000 0.061250 0.000000
0.000000 0.060000 0.000000
0.000000 0.058750 0.000000
0.000000 0.057500 0.000000
0.000000 0.056250 0.000000
0.000000 0.055000 0.000000
0.000000 0.053750 0.000000
0.000000 0.052500 0.000000
0.000000 0.051250 0.000000
0.000000 0.050000 0.000000
0.000000 0.048750 0.000000
0.000000 0.047500 0.000000
0.000000 0.046250 0.000000
0.000000 0.045000 0.000000
0.000000 0.043750 0.000000
0.000000 0.042500 0.000000
0.000000 0.041250 0.000000
0.000000 0.040000 0.000000
0.000000 0.038750 0.000000
0.000000 0.037500 0.000000
0.000000 0.036250 0.000000
0.000000 0.035000 0.000000
0.000000 0.033750 0.000000
0.000000 0.032500 0.000000
0.000000 0.031250 0.000000
0.000000 0.030000 0.000000
0.000000 0.028750 0.000000
0.000000 0.027500 0.000000
0.000000 0.026250 0.000000
0.000000 0.025000 0.000000
0.000000 0.023750 0.000000
0.000000 0.022500 0.000000
0.000000 0.021250 0.000000
0.000000 0.020000 0.000000
0.000000 0.018750 0.000000
0.000000 0.017500 0.000000
0.000000 0.016250 0.000000
0.000000 0.015000 0.000000
0.000000 0.013750 0.000000
0.000000 0.012500 0.000000
0.000000 0.011250 0.000000
0.000000 0.010000 0.000000
0.000000 0.008750 0.000000
0.000000 0.007500 0.000000
0.000000 0.006250 0.000000
0.000000 0.005000 0.000000
0.000000 0.003750 0.000000
0.000000 0.002500 0.000000
0.000000 0.001250 0.000000
0.000500 0.000000 0.000000
0.001000 0.000000 0.000000
0.001500 0.000000 0.000000
0.002000 0.000000 0.000000
0.002500 0.000000 0.000000
0.003000 0.000000 0.000000
0.003500 0.000000 0.000000
0.004000 0.000000 0.000000
0.004500 0.000000 0.000000
0.004500 0.100000 0.000000
0.004000 0.100000 0.000000
0.003500 0.100000 0.000000
0.003000 0.100000 0.000000
0.002500 0.100000 0.000000
0.002000 0.100000 0.000000
0.001500 0.100000 0.000000
0.001000 0.100000 0.000000
0.000500 0.100000 0.000000
0.000500 0.098750 0.000000
0.001000 0.098750 0.000000
0.001500 0.098750 0.000000
0.002000 0.098750 0.000000
0.002500 0.098750 0.000000
0.003000 0.098750 0.000000
0.003500 0.098750 0.000000
0.004000 0.098750 0.000000
0.004500 0.098750 0.000000
0.000500 0.097500 0.000000
0.001000 0.097500 0.000000
0.001500 0.097500 0.000000
0.002000 0.097500 0.000000
0.002500 0.097500 0.000000
0.003000 0.097500 0.000000
0.003500 0.097500 0.000000
0.004000 0.097500 0.000000
0.004500 0.097500 0.000000
0.000500 0.096250 0.000000
0.001000 0.096250 0.000000
0.001500 0.096250 0.000000
0.002000 0.096250 0.000000
0.002500 0.096250 0.000000
0.003000 0.096250 0.000000
0.003500 0.096250 0.000000
0.004000 0.096250 0.000000
0.004500 0.096250 0.000000
0.000500 0.095000 0.000000
0.001000 0.095000 0.000000
0.001500 0.095000 0.000000
0.002000 0.095000 0.000000
0.002500 0.095000 0.000000
0.003000 0.095000 0.000000
0.003500 0.095000 0.000000
0.004000 0.095000 0.000000
0.004500 0.095000 0.000000
0.000500 0.093750 0.000000
0.001000 0.093750 0.000000
0.001500 0.093750 0.000000
0.002000 0.093750 0.000000
0.002500 0.093750 0.000000
0.003000 0.093750 0.000000
0.003500 0.093750 0.000000
0.004000 0.093750 0.000000
0.004500 0.093750 0.000000
0.000500 0.092500 0.000000
0.001000 0.092500 0.000000
0.001500 0.092500 0.000000
0.002000 0.092500 0.000000
0.002500 0.092500 0.000000
0.003000 0.092500 0.000000
0.003500 0.092500 0.000000
0.004000 0.092500 0.000000
0.004500 0.092500 0.000000
0.000500 0.091250 0.000000
0.001000 0.091250 0.000000
0.001500 0.091250 0.000000
0.002000 0.091250 0.000000
0.002500 0.091250 0.000000
0.003000 0.091250 0.000000
0.003500 0.091250 0.000000
0.004000 0.091250 0.000000
0.004500 0.091250 0.000000
0.000500 0.090000 0.000000
0.001000 0.090000 0.000000
0.001500 0.090000 0.000000
0.002000 0.090000 0.000000
0.002500 0.090000 0.000000
0.003000 0.090000 0.000000
0.003500 0.090000 0.000000
0.004000 0.090000 0.000000
0.004500 0.090000 0.000000
0.000500 0.088750 0.000000
0.001000 0.088750 0.000000
0.001500 0.088750 0.000000
0.002000 0.088750 0.000000
0.002500 0.088750 0.000000
0.003000 0.088750 0.000000
0.003500 0.088750 0.000000
0.004000 0.088750 0.000000
0.004500 0.088750 0.000000
0.000500 0.087500 0.000000
0.001000 0.087500 0.000000
0.001500 0.087500 0.000000
0.002000 0.087500 0.000000
0.002500 0.087500 0.000000
0.003000 0.087500 0.000000
0.003500 0.087500 0.000000
0.004000 0.087500 0.000000
0.004500 0.087500 0.000000
0.000500 0.086250 0.000000
0.001000 0.086250 0.000000
0.001500 0.086250 0.000000
0.002000 0.086250 0.000000
0.002500 0.086250 0.000000
0.003000 0.086250 0.000000
0.003500 0.086250 0.000000
0.004000 0.086250 0.000000
0.004500 0.086250 0.000000
0.000500 0.085000 0.000000
0.001000 0.085000 0.000000
0.001500 0.085000 0.000000
0.002000 0.085000 0.000000
0.002500 0.085000 0.000000
0.003000 0.085000 0.000000
0.003500 0.085000 0.000000
0.004000 0.085000 0.000000
0.004500 0.085000 0.000000
0.000500 0.083750 0.000000
0.001000 0.083750 0.000000
0.001500 0.083750 0.000000
0.002000 0.083750 0.000000
0.002500 0.083750 0.000000
0.003000 0.083750 0.000000
0.003500 0.083750 0.000000
0.004000 0.083750 0.000000
0.004500 0.083750 0.000000
0.000500 0.082500 0.000000
0.001000 0.082500 0.000000
0.001500 0.082500 0.000000
0.002000 0.082500 0.000000
0.002500 0.082500 0.000000
0.003000 0.082500 0.000000
0.003500 0.082500 0.000000
0.004000 0.082500 0.000000
0.004500 0.082500 0.000000
0.000500 0.081250 0.000000
0.001000 0.081250 0.000000
0.001500 0.081250 0.000000
0.002000 0.081250 0.000000
0.002500 0.081250 0.000000
0.003000 0.081250 0.000000
0.003500 0.081250 0.000000
0.004000 0.081250 0.000000
0.004500 0.081250 0.000000
0.000500 0.080000 0.000000
0.001000 0.080000 0.000000
0.001500 0.080000 0.000000
0.002000 0.080000 0.000000
0.002500 0.080000 0.000000
0.003000 0.080000 0.000000
0.003500 0.080000 0.000000
0.004000 0.080000 0.000000
0.004500 0.080000 0.000000
0.000500 0.078750 0.000000
0.001000 0.078750 0.000000
0.001500 0.078750 0.000000
0.002000 0.078750 0.000000
0.002500 0.078750 0.000000
0.003000 0.078750 0.000000
0.003500 0.078750 0.000000
0.004000 0.078750 0.000000
0.004500 0.078750 0.000000
0.000500 0.077500 0.000000
0.001000 0.077500 0.000000
0.001500 0.077500 0.000000
0.002000 0.077500 0.000000
0.002500 0.077500 0.000000
0.003000 0.077500 0.000000
0.003500 0.077500 0.000000
0.004000 0.077500 0.000000
0.004500 0.077500 0.000000
0.000500 0.076250 0.000000
0.001000 0.076250 0.000000
0.001500 0.076250 0.000000
0.002000 0.076250 0.000000
0.002500 0.076250 0.000000
0.003000 0.076250 0.000000
0.003500 0.076250 0.000000
0.004000 0.076250 0.000000
0.004500 0.076250 0.000000
0.000500 0.075000 0.000000
0.001000 0.075000 0.000000
0.001500 0.075000 0.000000
0.002000 0.075000 0.000000
0.002500 0.075000 0.000000
0.003000 0.075000 0.000000
0.003500 0.075000 0.000000
0.004000 0.075000 0.000000
0.004500 0.075000 0.000000
0.000500 0.073750 0.000000
0.001000 0.073750 0.000000
0.001500 0.073750 0.000000
0.002000 0.073750 0.000000
0.002500 0.073750 0.000000
0.003000 0.073750 0.000000
0.003500 0.073750 0.000000
0.004000 0.073750 0.000000
0.004500 0.073750 0.000000
0.000500 0.072500 0.000000
0.001000 0.072500 0.000000
0.001500 0.072500 0.000000
0.002000 0.072500 0.000000
0.002500 0.072500 0.000000
0.003000 0.072500 0.000000
0.003500 0.072500 0.000000
0.004000 0.072500 0.000000
0.004500 0.072500 0.000000
0.000500 0.071250 0.000000
0.001000 0.071250 0.000000
0.001500 0.071250 0.000000
0.002000 0.071250 0.000000
0.002500 0.071250 0.000000
0.003000 0.071250 0.000000
0.003500 0.071250 0.000000
0.004000 0.071250 0.000000
0.004500 0.071250 0.000000
0.000500 0.070000 0.000000
0.001000 0.070000 0.000000
0.001500 0.070000 0.000000
0.002000 0.070000 0.000000
0.002500 0.070000 0.000000
0.003000 0.070000 0.000000
0.003500 0.070000 0.000000
0.004000 0.070000 0.000000
0.004500 0.070000 0.000000
0.000500 0.068750 0.000000
0.001000 0.068750 0.000000
0.001500 0.068750 0.000000
0.002000 0.068750 0.000000
0.002500 0.068750 0.000000
0.003000 0.068750 0.000000
0.003500 0.068750 0.000000
0.004000 0.068750 0.000000
0.004500 0.068750 0.000000
0.000500 0.067500 0.000000
0.001000 0.067500 0.000000
0.001500 0.067500 0.000000
0.002000 0.067500 0.000000
0.002500 0.067500 0.000000
0.003000 0.067500 0.000000
0.003500 0.067500 0.000000
0.004000 0.067500 0.000000
0.004500 0.067500 0.000000
0.000500 0.066250 0.000000
0.001000 0.066250 0.000000
0.001500 0.066250 0.000000
0.002000 0.066250 0.000000
0.002500 0.066250 0.000000
0.003000 0.066250 0.000000
0.003500 0.066250 0.000000
0.004000 0.066250 0.000000
0.004500 0.066250 0.000000
0.000500 0.065000 0.000000
0.001000 0.065000 0.000000
0.001500 0.065000 0.000000
0.002000 0.065000 0.000000
0.002500 0.065000 0.000000
0.003000 0.065000 0.000000
0.003500 0.065000 0.000000
0.004000 0.065000 0.000000
0.004500 0.065000 0.000000
0.000500 0.063750 0.000000
0.001000 0.063750 0.000000
0.001500 0.063750 0.000000
0.002000 0.063750 0.000000
0.002500 0.063750 0.000000
0.003000 0.063750 0.000000
0.003500 0.063750 0.000000
0.004000 0.063750 0.000000
0.004500 0.063750 0.000000
0.000500 0.062500 0.000000
0.001000 0.062500 0.000000
0.001500 0.062500 0.000000
0.002000 0.062500 0.000000
0.002500 0.062500 0.000000
0.003000 0.062500 0.000000
0.003500 0.062500 0.000000
0.004000 0.062500 0.000000
0.004500 0.062500 0.000000
0.000500 0.061250 0.000000
0.001000 0.061250 0.000000
0.001500 0.061250 0.000000
0.002000 0.061250 0.000000
0.002500 0.061250 0.000000
0.003000 0.061250 0.000000
0.003500 0.061250 0.000000
0.004000 0.061250 0.000000
0.004500 0.061250 0.000000
0.000500 0.060000 0.000000
0.001000 0.060000 0.000000
0.001500 0.060000 0.000000
0.002000 0.060000 0.000000
0.002500 0.060000 0.000000
0.003000 0.060000 0.000000
0.003500 0.060000 0.000000
0.004000 0.060000 0.000000
0.004500 0.060000 0.000000
0.000500 0.058750 0.000000
0.001000 0.058750 0.000000
0.001500 0.058750 0.000000
0.002000 0.058750 0.000000
0.002500 0.058750 0.000000
0.003000 0.058750 0.000000
0.003500 0.058750 0.000000
0.004000 0.058750 0.000000
0.004500 0.058750 0.000000
0.000500 0.057500 0.000000
0.001000 0.057500 0.000000
0.001500 0.057500 0.000000
0.002000 0.057500 0.000000
0.002500 0.057500 0.000000
0.003000 0.057500 0.000000
0.003500 0.057500 0.000000
0.004000 0.057500 0.000000
0.004500 0.057500 0.000000
0.000500 0.056250 0.000000
0.001000 0.056250 0.000000
0.001500 0.056250 0.000000
0.002000 0.056250 0.000000
0.002500 0.056250 0.000000
0.003000 0.056250 0.000000
0.003500 0.056250 0.000000
0.004000 0.056250 0.000000
0.004500 0.056250 0.000000
0.000500 0.055000 0.000000
0.001000 0.055000 0.000000
0.001500 0.055000 0.000000
0.002000 0.055000 0.000000
0.002500 0.055000 0.000000
0.003000 0.055000 0.000000
0.003500 0.055000 0.000000
0.004000 0.055000 0.000000
0.004500 0.055000 0.000000
0.000500 0.053750 0.000000
0.001000 0.053750 0.000000
0.001500 0.053750 0.000000
0.002000 0.053750 0.000000
0.002500 0.053750 0.000000
0.003000 0.053750 0.000000
0.003500 0.053750 0.000000
0.004000 0.053750 0.000000
0.004500 0.053750 0.000000
0.000500 0.052500 0.000000
0.001000 0.052500 0.000000
0.001500 0.052500 0.000000
0.002000 0.052500 0.000000
0.002500 0.052500 0.000000
0.003000 0.052500 0.000000
0.003500 0.052500 0.000000
0.004000 0.052500 0.000000
0.004500 0.052500 0.000000
0.000500 0.051250 0.000000
0.001000 0.051250 0.000000
0.001500 0.051250 0.000000
0.002000 0.051250 0.000000
0.002500 0.051250 0.000000
0.003000 0.051250 0.000000
0.003500 0.051250 0.000000
0.004000 0.051250 0.000000
0.004500 0.051250 0.000000
0.000500 0.050000 0.000000
0.001000 0.050000 0.000000
0.001500 0.050000 0.000000
0.002000 0.050000 0.000000
0.002500 0.050000 0.000000
0.003000 0.050000 0.000000
0.003500 0.050000 0.000000
0.004000 0.050000 0.000000
0.004500 0.050000 0.000000
0.000500 0.048750 0.000000
0.001000 0.048750 0.000000
0.001500 0.048750 0.000000
0.002000 0.048750 0.000000
0.002500 0.048750 0.000000
0.003000 0.048750 0.000000
0.003500 0.048750 0.000000
0.004000 0.048750 0.000000
0.004500 0.048750 0.000000
0.000500 0.047500 0.000000
0.001000 0.047500 0.000000
0.001500 0.047500 0.000000
0.002000 0.047500 0.000000
0.002500 0.047500 0.000000
0.003000 0.047500 0.000000
0.003500 0.047500 0.000000
0.004000 0.047500 0.000000
0.004500 0.047500 0.000000
0.000500 0.046250 0.000000
0.001000 0.046250 0.000000
0.001500 0.046250 0.000000
0.002000 0.046250 0.000000
0.002500 0.046250 0.000000
0.003000 0.046250 0.000000
0.003500 0.046250 0.000000
0.004000 0.046250 0.000000
0.004500 0.046250 0.000000
0.000500 0.045000 0.000000
0.001000 0.045000 0.000000
0.001500 0.045000 0.000000
0.002000 0.045000 0.000000
0.002500 0.045000 0.000000
0.003000 0.045000 0.000000
0.003500 0.045000 0.000000
0.004000 0.045000 0.000000
0.004500 0.045000 0.000000
0.000500 0.043750 0.000000
0.001000 0.043750 0.000000
0.001500 0.043750 0.000000
0.002000 0.043750 0.000000
0.002500 0.043750 0.000000
0.003000 0.043750 0.000000
0.003500 0.043750 0.000000
0.004000 0.043750 0.000000
0.004500 0.043750 0.000000
0.000500 0.042500 0.000000
0.001000 0.042500 0.000000
0.001500 0.042500 0.000000
0.002000 0.042500 0.000000
0.002500 0.042500 0.000000
0.003000 0.042500 0.000000
0.003500 0.042500 0.000000
0.004000 0.042500 0.000000
0.004500 0.042500 0.000000
0.000500 0.041250 0.000000
0.001000 0.041250 0.000000
0.001500 0.041250 0.000000
0.002000 0.041250 0.000000
0.002500 0.041250 0.000000
0.003000 0.041250 0.000000
0.003500 0.041250 0.000000
0.004000 0.041250 0.000000
0.004500 0.041250 0.000000
0.000500 0.040000 0.000000
0.001000 0.040000 0.000000
0.001500 0.040000 0.000000
0.002000 0.040000 0.000000
0.002500 0.040000 0.000000
0.003000 0.040000 0.000000
0.003500 0.040000 0.000000
0.004000 0.040000 0.000000
0.004500 0.040000 0.000000
0.000500 0.038750 0.000000
0.001000 0.038750 0.000000
0.001500 0.038750 0.000000
0.002000 0.038750 0.000000
0.002500 0.038750 0.000000
0.003000 0.038750 0.000000
0.003500 0.038750 0.000000
0.004000 0.038750 0.000000
0.004500 0.038750 0.000000
0.000500 0.037500 0.000000
0.001000 0.037500 0.000000
0.001500 0.037500 0.000000
0.002000 0.037500 0.000000
0.002500 0.037500 0.000000
0.003000 0.037500 0.000000
0.003500 0.037500 0.000000
0.004000 0.037500 0.000000
0.004500 0.037500 0.000000
0.000500 0.036250 0.000000
0.001000 0.036250 0.000000
0.001500 0.036250 0.000000
0.002000 0.036250 0.000000
0.002500 0.036250 0.000000
0.003000 0.036250 0.000000
0.003500 0.036250 0.000000
0.004000 0.036250 0.000000
0.004500 0.036250 0.000000
0.000500 0.035000 0.000000
0.001000 0.035000 0.000000
0.001500 0.035000 0.000000
0.002000 0.035000 0.000000
0.002500 0.035000 0.000000
0.003000 0.035000 0.000000
0.003500 0.035000 0.000000
0.004000 0.035000 0.000000
0.004500 0.035000 0.000000
0.000500 0.033750 0.000000
0.001000 0.033750 0.000000
0.001500 0.033750 0.000000
0.002000 0.033750 0.000000
0.002500 0.033750 0.000000
0.003000 0.033750 0.000000
0.003500 0.033750 0.000000
0.004000 0.033750 0.000000
0.004500 0.033750 0.000000
0.000500 0.032500 0.000000
0.001000 0.032500 0.000000
0.001500 0.032500 0.000000
0.002000 0.032500 0.000000
0.002500 0.032500 0.000000
0.003000 0.032500 0.000000
0.003500 0.032500 0.000000
0.004000 0.032500 0.000000
0.004500 0.032500 0.000000
0.000500 0.031250 0.000000
0.001000 0.031250 0.000000
0.001500 0.031250 0.000000
0.002000 0.031250 0.000000
0.002500 0.031250 0.000000
0.003000 0.031250 0.000000
0.003500 0.031250 0.000000
0.004000 0.031250 0.000000
0.004500 0.031250 0.000000
0.000500 0.030000 0.000000
0.001000 0.030000 0.000000
0.001500 0.030000 0.000000
0.002000 0.030000 0.000000
0.002500 0.030000 0.000000
0.003000 0.030000 0.000000
0.003500 0.030000 0.000000
0.004000 0.030000 0.000000
0.004500 0.030000 0.000000
0.000500 0.028750 0.000000
0.001000 0.028750 0.000000
0.001500 0.028750 0.000000
0.002000 0.028750 0.000000
0.002500 0.028750 0.000000
0.003000 0.028750 0.000000
0.003500 0.028750 0.000000
0.004000 0.028750 0.000000
0.004500 0.028750 0.000000
0.000500 0.027500 0.000000
0.001000 0.027500 0.000000
0.001500 0.027500 0.000000
0.002000 0.027500 0.000000
0.002500 0.027500 0.000000
0.003000 0.027500 0.000000
0.003500 0.027500 0.000000
0.004000 0.027500 0.000000
0.004500 0.027500 0.000000
0.000500 0.026250 0.000000
0.001000 0.026250 0.000000
0.001500 0.026250 0.000000
0.002000 0.026250 0.000000
0.002500 0.026250 0.000000
0.003000 0.026250 0.000000
0.003500 0.026250 0.000000
0.004000 0.026250 0.000000
0.004500 0.026250 0.000000
0.000500 0.025000 0.000000
0.001000 0.025000 0.000000
0.001500 0.025000 0.000000
0.002000 0.025000 0.000000
0.002500 0.025000 0.000000
0.003000 0.025000 0.000000
0.003500 0.025000 0.000000
0.004000 0.025000 0.000000
0.004500 0.025000 0.000000
0.000500 0.023750 0.000000
0.001000 0.023750 0.000000
0.001500 0.023750 0.000000
0.002000 0.023750 0.000000
0.002500 0.023750 0.000000
0.003000 0.023750 0.000000
0.003500 0.023750 0.000000
0.004000 0.023750 0.000000
0.004500 0.023750 0.000000
0.000500 0.022500 0.000000
0.001000 0.022500 0.000000
0.001500 0.022500 0.000000
0.002000 0.022500 0.000000
0.002500 0.022500 0.000000
0.003000 0.022500 0.000000
0.003500 0.022500 0.000000
0.004000 0.022500 0.000000
0.004500 0.022500 0.000000
0.000500 0.021250 0.000000
0.001000 0.021250 0.000000
0.001500 0.021250 0.000000
0.002000 0.021250 0.000000
0.002500 0.021250 0.000000
0.003000 0.021250 0.000000
0.003500 0.021250 0.000000
0.004000 0.021250 0.000000
0.004500 0.021250 0.000000
0.000500 0.020000 0.000000
0.001000 0.020000 0.000000
0.001500 0.020000 0.000000
0.002000 0.020000 0.000000
0.002500 0.020000 0.000000
0.003000 0.020000 0.000000
0.003500 0.020000 0.000000
0.004000 0.020000 0.000000
0.004500 0.020000 0.000000
0.000500 0.018750 0.000000
0.001000 0.018750 0.000000
0.001500 0.018750 0.000000
0.002000 0.018750 0.000000
0.002500 0.018750 0.000000
0.003000 0.018750 0.000000
0.003500 0.018750 0.000000
0.004000 0.018750 0.000000
0.004500 0.018750 0.000000
0.000500 0.017500 0.000000
0.001000 0.017500 0.000000
0.001500 0.017500 0.000000
0.002000 0.017500 0.000000
0.002500 0.017500 0.000000
0.003000 0.017500 0.000000
0.003500 0.017500 0.000000
0.004000 0.017500 0.000000
0.004500 0.017500 0.000000
0.000500 0.016250 0.000000
0.001000 0.016250 0.000000
0.001500 0.016250 0.000000
0.002000 0.016250 0.000000
0.002500 0.016250 0.000000
0.003000 0.016250 0.000000
0.003500 0.016250 0.000000
0.004000 0.016250 0.000000
0.004500 0.016250 0.000000
0.000500 0.015000 0.000000
0.001000 0.015000 0.000000
0.001500 0.015000 0.000000
0.002000 0.015000 0.000000
0.002500 0.015000 0.000000
0.003000 0.015000 0.000000
0.003500 0.015000 0.000000
0.004000 0.015000 0.000000
0.004500 0.015000 0.000000
0.000500 0.013750 0.000000
0.001000 0.013750 0.000000
0.001500 0.013750 0.000000
0.002000 0.013750 0.000000
0.002500 0.013750 0.000000
0.003000 0.013750 0.000000
0.003500 0.013750 0.000000
0.004000 0.013750 0.000000
0.004500 0.013750 0.000000
0.000500 0.012500 0.000000
0.001000 0.012500 0.000000
0.001500 0.012500 0.000000
0.002000 0.012500 0.000000
0.002500 0.012500 0.000000
0.003000 0.012500 0.000000
0.003500 0.012500 0.000000
0.004000 0.012500 0.000000
0.004500 0.012500 0.000000
0.000500 0.011250 0.000000
0.001000 0.011250 0.000000
0.001500 0.011250 0.000000
0.002000 0.011250 0.000000
0.002500 0.011250 0.000000
0.003000 0.011250 0.000000
0.003500 0.011250 0.000000
0.004000 0.011250 0.000000
0.004500 0.011250 0.000000
0.000500 0.010000 0.000000
0.001000 0.010000 0.000000
0.001500 0.010000 0.000000
0.002000 0.010000 0.000000
0.002500 0.010000 0.000000
0.003000 0.010000 0.000000
0.003500 0.010000 0.000000
0.004000 0.010000 0.000000
0.004500 0.010000 0.000000
0.000500 0.008750 0.000000
0.001000 0.008750 0.000000
0.001500 0.008750 0.000000
0.002000 0.008750 0.000000
0.002500 0.008750 0.000000
0.003000 0.008750 0.000000
0.003500 0.008750 0.000000
0.004000 0.008750 0.000000
0.004500 0.008750 0.000000
0.000500 0.007500 0.000000
0.001000 0.007500 0.000000
0.001500 0.007500 0.000000
0.002000 0.007500 0.000000
0.002500 0.007500 0.000000
0.003000 0.007500 0.000000
0.003500 0.007500 0.000000
0.004000 0.007500 0.000000
0.004500 0.007500 0.000000
0.000500 0.006250 0.000000
0.001000 0.006250 0.000000
0.001500 0.006250 0.000000
0.002000 0.006250 0.000000
0.002500 0.006250 0.000000
0.003000 0.006250 0.000000
0.003500 0.006250 0.000000
0.004000 0.006250 0.000000
0.004500 0.006250 0.000000
0.000500 0.005000 0.000000
0.001000 0.005000 0.000000
0.001500 0.005000 0.000000
0.002000 0.005000 0.000000
0.002500 0.005000 0.000000
0.003000 0.005000 0.000000
0.003500 0.005000 0.000000
0.004000 0.005000 0.000000
0.004500 0.005000 0.000000
0.000500 0.003750 0.000000
0.001000 0.003750 0.000000
0.001500 0.003750 0.000000
0.002000 0.003750 0.000000
0.002500 0.003750 0.000000
0.003000 0.003750 0.000000
0.003500 0.003750 0.000000
0.004000 0.003750 0.000000
0.004500 0.003750 0.000000
0.000500 0.002500 0.000000
0.001000 0.002500 0.000000
0.001500 0.002500 0.000000
0.002000 0.002500 0.000000
0.002500 0.002500 0.000000
0.003000 0.002500 0.000000
0.003500 0.002500 0.000000
0.004000 0.002500 0.000000
0.004500 0.002500 0.000000
0.000500 0.001250 0.000000
0.001000 0.001250 0.000000
0.001500 0.001250 0.000000
0.002000 0.001250 0.000000
0.002500 0.001250 0.000000
0.003000 0.001250 0.000000
0.003500 0.001250 0.000000
0.004000 0.001250 0.000000
0.004500 0.001250 0.000000
CELLS 800 4000
4 82 83 180 179
4 179 180 181 178
4 178 181 182 177
4 177 182 183 176
4 176 183 184 175
4 175 184 185 174
4 174 185 186 173
4 173 186 187 172
4 172 187 188 171
4 171 188 80 0
4 83 84 189 180
4 180 189 190 181
4 181 190 191 182
4 182 191 192 183
4 183 192 193 184
4 184 193 194 185
4 185 194 195 186
4 186 195 196 187
4 187 196 197 188
4 188 197 79 80
4 84 85 198 189
4 189 198 199 190
4 190 199 200 191
4 191 200 201 192
4 192 201 202 193
4 193 202 203 194
4 194 203 204 195
4 195 204 205 196
4 196 205 206 197
4 197 206 78 79
4 85 86 207 198
4 198 207 208 199
4 199 208 209 200
4 200 209 210 201
4 201 210 211 202
4 202 211 212 203
4 203 212 213 204
4 204 213 214 205
4 205 214 215 206
4 206 215 77 78
4 86 87 216 207
4 207 216 217 208
4 208 217 218 209
4 209 218 219 210
4 210 219 220 211
4 211 220 221 212
4 212 221 222 213
4 213 222 223 214
4 214 223 224 215
4 215 224 76 77
4 87 88 225 216
4 216 225 226 217
4 217 226 227 218
4 218 227 228 219
4 219 228 229 220
4 220 229 230 221
4 221 230 231 222
4 222 231 232 223
4 223 232 233 224
4 224 233 75 76
4 88 89 234 225
4 225 234 235 226
4 226 235 236 227
4 227 236 237 228
4 228 237 238 229
4 229 238 239 230
4 230 239 240 231
4 231 240 241 232
4 232 241 242 233
4 233 242 74 75
4 89 90 243 234
4 234 243 244 235
4 235 244 245 236
4 236 245 246 237
4 237 246 247 238
4 238 247 248 239
4 239 248 249 240
4 240 249 250 241
4 241 250 251 242
4 242 251 73 74
4 90 91 252 243
4 243 252 253 244
4 244 253 254 245
4 245 254 255 246
4 246 255 256 247
4 247 256 257 248
4 248 257 258 249
4 249 258 259 250
4 250 259 260 251
4 251 260 72 73
4 91 92 261 252
4 252 261 262 253
4 253 262 263 254
4 254 263 264 255
4 255 264 265 256
4 256 265 266 257
4 257 266 267 258
4 258 267 268 259
4 259 268 269 260
4 260 269 71 72
4 92 93 270 261
4 261 270 271 262
4 262 271 272 263
4 263 272 273 264
4 264 273 274 265
4 265 274 275 266
4 266 275 276 267
4 267 276 277 268
4 268 277 278 269
4 269 278 70 71
4 93 94 279 270
4 270 279 280 271
4 271 280 281 272
4 272 281 282 273
4 273 282 283 274
4 274 283 284 275
4 275 284 285 276
4 276 285 286 277
4 277 286 287 278
4 278 287 69 70
4 94 95 288 279
4 279 288 289 280
4 280 289 290 281
4 281 290 291 282
4 282 291 292 283
4 283 292 293 284
4 284 293 294 285
4 285 294 295 286
4 286 295 296 287
4 287 296 68 69
4 95 96 297 288
4 288 297 298 289
4 289 298 299 290
4 290 299 300 291
4 291 300 301 292
4 292 301 302 293
4 293 302 303 294
4 294 303 304 295
4 295 304 305 296
4 296 305 67 68
4 96 97 306 297
4 297 306 307 298
4 298 307 308 299
4 299 308 309 300
4 300 309 310 301
4 301 310 311 302
4 302 311 312 303
4 303 312 313 304
4 304 313 314 305
4 305 314 66 67
4 97 98 315 306
4 306 315 316 307
4 307 316 317 308
4 308 317 318 309
4 309 318 319 310
4 310 319 320 311
4 311 320 321 312
4 312 321 322 313
4 313 322 323 314
4 314 323 65 66
4 98 99 324 315
4 315 324 325 316
4 316 325 326 317
4 317 326 327 318
4 318 327 328 319
4 319 328 329 320
4 320 329 330 321
4 321 330 331 322
4 322 331 332 323
4 323 332 64 65
4 99 100 333 324
4 324 333 334 325
4 325 334 335 326
4 326 335 336 327
4 327 336 337 328
4 328 337 338 329
4 329 338 339 330
4 330 339 340 331
4 331 340 341 332
4 332 341 63 64
4 100 101 342 333
4 333 342 343 334
4 334 343 344 335
4 335 344 345 336
4 336 345 346 337
4 337 346 347 338
4 338 347 348 339
4 339 348 349 340
4 340 349 350 341
4 341 350 62 63
4 101 102 351 342
4 342 351 352 343
4 343 352 353 344
4 344 353 354 345
4 345 354 355 346
4 346 355 356 347
4 347 356 357 348
4 348 357 358 349
4 349 358 359 350
4 350 359 61 62
4 102 103 360 351
4 351 360 361 352
4 352 361 362 353
4 353 362 363 354
4 354 363 364 355
4 355 364 365 356
4 356 365 366 357
4 357 366 367 358
4 358 367 368 359
4 359 368 60 61
4 103 104 369 360
4 360 369 370 361
4 361 370 371 362
4 362 371 372 363
4 363 372 373 364
4 364 373 374 365
4 365 374 375 366
4 366 375 376 367
4 367 376 377 368
4 368 377 59 60
4 104 105 378 369
4 369 378 379 370
4 370 379 380 371
4 371 380 381 372
4 372 381 382 373
4 373 382 383 374
4 374 383 384 375
4 375 384 385 376
4 376 385 386 377
4 377 386 58 59
4 105 106 387 378
4 378 387 388 379
4 379 388 389 380
4 380 389 390 381
4 381 390 391 382
4 382 391 392 383
4 383 392 393 384
4 384 393 394 385
4 385 394 395 386
4 386 395 57 58
4 106 107 396 387
4 387 396 397 388
4 388 397 398 389
4 389 398 399 390
4 390 399 400 391
4 391 400 401 392
4 392 401 402 393
4 393 402 403 394
4 394 403 404 395
4 395 404 56 57
4 107 108 405 396
4 396 405 406 397
4 397 406 407 398
4 398 407 408 399
4 399 408 409 400
4 400 409 410 401
4 401 410 411 402
4 402 411 412 403
4 403 412 413 404
4 404 413 55 56
4 108 109 414 405
4 405 414 415 406
4 406 415 416 407
4 407 416 417 408
4 408 417 418 409
4 409 418 419 410
4 410 419 420 411
4 411 420 421 412
4 412 421 422 413
4 413 422 54 55
4 109 110 423 414
4 414 423 424 415
4 415 424 425 416
4 416 425 426 417
4 417 426 427 418
4 418 427 428 419
4 419 428 429 420
4 420 429 430 421
4 421 430 431 422
4 422 431 53 54
4 110 111 432 423
4 423 432 433 424
4 424 433 434 425
4 425 434 435 426
4 426 435 436 427
4 427 436 437 428
4 428 437 438 429
4 429 438 439 430
4 430 439 440 431
4 431 440 52 53
4 111 112 441 432
4 432 441 442 433
4 433 442 443 434
4 434 443 444 435
4 435 444 445 436
4 436 445 446 437
4 437 446 447 438
4 438 447 448 439
4 439 448 449 440
4 440 449 51 52
4 112 113 450 441
4 441 450 451 442
4 442 451 452 443
4 443 452 453 444
4 444 453 454 445
4 445 454 455 446
4 446 455 456 447
4 447 456 457 448
4 448 457 458 449
4 449 458 50 51
4 113 114 459 450
4 450 459 460 451
4 451 460 461 452
4 452 461 462 453
4 453 462 463 454
4 454 463 464 455
4 455 464 465 456
4 456 465 466 457
4 457 466 467 458
4 458 467 49 50
4 114 115 468 459
4 459 468 469 460
4 460 469 470 461
4 461 470 471 462
4 462 471 472 463
4 463 472 473 464
4 464 473 474 465
4 465 474 475 466
4 466 475 476 467
4 467 476 48 49
4 115 116 477 468
4 468 477 478 469
4 469 478 479 470
4 470 479 480 471
4 471 480 481 472
4 472 481 482 473
4 473 482 483 474
4 474 483 484 475
4 475 484 485 476
4 476 485 47 48
4 116 117 486 477
4 477 486 487 478
4 478 487 488 479
4 479 488 489 480
4 480 489 490 481
4 481 490 491 482
4 482 491 492 483
4 483 492 493 484
4 484 493 494 485
4 485 494 46 47
4 117 118 495 486
4 486 495 496 487
4 487 496 497 488
4 488 497 498 489
4 489 498 499 490
4 490 499 500 491
4 491 500 501 492
4 492 501 502 493
4 493 502 503 494
4 494 503 45 46
4 118 119 504 495
4 495 504 505 496
4 496 505 506 497
4 497 506 507 498
4 498 507 508 499
4 499 508 509 500
4 500 509 510 501
4 501 510 511 502
4 502 511 512 503
4 503 512 44 45
4 119 120 513 504
4 504 513 514 505
4 505 514 515 506
4 506 515 516 507
4 507 516 517 508
4 508 517 518 509
4 509 518 519 510
4 510 519 520 511
4 511 520 521 512
4 512 521 43 44
4 120 121 522 513
4 513 522 523 514
4 514 523 524 515
4 515 524 525 516
4 516 525 526 517
4 517 526 527 518
4 518 527 528 519
4 519 528 529 520
4 520 529 530 521
4 521 530 42 43
4 121 122 531 522
4 522 531 532 523
4 523 532 533 524
4 524 533 534 525
4 525 534 535 526
4 526 535 536 527
4 527 536 537 528
4 528 537 538 529
4 529 538 539 530
4 530 539 41 42
4 122 123 540 531
4 531 540 541 532
4 532 541 542 533
4 533 542 543 534
4 534 543 544 535
4 535 544 545 536
4 536 545 546 537
4 537 546 547 538
4 538 547 548 539
4 539 548 40 41
4 123 124 549 540
4 540 549 550 541
4 541 550 551 542
4 542 551 552 543
4 543 552 553 544
4 544 553 554 545
4 545 554 555 546
4 546 555 556 547
4 547 556 557 548
4 548 557 39 40
4 124 125 558 549
4 549 558 559 550
4 550 559 560 551
4 551 560 561 552
4 552 561 562 553
4 553 562 563 554
4 554 563 564 555
4 555 564 565 556
4 556 565 566 557
4 557 566 38 39
4 125 126 567 558
4 558 567 568 559
4 559 568 569 560
4 560 569 570 561
4 561 570 571 562
4 562 571 572 563
4 563 572 573 564
4 564 573 574 565
4 565 574 575 566
4 566 575 37 38
4 126 127 576 567
4 567 576 577 568
4 568 577 578 569
4 569 578 579 570
4 570 579 580 571
4 571 580 581 572
4 572 581 582 573
4 573 582 583 574
4 574 583 584 575
4 575 584 36 37
4 127 128 585 576
4 576 585 586 577
4 577 586 587 578
4 578 587 588 579
4 579 588 589 580
4 580 589 590 581
4 581 590 591 582
4 582 591 592 583
4 583 592 593 584
4 584 593 35 36
4 128 129 594 585
4 585 594 595 586
4 586 595 596 587
4 587 596 597 588
4 588 597 598 589
4 589 598 599 590
4 590 599 600 591
4 591 600 601 592
4 592 601 602 593
4 593 602 34 35
4 129 130 603 594
4 594 603 604 595
4 595 604 605 596
4 596 605 606 597
4 597 606 607 598
4 598 607 608 599
4 599 608 609 600
4 600 609 610 601
4 601 610 611 602
4 602 611 33 34
4 130 131 612 603
4 603 612 613 604
4 604 613 614 605
4 605 614 615 606
4 606 615 616 607
4 607 616 617 608
4 608 617 618 609
4 609 618 619 610
4 610 619 620 611
4 611 620 32 33
4 131 132 621 612
4 612 621 622 613
4 613 622 623 614
4 614 623 624 615
4 615 624 625 616
4 616 625 626 617
4 617 626 627 618
4 618 627 628 619
4 619 628 629 620
4 620 629 31 32
4 132 133 630 621
4 621 630 631 622
4 622 631 632 623
4 623 632 633 624
4 624 633 634 625
4 625 634 635 626
4 626 635 636 627
4 627 636 637 628
4 628 637 638 629
4 629 638 30 31
4 133 134 639 630
4 630 639 640 631
4 631 640 641 632
4 632 641 642 633
4 633 642 643 634
4 634 643 644 635
4 635 644 645 636
4 636 645 646 637
4 637 646 647 638
4 638 647 29 30
4 134 135 648 639
4 639 648 649 640
4 640 649 650 641
4 641 650 651 642
4 642 651 652 643
4 643 652 653 644
4 644 653 654 645
4 645 654 655 646
4 646 655 656 647
4 647 656 28 29
4 135 136 657 648
4 648 657 658 649
4 649 658 659 650
4 650 659 660 651
4 651 660 661 652
4 652 661 662 653
4 653 662 663 654
4 654 663 664 655
4 655 664 665 656
4 656 665 27 28
4 136 137 666 657
4 657 666 667 658
4 658 667 668 659
4 659 668 669 660
4 660 669 670 661
4 661 670 671 662
4 662 671 672 663
4 663 672 673 664
4 664 673 674 665
4 665 674 26 27
4 137 138 675 666
4 666 675 676 667
4 667 676 677 668
4 668 677 678 669
4 669 678 679 670
4 670 679 680 671
4 671 680 681 672
4 672 681 682 673
4 673 682 683 674
4 674 683 25 26
4 138 139 684 675
4 675 684 685 676
4 676 685 686 677
4 677 686 687 678
4 678 687 688 679
4 679 688 689 680
4 680 689 690 681
4 681 690 691 682
4 682 691 692 683
4 683 692 24 25
4 139 140 693 684
4 684 693 694 685
4 685 694 695 686
4 686 695 696 687
4 687 696 697 688
4 688 697 698 689
4 689 698 699 690
4 690 699 700 691
4 691 700 701 692
4 692 701 23 24
4 140 141 702 693
4 693 702 703 694
4 694 703 704 695
4 695 704 705 696
4 696 705 706 697
4 697 706 707 698
4 698 707 708 699
4 699 708 709 700
4 700 709 710 701
4 701 710 22 23
4 141 142 711 702
4 702 711 712 703
4 703 712 713 704
4 704 713 714 705
4 705 714 715 706
4 706 715 716 707
4 707 716 717 708
4 708 717 718 709
4 709 718 719 710
4 710 719 21 22
4 142 143 720 711
4 711 720 721 712
4 712 721 722 713
4 713 722 723 714
4 714 723 724 715
4 715 724 725 716
4 716 725 726 717
4 717 726 727 718
4 718 727 728 719
4 719 728 20 21
4 143 144 729 720
4 720 729 730 721
4 721 730 731 722
4 722 731 732 723
4 723 732 733 724
4 724 733 734 725
4 725 734 735 726
4 726 735 736 727
4 727 736 737 728
4 728 737 19 20
4 144 145 738 729
4 729 738 739 730
4 730 739 740 731
4 731 740 741 732
4 732 741 742 733
4 733 742 743 734
4 734 743 744 735
4 735 744 745 736
4 736 745 746 737
4 737 746 18 19
4 145 146 747 738
4 738 747 748 739
4 739 748 749 740
4 740 749 750 741
4 741 750 751 742
4 742 751 752 743
4 743 752 753 744
4 744 753 754 745
4 745 754 755 746
4 746 755 17 18
4 146 147 756 747
4 747 756 757 748
4 748 757 758 749
4 749 758 759 750
4 750 759 760 751
4 751 760 761 752
4 752 761 762 753
4 753 762 763 754
4 754 763 764 755
4 755 764 16 17
4 147 148 765 756
4 756 765 766 757
4 757 766 767 758
4 758 767 768 759
4 759 768 769 760
4 760 769 770 761
4 761 770 771 762
4 762 771 772 763
4 763 772 773 764
4 764 773 15 16
4 148 149 774 765
4 765 774 775 766
4 766 775 776 767
4 767 776 777 768
4 768 777 778 769
4 769 778 779 770
4 770 779 780 771
4 771 780 781 772
4 772 781 782 773
4 773 782 14 15
4 149 150 783 774
4 774 783 784 775
4 775 784 785 776
4 776 785 786 777
4 777 786 787 778
4 778 787 788 779
4 779 788 789 780
4 780 789 790 781
4 781 790 791 782
4 782 791 13 14
4 150 151 792 783
4 783 792 793 784
4 784 793 794 785
4 785 794 795 786
4 786 795 796 787
4 787 796 797 788
4 788 797 798 789
4 789 798 799 790
4 790 799 800 791
4 791 800 12 13
4 151 152 801 792
4 792 801 802 793
4 793 802 803 794
4 794 803 804 795
4 795 804 805 796
4 796 805 806 797
4 797 806 807 798
4 798 807 808 799
4 799 808 809 800
4 800 809 11 12
4 152 153 810 801
4 801 810 811 802
4 802 811 812 803
4 803 812 813 804
4 804 813 814 805
4 805 814 815 806
4 806 815 816 807
4 807 816 817 808
4 808 817 818 809
4 809 818 10 11
4 153 154 819 810
4 810 819 820 811
4 811 820 821 812
4 812 821 822 813
4 813 822 823 814
4 814 823 824 815
4 815 824 825 816
4 816 825 826 817
4 817 826 827 818
4 818 827 9 10
4 154 155 828 819
4 819 828 829 820
4 820 829 830 821
4 821 830 831 822
4 822 831 832 823
4 823 832 833 824
4 824 833 834 825
4 825 834 835 826
4 826 835 836 827
4 827 836 8 9
4 155 156 837 828
4 828 837 838 829
4 829 838 839 830
4 830 839 840 831
4 831 840 841 832
4 832 841 842 833
4 833 842 843 834
4 834 843 844 835
4 835 844 845 836
4 836 845 7 8
4 156 157 846 837
4 837 846 847 838
4 838 847 848 839
4 839 848 849 840
4 840 849 850 841
4 841 850 851 842
4 842 851 852 843
4 843 852 853 844
4 844 853 854 845
4 845 854 6 7
4 157 158 855 846
4 846 855 856 847
4 847 856 857 848
4 848 857 858 849
4 849 858 859 850
4 850 859 860 851
4 851 860 861 852
4 852 861 862 853
4 853 862 863 854
4 854 863 5 6
4 158 159 864 855
4 855 864 865 856
4 856 865 866 857
4 857 866 867 858
4 858 867 868 859
4 859 868 869 860
4 860 869 870 861
4 861 870 871 862
4 862 871 872 863
4 863 872 4 5
4 159 160 873 864
4 864 873 874 865
4 865 874 875 866
4 866 875 876 867
4 867 876 877 868
4 868 877 878 869
4 869 878 879 870
4 870 879 880 871
4 871 880 881 872
4 872 881 3 4
4 160 161 882 873
4 873 882 883 874
4 874 883 884 875
4 875 884 885 876
4 876 885 886 877
4 877 886 887 878
4 878 887 888 879
4 879 888 889 880
4 880 889 890 881
4 881 890 2 3
4 161 81 162 882
4 882 162 163 883
4 883 163 164 884
4 884 164 165 885
4 885 165 166 886
4 886 166 167 887
4 887 167 168 888
4 888 168 169 889
4 889 169 170 890
4 890 170 1 2
CELL_TYPES 800
9
9
9
9
9
9
9
9
9
9
9
9
9
9
9
9
9
9
9
9
9
9
9
9
9
9
9
9
9
9
9
9
9
9
9
9
9
9
9
9
9
9
9
9
9
9
9
9
9
9
9
9
9
9
9
9
9
9
9
9
9
9
9
9
9
9
9
9
9
9
9
9
9
9
9
9
9
9
9
9
9
9
9
9
9
9
9
9
9
9
9
9
9
9
9
9
9
9
9
9
9
9
9
9
9
9
9
9
9
9
9
9
9
9
9
9
9
9
9
9
9
9
9
9
9
9
9
9
9
9
9
9
9
9
9
9
9
9
9
9
9
9
9
9
9
9
9
9
9
9
9
9
9
9
9
9
9
9
9
9
9
9
9
9
9
9
9
9
9
9
9
9
9
9
9
9
9
9
9
9
9
9
9
9
9
9
9
9
9
9
9
9
9
9
9
9
9
9
9
9
9
9
9
9
9
9
9
9
9
9
9
9
9
9
9
9
9
9
9
9
9
9
9
9
9
9
9
9
9
9
9
9
9
9
9
9
9
9
9
9
9
9
9
9
9
9
9
9
9
9
9
9
9
9
9
9
9
9
9
9
9
9
9
9
9
9
9
9
9
9
9
9
9
9
9
9
9
9
9
9
9
9
9
9
9
9
9
9
9
9
9
9
9
9
9
9
9
9
9
9
9
9
9
9
9
9
9
9
9
9
9
9
9
9
9
9
9
9
9
9
9
9
9
9
9
9
9
9
9
9
9
9
9
9
9
9
9
9
9
9
9
9
9
9
9
9
9
9
9
9
9
9
9
9
9
9
9
9
9
9
9
9
9
9
9
9
9
9
9
9
9
9
9
9
9
9
9
9
9
9
9
9
9
9
9
9
9
9
9
9
9
9
9
9
9
9
9
9
9
9
9
9
9
9
9
9
9
9
9
9
9
9
9
9
9
9
9
9
9
9
9
9
9
9
9
9
9
9
9
9
9
9
9
9
9
9
9
9
9
9
9
9
9
9
9
9
9
9
9
9
9
9
9
9
9
9
9
9
9
9
9
9
9
9
9
9
9
9
9
9
9
9
9
9
9
9
9
9
9
9
9
9
9
9
9
9
9
9
9
9
9
9
9
9
9
9
9
9
9
9
9
9
9
9
9
9
9
9
9
9
9
9
9
9
9
9
9
9
9
9
9
9
9
9
9
9
9
9
9
9
9
9
9
9
9
9
9
9
9
9
9
9
9
9
9
9
9
9
9
9
9
9
9
9
9
9
9
9
9
9
9
9
9
9
9
9
9
9
9
9
9
9
9
9
9
9
9
9
9
9
9
9
9
9
9
9
9
9
9
9
9
9
9
9
9
9
9
9
9
9
9
9
9
9
9
9
9
9
9
9
9
9
9
9
9
9
9
9
9
9
9
9
9
9
9
9
9
9
9
9
9
9
9
9
9
9
9
9
9
9
9
9
9
9
9
9
9
9
9
9
9
9
9
9
9
9
9
9
9
9
9
9
9
9
9
9
9
9
9
9
9
9
9
9
9
9
9
9
9
9
9
9
9
9
9
9
9
9
9
9
9
9
9
9
9
9
9
9
9
9
9
9
9
9
9
9
9
9
9
9
9
9
9
9
9
9
9
9
9
9
9
9
9
9
9
9
9
9
9
9
9
9
9
9
9
9
9
9
9
9
9
9
9
9
9
9
9
9
9
9
9
9
9
9
9
9
9
9
9
9
9
9
9
9
9
9
9
9
9
9
9
9
9
9
9
9
9
9
9
9
9
9
9
9
9
9
9
9
9
9
9
9
9
9
9
9
9
9
9
9
POINT_DATA 891
SCALARS u1 float
LOOKUP_TABLE default
3e-18
-2e-08
-2e-08
-2e-08
-2e-08
-2e-08
-2e-08
-2e-08
-2e-08
-2e-08
-2e-08
-2e-08
-2e-08
-2e-08
-2e-08
-2e-08
-2e-08
-2e-08
-2e-08
-2e-08
-2e-08
-2e-08
-2e-08
-2e-08
-2e-08
-2e-08
-2e-08
-2e-08
-2e-08
-2e-08
-2e-08
-2e-08
-2e-08
-2e-08
-2e-08
-2e-08
-2e-08
-2e-08
-2e-08
-2e-08
-2e-08
-2e-08
-2e-08
-2e-08
-2e-08
-2e-08
-2e-08
-2e-08
-2e-08
-2e-08
-2e-08
-2e-08
-2e-08
-2e-08
-2e-08
-2e-08
-2e-08
-2e-08
-2e-08
-2e-08
-2e-08
-2e-08
-2e-08
-2e-08
-2e-08
-2e-08
-2e-08
-2e-08
-2e-08
-2e-08
-2e-08
-2e-08
-2e-08
-2e-08
-2e-08
-2e-08
-2e-08
-2e-08
-2e-08
-2e-08
-1e-08
2e-08
4e-18
1e-08
2e-08
2e-08
2e-08
2e-08
2e-08
2e-08
2e-08
2e-08
2e-08
2e-08
2e-08
2e-08
2e-08
2e-08
2e-08
2e-08
2e-08
2e-08
2e-08
2e-08
2e-08
2e-08
2e-08
2e-08
2e-08
2e-08
2e-08
2e-08
2e-08
2e-08
2e-08
2e-08
2e-08
2e-08
2e-08
2e-08
2e-08
2e-08
2e-08
2e-08
2e-08
2e-08
2e-08
2e-08
2e-08
2e-08
2e-08
2e-08
2e-08
2e-08
2e-08
2e-08
2e-08
2e-08
2e-08
2e-08
2e-08
2e-08
2e-08
2e-08
2e-08
2e-08
2e-08
2e-08
2e-08
2e-08
2e-08
2e-08
2e-08
2e-08
2e-08
2e-08
2e-08
2e-08
2e-08
2e-08
2e-08
2e-08
1e-08
1e-08
7e-09
3e-09
2e-15
-3e-09
-7e-09
-1e-08
-1e-08
-2e-18
-5e-18
-2e-18
4e-18
5e-18
7e-18
-4e-18
-5e-18
-9e-18
9e-09
6e-09
4e-09
2e-09
1e-15
-2e-09
-4e-09
-6e-09
-9e-09
1e-08
9e-09
6e-09
3e-09
2e-15
-3e-09
-6e-09
-9e-09
-1e-08
1e-08
1e-08
7e-09
3e-09
2e-15
-3e-09
-7e-09
-1e-08
-1e-08
1e-08
1e-08
7e-09
3e-09
2e-15
-3e-09
-7e-09
-1e-08
-1e-08
1e-08
1e-08
7e-09
3e-09
2e-15
-3e-09
-7e-09
-1e-08
-1e-08
1e-08
1e-08
7e-09
3e-09
2e-15
-3e-09
-7e-09
-1e-08
-1e-08
1e-08
1e-08
7e-09
3e-09
2e-15
-3e-09
-7e-09
-1e-08
-1e-08
1e-08
1e-08
7e-09
3e-09
2e-15
-3e-09
-7e-09
-1e-08
-1e-08
1e-08
1e-08
7e-09
3e-09
2e-15
-3e-09
-7e-09
-1e-08
-1e-08
1e-08
1e-08
7e-09
3e-09
2e-15
-3e-09
-7e-09
-1e-08
-1e-08
1e-08
1e-08
7e-09
3e-09
2e-15
-3e-09
-7e-09
-1e-08
-1e-08
1e-08
1e-08
7e-09
3e-09
2e-15
-3e-09
-7e-09
-1e-08
-1e-08
1e-08
1e-08
7e-09
3e-09
2e-15
-3e-09
-7e-09
-1e-08
-1e-08
1e-08
1e-08
7e-09
3e-09
2e-15
-3e-09
-7e-09
-1e-08
-1e-08
1e-08
1e-08
7e-09
3e-09
2e-15
-3e-09
-7e-09
-1e-08
-1e-08
1e-08
1e-08
7e-09
3e-09
2e-15
-3e-09
-7e-09
-1e-08
-1e-08
1e-08
1e-08
7e-09
3e-09
2e-15
-3e-09
-7e-09
-1e-08
-1e-08
1e-08
1e-08
7e-09
3e-09
2e-15
-3e-09
-7e-09
-1e-08
-1e-08
1e-08
1e-08
7e-09
3e-09
2e-15
-3e-09
-7e-09
-1e-08
-1e-08
1e-08
1e-08
7e-09
3e-09
2e-15
-3e-09
-7e-09
-1e-08
-1e-08
1e-08
1e-08
7e-09
3e-09
2e-15
-3e-09
-7e-09
-1e-08
-1e-08
1e-08
1e-08
7e-09
3e-09
2e-15
-3e-09
-7e-09
-1e-08
-1e-08
1e-08
1e-08
7e-09
3e-09
2e-15
-3e-09
-7e-09
-1e-08
-1e-08
1e-08
1e-08
7e-09
3e-09
2e-15
-3e-09
-7e-09
-1e-08
-1e-08
1e-08
1e-08
7e-09
3e-09
2e-15
-3e-09
-7e-09
-1e-08
-1e-08
1e-08
1e-08
7e-09
3e-09
2e-15
-3e-09
-7e-09
-1e-08
-1e-08
1e-08
1e-08
7e-09
3e-09
2e-15
-3e-09
-7e-09
-1e-08
-1e-08
1e-08
1e-08
7e-09
3e-09
2e-15
-3e-09
-7e-09
-1e-08
-1e-08
1e-08
1e-08
7e-09
3e-09
2e-15
-3e-09
-7e-09
-1e-08
-1e-08
1e-08
1e-08
7e-09
3e-09
2e-15
-3e-09
-7e-09
-1e-08
-1e-08
1e-08
1e-08
7e-09
3e-09
2e-15
-3e-09
-7e-09
-1e-08
-1e-08
1e-08
1e-08
7e-09
3e-09
2e-15
-3e-09
-7e-09
-1e-08
-1e-08
1e-08
1e-08
7e-09
3e-09
2e-15
-3e-09
-7e-09
-1e-08
-1e-08
1e-08
1e-08
7e-09
3e-09
2e-15
-3e-09
-7e-09
-1e-08
-1e-08
1e-08
1e-08
7e-09
3e-09
2e-15
-3e-09
-7e-09
-1e-08
-1e-08
1e-08
1e-08
7e-09
3e-09
2e-15
-3e-09
-7e-09
-1e-08
-1e-08
1e-08
1e-08
7e-09
3e-09
2e-15
-3e-09
-7e-09
-1e-08
-1e-08
1e-08
1e-08
7e-09
3e-09
2e-15
-3e-09
-7e-09
-1e-08
-1e-08
1e-08
1e-08
7e-09
3e-09
2e-15
-3e-09
-7e-09
-1e-08
-1e-08
1e-08
1e-08
7e-09
3e-09
2e-15
-3e-09
-7e-09
-1e-08
-1e-08
1e-08
1e-08
7e-09
3e-09
2e-15
-3e-09
-7e-09
-1e-08
-1e-08
1e-08
1e-08
7e-09
3e-09
2e-15
-3e-09
-7e-09
-1e-08
-1e-08
1e-08
1e-08
7e-09
3e-09
2e-15
-3e-09
-7e-09
-1e-08
-1e-08
1e-08
1e-08
7e-09
3e-09
2e-15
-3e-09
-7e-09
-1e-08
-1e-08
1e-08
1e-08
7e-09
3e-09
2e-15
-3e-09
-7e-09
-1e-08
-1e-08
1e-08
1e-08
7e-09
3e-09
2e-15
-3e-09
-7e-09
-1e-08
-1e-08
1e-08
1e-08
7e-09
3e-09
2e-15
-3e-09
-7e-09
-1e-08
-1e-08
1e-08
1e-08
7e-09
3e-09
2e-15
-3e-09
-7e-09
-1e-08
-1e-08
1e-08
1e-08
7e-09
3e-09
2e-15
-3e-09
-7e-09
-1e-08
-1e-08
1e-08
1e-08
7e-09
3e-09
2e-15
-3e-09
-7e-09
-1e-08
-1e-08
1e-08
1e-08
7e-09
3e-09
2e-15
-3e-09
-7e-09
-1e-08
-1e-08
1e-08
1e-08
7e-09
3e-09
2e-15
-3e-09
-7e-09
-1e-08
-1e-08
1e-08
1e-08
7e-09
3e-09
2e-15
-3e-09
-7e-09
-1e-08
-1e-08
1e-08
1e-08
7e-09
3e-09
2e-15
-3e-09
-7e-09
-1e-08
-1e-08
1e-08
1e-08
7e-09
3e-09
2e-15
-3e-09
-7e-09
-1e-08
-1e-08
1e-08
1e-08
7e-09
3e-09
2e-15
-3e-09
-7e-09
-1e-08
-1e-08
1e-08
1e-08
7e-09
3e-09
2e-15
-3e-09
-7e-09
-1e-08
-1e-08
1e-08
1e-08
7e-09
3e-09
2e-15
-3e-09
-7e-09
-1e-08
-1e-08
1e-08
1e-08
7e-09
3e-09
2e-15
-3e-09
-7e-09
-1e-08
-1e-08
1e-08
1e-08
7e-09
3e-09
2e-15
-3e-09
-7e-09
-1e-08
-1e-08
1e-08
1e-08
7e-09
3e-09
2e-15
-3e-09
-7e-09
-1e-08
-1e-08
1e-08
1e-08
7e-09
3e-09
2e-15
-3e-09
-7e-09
-1e-08
-1e-08
1e-08
1e-08
7e-09
3e-09
2e-15
-3e-09
-7e-09
-1e-08
-1e-08
1e-08
1e-08
7e-09
3e-09
2e-15
-3e-09
-7e-09
-1e-08
-1e-08
1e-08
1e-08
7e-09
3e-09
2e-15
-3e-09
-7e-09
-1e-08
-1e-08
1e-08
1e-08
7e-09
3e-09
2e-15
-3e-09
-7e-09
-1e-08
-1e-08
1e-08
1e-08
7e-09
3e-09
2e-15
-3e-09
-7e-09
-1e-08
-1e-08
1e-08
1e-08
7e-09
3e-09
2e-15
-3e-09
-7e-09
-1e-08
-1e-08
1e-08
1e-08
7e-09
3e-09
2e-15
-3e-09
-7e-09
-1e-08
-1e-08
1e-08
1e-08
7e-09
3e-09
2e-15
-3e-09
-7e-09
-1e-08
-1e-08
1e-08
1e-08
7e-09
3e-09
2e-15
-3e-09
-7e-09
-1e-08
-1e-08
1e-08
1e-08
7e-09
3e-09
2e-15
-3e-09
-7e-09
-1e-08
-1e-08
1e-08
1e-08
7e-09
3e-09
2e-15
-3e-09
-7e-09
-1e-08
-1e-08
1e-08
1e-08
7e-09
3e-09
2e-15
-3e-09
-7e-09
-1e-08
-1e-08
1e-08
1e-08
7e-09
3e-09
2e-15
-3e-09
-7e-09
-1e-08
-1e-08
1e-08
1e-08
7e-09
3e-09
2e-15
-3e-09
-7e-09
-1e-08
-1e-08
1e-08
1e-08
7e-09
3e-09
2e-15
-3e-09
-7e-09
-1e-08
-1e-08
1e-08
1e-08
7e-09
3e-09
2e-15
-3e-09
-7e-09
-1e-08
-1e-08
1e-08
1e-08
7e-09
3e-09
2e-15
-3e-09
-7e-09
-1e-08
-1e-08
SCALARS u2 float
LOOKUP_TABLE default
-8e-18
-5e-06
-5e-06
-5e-06
-5e-06
-5e-06
-5e-06
-5e-06
-5e-06
-4e-06
-4e-06
-4e-06
-4e-06
-4e-06
-4e-06
-4e-06
-4e-06
-4e-06
-4e-06
-4e-06
-4e-06
-4e-06
-4e-06
-4e-06
-4e-06
-3e-06
-3e-06
-3e-06
-3e-06
-3e-06
-3e-06
-3e-06
-3e-06
-3e-06
-3e-06
-3e-06
-3e-06
-3e-06
-3e-06
-3e-06
-3e-06
-2e-06
-2e-06
-2e-06
-2e-06
-2e-06
-2e-06
-2e-06
-2e-06
-2e-06
-2e-06
-2e-06
-2e-06
-2e-06
-2e-06
-2e-06
-2e-06
-1e-06
-1e-06
-1e-06
-1e-06
-1e-06
-1e-06
-1e-06
-1e-06
-1e-06
-9e-07
-9e-07
-8e-07
-7e-07
-7e-07
-6e-07
-6e-07
-5e-07
-4e-07
-4e-07
-3e-07
-2e-07
-2e-07
-1e-07
-6e-08
-5e-06
-3e-18
-6e-08
-1e-07
-2e-07
-2e-07
-3e-07
-4e-07
-4e-07
-5e-07
-6e-07
-6e-07
-7e-07
-7e-07
-8e-07
-9e-07
-9e-07
-1e-06
-1e-06
-1e-06
-1e-06
-1e-06
-1e-06
-1e-06
-1e-06
-1e-06
-2e-06
-2e-06
-2e-06
-2e-06
-2e-06
-2e-06
-2e-06
-2e-06
-2e-06
-2e-06
-2e-06
-2e-06
-2e-06
-2e-06
-2e-06
-2e-06
-3e-06
-3e-06
-3e-06
-3e-06
-3e-06
-3e-06
-3e-06
-3e-06
-3e-06
-3e-06
-3e-06
-3e-06
-3e-06
-3e-06
-3e-06
-3e-06
-4e-06
-4e-06
-4e-06
-4e-06
-4e-06
-4e-06
-4e-06
-4e-06
-4e-06
-4e-06
-4e-06
-4e-06
-4e-06
-4e-06
-4e-06
-4e-06
-5e-06
-5e-06
-5e-06
-5e-06
-5e-06
-5e-06
-5e-06
-5e-06
-5e-06
-5e-06
-5e-06
-5e-06
-5e-06
-5e-06
-5e-06
-5e-06
4e-18
3e-17
3e-17
-4e-18
-1e-17
6e-18
2e-17
-2e-17
-4e-18
-6e-08
-6e-08
-6e-08
-6e-08
-6e-08
-6e-08
-6e-08
-6e-08
-6e-08
-1e-07
-1e-07
-1e-07
-1e-07
-1e-07
-1e-07
-1e-07
-1e-07
-1e-07
-2e-07
-2e-07
-2e-07
-2e-07
-2e-07
-2e-07
-2e-07
-2e-07
-2e-07
-2e-07
-2e-07
-2e-07
-2e-07
-2e-07
-2e-07
-2e-07
-2e-07
-2e-07
-3e-07
-3e-07
-3e-07
-3e-07
-3e-07
-3e-07
-3e-07
-3e-07
-3e-07
-4e-07
-4e-07
-4e-07
-4e-07
-4e-07
-4e-07
-4e-07
-4e-07
-4e-07
-4e-07
-4e-07
-4e-07
-4e-07
-4e-07
-4e-07
-4e-07
-4e-07
-4e-07
-5e-07
-5e-07
-5e-07
-5e-07
-5e-07
-5e-07
-5e-07
-5e-07
-5e-07
-6e-07
-6e-07
-6e-07
-6e-07
-6e-07
-6e-07
-6e-07
-6e-07
-6e-07
-6e-07
-6e-07
-6e-07
-6e-07
-6e-07
-6e-07
-6e-07
-6e-07
-6e-07
-7e-07
-7e-07
-7e-07
-7e-07
-7e-07
-7e-07
-7e-07
-7e-07
-7e-07
-7e-07
-7e-07
-7e-07
-7e-07
-7e-07
-7e-07
-7e-07
-7e-07
-7e-07
-8e-07
-8e-07
-8e-07
-8e-07
-8e-07
-8e-07
-8e-07
-8e-07
-8e-07
-9e-07
-9e-07
-9e-07
-9e-07
-9e-07
-9e-07
-9e-07
-9e-07
-9e-07
-9e-07
-9e-07
-9e-07
-9e-07
-9e-07
-9e-07
-9e-07
-9e-07
-9e-07
-1e-06
-1e-06
-1e-06
-1e-06
-1e-06
-1e-06
-1e-06
-1e-06
-1e-06
-1e-06
-1e-06
-1e-06
-1e-06
-1e-06
-1e-06
-1e-06
-1e-06
-1e-06
-1e-06
-1e-06
-1e-06
-1e-06
-1e-06
-1e-06
-1e-06
-1e-06
-1e-06
-1e-06
-1e-06
-1e-06
-1e-06
-1e-06
-1e-06
-1e-06
-1e-06
-1e-06
-1e-06
-1e-06
-1e-06
-1e-06
-1e-06
-1e-06
-1e-06
-1e-06
-1e-06
-1e-06
-1e-06
-1e-06
-1e-06
-1e-06
-1e-06
-1e-06
-1e-06
-1e-06
-1e-06
-1e-06
-1e-06
-1e-06
-1e-06
-1e-06
-1e-06
-1e-06
-1e-06
-1e-06
-1e-06
-1e-06
-1e-06
-1e-06
-1e-06
-1e-06
-1e-06
-1e-06
-1e-06
-1e-06
-1e-06
-1e-06
-1e-06
-1e-06
-1e-06
-1e-06
-1e-06
-2e-06
-2e-06
-2e-06
-2e-06
-2e-06
-2e-06
-2e-06
-2e-06
-2e-06
-2e-06
-2e-06
-2e-06
-2e-06
-2e-06
-2e-06
-2e-06
-2e-06
-2e-06
-2e-06
-2e-06
-2e-06
-2e-06
-2e-06
-2e-06
-2e-06
-2e-06
-2e-06
-2e-06
-2e-06
-2e-06
-2e-06
-2e-06
-2e-06
-2e-06
-2e-06
-2e-06
-2e-06
-2e-06
-2e-06
-2e-06
-2e-06
-2e-06
-2e-06
-2e-06
-2e-06
-2e-06
-2e-06
-2e-06
-2e-06
-2e-06
-2e-06
-2e-06
-2e-06
-2e-06
-2e-06
-2e-06
-2e-06
-2e-06
-2e-06
-2e-06
-2e-06
-2e-06
-2e-06
-2e-06
-2e-06
-2e-06
-2e-06
-2e-06
-2e-06
-2e-06
-2e-06
-2e-06
-2e-06
-2e-06
-2e-06
-2e-06
-2e-06
-2e-06
-2e-06
-2e-06
-2e-06
-2e-06
-2e-06
-2e-06
-2e-06
-2e-06
-2e-06
-2e-06
-2e-06
-2e-06
-2e-06
-2e-06
-2e-06
-2e-06
-2e-06
-2e-06
-2e-06
-2e-06
-2e-06
-2e-06
-2e-06
-2e-06
-2e-06
-2e-06
-2e-06
-2e-06
-2e-06
-2e-06
-2e-06
-2e-06
-2e-06
-2e-06
-2e-06
-2e-06
-2e-06
-2e-06
-2e-06
-2e-06
-2e-06
-2e-06
-2e-06
-2e-06
-2e-06
-2e-06
-2e-06
-2e-06
-2e-06
-2e-06
-2e-06
-2e-06
-2e-06
-2e-06
-2e-06
-2e-06
-2e-06
-2e-06
-2e-06
-2e-06
-2e-06
-2e-06
-2e-06
-2e-06
-2e-06
-2e-06
-3e-06
-3e-06
-3e-06
-3e-06
-3e-06
-3e-06
-3e-06
-3e-06
-3e-06
-3e-06
-3e-06
-3e-06
-3e-06
-3e-06
-3e-06
-3e-06
-3e-06
-3e-06
-3e-06
-3e-06
-3e-06
-3e-06
-3e-06
-3e-06
-3e-06
-3e-06
-3e-06
-3e-06
-3e-06
-3e-06
-3e-06
-3e-06
-3e-06
-3e-06
-3e-06
-3e-06
-3e-06
-3e-06
-3e-06
-3e-06
-3e-06
-3e-06
-3e-06
-3e-06
-3e-06
-3e-06
-3e-06
-3e-06
-3e-06
-3e-06
-3e-06
-3e-06
-3e-06
-3e-06
-3e-06
-3e-06
-3e-06
-3e-06
-3e-06
-3e-06
-3e-06
-3e-06
-3e-06
-3e-06
-3e-06
-3e-06
-3e-06
-3e-06
-3e-06
-3e-06
-3e-06
-3e-06
-3e-06
-3e-06
-3e-06
-3e-06
-3e-06
-3e-06
-3e-06
-3e-06
-3e-06
-3e-06
-3e-06
-3e-06
-3e-06
-3e-06
-3e-06
-3e-06
-3e-06
-3e-06
-3e-06
-3e-06
-3e-06
-3e-06
-3e-06
-3e-06
-3e-06
-3e-06
-3e-06
-3e-06
-3e-06
-3e-06
-3e-06
-3e-06
-3e-06
-3e-06
-3e-06
-3e-06
-3e-06
-3e-06
-3e-06
-3e-06
-3e-06
-3e-06
-3e-06
-3e-06
-3e-06
-3e-06
-3e-06
-3e-06
-3e-06
-3e-06
-3e-06
-3e-06
-3e-06
-3e-06
-3e-06
-3e-06
-3e-06
-3e-06
-3e-06
-3e-06
-3e-06
-3e-06
-3e-06
-3e-06
-3e-06
-3e-06
-3e-06
-3e-06
-3e-06
-3e-06
-3e-06
-3e-06
-4e-06
-4e-06
-4e-06
-4e-06
-4e-06
-4e-06
-4e-06
-4e-06
-4e-06
-4e-06
-4e-06
-4e-06
-4e-06
-4e-06
-4e-06
-4e-06
-4e-06
-4e-06
-4e-06
-4e-06
-4e-06
-4e-06
-4e-06
-4e-06
-4e-06
-4e-06
-4e-06
-4e-06
-4e-06
-4e-06
-4e-06
-4e-06
-4e-06
-4e-06
-4e-06
-4e-06
-4e-06
-4e-06
-4e-06
-4e-06
-4e-06
-4e-06
-4e-06
-4e-06
-4e-06
-4e-06
-4e-06
-4e-06
-4e-06
-4e-06
-4e-06
-4e-06
-4e-06
-4e-06
-4e-06
-4e-06
-4e-06
-4e-06
-4e-06
-4e-06
-4e-06
-4e-06
-4e-06
-4e-06
-4e-06
-4e-06
-4e-06
-4e-06
-4e-06
-4e-06
-4e-06
-4e-06
-4e-06
-4e-06
-4e-06
-4e-06
-4e-06
-4e-06
-4e-06
-4e-06
-4e-06
-4e-06
-4e-06
-4e-06
-4e-06
-4e-06
-4e-06
-4e-06
-4e-06
-4e-06
-4e-06
-4e-06
-4e-06
-4e-06
-4e-06
-4e-06
-4e-06
-4e-06
-4e-06
-4e-06
-4e-06
-4e-06
-4e-06
-4e-06
-4e-06
-4e-06
-4e-06
-4e-06
-4e-06
-4e-06
-4e-06
-4e-06
-4e-06
-4e-06
-4e-06
-4e-06
-4e-06
-4e-06
-4e-06
-4e-06
-4e-06
-4e-06
-4e-06
-4e-06
-4e-06
-4e-06
-4e-06
-4e-06
-4e-06
-4e-06
-4e-06
-4e-06
-4e-06
-4e-06
-4e-06
-4e-06
-4e-06
-4e-06
-4e-06
-4e-06
-4e-06
-4e-06
-4e-06
-4e-06
-5e-06
-5e-06
-5e-06
-5e-06
-5e-06
-5e-06
-5e-06
-5e-06
-5e-06
-5e-06
-5e-06
-5e-06
-5e-06
-5e-06
-5e-06
-5e-06
-5e-06
-5e-06
-5e-06
-5e-06
-5e-06
-5e-06
-5e-06
-5e-06
-5e-06
-5e-06
-5e-06
-5e-06
-5e-06
-5e-06
-5e-06
-5e-06
-5e-06
-5e-06
-5e-06
-5e-06
-5e-06
-5e-06
-5e-06
-5e-06
-5e-06
-5e-06
-5e-06
-5e-06
-5e-06
-5e-06
-5e-06
-5e-06
-5e-06
-5e-06
-5e-06
-5e-06
-5e-06
-5e-06
-5e-06
-5e-06
-5e-06
-5e-06
-5e-06
-5e-06
-5e-06
-5e-06
-5e-06
SCALARS strain_1 float
LOOKUP_TABLE default
-0.000001
-0.001915
-0.001886
-0.001857
-0.001828
-0.001799
-0.001769
-0.001739
-0.001710
-0.001680
-0.001650
-0.001620
-0.001590
-0.001560
-0.001530
-0.001499
-0.001469
-0.001439
-0.001408
-0.001378
-0.001348
-0.001317
-0.001287
-0.001257
-0.001226
-0.001196
-0.001166
-0.001136
-0.001106
-0.001076
-0.001046
-0.001017
-0.000987
-0.000958
-0.000929
-0.000900
-0.000871
-0.000843
-0.000815
-0.000786
-0.000759
-0.000731
-0.000704
-0.000677
-0.000651
-0.000624
-0.000598
-0.000573
-0.000548
-0.000523
-0.000499
-0.000475
-0.000451
-0.000428
-0.000405
-0.000383
-0.000362
-0.000340
-0.000320
-0.000300
-0.000280
-0.000261
-0.000242
-0.000224
-0.000207
-0.000190
-0.000174
-0.000158
-0.000143
-0.000129
-0.000115
-0.000101
-0.000089
-0.000077
-0.000065
-0.000054
-0.000044
-0.000034
-0.000025
-0.000017
-0.000009
-0.001917
-0.000000
-0.000007
-0.000015
-0.000024
-0.000033
-0.000043
-0.000053
-0.000064
-0.000076
-0.000088
-0.000101
-0.000114
-0.000128
-0.000142
-0.000158
-0.000173
-0.000190
-0.000206
-0.000224
-0.000242
-0.000260
-0.000280
-0.000299
-0.000319
-0.000340
-0.000361
-0.000383
-0.000405
-0.000428
-0.000451
-0.000475
-0.000498
-0.000523
-0.000548
-0.000573
-0.000599
-0.000624
-0.000651
-0.000677
-0.000704
-0.000732
-0.000759
-0.000787
-0.000815
-0.000843
-0.000872
-0.000901
-0.000930
-0.000959
-0.000988
-0.001018
-0.001047
-0.001077
-0.001107
-0.001137
-0.001167
-0.001197
-0.001227
-0.001258
-0.001288
-0.001319
-0.001349
-0.001379
-0.001410
-0.001440
-0.001470
-0.001501
-0.001531
-0.001561
-0.001591
-0.001622
-0.001652
-0.001681
-0.001711
-0.001741
-0.001771
-0.001800
-0.001830
-0.001859
-0.001888
-0.001917
-0.001916
-0.001916
-0.001916
-0.001916
-0.001916
-0.001916
-0.001915
-0.001915
-0.000001
-0.000001
-0.000001
-0.000000
-0.000000
-0.000000
-0.000000
-0.000000
-0.000000
-0.000007
-0.000007
-0.000008
-0.000008
-0.000008
-0.000008
-0.000008
-0.000008
-0.000008
-0.000015
-0.000015
-0.000015
-0.000016
-0.000016
-0.000016
-0.000016
-0.000016
-0.000016
-0.000024
-0.000024
-0.000024
-0.000024
-0.000024
-0.000024
-0.000024
-0.000025
-0.000025
-0.000033
-0.000033
-0.000033
-0.000033
-0.000033
-0.000033
-0.000034
-0.000034
-0.000034
-0.000043
-0.000043
-0.000043
-0.000043
-0.000043
-0.000043
-0.000043
-0.000043
-0.000044
-0.000053
-0.000053
-0.000053
-0.000053
-0.000053
-0.000053
-0.000054
-0.000054
-0.000054
-0.000064
-0.000064
-0.000064
-0.000064
-0.000064
-0.000064
-0.000065
-0.000065
-0.000065
-0.000076
-0.000076
-0.000076
-0.000076
-0.000076
-0.000076
-0.000076
-0.000076
-0.000076
-0.000088
-0.000088
-0.000088
-0.000088
-0.000088
-0.000088
-0.000088
-0.000088
-0.000089
-0.000101
-0.000101
-0.000101
-0.000101
-0.000101
-0.000101
-0.000101
-0.000101
-0.000101
-0.000114
-0.000114
-0.000114
-0.000114
-0.000114
-0.000114
-0.000114
-0.000114
-0.000115
-0.000128
-0.000128
-0.000128
-0.000128
-0.000128
-0.000128
-0.000128
-0.000128
-0.000128
-0.000142
-0.000142
-0.000142
-0.000142
-0.000142
-0.000143
-0.000143
-0.000143
-0.000143
-0.000157
-0.000157
-0.000157
-0.000158
-0.000158
-0.000158
-0.000158
-0.000158
-0.000158
-0.000173
-0.000173
-0.000173
-0.000173
-0.000173
-0.000173
-0.000173
-0.000174
-0.000174
-0.000189
-0.000189
-0.000189
-0.000190
-0.000190
-0.000190
-0.000190
-0.000190
-0.000190
-0.000206
-0.000206
-0.000206
-0.000206
-0.000206
-0.000207
-0.000207
-0.000207
-0.000207
-0.000224
-0.000224
-0.000224
-0.000224
-0.000224
-0.000224
-0.000224
-0.000224
-0.000224
-0.000242
-0.000242
-0.000242
-0.000242
-0.000242
-0.000242
-0.000242
-0.000242
-0.000242
-0.000260
-0.000260
-0.000260
-0.000260
-0.000260
-0.000260
-0.000261
-0.000261
-0.000261
-0.000280
-0.000279
-0.000279
-0.000279
-0.000280
-0.000280
-0.000280
-0.000280
-0.000280
-0.000299
-0.000299
-0.000299
-0.000299
-0.000299
-0.000299
-0.000299
-0.000299
-0.000300
-0.000319
-0.000319
-0.000319
-0.000319
-0.000319
-0.000319
-0.000319
-0.000320
-0.000320
-0.000340
-0.000340
-0.000340
-0.000340
-0.000340
-0.000340
-0.000340
-0.000340
-0.000340
-0.000361
-0.000361
-0.000361
-0.000361
-0.000361
-0.000361
-0.000361
-0.000361
-0.000362
-0.000383
-0.000383
-0.000383
-0.000383
-0.000383
-0.000383
-0.000383
-0.000383
-0.000383
-0.000405
-0.000405
-0.000405
-0.000405
-0.000405
-0.000405
-0.000405
-0.000405
-0.000405
-0.000428
-0.000428
-0.000428
-0.000428
-0.000428
-0.000428
-0.000428
-0.000428
-0.000428
-0.000451
-0.000451
-0.000451
-0.000451
-0.000451
-0.000451
-0.000451
-0.000451
-0.000451
-0.000474
-0.000474
-0.000474
-0.000474
-0.000474
-0.000474
-0.000474
-0.000474
-0.000475
-0.000498
-0.000498
-0.000498
-0.000498
-0.000498
-0.000498
-0.000498
-0.000498
-0.000498
-0.000523
-0.000523
-0.000523
-0.000523
-0.000523
-0.000523
-0.000523
-0.000523
-0.000523
-0.000548
-0.000548
-0.000547
-0.000547
-0.000547
-0.000547
-0.000547
-0.000548
-0.000548
-0.000573
-0.000573
-0.000573
-0.000573
-0.000573
-0.000573
-0.000573
-0.000573
-0.000573
-0.000598
-0.000598
-0.000598
-0.000598
-0.000598
-0.000598
-0.000598
-0.000598
-0.000598
-0.000624
-0.000624
-0.000624
-0.000624
-0.000624
-0.000624
-0.000624
-0.000624
-0.000624
-0.000651
-0.000651
-0.000650
-0.000650
-0.000650
-0.000650
-0.000650
-0.000650
-0.000650
-0.000677
-0.000677
-0.000677
-0.000677
-0.000677
-0.000677
-0.000677
-0.000677
-0.000677
-0.000704
-0.000704
-0.000704
-0.000704
-0.000704
-0.000704
-0.000704
-0.000704
-0.000704
-0.000731
-0.000731
-0.000731
-0.000731
-0.000731
-0.000731
-0.000731
-0.000731
-0.000731
-0.000759
-0.000759
-0.000759
-0.000759
-0.000759
-0.000759
-0.000759
-0.000759
-0.000759
-0.000787
-0.000787
-0.000787
-0.000787
-0.000787
-0.000786
-0.000786
-0.000786
-0.000786
-0.000815
-0.000815
-0.000815
-0.000815
-0.000815
-0.000815
-0.000815
-0.000815
-0.000815
-0.000843
-0.000843
-0.000843
-0.000843
-0.000843
-0.000843
-0.000843
-0.000843
-0.000843
-0.000872
-0.000872
-0.000872
-0.000871
-0.000871
-0.000871
-0.000871
-0.000871
-0.000871
-0.000901
-0.000900
-0.000900
-0.000900
-0.000900
-0.000900
-0.000900
-0.000900
-0.000900
-0.000930
-0.000929
-0.000929
-0.000929
-0.000929
-0.000929
-0.000929
-0.000929
-0.000929
-0.000959
-0.000959
-0.000958
-0.000958
-0.000958
-0.000958
-0.000958
-0.000958
-0.000958
-0.000988
-0.000988
-0.000988
-0.000988
-0.000988
-0.000988
-0.000988
-0.000987
-0.000987
-0.001018
-0.001017
-0.001017
-0.001017
-0.001017
-0.001017
-0.001017
-0.001017
-0.001017
-0.001047
-0.001047
-0.001047
-0.001047
-0.001047
-0.001047
-0.001047
-0.001047
-0.001047
-0.001077
-0.001077
-0.001077
-0.001077
-0.001077
-0.001076
-0.001076
-0.001076
-0.001076
-0.001107
-0.001107
-0.001107
-0.001106
-0.001106
-0.001106
-0.001106
-0.001106
-0.001106
-0.001137
-0.001137
-0.001137
-0.001136
-0.001136
-0.001136
-0.001136
-0.001136
-0.001136
-0.001167
-0.001167
-0.001167
-0.001167
-0.001166
-0.001166
-0.001166
-0.001166
-0.001166
-0.001197
-0.001197
-0.001197
-0.001197
-0.001197
-0.001197
-0.001196
-0.001196
-0.001196
-0.001227
-0.001227
-0.001227
-0.001227
-0.001227
-0.001227
-0.001227
-0.001227
-0.001227
-0.001258
-0.001258
-0.001257
-0.001257
-0.001257
-0.001257
-0.001257
-0.001257
-0.001257
-0.001288
-0.001288
-0.001288
-0.001288
-0.001287
-0.001287
-0.001287
-0.001287
-0.001287
-0.001318
-0.001318
-0.001318
-0.001318
-0.001318
-0.001318
-0.001318
-0.001318
-0.001317
-0.001349
-0.001349
-0.001348
-0.001348
-0.001348
-0.001348
-0.001348
-0.001348
-0.001348
-0.001379
-0.001379
-0.001379
-0.001379
-0.001379
-0.001379
-0.001378
-0.001378
-0.001378
-0.001410
-0.001409
-0.001409
-0.001409
-0.001409
-0.001409
-0.001409
-0.001409
-0.001409
-0.001440
-0.001440
-0.001440
-0.001440
-0.001439
-0.001439
-0.001439
-0.001439
-0.001439
-0.001470
-0.001470
-0.001470
-0.001470
-0.001470
-0.001470
-0.001469
-0.001469
-0.001469
-0.001501
-0.001500
-0.001500
-0.001500
-0.001500
-0.001500
-0.001500
-0.001500
-0.001500
-0.001531
-0.001531
-0.001531
-0.001530
-0.001530
-0.001530
-0.001530
-0.001530
-0.001530
-0.001561
-0.001561
-0.001561
-0.001561
-0.001561
-0.001560
-0.001560
-0.001560
-0.001560
-0.001591
-0.001591
-0.001591
-0.001591
-0.001591
-0.001591
-0.001590
-0.001590
-0.001590
-0.001621
-0.001621
-0.001621
-0.001621
-0.001621
-0.001621
-0.001621
-0.001620
-0.001620
-0.001651
-0.001651
-0.001651
-0.001651
-0.001651
-0.001651
-0.001651
-0.001650
-0.001650
-0.001681
-0.001681
-0.001681
-0.001681
-0.001681
-0.001681
-0.001680
-0.001680
-0.001680
-0.001711
-0.001711
-0.001711
-0.001711
-0.001711
-0.001710
-0.001710
-0.001710
-0.001710
-0.001741
-0.001741
-0.001741
-0.001740
-0.001740
-0.001740
-0.001740
-0.001740
-0.001740
-0.001771
-0.001770
-0.001770
-0.001770
-0.001770
-0.001770
-0.001770
-0.001769
-0.001769
-0.001800
-0.001800
-0.001800
-0.001800
-0.001799
-0.001799
-0.001799
-0.001799
-0.001799
-0.001829
-0.001829
-0.001829
-0.001829
-0.001829
-0.001829
-0.001828
-0.001828
-0.001828
-0.001859
-0.001858
-0.001858
-0.001858
-0.001858
-0.001858
-0.001858
-0.001857
-0.001857
-0.001888
-0.001888
-0.001887
-0.001887
-0.001887
-0.001887
-0.001887
-0.001887
-0.001886
SCALARS strain_2 float
LOOKUP_TABLE default
0.000039
0.000035
0.000035
0.000035
0.000035
0.000035
0.000035
0.000035
0.000035
0.000035
0.000035
0.000035
0.000035
0.000035
0.000035
0.000035
0.000035
0.000035
0.000035
0.000035
0.000035
0.000035
0.000035
0.000035
0.000035
0.000035
0.000035
0.000035
0.000035
0.000035
0.000035
0.000035
0.000035
0.000035
0.000035
0.000035
0.000035
0.000035
0.000035
0.000035
0.000035
0.000035
0.000035
0.000035
0.000035
0.000036
0.000036
0.000036
0.000036
0.000036
0.000036
0.000036
0.000036
0.000036
0.000036
0.000036
0.000036
0.000036
0.000036
0.000036
0.000037
0.000037
0.000037
0.000037
0.000037
0.000037
0.000037
0.000037
0.000037
0.000037
0.000037
0.000038
0.000038
0.000038
0.000038
0.000038
0.000038
0.000038
0.000038
0.000039
0.000039
0.000051
0.000051
0.000051
0.000051
0.000051
0.000051
0.000051
0.000051
0.000051
0.000051
0.000051
0.000051
0.000051
0.000051
0.000051
0.000051
0.000051
0.000051
0.000051
0.000051
0.000051
0.000051
0.000051
0.000051
0.000051
0.000051
0.000051
0.000051
0.000051
0.000051
0.000051
0.000051
0.000051
0.000051
0.000051
0.000051
0.000051
0.000051
0.000051
0.000051
0.000051
0.000051
0.000051
0.000051
0.000051
0.000051
0.000051
0.000051
0.000051
0.000051
0.000051
0.000051
0.000051
0.000051
0.000051
0.000051
0.000051
0.000051
0.000051
0.000051
0.000051
0.000051
0.000051
0.000051
0.000051
0.000051
0.000051
0.000051
0.000051
0.000051
0.000051
0.000051
0.000051
0.000051
0.000051
0.000051
0.000051
0.000051
0.000051
0.000051
0.000051
0.000049
0.000047
0.000046
0.000044
0.000043
0.000041
0.000040
0.000038
0.000037
0.000040
0.000041
0.000042
0.000044
0.000045
0.000046
0.000047
0.000048
0.000049
0.000049
0.000048
0.000047
0.000046
0.000045
0.000043
0.000042
0.000041
0.000040
0.000049
0.000048
0.000047
0.000046
0.000045
0.000043
0.000042
0.000041
0.000040
0.000049
0.000048
0.000047
0.000046
0.000045
0.000043
0.000042
0.000041
0.000040
0.000049
0.000048
0.000047
0.000046
0.000044
0.000043
0.000042
0.000041
0.000040
0.000049
0.000048
0.000047
0.000046
0.000044
0.000043
0.000042
0.000041
0.000039
0.000049
0.000048
0.000047
0.000046
0.000044
0.000043
0.000042
0.000041
0.000039
0.000049
0.000048
0.000047
0.000046
0.000044
0.000043
0.000042
0.000040
0.000039
0.000049
0.000048
0.000047
0.000046
0.000044
0.000043
0.000042
0.000040
0.000039
0.000049
0.000048
0.000047
0.000046
0.000044
0.000043
0.000042
0.000040
0.000039
0.000049
0.000048
0.000047
0.000046
0.000044
0.000043
0.000042
0.000040
0.000039
0.000049
0.000048
0.000047
0.000045
0.000044
0.000043
0.000041
0.000040
0.000039
0.000049
0.000048
0.000047
0.000045
0.000044
0.000043
0.000041
0.000040
0.000039
0.000049
0.000048
0.000047
0.000045
0.000044
0.000043
0.000041
0.000040
0.000039
0.000049
0.000048
0.000047
0.000045
0.000044
0.000043
0.000041
0.000040
0.000039
0.000049
0.000048
0.000047
0.000045
0.000044
0.000043
0.000041
0.000040
0.000038
0.000049
0.000048
0.000047
0.000045
0.000044
0.000043
0.000041
0.000040
0.000038
0.000049
0.000048
0.000047
0.000045
0.000044
0.000042
0.000041
0.000040
0.000038
0.000049
0.000048
0.000047
0.000045
0.000044
0.000042
0.000041
0.000040
0.000038
0.000049
0.000048
0.000047
0.000045
0.000044
0.000042
0.000041
0.000040
0.000038
0.000049
0.000048
0.000047
0.000045
0.000044
0.000042
0.000041
0.000039
0.000038
0.000049
0.000048
0.000047
0.000045
0.000044
0.000042
0.000041
0.000039
0.000038
0.000049
0.000048
0.000047
0.000045
0.000044
0.000042
0.000041
0.000039
0.000038
0.000049
0.000048
0.000047
0.000045
0.000044
0.000042
0.000041
0.000039
0.000038
0.000049
0.000048
0.000047
0.000045
0.000044
0.000042
0.000041
0.000039
0.000038
0.000049
0.000048
0.000047
0.000045
0.000044
0.000042
0.000041
0.000039
0.000038
0.000049
0.000048
0.000046
0.000045
0.000044
0.000042
0.000041
0.000039
0.000038
0.000049
0.000048
0.000046
0.000045
0.000043
0.000042
0.000041
0.000039
0.000038
0.000049
0.000048
0.000046
0.000045
0.000043
0.000042
0.000040
0.000039
0.000037
0.000049
0.000048
0.000046
0.000045
0.000043
0.000042
0.000040
0.000039
0.000037
0.000049
0.000048
0.000046
0.000045
0.000043
0.000042
0.000040
0.000039
0.000037
0.000049
0.000048
0.000046
0.000045
0.000043
0.000042
0.000040
0.000039
0.000037
0.000049
0.000048
0.000046
0.000045
0.000043
0.000042
0.000040
0.000039
0.000037
0.000049
0.000048
0.000046
0.000045
0.000043
0.000042
0.000040
0.000039
0.000037
0.000049
0.000048
0.000046
0.000045
0.000043
0.000042
0.000040
0.000039
0.000037
0.000049
0.000048
0.000046
0.000045
0.000043
0.000042
0.000040
0.000039
0.000037
0.000049
0.000048
0.000046
0.000045
0.000043
0.000042
0.000040
0.000039
0.000037
0.000049
0.000048
0.000046
0.000045
0.000043
0.000042
0.000040
0.000039
0.000037
0.000049
0.000048
0.000046
0.000045
0.000043
0.000042
0.000040
0.000039
0.000037
0.000049
0.000048
0.000046
0.000045
0.000043
0.000042
0.000040
0.000039
0.000037
0.000049
0.000048
0.000046
0.000045
0.000043
0.000042
0.000040
0.000038
0.000037
0.000049
0.000048
0.000046
0.000045
0.000043
0.000042
0.000040
0.000038
0.000037
0.000049
0.000048
0.000046
0.000045
0.000043
0.000042
0.000040
0.000038
0.000037
0.000049
0.000048
0.000046
0.000045
0.000043
0.000042
0.000040
0.000038
0.000037
0.000049
0.000048
0.000046
0.000045
0.000043
0.000042
0.000040
0.000038
0.000037
0.000049
0.000048
0.000046
0.000045
0.000043
0.000042
0.000040
0.000038
0.000037
0.000049
0.000048
0.000046
0.000045
0.000043
0.000041
0.000040
0.000038
0.000037
0.000049
0.000048
0.000046
0.000045
0.000043
0.000041
0.000040
0.000038
0.000037
0.000049
0.000048
0.000046
0.000045
0.000043
0.000041
0.000040
0.000038
0.000037
0.000049
0.000048
0.000046
0.000045
0.000043
0.000041
0.000040
0.000038
0.000037
0.000049
0.000048
0.000046
0.000045
0.000043
0.000041
0.000040
0.000038
0.000037
0.000049
0.000048
0.000046
0.000045
0.000043
0.000041
0.000040
0.000038
0.000037
0.000049
0.000048
0.000046
0.000045
0.000043
0.000041
0.000040
0.000038
0.000037
0.000049
0.000048
0.000046
0.000045
0.000043
0.000041
0.000040
0.000038
0.000037
0.000049
0.000048
0.000046
0.000045
0.000043
0.000041
0.000040
0.000038
0.000037
0.000049
0.000048
0.000046
0.000045
0.000043
0.000041
0.000040
0.000038
0.000037
0.000049
0.000048
0.000046
0.000045
0.000043
0.000041
0.000040
0.000038
0.000037
0.000049
0.000048
0.000046
0.000045
0.000043
0.000041
0.000040
0.000038
0.000037
0.000049
0.000048
0.000046
0.000045
0.000043
0.000041
0.000040
0.000038
0.000037
0.000049
0.000048
0.000046
0.000045
0.000043
0.000041
0.000040
0.000038
0.000037
0.000049
0.000048
0.000046
0.000045
0.000043
0.000041
0.000040
0.000038
0.000037
0.000049
0.000048
0.000046
0.000044
0.000043
0.000041
0.000040
0.000038
0.000037
0.000049
0.000048
0.000046
0.000045
0.000043
0.000041
0.000040
0.000038
0.000037
0.000049
0.000048
0.000046
0.000044
0.000043
0.000041
0.000040
0.000038
0.000037
0.000049
0.000048
0.000046
0.000044
0.000043
0.000041
0.000040
0.000038
0.000037
0.000049
0.000048
0.000046
0.000044
0.000043
0.000041
0.000040
0.000038
0.000036
0.000049
0.000048
0.000046
0.000044
0.000043
0.000041
0.000040
0.000038
0.000036
0.000049
0.000048
0.000046
0.000044
0.000043
0.000041
0.000040
0.000038
0.000037
0.000049
0.000048
0.000046
0.000044
0.000043
0.000041
0.000040
0.000038
0.000036
0.000049
0.000048
0.000046
0.000044
0.000043
0.000041
0.000040
0.000038
0.000036
0.000049
0.000048
0.000046
0.000044
0.000043
0.000041
0.000040
0.000038
0.000036
0.000049
0.000048
0.000046
0.000044
0.000043
0.000041
0.000040
0.000038
0.000036
0.000049
0.000048
0.000046
0.000044
0.000043
0.000041
0.000040
0.000038
0.000037
0.000049
0.000048
0.000046
0.000044
0.000043
0.000041
0.000040
0.000038
0.000037
0.000049
0.000048
0.000046
0.000044
0.000043
0.000041
0.000040
0.000038
0.000037
0.000049
0.000048
0.000046
0.000044
0.000043
0.000041
0.000040
0.000038
0.000037
0.000049
0.000048
0.000046
0.000044
0.000043
0.000041
0.000040
0.000038
0.000037
0.000049
0.000047
0.000046
0.000044
0.000043
0.000041
0.000040
0.000038
0.000037
0.000049
0.000047
0.000046
0.000044
0.000043
0.000041
0.000040
0.000038
0.000037
0.000049
0.000047
0.000046
0.000044
0.000043
0.000041
0.000040
0.000038
0.000037
SCALARS strain_3 float
LOOKUP_TABLE default
0.000010
0.000339
0.000334
0.000330
0.000325
0.000320
0.000315
0.000310
0.000305
0.000301
0.000296
0.000291
0.000286
0.000281
0.000276
0.000271
0.000266
0.000261
0.000256
0.000251
0.000246
0.000241
0.000235
0.000230
0.000225
0.000220
0.000215
0.000210
0.000205
0.000200
0.000195
0.000190
0.000185
0.000180
0.000176
0.000171
0.000166
0.000161
0.000156
0.000151
0.000147
0.000142
0.000137
0.000133
0.000128
0.000124
0.000119
0.000115
0.000110
0.000106
0.000102
0.000098
0.000094
0.000089
0.000085
0.000082
0.000078
0.000074
0.000070
0.000067
0.000063
0.000060
0.000056
0.000053
0.000050
0.000047
0.000044
0.000041
0.000038
0.000035
0.000033
0.000030
0.000028
0.000025
0.000023
0.000021
0.000019
0.000017
0.000015
0.000013
0.000011
0.000322
-0.000005
-0.000004
-0.000002
-0.000000
0.000001
0.000003
0.000005
0.000007
0.000009
0.000012
0.000014
0.000016
0.000019
0.000022
0.000024
0.000027
0.000030
0.000033
0.000036
0.000040
0.000043
0.000046
0.000050
0.000053
0.000057
0.000061
0.000064
0.000068
0.000072
0.000076
0.000080
0.000084
0.000089
0.000093
0.000097
0.000102
0.000106
0.000110
0.000115
0.000120
0.000124
0.000129
0.000134
0.000138
0.000143
0.000148
0.000153
0.000158
0.000163
0.000168
0.000173
0.000178
0.000183
0.000188
0.000193
0.000198
0.000203
0.000208
0.000213
0.000218
0.000223
0.000228
0.000233
0.000238
0.000243
0.000248
0.000253
0.000258
0.000263
0.000268
0.000273
0.000278
0.000283
0.000288
0.000293
0.000298
0.000303
0.000308
0.000313
0.000318
0.000324
0.000326
0.000327
0.000329
0.000331
0.000332
0.000334
0.000336
0.000337
0.000008
0.000007
0.000005
0.000004
0.000002
0.000001
-0.000001
-0.000002
-0.000004
-0.000002
-0.000001
0.000001
0.000002
0.000004
0.000005
0.000007
0.000008
0.000010
-0.000001
0.000001
0.000002
0.000004
0.000005
0.000007
0.000008
0.000010
0.000011
0.000001
0.000003
0.000004
0.000006
0.000007
0.000009
0.000010
0.000012
0.000013
0.000003
0.000004
0.000006
0.000007
0.000009
0.000010
0.000012
0.000014
0.000015
0.000005
0.000006
0.000008
0.000009
0.000011
0.000012
0.000014
0.000016
0.000017
0.000007
0.000008
0.000010
0.000011
0.000013
0.000014
0.000016
0.000018
0.000019
0.000009
0.000010
0.000012
0.000013
0.000015
0.000017
0.000018
0.000020
0.000021
0.000011
0.000013
0.000014
0.000016
0.000017
0.000019
0.000020
0.000022
0.000024
0.000013
0.000015
0.000016
0.000018
0.000020
0.000021
0.000023
0.000024
0.000026
0.000016
0.000017
0.000019
0.000020
0.000022
0.000024
0.000025
0.000027
0.000028
0.000018
0.000020
0.000021
0.000023
0.000024
0.000026
0.000028
0.000029
0.000031
0.000021
0.000022
0.000024
0.000025
0.000027
0.000029
0.000030
0.000032
0.000034
0.000023
0.000025
0.000027
0.000028
0.000030
0.000031
0.000033
0.000035
0.000036
0.000026
0.000028
0.000029
0.000031
0.000033
0.000034
0.000036
0.000037
0.000039
0.000029
0.000031
0.000032
0.000034
0.000035
0.000037
0.000039
0.000040
0.000042
0.000032
0.000033
0.000035
0.000037
0.000038
0.000040
0.000042
0.000043
0.000045
0.000035
0.000036
0.000038
0.000040
0.000041
0.000043
0.000045
0.000047
0.000048
0.000038
0.000040
0.000041
0.000043
0.000045
0.000046
0.000048
0.000050
0.000051
0.000041
0.000043
0.000045
0.000046
0.000048
0.000050
0.000051
0.000053
0.000055
0.000044
0.000046
0.000048
0.000050
0.000051
0.000053
0.000055
0.000056
0.000058
0.000048
0.000050
0.000051
0.000053
0.000055
0.000056
0.000058
0.000060
0.000061
0.000051
0.000053
0.000055
0.000056
0.000058
0.000060
0.000062
0.000063
0.000065
0.000055
0.000057
0.000058
0.000060
0.000062
0.000063
0.000065
0.000067
0.000069
0.000059
0.000060
0.000062
0.000064
0.000065
0.000067
0.000069
0.000071
0.000072
0.000062
0.000064
0.000066
0.000067
0.000069
0.000071
0.000073
0.000074
0.000076
0.000066
0.000068
0.000069
0.000071
0.000073
0.000075
0.000076
0.000078
0.000080
0.000070
0.000072
0.000073
0.000075
0.000077
0.000079
0.000080
0.000082
0.000084
0.000074
0.000076
0.000077
0.000079
0.000081
0.000083
0.000084
0.000086
0.000088
0.000078
0.000080
0.000081
0.000083
0.000085
0.000087
0.000088
0.000090
0.000092
0.000082
0.000084
0.000085
0.000087
0.000089
0.000091
0.000092
0.000094
0.000096
0.000086
0.000088
0.000090
0.000091
0.000093
0.000095
0.000097
0.000098
0.000100
0.000090
0.000092
0.000094
0.000095
0.000097
0.000099
0.000101
0.000103
0.000104
0.000095
0.000096
0.000098
0.000100
0.000102
0.000103
0.000105
0.000107
0.000109
0.000099
0.000101
0.000102
0.000104
0.000106
0.000108
0.000109
0.000111
0.000113
0.000103
0.000105
0.000107
0.000109
0.000110
0.000112
0.000114
0.000116
0.000117
0.000108
0.000109
0.000111
0.000113
0.000115
0.000117
0.000118
0.000120
0.000122
0.000112
0.000114
0.000116
0.000117
0.000119
0.000121
0.000123
0.000125
0.000126
0.000117
0.000119
0.000120
0.000122
0.000124
0.000126
0.000127
0.000129
0.000131
0.000121
0.000123
0.000125
0.000127
0.000128
0.000130
0.000132
0.000134
0.000136
0.000126
0.000128
0.000130
0.000131
0.000133
0.000135
0.000137
0.000138
0.000140
0.000131
0.000132
0.000134
0.000136
0.000138
0.000140
0.000141
0.000143
0.000145
0.000135
0.000137
0.000139
0.000141
0.000142
0.000144
0.000146
0.000148
0.000150
0.000140
0.000142
0.000144
0.000145
0.000147
0.000149
0.000151
0.000153
0.000154
0.000145
0.000147
0.000149
0.000150
0.000152
0.000154
0.000156
0.000157
0.000159
0.000150
0.000152
0.000153
0.000155
0.000157
0.000159
0.000160
0.000162
0.000164
0.000155
0.000156
0.000158
0.000160
0.000162
0.000164
0.000165
0.000167
0.000169
0.000160
0.000161
0.000163
0.000165
0.000167
0.000168
0.000170
0.000172
0.000174
0.000164
0.000166
0.000168
0.000170
0.000172
0.000173
0.000175
0.000177
0.000179
0.000169
0.000171
0.000173
0.000175
0.000176
0.000178
0.000180
0.000182
0.000184
0.000174
0.000176
0.000178
0.000180
0.000181
0.000183
0.000185
0.000187
0.000189
0.000179
0.000181
0.000183
0.000185
0.000186
0.000188
0.000190
0.000192
0.000194
0.000184
0.000186
0.000188
0.000190
0.000191
0.000193
0.000195
0.000197
0.000199
0.000189
0.000191
0.000193
0.000195
0.000196
0.000198
0.000200
0.000202
0.000204
0.000194
0.000196
0.000198
0.000200
0.000201
0.000203
0.000205
0.000207
0.000209
0.000199
0.000201
0.000203
0.000205
0.000206
0.000208
0.000210
0.000212
0.000214
0.000204
0.000206
0.000208
0.000210
0.000212
0.000213
0.000215
0.000217
0.000219
0.000210
0.000211
0.000213
0.000215
0.000217
0.000218
0.000220
0.000222
0.000224
0.000215
0.000216
0.000218
0.000220
0.000222
0.000223
0.000225
0.000227
0.000229
0.000220
0.000221
0.000223
0.000225
0.000227
0.000228
0.000230
0.000232
0.000234
0.000225
0.000227
0.000228
0.000230
0.000232
0.000234
0.000235
0.000237
0.000239
0.000230
0.000232
0.000233
0.000235
0.000237
0.000239
0.000240
0.000242
0.000244
0.000235
0.000237
0.000238
0.000240
0.000242
0.000244
0.000245
0.000247
0.000249
0.000240
0.000242
0.000243
0.000245
0.000247
0.000249
0.000250
0.000252
0.000254
0.000245
0.000247
0.000248
0.000250
0.000252
0.000254
0.000255
0.000257
0.000259
0.000250
0.000252
0.000254
0.000255
0.000257
0.000259
0.000261
0.000262
0.000264
0.000255
0.000257
0.000259
0.000260
0.000262
0.000264
0.000266
0.000267
0.000269
0.000260
0.000262
0.000264
0.000265
0.000267
0.000269
0.000271
0.000272
0.000274
0.000265
0.000267
0.000269
0.000270
0.000272
0.000274
0.000276
0.000277
0.000279
0.000270
0.000272
0.000274
0.000275
0.000277
0.000279
0.000281
0.000282
0.000284
0.000275
0.000277
0.000279
0.000280
0.000282
0.000284
0.000286
0.000287
0.000289
0.000280
0.000282
0.000284
0.000285
0.000287
0.000289
0.000290
0.000292
0.000294
0.000285
0.000287
0.000289
0.000290
0.000292
0.000294
0.000295
0.000297
0.000299
0.000290
0.000292
0.000293
0.000295
0.000297
0.000299
0.000300
0.000302
0.000304
0.000295
0.000297
0.000298
0.000300
0.000302
0.000304
0.000305
0.000307
0.000309
0.000300
0.000302
0.000303
0.000305
0.000307
0.000308
0.000310
0.000312
0.000313
0.000305
0.000307
0.000308
0.000310
0.000312
0.000313
0.000315
0.000317
0.000318
0.000310
0.000311
0.000313
0.000315
0.000316
0.000318
0.000320
0.000321
0.000323
0.000314
0.000316
0.000318
0.000320
0.000321
0.000323
0.000325
0.000326
0.000328
0.000319
0.000321
0.000323
0.000324
0.000326
0.000328
0.000329
0.000331
0.000333
SCALARS stress_1 float
LOOKUP_TABLE default
313.524025
-147285.698068
-145055.236796
-142813.931773
-140562.259564
-138299.579541
-136027.602644
-133746.360122
-131456.625412
-129158.804765
-126853.445055
-124541.686908
-122223.577198
-119899.639363
-117571.467153
-115239.076194
-112903.294609
-110564.513024
-108224.598627
-105883.340480
-103542.191707
-101201.597623
-98861.925413
-96525.464141
-94192.112243
-91863.088471
-89539.111574
-87221.626864
-84911.040592
-82608.884007
-80315.743047
-78032.820838
-75761.508003
-73502.640481
-71256.944833
-69025.491374
-66810.194164
-64611.232892
-62430.193494
-60268.685347
-58126.864700
-56006.184678
-53908.270280
-51833.496508
-49783.464923
-47759.269276
-45762.065816
-43792.799857
-41852.166709
-39942.142937
-38063.392602
-36216.368830
-34403.180995
-32623.899411
-30880.344388
-29173.164366
-27502.578094
-25870.523072
-24276.991487
-22723.733340
-21210.631442
-19739.224858
-18310.201085
-16923.294501
-15579.583228
-14279.395394
-13024.590371
-11814.293162
-10648.785014
-9529.222180
-8455.604657
-7428.143385
-6446.025863
-5511.244278
-4622.322068
-3779.751421
-2983.540149
-2233.571064
-1528.922292
-869.867270
-255.898185
-147254.417688
526.257530
-43.008430
-657.204077
-1316.720037
-2021.610997
-2772.291019
-3569.181979
-4412.205751
-5301.877961
-6238.128296
-7220.792693
-8249.371153
-9325.074612
-10445.918697
-11612.278407
-12824.731867
-14081.490014
-15382.920036
-16728.725058
-18117.194143
-19548.983540
-21022.335438
-22537.195147
-24093.515795
-25689.156754
-27323.399277
-28996.243361
-30706.110884
-32452.728406
-34234.103741
-36050.596263
-37899.955973
-39781.573495
-41694.128517
-43637.269477
-45609.902624
-47610.238896
-49637.590794
-51690.255191
-53768.044588
-55869.208985
-57992.623383
-60137.186217
-62302.295927
-64486.155637
-66687.695034
-68906.632869
-71140.617579
-73389.328851
-75651.157311
-77925.931083
-80211.611105
-82507.447378
-84812.619587
-87126.174610
-89446.487444
-91773.440904
-94105.542801
-96441.465011
-98781.152846
-101122.746931
-103466.559765
-105810.114788
-108154.091685
-110497.006082
-112837.842354
-115176.116127
-117511.288336
-119842.280859
-122168.078068
-124488.867466
-126802.984988
-129110.602510
-131410.665345
-133702.939117
-135985.775389
-138260.064787
-140524.619809
-142778.807644
-145022.331416
-147258.490257
-147261.828452
-147265.807271
-147269.247027
-147272.296159
-147275.228103
-147278.167860
-147280.779492
-147283.422374
343.143469
371.434788
397.405795
421.806489
443.941559
464.311003
482.961697
499.346766
513.544335
-55.713812
-70.137944
-86.319888
-104.548707
-125.144714
-147.279783
-171.688290
-198.026484
-226.083428
-669.753209
-684.107028
-700.531160
-718.752167
-738.801298
-761.475430
-785.446437
-811.737756
-839.771263
-1329.183231
-1343.310488
-1359.523682
-1378.018126
-1397.801633
-1420.374202
-1444.501459
-1470.402153
-1498.435660
-2034.027316
-2048.013948
-2064.352142
-2082.393461
-2102.926968
-2124.702662
-2149.197106
-2175.511863
-2203.225057
-2784.590151
-2798.842408
-2814.696227
-2833.081296
-2853.130428
-2875.265497
-2899.619316
-2925.527823
-2953.451955
-3581.027986
-3595.100555
-3611.688749
-3629.800381
-3649.583887
-3671.734582
-3695.893088
-3721.957845
-3750.116352
-4424.200195
-4438.483702
-4454.423459
-4472.347590
-4492.482660
-4514.422416
-4538.174673
-4564.653492
-4592.382312
-5314.028655
-5327.780912
-5344.017544
-5361.605738
-5381.865807
-5403.446189
-5427.471883
-5453.435077
-5481.273271
-6250.364927
-6263.687497
-6279.392878
-6297.668572
-6317.663017
-6339.180898
-6363.183155
-6388.974474
-6416.617356
-7232.459012
-7246.305019
-7262.221338
-7279.872032
-7299.288351
-7321.243733
-7345.019427
-7370.537309
-7398.164566
-8261.560909
-8275.258479
-8290.534173
-8308.364555
-8327.851186
-8349.259693
-8373.176012
-8398.350144
-8425.782088
-9336.201869
-9349.618188
-9365.073570
-9383.005514
-9402.234333
-9423.744403
-9447.426347
-9472.569229
-9499.790235
-10457.303766
-10470.688836
-10485.886405
-10503.318349
-10522.859668
-10544.315050
-10567.559494
-10592.343001
-10619.946820
-11623.358789
-11637.079795
-11652.613302
-11669.678059
-11689.156878
-11709.620072
-11733.059829
-11758.046461
-11785.142467
-12835.773186
-12849.080130
-12864.090199
-12881.240894
-12900.204088
-12921.026657
-12944.208601
-12969.163983
-12996.103740
-14092.578208
-14105.986715
-14120.840534
-14137.514666
-14156.532547
-14177.745742
-14200.060498
-14224.375255
-14251.596262
-15394.211355
-15407.088612
-15421.801806
-15438.350938
-15457.111007
-15477.785139
-15500.412396
-15524.641215
-15551.276284
-16739.344503
-16751.846759
-16766.958391
-16783.523148
-16801.603529
-16821.933911
-16844.584605
-16868.680612
-16894.987556
-18127.797962
-18140.768969
-18155.130601
-18171.718795
-18189.939802
-18209.863933
-18231.889628
-18256.282509
-18281.909766
-19559.220172
-19571.683366
-19586.107498
-19602.695692
-19620.768261
-19640.528331
-19662.889962
-19686.415657
-19711.535101
-21032.798632
-21045.316514
-21059.428145
-21075.367902
-21093.331096
-21113.169290
-21134.921547
-21158.384741
-21183.543248
-22547.705217
-22560.113723
-22574.006605
-22590.118237
-22607.714244
-22627.154000
-22648.554694
-22671.931951
-22696.692020
-24103.830551
-24115.364058
-24129.147565
-24145.337322
-24162.355203
-24181.763710
-24203.148779
-24226.135411
-24250.817355
-25698.862136
-25710.715955
-25724.468212
-25740.079844
-25757.277413
-25776.599982
-25797.289739
-25820.026371
-25844.458315
-27333.424971
-27345.060040
-27358.624797
-27373.947366
-27390.894935
-27410.139379
-27430.352574
-27452.745455
-27476.716462
-29006.245618
-29017.318187
-29031.070444
-29046.228951
-29062.918708
-29081.420964
-29101.766971
-29123.714540
-29147.388672
-30716.105328
-30727.263835
-30740.422341
-30755.487098
-30772.067480
-30790.140049
-30810.196993
-30831.839875
-30855.318694
-32462.090038
-32473.506357
-32486.032051
-32500.963995
-32517.630315
-32535.366946
-32555.127015
-32576.223022
-32599.311216
-34243.402872
-34254.623879
-34267.493323
-34282.120580
-34298.052524
-34315.711031
-34334.916413
-34356.317107
-34378.952176
-36059.957895
-36070.725776
-36083.267096
-36097.363102
-36113.201297
-36130.828553
-36149.799560
-36170.098692
-36192.608761
-37908.880104
-37919.702674
-37931.868993
-37945.879062
-37961.811006
-37979.266388
-37997.417082
-38017.950589
-38039.437221
-39790.357002
-39800.968633
-39813.541203
-39826.902834
-39842.405091
-39859.368285
-39877.675229
-39897.216549
-39919.171930
-41703.412024
-41713.968968
-41725.838412
-41739.262544
-41754.506988
-41770.852995
-41789.097439
-41808.787196
-41829.726953
-43645.904546
-43656.773990
-43668.315310
-43681.614441
-43696.304198
-43712.876767
-43730.339961
-43749.967218
-43770.438225
-45618.686131
-45628.688388
-45640.034394
-45653.005401
-45667.804533
-45683.908352
-45701.473109
-45719.998803
-45740.493247
-47618.366153
-47628.868410
-47639.980042
-47652.880736
-47666.898618
-47682.588374
-47699.864068
-47718.053825
-47737.970144
-49645.491488
-49655.423432
-49666.699126
-49679.654508
-49693.320827
-49708.932459
-49725.419091
-49743.210410
-49762.751729
-51698.569948
-51708.322204
-51719.316649
-51731.725155
-51745.727412
-51760.432794
-51776.435050
-51794.452932
-51813.275501
-53775.890595
-53785.463164
-53796.262296
-53808.787990
-53821.735559
-53836.261254
-53852.560385
-53869.625142
-53888.299274
-55877.398742
-55886.213499
-55897.145443
-55908.553950
-55921.923394
-55936.410026
-55951.927907
-55968.977039
-55986.752733
-58000.508452
-58009.588834
-58019.856715
-58031.944910
-58044.689354
-58058.683798
-58073.771992
-58090.414874
-58107.846818
-60145.063474
-60154.065731
-60164.169550
-60175.874932
-60188.353751
-60201.895070
-60216.717640
-60232.860521
-60250.128403
-62309.649746
-62319.042628
-62328.591760
-62339.758079
-62351.986898
-62365.387593
-62379.686724
-62396.118668
-62412.511550
-64493.837581
-64502.191400
-64511.873345
-64522.922476
-64534.690358
-64548.145740
-64562.163622
-64577.353378
-64593.660322
-66695.330103
-66703.793298
-66713.381492
-66723.907186
-66735.886005
-66748.216387
-66762.054581
-66777.134963
-66793.012220
-68913.705438
-68922.004570
-68931.381827
-68941.930958
-68953.097278
-68965.255784
-68979.281479
-68993.346235
-69009.223492
-71147.666710
-71156.184592
-71165.186849
-71175.126606
-71186.456987
-71198.388932
-71211.742751
-71225.682507
-71240.559764
-73396.463920
-73404.255239
-73413.249684
-73423.345690
-73433.910447
-73445.443954
-73458.414961
-73472.081280
-73487.083536
-75658.362692
-75666.036824
-75674.773456
-75684.658525
-75695.184219
-75706.514601
-75718.860608
-75732.542552
-75746.451059
-77932.402090
-77940.255909
-77948.851916
-77958.283860
-77968.372054
-77979.725873
-77991.962505
-78004.621012
-78018.584206
-80218.472737
-80225.889056
-80233.906938
-80243.307632
-80253.450514
-80264.163708
-80275.665965
-80288.363534
-80301.740791
-82514.238697
-82521.412828
-82529.657273
-82538.339217
-82548.263349
-82558.906230
-82570.338175
-82582.207619
-82595.381750
-84819.051532
-84826.272538
-84834.431045
-84843.261427
-84852.654308
-84862.828440
-84874.041634
-84885.418891
-84898.108648
-87132.090929
-87139.702560
-87147.439192
-87155.746136
-87165.045268
-87174.906900
-87185.682594
-87197.059851
-87209.038670
-89453.138139
-89459.945083
-89467.283277
-89475.527721
-89484.912790
-89493.985360
-89504.503241
-89515.380498
-89526.867130
-91779.529098
-91786.390730
-91793.564862
-91801.621806
-91810.225625
-91819.274757
-91829.581701
-91840.068333
-91851.453402
-94111.443496
-94118.008252
-94125.080821
-94132.911203
-94140.936897
-94150.259467
-94159.871098
-94170.092105
-94180.711549
-96447.404768
-96454.039837
-96461.003031
-96468.481850
-96476.507545
-96484.892614
-96494.668308
-96504.334627
-96514.571259
-98786.701978
-98792.790172
-98799.815866
-98807.130623
-98815.273504
-98823.377324
-98832.387393
-98841.663087
-98851.954406
-101128.569500
-101134.790506
-101141.222451
-101148.662207
-101156.031652
-101163.893283
-101172.497103
-101182.100922
-101191.095366
-103472.062022
-103477.736154
-103484.441535
-103491.162542
-103498.742924
-103506.393618
-103514.528687
-103523.288757
-103532.236326
-105815.702982
-105821.650551
-105827.894995
-105834.655064
-105841.719821
-105849.175203
-105857.161835
-105865.546904
-105874.299160
-108159.453317
-108165.135261
-108171.817205
-108177.858524
-108184.618593
-108192.073975
-108199.513732
-108207.633176
-108215.721370
-110502.125526
-110507.518408
-110513.911290
-110520.171359
-110526.478303
-110533.386810
-110540.920317
-110548.453823
-110556.424830
-112843.157111
-112848.401555
-112854.177249
-112860.538881
-112866.963013
-112873.426207
-112880.498776
-112887.594783
-112895.214227
-115181.063696
-115186.714390
-115192.099459
-115198.281403
-115204.283660
-115210.824979
-115217.374111
-115224.251368
-115231.347375
-117516.118718
-117521.441287
-117526.873231
-117532.406738
-117538.362120
-117544.676877
-117551.015071
-117557.548578
-117564.535209
-119846.759678
-119852.215060
-119857.350129
-119862.883635
-119868.518705
-119874.786586
-119880.374781
-119886.627037
-119893.246482
-122173.189700
-122178.051332
-122182.998901
-122188.180845
-122193.636227
-122199.411921
-122205.515740
-122210.877372
-122217.168691
-124493.768160
-124498.020417
-124503.139861
-124508.009305
-124513.441249
-124518.623193
-124524.242638
-124529.862082
-124536.137776
-126808.143495
-126812.223876
-126817.015195
-126822.197140
-126827.121271
-126832.092278
-126837.289847
-126842.588979
-126847.958423
-129114.956329
-129119.841399
-129124.437405
-129128.853724
-129133.676294
-129138.397300
-129143.766745
-129148.362751
-129153.630633
-131415.097289
-131419.466733
-131424.000240
-131428.479059
-131433.340691
-131437.827323
-131442.579579
-131447.550586
-131452.037218
-133706.831999
-133711.467068
-133715.680262
-133720.182519
-133724.575401
-133728.897970
-133733.548664
-133737.761858
-133742.100053
-135989.988584
-135994.397090
-135998.547785
-136002.698479
-136007.021048
-136011.327992
-136015.103686
-136019.473131
-136024.100387
-138264.645168
-138268.452113
-138272.368432
-138276.519126
-138280.568258
-138284.523639
-138288.213396
-138291.926590
-138295.772597
-140528.504878
-140532.764947
-140536.704704
-140540.449148
-140544.623280
-140547.922412
-140551.885606
-140555.145675
-140558.515119
-142782.802088
-142786.859032
-142790.595664
-142794.121358
-142797.779865
-142801.461809
-142804.940628
-142807.872572
-142811.038892
-145026.161798
-145030.328117
-145033.697561
-145037.348255
-145041.108324
-145043.993394
-145047.112838
-145050.138532
-145053.047039
SCALARS stress_2 float
LOOKUP_TABLE default
2979.724643
-17370.257744
-17068.545464
-16765.083184
-16459.620904
-16152.533624
-15844.321345
-15534.734065
-15224.396785
-14912.309505
-14599.972225
-14285.634945
-13970.172666
-13655.960386
-13338.748106
-13022.285826
-12703.948546
-12386.861266
-12069.523987
-11750.561707
-11431.724427
-11112.137147
-10793.799867
-10476.837587
-10158.750307
-9841.288028
-9524.200748
-9207.113468
-8891.776188
-8579.063908
-8265.976628
-7952.639349
-7643.802069
-7333.089789
-7028.752509
-6722.915229
-6417.577949
-6117.365670
-5818.403390
-5522.691110
-5228.478830
-4937.891550
-4649.929270
-4364.966991
-4082.254711
-3803.167431
-3527.830151
-3255.992871
-2987.905591
-2723.568312
-2463.606032
-2208.143752
-1957.431472
-1711.594192
-1469.006912
-1231.044632
-999.457353
-769.995073
-547.282793
-331.320513
-119.608233
86.604047
288.316326
483.528606
673.490886
857.453166
1034.790446
1207.377726
1373.590005
1533.302285
1686.514565
1835.851845
1977.314125
2112.776405
2243.613684
2366.200964
2483.163244
2595.750524
2700.337804
2799.925084
2892.762364
-16190.336417
3902.645970
3826.558690
3744.096410
3655.509130
3560.171851
3459.459571
3353.247291
3239.410011
3118.822731
2993.360451
2860.523171
2722.310892
2577.223612
2425.636332
2268.924052
2104.086772
1934.374492
1759.287213
1576.449933
1387.612653
1194.775373
994.813093
789.350813
579.888534
363.051254
141.713974
-85.123306
-317.210586
-553.547866
-795.135145
-1042.722425
-1293.059705
-1548.521985
-1809.359265
-2072.446545
-2338.533824
-2611.996104
-2887.333384
-3165.920664
-3447.257944
-3733.470224
-4022.182504
-4313.144783
-4608.232063
-4906.069343
-5205.531623
-5505.368903
-5810.706183
-6116.043462
-6424.130742
-6734.218022
-7045.180302
-7356.267582
-7671.729862
-7986.192141
-8302.154421
-8618.491701
-8936.203981
-9254.916261
-9573.003541
-9892.465820
-10212.553100
-10531.265380
-10851.227660
-11170.564940
-11490.152220
-11809.989500
-12128.076779
-12446.164059
-12764.126339
-13079.088619
-13396.675899
-13711.763179
-14025.600458
-14338.562738
-14650.150018
-14961.362298
-15269.949578
-15578.911858
-15884.124137
-16307.741050
-16426.770683
-16544.800315
-16662.704948
-16780.609581
-16897.764213
-17016.543846
-17134.698478
-17254.103111
3074.879276
3166.158909
3258.813541
3352.843174
3443.872807
3537.027439
3628.432072
3719.336705
3812.116337
3733.404057
3641.624425
3549.594792
3456.315159
3363.535527
3270.130894
3175.976261
3081.571629
2988.041996
3651.316778
3558.037145
3464.757512
3369.102880
3274.323247
3180.418614
3086.138982
2989.984349
2894.454716
3560.854498
3466.199865
3372.045232
3277.640600
3181.110967
3085.706334
2989.301702
2892.897069
2798.117436
3465.392218
3369.737585
3273.957953
3177.928320
3081.523687
2985.494055
2887.339422
2789.934789
2692.905157
3364.054938
3267.150305
3170.245673
3072.091040
2976.186407
2877.406775
2778.627142
2681.972509
2582.067877
3255.092658
3157.188026
3060.658393
2961.253760
2863.599128
2763.694495
2664.289862
2565.385230
2465.480597
3141.005378
3042.725746
2943.821113
2843.416480
2743.886848
2645.482215
2544.952582
2444.797950
2344.643317
3020.418099
2920.263466
2820.858833
2720.704201
2620.174568
2519.269935
2418.740303
2316.960670
2215.681037
2894.455819
2793.051186
2692.021553
2591.366921
2488.587288
2386.932655
2284.778023
2182.623390
2080.093757
2759.243539
2659.463906
2556.309274
2453.654641
2352.000008
2249.470376
2146.190743
2043.911110
1940.131478
2619.656259
2518.126626
2415.846994
2311.567361
2208.162728
2104.633096
2001.228463
1897.198830
1793.169198
2473.943979
2370.289347
2265.634714
2163.605081
2059.825449
1953.795816
1849.266183
1743.736551
1638.456918
2321.981699
2217.702067
2112.422434
2008.642801
1903.613169
1797.583536
1692.428903
1586.524271
1479.744638
2162.769419
2058.114787
1952.960154
1847.805522
1741.525889
1635.121256
1528.716624
1421.936991
1314.782358
1998.182140
1892.277507
1785.372874
1680.718242
1573.063609
1467.033976
1359.129344
1251.099711
1144.695078
1827.969860
1720.815227
1614.785594
1507.005962
1398.851329
1291.446697
1181.917064
1075.762431
966.857799
1650.757580
1543.352947
1436.323315
1327.168682
1219.889049
1110.859417
1001.079784
892.550151
782.270519
1469.295300
1360.765667
1250.986035
1143.456402
1033.301770
923.772137
814.992504
703.587872
594.058239
1280.583020
1170.553388
1060.648755
951.619122
842.589490
731.059857
621.530224
510.750592
399.595959
1085.245740
975.966108
864.811475
753.781842
644.377210
533.722577
422.192945
311.288312
198.883679
885.908461
774.003828
663.599195
552.819563
440.789930
329.135297
217.230665
105.326032
-6.703601
679.696181
569.041548
456.261915
345.732283
233.327650
120.173017
8.143385
-104.511248
-218.665880
467.983901
355.454268
244.424636
131.270003
18.990370
-94.039262
-207.443895
-320.473528
-435.253160
251.396621
138.491988
25.837356
-87.942277
-201.221910
-314.751542
-429.031175
-541.935807
-655.465440
28.184341
-83.970291
-198.624924
-311.279557
-424.434189
-539.213822
-654.118455
-769.648087
-882.802720
-199.152939
-312.182571
-425.712204
-541.241837
-654.771469
-769.801102
-884.330735
-1000.360367
-1116.765000
-430.990218
-545.269851
-659.424484
-775.079116
-888.733749
-1004.888382
-1120.418014
-1238.072647
-1352.477280
-668.702498
-784.232131
-898.136764
-1014.791396
-1129.696029
-1245.975662
-1361.630294
-1477.784927
-1593.814559
-911.789778
-1026.319411
-1141.224043
-1257.628676
-1373.658309
-1490.437941
-1607.842574
-1723.997207
-1841.026839
-1157.877058
-1272.781691
-1389.311323
-1505.590956
-1622.245589
-1739.150221
-1856.054854
-1974.084487
-2090.489119
-1408.839338
-1525.243970
-1641.648603
-1757.803236
-1875.957868
-1992.987501
-2110.392134
-2228.421766
-2345.826399
-1665.676618
-1781.456250
-1898.860883
-2015.640516
-2133.420148
-2251.449781
-2370.354414
-2487.384046
-2606.163679
-1923.888897
-2041.543530
-2158.823163
-2278.727795
-2396.257428
-2513.662061
-2631.316693
-2750.346326
-2869.875959
-2189.101177
-2307.130810
-2424.910443
-2543.315075
-2661.094708
-2780.249341
-2899.028973
-3018.433606
-3136.713239
-2457.063457
-2575.218090
-2693.247722
-2812.652355
-2931.306988
-3050.586620
-3168.116253
-3288.770886
-3408.425518
-2730.025737
-2847.555370
-2966.460002
-3085.614635
-3203.394268
-3324.173900
-3444.578533
-3562.983166
-3682.637798
-3005.738017
-3123.392649
-3243.047282
-3361.826915
-3481.481547
-3601.386180
-3720.415813
-3841.320445
-3960.975078
-3284.575297
-3403.104929
-3522.384562
-3642.789195
-3762.568827
-3882.598460
-4002.378093
-4121.907725
-4243.562358
-3567.662577
-3685.942209
-3806.346842
-3925.751474
-4046.156107
-4165.435740
-4286.215372
-4406.870005
-4527.774638
-3852.499856
-3973.404489
-4092.309122
-4212.713754
-4332.993387
-4453.273020
-4574.427652
-4694.957285
-4815.611918
-4142.212136
-4261.741769
-4382.771401
-4500.676034
-4622.705667
-4744.110299
-4865.014932
-4985.794565
-5106.699197
-4434.424416
-4554.079049
-4674.358681
-4795.763314
-4916.542947
-5036.447579
-5156.977212
-5279.006845
-5401.786477
-4728.386696
-4848.166329
-4969.945961
-5090.475594
-5210.630226
-5333.284859
-5454.064492
-5575.969124
-5697.623757
-5025.223976
-5145.878608
-5267.533241
-5386.687874
-5509.092506
-5631.247139
-5751.776772
-5873.181404
-5996.086037
-5325.436256
-5445.840888
-5566.870521
-5688.150153
-5808.304786
-5930.334419
-6052.364051
-6175.393684
-6296.673317
-5626.523535
-5748.178168
-5870.582801
-5989.987433
-6111.892066
-6234.546699
-6355.576331
-6477.855964
-6600.760597
-5930.485815
-6051.140448
-6174.795081
-6296.074713
-6417.479346
-6540.133978
-6659.788611
-6783.443244
-6904.597876
-6236.698095
-6358.352728
-6480.757360
-6601.911993
-6723.191626
-6846.596258
-6967.625891
-7090.655524
-7211.935156
-6545.910375
-6666.565008
-6787.969640
-6910.874273
-7030.778906
-7153.558538
-7276.588171
-7398.992803
-7520.772436
-6854.497655
-6975.652287
-7097.806920
-7220.086553
-7341.991185
-7464.145818
-7585.425451
-7708.330083
-7831.734716
-7165.584935
-7287.614567
-7410.019200
-7532.173833
-7652.953465
-7775.858098
-7897.012730
-8018.917363
-8143.696996
-7477.922214
-7600.576847
-7722.231480
-7843.886112
-7965.790745
-8087.945378
-8210.600010
-8333.004643
-8456.409276
-7792.134494
-7914.414127
-8037.568760
-8157.973392
-8280.878025
-8403.157658
-8524.312290
-8647.466923
-8769.871555
-8107.346774
-8228.876407
-8350.906039
-8473.560672
-8595.965305
-8718.619937
-8840.274570
-8963.304203
-9084.958835
-8423.559054
-8545.963687
-8667.618319
-8789.772952
-8911.802585
-9033.957217
-9156.736850
-9278.516482
-9402.296115
-8739.646334
-8862.675966
-8985.955599
-9106.235232
-9230.014864
-9351.294497
-9472.699130
-9596.228762
-9718.008395
-9058.858614
-9180.513246
-9302.292879
-9424.697512
-9546.727144
-9667.006777
-9790.911410
-9913.691042
-10036.470675
-9376.445893
-9498.100526
-9621.255159
-9741.909791
-9865.564424
-9986.969057
-10108.123689
-10232.028322
-10353.182955
-9696.283173
-9816.937806
-9939.217439
-10061.497071
-10183.651704
-10304.181337
-10427.710969
-10548.990602
-10672.270235
-10015.120453
-10135.400086
-10258.679718
-10380.084351
-10502.738984
-10624.768616
-10745.798249
-10868.077882
-10991.232514
-10334.207733
-10456.487366
-10576.891998
-10698.546631
-10821.451264
-10942.355896
-11064.260529
-11187.165162
-11309.569794
-10653.420013
-10773.949645
-10896.854278
-11018.008911
-11141.663543
-11261.193176
-11383.097809
-11505.377441
-11627.907074
-10973.007293
-11094.536925
-11216.566558
-11338.346191
-11459.250823
-11580.655456
-11703.060089
-11824.089721
-11945.994354
-11291.219572
-11414.749205
-11533.778838
-11657.183470
-11777.838103
-11899.117736
-12020.897368
-12144.177001
-12265.706634
-11612.556852
-11734.211485
-11855.116118
-11974.145750
-12097.050383
-12218.705016
-12339.234648
-12460.889281
-12583.293914
-11929.894132
-12051.298765
-12172.703397
-12293.483030
-12415.262663
-12537.167295
-12658.446928
-12779.976561
-12899.756193
-12248.731412
-12369.636045
-12489.790677
-12612.070310
-12733.224943
-12854.129575
-12975.784208
-13094.813841
-13217.968473
-12567.693692
-12688.598324
-12809.752957
-12930.157590
-13050.187222
-13170.966855
-13291.996488
-13412.901120
-13534.680753
-12883.905972
-13004.310604
-13125.340237
-13246.369870
-13367.149502
-13487.679135
-13607.458768
-13728.738400
-13850.018033
-13201.118252
-13320.397884
-13442.802517
-13562.332149
-13683.236782
-13802.766415
-13923.921047
-14043.950680
-14165.105313
-13515.455531
-13636.360164
-13757.139797
-13876.544429
-13997.699062
-14117.853695
-14238.383327
-14358.662960
-14478.692593
-13830.917811
-13952.072444
-14071.352076
-14190.756709
-14311.786342
-14431.815974
-14552.470607
-14671.750240
-14791.529872
-14144.880091
-14264.909724
-14384.814356
-14504.218989
-14624.498622
-14744.778254
-14864.807887
-14984.337520
-15103.992152
-14457.467371
-14577.247004
-14697.651636
-14817.681269
-14936.960901
-15055.740534
-15174.770167
-15296.299799
-15415.329432
-14770.179651
-14889.209283
-15008.738916
-15128.143549
-15246.673181
-15366.702814
-15486.982447
-15606.012079
-15725.041712
-15080.016931
-15199.421563
-15317.451196
-15437.480829
-15556.885461
-15675.165094
-15795.569726
-15914.849359
-16033.753992
-15388.979210
-15507.633843
-15627.788476
-15745.943108
-15864.972741
-15983.127374
-16102.282006
-16220.811639
-16340.341272
-15697.691490
-15816.096123
-15934.250756
-16053.405388
-16171.810021
-16290.589653
-16408.994286
-16527.148919
-16645.803551
-16004.028770
-16121.808403
-16241.088035
-16358.117668
-16476.272301
-16594.426933
-16712.956566
-16831.736199
-16950.265831
SCALARS stress_3 float
LOOKUP_TABLE default
645.625941
22602.784163
22287.431404
21969.703645
21649.850886
21329.435627
21004.145368
20682.292609
20355.877350
20029.649591
19701.296832
19371.381573
19040.528814
18710.613555
18376.635796
18044.408037
17709.992778
17375.265019
17039.912260
16705.122001
16367.519242
16032.853983
15695.001224
15358.585965
15022.608206
14687.005447
14350.652688
14018.049929
13681.947170
13348.781911
13019.054152
12684.326393
12354.286134
12025.370874
11698.705615
11371.415356
11048.687597
10725.584838
10406.419579
10089.066820
9773.276561
9460.361302
9150.383543
8843.155784
8538.428025
8239.762766
7940.972507
7646.557248
7356.266989
7069.539230
6786.998971
6509.521212
6235.168453
5964.378194
5698.087935
5437.672676
5183.569917
4930.529658
4684.864399
4445.011640
4209.533881
3979.118622
3756.265863
3535.663104
3323.372845
3115.707586
2916.104827
2720.127068
2530.774309
2348.046549
2172.006290
2001.528531
1836.675772
1678.948013
1527.845254
1382.242495
1244.077236
1110.286977
984.871718
867.643959
754.166200
21489.774771
-341.070951
-242.780692
-138.302933
-26.387674
90.902585
215.880344
345.858103
482.335862
626.876121
777.916380
934.831639
1097.434398
1267.662157
1445.139916
1626.367675
1816.345434
2012.135693
2212.988452
2419.653711
2634.568970
2852.921729
3079.211988
3309.689747
3545.730006
3788.207765
4034.185524
4287.538284
4543.578543
4807.993802
5073.159061
5344.261820
5621.239579
5901.592338
6184.632597
6473.047856
6766.213115
7061.378374
7361.293633
7663.896392
7968.249151
8279.351910
8590.454669
8905.807428
9223.410187
9542.887946
9864.053205
10190.093464
10514.758723
10842.736482
11171.339241
11504.379500
11834.732259
12169.647518
12503.437777
12838.540536
13175.143295
13512.121054
13848.661313
14186.201572
14525.616831
14863.657090
15202.759849
15540.675109
15877.277868
16214.130627
16551.920886
16888.648645
17223.813904
17559.666663
17893.644422
18226.622181
18559.224940
18890.515199
19221.242958
19548.345717
19877.323476
20202.426235
20526.903994
20849.631753
21171.234512
21601.313210
21712.539150
21824.015089
21935.928528
22046.966967
22157.817906
22268.793846
22379.582285
22493.245724
545.837502
446.049063
345.823123
248.034684
148.933745
49.332806
-47.330634
-146.306573
-242.470012
-144.179753
-45.578814
53.334626
152.435565
252.161504
351.199943
451.925882
551.651822
653.127761
-39.014494
60.523945
160.124885
259.913324
359.764263
461.240202
560.966141
663.629581
765.480520
71.713265
172.376704
273.977644
373.141083
474.929522
577.405461
678.318901
780.669840
883.020779
191.128524
292.979463
392.455403
494.181342
597.344781
699.070720
802.359160
904.585099
1007.936038
315.981283
419.519722
521.245662
623.284101
725.822540
829.735979
933.024419
1036.625358
1138.601297
448.146542
549.809981
653.473421
756.949360
860.425299
964.026238
1068.627178
1172.915617
1277.641556
585.124301
689.600240
793.638680
897.864619
1001.903058
1106.003997
1211.229937
1316.455876
1422.369315
730.664560
835.327999
940.366439
1044.779878
1149.568317
1254.794256
1361.395196
1466.683635
1573.722074
881.579819
987.368258
1090.094198
1197.507637
1303.483576
1408.772015
1515.185455
1622.223894
1729.449833
1039.995078
1144.908518
1250.009457
1357.797896
1464.086335
1571.812274
1676.600714
1786.451653
1893.552592
1204.222837
1310.511277
1416.862216
1525.275655
1631.001594
1738.977534
1845.515973
1955.179412
2062.467851
1373.263096
1482.489036
1589.589975
1696.690914
1804.354353
1912.267793
2022.431232
2129.657171
2239.195610
1551.990855
1659.591795
1768.817734
1875.168673
1984.832112
2092.933052
2202.846491
2311.634930
2421.673369
1734.343614
1843.757054
1952.232993
2060.833932
2169.559871
2279.348311
2387.386750
2499.362689
2609.838628
1925.071373
2033.047313
2142.710752
2252.936691
2362.412630
2472.888570
2582.614509
2692.027948
2804.191387
2121.674132
2231.087572
2340.751011
2450.726950
2561.077889
2671.053829
2782.342268
2893.068207
3005.794146
2322.339391
2432.690331
2542.041270
2654.454709
2764.680648
2876.219088
2988.070027
3098.858466
3212.021905
2529.817151
2640.793090
2753.519029
2863.432468
2975.783407
3088.384347
3199.047786
3310.461225
3424.374664
2743.857410
2856.895849
2969.059288
3079.910227
3191.886166
3304.362106
3414.775545
3528.001484
3642.602423
2964.397669
3077.311108
3188.849547
3301.825486
3412.426426
3525.652365
3640.753304
3753.729243
3866.205182
3190.437928
3302.351367
3415.077306
3528.615745
3641.154185
3753.567624
3867.793563
3981.269502
4095.057941
3422.040687
3533.766626
3647.117565
3760.531004
3874.381944
3987.795383
4101.833822
4216.059761
4329.160701
3659.268446
3771.306885
3884.845324
3999.508763
4113.359703
4226.835642
4341.061581
4456.600020
4571.575960
3902.183705
4014.034644
4127.760583
4242.111522
4356.712462
4470.438401
4585.976840
4701.890279
4815.741219
4147.598964
4261.387403
4376.050842
4490.839281
4606.002721
4719.603660
4835.954599
4950.993038
5067.656478
4401.201723
4514.490162
4629.153601
4744.942040
4859.042980
4974.706419
5092.119858
5206.533297
5321.446737
4659.366982
4772.842921
4887.881360
5003.732299
5120.020739
5234.371678
5350.535117
5466.386056
5581.861996
4922.407241
5036.383180
5151.671619
5266.772559
5382.873498
5498.411937
5615.512876
5730.738815
5847.214755
5188.447500
5303.548439
5418.274378
5532.687818
5649.663757
5766.077196
5882.615635
5999.654074
6117.005014
5459.362759
5576.776198
5691.439637
5808.228077
5923.954016
6040.992455
6157.030894
6274.131834
6391.982773
5736.153018
5851.628957
5969.104896
6084.518336
6201.119275
6317.032714
6436.196153
6551.547093
6669.960532
6015.943277
6133.919216
6248.707655
6366.496095
6483.534534
6600.385473
6717.548912
6835.024852
6952.063291
6302.046036
6417.334475
6534.872914
6650.973854
6768.762293
6886.363232
7003.089171
7121.252611
7237.978550
6591.523795
6707.749734
6825.475673
6943.076613
7058.177552
7175.715991
7294.129430
7411.730370
7528.331309
6883.939054
6999.539993
7117.515932
7233.866872
7351.780311
7469.131250
7585.544689
7705.520629
7822.996568
7179.041813
7297.142752
7413.118691
7529.907131
7647.008070
7765.546509
7884.522448
8001.935888
8120.099327
7478.894572
7594.745511
7714.533951
7830.134890
7947.860829
8067.024268
8183.375207
8303.788647
8421.577086
7782.622331
7897.723270
8015.886710
8134.925149
8252.901088
8369.752027
8488.290467
8606.328906
8724.617345
8086.975090
8204.701029
8321.426969
8440.965408
8559.503847
8676.167286
8794.455726
8913.119165
9031.907604
8396.640349
8514.741288
8631.717228
8750.068167
8867.481606
8985.895045
9104.933485
9223.096924
9342.635363
8708.243108
8827.156547
8944.132487
9063.045926
9180.896865
9298.622804
9417.411244
9534.512183
9653.238122
9024.158367
9141.384306
9258.110246
9376.961185
9495.312124
9613.725563
9732.201503
9851.614942
9970.903381
9341.448626
9458.799565
9577.713005
9695.501444
9812.227383
9931.703322
10049.554262
10168.717701
10287.256140
9660.551385
9778.964824
9896.315764
10015.354203
10133.642642
10250.868581
10370.532021
10489.007960
10607.921399
9981.404144
10099.317584
10218.356023
10336.769462
10454.807901
10573.346340
10691.197280
10811.423219
10930.524158
10306.381903
10423.857843
10542.083782
10661.372221
10779.160660
10897.824099
11016.800039
11134.525978
11255.376917
10632.047162
10750.898102
10868.936541
10986.787480
11105.763419
11223.364359
11343.840298
11461.441237
11579.042176
10961.524921
11078.813361
11197.476800
11314.077739
11433.366178
11551.154618
11670.318057
11788.731496
11907.707435
11289.440180
11406.728620
11525.267059
11643.430498
11761.781437
11879.757377
11998.858316
12117.334255
12236.560194
11620.730439
11738.706379
11856.119818
11974.720757
12093.259196
12210.047636
12330.211075
12448.624514
12565.850453
11954.020698
12071.371638
12189.285077
12304.823516
12425.174455
12542.462895
12661.938834
12778.039773
12898.015712
12287.560957
12404.599397
12521.387836
12638.301275
12757.589714
12876.003154
12993.916593
13112.830032
13229.993471
12621.038717
12739.327156
12855.615595
12973.154034
13091.192473
13208.793413
13327.644352
13445.932791
13564.658730
12957.266476
13073.992415
13192.030854
13309.256793
13427.420232
13544.896172
13662.747111
13781.910550
13899.136489
13292.119235
13410.407674
13528.008613
13645.547052
13761.585492
13882.311431
13998.662370
14116.825809
14232.489248
13630.221994
13745.010433
13864.236372
13982.274811
14099.500751
14216.476690
14334.390129
14452.053568
14570.092007
13966.387253
14082.550692
14200.464131
14318.502570
14434.478510
14551.954449
14669.742888
14786.656327
14906.069767
14302.990012
14420.465951
14538.254390
14655.917829
14771.831269
14890.119708
15008.845647
15125.009086
15241.860026
14643.530271
14758.318710
14876.169649
14991.583088
15109.496528
15226.784967
15345.385906
15461.111845
15579.087785
14980.570530
15096.671469
15212.397408
15330.060847
15447.161787
15563.825226
15681.676165
15797.339604
15914.940544
15319.298289
15435.461728
15551.812667
15666.476106
15784.952046
15899.865485
16018.903924
16134.692363
16251.105803
15655.401048
15772.376987
15888.665426
16003.953865
16121.304805
16237.530744
16355.131683
16471.107622
16588.083562
15993.816307
16109.917246
16225.705685
16342.244124
16458.220064
16574.508503
16690.484442
16806.647881
16922.873821
16330.981566
16446.707505
16562.183444
16677.471884
16792.697823
16912.298762
17026.149701
17142.063140
17259.414080
16667.709325
16782.935264
16899.473703
17013.887143
17131.363082
17245.714021
17362.564960
17477.478400
17594.016839
17004.687084
17119.850523
17233.513962
17351.364902
17465.653341
17581.066780
17697.855219
17811.893659
17928.307098
17339.789843
17455.015782
17570.241721
17685.092661
17800.631100
17916.232039
18031.770478
18145.183918
18262.409857
17673.830102
17790.431041
17904.531980
18020.757920
18133.796359
18249.084798
18364.623237
18479.849177
18594.262616
18007.682861
18123.283800
18237.447239
18353.423179
18467.274118
18583.687557
18696.663496
18811.889436
18926.115375
18341.910620
18455.949059
18570.237498
18684.275938
18799.314377
18913.352816
19028.203755
19141.679695
19256.655634
18674.950879
18787.176818
18901.215257
19016.128697
19130.542136
19245.205575
19358.619014
19473.657454
19585.445893
19002.866138
19118.467077
19231.880517
19346.168956
19460.457395
19574.620834
19687.284273
19803.197713
19915.798652
19334.718897
19448.319836
19561.670776
19674.334215
19786.747654
19903.223593
20017.387032
20129.862972
20243.713911
19662.134156
19775.735095
19889.586035
20002.686974
20115.912913
20230.013852
20341.927292
20454.965731
20569.129170
19988.799415
20103.025354
20215.251294
20328.914733
20441.015672
20553.116611
20668.092551
20780.880990
20892.856929
20315.277174
20428.440613
20540.479053
20654.704992
20764.743431
20878.594370
20990.132810
21102.046249
21216.334688
20638.254933
20751.293372
20863.644312
20976.057751
21089.533690
21199.822129
21312.110569
21425.899008
21538.062447
20961.920192
21074.271131
21185.122071
21296.535510
21409.198949
21522.487388
21632.525828
21746.376767
21857.040206
21281.710451
21393.623890
21504.599830
21617.138269
21728.989208
21841.277647
21953.566087
22065.229526
22174.705465
