# vtk DataFile Version 2.0
Generated volume Mesh
ASCII
DATASET UNSTRUCTURED_GRID
POINTS 891 float
0.005000 0.100000 0.000000
0.005000 0.000000 0.000000
0.005000 0.001250 0.000000
0.005000 0.002500 0.000000
0.005000 0.003750 0.000000
0.005000 0.005000 0.000000
0.005000 0.006250 0.000000
0.005000 0.007500 0.000000
0.005000 0.008750 0.000000
0.005000 0.010000 0.000000
0.005000 0.011250 0.000000
0.005000 0.012500 0.000000
0.005000 0.013750 0.000000
0.005000 0.015000 0.000000
0.005000 0.016250 0.000000
0.005000 0.017500 0.000000
0.005000 0.018750 0.000000
0.005000 0.020000 0.000000
0.005000 0.021250 0.000000
0.005000 0.022500 0.000000
0.005000 0.023750 0.000000
0.005000 0.025000 0.000000
0.005000 0.026250 0.000000
0.005000 0.027500 0.000000
0.005000 0.028750 0.000000
0.005000 0.030000 0.000000
0.005000 0.031250 0.000000
0.005000 0.032500 0.000000
0.005000 0.033750 0.000000
0.005000 0.035000 0.000000
0.005000 0.036250 0.000000
0.005000 0.037500 0.000000
0.005000 0.038750 0.000000
0.005000 0.040000 0.000000
0.005000 0.041250 0.000000
0.005000 0.042500 0.000000
0.005000 0.043750 0.000000
0.005000 0.045000 0.000000
0.005000 0.046250 0.000000
0.005000 0.047500 0.000000
0.005000 0.048750 0.000000
0.005000 0.050000 0.000000
0.005000 0.051250 0.000000
0.005000 0.052500 0.000000
0.005000 0.053750 0.000000
0.005000 0.055000 0.000000
0.005000 0.056250 0.000000
0.005000 0.057500 0.000000
0.005000 0.058750 0.000000
0.005000 0.060000 0.000000
0.005000 0.061250 0.000000
0.005000 0.062500 0.000000
0.005000 0.063750 0.000000
0.005000 0.065000 0.000000
0.005000 0.066250 0.000000
0.005000 0.067500 0.000000
0.005000 0.068750 0.000000
0.005000 0.070000 0.000000
0.005000 0.071250 0.000000
0.005000 0.072500 0.000000
0.005000 0.073750 0.000000
0.005000 0.075000 0.000000
0.005000 0.076250 0.000000
0.005000 0.077500 0.000000
0.005000 0.078750 0.000000
0.005000 0.080000 0.000000
0.005000 0.081250 0.000000
0.005000 0.082500 0.000000
0.005000 0.083750 0.000000
0.005000 0.085000 0.000000
0.005000 0.086250 0.000000
0.005000 0.087500 0.000000
0.005000 0.088750 0.000000
0.005000 0.090000 0.000000
0.005000 0.091250 0.000000
0.005000 0.092500 0.000000
0.005000 0.093750 0.000000
0.005000 0.095000 0.000000
0.005000 0.096250 0.000000
0.005000 0.097500 0.000000
0.005000 0.098750 0.000000
0.000000 0.000000 0.000000
0.000000 0.100000 0.000000
0.000000 0.098750 0.000000
0.000000 0.097500 0.000000
0.000000 0.096250 0.000000
0.000000 0.095000 0.000000
0.000000 0.093750 0.000000
0.000000 0.092500 0.000000
0.000000 0.091250 0.000000
0.000000 0.090000 0.000000
0.000000 0.088750 0.000000
0.000000 0.087500 0.000000
0.000000 0.086250 0.000000
0.000000 0.085000 0.000000
0.000000 0.083750 0.000000
0.000000 0.082500 0.000000
0.000000 0.081250 0.000000
0.000000 0.080000 0.000000
0.000000 0.078750 0.000000
0.000000 0.077500 0.000000
0.000000 0.076250 0.000000
0.000000 0.075000 0.000000
0.000000 0.073750 0.000000
0.000000 0.072500 0.000000
0.000000 0.071250 0.000000
0.000000 0.070000 0.000000
0.000000 0.068750 0.000000
0.000000 0.067500 0.000000
0.000000 0.066250 0.000000
0.000000 0.065000 0.000000
0.000000 0.063750 0.000000
0.000000 0.062500 0.000000
0.000000 0.061250 0.000000
0.000000 0.060000 0.000000
0.000000 0.058750 0.000000
0.000000 0.057500 0.000000
0.000000 0.056250 0.000000
0.000000 0.055000 0.000000
0.000000 0.053750 0.000000
0.000000 0.052500 0.000000
0.000000 0.051250 0.000000
0.000000 0.050000 0.000000
0.000000 0.048750 0.000000
0.000000 0.047500 0.000000
0.000000 0.046250 0.000000
0.000000 0.045000 0.000000
0.000000 0.043750 0.000000
0.000000 0.042500 0.000000
0.000000 0.041250 0.000000
0.000000 0.040000 0.000000
0.000000 0.038750 0.000000
0.000000 0.037500 0.000000
0.000000 0.036250 0.000000
0.000000 0.035000 0.000000
0.000000 0.033750 0.000000
0.000000 0.032500 0.000000
0.000000 0.031250 0.000000
0.000000 0.030000 0.000000
0.000000 0.028750 0.000000
0.000000 0.027500 0.000000
0.000000 0.026250 0.000000
0.000000 0.025000 0.000000
0.000000 0.023750 0.000000
0.000000 0.022500 0.000000
0.000000 0.021250 0.000000
0.000000 0.020000 0.000000
0.000000 0.018750 0.000000
0.000000 0.017500 0.000000
0.000000 0.016250 0.000000
0.000000 0.015000 0.000000
0.000000 0.013750 0.000000
0.000000 0.012500 0.000000
0.000000 0.011250 0.000000
0.000000 0.010000 0.000000
0.000000 0.008750 0.000000
0.000000 0.007500 0.000000
0.000000 0.006250 0.000000
0.000000 0.005000 0.000000
0.000000 0.003750 0.000000
0.000000 0.002500 0.000000
0.000000 0.001250 0.000000
0.000500 0.000000 0.000000
0.001000 0.000000 0.000000
0.001500 0.000000 0.000000
0.002000 0.000000 0.000000
0.002500 0.000000 0.000000
0.003000 0.000000 0.000000
0.003500 0.000000 0.000000
0.004000 0.000000 0.000000
0.004500 0.000000 0.000000
0.004500 0.100000 0.000000
0.004000 0.100000 0.000000
0.003500 0.100000 0.000000
0.003000 0.100000 0.000000
0.002500 0.100000 0.000000
0.002000 0.100000 0.000000
0.001500 0.100000 0.000000
0.001000 0.100000 0.000000
0.000500 0.100000 0.000000
0.000500 0.098750 0.000000
0.001000 0.098750 0.000000
0.001500 0.098750 0.000000
0.002000 0.098750 0.000000
0.002500 0.098750 0.000000
0.003000 0.098750 0.000000
0.003500 0.098750 0.000000
0.004000 0.098750 0.000000
0.004500 0.098750 0.000000
0.000500 0.097500 0.000000
0.001000 0.097500 0.000000
0.001500 0.097500 0.000000
0.002000 0.097500 0.000000
0.002500 0.097500 0.000000
0.003000 0.097500 0.000000
0.003500 0.097500 0.000000
0.004000 0.097500 0.000000
0.004500 0.097500 0.000000
0.000500 0.096250 0.000000
0.001000 0.096250 0.000000
0.001500 0.096250 0.000000
0.002000 0.096250 0.000000
0.002500 0.096250 0.000000
0.003000 0.096250 0.000000
0.003500 0.096250 0.000000
0.004000 0.096250 0.000000
0.004500 0.096250 0.000000
0.000500 0.095000 0.000000
0.001000 0.095000 0.000000
0.001500 0.095000 0.000000
0.002000 0.095000 0.000000
0.002500 0.095000 0.000000
0.003000 0.095000 0.000000
0.003500 0.095000 0.000000
0.004000 0.095000 0.000000
0.004500 0.095000 0.000000
0.000500 0.093750 0.000000
0.001000 0.093750 0.000000
0.001500 0.093750 0.000000
0.002000 0.093750 0.000000
0.002500 0.093750 0.000000
0.003000 0.093750 0.000000
0.003500 0.093750 0.000000
0.004000 0.093750 0.000000
0.004500 0.093750 0.000000
0.000500 0.092500 0.000000
0.001000 0.092500 0.000000
0.001500 0.092500 0.000000
0.002000 0.092500 0.000000
0.002500 0.092500 0.000000
0.003000 0.092500 0.000000
0.003500 0.092500 0.000000
0.004000 0.092500 0.000000
0.004500 0.092500 0.000000
0.000500 0.091250 0.000000
0.001000 0.091250 0.000000
0.001500 0.091250 0.000000
0.002000 0.091250 0.000000
0.002500 0.091250 0.000000
0.003000 0.091250 0.000000
0.003500 0.091250 0.000000
0.004000 0.091250 0.000000
0.004500 0.091250 0.000000
0.000500 0.090000 0.000000
0.001000 0.090000 0.000000
0.001500 0.090000 0.000000
0.002000 0.090000 0.000000
0.002500 0.090000 0.000000
0.003000 0.090000 0.000000
0.003500 0.090000 0.000000
0.004000 0.090000 0.000000
0.004500 0.090000 0.000000
0.000500 0.088750 0.000000
0.001000 0.088750 0.000000
0.001500 0.088750 0.000000
0.002000 0.088750 0.000000
0.002500 0.088750 0.000000
0.003000 0.088750 0.000000
0.003500 0.088750 0.000000
0.004000 0.088750 0.000000
0.004500 0.088750 0.000000
0.000500 0.087500 0.000000
0.001000 0.087500 0.000000
0.001500 0.087500 0.000000
0.002000 0.087500 0.000000
0.002500 0.087500 0.000000
0.003000 0.087500 0.000000
0.003500 0.087500 0.000000
0.004000 0.087500 0.000000
0.004500 0.087500 0.000000
0.000500 0.086250 0.000000
0.001000 0.086250 0.000000
0.001500 0.086250 0.000000
0.002000 0.086250 0.000000
0.002500 0.086250 0.000000
0.003000 0.086250 0.000000
0.003500 0.086250 0.000000
0.004000 0.086250 0.000000
0.004500 0.086250 0.000000
0.000500 0.085000 0.000000
0.001000 0.085000 0.000000
0.001500 0.085000 0.000000
0.002000 0.085000 0.000000
0.002500 0.085000 0.000000
0.003000 0.085000 0.000000
0.003500 0.085000 0.000000
0.004000 0.085000 0.000000
0.004500 0.085000 0.000000
0.000500 0.083750 0.000000
0.001000 0.083750 0.000000
0.001500 0.083750 0.000000
0.002000 0.083750 0.000000
0.002500 0.083750 0.000000
0.003000 0.083750 0.000000
0.003500 0.083750 0.000000
0.004000 0.083750 0.000000
0.004500 0.083750 0.000000
0.000500 0.082500 0.000000
0.001000 0.082500 0.000000
0.001500 0.082500 0.000000
0.002000 0.082500 0.000000
0.002500 0.082500 0.000000
0.003000 0.082500 0.000000
0.003500 0.082500 0.000000
0.004000 0.082500 0.000000
0.004500 0.082500 0.000000
0.000500 0.081250 0.000000
0.001000 0.081250 0.000000
0.001500 0.081250 0.000000
0.002000 0.081250 0.000000
0.002500 0.081250 0.000000
0.003000 0.081250 0.000000
0.003500 0.081250 0.000000
0.004000 0.081250 0.000000
0.004500 0.081250 0.000000
0.000500 0.080000 0.000000
0.001000 0.080000 0.000000
0.001500 0.080000 0.000000
0.002000 0.080000 0.000000
0.002500 0.080000 0.000000
0.003000 0.080000 0.000000
0.003500 0.080000 0.000000
0.004000 0.080000 0.000000
0.004500 0.080000 0.000000
0.000500 0.078750 0.000000
0.001000 0.078750 0.000000
0.001500 0.078750 0.000000
0.002000 0.078750 0.000000
0.002500 0.078750 0.000000
0.003000 0.078750 0.000000
0.003500 0.078750 0.000000
0.004000 0.078750 0.000000
0.004500 0.078750 0.000000
0.000500 0.077500 0.000000
0.001000 0.077500 0.000000
0.001500 0.077500 0.000000
0.002000 0.077500 0.000000
0.002500 0.077500 0.000000
0.003000 0.077500 0.000000
0.003500 0.077500 0.000000
0.004000 0.077500 0.000000
0.004500 0.077500 0.000000
0.000500 0.076250 0.000000
0.001000 0.076250 0.000000
0.001500 0.076250 0.000000
0.002000 0.076250 0.000000
0.002500 0.076250 0.000000
0.003000 0.076250 0.000000
0.003500 0.076250 0.000000
0.004000 0.076250 0.000000
0.004500 0.076250 0.000000
0.000500 0.075000 0.000000
0.001000 0.075000 0.000000
0.001500 0.075000 0.000000
0.002000 0.075000 0.000000
0.002500 0.075000 0.000000
0.003000 0.075000 0.000000
0.003500 0.075000 0.000000
0.004000 0.075000 0.000000
0.004500 0.075000 0.000000
0.000500 0.073750 0.000000
0.001000 0.073750 0.000000
0.001500 0.073750 0.000000
0.002000 0.073750 0.000000
0.002500 0.073750 0.000000
0.003000 0.073750 0.000000
0.003500 0.073750 0.000000
0.004000 0.073750 0.000000
0.004500 0.073750 0.000000
0.000500 0.072500 0.000000
0.001000 0.072500 0.000000
0.001500 0.072500 0.000000
0.002000 0.072500 0.000000
0.002500 0.072500 0.000000
0.003000 0.072500 0.000000
0.003500 0.072500 0.000000
0.004000 0.072500 0.000000
0.004500 0.072500 0.000000
0.000500 0.071250 0.000000
0.001000 0.071250 0.000000
0.001500 0.071250 0.000000
0.002000 0.071250 0.000000
0.002500 0.071250 0.000000
0.003000 0.071250 0.000000
0.003500 0.071250 0.000000
0.004000 0.071250 0.000000
0.004500 0.071250 0.000000
0.000500 0.070000 0.000000
0.001000 0.070000 0.000000
0.001500 0.070000 0.000000
0.002000 0.070000 0.000000
0.002500 0.070000 0.000000
0.003000 0.070000 0.000000
0.003500 0.070000 0.000000
0.004000 0.070000 0.000000
0.004500 0.070000 0.000000
0.000500 0.068750 0.000000
0.001000 0.068750 0.000000
0.001500 0.068750 0.000000
0.002000 0.068750 0.000000
0.002500 0.068750 0.000000
0.003000 0.068750 0.000000
0.003500 0.068750 0.000000
0.004000 0.068750 0.000000
0.004500 0.068750 0.000000
0.000500 0.067500 0.000000
0.001000 0.067500 0.000000
0.001500 0.067500 0.000000
0.002000 0.067500 0.000000
0.002500 0.067500 0.000000
0.003000 0.067500 0.000000
0.003500 0.067500 0.000000
0.004000 0.067500 0.000000
0.004500 0.067500 0.000000
0.000500 0.066250 0.000000
0.001000 0.066250 0.000000
0.001500 0.066250 0.000000
0.002000 0.066250 0.000000
0.002500 0.066250 0.000000
0.003000 0.066250 0.000000
0.003500 0.066250 0.000000
0.004000 0.066250 0.000000
0.004500 0.066250 0.000000
0.000500 0.065000 0.000000
0.001000 0.065000 0.000000
0.001500 0.065000 0.000000
0.002000 0.065000 0.000000
0.002500 0.065000 0.000000
0.003000 0.065000 0.000000
0.003500 0.065000 0.000000
0.004000 0.065000 0.000000
0.004500 0.065000 0.000000
0.000500 0.063750 0.000000
0.001000 0.063750 0.000000
0.001500 0.063750 0.000000
0.002000 0.063750 0.000000
0.002500 0.063750 0.000000
0.003000 0.063750 0.000000
0.003500 0.063750 0.000000
0.004000 0.063750 0.000000
0.004500 0.063750 0.000000
0.000500 0.062500 0.000000
0.001000 0.062500 0.000000
0.001500 0.062500 0.000000
0.002000 0.062500 0.000000
0.002500 0.062500 0.000000
0.003000 0.062500 0.000000
0.003500 0.062500 0.000000
0.004000 0.062500 0.000000
0.004500 0.062500 0.000000
0.000500 0.061250 0.000000
0.001000 0.061250 0.000000
0.001500 0.061250 0.000000
0.002000 0.061250 0.000000
0.002500 0.061250 0.000000
0.003000 0.061250 0.000000
0.003500 0.061250 0.000000
0.004000 0.061250 0.000000
0.004500 0.061250 0.000000
0.000500 0.060000 0.000000
0.001000 0.060000 0.000000
0.001500 0.060000 0.000000
0.002000 0.060000 0.000000
0.002500 0.060000 0.000000
0.003000 0.060000 0.000000
0.003500 0.060000 0.000000
0.004000 0.060000 0.000000
0.004500 0.060000 0.000000
0.000500 0.058750 0.000000
0.001000 0.058750 0.000000
0.001500 0.058750 0.000000
0.002000 0.058750 0.000000
0.002500 0.058750 0.000000
0.003000 0.058750 0.000000
0.003500 0.058750 0.000000
0.004000 0.058750 0.000000
0.004500 0.058750 0.000000
0.000500 0.057500 0.000000
0.001000 0.057500 0.000000
0.001500 0.057500 0.000000
0.002000 0.057500 0.000000
0.002500 0.057500 0.000000
0.003000 0.057500 0.000000
0.003500 0.057500 0.000000
0.004000 0.057500 0.000000
0.004500 0.057500 0.000000
0.000500 0.056250 0.000000
0.001000 0.056250 0.000000
0.001500 0.056250 0.000000
0.002000 0.056250 0.000000
0.002500 0.056250 0.000000
0.003000 0.056250 0.000000
0.003500 0.056250 0.000000
0.004000 0.056250 0.000000
0.004500 0.056250 0.000000
0.000500 0.055000 0.000000
0.001000 0.055000 0.000000
0.001500 0.055000 0.000000
0.002000 0.055000 0.000000
0.002500 0.055000 0.000000
0.003000 0.055000 0.000000
0.003500 0.055000 0.000000
0.004000 0.055000 0.000000
0.004500 0.055000 0.000000
0.000500 0.053750 0.000000
0.001000 0.053750 0.000000
0.001500 0.053750 0.000000
0.002000 0.053750 0.000000
0.002500 0.053750 0.000000
0.003000 0.053750 0.000000
0.003500 0.053750 0.000000
0.004000 0.053750 0.000000
0.004500 0.053750 0.000000
0.000500 0.052500 0.000000
0.001000 0.052500 0.000000
0.001500 0.052500 0.000000
0.002000 0.052500 0.000000
0.002500 0.052500 0.000000
0.003000 0.052500 0.000000
0.003500 0.052500 0.000000
0.004000 0.052500 0.000000
0.004500 0.052500 0.000000
0.000500 0.051250 0.000000
0.001000 0.051250 0.000000
0.001500 0.051250 0.000000
0.002000 0.051250 0.000000
0.002500 0.051250 0.000000
0.003000 0.051250 0.000000
0.003500 0.051250 0.000000
0.004000 0.051250 0.000000
0.004500 0.051250 0.000000
0.000500 0.050000 0.000000
0.001000 0.050000 0.000000
0.001500 0.050000 0.000000
0.002000 0.050000 0.000000
0.002500 0.050000 0.000000
0.003000 0.050000 0.000000
0.003500 0.050000 0.000000
0.004000 0.050000 0.000000
0.004500 0.050000 0.000000
0.000500 0.048750 0.000000
0.001000 0.048750 0.000000
0.001500 0.048750 0.000000
0.002000 0.048750 0.000000
0.002500 0.048750 0.000000
0.003000 0.048750 0.000000
0.003500 0.048750 0.000000
0.004000 0.048750 0.000000
0.004500 0.048750 0.000000
0.000500 0.047500 0.000000
0.001000 0.047500 0.000000
0.001500 0.047500 0.000000
0.002000 0.047500 0.000000
0.002500 0.047500 0.000000
0.003000 0.047500 0.000000
0.003500 0.047500 0.000000
0.004000 0.047500 0.000000
0.004500 0.047500 0.000000
0.000500 0.046250 0.000000
0.001000 0.046250 0.000000
0.001500 0.046250 0.000000
0.002000 0.046250 0.000000
0.002500 0.046250 0.000000
0.003000 0.046250 0.000000
0.003500 0.046250 0.000000
0.004000 0.046250 0.000000
0.004500 0.046250 0.000000
0.000500 0.045000 0.000000
0.001000 0.045000 0.000000
0.001500 0.045000 0.000000
0.002000 0.045000 0.000000
0.002500 0.045000 0.000000
0.003000 0.045000 0.000000
0.003500 0.045000 0.000000
0.004000 0.045000 0.000000
0.004500 0.045000 0.000000
0.000500 0.043750 0.000000
0.001000 0.043750 0.000000
0.001500 0.043750 0.000000
0.002000 0.043750 0.000000
0.002500 0.043750 0.000000
0.003000 0.043750 0.000000
0.003500 0.043750 0.000000
0.004000 0.043750 0.000000
0.004500 0.043750 0.000000
0.000500 0.042500 0.000000
0.001000 0.042500 0.000000
0.001500 0.042500 0.000000
0.002000 0.042500 0.000000
0.002500 0.042500 0.000000
0.003000 0.042500 0.000000
0.003500 0.042500 0.000000
0.004000 0.042500 0.000000
0.004500 0.042500 0.000000
0.000500 0.041250 0.000000
0.001000 0.041250 0.000000
0.001500 0.041250 0.000000
0.002000 0.041250 0.000000
0.002500 0.041250 0.000000
0.003000 0.041250 0.000000
0.003500 0.041250 0.000000
0.004000 0.041250 0.000000
0.004500 0.041250 0.000000
0.000500 0.040000 0.000000
0.001000 0.040000 0.000000
0.001500 0.040000 0.000000
0.002000 0.040000 0.000000
0.002500 0.040000 0.000000
0.003000 0.040000 0.000000
0.003500 0.040000 0.000000
0.004000 0.040000 0.000000
0.004500 0.040000 0.000000
0.000500 0.038750 0.000000
0.001000 0.038750 0.000000
0.001500 0.038750 0.000000
0.002000 0.038750 0.000000
0.002500 0.038750 0.000000
0.003000 0.038750 0.000000
0.003500 0.038750 0.000000
0.004000 0.038750 0.000000
0.004500 0.038750 0.000000
0.000500 0.037500 0.000000
0.001000 0.037500 0.000000
0.001500 0.037500 0.000000
0.002000 0.037500 0.000000
0.002500 0.037500 0.000000
0.003000 0.037500 0.000000
0.003500 0.037500 0.000000
0.004000 0.037500 0.000000
0.004500 0.037500 0.000000
0.000500 0.036250 0.000000
0.001000 0.036250 0.000000
0.001500 0.036250 0.000000
0.002000 0.036250 0.000000
0.002500 0.036250 0.000000
0.003000 0.036250 0.000000
0.003500 0.036250 0.000000
0.004000 0.036250 0.000000
0.004500 0.036250 0.000000
0.000500 0.035000 0.000000
0.001000 0.035000 0.000000
0.001500 0.035000 0.000000
0.002000 0.035000 0.000000
0.002500 0.035000 0.000000
0.003000 0.035000 0.000000
0.003500 0.035000 0.000000
0.004000 0.035000 0.000000
0.004500 0.035000 0.000000
0.000500 0.033750 0.000000
0.001000 0.033750 0.000000
0.001500 0.033750 0.000000
0.002000 0.033750 0.000000
0.002500 0.033750 0.000000
0.003000 0.033750 0.000000
0.003500 0.033750 0.000000
0.004000 0.033750 0.000000
0.004500 0.033750 0.000000
0.000500 0.032500 0.000000
0.001000 0.032500 0.000000
0.001500 0.032500 0.000000
0.002000 0.032500 0.000000
0.002500 0.032500 0.000000
0.003000 0.032500 0.000000
0.003500 0.032500 0.000000
0.004000 0.032500 0.000000
0.004500 0.032500 0.000000
0.000500 0.031250 0.000000
0.001000 0.031250 0.000000
0.001500 0.031250 0.000000
0.002000 0.031250 0.000000
0.002500 0.031250 0.000000
0.003000 0.031250 0.000000
0.003500 0.031250 0.000000
0.004000 0.031250 0.000000
0.004500 0.031250 0.000000
0.000500 0.030000 0.000000
0.001000 0.030000 0.000000
0.001500 0.030000 0.000000
0.002000 0.030000 0.000000
0.002500 0.030000 0.000000
0.003000 0.030000 0.000000
0.003500 0.030000 0.000000
0.004000 0.030000 0.000000
0.004500 0.030000 0.000000
0.000500 0.028750 0.000000
0.001000 0.028750 0.000000
0.001500 0.028750 0.000000
0.002000 0.028750 0.000000
0.002500 0.028750 0.000000
0.003000 0.028750 0.000000
0.003500 0.028750 0.000000
0.004000 0.028750 0.000000
0.004500 0.028750 0.000000
0.000500 0.027500 0.000000
0.001000 0.027500 0.000000
0.001500 0.027500 0.000000
0.002000 0.027500 0.000000
0.002500 0.027500 0.000000
0.003000 0.027500 0.000000
0.003500 0.027500 0.000000
0.004000 0.027500 0.000000
0.004500 0.027500 0.000000
0.000500 0.026250 0.000000
0.001000 0.026250 0.000000
0.001500 0.026250 0.000000
0.002000 0.026250 0.000000
0.002500 0.026250 0.000000
0.003000 0.026250 0.000000
0.003500 0.026250 0.000000
0.004000 0.026250 0.000000
0.004500 0.026250 0.000000
0.000500 0.025000 0.000000
0.001000 0.025000 0.000000
0.001500 0.025000 0.000000
0.002000 0.025000 0.000000
0.002500 0.025000 0.000000
0.003000 0.025000 0.000000
0.003500 0.025000 0.000000
0.004000 0.025000 0.000000
0.004500 0.025000 0.000000
0.000500 0.023750 0.000000
0.001000 0.023750 0.000000
0.001500 0.023750 0.000000
0.002000 0.023750 0.000000
0.002500 0.023750 0.000000
0.003000 0.023750 0.000000
0.003500 0.023750 0.000000
0.004000 0.023750 0.000000
0.004500 0.023750 0.000000
0.000500 0.022500 0.000000
0.001000 0.022500 0.000000
0.001500 0.022500 0.000000
0.002000 0.022500 0.000000
0.002500 0.022500 0.000000
0.003000 0.022500 0.000000
0.003500 0.022500 0.000000
0.004000 0.022500 0.000000
0.004500 0.022500 0.000000
0.000500 0.021250 0.000000
0.001000 0.021250 0.000000
0.001500 0.021250 0.000000
0.002000 0.021250 0.000000
0.002500 0.021250 0.000000
0.003000 0.021250 0.000000
0.003500 0.021250 0.000000
0.004000 0.021250 0.000000
0.004500 0.021250 0.000000
0.000500 0.020000 0.000000
0.001000 0.020000 0.000000
0.001500 0.020000 0.000000
0.002000 0.020000 0.000000
0.002500 0.020000 0.000000
0.003000 0.020000 0.000000
0.003500 0.020000 0.000000
0.004000 0.020000 0.000000
0.004500 0.020000 0.000000
0.000500 0.018750 0.000000
0.001000 0.018750 0.000000
0.001500 0.018750 0.000000
0.002000 0.018750 0.000000
0.002500 0.018750 0.000000
0.003000 0.018750 0.000000
0.003500 0.018750 0.000000
0.004000 0.018750 0.000000
0.004500 0.018750 0.000000
0.000500 0.017500 0.000000
0.001000 0.017500 0.000000
0.001500 0.017500 0.000000
0.002000 0.017500 0.000000
0.002500 0.017500 0.000000
0.003000 0.017500 0.000000
0.003500 0.017500 0.000000
0.004000 0.017500 0.000000
0.004500 0.017500 0.000000
0.000500 0.016250 0.000000
0.001000 0.016250 0.000000
0.001500 0.016250 0.000000
0.002000 0.016250 0.000000
0.002500 0.016250 0.000000
0.003000 0.016250 0.000000
0.003500 0.016250 0.000000
0.004000 0.016250 0.000000
0.004500 0.016250 0.000000
0.000500 0.015000 0.000000
0.001000 0.015000 0.000000
0.001500 0.015000 0.000000
0.002000 0.015000 0.000000
0.002500 0.015000 0.000000
0.003000 0.015000 0.000000
0.003500 0.015000 0.000000
0.004000 0.015000 0.000000
0.004500 0.015000 0.000000
0.000500 0.013750 0.000000
0.001000 0.013750 0.000000
0.001500 0.013750 0.000000
0.002000 0.013750 0.000000
0.002500 0.013750 0.000000
0.003000 0.013750 0.000000
0.003500 0.013750 0.000000
0.004000 0.013750 0.000000
0.004500 0.013750 0.000000
0.000500 0.012500 0.000000
0.001000 0.012500 0.000000
0.001500 0.012500 0.000000
0.002000 0.012500 0.000000
0.002500 0.012500 0.000000
0.003000 0.012500 0.000000
0.003500 0.012500 0.000000
0.004000 0.012500 0.000000
0.004500 0.012500 0.000000
0.000500 0.011250 0.000000
0.001000 0.011250 0.000000
0.001500 0.011250 0.000000
0.002000 0.011250 0.000000
0.002500 0.011250 0.000000
0.003000 0.011250 0.000000
0.003500 0.011250 0.000000
0.004000 0.011250 0.000000
0.004500 0.011250 0.000000
0.000500 0.010000 0.000000
0.001000 0.010000 0.000000
0.001500 0.010000 0.000000
0.002000 0.010000 0.000000
0.002500 0.010000 0.000000
0.003000 0.010000 0.000000
0.003500 0.010000 0.000000
0.004000 0.010000 0.000000
0.004500 0.010000 0.000000
0.000500 0.008750 0.000000
0.001000 0.008750 0.000000
0.001500 0.008750 0.000000
0.002000 0.008750 0.000000
0.002500 0.008750 0.000000
0.003000 0.008750 0.000000
0.003500 0.008750 0.000000
0.004000 0.008750 0.000000
0.004500 0.008750 0.000000
0.000500 0.007500 0.000000
0.001000 0.007500 0.000000
0.001500 0.007500 0.000000
0.002000 0.007500 0.000000
0.002500 0.007500 0.000000
0.003000 0.007500 0.000000
0.003500 0.007500 0.000000
0.004000 0.007500 0.000000
0.004500 0.007500 0.000000
0.000500 0.006250 0.000000
0.001000 0.006250 0.000000
0.001500 0.006250 0.000000
0.002000 0.006250 0.000000
0.002500 0.006250 0.000000
0.003000 0.006250 0.000000
0.003500 0.006250 0.000000
0.004000 0.006250 0.000000
0.004500 0.006250 0.000000
0.000500 0.005000 0.000000
0.001000 0.005000 0.000000
0.001500 0.005000 0.000000
0.002000 0.005000 0.000000
0.002500 0.005000 0.000000
0.003000 0.005000 0.000000
0.003500 0.005000 0.000000
0.004000 0.005000 0.000000
0.004500 0.005000 0.000000
0.000500 0.003750 0.000000
0.001000 0.003750 0.000000
0.001500 0.003750 0.000000
0.002000 0.003750 0.000000
0.002500 0.003750 0.000000
0.003000 0.003750 0.000000
0.003500 0.003750 0.000000
0.004000 0.003750 0.000000
0.004500 0.003750 0.000000
0.000500 0.002500 0.000000
0.001000 0.002500 0.000000
0.001500 0.002500 0.000000
0.002000 0.002500 0.000000
0.002500 0.002500 0.000000
0.003000 0.002500 0.000000
0.003500 0.002500 0.000000
0.004000 0.002500 0.000000
0.004500 0.002500 0.000000
0.000500 0.001250 0.000000
0.001000 0.001250 0.000000
0.001500 0.001250 0.000000
0.002000 0.001250 0.000000
0.002500 0.001250 0.000000
0.003000 0.001250 0.000000
0.003500 0.001250 0.000000
0.004000 0.001250 0.000000
0.004500 0.001250 0.000000
CELLS 800 4000
4 82 83 180 179
4 179 180 181 178
4 178 181 182 177
4 177 182 183 176
4 176 183 184 175
4 175 184 185 174
4 174 185 186 173
4 173 186 187 172
4 172 187 188 171
4 171 188 80 0
4 83 84 189 180
4 180 189 190 181
4 181 190 191 182
4 182 191 192 183
4 183 192 193 184
4 184 193 194 185
4 185 194 195 186
4 186 195 196 187
4 187 196 197 188
4 188 197 79 80
4 84 85 198 189
4 189 198 199 190
4 190 199 200 191
4 191 200 201 192
4 192 201 202 193
4 193 202 203 194
4 194 203 204 195
4 195 204 205 196
4 196 205 206 197
4 197 206 78 79
4 85 86 207 198
4 198 207 208 199
4 199 208 209 200
4 200 209 210 201
4 201 210 211 202
4 202 211 212 203
4 203 212 213 204
4 204 213 214 205
4 205 214 215 206
4 206 215 77 78
4 86 87 216 207
4 207 216 217 208
4 208 217 218 209
4 209 218 219 210
4 210 219 220 211
4 211 220 221 212
4 212 221 222 213
4 213 222 223 214
4 214 223 224 215
4 215 224 76 77
4 87 88 225 216
4 216 225 226 217
4 217 226 227 218
4 218 227 228 219
4 219 228 229 220
4 220 229 230 221
4 221 230 231 222
4 222 231 232 223
4 223 232 233 224
4 224 233 75 76
4 88 89 234 225
4 225 234 235 226
4 226 235 236 227
4 227 236 237 228
4 228 237 238 229
4 229 238 239 230
4 230 239 240 231
4 231 240 241 232
4 232 241 242 233
4 233 242 74 75
4 89 90 243 234
4 234 243 244 235
4 235 244 245 236
4 236 245 246 237
4 237 246 247 238
4 238 247 248 239
4 239 248 249 240
4 240 249 250 241
4 241 250 251 242
4 242 251 73 74
4 90 91 252 243
4 243 252 253 244
4 244 253 254 245
4 245 254 255 246
4 246 255 256 247
4 247 256 257 248
4 248 257 258 249
4 249 258 259 250
4 250 259 260 251
4 251 260 72 73
4 91 92 261 252
4 252 261 262 253
4 253 262 263 254
4 254 263 264 255
4 255 264 265 256
4 256 265 266 257
4 257 266 267 258
4 258 267 268 259
4 259 268 269 260
4 260 269 71 72
4 92 93 270 261
4 261 270 271 262
4 262 271 272 263
4 263 272 273 264
4 264 273 274 265
4 265 274 275 266
4 266 275 276 267
4 267 276 277 268
4 268 277 278 269
4 269 278 70 71
4 93 94 279 270
4 270 279 280 271
4 271 280 281 272
4 272 281 282 273
4 273 282 283 274
4 274 283 284 275
4 275 284 285 276
4 276 285 286 277
4 277 286 287 278
4 278 287 69 70
4 94 95 288 279
4 279 288 289 280
4 280 289 290 281
4 281 290 291 282
4 282 291 292 283
4 283 292 293 284
4 284 293 294 285
4 285 294 295 286
4 286 295 296 287
4 287 296 68 69
4 95 96 297 288
4 288 297 298 289
4 289 298 299 290
4 290 299 300 291
4 291 300 301 292
4 292 301 302 293
4 293 302 303 294
4 294 303 304 295
4 295 304 305 296
4 296 305 67 68
4 96 97 306 297
4 297 306 307 298
4 298 307 308 299
4 299 308 309 300
4 300 309 310 301
4 301 310 311 302
4 302 311 312 303
4 303 312 313 304
4 304 313 314 305
4 305 314 66 67
4 97 98 315 306
4 306 315 316 307
4 307 316 317 308
4 308 317 318 309
4 309 318 319 310
4 310 319 320 311
4 311 320 321 312
4 312 321 322 313
4 313 322 323 314
4 314 323 65 66
4 98 99 324 315
4 315 324 325 316
4 316 325 326 317
4 317 326 327 318
4 318 327 328 319
4 319 328 329 320
4 320 329 330 321
4 321 330 331 322
4 322 331 332 323
4 323 332 64 65
4 99 100 333 324
4 324 333 334 325
4 325 334 335 326
4 326 335 336 327
4 327 336 337 328
4 328 337 338 329
4 329 338 339 330
4 330 339 340 331
4 331 340 341 332
4 332 341 63 64
4 100 101 342 333
4 333 342 343 334
4 334 343 344 335
4 335 344 345 336
4 336 345 346 337
4 337 346 347 338
4 338 347 348 339
4 339 348 349 340
4 340 349 350 341
4 341 350 62 63
4 101 102 351 342
4 342 351 352 343
4 343 352 353 344
4 344 353 354 345
4 345 354 355 346
4 346 355 356 347
4 347 356 357 348
4 348 357 358 349
4 349 358 359 350
4 350 359 61 62
4 102 103 360 351
4 351 360 361 352
4 352 361 362 353
4 353 362 363 354
4 354 363 364 355
4 355 364 365 356
4 356 365 366 357
4 357 366 367 358
4 358 367 368 359
4 359 368 60 61
4 103 104 369 360
4 360 369 370 361
4 361 370 371 362
4 362 371 372 363
4 363 372 373 364
4 364 373 374 365
4 365 374 375 366
4 366 375 376 367
4 367 376 377 368
4 368 377 59 60
4 104 105 378 369
4 369 378 379 370
4 370 379 380 371
4 371 380 381 372
4 372 381 382 373
4 373 382 383 374
4 374 383 384 375
4 375 384 385 376
4 376 385 386 377
4 377 386 58 59
4 105 106 387 378
4 378 387 388 379
4 379 388 389 380
4 380 389 390 381
4 381 390 391 382
4 382 391 392 383
4 383 392 393 384
4 384 393 394 385
4 385 394 395 386
4 386 395 57 58
4 106 107 396 387
4 387 396 397 388
4 388 397 398 389
4 389 398 399 390
4 390 399 400 391
4 391 400 401 392
4 392 401 402 393
4 393 402 403 394
4 394 403 404 395
4 395 404 56 57
4 107 108 405 396
4 396 405 406 397
4 397 406 407 398
4 398 407 408 399
4 399 408 409 400
4 400 409 410 401
4 401 410 411 402
4 402 411 412 403
4 403 412 413 404
4 404 413 55 56
4 108 109 414 405
4 405 414 415 406
4 406 415 416 407
4 407 416 417 408
4 408 417 418 409
4 409 418 419 410
4 410 419 420 411
4 411 420 421 412
4 412 421 422 413
4 413 422 54 55
4 109 110 423 414
4 414 423 424 415
4 415 424 425 416
4 416 425 426 417
4 417 426 427 418
4 418 427 428 419
4 419 428 429 420
4 420 429 430 421
4 421 430 431 422
4 422 431 53 54
4 110 111 432 423
4 423 432 433 424
4 424 433 434 425
4 425 434 435 426
4 426 435 436 427
4 427 436 437 428
4 428 437 438 429
4 429 438 439 430
4 430 439 440 431
4 431 440 52 53
4 111 112 441 432
4 432 441 442 433
4 433 442 443 434
4 434 443 444 435
4 435 444 445 436
4 436 445 446 437
4 437 446 447 438
4 438 447 448 439
4 439 448 449 440
4 440 449 51 52
4 112 113 450 441
4 441 450 451 442
4 442 451 452 443
4 443 452 453 444
4 444 453 454 445
4 445 454 455 446
4 446 455 456 447
4 447 456 457 448
4 448 457 458 449
4 449 458 50 51
4 113 114 459 450
4 450 459 460 451
4 451 460 461 452
4 452 461 462 453
4 453 462 463 454
4 454 463 464 455
4 455 464 465 456
4 456 465 466 457
4 457 466 467 458
4 458 467 49 50
4 114 115 468 459
4 459 468 469 460
4 460 469 470 461
4 461 470 471 462
4 462 471 472 463
4 463 472 473 464
4 464 473 474 465
4 465 474 475 466
4 466 475 476 467
4 467 476 48 49
4 115 116 477 468
4 468 477 478 469
4 469 478 479 470
4 470 479 480 471
4 471 480 481 472
4 472 481 482 473
4 473 482 483 474
4 474 483 484 475
4 475 484 485 476
4 476 485 47 48
4 116 117 486 477
4 477 486 487 478
4 478 487 488 479
4 479 488 489 480
4 480 489 490 481
4 481 490 491 482
4 482 491 492 483
4 483 492 493 484
4 484 493 494 485
4 485 494 46 47
4 117 118 495 486
4 486 495 496 487
4 487 496 497 488
4 488 497 498 489
4 489 498 499 490
4 490 499 500 491
4 491 500 501 492
4 492 501 502 493
4 493 502 503 494
4 494 503 45 46
4 118 119 504 495
4 495 504 505 496
4 496 505 506 497
4 497 506 507 498
4 498 507 508 499
4 499 508 509 500
4 500 509 510 501
4 501 510 511 502
4 502 511 512 503
4 503 512 44 45
4 119 120 513 504
4 504 513 514 505
4 505 514 515 506
4 506 515 516 507
4 507 516 517 508
4 508 517 518 509
4 509 518 519 510
4 510 519 520 511
4 511 520 521 512
4 512 521 43 44
4 120 121 522 513
4 513 522 523 514
4 514 523 524 515
4 515 524 525 516
4 516 525 526 517
4 517 526 527 518
4 518 527 528 519
4 519 528 529 520
4 520 529 530 521
4 521 530 42 43
4 121 122 531 522
4 522 531 532 523
4 523 532 533 524
4 524 533 534 525
4 525 534 535 526
4 526 535 536 527
4 527 536 537 528
4 528 537 538 529
4 529 538 539 530
4 530 539 41 42
4 122 123 540 531
4 531 540 541 532
4 532 541 542 533
4 533 542 543 534
4 534 543 544 535
4 535 544 545 536
4 536 545 546 537
4 537 546 547 538
4 538 547 548 539
4 539 548 40 41
4 123 124 549 540
4 540 549 550 541
4 541 550 551 542
4 542 551 552 543
4 543 552 553 544
4 544 553 554 545
4 545 554 555 546
4 546 555 556 547
4 547 556 557 548
4 548 557 39 40
4 124 125 558 549
4 549 558 559 550
4 550 559 560 551
4 551 560 561 552
4 552 561 562 553
4 553 562 563 554
4 554 563 564 555
4 555 564 565 556
4 556 565 566 557
4 557 566 38 39
4 125 126 567 558
4 558 567 568 559
4 559 568 569 560
4 560 569 570 561
4 561 570 571 562
4 562 571 572 563
4 563 572 573 564
4 564 573 574 565
4 565 574 575 566
4 566 575 37 38
4 126 127 576 567
4 567 576 577 568
4 568 577 578 569
4 569 578 579 570
4 570 579 580 571
4 571 580 581 572
4 572 581 582 573
4 573 582 583 574
4 574 583 584 575
4 575 584 36 37
4 127 128 585 576
4 576 585 586 577
4 577 586 587 578
4 578 587 588 579
4 579 588 589 580
4 580 589 590 581
4 581 590 591 582
4 582 591 592 583
4 583 592 593 584
4 584 593 35 36
4 128 129 594 585
4 585 594 595 586
4 586 595 596 587
4 587 596 597 588
4 588 597 598 589
4 589 598 599 590
4 590 599 600 591
4 591 600 601 592
4 592 601 602 593
4 593 602 34 35
4 129 130 603 594
4 594 603 604 595
4 595 604 605 596
4 596 605 606 597
4 597 606 607 598
4 598 607 608 599
4 599 608 609 600
4 600 609 610 601
4 601 610 611 602
4 602 611 33 34
4 130 131 612 603
4 603 612 613 604
4 604 613 614 605
4 605 614 615 606
4 606 615 616 607
4 607 616 617 608
4 608 617 618 609
4 609 618 619 610
4 610 619 620 611
4 611 620 32 33
4 131 132 621 612
4 612 621 622 613
4 613 622 623 614
4 614 623 624 615
4 615 624 625 616
4 616 625 626 617
4 617 626 627 618
4 618 627 628 619
4 619 628 629 620
4 620 629 31 32
4 132 133 630 621
4 621 630 631 622
4 622 631 632 623
4 623 632 633 624
4 624 633 634 625
4 625 634 635 626
4 626 635 636 627
4 627 636 637 628
4 628 637 638 629
4 629 638 30 31
4 133 134 639 630
4 630 639 640 631
4 631 640 641 632
4 632 641 642 633
4 633 642 643 634
4 634 643 644 635
4 635 644 645 636
4 636 645 646 637
4 637 646 647 638
4 638 647 29 30
4 134 135 648 639
4 639 648 649 640
4 640 649 650 641
4 641 650 651 642
4 642 651 652 643
4 643 652 653 644
4 644 653 654 645
4 645 654 655 646
4 646 655 656 647
4 647 656 28 29
4 135 136 657 648
4 648 657 658 649
4 649 658 659 650
4 650 659 660 651
4 651 660 661 652
4 652 661 662 653
4 653 662 663 654
4 654 663 664 655
4 655 664 665 656
4 656 665 27 28
4 136 137 666 657
4 657 666 667 658
4 658 667 668 659
4 659 668 669 660
4 660 669 670 661
4 661 670 671 662
4 662 671 672 663
4 663 672 673 664
4 664 673 674 665
4 665 674 26 27
4 137 138 675 666
4 666 675 676 667
4 667 676 677 668
4 668 677 678 669
4 669 678 679 670
4 670 679 680 671
4 671 680 681 672
4 672 681 682 673
4 673 682 683 674
4 674 683 25 26
4 138 139 684 675
4 675 684 685 676
4 676 685 686 677
4 677 686 687 678
4 678 687 688 679
4 679 688 689 680
4 680 689 690 681
4 681 690 691 682
4 682 691 692 683
4 683 692 24 25
4 139 140 693 684
4 684 693 694 685
4 685 694 695 686
4 686 695 696 687
4 687 696 697 688
4 688 697 698 689
4 689 698 699 690
4 690 699 700 691
4 691 700 701 692
4 692 701 23 24
4 140 141 702 693
4 693 702 703 694
4 694 703 704 695
4 695 704 705 696
4 696 705 706 697
4 697 706 707 698
4 698 707 708 699
4 699 708 709 700
4 700 709 710 701
4 701 710 22 23
4 141 142 711 702
4 702 711 712 703
4 703 712 713 704
4 704 713 714 705
4 705 714 715 706
4 706 715 716 707
4 707 716 717 708
4 708 717 718 709
4 709 718 719 710
4 710 719 21 22
4 142 143 720 711
4 711 720 721 712
4 712 721 722 713
4 713 722 723 714
4 714 723 724 715
4 715 724 725 716
4 716 725 726 717
4 717 726 727 718
4 718 727 728 719
4 719 728 20 21
4 143 144 729 720
4 720 729 730 721
4 721 730 731 722
4 722 731 732 723
4 723 732 733 724
4 724 733 734 725
4 725 734 735 726
4 726 735 736 727
4 727 736 737 728
4 728 737 19 20
4 144 145 738 729
4 729 738 739 730
4 730 739 740 731
4 731 740 741 732
4 732 741 742 733
4 733 742 743 734
4 734 743 744 735
4 735 744 745 736
4 736 745 746 737
4 737 746 18 19
4 145 146 747 738
4 738 747 748 739
4 739 748 749 740
4 740 749 750 741
4 741 750 751 742
4 742 751 752 743
4 743 752 753 744
4 744 753 754 745
4 745 754 755 746
4 746 755 17 18
4 146 147 756 747
4 747 756 757 748
4 748 757 758 749
4 749 758 759 750
4 750 759 760 751
4 751 760 761 752
4 752 761 762 753
4 753 762 763 754
4 754 763 764 755
4 755 764 16 17
4 147 148 765 756
4 756 765 766 757
4 757 766 767 758
4 758 767 768 759
4 759 768 769 760
4 760 769 770 761
4 761 770 771 762
4 762 771 772 763
4 763 772 773 764
4 764 773 15 16
4 148 149 774 765
4 765 774 775 766
4 766 775 776 767
4 767 776 777 768
4 768 777 778 769
4 769 778 779 770
4 770 779 780 771
4 771 780 781 772
4 772 781 782 773
4 773 782 14 15
4 149 150 783 774
4 774 783 784 775
4 775 784 785 776
4 776 785 786 777
4 777 786 787 778
4 778 787 788 779
4 779 788 789 780
4 780 789 790 781
4 781 790 791 782
4 782 791 13 14
4 150 151 792 783
4 783 792 793 784
4 784 793 794 785
4 785 794 795 786
4 786 795 796 787
4 787 796 797 788
4 788 797 798 789
4 789 798 799 790
4 790 799 800 791
4 791 800 12 13
4 151 152 801 792
4 792 801 802 793
4 793 802 803 794
4 794 803 804 795
4 795 804 805 796
4 796 805 806 797
4 797 806 807 798
4 798 807 808 799
4 799 808 809 800
4 800 809 11 12
4 152 153 810 801
4 801 810 811 802
4 802 811 812 803
4 803 812 813 804
4 804 813 814 805
4 805 814 815 806
4 806 815 816 807
4 807 816 817 808
4 808 817 818 809
4 809 818 10 11
4 153 154 819 810
4 810 819 820 811
4 811 820 821 812
4 812 821 822 813
4 813 822 823 814
4 814 823 824 815
4 815 824 825 816
4 816 825 826 817
4 817 826 827 818
4 818 827 9 10
4 154 155 828 819
4 819 828 829 820
4 820 829 830 821
4 821 830 831 822
4 822 831 832 823
4 823 832 833 824
4 824 833 834 825
4 825 834 835 826
4 826 835 836 827
4 827 836 8 9
4 155 156 837 828
4 828 837 838 829
4 829 838 839 830
4 830 839 840 831
4 831 840 841 832
4 832 841 842 833
4 833 842 843 834
4 834 843 844 835
4 835 844 845 836
4 836 845 7 8
4 156 157 846 837
4 837 846 847 838
4 838 847 848 839
4 839 848 849 840
4 840 849 850 841
4 841 850 851 842
4 842 851 852 843
4 843 852 853 844
4 844 853 854 845
4 845 854 6 7
4 157 158 855 846
4 846 855 856 847
4 847 856 857 848
4 848 857 858 849
4 849 858 859 850
4 850 859 860 851
4 851 860 861 852
4 852 861 862 853
4 853 862 863 854
4 854 863 5 6
4 158 159 864 855
4 855 864 865 856
4 856 865 866 857
4 857 866 867 858
4 858 867 868 859
4 859 868 869 860
4 860 869 870 861
4 861 870 871 862
4 862 871 872 863
4 863 872 4 5
4 159 160 873 864
4 864 873 874 865
4 865 874 875 866
4 866 875 876 867
4 867 876 877 868
4 868 877 878 869
4 869 878 879 870
4 870 879 880 871
4 871 880 881 872
4 872 881 3 4
4 160 161 882 873
4 873 882 883 874
4 874 883 884 875
4 875 884 885 876
4 876 885 886 877
4 877 886 887 878
4 878 887 888 879
4 879 888 889 880
4 880 889 890 881
4 881 890 2 3
4 161 81 162 882
4 882 162 163 883
4 883 163 164 884
4 884 164 165 885
4 885 165 166 886
4 886 166 167 887
4 887 167 168 888
4 888 168 169 889
4 889 169 170 890
4 890 170 1 2
CELL_TYPES 800
9
9
9
9
9
9
9
9
9
9
9
9
9
9
9
9
9
9
9
9
9
9
9
9
9
9
9
9
9
9
9
9
9
9
9
9
9
9
9
9
9
9
9
9
9
9
9
9
9
9
9
9
9
9
9
9
9
9
9
9
9
9
9
9
9
9
9
9
9
9
9
9
9
9
9
9
9
9
9
9
9
9
9
9
9
9
9
9
9
9
9
9
9
9
9
9
9
9
9
9
9
9
9
9
9
9
9
9
9
9
9
9
9
9
9
9
9
9
9
9
9
9
9
9
9
9
9
9
9
9
9
9
9
9
9
9
9
9
9
9
9
9
9
9
9
9
9
9
9
9
9
9
9
9
9
9
9
9
9
9
9
9
9
9
9
9
9
9
9
9
9
9
9
9
9
9
9
9
9
9
9
9
9
9
9
9
9
9
9
9
9
9
9
9
9
9
9
9
9
9
9
9
9
9
9
9
9
9
9
9
9
9
9
9
9
9
9
9
9
9
9
9
9
9
9
9
9
9
9
9
9
9
9
9
9
9
9
9
9
9
9
9
9
9
9
9
9
9
9
9
9
9
9
9
9
9
9
9
9
9
9
9
9
9
9
9
9
9
9
9
9
9
9
9
9
9
9
9
9
9
9
9
9
9
9
9
9
9
9
9
9
9
9
9
9
9
9
9
9
9
9
9
9
9
9
9
9
9
9
9
9
9
9
9
9
9
9
9
9
9
9
9
9
9
9
9
9
9
9
9
9
9
9
9
9
9
9
9
9
9
9
9
9
9
9
9
9
9
9
9
9
9
9
9
9
9
9
9
9
9
9
9
9
9
9
9
9
9
9
9
9
9
9
9
9
9
9
9
9
9
9
9
9
9
9
9
9
9
9
9
9
9
9
9
9
9
9
9
9
9
9
9
9
9
9
9
9
9
9
9
9
9
9
9
9
9
9
9
9
9
9
9
9
9
9
9
9
9
9
9
9
9
9
9
9
9
9
9
9
9
9
9
9
9
9
9
9
9
9
9
9
9
9
9
9
9
9
9
9
9
9
9
9
9
9
9
9
9
9
9
9
9
9
9
9
9
9
9
9
9
9
9
9
9
9
9
9
9
9
9
9
9
9
9
9
9
9
9
9
9
9
9
9
9
9
9
9
9
9
9
9
9
9
9
9
9
9
9
9
9
9
9
9
9
9
9
9
9
9
9
9
9
9
9
9
9
9
9
9
9
9
9
9
9
9
9
9
9
9
9
9
9
9
9
9
9
9
9
9
9
9
9
9
9
9
9
9
9
9
9
9
9
9
9
9
9
9
9
9
9
9
9
9
9
9
9
9
9
9
9
9
9
9
9
9
9
9
9
9
9
9
9
9
9
9
9
9
9
9
9
9
9
9
9
9
9
9
9
9
9
9
9
9
9
9
9
9
9
9
9
9
9
9
9
9
9
9
9
9
9
9
9
9
9
9
9
9
9
9
9
9
9
9
9
9
9
9
9
9
9
9
9
9
9
9
9
9
9
9
9
9
9
9
9
9
9
9
9
9
9
9
9
9
9
9
9
9
9
9
9
9
9
9
9
9
9
9
9
9
9
9
9
9
9
9
9
9
9
9
9
9
9
9
9
9
9
9
9
9
9
9
9
9
9
9
9
9
9
9
9
9
9
9
9
9
9
9
9
9
9
9
9
9
9
9
9
9
9
9
9
9
9
9
9
9
9
9
9
9
9
9
9
9
9
9
9
9
9
9
9
9
9
9
9
9
9
9
9
9
9
9
9
9
9
9
9
9
9
9
9
9
9
9
9
9
9
9
9
9
9
POINT_DATA 891
SCALARS u1 float
LOOKUP_TABLE default
7e-06
7e-06
7e-06
7e-06
7e-06
7e-06
7e-06
7e-06
7e-06
7e-06
7e-06
7e-06
7e-06
7e-06
7e-06
7e-06
7e-06
7e-06
7e-06
7e-06
7e-06
7e-06
7e-06
7e-06
7e-06
7e-06
7e-06
7e-06
7e-06
7e-06
7e-06
7e-06
7e-06
7e-06
7e-06
7e-06
7e-06
7e-06
7e-06
7e-06
7e-06
7e-06
7e-06
7e-06
7e-06
7e-06
7e-06
7e-06
7e-06
7e-06
7e-06
7e-06
7e-06
7e-06
7e-06
7e-06
7e-06
7e-06
7e-06
7e-06
7e-06
7e-06
7e-06
7e-06
7e-06
7e-06
7e-06
7e-06
7e-06
7e-06
7e-06
7e-06
7e-06
7e-06
7e-06
7e-06
7e-06
7e-06
7e-06
7e-06
7e-06
4e-05
4e-05
4e-05
4e-05
4e-05
4e-05
4e-05
4e-05
4e-05
4e-05
4e-05
4e-05
4e-05
4e-05
4e-05
4e-05
4e-05
4e-05
4e-05
4e-05
4e-05
4e-05
4e-05
4e-05
4e-05
4e-05
4e-05
4e-05
4e-05
4e-05
4e-05
4e-05
4e-05
4e-05
4e-05
4e-05
4e-05
4e-05
4e-05
4e-05
4e-05
4e-05
4e-05
4e-05
4e-05
4e-05
4e-05
4e-05
4e-05
4e-05
4e-05
4e-05
4e-05
4e-05
4e-05
4e-05
4e-05
4e-05
4e-05
4e-05
4e-05
4e-05
4e-05
4e-05
4e-05
4e-05
4e-05
4e-05
4e-05
4e-05
4e-05
4e-05
4e-05
4e-05
4e-05
4e-05
4e-05
4e-05
4e-05
4e-05
4e-05
4e-05
3e-05
3e-05
3e-05
2e-05
2e-05
2e-05
1e-05
1e-05
1e-05
1e-05
2e-05
2e-05
2e-05
3e-05
3e-05
3e-05
4e-05
4e-05
3e-05
3e-05
3e-05
2e-05
2e-05
2e-05
1e-05
1e-05
4e-05
3e-05
3e-05
3e-05
2e-05
2e-05
2e-05
1e-05
1e-05
4e-05
3e-05
3e-05
3e-05
2e-05
2e-05
2e-05
1e-05
1e-05
4e-05
3e-05
3e-05
3e-05
2e-05
2e-05
2e-05
1e-05
1e-05
4e-05
3e-05
3e-05
3e-05
2e-05
2e-05
2e-05
1e-05
1e-05
4e-05
3e-05
3e-05
3e-05
2e-05
2e-05
2e-05
1e-05
1e-05
4e-05
3e-05
3e-05
3e-05
2e-05
2e-05
2e-05
1e-05
1e-05
4e-05
3e-05
3e-05
3e-05
2e-05
2e-05
2e-05
1e-05
1e-05
4e-05
3e-05
3e-05
3e-05
2e-05
2e-05
2e-05
1e-05
1e-05
4e-05
3e-05
3e-05
3e-05
2e-05
2e-05
2e-05
1e-05
1e-05
4e-05
3e-05
3e-05
3e-05
2e-05
2e-05
2e-05
1e-05
1e-05
4e-05
3e-05
3e-05
3e-05
2e-05
2e-05
2e-05
1e-05
1e-05
4e-05
3e-05
3e-05
3e-05
2e-05
2e-05
2e-05
1e-05
1e-05
4e-05
3e-05
3e-05
3e-05
2e-05
2e-05
2e-05
1e-05
1e-05
4e-05
3e-05
3e-05
3e-05
2e-05
2e-05
2e-05
1e-05
1e-05
4e-05
3e-05
3e-05
3e-05
2e-05
2e-05
2e-05
1e-05
1e-05
4e-05
3e-05
3e-05
3e-05
2e-05
2e-05
2e-05
1e-05
1e-05
4e-05
3e-05
3e-05
3e-05
2e-05
2e-05
2e-05
1e-05
1e-05
4e-05
3e-05
3e-05
3e-05
2e-05
2e-05
2e-05
1e-05
1e-05
4e-05
3e-05
3e-05
3e-05
2e-05
2e-05
2e-05
1e-05
1e-05
4e-05
3e-05
3e-05
3e-05
2e-05
2e-05
2e-05
1e-05
1e-05
4e-05
3e-05
3e-05
3e-05
2e-05
2e-05
2e-05
1e-05
1e-05
4e-05
3e-05
3e-05
3e-05
2e-05
2e-05
2e-05
1e-05
1e-05
4e-05
3e-05
3e-05
3e-05
2e-05
2e-05
2e-05
1e-05
1e-05
4e-05
3e-05
3e-05
3e-05
2e-05
2e-05
2e-05
1e-05
1e-05
4e-05
3e-05
3e-05
3e-05
2e-05
2e-05
2e-05
1e-05
1e-05
4e-05
3e-05
3e-05
3e-05
2e-05
2e-05
2e-05
1e-05
1e-05
4e-05
3e-05
3e-05
3e-05
2e-05
2e-05
2e-05
1e-05
1e-05
4e-05
3e-05
3e-05
3e-05
2e-05
2e-05
2e-05
1e-05
1e-05
4e-05
3e-05
3e-05
3e-05
2e-05
2e-05
2e-05
1e-05
1e-05
4e-05
3e-05
3e-05
3e-05
2e-05
2e-05
2e-05
1e-05
1e-05
4e-05
3e-05
3e-05
3e-05
2e-05
2e-05
2e-05
1e-05
1e-05
4e-05
3e-05
3e-05
3e-05
2e-05
2e-05
2e-05
1e-05
1e-05
4e-05
3e-05
3e-05
3e-05
2e-05
2e-05
2e-05
1e-05
1e-05
4e-05
3e-05
3e-05
3e-05
2e-05
2e-05
2e-05
1e-05
1e-05
4e-05
3e-05
3e-05
3e-05
2e-05
2e-05
2e-05
1e-05
1e-05
4e-05
3e-05
3e-05
3e-05
2e-05
2e-05
2e-05
1e-05
1e-05
4e-05
3e-05
3e-05
3e-05
2e-05
2e-05
2e-05
1e-05
1e-05
4e-05
3e-05
3e-05
3e-05
2e-05
2e-05
2e-05
1e-05
1e-05
4e-05
3e-05
3e-05
3e-05
2e-05
2e-05
2e-05
1e-05
1e-05
4e-05
3e-05
3e-05
3e-05
2e-05
2e-05
2e-05
1e-05
1e-05
4e-05
3e-05
3e-05
3e-05
2e-05
2e-05
2e-05
1e-05
1e-05
4e-05
3e-05
3e-05
3e-05
2e-05
2e-05
2e-05
1e-05
1e-05
4e-05
3e-05
3e-05
3e-05
2e-05
2e-05
2e-05
1e-05
1e-05
4e-05
3e-05
3e-05
3e-05
2e-05
2e-05
2e-05
1e-05
1e-05
4e-05
3e-05
3e-05
3e-05
2e-05
2e-05
2e-05
1e-05
1e-05
4e-05
3e-05
3e-05
3e-05
2e-05
2e-05
2e-05
1e-05
1e-05
4e-05
3e-05
3e-05
3e-05
2e-05
2e-05
2e-05
1e-05
1e-05
4e-05
3e-05
3e-05
3e-05
2e-05
2e-05
2e-05
1e-05
1e-05
4e-05
3e-05
3e-05
3e-05
2e-05
2e-05
2e-05
1e-05
1e-05
4e-05
3e-05
3e-05
3e-05
2e-05
2e-05
2e-05
1e-05
1e-05
4e-05
3e-05
3e-05
3e-05
2e-05
2e-05
2e-05
1e-05
1e-05
4e-05
3e-05
3e-05
3e-05
2e-05
2e-05
2e-05
1e-05
1e-05
4e-05
3e-05
3e-05
3e-05
2e-05
2e-05
2e-05
1e-05
1e-05
4e-05
3e-05
3e-05
3e-05
2e-05
2e-05
2e-05
1e-05
1e-05
4e-05
3e-05
3e-05
3e-05
2e-05
2e-05
2e-05
1e-05
1e-05
4e-05
3e-05
3e-05
3e-05
2e-05
2e-05
2e-05
1e-05
1e-05
4e-05
3e-05
3e-05
3e-05
2e-05
2e-05
2e-05
1e-05
1e-05
4e-05
3e-05
3e-05
3e-05
2e-05
2e-05
2e-05
1e-05
1e-05
4e-05
3e-05
3e-05
3e-05
2e-05
2e-05
2e-05
1e-05
1e-05
4e-05
3e-05
3e-05
3e-05
2e-05
2e-05
2e-05
1e-05
1e-05
4e-05
3e-05
3e-05
3e-05
2e-05
2e-05
2e-05
1e-05
1e-05
4e-05
3e-05
3e-05
3e-05
2e-05
2e-05
2e-05
1e-05
1e-05
4e-05
3e-05
3e-05
3e-05
2e-05
2e-05
2e-05
1e-05
1e-05
4e-05
3e-05
3e-05
3e-05
2e-05
2e-05
2e-05
1e-05
1e-05
4e-05
3e-05
3e-05
3e-05
2e-05
2e-05
2e-05
1e-05
1e-05
4e-05
3e-05
3e-05
3e-05
2e-05
2e-05
2e-05
1e-05
1e-05
4e-05
3e-05
3e-05
3e-05
2e-05
2e-05
2e-05
1e-05
1e-05
4e-05
3e-05
3e-05
3e-05
2e-05
2e-05
2e-05
1e-05
1e-05
4e-05
3e-05
3e-05
3e-05
2e-05
2e-05
2e-05
1e-05
1e-05
4e-05
3e-05
3e-05
3e-05
2e-05
2e-05
2e-05
1e-05
1e-05
4e-05
3e-05
3e-05
3e-05
2e-05
2e-05
2e-05
1e-05
1e-05
4e-05
3e-05
3e-05
3e-05
2e-05
2e-05
2e-05
1e-05
1e-05
4e-05
3e-05
3e-05
3e-05
2e-05
2e-05
2e-05
1e-05
1e-05
4e-05
3e-05
3e-05
3e-05
2e-05
2e-05
2e-05
1e-05
1e-05
4e-05
3e-05
3e-05
3e-05
2e-05
2e-05
2e-05
1e-05
1e-05
4e-05
3e-05
3e-05
3e-05
2e-05
2e-05
2e-05
1e-05
1e-05
4e-05
3e-05
3e-05
3e-05
2e-05
2e-05
2e-05
1e-05
1e-05
4e-05
3e-05
3e-05
3e-05
2e-05
2e-05
2e-05
1e-05
1e-05
SCALARS u2 float
LOOKUP_TABLE default
0.002
-0.002
-0.001
-0.001
-0.001
-0.001
-0.001
-0.001
-0.001
-0.001
-0.001
-0.001
-0.001
-0.001
-0.001
-0.001
-0.0009
-0.0009
-0.0009
-0.0008
-0.0008
-0.0008
-0.0007
-0.0007
-0.0006
-0.0006
-0.0006
-0.0005
-0.0005
-0.0005
-0.0004
-0.0004
-0.0003
-0.0003
-0.0003
-0.0002
-0.0002
-0.0002
-0.0001
-8e-05
-4e-05
-7e-18
4e-05
8e-05
0.0001
0.0002
0.0002
0.0002
0.0003
0.0003
0.0003
0.0004
0.0004
0.0005
0.0005
0.0005
0.0006
0.0006
0.0006
0.0007
0.0007
0.0008
0.0008
0.0008
0.0009
0.0009
0.0009
0.001
0.001
0.001
0.001
0.001
0.001
0.001
0.001
0.001
0.001
0.001
0.001
0.001
0.001
-0.002
0.002
0.001
0.001
0.001
0.001
0.001
0.001
0.001
0.001
0.001
0.001
0.001
0.001
0.001
0.001
0.0009
0.0009
0.0009
0.0008
0.0008
0.0008
0.0007
0.0007
0.0006
0.0006
0.0006
0.0005
0.0005
0.0005
0.0004
0.0004
0.0003
0.0003
0.0003
0.0002
0.0002
0.0002
0.0001
8e-05
4e-05
2e-17
-4e-05
-8e-05
-0.0001
-0.0002
-0.0002
-0.0002
-0.0003
-0.0003
-0.0003
-0.0004
-0.0004
-0.0005
-0.0005
-0.0005
-0.0006
-0.0006
-0.0006
-0.0007
-0.0007
-0.0008
-0.0008
-0.0008
-0.0009
-0.0009
-0.0009
-0.001
-0.001
-0.001
-0.001
-0.001
-0.001
-0.001
-0.001
-0.001
-0.001
-0.001
-0.001
-0.001
-0.001
-0.002
-0.002
-0.002
-0.002
-0.002
-0.002
-0.002
-0.002
-0.002
0.002
0.002
0.002
0.002
0.002
0.002
0.002
0.002
0.002
0.001
0.001
0.001
0.001
0.001
0.001
0.001
0.001
0.001
0.001
0.001
0.001
0.001
0.001
0.001
0.001
0.001
0.001
0.001
0.001
0.001
0.001
0.001
0.001
0.001
0.001
0.001
0.001
0.001
0.001
0.001
0.001
0.001
0.001
0.001
0.001
0.001
0.001
0.001
0.001
0.001
0.001
0.001
0.001
0.001
0.001
0.001
0.001
0.001
0.001
0.001
0.001
0.001
0.001
0.001
0.001
0.001
0.001
0.001
0.001
0.001
0.001
0.001
0.001
0.001
0.001
0.001
0.001
0.001
0.001
0.001
0.001
0.001
0.001
0.001
0.001
0.001
0.001
0.001
0.001
0.001
0.001
0.001
0.001
0.001
0.001
0.001
0.001
0.001
0.001
0.001
0.001
0.001
0.001
0.001
0.001
0.001
0.001
0.001
0.001
0.001
0.001
0.001
0.001
0.001
0.001
0.001
0.001
0.001
0.001
0.001
0.001
0.001
0.001
0.001
0.001
0.001
0.001
0.001
0.001
0.001
0.001
0.001
0.001
0.001
0.001
0.0009
0.0009
0.0009
0.0009
0.0009
0.0009
0.0009
0.0009
0.0009
0.0009
0.0009
0.0009
0.0009
0.0009
0.0009
0.0009
0.0009
0.0009
0.0009
0.0009
0.0009
0.0009
0.0009
0.0009
0.0009
0.0009
0.0009
0.0008
0.0008
0.0008
0.0008
0.0008
0.0008
0.0008
0.0008
0.0008
0.0008
0.0008
0.0008
0.0008
0.0008
0.0008
0.0008
0.0008
0.0008
0.0008
0.0008
0.0008
0.0008
0.0008
0.0008
0.0008
0.0008
0.0008
0.0007
0.0007
0.0007
0.0007
0.0007
0.0007
0.0007
0.0007
0.0007
0.0007
0.0007
0.0007
0.0007
0.0007
0.0007
0.0007
0.0007
0.0007
0.0006
0.0006
0.0006
0.0006
0.0006
0.0006
0.0006
0.0006
0.0006
0.0006
0.0006
0.0006
0.0006
0.0006
0.0006
0.0006
0.0006
0.0006
0.0006
0.0006
0.0006
0.0006
0.0006
0.0006
0.0006
0.0006
0.0006
0.0005
0.0005
0.0005
0.0005
0.0005
0.0005
0.0005
0.0005
0.0005
0.0005
0.0005
0.0005
0.0005
0.0005
0.0005
0.0005
0.0005
0.0005
0.0005
0.0005
0.0005
0.0005
0.0005
0.0005
0.0005
0.0005
0.0005
0.0004
0.0004
0.0004
0.0004
0.0004
0.0004
0.0004
0.0004
0.0004
0.0004
0.0004
0.0004
0.0004
0.0004
0.0004
0.0004
0.0004
0.0004
0.0003
0.0003
0.0003
0.0003
0.0003
0.0003
0.0003
0.0003
0.0003
0.0003
0.0003
0.0003
0.0003
0.0003
0.0003
0.0003
0.0003
0.0003
0.0003
0.0003
0.0003
0.0003
0.0003
0.0003
0.0003
0.0003
0.0003
0.0002
0.0002
0.0002
0.0002
0.0002
0.0002
0.0002
0.0002
0.0002
0.0002
0.0002
0.0002
0.0002
0.0002
0.0002
0.0002
0.0002
0.0002
0.0002
0.0002
0.0002
0.0002
0.0002
0.0002
0.0002
0.0002
0.0002
0.0001
0.0001
0.0001
0.0001
0.0001
0.0001
0.0001
0.0001
0.0001
8e-05
8e-05
8e-05
8e-05
8e-05
8e-05
8e-05
8e-05
8e-05
4e-05
4e-05
4e-05
4e-05
4e-05
4e-05
4e-05
4e-05
4e-05
2e-17
1e-17
1e-17
9e-18
6e-18
3e-18
7e-19
-2e-18
-4e-18
-4e-05
-4e-05
-4e-05
-4e-05
-4e-05
-4e-05
-4e-05
-4e-05
-4e-05
-8e-05
-8e-05
-8e-05
-8e-05
-8e-05
-8e-05
-8e-05
-8e-05
-8e-05
-0.0001
-0.0001
-0.0001
-0.0001
-0.0001
-0.0001
-0.0001
-0.0001
-0.0001
-0.0002
-0.0002
-0.0002
-0.0002
-0.0002
-0.0002
-0.0002
-0.0002
-0.0002
-0.0002
-0.0002
-0.0002
-0.0002
-0.0002
-0.0002
-0.0002
-0.0002
-0.0002
-0.0002
-0.0002
-0.0002
-0.0002
-0.0002
-0.0002
-0.0002
-0.0002
-0.0002
-0.0003
-0.0003
-0.0003
-0.0003
-0.0003
-0.0003
-0.0003
-0.0003
-0.0003
-0.0003
-0.0003
-0.0003
-0.0003
-0.0003
-0.0003
-0.0003
-0.0003
-0.0003
-0.0003
-0.0003
-0.0003
-0.0003
-0.0003
-0.0003
-0.0003
-0.0003
-0.0003
-0.0004
-0.0004
-0.0004
-0.0004
-0.0004
-0.0004
-0.0004
-0.0004
-0.0004
-0.0004
-0.0004
-0.0004
-0.0004
-0.0004
-0.0004
-0.0004
-0.0004
-0.0004
-0.0005
-0.0005
-0.0005
-0.0005
-0.0005
-0.0005
-0.0005
-0.0005
-0.0005
-0.0005
-0.0005
-0.0005
-0.0005
-0.0005
-0.0005
-0.0005
-0.0005
-0.0005
-0.0005
-0.0005
-0.0005
-0.0005
-0.0005
-0.0005
-0.0005
-0.0005
-0.0005
-0.0006
-0.0006
-0.0006
-0.0006
-0.0006
-0.0006
-0.0006
-0.0006
-0.0006
-0.0006
-0.0006
-0.0006
-0.0006
-0.0006
-0.0006
-0.0006
-0.0006
-0.0006
-0.0006
-0.0006
-0.0006
-0.0006
-0.0006
-0.0006
-0.0006
-0.0006
-0.0006
-0.0007
-0.0007
-0.0007
-0.0007
-0.0007
-0.0007
-0.0007
-0.0007
-0.0007
-0.0007
-0.0007
-0.0007
-0.0007
-0.0007
-0.0007
-0.0007
-0.0007
-0.0007
-0.0008
-0.0008
-0.0008
-0.0008
-0.0008
-0.0008
-0.0008
-0.0008
-0.0008
-0.0008
-0.0008
-0.0008
-0.0008
-0.0008
-0.0008
-0.0008
-0.0008
-0.0008
-0.0008
-0.0008
-0.0008
-0.0008
-0.0008
-0.0008
-0.0008
-0.0008
-0.0008
-0.0009
-0.0009
-0.0009
-0.0009
-0.0009
-0.0009
-0.0009
-0.0009
-0.0009
-0.0009
-0.0009
-0.0009
-0.0009
-0.0009
-0.0009
-0.0009
-0.0009
-0.0009
-0.0009
-0.0009
-0.0009
-0.0009
-0.0009
-0.0009
-0.0009
-0.0009
-0.0009
-0.001
-0.001
-0.001
-0.001
-0.001
-0.001
-0.001
-0.001
-0.001
-0.001
-0.001
-0.001
-0.001
-0.001
-0.001
-0.001
-0.001
-0.001
-0.001
-0.001
-0.001
-0.001
-0.001
-0.001
-0.001
-0.001
-0.001
-0.001
-0.001
-0.001
-0.001
-0.001
-0.001
-0.001
-0.001
-0.001
-0.001
-0.001
-0.001
-0.001
-0.001
-0.001
-0.001
-0.001
-0.001
-0.001
-0.001
-0.001
-0.001
-0.001
-0.001
-0.001
-0.001
-0.001
-0.001
-0.001
-0.001
-0.001
-0.001
-0.001
-0.001
-0.001
-0.001
-0.001
-0.001
-0.001
-0.001
-0.001
-0.001
-0.001
-0.001
-0.001
-0.001
-0.001
-0.001
-0.001
-0.001
-0.001
-0.001
-0.001
-0.001
-0.001
-0.001
-0.001
-0.001
-0.001
-0.001
-0.001
-0.001
-0.001
-0.001
-0.001
-0.001
-0.001
-0.001
-0.001
-0.001
-0.001
-0.001
-0.001
-0.001
-0.001
-0.001
-0.001
-0.001
-0.001
-0.001
-0.001
-0.001
-0.001
-0.001
-0.001
-0.001
-0.001
-0.001
-0.001
-0.001
-0.001
-0.001
-0.001
-0.001
-0.001
-0.001
-0.001
-0.001
-0.001
SCALARS strain_1 float
LOOKUP_TABLE default
-0.006522
-0.006522
-0.006522
-0.006522
-0.006522
-0.006522
-0.006522
-0.006522
-0.006522
-0.006522
-0.006522
-0.006522
-0.006522
-0.006522
-0.006522
-0.006522
-0.006522
-0.006522
-0.006522
-0.006522
-0.006522
-0.006522
-0.006522
-0.006522
-0.006522
-0.006522
-0.006522
-0.006522
-0.006522
-0.006522
-0.006522
-0.006522
-0.006522
-0.006522
-0.006522
-0.006522
-0.006522
-0.006522
-0.006522
-0.006522
-0.006522
-0.006522
-0.006522
-0.006522
-0.006522
-0.006522
-0.006522
-0.006522
-0.006522
-0.006522
-0.006522
-0.006522
-0.006522
-0.006522
-0.006522
-0.006522
-0.006522
-0.006522
-0.006522
-0.006522
-0.006522
-0.006522
-0.006522
-0.006522
-0.006522
-0.006522
-0.006522
-0.006522
-0.006522
-0.006522
-0.006522
-0.006522
-0.006522
-0.006522
-0.006522
-0.006522
-0.006522
-0.006522
-0.006522
-0.006522
-0.006522
-0.006522
-0.006522
-0.006522
-0.006522
-0.006522
-0.006522
-0.006522
-0.006522
-0.006522
-0.006522
-0.006522
-0.006522
-0.006522
-0.006522
-0.006522
-0.006522
-0.006522
-0.006522
-0.006522
-0.006522
-0.006522
-0.006522
-0.006522
-0.006522
-0.006522
-0.006522
-0.006522
-0.006522
-0.006522
-0.006522
-0.006522
-0.006522
-0.006522
-0.006522
-0.006522
-0.006522
-0.006522
-0.006522
-0.006522
-0.006522
-0.006522
-0.006522
-0.006522
-0.006522
-0.006522
-0.006522
-0.006522
-0.006522
-0.006522
-0.006522
-0.006522
-0.006522
-0.006522
-0.006522
-0.006522
-0.006522
-0.006522
-0.006522
-0.006522
-0.006522
-0.006522
-0.006522
-0.006522
-0.006522
-0.006522
-0.006522
-0.006522
-0.006522
-0.006522
-0.006522
-0.006522
-0.006522
-0.006522
-0.006522
-0.006522
-0.006522
-0.006522
-0.006522
-0.006522
-0.006522
-0.006522
-0.006522
-0.006522
-0.006522
-0.006522
-0.006522
-0.006522
-0.006522
-0.006522
-0.006522
-0.006522
-0.006522
-0.006522
-0.006522
-0.006522
-0.006522
-0.006522
-0.006522
-0.006522
-0.006522
-0.006522
-0.006522
-0.006522
-0.006522
-0.006522
-0.006522
-0.006522
-0.006522
-0.006522
-0.006522
-0.006522
-0.006522
-0.006522
-0.006522
-0.006522
-0.006522
-0.006522
-0.006522
-0.006522
-0.006522
-0.006522
-0.006522
-0.006522
-0.006522
-0.006522
-0.006522
-0.006522
-0.006522
-0.006522
-0.006522
-0.006522
-0.006522
-0.006522
-0.006522
-0.006522
-0.006522
-0.006522
-0.006522
-0.006522
-0.006522
-0.006522
-0.006522
-0.006522
-0.006522
-0.006522
-0.006522
-0.006522
-0.006522
-0.006522
-0.006522
-0.006522
-0.006522
-0.006522
-0.006522
-0.006522
-0.006522
-0.006522
-0.006522
-0.006522
-0.006522
-0.006522
-0.006522
-0.006522
-0.006522
-0.006522
-0.006522
-0.006522
-0.006522
-0.006522
-0.006522
-0.006522
-0.006522
-0.006522
-0.006522
-0.006522
-0.006522
-0.006522
-0.006522
-0.006522
-0.006522
-0.006522
-0.006522
-0.006522
-0.006522
-0.006522
-0.006522
-0.006522
-0.006522
-0.006522
-0.006522
-0.006522
-0.006522
-0.006522
-0.006522
-0.006522
-0.006522
-0.006522
-0.006522
-0.006522
-0.006522
-0.006522
-0.006522
-0.006522
-0.006522
-0.006522
-0.006522
-0.006522
-0.006522
-0.006522
-0.006522
-0.006522
-0.006522
-0.006522
-0.006522
-0.006522
-0.006522
-0.006522
-0.006522
-0.006522
-0.006522
-0.006522
-0.006522
-0.006522
-0.006522
-0.006522
-0.006522
-0.006522
-0.006522
-0.006522
-0.006522
-0.006522
-0.006522
-0.006522
-0.006522
-0.006522
-0.006522
-0.006522
-0.006522
-0.006522
-0.006522
-0.006522
-0.006522
-0.006522
-0.006522
-0.006522
-0.006522
-0.006522
-0.006522
-0.006522
-0.006522
-0.006522
-0.006522
-0.006522
-0.006522
-0.006522
-0.006522
-0.006522
-0.006522
-0.006522
-0.006522
-0.006522
-0.006522
-0.006522
-0.006522
-0.006522
-0.006522
-0.006522
-0.006522
-0.006522
-0.006522
-0.006522
-0.006522
-0.006522
-0.006522
-0.006522
-0.006522
-0.006522
-0.006522
-0.006522
-0.006522
-0.006522
-0.006522
-0.006522
-0.006522
-0.006522
-0.006522
-0.006522
-0.006522
-0.006522
-0.006522
-0.006522
-0.006522
-0.006522
-0.006522
-0.006522
-0.006522
-0.006522
-0.006522
-0.006522
-0.006522
-0.006522
-0.006522
-0.006522
-0.006522
-0.006522
-0.006522
-0.006522
-0.006522
-0.006522
-0.006522
-0.006522
-0.006522
-0.006522
-0.006522
-0.006522
-0.006522
-0.006522
-0.006522
-0.006522
-0.006522
-0.006522
-0.006522
-0.006522
-0.006522
-0.006522
-0.006522
-0.006522
-0.006522
-0.006522
-0.006522
-0.006522
-0.006522
-0.006522
-0.006522
-0.006522
-0.006522
-0.006522
-0.006522
-0.006522
-0.006522
-0.006522
-0.006522
-0.006522
-0.006522
-0.006522
-0.006522
-0.006522
-0.006522
-0.006522
-0.006522
-0.006522
-0.006522
-0.006522
-0.006522
-0.006522
-0.006522
-0.006522
-0.006522
-0.006522
-0.006522
-0.006522
-0.006522
-0.006522
-0.006522
-0.006522
-0.006522
-0.006522
-0.006522
-0.006522
-0.006522
-0.006522
-0.006522
-0.006522
-0.006522
-0.006522
-0.006522
-0.006522
-0.006522
-0.006522
-0.006522
-0.006522
-0.006522
-0.006522
-0.006522
-0.006522
-0.006522
-0.006522
-0.006522
-0.006522
-0.006522
-0.006522
-0.006522
-0.006522
-0.006522
-0.006522
-0.006522
-0.006522
-0.006522
-0.006522
-0.006522
-0.006522
-0.006522
-0.006522
-0.006522
-0.006522
-0.006522
-0.006522
-0.006522
-0.006522
-0.006522
-0.006522
-0.006522
-0.006522
-0.006522
-0.006522
-0.006522
-0.006522
-0.006522
-0.006522
-0.006522
-0.006522
-0.006522
-0.006522
-0.006522
-0.006522
-0.006522
-0.006522
-0.006522
-0.006522
-0.006522
-0.006522
-0.006522
-0.006522
-0.006522
-0.006522
-0.006522
-0.006522
-0.006522
-0.006522
-0.006522
-0.006522
-0.006522
-0.006522
-0.006522
-0.006522
-0.006522
-0.006522
-0.006522
-0.006522
-0.006522
-0.006522
-0.006522
-0.006522
-0.006522
-0.006522
-0.006522
-0.006522
-0.006522
-0.006522
-0.006522
-0.006522
-0.006522
-0.006522
-0.006522
-0.006522
-0.006522
-0.006522
-0.006522
-0.006522
-0.006522
-0.006522
-0.006522
-0.006522
-0.006522
-0.006522
-0.006522
-0.006522
-0.006522
-0.006522
-0.006522
-0.006522
-0.006522
-0.006522
-0.006522
-0.006522
-0.006522
-0.006522
-0.006522
-0.006522
-0.006522
-0.006522
-0.006522
-0.006522
-0.006522
-0.006522
-0.006522
-0.006522
-0.006522
-0.006522
-0.006522
-0.006522
-0.006522
-0.006522
-0.006522
-0.006522
-0.006522
-0.006522
-0.006522
-0.006522
-0.006522
-0.006522
-0.006522
-0.006522
-0.006522
-0.006522
-0.006522
-0.006522
-0.006522
-0.006522
-0.006522
-0.006522
-0.006522
-0.006522
-0.006522
-0.006522
-0.006522
-0.006522
-0.006522
-0.006522
-0.006522
-0.006522
-0.006522
-0.006522
-0.006522
-0.006522
-0.006522
-0.006522
-0.006522
-0.006522
-0.006522
-0.006522
-0.006522
-0.006522
-0.006522
-0.006522
-0.006522
-0.006522
-0.006522
-0.006522
-0.006522
-0.006522
-0.006522
-0.006522
-0.006522
-0.006522
-0.006522
-0.006522
-0.006522
-0.006522
-0.006522
-0.006522
-0.006522
-0.006522
-0.006522
-0.006522
-0.006522
-0.006522
-0.006522
-0.006522
-0.006522
-0.006522
-0.006522
-0.006522
-0.006522
-0.006522
-0.006522
-0.006522
-0.006522
-0.006522
-0.006522
-0.006522
-0.006522
-0.006522
-0.006522
-0.006522
-0.006522
-0.006522
-0.006522
-0.006522
-0.006522
-0.006522
-0.006522
-0.006522
-0.006522
-0.006522
-0.006522
-0.006522
-0.006522
-0.006522
-0.006522
-0.006522
-0.006522
-0.006522
-0.006522
-0.006522
-0.006522
-0.006522
-0.006522
-0.006522
-0.006522
-0.006522
-0.006522
-0.006522
-0.006522
-0.006522
-0.006522
-0.006522
-0.006522
-0.006522
-0.006522
-0.006522
-0.006522
-0.006522
-0.006522
-0.006522
-0.006522
-0.006522
-0.006522
-0.006522
-0.006522
-0.006522
-0.006522
-0.006522
-0.006522
-0.006522
-0.006522
-0.006522
-0.006522
-0.006522
-0.006522
-0.006522
-0.006522
-0.006522
-0.006522
-0.006522
-0.006522
-0.006522
-0.006522
-0.006522
-0.006522
-0.006522
-0.006522
-0.006522
-0.006522
-0.006522
-0.006522
-0.006522
-0.006522
-0.006522
-0.006522
-0.006522
-0.006522
-0.006522
-0.006522
-0.006522
-0.006522
-0.006522
-0.006522
-0.006522
-0.006522
-0.006522
-0.006522
-0.006522
-0.006522
-0.006522
-0.006522
-0.006522
-0.006522
-0.006522
-0.006522
-0.006522
-0.006522
-0.006522
-0.006522
-0.006522
-0.006522
-0.006522
-0.006522
-0.006522
-0.006522
-0.006522
-0.006522
-0.006522
-0.006522
-0.006522
-0.006522
-0.006522
-0.006522
-0.006522
-0.006522
-0.006522
-0.006522
-0.006522
-0.006522
-0.006522
-0.006522
-0.006522
-0.006522
-0.006522
-0.006522
-0.006522
-0.006522
-0.006522
-0.006522
-0.006522
-0.006522
-0.006522
-0.006522
-0.006522
-0.006522
-0.006522
-0.006522
-0.006522
-0.006522
-0.006522
-0.006522
-0.006522
-0.006522
-0.006522
-0.006522
-0.006522
-0.006522
-0.006522
-0.006522
-0.006522
-0.006522
-0.006522
-0.006522
-0.006522
-0.006522
-0.006522
-0.006522
-0.006522
-0.006522
-0.006522
-0.006522
-0.006522
-0.006522
-0.006522
-0.006522
-0.006522
-0.006522
-0.006522
-0.006522
-0.006522
-0.006522
-0.006522
-0.006522
-0.006522
-0.006522
-0.006522
-0.006522
-0.006522
-0.006522
-0.006522
-0.006522
-0.006522
-0.006522
-0.006522
-0.006522
-0.006522
-0.006522
-0.006522
-0.006522
-0.006522
-0.006522
-0.006522
-0.006522
-0.006522
-0.006522
-0.006522
-0.006522
-0.006522
-0.006522
-0.006522
-0.006522
-0.006522
-0.006522
-0.006522
-0.006522
-0.006522
-0.006522
-0.006522
-0.006522
-0.006522
-0.006522
-0.006522
-0.006522
-0.006522
-0.006522
-0.006522
-0.006522
-0.006522
-0.006522
-0.006522
-0.006522
-0.006522
-0.006522
-0.006522
-0.006522
SCALARS strain_2 float
LOOKUP_TABLE default
0.030198
0.030198
0.030198
0.030198
0.030198
0.030198
0.030198
0.030198
0.030198
0.030198
0.030198
0.030198
0.030198
0.030198
0.030198
0.030198
0.030198
0.030198
0.030198
0.030198
0.030198
0.030198
0.030198
0.030198
0.030198
0.030198
0.030198
0.030198
0.030198
0.030198
0.030198
0.030198
0.030198
0.030198
0.030198
0.030198
0.030198
0.030198
0.030198
0.030198
0.030198
0.030198
0.030198
0.030198
0.030198
0.030198
0.030198
0.030198
0.030198
0.030198
0.030198
0.030198
0.030198
0.030198
0.030198
0.030198
0.030198
0.030198
0.030198
0.030198
0.030198
0.030198
0.030198
0.030198
0.030198
0.030198
0.030198
0.030198
0.030198
0.030198
0.030198
0.030198
0.030198
0.030198
0.030198
0.030198
0.030198
0.030198
0.030198
0.030198
0.030198
0.030198
0.030198
0.030198
0.030198
0.030198
0.030198
0.030198
0.030198
0.030198
0.030198
0.030198
0.030198
0.030198
0.030198
0.030198
0.030198
0.030198
0.030198
0.030198
0.030198
0.030198
0.030198
0.030198
0.030198
0.030198
0.030198
0.030198
0.030198
0.030198
0.030198
0.030198
0.030198
0.030198
0.030198
0.030198
0.030198
0.030198
0.030198
0.030198
0.030198
0.030198
0.030198
0.030198
0.030198
0.030198
0.030198
0.030198
0.030198
0.030198
0.030198
0.030198
0.030198
0.030198
0.030198
0.030198
0.030198
0.030198
0.030198
0.030198
0.030198
0.030198
0.030198
0.030198
0.030198
0.030198
0.030198
0.030198
0.030198
0.030198
0.030198
0.030198
0.030198
0.030198
0.030198
0.030198
0.030198
0.030198
0.030198
0.030198
0.030198
0.030198
0.030198
0.030198
0.030198
0.030198
0.030198
0.030198
0.030198
0.030198
0.030198
0.030198
0.030198
0.030198
0.030198
0.030198
0.030198
0.030198
0.030198
0.030198
0.030198
0.030198
0.030198
0.030198
0.030198
0.030198
0.030198
0.030198
0.030198
0.030198
0.030198
0.030198
0.030198
0.030198
0.030198
0.030198
0.030198
0.030198
0.030198
0.030198
0.030198
0.030198
0.030198
0.030198
0.030198
0.030198
0.030198
0.030198
0.030198
0.030198
0.030198
0.030198
0.030198
0.030198
0.030198
0.030198
0.030198
0.030198
0.030198
0.030198
0.030198
0.030198
0.030198
0.030198
0.030198
0.030198
0.030198
0.030198
0.030198
0.030198
0.030198
0.030198
0.030198
0.030198
0.030198
0.030198
0.030198
0.030198
0.030198
0.030198
0.030198
0.030198
0.030198
0.030198
0.030198
0.030198
0.030198
0.030198
0.030198
0.030198
0.030198
0.030198
0.030198
0.030198
0.030198
0.030198
0.030198
0.030198
0.030198
0.030198
0.030198
0.030198
0.030198
0.030198
0.030198
0.030198
0.030198
0.030198
0.030198
0.030198
0.030198
0.030198
0.030198
0.030198
0.030198
0.030198
0.030198
0.030198
0.030198
0.030198
0.030198
0.030198
0.030198
0.030198
0.030198
0.030198
0.030198
0.030198
0.030198
0.030198
0.030198
0.030198
0.030198
0.030198
0.030198
0.030198
0.030198
0.030198
0.030198
0.030198
0.030198
0.030198
0.030198
0.030198
0.030198
0.030198
0.030198
0.030198
0.030198
0.030198
0.030198
0.030198
0.030198
0.030198
0.030198
0.030198
0.030198
0.030198
0.030198
0.030198
0.030198
0.030198
0.030198
0.030198
0.030198
0.030198
0.030198
0.030198
0.030198
0.030198
0.030198
0.030198
0.030198
0.030198
0.030198
0.030198
0.030198
0.030198
0.030198
0.030198
0.030198
0.030198
0.030198
0.030198
0.030198
0.030198
0.030198
0.030198
0.030198
0.030198
0.030198
0.030198
0.030198
0.030198
0.030198
0.030198
0.030198
0.030198
0.030198
0.030198
0.030198
0.030198
0.030198
0.030198
0.030198
0.030198
0.030198
0.030198
0.030198
0.030198
0.030198
0.030198
0.030198
0.030198
0.030198
0.030198
0.030198
0.030198
0.030198
0.030198
0.030198
0.030198
0.030198
0.030198
0.030198
0.030198
0.030198
0.030198
0.030198
0.030198
0.030198
0.030198
0.030198
0.030198
0.030198
0.030198
0.030198
0.030198
0.030198
0.030198
0.030198
0.030198
0.030198
0.030198
0.030198
0.030198
0.030198
0.030198
0.030198
0.030198
0.030198
0.030198
0.030198
0.030198
0.030198
0.030198
0.030198
0.030198
0.030198
0.030198
0.030198
0.030198
0.030198
0.030198
0.030198
0.030198
0.030198
0.030198
0.030198
0.030198
0.030198
0.030198
0.030198
0.030198
0.030198
0.030198
0.030198
0.030198
0.030198
0.030198
0.030198
0.030198
0.030198
0.030198
0.030198
0.030198
0.030198
0.030198
0.030198
0.030198
0.030198
0.030198
0.030198
0.030198
0.030198
0.030198
0.030198
0.030198
0.030198
0.030198
0.030198
0.030198
0.030198
0.030198
0.030198
0.030198
0.030198
0.030198
0.030198
0.030198
0.030198
0.030198
0.030198
0.030198
0.030198
0.030198
0.030198
0.030198
0.030198
0.030198
0.030198
0.030198
0.030198
0.030198
0.030198
0.030198
0.030198
0.030198
0.030198
0.030198
0.030198
0.030198
0.030198
0.030198
0.030198
0.030198
0.030198
0.030198
0.030198
0.030198
0.030198
0.030198
0.030198
0.030198
0.030198
0.030198
0.030198
0.030198
0.030198
0.030198
0.030198
0.030198
0.030198
0.030198
0.030198
0.030198
0.030198
0.030198
0.030198
0.030198
0.030198
0.030198
0.030198
0.030198
0.030198
0.030198
0.030198
0.030198
0.030198
0.030198
0.030198
0.030198
0.030198
0.030198
0.030198
0.030198
0.030198
0.030198
0.030198
0.030198
0.030198
0.030198
0.030198
0.030198
0.030198
0.030198
0.030198
0.030198
0.030198
0.030198
0.030198
0.030198
0.030198
0.030198
0.030198
0.030198
0.030198
0.030198
0.030198
0.030198
0.030198
0.030198
0.030198
0.030198
0.030198
0.030198
0.030198
0.030198
0.030198
0.030198
0.030198
0.030198
0.030198
0.030198
0.030198
0.030198
0.030198
0.030198
0.030198
0.030198
0.030198
0.030198
0.030198
0.030198
0.030198
0.030198
0.030198
0.030198
0.030198
0.030198
0.030198
0.030198
0.030198
0.030198
0.030198
0.030198
0.030198
0.030198
0.030198
0.030198
0.030198
0.030198
0.030198
0.030198
0.030198
0.030198
0.030198
0.030198
0.030198
0.030198
0.030198
0.030198
0.030198
0.030198
0.030198
0.030198
0.030198
0.030198
0.030198
0.030198
0.030198
0.030198
0.030198
0.030198
0.030198
0.030198
0.030198
0.030198
0.030198
0.030198
0.030198
0.030198
0.030198
0.030198
0.030198
0.030198
0.030198
0.030198
0.030198
0.030198
0.030198
0.030198
0.030198
0.030198
0.030198
0.030198
0.030198
0.030198
0.030198
0.030198
0.030198
0.030198
0.030198
0.030198
0.030198
0.030198
0.030198
0.030198
0.030198
0.030198
0.030198
0.030198
0.030198
0.030198
0.030198
0.030198
0.030198
0.030198
0.030198
0.030198
0.030198
0.030198
0.030198
0.030198
0.030198
0.030198
0.030198
0.030198
0.030198
0.030198
0.030198
0.030198
0.030198
0.030198
0.030198
0.030198
0.030198
0.030198
0.030198
0.030198
0.030198
0.030198
0.030198
0.030198
0.030198
0.030198
0.030198
0.030198
0.030198
0.030198
0.030198
0.030198
0.030198
0.030198
0.030198
0.030198
0.030198
0.030198
0.030198
0.030198
0.030198
0.030198
0.030198
0.030198
0.030198
0.030198
0.030198
0.030198
0.030198
0.030198
0.030198
0.030198
0.030198
0.030198
0.030198
0.030198
0.030198
0.030198
0.030198
0.030198
0.030198
0.030198
0.030198
0.030198
0.030198
0.030198
0.030198
0.030198
0.030198
0.030198
0.030198
0.030198
0.030198
0.030198
0.030198
0.030198
0.030198
0.030198
0.030198
0.030198
0.030198
0.030198
0.030198
0.030198
0.030198
0.030198
0.030198
0.030198
0.030198
0.030198
0.030198
0.030198
0.030198
0.030198
0.030198
0.030198
0.030198
0.030198
0.030198
0.030198
0.030198
0.030198
0.030198
0.030198
0.030198
0.030198
0.030198
0.030198
0.030198
0.030198
0.030198
0.030198
0.030198
0.030198
0.030198
0.030198
0.030198
0.030198
0.030198
0.030198
0.030198
0.030198
0.030198
0.030198
0.030198
0.030198
0.030198
0.030198
0.030198
0.030198
0.030198
0.030198
0.030198
0.030198
0.030198
0.030198
0.030198
0.030198
0.030198
0.030198
0.030198
0.030198
0.030198
0.030198
0.030198
0.030198
0.030198
0.030198
0.030198
0.030198
0.030198
0.030198
0.030198
0.030198
0.030198
0.030198
0.030198
0.030198
0.030198
0.030198
0.030198
0.030198
0.030198
0.030198
0.030198
0.030198
0.030198
0.030198
0.030198
0.030198
0.030198
0.030198
0.030198
0.030198
0.030198
0.030198
0.030198
0.030198
0.030198
0.030198
0.030198
0.030198
0.030198
0.030198
0.030198
0.030198
0.030198
0.030198
0.030198
0.030198
0.030198
0.030198
0.030198
0.030198
0.030198
0.030198
0.030198
0.030198
0.030198
0.030198
0.030198
0.030198
0.030198
0.030198
0.030198
0.030198
0.030198
0.030198
0.030198
0.030198
0.030198
0.030198
0.030198
0.030198
0.030198
0.030198
0.030198
0.030198
0.030198
0.030198
0.030198
SCALARS strain_3 float
LOOKUP_TABLE default
0.000000
0.000000
0.000000
0.000000
0.000000
0.000000
0.000000
0.000000
0.000000
0.000000
0.000000
0.000000
0.000000
0.000000
0.000000
0.000000
0.000000
0.000000
0.000000
0.000000
0.000000
0.000000
0.000000
0.000000
0.000000
0.000000
0.000000
0.000000
0.000000
0.000000
0.000000
0.000000
0.000000
0.000000
0.000000
0.000000
0.000000
0.000000
0.000000
0.000000
0.000000
0.000000
0.000000
0.000000
0.000000
0.000000
0.000000
0.000000
0.000000
0.000000
0.000000
0.000000
0.000000
0.000000
0.000000
0.000000
0.000000
0.000000
0.000000
0.000000
0.000000
0.000000
0.000000
0.000000
0.000000
0.000000
0.000000
0.000000
0.000000
0.000000
0.000000
0.000000
0.000000
0.000000
0.000000
0.000000
0.000000
0.000000
0.000000
0.000000
0.000000
0.000000
-0.000000
-0.000000
0.000000
0.000000
0.000000
0.000000
0.000000
0.000000
0.000000
0.000000
0.000000
0.000000
0.000000
0.000000
0.000000
0.000000
0.000000
0.000000
0.000000
0.000000
0.000000
0.000000
0.000000
0.000000
0.000000
0.000000
0.000000
0.000000
0.000000
0.000000
0.000000
0.000000
0.000000
0.000000
0.000000
0.000000
0.000000
0.000000
0.000000
0.000000
0.000000
0.000000
0.000000
0.000000
0.000000
0.000000
0.000000
0.000000
0.000000
0.000000
0.000000
0.000000
0.000000
0.000000
0.000000
0.000000
0.000000
0.000000
0.000000
0.000000
0.000000
0.000000
0.000000
0.000000
0.000000
0.000000
0.000000
0.000000
0.000000
0.000000
0.000000
0.000000
0.000000
0.000000
0.000000
0.000000
0.000000
0.000000
0.000000
0.000000
0.000000
0.000000
0.000000
0.000000
0.000000
0.000000
0.000000
0.000000
0.000000
0.000000
0.000000
0.000000
0.000000
-0.000000
-0.000000
-0.000000
-0.000000
-0.000000
-0.000000
-0.000000
0.000000
0.000000
0.000000
0.000000
0.000000
0.000000
0.000000
0.000000
0.000000
0.000000
0.000000
0.000000
0.000000
0.000000
0.000000
0.000000
0.000000
0.000000
0.000000
0.000000
0.000000
0.000000
0.000000
0.000000
0.000000
0.000000
0.000000
0.000000
0.000000
0.000000
0.000000
0.000000
0.000000
0.000000
0.000000
0.000000
0.000000
0.000000
0.000000
0.000000
0.000000
0.000000
0.000000
0.000000
0.000000
0.000000
0.000000
0.000000
0.000000
0.000000
0.000000
0.000000
0.000000
0.000000
0.000000
0.000000
0.000000
0.000000
0.000000
0.000000
0.000000
0.000000
0.000000
0.000000
0.000000
0.000000
0.000000
0.000000
0.000000
0.000000
0.000000
0.000000
0.000000
0.000000
0.000000
0.000000
0.000000
0.000000
0.000000
0.000000
0.000000
0.000000
0.000000
0.000000
0.000000
0.000000
0.000000
0.000000
0.000000
0.000000
0.000000
0.000000
0.000000
0.000000
0.000000
0.000000
0.000000
0.000000
0.000000
0.000000
0.000000
0.000000
0.000000
0.000000
0.000000
0.000000
0.000000
0.000000
0.000000
0.000000
0.000000
0.000000
0.000000
0.000000
0.000000
0.000000
0.000000
0.000000
0.000000
0.000000
0.000000
0.000000
0.000000
0.000000
0.000000
0.000000
0.000000
0.000000
0.000000
0.000000
0.000000
0.000000
0.000000
0.000000
0.000000
0.000000
0.000000
0.000000
0.000000
0.000000
0.000000
0.000000
0.000000
0.000000
0.000000
0.000000
0.000000
0.000000
0.000000
0.000000
0.000000
0.000000
0.000000
0.000000
0.000000
0.000000
0.000000
0.000000
0.000000
0.000000
0.000000
0.000000
0.000000
0.000000
0.000000
0.000000
0.000000
0.000000
0.000000
0.000000
0.000000
0.000000
0.000000
0.000000
0.000000
0.000000
0.000000
0.000000
0.000000
0.000000
0.000000
0.000000
0.000000
0.000000
0.000000
0.000000
0.000000
0.000000
0.000000
0.000000
0.000000
0.000000
0.000000
0.000000
0.000000
0.000000
0.000000
0.000000
0.000000
0.000000
0.000000
0.000000
0.000000
0.000000
0.000000
0.000000
0.000000
0.000000
0.000000
0.000000
0.000000
0.000000
0.000000
0.000000
0.000000
0.000000
0.000000
0.000000
0.000000
0.000000
0.000000
0.000000
0.000000
0.000000
0.000000
0.000000
0.000000
0.000000
0.000000
0.000000
0.000000
0.000000
0.000000
0.000000
0.000000
0.000000
0.000000
0.000000
0.000000
0.000000
0.000000
0.000000
0.000000
0.000000
0.000000
0.000000
0.000000
0.000000
0.000000
0.000000
0.000000
0.000000
0.000000
0.000000
0.000000
0.000000
0.000000
0.000000
0.000000
0.000000
0.000000
0.000000
0.000000
0.000000
0.000000
0.000000
0.000000
0.000000
0.000000
0.000000
0.000000
0.000000
0.000000
0.000000
0.000000
0.000000
0.000000
0.000000
0.000000
0.000000
0.000000
0.000000
0.000000
0.000000
0.000000
0.000000
0.000000
0.000000
0.000000
0.000000
0.000000
0.000000
0.000000
0.000000
0.000000
0.000000
0.000000
0.000000
0.000000
0.000000
0.000000
0.000000
0.000000
0.000000
0.000000
0.000000
0.000000
0.000000
0.000000
0.000000
0.000000
0.000000
0.000000
0.000000
0.000000
0.000000
0.000000
0.000000
0.000000
0.000000
0.000000
0.000000
0.000000
0.000000
0.000000
0.000000
0.000000
0.000000
0.000000
0.000000
0.000000
0.000000
0.000000
0.000000
0.000000
0.000000
0.000000
0.000000
0.000000
0.000000
0.000000
0.000000
0.000000
0.000000
0.000000
0.000000
0.000000
0.000000
0.000000
0.000000
0.000000
0.000000
0.000000
0.000000
0.000000
0.000000
0.000000
0.000000
0.000000
0.000000
0.000000
0.000000
0.000000
0.000000
0.000000
0.000000
0.000000
0.000000
0.000000
0.000000
0.000000
0.000000
0.000000
0.000000
0.000000
0.000000
0.000000
0.000000
0.000000
0.000000
0.000000
0.000000
0.000000
0.000000
0.000000
0.000000
0.000000
0.000000
0.000000
0.000000
0.000000
0.000000
0.000000
0.000000
0.000000
0.000000
0.000000
0.000000
0.000000
0.000000
0.000000
0.000000
0.000000
0.000000
0.000000
0.000000
0.000000
0.000000
0.000000
0.000000
0.000000
0.000000
0.000000
0.000000
0.000000
0.000000
0.000000
0.000000
0.000000
0.000000
0.000000
0.000000
0.000000
0.000000
0.000000
0.000000
0.000000
0.000000
0.000000
0.000000
0.000000
0.000000
0.000000
0.000000
0.000000
0.000000
0.000000
0.000000
0.000000
0.000000
0.000000
0.000000
0.000000
0.000000
0.000000
0.000000
0.000000
0.000000
0.000000
0.000000
0.000000
0.000000
0.000000
0.000000
0.000000
0.000000
0.000000
0.000000
0.000000
0.000000
0.000000
0.000000
0.000000
0.000000
0.000000
0.000000
0.000000
0.000000
0.000000
0.000000
0.000000
0.000000
0.000000
0.000000
0.000000
0.000000
0.000000
0.000000
0.000000
0.000000
0.000000
0.000000
0.000000
0.000000
0.000000
0.000000
0.000000
0.000000
0.000000
0.000000
0.000000
0.000000
0.000000
0.000000
0.000000
0.000000
0.000000
0.000000
0.000000
0.000000
0.000000
0.000000
0.000000
0.000000
0.000000
0.000000
0.000000
0.000000
0.000000
0.000000
0.000000
0.000000
0.000000
0.000000
0.000000
0.000000
0.000000
0.000000
0.000000
0.000000
0.000000
0.000000
0.000000
0.000000
0.000000
0.000000
0.000000
0.000000
0.000000
0.000000
0.000000
0.000000
0.000000
0.000000
0.000000
0.000000
0.000000
0.000000
0.000000
0.000000
0.000000
0.000000
0.000000
0.000000
0.000000
0.000000
0.000000
0.000000
0.000000
0.000000
0.000000
0.000000
0.000000
0.000000
0.000000
0.000000
0.000000
0.000000
0.000000
0.000000
0.000000
0.000000
0.000000
0.000000
0.000000
0.000000
0.000000
0.000000
0.000000
0.000000
0.000000
0.000000
0.000000
0.000000
0.000000
0.000000
0.000000
0.000000
0.000000
0.000000
0.000000
0.000000
0.000000
0.000000
0.000000
0.000000
0.000000
0.000000
0.000000
0.000000
0.000000
0.000000
0.000000
0.000000
0.000000
0.000000
0.000000
0.000000
0.000000
0.000000
0.000000
0.000000
0.000000
0.000000
0.000000
0.000000
0.000000
0.000000
0.000000
0.000000
0.000000
0.000000
0.000000
0.000000
0.000000
0.000000
0.000000
0.000000
0.000000
0.000000
0.000000
0.000000
0.000000
0.000000
0.000000
0.000000
0.000000
0.000000
0.000000
0.000000
0.000000
0.000000
0.000000
0.000000
0.000000
0.000000
0.000000
0.000000
0.000000
0.000000
0.000000
0.000000
0.000000
0.000000
0.000000
0.000000
0.000000
0.000000
0.000000
0.000000
0.000000
0.000000
0.000000
0.000000
0.000000
0.000000
0.000000
0.000000
0.000000
0.000000
0.000000
0.000000
0.000000
0.000000
0.000000
0.000000
0.000000
0.000000
0.000000
0.000000
0.000000
0.000000
0.000000
0.000000
0.000000
0.000000
0.000000
0.000000
0.000000
0.000000
0.000000
0.000000
0.000000
0.000000
0.000000
0.000000
0.000000
0.000000
0.000000
0.000000
0.000000
0.000000
0.000000
0.000000
0.000000
0.000000
0.000000
0.000000
0.000000
0.000000
0.000000
0.000000
0.000000
0.000000
0.000000
0.000000
0.000000
0.000000
0.000000
SCALARS stress_1 float
LOOKUP_TABLE default
-0.115637
-0.174751
-0.173753
-0.172763
-0.171775
-0.170768
-0.169776
-0.168748
-0.167756
-0.166731
-0.165724
-0.164700
-0.163683
-0.162676
-0.161663
-0.160633
-0.159622
-0.158605
-0.157579
-0.156579
-0.155568
-0.154561
-0.153533
-0.152543
-0.151539
-0.150540
-0.149531
-0.148554
-0.147562
-0.146616
-0.145647
-0.144649
-0.143703
-0.142759
-0.141814
-0.140889
-0.139971
-0.139044
-0.138155
-0.137276
-0.136397
-0.135525
-0.134674
-0.133827
-0.133005
-0.132205
-0.131418
-0.130626
-0.129851
-0.129102
-0.128363
-0.127658
-0.126950
-0.126292
-0.125618
-0.124970
-0.124355
-0.123747
-0.123170
-0.122587
-0.122056
-0.121532
-0.121024
-0.120557
-0.120103
-0.119654
-0.119261
-0.118851
-0.118496
-0.118149
-0.117807
-0.117508
-0.117242
-0.116962
-0.116720
-0.116508
-0.116290
-0.116126
-0.115977
-0.115843
-0.115723
-0.175961
-0.115430
-0.115550
-0.115714
-0.115865
-0.116041
-0.116243
-0.116455
-0.116718
-0.116987
-0.117258
-0.117566
-0.117894
-0.118249
-0.118607
-0.119018
-0.119455
-0.119888
-0.120353
-0.120830
-0.121330
-0.121864
-0.122393
-0.122996
-0.123551
-0.124177
-0.124808
-0.125441
-0.126121
-0.126784
-0.127492
-0.128217
-0.128957
-0.129726
-0.130482
-0.131256
-0.132088
-0.132872
-0.133707
-0.134573
-0.135443
-0.136302
-0.137177
-0.138070
-0.138976
-0.139905
-0.140832
-0.141782
-0.142715
-0.143677
-0.144629
-0.145590
-0.146590
-0.147584
-0.148553
-0.149552
-0.150563
-0.151555
-0.152572
-0.153581
-0.154605
-0.155624
-0.156643
-0.157671
-0.158692
-0.159712
-0.160746
-0.161772
-0.162789
-0.163836
-0.164832
-0.165876
-0.166890
-0.167920
-0.168926
-0.169933
-0.170946
-0.171951
-0.172970
-0.173979
-0.174967
-0.175821
-0.175709
-0.175587
-0.175479
-0.175335
-0.175229
-0.175125
-0.174979
-0.174863
-0.115593
-0.115586
-0.115564
-0.115528
-0.115531
-0.115503
-0.115501
-0.115477
-0.115450
-0.115564
-0.115588
-0.115600
-0.115629
-0.115643
-0.115642
-0.115652
-0.115678
-0.115709
-0.115709
-0.115706
-0.115715
-0.115755
-0.115756
-0.115783
-0.115784
-0.115806
-0.115822
-0.115864
-0.115880
-0.115890
-0.115883
-0.115899
-0.115908
-0.115933
-0.115947
-0.115961
-0.116051
-0.116054
-0.116060
-0.116065
-0.116071
-0.116079
-0.116091
-0.116094
-0.116099
-0.116234
-0.116248
-0.116249
-0.116248
-0.116256
-0.116263
-0.116271
-0.116294
-0.116299
-0.116467
-0.116460
-0.116472
-0.116473
-0.116470
-0.116459
-0.116473
-0.116482
-0.116486
-0.116700
-0.116708
-0.116698
-0.116706
-0.116699
-0.116711
-0.116731
-0.116716
-0.116717
-0.116963
-0.116970
-0.116967
-0.116954
-0.116960
-0.116969
-0.116966
-0.116947
-0.116940
-0.117274
-0.117256
-0.117249
-0.117244
-0.117241
-0.117228
-0.117216
-0.117214
-0.117215
-0.117564
-0.117542
-0.117531
-0.117544
-0.117520
-0.117518
-0.117519
-0.117497
-0.117501
-0.117895
-0.117880
-0.117871
-0.117855
-0.117863
-0.117843
-0.117836
-0.117825
-0.117824
-0.118244
-0.118220
-0.118215
-0.118200
-0.118187
-0.118163
-0.118168
-0.118159
-0.118141
-0.118612
-0.118601
-0.118577
-0.118555
-0.118563
-0.118524
-0.118509
-0.118516
-0.118503
-0.118997
-0.118985
-0.118976
-0.118944
-0.118928
-0.118913
-0.118916
-0.118886
-0.118873
-0.119446
-0.119397
-0.119382
-0.119360
-0.119344
-0.119312
-0.119316
-0.119288
-0.119257
-0.119867
-0.119836
-0.119802
-0.119776
-0.119758
-0.119749
-0.119727
-0.119706
-0.119680
-0.120318
-0.120282
-0.120262
-0.120228
-0.120217
-0.120186
-0.120167
-0.120141
-0.120115
-0.120791
-0.120767
-0.120741
-0.120717
-0.120677
-0.120649
-0.120627
-0.120609
-0.120577
-0.121300
-0.121267
-0.121231
-0.121211
-0.121169
-0.121159
-0.121129
-0.121090
-0.121056
-0.121829
-0.121772
-0.121760
-0.121716
-0.121690
-0.121657
-0.121629
-0.121612
-0.121573
-0.122372
-0.122350
-0.122298
-0.122258
-0.122223
-0.122199
-0.122157
-0.122112
-0.122086
-0.122941
-0.122896
-0.122851
-0.122806
-0.122785
-0.122737
-0.122709
-0.122681
-0.122649
-0.123498
-0.123493
-0.123437
-0.123388
-0.123352
-0.123320
-0.123285
-0.123236
-0.123212
-0.124107
-0.124094
-0.124043
-0.123992
-0.123961
-0.123912
-0.123867
-0.123837
-0.123780
-0.124759
-0.124710
-0.124650
-0.124607
-0.124567
-0.124505
-0.124490
-0.124449
-0.124395
-0.125402
-0.125347
-0.125289
-0.125242
-0.125201
-0.125169
-0.125097
-0.125060
-0.125013
-0.126056
-0.126013
-0.125947
-0.125900
-0.125849
-0.125812
-0.125774
-0.125706
-0.125682
-0.126747
-0.126685
-0.126626
-0.126579
-0.126525
-0.126483
-0.126429
-0.126378
-0.126329
-0.127438
-0.127373
-0.127328
-0.127253
-0.127223
-0.127159
-0.127110
-0.127067
-0.126991
-0.128149
-0.128098
-0.128030
-0.127976
-0.127927
-0.127878
-0.127816
-0.127767
-0.127703
-0.128897
-0.128827
-0.128776
-0.128697
-0.128669
-0.128593
-0.128533
-0.128476
-0.128405
-0.129656
-0.129596
-0.129528
-0.129458
-0.129396
-0.129345
-0.129275
-0.129219
-0.129158
-0.130423
-0.130363
-0.130287
-0.130210
-0.130168
-0.130102
-0.130042
-0.129980
-0.129912
-0.131190
-0.131145
-0.131056
-0.130998
-0.130924
-0.130869
-0.130816
-0.130754
-0.130690
-0.131978
-0.131925
-0.131865
-0.131793
-0.131727
-0.131653
-0.131589
-0.131557
-0.131461
-0.132827
-0.132753
-0.132672
-0.132598
-0.132526
-0.132462
-0.132392
-0.132324
-0.132256
-0.133651
-0.133579
-0.133503
-0.133430
-0.133358
-0.133277
-0.133209
-0.133129
-0.133075
-0.134490
-0.134426
-0.134343
-0.134263
-0.134192
-0.134122
-0.134046
-0.133963
-0.133901
-0.135353
-0.135277
-0.135190
-0.135110
-0.135039
-0.134984
-0.134889
-0.134818
-0.134736
-0.136211
-0.136145
-0.136060
-0.135988
-0.135901
-0.135820
-0.135746
-0.135676
-0.135606
-0.137090
-0.137019
-0.136947
-0.136854
-0.136773
-0.136720
-0.136618
-0.136544
-0.136487
-0.137989
-0.137898
-0.137819
-0.137735
-0.137667
-0.137588
-0.137491
-0.137420
-0.137346
-0.138903
-0.138817
-0.138732
-0.138638
-0.138564
-0.138467
-0.138392
-0.138314
-0.138237
-0.139811
-0.139737
-0.139640
-0.139565
-0.139472
-0.139394
-0.139302
-0.139224
-0.139116
-0.140753
-0.140651
-0.140573
-0.140479
-0.140386
-0.140304
-0.140221
-0.140128
-0.140045
-0.141690
-0.141593
-0.141487
-0.141404
-0.141322
-0.141228
-0.141139
-0.141054
-0.140972
-0.142628
-0.142526
-0.142437
-0.142346
-0.142269
-0.142155
-0.142077
-0.142000
-0.141913
-0.143574
-0.143468
-0.143393
-0.143283
-0.143211
-0.143090
-0.143016
-0.142952
-0.142838
-0.144532
-0.144434
-0.144345
-0.144246
-0.144163
-0.144072
-0.143975
-0.143885
-0.143801
-0.145509
-0.145397
-0.145314
-0.145223
-0.145130
-0.145033
-0.144943
-0.144856
-0.144757
-0.146474
-0.146395
-0.146294
-0.146177
-0.146088
-0.146012
-0.145908
-0.145802
-0.145711
-0.147462
-0.147358
-0.147279
-0.147193
-0.147072
-0.146977
-0.146879
-0.146799
-0.146699
-0.148462
-0.148354
-0.148261
-0.148147
-0.148060
-0.147948
-0.147859
-0.147759
-0.147659
-0.149448
-0.149357
-0.149259
-0.149143
-0.149044
-0.148942
-0.148838
-0.148760
-0.148658
-0.150451
-0.150355
-0.150241
-0.150133
-0.150048
-0.149955
-0.149838
-0.149735
-0.149646
-0.151459
-0.151345
-0.151246
-0.151134
-0.151055
-0.150937
-0.150833
-0.150750
-0.150632
-0.152460
-0.152358
-0.152265
-0.152144
-0.152053
-0.151937
-0.151835
-0.151746
-0.151649
-0.153469
-0.153367
-0.153282
-0.153166
-0.153052
-0.152963
-0.152861
-0.152730
-0.152628
-0.154480
-0.154370
-0.154287
-0.154166
-0.154079
-0.153959
-0.153843
-0.153758
-0.153643
-0.155503
-0.155408
-0.155287
-0.155196
-0.155090
-0.154984
-0.154860
-0.154766
-0.154665
-0.156518
-0.156423
-0.156315
-0.156195
-0.156106
-0.155987
-0.155864
-0.155767
-0.155663
-0.157542
-0.157440
-0.157343
-0.157229
-0.157112
-0.156998
-0.156892
-0.156791
-0.156676
-0.158564
-0.158470
-0.158356
-0.158235
-0.158125
-0.158015
-0.157907
-0.157808
-0.157694
-0.159608
-0.159481
-0.159380
-0.159269
-0.159143
-0.159051
-0.158925
-0.158819
-0.158721
-0.160640
-0.160499
-0.160407
-0.160280
-0.160183
-0.160063
-0.159971
-0.159838
-0.159745
-0.161641
-0.161549
-0.161421
-0.161310
-0.161200
-0.161082
-0.160986
-0.160853
-0.160750
-0.162687
-0.162581
-0.162438
-0.162328
-0.162230
-0.162110
-0.161997
-0.161873
-0.161784
-0.163713
-0.163588
-0.163487
-0.163357
-0.163248
-0.163135
-0.163008
-0.162909
-0.162811
-0.164724
-0.164599
-0.164491
-0.164375
-0.164261
-0.164148
-0.164028
-0.163928
-0.163801
-0.165748
-0.165625
-0.165529
-0.165403
-0.165293
-0.165161
-0.165056
-0.164946
-0.164827
-0.166763
-0.166663
-0.166528
-0.166422
-0.166318
-0.166196
-0.166064
-0.165956
-0.165827
-0.167793
-0.167672
-0.167566
-0.167446
-0.167315
-0.167194
-0.167088
-0.166967
-0.166855
-0.168806
-0.168696
-0.168586
-0.168457
-0.168330
-0.168226
-0.168120
-0.167987
-0.167872
-0.169817
-0.169707
-0.169590
-0.169470
-0.169349
-0.169226
-0.169108
-0.168983
-0.168871
-0.170830
-0.170720
-0.170580
-0.170476
-0.170345
-0.170233
-0.170131
-0.170011
-0.169876
-0.171857
-0.171728
-0.171591
-0.171491
-0.171369
-0.171244
-0.171128
-0.171009
-0.170878
-0.172841
-0.172725
-0.172617
-0.172482
-0.172367
-0.172230
-0.172122
-0.171993
-0.171885
-0.173854
-0.173717
-0.173617
-0.173457
-0.173380
-0.173243
-0.173122
-0.172998
-0.172883
-0.174840
-0.174721
-0.174601
-0.174478
-0.174374
-0.174250
-0.174123
-0.174013
-0.173882
SCALARS stress_2 float
LOOKUP_TABLE default
197111.610293
197111.591266
197111.591581
197111.591900
197111.592221
197111.592541
197111.592857
197111.593184
197111.593502
197111.593818
197111.594145
197111.594475
197111.594799
197111.595119
197111.595443
197111.595764
197111.596087
197111.596415
197111.596735
197111.597057
197111.597389
197111.597706
197111.598026
197111.598343
197111.598663
197111.598985
197111.599298
197111.599611
197111.599923
197111.600234
197111.600541
197111.600852
197111.601148
197111.601457
197111.601757
197111.602056
197111.602347
197111.602634
197111.602925
197111.603204
197111.603490
197111.603765
197111.604039
197111.604309
197111.604570
197111.604826
197111.605079
197111.605339
197111.605579
197111.605822
197111.606056
197111.606287
197111.606508
197111.606733
197111.606945
197111.607153
197111.607355
197111.607557
197111.607741
197111.607919
197111.608100
197111.608271
197111.608441
197111.608602
197111.608742
197111.608891
197111.609026
197111.609159
197111.609286
197111.609394
197111.609511
197111.609614
197111.609718
197111.609807
197111.609890
197111.609962
197111.610032
197111.610097
197111.610158
197111.610206
197111.610250
197111.591961
197111.610831
197111.610793
197111.610752
197111.610703
197111.610644
197111.610591
197111.610520
197111.610444
197111.610362
197111.610276
197111.610178
197111.610083
197111.609968
197111.609861
197111.609737
197111.609606
197111.609468
197111.609326
197111.609178
197111.609030
197111.608869
197111.608700
197111.608527
197111.608347
197111.608156
197111.607962
197111.607765
197111.607560
197111.607342
197111.607131
197111.606906
197111.606686
197111.606454
197111.606214
197111.605970
197111.605720
197111.605466
197111.605207
197111.604949
197111.604690
197111.604417
197111.604143
197111.603865
197111.603579
197111.603291
197111.603014
197111.602719
197111.602418
197111.602122
197111.601825
197111.601519
197111.601214
197111.600904
197111.600603
197111.600295
197111.599979
197111.599664
197111.599346
197111.599032
197111.598711
197111.598387
197111.598068
197111.597749
197111.597426
197111.597097
197111.596781
197111.596458
197111.596135
197111.595815
197111.595485
197111.595167
197111.594847
197111.594518
197111.594198
197111.593879
197111.593556
197111.593240
197111.592918
197111.592604
197111.592279
197111.591893
197111.591819
197111.591756
197111.591691
197111.591620
197111.591549
197111.591476
197111.591412
197111.591342
197111.610352
197111.610403
197111.610461
197111.610521
197111.610569
197111.610616
197111.610671
197111.610721
197111.610777
197111.610737
197111.610686
197111.610636
197111.610582
197111.610532
197111.610474
197111.610415
197111.610356
197111.610307
197111.610695
197111.610647
197111.610594
197111.610542
197111.610486
197111.610430
197111.610375
197111.610315
197111.610266
197111.610650
197111.610596
197111.610545
197111.610490
197111.610437
197111.610379
197111.610326
197111.610274
197111.610212
197111.610589
197111.610539
197111.610482
197111.610432
197111.610380
197111.610322
197111.610267
197111.610213
197111.610157
197111.610528
197111.610479
197111.610421
197111.610370
197111.610319
197111.610254
197111.610203
197111.610151
197111.610092
197111.610466
197111.610419
197111.610355
197111.610301
197111.610249
197111.610194
197111.610135
197111.610083
197111.610024
197111.610388
197111.610337
197111.610288
197111.610227
197111.610174
197111.610115
197111.610062
197111.610003
197111.609942
197111.610311
197111.610252
197111.610200
197111.610148
197111.610093
197111.610033
197111.609976
197111.609920
197111.609862
197111.610218
197111.610165
197111.610114
197111.610056
197111.609998
197111.609947
197111.609887
197111.609827
197111.609768
197111.610125
197111.610069
197111.610014
197111.609961
197111.609912
197111.609850
197111.609788
197111.609732
197111.609677
197111.610024
197111.609967
197111.609917
197111.609862
197111.609804
197111.609749
197111.609692
197111.609629
197111.609572
197111.609913
197111.609862
197111.609807
197111.609752
197111.609694
197111.609633
197111.609575
197111.609520
197111.609460
197111.609807
197111.609746
197111.609687
197111.609633
197111.609582
197111.609519
197111.609464
197111.609409
197111.609342
197111.609686
197111.609628
197111.609565
197111.609514
197111.609457
197111.609398
197111.609344
197111.609277
197111.609223
197111.609551
197111.609493
197111.609444
197111.609388
197111.609327
197111.609266
197111.609202
197111.609149
197111.609090
197111.609416
197111.609361
197111.609300
197111.609247
197111.609189
197111.609131
197111.609071
197111.609006
197111.608948
197111.609275
197111.609217
197111.609160
197111.609104
197111.609048
197111.608984
197111.608925
197111.608868
197111.608809
197111.609126
197111.609067
197111.609014
197111.608950
197111.608895
197111.608838
197111.608776
197111.608716
197111.608653
197111.608972
197111.608914
197111.608855
197111.608795
197111.608740
197111.608683
197111.608619
197111.608562
197111.608498
197111.608814
197111.608746
197111.608695
197111.608643
197111.608578
197111.608516
197111.608461
197111.608394
197111.608333
197111.608648
197111.608587
197111.608518
197111.608471
197111.608410
197111.608351
197111.608285
197111.608225
197111.608162
197111.608472
197111.608411
197111.608355
197111.608293
197111.608235
197111.608170
197111.608106
197111.608049
197111.607989
197111.608291
197111.608230
197111.608169
197111.608108
197111.608050
197111.607988
197111.607929
197111.607873
197111.607811
197111.608101
197111.608038
197111.607981
197111.607923
197111.607856
197111.607801
197111.607740
197111.607673
197111.607621
197111.607905
197111.607853
197111.607781
197111.607730
197111.607667
197111.607604
197111.607540
197111.607479
197111.607414
197111.607700
197111.607644
197111.607595
197111.607523
197111.607464
197111.607409
197111.607344
197111.607276
197111.607215
197111.607497
197111.607446
197111.607379
197111.607320
197111.607264
197111.607193
197111.607136
197111.607070
197111.607006
197111.607291
197111.607228
197111.607170
197111.607114
197111.607047
197111.606987
197111.606920
197111.606855
197111.606795
197111.607072
197111.607018
197111.606954
197111.606893
197111.606827
197111.606773
197111.606706
197111.606642
197111.606576
197111.606856
197111.606792
197111.606726
197111.606670
197111.606613
197111.606545
197111.606487
197111.606413
197111.606347
197111.606619
197111.606559
197111.606503
197111.606440
197111.606373
197111.606319
197111.606248
197111.606183
197111.606123
197111.606390
197111.606325
197111.606263
197111.606201
197111.606137
197111.606080
197111.606019
197111.605948
197111.605886
197111.606151
197111.606086
197111.606028
197111.605968
197111.605899
197111.605841
197111.605780
197111.605714
197111.605650
197111.605911
197111.605850
197111.605774
197111.605722
197111.605658
197111.605595
197111.605533
197111.605466
197111.605398
197111.605655
197111.605597
197111.605536
197111.605473
197111.605413
197111.605342
197111.605280
197111.605213
197111.605147
197111.605406
197111.605348
197111.605277
197111.605220
197111.605152
197111.605089
197111.605022
197111.604962
197111.604896
197111.605149
197111.605091
197111.605029
197111.604963
197111.604901
197111.604829
197111.604766
197111.604707
197111.604633
197111.604883
197111.604824
197111.604759
197111.604697
197111.604634
197111.604567
197111.604498
197111.604438
197111.604374
197111.604622
197111.604556
197111.604493
197111.604429
197111.604367
197111.604300
197111.604235
197111.604168
197111.604108
197111.604355
197111.604290
197111.604225
197111.604160
197111.604097
197111.604027
197111.603968
197111.603898
197111.603835
197111.604075
197111.604020
197111.603951
197111.603887
197111.603822
197111.603759
197111.603684
197111.603626
197111.603554
197111.603795
197111.603734
197111.603672
197111.603601
197111.603539
197111.603471
197111.603403
197111.603341
197111.603272
197111.603518
197111.603451
197111.603394
197111.603324
197111.603253
197111.603188
197111.603119
197111.603053
197111.602992
197111.603226
197111.603166
197111.603101
197111.603037
197111.602975
197111.602902
197111.602836
197111.602778
197111.602703
197111.602939
197111.602879
197111.602811
197111.602751
197111.602679
197111.602618
197111.602551
197111.602485
197111.602413
197111.602645
197111.602583
197111.602520
197111.602457
197111.602394
197111.602323
197111.602253
197111.602188
197111.602124
197111.602353
197111.602293
197111.602231
197111.602163
197111.602092
197111.602029
197111.601961
197111.601895
197111.601827
197111.602059
197111.601994
197111.601930
197111.601863
197111.601795
197111.601732
197111.601658
197111.601593
197111.601521
197111.601760
197111.601690
197111.601630
197111.601560
197111.601494
197111.601426
197111.601366
197111.601288
197111.601220
197111.601461
197111.601388
197111.601324
197111.601257
197111.601190
197111.601127
197111.601057
197111.600981
197111.600923
197111.601151
197111.601084
197111.601018
197111.600953
197111.600883
197111.600816
197111.600750
197111.600683
197111.600616
197111.600850
197111.600774
197111.600707
197111.600642
197111.600578
197111.600510
197111.600441
197111.600375
197111.600297
197111.600532
197111.600467
197111.600403
197111.600330
197111.600268
197111.600200
197111.600128
197111.600063
197111.599992
197111.600216
197111.600153
197111.600084
197111.600019
197111.599953
197111.599892
197111.599814
197111.599748
197111.599683
197111.599915
197111.599846
197111.599776
197111.599710
197111.599642
197111.599569
197111.599502
197111.599436
197111.599363
197111.599595
197111.599531
197111.599457
197111.599394
197111.599324
197111.599255
197111.599187
197111.599118
197111.599049
197111.599274
197111.599210
197111.599149
197111.599079
197111.599004
197111.598939
197111.598874
197111.598799
197111.598737
197111.598961
197111.598897
197111.598825
197111.598758
197111.598694
197111.598621
197111.598548
197111.598481
197111.598412
197111.598643
197111.598578
197111.598509
197111.598439
197111.598371
197111.598305
197111.598237
197111.598165
197111.598094
197111.598326
197111.598258
197111.598188
197111.598121
197111.598052
197111.597979
197111.597914
197111.597844
197111.597774
197111.598002
197111.597933
197111.597862
197111.597803
197111.597735
197111.597655
197111.597593
197111.597520
197111.597452
197111.597682
197111.597610
197111.597542
197111.597479
197111.597406
197111.597345
197111.597266
197111.597201
197111.597135
197111.597357
197111.597287
197111.597220
197111.597159
197111.597086
197111.597020
197111.596947
197111.596880
197111.596806
197111.597041
197111.596971
197111.596899
197111.596833
197111.596767
197111.596697
197111.596618
197111.596555
197111.596489
197111.596711
197111.596645
197111.596581
197111.596515
197111.596439
197111.596372
197111.596302
197111.596229
197111.596158
197111.596388
197111.596317
197111.596252
197111.596182
197111.596123
197111.596047
197111.595977
197111.595901
197111.595837
197111.596070
197111.595990
197111.595929
197111.595857
197111.595794
197111.595722
197111.595656
197111.595583
197111.595509
197111.595744
197111.595680
197111.595601
197111.595538
197111.595472
197111.595398
197111.595328
197111.595256
197111.595185
197111.595420
197111.595350
197111.595279
197111.595214
197111.595142
197111.595076
197111.595001
197111.594935
197111.594863
197111.595089
197111.595025
197111.594955
197111.594890
197111.594824
197111.594750
197111.594683
197111.594614
197111.594542
197111.594775
197111.594706
197111.594634
197111.594567
197111.594501
197111.594426
197111.594362
197111.594284
197111.594221
197111.594456
197111.594389
197111.594306
197111.594243
197111.594175
197111.594108
197111.594031
197111.593966
197111.593893
197111.594133
197111.594063
197111.593989
197111.593917
197111.593852
197111.593784
197111.593710
197111.593644
197111.593575
197111.593805
197111.593738
197111.593665
197111.593600
197111.593533
197111.593467
197111.593392
197111.593321
197111.593249
197111.593491
197111.593421
197111.593352
197111.593279
197111.593209
197111.593134
197111.593070
197111.593006
197111.592936
197111.593171
197111.593100
197111.593033
197111.592955
197111.592886
197111.592819
197111.592751
197111.592683
197111.592610
197111.592849
197111.592779
197111.592710
197111.592640
197111.592570
197111.592500
197111.592433
197111.592362
197111.592288
197111.592531
197111.592462
197111.592396
197111.592322
197111.592248
197111.592182
197111.592114
197111.592045
197111.591977
197111.592206
197111.592137
197111.592072
197111.592005
197111.591929
197111.591863
197111.591790
197111.591731
197111.591658
SCALARS stress_3 float
LOOKUP_TABLE default
0.000105
0.011825
0.011665
0.011499
0.011337
0.011179
0.011017
0.010854
0.010682
0.010521
0.010362
0.010196
0.010031
0.009861
0.009687
0.009521
0.009351
0.009192
0.009020
0.008851
0.008682
0.008504
0.008343
0.008169
0.007996
0.007825
0.007654
0.007486
0.007317
0.007146
0.006981
0.006809
0.006633
0.006469
0.006305
0.006126
0.005961
0.005794
0.005628
0.005462
0.005293
0.005126
0.004965
0.004811
0.004643
0.004491
0.004331
0.004176
0.004021
0.003860
0.003710
0.003560
0.003402
0.003261
0.003114
0.002973
0.002827
0.002698
0.002550
0.002425
0.002290
0.002152
0.002031
0.001906
0.001781
0.001659
0.001546
0.001423
0.001305
0.001200
0.001091
0.000995
0.000901
0.000788
0.000694
0.000601
0.000505
0.000429
0.000341
0.000256
0.000179
0.010435
-0.000091
-0.000050
0.000010
0.000063
0.000127
0.000178
0.000257
0.000321
0.000394
0.000470
0.000538
0.000625
0.000707
0.000791
0.000883
0.000974
0.001067
0.001172
0.001266
0.001372
0.001475
0.001588
0.001696
0.001805
0.001925
0.002040
0.002165
0.002288
0.002411
0.002545
0.002665
0.002800
0.002934
0.003072
0.003210
0.003347
0.003489
0.003630
0.003769
0.003926
0.004070
0.004220
0.004367
0.004521
0.004671
0.004830
0.004981
0.005138
0.005291
0.005447
0.005608
0.005771
0.005930
0.006090
0.006244
0.006413
0.006569
0.006728
0.006891
0.007061
0.007225
0.007383
0.007544
0.007708
0.007871
0.008028
0.008195
0.008359
0.008517
0.008671
0.008839
0.009006
0.009163
0.009334
0.009482
0.009644
0.009802
0.009968
0.010124
0.010279
0.010569
0.010711
0.010847
0.010989
0.011126
0.011268
0.011410
0.011540
0.011683
0.000094
0.000069
0.000046
0.000024
0.000015
-0.000014
-0.000038
-0.000053
-0.000073
-0.000020
-0.000001
0.000020
0.000048
0.000068
0.000083
0.000115
0.000133
0.000159
0.000037
0.000065
0.000085
0.000110
0.000134
0.000163
0.000183
0.000214
0.000237
0.000088
0.000123
0.000153
0.000172
0.000202
0.000229
0.000259
0.000286
0.000312
0.000153
0.000179
0.000211
0.000242
0.000267
0.000305
0.000330
0.000368
0.000403
0.000219
0.000242
0.000283
0.000315
0.000347
0.000379
0.000413
0.000451
0.000483
0.000295
0.000327
0.000353
0.000385
0.000426
0.000460
0.000495
0.000527
0.000562
0.000354
0.000398
0.000425
0.000467
0.000499
0.000547
0.000573
0.000623
0.000652
0.000429
0.000467
0.000507
0.000543
0.000585
0.000629
0.000668
0.000702
0.000749
0.000505
0.000554
0.000588
0.000640
0.000670
0.000718
0.000753
0.000793
0.000843
0.000587
0.000628
0.000678
0.000713
0.000759
0.000802
0.000853
0.000892
0.000945
0.000671
0.000714
0.000763
0.000799
0.000850
0.000899
0.000955
0.000994
0.001042
0.000753
0.000808
0.000849
0.000898
0.000943
0.000997
0.001057
0.001096
0.001147
0.000847
0.000897
0.000940
0.000997
0.001051
0.001096
0.001150
0.001203
0.001252
0.000943
0.000989
0.001042
0.001090
0.001153
0.001212
0.001258
0.001312
0.001366
0.001027
0.001083
0.001139
0.001200
0.001253
0.001313
0.001364
0.001414
0.001490
0.001121
0.001184
0.001239
0.001308
0.001362
0.001424
0.001475
0.001539
0.001600
0.001229
0.001287
0.001354
0.001405
0.001470
0.001534
0.001583
0.001656
0.001719
0.001325
0.001393
0.001457
0.001507
0.001580
0.001643
0.001707
0.001777
0.001841
0.001430
0.001496
0.001567
0.001624
0.001693
0.001756
0.001823
0.001894
0.001955
0.001544
0.001601
0.001681
0.001747
0.001812
0.001882
0.001946
0.002016
0.002090
0.001656
0.001720
0.001788
0.001859
0.001932
0.001998
0.002076
0.002142
0.002216
0.001770
0.001843
0.001914
0.001980
0.002057
0.002126
0.002201
0.002280
0.002346
0.001887
0.001958
0.002024
0.002104
0.002175
0.002253
0.002337
0.002409
0.002483
0.001994
0.002076
0.002152
0.002231
0.002304
0.002381
0.002461
0.002532
0.002615
0.002120
0.002200
0.002277
0.002363
0.002425
0.002511
0.002596
0.002673
0.002755
0.002247
0.002321
0.002400
0.002482
0.002567
0.002644
0.002732
0.002805
0.002896
0.002378
0.002451
0.002526
0.002615
0.002700
0.002788
0.002866
0.002947
0.003033
0.002491
0.002575
0.002674
0.002748
0.002832
0.002919
0.003005
0.003091
0.003181
0.002629
0.002721
0.002799
0.002881
0.002973
0.003061
0.003148
0.003242
0.003322
0.002758
0.002846
0.002934
0.003019
0.003107
0.003202
0.003296
0.003378
0.003471
0.002900
0.002985
0.003073
0.003167
0.003251
0.003349
0.003432
0.003527
0.003618
0.003031
0.003115
0.003213
0.003303
0.003392
0.003497
0.003585
0.003680
0.003767
0.003165
0.003255
0.003348
0.003452
0.003542
0.003640
0.003732
0.003829
0.003916
0.003307
0.003399
0.003498
0.003584
0.003685
0.003789
0.003880
0.003982
0.004077
0.003445
0.003545
0.003633
0.003738
0.003841
0.003930
0.004035
0.004139
0.004235
0.003589
0.003690
0.003794
0.003881
0.003985
0.004085
0.004191
0.004290
0.004391
0.003732
0.003838
0.003934
0.004042
0.004137
0.004238
0.004344
0.004439
0.004541
0.003886
0.003982
0.004081
0.004193
0.004292
0.004392
0.004495
0.004602
0.004700
0.004027
0.004135
0.004231
0.004337
0.004447
0.004552
0.004652
0.004762
0.004868
0.004180
0.004286
0.004386
0.004494
0.004602
0.004705
0.004812
0.004918
0.005033
0.004333
0.004436
0.004545
0.004647
0.004762
0.004868
0.004974
0.005082
0.005192
0.004474
0.004579
0.004695
0.004805
0.004920
0.005019
0.005127
0.005243
0.005355
0.004627
0.004739
0.004849
0.004963
0.005066
0.005181
0.005294
0.005407
0.005521
0.004784
0.004895
0.005000
0.005121
0.005231
0.005339
0.005453
0.005564
0.005682
0.004938
0.005051
0.005164
0.005273
0.005395
0.005506
0.005612
0.005733
0.005852
0.005095
0.005213
0.005320
0.005441
0.005547
0.005668
0.005790
0.005896
0.006012
0.005258
0.005366
0.005485
0.005602
0.005717
0.005831
0.005942
0.006061
0.006178
0.005408
0.005528
0.005638
0.005755
0.005877
0.005995
0.006111
0.006228
0.006347
0.005573
0.005684
0.005805
0.005922
0.006038
0.006156
0.006279
0.006397
0.006511
0.005724
0.005848
0.005965
0.006085
0.006200
0.006324
0.006444
0.006565
0.006684
0.005885
0.006009
0.006128
0.006247
0.006366
0.006486
0.006612
0.006725
0.006847
0.006040
0.006163
0.006296
0.006406
0.006527
0.006657
0.006773
0.006896
0.007026
0.006208
0.006326
0.006449
0.006575
0.006701
0.006818
0.006940
0.007074
0.007194
0.006368
0.006497
0.006617
0.006743
0.006862
0.006987
0.007112
0.007242
0.007355
0.006532
0.006651
0.006774
0.006905
0.007022
0.007154
0.007287
0.007402
0.007528
0.006689
0.006820
0.006947
0.007066
0.007197
0.007319
0.007458
0.007573
0.007704
0.006857
0.006982
0.007105
0.007240
0.007362
0.007482
0.007616
0.007737
0.007863
0.007020
0.007142
0.007274
0.007406
0.007530
0.007655
0.007784
0.007915
0.008039
0.007184
0.007317
0.007437
0.007566
0.007694
0.007825
0.007955
0.008086
0.008200
0.007352
0.007478
0.007607
0.007723
0.007863
0.007992
0.008120
0.008245
0.008378
0.007515
0.007638
0.007768
0.007903
0.008027
0.008160
0.008290
0.008421
0.008549
0.007672
0.007807
0.007928
0.008064
0.008207
0.008320
0.008454
0.008576
0.008716
0.007836
0.007965
0.008096
0.008233
0.008364
0.008484
0.008630
0.008752
0.008880
0.008001
0.008133
0.008268
0.008391
0.008536
0.008657
0.008785
0.008924
0.009046
0.008168
0.008294
0.008430
0.008556
0.008695
0.008824
0.008958
0.009085
0.009218
0.008324
0.008456
0.008586
0.008718
0.008869
0.008995
0.009121
0.009260
0.009398
0.008499
0.008620
0.008750
0.008889
0.009021
0.009154
0.009290
0.009426
0.009559
0.008655
0.008782
0.008920
0.009049
0.009189
0.009319
0.009460
0.009593
0.009727
0.008814
0.008951
0.009079
0.009219
0.009358
0.009485
0.009621
0.009755
0.009894
0.008977
0.009108
0.009259
0.009374
0.009508
0.009649
0.009783
0.009915
0.010053
0.009129
0.009270
0.009408
0.009546
0.009682
0.009815
0.009958
0.010086
0.010227
0.009303
0.009432
0.009563
0.009703
0.009838
0.009979
0.010120
0.010243
0.010388
0.009465
0.009593
0.009731
0.009863
0.010013
0.010144
0.010281
0.010412
0.010557
0.009629
0.009751
0.009896
0.010025
0.010173
0.010310
0.010441
0.010584
0.010718
0.009788
0.009913
0.010054
0.010186
0.010327
0.010471
0.010600
0.010739
0.010878
0.009941
0.010083
0.010211
0.010353
0.010491
0.010632
0.010762
0.010898
0.011032
0.010096
0.010234
0.010375
0.010514
0.010651
0.010786
0.010927
0.011063
0.011202
0.010255
0.010394
0.010534
0.010676
0.010809
0.010946
0.011082
0.011225
0.011362
0.010415
0.010558
0.010691
0.010833
0.010961
0.011106
0.011240
0.011375
0.011525
