# vtk DataFile Version 2.0
Generated volume Mesh
ASCII
DATASET UNSTRUCTURED_GRID
POINTS 165 float
0.000000 -0.010000 0.000000
0.000000 0.010000 0.000000
0.160000 0.010000 0.000000
0.160000 -0.010000 0.000000
0.000000 0.005000 0.000000
0.000000 0.000000 0.000000
0.000000 -0.005000 0.000000
0.005000 -0.010000 0.000000
0.010000 -0.010000 0.000000
0.015000 -0.010000 0.000000
0.020000 -0.010000 0.000000
0.025000 -0.010000 0.000000
0.030000 -0.010000 0.000000
0.035000 -0.010000 0.000000
0.040000 -0.010000 0.000000
0.045000 -0.010000 0.000000
0.050000 -0.010000 0.000000
0.055000 -0.010000 0.000000
0.060000 -0.010000 0.000000
0.065000 -0.010000 0.000000
0.070000 -0.010000 0.000000
0.075000 -0.010000 0.000000
0.080000 -0.010000 0.000000
0.085000 -0.010000 0.000000
0.090000 -0.010000 0.000000
0.095000 -0.010000 0.000000
0.100000 -0.010000 0.000000
0.105000 -0.010000 0.000000
0.110000 -0.010000 0.000000
0.115000 -0.010000 0.000000
0.120000 -0.010000 0.000000
0.125000 -0.010000 0.000000
0.130000 -0.010000 0.000000
0.135000 -0.010000 0.000000
0.140000 -0.010000 0.000000
0.145000 -0.010000 0.000000
0.150000 -0.010000 0.000000
0.155000 -0.010000 0.000000
0.160000 -0.005000 0.000000
0.160000 -0.000000 0.000000
0.160000 0.005000 0.000000
0.155000 0.010000 0.000000
0.150000 0.010000 0.000000
0.145000 0.010000 0.000000
0.140000 0.010000 0.000000
0.135000 0.010000 0.000000
0.130000 0.010000 0.000000
0.125000 0.010000 0.000000
0.120000 0.010000 0.000000
0.115000 0.010000 0.000000
0.110000 0.010000 0.000000
0.105000 0.010000 0.000000
0.100000 0.010000 0.000000
0.095000 0.010000 0.000000
0.090000 0.010000 0.000000
0.085000 0.010000 0.000000
0.080000 0.010000 0.000000
0.075000 0.010000 0.000000
0.070000 0.010000 0.000000
0.065000 0.010000 0.000000
0.060000 0.010000 0.000000
0.055000 0.010000 0.000000
0.050000 0.010000 0.000000
0.045000 0.010000 0.000000
0.040000 0.010000 0.000000
0.035000 0.010000 0.000000
0.030000 0.010000 0.000000
0.025000 0.010000 0.000000
0.020000 0.010000 0.000000
0.015000 0.010000 0.000000
0.010000 0.010000 0.000000
0.005000 0.010000 0.000000
0.005000 0.005000 0.000000
0.010000 0.005000 0.000000
0.015000 0.005000 0.000000
0.020000 0.005000 0.000000
0.025000 0.005000 0.000000
0.030000 0.005000 0.000000
0.035000 0.005000 0.000000
0.040000 0.005000 0.000000
0.045000 0.005000 0.000000
0.050000 0.005000 0.000000
0.055000 0.005000 0.000000
0.060000 0.005000 0.000000
0.065000 0.005000 0.000000
0.070000 0.005000 0.000000
0.075000 0.005000 0.000000
0.080000 0.005000 0.000000
0.085000 0.005000 0.000000
0.090000 0.005000 0.000000
0.095000 0.005000 0.000000
0.100000 0.005000 0.000000
0.105000 0.005000 0.000000
0.110000 0.005000 0.000000
0.115000 0.005000 0.000000
0.120000 0.005000 0.000000
0.125000 0.005000 0.000000
0.130000 0.005000 0.000000
0.135000 0.005000 0.000000
0.140000 0.005000 0.000000
0.145000 0.005000 0.000000
0.150000 0.005000 0.000000
0.155000 0.005000 0.000000
0.005000 0.000000 0.000000
0.010000 0.000000 0.000000
0.015000 0.000000 0.000000
0.020000 0.000000 0.000000
0.025000 0.000000 0.000000
0.030000 0.000000 0.000000
0.035000 0.000000 0.000000
0.040000 0.000000 0.000000
0.045000 0.000000 0.000000
0.050000 0.000000 0.000000
0.055000 0.000000 0.000000
0.060000 0.000000 0.000000
0.065000 0.000000 0.000000
0.070000 0.000000 0.000000
0.075000 0.000000 0.000000
0.080000 -0.000000 0.000000
0.085000 -0.000000 0.000000
0.090000 -0.000000 0.000000
0.095000 -0.000000 0.000000
0.100000 -0.000000 0.000000
0.105000 -0.000000 0.000000
0.110000 -0.000000 0.000000
0.115000 -0.000000 0.000000
0.120000 -0.000000 0.000000
0.125000 -0.000000 0.000000
0.130000 -0.000000 0.000000
0.135000 -0.000000 0.000000
0.140000 -0.000000 0.000000
0.145000 -0.000000 0.000000
0.150000 -0.000000 0.000000
0.155000 -0.000000 0.000000
0.005000 -0.005000 0.000000
0.010000 -0.005000 0.000000
0.015000 -0.005000 0.000000
0.020000 -0.005000 0.000000
0.025000 -0.005000 0.000000
0.030000 -0.005000 0.000000
0.035000 -0.005000 0.000000
0.040000 -0.005000 0.000000
0.045000 -0.005000 0.000000
0.050000 -0.005000 0.000000
0.055000 -0.005000 0.000000
0.060000 -0.005000 0.000000
0.065000 -0.005000 0.000000
0.070000 -0.005000 0.000000
0.075000 -0.005000 0.000000
0.080000 -0.005000 0.000000
0.085000 -0.005000 0.000000
0.090000 -0.005000 0.000000
0.095000 -0.005000 0.000000
0.100000 -0.005000 0.000000
0.105000 -0.005000 0.000000
0.110000 -0.005000 0.000000
0.115000 -0.005000 0.000000
0.120000 -0.005000 0.000000
0.125000 -0.005000 0.000000
0.130000 -0.005000 0.000000
0.135000 -0.005000 0.000000
0.140000 -0.005000 0.000000
0.145000 -0.005000 0.000000
0.150000 -0.005000 0.000000
0.155000 -0.005000 0.000000
CELLS 128 640
4 1 4 72 71
4 71 72 73 70
4 70 73 74 69
4 69 74 75 68
4 68 75 76 67
4 67 76 77 66
4 66 77 78 65
4 65 78 79 64
4 64 79 80 63
4 63 80 81 62
4 62 81 82 61
4 61 82 83 60
4 60 83 84 59
4 59 84 85 58
4 58 85 86 57
4 57 86 87 56
4 56 87 88 55
4 55 88 89 54
4 54 89 90 53
4 53 90 91 52
4 52 91 92 51
4 51 92 93 50
4 50 93 94 49
4 49 94 95 48
4 48 95 96 47
4 47 96 97 46
4 46 97 98 45
4 45 98 99 44
4 44 99 100 43
4 43 100 101 42
4 42 101 102 41
4 41 102 40 2
4 4 5 103 72
4 72 103 104 73
4 73 104 105 74
4 74 105 106 75
4 75 106 107 76
4 76 107 108 77
4 77 108 109 78
4 78 109 110 79
4 79 110 111 80
4 80 111 112 81
4 81 112 113 82
4 82 113 114 83
4 83 114 115 84
4 84 115 116 85
4 85 116 117 86
4 86 117 118 87
4 87 118 119 88
4 88 119 120 89
4 89 120 121 90
4 90 121 122 91
4 91 122 123 92
4 92 123 124 93
4 93 124 125 94
4 94 125 126 95
4 95 126 127 96
4 96 127 128 97
4 97 128 129 98
4 98 129 130 99
4 99 130 131 100
4 100 131 132 101
4 101 132 133 102
4 102 133 39 40
4 5 6 134 103
4 103 134 135 104
4 104 135 136 105
4 105 136 137 106
4 106 137 138 107
4 107 138 139 108
4 108 139 140 109
4 109 140 141 110
4 110 141 142 111
4 111 142 143 112
4 112 143 144 113
4 113 144 145 114
4 114 145 146 115
4 115 146 147 116
4 116 147 148 117
4 117 148 149 118
4 118 149 150 119
4 119 150 151 120
4 120 151 152 121
4 121 152 153 122
4 122 153 154 123
4 123 154 155 124
4 124 155 156 125
4 125 156 157 126
4 126 157 158 127
4 127 158 159 128
4 128 159 160 129
4 129 160 161 130
4 130 161 162 131
4 131 162 163 132
4 132 163 164 133
4 133 164 38 39
4 6 0 7 134
4 134 7 8 135
4 135 8 9 136
4 136 9 10 137
4 137 10 11 138
4 138 11 12 139
4 139 12 13 140
4 140 13 14 141
4 141 14 15 142
4 142 15 16 143
4 143 16 17 144
4 144 17 18 145
4 145 18 19 146
4 146 19 20 147
4 147 20 21 148
4 148 21 22 149
4 149 22 23 150
4 150 23 24 151
4 151 24 25 152
4 152 25 26 153
4 153 26 27 154
4 154 27 28 155
4 155 28 29 156
4 156 29 30 157
4 157 30 31 158
4 158 31 32 159
4 159 32 33 160
4 160 33 34 161
4 161 34 35 162
4 162 35 36 163
4 163 36 37 164
4 164 37 3 38
CELL_TYPES 128
9
9
9
9
9
9
9
9
9
9
9
9
9
9
9
9
9
9
9
9
9
9
9
9
9
9
9
9
9
9
9
9
9
9
9
9
9
9
9
9
9
9
9
9
9
9
9
9
9
9
9
9
9
9
9
9
9
9
9
9
9
9
9
9
9
9
9
9
9
9
9
9
9
9
9
9
9
9
9
9
9
9
9
9
9
9
9
9
9
9
9
9
9
9
9
9
9
9
9
9
9
9
9
9
9
9
9
9
9
9
9
9
9
9
9
9
9
9
9
9
9
9
9
9
9
9
9
9
POINT_DATA 165
SCALARS u1 float
LOOKUP_TABLE default
0.014874
-0.014874
0.000091
-0.000072
-0.007433
0.000000
0.007433
0.014866
0.014829
0.014757
0.014655
0.014524
0.014364
0.014174
0.013956
0.013709
0.013432
0.013126
0.012791
0.012427
0.012034
0.011612
0.011161
0.010680
0.010170
0.009632
0.009064
0.008467
0.007841
0.007186
0.006501
0.005788
0.005045
0.004274
0.003473
0.002643
0.001786
0.000910
0.000047
-0.000370
-0.000003
-0.000910
-0.001786
-0.002643
-0.003473
-0.004274
-0.005045
-0.005788
-0.006501
-0.007186
-0.007841
-0.008467
-0.009064
-0.009632
-0.010170
-0.010680
-0.011161
-0.011612
-0.012034
-0.012427
-0.012791
-0.013126
-0.013432
-0.013709
-0.013956
-0.014174
-0.014364
-0.014524
-0.014655
-0.014757
-0.014829
-0.014866
-0.007428
-0.007399
-0.007362
-0.007311
-0.007245
-0.007165
-0.007070
-0.006961
-0.006838
-0.006699
-0.006546
-0.006379
-0.006197
-0.006000
-0.005789
-0.005564
-0.005323
-0.005068
-0.004799
-0.004515
-0.004217
-0.003904
-0.003576
-0.003234
-0.002877
-0.002506
-0.002120
-0.001720
-0.001305
-0.000872
-0.000415
0.000000
0.000000
0.000000
0.000000
0.000000
0.000000
0.000000
0.000000
0.000000
0.000000
0.000000
0.000000
0.000000
0.000000
0.000000
0.000000
0.000000
0.000000
0.000000
0.000000
0.000000
0.000000
0.000000
0.000000
0.000000
0.000000
0.000000
0.000000
0.000000
0.000000
0.000000
0.007428
0.007399
0.007362
0.007311
0.007245
0.007165
0.007070
0.006961
0.006838
0.006699
0.006546
0.006379
0.006197
0.006000
0.005789
0.005564
0.005323
0.005068
0.004799
0.004515
0.004217
0.003904
0.003576
0.003234
0.002877
0.002506
0.002120
0.001720
0.001305
0.000872
0.000415
SCALARS u2 float
LOOKUP_TABLE default
-0.160296
-0.160296
-0.000403
-0.000003
-0.160307
-0.160372
-0.160307
-0.152839
-0.145370
-0.137926
-0.130526
-0.123185
-0.115916
-0.108735
-0.101656
-0.094694
-0.087862
-0.081176
-0.074650
-0.068299
-0.062137
-0.056179
-0.050439
-0.044933
-0.039673
-0.034676
-0.029956
-0.025527
-0.021403
-0.017600
-0.014132
-0.011013
-0.008258
-0.005882
-0.003899
-0.002324
-0.001171
-0.000457
0.000129
0.000191
-0.000258
-0.000457
-0.001171
-0.002324
-0.003899
-0.005882
-0.008258
-0.011013
-0.014132
-0.017600
-0.021403
-0.025527
-0.029956
-0.034676
-0.039673
-0.044933
-0.050439
-0.056179
-0.062137
-0.068299
-0.074650
-0.081176
-0.087862
-0.094694
-0.101656
-0.108735
-0.115916
-0.123185
-0.130526
-0.137926
-0.145370
-0.152839
-0.152835
-0.145355
-0.137906
-0.130500
-0.123152
-0.115877
-0.108689
-0.101604
-0.094635
-0.087796
-0.081104
-0.074571
-0.068214
-0.062045
-0.056081
-0.050334
-0.044821
-0.039556
-0.034552
-0.029825
-0.025389
-0.021259
-0.017449
-0.013975
-0.010849
-0.008088
-0.005705
-0.003715
-0.002133
-0.000975
-0.000239
-0.152824
-0.145350
-0.137899
-0.130491
-0.123141
-0.115864
-0.108674
-0.101586
-0.094615
-0.087775
-0.081080
-0.074545
-0.068185
-0.062015
-0.056048
-0.050299
-0.044784
-0.039516
-0.034510
-0.029781
-0.025343
-0.021211
-0.017399
-0.013922
-0.010795
-0.008031
-0.005646
-0.003654
-0.002070
-0.000903
-0.000182
-0.152835
-0.145355
-0.137906
-0.130500
-0.123152
-0.115877
-0.108689
-0.101604
-0.094635
-0.087796
-0.081104
-0.074571
-0.068214
-0.062045
-0.056081
-0.050334
-0.044821
-0.039556
-0.034552
-0.029825
-0.025389
-0.021259
-0.017449
-0.013975
-0.010849
-0.008088
-0.005705
-0.003715
-0.002133
-0.000975
-0.000239
SCALARS strain_1 float
LOOKUP_TABLE default
0.000001
0.000006
0.000007
0.000010
0.000013
0.000016
0.000019
0.000022
0.000025
0.000028
0.000031
0.000033
0.000036
0.000039
0.000042
0.000045
0.000048
0.000051
0.000054
0.000057
0.000060
0.000063
0.000066
0.000068
0.000071
0.000074
0.000077
0.000080
0.000083
0.000086
0.000091
0.000082
0.000000
-0.000000
0.000000
-0.000000
-0.000000
-0.000000
-0.000000
-0.000000
-0.000000
-0.000000
-0.000000
-0.000000
-0.000000
-0.000000
-0.000000
-0.000000
-0.000000
-0.000000
-0.000000
-0.000000
-0.000000
-0.000000
-0.000000
-0.000000
-0.000000
-0.000000
-0.000000
-0.000000
-0.000000
-0.000000
-0.000000
-0.000074
-0.000001
-0.000006
-0.000007
-0.000010
-0.000013
-0.000016
-0.000019
-0.000022
-0.000025
-0.000028
-0.000031
-0.000033
-0.000036
-0.000039
-0.000042
-0.000045
-0.000048
-0.000051
-0.000054
-0.000057
-0.000060
-0.000063
-0.000066
-0.000068
-0.000071
-0.000074
-0.000077
-0.000080
-0.000083
-0.000086
-0.000091
-0.000074
-0.000002
-0.000007
-0.000014
-0.000020
-0.000026
-0.000032
-0.000038
-0.000044
-0.000050
-0.000055
-0.000061
-0.000067
-0.000073
-0.000079
-0.000084
-0.000090
-0.000096
-0.000102
-0.000108
-0.000114
-0.000119
-0.000125
-0.000131
-0.000137
-0.000143
-0.000149
-0.000154
-0.000160
-0.000166
-0.000171
-0.000175
-0.000196
SCALARS strain_2 float
LOOKUP_TABLE default
0.000002
-0.000001
-0.000003
-0.000004
-0.000005
-0.000007
-0.000008
-0.000009
-0.000010
-0.000012
-0.000013
-0.000014
-0.000016
-0.000017
-0.000018
-0.000020
-0.000021
-0.000022
-0.000024
-0.000025
-0.000026
-0.000028
-0.000029
-0.000030
-0.000031
-0.000033
-0.000034
-0.000035
-0.000037
-0.000038
-0.000039
-0.000044
0.000013
-0.000002
-0.000001
-0.000001
-0.000002
-0.000002
-0.000003
-0.000003
-0.000003
-0.000004
-0.000004
-0.000005
-0.000005
-0.000006
-0.000006
-0.000007
-0.000007
-0.000007
-0.000008
-0.000008
-0.000009
-0.000009
-0.000010
-0.000010
-0.000010
-0.000011
-0.000011
-0.000012
-0.000012
-0.000013
-0.000014
-0.000011
-0.000013
0.000002
0.000001
0.000001
0.000002
0.000002
0.000003
0.000003
0.000003
0.000004
0.000004
0.000005
0.000005
0.000006
0.000006
0.000007
0.000007
0.000007
0.000008
0.000008
0.000009
0.000009
0.000010
0.000010
0.000010
0.000011
0.000011
0.000012
0.000012
0.000013
0.000014
0.000011
-0.000002
0.000001
0.000003
0.000004
0.000005
0.000007
0.000008
0.000009
0.000010
0.000012
0.000013
0.000014
0.000016
0.000017
0.000018
0.000020
0.000021
0.000022
0.000024
0.000025
0.000026
0.000028
0.000029
0.000030
0.000031
0.000033
0.000034
0.000035
0.000037
0.000038
0.000039
0.000044
SCALARS strain_3 float
LOOKUP_TABLE default
0.000003
0.000004
0.000002
0.000001
0.000000
-0.000000
-0.000001
-0.000002
-0.000003
-0.000003
-0.000004
-0.000005
-0.000005
-0.000006
-0.000007
-0.000008
-0.000008
-0.000009
-0.000010
-0.000011
-0.000011
-0.000012
-0.000013
-0.000013
-0.000014
-0.000015
-0.000016
-0.000016
-0.000017
-0.000018
-0.000018
-0.000051
0.000011
0.000005
0.000005
0.000005
0.000004
0.000003
0.000002
0.000002
0.000001
0.000000
-0.000000
-0.000001
-0.000002
-0.000003
-0.000003
-0.000004
-0.000005
-0.000006
-0.000006
-0.000007
-0.000008
-0.000008
-0.000009
-0.000010
-0.000011
-0.000011
-0.000012
-0.000013
-0.000014
-0.000014
-0.000015
-0.000004
0.000004
0.000005
0.000005
0.000004
0.000004
0.000003
0.000002
0.000002
0.000001
0.000000
-0.000001
-0.000001
-0.000002
-0.000003
-0.000004
-0.000004
-0.000005
-0.000006
-0.000006
-0.000007
-0.000008
-0.000009
-0.000009
-0.000010
-0.000011
-0.000012
-0.000012
-0.000013
-0.000014
-0.000015
-0.000014
-0.000005
0.000002
0.000003
0.000001
0.000000
-0.000000
-0.000001
-0.000002
-0.000002
-0.000003
-0.000004
-0.000005
-0.000005
-0.000006
-0.000007
-0.000008
-0.000008
-0.000009
-0.000010
-0.000010
-0.000011
-0.000012
-0.000013
-0.000013
-0.000014
-0.000015
-0.000016
-0.000016
-0.000017
-0.000018
-0.000018
-0.000020
-0.000004
SCALARS stress_1 float
LOOKUP_TABLE default
1836300.746917
6072512.615385
7199698.830824
9909390.404099
12665575.604242
15440112.886266
18207937.799972
20976028.312649
23743997.786970
26512000.509972
29279999.855868
32048000.020999
34815999.998780
37584000.003495
40352000.002674
43120000.003102
45888000.003248
48656000.003381
51424000.003980
54192000.002683
56959999.994951
59727999.899581
62496000.250117
65264004.116092
68032030.151251
70799925.098198
73566412.671810
76326775.041248
79131215.264355
82450247.190853
87541237.327557
76152213.306615
4307184.139456
-739787.979098
-321359.883862
-450078.906350
-572994.823044
-720126.131552
-863907.794517
-1008016.854841
-1151998.148365
-1296000.540315
-1439999.898101
-1584000.015490
-1727999.996861
-1872000.000900
-2016000.000146
-2160000.000239
-2304000.000262
-2448000.000212
-2592000.000670
-2735999.998492
-2880000.009650
-3023999.942271
-3168000.265641
-3311998.719175
-3456009.821768
-3599961.917997
-3744149.353209
-3886151.941897
-4037286.038837
-4169173.840535
-4723868.832427
-85181024.657471
-5456148.600763
-5563253.145217
-7877958.185848
-10749929.193790
-13822380.730546
-16879347.647399
-19936093.033812
-22991997.818398
-26048003.122955
-29103999.476652
-32160000.054959
-35215999.985259
-38272000.006146
-41328000.002694
-44384000.003496
-47440000.003533
-50496000.003707
-53552000.004100
-56608000.003826
-59664000.007183
-62719999.974975
-65776000.011613
-68831999.674959
-71888007.201592
-74944013.158317
-78000010.091573
-81053954.850313
-84105426.995353
-87182917.005116
-90868931.492152
-95747589.662567
-77043100.831209
-2561632.710316
-7751913.987401
-14897446.651489
-21110627.020767
-27075736.652751
-33040758.118102
-39007957.122184
-44975992.150631
-50943997.268824
-56912000.263049
-62880000.006433
-68848000.017026
-74816000.004084
-80784000.006237
-86752000.006420
-92720000.006895
-98688000.007285
-104656000.007325
-110624000.009353
-116591999.999354
-122560000.066090
-128527999.851806
-134496001.399336
-140463989.155482
-146432006.909372
-152399790.370089
-158370444.939516
-164340557.646699
-170333094.983857
-175613550.362102
-179695648.571694
-201351957.836325
SCALARS stress_2 float
LOOKUP_TABLE default
2635810.290584
1122483.974292
-872268.708547
-942056.556474
-1447387.164522
-1918027.508124
-2400209.845509
-2879950.132674
-3360011.232561
-3839998.350772
-4320000.337147
-4799999.931131
-5280000.012058
-5759999.998176
-6240000.000900
-6720000.000421
-7200000.000501
-7680000.000769
-8159999.999333
-8640000.007221
-9119999.969027
-9600000.193484
-10079998.984729
-10560004.238038
-11039969.200803
-11520164.766939
-11999540.509809
-12485205.970575
-12930565.017310
-13448095.538062
-12959299.674760
-20803396.835416
14357280.464821
-2465959.930234
-1071199.612889
-1500263.021039
-1909982.743387
-2400420.438219
-2879692.648215
-3360056.182610
-3839993.827608
-4320001.800733
-4799999.660044
-5280000.051295
-5759999.989057
-6240000.002598
-6720000.000112
-7200000.000596
-7680000.000613
-8160000.000386
-8640000.001854
-9119999.994605
-9600000.031766
-10079999.807075
-10560000.884944
-11039995.730122
-11520032.738788
-11999873.059514
-12480497.843380
-12953839.805787
-13457620.128862
-13897246.134558
-15746229.440894
-36963133.173637
-14701969.803241
575047.592946
-1388595.807964
-1859739.408982
-2408629.922638
-2879421.695466
-3360307.600291
-3839948.219317
-4320006.553750
-4799998.204329
-5280000.325819
-5759999.948868
-6240000.011754
-6719999.998372
-7200000.000873
-7680000.000510
-8160000.000569
-8640000.000896
-9119999.999435
-9600000.007025
-10079999.963552
-10560000.179045
-11039999.097127
-11520006.045995
-11999974.155135
-12480118.543281
-12958933.417518
-13443633.875266
-13908440.784156
-14614185.465127
-14395208.107510
-11704104.472892
-2853409.879548
-1626304.385883
-1437055.637649
-2418314.428457
-2875661.150027
-3362166.061354
-3839795.951213
-4320039.018654
-4799988.611978
-5280001.575141
-5759999.707964
-6240000.067566
-6719999.989452
-7200000.002605
-7680000.000114
-8160000.000651
-8640000.000694
-9120000.000388
-9600000.002190
-10079999.991701
-10560000.052233
-11039999.792068
-11520001.360027
-11999991.273627
-12480023.826541
-12959794.814475
-13441669.170387
-13918928.810984
-14429998.898457
-14500895.413187
-14687023.698364
-16756526.523381
SCALARS stress_3 float
LOOKUP_TABLE default
2311722.059533
3253806.217976
1453111.558754
841133.964229
271104.376711
-283940.961404
-844049.948777
-1403978.447771
-1964001.598314
-2523999.608274
-3084000.111619
-3643999.986580
-4204000.003376
-4763999.999986
-5324000.000761
-5884000.000654
-6444000.000672
-7004000.000987
-7563999.999629
-8124000.007246
-8683999.967856
-9244000.178522
-9803999.014223
-10364004.840297
-10923973.660404
-11484155.601291
-12043310.120625
-12607822.399888
-13138002.805740
-13815867.126793
-13762664.536173
-39507624.969370
8839764.265581
3553819.548941
4009737.106976
3566538.809591
3024330.531662
2460202.350612
1900065.318290
1339981.285187
780000.541767
219999.618316
-339999.906460
-900000.009287
-1459999.997921
-2020000.000945
-2580000.000385
-3140000.000515
-3700000.000602
-4260000.000330
-4820000.001855
-5379999.994282
-5940000.043385
-6499999.828429
-7060000.845009
-7619992.336859
-8180022.689286
-8739913.890352
-9301580.039038
-9857513.714515
-10417919.415337
-10596095.517597
-11657026.717976
-3203064.374814
2951630.127280
4041985.659990
3859564.914127
3423136.906771
2852677.338502
2292457.077156
1731938.081232
1172003.109439
611997.751188
52000.367528
-508000.043432
-1067999.987533
-1628000.002671
-2188000.000102
-2748000.000558
-3308000.000516
-3868000.000515
-4428000.000859
-4987999.999312
-5548000.007279
-6107999.964722
-6668000.205694
-7227999.040821
-7788005.289896
-8347966.801531
-8908132.564726
-9467249.725856
-10033836.827625
-10571788.517321
-11243239.674826
-10533856.327691
-3591494.983931
1240879.799179
2356533.699656
1113613.358771
328754.668809
-230050.057218
-788760.119649
-1347960.503061
-1907998.425478
-2467996.957991
-3028000.296816
-3587999.974503
-4148000.015127
-4707999.998572
-5268000.000964
-5828000.000592
-6388000.000718
-6948000.000812
-7508000.000542
-8068000.002473
-8627999.991664
-9188000.043180
-9747999.754036
-10308001.480859
-10867994.368460
-11428036.756665
-11987740.991646
-12548607.878903
-13102703.597456
-13720018.228325
-14215290.656675
-15465506.826304
-3089794.751968
