# vtk DataFile Version 2.0
Generated volume Mesh
ASCII
DATASET UNSTRUCTURED_GRID
POINTS 205 float
0.000000 -0.010000 0.000000
0.000000 0.010000 0.000000
0.200000 0.010000 0.000000
0.200000 -0.010000 0.000000
0.000000 0.005000 0.000000
0.000000 0.000000 0.000000
0.000000 -0.005000 0.000000
0.005000 -0.010000 0.000000
0.010000 -0.010000 0.000000
0.015000 -0.010000 0.000000
0.020000 -0.010000 0.000000
0.025000 -0.010000 0.000000
0.030000 -0.010000 0.000000
0.035000 -0.010000 0.000000
0.040000 -0.010000 0.000000
0.045000 -0.010000 0.000000
0.050000 -0.010000 0.000000
0.055000 -0.010000 0.000000
0.060000 -0.010000 0.000000
0.065000 -0.010000 0.000000
0.070000 -0.010000 0.000000
0.075000 -0.010000 0.000000
0.080000 -0.010000 0.000000
0.085000 -0.010000 0.000000
0.090000 -0.010000 0.000000
0.095000 -0.010000 0.000000
0.100000 -0.010000 0.000000
0.105000 -0.010000 0.000000
0.110000 -0.010000 0.000000
0.115000 -0.010000 0.000000
0.120000 -0.010000 0.000000
0.125000 -0.010000 0.000000
0.130000 -0.010000 0.000000
0.135000 -0.010000 0.000000
0.140000 -0.010000 0.000000
0.145000 -0.010000 0.000000
0.150000 -0.010000 0.000000
0.155000 -0.010000 0.000000
0.160000 -0.010000 0.000000
0.165000 -0.010000 0.000000
0.170000 -0.010000 0.000000
0.175000 -0.010000 0.000000
0.180000 -0.010000 0.000000
0.185000 -0.010000 0.000000
0.190000 -0.010000 0.000000
0.195000 -0.010000 0.000000
0.200000 -0.005000 0.000000
0.200000 -0.000000 0.000000
0.200000 0.005000 0.000000
0.195000 0.010000 0.000000
0.190000 0.010000 0.000000
0.185000 0.010000 0.000000
0.180000 0.010000 0.000000
0.175000 0.010000 0.000000
0.170000 0.010000 0.000000
0.165000 0.010000 0.000000
0.160000 0.010000 0.000000
0.155000 0.010000 0.000000
0.150000 0.010000 0.000000
0.145000 0.010000 0.000000
0.140000 0.010000 0.000000
0.135000 0.010000 0.000000
0.130000 0.010000 0.000000
0.125000 0.010000 0.000000
0.120000 0.010000 0.000000
0.115000 0.010000 0.000000
0.110000 0.010000 0.000000
0.105000 0.010000 0.000000
0.100000 0.010000 0.000000
0.095000 0.010000 0.000000
0.090000 0.010000 0.000000
0.085000 0.010000 0.000000
0.080000 0.010000 0.000000
0.075000 0.010000 0.000000
0.070000 0.010000 0.000000
0.065000 0.010000 0.000000
0.060000 0.010000 0.000000
0.055000 0.010000 0.000000
0.050000 0.010000 0.000000
0.045000 0.010000 0.000000
0.040000 0.010000 0.000000
0.035000 0.010000 0.000000
0.030000 0.010000 0.000000
0.025000 0.010000 0.000000
0.020000 0.010000 0.000000
0.015000 0.010000 0.000000
0.010000 0.010000 0.000000
0.005000 0.010000 0.000000
0.005000 0.005000 0.000000
0.010000 0.005000 0.000000
0.015000 0.005000 0.000000
0.020000 0.005000 0.000000
0.025000 0.005000 0.000000
0.030000 0.005000 0.000000
0.035000 0.005000 0.000000
0.040000 0.005000 0.000000
0.045000 0.005000 0.000000
0.050000 0.005000 0.000000
0.055000 0.005000 0.000000
0.060000 0.005000 0.000000
0.065000 0.005000 0.000000
0.070000 0.005000 0.000000
0.075000 0.005000 0.000000
0.080000 0.005000 0.000000
0.085000 0.005000 0.000000
0.090000 0.005000 0.000000
0.095000 0.005000 0.000000
0.100000 0.005000 0.000000
0.105000 0.005000 0.000000
0.110000 0.005000 0.000000
0.115000 0.005000 0.000000
0.120000 0.005000 0.000000
0.125000 0.005000 0.000000
0.130000 0.005000 0.000000
0.135000 0.005000 0.000000
0.140000 0.005000 0.000000
0.145000 0.005000 0.000000
0.150000 0.005000 0.000000
0.155000 0.005000 0.000000
0.160000 0.005000 0.000000
0.165000 0.005000 0.000000
0.170000 0.005000 0.000000
0.175000 0.005000 0.000000
0.180000 0.005000 0.000000
0.185000 0.005000 0.000000
0.190000 0.005000 0.000000
0.195000 0.005000 0.000000
0.005000 0.000000 0.000000
0.010000 0.000000 0.000000
0.015000 0.000000 0.000000
0.020000 0.000000 0.000000
0.025000 0.000000 0.000000
0.030000 0.000000 0.000000
0.035000 0.000000 0.000000
0.040000 0.000000 0.000000
0.045000 0.000000 0.000000
0.050000 0.000000 0.000000
0.055000 0.000000 0.000000
0.060000 0.000000 0.000000
0.065000 0.000000 0.000000
0.070000 0.000000 0.000000
0.075000 0.000000 0.000000
0.080000 0.000000 0.000000
0.085000 0.000000 0.000000
0.090000 0.000000 0.000000
0.095000 0.000000 0.000000
0.100000 -0.000000 0.000000
0.105000 -0.000000 0.000000
0.110000 -0.000000 0.000000
0.115000 -0.000000 0.000000
0.120000 -0.000000 0.000000
0.125000 -0.000000 0.000000
0.130000 -0.000000 0.000000
0.135000 -0.000000 0.000000
0.140000 -0.000000 0.000000
0.145000 -0.000000 0.000000
0.150000 -0.000000 0.000000
0.155000 -0.000000 0.000000
0.160000 -0.000000 0.000000
0.165000 -0.000000 0.000000
0.170000 -0.000000 0.000000
0.175000 -0.000000 0.000000
0.180000 -0.000000 0.000000
0.185000 -0.000000 0.000000
0.190000 -0.000000 0.000000
0.195000 -0.000000 0.000000
0.005000 -0.005000 0.000000
0.010000 -0.005000 0.000000
0.015000 -0.005000 0.000000
0.020000 -0.005000 0.000000
0.025000 -0.005000 0.000000
0.030000 -0.005000 0.000000
0.035000 -0.005000 0.000000
0.040000 -0.005000 0.000000
0.045000 -0.005000 0.000000
0.050000 -0.005000 0.000000
0.055000 -0.005000 0.000000
0.060000 -0.005000 0.000000
0.065000 -0.005000 0.000000
0.070000 -0.005000 0.000000
0.075000 -0.005000 0.000000
0.080000 -0.005000 0.000000
0.085000 -0.005000 0.000000
0.090000 -0.005000 0.000000
0.095000 -0.005000 0.000000
0.100000 -0.005000 0.000000
0.105000 -0.005000 0.000000
0.110000 -0.005000 0.000000
0.115000 -0.005000 0.000000
0.120000 -0.005000 0.000000
0.125000 -0.005000 0.000000
0.130000 -0.005000 0.000000
0.135000 -0.005000 0.000000
0.140000 -0.005000 0.000000
0.145000 -0.005000 0.000000
0.150000 -0.005000 0.000000
0.155000 -0.005000 0.000000
0.160000 -0.005000 0.000000
0.165000 -0.005000 0.000000
0.170000 -0.005000 0.000000
0.175000 -0.005000 0.000000
0.180000 -0.005000 0.000000
0.185000 -0.005000 0.000000
0.190000 -0.005000 0.000000
0.195000 -0.005000 0.000000
CELLS 160 800
4 1 4 88 87
4 87 88 89 86
4 86 89 90 85
4 85 90 91 84
4 84 91 92 83
4 83 92 93 82
4 82 93 94 81
4 81 94 95 80
4 80 95 96 79
4 79 96 97 78
4 78 97 98 77
4 77 98 99 76
4 76 99 100 75
4 75 100 101 74
4 74 101 102 73
4 73 102 103 72
4 72 103 104 71
4 71 104 105 70
4 70 105 106 69
4 69 106 107 68
4 68 107 108 67
4 67 108 109 66
4 66 109 110 65
4 65 110 111 64
4 64 111 112 63
4 63 112 113 62
4 62 113 114 61
4 61 114 115 60
4 60 115 116 59
4 59 116 117 58
4 58 117 118 57
4 57 118 119 56
4 56 119 120 55
4 55 120 121 54
4 54 121 122 53
4 53 122 123 52
4 52 123 124 51
4 51 124 125 50
4 50 125 126 49
4 49 126 48 2
4 4 5 127 88
4 88 127 128 89
4 89 128 129 90
4 90 129 130 91
4 91 130 131 92
4 92 131 132 93
4 93 132 133 94
4 94 133 134 95
4 95 134 135 96
4 96 135 136 97
4 97 136 137 98
4 98 137 138 99
4 99 138 139 100
4 100 139 140 101
4 101 140 141 102
4 102 141 142 103
4 103 142 143 104
4 104 143 144 105
4 105 144 145 106
4 106 145 146 107
4 107 146 147 108
4 108 147 148 109
4 109 148 149 110
4 110 149 150 111
4 111 150 151 112
4 112 151 152 113
4 113 152 153 114
4 114 153 154 115
4 115 154 155 116
4 116 155 156 117
4 117 156 157 118
4 118 157 158 119
4 119 158 159 120
4 120 159 160 121
4 121 160 161 122
4 122 161 162 123
4 123 162 163 124
4 124 163 164 125
4 125 164 165 126
4 126 165 47 48
4 5 6 166 127
4 127 166 167 128
4 128 167 168 129
4 129 168 169 130
4 130 169 170 131
4 131 170 171 132
4 132 171 172 133
4 133 172 173 134
4 134 173 174 135
4 135 174 175 136
4 136 175 176 137
4 137 176 177 138
4 138 177 178 139
4 139 178 179 140
4 140 179 180 141
4 141 180 181 142
4 142 181 182 143
4 143 182 183 144
4 144 183 184 145
4 145 184 185 146
4 146 185 186 147
4 147 186 187 148
4 148 187 188 149
4 149 188 189 150
4 150 189 190 151
4 151 190 191 152
4 152 191 192 153
4 153 192 193 154
4 154 193 194 155
4 155 194 195 156
4 156 195 196 157
4 157 196 197 158
4 158 197 198 159
4 159 198 199 160
4 160 199 200 161
4 161 200 201 162
4 162 201 202 163
4 163 202 203 164
4 164 203 204 165
4 165 204 46 47
4 6 0 7 166
4 166 7 8 167
4 167 8 9 168
4 168 9 10 169
4 169 10 11 170
4 170 11 12 171
4 171 12 13 172
4 172 13 14 173
4 173 14 15 174
4 174 15 16 175
4 175 16 17 176
4 176 17 18 177
4 177 18 19 178
4 178 19 20 179
4 179 20 21 180
4 180 21 22 181
4 181 22 23 182
4 182 23 24 183
4 183 24 25 184
4 184 25 26 185
4 185 26 27 186
4 186 27 28 187
4 187 28 29 188
4 188 29 30 189
4 189 30 31 190
4 190 31 32 191
4 191 32 33 192
4 192 33 34 193
4 193 34 35 194
4 194 35 36 195
4 195 36 37 196
4 196 37 38 197
4 197 38 39 198
4 198 39 40 199
4 199 40 41 200
4 200 41 42 201
4 201 42 43 202
4 202 43 44 203
4 203 44 45 204
4 204 45 3 46
CELL_TYPES 160
9
9
9
9
9
9
9
9
9
9
9
9
9
9
9
9
9
9
9
9
9
9
9
9
9
9
9
9
9
9
9
9
9
9
9
9
9
9
9
9
9
9
9
9
9
9
9
9
9
9
9
9
9
9
9
9
9
9
9
9
9
9
9
9
9
9
9
9
9
9
9
9
9
9
9
9
9
9
9
9
9
9
9
9
9
9
9
9
9
9
9
9
9
9
9
9
9
9
9
9
9
9
9
9
9
9
9
9
9
9
9
9
9
9
9
9
9
9
9
9
9
9
9
9
9
9
9
9
9
9
9
9
9
9
9
9
9
9
9
9
9
9
9
9
9
9
9
9
9
9
9
9
9
9
9
9
9
9
9
9
POINT_DATA 205
SCALARS u1 float
LOOKUP_TABLE default
0.023956
-0.023956
-0.000160
-0.000250
-0.011978
0.000000
0.011978
0.023949
0.023914
0.023839
0.023734
0.023599
0.023434
0.023239
0.023014
0.022759
0.022474
0.022159
0.021814
0.021439
0.021034
0.020599
0.020134
0.019639
0.019114
0.018559
0.017974
0.017359
0.016714
0.016039
0.015334
0.014599
0.013834
0.013039
0.012214
0.011359
0.010474
0.009559
0.008614
0.007639
0.006634
0.005599
0.004534
0.003438
0.002315
0.001180
-0.000250
-0.000133
0.000178
-0.001180
-0.002315
-0.003438
-0.004534
-0.005599
-0.006634
-0.007639
-0.008614
-0.009559
-0.010474
-0.011359
-0.012214
-0.013039
-0.013834
-0.014599
-0.015334
-0.016039
-0.016714
-0.017359
-0.017974
-0.018559
-0.019114
-0.019639
-0.020134
-0.020599
-0.021034
-0.021439
-0.021814
-0.022159
-0.022474
-0.022759
-0.023014
-0.023239
-0.023434
-0.023599
-0.023734
-0.023839
-0.023914
-0.023949
-0.011972
-0.011939
-0.011902
-0.011850
-0.011782
-0.011700
-0.011602
-0.011490
-0.011362
-0.011220
-0.011062
-0.010890
-0.010702
-0.010500
-0.010282
-0.010050
-0.009802
-0.009540
-0.009262
-0.008970
-0.008662
-0.008340
-0.008002
-0.007650
-0.007282
-0.006900
-0.006502
-0.006090
-0.005662
-0.005220
-0.004762
-0.004290
-0.003802
-0.003300
-0.002782
-0.002250
-0.001703
-0.001138
-0.000536
0.000000
0.000000
0.000000
0.000000
0.000000
0.000000
0.000000
0.000000
0.000000
0.000000
0.000000
0.000000
0.000000
0.000000
0.000000
0.000000
0.000000
0.000000
0.000000
0.000000
0.000000
0.000000
0.000000
0.000000
0.000000
0.000000
0.000000
0.000000
0.000000
0.000000
0.000000
0.000000
0.000000
0.000000
0.000000
0.000000
0.000000
0.000000
0.000000
0.011972
0.011939
0.011902
0.011850
0.011782
0.011700
0.011602
0.011490
0.011362
0.011220
0.011062
0.010890
0.010702
0.010500
0.010282
0.010050
0.009802
0.009540
0.009262
0.008970
0.008662
0.008340
0.008002
0.007650
0.007282
0.006900
0.006502
0.006090
0.005662
0.005220
0.004762
0.004290
0.003802
0.003300
0.002782
0.002250
0.001703
0.001138
0.000536
SCALARS u2 float
LOOKUP_TABLE default
-0.321483
-0.321483
0.000102
0.000227
-0.321493
-0.321570
-0.321493
-0.309488
-0.297478
-0.285490
-0.273551
-0.261672
-0.249867
-0.238153
-0.226544
-0.215054
-0.203700
-0.192495
-0.181456
-0.170597
-0.159932
-0.149478
-0.139248
-0.129259
-0.119525
-0.110060
-0.100881
-0.092001
-0.083437
-0.075203
-0.067313
-0.059784
-0.052629
-0.045865
-0.039506
-0.033566
-0.028062
-0.023007
-0.018418
-0.014309
-0.010694
-0.007590
-0.005010
-0.002972
-0.001486
-0.000591
0.000187
0.000217
-0.000326
-0.000591
-0.001486
-0.002972
-0.005010
-0.007590
-0.010694
-0.014309
-0.018418
-0.023007
-0.028062
-0.033566
-0.039506
-0.045865
-0.052629
-0.059784
-0.067313
-0.075203
-0.083437
-0.092001
-0.100881
-0.110060
-0.119525
-0.129259
-0.139248
-0.149478
-0.159932
-0.170597
-0.181456
-0.192495
-0.203700
-0.215054
-0.226544
-0.238153
-0.249867
-0.261672
-0.273551
-0.285490
-0.297478
-0.309488
-0.309486
-0.297461
-0.285471
-0.273524
-0.261638
-0.249827
-0.238106
-0.226490
-0.214993
-0.203632
-0.192421
-0.181375
-0.170509
-0.159838
-0.149377
-0.139140
-0.129144
-0.119403
-0.109932
-0.100746
-0.091860
-0.083288
-0.075047
-0.067151
-0.059615
-0.052454
-0.045683
-0.039317
-0.033370
-0.027859
-0.022798
-0.018202
-0.014086
-0.010465
-0.007353
-0.004768
-0.002720
-0.001234
-0.000291
-0.309467
-0.297457
-0.285463
-0.273515
-0.261627
-0.249813
-0.238090
-0.226472
-0.214973
-0.203610
-0.192396
-0.181348
-0.170480
-0.159806
-0.149343
-0.139104
-0.129106
-0.119363
-0.109889
-0.100701
-0.091812
-0.083239
-0.074996
-0.067097
-0.059559
-0.052395
-0.045622
-0.039254
-0.033305
-0.027792
-0.022728
-0.018130
-0.014012
-0.010388
-0.007275
-0.004686
-0.002639
-0.001136
-0.000216
-0.309486
-0.297461
-0.285471
-0.273524
-0.261638
-0.249827
-0.238106
-0.226490
-0.214993
-0.203632
-0.192421
-0.181375
-0.170509
-0.159838
-0.149377
-0.139140
-0.129144
-0.119403
-0.109932
-0.100746
-0.091860
-0.083288
-0.075047
-0.067151
-0.059615
-0.052454
-0.045683
-0.039317
-0.033370
-0.027859
-0.022798
-0.018202
-0.014086
-0.010465
-0.007353
-0.004768
-0.002720
-0.001234
-0.000291
SCALARS strain_1 float
LOOKUP_TABLE default
0.000001
0.000006
0.000008
0.000010
0.000013
0.000017
0.000019
0.000023
0.000025
0.000029
0.000031
0.000035
0.000037
0.000041
0.000043
0.000047
0.000049
0.000052
0.000055
0.000058
0.000061
0.000064
0.000067
0.000071
0.000073
0.000077
0.000079
0.000083
0.000085
0.000089
0.000091
0.000095
0.000097
0.000101
0.000104
0.000106
0.000109
0.000113
0.000120
0.000143
0.000000
-0.000000
-0.000000
-0.000000
-0.000000
-0.000000
-0.000000
-0.000000
-0.000000
-0.000000
0.000000
-0.000000
-0.000000
-0.000000
-0.000000
-0.000000
-0.000000
-0.000000
-0.000000
0.000000
-0.000000
-0.000000
-0.000000
-0.000000
-0.000000
-0.000000
-0.000000
-0.000000
-0.000000
-0.000000
-0.000000
-0.000000
-0.000000
-0.000000
-0.000000
-0.000000
0.000000
-0.000000
-0.000000
-0.000027
-0.000001
-0.000006
-0.000008
-0.000010
-0.000013
-0.000017
-0.000019
-0.000023
-0.000025
-0.000029
-0.000031
-0.000035
-0.000037
-0.000041
-0.000043
-0.000047
-0.000049
-0.000053
-0.000055
-0.000058
-0.000061
-0.000064
-0.000067
-0.000071
-0.000073
-0.000077
-0.000079
-0.000083
-0.000085
-0.000089
-0.000091
-0.000095
-0.000097
-0.000101
-0.000104
-0.000106
-0.000109
-0.000113
-0.000120
-0.000157
-0.000001
-0.000007
-0.000015
-0.000021
-0.000027
-0.000033
-0.000039
-0.000045
-0.000051
-0.000057
-0.000063
-0.000069
-0.000075
-0.000081
-0.000087
-0.000093
-0.000099
-0.000105
-0.000111
-0.000117
-0.000123
-0.000129
-0.000135
-0.000141
-0.000147
-0.000153
-0.000159
-0.000165
-0.000171
-0.000177
-0.000183
-0.000189
-0.000195
-0.000201
-0.000207
-0.000213
-0.000219
-0.000224
-0.000227
-0.000286
SCALARS strain_2 float
LOOKUP_TABLE default
0.000002
-0.000000
-0.000003
-0.000004
-0.000005
-0.000007
-0.000008
-0.000009
-0.000011
-0.000012
-0.000014
-0.000015
-0.000016
-0.000018
-0.000019
-0.000020
-0.000022
-0.000023
-0.000024
-0.000026
-0.000027
-0.000028
-0.000030
-0.000031
-0.000032
-0.000034
-0.000035
-0.000036
-0.000038
-0.000039
-0.000040
-0.000042
-0.000043
-0.000045
-0.000046
-0.000047
-0.000048
-0.000050
-0.000050
-0.000060
0.000015
-0.000004
-0.000001
-0.000001
-0.000002
-0.000002
-0.000003
-0.000003
-0.000004
-0.000004
-0.000004
-0.000005
-0.000005
-0.000006
-0.000006
-0.000007
-0.000007
-0.000008
-0.000008
-0.000009
-0.000009
-0.000009
-0.000010
-0.000010
-0.000011
-0.000011
-0.000012
-0.000012
-0.000013
-0.000013
-0.000014
-0.000014
-0.000014
-0.000015
-0.000015
-0.000016
-0.000016
-0.000016
-0.000020
-0.000015
-0.000015
0.000004
0.000001
0.000001
0.000002
0.000002
0.000003
0.000003
0.000004
0.000004
0.000004
0.000005
0.000005
0.000006
0.000006
0.000007
0.000007
0.000008
0.000008
0.000009
0.000009
0.000009
0.000010
0.000010
0.000011
0.000011
0.000012
0.000012
0.000013
0.000013
0.000014
0.000014
0.000014
0.000015
0.000015
0.000016
0.000016
0.000016
0.000020
0.000015
-0.000002
0.000000
0.000003
0.000004
0.000005
0.000007
0.000008
0.000009
0.000011
0.000012
0.000014
0.000015
0.000016
0.000018
0.000019
0.000020
0.000022
0.000023
0.000024
0.000026
0.000027
0.000028
0.000030
0.000031
0.000032
0.000034
0.000035
0.000036
0.000038
0.000039
0.000040
0.000042
0.000043
0.000045
0.000046
0.000047
0.000048
0.000050
0.000050
0.000060
SCALARS strain_3 float
LOOKUP_TABLE default
0.000003
0.000005
0.000001
0.000001
0.000000
-0.000001
-0.000001
-0.000002
-0.000003
-0.000004
-0.000004
-0.000005
-0.000006
-0.000007
-0.000007
-0.000008
-0.000009
-0.000010
-0.000010
-0.000011
-0.000012
-0.000013
-0.000013
-0.000014
-0.000015
-0.000016
-0.000016
-0.000017
-0.000018
-0.000019
-0.000019
-0.000020
-0.000021
-0.000022
-0.000022
-0.000023
-0.000024
-0.000025
-0.000023
-0.000068
0.000013
0.000004
0.000005
0.000005
0.000004
0.000003
0.000002
0.000002
0.000001
0.000000
-0.000001
-0.000001
-0.000002
-0.000003
-0.000004
-0.000004
-0.000005
-0.000006
-0.000007
-0.000007
-0.000008
-0.000009
-0.000010
-0.000010
-0.000011
-0.000012
-0.000013
-0.000013
-0.000014
-0.000015
-0.000016
-0.000016
-0.000017
-0.000018
-0.000019
-0.000019
-0.000020
-0.000020
-0.000022
-0.000010
0.000003
0.000005
0.000005
0.000004
0.000004
0.000003
0.000002
0.000001
0.000001
-0.000000
-0.000001
-0.000002
-0.000002
-0.000003
-0.000004
-0.000005
-0.000005
-0.000006
-0.000007
-0.000008
-0.000008
-0.000009
-0.000010
-0.000011
-0.000011
-0.000012
-0.000013
-0.000014
-0.000014
-0.000015
-0.000016
-0.000017
-0.000017
-0.000018
-0.000019
-0.000020
-0.000020
-0.000022
-0.000019
-0.000006
0.000002
0.000003
0.000001
0.000000
-0.000000
-0.000001
-0.000002
-0.000003
-0.000003
-0.000004
-0.000005
-0.000006
-0.000006
-0.000007
-0.000008
-0.000009
-0.000009
-0.000010
-0.000011
-0.000012
-0.000012
-0.000013
-0.000014
-0.000015
-0.000015
-0.000016
-0.000017
-0.000018
-0.000018
-0.000019
-0.000020
-0.000021
-0.000021
-0.000022
-0.000023
-0.000024
-0.000025
-0.000025
-0.000028
0.000017
SCALARS stress_1 float
LOOKUP_TABLE default
2013853.578197
6919063.672558
7109859.057472
10216798.821411
13039519.232721
15912029.068617
18757027.445908
21610207.735802
24461441.702532
27313214.278544
30164827.683973
33016485.603184
35868131.279734
38719780.384670
41571428.525566
44423076.935917
47274725.271181
50126373.627166
52978021.977357
55829670.329382
58681318.680761
61532967.032212
64384615.384100
67236263.734124
70087912.091351
72939560.422930
75791208.846862
78642856.933287
81494506.184539
84346151.546400
87197812.735594
90049407.513974
92901154.277068
95752695.588760
98608696.626692
101437711.622395
104203459.765569
107528549.056675
115601561.018078
137102086.978320
5078293.966367
-1254234.775812
-225107.812431
-477065.447970
-578828.713490
-745440.948511
-889210.803978
-1038725.078124
-1186736.467363
-1335185.945517
-1483510.645946
-1631869.774639
-1780219.319367
-1928571.557381
-2076923.041112
-2225274.735445
-2373626.370971
-2521978.023051
-2670329.670085
-2818681.318707
-2967032.967181
-3115384.615342
-3263736.264527
-3412087.909585
-3560439.569706
-3708791.175907
-3857142.974809
-4005494.084944
-4153847.654118
-4302192.429985
-4450568.792305
-4598832.413231
-4747493.091545
-4894722.585783
-5047304.108330
-5181400.298660
-5372463.493347
-5326825.492229
-6474589.505086
-34141722.699551
-6394184.016057
-5820998.680269
-8025211.584407
-11019795.517134
-14252427.198223
-17388205.028280
-20539257.351613
-23686568.782570
-26835226.351450
-29983499.689374
-33131873.005604
-36280218.410482
-39428571.807910
-42576922.971372
-45725274.755429
-48873626.365643
-52021978.024507
-55170329.669696
-58318681.318672
-61467032.966799
-64615384.614930
-67763736.263572
-70912087.910355
-74060439.563740
-77208791.193029
-80357142.909762
-83505494.313829
-86653846.828507
-89802195.331591
-92950558.456157
-96098871.197229
-99247354.035078
-102395144.567304
-105545756.884281
-108689963.115900
-111845634.934926
-114802055.964642
-118821073.977151
-125741047.017280
-167831746.857596
-2298467.880423
-7432619.055831
-15498024.965071
-21812928.806130
-27887165.473988
-34038496.321130
-40186372.741268
-46335299.696229
-52483489.547255
-58631875.574204
-64780217.432831
-70928572.083809
-77076922.901098
-83225274.775771
-89373626.360357
-95521978.026475
-101670329.669330
-107818681.318738
-113967032.966826
-120115384.614842
-126263736.263185
-132412087.910213
-138560439.561547
-144708791.197897
-150857142.889008
-157005494.383040
-163153846.581153
-169302196.267047
-175450554.990091
-181598881.218558
-187747321.221722
-193895360.312524
-200044934.423261
-206188857.562254
-212348720.458387
-218455138.372944
-224928771.221967
-230073917.454478
-232784272.329110
-294621387.457259
SCALARS stress_2 float
LOOKUP_TABLE default
2721312.110194
1602004.091410
-1326438.645074
-817815.522183
-1523078.822447
-1965295.900126
-2476261.917993
-2966032.257495
-3461814.874955
-3955965.497268
-4450571.462821
-4945048.816978
-5439562.152629
-5934065.454247
-6428571.562910
-6923076.885494
-7417582.428093
-7912087.909263
-8406593.407495
-8901098.900834
-9395604.395469
-9890109.890767
-10384615.382096
-10879120.887836
-11373626.341408
-11868131.982668
-12362636.951989
-12857144.325976
-13351643.107313
-13846172.532516
-14340592.182421
-14835407.179397
-15328819.973958
-15827135.762152
-16307388.490539
-16856301.466302
-17184509.803540
-18153464.868054
-15715560.723979
-18966758.900148
16927646.554367
-4180782.585990
-750359.374723
-1590218.159477
-1929429.044891
-2484803.161557
-2964036.013168
-3462416.926738
-3955788.224161
-4450619.818355
-4945035.486640
-5439565.915090
-5934064.397549
-6428571.857529
-6923076.803283
-7417582.451185
-7912087.902717
-8406593.409293
-8901098.900245
-9395604.395754
-9890109.890323
-10384615.383941
-10879120.881360
-11373626.364864
-11868131.898553
-12362637.252803
-12857143.249173
-13351646.949466
-13846158.846750
-14340641.433133
-14835229.307453
-15329441.377195
-15824976.971572
-16315741.952329
-16824347.027303
-17271334.328460
-17908211.644499
-17756084.974001
-21581965.016741
-25271565.980814
-17322413.569260
2058212.549166
-1724736.444390
-1858840.129902
-2519947.728685
-2955290.631529
-3464504.433565
-3955171.231380
-4450800.621324
-4944985.872029
-5439579.608818
-5934060.540301
-6428572.940516
-6923076.500958
-7417582.535721
-7912087.879092
-8406593.415912
-8901098.898326
-9395604.396319
-9890109.890012
-10384615.384463
-10879120.879671
-11373626.371004
-11868131.876931
-12362637.330094
-12857142.972739
-13351647.937271
-13846155.324529
-14340654.048904
-14835183.832557
-15329602.689290
-15824414.557335
-16317814.326214
-16816401.888681
-17296833.139888
-17836776.241560
-18144144.192823
-19488284.866695
-18082725.939967
-35320474.886229
-2806696.400571
-1756070.706413
-1190011.127241
-2661023.473191
-2931215.049968
-3472644.275524
-3952541.670490
-4451495.330682
-4944799.478275
-5439632.891430
-5934045.461794
-6428577.127113
-6923075.333704
-7417582.863000
-7912087.787514
-8406593.441499
-8901098.891352
-9395604.398126
-9890109.889387
-10384615.384822
-10879120.879216
-11373626.372623
-11868131.871111
-12362637.351020
-12857142.897775
-13351648.205270
-13846154.368226
-14340657.474127
-14835171.534351
-15329646.368956
-15824260.363376
-16318378.660221
-16814314.069923
-17303712.829912
-17814618.658974
-18248926.558839
-19033083.633223
-18610145.651194
-19439252.669189
-28289031.243600
SCALARS stress_3 float
LOOKUP_TABLE default
2220697.504955
3701361.466584
1141202.135971
752883.935793
151217.828644
-409290.596962
-991323.127870
-1567059.409626
-2144306.077722
-2721132.536457
-3298082.735856
-3874998.377697
-4451923.534711
-5028846.026179
-5605769.266762
-6182692.298016
-6759615.387632
-7336538.461073
-7913461.538975
-8490384.615493
-9067307.692358
-9644230.769934
-10221153.844570
-10798076.929464
-11374999.977662
-11951923.157147
-12528845.867291
-13105770.256217
-13682688.643726
-14259628.453792
-14836491.627566
-15413630.084543
-15989787.403231
-16569401.231346
-17136498.575673
-17750305.607150
-18205048.921235
-19154284.950716
-17958975.620575
-52248422.468106
9691433.765019
2944445.915124
4175472.608765
3563681.364951
3002928.231934
2410033.748228
1837215.592549
1259418.946177
682754.047028
105752.255129
-471149.259476
-1048078.216498
-1624999.634733
-2201923.179175
-2778846.125731
-3355769.239084
-3932692.305810
-4509615.385647
-5086538.461651
-5663461.538746
-6240384.615847
-6817307.692133
-7394230.771326
-7971153.839638
-8548076.947263
-9124999.914261
-9701923.384031
-10278845.060039
-10855773.153392
-11432678.149715
-12009665.430281
-12586364.627383
-13164109.883308
-13737879.548980
-14325031.990468
-14873342.329259
-15600874.069585
-15350584.948920
-16706731.987181
-8009806.935563
2303483.565825
4145094.039105
3881522.033991
3444957.555108
2808547.291021
2242302.250135
1662782.272752
1086738.992121
509562.989114
-67293.228794
-644234.909506
-1221152.685293
-1798077.245723
-2374999.910098
-2951923.102552
-3528846.147111
-4105769.233118
-4682692.307472
-5259615.385138
-5836538.461884
-6413461.538675
-6990384.616230
-7567307.690606
-8144230.776397
-8721153.821260
-9298077.013013
-9874999.679083
-10451924.224065
-11028842.058690
-11605783.905732
-12182639.654597
-12759802.085352
-13335877.626621
-13915891.325223
-14481477.545809
-15096249.389913
-15547629.734970
-16689642.963811
-14933447.758638
-4493182.589150
1224208.640734
2553022.484966
978333.364265
155930.311350
-350309.105441
-934085.031988
-1508909.445655
-2086733.566428
-2663414.691127
-3240397.916150
-3817303.785900
-4394231.854112
-4971153.547425
-5548077.007250
-6124999.976697
-6701923.083696
-7278846.152301
-7855769.231466
-8432692.307837
-9009615.384840
-9586538.461941
-10163461.537916
-10740384.617998
-11317307.683543
-11894230.800999
-12471153.732732
-13048077.328703
-13624998.547291
-14201928.272157
-14778827.687106
-15355835.254712
-15932451.939785
-16510471.319291
-17083652.400428
-17674043.758211
-18195664.368798
-18961388.094993
-19148130.890837
-21690266.375962
13363165.912292
