# vtk DataFile Version 2.0
Generated volume Mesh
ASCII
DATASET UNSTRUCTURED_GRID
POINTS 994 float
-0.416146 -0.294827 0.000000
-0.409251 -0.287252 0.000000
-0.421925 -0.286495 0.000000
-0.410201 -0.303043 0.000000
-0.427538 -0.278049 0.000000
-0.404095 -0.311138 0.000000
-0.432982 -0.269494 0.000000
-0.397829 -0.319111 0.000000
-0.438254 -0.260832 0.000000
-0.391406 -0.326958 0.000000
-0.443353 -0.252067 0.000000
-0.384828 -0.334675 0.000000
-0.448277 -0.243202 0.000000
-0.378098 -0.342260 0.000000
-0.453024 -0.234242 0.000000
-0.371218 -0.349710 0.000000
-0.457592 -0.225188 0.000000
-0.364192 -0.357021 0.000000
-0.461979 -0.216046 0.000000
-0.357021 -0.364192 0.000000
-0.466183 -0.206818 0.000000
-0.349710 -0.371218 0.000000
-0.470203 -0.197508 0.000000
-0.342260 -0.378098 0.000000
-0.474037 -0.188120 0.000000
-0.334675 -0.384828 0.000000
-0.477683 -0.178658 0.000000
-0.326958 -0.391406 0.000000
-0.481141 -0.169126 0.000000
-0.319111 -0.397829 0.000000
-0.484408 -0.159526 0.000000
-0.311138 -0.404095 0.000000
-0.487484 -0.149864 0.000000
-0.303043 -0.410201 0.000000
-0.490368 -0.140141 0.000000
-0.294827 -0.416146 0.000000
-0.493057 -0.130363 0.000000
-0.286495 -0.421925 0.000000
-0.495552 -0.120532 0.000000
-0.278049 -0.427538 0.000000
-0.497851 -0.110654 0.000000
-0.269494 -0.432982 0.000000
-0.499953 -0.100732 0.000000
-0.260832 -0.438254 0.000000
-0.501857 -0.090771 0.000000
-0.252067 -0.443353 0.000000
-0.503563 -0.080774 0.000000
-0.243202 -0.448277 0.000000
-0.505069 -0.070746 0.000000
-0.234242 -0.453024 0.000000
-0.506376 -0.060691 0.000000
-0.225188 -0.457592 0.000000
-0.507482 -0.050612 0.000000
-0.216046 -0.461979 0.000000
-0.508388 -0.040514 0.000000
-0.206818 -0.466183 0.000000
-0.509093 -0.030400 0.000000
-0.197508 -0.470203 0.000000
-0.509597 -0.020274 0.000000
-0.188120 -0.474037 0.000000
-0.509899 -0.010139 0.000000
-0.178658 -0.477683 0.000000
-0.510000 0.000000 0.000000
-0.169126 -0.481141 0.000000
-0.509899 0.010139 0.000000
-0.509597 0.020274 0.000000
-0.159526 -0.484408 0.000000
-0.509093 0.030400 0.000000
-0.149864 -0.487484 0.000000
-0.508388 0.040514 0.000000
-0.140141 -0.490368 0.000000
-0.507482 0.050612 0.000000
-0.130363 -0.493057 0.000000
-0.506376 0.060691 0.000000
-0.120532 -0.495552 0.000000
-0.505069 0.070746 0.000000
-0.110654 -0.497851 0.000000
-0.503563 0.080774 0.000000
-0.100732 -0.499953 0.000000
-0.501857 0.090771 0.000000
-0.090771 -0.501857 0.000000
-0.499953 0.100732 0.000000
-0.080774 -0.503563 0.000000
-0.497851 0.110654 0.000000
-0.070746 -0.505069 0.000000
-0.495552 0.120532 0.000000
-0.060691 -0.506376 0.000000
-0.493057 0.130363 0.000000
-0.050612 -0.507482 0.000000
-0.490368 0.140141 0.000000
-0.040514 -0.508388 0.000000
-0.487484 0.149864 0.000000
-0.484408 0.159526 0.000000
-0.030400 -0.509093 0.000000
-0.020274 -0.509597 0.000000
-0.481141 0.169126 0.000000
-0.010139 -0.509899 0.000000
-0.477683 0.178658 0.000000
0.000000 -0.510000 0.000000
-0.474037 0.188120 0.000000
0.010139 -0.509899 0.000000
-0.470203 0.197508 0.000000
0.020274 -0.509597 0.000000
-0.466183 0.206818 0.000000
0.030400 -0.509093 0.000000
-0.461979 0.216046 0.000000
0.040514 -0.508388 0.000000
-0.457592 0.225188 0.000000
0.050612 -0.507482 0.000000
-0.453024 0.234242 0.000000
0.060691 -0.506376 0.000000
-0.448277 0.243202 0.000000
0.070746 -0.505069 0.000000
-0.443353 0.252067 0.000000
0.080774 -0.503563 0.000000
-0.438254 0.260832 0.000000
0.090771 -0.501857 0.000000
-0.432982 0.269494 0.000000
0.100732 -0.499953 0.000000
-0.427538 0.278049 0.000000
0.110654 -0.497851 0.000000
-0.421925 0.286495 0.000000
0.120532 -0.495552 0.000000
-0.416146 0.294827 0.000000
0.130363 -0.493057 0.000000
-0.410201 0.303043 0.000000
0.140141 -0.490368 0.000000
-0.404095 0.311138 0.000000
0.149864 -0.487484 0.000000
0.159526 -0.484408 0.000000
-0.397829 0.319111 0.000000
0.169126 -0.481141 0.000000
-0.391406 0.326958 0.000000
0.178658 -0.477683 0.000000
-0.384828 0.334675 0.000000
0.188120 -0.474037 0.000000
-0.378098 0.342260 0.000000
0.197508 -0.470203 0.000000
-0.371218 0.349710 0.000000
0.206818 -0.466183 0.000000
-0.364192 0.357021 0.000000
0.216046 -0.461979 0.000000
-0.357021 0.364192 0.000000
0.225188 -0.457592 0.000000
-0.349710 0.371218 0.000000
0.234242 -0.453024 0.000000
-0.342260 0.378098 0.000000
0.243202 -0.448277 0.000000
-0.334675 0.384828 0.000000
0.252067 -0.443353 0.000000
-0.326958 0.391406 0.000000
0.260832 -0.438254 0.000000
-0.319111 0.397829 0.000000
0.269494 -0.432982 0.000000
-0.311138 0.404095 0.000000
0.278049 -0.427538 0.000000
-0.303043 0.410201 0.000000
0.286495 -0.421925 0.000000
-0.294827 0.416146 0.000000
0.294827 -0.416146 0.000000
-0.286495 0.421925 0.000000
0.303043 -0.410201 0.000000
-0.278049 0.427538 0.000000
0.311138 -0.404095 0.000000
-0.269494 0.432982 0.000000
0.319111 -0.397829 0.000000
-0.260832 0.438254 0.000000
0.326958 -0.391406 0.000000
-0.252067 0.443353 0.000000
0.334675 -0.384828 0.000000
-0.243202 0.448277 0.000000
0.342260 -0.378098 0.000000
-0.234242 0.453024 0.000000
0.349710 -0.371218 0.000000
-0.225188 0.457592 0.000000
0.357021 -0.364192 0.000000
-0.216046 0.461979 0.000000
0.364192 -0.357021 0.000000
-0.206818 0.466183 0.000000
0.371218 -0.349710 0.000000
-0.197508 0.470203 0.000000
0.378098 -0.342260 0.000000
-0.188120 0.474037 0.000000
0.384828 -0.334675 0.000000
-0.178658 0.477683 0.000000
0.391406 -0.326958 0.000000
-0.169126 0.481141 0.000000
0.397829 -0.319111 0.000000
-0.159526 0.484408 0.000000
0.404095 -0.311138 0.000000
-0.149864 0.487484 0.000000
0.410201 -0.303043 0.000000
-0.140141 0.490368 0.000000
0.416146 -0.294827 0.000000
-0.130363 0.493057 0.000000
0.421925 -0.286495 0.000000
-0.120532 0.495552 0.000000
0.427538 -0.278049 0.000000
-0.110654 0.497851 0.000000
0.432982 -0.269494 0.000000
-0.100732 0.499953 0.000000
0.438254 -0.260832 0.000000
-0.090771 0.501857 0.000000
0.443353 -0.252067 0.000000
-0.080774 0.503563 0.000000
0.448277 -0.243202 0.000000
-0.070746 0.505069 0.000000
0.453024 -0.234242 0.000000
-0.060691 0.506376 0.000000
0.457592 -0.225188 0.000000
-0.050612 0.507482 0.000000
0.461979 -0.216046 0.000000
-0.040514 0.508388 0.000000
0.466183 -0.206818 0.000000
-0.030400 0.509093 0.000000
0.470203 -0.197508 0.000000
-0.020274 0.509597 0.000000
0.474037 -0.188120 0.000000
-0.010139 0.509899 0.000000
0.477683 -0.178658 0.000000
0.000000 0.510000 0.000000
0.481141 -0.169126 0.000000
0.010139 0.509899 0.000000
0.484408 -0.159526 0.000000
0.020274 0.509597 0.000000
0.487484 -0.149864 0.000000
0.030400 0.509093 0.000000
0.490368 -0.140141 0.000000
0.040514 0.508388 0.000000
0.493057 -0.130363 0.000000
0.050612 0.507482 0.000000
0.495552 -0.120532 0.000000
0.060691 0.506376 0.000000
0.497851 -0.110654 0.000000
0.070746 0.505069 0.000000
0.499953 -0.100732 0.000000
0.080774 0.503563 0.000000
0.501857 -0.090771 0.000000
0.090771 0.501857 0.000000
0.503563 -0.080774 0.000000
0.100732 0.499953 0.000000
0.505069 -0.070746 0.000000
0.110654 0.497851 0.000000
0.506376 -0.060691 0.000000
0.120532 0.495552 0.000000
0.507482 -0.050612 0.000000
0.130363 0.493057 0.000000
0.508388 -0.040514 0.000000
0.140141 0.490368 0.000000
0.509093 -0.030400 0.000000
0.149864 0.487484 0.000000
0.509597 -0.020274 0.000000
0.159526 0.484408 0.000000
0.509899 -0.010139 0.000000
0.169126 0.481141 0.000000
0.510000 0.000000 0.000000
0.178658 0.477683 0.000000
0.509899 0.010139 0.000000
0.188120 0.474037 0.000000
0.509597 0.020274 0.000000
0.197508 0.470203 0.000000
0.509093 0.030400 0.000000
0.206818 0.466183 0.000000
0.508388 0.040514 0.000000
0.216046 0.461979 0.000000
0.507482 0.050612 0.000000
0.225188 0.457592 0.000000
0.506376 0.060691 0.000000
0.234242 0.453024 0.000000
0.505069 0.070746 0.000000
0.243202 0.448277 0.000000
0.503563 0.080774 0.000000
0.252067 0.443353 0.000000
0.501857 0.090771 0.000000
0.260832 0.438254 0.000000
0.499953 0.100732 0.000000
0.269494 0.432982 0.000000
0.497851 0.110654 0.000000
0.278049 0.427538 0.000000
0.495552 0.120532 0.000000
0.286495 0.421925 0.000000
0.493057 0.130363 0.000000
0.294827 0.416146 0.000000
0.490368 0.140141 0.000000
0.303043 0.410201 0.000000
0.487484 0.149864 0.000000
0.311138 0.404095 0.000000
0.484408 0.159526 0.000000
0.319111 0.397829 0.000000
0.481141 0.169126 0.000000
0.326958 0.391406 0.000000
0.477683 0.178658 0.000000
0.334675 0.384828 0.000000
0.474037 0.188120 0.000000
0.342260 0.378098 0.000000
0.470203 0.197508 0.000000
0.349710 0.371218 0.000000
0.466183 0.206818 0.000000
0.357021 0.364192 0.000000
0.461979 0.216046 0.000000
0.364192 0.357021 0.000000
0.457592 0.225188 0.000000
0.371218 0.349710 0.000000
0.453024 0.234242 0.000000
0.378098 0.342260 0.000000
0.448277 0.243202 0.000000
0.384828 0.334675 0.000000
0.443353 0.252067 0.000000
0.391406 0.326958 0.000000
0.438254 0.260832 0.000000
0.397829 0.319111 0.000000
0.432982 0.269494 0.000000
0.404095 0.311138 0.000000
0.427538 0.278049 0.000000
0.410201 0.303043 0.000000
0.421925 0.286495 0.000000
0.416146 0.294827 0.000000
-0.415025 -0.278844 0.000000
-0.403306 -0.295541 0.000000
-0.420627 -0.270320 0.000000
-0.397194 -0.303706 0.000000
-0.426054 -0.261684 0.000000
-0.390916 -0.311745 0.000000
-0.431303 -0.252938 0.000000
-0.384475 -0.319654 0.000000
-0.436373 -0.244088 0.000000
-0.377875 -0.327430 0.000000
-0.441261 -0.235136 0.000000
-0.371117 -0.335070 0.000000
-0.445965 -0.226086 0.000000
-0.364205 -0.342571 0.000000
-0.450484 -0.216942 0.000000
-0.357141 -0.349929 0.000000
-0.454816 -0.207707 0.000000
-0.349929 -0.357141 0.000000
-0.458958 -0.198386 0.000000
-0.342571 -0.364205 0.000000
-0.462910 -0.188983 0.000000
-0.335070 -0.371117 0.000000
-0.466668 -0.179501 0.000000
-0.327430 -0.377875 0.000000
-0.470233 -0.169944 0.000000
-0.319654 -0.384475 0.000000
-0.473602 -0.160317 0.000000
-0.311745 -0.390916 0.000000
-0.476773 -0.150623 0.000000
-0.303706 -0.397194 0.000000
-0.479747 -0.140866 0.000000
-0.295541 -0.403306 0.000000
-0.482520 -0.131050 0.000000
-0.287252 -0.409251 0.000000
-0.485094 -0.121178 0.000000
-0.278844 -0.415025 0.000000
-0.487465 -0.111256 0.000000
-0.270320 -0.420627 0.000000
-0.489633 -0.101287 0.000000
-0.261684 -0.426054 0.000000
-0.491598 -0.091277 0.000000
-0.252938 -0.431303 0.000000
-0.493358 -0.081229 0.000000
-0.244088 -0.436373 0.000000
-0.494912 -0.071148 0.000000
-0.235136 -0.441261 0.000000
-0.496260 -0.061039 0.000000
-0.226086 -0.445965 0.000000
-0.497402 -0.050904 0.000000
-0.216942 -0.450484 0.000000
-0.498337 -0.040749 0.000000
-0.207707 -0.454816 0.000000
-0.499064 -0.030577 0.000000
-0.198386 -0.458958 0.000000
-0.499584 -0.020392 0.000000
-0.188983 -0.462910 0.000000
-0.499896 -0.010199 0.000000
-0.179501 -0.466668 0.000000
-0.500000 0.000000 0.000000
-0.169944 -0.470233 0.000000
-0.499896 0.010199 0.000000
-0.160317 -0.473602 0.000000
-0.499584 0.020392 0.000000
-0.150623 -0.476773 0.000000
-0.499064 0.030577 0.000000
-0.140866 -0.479747 0.000000
-0.498337 0.040749 0.000000
-0.131050 -0.482520 0.000000
-0.497402 0.050904 0.000000
-0.121178 -0.485094 0.000000
-0.496260 0.061039 0.000000
-0.111256 -0.487465 0.000000
-0.494912 0.071148 0.000000
-0.101287 -0.489633 0.000000
-0.493358 0.081229 0.000000
-0.091277 -0.491598 0.000000
-0.491598 0.091277 0.000000
-0.081229 -0.493358 0.000000
-0.489633 0.101287 0.000000
-0.071148 -0.494912 0.000000
-0.487465 0.111256 0.000000
-0.061039 -0.496260 0.000000
-0.485094 0.121178 0.000000
-0.050904 -0.497402 0.000000
-0.482520 0.131050 0.000000
-0.040749 -0.498337 0.000000
-0.479747 0.140866 0.000000
-0.030577 -0.499064 0.000000
-0.476773 0.150623 0.000000
-0.020392 -0.499584 0.000000
-0.473602 0.160317 0.000000
-0.010199 -0.499896 0.000000
-0.470233 0.169944 0.000000
0.000000 -0.500000 0.000000
-0.466668 0.179501 0.000000
0.010199 -0.499896 0.000000
-0.462910 0.188983 0.000000
0.020392 -0.499584 0.000000
-0.458958 0.198386 0.000000
0.030577 -0.499064 0.000000
-0.454816 0.207707 0.000000
0.040749 -0.498337 0.000000
-0.450484 0.216942 0.000000
0.050904 -0.497402 0.000000
-0.445965 0.226086 0.000000
0.061039 -0.496260 0.000000
-0.441261 0.235136 0.000000
0.071148 -0.494912 0.000000
-0.436373 0.244088 0.000000
0.081229 -0.493358 0.000000
-0.431303 0.252938 0.000000
0.091277 -0.491598 0.000000
-0.426054 0.261684 0.000000
0.101287 -0.489633 0.000000
-0.420627 0.270320 0.000000
0.111256 -0.487465 0.000000
-0.415025 0.278844 0.000000
0.121178 -0.485094 0.000000
-0.409251 0.287252 0.000000
0.131050 -0.482520 0.000000
-0.403306 0.295541 0.000000
0.140866 -0.479747 0.000000
-0.397194 0.303706 0.000000
0.150623 -0.476773 0.000000
-0.390916 0.311745 0.000000
0.160317 -0.473602 0.000000
-0.384475 0.319654 0.000000
0.169944 -0.470233 0.000000
-0.377875 0.327430 0.000000
0.179501 -0.466668 0.000000
-0.371117 0.335070 0.000000
0.188983 -0.462910 0.000000
-0.364205 0.342571 0.000000
0.198386 -0.458958 0.000000
-0.357141 0.349929 0.000000
0.207707 -0.454816 0.000000
-0.349929 0.357141 0.000000
0.216942 -0.450484 0.000000
-0.342571 0.364205 0.000000
0.226086 -0.445965 0.000000
-0.335070 0.371117 0.000000
0.235136 -0.441261 0.000000
-0.327430 0.377875 0.000000
0.244088 -0.436373 0.000000
-0.319654 0.384475 0.000000
0.252938 -0.431303 0.000000
-0.311745 0.390916 0.000000
0.261684 -0.426054 0.000000
-0.303706 0.397194 0.000000
0.270320 -0.420627 0.000000
-0.295541 0.403306 0.000000
0.278844 -0.415025 0.000000
-0.287252 0.409251 0.000000
0.287252 -0.409251 0.000000
-0.278844 0.415025 0.000000
0.295541 -0.403306 0.000000
-0.270320 0.420627 0.000000
0.303706 -0.397194 0.000000
-0.261684 0.426054 0.000000
0.311745 -0.390916 0.000000
-0.252938 0.431303 0.000000
0.319654 -0.384475 0.000000
-0.244088 0.436373 0.000000
0.327430 -0.377875 0.000000
-0.235136 0.441261 0.000000
0.335070 -0.371117 0.000000
-0.226086 0.445965 0.000000
0.342571 -0.364205 0.000000
-0.216942 0.450484 0.000000
0.349929 -0.357141 0.000000
-0.207707 0.454816 0.000000
0.357141 -0.349929 0.000000
-0.198386 0.458958 0.000000
0.364205 -0.342571 0.000000
-0.188983 0.462910 0.000000
0.371117 -0.335070 0.000000
-0.179501 0.466668 0.000000
0.377875 -0.327430 0.000000
-0.169944 0.470233 0.000000
0.384475 -0.319654 0.000000
-0.160317 0.473602 0.000000
0.390916 -0.311745 0.000000
-0.150623 0.476773 0.000000
0.397194 -0.303706 0.000000
-0.140866 0.479747 0.000000
0.403306 -0.295541 0.000000
-0.131050 0.482520 0.000000
0.409251 -0.287252 0.000000
-0.121178 0.485094 0.000000
0.415025 -0.278844 0.000000
-0.111256 0.487465 0.000000
0.420627 -0.270320 0.000000
-0.101287 0.489633 0.000000
0.426054 -0.261684 0.000000
-0.091277 0.491598 0.000000
0.431303 -0.252938 0.000000
-0.081229 0.493358 0.000000
0.436373 -0.244088 0.000000
-0.071148 0.494912 0.000000
0.441261 -0.235136 0.000000
-0.061039 0.496260 0.000000
0.445965 -0.226086 0.000000
-0.050904 0.497402 0.000000
0.450484 -0.216942 0.000000
-0.040749 0.498337 0.000000
0.454816 -0.207707 0.000000
-0.030577 0.499064 0.000000
0.458958 -0.198386 0.000000
-0.020392 0.499584 0.000000
0.462910 -0.188983 0.000000
-0.010199 0.499896 0.000000
0.466668 -0.179501 0.000000
0.000000 0.500000 0.000000
0.470233 -0.169944 0.000000
0.010199 0.499896 0.000000
0.473602 -0.160317 0.000000
0.020392 0.499584 0.000000
0.476773 -0.150623 0.000000
0.030577 0.499064 0.000000
0.479747 -0.140866 0.000000
0.040749 0.498337 0.000000
0.482520 -0.131050 0.000000
0.050904 0.497402 0.000000
0.485094 -0.121178 0.000000
0.061039 0.496260 0.000000
0.487465 -0.111256 0.000000
0.071148 0.494912 0.000000
0.489633 -0.101287 0.000000
0.081229 0.493358 0.000000
0.491598 -0.091277 0.000000
0.091277 0.491598 0.000000
0.493358 -0.081229 0.000000
0.101287 0.489633 0.000000
0.494912 -0.071148 0.000000
0.111256 0.487465 0.000000
0.496260 -0.061039 0.000000
0.121178 0.485094 0.000000
0.497402 -0.050904 0.000000
0.131050 0.482520 0.000000
0.498337 -0.040749 0.000000
0.140866 0.479747 0.000000
0.499064 -0.030577 0.000000
0.150623 0.476773 0.000000
0.499584 -0.020392 0.000000
0.160317 0.473602 0.000000
0.499896 -0.010199 0.000000
0.169944 0.470233 0.000000
0.500000 0.000000 0.000000
0.179501 0.466668 0.000000
0.499896 0.010199 0.000000
0.188983 0.462910 0.000000
0.499584 0.020392 0.000000
0.198386 0.458958 0.000000
0.499064 0.030577 0.000000
0.207707 0.454816 0.000000
0.498337 0.040749 0.000000
0.216942 0.450484 0.000000
0.497402 0.050904 0.000000
0.226086 0.445965 0.000000
0.496260 0.061039 0.000000
0.235136 0.441261 0.000000
0.494912 0.071148 0.000000
0.244088 0.436373 0.000000
0.493358 0.081229 0.000000
0.252938 0.431303 0.000000
0.491598 0.091277 0.000000
0.261684 0.426054 0.000000
0.489633 0.101287 0.000000
0.270320 0.420627 0.000000
0.487465 0.111256 0.000000
0.278844 0.415025 0.000000
0.485094 0.121178 0.000000
0.287252 0.409251 0.000000
0.482520 0.131050 0.000000
0.295541 0.403306 0.000000
0.479747 0.140866 0.000000
0.303706 0.397194 0.000000
0.476773 0.150623 0.000000
0.311745 0.390916 0.000000
0.473602 0.160317 0.000000
0.319654 0.384475 0.000000
0.470233 0.169944 0.000000
0.327430 0.377875 0.000000
0.466668 0.179501 0.000000
0.335070 0.371117 0.000000
0.462910 0.188983 0.000000
0.342571 0.364205 0.000000
0.458958 0.198386 0.000000
0.349929 0.357141 0.000000
0.454816 0.207707 0.000000
0.357141 0.349929 0.000000
0.450484 0.216942 0.000000
0.364205 0.342571 0.000000
0.445965 0.226086 0.000000
0.371117 0.335070 0.000000
0.441261 0.235136 0.000000
0.377875 0.327430 0.000000
0.436373 0.244088 0.000000
0.384475 0.319654 0.000000
0.431303 0.252938 0.000000
0.390916 0.311745 0.000000
0.426054 0.261684 0.000000
0.397194 0.303706 0.000000
0.420627 0.270320 0.000000
0.415025 0.278844 0.000000
0.403306 0.295541 0.000000
0.409251 0.287252 0.000000
-0.416651 -0.285100 0.000000
-0.409726 -0.295166 0.000000
-0.421429 -0.278105 0.000000
-0.403699 -0.303357 0.000000
-0.426806 -0.269823 0.000000
-0.397508 -0.311425 0.000000
-0.432197 -0.261278 0.000000
-0.391157 -0.319367 0.000000
-0.437327 -0.252500 0.000000
-0.384646 -0.327179 0.000000
-0.442314 -0.243721 0.000000
-0.377979 -0.334859 0.000000
-0.446941 -0.235122 0.000000
-0.450784 -0.228337 0.000000
-0.370462 -0.343155 0.000000
-0.455028 -0.219045 0.000000
-0.452668 -0.223420 0.000000
-0.364060 -0.349914 0.000000
-0.459296 -0.209724 0.000000
-0.457282 -0.214033 0.000000
-0.357103 -0.357057 0.000000
-0.461352 -0.204833 0.000000
-0.463724 -0.200363 0.000000
-0.350055 -0.363925 0.000000
-0.465669 -0.195543 0.000000
-0.467695 -0.190817 0.000000
-0.343998 -0.369738 0.000000
-0.471431 -0.181492 0.000000
-0.469405 -0.186286 0.000000
-0.334859 -0.377979 0.000000
-0.472952 -0.176626 0.000000
-0.474903 -0.171777 0.000000
-0.327179 -0.384646 0.000000
-0.478846 -0.161727 0.000000
-0.476435 -0.167155 0.000000
-0.319367 -0.391157 0.000000
-0.480787 -0.154555 0.000000
-0.311425 -0.397508 0.000000
-0.483607 -0.145275 0.000000
-0.303357 -0.403699 0.000000
-0.486452 -0.135600 0.000000
-0.293440 -0.410921 0.000000
-0.489031 -0.125774 0.000000
-0.286535 -0.415757 0.000000
-0.491508 -0.115921 0.000000
-0.278352 -0.421319 0.000000
-0.493686 -0.106038 0.000000
-0.269886 -0.426828 0.000000
-0.495651 -0.096362 0.000000
-0.261233 -0.432144 0.000000
-0.497198 -0.088074 0.000000
-0.252462 -0.437285 0.000000
-0.499250 -0.075953 0.000000
-0.243613 -0.442280 0.000000
-0.500654 -0.065906 0.000000
-0.234715 -0.447127 0.000000
-0.228640 -0.450519 0.000000
-0.501880 -0.055811 0.000000
-0.218895 -0.455215 0.000000
-0.223224 -0.452881 0.000000
-0.502902 -0.045695 0.000000
-0.209733 -0.459391 0.000000
-0.214212 -0.457190 0.000000
-0.503721 -0.035560 0.000000
-0.200365 -0.463733 0.000000
-0.204804 -0.461613 0.000000
-0.195531 -0.465664 0.000000
-0.190784 -0.467722 0.000000
-0.504503 -0.023225 0.000000
-0.186244 -0.469425 0.000000
-0.181531 -0.471460 0.000000
-0.504773 -0.013853 0.000000
-0.176954 -0.472745 0.000000
-0.171678 -0.474859 0.000000
-0.505074 -0.003656 0.000000
-0.167137 -0.476450 0.000000
-0.161673 -0.478820 0.000000
-0.504932 0.006910 0.000000
-0.154529 -0.480797 0.000000
-0.504834 0.020042 0.000000
-0.145171 -0.483695 0.000000
-0.503551 0.037586 0.000000
-0.135593 -0.486453 0.000000
-0.502892 0.045680 0.000000
-0.125775 -0.489083 0.000000
-0.502191 0.053713 0.000000
-0.115940 -0.491464 0.000000
-0.500654 0.065906 0.000000
-0.106312 -0.493603 0.000000
-0.499225 0.075974 0.000000
-0.098005 -0.495252 0.000000
-0.497594 0.086013 0.000000
-0.086013 -0.497594 0.000000
-0.495252 0.098004 0.000000
-0.075974 -0.499225 0.000000
-0.493597 0.106314 0.000000
-0.065906 -0.500654 0.000000
-0.491428 0.115952 0.000000
-0.053714 -0.502191 0.000000
-0.489011 0.125775 0.000000
-0.045680 -0.502892 0.000000
-0.486412 0.135576 0.000000
-0.037586 -0.503551 0.000000
-0.483678 0.145285 0.000000
-0.480787 0.154548 0.000000
-0.478775 0.161676 0.000000
-0.019993 -0.505013 0.000000
-0.474875 0.171814 0.000000
-0.476450 0.167142 0.000000
-0.006399 -0.504863 0.000000
-0.471460 0.181500 0.000000
-0.472984 0.176743 0.000000
0.004056 -0.505080 0.000000
-0.469459 0.186171 0.000000
-0.467574 0.190927 0.000000
0.014245 -0.504767 0.000000
-0.465619 0.195494 0.000000
-0.463733 0.200332 0.000000
0.023224 -0.504502 0.000000
-0.461448 0.204867 0.000000
-0.459421 0.209641 0.000000
0.035560 -0.503721 0.000000
-0.457230 0.214138 0.000000
-0.455198 0.218914 0.000000
0.045695 -0.502902 0.000000
-0.452908 0.223198 0.000000
-0.450716 0.228508 0.000000
0.055811 -0.501880 0.000000
-0.446914 0.235146 0.000000
0.065906 -0.500654 0.000000
-0.442240 0.243700 0.000000
0.075974 -0.499225 0.000000
-0.437272 0.252473 0.000000
0.088074 -0.497198 0.000000
-0.432109 0.261213 0.000000
0.096362 -0.495651 0.000000
-0.426787 0.269860 0.000000
0.106034 -0.493683 0.000000
-0.421297 0.278338 0.000000
0.115913 -0.491500 0.000000
-0.415757 0.286535 0.000000
0.125776 -0.489039 0.000000
-0.410932 0.293439 0.000000
0.135601 -0.486450 0.000000
-0.403699 0.303357 0.000000
0.145277 -0.483606 0.000000
-0.397508 0.311425 0.000000
0.154557 -0.480774 0.000000
0.161733 -0.478769 0.000000
-0.391157 0.319367 0.000000
0.167091 -0.476488 0.000000
0.171718 -0.474954 0.000000
-0.384646 0.327179 0.000000
0.176707 -0.473000 0.000000
0.181505 -0.471475 0.000000
-0.377979 0.334859 0.000000
0.186295 -0.469391 0.000000
0.190925 -0.467576 0.000000
-0.369765 0.344010 0.000000
0.195633 -0.465648 0.000000
0.200345 -0.463770 0.000000
-0.363926 0.350050 0.000000
0.209734 -0.459450 0.000000
0.204910 -0.461509 0.000000
-0.357034 0.357061 0.000000
0.214072 -0.457247 0.000000
0.218980 -0.455067 0.000000
-0.349993 0.364032 0.000000
0.228256 -0.450815 0.000000
0.223408 -0.452712 0.000000
-0.343912 0.369752 0.000000
0.235109 -0.446946 0.000000
-0.334859 0.377979 0.000000
0.243720 -0.442311 0.000000
-0.327179 0.384646 0.000000
0.252483 -0.437299 0.000000
-0.319367 0.391157 0.000000
0.261251 -0.432197 0.000000
-0.311425 0.397508 0.000000
0.269819 -0.426806 0.000000
-0.303357 0.403699 0.000000
0.278114 -0.421436 0.000000
-0.295166 0.409726 0.000000
0.285106 -0.416757 0.000000
-0.285453 0.416477 0.000000
0.295191 -0.409722 0.000000
-0.278168 0.421408 0.000000
0.303357 -0.403699 0.000000
-0.269849 0.426857 0.000000
0.311425 -0.397508 0.000000
-0.261220 0.432122 0.000000
0.319367 -0.391157 0.000000
-0.252526 0.437285 0.000000
0.327179 -0.384646 0.000000
-0.243742 0.442304 0.000000
0.334859 -0.377979 0.000000
-0.235192 0.446897 0.000000
-0.228742 0.450552 0.000000
0.343167 -0.370539 0.000000
-0.223460 0.452663 0.000000
-0.218979 0.455026 0.000000
0.349916 -0.364073 0.000000
-0.214046 0.457197 0.000000
-0.209660 0.459391 0.000000
0.357057 -0.357104 0.000000
-0.200375 0.463730 0.000000
-0.204910 0.461372 0.000000
0.363930 -0.350058 0.000000
-0.195557 0.465613 0.000000
-0.190944 0.467564 0.000000
0.369764 -0.344011 0.000000
-0.181545 0.471428 0.000000
-0.186254 0.469430 0.000000
0.377979 -0.334859 0.000000
-0.176635 0.472984 0.000000
-0.171918 0.474870 0.000000
0.384646 -0.327179 0.000000
-0.161683 0.478683 0.000000
-0.167009 0.476454 0.000000
0.391157 -0.319367 0.000000
-0.154877 0.480582 0.000000
0.397508 -0.311425 0.000000
-0.145423 0.483611 0.000000
0.403699 -0.303357 0.000000
-0.135605 0.486389 0.000000
0.410921 -0.293440 0.000000
-0.125786 0.489034 0.000000
0.415757 -0.286535 0.000000
-0.115924 0.491501 0.000000
0.421276 -0.278351 0.000000
-0.106038 0.493682 0.000000
0.426786 -0.269861 0.000000
-0.096362 0.495651 0.000000
0.432129 -0.261224 0.000000
-0.088074 0.497198 0.000000
0.437364 -0.252518 0.000000
-0.075974 0.499225 0.000000
0.442255 -0.243696 0.000000
-0.065906 0.500654 0.000000
0.446901 -0.235165 0.000000
0.450626 -0.228629 0.000000
-0.055811 0.501880 0.000000
0.452863 -0.223239 0.000000
0.455037 -0.219014 0.000000
-0.045695 0.502902 0.000000
0.457157 -0.214077 0.000000
0.459396 -0.209621 0.000000
-0.035560 0.503721 0.000000
0.461359 -0.204897 0.000000
0.463695 -0.200361 0.000000
-0.023304 0.504424 0.000000
0.465641 -0.195495 0.000000
0.467606 -0.190951 0.000000
-0.014879 0.504782 0.000000
0.469414 -0.186248 0.000000
0.471411 -0.181540 0.000000
-0.005033 0.504925 0.000000
0.472918 -0.176630 0.000000
0.474886 -0.171779 0.000000
0.005043 0.504929 0.000000
0.476453 -0.167022 0.000000
0.478685 -0.161862 0.000000
0.014951 0.504764 0.000000
0.480771 -0.154583 0.000000
0.023215 0.504525 0.000000
0.483673 -0.145303 0.000000
0.037586 0.503551 0.000000
0.486450 -0.135593 0.000000
0.045750 0.502896 0.000000
0.489087 -0.125805 0.000000
0.053799 0.502083 0.000000
0.491453 -0.115970 0.000000
0.065906 0.500654 0.000000
0.493600 -0.106336 0.000000
0.075974 0.499225 0.000000
0.495243 -0.098118 0.000000
0.086013 0.497594 0.000000
0.497594 -0.086013 0.000000
0.098116 0.495243 0.000000
0.499225 -0.075974 0.000000
0.106336 0.493600 0.000000
0.500654 -0.065906 0.000000
0.115972 0.491452 0.000000
0.502084 -0.053799 0.000000
0.125820 0.489079 0.000000
0.502897 -0.045748 0.000000
0.135587 0.486408 0.000000
0.503551 -0.037586 0.000000
0.145284 0.483678 0.000000
0.504412 -0.023728 0.000000
0.154553 0.480792 0.000000
0.504678 -0.016946 0.000000
0.161702 0.478804 0.000000
0.166954 0.476453 0.000000
0.504949 -0.002996 0.000000
0.171459 0.474989 0.000000
0.176706 0.472959 0.000000
0.504952 0.005359 0.000000
0.181613 0.471429 0.000000
0.186155 0.469450 0.000000
0.504776 0.014970 0.000000
0.190941 0.467614 0.000000
0.195461 0.465640 0.000000
0.504507 0.023301 0.000000
0.200321 0.463696 0.000000
0.204665 0.461639 0.000000
0.503721 0.035560 0.000000
0.209779 0.459311 0.000000
0.214128 0.457065 0.000000
0.502902 0.045695 0.000000
0.218898 0.455083 0.000000
0.223160 0.452917 0.000000
0.501880 0.055811 0.000000
0.228588 0.450696 0.000000
0.500654 0.065906 0.000000
0.235160 0.446911 0.000000
0.499225 0.075974 0.000000
0.243704 0.442242 0.000000
0.497198 0.088074 0.000000
0.252477 0.437275 0.000000
0.495651 0.096362 0.000000
0.261232 0.432125 0.000000
0.493684 0.106044 0.000000
0.269859 0.426787 0.000000
0.491464 0.115912 0.000000
0.278336 0.421300 0.000000
0.489031 0.125776 0.000000
0.286532 0.415761 0.000000
0.486389 0.135603 0.000000
0.293440 0.410921 0.000000
0.483609 0.145424 0.000000
0.303357 0.403699 0.000000
0.480578 0.154802 0.000000
0.311425 0.397508 0.000000
0.478655 0.161751 0.000000
0.476452 0.166982 0.000000
0.319367 0.391157 0.000000
0.474971 0.171610 0.000000
0.472982 0.176607 0.000000
0.327179 0.384646 0.000000
0.471433 0.181509 0.000000
0.469353 0.186363 0.000000
0.334859 0.377979 0.000000
0.467613 0.190886 0.000000
0.465645 0.195476 0.000000
0.344010 0.369764 0.000000
0.461373 0.204887 0.000000
0.463686 0.200316 0.000000
0.350057 0.363930 0.000000
0.459353 0.209725 0.000000
0.457070 0.214141 0.000000
0.357100 0.357062 0.000000
0.452708 0.223419 0.000000
0.455125 0.218877 0.000000
0.364020 0.349971 0.000000
0.450552 0.228739 0.000000
0.370222 0.343498 0.000000
0.446889 0.235184 0.000000
0.377979 0.334859 0.000000
0.442252 0.243700 0.000000
0.384646 0.327179 0.000000
0.437360 0.252522 0.000000
0.391146 0.319394 0.000000
0.432139 0.261225 0.000000
0.397501 0.311463 0.000000
0.426837 0.269829 0.000000
0.403699 0.303357 0.000000
0.421434 0.278106 0.000000
0.416650 0.285100 0.000000
0.409726 0.295166 0.000000
CELLS 1364 5456
3 624 2 0
3 624 0 1
3 624 1 317
3 317 626 624
3 626 317 319
3 319 628 626
3 4 626 628
3 628 6 4
3 6 628 630
3 630 8 6
3 8 630 632
3 632 10 8
3 10 632 634
3 634 12 10
3 12 634 636
3 636 14 12
3 14 636 637
3 637 16 14
3 640 16 637
3 637 329 640
3 640 329 331
3 639 640 331
3 639 331 643
3 643 18 639
3 639 18 16
3 643 642 18
3 642 20 18
3 645 20 642
3 642 333 645
3 645 333 335
3 646 645 335
3 646 335 648
3 648 22 646
3 646 22 20
3 648 649 22
3 649 24 22
3 652 24 649
3 649 337 652
3 652 337 339
3 651 652 339
3 651 339 654
3 654 26 651
3 651 26 24
3 654 655 26
3 655 28 26
3 658 28 655
3 655 341 658
3 658 341 343
3 657 658 343
3 657 343 660
3 30 657 660
3 660 32 30
3 32 660 662
3 662 34 32
3 34 662 664
3 664 36 34
3 36 664 666
3 666 38 36
3 38 666 668
3 668 40 38
3 40 668 670
3 670 42 40
3 42 670 672
3 672 44 42
3 44 672 674
3 674 46 44
3 674 359 46
3 676 46 359
3 676 359 361
3 676 361 48
3 678 48 361
3 678 361 363
3 678 363 50
3 681 50 363
3 681 363 365
3 681 365 52
3 684 52 365
3 684 365 367
3 684 367 54
3 687 54 367
3 687 367 369
3 687 369 56
3 692 56 369
3 692 369 371
3 371 695 692
3 58 692 695
3 695 60 58
3 60 695 698
3 698 62 60
3 62 698 701
3 701 64 62
3 64 701 703
3 65 64 703
3 65 703 67
3 67 703 381
3 705 67 381
3 705 381 383
3 383 707 705
3 69 705 707
3 707 71 69
3 71 707 709
3 709 73 71
3 709 387 73
3 711 73 387
3 711 387 389
3 711 389 75
3 713 75 389
3 713 389 391
3 713 391 77
3 715 77 391
3 715 391 393
3 715 393 79
3 717 79 393
3 717 393 395
3 395 719 717
3 81 717 719
3 719 83 81
3 83 719 721
3 721 85 83
3 85 721 723
3 723 87 85
3 87 723 725
3 725 89 87
3 89 725 727
3 727 91 89
3 91 727 728
3 728 92 91
3 92 728 729
3 729 95 92
3 732 95 729
3 729 407 732
3 732 407 409
3 731 732 409
3 731 409 735
3 735 97 731
3 731 97 95
3 735 734 97
3 734 99 97
3 737 99 734
3 734 411 737
3 737 411 413
3 738 737 413
3 738 413 740
3 740 101 738
3 738 101 99
3 740 741 101
3 741 103 101
3 743 103 741
3 741 415 743
3 743 415 417
3 744 743 417
3 744 417 746
3 746 105 744
3 744 105 103
3 746 747 105
3 747 107 105
3 749 107 747
3 747 419 749
3 749 419 421
3 750 749 421
3 750 421 752
3 109 750 752
3 752 111 109
3 111 752 754
3 754 113 111
3 113 754 756
3 756 115 113
3 115 756 758
3 758 117 115
3 117 758 760
3 760 119 117
3 119 760 762
3 762 121 119
3 121 762 764
3 764 123 121
3 123 764 766
3 766 125 123
3 766 437 125
3 768 125 437
3 768 437 439
3 768 439 127
3 770 127 439
3 770 439 441
3 770 441 130
3 773 130 441
3 773 441 443
3 773 443 132
3 776 132 443
3 776 443 445
3 776 445 134
3 779 134 445
3 779 445 447
3 779 447 136
3 782 136 447
3 782 447 449
3 449 785 782
3 138 782 785
3 785 140 138
3 140 785 788
3 788 142 140
3 142 788 791
3 791 144 142
3 144 791 794
3 794 146 144
3 794 457 146
3 796 146 457
3 796 457 459
3 796 459 148
3 798 148 459
3 798 459 461
3 798 461 150
3 800 150 461
3 800 461 463
3 800 463 152
3 802 152 463
3 802 463 465
3 802 465 154
3 804 154 465
3 804 465 467
3 804 467 156
3 806 156 467
3 806 467 469
3 806 469 158
3 808 158 469
3 808 469 471
3 471 810 808
3 160 808 810
3 810 162 160
3 162 810 812
3 812 164 162
3 164 812 814
3 814 166 164
3 166 814 816
3 816 168 166
3 168 816 818
3 818 170 168
3 170 818 820
3 820 172 170
3 172 820 821
3 821 174 172
3 823 174 821
3 821 483 823
3 823 483 485
3 824 823 485
3 824 485 826
3 826 176 824
3 824 176 174
3 826 827 176
3 827 178 176
3 830 178 827
3 827 487 830
3 830 487 489
3 829 830 489
3 829 489 832
3 832 180 829
3 829 180 178
3 832 833 180
3 833 182 180
3 836 182 833
3 833 491 836
3 836 491 493
3 835 836 493
3 835 493 838
3 838 184 835
3 835 184 182
3 838 839 184
3 839 186 184
3 842 186 839
3 839 495 842
3 842 495 497
3 841 842 497
3 841 497 844
3 188 841 844
3 844 190 188
3 190 844 846
3 846 192 190
3 192 846 848
3 848 194 192
3 194 848 850
3 850 196 194
3 196 850 852
3 852 198 196
3 198 852 854
3 854 200 198
3 200 854 856
3 856 202 200
3 202 856 858
3 858 204 202
3 858 513 204
3 860 204 513
3 860 513 515
3 860 515 206
3 862 206 515
3 862 515 517
3 862 517 208
3 865 208 517
3 865 517 519
3 865 519 210
3 868 210 519
3 868 519 521
3 868 521 212
3 871 212 521
3 871 521 523
3 871 523 214
3 874 214 523
3 874 523 525
3 525 877 874
3 216 874 877
3 877 218 216
3 218 877 880
3 880 220 218
3 220 880 883
3 883 222 220
3 222 883 886
3 886 224 222
3 224 886 888
3 888 226 224
3 888 535 226
3 890 226 535
3 890 535 537
3 537 892 890
3 228 890 892
3 892 230 228
3 230 892 894
3 894 232 230
3 894 541 232
3 896 232 541
3 896 541 543
3 896 543 234
3 898 234 543
3 898 543 545
3 898 545 236
3 900 236 545
3 900 545 547
3 900 547 238
3 902 238 547
3 902 547 549
3 549 904 902
3 902 904 240
3 904 242 240
3 242 904 906
3 906 244 242
3 244 906 908
3 908 246 244
3 246 908 910
3 910 248 246
3 248 910 912
3 912 250 248
3 250 912 914
3 914 252 250
3 252 914 916
3 916 254 252
3 917 254 916
3 916 561 917
3 917 561 563
3 919 917 563
3 919 563 920
3 920 256 919
3 919 256 254
3 920 922 256
3 922 258 256
3 923 258 922
3 922 565 923
3 923 565 567
3 925 923 567
3 925 567 926
3 926 260 925
3 925 260 258
3 926 928 260
3 928 262 260
3 929 262 928
3 928 569 929
3 929 569 571
3 931 929 571
3 931 571 932
3 932 264 931
3 931 264 262
3 932 934 264
3 934 266 264
3 935 266 934
3 934 573 935
3 935 573 575
3 937 935 575
3 937 575 939
3 268 937 939
3 939 270 268
3 270 939 941
3 941 272 270
3 272 941 943
3 943 274 272
3 274 943 945
3 945 276 274
3 276 945 947
3 947 278 276
3 278 947 949
3 949 280 278
3 280 949 951
3 951 282 280
3 282 951 953
3 953 284 282
3 953 591 284
3 955 284 591
3 955 591 593
3 955 593 286
3 957 286 593
3 957 593 595
3 957 595 288
3 960 288 595
3 960 595 597
3 960 597 290
3 963 290 597
3 963 597 599
3 963 599 292
3 966 292 599
3 966 599 601
3 966 601 294
3 969 294 601
3 969 601 603
3 603 972 969
3 296 969 972
3 972 298 296
3 298 972 975
3 975 300 298
3 300 975 978
3 978 302 300
3 302 978 980
3 980 304 302
3 980 611 304
3 982 304 611
3 982 611 613
3 982 613 306
3 984 306 613
3 984 613 615
3 984 615 308
3 986 308 615
3 986 615 617
3 986 617 310
3 988 310 617
3 988 617 619
3 988 619 312
3 990 312 619
3 990 619 622
3 990 622 314
3 993 314 622
3 993 622 623
3 993 623 316
3 992 316 623
3 992 623 621
3 621 991 992
3 315 992 991
3 991 313 315
3 313 991 989
3 989 311 313
3 311 989 987
3 987 309 311
3 309 987 985
3 985 307 309
3 307 985 983
3 983 305 307
3 305 983 981
3 981 303 305
3 303 981 979
3 979 301 303
3 976 301 979
3 979 610 976
3 976 610 608
3 977 976 608
3 977 608 974
3 974 299 977
3 977 299 301
3 974 973 299
3 973 297 299
3 970 297 973
3 973 606 970
3 970 606 604
3 971 970 604
3 971 604 968
3 968 295 971
3 971 295 297
3 968 967 295
3 967 293 295
3 965 293 967
3 967 602 965
3 965 602 600
3 964 965 600
3 964 600 962
3 962 291 964
3 964 291 293
3 962 961 291
3 961 289 291
3 959 289 961
3 961 598 959
3 959 598 596
3 958 959 596
3 958 596 956
3 287 958 956
3 956 285 287
3 285 956 954
3 954 283 285
3 283 954 952
3 952 281 283
3 281 952 950
3 950 279 281
3 279 950 948
3 948 277 279
3 277 948 946
3 946 275 277
3 275 946 944
3 944 273 275
3 273 944 942
3 942 271 273
3 942 580 271
3 940 271 580
3 940 580 578
3 940 578 269
3 938 269 578
3 938 578 576
3 938 576 267
3 936 267 576
3 936 576 574
3 936 574 265
3 933 265 574
3 933 574 572
3 933 572 263
3 930 263 572
3 930 572 570
3 930 570 261
3 927 261 570
3 927 570 568
3 568 924 927
3 259 927 924
3 924 257 259
3 257 924 921
3 921 255 257
3 255 921 918
3 918 253 255
3 918 562 253
3 915 253 562
3 915 562 560
3 560 913 915
3 251 915 913
3 913 249 251
3 913 558 249
3 911 249 558
3 911 558 556
3 556 909 911
3 247 911 909
3 909 245 247
3 245 909 907
3 907 243 245
3 907 552 243
3 905 243 552
3 905 552 550
3 905 550 241
3 903 241 550
3 903 550 548
3 903 548 239
3 901 239 548
3 901 548 546
3 901 546 237
3 899 237 546
3 899 546 544
3 544 897 899
3 899 897 235
3 897 233 235
3 233 897 895
3 895 231 233
3 231 895 893
3 893 229 231
3 229 893 891
3 891 227 229
3 227 891 889
3 889 225 227
3 225 889 887
3 887 223 225
3 223 887 885
3 885 221 223
3 884 221 885
3 885 532 884
3 884 532 530
3 882 884 530
3 882 530 881
3 881 219 882
3 882 219 221
3 881 879 219
3 879 217 219
3 878 217 879
3 879 528 878
3 878 528 526
3 876 878 526
3 876 526 875
3 875 215 876
3 876 215 217
3 875 873 215
3 873 213 215
3 872 213 873
3 873 524 872
3 872 524 522
3 870 872 522
3 870 522 869
3 869 211 870
3 870 211 213
3 869 867 211
3 867 209 211
3 866 209 867
3 867 520 866
3 866 520 518
3 864 866 518
3 864 518 863
3 207 864 863
3 863 205 207
3 205 863 861
3 861 203 205
3 203 861 859
3 859 201 203
3 201 859 857
3 857 199 201
3 199 857 855
3 855 197 199
3 197 855 853
3 853 195 197
3 195 853 851
3 851 193 195
3 193 851 849
3 849 191 193
3 849 502 191
3 847 191 502
3 847 502 500
3 847 500 189
3 845 189 500
3 845 500 498
3 845 498 187
3 843 187 498
3 843 498 496
3 843 496 185
3 840 185 496
3 840 496 494
3 840 494 183
3 837 183 494
3 837 494 492
3 837 492 181
3 834 181 492
3 834 492 490
3 490 831 834
3 179 834 831
3 831 177 179
3 177 831 828
3 828 175 177
3 175 828 825
3 825 173 175
3 173 825 822
3 822 171 173
3 822 482 171
3 819 171 482
3 819 482 480
3 819 480 169
3 817 169 480
3 817 480 478
3 817 478 167
3 815 167 478
3 815 478 476
3 815 476 165
3 813 165 476
3 813 476 474
3 813 474 163
3 811 163 474
3 811 474 472
3 811 472 161
3 809 161 472
3 809 472 470
3 809 470 159
3 807 159 470
3 807 470 468
3 468 805 807
3 157 807 805
3 805 155 157
3 155 805 803
3 803 153 155
3 153 803 801
3 801 151 153
3 151 801 799
3 799 149 151
3 149 799 797
3 797 147 149
3 147 797 795
3 795 145 147
3 145 795 792
3 792 143 145
3 793 143 792
3 792 456 793
3 793 456 454
3 790 793 454
3 790 454 789
3 789 141 790
3 790 141 143
3 789 786 141
3 786 139 141
3 787 139 786
3 786 452 787
3 787 452 450
3 784 787 450
3 784 450 783
3 783 137 784
3 784 137 139
3 783 781 137
3 781 135 137
3 780 135 781
3 781 448 780
3 780 448 446
3 778 780 446
3 778 446 777
3 777 133 778
3 778 133 135
3 777 775 133
3 775 131 133
3 774 131 775
3 775 444 774
3 774 444 442
3 772 774 442
3 772 442 771
3 129 772 771
3 771 128 129
3 128 771 769
3 769 126 128
3 126 769 767
3 767 124 126
3 124 767 765
3 765 122 124
3 122 765 763
3 763 120 122
3 120 763 761
3 761 118 120
3 118 761 759
3 759 116 118
3 116 759 757
3 757 114 116
3 757 426 114
3 755 114 426
3 755 426 424
3 755 424 112
3 753 112 424
3 753 424 422
3 753 422 110
3 751 110 422
3 751 422 420
3 751 420 108
3 748 108 420
3 748 420 418
3 748 418 106
3 745 106 418
3 745 418 416
3 745 416 104
3 742 104 416
3 742 416 414
3 414 739 742
3 102 742 739
3 739 100 102
3 100 739 736
3 736 98 100
3 98 736 733
3 733 96 98
3 96 733 730
3 94 96 730
3 94 730 93
3 93 730 404
3 726 93 404
3 726 404 402
3 402 724 726
3 90 726 724
3 724 88 90
3 88 724 722
3 722 86 88
3 722 398 86
3 720 86 398
3 720 398 396
3 720 396 84
3 718 84 396
3 718 396 394
3 718 394 82
3 716 82 394
3 716 394 392
3 716 392 80
3 714 80 392
3 714 392 390
3 390 712 714
3 78 714 712
3 712 76 78
3 76 712 710
3 710 74 76
3 74 710 708
3 708 72 74
3 72 708 706
3 706 70 72
3 70 706 704
3 704 68 70
3 68 704 702
3 702 66 68
3 66 702 700
3 700 63 66
3 699 63 700
3 700 378 699
3 699 378 376
3 697 699 376
3 697 376 696
3 696 61 697
3 697 61 63
3 696 694 61
3 694 59 61
3 693 59 694
3 694 374 693
3 693 374 372
3 691 693 372
3 691 372 690
3 690 57 691
3 691 57 59
3 690 688 57
3 688 55 57
3 689 55 688
3 688 370 689
3 689 370 368
3 685 689 368
3 685 368 686
3 686 53 685
3 685 53 55
3 686 682 53
3 682 51 53
3 683 51 682
3 682 366 683
3 683 366 364
3 680 683 364
3 680 364 679
3 49 680 679
3 679 47 49
3 47 679 677
3 677 45 47
3 45 677 675
3 675 43 45
3 43 675 673
3 673 41 43
3 41 673 671
3 671 39 41
3 39 671 669
3 669 37 39
3 37 669 667
3 667 35 37
3 35 667 665
3 665 33 35
3 665 348 33
3 663 33 348
3 663 348 346
3 663 346 31
3 661 31 346
3 661 346 344
3 661 344 29
3 659 29 344
3 659 344 342
3 659 342 27
3 656 27 342
3 656 342 340
3 656 340 25
3 653 25 340
3 653 340 338
3 653 338 23
3 650 23 338
3 650 338 336
3 336 647 650
3 21 650 647
3 647 19 21
3 19 647 644
3 644 17 19
3 17 644 641
3 641 15 17
3 15 641 638
3 638 13 15
3 638 328 13
3 635 13 328
3 635 328 326
3 635 326 11
3 633 11 326
3 633 326 324
3 633 324 9
3 631 9 324
3 631 324 322
3 631 322 7
3 629 7 322
3 629 322 320
3 629 320 5
3 627 5 320
3 627 320 318
3 627 318 3
3 625 3 318
3 625 318 1
3 625 0 3
3 627 3 5
3 629 5 7
3 631 7 9
3 633 9 11
3 635 11 13
3 638 330 328
3 330 638 641
3 641 332 330
3 332 641 644
3 644 334 332
3 334 644 647
3 647 336 334
3 650 21 23
3 653 23 25
3 656 25 27
3 659 27 29
3 661 29 31
3 663 31 33
3 665 350 348
3 350 665 667
3 667 352 350
3 352 667 669
3 669 354 352
3 354 669 671
3 671 356 354
3 356 671 673
3 673 358 356
3 358 673 675
3 675 360 358
3 360 675 677
3 677 362 360
3 362 677 679
3 680 49 51
3 679 364 362
3 683 680 51
3 682 686 366
3 686 368 366
3 689 685 55
3 688 690 370
3 690 372 370
3 693 691 59
3 694 696 374
3 696 376 374
3 699 697 63
3 700 702 378
3 702 380 378
3 380 702 704
3 704 382 380
3 382 704 706
3 706 384 382
3 384 706 708
3 708 386 384
3 386 708 710
3 710 388 386
3 388 710 712
3 712 390 388
3 714 78 80
3 716 80 82
3 718 82 84
3 720 84 86
3 722 400 398
3 400 722 724
3 724 402 400
3 726 90 93
3 406 404 730
3 406 730 408
3 408 730 733
3 733 410 408
3 410 733 736
3 736 412 410
3 412 736 739
3 739 414 412
3 742 102 104
3 745 104 106
3 748 106 108
3 751 108 110
3 753 110 112
3 755 112 114
3 757 428 426
3 428 757 759
3 759 430 428
3 430 759 761
3 761 432 430
3 432 761 763
3 763 434 432
3 434 763 765
3 765 436 434
3 436 765 767
3 767 438 436
3 438 767 769
3 769 440 438
3 440 769 771
3 772 129 131
3 771 442 440
3 774 772 131
3 775 777 444
3 777 446 444
3 780 778 135
3 781 783 448
3 783 450 448
3 787 784 139
3 786 789 452
3 789 454 452
3 793 790 143
3 792 795 456
3 795 458 456
3 458 795 797
3 797 460 458
3 460 797 799
3 799 462 460
3 462 799 801
3 801 464 462
3 464 801 803
3 803 466 464
3 466 803 805
3 805 468 466
3 807 157 159
3 809 159 161
3 811 161 163
3 813 163 165
3 815 165 167
3 817 167 169
3 819 169 171
3 822 484 482
3 484 822 825
3 825 486 484
3 486 825 828
3 828 488 486
3 488 828 831
3 831 490 488
3 834 179 181
3 837 181 183
3 840 183 185
3 843 185 187
3 845 187 189
3 847 189 191
3 849 504 502
3 504 849 851
3 851 506 504
3 506 851 853
3 853 508 506
3 508 853 855
3 855 510 508
3 510 855 857
3 857 512 510
3 512 857 859
3 859 514 512
3 514 859 861
3 861 516 514
3 516 861 863
3 864 207 209
3 863 518 516
3 866 864 209
3 867 869 520
3 869 522 520
3 872 870 213
3 873 875 524
3 875 526 524
3 878 876 217
3 879 881 528
3 881 530 528
3 884 882 221
3 885 887 532
3 887 534 532
3 534 887 889
3 889 536 534
3 536 889 891
3 891 538 536
3 538 891 893
3 893 540 538
3 540 893 895
3 895 542 540
3 542 895 897
3 897 544 542
3 899 235 237
3 901 237 239
3 903 239 241
3 905 241 243
3 907 554 552
3 554 907 909
3 909 556 554
3 911 247 249
3 913 560 558
3 915 251 253
3 918 564 562
3 564 918 921
3 921 566 564
3 566 921 924
3 924 568 566
3 927 259 261
3 930 261 263
3 933 263 265
3 936 265 267
3 938 267 269
3 940 269 271
3 942 582 580
3 582 942 944
3 944 584 582
3 584 944 946
3 946 586 584
3 586 946 948
3 948 588 586
3 588 948 950
3 950 590 588
3 590 950 952
3 952 592 590
3 592 952 954
3 954 594 592
3 594 954 956
3 958 287 289
3 956 596 594
3 959 958 289
3 961 962 598
3 962 600 598
3 965 964 293
3 967 968 602
3 968 604 602
3 970 971 297
3 973 974 606
3 974 608 606
3 976 977 301
3 979 981 610
3 981 612 610
3 612 981 983
3 983 614 612
3 614 983 985
3 985 616 614
3 616 985 987
3 987 618 616
3 618 987 989
3 989 620 618
3 620 989 991
3 991 621 620
3 992 315 316
3 993 316 314
3 990 314 312
3 988 312 310
3 986 310 308
3 984 308 306
3 982 306 304
3 980 609 611
3 609 980 978
3 978 607 609
3 607 978 975
3 975 605 607
3 605 975 972
3 972 603 605
3 969 296 294
3 966 294 292
3 963 292 290
3 960 290 288
3 957 288 286
3 955 286 284
3 953 589 591
3 589 953 951
3 951 587 589
3 587 951 949
3 949 585 587
3 585 949 947
3 947 583 585
3 583 947 945
3 945 581 583
3 581 945 943
3 943 579 581
3 579 943 941
3 941 577 579
3 577 941 939
3 937 268 266
3 939 575 577
3 935 937 266
3 934 932 573
3 932 571 573
3 929 931 262
3 928 926 569
3 926 567 569
3 923 925 258
3 922 920 565
3 920 563 565
3 917 919 254
3 916 914 561
3 914 559 561
3 559 914 912
3 912 557 559
3 557 912 910
3 910 555 557
3 555 910 908
3 908 553 555
3 553 908 906
3 906 551 553
3 551 906 904
3 904 549 551
3 902 240 238
3 900 238 236
3 898 236 234
3 896 234 232
3 894 539 541
3 539 894 892
3 892 537 539
3 890 228 226
3 888 533 535
3 533 888 886
3 886 531 533
3 531 886 883
3 883 529 531
3 529 883 880
3 880 527 529
3 527 880 877
3 877 525 527
3 874 216 214
3 871 214 212
3 868 212 210
3 865 210 208
3 862 208 206
3 860 206 204
3 858 511 513
3 511 858 856
3 856 509 511
3 509 856 854
3 854 507 509
3 507 854 852
3 852 505 507
3 505 852 850
3 850 503 505
3 503 850 848
3 848 501 503
3 501 848 846
3 846 499 501
3 499 846 844
3 841 188 186
3 844 497 499
3 842 841 186
3 839 838 495
3 838 493 495
3 836 835 182
3 833 832 491
3 832 489 491
3 830 829 178
3 827 826 487
3 826 485 487
3 823 824 174
3 821 820 483
3 820 481 483
3 481 820 818
3 818 479 481
3 479 818 816
3 816 477 479
3 477 816 814
3 814 475 477
3 475 814 812
3 812 473 475
3 473 812 810
3 810 471 473
3 808 160 158
3 806 158 156
3 804 156 154
3 802 154 152
3 800 152 150
3 798 150 148
3 796 148 146
3 794 455 457
3 455 794 791
3 791 453 455
3 453 791 788
3 788 451 453
3 451 788 785
3 785 449 451
3 782 138 136
3 779 136 134
3 776 134 132
3 773 132 130
3 770 130 127
3 768 127 125
3 766 435 437
3 435 766 764
3 764 433 435
3 433 764 762
3 762 431 433
3 431 762 760
3 760 429 431
3 429 760 758
3 758 427 429
3 427 758 756
3 756 425 427
3 425 756 754
3 754 423 425
3 423 754 752
3 750 109 107
3 752 421 423
3 749 750 107
3 747 746 419
3 746 417 419
3 743 744 103
3 741 740 415
3 740 413 415
3 737 738 99
3 734 735 411
3 735 409 411
3 732 731 95
3 729 728 407
3 728 405 407
3 405 728 727
3 727 403 405
3 403 727 725
3 725 401 403
3 401 725 723
3 723 399 401
3 399 723 721
3 721 397 399
3 397 721 719
3 719 395 397
3 717 81 79
3 715 79 77
3 713 77 75
3 711 75 73
3 709 385 387
3 385 709 707
3 707 383 385
3 705 69 67
3 379 381 703
3 379 703 377
3 377 703 701
3 701 375 377
3 375 701 698
3 698 373 375
3 373 698 695
3 695 371 373
3 692 58 56
3 687 56 54
3 684 54 52
3 681 52 50
3 678 50 48
3 676 48 46
3 674 357 359
3 357 674 672
3 672 355 357
3 355 672 670
3 670 353 355
3 353 670 668
3 668 351 353
3 351 668 666
3 666 349 351
3 349 666 664
3 664 347 349
3 347 664 662
3 662 345 347
3 345 662 660
3 657 30 28
3 660 343 345
3 658 657 28
3 655 654 341
3 654 339 341
3 652 651 24
3 649 648 337
3 648 335 337
3 645 646 20
3 642 643 333
3 643 331 333
3 640 639 16
3 637 636 329
3 636 327 329
3 327 636 634
3 634 325 327
3 325 634 632
3 632 323 325
3 323 632 630
3 630 321 323
3 321 630 628
3 626 4 2
3 628 319 321
3 625 1 0
3 2 624 626
CELL_TYPES 1364
9
9
9
9
9
9
9
9
9
9
9
9
9
9
9
9
9
9
9
9
9
9
9
9
9
9
9
9
9
9
9
9
9
9
9
9
9
9
9
9
9
9
9
9
9
9
9
9
9
9
9
9
9
9
9
9
9
9
9
9
9
9
9
9
9
9
9
9
9
9
9
9
9
9
9
9
9
9
9
9
9
9
9
9
9
9
9
9
9
9
9
9
9
9
9
9
9
9
9
9
9
9
9
9
9
9
9
9
9
9
9
9
9
9
9
9
9
9
9
9
9
9
9
9
9
9
9
9
9
9
9
9
9
9
9
9
9
9
9
9
9
9
9
9
9
9
9
9
9
9
9
9
9
9
9
9
9
9
9
9
9
9
9
9
9
9
9
9
9
9
9
9
9
9
9
9
9
9
9
9
9
9
9
9
9
9
9
9
9
9
9
9
9
9
9
9
9
9
9
9
9
9
9
9
9
9
9
9
9
9
9
9
9
9
9
9
9
9
9
9
9
9
9
9
9
9
9
9
9
9
9
9
9
9
9
9
9
9
9
9
9
9
9
9
9
9
9
9
9
9
9
9
9
9
9
9
9
9
9
9
9
9
9
9
9
9
9
9
9
9
9
9
9
9
9
9
9
9
9
9
9
9
9
9
9
9
9
9
9
9
9
9
9
9
9
9
9
9
9
9
9
9
9
9
9
9
9
9
9
9
9
9
9
9
9
9
9
9
9
9
9
9
9
9
9
9
9
9
9
9
9
9
9
9
9
9
9
9
9
9
9
9
9
9
9
9
9
9
9
9
9
9
9
9
9
9
9
9
9
9
9
9
9
9
9
9
9
9
9
9
9
9
9
9
9
9
9
9
9
9
9
9
9
9
9
9
9
9
9
9
9
9
9
9
9
9
9
9
9
9
9
9
9
9
9
9
9
9
9
9
9
9
9
9
9
9
9
9
9
9
9
9
9
9
9
9
9
9
9
9
9
9
9
9
9
9
9
9
9
9
9
9
9
9
9
9
9
9
9
9
9
9
9
9
9
9
9
9
9
9
9
9
9
9
9
9
9
9
9
9
9
9
9
9
9
9
9
9
9
9
9
9
9
9
9
9
9
9
9
9
9
9
9
9
9
9
9
9
9
9
9
9
9
9
9
9
9
9
9
9
9
9
9
9
9
9
9
9
9
9
9
9
9
9
9
9
9
9
9
9
9
9
9
9
9
9
9
9
9
9
9
9
9
9
9
9
9
9
9
9
9
9
9
9
9
9
9
9
9
9
9
9
9
9
9
9
9
9
9
9
9
9
9
9
9
9
9
9
9
9
9
9
9
9
9
9
9
9
9
9
9
9
9
9
9
9
9
9
9
9
9
9
9
9
9
9
9
9
9
9
9
9
9
9
9
9
9
9
9
9
9
9
9
9
9
9
9
9
9
9
9
9
9
9
9
9
9
9
9
9
9
9
9
9
9
9
9
9
9
9
9
9
9
9
9
9
9
9
9
9
9
9
9
9
9
9
9
9
9
9
9
9
9
9
9
9
9
9
9
9
9
9
9
9
9
9
9
9
9
9
9
9
9
9
9
9
9
9
9
9
9
9
9
9
9
9
9
9
9
9
9
9
9
9
9
9
9
9
9
9
9
9
9
9
9
9
9
9
9
9
9
9
9
9
9
9
9
9
9
9
9
9
9
9
9
9
9
9
9
9
9
9
9
9
9
9
9
9
9
9
9
9
9
9
9
9
9
9
9
9
9
9
9
9
9
9
9
9
9
9
9
9
9
9
9
9
9
9
9
9
9
9
9
9
9
9
9
9
9
9
9
9
9
9
9
9
9
9
9
9
9
9
9
9
9
9
9
9
9
9
9
9
9
9
9
9
9
9
9
9
9
9
9
9
9
9
9
9
9
9
9
9
9
9
9
9
9
9
9
9
9
9
9
9
9
9
9
9
9
9
9
9
9
9
9
9
9
9
9
9
9
9
9
9
9
9
9
9
9
9
9
9
9
9
9
9
9
9
9
9
9
9
9
9
9
9
9
9
9
9
9
9
9
9
9
9
9
9
9
9
9
9
9
9
9
9
9
9
9
9
9
9
9
9
9
9
9
9
9
9
9
9
9
9
9
9
9
9
9
9
9
9
9
9
9
9
9
9
9
9
9
9
9
9
9
9
9
9
9
9
9
9
9
9
9
9
9
9
9
9
9
9
9
9
9
9
9
9
9
9
9
9
9
9
9
9
9
9
9
9
9
9
9
9
9
9
9
9
9
9
9
9
9
9
9
9
9
9
9
9
9
9
9
9
9
9
9
9
9
9
9
9
9
9
9
9
9
9
9
9
9
9
9
9
9
9
9
9
9
9
9
9
9
9
9
9
9
9
9
9
9
9
9
9
9
9
9
9
9
9
9
9
9
9
9
9
9
9
9
9
9
9
9
9
9
9
9
9
9
9
9
9
9
9
9
9
9
9
9
9
9
9
9
9
9
9
9
9
9
9
9
9
9
9
9
9
9
9
9
9
9
9
9
9
9
9
9
9
9
9
9
9
9
9
9
9
9
9
9
9
9
9
9
9
9
9
9
9
9
9
9
9
9
9
9
9
9
9
9
9
9
9
9
9
9
9
9
9
9
9
9
9
9
9
9
9
9
9
9
9
9
9
9
9
9
9
9
9
9
9
9
9
9
9
9
9
9
9
9
9
9
9
9
9
9
9
9
9
9
9
9
9
9
9
9
9
9
9
9
9
9
9
9
9
9
9
9
9
9
9
9
9
9
9
9
9
9
9
9
9
9
9
9
9
9
9
9
9
9
9
9
9
9
9
9
9
9
9
9
9
9
9
9
9
9
9
9
9
9
9
9
9
9
9
9
9
9
9
9
9
9
9
9
9
9
9
9
9
9
9
9
9
9
9
9
9
9
9
9
9
9
9
9
9
9
9
9
9
9
9
9
9
9
9
9
9
9
9
9
9
9
9
9
9
9
9
9
9
9
9
9
9
9
9
9
9
9
9
9
9
9
9
9
9
9
9
9
9
9
9
9
9
9
9
9
9
9
9
9
9
9
9
9
9
9
9
9
9
9
9
9
9
9
9
POINT_DATA 994
SCALARS u1 float
LOOKUP_TABLE default
-0.03
-0.03
-0.03
-0.03
-0.04
-0.02
-0.04
-0.02
-0.05
-0.02
-0.05
-0.02
-0.06
-0.01
-0.06
-0.01
-0.07
-0.01
-0.07
-0.01
-0.08
-0.01
-0.09
-0.01
-0.09
-0.01
-0.1
-0.01
-0.1
-0.01
-0.1
-0.01
-0.1
-0.02
-0.1
-0.02
-0.1
-0.02
-0.2
-0.02
-0.2
-0.02
-0.2
-0.02
-0.2
-0.02
-0.2
-0.03
-0.2
-0.03
-0.2
-0.03
-0.2
-0.03
-0.2
-0.03
-0.2
-0.04
-0.2
-0.04
-0.2
-0.04
-0.2
-0.05
-0.2
-0.2
-0.05
-0.2
-0.05
-0.2
-0.05
-0.2
-0.05
-0.2
-0.06
-0.2
-0.06
-0.2
-0.06
-0.2
-0.06
-0.2
-0.06
-0.2
-0.06
-0.2
-0.06
-0.2
-0.06
-0.2
-0.06
-0.2
-0.1
-0.06
-0.06
-0.1
-0.06
-0.1
-0.06
-0.1
-0.06
-0.1
-0.06
-0.1
-0.06
-0.1
-0.05
-0.1
-0.05
-0.1
-0.05
-0.09
-0.06
-0.09
-0.06
-0.09
-0.06
-0.09
-0.06
-0.08
-0.06
-0.08
-0.06
-0.08
-0.06
-0.08
-0.07
-0.07
-0.07
-0.07
-0.07
-0.07
-0.07
-0.08
-0.07
-0.08
-0.07
-0.08
-0.07
-0.09
-0.07
-0.09
-0.07
-0.09
-0.07
-0.1
-0.07
-0.1
-0.08
-0.1
-0.08
-0.1
-0.08
-0.1
-0.08
-0.1
-0.08
-0.1
-0.09
-0.1
-0.09
-0.1
-0.09
-0.1
-0.09
-0.1
-0.1
-0.1
-0.1
-0.1
-0.1
-0.1
-0.1
-0.1
-0.1
-0.1
-0.1
-0.1
-0.1
-0.1
-0.1
-0.1
-0.1
-0.1
-0.1
-0.1
-0.1
-0.1
-0.1
-0.1
-0.1
-0.1
-0.1
-0.1
-0.1
-0.1
-0.1
-0.1
-0.1
-0.1
-0.1
-0.1
-0.1
-0.1
-0.1
-0.1
-0.1
-0.1
-0.1
-0.1
-0.1
-0.09
-0.1
-0.09
-0.1
-0.08
-0.1
-0.07
-0.1
-0.07
-0.1
-0.06
-0.1
-0.05
-0.1
-0.04
-0.1
-0.04
-0.1
-0.03
-0.1
-0.02
-0.1
-0.01
-0.1
-0.005
-0.1
0.003
-0.1
0.009
-0.1
0.02
-0.1
0.02
-0.1
0.03
-0.1
0.03
-0.2
0.03
-0.2
0.04
-0.2
0.04
-0.2
0.04
-0.2
0.04
-0.2
0.03
-0.2
0.03
-0.2
0.02
-0.2
0.02
-0.2
0.01
-0.2
0.003
-0.2
-0.005
-0.2
-0.01
-0.2
-0.02
-0.2
-0.03
-0.2
-0.04
-0.2
-0.05
-0.2
-0.06
-0.2
-0.07
-0.2
-0.08
-0.2
-0.09
-0.2
-0.1
-0.2
-0.1
-0.2
-0.1
-0.2
-0.1
-0.2
-0.1
-0.2
-0.1
-0.2
-0.1
-0.2
-0.1
-0.2
-0.2
-0.2
-0.2
-0.2
-0.2
-0.2
-0.2
-0.2
-0.2
-0.2
-0.04
-0.03
-0.04
-0.03
-0.05
-0.02
-0.05
-0.02
-0.05
-0.02
-0.06
-0.02
-0.07
-0.01
-0.07
-0.01
-0.08
-0.01
-0.09
-0.01
-0.09
-0.01
-0.1
-0.01
-0.1
-0.01
-0.1
-0.01
-0.1
-0.01
-0.1
-0.01
-0.1
-0.02
-0.2
-0.02
-0.2
-0.02
-0.2
-0.02
-0.2
-0.02
-0.2
-0.02
-0.2
-0.02
-0.2
-0.02
-0.2
-0.03
-0.2
-0.03
-0.2
-0.03
-0.2
-0.03
-0.2
-0.03
-0.2
-0.04
-0.2
-0.04
-0.2
-0.04
-0.2
-0.04
-0.2
-0.05
-0.2
-0.05
-0.2
-0.05
-0.2
-0.05
-0.2
-0.05
-0.2
-0.05
-0.2
-0.05
-0.2
-0.06
-0.2
-0.06
-0.2
-0.06
-0.2
-0.06
-0.2
-0.06
-0.1
-0.06
-0.1
-0.06
-0.1
-0.06
-0.1
-0.06
-0.1
-0.06
-0.1
-0.06
-0.1
-0.06
-0.1
-0.06
-0.1
-0.06
-0.09
-0.06
-0.09
-0.07
-0.09
-0.07
-0.08
-0.07
-0.08
-0.07
-0.08
-0.07
-0.08
-0.08
-0.08
-0.08
-0.07
-0.08
-0.07
-0.08
-0.07
-0.09
-0.07
-0.09
-0.07
-0.09
-0.07
-0.1
-0.07
-0.1
-0.07
-0.1
-0.07
-0.1
-0.07
-0.1
-0.08
-0.1
-0.08
-0.1
-0.08
-0.1
-0.08
-0.1
-0.08
-0.1
-0.09
-0.1
-0.09
-0.1
-0.09
-0.1
-0.09
-0.1
-0.1
-0.1
-0.1
-0.1
-0.1
-0.1
-0.1
-0.1
-0.1
-0.1
-0.1
-0.1
-0.1
-0.1
-0.1
-0.1
-0.1
-0.1
-0.1
-0.1
-0.1
-0.1
-0.1
-0.1
-0.1
-0.1
-0.1
-0.1
-0.1
-0.1
-0.1
-0.1
-0.1
-0.1
-0.1
-0.1
-0.1
-0.1
-0.1
-0.1
-0.1
-0.09
-0.1
-0.09
-0.1
-0.08
-0.1
-0.07
-0.1
-0.07
-0.1
-0.06
-0.1
-0.05
-0.1
-0.04
-0.1
-0.04
-0.1
-0.03
-0.1
-0.02
-0.1
-0.01
-0.1
-0.005
-0.1
0.002
-0.2
0.009
-0.2
0.02
-0.2
0.02
-0.2
0.03
-0.2
0.03
-0.2
0.03
-0.2
0.04
-0.2
0.04
-0.2
0.04
-0.2
0.04
-0.2
0.03
-0.2
0.03
-0.2
0.02
-0.2
0.02
-0.2
0.01
-0.2
0.003
-0.2
-0.006
-0.2
-0.01
-0.2
-0.02
-0.2
-0.03
-0.2
-0.04
-0.2
-0.05
-0.2
-0.06
-0.2
-0.07
-0.2
-0.08
-0.2
-0.09
-0.2
-0.1
-0.2
-0.1
-0.2
-0.1
-0.2
-0.1
-0.2
-0.1
-0.2
-0.1
-0.2
-0.1
-0.2
-0.1
-0.2
-0.2
-0.2
-0.2
-0.2
-0.2
-0.2
-0.2
-0.2
-0.03
-0.03
-0.04
-0.03
-0.04
-0.02
-0.05
-0.02
-0.05
-0.02
-0.05
-0.02
-0.06
-0.06
-0.01
-0.07
-0.07
-0.01
-0.08
-0.07
-0.01
-0.08
-0.08
-0.01
-0.09
-0.09
-0.01
-0.1
-0.1
-0.01
-0.1
-0.1
-0.01
-0.1
-0.1
-0.01
-0.1
-0.01
-0.1
-0.01
-0.1
-0.02
-0.2
-0.02
-0.2
-0.02
-0.2
-0.02
-0.2
-0.02
-0.2
-0.02
-0.2
-0.02
-0.2
-0.03
-0.03
-0.2
-0.03
-0.03
-0.2
-0.03
-0.03
-0.2
-0.03
-0.03
-0.03
-0.04
-0.2
-0.04
-0.04
-0.2
-0.04
-0.04
-0.2
-0.04
-0.04
-0.2
-0.04
-0.2
-0.05
-0.2
-0.05
-0.2
-0.05
-0.2
-0.05
-0.2
-0.05
-0.2
-0.05
-0.2
-0.06
-0.2
-0.06
-0.2
-0.06
-0.2
-0.06
-0.2
-0.06
-0.2
-0.06
-0.2
-0.1
-0.1
-0.06
-0.1
-0.1
-0.06
-0.1
-0.1
-0.06
-0.1
-0.1
-0.06
-0.1
-0.1
-0.06
-0.1
-0.1
-0.06
-0.1
-0.1
-0.06
-0.1
-0.1
-0.06
-0.1
-0.06
-0.09
-0.06
-0.09
-0.06
-0.09
-0.06
-0.08
-0.06
-0.08
-0.07
-0.08
-0.07
-0.08
-0.07
-0.08
-0.07
-0.07
-0.07
-0.08
-0.07
-0.08
-0.08
-0.07
-0.08
-0.08
-0.07
-0.08
-0.09
-0.07
-0.09
-0.09
-0.07
-0.09
-0.09
-0.07
-0.09
-0.1
-0.07
-0.1
-0.1
-0.07
-0.1
-0.07
-0.1
-0.08
-0.1
-0.08
-0.1
-0.08
-0.1
-0.08
-0.1
-0.08
-0.1
-0.09
-0.1
-0.09
-0.1
-0.09
-0.1
-0.09
-0.1
-0.1
-0.1
-0.1
-0.1
-0.1
-0.1
-0.1
-0.1
-0.1
-0.1
-0.1
-0.1
-0.1
-0.1
-0.1
-0.1
-0.1
-0.1
-0.1
-0.1
-0.1
-0.1
-0.1
-0.1
-0.1
-0.1
-0.1
-0.1
-0.1
-0.1
-0.1
-0.1
-0.1
-0.1
-0.1
-0.1
-0.1
-0.1
-0.1
-0.1
-0.1
-0.1
-0.1
-0.1
-0.1
-0.1
-0.1
-0.1
-0.1
-0.1
-0.1
-0.09
-0.1
-0.09
-0.09
-0.1
-0.09
-0.08
-0.1
-0.08
-0.08
-0.1
-0.07
-0.07
-0.1
-0.07
-0.06
-0.1
-0.06
-0.05
-0.1
-0.05
-0.1
-0.04
-0.1
-0.03
-0.1
-0.02
-0.1
-0.02
-0.1
-0.009
-0.1
-0.003
-0.1
0.006
-0.1
0.01
-0.1
0.02
-0.2
0.02
-0.2
0.03
-0.2
0.03
-0.2
0.04
-0.2
0.04
-0.2
-0.2
0.04
-0.2
-0.2
0.04
-0.2
-0.2
0.03
-0.2
-0.2
0.03
-0.2
-0.2
0.03
-0.2
-0.2
0.02
-0.2
-0.2
0.01
-0.2
0.007
-0.2
-0.001
-0.2
-0.01
-0.2
-0.02
-0.2
-0.03
-0.2
-0.04
-0.2
-0.05
-0.2
-0.06
-0.2
-0.07
-0.2
-0.08
-0.2
-0.08
-0.09
-0.2
-0.09
-0.1
-0.2
-0.1
-0.1
-0.2
-0.1
-0.1
-0.2
-0.1
-0.1
-0.2
-0.1
-0.1
-0.2
-0.1
-0.1
-0.2
-0.1
-0.2
-0.1
-0.2
-0.1
-0.2
-0.2
-0.2
-0.2
-0.2
-0.2
-0.2
-0.2
-0.2
-0.2
SCALARS u2 float
LOOKUP_TABLE default
-0.09
-0.08
-0.09
-0.08
-0.09
-0.08
-0.09
-0.08
-0.1
-0.08
-0.1
-0.08
-0.1
-0.07
-0.1
-0.07
-0.1
-0.07
-0.1
-0.07
-0.1
-0.07
-0.1
-0.07
-0.1
-0.07
-0.1
-0.07
-0.1
-0.07
-0.1
-0.07
-0.1
-0.08
-0.1
-0.08
-0.1
-0.08
-0.1
-0.08
-0.1
-0.08
-0.1
-0.09
-0.1
-0.09
-0.1
-0.09
-0.1
-0.1
-0.1
-0.1
-0.1
-0.1
-0.1
-0.1
-0.1
-0.1
-0.1
-0.1
-0.1
-0.1
-0.1
-0.1
-0.1
-0.1
-0.1
-0.1
-0.2
-0.1
-0.2
-0.1
-0.2
-0.1
-0.2
-0.1
-0.2
-0.1
-0.2
-0.1
-0.2
-0.1
-0.2
-0.1
-0.2
-0.1
-0.2
-0.1
-0.2
-0.1
-0.2
-0.2
-0.2
-0.2
-0.2
-0.2
-0.2
-0.2
-0.2
-0.2
-0.2
-0.2
-0.2
-0.2
-0.2
-0.2
-0.2
-0.2
-0.2
-0.2
-0.2
-0.2
-0.2
-0.2
-0.2
-0.2
-0.2
-0.2
-0.2
-0.2
-0.2
-0.2
-0.2
-0.2
-0.1
-0.2
-0.1
-0.2
-0.1
-0.1
-0.2
-0.1
-0.2
-0.1
-0.2
-0.09
-0.2
-0.08
-0.2
-0.07
-0.2
-0.07
-0.2
-0.06
-0.2
-0.06
-0.2
-0.05
-0.2
-0.04
-0.2
-0.04
-0.2
-0.04
-0.2
-0.03
-0.2
-0.03
-0.2
-0.03
-0.2
-0.02
-0.2
-0.02
-0.2
-0.02
-0.2
-0.01
-0.2
-0.01
-0.1
-0.009
-0.1
-0.008
-0.1
-0.007
-0.1
-0.006
-0.1
-0.006
-0.1
-0.006
-0.1
-0.007
-0.1
-0.008
-0.09
-0.009
-0.08
-0.01
-0.07
-0.01
-0.06
-0.01
-0.05
-0.01
-0.04
-0.02
-0.03
-0.02
-0.02
-0.02
-0.01
-0.02
-0.004
-0.02
0.003
-0.02
0.01
-0.03
0.02
-0.03
0.02
-0.03
0.03
-0.03
0.03
-0.04
0.03
-0.04
0.04
-0.04
0.04
-0.05
0.04
-0.05
0.03
-0.05
0.03
-0.05
0.03
-0.05
0.02
-0.05
0.01
-0.06
0.008
-0.06
0.002
-0.06
-0.006
-0.06
-0.01
-0.06
-0.02
-0.06
-0.03
-0.06
-0.04
-0.06
-0.05
-0.06
-0.05
-0.06
-0.06
-0.06
-0.07
-0.05
-0.08
-0.05
-0.08
-0.05
-0.09
-0.05
-0.09
-0.05
-0.1
-0.05
-0.1
-0.05
-0.1
-0.05
-0.1
-0.06
-0.1
-0.06
-0.1
-0.06
-0.1
-0.06
-0.1
-0.06
-0.1
-0.06
-0.1
-0.07
-0.1
-0.07
-0.1
-0.07
-0.1
-0.08
-0.1
-0.08
-0.1
-0.08
-0.1
-0.09
-0.1
-0.09
-0.1
-0.09
-0.1
-0.1
-0.1
-0.1
-0.1
-0.1
-0.1
-0.1
-0.1
-0.1
-0.1
-0.1
-0.1
-0.1
-0.1
-0.09
-0.08
-0.09
-0.08
-0.09
-0.08
-0.09
-0.08
-0.09
-0.07
-0.1
-0.07
-0.1
-0.07
-0.1
-0.07
-0.1
-0.07
-0.1
-0.07
-0.1
-0.07
-0.1
-0.07
-0.1
-0.07
-0.1
-0.07
-0.1
-0.08
-0.1
-0.08
-0.1
-0.08
-0.1
-0.08
-0.1
-0.08
-0.1
-0.09
-0.1
-0.09
-0.1
-0.09
-0.1
-0.1
-0.1
-0.1
-0.1
-0.1
-0.1
-0.1
-0.1
-0.1
-0.1
-0.1
-0.1
-0.1
-0.1
-0.1
-0.1
-0.1
-0.1
-0.2
-0.1
-0.2
-0.1
-0.2
-0.1
-0.2
-0.1
-0.2
-0.1
-0.2
-0.1
-0.2
-0.1
-0.2
-0.1
-0.2
-0.2
-0.2
-0.2
-0.2
-0.2
-0.2
-0.2
-0.2
-0.2
-0.2
-0.2
-0.2
-0.2
-0.2
-0.2
-0.2
-0.2
-0.2
-0.2
-0.2
-0.2
-0.2
-0.2
-0.2
-0.2
-0.2
-0.2
-0.2
-0.2
-0.2
-0.2
-0.2
-0.2
-0.2
-0.2
-0.2
-0.2
-0.2
-0.2
-0.1
-0.2
-0.1
-0.2
-0.1
-0.2
-0.1
-0.2
-0.1
-0.2
-0.1
-0.2
-0.09
-0.2
-0.08
-0.2
-0.07
-0.2
-0.07
-0.2
-0.06
-0.2
-0.05
-0.2
-0.05
-0.2
-0.04
-0.2
-0.04
-0.2
-0.04
-0.2
-0.03
-0.2
-0.03
-0.2
-0.02
-0.2
-0.02
-0.2
-0.02
-0.2
-0.02
-0.1
-0.01
-0.1
-0.01
-0.1
-0.009
-0.1
-0.007
-0.1
-0.006
-0.1
-0.006
-0.1
-0.006
-0.1
-0.006
-0.09
-0.007
-0.08
-0.008
-0.07
-0.009
-0.06
-0.01
-0.05
-0.01
-0.04
-0.01
-0.03
-0.01
-0.02
-0.01
-0.01
-0.02
-0.005
-0.02
0.003
-0.02
0.01
-0.02
0.02
-0.02
0.02
-0.03
0.03
-0.03
0.03
-0.03
0.03
-0.03
0.04
-0.03
0.04
-0.04
0.04
-0.04
0.03
-0.04
0.03
-0.04
0.03
-0.05
0.02
-0.05
0.01
-0.05
0.008
-0.05
0.001
-0.05
-0.006
-0.05
-0.01
-0.05
-0.02
-0.05
-0.03
-0.05
-0.04
-0.05
-0.05
-0.06
-0.05
-0.06
-0.06
-0.06
-0.07
-0.06
-0.08
-0.06
-0.08
-0.06
-0.09
-0.06
-0.09
-0.06
-0.1
-0.06
-0.1
-0.06
-0.1
-0.06
-0.1
-0.06
-0.1
-0.07
-0.1
-0.07
-0.1
-0.07
-0.1
-0.07
-0.1
-0.08
-0.1
-0.08
-0.1
-0.08
-0.1
-0.08
-0.1
-0.09
-0.1
-0.09
-0.1
-0.09
-0.1
-0.1
-0.1
-0.1
-0.1
-0.1
-0.1
-0.1
-0.1
-0.1
-0.1
-0.1
-0.1
-0.1
-0.1
-0.1
-0.1
-0.1
-0.1
-0.09
-0.08
-0.09
-0.08
-0.09
-0.08
-0.09
-0.08
-0.1
-0.08
-0.1
-0.07
-0.1
-0.1
-0.07
-0.1
-0.1
-0.07
-0.1
-0.1
-0.07
-0.1
-0.1
-0.07
-0.1
-0.1
-0.07
-0.1
-0.1
-0.07
-0.1
-0.1
-0.07
-0.1
-0.1
-0.07
-0.1
-0.07
-0.1
-0.08
-0.1
-0.08
-0.1
-0.08
-0.1
-0.08
-0.1
-0.08
-0.1
-0.09
-0.1
-0.09
-0.1
-0.09
-0.1
-0.1
-0.1
-0.1
-0.1
-0.1
-0.1
-0.1
-0.1
-0.1
-0.1
-0.1
-0.1
-0.1
-0.1
-0.1
-0.1
-0.1
-0.1
-0.1
-0.1
-0.1
-0.1
-0.1
-0.1
-0.1
-0.2
-0.1
-0.2
-0.1
-0.2
-0.1
-0.2
-0.1
-0.2
-0.1
-0.2
-0.1
-0.2
-0.1
-0.2
-0.1
-0.2
-0.1
-0.2
-0.1
-0.2
-0.2
-0.2
-0.2
-0.2
-0.2
-0.2
-0.2
-0.2
-0.2
-0.2
-0.2
-0.2
-0.2
-0.2
-0.2
-0.2
-0.2
-0.2
-0.2
-0.2
-0.2
-0.2
-0.2
-0.2
-0.2
-0.2
-0.2
-0.2
-0.2
-0.2
-0.2
-0.2
-0.2
-0.2
-0.2
-0.2
-0.2
-0.2
-0.2
-0.2
-0.1
-0.2
-0.1
-0.2
-0.1
-0.2
-0.1
-0.1
-0.2
-0.1
-0.1
-0.2
-0.1
-0.1
-0.2
-0.09
-0.09
-0.2
-0.08
-0.08
-0.2
-0.07
-0.08
-0.2
-0.07
-0.07
-0.2
-0.06
-0.06
-0.2
-0.05
-0.2
-0.05
-0.2
-0.04
-0.2
-0.04
-0.2
-0.04
-0.2
-0.03
-0.2
-0.03
-0.2
-0.03
-0.2
-0.02
-0.2
-0.02
-0.2
-0.02
-0.2
-0.01
-0.1
-0.01
-0.1
-0.1
-0.009
-0.1
-0.1
-0.007
-0.1
-0.1
-0.007
-0.1
-0.1
-0.006
-0.1
-0.1
-0.006
-0.1
-0.1
-0.006
-0.09
-0.09
-0.007
-0.08
-0.09
-0.008
-0.07
-0.009
-0.06
-0.01
-0.05
-0.01
-0.05
-0.01
-0.04
-0.01
-0.03
-0.02
-0.02
-0.02
-0.01
-0.02
-0.0005
-0.02
0.007
-0.02
-0.02
0.01
-0.02
-0.03
0.02
-0.03
-0.03
0.03
-0.03
-0.03
0.03
-0.03
-0.03
0.03
-0.03
-0.04
0.04
-0.04
-0.04
0.04
-0.04
-0.04
0.04
-0.04
0.03
-0.04
0.03
-0.05
0.03
-0.05
0.02
-0.05
0.02
-0.05
0.01
-0.05
0.005
-0.05
-0.004
-0.05
-0.01
-0.06
-0.02
-0.06
-0.03
-0.06
-0.03
-0.06
-0.04
-0.06
-0.05
-0.06
-0.05
-0.06
-0.06
-0.06
-0.07
-0.06
-0.07
-0.07
-0.06
-0.08
-0.08
-0.06
-0.08
-0.09
-0.06
-0.09
-0.09
-0.06
-0.09
-0.1
-0.06
-0.1
-0.06
-0.1
-0.06
-0.1
-0.06
-0.1
-0.06
-0.1
-0.06
-0.1
-0.06
-0.1
-0.07
-0.1
-0.07
-0.1
-0.07
-0.1
-0.07
-0.1
-0.08
-0.08
-0.1
-0.08
-0.08
-0.1
-0.08
-0.08
-0.1
-0.09
-0.09
-0.1
-0.09
-0.09
-0.1
-0.09
-0.09
-0.1
-0.1
-0.1
-0.1
-0.1
-0.1
-0.1
-0.1
-0.1
-0.1
-0.1
-0.1
-0.1
-0.1
-0.1
-0.1
-0.1
-0.1
-0.1
SCALARS strain_1 float
LOOKUP_TABLE default
-0.194456
-0.130263
0.121930
-0.495903
0.445805
-0.777782
0.790171
-1.051570
1.136909
-1.308787
1.502189
-1.555415
1.883021
-1.790973
2.272506
-2.008872
2.674923
-2.214431
3.091061
-2.406919
3.512622
-2.590435
3.951748
-2.757171
4.402273
-2.910796
4.859132
-3.052724
5.332813
-3.185580
5.813193
-3.306143
6.304652
-3.413874
6.804568
-3.506396
7.308668
-3.592630
7.828477
-3.660622
8.353860
-3.728393
8.881212
-3.779893
9.420413
-3.819044
9.969931
-3.852629
10.517679
-3.872671
11.071575
-3.887592
11.631074
-3.890944
12.197257
-3.889264
12.759685
-3.875974
13.331409
-3.856887
13.900282
-3.828108
14.470803
-3.793503
15.044676
15.619874
-3.751546
16.183327
-3.704828
16.749184
-3.648835
17.316947
-3.590850
17.880562
-3.530946
18.430012
-3.456021
18.986155
-3.383177
19.534215
-3.307125
20.071425
-3.224276
20.607055
-3.138249
21.127234
-3.049859
21.643791
-2.958931
22.154261
-2.864453
22.647536
23.131705
-2.772538
-2.676675
23.608349
-2.584259
24.065857
-2.482499
24.513365
-2.381664
24.947081
-2.282872
25.365276
-2.181445
25.765552
-2.082525
26.157538
-1.985093
26.529624
-1.892094
26.880809
-1.790243
27.220239
-1.698173
27.539408
-1.610042
27.842695
-1.514889
28.120319
-1.425974
28.384470
-1.334532
28.625051
-1.258035
28.846087
-1.171185
29.053157
-1.094496
-1.017384
29.235391
-0.947971
29.391790
-0.880060
29.534907
-0.816780
29.644278
-0.754731
29.741493
-0.694912
29.816577
-0.643205
29.868117
-0.596701
29.895714
-0.549310
29.900459
-0.508572
29.887147
-0.470528
29.849839
-0.439111
29.795904
-0.410069
29.717202
-0.385739
29.613097
-0.366994
29.489868
-0.349285
29.346689
-0.339579
29.182695
-0.337422
29.001885
-0.334276
28.790449
-0.332669
28.567105
-0.334394
28.321274
-0.348804
28.059522
-0.355961
27.779399
-0.375971
27.476781
-0.395903
27.156723
-0.416828
26.821218
-0.443941
26.472745
-0.472510
26.103041
-0.505601
25.722893
-0.543417
25.326607
-0.582923
24.917575
-0.626097
24.491883
-0.668855
24.053708
-0.718801
23.601641
-0.768798
23.145781
-0.819970
22.677079
-0.874228
22.197952
-0.929571
21.708446
-0.987236
21.211527
-1.048220
20.704918
-1.107775
20.199651
-1.167998
19.681971
-1.236594
19.156684
-1.300882
18.631158
-1.362955
18.099395
-1.421917
17.570958
-1.491936
17.037709
-1.553622
16.496091
-1.620417
15.958715
-1.687689
15.422455
-1.751071
14.883328
-1.815203
14.349134
-1.881511
13.813806
-1.943109
13.280936
-2.002579
12.755874
-2.063528
12.230670
-2.128296
11.709885
-2.181141
11.192830
-2.235323
10.684009
-2.290790
10.176809
-2.340351
9.682387
-2.389630
9.189187
-2.436380
8.708012
-2.480183
8.234744
-2.522882
7.766696
-2.559905
7.306841
-2.593406
6.860902
-2.619052
6.422153
-2.648694
5.989296
-2.670616
5.574167
-2.686177
5.158496
-2.701174
4.759188
-2.713485
4.370977
-2.714017
3.990375
-2.716572
3.619015
-2.709012
3.259031
-2.699151
2.913581
-2.681441
2.576674
-2.656745
2.254404
-2.625430
1.945182
-2.586639
1.640390
-2.541974
1.355091
-2.497957
1.072315
-2.441291
0.809510
-2.373808
0.549516
-2.305702
0.305515
-2.223366
0.072368
-2.137477
-0.152977
-2.038946
-0.361985
-1.933200
-0.567353
-1.824085
-0.757493
-1.697195
-0.941132
-1.566147
-1.109729
-1.424157
-1.269758
0.189317
-0.429442
0.520933
-0.720554
0.863737
-0.992735
1.226830
-1.258869
1.590733
-1.511518
1.972422
-1.746898
2.371775
-1.971975
2.776092
-2.178512
3.196909
-2.373414
3.628309
-2.558030
4.069305
-2.732546
4.519663
-2.883182
4.987855
-3.030816
5.464421
-3.164472
5.948447
-3.284400
6.440592
-3.389632
6.946783
-3.491102
7.453577
-3.577226
7.977030
-3.651676
8.499679
-3.715013
9.039760
-3.763822
9.571760
-3.808136
10.121614
-3.840022
10.673073
-3.867430
11.223692
-3.882500
11.780969
-3.879871
12.348073
-3.875793
12.908025
-3.867843
13.473694
-3.842841
14.043123
-3.819363
14.614527
-3.780028
15.179410
-3.740289
15.740450
-3.696380
16.306788
-3.641413
16.863342
-3.584807
17.414496
-3.519864
17.970057
-3.448979
18.517082
-3.374559
19.056718
-3.300214
19.591145
-3.218335
20.117602
-3.136085
20.628810
-3.047859
21.139595
-2.957281
21.636313
-2.869186
22.121773
-2.771202
22.595766
-2.682272
23.061887
-2.586657
23.509621
-2.489145
23.949015
-2.397331
24.367674
-2.299995
24.775398
-2.206865
25.166807
-2.106604
25.544256
-2.011680
25.896011
-1.914615
26.235118
-1.826343
26.562964
-1.735229
26.866407
-1.645326
27.146161
-1.559522
27.413621
-1.479307
27.656679
-1.393710
27.878681
-1.315583
28.085029
-1.240298
28.266742
-1.164220
28.429960
-1.098655
28.568067
-1.035139
28.687095
-0.975287
28.778716
-0.911914
28.855119
-0.855052
28.905782
-0.811066
28.932705
-0.765583
28.941906
-0.723076
28.927322
-0.683199
28.885693
-0.645547
28.829822
-0.615875
28.747235
-0.595005
28.644192
-0.568305
28.519217
-0.555941
28.373317
-0.541816
28.204339
-0.530602
28.017445
-0.527130
27.806700
-0.525384
27.579580
-0.531368
27.333203
-0.535881
27.060890
-0.545906
26.775868
-0.563539
26.476714
-0.580747
26.155280
-0.602976
25.815394
-0.628481
25.460634
-0.655878
25.091472
-0.687936
24.707025
-0.727172
24.305503
-0.764087
23.895559
-0.800171
23.466056
-0.848860
23.030108
-0.891263
22.571626
-0.945092
22.115683
-0.992364
21.640583
-1.044329
21.160042
-1.102165
20.674400
-1.158199
20.171306
-1.216539
19.669490
-1.272256
19.159032
-1.334094
18.640651
-1.399271
18.123120
-1.456503
17.594267
-1.521809
17.070075
-1.577431
16.540324
-1.646467
16.008892
-1.709767
15.472537
-1.769838
14.944117
-1.832874
14.406094
-1.892951
13.877682
-1.956205
13.347505
-2.019226
12.821657
-2.074826
12.293341
-2.138462
11.776452
-2.193305
11.265611
-2.244311
10.750781
-2.297344
10.245375
-2.349798
9.746570
-2.400038
9.252637
-2.443856
8.770282
-2.491766
8.293564
-2.529310
7.824062
-2.567608
7.363773
-2.605942
6.907062
-2.629060
6.464973
-2.660710
6.033459
-2.680521
5.608233
-2.701802
5.192642
-2.716504
4.788319
-2.727014
4.393968
-2.731391
4.015692
-2.730861
3.643150
-2.726889
3.277746
-2.711065
2.937350
-2.694139
2.593692
-2.677633
2.270381
-2.647342
1.952517
-2.607407
1.652844
-2.573163
1.350853
-2.518606
1.076315
-2.462107
0.802190
-2.400018
0.541402
-2.326650
0.293094
-2.245921
0.058970
-2.161551
-0.160981
-2.063101
-0.379087
-1.955826
-0.581383
-1.841679
-0.776105
-1.719370
-0.960884
-1.587626
-1.448330
-1.128522
-1.293484
0.062536
-0.316881
0.328997
-0.606607
0.655562
-0.887611
1.001241
-1.158318
1.366595
-1.406327
1.732047
-1.656128
2.105226
2.412759
-1.902518
2.816653
2.617154
-2.097680
3.239916
3.041394
-2.294057
3.457694
3.682266
-2.477531
3.901171
4.129802
-2.622018
4.578240
4.345114
-2.823365
4.806978
5.051132
-2.973361
5.556935
5.274787
-3.110184
5.905519
-3.236948
6.378184
-3.348482
6.872058
-3.471394
7.380674
-3.541869
7.900189
-3.621852
8.420881
-3.691399
8.939966
-3.743960
9.385991
-3.798259
10.046407
-3.829704
10.597100
-3.860394
-3.873877
11.150175
-3.881896
-3.875804
11.702755
-3.885268
-3.890239
12.271005
-3.882673
-3.883688
-3.875461
-3.866256
12.960239
-3.857937
-3.840226
13.485760
-3.835082
-3.816057
14.057653
-3.798496
-3.774651
14.640536
-3.745351
15.389766
-3.697507
16.354509
-3.648705
16.802637
-3.586249
17.255937
-3.523187
17.927643
-3.454443
18.476393
-3.393790
19.020674
-3.302597
19.660681
-3.219931
20.106061
-3.133358
20.614526
-3.033007
21.134557
-2.959924
21.639183
-2.885372
22.137729
22.600465
22.972632
-2.719409
23.442359
23.211226
-2.595674
23.914503
23.670337
-2.492397
24.120821
24.344212
-2.395351
24.548428
24.773849
-2.307414
24.956223
25.173034
-2.191457
25.360692
25.578385
-2.095957
25.744622
25.989327
-1.996398
26.229732
-1.902615
26.553503
-1.808107
26.884185
-1.697095
27.194856
-1.620344
27.488200
-1.534827
27.759074
-1.452933
28.004789
-1.365752
28.206981
-1.288693
28.466059
-1.209320
28.659411
-1.135974
-1.073650
28.825658
-1.045420
-1.003643
28.974131
-0.974801
-0.937279
29.106759
-0.906646
-0.876152
29.236850
-0.848639
-0.816100
29.298623
-0.763270
-0.792837
29.358596
-0.739154
-0.717771
29.402790
-0.663842
-0.693133
29.415212
-0.636030
29.413718
-0.596826
29.389760
-0.562634
29.342529
-0.531136
29.269381
-0.504005
29.180309
-0.481268
29.063876
-0.463055
28.900787
-0.446486
28.767965
-0.439994
28.603070
-0.431776
28.398793
-0.429118
28.187671
-0.430268
27.953297
-0.437564
27.707886
27.539891
-0.447763
27.338004
27.206711
-0.462663
27.037939
26.898188
-0.478693
26.585359
26.721914
-0.498495
26.401409
26.234150
-0.516623
25.891596
26.058676
-0.553456
25.679575
25.503171
-0.582083
25.104879
25.297499
-0.615556
24.799256
-0.655485
24.403761
-0.693335
23.970129
-0.746748
23.535148
-0.786202
23.086877
-0.835169
22.627905
-0.879362
22.172060
-0.936471
21.771272
-0.985054
21.188802
-1.042970
20.689073
-1.094685
-1.135814
20.188190
-1.175445
-1.206038
19.674162
-1.240862
-1.266891
19.158640
-1.301341
-1.326621
18.527103
-1.359469
-1.388783
18.092925
-1.422273
-1.455571
17.581698
-1.491393
-1.519050
17.051282
-1.557894
-1.585520
16.535577
-1.632156
16.103408
-1.696613
15.337235
-1.761469
14.908999
-1.825734
14.485852
-1.885860
13.847428
-1.945253
13.312784
-1.998497
12.789128
-2.075464
12.149843
-2.129938
11.724217
-2.185498
11.225227
-2.252881
10.720373
-2.296958
10.214692
-2.336057
9.722898
-2.405029
9.252241
-2.432670
8.903182
8.629789
-2.493830
8.403287
8.141742
-2.529426
7.909633
7.682077
-2.561875
7.450712
7.228623
-2.589050
6.999044
6.785120
-2.630483
6.540456
6.327083
-2.655312
6.112572
5.907908
-2.675241
5.670346
-2.695348
5.358002
-2.706301
4.970181
-2.720200
4.574201
-2.724859
4.193759
-2.724628
3.819129
-2.712524
3.458180
-2.706394
3.106338
-2.688356
2.827859
-2.667597
2.426504
-2.636020
2.105375
-2.609783
-2.592117
1.797337
-2.572442
-2.544112
1.497733
-2.521897
-2.491448
1.209615
-2.466903
-2.436697
0.884665
-2.369867
-2.403233
0.664217
-2.328504
-2.293600
0.425484
-2.211867
-2.257451
0.190306
-2.164603
-0.013320
-2.094308
-0.269085
-1.998775
-0.474024
-1.887920
-0.671787
-1.768577
-0.859747
-1.645623
-1.036745
-1.510959
-1.387411
-1.203547
SCALARS strain_2 float
LOOKUP_TABLE default
0.086903
0.065697
-0.041878
0.199965
-0.173065
0.310553
-0.316296
0.415005
-0.459550
0.508803
-0.620885
0.599201
-0.779607
0.683459
-0.950599
0.754003
-1.134230
0.825849
-1.321638
0.890879
-1.519841
0.943174
-1.723339
1.001287
-1.938288
1.043613
-2.162242
1.084498
-2.385849
1.121924
-2.622968
1.152237
-2.872726
1.171899
-3.127249
1.198611
-3.387199
1.213758
-3.657266
1.226805
-3.936584
1.239224
-4.220081
1.243933
-4.511773
1.245640
-4.805973
1.244776
-5.117444
1.239337
-5.428773
1.232797
-5.742951
1.222486
-6.068867
1.214139
-6.399193
1.194888
-6.737028
1.185309
-7.071564
1.168195
-7.421152
1.149175
-7.768633
-8.121986
1.127453
-8.477721
1.099567
-8.835947
1.076750
-9.198543
1.056446
-9.561835
1.029144
-9.923674
0.997176
-10.291674
0.974892
-10.658745
0.945580
-11.024927
0.915232
-11.387219
0.886299
-11.753477
0.856293
-12.119354
0.826195
-12.471886
0.793278
-12.833591
-13.191747
0.767251
0.735616
-13.537923
0.706435
-13.884615
0.677714
-14.223321
0.645250
-14.561049
0.620474
-14.892042
0.589785
-15.209506
0.560095
-15.523193
0.535139
-15.827839
0.508399
-16.128975
0.482207
-16.415605
0.452367
-16.701072
0.430547
-16.966808
0.402120
-17.228115
0.379607
-17.473382
0.356376
-17.714852
0.335184
-17.937382
0.315570
-18.150950
0.294668
0.275801
-18.342060
0.252385
-18.531688
0.239391
-18.697964
0.222981
-18.861196
0.203412
-19.004463
0.194252
-19.138603
0.180017
-19.247863
0.165178
-19.345029
0.152984
-19.433879
0.141871
-19.501998
0.133926
-19.555534
0.126789
-19.592702
0.117485
-19.611347
0.112440
-19.619137
0.110447
-19.608559
0.105307
-19.578970
0.103129
-19.537078
0.101382
-19.477854
0.102085
-19.403173
0.099524
-19.306245
0.105680
-19.203961
0.106714
-19.080369
0.116252
-18.939793
0.121686
-18.794902
0.126012
-18.625910
0.134023
-18.446044
0.144931
-18.247107
0.159311
-18.039091
0.167230
-17.814535
0.178103
-17.576660
0.198906
-17.328803
0.215075
-17.071752
0.235526
-16.799496
0.252418
-16.514352
0.275767
-16.215684
0.294427
-15.910498
0.319891
-15.597129
0.343688
-15.271415
0.373953
-14.939988
0.396182
-14.598565
0.426435
-14.246582
0.460893
-13.889580
0.491878
-13.533406
0.520687
-13.164619
0.557288
-12.793034
0.586136
-12.420712
0.625431
-12.039033
0.668109
-11.652808
0.705522
-11.269587
0.740728
-10.880758
0.786451
-10.489664
0.824688
-10.100573
0.870845
-9.712365
0.912300
-9.322170
0.952368
-8.931437
0.997711
-8.546564
1.044811
-8.158814
1.086903
-7.779100
1.132242
-7.401495
1.178581
-7.024277
1.227094
-6.653723
1.268881
-6.292631
1.311096
-5.929222
1.353203
-5.569274
1.393934
-5.225975
1.431408
-4.882222
1.476263
-4.544051
1.514712
-4.215911
1.554335
-3.892421
1.590011
-3.580357
1.628047
-3.268658
1.653490
-2.977163
1.687415
-2.686455
1.712252
-2.410933
1.739729
-2.140640
1.758018
-1.873076
1.780492
-1.623982
1.790623
-1.379253
1.800199
-1.148043
1.805019
-0.923150
1.808745
-0.709270
1.803460
-0.503957
1.796486
-0.307762
1.783808
-0.124465
1.764148
0.055026
1.742336
0.222474
1.713497
0.377023
1.676900
0.525570
1.632801
0.666834
1.583881
0.793610
1.524353
0.917314
1.466791
1.028541
1.394544
1.130951
1.313406
1.224481
-0.067060
0.181366
-0.202309
0.295572
-0.346945
0.398544
-0.495966
0.492417
-0.655461
0.588728
-0.822319
0.673129
-0.999404
0.752032
-1.186034
0.820303
-1.378972
0.889055
-1.577357
0.943577
-1.784533
0.994732
-2.002579
1.045150
-2.230504
1.086893
-2.463112
1.122104
-2.707114
1.152307
-2.956331
1.181532
-3.209969
1.205327
-3.479426
1.219729
-3.753100
1.235913
-4.040685
1.245521
-4.328124
1.251235
-4.614988
1.253498
-4.922566
1.255298
-5.228136
1.249074
-5.540604
1.242402
-5.860991
1.238277
-6.189902
1.225231
-6.521645
1.208648
-6.861640
1.195300
-7.201091
1.175680
-7.548585
1.152420
-7.896475
1.135044
-8.246280
1.112216
-8.599324
1.090894
-8.960541
1.061817
-9.316187
1.039639
-9.679484
1.014848
-10.036998
0.982764
-10.403972
0.959075
-10.763785
0.924265
-11.122710
0.892690
-11.484267
0.869241
-11.841305
0.838370
-12.195198
0.809359
-12.550153
0.779358
-12.896808
0.750635
-13.239302
0.720879
-13.576339
0.690596
-13.909297
0.662126
-14.237496
0.633886
-14.559144
0.604493
-14.869590
0.580976
-15.171615
0.551077
-15.467830
0.524281
-15.756936
0.498030
-16.034093
0.475453
-16.303313
0.451808
-16.562012
0.425340
-16.803337
0.403820
-17.042892
0.379994
-17.265893
0.366406
-17.474022
0.343834
-17.673860
0.319137
-17.858855
0.304534
-18.025201
0.287893
-18.177768
0.271315
-18.327643
0.254992
-18.453078
0.239252
-18.565708
0.227465
-18.661982
0.216176
-18.741938
0.208819
-18.806900
0.195461
-18.860631
0.188634
-18.889445
0.178953
-18.911693
0.179441
-18.907638
0.169118
-18.894910
0.167537
-18.865424
0.163176
-18.820633
0.163507
-18.754898
0.161401
-18.678458
0.165240
-18.580000
0.164915
-18.470127
0.171608
-18.341498
0.174660
-18.202519
0.181780
-18.047497
0.189511
-17.875493
0.201832
-17.686859
0.205400
-17.481086
0.219703
-17.272691
0.233472
-17.043764
0.250747
-16.800089
0.266729
-16.553496
0.279487
-16.289435
0.301114
-16.006498
0.321447
-15.721987
0.344099
-15.423077
0.368237
-15.114935
0.388324
-14.799927
0.414511
-14.469184
0.443338
-14.136544
0.471464
-13.795897
0.499089
-13.446551
0.530563
-13.092643
0.564811
-12.727023
0.600870
-12.363099
0.633390
-11.990488
0.674954
-11.616802
0.708924
-11.234575
0.745449
-10.855580
0.787832
-10.473458
0.822429
-10.081905
0.864011
-9.702338
0.907605
-9.315151
0.949682
-8.933031
0.990075
-8.548455
1.035455
-8.165134
1.079308
-7.788008
1.126351
-7.409002
1.167739
-7.033966
1.212039
-6.670278
1.254686
-6.301931
1.299412
-5.940523
1.340011
-5.588905
1.384606
-5.237004
1.425160
-4.892076
1.465964
-4.556547
1.503911
-4.230299
1.543835
-3.904589
1.580077
-3.591925
1.614228
-3.283208
1.647402
-2.986364
1.676190
-2.703034
1.705060
-2.416253
1.731219
-2.146697
1.749848
-1.882039
1.769692
-1.630027
1.785880
-1.383575
1.795669
-1.150004
1.801518
-0.924917
1.806661
-0.711300
1.803668
-0.502137
1.794860
-0.310606
1.783234
-0.122916
1.762642
0.059170
1.741748
0.218132
1.714398
0.385036
1.678830
0.534190
1.633948
0.667236
1.589831
0.798826
1.533608
0.921690
1.465947
1.033085
1.399069
1.315089
1.135999
1.230185
-0.017508
0.129959
-0.121240
0.245063
-0.258400
0.354261
-0.397495
0.454319
-0.555294
0.551269
-0.716050
0.636571
-0.878423
-1.018639
0.723057
-1.199704
-1.107229
0.787894
-1.393417
-1.298040
0.852842
-1.494444
-1.598529
0.914205
-1.699930
-1.810242
0.960155
-2.024633
-1.913926
1.021378
-2.135576
-2.254809
1.067418
-2.505779
-2.367093
1.101140
-2.677147
1.135112
-2.912974
1.164890
-3.170401
1.193496
-3.431337
1.210768
-3.702628
1.225465
-3.983993
1.239345
-4.260565
1.243548
-4.503310
1.250189
-4.865537
1.251062
-5.169394
1.247534
1.247855
-5.485682
1.239223
1.242290
-5.805367
1.230022
1.235443
-6.129722
1.217267
1.221472
1.208233
1.202006
-6.529777
1.193863
1.182606
-6.843786
1.176888
1.166537
-7.189748
1.157553
1.139654
-7.544122
1.132973
-8.002853
1.111232
-8.610254
1.085002
-8.899231
1.057796
-9.186320
1.032567
-9.618602
1.005591
-9.987459
0.983161
-10.346673
0.950252
-10.781910
0.917401
-11.085150
0.893777
-11.432853
0.853575
-11.797543
0.834485
-12.155537
0.808604
-12.509767
-12.847294
-13.115203
0.758643
-13.469271
-13.297561
0.716557
-13.823692
-13.643333
0.688480
-13.984419
-14.154748
0.658126
-14.310976
-14.481992
0.629982
-14.633427
-14.801943
0.599737
-14.955038
-15.125284
0.569869
-15.263380
-15.455695
0.542480
-15.666096
0.515926
-15.943030
0.491082
-16.226216
0.461423
-16.494230
0.439525
-16.760504
0.417550
-17.008961
0.393518
-17.245347
0.372270
-17.436438
0.343725
-17.708938
0.325476
-17.909629
0.309921
0.289139
-18.099203
0.281550
0.273782
-18.276244
0.272409
0.257902
-18.443052
0.252725
0.244193
-18.628803
0.232377
0.227234
-18.731176
0.210724
0.221546
-18.846867
0.208804
0.197217
-18.951064
0.185854
0.195698
-19.026411
0.179753
-19.120200
0.172719
-19.182441
0.164089
-19.221055
0.149853
-19.253233
0.144566
-19.261874
0.141184
-19.257576
0.134436
-19.226110
0.135092
-19.192578
0.132096
-19.145257
0.132489
-19.071610
0.128875
-18.991624
0.132254
-18.891028
0.135747
-18.783114
-18.707989
0.138261
-18.599450
-18.531826
0.149416
-18.442024
-18.376258
0.154528
-18.215923
-18.279242
0.164094
-18.112774
-18.021212
0.168404
-17.825090
-17.918765
0.183148
-17.701315
-17.601212
0.196332
-17.368636
-17.475202
0.212407
-17.176247
0.225530
-16.939182
0.236692
-16.673739
0.264706
-16.401720
0.279937
-16.112558
0.294756
-15.815196
0.321101
-15.514798
0.344098
-15.258376
0.367649
-14.872020
0.392477
-14.538160
0.419963
0.438518
-14.193743
0.457420
0.470510
-13.847291
0.489669
0.504457
-13.488182
0.518429
0.538765
-13.047838
0.552653
0.569743
-12.745661
0.590009
0.605327
-12.386276
0.625655
0.639032
-12.015711
0.660136
0.676231
-11.644759
0.708154
-11.338564
0.740107
-10.784512
0.785763
-10.475849
0.824417
-10.173043
0.867017
-9.701716
0.906908
-9.318846
0.943165
-8.931348
0.991187
-8.461833
1.040848
-8.146727
1.085992
-7.781183
1.136495
-7.405538
1.174679
-7.031698
1.206306
-6.663251
1.267433
-6.314997
1.294276
-6.058292
-5.847613
1.355518
-5.685309
-5.489592
1.390984
-5.312119
-5.147045
1.428045
-4.978368
-4.811164
1.467560
-4.638356
-4.475585
1.509893
-4.294144
-4.133791
1.551627
-3.975350
-3.826751
1.585336
-3.651824
1.617680
-3.417781
1.654901
-3.126981
1.686276
-2.834817
1.710438
-2.548923
1.729325
-2.275343
1.752950
-2.014740
1.771828
-1.759189
1.788738
-1.554719
1.798046
-1.265799
1.803547
-1.034482
1.804693
1.809089
-0.817710
1.808442
1.804896
-0.603385
1.798544
1.794815
-0.405245
1.792447
1.779910
-0.172022
1.757742
1.770654
-0.024229
1.746488
1.735918
0.143228
1.702853
1.719191
0.295901
1.687781
0.435674
1.655476
0.598763
1.609972
0.729903
1.559254
0.855551
1.500122
0.973690
1.433071
1.080725
1.360462
1.291664
1.181975
SCALARS strain_3 float
LOOKUP_TABLE default
0.707345
0.450360
-0.480108
1.844921
-1.710873
2.935195
-2.994029
3.974163
-4.319739
4.965963
-5.691657
5.907685
-7.107454
6.798066
-8.565531
7.640300
-10.068627
8.433120
-11.609712
9.176613
-13.194451
9.870971
-14.814965
10.517533
-16.472768
11.116373
-18.162113
11.664368
-19.889068
12.166268
-21.645381
12.624927
-23.434098
13.033158
-25.247616
13.398433
-27.087627
13.721251
-28.953706
13.997362
-30.843458
14.233005
-32.747081
14.430153
-34.669603
14.584276
-36.606930
14.698475
-38.560026
14.778317
-40.519187
14.818944
-42.487179
14.827478
-44.458477
14.800369
-46.434752
14.741051
-48.411147
14.650610
-50.381950
14.532693
-52.349264
14.386829
-54.309449
-56.257072
14.210414
-58.192124
14.014814
-60.108959
13.793463
-62.007299
13.548993
-63.884487
13.284268
-65.739142
13.003540
-67.565072
12.705029
-69.360926
12.391128
-71.127529
12.061004
-72.858499
11.720468
-74.549470
11.367740
-76.202883
11.008330
-77.812909
10.637983
-79.378077
-80.897108
10.259069
9.879937
-82.366099
9.493190
-83.783211
9.106934
-85.147749
8.718804
-86.456780
8.332206
-87.708290
7.943309
-88.900970
7.561567
-90.028898
7.181869
-91.096686
6.808358
-92.101067
6.438240
-93.038752
6.076635
-93.909313
5.722248
-94.711105
5.378971
-95.444006
5.043286
-96.107228
4.719481
-96.696777
4.404772
-97.216009
4.103322
-97.662614
3.814880
3.538027
-98.036075
3.276423
-98.334993
3.026112
-98.561262
2.792891
-98.713577
2.570032
-98.793008
2.365674
-98.796696
2.175015
-98.727419
2.001340
-98.584424
1.838511
-98.369971
1.693713
-98.082787
1.562644
-97.725382
1.448279
-97.297025
1.346980
-96.798093
1.260782
-96.232044
1.189680
-95.600345
1.132748
-94.899800
1.089246
-94.136887
1.059042
-93.308749
1.041433
-92.423200
1.037875
-91.477201
1.044664
-90.472193
1.065704
-89.410386
1.098394
-88.296208
1.139491
-87.131046
1.190305
-85.916065
1.255343
-84.652527
1.326424
-83.343068
1.406562
-81.990413
1.496150
-80.597871
1.592221
-79.167489
1.695597
-77.699866
1.804198
-76.200741
1.920007
-74.666955
2.040754
-73.106756
2.166167
-71.519519
2.295388
-69.908732
2.429814
-68.276087
2.565234
-66.626385
2.705186
-64.960799
2.846069
-63.280319
2.988120
-61.586935
3.131524
-59.887532
3.275178
-58.181384
3.419725
-56.470030
3.563880
-54.756438
3.707490
-53.044349
3.847720
-51.332675
3.988593
-49.628417
4.125659
-47.930523
4.262029
-46.239888
4.395595
-44.562200
4.524958
-42.896646
4.650545
-41.244797
4.772419
-39.609900
4.890369
-37.993551
5.004305
-36.395923
5.112457
-34.819953
5.215321
-33.267978
5.313261
-31.738330
5.406591
-30.236157
5.491708
-28.758961
5.572708
-27.310122
5.644891
-25.889918
5.710250
-24.500046
5.768662
-23.140272
5.819130
-21.813141
5.861381
-20.516745
5.896794
-19.255036
5.920492
-18.025647
5.935928
-16.829715
5.941886
-15.667628
5.937947
-14.540551
5.923289
-13.447463
5.898503
-12.390665
5.861090
-11.367456
5.812159
-10.379827
5.750279
-9.427798
5.674184
-8.507316
5.586313
-7.625269
5.483387
-6.773544
5.366112
-5.960181
5.233701
-5.176561
5.083174
-4.425956
4.918291
-3.710058
4.734270
-3.026382
4.534143
-2.373190
4.312822
-1.750872
4.073947
-1.160103
3.812372
-0.598122
3.532013
-0.066159
3.230865
0.438336
2.904728
0.914042
2.556111
1.363568
2.184111
1.785904
-0.746714
1.601904
-1.992973
2.702498
-3.285781
3.752656
-4.626711
4.756666
-6.010261
5.708044
-7.438402
6.610261
-8.914055
7.463059
-10.429643
8.262214
-11.982775
9.016164
-13.575635
9.716967
-15.210507
10.370743
-16.877945
10.974211
-18.578313
11.529249
-20.314161
12.036886
-22.081603
12.496923
-23.873893
12.913466
-25.695471
13.280647
-27.542279
13.604519
-29.409874
13.885164
-31.296421
14.123908
-33.202647
14.318972
-35.124848
14.474578
-37.058012
14.592120
-39.000179
14.672316
-40.951897
14.715031
-42.908059
14.723822
-44.867896
14.697116
-46.826677
14.640393
-48.782775
14.550464
-50.733930
14.431592
-52.673909
14.283910
-54.603407
14.112685
-56.519463
13.915496
-58.417771
13.696385
-60.297163
13.455802
-62.153214
13.192595
-63.984243
12.914048
-65.788598
12.617580
-67.562796
12.306260
-69.299814
11.981996
-71.004753
11.645960
-72.668053
11.298362
-74.290321
10.943972
-75.870648
10.580521
-77.404568
10.213706
-78.887512
9.841586
-80.319991
9.464553
-81.700940
9.088202
-83.025754
8.710746
-84.292656
8.333795
-85.501350
7.961364
-86.649206
7.590722
-87.732933
7.225828
-88.752136
6.864255
-89.703366
6.512130
-90.590256
6.166478
-91.410281
5.830579
-92.154250
5.502779
-92.831204
5.187027
-93.436907
4.880657
-93.967847
4.585731
-94.425071
4.304191
-94.808212
4.035266
-95.119411
3.780193
-95.353032
3.537256
-95.512585
3.309160
-95.599206
3.097629
-95.608261
2.898082
-95.544151
2.712887
-95.405782
2.545021
-95.194930
2.390420
-94.910475
2.252184
-94.554009
2.126428
-94.126731
2.018734
-93.629042
1.921301
-93.061958
1.843343
-92.427803
1.775880
-91.725796
1.724488
-90.960370
1.685462
-90.131991
1.657425
-89.240540
1.647051
-88.289453
1.647254
-87.282272
1.658211
-86.216415
1.682845
-85.099734
1.713730
-83.930316
1.759987
-82.709178
1.814044
-81.441704
1.877751
-80.130036
1.951811
-78.772937
2.032552
-77.379328
2.119759
-75.946868
2.215042
-74.479110
2.317084
-72.978045
2.426310
-71.445975
2.540212
-69.887429
2.657631
-68.302693
2.779933
-66.694408
2.905130
-65.068991
3.033651
-63.423527
3.167138
-61.765020
3.299485
-60.095184
3.434752
-58.412542
3.569611
-56.724946
3.707261
-55.030424
3.843771
-53.335737
3.979956
-51.640127
4.114083
-49.946970
4.248315
-48.257353
4.379201
-46.573509
4.508916
-44.900216
4.636597
-43.235380
4.758683
-41.585359
4.879654
-39.949318
4.995273
-38.329033
5.109328
-36.728548
5.216600
-35.146111
5.318953
-33.585149
5.417093
-32.047697
5.508674
-30.534649
5.596292
-29.046759
5.674272
-27.587271
5.748664
-26.154491
5.815504
-24.752399
5.874273
-23.380152
5.924919
-22.037799
5.969859
-20.729014
6.004456
-19.452314
6.029451
-18.208171
6.045365
-16.998037
6.052235
-15.822382
6.050315
-14.680395
6.036310
-13.574594
6.010196
-12.502211
5.973172
-11.465462
5.924271
-10.464694
5.863653
-9.499465
5.789428
-8.566762
5.700913
-7.670453
5.597984
-6.808621
5.480384
-5.982076
5.346373
-5.187749
5.197793
-4.428397
5.030477
-3.701166
4.845953
-3.006100
4.643444
-2.345015
4.421335
-1.715049
4.178849
-1.117104
3.916698
-0.547345
3.632996
-0.008168
3.327235
0.502526
2.998878
0.985148
2.646470
2.269748
1.439990
1.867687
-0.253746
1.157381
-1.269292
2.275928
-2.495110
3.346234
-3.801376
4.368098
-5.155216
5.338618
-6.545722
6.260738
-7.931001
-9.073561
7.219548
-10.588306
-9.835104
7.967298
-12.154702
-11.419069
8.726238
-12.977177
-13.788658
9.426163
-14.619008
-15.452344
9.986906
-17.105560
-16.238702
10.749833
-17.939007
-18.830352
11.326620
-20.696877
-19.650011
11.855640
-21.962188
12.336271
-23.666796
12.772406
-25.471228
13.234763
-27.308631
13.516961
-29.177455
13.811729
-31.051517
14.066943
-32.899019
14.280500
-34.493241
14.456234
-36.838439
14.591733
-38.776835
14.691025
14.738588
-40.732584
14.775069
14.757589
-42.696786
14.770917
14.774908
-44.662727
14.738721
14.758247
14.707364
14.670874
-47.061557
14.627453
14.575450
-48.862034
14.517913
14.444923
-50.850237
14.375470
14.282263
-52.862042
14.152308
-55.410881
13.959103
-58.680848
13.743019
-60.198961
13.500408
-61.708543
13.241367
-63.935815
12.969265
-65.764562
12.725678
-67.567899
12.350073
-69.660269
12.021522
-71.114704
11.684534
-72.763300
11.259211
-74.413681
10.976209
-76.032374
10.683795
-77.610261
-79.063229
-80.229892
10.022076
-81.680242
-80.965254
9.531936
-83.131199
-82.384646
9.131625
-83.757397
-84.427630
8.755284
-85.039114
-85.729089
8.414205
-86.263798
-86.907974
7.952588
-87.451264
-88.094023
7.575849
-88.569719
-89.297662
7.203279
-89.975786
6.838137
-90.894155
6.475125
-91.791927
6.053434
-92.634857
5.765991
-93.413558
5.441794
-94.113392
5.114125
-94.727582
4.802086
-95.206777
4.495309
-95.811156
4.208047
-96.228170
3.939160
3.720408
-96.569318
3.597285
3.468849
-96.837070
3.347752
3.213235
-97.029513
3.107578
2.994431
-97.186867
2.885856
2.770788
-97.187546
2.580439
2.686603
-97.152038
2.500801
2.397998
-97.068446
2.208747
2.324542
-96.922842
2.109159
-96.633193
1.971732
-96.311617
1.851050
-95.920149
1.734585
-95.454734
1.641315
-94.924539
1.560555
-94.324137
1.500776
-93.523033
1.430497
-92.893065
1.390475
-92.131187
1.363572
-91.259894
1.347450
-90.352945
1.345362
-89.396146
1.354470
-88.408685
-87.701304
1.376324
-86.948985
-86.424689
1.410592
-85.764709
-85.230784
1.452475
-84.042236
-84.575555
1.505706
-83.357999
-82.734443
1.552337
-81.446132
-82.077777
1.643215
-80.688978
-80.037865
1.723050
-78.582254
-79.293440
1.811652
-77.505926
1.907973
-76.092059
2.011589
-74.570730
2.143352
-73.042780
2.239477
-71.492676
2.356926
-69.905252
2.478277
-68.341193
2.607123
-66.994725
2.733206
-65.016209
2.870631
-63.353433
2.997946
3.088007
-61.677743
3.183785
3.244842
-59.991414
3.325779
3.388672
-58.296925
3.465666
3.523003
-56.242864
3.598748
3.665542
-54.835405
3.737317
3.801769
-53.176825
3.883545
3.949182
-51.488841
4.020390
4.082474
-49.836834
4.192393
-48.467599
4.319549
-46.066797
4.450473
-44.718678
4.578861
-43.392103
4.704492
-41.413544
4.822983
-39.776594
4.920677
-38.157697
5.056997
-36.213977
5.163756
-34.919175
5.267504
-33.410206
5.385301
-31.887752
5.457743
-30.382398
5.529047
-28.920959
5.636738
-27.530744
5.685399
-26.506496
-25.682140
5.775435
-25.038682
-24.268656
5.822647
-23.595675
-22.928698
5.870858
-22.260115
-21.615673
5.905685
-20.951317
-20.337115
5.948701
-19.635468
-19.024426
5.974733
-18.407060
-17.831138
5.990573
-17.153414
5.997074
-16.264663
5.992567
-15.161086
5.975961
-14.053930
5.953211
-12.973176
5.916182
-11.929353
5.868270
-10.922665
5.806760
-9.971175
5.732130
-9.186857
5.642795
-8.089185
5.545026
-7.215061
5.460409
5.392469
-6.377406
5.329371
5.255979
-5.571866
5.178661
5.096571
-4.801201
5.017862
4.931166
-3.912533
4.741610
4.837139
-3.331930
4.636256
4.532296
-2.681887
4.305682
4.420881
-2.056757
4.168971
-1.516736
3.983406
-0.851138
3.724013
-0.300691
3.433089
0.218104
3.117380
0.710977
2.781204
1.178716
2.429974
2.108533
1.617179
SCALARS stress_1 float
LOOKUP_TABLE default
-10677931.953456
-6951703.284918
6515678.068526
-27412888.426720
24931125.118015
-43351320.437356
43681241.325456
-58387868.202582
63491971.603108
-72728588.113447
83751275.386373
-86358136.083176
104826888.849082
-99173017.024029
126398211.643858
-111441127.109836
149058468.465740
-122736419.209469
172145962.706745
-133385661.540145
195775606.801309
-143180519.187953
220661440.184835
-152755472.370113
245515286.770550
-161168889.955494
271373450.471679
-169111388.856357
297552506.245804
-176019889.246530
324531103.005182
-182483848.516096
352114055.186185
-188325643.794531
379733667.006032
-193398443.299053
408213258.334560
-197796504.115750
437186324.172739
-201877635.200269
466346495.912584
-205046638.159909
496197997.250103
-207954897.168499
526356523.360096
-210092197.876726
556714753.460748
-211609509.196849
587634071.204681
-212725304.996771
618792819.071652
-213209705.233105
650001677.235493
-213366904.251578
681494403.915356
-212929350.486625
713039478.807251
-212155341.588932
744808516.868758
-210708126.948580
776869005.795885
-209159243.955651
808554607.807786
-207056438.521434
840572194.339864
872512555.871877
-204452566.819761
904243803.578625
-201727295.717568
936054688.200469
-198723553.432073
967585880.694991
-195466902.048397
999064179.802554
-191453046.782791
1029948096.697957
-187591877.980980
1060941397.643739
-183427236.815828
1091276394.075305
-178993893.415843
1121215811.733984
-174386705.214494
1151131049.837964
-169649554.079683
1180294842.606396
-164500786.183308
1208956516.779644
-159693226.437625
1237205125.838434
-154453917.492353
1264750885.739380
1291596617.485383
-149061676.520356
-143770041.432923
1317931440.338017
-138542693.402919
1343527912.733654
-132949459.080060
1368416408.717614
-127589628.115033
1392276511.247481
-121920682.679734
1415428394.325187
-116662704.902671
1437566055.952671
-111361536.477916
1459274078.609689
-105921531.316761
1479823756.819386
-100330643.113277
1499277520.062489
-95177881.995975
1517826319.122747
-89991785.919530
1535407247.741492
-84951036.534629
1551949416.181262
-80022876.751595
1567446046.921818
-75227668.003896
1581727834.008481
-70749380.941250
1594912390.704758
-66006881.257730
1606920148.489442
-61670092.341481
1617860607.670393
-57650254.887543
-53467444.544668
1627498951.509186
-49754046.051282
1635983105.529931
-45868286.274322
1643440731.734567
-42475742.951247
1649874556.168414
-39362241.993348
1654666873.094012
-36390873.833125
1658199375.557653
-33585240.903078
1660768702.820909
-30907145.375103
1661814147.191642
-28518764.726054
1662096219.931425
-26367590.344078
1660826182.086548
-24445599.228205
1657864423.702333
-22689826.288761
1654432855.041322
-21315145.480421
1649376865.671013
-20003038.975081
1643523180.898302
-19114444.510201
1635940151.984761
-17992325.256709
1627551359.238253
-17436602.170250
1618050705.703133
-16940462.942961
1607106556.208473
-16866724.313270
1595441621.016813
-17041460.974281
1582109265.956258
-17097875.358496
1568068633.072130
-17398697.203373
1553066015.454106
-18302160.463590
1537049788.103155
-18913036.092857
1519579659.631130
-19915420.829601
1501529996.561177
-20977350.365960
1482310516.721400
-22256585.440361
1462418833.679299
-23793833.006515
1441644977.002374
-25650254.801879
1419962992.779334
-27578644.781133
1397417703.272720
-29390668.942341
1374208513.615596
-31472673.761389
1350120575.069533
-33740499.976706
1325579283.985782
-36127399.280428
1300323191.669302
-38417004.193766
1274496710.731949
-41043381.453210
1247880463.479648
-43632605.013439
1221106607.262681
-46335580.394695
1193759260.647582
-49129757.334437
1165862220.724027
-52357850.091334
1137562693.841329
-55210155.881636
1108816302.044813
-58019253.224618
1079927219.205968
-61281399.597135
1050569571.630723
-64404588.519428
1021166429.407786
-67444709.989562
991998126.843086
-70753078.005601
961895301.808112
-73750269.609965
932135448.130971
-77053334.757331
902459756.160975
-80264051.011328
872521439.248408
-83345875.110382
842758224.220405
-86425010.051592
812945501.165677
-89639687.878344
783147748.911360
-92894711.109912
753657156.807736
-96046993.005932
724394947.942546
-98929591.347253
695233176.143895
-101921186.915687
666195031.543880
-104888845.969905
637376632.709032
-107664577.074502
608987945.510843
-110395813.966939
581068872.776449
-112947949.472417
553243028.160125
-115607464.850572
526102770.445621
-117900921.143825
499228041.547813
-120196463.611812
472944105.249486
-122439613.079734
446711806.683703
-124449243.067833
421328721.676632
-126174866.140706
396407680.316984
-127841476.079199
371800825.214677
-129443537.187304
348185130.979630
-131092570.507441
324528155.961157
-131938752.343600
301813227.724823
-132571364.476629
279530839.924901
-133580878.732696
257726040.604778
-134215032.632044
236982915.896551
-134453434.522051
216304160.887961
-134402637.184532
196633909.928322
-134147425.444687
177590858.843803
-133647703.606508
158882910.027105
-132845296.277980
140848062.522583
-131687892.458133
123747387.244148
-130197484.277130
107039075.974582
-128698567.517751
90966287.584409
-126612951.743627
75676332.683546
-124073060.042498
60962755.098165
-121016845.456783
46749337.916005
-117892548.073257
33276272.268197
-114236279.978693
20120277.937521
-110115569.737688
7923097.837888
-106040144.915806
-3615156.247919
-100799062.121030
-14746069.188771
-95506360.658321
-25222721.158501
-89723088.875056
-35231921.069366
-83622950.597404
-44407860.834592
-76890242.389963
-53550260.845228
-69626667.340474
-61982369.318492
10647200.932141
-23799230.782332
28957961.564854
-39905454.168368
48184075.004268
-55174125.399638
67797086.162643
-69855844.867192
88470889.954173
-83695677.700506
110068199.291115
-96931607.595588
131902950.086696
-109132571.681914
154651805.776320
-120460377.872711
178024582.533817
-131548411.297454
202099232.489631
-141510112.390580
226809290.601344
-150805489.543137
252124589.998431
-159453632.145207
278185297.160651
-167423028.587837
304667444.218448
-174745456.043892
331785679.345652
-181340762.904421
359389865.022022
-186992926.298898
387448706.116429
-192209666.922366
415983472.891414
-196831394.121517
445098853.694638
-200797213.069216
474657831.744287
-203945884.894938
504362821.476733
-206925209.772515
534672695.065806
-209099966.308277
565258443.686305
-210828162.676056
596039674.035206
-211789432.265933
626834929.591299
-212359832.728593
658242329.268779
-212460444.976294
689497360.763653
-212070022.616337
721376094.555680
-211217591.560011
752666833.819659
-210043672.198365
784366234.034379
-208452978.703295
816077381.636212
-206216904.682099
847699299.061530
-203775699.047036
879385377.789123
-201424731.970002
910629536.038144
-197866020.319867
941834517.243996
-194523270.051310
973001328.147043
-191038450.988847
1003618150.705834
-186998004.565947
1033906472.399158
-182999197.649544
1064096683.923991
-178488487.151898
1093704207.499488
-173850851.201517
1123137385.388188
-169345932.187514
1151937352.026463
-164450387.065535
1180075122.632498
-159357410.441911
1207873301.731373
-154522971.489504
1234732969.496921
-149111432.380211
1261168426.975430
-143714875.242540
1286762193.602305
-138715941.032137
1311809971.640086
-133517912.615936
1335987518.352280
-128029928.860875
1359350441.174292
-122630534.722598
1381745497.413016
-117328596.850823
1403412910.026033
-112069068.896238
1423956756.276852
-106920800.552913
1443839138.428011
-101955594.948390
1462570974.959271
-96822653.038314
1480344439.872566
-92162545.211799
1496864787.213218
-87275786.118563
1512497766.939776
-82425633.713282
1526803225.097564
-78011978.862894
1540239871.210692
-73501455.000866
1552325384.019525
-69272866.036554
1563408584.309748
-65196348.882214
1573198231.082329
-61165410.491559
1581864265.861380
-57648012.515272
1589277509.953796
-54066964.908033
1595499386.099941
-50820206.840768
1600426827.606709
-47544211.964163
1604085608.476037
-44611246.754106
1606511926.014818
-42087969.121887
1607629362.746198
-39448670.238434
1607559732.194290
-37330880.058424
1606406919.926593
-35233040.753754
1603717251.467221
-33566082.756922
1599938485.122101
-31996415.805389
1594947186.415345
-30516995.026695
1588760608.653849
-29272438.158301
1581384870.621362
-28568563.893310
1572702760.886353
-27612269.925797
1562954677.754747
-27083967.687293
1551987890.533441
-26973698.394049
1539908149.484974
-26876624.739169
1526793411.481806
-27129941.198541
1512566130.786476
-27415169.466238
1497344528.966486
-27842688.018146
1480901331.849939
-28479363.286766
1463415393.482158
-29502389.747985
1445226822.692215
-30658456.878657
1426091041.568820
-31585479.371889
1405853895.636085
-33150099.225744
1384930367.243325
-34885783.133328
1363002645.219611
-36548836.354277
1340071407.610267
-38561813.581696
1316824020.764606
-40408149.291473
1292818369.728918
-42772300.482640
1268128765.590946
-44905830.369511
1242746836.441334
-47265204.211724
1216766652.846615
-49756000.485166
1190216099.939852
-52170949.144513
1163388207.766366
-54926380.231219
1135818429.676442
-57876975.699959
1107908627.280965
-60513889.548799
1079550847.624290
-63408379.297981
1051014535.578876
-66422694.684964
1022397753.450650
-69304310.446240
993379227.588927
-72521099.624228
963870731.343988
-75610880.912034
934463191.760189
-78508574.874253
904982253.970593
-81541496.247378
875388731.108264
-84614646.768869
845827598.217556
-87747171.003321
816489365.169963
-90982079.904445
786722309.793587
-93721493.298411
757283134.915566
-96936630.660136
728044181.929569
-99855452.771436
698973273.879950
-102742777.195939
669951056.377596
-105641845.671106
641506471.293999
-108437683.977782
613182373.716900
-111188413.418991
584893496.779362
-113551202.515944
557136855.047920
-116237549.310092
529680142.698054
-118649455.061071
502760325.775088
-120950960.333478
476237947.410151
-123070610.908160
450019621.431347
-125099239.306327
424451530.926417
-127193375.091606
399344746.288063
-128643499.827628
374661945.344389
-130396254.035601
350698063.704346
-131780966.540727
326978635.456645
-132958526.863247
303991594.993985
-133918791.307154
281582645.404108
-134787096.958253
259843185.036329
-135191428.337754
238656588.500567
-135386258.748681
217949775.622990
-135486837.016235
197882575.797268
-135270066.966586
178561364.849569
-134834878.163362
159879093.650418
-133987279.388377
141660113.026950
-132847606.293970
124366093.632473
-131484700.617600
107382562.771945
-129902977.490395
91418855.315890
-127655326.432599
75893874.873259
-125486587.270379
60837284.271189
-122426647.873292
46586003.118632
-119310957.761579
32972206.025506
-115685843.805765
20021516.600763
-111745003.048268
7397326.409966
-107382067.358644
-4502837.676360
-102412084.563063
-15521807.571442
-96969911.226120
-26234088.404756
-91127723.434591
-36193887.872310
-84738648.276216
-45812383.103580
-78091350.836801
-70822382.204089
-54712206.489616
-62969397.987030
3345865.648916
-17300960.677008
18183749.542773
-33731911.453694
36565602.619224
-49353703.813075
55667653.545218
-64177130.884626
75779777.903843
-78201775.625929
96549650.851713
-91431879.427065
117266048.906877
134265884.837913
-105431033.611492
156903334.498278
145856898.013787
-116165904.018618
180573876.248437
169470683.637223
-127133497.306409
192830480.463089
205200063.971163
-137151599.446020
217527054.721189
230300310.270730
-145217020.169831
255365923.264963
242015721.994297
-156281904.992641
267958968.599618
281744324.040248
-164244764.766768
310201995.063665
294132908.531284
-171939040.813956
329543712.667454
-178584461.047432
355773679.620028
-184873091.378487
383559033.565928
-191207378.898984
412017265.963979
-195405411.818298
440833706.136270
-199514607.279332
470137840.995681
-203149461.704499
499173639.686126
-206102144.480104
524116044.386991
-208571741.266797
561026966.685582
-210438350.735022
591685674.118917
-211694730.220428
-212508895.419229
622874831.113715
-212782302.837519
-212706043.080225
653890179.057036
-212952085.311927
-212955955.888470
685510044.949848
-212291764.615263
-212580093.187888
-211931502.048382
-211317618.148881
723957245.852642
-210845164.643969
-209945426.996528
753306775.228638
-209221190.879375
-208191940.805555
785395448.791085
-207478729.635084
-205751440.445431
818052670.192138
-204007078.096028
859714907.280892
-201192353.864270
913721188.377840
-198230928.026857
938874644.598162
-194901098.154592
964102512.990142
-191308155.268748
1001367288.957803
-187442440.225835
1032111035.535432
-183939604.690307
1062309247.075699
-178776388.977400
1098145147.048432
-174233697.162140
1123160927.470757
-169427890.847854
1151288003.577094
-163446249.783558
1180313398.395337
-159621049.640273
1208456346.443998
-155355313.882226
1235839151.023077
1261840354.390576
1282518085.360726
-146256944.552388
1308458254.880482
1295680628.764204
-139194313.940439
1334634402.862882
1321219978.964152
-133603902.855776
1346114064.271008
1358446340.403113
-128243656.751400
1369677872.728499
1382196578.708020
-123256849.321472
1392451220.375529
1404436209.049338
-117003895.368804
1414634795.898536
1426671251.482668
-111530903.200828
1435749830.127488
1449294325.326204
-106428955.208708
1462617711.902566
-101160012.087487
1480759454.459069
-96190884.964705
1498706586.567884
-90167591.064614
1515668491.252159
-85728675.714800
1531950607.673991
-81210453.343808
1546731344.327820
-76558956.033495
1559998567.642835
-71977681.920213
1570750024.352652
-67745592.606778
1585062377.122277
-63519172.034697
1595330293.881825
-59359247.807647
-56428376.439635
1604463102.256795
-54777997.826295
-52788259.173099
1612554081.204767
-50969486.094088
-49236788.078660
1619442412.293242
-47439348.207735
-45897102.891125
1626275257.923020
-44160046.856005
-42641609.939834
1628926253.982473
-39650533.850183
-41179319.451959
1631953542.236440
-38601830.943130
-37206341.671071
1634138003.261791
-34275233.296506
-36057284.148050
1634682199.560795
-32912870.497881
1634058573.284956
-30939036.063749
1632092900.415130
-28990270.752566
1628903057.963547
-27265279.597839
1624654083.932143
-25833516.692859
1619292376.409627
-24765121.706165
1612462052.920113
-23942297.400308
1602744533.354556
-22955885.204075
1594689891.334860
-22504229.681575
1584965446.377076
-22028881.204091
1573691485.593035
-21960415.235495
1561000673.285777
-21942833.687077
1547837146.455469
-22431642.556904
1533609332.797017
1523662399.263686
-22820133.906595
1512403081.259689
1504768542.192149
-23442864.010881
1495033785.064332
1487179812.561430
-24261603.724473
1469308115.909015
1477169566.477155
-25274715.427969
1459035108.777411
1449526093.413289
-26085191.933395
1429772527.445381
1439302452.690103
-27925305.565190
1417822879.055695
1408037248.445817
-29321390.476715
1385182028.646808
1396085694.875242
-31189067.528743
1368106487.596328
-32949571.153773
1345489930.303665
-34898486.394225
1321327537.526647
-37657931.141254
1296690694.567014
-39487668.914783
1271446585.766103
-41595307.021906
1245530685.899965
-44059037.684366
1219637846.442852
-46965737.834306
1197346521.792666
-49411439.607363
1164540503.692758
-52000667.521258
1136588286.815540
-54953080.337700
-56733093.135371
1108373965.936761
-58649043.586252
-59914431.744543
1079755337.928880
-61569372.154646
-63140669.054757
1051086378.096857
-64633691.991838
-65947297.694768
1015598681.496538
-67663435.748953
-69113096.639251
991487608.448958
-70648263.111545
-72097705.972332
962740902.357347
-73989282.324054
-75595469.775213
933273269.940881
-77274969.330109
-78585966.109205
904556001.207999
-81071096.428854
880669879.649910
-84067723.375024
838307940.610279
-87026353.988966
814492990.858330
-90289271.170906
790673536.981219
-93420097.594362
755461733.575907
-96279833.042543
726119955.890192
-98893778.329730
696894711.705452
-102352588.347647
661671418.111231
-105421832.807380
638145485.639817
-107994694.229751
610810714.159868
-111315007.801127
582828681.342244
-113277913.202122
555284444.160757
-115493297.649788
528047606.156001
-118735282.783266
502457242.988800
-120422316.260737
483384388.860664
468242933.703404
-123318815.333944
456159032.769068
441668202.876833
-124902364.547436
429266364.827290
416800651.360924
-126570095.971565
404039403.749773
392179241.074333
-128065781.407335
379655456.676741
367802812.274315
-129702890.221796
354615833.171438
342933749.903820
-131474128.328984
331355480.599206
320344120.609400
-132360988.385663
307279791.427551
-133412215.390864
290663057.288929
-134194810.430396
269321979.041954
-134768537.658939
248233388.556141
-134970452.958074
227455645.778843
-134952573.659645
207275200.846543
-134599894.777858
187621981.410730
-134337518.714717
169315374.155301
-133294804.158889
153988997.627037
-132099293.106216
132638006.106539
-130991505.434954
115435327.775485
-129729685.345226
-128697358.764876
99274387.542009
-127770260.341255
-126426212.488377
83344847.494820
-125132499.150985
-123820756.046454
68291811.720693
-122482720.742405
-120986352.921402
50739051.407479
-117615261.628102
-119629139.648797
39380444.432742
-115852134.023889
-114079346.062257
26360939.904017
-109807716.433433
-112230745.203033
14064422.488237
-107459296.201592
3318123.049550
-103890310.868106
-9769093.844883
-99050843.221366
-20491421.646019
-93462321.674337
-30681008.607042
-87415476.342934
-40486358.900650
-81035783.515040
-49640453.818254
-74130928.165002
-67988719.398687
-58154604.594940
SCALARS stress_2 float
LOOKUP_TABLE default
4806542.833472
3158347.310093
-1913527.992094
10827616.805667
-8845882.479252
16526107.659808
-16364894.077414
21625246.942959
-24332894.023660
26636268.700422
-32698692.077385
31093130.834544
-41539378.736827
35087028.582405
-50604051.308444
38863500.442244
-60691521.482254
42310544.602314
-71026697.968825
45351072.609679
-81834283.862284
47914522.199656
-93205168.922028
50406876.919310
-104979487.050403
52364646.956894
-117216252.149758
54208243.549488
-130200277.836535
55559077.195330
-143432679.347815
56676915.274453
-157147525.108260
57905592.571000
-171367566.664935
58556692.632036
-186092236.871361
59179941.192877
-201420426.392807
59466850.539431
-216984083.939841
59417315.598792
-233233423.867749
59455306.869200
-249679339.340037
59267052.326576
-266870736.569035
58614531.208001
-284047784.861203
58102723.036460
-302033541.690030
57358702.763128
-320148873.553753
56721590.053943
-338704681.329973
55793752.003034
-357718539.373974
54821544.586321
-376801213.302198
53645407.183839
-396397285.469930
52153139.175621
-416343544.754770
51249429.133477
-436578048.916112
-456860431.427446
49751847.555647
-477312913.452279
48200787.299847
-498194485.059987
47066487.913142
-519021191.867015
45325224.465580
-540164663.942740
43867001.838958
-561264306.450668
42262683.699214
-582674729.317225
40849125.879318
-603815846.301806
39159592.498146
-625131554.139058
37649623.984556
-646444743.041312
36097575.861534
-667862025.886169
34604453.296782
-688653720.743006
33154955.527379
-710008015.750583
31580387.863981
-730911985.860071
-751732959.067276
30129286.139556
28604514.925917
-771832190.633356
27145554.056033
-792258340.982973
25752156.840559
-812090660.495490
24543959.255416
-831887114.787350
23169358.468307
-851032429.189087
21747346.598106
-869941985.031239
20500148.669563
-888292471.787295
19437477.254489
-906453503.979570
18329461.377633
-923845333.746821
17045749.157869
-940776292.207253
15960274.215836
-957256100.095513
14964064.527457
-973130951.338026
14092613.999275
-988309983.408282
13017079.060149
-1002879550.685642
12363389.020733
-1016749921.761802
11341032.905777
-1029915663.444980
10496604.764776
-1042397900.040967
9702452.287747
9182638.120077
-1054046846.810918
8500195.000607
-1065305408.942418
7909819.787057
-1075144615.766002
7172742.552999
-1084448005.661034
6625203.870247
-1092863372.553937
6095853.502390
-1100498905.489344
5747933.213020
-1107324627.728410
5337872.169838
-1113229311.576925
4976183.850529
-1117946180.296046
4713078.304590
-1122062910.930403
4329600.866753
-1125123393.859358
4000253.443561
-1127204735.009336
3644825.655652
-1128463052.616748
3568994.670727
-1128762468.322113
3558054.562362
-1128184877.386588
3282343.832989
-1126587308.115961
3181022.768514
-1123873000.224326
3276103.063150
-1120228511.209250
3250809.455738
-1115803138.997159
3339196.305759
-1110550662.420351
3362873.376804
-1104129403.858189
3567678.742448
-1096992317.404128
3735674.023327
-1088774677.723437
3798094.174812
-1079795938.766619
4095443.935745
-1070046835.055989
4565127.000339
-1059291961.423845
4516224.107435
-1047683084.106598
4868386.212404
-1035238849.340655
5544635.388820
-1021933672.554206
5937017.257320
-1008093235.673675
6454086.487368
-993352505.841346
7146889.891382
-978014306.318374
7648476.208203
-962061294.459375
8565561.132044
-945139842.574332
9124441.854684
-927794428.613747
9972673.784428
-909846347.552873
10769054.541915
-891441254.081055
11638366.653655
-872293591.769435
12747728.193223
-852561146.711467
13817082.425972
-832812154.931231
14945138.233697
-812224426.808087
16157787.477641
-791482554.223161
17351015.635489
-770346904.151705
18760581.233751
-748798548.021905
20104734.941892
-727245532.809014
21491743.429375
-705084002.394157
22995577.079757
-682716247.609631
24740185.513678
-660393576.479516
26009580.306473
-637874827.693155
27850442.196984
-615392489.417579
29841171.189408
-592697233.080978
31388676.332570
-570046378.850380
33397441.487714
-547604269.415132
35332892.585459
-524834525.538154
37746464.748208
-502423342.051744
39294243.763627
-479922155.432917
41666732.897070
-457847969.252813
43687858.389142
-435938687.392556
45880962.313417
-413852334.019179
48146223.506389
-392404349.466740
50445835.898680
-371221848.853445
52818057.873848
-350124077.109245
54966267.362514
-329585178.687076
57248883.201171
-309251640.729219
59689823.916332
-289380708.737438
61785783.748600
-269887662.139920
64133253.820376
-250713437.556632
66432547.776375
-232159931.607542
68636164.000155
-214180212.316726
70761344.136432
-196585672.590058
72979363.307605
-179357448.761599
74681419.015437
-162609905.880174
76633701.786438
-146644048.422798
78340106.314151
-131002857.152391
79917070.386243
-116051304.093029
81579268.839208
-101396138.746476
82981959.317763
-87601178.185634
84110985.111337
-74368446.124599
85044991.554662
-61424696.828051
86004449.794217
-49377194.748928
86465232.282937
-37710841.103086
86976758.596159
-26766188.510492
86888729.496804
-16253154.472908
86674475.368429
-6419871.753255
86545446.308686
3060825.836723
85777284.415226
11722729.844088
84511547.928655
19930734.004158
83311757.754846
27529157.863996
81634221.183228
34688239.611858
79556798.523786
41401101.745980
77011416.470061
47636955.503443
74211160.523815
53179614.786594
70859188.925653
58255513.640735
67206578.438495
62988267.612930
-3209957.517836
9732548.782217
-10535796.056853
15349352.490901
-18200930.352261
20820089.387320
-26353387.641139
25887225.516775
-34845152.491104
30582019.663408
-43832188.139235
34565950.182506
-53527876.487881
38546371.858211
-63295811.296437
41907994.592872
-74242971.063140
45212253.170631
-85171377.237403
47893322.685617
-96701715.435668
50295525.183131
-108717276.442078
52276452.043205
-121230365.730122
54322761.311141
-134344508.749212
55738860.819908
-147828827.997587
56965328.614807
-161911436.948734
58171407.479983
-176233805.790908
58794245.105451
-191232720.450535
59479979.822418
-206750297.924091
59797979.463855
-222767380.423906
59839406.813904
-239158100.374644
59715144.370804
-255905852.274543
59623412.396382
-272921401.287108
59089621.388877
-290701116.432893
58763170.728322
-308449036.520118
58058416.390638
-326835066.116399
57097017.612907
-345439531.577022
56102869.322224
-364606258.375476
55026548.090401
-384004347.675266
53924375.962741
-403560270.284613
52825422.106944
-423381118.628181
51545517.450106
-443566305.130634
50159985.229308
-464076604.600191
48890662.612251
-484490245.914453
47418443.787190
-505073990.832816
46069134.374762
-526184109.424657
44502628.849127
-546776593.971688
42840387.639144
-567877691.282128
41138451.602532
-588698650.376532
39873039.976369
-609632804.132499
38235656.879532
-630864778.476454
36735339.026786
-651906209.833061
35099950.704037
-672474004.414652
33700256.173112
-693066950.074078
32237975.266982
-713781593.309576
30853793.153348
-734013163.165777
29318541.951086
-754134917.402076
28129621.946101
-774020185.944899
26618337.996111
-793283813.385939
25296922.958834
-812411185.484592
23867641.120176
-831203703.881378
22719621.790792
-849487686.192738
21278740.946604
-867245081.010367
20260791.612360
-884820770.260690
18807539.241668
-901674355.417196
18065856.120434
-917948833.810422
16750730.963422
-933809919.819730
15822173.081288
-948842341.726830
14969572.094668
-963132453.911085
14017544.861281
-977062745.560077
13062335.809986
-990234798.743185
12290276.182058
-1002461477.909151
11492017.214578
-1014255369.723241
10818825.862915
-1024971891.373041
10309570.102991
-1034814364.499068
9502215.555445
-1044050995.170702
8973212.722710
-1052189809.028463
8397013.580709
-1059843307.402887
8072728.941857
-1066542811.934493
7498199.377967
-1072157457.145597
7182803.391472
-1077013412.223783
6626618.603011
-1080988267.405458
6363290.180283
-1083749247.878207
6234267.886881
-1085686224.617280
5844109.796379
-1086505846.810262
5656309.362384
-1086656940.097672
5531168.658470
-1085768155.597715
5236310.044117
-1084017958.212068
5147430.544074
-1081153402.915982
5284849.256664
-1077387795.349977
5147851.063682
-1072782881.440480
5364218.324608
-1067071775.733882
5476837.851859
-1060453696.156609
5542814.670184
-1052858968.945071
5635851.591999
-1044540636.931565
5933654.380895
-1035443230.495455
6096485.849288
-1025180379.134307
6278379.474865
-1014168866.276309
6978605.617104
-1002337037.109044
7149974.945469
-989731399.656590
7731565.819442
-976343695.416513
8262148.169643
-962246966.768176
8654752.355552
-947235305.735657
9380009.189587
-931656005.363585
10135636.006478
-915303950.414880
10882464.357486
-898500073.648267
11556832.173232
-880690530.634886
12411002.266132
-862740112.517021
13361564.256824
-844009157.674032
14446701.863598
-825228536.795267
15294876.707091
-805427901.165959
16620435.456768
-785275674.500202
17909184.639140
-764821387.344390
19139570.327779
-743928062.673775
20168747.930994
-722811424.512432
21757407.832341
-701484775.549709
23216724.391300
-679658331.499699
24636927.848478
-658067091.504684
26456293.612179
-635920550.706947
27951571.755978
-613763228.820581
29772608.520479
-591438245.726711
31492366.861054
-569105460.257635
33494812.279463
-546575216.580385
35166980.922856
-524305934.433131
37067166.578901
-502221333.529968
39310484.822934
-479928089.156130
41249461.728530
-458031433.192742
43535372.418089
-436037226.402725
45652135.871059
-414442643.928360
47981889.279217
-393046865.340788
50047872.360855
-371926572.165850
52321463.046592
-350924662.782906
54422491.577035
-330189747.003704
56818809.074583
-310101587.660542
59365704.731015
-290104605.516339
61303158.121668
-270794361.644000
63674412.821878
-251801306.875822
65888550.023424
-233009215.166505
67938036.562801
-214895797.944236
70067590.966519
-197195432.281920
72291382.879294
-179968730.942475
74122931.733510
-163247097.949980
76077622.720944
-147077453.924402
78083022.821045
-131592372.367502
79562894.870307
-116431329.017453
81082196.370492
-101809841.376016
82458186.896937
-87869962.659049
83805128.237310
-74643733.033581
84827015.395135
-61683926.168406
85522646.443988
-49436146.373506
86229175.195614
-37602126.864739
86479000.176524
-26590953.596804
86858326.888480
-15989098.736729
86806925.882070
-6251600.239216
86347435.683805
3106973.275770
85585429.509542
11788127.853530
84782013.742838
20244150.588191
83190718.934282
27814076.263896
81611766.585636
35008118.782993
79543130.937505
41869440.929627
77136742.087541
47708033.059081
74368476.798663
53255441.955500
71115118.503255
67353567.964237
58614069.664185
62998447.136309
-668821.191910
7240871.081834
-6260078.409224
13194090.434648
-13498640.907417
18736489.048771
-21183946.123193
23919805.708345
-29415835.491938
28515574.029815
-38056289.898850
32821961.393212
-46993824.508736
-54198126.250307
37271866.314471
-64350288.562571
-59439502.915289
40385838.746229
-75076940.724758
-69972000.944447
43648484.660628
-80752157.308702
-86220073.850046
46393665.696708
-92038495.993620
-98116302.544394
48531415.735830
-109953593.141127
-103626546.069870
51362580.013428
-116171055.307681
-122727481.874331
53264386.929444
-136596926.899644
-128865177.071377
55000450.016911
-146309279.147006
56375063.178180
-159587509.873648
57335986.985061
-174058316.402795
58308692.833892
-188599870.936743
59127311.464895
-204047404.140910
59484964.017722
-219871089.964703
59581840.532713
-235418466.888366
59571263.308833
-249272572.471826
59644328.935848
-269829721.908275
59179504.412671
-287394120.103547
58793708.693160
58381017.510780
-305237476.347143
57569978.730785
58002762.768287
-323565638.266827
56760125.429867
57111270.163614
-342274744.527866
55538021.598283
56203316.880956
55264365.226077
54422356.968739
-365326555.034946
54034038.761917
53380553.659523
-383171277.113526
52874569.081652
52241386.571995
-402952286.369357
51709197.482601
50755100.645481
-423454330.836565
49914645.462795
-449811170.066160
48588490.596381
-485157059.759276
47329324.855788
-501754229.094467
45562336.532630
-518146356.084427
44266245.402799
-543537929.483176
42640771.658990
-564474529.177931
41607390.770245
-585753712.468395
39485736.051139
-610788628.574629
37928344.841815
-628731621.003113
36478569.117186
-649071694.250615
34504778.116479
-670100261.190004
33558563.350704
-691006153.037269
32192818.980393
-711734685.361357
-731467202.362371
-747158953.483746
29619219.198909
-767860824.127586
-757782194.981145
27821858.512623
-788445016.097200
-778077807.590758
26346469.247181
-797864181.545723
-807943761.062303
25023858.185826
-817088513.962486
-827311106.484954
23767072.700277
-835893287.491159
-845928290.033073
22288703.842604
-854804658.957899
-864792467.406357
20953462.980651
-872872091.559077
-884435385.084976
19837623.869248
-896623596.106364
18558302.198410
-912581377.506932
17637103.421745
-929151647.435466
16210257.822728
-945370781.575481
15405283.187421
-960781523.027302
14648007.835727
-975484703.789907
13604550.776534
-989005768.255228
12801658.347323
-1000441032.024111
12006991.076476
-1016240428.034571
11028841.153816
-1028275356.692546
10362466.991210
9717898.402255
-1039654033.140928
9494009.236339
9310037.698471
-1049846422.996160
8926268.138055
8520237.518231
-1059593604.494650
8177806.939831
8010771.528169
-1070427251.694782
7698213.630667
7563356.955825
-1076552873.569511
6970180.527849
7360789.069415
-1083378040.582384
6671627.653354
6467963.001115
-1089531665.059673
5942215.247308
6397090.685655
-1093775586.844401
5651674.094240
-1099355255.380239
5360473.178511
-1102967802.054095
5197573.883606
-1105388050.638990
4831544.243887
-1106921558.465462
4748062.982715
-1107587796.961699
4452289.261385
-1107191207.315284
4555121.567402
-1105418602.667270
4193807.804303
-1103564662.410618
4258255.408101
-1100730826.638085
4156880.911864
-1096368613.537319
4153613.085392
-1091483424.947774
4337268.500496
-1085535723.415917
4624881.826641
-1079197094.584158
-1074762046.606832
4522252.755770
-1068255223.607115
-1064587112.266199
4580342.944922
-1059005335.129258
-1055064469.502491
4994713.364113
-1045459038.385256
-1049501644.986159
5353752.211216
-1039256989.192562
-1033964811.214987
5396486.880027
-1022505357.346906
-1028150993.594190
5857278.941052
-1015157346.450037
-1009135228.606759
6588945.442561
-995525683.857011
-1002152182.251841
6909835.587330
-984441672.389080
7302167.138947
-970295984.815726
7878438.480972
-954501395.709006
8689460.638885
-938473367.491944
9438914.701630
-921683731.353539
10071356.984884
-904164672.221624
10710118.212546
-886670824.741019
11618207.717607
-871311447.376326
12528771.545218
-848414452.975344
13498563.425481
-828911203.752009
14416723.733054
15227868.499769
-808717245.422846
16152572.869830
16605772.457134
-788310652.534250
17311299.490613
17893440.135510
-767475013.396203
18612516.537060
19127719.644362
-742001060.338259
19844461.859812
20420597.235556
-724111410.045574
21256028.308496
22022029.383876
-703123538.772849
22616268.136549
23488532.145374
-681363957.550678
24224337.491954
24966543.631353
-660156863.607088
26342119.952151
-642000650.552973
27872007.248534
-609903416.533992
29538620.181577
-591750285.294569
31521182.648662
-573974903.465021
33376171.849202
-547158382.670785
35213408.130223
-524658846.395413
36658472.239005
-502219821.604737
39289450.914797
-475039798.828620
41401371.624333
-457120854.855792
43504259.929578
-435757368.380220
46235565.073290
-414173254.135555
47883291.346586
-392707010.736644
49987390.205677
-371761718.173546
52899901.287218
-351722927.467818
54334893.939503
-337044584.810485
-325043754.663472
57476994.541475
-315813698.284518
-304357874.703252
59520199.456296
-294776732.462694
-285034398.489936
61478669.522558
-275204460.609896
-265779410.471620
63508199.621938
-256091762.814041
-247187642.057215
66204594.974267
-236786849.888147
-227721401.222981
68230848.713228
-218688374.055835
-210245708.624915
70542942.793545
-200284397.103255
72433218.549948
-187191453.148716
74443675.414823
-171109336.331192
76706294.918228
-154879702.674846
77933661.334768
-138884649.397579
79833017.121674
-123743849.795113
81320446.240248
-109015495.962173
82586624.191366
-95090450.973192
83862910.067566
-83784538.387491
85004947.246616
-68011960.538659
85948508.285889
-55334684.731778
86225322.348719
86560040.176452
-43457415.570510
86667490.113467
86837820.787392
-32089096.483042
86871125.171502
86906058.066339
-21316633.567027
86845783.596569
86714617.795486
-9028502.497990
86283488.575061
86559441.735465
-1212238.515659
85953414.426950
85386329.340821
7510139.235186
84290880.239461
84897285.251960
15773011.452594
83663106.314243
23026514.050567
82344037.443547
31255601.053190
80641989.722015
38262020.416587
78354976.111324
44678414.221524
75715664.443008
50647095.754503
72579415.346940
55845264.011753
69454815.544971
65951627.781265
60755155.364567
SCALARS stress_3 float
LOOKUP_TABLE default
32404914.002048
20657039.003205
-22183655.177629
84741432.485293
-78972957.936793
134787899.440996
-137968339.059830
182548183.502932
-198962327.006547
228101416.013964
-262245334.735303
271383537.124700
-327472784.955180
312316099.294947
-394687055.258316
350947741.233787
-463949189.470739
387314417.476331
-535074178.626113
421465052.656356
-608059519.991993
453320685.942752
-682966250.526739
482911809.969296
-759476358.380960
510337867.271099
-837605655.705267
535413914.307967
-917392820.265767
558510125.788982
-998650860.522268
579336941.366201
-1081227873.123932
598190470.133207
-1165295662.704537
614771476.723779
-1250419195.489998
629472040.306804
-1336836091.171118
642119791.266785
-1424299900.781562
652836589.889554
-1512628007.838161
661701794.884195
-1601772846.740803
668780208.461237
-1691629793.814069
673882791.080486
-1782163402.650095
677485765.586249
-1873176999.822741
679353326.053830
-1964536952.041088
679631798.519788
-2056255423.320523
678281816.251677
-2148055589.177877
675536117.460027
-2239906495.379259
671299701.796895
-2331693109.441501
665817536.914336
-2423271947.379988
658980403.581354
-2514482862.153081
-2605323740.334636
651021260.507030
-2695474632.324542
641881750.844868
-2784970347.255128
631684527.228645
-2873640666.892503
620457073.136446
-2961319696.368999
608354757.511245
-3047972158.084502
595319106.389599
-3133403653.979093
581609650.789788
-3217482709.011130
567106704.114591
-3300086488.003748
552004319.940759
-3381179999.281531
536336353.112600
-3460505070.859862
520102186.957588
-3538164095.871073
503565389.935529
-3613780228.579826
486544952.566149
-3687336799.061426
-3758811434.388284
469394613.867727
451925282.609264
-3827958484.809677
434328905.809040
-3894800126.974769
416543257.986779
-3959183150.189862
398706869.353011
-4021070456.221064
380954291.235211
-4080197956.449985
363315341.036159
-4136627194.258230
345644162.891079
-4190292568.219659
328335345.568972
-4241087802.832826
311138585.205065
-4288726164.362391
294227059.202135
-4333508987.865382
277778554.253881
-4375077918.164932
261493328.570832
-4413555997.201123
245753631.231186
-4448785463.547814
230356203.811694
-4480791282.511307
215572644.832082
-4509434403.722485
201257098.427574
-4534692182.064404
187410716.868619
-4556591792.783446
174215375.981246
161543262.594375
-4575121058.128890
149508954.458730
-4590198330.290091
138170830.727814
-4601811424.648658
127424281.461547
-4610011930.510893
117371031.428931
-4614781577.816878
107936794.515913
-4615965159.563718
99297140.608441
-4613878178.000690
91193405.033990
-4608261088.374178
83828119.294007
-4599240976.933457
77186051.658940
-4586855148.675636
71269198.437985
-4571147000.907019
65980576.709342
-4552110551.567681
61430389.166706
-4529914294.771680
57493091.137553
-4504353930.074593
54180808.681802
-4475644607.725696
51585033.436124
-4443895422.971374
49605075.785021
-4409043225.427124
48158464.482108
-4371289387.456277
47404833.278110
-4330597206.998913
47200322.617447
-4287163908.727557
47581238.386065
-4240910009.948512
48586330.643886
-4192047181.583578
49944874.084606
-4140526323.323562
51928811.711118
-4086645290.898013
54312753.274146
-4030377680.805484
57190355.527306
-3971883853.718503
60508260.221322
-3911078351.751119
64134954.359087
-3848352901.017385
68221828.000520
-3783644688.748302
72592363.839318
-3717023508.883946
77402106.493875
-3648785286.270817
82400927.774832
-3578831827.158191
87650157.432913
-3507440448.717145
93165628.221735
-3434593115.121654
98998657.258242
-3360522146.101265
104878694.911552
-3285262805.520757
111108455.875361
-3208963334.860404
117378757.575810
-3131847472.543453
123767262.072819
-3053825833.491707
130261636.543254
-2975218639.494637
136791969.930088
-2895930023.858544
143505731.968659
-2816227129.180650
150107790.160413
-2736198467.325730
156696513.931493
-2655998313.524783
163437687.900290
-2575537003.642582
170003528.685197
-2495147216.276350
176672798.520106
-2414856192.098611
183039604.098712
-2334752728.898836
189470888.771854
-2254921580.157298
195804750.290254
-2175432942.855721
201975497.581501
-2096576260.225101
207989560.570290
-2018186209.247159
213922728.991959
-1940470423.402171
219633697.714177
-1863529878.230330
225222942.721558
-1787404102.404162
230563663.689521
-1712184169.079360
235641479.794930
-1637899256.679171
240565338.079427
-1564834939.800817
245210148.602931
-1492774695.426018
249629620.965556
-1421940837.518216
253721362.034970
-1352284493.134439
257596198.045065
-1284023938.796602
261151735.863509
-1217013993.870925
264357717.090417
-1151515767.203908
267122047.151929
-1087441708.086467
269762569.089687
-1024776107.749599
271767406.888305
-963642638.541249
273618185.030951
-904101484.809359
274936257.751517
-846108324.343402
275867377.533169
-789753723.875820
276319508.360524
-734854493.370058
276336171.524497
-681732454.750809
275888760.451231
-630226777.173767
274922609.548590
-580295076.179126
273294534.491990
-532103973.556356
271306052.881546
-485537246.596376
268595013.200426
-440581579.013350
265289080.414966
-397300796.422779
261386154.834361
-355638691.655772
256827702.232697
-315681508.078553
251534077.976196
-277225296.597538
245530209.415695
-240379393.560671
238751184.091388
-205054200.258868
231289396.237167
-171410084.232324
222873033.702421
-139302546.945928
213609164.336541
-108582311.765902
203455183.181167
-79397971.523358
192511896.968745
-51643257.584518
180456410.665609
-25261735.414272
167420192.445731
-368606.303536
153399776.716975
23180914.207496
138301468.770259
45515278.269433
122047847.647221
66517009.225135
104741936.888058
86194071.708381
-34479904.581658
73604040.254965
-91884270.016456
124145091.150261
-151442676.644050
172531809.764397
-213136068.924244
218589375.440233
-276937302.698454
262286217.271353
-342884666.426484
303695718.774590
-410733876.258945
342886661.043526
-480609457.154196
379631144.228773
-552355247.821319
414122877.423912
-626017553.044702
446355261.896500
-701364714.590455
476225156.989398
-778361065.552159
503932474.354660
-857047500.503675
529310585.335149
-937222516.229388
552571916.949143
-1018887647.438383
573584656.539501
-1101985484.704517
592610097.199808
-1186164910.562900
609426658.756092
-1271612454.953615
624227822.935714
-1358173491.294824
637121568.756953
-1445661475.911112
647908389.313392
-1533992089.451639
656798715.314115
-1623125906.625490
663926643.354152
-1712843329.832551
669219980.142584
-1803039618.280457
672743469.331469
-1893716702.852262
674666361.131337
-1984624207.389382
674910208.001992
-2075638907.408647
673658310.229269
-2166727969.483916
670889512.582170
-2257772148.015076
666742338.403555
-2348511229.885180
661238699.020900
-2438946911.743393
654441062.720038
-2528855610.238876
646555653.960776
-2618196248.254686
637389344.070588
-2706825341.806206
627320103.584585
-2794470103.851796
616163223.196465
-2881239071.523788
604163215.825839
-2966865822.279094
591231511.049458
-3051198687.000768
577694776.020827
-3134190268.896446
563406979.199750
-3215697083.981515
548430705.989008
-3295412094.196053
533041592.349853
-3373541796.189225
517145092.666786
-3449698942.285612
500918311.534838
-3523959632.365376
484215275.972287
-3595962905.137597
467363049.306609
-3665748113.599385
450221464.940582
-3733378342.709097
433007273.258709
-3798370426.406814
415758373.414491
-3860976482.323421
398510616.561433
-3920905291.417277
381194033.084036
-3978073385.243962
364053597.502024
-4032394513.569584
347168448.025926
-4083782874.025027
330405016.790969
-4132238628.550373
313881133.509126
-4177735087.719479
297721388.564900
-4219965154.913953
281918793.919542
-4259115587.440098
266574964.092779
-4295012122.754827
251441701.778308
-4327505646.164443
236956266.129631
-4356743885.858302
223021894.723500
-4382589618.968736
209566128.947310
-4405004315.934378
196655929.260866
-4423996220.446033
184370726.667062
-4439479588.693058
172615579.376426
-4451497928.231031
161531410.082657
-4460022560.192286
151183086.422426
-4465041696.132400
141451090.606260
-4466557487.432981
132308526.444804
-4464650305.649611
123893982.707059
-4459187251.280839
116165831.029697
-4450443028.516026
109133922.106414
-4438018835.469221
102748487.264685
-4422390080.329785
97021256.390459
-4403403610.962492
92056515.543654
-4381063795.556698
87666942.436247
-4355481725.667984
84038743.128156
-4326782608.353374
80974810.063803
-4294770445.417727
78579143.378412
-4259875764.725818
76828605.267126
-4221927033.833226
75706532.672920
-4181055486.680030
75046538.040214
-4137323517.554257
75094109.179650
-4090905368.395986
75627614.226454
-4041762685.319269
76683644.991267
-3990113172.996631
78259595.360038
-3935998180.734376
80375673.143410
-3879481864.895832
82800233.842828
-3820767652.711997
85725289.902714
-3759870152.372229
89040145.941460
-3696904785.665998
92742254.403486
-3632015580.956633
96862342.156461
-3565356527.550437
101236069.644806
-3496914023.236881
105897980.679164
-3427048957.013072
110878743.568730
-3355553056.419203
116108343.874871
-3282783452.067880
121564260.465255
-3208824618.382351
127158157.150527
-3133702144.209114
132940844.624381
-3057627362.854472
138926841.429907
-2980744419.798698
144917102.260801
-2903033679.080540
151114275.735455
-2824839542.315498
157416027.280012
-2746083091.791595
163756658.954390
-2666996199.373607
169935253.127706
-2587520206.851005
176253100.033850
-2507905755.704063
182513092.117243
-2428374367.548281
188891760.419525
-2348865615.230154
195020251.309813
-2269468575.596180
201135970.848026
-2190480546.261859
207169690.075804
-2111703773.824410
213082055.996041
-2033523898.956358
218955501.899654
-1955849326.639424
224539847.906482
-1878916648.278579
230074885.691943
-1802668857.489321
235313158.606875
-1727235822.310398
240426536.711196
-1652710605.339030
245249255.989522
-1579306822.115410
249939305.234217
-1506847309.486037
254337057.562225
-1435553757.874157
258452935.516634
-1365552342.360160
262321761.965114
-1296655036.250348
265870211.949305
-1229245725.009610
269088169.453821
-1163056737.310472
271967559.595609
-1098391800.693127
274551741.725504
-1035092190.871741
276654699.194345
-973324412.518840
278563269.119076
-913140406.291563
279939993.099810
-854479407.420908
280815656.562691
-797391587.621041
281323723.990885
-741965634.432156
281454475.542979
-688155177.643723
280958172.335919
-635991729.603687
280054243.162068
-585393883.602964
278474861.621540
-536567511.046524
276458109.005253
-489353381.225285
273820016.664043
-443934617.045663
270560760.273329
-399961575.489379
266599446.414945
-357763014.829072
262046505.148811
-317208259.238714
256777917.939817
-278195759.624721
250744598.214103
-240922864.644232
243988019.262588
-205111611.278969
236336948.300883
-171000308.186072
227926618.755131
-138352179.713484
218651385.531748
-107276510.518344
208460282.864624
-77697979.333098
197284477.969373
-49601053.064162
185226884.136913
-22935103.560925
172025760.408882
2354314.270195
157835278.634673
26223847.946032
142694974.354478
48816006.560167
126306359.726885
108739690.292087
69990785.455463
89999802.707223
-11733068.176433
53087391.075996
-58558208.120738
104612991.832879
-115119892.661483
153822306.368521
-175029389.389070
200751347.776507
-237429559.418206
245410121.822944
-301546448.497639
287728204.159891
-365479386.262154
-418010105.681404
331608245.103144
-487944187.099523
-453280519.492218
366086221.033023
-560278130.099341
-526379198.832562
400850355.717421
-598248696.322773
-635731856.677989
432977972.327000
-673970343.589658
-712505767.432592
458681321.268032
-788780602.943578
-748797357.124493
493607755.664940
-827443777.059217
-868492783.013095
519989392.519156
-954829016.621008
-906465637.746613
544184624.874547
-1013334349.829722
566289136.881720
-1092138898.310906
586152749.309679
-1175744685.582587
607335037.051892
-1260786924.322299
620244451.336552
-1347318805.750331
633604627.376305
-1434168562.415451
645227712.410104
-1519794689.426062
655072918.707803
-1593724399.637132
662963764.587199
-1702388644.387961
669208539.934026
-1792519075.444524
673542136.206602
675710401.624459
-1883289917.528373
677288407.731450
676603235.508417
-1974494496.559258
677125772.514635
677277083.406063
-2065852288.227982
675565840.400699
676408582.838403
674066005.472680
672286537.196502
-2177472694.650150
670248585.458335
667866062.873800
-2261281418.749657
665238487.580731
661808749.878505
-2353636742.629464
658629816.399134
654222805.522849
-2447366348.752716
648259802.185879
-2566114315.458169
639412855.559715
-2718724892.962510
629468448.452244
-2789553156.934502
618338499.720129
-2860016454.914175
606334631.660026
-2964122328.862158
593843377.245361
-3049583501.292371
582548370.141957
-3133814892.361477
565303008.617044
-3231846135.259622
550315962.483230
-3300116611.343257
534734206.962644
-3377446629.895547
515237003.417018
-3454845969.443435
502245006.365784
-3530791985.694516
488857222.323662
-3604966977.519918
-3673428677.449780
-3728202377.051993
458505693.547521
-3796557276.626336
-3762968507.646813
435998594.323042
-3864924571.529467
-3829855847.884533
417711930.532462
-3894527641.849237
-3926133639.338137
400371279.889934
-3955142416.733211
-3987605015.209130
384828030.677228
-4013041844.175747
-4043424797.016729
363712068.907560
-4069323780.689830
-4099740822.609012
346443264.059319
-4122280573.360206
-4156752820.263949
329411268.493858
-4189026060.342916
312568582.037206
-4232784298.098234
295998218.401337
-4275655810.680748
276616750.145675
-4315975481.322513
263607670.815939
-4353397713.594137
248691984.294433
-4386990841.781946
233729018.905416
-4416696546.651421
219429057.336967
-4439801472.956436
205426481.589519
-4469432757.437741
192243981.076832
-4489911510.419312
179861639.397024
169957834.069320
-4506950051.793392
164338974.114565
158536010.874127
-4520415027.326092
152917017.480422
146658071.391400
-4530556851.131461
141870320.654083
136661712.906035
-4539196564.861882
131713607.055018
126578640.358640
-4540033005.588419
117713611.715989
122692815.028004
-4539497224.031846
114214751.417643
109412626.381376
-4536644283.781690
100817176.439184
106042937.892616
-4530640206.321553
96127741.215086
-4518354326.321286
89976038.224404
-4504365668.143478
84389069.467396
-4486999160.220981
79121258.486582
-4466355257.935401
74875914.557231
-4442451020.517738
71150963.840201
-4415262144.157349
68469176.530307
-4378925362.736562
65235611.827623
-4350063966.111006
63435158.228167
-4315340339.561400
62120323.645830
-4275445895.850460
61436353.931409
-4233808042.671576
61327277.853907
-4189807748.375155
61754080.031715
-4144228665.182696
-4111661086.416655
62753627.776717
-4076855300.819993
-4052664766.965813
64337568.192793
-4022177152.782088
-3997400887.282204
66183506.334843
-3942450472.541784
-3967111214.806800
68661678.997627
-3910709982.409081
-3881758543.841173
70760816.323034
-3821997421.742729
-3851343241.606366
74917116.841889
-3786871724.676466
-3756559531.801879
78632061.036520
-3688888283.942757
-3721945595.180604
82751213.503821
-3638821460.939651
87130656.129740
-3572950318.090192
91850495.148169
-3502038679.043247
98034884.340093
-3430836458.911670
102387244.361849
-3358463532.638705
107740515.789781
-3284322863.256530
113287341.055289
-3211327533.105511
119172151.331131
-3148333284.435246
125051073.835405
-3055785408.690908
131340269.691013
-2977988028.326777
137232412.163584
141349202.852134
-2899479930.783430
145814395.619292
148661910.119054
-2820540598.348891
152386359.367705
155264087.363965
-2741108987.197132
158753322.750655
161495284.420790
-2644787230.025879
165059350.772601
168088424.299896
-2578783876.669768
171366356.213346
174409659.999083
-2500879033.429992
178148947.176069
181121637.675460
-2421692280.780114
184509324.763754
187385605.940911
-2344105047.450245
192423299.782766
-2279806040.733535
198390877.244110
-2166927676.613233
204512877.593462
-2103546886.346783
210559573.297008
-2041159296.732821
216436937.852223
-1948018741.252215
221912271.763336
-1871108720.772802
226617445.366205
-1794877846.906616
232934838.071906
-1703336711.745080
238033111.002799
-1642247908.473526
242950178.572587
-1571346821.399940
248497582.224070
-1499538659.427083
251956264.659829
-1428623744.457036
255393894.672939
-1359691463.079558
260572726.829082
-1294129816.297099
262856262.127867
-1245972931.452121
-1207060682.182279
267276798.332319
-1176678217.666678
-1140462345.705354
269638864.715265
-1108666715.615257
-1077256615.599431
272034381.069209
-1045658052.354342
-1015288246.901368
273817409.147643
-983998547.567754
-955023703.925446
275965129.938410
-921888928.969906
-893115165.737490
277453418.269687
-863968353.879363
-836790921.598976
278339207.238802
-804877118.766690
278845677.154952
-762919894.417528
278870948.176723
-710841823.496428
278315833.347561
-658668733.175801
277415755.136490
-607724957.194140
275888011.159544
-558481379.611526
273892970.946037
-511019773.978885
271262144.915782
-466195326.283263
267991996.729380
-429221171.341464
263990296.424386
-377472483.599251
259583046.777725
-336371111.171292
255834802.647938
252840311.804579
-296874983.164118
249949762.915447
246458283.613113
-259023686.808728
243052786.775467
239406863.829542
-222709249.954511
235796758.372940
231853425.331777
-180917416.384903
223114176.838409
227507851.942159
-153647805.793437
218320151.293017
213623176.985037
-123165577.222605
203117292.071099
208413608.985083
-93725293.465524
196854867.487885
-68409378.808764
188283563.344296
-37143810.449462
176311557.855529
-11355136.112516
162758971.497966
12959463.969912
148201399.849087
35992472.465694
132525936.061309
57827529.877550
116270939.311441
101289197.079112
78391466.634432
