# vtk DataFile Version 2.0
Generated volume Mesh
ASCII
DATASET UNSTRUCTURED_GRID
POINTS 994 float
-0.416146 -0.294827 0.000000
-0.409251 -0.287252 0.000000
-0.421925 -0.286495 0.000000
-0.410201 -0.303043 0.000000
-0.427538 -0.278049 0.000000
-0.404095 -0.311138 0.000000
-0.432982 -0.269494 0.000000
-0.397829 -0.319111 0.000000
-0.438254 -0.260832 0.000000
-0.391406 -0.326958 0.000000
-0.443353 -0.252067 0.000000
-0.384828 -0.334675 0.000000
-0.448277 -0.243202 0.000000
-0.378098 -0.342260 0.000000
-0.453024 -0.234242 0.000000
-0.371218 -0.349710 0.000000
-0.457592 -0.225188 0.000000
-0.364192 -0.357021 0.000000
-0.461979 -0.216046 0.000000
-0.357021 -0.364192 0.000000
-0.466183 -0.206818 0.000000
-0.349710 -0.371218 0.000000
-0.470203 -0.197508 0.000000
-0.342260 -0.378098 0.000000
-0.474037 -0.188120 0.000000
-0.334675 -0.384828 0.000000
-0.477683 -0.178658 0.000000
-0.326958 -0.391406 0.000000
-0.481141 -0.169126 0.000000
-0.319111 -0.397829 0.000000
-0.484408 -0.159526 0.000000
-0.311138 -0.404095 0.000000
-0.487484 -0.149864 0.000000
-0.303043 -0.410201 0.000000
-0.490368 -0.140141 0.000000
-0.294827 -0.416146 0.000000
-0.493057 -0.130363 0.000000
-0.286495 -0.421925 0.000000
-0.495552 -0.120532 0.000000
-0.278049 -0.427538 0.000000
-0.497851 -0.110654 0.000000
-0.269494 -0.432982 0.000000
-0.499953 -0.100732 0.000000
-0.260832 -0.438254 0.000000
-0.501857 -0.090771 0.000000
-0.252067 -0.443353 0.000000
-0.503563 -0.080774 0.000000
-0.243202 -0.448277 0.000000
-0.505069 -0.070746 0.000000
-0.234242 -0.453024 0.000000
-0.506376 -0.060691 0.000000
-0.225188 -0.457592 0.000000
-0.507482 -0.050612 0.000000
-0.216046 -0.461979 0.000000
-0.508388 -0.040514 0.000000
-0.206818 -0.466183 0.000000
-0.509093 -0.030400 0.000000
-0.197508 -0.470203 0.000000
-0.509597 -0.020274 0.000000
-0.188120 -0.474037 0.000000
-0.509899 -0.010139 0.000000
-0.178658 -0.477683 0.000000
-0.510000 0.000000 0.000000
-0.169126 -0.481141 0.000000
-0.509899 0.010139 0.000000
-0.509597 0.020274 0.000000
-0.159526 -0.484408 0.000000
-0.509093 0.030400 0.000000
-0.149864 -0.487484 0.000000
-0.508388 0.040514 0.000000
-0.140141 -0.490368 0.000000
-0.507482 0.050612 0.000000
-0.130363 -0.493057 0.000000
-0.506376 0.060691 0.000000
-0.120532 -0.495552 0.000000
-0.505069 0.070746 0.000000
-0.110654 -0.497851 0.000000
-0.503563 0.080774 0.000000
-0.100732 -0.499953 0.000000
-0.501857 0.090771 0.000000
-0.090771 -0.501857 0.000000
-0.499953 0.100732 0.000000
-0.080774 -0.503563 0.000000
-0.497851 0.110654 0.000000
-0.070746 -0.505069 0.000000
-0.495552 0.120532 0.000000
-0.060691 -0.506376 0.000000
-0.493057 0.130363 0.000000
-0.050612 -0.507482 0.000000
-0.490368 0.140141 0.000000
-0.040514 -0.508388 0.000000
-0.487484 0.149864 0.000000
-0.484408 0.159526 0.000000
-0.030400 -0.509093 0.000000
-0.020274 -0.509597 0.000000
-0.481141 0.169126 0.000000
-0.010139 -0.509899 0.000000
-0.477683 0.178658 0.000000
0.000000 -0.510000 0.000000
-0.474037 0.188120 0.000000
0.010139 -0.509899 0.000000
-0.470203 0.197508 0.000000
0.020274 -0.509597 0.000000
-0.466183 0.206818 0.000000
0.030400 -0.509093 0.000000
-0.461979 0.216046 0.000000
0.040514 -0.508388 0.000000
-0.457592 0.225188 0.000000
0.050612 -0.507482 0.000000
-0.453024 0.234242 0.000000
0.060691 -0.506376 0.000000
-0.448277 0.243202 0.000000
0.070746 -0.505069 0.000000
-0.443353 0.252067 0.000000
0.080774 -0.503563 0.000000
-0.438254 0.260832 0.000000
0.090771 -0.501857 0.000000
-0.432982 0.269494 0.000000
0.100732 -0.499953 0.000000
-0.427538 0.278049 0.000000
0.110654 -0.497851 0.000000
-0.421925 0.286495 0.000000
0.120532 -0.495552 0.000000
-0.416146 0.294827 0.000000
0.130363 -0.493057 0.000000
-0.410201 0.303043 0.000000
0.140141 -0.490368 0.000000
-0.404095 0.311138 0.000000
0.149864 -0.487484 0.000000
0.159526 -0.484408 0.000000
-0.397829 0.319111 0.000000
0.169126 -0.481141 0.000000
-0.391406 0.326958 0.000000
0.178658 -0.477683 0.000000
-0.384828 0.334675 0.000000
0.188120 -0.474037 0.000000
-0.378098 0.342260 0.000000
0.197508 -0.470203 0.000000
-0.371218 0.349710 0.000000
0.206818 -0.466183 0.000000
-0.364192 0.357021 0.000000
0.216046 -0.461979 0.000000
-0.357021 0.364192 0.000000
0.225188 -0.457592 0.000000
-0.349710 0.371218 0.000000
0.234242 -0.453024 0.000000
-0.342260 0.378098 0.000000
0.243202 -0.448277 0.000000
-0.334675 0.384828 0.000000
0.252067 -0.443353 0.000000
-0.326958 0.391406 0.000000
0.260832 -0.438254 0.000000
-0.319111 0.397829 0.000000
0.269494 -0.432982 0.000000
-0.311138 0.404095 0.000000
0.278049 -0.427538 0.000000
-0.303043 0.410201 0.000000
0.286495 -0.421925 0.000000
-0.294827 0.416146 0.000000
0.294827 -0.416146 0.000000
-0.286495 0.421925 0.000000
0.303043 -0.410201 0.000000
-0.278049 0.427538 0.000000
0.311138 -0.404095 0.000000
-0.269494 0.432982 0.000000
0.319111 -0.397829 0.000000
-0.260832 0.438254 0.000000
0.326958 -0.391406 0.000000
-0.252067 0.443353 0.000000
0.334675 -0.384828 0.000000
-0.243202 0.448277 0.000000
0.342260 -0.378098 0.000000
-0.234242 0.453024 0.000000
0.349710 -0.371218 0.000000
-0.225188 0.457592 0.000000
0.357021 -0.364192 0.000000
-0.216046 0.461979 0.000000
0.364192 -0.357021 0.000000
-0.206818 0.466183 0.000000
0.371218 -0.349710 0.000000
-0.197508 0.470203 0.000000
0.378098 -0.342260 0.000000
-0.188120 0.474037 0.000000
0.384828 -0.334675 0.000000
-0.178658 0.477683 0.000000
0.391406 -0.326958 0.000000
-0.169126 0.481141 0.000000
0.397829 -0.319111 0.000000
-0.159526 0.484408 0.000000
0.404095 -0.311138 0.000000
-0.149864 0.487484 0.000000
0.410201 -0.303043 0.000000
-0.140141 0.490368 0.000000
0.416146 -0.294827 0.000000
-0.130363 0.493057 0.000000
0.421925 -0.286495 0.000000
-0.120532 0.495552 0.000000
0.427538 -0.278049 0.000000
-0.110654 0.497851 0.000000
0.432982 -0.269494 0.000000
-0.100732 0.499953 0.000000
0.438254 -0.260832 0.000000
-0.090771 0.501857 0.000000
0.443353 -0.252067 0.000000
-0.080774 0.503563 0.000000
0.448277 -0.243202 0.000000
-0.070746 0.505069 0.000000
0.453024 -0.234242 0.000000
-0.060691 0.506376 0.000000
0.457592 -0.225188 0.000000
-0.050612 0.507482 0.000000
0.461979 -0.216046 0.000000
-0.040514 0.508388 0.000000
0.466183 -0.206818 0.000000
-0.030400 0.509093 0.000000
0.470203 -0.197508 0.000000
-0.020274 0.509597 0.000000
0.474037 -0.188120 0.000000
-0.010139 0.509899 0.000000
0.477683 -0.178658 0.000000
0.000000 0.510000 0.000000
0.481141 -0.169126 0.000000
0.010139 0.509899 0.000000
0.484408 -0.159526 0.000000
0.020274 0.509597 0.000000
0.487484 -0.149864 0.000000
0.030400 0.509093 0.000000
0.490368 -0.140141 0.000000
0.040514 0.508388 0.000000
0.493057 -0.130363 0.000000
0.050612 0.507482 0.000000
0.495552 -0.120532 0.000000
0.060691 0.506376 0.000000
0.497851 -0.110654 0.000000
0.070746 0.505069 0.000000
0.499953 -0.100732 0.000000
0.080774 0.503563 0.000000
0.501857 -0.090771 0.000000
0.090771 0.501857 0.000000
0.503563 -0.080774 0.000000
0.100732 0.499953 0.000000
0.505069 -0.070746 0.000000
0.110654 0.497851 0.000000
0.506376 -0.060691 0.000000
0.120532 0.495552 0.000000
0.507482 -0.050612 0.000000
0.130363 0.493057 0.000000
0.508388 -0.040514 0.000000
0.140141 0.490368 0.000000
0.509093 -0.030400 0.000000
0.149864 0.487484 0.000000
0.509597 -0.020274 0.000000
0.159526 0.484408 0.000000
0.509899 -0.010139 0.000000
0.169126 0.481141 0.000000
0.510000 0.000000 0.000000
0.178658 0.477683 0.000000
0.509899 0.010139 0.000000
0.188120 0.474037 0.000000
0.509597 0.020274 0.000000
0.197508 0.470203 0.000000
0.509093 0.030400 0.000000
0.206818 0.466183 0.000000
0.508388 0.040514 0.000000
0.216046 0.461979 0.000000
0.507482 0.050612 0.000000
0.225188 0.457592 0.000000
0.506376 0.060691 0.000000
0.234242 0.453024 0.000000
0.505069 0.070746 0.000000
0.243202 0.448277 0.000000
0.503563 0.080774 0.000000
0.252067 0.443353 0.000000
0.501857 0.090771 0.000000
0.260832 0.438254 0.000000
0.499953 0.100732 0.000000
0.269494 0.432982 0.000000
0.497851 0.110654 0.000000
0.278049 0.427538 0.000000
0.495552 0.120532 0.000000
0.286495 0.421925 0.000000
0.493057 0.130363 0.000000
0.294827 0.416146 0.000000
0.490368 0.140141 0.000000
0.303043 0.410201 0.000000
0.487484 0.149864 0.000000
0.311138 0.404095 0.000000
0.484408 0.159526 0.000000
0.319111 0.397829 0.000000
0.481141 0.169126 0.000000
0.326958 0.391406 0.000000
0.477683 0.178658 0.000000
0.334675 0.384828 0.000000
0.474037 0.188120 0.000000
0.342260 0.378098 0.000000
0.470203 0.197508 0.000000
0.349710 0.371218 0.000000
0.466183 0.206818 0.000000
0.357021 0.364192 0.000000
0.461979 0.216046 0.000000
0.364192 0.357021 0.000000
0.457592 0.225188 0.000000
0.371218 0.349710 0.000000
0.453024 0.234242 0.000000
0.378098 0.342260 0.000000
0.448277 0.243202 0.000000
0.384828 0.334675 0.000000
0.443353 0.252067 0.000000
0.391406 0.326958 0.000000
0.438254 0.260832 0.000000
0.397829 0.319111 0.000000
0.432982 0.269494 0.000000
0.404095 0.311138 0.000000
0.427538 0.278049 0.000000
0.410201 0.303043 0.000000
0.421925 0.286495 0.000000
0.416146 0.294827 0.000000
-0.415025 -0.278844 0.000000
-0.403306 -0.295541 0.000000
-0.420627 -0.270320 0.000000
-0.397194 -0.303706 0.000000
-0.426054 -0.261684 0.000000
-0.390916 -0.311745 0.000000
-0.431303 -0.252938 0.000000
-0.384475 -0.319654 0.000000
-0.436373 -0.244088 0.000000
-0.377875 -0.327430 0.000000
-0.441261 -0.235136 0.000000
-0.371117 -0.335070 0.000000
-0.445965 -0.226086 0.000000
-0.364205 -0.342571 0.000000
-0.450484 -0.216942 0.000000
-0.357141 -0.349929 0.000000
-0.454816 -0.207707 0.000000
-0.349929 -0.357141 0.000000
-0.458958 -0.198386 0.000000
-0.342571 -0.364205 0.000000
-0.462910 -0.188983 0.000000
-0.335070 -0.371117 0.000000
-0.466668 -0.179501 0.000000
-0.327430 -0.377875 0.000000
-0.470233 -0.169944 0.000000
-0.319654 -0.384475 0.000000
-0.473602 -0.160317 0.000000
-0.311745 -0.390916 0.000000
-0.476773 -0.150623 0.000000
-0.303706 -0.397194 0.000000
-0.479747 -0.140866 0.000000
-0.295541 -0.403306 0.000000
-0.482520 -0.131050 0.000000
-0.287252 -0.409251 0.000000
-0.485094 -0.121178 0.000000
-0.278844 -0.415025 0.000000
-0.487465 -0.111256 0.000000
-0.270320 -0.420627 0.000000
-0.489633 -0.101287 0.000000
-0.261684 -0.426054 0.000000
-0.491598 -0.091277 0.000000
-0.252938 -0.431303 0.000000
-0.493358 -0.081229 0.000000
-0.244088 -0.436373 0.000000
-0.494912 -0.071148 0.000000
-0.235136 -0.441261 0.000000
-0.496260 -0.061039 0.000000
-0.226086 -0.445965 0.000000
-0.497402 -0.050904 0.000000
-0.216942 -0.450484 0.000000
-0.498337 -0.040749 0.000000
-0.207707 -0.454816 0.000000
-0.499064 -0.030577 0.000000
-0.198386 -0.458958 0.000000
-0.499584 -0.020392 0.000000
-0.188983 -0.462910 0.000000
-0.499896 -0.010199 0.000000
-0.179501 -0.466668 0.000000
-0.500000 0.000000 0.000000
-0.169944 -0.470233 0.000000
-0.499896 0.010199 0.000000
-0.160317 -0.473602 0.000000
-0.499584 0.020392 0.000000
-0.150623 -0.476773 0.000000
-0.499064 0.030577 0.000000
-0.140866 -0.479747 0.000000
-0.498337 0.040749 0.000000
-0.131050 -0.482520 0.000000
-0.497402 0.050904 0.000000
-0.121178 -0.485094 0.000000
-0.496260 0.061039 0.000000
-0.111256 -0.487465 0.000000
-0.494912 0.071148 0.000000
-0.101287 -0.489633 0.000000
-0.493358 0.081229 0.000000
-0.091277 -0.491598 0.000000
-0.491598 0.091277 0.000000
-0.081229 -0.493358 0.000000
-0.489633 0.101287 0.000000
-0.071148 -0.494912 0.000000
-0.487465 0.111256 0.000000
-0.061039 -0.496260 0.000000
-0.485094 0.121178 0.000000
-0.050904 -0.497402 0.000000
-0.482520 0.131050 0.000000
-0.040749 -0.498337 0.000000
-0.479747 0.140866 0.000000
-0.030577 -0.499064 0.000000
-0.476773 0.150623 0.000000
-0.020392 -0.499584 0.000000
-0.473602 0.160317 0.000000
-0.010199 -0.499896 0.000000
-0.470233 0.169944 0.000000
0.000000 -0.500000 0.000000
-0.466668 0.179501 0.000000
0.010199 -0.499896 0.000000
-0.462910 0.188983 0.000000
0.020392 -0.499584 0.000000
-0.458958 0.198386 0.000000
0.030577 -0.499064 0.000000
-0.454816 0.207707 0.000000
0.040749 -0.498337 0.000000
-0.450484 0.216942 0.000000
0.050904 -0.497402 0.000000
-0.445965 0.226086 0.000000
0.061039 -0.496260 0.000000
-0.441261 0.235136 0.000000
0.071148 -0.494912 0.000000
-0.436373 0.244088 0.000000
0.081229 -0.493358 0.000000
-0.431303 0.252938 0.000000
0.091277 -0.491598 0.000000
-0.426054 0.261684 0.000000
0.101287 -0.489633 0.000000
-0.420627 0.270320 0.000000
0.111256 -0.487465 0.000000
-0.415025 0.278844 0.000000
0.121178 -0.485094 0.000000
-0.409251 0.287252 0.000000
0.131050 -0.482520 0.000000
-0.403306 0.295541 0.000000
0.140866 -0.479747 0.000000
-0.397194 0.303706 0.000000
0.150623 -0.476773 0.000000
-0.390916 0.311745 0.000000
0.160317 -0.473602 0.000000
-0.384475 0.319654 0.000000
0.169944 -0.470233 0.000000
-0.377875 0.327430 0.000000
0.179501 -0.466668 0.000000
-0.371117 0.335070 0.000000
0.188983 -0.462910 0.000000
-0.364205 0.342571 0.000000
0.198386 -0.458958 0.000000
-0.357141 0.349929 0.000000
0.207707 -0.454816 0.000000
-0.349929 0.357141 0.000000
0.216942 -0.450484 0.000000
-0.342571 0.364205 0.000000
0.226086 -0.445965 0.000000
-0.335070 0.371117 0.000000
0.235136 -0.441261 0.000000
-0.327430 0.377875 0.000000
0.244088 -0.436373 0.000000
-0.319654 0.384475 0.000000
0.252938 -0.431303 0.000000
-0.311745 0.390916 0.000000
0.261684 -0.426054 0.000000
-0.303706 0.397194 0.000000
0.270320 -0.420627 0.000000
-0.295541 0.403306 0.000000
0.278844 -0.415025 0.000000
-0.287252 0.409251 0.000000
0.287252 -0.409251 0.000000
-0.278844 0.415025 0.000000
0.295541 -0.403306 0.000000
-0.270320 0.420627 0.000000
0.303706 -0.397194 0.000000
-0.261684 0.426054 0.000000
0.311745 -0.390916 0.000000
-0.252938 0.431303 0.000000
0.319654 -0.384475 0.000000
-0.244088 0.436373 0.000000
0.327430 -0.377875 0.000000
-0.235136 0.441261 0.000000
0.335070 -0.371117 0.000000
-0.226086 0.445965 0.000000
0.342571 -0.364205 0.000000
-0.216942 0.450484 0.000000
0.349929 -0.357141 0.000000
-0.207707 0.454816 0.000000
0.357141 -0.349929 0.000000
-0.198386 0.458958 0.000000
0.364205 -0.342571 0.000000
-0.188983 0.462910 0.000000
0.371117 -0.335070 0.000000
-0.179501 0.466668 0.000000
0.377875 -0.327430 0.000000
-0.169944 0.470233 0.000000
0.384475 -0.319654 0.000000
-0.160317 0.473602 0.000000
0.390916 -0.311745 0.000000
-0.150623 0.476773 0.000000
0.397194 -0.303706 0.000000
-0.140866 0.479747 0.000000
0.403306 -0.295541 0.000000
-0.131050 0.482520 0.000000
0.409251 -0.287252 0.000000
-0.121178 0.485094 0.000000
0.415025 -0.278844 0.000000
-0.111256 0.487465 0.000000
0.420627 -0.270320 0.000000
-0.101287 0.489633 0.000000
0.426054 -0.261684 0.000000
-0.091277 0.491598 0.000000
0.431303 -0.252938 0.000000
-0.081229 0.493358 0.000000
0.436373 -0.244088 0.000000
-0.071148 0.494912 0.000000
0.441261 -0.235136 0.000000
-0.061039 0.496260 0.000000
0.445965 -0.226086 0.000000
-0.050904 0.497402 0.000000
0.450484 -0.216942 0.000000
-0.040749 0.498337 0.000000
0.454816 -0.207707 0.000000
-0.030577 0.499064 0.000000
0.458958 -0.198386 0.000000
-0.020392 0.499584 0.000000
0.462910 -0.188983 0.000000
-0.010199 0.499896 0.000000
0.466668 -0.179501 0.000000
0.000000 0.500000 0.000000
0.470233 -0.169944 0.000000
0.010199 0.499896 0.000000
0.473602 -0.160317 0.000000
0.020392 0.499584 0.000000
0.476773 -0.150623 0.000000
0.030577 0.499064 0.000000
0.479747 -0.140866 0.000000
0.040749 0.498337 0.000000
0.482520 -0.131050 0.000000
0.050904 0.497402 0.000000
0.485094 -0.121178 0.000000
0.061039 0.496260 0.000000
0.487465 -0.111256 0.000000
0.071148 0.494912 0.000000
0.489633 -0.101287 0.000000
0.081229 0.493358 0.000000
0.491598 -0.091277 0.000000
0.091277 0.491598 0.000000
0.493358 -0.081229 0.000000
0.101287 0.489633 0.000000
0.494912 -0.071148 0.000000
0.111256 0.487465 0.000000
0.496260 -0.061039 0.000000
0.121178 0.485094 0.000000
0.497402 -0.050904 0.000000
0.131050 0.482520 0.000000
0.498337 -0.040749 0.000000
0.140866 0.479747 0.000000
0.499064 -0.030577 0.000000
0.150623 0.476773 0.000000
0.499584 -0.020392 0.000000
0.160317 0.473602 0.000000
0.499896 -0.010199 0.000000
0.169944 0.470233 0.000000
0.500000 0.000000 0.000000
0.179501 0.466668 0.000000
0.499896 0.010199 0.000000
0.188983 0.462910 0.000000
0.499584 0.020392 0.000000
0.198386 0.458958 0.000000
0.499064 0.030577 0.000000
0.207707 0.454816 0.000000
0.498337 0.040749 0.000000
0.216942 0.450484 0.000000
0.497402 0.050904 0.000000
0.226086 0.445965 0.000000
0.496260 0.061039 0.000000
0.235136 0.441261 0.000000
0.494912 0.071148 0.000000
0.244088 0.436373 0.000000
0.493358 0.081229 0.000000
0.252938 0.431303 0.000000
0.491598 0.091277 0.000000
0.261684 0.426054 0.000000
0.489633 0.101287 0.000000
0.270320 0.420627 0.000000
0.487465 0.111256 0.000000
0.278844 0.415025 0.000000
0.485094 0.121178 0.000000
0.287252 0.409251 0.000000
0.482520 0.131050 0.000000
0.295541 0.403306 0.000000
0.479747 0.140866 0.000000
0.303706 0.397194 0.000000
0.476773 0.150623 0.000000
0.311745 0.390916 0.000000
0.473602 0.160317 0.000000
0.319654 0.384475 0.000000
0.470233 0.169944 0.000000
0.327430 0.377875 0.000000
0.466668 0.179501 0.000000
0.335070 0.371117 0.000000
0.462910 0.188983 0.000000
0.342571 0.364205 0.000000
0.458958 0.198386 0.000000
0.349929 0.357141 0.000000
0.454816 0.207707 0.000000
0.357141 0.349929 0.000000
0.450484 0.216942 0.000000
0.364205 0.342571 0.000000
0.445965 0.226086 0.000000
0.371117 0.335070 0.000000
0.441261 0.235136 0.000000
0.377875 0.327430 0.000000
0.436373 0.244088 0.000000
0.384475 0.319654 0.000000
0.431303 0.252938 0.000000
0.390916 0.311745 0.000000
0.426054 0.261684 0.000000
0.397194 0.303706 0.000000
0.420627 0.270320 0.000000
0.415025 0.278844 0.000000
0.403306 0.295541 0.000000
0.409251 0.287252 0.000000
-0.416651 -0.285100 0.000000
-0.409726 -0.295166 0.000000
-0.421429 -0.278105 0.000000
-0.403699 -0.303357 0.000000
-0.426806 -0.269823 0.000000
-0.397508 -0.311425 0.000000
-0.432197 -0.261278 0.000000
-0.391157 -0.319367 0.000000
-0.437327 -0.252500 0.000000
-0.384646 -0.327179 0.000000
-0.442314 -0.243721 0.000000
-0.377979 -0.334859 0.000000
-0.446941 -0.235122 0.000000
-0.450784 -0.228337 0.000000
-0.370462 -0.343155 0.000000
-0.455028 -0.219045 0.000000
-0.452668 -0.223420 0.000000
-0.364060 -0.349914 0.000000
-0.459296 -0.209724 0.000000
-0.457282 -0.214033 0.000000
-0.357103 -0.357057 0.000000
-0.461352 -0.204833 0.000000
-0.463724 -0.200363 0.000000
-0.350055 -0.363925 0.000000
-0.465669 -0.195543 0.000000
-0.467695 -0.190817 0.000000
-0.343998 -0.369738 0.000000
-0.471431 -0.181492 0.000000
-0.469405 -0.186286 0.000000
-0.334859 -0.377979 0.000000
-0.472952 -0.176626 0.000000
-0.474903 -0.171777 0.000000
-0.327179 -0.384646 0.000000
-0.478846 -0.161727 0.000000
-0.476435 -0.167155 0.000000
-0.319367 -0.391157 0.000000
-0.480787 -0.154555 0.000000
-0.311425 -0.397508 0.000000
-0.483607 -0.145275 0.000000
-0.303357 -0.403699 0.000000
-0.486452 -0.135600 0.000000
-0.293440 -0.410921 0.000000
-0.489031 -0.125774 0.000000
-0.286535 -0.415757 0.000000
-0.491508 -0.115921 0.000000
-0.278352 -0.421319 0.000000
-0.493686 -0.106038 0.000000
-0.269886 -0.426828 0.000000
-0.495651 -0.096362 0.000000
-0.261233 -0.432144 0.000000
-0.497198 -0.088074 0.000000
-0.252462 -0.437285 0.000000
-0.499250 -0.075953 0.000000
-0.243613 -0.442280 0.000000
-0.500654 -0.065906 0.000000
-0.234715 -0.447127 0.000000
-0.228640 -0.450519 0.000000
-0.501880 -0.055811 0.000000
-0.218895 -0.455215 0.000000
-0.223224 -0.452881 0.000000
-0.502902 -0.045695 0.000000
-0.209733 -0.459391 0.000000
-0.214212 -0.457190 0.000000
-0.503721 -0.035560 0.000000
-0.200365 -0.463733 0.000000
-0.204804 -0.461613 0.000000
-0.195531 -0.465664 0.000000
-0.190784 -0.467722 0.000000
-0.504503 -0.023225 0.000000
-0.186244 -0.469425 0.000000
-0.181531 -0.471460 0.000000
-0.504773 -0.013853 0.000000
-0.176954 -0.472745 0.000000
-0.171678 -0.474859 0.000000
-0.505074 -0.003656 0.000000
-0.167137 -0.476450 0.000000
-0.161673 -0.478820 0.000000
-0.504932 0.006910 0.000000
-0.154529 -0.480797 0.000000
-0.504834 0.020042 0.000000
-0.145171 -0.483695 0.000000
-0.503551 0.037586 0.000000
-0.135593 -0.486453 0.000000
-0.502892 0.045680 0.000000
-0.125775 -0.489083 0.000000
-0.502191 0.053713 0.000000
-0.115940 -0.491464 0.000000
-0.500654 0.065906 0.000000
-0.106312 -0.493603 0.000000
-0.499225 0.075974 0.000000
-0.098005 -0.495252 0.000000
-0.497594 0.086013 0.000000
-0.086013 -0.497594 0.000000
-0.495252 0.098004 0.000000
-0.075974 -0.499225 0.000000
-0.493597 0.106314 0.000000
-0.065906 -0.500654 0.000000
-0.491428 0.115952 0.000000
-0.053714 -0.502191 0.000000
-0.489011 0.125775 0.000000
-0.045680 -0.502892 0.000000
-0.486412 0.135576 0.000000
-0.037586 -0.503551 0.000000
-0.483678 0.145285 0.000000
-0.480787 0.154548 0.000000
-0.478775 0.161676 0.000000
-0.019993 -0.505013 0.000000
-0.474875 0.171814 0.000000
-0.476450 0.167142 0.000000
-0.006399 -0.504863 0.000000
-0.471460 0.181500 0.000000
-0.472984 0.176743 0.000000
0.004056 -0.505080 0.000000
-0.469459 0.186171 0.000000
-0.467574 0.190927 0.000000
0.014245 -0.504767 0.000000
-0.465619 0.195494 0.000000
-0.463733 0.200332 0.000000
0.023224 -0.504502 0.000000
-0.461448 0.204867 0.000000
-0.459421 0.209641 0.000000
0.035560 -0.503721 0.000000
-0.457230 0.214138 0.000000
-0.455198 0.218914 0.000000
0.045695 -0.502902 0.000000
-0.452908 0.223198 0.000000
-0.450716 0.228508 0.000000
0.055811 -0.501880 0.000000
-0.446914 0.235146 0.000000
0.065906 -0.500654 0.000000
-0.442240 0.243700 0.000000
0.075974 -0.499225 0.000000
-0.437272 0.252473 0.000000
0.088074 -0.497198 0.000000
-0.432109 0.261213 0.000000
0.096362 -0.495651 0.000000
-0.426787 0.269860 0.000000
0.106034 -0.493683 0.000000
-0.421297 0.278338 0.000000
0.115913 -0.491500 0.000000
-0.415757 0.286535 0.000000
0.125776 -0.489039 0.000000
-0.410932 0.293439 0.000000
0.135601 -0.486450 0.000000
-0.403699 0.303357 0.000000
0.145277 -0.483606 0.000000
-0.397508 0.311425 0.000000
0.154557 -0.480774 0.000000
0.161733 -0.478769 0.000000
-0.391157 0.319367 0.000000
0.167091 -0.476488 0.000000
0.171718 -0.474954 0.000000
-0.384646 0.327179 0.000000
0.176707 -0.473000 0.000000
0.181505 -0.471475 0.000000
-0.377979 0.334859 0.000000
0.186295 -0.469391 0.000000
0.190925 -0.467576 0.000000
-0.369765 0.344010 0.000000
0.195633 -0.465648 0.000000
0.200345 -0.463770 0.000000
-0.363926 0.350050 0.000000
0.209734 -0.459450 0.000000
0.204910 -0.461509 0.000000
-0.357034 0.357061 0.000000
0.214072 -0.457247 0.000000
0.218980 -0.455067 0.000000
-0.349993 0.364032 0.000000
0.228256 -0.450815 0.000000
0.223408 -0.452712 0.000000
-0.343912 0.369752 0.000000
0.235109 -0.446946 0.000000
-0.334859 0.377979 0.000000
0.243720 -0.442311 0.000000
-0.327179 0.384646 0.000000
0.252483 -0.437299 0.000000
-0.319367 0.391157 0.000000
0.261251 -0.432197 0.000000
-0.311425 0.397508 0.000000
0.269819 -0.426806 0.000000
-0.303357 0.403699 0.000000
0.278114 -0.421436 0.000000
-0.295166 0.409726 0.000000
0.285106 -0.416757 0.000000
-0.285453 0.416477 0.000000
0.295191 -0.409722 0.000000
-0.278168 0.421408 0.000000
0.303357 -0.403699 0.000000
-0.269849 0.426857 0.000000
0.311425 -0.397508 0.000000
-0.261220 0.432122 0.000000
0.319367 -0.391157 0.000000
-0.252526 0.437285 0.000000
0.327179 -0.384646 0.000000
-0.243742 0.442304 0.000000
0.334859 -0.377979 0.000000
-0.235192 0.446897 0.000000
-0.228742 0.450552 0.000000
0.343167 -0.370539 0.000000
-0.223460 0.452663 0.000000
-0.218979 0.455026 0.000000
0.349916 -0.364073 0.000000
-0.214046 0.457197 0.000000
-0.209660 0.459391 0.000000
0.357057 -0.357104 0.000000
-0.200375 0.463730 0.000000
-0.204910 0.461372 0.000000
0.363930 -0.350058 0.000000
-0.195557 0.465613 0.000000
-0.190944 0.467564 0.000000
0.369764 -0.344011 0.000000
-0.181545 0.471428 0.000000
-0.186254 0.469430 0.000000
0.377979 -0.334859 0.000000
-0.176635 0.472984 0.000000
-0.171918 0.474870 0.000000
0.384646 -0.327179 0.000000
-0.161683 0.478683 0.000000
-0.167009 0.476454 0.000000
0.391157 -0.319367 0.000000
-0.154877 0.480582 0.000000
0.397508 -0.311425 0.000000
-0.145423 0.483611 0.000000
0.403699 -0.303357 0.000000
-0.135605 0.486389 0.000000
0.410921 -0.293440 0.000000
-0.125786 0.489034 0.000000
0.415757 -0.286535 0.000000
-0.115924 0.491501 0.000000
0.421276 -0.278351 0.000000
-0.106038 0.493682 0.000000
0.426786 -0.269861 0.000000
-0.096362 0.495651 0.000000
0.432129 -0.261224 0.000000
-0.088074 0.497198 0.000000
0.437364 -0.252518 0.000000
-0.075974 0.499225 0.000000
0.442255 -0.243696 0.000000
-0.065906 0.500654 0.000000
0.446901 -0.235165 0.000000
0.450626 -0.228629 0.000000
-0.055811 0.501880 0.000000
0.452863 -0.223239 0.000000
0.455037 -0.219014 0.000000
-0.045695 0.502902 0.000000
0.457157 -0.214077 0.000000
0.459396 -0.209621 0.000000
-0.035560 0.503721 0.000000
0.461359 -0.204897 0.000000
0.463695 -0.200361 0.000000
-0.023304 0.504424 0.000000
0.465641 -0.195495 0.000000
0.467606 -0.190951 0.000000
-0.014879 0.504782 0.000000
0.469414 -0.186248 0.000000
0.471411 -0.181540 0.000000
-0.005033 0.504925 0.000000
0.472918 -0.176630 0.000000
0.474886 -0.171779 0.000000
0.005043 0.504929 0.000000
0.476453 -0.167022 0.000000
0.478685 -0.161862 0.000000
0.014951 0.504764 0.000000
0.480771 -0.154583 0.000000
0.023215 0.504525 0.000000
0.483673 -0.145303 0.000000
0.037586 0.503551 0.000000
0.486450 -0.135593 0.000000
0.045750 0.502896 0.000000
0.489087 -0.125805 0.000000
0.053799 0.502083 0.000000
0.491453 -0.115970 0.000000
0.065906 0.500654 0.000000
0.493600 -0.106336 0.000000
0.075974 0.499225 0.000000
0.495243 -0.098118 0.000000
0.086013 0.497594 0.000000
0.497594 -0.086013 0.000000
0.098116 0.495243 0.000000
0.499225 -0.075974 0.000000
0.106336 0.493600 0.000000
0.500654 -0.065906 0.000000
0.115972 0.491452 0.000000
0.502084 -0.053799 0.000000
0.125820 0.489079 0.000000
0.502897 -0.045748 0.000000
0.135587 0.486408 0.000000
0.503551 -0.037586 0.000000
0.145284 0.483678 0.000000
0.504412 -0.023728 0.000000
0.154553 0.480792 0.000000
0.504678 -0.016946 0.000000
0.161702 0.478804 0.000000
0.166954 0.476453 0.000000
0.504949 -0.002996 0.000000
0.171459 0.474989 0.000000
0.176706 0.472959 0.000000
0.504952 0.005359 0.000000
0.181613 0.471429 0.000000
0.186155 0.469450 0.000000
0.504776 0.014970 0.000000
0.190941 0.467614 0.000000
0.195461 0.465640 0.000000
0.504507 0.023301 0.000000
0.200321 0.463696 0.000000
0.204665 0.461639 0.000000
0.503721 0.035560 0.000000
0.209779 0.459311 0.000000
0.214128 0.457065 0.000000
0.502902 0.045695 0.000000
0.218898 0.455083 0.000000
0.223160 0.452917 0.000000
0.501880 0.055811 0.000000
0.228588 0.450696 0.000000
0.500654 0.065906 0.000000
0.235160 0.446911 0.000000
0.499225 0.075974 0.000000
0.243704 0.442242 0.000000
0.497198 0.088074 0.000000
0.252477 0.437275 0.000000
0.495651 0.096362 0.000000
0.261232 0.432125 0.000000
0.493684 0.106044 0.000000
0.269859 0.426787 0.000000
0.491464 0.115912 0.000000
0.278336 0.421300 0.000000
0.489031 0.125776 0.000000
0.286532 0.415761 0.000000
0.486389 0.135603 0.000000
0.293440 0.410921 0.000000
0.483609 0.145424 0.000000
0.303357 0.403699 0.000000
0.480578 0.154802 0.000000
0.311425 0.397508 0.000000
0.478655 0.161751 0.000000
0.476452 0.166982 0.000000
0.319367 0.391157 0.000000
0.474971 0.171610 0.000000
0.472982 0.176607 0.000000
0.327179 0.384646 0.000000
0.471433 0.181509 0.000000
0.469353 0.186363 0.000000
0.334859 0.377979 0.000000
0.467613 0.190886 0.000000
0.465645 0.195476 0.000000
0.344010 0.369764 0.000000
0.461373 0.204887 0.000000
0.463686 0.200316 0.000000
0.350057 0.363930 0.000000
0.459353 0.209725 0.000000
0.457070 0.214141 0.000000
0.357100 0.357062 0.000000
0.452708 0.223419 0.000000
0.455125 0.218877 0.000000
0.364020 0.349971 0.000000
0.450552 0.228739 0.000000
0.370222 0.343498 0.000000
0.446889 0.235184 0.000000
0.377979 0.334859 0.000000
0.442252 0.243700 0.000000
0.384646 0.327179 0.000000
0.437360 0.252522 0.000000
0.391146 0.319394 0.000000
0.432139 0.261225 0.000000
0.397501 0.311463 0.000000
0.426837 0.269829 0.000000
0.403699 0.303357 0.000000
0.421434 0.278106 0.000000
0.416650 0.285100 0.000000
0.409726 0.295166 0.000000
CELLS 1364 5456
3 624 2 0
3 624 0 1
3 624 1 317
3 317 626 624
3 626 317 319
3 319 628 626
3 4 626 628
3 628 6 4
3 6 628 630
3 630 8 6
3 8 630 632
3 632 10 8
3 10 632 634
3 634 12 10
3 12 634 636
3 636 14 12
3 14 636 637
3 637 16 14
3 640 16 637
3 637 329 640
3 640 329 331
3 639 640 331
3 639 331 643
3 643 18 639
3 639 18 16
3 643 642 18
3 642 20 18
3 645 20 642
3 642 333 645
3 645 333 335
3 646 645 335
3 646 335 648
3 648 22 646
3 646 22 20
3 648 649 22
3 649 24 22
3 652 24 649
3 649 337 652
3 652 337 339
3 651 652 339
3 651 339 654
3 654 26 651
3 651 26 24
3 654 655 26
3 655 28 26
3 658 28 655
3 655 341 658
3 658 341 343
3 657 658 343
3 657 343 660
3 30 657 660
3 660 32 30
3 32 660 662
3 662 34 32
3 34 662 664
3 664 36 34
3 36 664 666
3 666 38 36
3 38 666 668
3 668 40 38
3 40 668 670
3 670 42 40
3 42 670 672
3 672 44 42
3 44 672 674
3 674 46 44
3 674 359 46
3 676 46 359
3 676 359 361
3 676 361 48
3 678 48 361
3 678 361 363
3 678 363 50
3 681 50 363
3 681 363 365
3 681 365 52
3 684 52 365
3 684 365 367
3 684 367 54
3 687 54 367
3 687 367 369
3 687 369 56
3 692 56 369
3 692 369 371
3 371 695 692
3 58 692 695
3 695 60 58
3 60 695 698
3 698 62 60
3 62 698 701
3 701 64 62
3 64 701 703
3 65 64 703
3 65 703 67
3 67 703 381
3 705 67 381
3 705 381 383
3 383 707 705
3 69 705 707
3 707 71 69
3 71 707 709
3 709 73 71
3 709 387 73
3 711 73 387
3 711 387 389
3 711 389 75
3 713 75 389
3 713 389 391
3 713 391 77
3 715 77 391
3 715 391 393
3 715 393 79
3 717 79 393
3 717 393 395
3 395 719 717
3 81 717 719
3 719 83 81
3 83 719 721
3 721 85 83
3 85 721 723
3 723 87 85
3 87 723 725
3 725 89 87
3 89 725 727
3 727 91 89
3 91 727 728
3 728 92 91
3 92 728 729
3 729 95 92
3 732 95 729
3 729 407 732
3 732 407 409
3 731 732 409
3 731 409 735
3 735 97 731
3 731 97 95
3 735 734 97
3 734 99 97
3 737 99 734
3 734 411 737
3 737 411 413
3 738 737 413
3 738 413 740
3 740 101 738
3 738 101 99
3 740 741 101
3 741 103 101
3 743 103 741
3 741 415 743
3 743 415 417
3 744 743 417
3 744 417 746
3 746 105 744
3 744 105 103
3 746 747 105
3 747 107 105
3 749 107 747
3 747 419 749
3 749 419 421
3 750 749 421
3 750 421 752
3 109 750 752
3 752 111 109
3 111 752 754
3 754 113 111
3 113 754 756
3 756 115 113
3 115 756 758
3 758 117 115
3 117 758 760
3 760 119 117
3 119 760 762
3 762 121 119
3 121 762 764
3 764 123 121
3 123 764 766
3 766 125 123
3 766 437 125
3 768 125 437
3 768 437 439
3 768 439 127
3 770 127 439
3 770 439 441
3 770 441 130
3 773 130 441
3 773 441 443
3 773 443 132
3 776 132 443
3 776 443 445
3 776 445 134
3 779 134 445
3 779 445 447
3 779 447 136
3 782 136 447
3 782 447 449
3 449 785 782
3 138 782 785
3 785 140 138
3 140 785 788
3 788 142 140
3 142 788 791
3 791 144 142
3 144 791 794
3 794 146 144
3 794 457 146
3 796 146 457
3 796 457 459
3 796 459 148
3 798 148 459
3 798 459 461
3 798 461 150
3 800 150 461
3 800 461 463
3 800 463 152
3 802 152 463
3 802 463 465
3 802 465 154
3 804 154 465
3 804 465 467
3 804 467 156
3 806 156 467
3 806 467 469
3 806 469 158
3 808 158 469
3 808 469 471
3 471 810 808
3 160 808 810
3 810 162 160
3 162 810 812
3 812 164 162
3 164 812 814
3 814 166 164
3 166 814 816
3 816 168 166
3 168 816 818
3 818 170 168
3 170 818 820
3 820 172 170
3 172 820 821
3 821 174 172
3 823 174 821
3 821 483 823
3 823 483 485
3 824 823 485
3 824 485 826
3 826 176 824
3 824 176 174
3 826 827 176
3 827 178 176
3 830 178 827
3 827 487 830
3 830 487 489
3 829 830 489
3 829 489 832
3 832 180 829
3 829 180 178
3 832 833 180
3 833 182 180
3 836 182 833
3 833 491 836
3 836 491 493
3 835 836 493
3 835 493 838
3 838 184 835
3 835 184 182
3 838 839 184
3 839 186 184
3 842 186 839
3 839 495 842
3 842 495 497
3 841 842 497
3 841 497 844
3 188 841 844
3 844 190 188
3 190 844 846
3 846 192 190
3 192 846 848
3 848 194 192
3 194 848 850
3 850 196 194
3 196 850 852
3 852 198 196
3 198 852 854
3 854 200 198
3 200 854 856
3 856 202 200
3 202 856 858
3 858 204 202
3 858 513 204
3 860 204 513
3 860 513 515
3 860 515 206
3 862 206 515
3 862 515 517
3 862 517 208
3 865 208 517
3 865 517 519
3 865 519 210
3 868 210 519
3 868 519 521
3 868 521 212
3 871 212 521
3 871 521 523
3 871 523 214
3 874 214 523
3 874 523 525
3 525 877 874
3 216 874 877
3 877 218 216
3 218 877 880
3 880 220 218
3 220 880 883
3 883 222 220
3 222 883 886
3 886 224 222
3 224 886 888
3 888 226 224
3 888 535 226
3 890 226 535
3 890 535 537
3 537 892 890
3 228 890 892
3 892 230 228
3 230 892 894
3 894 232 230
3 894 541 232
3 896 232 541
3 896 541 543
3 896 543 234
3 898 234 543
3 898 543 545
3 898 545 236
3 900 236 545
3 900 545 547
3 900 547 238
3 902 238 547
3 902 547 549
3 549 904 902
3 902 904 240
3 904 242 240
3 242 904 906
3 906 244 242
3 244 906 908
3 908 246 244
3 246 908 910
3 910 248 246
3 248 910 912
3 912 250 248
3 250 912 914
3 914 252 250
3 252 914 916
3 916 254 252
3 917 254 916
3 916 561 917
3 917 561 563
3 919 917 563
3 919 563 920
3 920 256 919
3 919 256 254
3 920 922 256
3 922 258 256
3 923 258 922
3 922 565 923
3 923 565 567
3 925 923 567
3 925 567 926
3 926 260 925
3 925 260 258
3 926 928 260
3 928 262 260
3 929 262 928
3 928 569 929
3 929 569 571
3 931 929 571
3 931 571 932
3 932 264 931
3 931 264 262
3 932 934 264
3 934 266 264
3 935 266 934
3 934 573 935
3 935 573 575
3 937 935 575
3 937 575 939
3 268 937 939
3 939 270 268
3 270 939 941
3 941 272 270
3 272 941 943
3 943 274 272
3 274 943 945
3 945 276 274
3 276 945 947
3 947 278 276
3 278 947 949
3 949 280 278
3 280 949 951
3 951 282 280
3 282 951 953
3 953 284 282
3 953 591 284
3 955 284 591
3 955 591 593
3 955 593 286
3 957 286 593
3 957 593 595
3 957 595 288
3 960 288 595
3 960 595 597
3 960 597 290
3 963 290 597
3 963 597 599
3 963 599 292
3 966 292 599
3 966 599 601
3 966 601 294
3 969 294 601
3 969 601 603
3 603 972 969
3 296 969 972
3 972 298 296
3 298 972 975
3 975 300 298
3 300 975 978
3 978 302 300
3 302 978 980
3 980 304 302
3 980 611 304
3 982 304 611
3 982 611 613
3 982 613 306
3 984 306 613
3 984 613 615
3 984 615 308
3 986 308 615
3 986 615 617
3 986 617 310
3 988 310 617
3 988 617 619
3 988 619 312
3 990 312 619
3 990 619 622
3 990 622 314
3 993 314 622
3 993 622 623
3 993 623 316
3 992 316 623
3 992 623 621
3 621 991 992
3 315 992 991
3 991 313 315
3 313 991 989
3 989 311 313
3 311 989 987
3 987 309 311
3 309 987 985
3 985 307 309
3 307 985 983
3 983 305 307
3 305 983 981
3 981 303 305
3 303 981 979
3 979 301 303
3 976 301 979
3 979 610 976
3 976 610 608
3 977 976 608
3 977 608 974
3 974 299 977
3 977 299 301
3 974 973 299
3 973 297 299
3 970 297 973
3 973 606 970
3 970 606 604
3 971 970 604
3 971 604 968
3 968 295 971
3 971 295 297
3 968 967 295
3 967 293 295
3 965 293 967
3 967 602 965
3 965 602 600
3 964 965 600
3 964 600 962
3 962 291 964
3 964 291 293
3 962 961 291
3 961 289 291
3 959 289 961
3 961 598 959
3 959 598 596
3 958 959 596
3 958 596 956
3 287 958 956
3 956 285 287
3 285 956 954
3 954 283 285
3 283 954 952
3 952 281 283
3 281 952 950
3 950 279 281
3 279 950 948
3 948 277 279
3 277 948 946
3 946 275 277
3 275 946 944
3 944 273 275
3 273 944 942
3 942 271 273
3 942 580 271
3 940 271 580
3 940 580 578
3 940 578 269
3 938 269 578
3 938 578 576
3 938 576 267
3 936 267 576
3 936 576 574
3 936 574 265
3 933 265 574
3 933 574 572
3 933 572 263
3 930 263 572
3 930 572 570
3 930 570 261
3 927 261 570
3 927 570 568
3 568 924 927
3 259 927 924
3 924 257 259
3 257 924 921
3 921 255 257
3 255 921 918
3 918 253 255
3 918 562 253
3 915 253 562
3 915 562 560
3 560 913 915
3 251 915 913
3 913 249 251
3 913 558 249
3 911 249 558
3 911 558 556
3 556 909 911
3 247 911 909
3 909 245 247
3 245 909 907
3 907 243 245
3 907 552 243
3 905 243 552
3 905 552 550
3 905 550 241
3 903 241 550
3 903 550 548
3 903 548 239
3 901 239 548
3 901 548 546
3 901 546 237
3 899 237 546
3 899 546 544
3 544 897 899
3 899 897 235
3 897 233 235
3 233 897 895
3 895 231 233
3 231 895 893
3 893 229 231
3 229 893 891
3 891 227 229
3 227 891 889
3 889 225 227
3 225 889 887
3 887 223 225
3 223 887 885
3 885 221 223
3 884 221 885
3 885 532 884
3 884 532 530
3 882 884 530
3 882 530 881
3 881 219 882
3 882 219 221
3 881 879 219
3 879 217 219
3 878 217 879
3 879 528 878
3 878 528 526
3 876 878 526
3 876 526 875
3 875 215 876
3 876 215 217
3 875 873 215
3 873 213 215
3 872 213 873
3 873 524 872
3 872 524 522
3 870 872 522
3 870 522 869
3 869 211 870
3 870 211 213
3 869 867 211
3 867 209 211
3 866 209 867
3 867 520 866
3 866 520 518
3 864 866 518
3 864 518 863
3 207 864 863
3 863 205 207
3 205 863 861
3 861 203 205
3 203 861 859
3 859 201 203
3 201 859 857
3 857 199 201
3 199 857 855
3 855 197 199
3 197 855 853
3 853 195 197
3 195 853 851
3 851 193 195
3 193 851 849
3 849 191 193
3 849 502 191
3 847 191 502
3 847 502 500
3 847 500 189
3 845 189 500
3 845 500 498
3 845 498 187
3 843 187 498
3 843 498 496
3 843 496 185
3 840 185 496
3 840 496 494
3 840 494 183
3 837 183 494
3 837 494 492
3 837 492 181
3 834 181 492
3 834 492 490
3 490 831 834
3 179 834 831
3 831 177 179
3 177 831 828
3 828 175 177
3 175 828 825
3 825 173 175
3 173 825 822
3 822 171 173
3 822 482 171
3 819 171 482
3 819 482 480
3 819 480 169
3 817 169 480
3 817 480 478
3 817 478 167
3 815 167 478
3 815 478 476
3 815 476 165
3 813 165 476
3 813 476 474
3 813 474 163
3 811 163 474
3 811 474 472
3 811 472 161
3 809 161 472
3 809 472 470
3 809 470 159
3 807 159 470
3 807 470 468
3 468 805 807
3 157 807 805
3 805 155 157
3 155 805 803
3 803 153 155
3 153 803 801
3 801 151 153
3 151 801 799
3 799 149 151
3 149 799 797
3 797 147 149
3 147 797 795
3 795 145 147
3 145 795 792
3 792 143 145
3 793 143 792
3 792 456 793
3 793 456 454
3 790 793 454
3 790 454 789
3 789 141 790
3 790 141 143
3 789 786 141
3 786 139 141
3 787 139 786
3 786 452 787
3 787 452 450
3 784 787 450
3 784 450 783
3 783 137 784
3 784 137 139
3 783 781 137
3 781 135 137
3 780 135 781
3 781 448 780
3 780 448 446
3 778 780 446
3 778 446 777
3 777 133 778
3 778 133 135
3 777 775 133
3 775 131 133
3 774 131 775
3 775 444 774
3 774 444 442
3 772 774 442
3 772 442 771
3 129 772 771
3 771 128 129
3 128 771 769
3 769 126 128
3 126 769 767
3 767 124 126
3 124 767 765
3 765 122 124
3 122 765 763
3 763 120 122
3 120 763 761
3 761 118 120
3 118 761 759
3 759 116 118
3 116 759 757
3 757 114 116
3 757 426 114
3 755 114 426
3 755 426 424
3 755 424 112
3 753 112 424
3 753 424 422
3 753 422 110
3 751 110 422
3 751 422 420
3 751 420 108
3 748 108 420
3 748 420 418
3 748 418 106
3 745 106 418
3 745 418 416
3 745 416 104
3 742 104 416
3 742 416 414
3 414 739 742
3 102 742 739
3 739 100 102
3 100 739 736
3 736 98 100
3 98 736 733
3 733 96 98
3 96 733 730
3 94 96 730
3 94 730 93
3 93 730 404
3 726 93 404
3 726 404 402
3 402 724 726
3 90 726 724
3 724 88 90
3 88 724 722
3 722 86 88
3 722 398 86
3 720 86 398
3 720 398 396
3 720 396 84
3 718 84 396
3 718 396 394
3 718 394 82
3 716 82 394
3 716 394 392
3 716 392 80
3 714 80 392
3 714 392 390
3 390 712 714
3 78 714 712
3 712 76 78
3 76 712 710
3 710 74 76
3 74 710 708
3 708 72 74
3 72 708 706
3 706 70 72
3 70 706 704
3 704 68 70
3 68 704 702
3 702 66 68
3 66 702 700
3 700 63 66
3 699 63 700
3 700 378 699
3 699 378 376
3 697 699 376
3 697 376 696
3 696 61 697
3 697 61 63
3 696 694 61
3 694 59 61
3 693 59 694
3 694 374 693
3 693 374 372
3 691 693 372
3 691 372 690
3 690 57 691
3 691 57 59
3 690 688 57
3 688 55 57
3 689 55 688
3 688 370 689
3 689 370 368
3 685 689 368
3 685 368 686
3 686 53 685
3 685 53 55
3 686 682 53
3 682 51 53
3 683 51 682
3 682 366 683
3 683 366 364
3 680 683 364
3 680 364 679
3 49 680 679
3 679 47 49
3 47 679 677
3 677 45 47
3 45 677 675
3 675 43 45
3 43 675 673
3 673 41 43
3 41 673 671
3 671 39 41
3 39 671 669
3 669 37 39
3 37 669 667
3 667 35 37
3 35 667 665
3 665 33 35
3 665 348 33
3 663 33 348
3 663 348 346
3 663 346 31
3 661 31 346
3 661 346 344
3 661 344 29
3 659 29 344
3 659 344 342
3 659 342 27
3 656 27 342
3 656 342 340
3 656 340 25
3 653 25 340
3 653 340 338
3 653 338 23
3 650 23 338
3 650 338 336
3 336 647 650
3 21 650 647
3 647 19 21
3 19 647 644
3 644 17 19
3 17 644 641
3 641 15 17
3 15 641 638
3 638 13 15
3 638 328 13
3 635 13 328
3 635 328 326
3 635 326 11
3 633 11 326
3 633 326 324
3 633 324 9
3 631 9 324
3 631 324 322
3 631 322 7
3 629 7 322
3 629 322 320
3 629 320 5
3 627 5 320
3 627 320 318
3 627 318 3
3 625 3 318
3 625 318 1
3 625 0 3
3 627 3 5
3 629 5 7
3 631 7 9
3 633 9 11
3 635 11 13
3 638 330 328
3 330 638 641
3 641 332 330
3 332 641 644
3 644 334 332
3 334 644 647
3 647 336 334
3 650 21 23
3 653 23 25
3 656 25 27
3 659 27 29
3 661 29 31
3 663 31 33
3 665 350 348
3 350 665 667
3 667 352 350
3 352 667 669
3 669 354 352
3 354 669 671
3 671 356 354
3 356 671 673
3 673 358 356
3 358 673 675
3 675 360 358
3 360 675 677
3 677 362 360
3 362 677 679
3 680 49 51
3 679 364 362
3 683 680 51
3 682 686 366
3 686 368 366
3 689 685 55
3 688 690 370
3 690 372 370
3 693 691 59
3 694 696 374
3 696 376 374
3 699 697 63
3 700 702 378
3 702 380 378
3 380 702 704
3 704 382 380
3 382 704 706
3 706 384 382
3 384 706 708
3 708 386 384
3 386 708 710
3 710 388 386
3 388 710 712
3 712 390 388
3 714 78 80
3 716 80 82
3 718 82 84
3 720 84 86
3 722 400 398
3 400 722 724
3 724 402 400
3 726 90 93
3 406 404 730
3 406 730 408
3 408 730 733
3 733 410 408
3 410 733 736
3 736 412 410
3 412 736 739
3 739 414 412
3 742 102 104
3 745 104 106
3 748 106 108
3 751 108 110
3 753 110 112
3 755 112 114
3 757 428 426
3 428 757 759
3 759 430 428
3 430 759 761
3 761 432 430
3 432 761 763
3 763 434 432
3 434 763 765
3 765 436 434
3 436 765 767
3 767 438 436
3 438 767 769
3 769 440 438
3 440 769 771
3 772 129 131
3 771 442 440
3 774 772 131
3 775 777 444
3 777 446 444
3 780 778 135
3 781 783 448
3 783 450 448
3 787 784 139
3 786 789 452
3 789 454 452
3 793 790 143
3 792 795 456
3 795 458 456
3 458 795 797
3 797 460 458
3 460 797 799
3 799 462 460
3 462 799 801
3 801 464 462
3 464 801 803
3 803 466 464
3 466 803 805
3 805 468 466
3 807 157 159
3 809 159 161
3 811 161 163
3 813 163 165
3 815 165 167
3 817 167 169
3 819 169 171
3 822 484 482
3 484 822 825
3 825 486 484
3 486 825 828
3 828 488 486
3 488 828 831
3 831 490 488
3 834 179 181
3 837 181 183
3 840 183 185
3 843 185 187
3 845 187 189
3 847 189 191
3 849 504 502
3 504 849 851
3 851 506 504
3 506 851 853
3 853 508 506
3 508 853 855
3 855 510 508
3 510 855 857
3 857 512 510
3 512 857 859
3 859 514 512
3 514 859 861
3 861 516 514
3 516 861 863
3 864 207 209
3 863 518 516
3 866 864 209
3 867 869 520
3 869 522 520
3 872 870 213
3 873 875 524
3 875 526 524
3 878 876 217
3 879 881 528
3 881 530 528
3 884 882 221
3 885 887 532
3 887 534 532
3 534 887 889
3 889 536 534
3 536 889 891
3 891 538 536
3 538 891 893
3 893 540 538
3 540 893 895
3 895 542 540
3 542 895 897
3 897 544 542
3 899 235 237
3 901 237 239
3 903 239 241
3 905 241 243
3 907 554 552
3 554 907 909
3 909 556 554
3 911 247 249
3 913 560 558
3 915 251 253
3 918 564 562
3 564 918 921
3 921 566 564
3 566 921 924
3 924 568 566
3 927 259 261
3 930 261 263
3 933 263 265
3 936 265 267
3 938 267 269
3 940 269 271
3 942 582 580
3 582 942 944
3 944 584 582
3 584 944 946
3 946 586 584
3 586 946 948
3 948 588 586
3 588 948 950
3 950 590 588
3 590 950 952
3 952 592 590
3 592 952 954
3 954 594 592
3 594 954 956
3 958 287 289
3 956 596 594
3 959 958 289
3 961 962 598
3 962 600 598
3 965 964 293
3 967 968 602
3 968 604 602
3 970 971 297
3 973 974 606
3 974 608 606
3 976 977 301
3 979 981 610
3 981 612 610
3 612 981 983
3 983 614 612
3 614 983 985
3 985 616 614
3 616 985 987
3 987 618 616
3 618 987 989
3 989 620 618
3 620 989 991
3 991 621 620
3 992 315 316
3 993 316 314
3 990 314 312
3 988 312 310
3 986 310 308
3 984 308 306
3 982 306 304
3 980 609 611
3 609 980 978
3 978 607 609
3 607 978 975
3 975 605 607
3 605 975 972
3 972 603 605
3 969 296 294
3 966 294 292
3 963 292 290
3 960 290 288
3 957 288 286
3 955 286 284
3 953 589 591
3 589 953 951
3 951 587 589
3 587 951 949
3 949 585 587
3 585 949 947
3 947 583 585
3 583 947 945
3 945 581 583
3 581 945 943
3 943 579 581
3 579 943 941
3 941 577 579
3 577 941 939
3 937 268 266
3 939 575 577
3 935 937 266
3 934 932 573
3 932 571 573
3 929 931 262
3 928 926 569
3 926 567 569
3 923 925 258
3 922 920 565
3 920 563 565
3 917 919 254
3 916 914 561
3 914 559 561
3 559 914 912
3 912 557 559
3 557 912 910
3 910 555 557
3 555 910 908
3 908 553 555
3 553 908 906
3 906 551 553
3 551 906 904
3 904 549 551
3 902 240 238
3 900 238 236
3 898 236 234
3 896 234 232
3 894 539 541
3 539 894 892
3 892 537 539
3 890 228 226
3 888 533 535
3 533 888 886
3 886 531 533
3 531 886 883
3 883 529 531
3 529 883 880
3 880 527 529
3 527 880 877
3 877 525 527
3 874 216 214
3 871 214 212
3 868 212 210
3 865 210 208
3 862 208 206
3 860 206 204
3 858 511 513
3 511 858 856
3 856 509 511
3 509 856 854
3 854 507 509
3 507 854 852
3 852 505 507
3 505 852 850
3 850 503 505
3 503 850 848
3 848 501 503
3 501 848 846
3 846 499 501
3 499 846 844
3 841 188 186
3 844 497 499
3 842 841 186
3 839 838 495
3 838 493 495
3 836 835 182
3 833 832 491
3 832 489 491
3 830 829 178
3 827 826 487
3 826 485 487
3 823 824 174
3 821 820 483
3 820 481 483
3 481 820 818
3 818 479 481
3 479 818 816
3 816 477 479
3 477 816 814
3 814 475 477
3 475 814 812
3 812 473 475
3 473 812 810
3 810 471 473
3 808 160 158
3 806 158 156
3 804 156 154
3 802 154 152
3 800 152 150
3 798 150 148
3 796 148 146
3 794 455 457
3 455 794 791
3 791 453 455
3 453 791 788
3 788 451 453
3 451 788 785
3 785 449 451
3 782 138 136
3 779 136 134
3 776 134 132
3 773 132 130
3 770 130 127
3 768 127 125
3 766 435 437
3 435 766 764
3 764 433 435
3 433 764 762
3 762 431 433
3 431 762 760
3 760 429 431
3 429 760 758
3 758 427 429
3 427 758 756
3 756 425 427
3 425 756 754
3 754 423 425
3 423 754 752
3 750 109 107
3 752 421 423
3 749 750 107
3 747 746 419
3 746 417 419
3 743 744 103
3 741 740 415
3 740 413 415
3 737 738 99
3 734 735 411
3 735 409 411
3 732 731 95
3 729 728 407
3 728 405 407
3 405 728 727
3 727 403 405
3 403 727 725
3 725 401 403
3 401 725 723
3 723 399 401
3 399 723 721
3 721 397 399
3 397 721 719
3 719 395 397
3 717 81 79
3 715 79 77
3 713 77 75
3 711 75 73
3 709 385 387
3 385 709 707
3 707 383 385
3 705 69 67
3 379 381 703
3 379 703 377
3 377 703 701
3 701 375 377
3 375 701 698
3 698 373 375
3 373 698 695
3 695 371 373
3 692 58 56
3 687 56 54
3 684 54 52
3 681 52 50
3 678 50 48
3 676 48 46
3 674 357 359
3 357 674 672
3 672 355 357
3 355 672 670
3 670 353 355
3 353 670 668
3 668 351 353
3 351 668 666
3 666 349 351
3 349 666 664
3 664 347 349
3 347 664 662
3 662 345 347
3 345 662 660
3 657 30 28
3 660 343 345
3 658 657 28
3 655 654 341
3 654 339 341
3 652 651 24
3 649 648 337
3 648 335 337
3 645 646 20
3 642 643 333
3 643 331 333
3 640 639 16
3 637 636 329
3 636 327 329
3 327 636 634
3 634 325 327
3 325 634 632
3 632 323 325
3 323 632 630
3 630 321 323
3 321 630 628
3 626 4 2
3 628 319 321
3 625 1 0
3 2 624 626
CELL_TYPES 1364
9
9
9
9
9
9
9
9
9
9
9
9
9
9
9
9
9
9
9
9
9
9
9
9
9
9
9
9
9
9
9
9
9
9
9
9
9
9
9
9
9
9
9
9
9
9
9
9
9
9
9
9
9
9
9
9
9
9
9
9
9
9
9
9
9
9
9
9
9
9
9
9
9
9
9
9
9
9
9
9
9
9
9
9
9
9
9
9
9
9
9
9
9
9
9
9
9
9
9
9
9
9
9
9
9
9
9
9
9
9
9
9
9
9
9
9
9
9
9
9
9
9
9
9
9
9
9
9
9
9
9
9
9
9
9
9
9
9
9
9
9
9
9
9
9
9
9
9
9
9
9
9
9
9
9
9
9
9
9
9
9
9
9
9
9
9
9
9
9
9
9
9
9
9
9
9
9
9
9
9
9
9
9
9
9
9
9
9
9
9
9
9
9
9
9
9
9
9
9
9
9
9
9
9
9
9
9
9
9
9
9
9
9
9
9
9
9
9
9
9
9
9
9
9
9
9
9
9
9
9
9
9
9
9
9
9
9
9
9
9
9
9
9
9
9
9
9
9
9
9
9
9
9
9
9
9
9
9
9
9
9
9
9
9
9
9
9
9
9
9
9
9
9
9
9
9
9
9
9
9
9
9
9
9
9
9
9
9
9
9
9
9
9
9
9
9
9
9
9
9
9
9
9
9
9
9
9
9
9
9
9
9
9
9
9
9
9
9
9
9
9
9
9
9
9
9
9
9
9
9
9
9
9
9
9
9
9
9
9
9
9
9
9
9
9
9
9
9
9
9
9
9
9
9
9
9
9
9
9
9
9
9
9
9
9
9
9
9
9
9
9
9
9
9
9
9
9
9
9
9
9
9
9
9
9
9
9
9
9
9
9
9
9
9
9
9
9
9
9
9
9
9
9
9
9
9
9
9
9
9
9
9
9
9
9
9
9
9
9
9
9
9
9
9
9
9
9
9
9
9
9
9
9
9
9
9
9
9
9
9
9
9
9
9
9
9
9
9
9
9
9
9
9
9
9
9
9
9
9
9
9
9
9
9
9
9
9
9
9
9
9
9
9
9
9
9
9
9
9
9
9
9
9
9
9
9
9
9
9
9
9
9
9
9
9
9
9
9
9
9
9
9
9
9
9
9
9
9
9
9
9
9
9
9
9
9
9
9
9
9
9
9
9
9
9
9
9
9
9
9
9
9
9
9
9
9
9
9
9
9
9
9
9
9
9
9
9
9
9
9
9
9
9
9
9
9
9
9
9
9
9
9
9
9
9
9
9
9
9
9
9
9
9
9
9
9
9
9
9
9
9
9
9
9
9
9
9
9
9
9
9
9
9
9
9
9
9
9
9
9
9
9
9
9
9
9
9
9
9
9
9
9
9
9
9
9
9
9
9
9
9
9
9
9
9
9
9
9
9
9
9
9
9
9
9
9
9
9
9
9
9
9
9
9
9
9
9
9
9
9
9
9
9
9
9
9
9
9
9
9
9
9
9
9
9
9
9
9
9
9
9
9
9
9
9
9
9
9
9
9
9
9
9
9
9
9
9
9
9
9
9
9
9
9
9
9
9
9
9
9
9
9
9
9
9
9
9
9
9
9
9
9
9
9
9
9
9
9
9
9
9
9
9
9
9
9
9
9
9
9
9
9
9
9
9
9
9
9
9
9
9
9
9
9
9
9
9
9
9
9
9
9
9
9
9
9
9
9
9
9
9
9
9
9
9
9
9
9
9
9
9
9
9
9
9
9
9
9
9
9
9
9
9
9
9
9
9
9
9
9
9
9
9
9
9
9
9
9
9
9
9
9
9
9
9
9
9
9
9
9
9
9
9
9
9
9
9
9
9
9
9
9
9
9
9
9
9
9
9
9
9
9
9
9
9
9
9
9
9
9
9
9
9
9
9
9
9
9
9
9
9
9
9
9
9
9
9
9
9
9
9
9
9
9
9
9
9
9
9
9
9
9
9
9
9
9
9
9
9
9
9
9
9
9
9
9
9
9
9
9
9
9
9
9
9
9
9
9
9
9
9
9
9
9
9
9
9
9
9
9
9
9
9
9
9
9
9
9
9
9
9
9
9
9
9
9
9
9
9
9
9
9
9
9
9
9
9
9
9
9
9
9
9
9
9
9
9
9
9
9
9
9
9
9
9
9
9
9
9
9
9
9
9
9
9
9
9
9
9
9
9
9
9
9
9
9
9
9
9
9
9
9
9
9
9
9
9
9
9
9
9
9
9
9
9
9
9
9
9
9
9
9
9
9
9
9
9
9
9
9
9
9
9
9
9
9
9
9
9
9
9
9
9
9
9
9
9
9
9
9
9
9
9
9
9
9
9
9
9
9
9
9
9
9
9
9
9
9
9
9
9
9
9
9
9
9
9
9
9
9
9
9
9
9
9
9
9
9
9
9
9
9
9
9
9
9
9
9
9
9
9
9
9
9
9
9
9
9
9
9
9
9
9
9
9
9
9
9
9
9
9
9
9
9
9
9
9
9
9
9
9
9
9
9
9
9
9
9
9
9
9
9
9
9
9
9
9
9
9
9
9
9
9
9
9
9
9
9
9
9
9
9
9
9
9
9
9
9
9
9
9
9
9
9
9
9
9
9
9
9
9
9
9
9
9
9
9
9
9
9
9
9
9
9
9
9
9
9
9
9
9
9
9
9
9
9
9
9
9
9
9
9
9
9
9
9
9
9
9
9
9
9
9
9
9
9
9
9
9
9
9
9
9
9
9
9
9
9
9
9
9
9
9
9
9
9
9
9
9
9
9
9
9
9
9
9
9
9
9
9
9
9
9
9
9
9
9
9
9
9
9
9
9
9
9
9
9
9
9
9
9
9
9
9
9
9
9
9
9
9
9
9
9
9
9
9
9
9
9
9
9
9
9
9
9
9
9
9
9
9
9
9
9
9
9
9
9
9
9
9
9
9
9
9
9
9
9
9
9
9
9
9
9
9
9
9
9
9
9
9
9
9
9
9
9
9
9
9
9
9
9
9
9
9
9
9
9
9
9
9
9
9
9
9
9
9
9
9
9
9
9
9
9
9
9
9
9
9
9
9
9
9
9
9
POINT_DATA 994
SCALARS u1 float
LOOKUP_TABLE default
-0.3
-0.3
-0.3
-0.2
-0.3
-0.2
-0.4
-0.2
-0.4
-0.2
-0.4
-0.1
-0.5
-0.1
-0.5
-0.1
-0.6
-0.1
-0.6
-0.09
-0.7
-0.09
-0.8
-0.09
-0.8
-0.1
-0.9
-0.1
-1
-0.1
-1
-0.1
-1
-0.1
-1
-0.1
-1
-0.2
-1
-0.2
-1
-0.2
-2
-0.2
-2
-0.2
-2
-0.2
-2
-0.2
-2
-0.3
-2
-0.3
-2
-0.3
-2
-0.3
-2
-0.4
-2
-0.4
-2
-0.4
-2
-2
-0.4
-2
-0.4
-2
-0.5
-2
-0.5
-2
-0.5
-2
-0.5
-2
-0.5
-2
-0.5
-2
-0.5
-2
-0.5
-2
-0.5
-1
-0.5
-1
-0.5
-1
-1
-0.5
-0.5
-1
-0.5
-1
-0.5
-1
-0.5
-1
-0.5
-1
-0.5
-0.9
-0.5
-0.9
-0.5
-0.9
-0.5
-0.8
-0.5
-0.8
-0.5
-0.8
-0.5
-0.7
-0.5
-0.7
-0.5
-0.7
-0.5
-0.7
-0.6
-0.7
-0.6
-0.6
-0.6
-0.6
-0.6
-0.7
-0.6
-0.7
-0.6
-0.7
-0.6
-0.7
-0.6
-0.8
-0.6
-0.8
-0.6
-0.8
-0.6
-0.9
-0.6
-0.9
-0.7
-0.9
-0.7
-0.9
-0.7
-0.9
-0.7
-1
-0.7
-1
-0.7
-1
-0.8
-1
-0.8
-1
-0.8
-1
-0.8
-1
-0.9
-1
-0.9
-1
-0.9
-1
-0.9
-1
-1
-1
-1
-1
-1
-1
-1
-1
-1
-1
-1
-1
-1
-1
-1
-1
-1
-1
-1
-1
-1
-1
-1
-1
-1
-1
-1
-1
-1
-0.9
-1
-0.9
-1
-0.9
-1
-0.8
-1
-0.8
-1
-0.7
-1
-0.7
-1
-0.6
-1
-0.5
-1
-0.5
-1
-0.4
-1
-0.3
-1
-0.3
-1
-0.2
-1
-0.1
-1
-0.05
-1
0.02
-1
0.08
-1
0.1
-1
0.2
-1
0.2
-1
0.3
-1
0.3
-1
0.3
-1
0.3
-1
0.3
-1
0.3
-1
0.3
-1
0.2
-1
0.2
-1
0.1
-2
0.09
-2
0.02
-2
-0.05
-2
-0.1
-2
-0.2
-2
-0.3
-2
-0.4
-2
-0.5
-2
-0.5
-2
-0.6
-2
-0.7
-2
-0.8
-2
-0.9
-2
-1
-2
-1
-2
-1
-2
-1
-2
-1
-2
-1
-2
-1
-2
-1
-2
-1
-2
-1
-2
-1
-2
-2
-2
-0.3
-0.3
-0.4
-0.2
-0.4
-0.2
-0.4
-0.2
-0.5
-0.2
-0.5
-0.1
-0.6
-0.1
-0.6
-0.1
-0.7
-0.1
-0.8
-0.09
-0.8
-0.09
-0.9
-0.09
-1
-0.1
-1
-0.1
-1
-0.1
-1
-0.1
-1
-0.1
-1
-0.1
-1
-0.2
-2
-0.2
-2
-0.2
-2
-0.2
-2
-0.2
-2
-0.2
-2
-0.2
-2
-0.3
-2
-0.3
-2
-0.3
-2
-0.3
-2
-0.3
-2
-0.3
-2
-0.4
-2
-0.4
-2
-0.4
-2
-0.4
-2
-0.4
-2
-0.4
-2
-0.5
-2
-0.5
-2
-0.5
-2
-0.5
-2
-0.5
-1
-0.5
-1
-0.5
-1
-0.5
-1
-0.5
-1
-0.5
-1
-0.5
-1
-0.5
-1
-0.5
-1
-0.5
-0.9
-0.5
-0.9
-0.5
-0.8
-0.6
-0.8
-0.6
-0.8
-0.6
-0.8
-0.6
-0.7
-0.6
-0.7
-0.6
-0.7
-0.7
-0.7
-0.7
-0.7
-0.7
-0.6
-0.7
-0.6
-0.7
-0.6
-0.8
-0.6
-0.8
-0.6
-0.8
-0.6
-0.8
-0.6
-0.9
-0.6
-0.9
-0.6
-0.9
-0.6
-0.9
-0.7
-1
-0.7
-1
-0.7
-1
-0.7
-1
-0.7
-1
-0.7
-1
-0.8
-1
-0.8
-1
-0.8
-1
-0.8
-1
-0.8
-1
-0.9
-1
-0.9
-1
-0.9
-1
-0.9
-1
-1
-1
-1
-1
-1
-1
-1
-1
-1
-1
-1
-1
-1
-1
-1
-1
-1
-1
-1
-1
-1
-1
-1
-0.9
-1
-0.9
-1
-0.9
-1
-0.8
-1
-0.8
-1
-0.7
-1
-0.7
-1
-0.6
-1
-0.5
-1
-0.5
-1
-0.4
-1
-0.3
-1
-0.3
-1
-0.2
-1
-0.1
-1
-0.05
-1
0.01
-1
0.07
-1
0.1
-1
0.2
-1
0.2
-1
0.3
-1
0.3
-1
0.3
-1
0.3
-1
0.3
-1
0.3
-1
0.3
-2
0.2
-2
0.2
-2
0.1
-2
0.09
-2
0.02
-2
-0.05
-2
-0.1
-2
-0.2
-2
-0.3
-2
-0.4
-2
-0.5
-2
-0.5
-2
-0.6
-2
-0.7
-2
-0.8
-2
-0.9
-2
-1
-2
-1
-2
-1
-2
-1
-2
-1
-2
-1
-2
-1
-2
-1
-2
-1
-2
-1
-1
-2
-2
-0.3
-0.3
-0.3
-0.2
-0.4
-0.2
-0.4
-0.2
-0.4
-0.2
-0.5
-0.1
-0.5
-0.6
-0.1
-0.6
-0.6
-0.1
-0.7
-0.6
-0.1
-0.7
-0.7
-0.09
-0.8
-0.8
-0.09
-0.9
-0.8
-0.09
-0.9
-1
-0.1
-1
-1
-0.1
-1
-0.1
-1
-0.1
-1
-0.1
-1
-0.1
-1
-0.2
-2
-0.2
-2
-0.2
-2
-0.2
-2
-0.2
-2
-0.2
-0.2
-2
-0.3
-0.2
-2
-0.3
-0.3
-2
-0.3
-0.3
-0.3
-0.3
-2
-0.3
-0.3
-2
-0.3
-0.4
-2
-0.4
-0.4
-2
-0.4
-2
-0.4
-2
-0.4
-2
-0.4
-2
-0.5
-2
-0.5
-2
-0.5
-2
-0.5
-2
-0.5
-2
-0.5
-2
-0.5
-2
-0.5
-1
-0.5
-1
-1
-1
-0.5
-1
-1
-0.5
-1
-1
-0.5
-1
-1
-0.5
-1
-1
-0.5
-1
-1
-0.5
-0.9
-0.9
-0.5
-0.9
-0.9
-0.5
-0.8
-0.5
-0.8
-0.5
-0.8
-0.5
-0.8
-0.5
-0.7
-0.6
-0.7
-0.6
-0.7
-0.6
-0.7
-0.6
-0.7
-0.6
-0.6
-0.7
-0.7
-0.6
-0.7
-0.7
-0.6
-0.7
-0.7
-0.6
-0.7
-0.8
-0.6
-0.8
-0.8
-0.6
-0.8
-0.8
-0.6
-0.8
-0.8
-0.6
-0.9
-0.9
-0.6
-0.9
-0.6
-0.9
-0.7
-0.9
-0.7
-1
-0.7
-1
-0.7
-1
-0.7
-1
-0.8
-1
-0.8
-1
-0.8
-1
-0.8
-1
-0.8
-1
-0.9
-1
-0.9
-0.9
-1
-0.9
-0.9
-1
-0.9
-0.9
-1
-1
-1
-1
-1
-1
-1
-1
-1
-1
-1
-1
-1
-1
-1
-1
-1
-1
-1
-1
-1
-1
-1
-1
-1
-1
-1
-1
-1
-1
-1
-1
-1
-0.9
-1
-0.9
-0.9
-1
-0.8
-0.8
-1
-0.8
-0.8
-1
-0.8
-0.7
-1
-0.7
-0.7
-1
-0.6
-0.6
-1
-0.6
-0.5
-1
-0.5
-0.5
-1
-0.4
-1
-0.4
-1
-0.3
-1
-0.2
-1
-0.1
-1
-0.08
-1
-0.03
-1
0.05
-1
0.1
-1
0.2
-1
0.2
-1
0.2
-1
0.3
-1
0.3
-1
0.3
-1
-1
0.3
-1
-1
0.3
-1
-1
0.3
-1
-1
0.3
-1
-2
0.2
-2
-2
0.2
-2
-2
0.1
-2
0.05
-2
-0.02
-2
-0.1
-2
-0.2
-2
-0.2
-2
-0.3
-2
-0.4
-2
-0.5
-2
-0.6
-2
-0.7
-2
-0.7
-0.8
-2
-0.8
-0.9
-2
-0.9
-0.9
-2
-1
-1
-2
-1
-1
-2
-1
-1
-2
-1
-1
-2
-1
-2
-1
-2
-1
-2
-1
-2
-1
-2
-1
-2
-1
-1
-2
SCALARS u2 float
LOOKUP_TABLE default
-0.7
-0.7
-0.8
-0.7
-0.8
-0.7
-0.8
-0.7
-0.8
-0.7
-0.9
-0.7
-0.9
-0.6
-0.9
-0.6
-0.9
-0.6
-1
-0.6
-1
-0.6
-1
-0.6
-1
-0.6
-1
-0.6
-1
-0.6
-1
-0.6
-1
-0.7
-1
-0.7
-1
-0.7
-1
-0.7
-1
-0.7
-1
-0.8
-1
-0.8
-1
-0.8
-1
-0.8
-1
-0.9
-1
-0.9
-1
-1
-1
-1
-1
-1
-1
-1
-1
-1
-1
-1
-1
-1
-1
-1
-1
-1
-1
-1
-2
-1
-2
-1
-2
-1
-2
-1
-2
-1
-2
-1
-2
-1
-2
-1
-2
-1
-1
-2
-2
-1
-2
-1
-2
-1
-2
-1
-2
-1
-2
-1
-2
-1
-2
-2
-2
-2
-2
-2
-2
-2
-2
-2
-2
-2
-1
-2
-1
-2
-1
-2
-1
-2
-1
-1
-2
-0.9
-2
-0.9
-2
-0.8
-2
-0.7
-2
-0.6
-2
-0.6
-2
-0.5
-2
-0.5
-2
-0.4
-2
-0.4
-2
-0.3
-2
-0.3
-2
-0.3
-2
-0.2
-1
-0.2
-1
-0.2
-1
-0.2
-1
-0.1
-1
-0.1
-1
-0.09
-1
-0.07
-1
-0.06
-1
-0.05
-1
-0.05
-1
-0.05
-1
-0.05
-0.9
-0.06
-0.8
-0.07
-0.8
-0.08
-0.7
-0.09
-0.6
-0.1
-0.5
-0.1
-0.4
-0.1
-0.4
-0.1
-0.3
-0.1
-0.2
-0.2
-0.1
-0.2
-0.04
-0.2
0.03
-0.2
0.1
-0.2
0.2
-0.3
0.2
-0.3
0.3
-0.3
0.3
-0.3
0.3
-0.4
0.3
-0.4
0.3
-0.4
0.3
-0.4
0.3
-0.4
0.3
-0.5
0.2
-0.5
0.2
-0.5
0.1
-0.5
0.07
-0.5
0.01
-0.5
-0.05
-0.5
-0.1
-0.5
-0.2
-0.5
-0.3
-0.5
-0.3
-0.5
-0.4
-0.5
-0.5
-0.5
-0.5
-0.5
-0.6
-0.5
-0.7
-0.5
-0.7
-0.5
-0.8
-0.5
-0.8
-0.5
-0.9
-0.5
-0.9
-0.5
-0.9
-0.5
-1
-0.5
-1
-0.5
-1
-0.5
-1
-0.5
-1
-0.6
-1
-0.6
-1
-0.6
-1
-0.6
-1
-0.7
-1
-0.7
-1
-0.7
-1
-0.7
-1
-0.8
-1
-0.8
-1
-0.8
-1
-0.9
-1
-0.9
-1
-0.9
-1
-0.9
-1
-1
-1
-1
-1
-1
-1
-0.7
-0.7
-0.8
-0.7
-0.8
-0.7
-0.8
-0.6
-0.8
-0.6
-0.8
-0.6
-0.9
-0.6
-0.9
-0.6
-0.9
-0.6
-0.9
-0.6
-1
-0.6
-1
-0.6
-1
-0.6
-1
-0.6
-1
-0.7
-1
-0.7
-1
-0.7
-1
-0.7
-1
-0.7
-1
-0.8
-1
-0.8
-1
-0.8
-1
-0.8
-1
-0.9
-1
-0.9
-1
-1
-1
-1
-1
-1
-1
-1
-1
-1
-1
-1
-1
-1
-1
-1
-1
-1
-1
-2
-1
-2
-1
-2
-1
-2
-1
-2
-1
-2
-1
-2
-1
-2
-1
-2
-1
-2
-1
-2
-1
-2
-1
-2
-1
-2
-1
-2
-1
-2
-2
-2
-2
-2
-2
-2
-2
-2
-2
-2
-2
-2
-2
-1
-2
-1
-2
-1
-2
-1
-2
-1
-2
-1
-2
-1
-2
-0.9
-2
-0.8
-2
-0.8
-2
-0.7
-2
-0.6
-2
-0.6
-2
-0.5
-2
-0.5
-2
-0.4
-2
-0.4
-2
-0.3
-2
-0.3
-1
-0.3
-1
-0.2
-1
-0.2
-1
-0.2
-1
-0.2
-1
-0.1
-1
-0.1
-1
-0.09
-1
-0.07
-1
-0.06
-1
-0.05
-1
-0.05
-0.9
-0.05
-0.9
-0.05
-0.8
-0.06
-0.7
-0.07
-0.6
-0.08
-0.5
-0.09
-0.4
-0.1
-0.4
-0.1
-0.3
-0.1
-0.2
-0.1
-0.1
-0.1
-0.04
-0.2
0.03
-0.2
0.1
-0.2
0.2
-0.2
0.2
-0.2
0.3
-0.2
0.3
-0.3
0.3
-0.3
0.3
-0.3
0.3
-0.3
0.3
-0.3
0.3
-0.4
0.3
-0.4
0.2
-0.4
0.2
-0.4
0.1
-0.4
0.07
-0.4
0.009
-0.5
-0.06
-0.5
-0.1
-0.5
-0.2
-0.5
-0.3
-0.5
-0.3
-0.5
-0.4
-0.5
-0.5
-0.5
-0.5
-0.5
-0.6
-0.5
-0.7
-0.5
-0.7
-0.5
-0.8
-0.5
-0.8
-0.5
-0.9
-0.5
-0.9
-0.5
-0.9
-0.6
-1
-0.6
-1
-0.6
-1
-0.6
-1
-0.6
-1
-0.6
-1
-0.7
-1
-0.7
-1
-0.7
-1
-0.7
-1
-0.8
-1
-0.8
-1
-0.8
-1
-0.8
-1
-0.9
-1
-0.9
-1
-0.9
-1
-0.9
-1
-1
-1
-1
-1
-1
-1
-1
-1
-0.7
-0.7
-0.8
-0.7
-0.8
-0.7
-0.8
-0.7
-0.8
-0.7
-0.8
-0.6
-0.9
-0.9
-0.6
-0.9
-0.9
-0.6
-0.9
-0.9
-0.6
-1
-1
-0.6
-1
-1
-0.6
-1
-1
-0.6
-1
-1
-0.6
-1
-1
-0.6
-1
-0.6
-1
-0.7
-1
-0.7
-1
-0.7
-1
-0.7
-1
-0.7
-1
-0.8
-1
-0.8
-1
-0.8
-1
-0.8
-0.9
-1
-0.9
-0.9
-1
-1
-0.9
-1
-1
-1
-1
-1
-1
-1
-1
-1
-1
-1
-1
-1
-1
-1
-1
-1
-1
-1
-1
-1
-1
-1
-2
-1
-2
-1
-2
-1
-2
-1
-2
-1
-2
-1
-2
-1
-2
-1
-2
-1
-1
-1
-2
-1
-1
-2
-1
-1
-2
-1
-1
-2
-1
-1
-2
-1
-1
-2
-1
-2
-2
-2
-2
-2
-2
-2
-2
-2
-2
-2
-2
-2
-2
-1
-2
-1
-2
-1
-2
-1
-2
-1
-2
-1
-1
-2
-1
-0.9
-2
-0.9
-0.8
-2
-0.8
-0.8
-2
-0.7
-0.7
-2
-0.6
-0.7
-2
-0.6
-0.6
-2
-0.5
-0.5
-2
-0.5
-2
-0.4
-2
-0.4
-2
-0.3
-2
-0.3
-2
-0.3
-1
-0.3
-1
-0.2
-1
-0.2
-1
-0.2
-1
-0.1
-1
-0.1
-1
-0.09
-1
-1
-0.07
-1
-1
-0.06
-1
-1
-0.05
-1
-1
-0.05
-1
-0.9
-0.05
-0.9
-0.9
-0.05
-0.8
-0.8
-0.06
-0.7
-0.8
-0.07
-0.6
-0.08
-0.6
-0.09
-0.5
-0.1
-0.4
-0.1
-0.3
-0.1
-0.2
-0.1
-0.2
-0.1
-0.09
-0.2
-0.003
-0.2
0.07
-0.2
-0.2
0.1
-0.2
-0.2
0.2
-0.2
-0.2
0.2
-0.3
-0.3
0.3
-0.3
-0.3
0.3
-0.3
-0.3
0.3
-0.3
-0.3
0.3
-0.3
-0.4
0.3
-0.4
0.3
-0.4
0.3
-0.4
0.2
-0.4
0.2
-0.4
0.2
-0.5
0.1
-0.5
0.04
-0.5
-0.04
-0.5
-0.09
-0.5
-0.2
-0.5
-0.2
-0.5
-0.3
-0.5
-0.4
-0.5
-0.4
-0.5
-0.5
-0.5
-0.5
-0.6
-0.6
-0.5
-0.6
-0.7
-0.5
-0.7
-0.7
-0.5
-0.7
-0.8
-0.5
-0.8
-0.8
-0.5
-0.8
-0.9
-0.5
-0.9
-0.5
-0.9
-0.5
-0.9
-0.5
-1
-0.5
-1
-0.6
-1
-0.6
-1
-0.6
-1
-0.6
-1
-0.6
-1
-0.7
-1
-0.7
-0.7
-1
-0.7
-0.7
-1
-0.7
-0.7
-1
-0.8
-0.8
-1
-0.8
-0.8
-1
-0.8
-0.8
-1
-0.9
-0.8
-1
-0.9
-1
-0.9
-1
-0.9
-1
-0.9
-1
-1
-1
-1
-1
-1
-1
-1
SCALARS strain_1 float
LOOKUP_TABLE default
-1.681151
-1.083956
1.076396
-4.294767
3.921678
-6.799214
6.860568
-9.153495
9.869217
-11.401102
13.104318
-13.583044
16.385711
-15.593930
19.762684
-17.449400
23.215766
-19.288203
26.832799
-20.996097
30.544484
-22.528744
34.353216
-24.010185
38.302936
-25.374089
42.323812
-26.611744
46.405018
-27.748557
50.622802
-28.787574
54.853012
-29.712292
59.233363
-30.555442
63.664235
-31.298076
68.131386
-31.929044
72.750978
-32.421625
77.329627
-32.972126
82.037676
-33.307249
86.799377
-33.594550
91.555133
-33.790242
96.431770
-33.870886
101.353132
-33.941171
106.265850
-33.897131
111.211890
-33.796035
116.159428
-33.600401
121.107464
-33.384078
126.124698
-33.102794
131.086083
136.058388
-32.701389
141.023968
-32.297778
146.022757
-31.857314
150.961895
-31.371872
155.849578
-30.806397
160.736521
-30.151810
165.592793
-29.562018
170.339735
-28.853120
175.075304
-28.163419
179.745236
-27.429109
184.288348
-26.670391
188.826606
-25.833142
193.259703
-25.087021
197.603261
201.878514
-24.273433
-23.390099
206.050734
-22.529890
210.037759
-21.711585
213.999582
-20.857196
217.732017
-19.936633
221.431184
-19.061404
225.060298
-18.239463
228.501068
-17.368920
231.715284
-16.579311
234.814553
-15.712613
237.748481
-14.837348
240.561802
-14.068403
243.252905
-13.240493
245.731821
-12.515361
248.016941
-11.726724
250.160772
-10.967010
252.176941
-10.235038
253.942094
-9.650008
-8.959784
255.580193
-8.327514
256.963102
-7.718281
258.221024
-7.183013
259.256628
-6.638863
260.075142
-6.121678
260.741259
-5.695139
261.272495
-5.264702
261.555750
-4.810470
261.648579
-4.536341
261.517043
-4.191422
261.226898
-3.914139
260.775068
-3.644110
260.058322
-3.439134
259.180928
-3.248575
258.160402
-3.132269
256.947119
-3.023889
255.497053
-2.981361
253.909060
-2.922716
252.135631
-2.912632
250.150707
-2.962543
248.116720
-3.069664
245.756083
-3.194121
243.366565
-3.329811
240.745245
-3.466055
237.886139
-3.687146
235.033207
-3.951640
232.018764
-4.206563
228.800613
-4.453523
225.474787
-4.813779
222.011355
-5.159567
218.408610
-5.547734
214.752429
-5.967600
210.892116
-6.372109
206.997044
-6.833571
203.010779
-7.249674
198.860423
-7.699684
194.713724
-8.223766
190.419192
-8.786908
186.078636
-9.296526
181.727073
-9.767857
177.206623
-10.324646
172.718768
-10.931372
168.190611
-11.453884
163.499434
-12.078383
158.899977
-12.628278
154.212862
-13.210101
149.516519
-13.776651
144.811298
-14.318292
140.160941
-14.955691
135.428142
-15.490368
130.725533
-16.121544
126.008582
-16.675599
121.381558
-17.231741
116.671045
-17.743243
112.060941
-18.306847
107.457827
-18.817274
102.924571
-19.367343
98.389217
-19.800949
93.881938
-20.292475
89.466013
-20.720444
85.076400
-21.121076
80.855987
-21.570645
76.589423
-21.962776
72.377055
-22.314195
68.312616
-22.599557
64.290964
-22.985026
60.342257
-23.234299
56.485417
-23.454882
52.722261
-23.673657
48.991715
-23.818016
45.371218
-23.918705
41.859796
-24.011496
38.424576
-24.040263
35.086477
-24.031927
31.869774
-23.967022
28.681678
-23.878778
25.693438
-23.745757
22.742866
-23.543141
19.862582
-23.259220
17.138018
-22.923272
14.494369
-22.535425
11.916382
-22.056053
9.474842
-21.604868
7.144280
-21.027093
4.836242
-20.341287
2.644949
-19.677379
0.587885
-18.886895
-1.356941
-18.015292
-3.232085
-17.114271
-5.006800
-16.083760
-6.704602
-15.006752
-8.326461
-13.807608
-9.828467
-12.545334
-11.224798
1.662732
-3.769943
4.547243
-6.341084
7.532015
-8.690443
10.590758
-10.979676
13.848872
-13.069717
17.149207
-15.202731
20.573789
-17.164947
24.172378
-18.974425
27.806316
-20.668370
31.559601
-22.312739
35.413594
-23.779147
39.349834
-25.167810
43.417512
-26.401126
47.542912
-27.571479
51.810032
-28.589549
56.077634
-29.565781
60.512296
-30.437249
64.872174
-31.144983
69.464429
-31.806271
74.019952
-32.317694
78.701214
-32.836493
83.398854
-33.206638
88.183606
-33.480392
92.961612
-33.682286
97.775799
-33.780232
102.691507
-33.847551
107.598359
-33.815042
112.486954
-33.677496
117.465621
-33.569224
122.403946
-33.299003
127.339887
-32.984643
132.327025
-32.654056
137.250571
-32.223927
142.128444
-31.840327
147.040188
-31.268068
151.895367
-30.699687
156.678185
-30.128958
161.491627
-29.522430
166.238418
-28.810358
170.867628
-28.134032
175.520227
-27.365236
180.016886
-26.617333
184.493770
-25.847572
188.786528
-25.113670
193.030918
-24.297645
197.254524
-23.410419
201.288356
-22.621017
205.251410
-21.758782
209.042383
-20.945537
212.760838
-20.110073
216.343562
-19.281422
219.757755
-18.441168
223.053969
-17.619238
226.208622
-16.781226
229.180084
-16.025847
232.019947
-15.207793
234.690448
-14.473282
237.213392
-13.660368
239.615470
-12.960700
241.686516
-12.255745
243.726716
-11.558526
245.482386
-10.863749
247.111156
-10.268340
248.525906
-9.631814
249.813325
-9.047108
250.883952
-8.547690
251.659438
-7.999423
252.395964
-7.569992
252.814007
-7.197060
253.128288
-6.706574
253.205299
-6.313543
253.073158
-5.991292
252.840544
-5.715124
252.351065
-5.442703
251.590355
-5.254858
250.726156
-5.049195
249.629950
-4.872813
248.391292
-4.755152
246.959749
-4.654018
245.297496
-4.695002
243.550875
-4.652743
241.580460
-4.696881
239.491090
-4.731854
237.064785
-4.857968
234.637302
-5.004624
231.993633
-5.120272
229.183317
-5.339802
226.221819
-5.584823
223.144577
-5.805212
219.914342
-6.072480
216.559168
-6.394546
213.044714
-6.742339
209.466054
-7.109716
205.759464
-7.486508
201.911685
-7.867123
197.969263
-8.321489
193.945262
-8.797081
189.852137
-9.250603
185.646753
-9.702733
181.315707
-10.275704
177.015535
-10.753864
172.570863
-11.233528
168.118149
-11.812011
163.621116
-12.353310
159.088416
-12.878019
154.477833
-13.470836
149.821025
-13.928681
145.211013
-14.572095
140.559665
-15.072609
135.860553
-15.631442
131.195529
-16.230774
126.561970
-16.807112
121.885069
-17.330961
117.322809
-17.867327
112.605092
-18.385089
108.000759
-18.910271
103.495958
-19.352200
98.957312
-19.842820
94.523740
-20.353364
90.036917
-20.801483
85.648544
-21.244899
81.414123
-21.650943
77.119710
-22.023668
72.903796
-22.425130
68.806830
-22.744128
64.726137
-23.013508
60.762120
-23.295324
56.859570
-23.535932
53.064224
-23.796494
49.292938
-23.991097
45.726298
-24.072953
42.143951
-24.158319
38.724489
-24.206772
35.342897
-24.177366
32.094170
-24.172624
28.887960
-24.049607
25.813526
-23.881624
22.842938
-23.706727
19.966314
-23.466958
17.153812
-23.101693
14.466857
-22.710668
11.921041
-22.263595
9.476225
-21.842004
7.099661
-21.209691
4.796112
-20.556015
2.630487
-19.876178
0.503138
-19.145266
-1.466890
-18.212383
-3.381154
-17.319274
-5.174320
-16.283816
-6.870779
-15.201636
-8.452560
-14.038153
-12.717118
-10.000752
-11.385470
0.543410
-2.732728
2.849043
-5.249738
5.708582
-7.715033
8.655733
-10.080857
11.842993
-12.294390
15.056040
-14.374304
18.283586
20.966510
-16.577844
24.492905
22.792951
-18.244788
28.222573
26.480839
-19.989488
30.104532
31.978899
-21.566901
34.000510
35.935790
-22.889471
39.857330
37.780451
-24.552534
41.839838
43.955581
-25.883434
48.374143
45.918727
-27.086533
51.378631
-28.213097
55.499095
-29.212993
59.827733
-30.230594
64.263081
-30.842315
68.781722
-31.575527
73.352572
-32.127770
77.820595
-32.648329
81.751635
-33.076399
87.533886
-33.400049
92.294637
-33.629193
-33.780315
97.094823
-33.862803
-33.786838
102.005707
-33.853039
-33.852857
106.901232
-33.819038
-33.891744
-33.803543
-33.707850
112.961283
-33.643601
-33.515576
117.485015
-33.413506
-33.256258
122.514503
-33.120223
-32.933583
127.592188
-32.658292
134.139310
-32.281135
142.598960
-31.834021
146.478235
-31.293945
150.420874
-30.753689
156.307867
-30.152581
161.140421
-29.605731
165.916015
-28.827088
171.472610
-28.128227
175.429754
-27.403837
179.841387
-26.497793
184.367550
-25.862910
188.865884
-25.251568
193.180165
197.240184
200.477266
-23.745059
204.559538
202.617448
-22.706359
208.765433
206.629716
-21.786054
210.578134
212.447573
-20.949999
214.269861
216.304677
-20.242209
217.880748
219.800713
-19.175055
221.480099
223.379312
-18.306849
224.799794
226.945436
-17.535138
229.092047
-16.680294
231.998987
-15.839746
234.816005
-14.861721
237.647961
-14.159493
240.202079
-13.496604
242.576695
-12.692356
244.734386
-11.986775
246.490811
-11.273620
248.797977
-10.631769
250.522508
-9.935774
-9.451971
252.026148
-9.201295
-8.832971
253.332250
-8.580229
-8.234526
254.540706
-7.961105
-7.710152
255.693058
-7.441428
-7.204381
256.250940
-6.697100
-6.970861
256.771920
-6.508129
-6.266477
257.177420
-5.845766
-6.116519
257.365097
-5.617076
257.372596
-5.235844
257.117057
-4.961001
256.753116
-4.689881
256.182949
-4.480152
255.391260
-4.291121
254.459383
-4.126339
253.036362
-3.923324
251.899001
-3.825041
250.439817
-3.790559
248.685420
-3.764046
246.788375
-3.787167
244.832766
-3.858135
242.766797
241.221761
-3.983923
239.501372
238.345037
-4.080509
236.831154
235.631723
-4.227186
232.894999
234.184036
-4.389323
231.379089
229.892049
-4.560983
226.898224
228.348657
-4.829468
225.059642
223.533879
-5.134195
220.077919
221.724179
-5.423797
217.436178
-5.778066
213.949553
-6.176094
210.186511
-6.581306
206.362055
-7.000687
202.489111
-7.365604
198.421528
-7.798519
194.460575
-8.290648
190.994835
-8.695300
185.905965
-9.230908
181.487724
-9.743068
-10.084655
177.095009
-10.422788
-10.654232
172.641622
-10.932103
-11.259970
168.156312
-11.471094
-11.775277
162.643379
-12.001119
-12.292205
158.823586
-12.644286
-12.894914
154.285269
-13.209715
-13.437437
149.672149
-13.762395
-14.007531
145.172179
-14.423408
141.347237
-15.018831
134.695717
-15.597332
130.958395
-16.164157
127.205241
-16.700332
121.616052
-17.232540
116.934680
-17.680200
112.389889
-18.356632
106.751412
-18.835432
103.011203
-19.357859
98.637830
-19.921351
94.218819
-20.397653
89.784285
-20.684108
85.453579
-21.272842
81.317165
-21.529861
78.297987
75.802689
-22.098819
73.925360
71.577390
-22.372612
69.555126
67.526117
-22.643674
65.552468
63.584695
-22.953816
61.560915
59.694148
-23.225638
57.522902
55.690356
-23.529332
53.743686
51.992862
-23.690225
49.917588
-23.864160
47.152005
-24.014607
43.701529
-24.061881
40.324158
-24.131329
36.901111
-24.089527
33.605597
-24.033382
30.398507
-23.920452
27.397269
-23.766423
24.828063
-23.544337
21.340736
-23.351141
18.515156
-23.118306
-22.924394
15.786053
-22.757409
-22.520869
13.151313
-22.277482
-22.080388
10.654886
-21.824018
-21.551931
7.760442
-20.976738
-21.270687
5.845222
-20.614980
-20.294351
3.684112
-19.559130
-19.888804
1.673907
-19.109951
-0.142383
-18.497909
-2.391997
-17.690029
-4.194567
-16.714428
-5.911867
-15.654508
-7.595653
-14.552609
-9.185507
-13.370981
-12.302427
-10.637577
SCALARS strain_2 float
LOOKUP_TABLE default
0.779158
0.512705
-0.390814
1.828784
-1.556563
2.856217
-2.892843
3.864387
-4.213650
4.672117
-5.659526
5.565976
-7.152811
6.302831
-8.717838
7.025235
-10.384421
7.702432
-12.077258
8.295361
-13.885217
8.816234
-15.718861
9.331948
-17.688002
9.737526
-19.665631
10.143353
-21.733671
10.553798
-23.851624
10.834644
-26.172645
11.017173
-28.423298
11.279610
-30.766100
11.459363
-33.183389
11.625338
-35.620369
11.707773
-38.169759
11.816995
-40.857817
11.865200
-43.508189
11.806522
-46.193061
11.792906
-48.967957
11.800888
-51.825527
11.655294
-54.659157
11.587572
-57.649947
11.485505
-60.655695
11.348666
-63.659746
11.172721
-66.695622
11.036399
-69.787656
-72.933267
10.840065
-76.078146
10.645418
-79.294445
10.422673
-82.471702
10.184617
-85.705508
9.922546
-88.887355
9.693220
-92.059094
9.401971
-95.329040
9.199796
-98.565162
8.909536
-101.779583
8.586944
-104.985807
8.333727
-108.137334
8.052261
-111.323297
7.778850
-114.435757
-117.537451
7.511114
7.184714
-120.618554
6.941312
-123.668647
6.685378
-126.643154
6.347664
-129.527315
6.056243
-132.459145
5.796586
-135.241208
5.474079
-138.009596
5.271456
-140.621128
4.987173
-143.236224
4.739510
-145.763977
4.469039
-148.219329
4.244210
-150.530848
3.996862
-152.762847
3.728547
-154.929833
3.584460
-156.947106
3.321061
-158.886877
3.062603
-160.710776
2.942908
2.709789
-162.421187
2.536645
-164.018889
2.355290
-165.517385
2.199556
-166.857938
2.017314
-168.095094
1.854634
-169.208607
1.752703
-170.123712
1.651118
-170.981728
1.545110
-171.678106
1.409029
-172.268770
1.319621
-172.655433
1.266833
-173.037173
1.195142
-173.123779
1.059771
-173.132337
1.054220
-172.979294
1.008309
-172.694639
1.006567
-172.312983
0.932579
-171.744252
0.990504
-171.047877
0.992553
-170.217364
0.968194
-169.252085
1.073820
-168.164532
1.108888
-166.926790
1.179094
-165.547907
1.197582
-164.077572
1.269128
-162.428729
1.422597
-160.704721
1.475110
-158.879986
1.606009
-156.861634
1.770026
-154.734974
1.919478
-152.561842
2.031126
-150.218159
2.288621
-147.830132
2.410996
-145.327418
2.574089
-142.734689
2.842578
-140.012280
3.067680
-137.220078
3.257348
-134.371665
3.546488
-131.464889
3.816158
-128.502103
4.047888
-125.427012
4.380086
-122.318599
4.589234
-119.062493
4.924494
-115.872932
5.260060
-112.604294
5.583893
-109.304312
5.903917
-105.953801
6.245176
-102.656676
6.575612
-99.180829
6.988054
-95.812335
7.316252
-92.440238
7.702810
-89.020533
8.044926
-85.553046
8.428161
-82.124173
8.860008
-78.785039
9.234593
-75.352937
9.658069
-71.956197
10.023585
-68.624000
10.431869
-65.314782
10.784885
-62.003033
11.177961
-58.778512
11.560915
-55.561539
11.949972
-52.392638
12.310574
-49.245268
12.710733
-46.176585
13.083636
-43.226510
13.392829
-40.250452
13.761414
-37.401182
14.069385
-34.565819
14.408593
-31.754126
14.646881
-29.104167
14.915622
-26.456302
15.176871
-23.956437
15.380903
-21.544481
15.605438
-19.152476
15.782228
-16.820485
15.942575
-14.646591
16.011394
-12.475951
16.080566
-10.366176
16.083276
-8.379764
16.142568
-6.544026
16.079412
-4.678726
15.967993
-2.997269
15.814771
-1.417590
15.673509
0.199963
15.416331
1.693281
15.158065
3.093623
14.810329
4.428332
14.365420
5.642727
13.940494
6.839320
13.402821
7.908281
12.837385
8.867134
12.189582
9.839390
11.506254
10.670267
-0.608252
1.699612
-1.877560
2.682916
-3.203399
3.643253
-4.570174
4.576693
-6.058315
5.439325
-7.588264
6.228164
-9.195124
6.973516
-10.822171
7.619176
-12.594870
8.278947
-14.400376
8.777049
-16.342580
9.287776
-18.281869
9.685699
-20.295738
10.105073
-22.419780
10.543025
-24.583169
10.837913
-26.811157
11.073264
-29.218493
11.352624
-31.578474
11.486087
-34.018491
11.667070
-36.526254
11.780861
-39.120151
11.830364
-41.796739
11.875784
-44.465576
11.902936
-47.204647
11.865982
-49.982160
11.834835
-52.862430
11.789506
-55.809757
11.709062
-58.705351
11.562856
-61.697537
11.409947
-64.749153
11.265127
-67.802412
11.132365
-70.883029
10.866184
-74.062725
10.659111
-77.177269
10.507244
-80.318377
10.251059
-83.492771
10.067864
-86.687562
9.772200
-89.846540
9.544417
-93.048670
9.255640
-96.232748
8.966534
-99.404003
8.744138
-102.524671
8.483529
-105.694768
8.170694
-108.781685
7.877959
-111.883054
7.554196
-114.943472
7.304017
-117.894009
7.026893
-120.879544
6.726416
-123.811472
6.512135
-126.683362
6.263016
-129.420797
5.927472
-132.196517
5.689674
-134.865765
5.437922
-137.428400
5.167533
-139.940435
4.926418
-142.355800
4.638549
-144.681679
4.420312
-146.914457
4.189816
-149.059362
3.985323
-151.111315
3.800572
-152.989148
3.565535
-154.851297
3.389619
-156.522385
3.110453
-158.126238
2.994240
-159.569393
2.810653
-160.910821
2.640976
-162.101005
2.522893
-163.207649
2.359436
-164.112876
2.263514
-164.957687
2.184085
-165.625672
1.999222
-166.175253
1.853112
-166.532014
1.840164
-166.855995
1.768626
-166.943386
1.681668
-166.937541
1.611170
-166.768551
1.633503
-166.498659
1.593021
-165.981267
1.567127
-165.394885
1.626709
-164.717400
1.611321
-163.878785
1.621748
-162.871575
1.644921
-161.735637
1.714729
-160.421999
1.772750
-159.017922
1.823090
-157.447003
1.924454
-155.826805
2.020890
-154.060447
2.114521
-152.125870
2.214334
-150.159564
2.359506
-147.998299
2.561953
-145.768942
2.671971
-143.455151
2.863475
-140.975840
3.149901
-138.431310
3.268667
-135.828797
3.507080
-133.058753
3.725147
-130.301212
3.971402
-127.374846
4.225970
-124.435762
4.449468
-121.448746
4.749458
-118.417988
5.025007
-115.280388
5.303197
-112.099820
5.640779
-108.871229
5.990590
-105.596023
6.256032
-102.328713
6.598952
-98.968053
6.969198
-95.595526
7.312165
-92.288164
7.644193
-88.871995
8.018042
-85.527135
8.435947
-82.175312
8.776899
-78.750551
9.145068
-75.400656
9.541571
-72.075705
9.919213
-68.669221
10.366024
-65.407591
10.708231
-62.189167
11.101792
-58.859100
11.525334
-55.706310
11.862239
-52.520343
12.225470
-49.426542
12.613617
-46.346753
12.988271
-43.341458
13.345694
-40.359734
13.609280
-37.513909
13.984706
-34.689121
14.268987
-31.885307
14.619404
-29.195211
14.844200
-26.603606
15.118723
-24.035724
15.377682
-21.536514
15.516695
-19.214715
15.674459
-16.883341
15.820868
-14.641969
16.011668
-12.520323
16.058433
-10.428039
16.098512
-8.395358
16.094791
-6.541878
16.015182
-4.685493
16.006684
-2.999484
15.826673
-1.339831
15.657906
0.241279
15.462752
1.747241
15.147573
3.137042
14.791033
4.437082
14.426849
5.701994
13.988209
6.864431
13.422919
7.929219
12.869132
8.970123
12.277669
11.519103
9.887508
10.733595
-0.144683
1.236932
-1.145467
2.275183
-2.379433
3.294027
-3.697931
4.207559
-5.124226
5.083052
-6.598646
5.863925
-8.074126
-9.318884
6.707044
-10.962419
-10.091609
7.302561
-12.707138
-11.914051
7.951218
-13.667995
-14.562090
8.507568
-15.534941
-16.549705
8.938889
-18.475020
-17.446161
9.505360
-19.486361
-20.527226
9.927915
-22.815291
-21.549540
10.314964
-24.355509
10.664499
-26.492693
10.924391
-28.741680
11.208049
-31.108052
11.433816
-33.566025
11.550836
-36.042790
11.679164
-38.551243
11.736645
-40.713961
11.831252
-43.981615
11.855088
-46.718804
11.884134
11.865884
-49.509857
11.795345
11.839149
-52.329389
11.679446
11.773777
-55.239815
11.586587
11.679077
11.598964
11.502647
-58.814444
11.403461
11.354855
-61.566796
11.281076
11.203181
-64.616542
11.128200
10.953808
-67.815371
10.861330
-71.866876
10.665196
-77.235921
10.449023
-79.763945
10.237464
-82.352041
9.990666
-86.173165
9.743649
-89.376493
9.527242
-92.559979
9.202574
-96.376895
8.967118
-99.072646
8.613395
-102.123901
8.304517
-105.290032
8.123428
-108.526266
7.903787
-111.637889
-114.560047
-116.872997
7.396460
-120.012318
-118.517546
7.023477
-123.054696
-121.516565
6.736685
-124.512493
-125.997602
6.466829
-127.347172
-128.863884
6.205117
-130.172830
-131.640589
5.868720
-133.009717
-134.465958
5.546833
-135.687515
-137.359516
5.353163
-139.143939
5.122700
-141.580605
4.807796
-144.021145
4.529108
-146.391723
4.357824
-148.669121
4.113184
-150.816334
3.842405
-152.918623
3.654704
-154.586326
3.434768
-156.868070
3.307782
-158.619468
3.033447
2.880270
-160.218693
2.820555
2.707101
-161.823350
2.665225
2.556333
-163.230629
2.505395
2.336689
-164.741242
2.332014
2.234373
-165.697602
2.081578
2.181149
-166.641180
2.054621
1.991245
-167.525963
1.833365
1.903256
-168.136715
1.772094
-168.932656
1.649745
-169.434486
1.598453
-169.751247
1.536216
-169.910113
1.423912
-170.019368
1.369433
-169.945024
1.361717
-169.639561
1.316464
-169.339538
1.285199
-168.855891
1.265788
-168.200844
1.263660
-167.440848
1.280395
-166.556908
1.340089
-165.555715
-164.858133
1.383526
-163.883578
-163.369812
1.392336
-162.482981
-161.869481
1.471014
-160.504158
-161.083877
1.586586
-159.545445
-158.708645
1.639942
-156.986277
-157.856095
1.749390
-155.928872
-155.016138
1.846017
-152.923073
-153.916513
1.975736
-151.294010
2.194869
-149.152597
2.288686
-146.807264
2.465297
-144.396257
2.650275
-141.878528
2.832648
-139.238811
3.068798
-136.643751
3.276908
-134.309175
3.529206
-130.892551
3.726261
-127.956967
3.953644
4.163546
-124.886160
4.396709
4.465802
-121.892330
4.598728
4.812353
-118.726912
4.885926
5.042268
-114.903060
5.205654
5.331042
-112.250878
5.555695
5.740541
-109.033399
5.878343
6.004886
-105.793837
6.196463
6.344359
-102.539823
6.583662
-99.831724
6.959052
-95.047136
7.303673
-92.295288
7.667282
-89.571358
8.029643
-85.479400
8.411755
-82.163201
8.750156
-78.746313
9.151494
-74.621806
9.600332
-71.871986
9.956086
-68.649748
10.422683
-65.360523
10.731226
-62.077276
11.090619
-58.853346
11.560770
-55.804064
11.816909
-53.533101
-51.721396
12.372925
-50.227569
-48.586739
12.641370
-47.063201
-45.584470
12.999283
-44.029880
-42.583364
13.331467
-41.064545
-39.655537
13.681428
-38.105600
-36.680259
14.030767
-35.287167
-33.955760
14.318169
-32.407656
14.607682
-30.326887
14.904815
-27.800805
15.173152
-25.268704
15.370785
-22.748089
15.611247
-20.366000
15.741099
-18.018388
15.909960
-15.820353
15.968730
-13.960772
16.088314
-11.451040
16.110297
-9.384996
16.122622
16.058450
-7.496887
16.081363
16.058001
-5.601537
15.953700
15.972595
-3.838650
15.935631
15.800399
-1.783991
15.591385
15.743904
-0.449453
15.493747
15.327082
1.001573
15.082381
15.275020
2.411091
14.885955
3.633870
14.616113
5.070364
14.217446
6.242349
13.736633
7.392314
13.164184
8.450933
12.499667
9.405199
11.887199
11.242575
10.301360
SCALARS strain_3 float
LOOKUP_TABLE default
6.191383
3.967557
-4.154502
16.118368
-14.902178
25.622853
-26.072026
34.683804
-37.618046
43.344561
-49.560682
51.562552
-61.895946
59.363554
-74.572956
66.727955
-87.652683
73.651214
-101.057381
80.149895
-114.814319
86.254579
-128.899998
91.913959
-143.284539
97.147419
-157.967852
101.973904
-172.971383
106.387471
-188.205678
110.397758
-203.729275
114.001210
-219.452781
117.211951
-235.428795
120.042983
-251.589941
122.505480
-267.952711
124.590489
-284.460411
126.317461
-301.111502
127.700435
-317.881053
128.743219
-334.777754
129.456888
-351.733723
129.840908
-368.756203
129.940018
-385.816854
129.727778
-402.899996
129.232390
-419.955789
128.483512
-436.989060
127.453672
-453.985141
126.198425
-470.902464
-487.705376
124.703529
-504.394780
122.993234
-520.936984
121.069944
-537.312908
118.952512
-553.486907
116.661399
-569.455490
114.216443
-585.185481
111.601929
-600.652889
108.863607
-615.832333
106.002374
-630.733063
103.026375
-645.269610
99.948206
-659.477130
96.775090
-673.319490
93.555239
-686.754164
-699.783619
90.266102
86.928566
-712.381996
83.565000
-724.540448
80.165512
-736.220467
76.779788
-747.426409
73.383313
-758.122647
70.003286
-768.314083
66.624986
-777.965550
63.300060
-787.096128
60.004512
-795.644293
56.766515
-803.637921
53.602607
-811.036006
50.490697
-817.856152
47.457035
-824.070031
44.515698
-829.681612
41.658260
-834.680676
38.907106
-839.036932
36.258676
-842.785627
33.698255
31.281373
-845.894551
28.945998
-848.364727
26.756910
-850.216681
24.688690
-851.404577
22.749041
-851.980687
20.933479
-851.925555
19.255095
-851.227478
17.709885
-849.896801
16.299276
-847.946726
15.009451
-845.384650
13.858956
-842.199893
12.844743
-838.424709
11.952589
-834.050400
11.194112
-829.073630
10.557079
-823.547639
10.049193
-817.450545
9.657703
-810.801934
9.405958
-803.610704
9.253411
-795.893971
9.224396
-787.671367
9.300266
-778.968835
9.486366
-769.766961
9.765542
-760.118976
10.122586
-750.036257
10.606308
-739.516398
11.152651
-728.598562
11.793825
-717.282351
12.507297
-705.617173
13.289621
-693.587511
14.159777
-681.258823
15.069895
-668.610276
16.055087
-655.656048
17.072855
-642.456822
18.151427
-629.004362
19.253225
-615.347153
20.420206
-601.476966
21.602989
-587.427132
22.822091
-573.238749
24.050631
-558.894356
25.307155
-544.436552
26.568178
-529.885909
27.842004
-515.277241
29.112482
-500.601342
30.403060
-485.900802
31.664891
-471.176183
32.936533
-456.453998
34.197514
-441.763154
35.437028
-427.119884
36.661967
-412.535545
37.843016
-398.022924
39.019211
-383.615333
40.163741
-369.318234
41.272702
-355.134685
42.343652
-341.095059
43.379052
-327.220452
44.366722
-313.509555
45.320813
-299.979050
46.225277
-286.653009
47.081551
-273.518829
47.883362
-260.620636
48.614107
-247.949688
49.302145
-235.516428
49.925991
-223.316989
50.482300
-211.373017
50.979871
-199.705103
51.393866
-188.305544
51.737976
-177.161771
52.018603
-166.322253
52.205998
-155.745604
52.326097
-145.473401
52.336925
-135.482389
52.274208
-125.791167
52.109149
-116.381825
51.855031
-107.288643
51.493328
-98.483418
51.029483
-89.967210
50.455251
-81.763132
49.761952
-73.844383
48.953973
-66.223353
48.026080
-58.886894
46.953406
-51.844909
45.761397
-45.086296
44.409139
-38.611624
42.929872
-32.402439
41.302689
-26.476467
39.506688
-20.828371
37.559022
-15.436362
35.421189
-10.310731
33.142617
-5.424768
30.654521
-0.793203
27.997529
3.582886
25.144868
7.735146
22.079513
11.659064
18.818165
15.346792
-6.489731
13.989453
-17.354037
23.588008
-28.628659
32.757318
-40.292012
41.515817
-52.338156
49.836514
-64.777242
57.720331
-77.593556
65.163712
-90.770919
72.174379
-104.278976
78.753659
-118.139571
84.911734
-132.316046
90.621629
-146.811195
95.916420
-161.590828
100.775480
-176.660676
105.234851
-191.967435
109.294413
-207.547715
112.942313
-223.331548
116.183856
-239.329213
119.031564
-255.517109
121.507320
-271.883489
123.617334
-288.393142
125.368360
-305.025478
126.764130
-321.755520
127.805052
-338.581270
128.521758
-355.464136
128.944404
-372.364483
129.032852
-389.315460
128.830880
-406.244303
128.339358
-423.140197
127.566468
-439.966503
126.566307
-456.749044
125.306975
-473.390108
123.811319
-489.914091
122.119279
-506.301444
120.223385
-522.498390
118.126502
-538.512742
115.857239
-554.286367
113.412097
-569.810458
110.840226
-585.073248
108.127367
-600.043959
105.306578
-614.711874
102.358679
-629.006138
99.342208
-642.951137
96.246252
-656.534230
93.072671
-669.691369
89.855545
-682.416279
86.595706
-694.719639
83.311653
-706.536533
80.012500
-717.885065
76.710290
-728.747103
73.414735
-739.072436
70.138401
-748.879582
66.894355
-758.139769
63.682523
-766.840815
60.538396
-774.979294
57.428227
-782.523974
54.401197
-789.466128
51.443506
-795.808659
48.558020
-801.536004
45.787545
-806.656999
43.087076
-811.126232
40.505803
-814.971600
38.023119
-818.183832
35.664828
-820.752232
33.405912
-822.663699
31.265836
-823.929462
29.267931
-824.576458
27.396452
-824.571991
25.636707
-823.925418
24.021300
-822.633848
22.527662
-820.723202
21.166960
-818.178925
19.952766
-815.014244
18.833720
-811.244858
17.884989
-806.864463
17.041478
-801.903415
16.331969
-796.356388
15.745637
-790.248872
15.282410
-783.576057
14.939747
-776.359998
14.726392
-768.609510
14.622243
-760.376506
14.618467
-751.625368
14.718408
-742.406968
14.916651
-732.717012
15.225312
-722.606833
15.635068
-712.049196
16.130258
-701.094502
16.687363
-689.780884
17.334198
-678.060608
18.048708
-666.032904
18.834311
-653.670491
19.687020
-641.014504
20.594095
-628.075269
21.558943
-614.875347
22.571738
-601.442697
23.613435
-587.798397
24.697662
-573.968491
25.823867
-559.970131
26.977430
-545.801979
28.128502
-531.542786
29.322963
-517.168192
30.522249
-502.727668
31.726822
-488.213962
32.935180
-473.656491
34.134177
-459.071005
35.340333
-444.508342
36.535157
-429.949621
37.704942
-415.424304
38.874075
-400.973949
40.008928
-386.601143
41.130425
-372.306963
42.220094
-358.138863
43.278369
-344.082857
44.300884
-330.173665
45.296970
-316.412891
46.234375
-302.844625
47.120440
-289.437717
47.966933
-276.235789
48.771916
-263.231108
49.518329
-250.476124
50.217403
-237.927929
50.837951
-225.632569
51.408800
-213.584773
51.896279
-201.795871
52.316556
-190.269934
52.689704
-179.014385
52.970822
-168.028857
53.175607
-157.349101
53.291861
-146.940126
53.317199
-136.827912
53.251703
-127.009159
53.098320
-117.481064
52.848309
-108.267636
52.490023
-99.338774
52.046495
-90.709698
51.473833
-82.383962
50.778902
-74.358240
49.965285
-66.621961
49.031976
-59.190817
47.963011
-52.037110
46.760350
-45.180980
45.425541
-38.610310
43.924045
-32.320337
42.280773
-26.318512
40.477795
-20.576146
38.508312
-15.124561
36.370012
-9.914090
34.037585
-4.979492
31.539416
-0.291607
28.853136
4.149021
25.976892
8.360811
22.880981
19.572339
12.330460
16.069153
-2.165936
10.101239
-11.037113
19.879841
-21.746561
29.203293
-33.074049
38.125654
-44.873120
46.605386
-56.990562
54.668727
-69.049641
-78.984174
63.027554
-92.161252
-85.612169
69.589334
-105.789936
-99.399345
76.220586
-112.938012
-119.998552
82.349348
-127.182982
-134.425887
87.267504
-148.781782
-141.270184
93.948429
-156.034161
-163.750761
99.002263
-179.974944
-170.901094
103.649083
-190.933867
107.874151
-205.744317
111.693469
-221.396004
115.778338
-237.329905
118.248242
-253.527384
120.850061
-269.765803
123.112439
-285.778238
125.016328
-299.571158
126.567334
-319.868750
127.780745
-336.640771
128.672354
129.124846
-353.579272
129.443462
129.307179
-370.549018
129.456701
129.491864
-387.548553
129.193403
129.341733
128.934976
128.605519
-408.280239
128.260304
127.802754
-423.848574
127.319932
126.690982
-441.002017
126.090856
125.288245
-458.378699
124.165090
-480.386182
122.512237
-508.586533
120.634608
-521.668510
118.537256
-534.694090
116.275964
-553.895331
113.904251
-569.642441
111.781995
-585.151346
108.510877
-603.173474
105.657424
-615.673117
102.719405
-629.874088
98.987347
-644.066086
96.516382
-657.970686
93.979286
-671.509424
-683.996797
-693.997287
88.189411
-706.427575
-700.307413
83.899521
-718.871824
-712.478978
80.396448
-724.236206
-729.967331
77.071171
-735.218241
-741.118551
74.102947
-745.698046
-751.186691
70.067329
-755.851898
-761.347749
66.773024
-765.404287
-771.606256
63.497815
-777.395155
60.273863
-785.236005
57.107850
-792.880904
53.396105
-800.050937
50.886460
-806.670850
48.018146
-812.587842
45.131041
-817.784570
42.383516
-821.833145
39.699693
-826.930659
37.163748
-830.410183
34.806555
32.881470
-833.243063
31.798735
30.684370
-835.451725
29.606781
28.410742
-837.017216
27.471541
26.481134
-838.249824
25.508417
24.528945
-838.155819
22.833869
23.770935
-837.767596
22.146856
21.229035
-836.948179
19.585700
20.590930
-835.613173
18.689308
-833.012114
17.478389
-830.142663
16.403888
-826.675398
15.366292
-822.597153
14.550553
-817.918778
13.854507
-812.667663
13.321634
-805.683420
12.702088
-800.181806
12.340253
-793.548824
12.109449
-785.979900
11.974315
-778.110411
11.958182
-769.809891
12.042964
-761.229608
-755.104270
12.227614
-748.602064
-744.055690
12.550059
-738.350186
-733.717447
12.910311
-723.446788
-728.066947
13.386071
-717.544505
-712.142098
13.790422
-701.014340
-706.493642
14.598360
-694.505946
-688.857914
15.310701
-676.301098
-682.459180
16.107410
-667.023395
16.962517
-654.836149
17.874107
-641.721612
19.057552
-628.565784
19.904288
-615.186438
20.943434
-601.519622
22.037132
-588.055317
23.184486
-576.467305
24.294564
-559.444676
25.509415
-545.141450
26.649946
27.444846
-530.723312
28.288779
28.835574
-516.219713
29.562811
30.110717
-501.660502
30.783872
31.306346
-483.991531
31.981146
32.561776
-471.902007
33.204037
33.781588
-457.652075
34.499173
35.073150
-443.161673
35.714681
36.257374
-428.967269
37.231146
-417.205742
38.363546
-396.573436
39.507613
-384.993911
40.633468
-373.617731
41.742213
-356.620196
42.781401
-342.568956
43.646535
-328.666062
44.826728
-311.970199
45.776319
-300.855140
46.678134
-287.898426
47.683749
-274.841566
48.333424
-261.912101
48.928419
-249.351191
49.868673
-237.416253
50.285125
-228.618272
-221.552823
51.052172
-216.016430
-209.420383
51.454275
-203.630219
-197.902036
51.851636
-192.148000
-186.620659
52.147900
-180.906089
-175.637183
52.498837
-169.598174
-164.363523
52.691197
-159.046079
-154.088466
52.810318
-148.256226
52.834707
-140.618574
52.777143
-131.122060
52.574665
-121.607759
52.343268
-112.313455
51.998692
-103.313881
51.533678
-94.655898
50.964253
-86.472393
50.270810
-79.692311
49.455490
-70.229025
48.547067
-62.696816
47.800651
47.189862
-55.452217
46.611178
45.945888
-48.498268
45.262237
44.531815
-41.825294
43.818609
43.057545
-34.162835
41.347845
42.209950
-29.138802
40.424384
39.500561
-23.509688
37.486894
38.509287
-18.076214
36.276959
-13.397530
34.635629
-7.621764
32.346085
-2.845044
29.788458
1.681502
27.021285
5.972524
24.065800
10.047493
20.987036
18.178693
13.888108
SCALARS stress_1 float
LOOKUP_TABLE default
-54583159.157032
-35468470.442544
35429821.736446
-139991315.532938
128654423.304052
-221420300.915121
225042766.616649
-299575239.608349
325367018.510269
-373998934.605210
429479489.524513
-445036110.671798
536905986.347200
-512082678.644145
647351975.822700
-574959357.210068
761605396.482275
-634700787.588646
879436969.248575
-690635838.084648
999619118.731138
-742144978.221924
1123364027.469568
-790605076.305243
1249902308.229957
-835608981.553685
1379660605.778400
-876487068.803280
1511884128.428007
-914829528.741847
1647099283.014808
-949050126.431909
1784681786.008470
-979315433.014268
1924501177.713761
-1006887628.793695
2066427377.279822
-1031016111.294037
2211360046.636715
-1052538252.968280
2357464274.707091
-1070015887.183718
2505608461.952272
-1084547684.628168
2655185884.990139
-1097332972.285876
2806457842.055523
-1105965420.992875
2958490823.992795
-1112988458.038182
3112052856.888573
-1115895661.804843
3266899123.430674
-1116788985.808369
3421945975.783991
-1115735190.658298
3577537526.409850
-1111476003.338877
3733934791.621359
-1105898596.912631
3890072859.879843
-1097252896.442085
4046293491.350196
-1087049806.833208
4202186852.572021
4357980297.631933
-1074536606.773816
4512641119.147813
-1060619781.622865
4666724633.127997
-1044923111.685125
4819590735.885599
-1026910444.554381
4971434295.428956
-1008353322.605342
5121566668.375949
-987650915.353516
5270362052.508423
-966607863.556659
5416329270.365979
-943032900.425509
5560906915.887022
-919337156.639545
5703635391.306382
-894230203.487782
5842775688.788953
-868256571.797914
5979751476.343076
-842204812.405971
6113723689.985429
-814801726.366140
6244479668.099059
6371834812.474154
-786606770.436175
-758917857.522045
6495755178.962498
-730705196.381505
6615747556.033755
-701973540.068739
6732627897.165002
-672709799.567996
6844625602.669350
-644195785.706967
6953081244.406921
-615387111.696392
7056599266.237842
-586630806.137470
7156160686.248728
-558274509.936172
7250059216.143149
-530272035.693698
7339290799.937786
-502660340.620786
7423984439.257929
-475475439.240360
7503874792.041982
-448212722.536666
7578074488.071790
-422630313.485613
7646876417.433971
-397010574.766676
7710916309.605604
-372095539.434042
7769043192.298595
-348527148.088910
7821158197.669502
-325279137.933681
7867828884.977247
-302893687.499615
-281213167.910836
7908562558.073616
-261336483.315559
7944076302.592242
-242531719.072739
7973302242.393248
-224309989.400528
7996908874.953711
-207182775.204896
8014123518.055479
-190793769.235258
8026350491.105692
-175687784.241029
8031344009.956135
-162212743.049902
8031850705.865731
-149011125.958306
8025379034.686267
-138136862.168643
8013480771.824881
-127477873.750848
7995480926.758652
-118808667.680831
7971835617.269424
-110756234.481513
7942229406.607785
-103881488.980587
7907100240.102597
-98776889.396205
7866217565.605643
-94300872.625999
7820214478.375851
-90717371.122952
7768827045.960231
-88130569.628141
7711263519.461157
-86934860.289779
7649159664.660476
-87249353.779006
7581659654.730493
-88717742.845236
7509202611.148288
-90441541.706622
7431947338.937951
-93505340.886087
7349712156.029547
-97897460.976490
7262982653.220675
-102685190.126048
7172116926.214902
-108546153.075834
7076128076.184540
-114875317.974066
6977191034.380173
-122857037.413603
6874302236.052383
-131199609.612597
6767212344.295204
-140627177.093972
6656328324.890481
-149963007.997602
6541988876.479259
-160144800.689857
6424979254.913325
-171878243.318951
6304670657.068555
-183301440.625959
6181733320.413688
-195250540.454327
6056276003.746322
-208352227.092145
5927771454.465257
-221118803.062337
5797230727.516311
-234305954.278284
5664814980.220004
-248964890.958141
5530994313.600430
-262854203.163505
5395421368.673343
-277352217.269083
5258273122.915817
-292298573.258197
5119316011.117115
-306941959.427276
4980463996.676037
-322038061.689705
4839731038.686612
-337049124.185358
4698768956.547641
-351535695.054110
4558261689.048384
-366989845.982853
4416386753.361149
-382153255.494509
4274877558.501689
-396896543.119415
4133286983.415820
-411761557.005784
3991874771.345785
-426146463.363431
3851456545.385616
-441099507.809308
3711407312.777558
-455051306.326737
3572410448.467427
-468921102.907377
3433677401.619190
-482465441.386334
3296465881.405154
-495930927.528777
3160378764.536304
-508468791.396304
3026527480.333161
-520472482.449312
2893089215.584987
-532518074.905955
2761929345.534026
-543573892.148353
2632420476.664770
-554591946.168167
2505052058.602510
-564705012.652288
2379508275.753461
-573652687.592376
2255919587.812852
-581959774.370552
2134952373.421730
-590480262.900198
2016261625.892276
-596674866.641714
1899696312.318522
-604002913.430205
1785548331.637942
-609269474.804347
1674289806.788013
-613393182.451029
1566146818.784488
-617094883.908929
1459692735.017827
-619705139.013151
1356512001.972520
-621091933.075878
1255506561.265521
-621158984.010494
1157671929.607812
-620774264.972628
1062940452.163363
-618496829.727446
970866465.947925
-615113625.657071
881514564.273682
-610935900.300177
794930273.773340
-604816676.734116
711636093.993913
-597576613.028825
630776995.411554
-588149758.035164
553253485.721491
-578223051.448362
478423857.782925
-566487464.798755
406350634.533329
-553596239.250312
337540777.284888
-538010406.489923
271140199.201569
-520925337.751494
207916499.064293
-502586132.268930
147492232.568291
-481534847.502630
89831570.189713
-458638610.843055
33934475.623790
-434519917.367555
-18481180.348557
-407997612.544869
-68170004.415145
-379267925.530624
-115658403.412006
-348215225.637004
-160176990.105235
-315626178.324407
-203103575.487417
-280843304.756801
-242407155.863323
55111079.634319
-121700023.104205
149399699.587709
-204912849.648019
247677472.410213
-284189776.457034
348373652.937862
-358958918.523837
453994195.866814
-431090782.989229
562624292.033100
-498471882.314534
674674202.202814
-562956339.640555
789799628.915558
-622660655.733386
908280042.859149
-679864937.733828
1030198637.104451
-732440490.251420
1155390443.964574
-781683204.278751
1282809618.580318
-826744124.878343
1413502715.038301
-868198247.042783
1546930334.409387
-906539491.529827
1682864043.381393
-941408965.332061
1821269052.040935
-972301495.590286
1962049505.607093
-1000316316.835765
2105301073.861714
-1024768644.514070
2249780458.180432
-1045972175.382954
2396420700.798078
-1064126248.583220
2544990734.184317
-1079117118.802684
2694737837.026966
-1091326701.478578
2845694261.943902
-1100215267.298720
2997940519.326515
-1106506725.325634
3151050061.331357
-1110417362.543566
3304628874.654586
-1111687153.788548
3459627279.757525
-1110221420.427876
3614699766.726793
-1106367803.367518
3769436220.180267
-1100684913.600062
3924442284.274503
-1092357409.953199
4078995371.479164
-1082175349.794224
4233405086.263916
-1070075315.959168
4386982736.785310
-1056012015.275724
4539611331.208243
-1039545528.962972
4691175948.072318
-1022645183.543834
4841166943.385872
-1003775120.690373
4989434275.392077
-983789991.082067
5136042916.247489
-962187256.077871
5281024224.343493
-939165642.513816
5423786071.844984
-915712379.600642
5563768768.533810
-890439298.470812
5701101694.879634
-866149851.577310
5836095301.117288
-839752546.357367
5967613822.810466
-813658231.568739
6095477978.646986
-785806382.039118
6220305656.033987
-758331106.979244
6341752557.511070
-731152274.842101
6458685552.860084
-703013682.986644
6572575109.792937
-674444984.771827
6681127234.849231
-646742304.650636
6785812065.357829
-618927355.677255
6885989497.631839
-591265576.835931
6981196687.383171
-563891004.727864
7072594264.393673
-537005894.633732
7157755374.749960
-510349891.006519
7238118894.312159
-484058536.978688
7313992872.557345
-459070473.604423
7382982659.728691
-434307603.406646
7447575377.303274
-410021051.744314
7506325422.914726
-386475645.296902
7560033872.571387
-364497077.110256
7607679931.758674
-342580138.020408
7648754238.406648
-322499004.620218
7684727542.148942
-303110091.893934
7714235548.314418
-284088966.364478
7738603620.911416
-266129072.929479
7756107017.268798
-249856298.573187
7767775013.246689
-234619093.661967
7773652338.173950
-220371883.101790
7774064319.754152
-207513199.790287
7767729195.620927
-195145170.250378
7755462025.024859
-184123621.309759
7737897973.599581
-174780373.717842
7713559516.743893
-166642925.692781
7684064860.091427
-158848572.515253
7648475692.971045
-152743436.403412
7607215929.008039
-147807652.028394
7560689569.383056
-143847575.991399
7508369361.494898
-140917959.111782
7450545794.672426
-139545159.764248
7387969898.697486
-138930784.619937
7319620218.289404
-140028916.045215
7246509927.230023
-140925590.641282
7168962564.769931
-144000298.774507
7086007616.081434
-147422173.194305
6998837866.641612
-151555472.267044
6906596031.552832
-157369204.289153
6811195461.909123
-163098319.931771
6710862875.344122
-170679047.334773
6606954848.873578
-178346337.169297
6499580753.599863
-186871977.427003
6387918143.000052
-196407846.779029
6273831498.089901
-206400699.591742
6155956242.276546
-216770073.935081
6035306064.723958
-228667836.323629
5912300456.386292
-240096878.749046
5786232222.584067
-251814675.577700
5657407293.958333
-264660057.332514
5527428055.986164
-278209625.770315
5395667163.613378
-291254211.414028
5260940497.707510
-304828922.403526
5125802173.815576
-318837476.652194
4988739216.656899
-332790988.378184
4851255989.630280
-347381677.869586
4712382541.751472
-361414640.813292
4572523719.966289
-375434971.880439
4433201447.821746
-390032728.531426
4292558967.958889
-404736867.054342
4152360387.018763
-419009349.667341
4012063244.548384
-433407465.830821
3872351479.337012
-447673776.137643
3733139312.556954
-461414121.899989
3593932823.450457
-475256363.554165
3456021264.580287
-488300226.865340
3318976863.493461
-501219147.363848
3183057293.057516
-514032143.267844
3048487740.061712
-526102542.412433
2914643493.670018
-537857738.406227
2783698260.523478
-548986999.092673
2653371981.942617
-559886126.228599
2525134980.255369
-569819579.805665
2399000392.938813
-579148041.284270
2274834698.773868
-587578902.499519
2152994486.932844
-595473175.294858
2033297414.579706
-603094695.200622
1916100304.347163
-609871713.747148
1801251841.407521
-614723450.777881
1688390022.768193
-619796725.674941
1578969447.523210
-623061944.351712
1471855994.305278
-625895314.346870
1367752056.278365
-627314592.964258
1265638530.458223
-627877400.047321
1166642899.782328
-627716217.204672
1070993597.562864
-625569991.818434
977817188.362599
-622453589.200787
887276569.493714
-618303164.882069
800286513.815410
-612251212.627449
715140684.569931
-604672679.061291
634358874.311706
-596209174.401748
555481976.509472
-586039049.429742
480424188.022428
-574377318.058656
407332561.857988
-560911741.600673
337286041.258395
-545460822.984929
270676287.231065
-528419800.124807
205796350.713472
-509491029.879504
144512452.713030
-488986935.935913
86118856.620200
-466726021.223169
30776671.294179
-442396047.053455
-22645260.031127
-415604030.887169
-72953636.496518
-386889983.958218
-120853018.563321
-355973259.430568
-166264217.372336
-322707198.608064
-287204370.654674
-208975795.916150
-249217460.577811
18371701.060642
-88226628.539611
94829017.329842
-172538602.300071
187776053.187144
-253048382.543884
286486347.286613
-330037228.411854
388723370.261987
-402979724.217088
494381733.547501
-472534243.022111
599475688.460211
686605838.938074
-544254845.089729
801871446.351191
744306685.336673
-600450108.008673
921367224.058447
865477747.511244
-657207605.165821
984100661.535559
1045466178.395820
-709579127.238425
1109081674.571282
1172647389.758927
-751742344.347618
1299484919.647047
1233081985.782261
-808955341.349767
1363361464.254542
1431403450.801007
-852513046.012900
1574824493.054125
1494496858.016756
-891976572.990296
1672742998.027262
-927608727.048050
1803893128.904928
-960494429.092131
1943209575.200736
-995670999.647775
2085427895.923652
-1017123291.168344
2229989647.635308
-1039128380.402240
2375466206.719881
-1058768309.687477
2518912190.250750
-1074909807.726156
2642991149.104398
-1088963138.737262
2826353849.542339
-1099170007.510449
2978073799.094570
-1106587974.770553
-1110877267.312312
3131572085.205142
-1114087382.553205
-1112762115.738240
3285635545.876345
-1114149672.543400
-1114306755.291414
3440426563.038242
-1112042934.882116
-1113514188.229969
-1110771386.864170
-1107319680.609844
3630342830.370220
-1104690277.027906
-1101147802.274701
3772941447.602069
-1097646573.032469
-1092082824.580117
3930162849.233851
-1086996119.538747
-1080418924.466819
4090243718.317442
-1071556889.650601
4293967500.575722
-1057566815.286715
4556634267.867925
-1042259198.053321
4677847069.549678
-1024915024.481243
4800259879.519030
-1006617098.549851
4980626337.202336
-986338900.445506
5128987310.763801
-968775001.893558
5276226406.346776
-941115282.470808
5447097688.168511
-917557445.042962
5566575058.528820
-892933686.858857
5702287413.353936
-861525839.150877
5839092891.867868
-840596466.638276
5973253253.325523
-819355839.823778
6105132718.561172
6226786840.267824
6324393962.009744
-770317610.700981
6447197039.754589
6387078342.740726
-734509863.504479
6570340109.031961
6507392238.222785
-704676366.539935
6624285864.609879
6681428653.261099
-676504179.309365
6733927698.561207
6793289955.020179
-650967634.377324
6840012993.567663
6895305372.971817
-617106355.501300
6943621193.203552
6999393743.583614
-588643196.109653
7041561274.911172
7104344887.729924
-561171988.911663
7165780485.249188
-533711200.438589
7248229578.290476
-506725229.971111
7329643442.777802
-474837250.080861
7406929770.014302
-452997832.006635
7479334940.542893
-427836035.421643
7545797000.351082
-403067496.782346
7604966439.479822
-379332619.528026
7651728717.879071
-356201844.899919
7713437941.744203
-334180995.979904
7757588354.417293
-313598987.811564
-296901053.447940
7795817009.192116
-287616484.452101
-277492254.549058
7828778138.381782
-268498771.532236
-257617958.194492
7855877777.236875
-249650512.425717
-240951707.839129
7881007171.329797
-232429824.431469
-223885692.203973
7890749415.023989
-208258969.824634
-217085355.251085
7898725137.207417
-202562709.745442
-194331608.765185
7902399142.269311
-179087248.656632
-189052688.199829
7899995957.823420
-171753671.359018
7890029064.271749
-161485211.848151
7874806503.858616
-151941201.420990
7854071057.553749
-142269042.906327
7827770657.217271
-135381230.312301
7795098909.943213
-129136677.906884
7756772901.365208
-124350414.531465
7704086768.835891
-119083221.036361
7662020164.847702
-116849544.963568
7609162210.505029
-113951628.237626
7548550584.778037
-113365884.574104
7484363847.757343
-113817938.878972
7415580322.392903
-115376243.292104
7343813241.375381
7293005282.147894
-117367463.976372
7236015371.237457
7197402053.180693
-120601391.520213
7148095980.527757
7108727474.183082
-124784767.652521
7019605561.519938
7059220576.954724
-130087208.512156
6967444867.364245
6920084379.454745
-134503238.498367
6821870143.793474
6870802703.638736
-143041788.257230
6763965130.071774
6714827924.805512
-151184133.402137
6602289988.484057
6656503926.665554
-159264924.212471
6518045799.342879
-168304109.437648
6407832477.500267
-179105632.764558
6289223139.748511
-191019839.312566
6168906032.634133
-200624786.500178
6046381739.192296
-212240287.110172
5920423173.573595
-223630111.711463
5795970140.986279
-236766229.643759
5688244887.060505
-249750095.438373
5529177346.950756
-263303784.226554
5395632885.418234
-276257477.726676
-285370691.663041
5259712425.891307
-294892412.914316
-301620413.241517
5122671889.089298
-309654149.532772
-316701269.220030
4984673608.480945
-324230936.397525
-330267642.377203
4816574095.343207
-338116542.520451
-344990655.155040
4700853745.518649
-352517391.795038
-359791790.019352
4563995702.369462
-368151923.036980
-375248099.023234
4424895696.194083
-382712976.474883
-390223242.854833
4287891575.196847
-401854194.172352
4174513155.638577
-415140451.304998
3973163604.803423
-429809900.408452
3860889203.159282
-444369559.326479
3749663453.836330
-458060575.302989
3583139787.838501
-471365117.147597
3444841050.022607
-482767038.303682
3307426087.450453
-498469329.367132
3141916864.718358
-511236377.784155
3031789681.095801
-523651596.222692
2902699567.716581
-537833994.042225
2772555949.966157
-545994740.114712
2642518031.196492
-554741510.888280
2516644339.190720
-568808006.645622
2396356866.457451
-574915685.275529
2307473327.267182
2235731006.835445
-586927933.864920
2179758155.781865
2112361701.090641
-593449923.192586
2054599802.253323
1995500191.892791
-600154717.378732
1936904847.602753
1880555869.868001
-605386606.433683
1821996250.792355
1768284537.691955
-611906734.058597
1706222930.203883
1652708165.030361
-616810564.896700
1597432456.544936
1546778799.404385
-620279264.225497
1486830384.659262
-622396210.114925
1407721319.447234
-624309079.868829
1309695602.075444
-624594584.124753
1210840377.897066
-624116521.271105
1113981849.966578
-622130090.662885
1020494803.761197
-618629909.916834
930042881.245275
-614518511.100562
843748701.155402
-608490900.724946
772605292.627420
-600917217.135621
672695538.071776
-592775371.719037
593197356.027694
-585654615.213190
-579465191.644760
516867345.969941
-573619335.347562
-567173444.992855
443144874.992544
-560442797.545132
-552955332.607577
371849058.329412
-545683130.752798
-537875027.782875
289635754.009961
-520184014.026549
-529103660.343853
236332938.279668
-510402798.247011
-500729975.001947
175502801.074602
-479519689.219054
-490402544.251188
117481693.466813
-466873385.972163
67479670.862064
-449129904.111368
5461624.001756
-425070786.966563
-45972190.803267
-397614485.530193
-94832431.213406
-367782573.294830
-140947143.036456
-336084923.655898
-184875904.720285
-303046067.296012
-272518750.307489
-226147110.480745
SCALARS stress_2 float
LOOKUP_TABLE default
14225226.370703
11253527.349366
-2913402.839327
29397101.052827
-21951920.330908
42976878.441740
-41757194.998504
55226267.584382
-63753995.106109
65684546.498394
-87333682.331131
75463627.031299
-113805441.644270
83301301.447092
-141052871.769875
90129922.716473
-170550327.924999
95488999.027201
-202736647.710812
99918767.426214
-236611537.221193
103367901.148208
-272598550.133548
105639357.240122
-310253118.295403
107468675.889713
-350932913.554280
108298161.360977
-392521739.417470
107814982.624613
-436903116.148968
106559402.114734
-483401309.009711
105644457.142273
-531819275.046637
104037520.754170
-582563314.031032
100753378.185121
-635320569.546426
98069865.775358
-690611799.193986
94118363.005933
-747697957.774299
90076982.847546
-806264653.841594
85978748.857486
-867997444.026338
81429805.299748
-931484439.052879
76331668.778561
-996280380.258391
71469671.217685
-1063104628.613574
66368727.391465
-1132412380.332426
60601983.393780
-1202973070.215532
55955550.781918
-1275390245.770182
50708699.989991
-1349023165.796961
45434461.452109
-1425457522.509865
40182907.848740
-1502200517.586303
-1580871276.363448
35460408.150585
-1660450895.395530
31006199.378341
-1741854653.142901
25312518.578949
-1823146577.112852
20574207.403575
-1906863961.765734
16694087.315630
-1990742719.655778
11902737.089458
-2075189995.073218
7740278.112231
-2161186397.695462
4354652.111355
-2246598221.566390
484981.597179
-2332979951.316470
-2672880.826068
-2419197535.159699
-6247845.354745
-2505215979.556429
-8569383.724855
-2591882801.427364
-10913631.962640
-2678164708.696264
-2764040636.113717
-13641012.680926
-15964173.199248
-2849460536.386428
-17489872.130434
-2933683138.775335
-19461477.500724
-3018361206.523733
-20469709.752829
-3100772335.138912
-21381335.083105
-3183174395.787930
-21491355.764148
-3263876715.637846
-22715344.162431
-3342614260.025834
-23053531.597488
-3420302742.365305
-23405682.435792
-3496593647.576963
-23558318.949937
-3569634458.197399
-23460268.383221
-3642206668.270492
-22570603.178353
-3712505582.086476
-22869306.238397
-3779594420.982528
-22209383.053004
-3844749116.201942
-21178841.648413
-3907113683.618483
-20366150.391098
-3967276616.985796
-19899670.014005
-4024299551.837412
-19173397.300079
-18413331.859088
-4078312664.880036
-17307282.397739
-4128903005.110612
-16116011.895333
-4177001339.696196
-15017288.642105
-4221540687.880083
-13682511.957588
-4262879041.952510
-12863094.914963
-4300373844.740300
-12212722.587409
-4334843400.950162
-10894225.171281
-4365218274.115623
-10249300.079994
-4391989088.943393
-9652644.046493
-4414742664.260295
-8463720.654306
-4433771891.309625
-7548400.806498
-4449762442.381618
-6871895.746363
-4460336386.549454
-6498155.670259
-4468259703.763133
-6047892.868421
-4471286890.729364
-6058633.120733
-4470838878.981677
-5186428.086964
-4466358152.179838
-5261809.300645
-4457218972.103734
-4825705.468480
-4444418307.043599
-4907392.540473
-4427823499.195791
-4505195.589803
-4406596943.803605
-4337554.906704
-4382554783.770103
-4615441.734474
-4354204514.678816
-4581610.899936
-4321576193.262690
-5316511.109797
-4285438076.935135
-5013425.897588
-4245837731.892509
-5096867.970015
-4201937323.207993
-4907896.153902
-4155028935.954764
-5246870.739486
-4104325217.452358
-5308954.970061
-4050298847.991009
-4828884.012686
-3992964830.550018
-4655274.864302
-3933436381.836092
-4459552.231615
-3870202797.459000
-4548535.648155
-3803804954.201684
-3954238.867570
-3733879692.797094
-3524613.763621
-3662883257.611700
-2716967.579606
-3588520072.671745
-1708633.652699
-3511625031.466877
-38404.273134
-3432834628.900160
1101474.515207
-3352279681.414306
2727936.175736
-3268958744.252610
5107575.787748
-3184624419.687666
7357447.937833
-3098734680.085950
9480443.288814
-3011370524.766993
12511874.673635
-2922104614.097269
15455438.925237
-2831591822.349374
19706436.536331
-2740748067.719664
23022280.263619
-2649245414.650849
28012016.846166
-2557000127.169171
32202557.577266
-2464421779.887457
37204215.706332
-2370854092.125242
43050859.309602
-2277804366.495353
49124347.466372
-2185532931.024029
54820697.716292
-2092156265.447277
61519721.845364
-1999589711.961453
68879351.223120
-1907554921.962329
76133323.805680
-1816018436.939555
84136037.915637
-1725930043.165727
92136285.262755
-1635372787.253672
100694217.292804
-1547049978.429046
109255003.545432
-1459829995.228439
118247288.513350
-1373549612.000682
127460305.736205
-1288881007.698838
137208446.659768
-1205921105.302207
146855625.946863
-1124556751.840088
156977713.920084
-1045049170.632015
166791834.365434
-967431539.243877
177168104.482329
-892392395.241563
186896768.763476
-818686299.067782
197290312.408293
-746789256.628658
207336483.202781
-677078049.149846
217380880.176240
-610536816.707584
226852953.991496
-546182698.697644
236394545.924201
-483918030.856030
245974883.343889
-423791709.625456
254630405.696328
-366165718.035218
263231230.180935
-311335812.604267
270945303.196539
-258498716.992370
277954409.159613
-208541341.964831
284736984.298871
-160841530.474711
290720023.567372
-115990181.211074
295891133.704182
-73610871.739811
299759434.445305
-33852593.090220
303540002.283451
3415087.001694
305531101.371095
38731100.723688
306685203.860714
71406885.122701
306267460.074901
100834057.433429
304573651.919777
129437014.702811
301377933.794173
155002177.118604
296959038.481033
178117833.651508
291303447.256011
199258480.565520
283659031.148406
218454685.708162
274192060.480810
235540639.097076
263280006.989229
250433985.779199
-6444706.072721
27129316.023433
-25865315.043414
41458783.014058
-47006329.580351
53978684.245004
-69686885.947529
65866697.733912
-94329207.576001
75057364.791714
-121276718.729760
83252856.218997
-149970163.256331
90697857.326693
-180308806.833120
95981143.962327
-212684330.430830
101034953.436833
-247667538.943923
105104751.844089
-284452955.879690
107680665.201735
-323514642.549065
109221035.943883
-364767788.289222
110117110.088174
-408029533.994625
110663825.021778
-453232808.635973
109908938.762338
-500964545.550443
108228208.620786
-550256348.925790
106293173.814178
-602137955.052249
103299508.700388
-655967317.871223
100689030.666588
-712659946.013180
96674809.023713
-770360456.739056
93041164.742462
-830869555.019551
89149837.720358
-893119185.408897
84212860.928102
-957007718.291207
79491392.799805
-1022812351.420125
74772696.892756
-1091037228.226705
70056133.470950
-1160681159.511532
64374202.015437
-1232462150.611778
59431759.206684
-1305590674.081676
54047187.062331
-1379770487.674869
48959351.386021
-1456062560.652294
43938031.658804
-1533610934.274888
38671292.144677
-1612365126.296294
33472014.647280
-1692321580.930513
28584219.354373
-1773576171.854948
24272071.022658
-1855143633.529953
19436562.180126
-1938199393.046348
15536559.337126
-2022021224.157777
11311875.514357
-2105786601.248354
7515534.975814
-2190130944.532076
3935031.448902
-2275150102.299179
342139.784204
-2360250259.810597
-2525399.678048
-2445593261.696801
-5109239.040331
-2530404148.538259
-7671496.915473
-2614615849.305672
-10210587.499832
-2698962062.825866
-12676873.066002
-2782621158.776248
-14332613.273750
-2864689561.447052
-16126699.102376
-2947735542.712044
-17451541.531183
-3028266880.248630
-18536056.219936
-3107132626.006812
-19378427.194877
-3186279815.493881
-19781790.898716
-3263181296.583601
-20498455.697927
-3338309749.566207
-21444455.448633
-3410957771.778874
-21030081.810601
-3482875330.388659
-21646247.933250
-3552307316.638857
-21144833.842818
-3618594149.620290
-21047530.782602
-3682766000.576252
-20222461.731903
-3744786750.503686
-20143496.180371
-3803572829.862942
-19184576.614599
-3860070264.357668
-19181350.770591
-3914244725.571393
-18180541.475172
-3964143166.501058
-17312389.171053
-4010860399.096665
-16886169.101531
-4054787413.818566
-15571631.046491
-4095233166.616764
-15072455.448643
-4132374760.658315
-13730507.304931
-4165701375.893221
-13084961.934886
-4195162069.734897
-11953025.118396
-4220720723.180281
-11708932.098756
-4243014061.302556
-11531897.072322
-4261366989.098659
-10371093.112274
-4275581542.935067
-10304832.508848
-4285588835.808719
-9020925.118166
-4292532831.669618
-8499379.230464
-4294200565.054353
-8688126.795745
-4292226624.619633
-7996564.180480
-4286626038.731931
-7813520.041379
-4276593075.341250
-7122060.915031
-4262960862.737823
-7148070.751438
-4245514362.777776
-6921542.547542
-4223808751.751342
-6736032.669816
-4197563250.731702
-6981406.115201
-4167431633.915211
-6279155.956876
-4134296616.545167
-6477323.191783
-4097401388.401454
-6361701.233334
-4056269892.803607
-6060446.031531
-4011570522.748567
-5439364.753433
-3963024494.679044
-5593269.349040
-3911775542.374926
-5307518.278705
-3856494541.079506
-4923259.492430
-3798885171.235499
-4584597.987156
-3737665899.669726
-3650997.346412
-3673001206.118195
-3363395.273845
-3605476873.067495
-2556302.229807
-3536288242.007280
-1324671.211240
-3463942987.916848
186062.538561
-3388668466.039496
1865431.928776
-3312150412.401464
2994561.716109
-3232585436.152171
5133052.733503
-3151922772.951381
7317139.643783
-3068980728.655220
9582046.156714
-2984069243.630161
12783756.398532
-2898334942.318914
16367874.861946
-2810760200.747721
19468965.596955
-2722327598.576348
22941426.926150
-2633052138.784095
27362714.975768
-2542571992.350266
31834165.455574
-2451476522.934624
37095488.688161
-2360830204.809767
41774009.846703
-2269353500.172050
48214175.960500
-2177226607.634302
54192674.449081
-2085644843.299000
60448780.681979
-1994378370.825912
67428853.398256
-1903835639.364455
74447220.307679
-1813229731.187224
81917037.196250
-1722675974.030224
90447837.679856
-1634483130.872756
98435320.004851
-1546029071.204471
107014201.080415
-1459215618.497378
116121170.446197
-1373663919.994774
124628162.424790
-1289146339.508902
134209900.802196
-1206808171.236119
143737219.824771
-1125880006.912429
153656478.231578
-1046657603.056782
163873362.761681
-968549549.865535
173291475.661434
-892999609.321048
183945528.376608
-819482572.742854
194036171.570028
-747687988.649902
203663474.441109
-678255472.778199
213994461.558800
-611610753.570455
223932735.169454
-546951424.592559
233547156.888958
-484213484.873810
242545910.163082
-423740282.516686
251422050.021125
-366663848.550486
259933807.202151
-311363241.664276
268345321.075692
-259067236.470883
275135949.700345
-208728766.612435
282356148.785876
-161118084.871876
288533098.144527
-116088809.938271
293342008.439125
-73233311.793981
297374238.698967
-33501837.051833
301205864.029593
3971996.305814
303184991.093826
38434114.713070
304492342.580733
71897780.187575
304360530.983023
101871754.823209
303545855.406233
129944211.930906
300444218.879662
155801655.358188
295910019.725903
178935106.415991
290305906.097432
199867087.904898
283124613.730254
219268269.135844
274025839.193316
263124910.222624
235236136.126470
250210804.800536
40257.133913
20526034.979876
-14244046.674680
35514951.633014
-33834012.112677
48467382.236238
-55152162.564674
60266988.100481
-78815281.117390
70206596.733035
-103560555.119942
79629286.568011
-129596072.192520
-151656389.192807
87709567.681181
-182320607.781875
-167829735.356117
92861506.150734
-215144894.860289
-199881001.703924
98567091.505713
-233063598.560952
-250744239.647155
102037206.506333
-270017524.485161
-288046379.965063
104853491.140350
-326975938.038164
-306395102.182206
108083790.549804
-346639554.671722
-368240891.061170
109161212.278158
-415125274.223700
-388952101.768184
109236140.335474
-447645641.455187
108404678.569277
-492310280.812024
107437795.660032
-540606993.570983
105141822.201178
-592112789.180704
103410313.232178
-645445876.468095
100851718.281013
-700391450.315639
97193309.658481
-756739313.900296
93461794.450944
-806460261.623554
90045474.613632
-880208502.576580
85367213.523346
-944075676.295372
80366243.867112
77357434.226783
-1009867138.207413
72257684.882100
74355901.820605
-1077210466.409942
66667732.663139
69101928.501701
-1147005220.486490
60927783.847612
64504375.858875
58904038.359820
56444116.315682
-1233099281.847415
53943176.757716
51033414.664461
-1299924238.333640
48852145.324073
45652350.186234
-1375728546.167528
43240526.662295
40151347.075944
-1454485305.815450
36315784.285193
-1556123156.051205
32173603.302805
-1692196185.333272
27101235.649965
-1757352750.437133
22838763.402471
-1822494794.172071
18406762.591847
-1922217292.541983
13402695.186432
-2006411305.787544
10703300.148035
-2090583372.824497
5945490.592206
-2191733059.256376
2442252.694839
-2263603148.402569
-956255.017721
-2346927820.568101
-5115874.754579
-2432234862.710325
-6908410.123254
-2517634699.103853
-9135906.872366
-2603053569.130795
-2684247002.928952
-2748990559.211164
-12950159.646740
-2836044489.437009
-2794580020.019163
-15949484.687041
-2923161287.480210
-2878735669.268236
-17490685.525578
-2962347464.244508
-3003742548.745363
-18454824.397096
-3042963652.873862
-3086510659.645371
-19911347.515138
-3124213571.970642
-3165800768.845231
-20910891.273760
-3203325698.498813
-3246406320.470339
-21805937.286702
-3281354765.728689
-3329971966.695535
-21668366.072423
-3382792145.129404
-21858254.413867
-3453405871.912573
-22455476.167158
-3525199586.685822
-22050371.257204
-3595771051.566938
-21349718.738046
-3664482249.041089
-21657238.517769
-3729777373.277847
-21368972.994728
-3791882450.407609
-20672104.993113
-3842346119.635820
-20313770.293765
-3913735183.760954
-19107706.657271
-3968957484.746686
-18670866.176516
-17936970.903014
-4020970695.430716
-17639944.354650
-16792504.437680
-4070017915.320338
-16520729.837349
-16001574.901704
-4115818365.488730
-16114526.461240
-15077844.667440
-4167671877.021160
-14642179.061764
-13879265.977688
-4198199008.322313
-13408641.327457
-14140076.063393
-4232153863.361302
-12841345.652433
-12537405.110736
-4264461624.820558
-11618710.861284
-11846163.469147
-4286918145.873168
-11329364.242645
-4317149300.317513
-10725341.042627
-4337638231.035313
-9555087.138160
-4354465688.992830
-8757141.170233
-4367317257.357125
-8105381.777247
-4376093711.447730
-8032178.355732
-4380365716.261588
-7527143.156902
-4380112021.173126
-7187518.334132
-4377843188.859110
-6699748.402367
-4371520214.251398
-6268394.492972
-4359329889.715178
-6160218.857267
-4344383323.672445
-5686172.814785
-4326838559.202666
-5973631.532584
-4304041392.452095
-4290147606.916564
-5363297.299600
-4265635536.499204
-4253181718.859208
-6318585.880300
-4232905450.461829
-4218908336.843801
-5699810.104851
-4183987243.841823
-4197742677.911414
-5824227.222832
-4160445526.405982
-4140702940.472316
-5700399.535644
-4098021049.354400
-4118382022.167549
-5748598.361368
-4068761604.290300
-4046214443.042224
-5444472.529760
-3994810924.859661
-4018431567.256972
-5700140.419381
-3951142739.586260
-5923527.103412
-3895482673.971704
-5112548.089143
-3834103348.362051
-4851183.219819
-3770325647.539934
-4609569.442489
-3704342300.107265
-3704686.398499
-3634684459.528685
-3148715.515715
-3564345757.112051
-1570735.330539
-3502876848.592893
-1144286.272015
-3410754111.682940
398299.018018
-3332069157.436231
2190826.831189
3261270.060376
-3250945253.777675
4584469.584103
5681230.326728
-3168215938.563396
6726452.553404
8015056.784500
-3083537352.576338
9270854.956232
10533074.831843
-2978871723.117810
12189858.404378
13237238.407792
-2907255484.446800
15132504.534305
16751566.892914
-2820881108.028217
18414593.726792
20715266.404424
-2731813010.614784
22318790.877440
24385943.582529
-2643953710.804814
27420217.111924
-2570740072.208198
31884880.348472
-2438969296.977732
37288343.883342
-2365046350.127707
42573847.626693
-2292220644.252272
48381986.682282
-2181056404.832376
54521678.752023
-2088641280.544937
59736726.979540
-1996806022.442303
67790424.974399
-1884962082.772469
75598133.937447
-1810132739.749794
83039832.691885
-1723611638.407545
92844283.117687
-1634433776.415102
99213416.112509
-1546874071.936385
106462821.483174
-1460455045.282053
118690632.021808
-1378650642.602200
124751757.382352
-1319024807.888583
-1268928132.750605
137267168.957409
-1230767436.793868
-1184979115.345221
146110910.300697
-1145687401.645615
-1105767275.546878
154979657.384146
-1065785431.570921
-1027551119.345507
163295759.955376
-987580010.655023
-950708159.265389
175409712.636393
-909425994.484411
-872298513.664850
185437806.559845
-836344646.983143
-801740719.217630
195443342.357315
-761945484.033205
205362344.445275
-708724862.812755
215559021.392671
-643360696.173308
227540081.773456
-577801879.783704
234900990.050198
-514918866.790556
244216668.066711
-453405060.865163
252205298.211719
-395247418.068878
261130351.084252
-340250927.064635
269620215.068693
-296105266.051275
276638505.268275
-233553367.510130
283042561.734644
-184958650.419375
287661445.909599
290636643.335779
-138473120.185572
293011143.213760
295584819.058498
-94685680.128255
297776342.753820
299892636.693514
-53418306.399902
301249708.565285
303040679.970738
-6905150.234456
304187020.486833
304007939.050818
22846315.687450
305644786.190374
305313848.615376
55268109.538652
305209493.824537
305380402.124264
86523048.782723
304461045.292462
111994412.046867
302688607.551488
142628133.581891
299009221.403791
167074951.416867
293743208.943547
188893917.594915
286895368.109731
209565414.423742
279247282.249904
227030724.516888
269202114.850822
259212465.186105
243035449.170026
SCALARS stress_3 float
LOOKUP_TABLE default
100443793.017284
63834088.582863
-68869807.754620
262341925.153391
-244664577.945063
417573843.467039
-427428980.824794
565581610.120895
-617111424.490443
706493445.994333
-813153354.278792
840569320.195433
-1015601952.906549
967282504.820825
-1224520375.873167
1087007862.587215
-1439120633.112606
1199496106.145273
-1659940810.515692
1304877425.657667
-1886553160.407758
1403311251.937732
-2119136408.125590
1494813087.148138
-2356820026.777266
1579592395.939552
-2600060593.470865
1657351826.408604
-2847562949.771877
1728384321.272002
-3100258543.776932
1792883372.397671
-3357294173.834262
1850911194.044907
-3618636190.106537
1902352216.376378
-3883822578.255875
1947464174.205421
-4152558691.293724
1986524243.074626
-4424743639.110909
2019774185.014585
-4699999296.652841
2046933502.742005
-4977734135.647678
2068605493.733438
-5257882003.269537
2084460038.085515
-5540178375.017868
2095394463.437456
-5824066048.686865
2101129154.343299
-6109297294.993237
2101577722.213561
-6395396626.122549
2097360995.373575
-6682002301.020213
2088721823.299894
-6968949657.251718
2075771777.860444
-7255795033.762477
2058524126.923148
-7542144862.738055
2037467685.573188
-7827424205.515237
-8111436307.888217
2012502180.527269
-8393687945.585151
1984213378.413164
-8673949802.008863
1952354637.393538
-8951745918.724838
1917937091.270280
-9226715907.135900
1879943785.194607
-9498432078.970207
1839893962.577033
-9766338113.859283
1797064493.122818
-10030350593.139915
1752336526.079807
-10290109393.226374
1705462272.761887
-10545007689.292772
1657191604.808277
-10794635529.524681
1607128806.912786
-11038747213.324921
1555517199.172043
-11277031563.499136
1503008966.051151
-11508963204.601364
-11734067795.665955
1449618257.255367
1395784735.869873
-11952886479.312988
1341047415.599924
-12163877925.890692
1286058480.910625
-12367142056.867929
1230896941.278529
-12562891041.810190
1176248425.397442
-12750404514.740370
1121503138.515213
-12929453629.681372
1067150777.554354
-13099776096.427387
1013205021.600046
-13260930488.218569
960204719.574802
-13413162683.860567
908146284.726470
-13555802086.202156
856765955.586189
-13688898171.657612
806847253.630513
-13811927387.858459
758092296.933172
-13924660212.598896
710712048.808052
-14027868311.347776
664801637.720255
-14120110892.748079
620555848.592295
-14202452505.582548
577856347.269197
-14273633934.951571
536930951.684924
497808989.293129
-14334687843.475224
460817669.473736
-14384992845.405109
425674406.854514
-14424090718.764128
392624225.803936
-14452835049.021141
361664421.407184
-14470390987.807671
332350331.966692
-14477219169.604029
305433327.784897
-14472992385.030293
280730685.555606
-14458106203.186848
257979320.038666
-14432823238.693769
237699873.079101
-14396686622.031370
219072879.665462
-14350025650.668507
202865417.871481
-14292922980.236708
188338590.228297
-14225675816.433537
176440169.429719
-14147811111.347927
166366603.844220
-14060427063.599962
158262585.154159
-13962952586.290024
152110376.902125
-13856028007.875525
147907625.987732
-13739475868.674101
145653861.790904
-13613968648.317284
144937396.222703
-13479263086.111265
146034463.585566
-13335983391.524904
148927944.247966
-13184394678.484468
153403228.741043
-13024742972.001411
159179906.584488
-12856835310.230701
166617955.158225
-12681917818.412497
175485645.361866
-12499141027.852987
185684202.575336
-12309867104.249741
196884064.318325
-12113950885.300318
209117262.959305
-11911657219.919540
222660709.029419
-11703789659.738935
237415568.505767
-11490073734.130728
252971035.136745
-11271116121.715002
269080878.302275
-11047018567.038099
286299800.901972
-10819126116.166059
303972854.153091
-10586606831.253857
322361181.412656
-10350740487.378977
340922493.211808
-10111087892.076317
360476135.756352
-9868781570.031994
380218557.414761
-9623709803.172276
399838137.772765
-9376498094.020607
420316769.981582
-9127344668.045851
440835135.235566
-8876564408.000158
460966308.294565
-8624765344.961018
481726243.364385
-8372097639.843246
502131370.422125
-8118939947.724333
522705447.444887
-7865820143.356430
543072464.867183
-7612593270.045729
563066965.220152
-7360228894.315677
582739334.155560
-7108205903.701171
602531469.053332
-6857919172.496955
621754446.879117
-6608879885.617847
640737035.078877
-6361860325.358591
658905674.846968
-6116634291.254082
676768210.780568
-5873613823.207691
694128386.694111
-5633276556.525612
710855747.413479
-5395953963.568623
726851664.524402
-5161517001.022838
742199556.690096
-4930444391.640411
756784000.279033
-4702787521.716084
770786923.563057
-4478878539.839342
783929739.139347
-4259210112.858968
795885589.442413
-4043524770.973074
807408079.069433
-3831938084.018992
817745248.292251
-3624667101.368952
826717019.316673
-3422385536.306248
835029402.805914
-3224391581.745699
842305918.574409
-3031327329.819379
847990803.676745
-2843163128.659366
852789392.547433
-2659738048.789104
855851010.241061
-2481905821.883260
857782216.572063
-2308704260.531320
858830740.823732
-2140740660.179243
857669625.201874
-1978166269.187809
855251522.207037
-1820606695.460389
851036376.665104
-1668392529.520430
845042276.847919
-1521460204.651225
837221363.810070
-1379699030.822182
827543455.660733
-1243077592.490711
815893599.388458
-1111911594.843475
802340593.331128
-985841471.717806
786426567.326073
-864837776.854408
768119987.025061
-748559562.385356
747619900.331461
-638024605.593942
724648601.679786
-531744402.383537
698880585.961954
-430754672.103471
670793164.069888
-334237096.591078
639634170.666802
-242671221.033019
605667513.427362
-155615559.266629
568600866.460745
-73122790.641237
528091723.832988
5149179.559863
484748674.044638
79066839.433301
437918326.378990
148709934.087157
387585795.499259
214108380.400805
333425841.308815
275736432.536912
-106802477.301222
228073758.148793
-284768534.448873
384864222.438611
-469405871.739465
534646762.006355
-661006961.269627
677107229.731400
-859193061.158889
812684671.873044
-1063273603.503880
940951811.376698
-1274131149.412680
1061954478.501659
-1491370984.222072
1175477506.356008
-1713877026.648763
1282353157.199039
-1942383499.963501
1381760467.356090
-2176578285.731774
1474679625.706533
-2415917390.212881
1560075324.118294
-2660367899.201014
1638550919.470747
-2909893987.966919
1710579313.469150
-3163887479.227305
1775633366.992877
-3422217154.776366
1834152126.301224
-3684322431.264771
1885822737.328156
-3950515340.324046
1931656804.495635
-4219694215.387605
1971242493.508920
-4492448263.629565
2004674786.627307
-4767612987.398161
2032246626.567504
-5045235569.410100
2054248662.348653
-5325035777.393536
2070334860.687461
-5606553831.305333
2080977241.451854
-5889412487.928233
2086861022.118383
-6172970861.381768
2087574162.783679
-6457309578.611348
2083374809.478334
-6741920589.411168
2074981153.287528
-7026195981.509382
2062079047.090634
-7309971503.688739
2044682375.581462
-7592836322.297468
2023639108.790604
-7874133843.683806
1998979574.814689
-8153699816.630496
1970701274.347525
-8431222593.323106
1939226664.039782
-8705897859.098419
1904701582.422600
-8977922281.359257
1867448829.689239
-9246410566.682556
1827515529.153584
-9511132927.851067
1785307223.443406
-9771465744.821644
1741050848.655334
-10027736345.779858
1694841122.037216
-10278520058.357235
1646985958.445527
-10524176096.902010
1597680613.422858
-10763819108.588295
1547264887.988350
-10997647172.679148
1495703779.847262
-11224773583.891275
1443469925.693402
-11445151072.704985
1390576122.774617
-11658352156.457060
1337299546.633497
-11863705826.779032
1283783595.897813
-12061540764.313871
1230401045.195335
-12251232878.398365
1176937550.068654
-12432456577.121447
1124241902.982872
-12604965278.048613
1071442841.414541
-12768399533.822832
1019767342.286176
-12922710928.075634
968834721.834173
-13067243954.601212
918479787.601124
-13202146599.422466
869911574.443503
-13327223872.008257
822258554.826413
-13442131150.935520
775879559.280996
-13546689829.673117
731065442.435021
-13640901114.472652
687814175.602373
-13724666760.736944
646122523.845335
-13797611613.337677
606217423.260535
-13859948929.286299
568211679.367666
-13911450538.834415
532249837.643279
-13951627010.070961
497986216.618514
-13981117378.398758
465680195.975732
-13999874579.906742
435722081.191483
-14007129096.617817
407373386.014165
-14003784136.620914
381417837.528957
-13989431041.156191
357787135.418218
-13964464232.475248
336037294.213089
-13928558324.275654
316214966.607377
-13881763674.809010
298727458.903519
-13824508091.152803
283262739.469987
-13756973003.558638
269800572.543179
-13679029428.115452
258471294.491570
-13591235567.672028
248977905.226221
-13493249916.937374
241531573.669647
-13385614970.988983
236047821.112834
-13268594961.915791
232541884.706999
-13142370849.349323
230765916.363205
-13007093941.053181
230587637.829849
-12863027116.658894
232119914.029444
-12710615037.864023
235361538.710386
-12550138731.974760
240392138.175110
-12381714504.459969
246604298.172012
-12205640031.637287
254341141.460939
-12022556994.421537
263403971.952953
-11832564903.064320
273546499.625155
-11635830508.089083
284979628.388610
-11433061085.813469
297375618.840494
-11224520397.706341
310732382.891872
-11010473498.291140
325507466.291139
-10791364638.048178
340832252.026847
-10567474784.880825
356737831.227313
-10339298693.726799
373535440.489716
-10107100537.272217
390650433.562453
-9871621652.889307
408572712.976663
-9632830890.046928
427204532.155408
-9390846112.279978
445708689.629829
-9146981420.731979
464559791.377027
-8900877719.860346
483872671.602807
-8653341677.428677
503400834.675644
-8404571724.514459
522750063.952560
-8154374163.641140
542298013.868066
-7903833514.343617
562009828.333227
-7653344345.079302
580969502.011257
-7402763257.220422
600339298.259181
-7152536676.139206
619315665.445471
-6903255778.293067
638031174.233344
-6655153526.434155
656369254.142491
-6408412643.868662
674462946.456204
-6163608804.891332
691950331.911431
-5920680736.483021
709176091.334054
-5679990239.101139
725469714.375839
-5442114133.889210
741813505.405261
-5206974087.599389
756979016.236752
-4975129596.135043
771376874.913451
-4746257036.868404
785335172.652614
-4521128486.485586
798461250.877302
-4299896280.793329
810722282.184693
-4082562037.260493
822054229.238002
-3869325891.236408
832293603.851664
-3660386950.027267
841752113.242934
-3455993413.536438
849824783.063578
-3256313119.733332
857102670.965363
-3061135575.924138
863405964.165544
-2870906001.229484
868097390.935964
-2685790940.564188
871455625.482429
-2505663319.897659
873481960.859528
-2330673035.133266
874014466.947731
-2160708308.794457
873201010.964295
-1995821409.013308
870977084.952357
-1836423905.073111
866623497.183761
-1682257915.954724
861010568.941801
-1533472866.941439
853271181.878241
-1389875471.773960
843602560.818966
-1251402428.747029
831975876.330562
-1118483925.438681
818390392.781501
-990367855.914954
802374501.521115
-867794821.916552
784043036.755209
-750341690.564098
763594575.767077
-637945160.152337
740573423.285971
-530280401.801894
714619277.517697
-428120579.644844
686226980.202959
-330223360.801812
654676457.776268
-237573548.947464
620413134.966875
-149240577.822502
583062149.058076
-65652606.318848
542510310.713085
13432803.822796
498546802.823823
88210967.547841
451206833.293661
158580259.115585
400279320.003069
345570094.855418
225111267.405403
287344152.971333
-36475833.600469
164459874.627740
-181654270.703484
324212861.301958
-356813363.104619
476334595.622577
-542833053.776711
621919483.848893
-736326331.567074
759967279.546396
-935326442.261259
891162994.583009
-1133685653.068680
-1296817246.520764
1027156158.933486
-1513672172.513201
-1406024223.023319
1133407307.817170
-1738298922.644761
-1632930134.456214
1241062989.345132
-1856218464.660243
-1972593965.714217
1340466129.312622
-2091603496.130885
-2211058073.861648
1420042305.531287
-2448039876.756694
-2323967413.639247
1528170476.366639
-2568213936.199346
-2695769550.638447
1609724273.541476
-2964350223.130506
-2813787344.091691
1684568665.959440
-3146312832.124735
1752570406.728611
-3391759077.137817
1813874246.934170
-3651459219.276468
1879556768.510319
-3916122339.482393
1919250019.041491
-4185751923.793364
1960448281.721286
-4456234059.980390
1996502219.867307
-4722826814.467330
2026761074.316002
-4953118016.580343
2051149118.242029
-5291854012.059370
2069891025.147395
-5573036739.043724
2083294453.182401
2089918591.030062
-5856337190.532731
2094770617.875361
2092788741.274630
-6140552585.147114
2094173518.899274
2094902833.940289
-6426174707.898322
2089047646.068603
2091999736.556660
2084390493.888356
2078684814.106499
-6774598037.168416
2072553171.919884
2065279675.363623
-7036164606.977673
2056744197.232706
2046230412.518910
-7325348582.994644
2036177026.394696
2022713664.486122
-7618224635.278957
2004210714.611142
-7989908017.364998
1976777468.635004
-8467636157.701164
1945941647.766072
-8689448895.217321
1911260491.881976
-8910335953.001581
1874131187.337563
-9236731063.479805
1835272050.163323
-9505008688.324270
1800366834.642288
-9769572040.320133
1746878728.677933
-10077522693.748089
1700427056.318541
-10291644814.937719
1652183989.648795
-10534692082.830618
1591882638.480116
-10778445267.600822
1551387783.543564
-11017548871.356918
1510089282.766944
-11251151932.244099
-11466878787.776644
-11639622001.920658
1416183990.186523
-11855600114.239178
-11749536250.940769
1346538761.907207
-12071485582.379862
-11960749466.684147
1289870438.089481
-12165235310.641340
-12265290494.165945
1236124528.863556
-12357149401.650568
-12459711136.853941
1187960012.118793
-12540543253.389851
-12636901633.393654
1122806605.084587
-12719100222.299974
-12815357328.377508
1069575501.542973
-12887401784.004337
-12996308936.496281
1016453651.104539
-13099616281.030890
964750215.703248
-13238854620.265493
913543839.575499
-13375416040.550318
853512446.216798
-13504547931.152966
813316969.176200
-13624279835.789152
767040399.430961
-13732230746.144827
720794067.172683
-13827802069.040867
676494988.056623
-13902340995.505301
633094166.345429
-13998923555.652185
592587580.357132
-14065716578.148340
554600955.105216
523717422.993241
-14121889737.364614
506621039.114452
488299185.697260
-14167327522.866495
471151579.447613
452209931.616613
-14201671780.351551
436916258.733082
421307553.977617
-14231979178.321442
405843049.286205
389801705.940999
-14237169643.024731
362461819.979883
377661824.871753
-14237866372.879236
351720456.295025
336748983.970416
-14231409000.311598
310591849.552327
326708972.357590
-14215119974.907425
296195153.086603
-14179674706.621872
277078986.475321
-14138332702.888960
259610108.174541
-14086367218.021070
243256602.240791
-14023942622.041107
229936077.672646
-13951389299.863888
218778172.449236
-13868905065.741020
210534848.785050
-13757065080.175707
200261438.578327
-13668922466.203529
194796661.418085
-13561804289.019611
190853087.595303
-13438710008.949665
188495347.575267
-13310029393.933870
188212256.443155
-13173803590.692240
189708372.176069
-13032307251.692158
-12931720180.079639
192715408.066458
-12823003883.873293
-12747878436.233778
197522674.209251
-12652796208.363115
-12575881630.592487
203359952.864637
-12405131270.902843
-12481375606.935560
210851562.362768
-12305742218.048464
-12215615277.465282
217354453.255561
-12029289203.605112
-12120782118.538465
229908069.905747
-11919334095.688620
-11824814470.759323
241570084.420692
-11613500423.661816
-11716536964.113110
253984202.918810
-11456327437.880077
267574115.702536
-11250557672.236996
282012965.206381
-11028597671.579762
300864836.152369
-10805430000.746340
314413526.595062
-10578575789.742870
330717011.808378
-10345977681.182959
348131142.723270
-10116853095.622005
366221318.976165
-9919070972.662603
384404499.533614
-9628501150.021303
403494470.815753
-9383812486.149054
421806854.175848
434630972.110987
-9137212433.550344
447946057.220547
456739481.972982
-8888966987.988777
468397421.032419
477301993.057673
-8638799179.530392
488127510.848139
496475020.367554
-8335727479.388031
507390917.844900
516747469.645764
-8127908916.437703
527030121.768147
536177985.072624
-7882729130.642709
547984003.368886
557443302.007157
-7633236464.646327
567715720.145755
576667418.096165
-7388524865.214292
592441117.973531
-7186049994.734714
610878333.610068
-6830167105.212749
629879888.948572
-6630426836.414535
648475822.795424
-6433336903.754209
666747763.057736
-6139774388.094600
684060968.567840
-5896824622.764345
698195152.627499
-5656244999.123736
718136521.874329
-5367214209.224195
734034481.878464
-5174785954.294325
749560505.033999
-4950101191.161277
767207488.426333
-4723752245.601547
778013075.301726
-4499772483.195859
788786623.255360
-4282102997.890481
805443051.807462
-4075160239.524889
812748170.929826
-3922821578.561440
-3799740495.519386
826905940.552269
-3704102002.172698
-3589544444.643664
834692829.153843
-3489377081.188163
-3389921278.936120
842346188.380827
-3289953046.913836
-3194166781.736441
848184605.381725
-3095092959.058199
-3003668484.616770
855749365.452518
-2899133834.134434
-2808273326.518844
860435338.701310
-2715953607.296193
-2630231036.268148
863742760.086927
-2529274370.095629
865917124.597920
-2396928510.390925
866419670.114760
-2232625897.653198
865182530.134539
-2067812245.170982
862923840.021526
-1906823378.426584
858865715.425410
-1751387438.534408
853009013.762192
-1601920537.262442
845305161.819334
-1460349828.607921
835534273.596370
-1343943838.956123
823885443.463893
-1180465221.379974
810601484.548555
-1051020325.174415
799582018.394995
790397611.826465
-926477400.405244
781350288.385406
771211827.178616
-807199599.987280
760882535.421629
749565059.436453
-692976106.812443
738578325.666727
726686355.974219
-561530735.056953
699891580.151346
713438350.183128
-476140683.344154
685193711.626510
670650521.793171
-380230716.520189
638562967.334340
654910230.501231
-287765947.102951
618824364.347075
-207988784.027779
592477806.995301
-110494577.028814
555544067.416931
-29335597.992200
513672765.278723
46571079.756600
468556027.323290
118919931.202831
420242758.096901
187118980.252238
368995687.792577
322625302.925960
251058334.926456
