# vtk DataFile Version 2.0
Generated volume Mesh
ASCII
DATASET UNSTRUCTURED_GRID
POINTS 994 float
-0.416146 -0.294827 0.000000
-0.409251 -0.287252 0.000000
-0.421925 -0.286495 0.000000
-0.410201 -0.303043 0.000000
-0.427538 -0.278049 0.000000
-0.404095 -0.311138 0.000000
-0.432982 -0.269494 0.000000
-0.397829 -0.319111 0.000000
-0.438254 -0.260832 0.000000
-0.391406 -0.326958 0.000000
-0.443353 -0.252067 0.000000
-0.384828 -0.334675 0.000000
-0.448277 -0.243202 0.000000
-0.378098 -0.342260 0.000000
-0.453024 -0.234242 0.000000
-0.371218 -0.349710 0.000000
-0.457592 -0.225188 0.000000
-0.364192 -0.357021 0.000000
-0.461979 -0.216046 0.000000
-0.357021 -0.364192 0.000000
-0.466183 -0.206818 0.000000
-0.349710 -0.371218 0.000000
-0.470203 -0.197508 0.000000
-0.342260 -0.378098 0.000000
-0.474037 -0.188120 0.000000
-0.334675 -0.384828 0.000000
-0.477683 -0.178658 0.000000
-0.326958 -0.391406 0.000000
-0.481141 -0.169126 0.000000
-0.319111 -0.397829 0.000000
-0.484408 -0.159526 0.000000
-0.311138 -0.404095 0.000000
-0.487484 -0.149864 0.000000
-0.303043 -0.410201 0.000000
-0.490368 -0.140141 0.000000
-0.294827 -0.416146 0.000000
-0.493057 -0.130363 0.000000
-0.286495 -0.421925 0.000000
-0.495552 -0.120532 0.000000
-0.278049 -0.427538 0.000000
-0.497851 -0.110654 0.000000
-0.269494 -0.432982 0.000000
-0.499953 -0.100732 0.000000
-0.260832 -0.438254 0.000000
-0.501857 -0.090771 0.000000
-0.252067 -0.443353 0.000000
-0.503563 -0.080774 0.000000
-0.243202 -0.448277 0.000000
-0.505069 -0.070746 0.000000
-0.234242 -0.453024 0.000000
-0.506376 -0.060691 0.000000
-0.225188 -0.457592 0.000000
-0.507482 -0.050612 0.000000
-0.216046 -0.461979 0.000000
-0.508388 -0.040514 0.000000
-0.206818 -0.466183 0.000000
-0.509093 -0.030400 0.000000
-0.197508 -0.470203 0.000000
-0.509597 -0.020274 0.000000
-0.188120 -0.474037 0.000000
-0.509899 -0.010139 0.000000
-0.178658 -0.477683 0.000000
-0.510000 0.000000 0.000000
-0.169126 -0.481141 0.000000
-0.509899 0.010139 0.000000
-0.509597 0.020274 0.000000
-0.159526 -0.484408 0.000000
-0.509093 0.030400 0.000000
-0.149864 -0.487484 0.000000
-0.508388 0.040514 0.000000
-0.140141 -0.490368 0.000000
-0.507482 0.050612 0.000000
-0.130363 -0.493057 0.000000
-0.506376 0.060691 0.000000
-0.120532 -0.495552 0.000000
-0.505069 0.070746 0.000000
-0.110654 -0.497851 0.000000
-0.503563 0.080774 0.000000
-0.100732 -0.499953 0.000000
-0.501857 0.090771 0.000000
-0.090771 -0.501857 0.000000
-0.499953 0.100732 0.000000
-0.080774 -0.503563 0.000000
-0.497851 0.110654 0.000000
-0.070746 -0.505069 0.000000
-0.495552 0.120532 0.000000
-0.060691 -0.506376 0.000000
-0.493057 0.130363 0.000000
-0.050612 -0.507482 0.000000
-0.490368 0.140141 0.000000
-0.040514 -0.508388 0.000000
-0.487484 0.149864 0.000000
-0.484408 0.159526 0.000000
-0.030400 -0.509093 0.000000
-0.020274 -0.509597 0.000000
-0.481141 0.169126 0.000000
-0.010139 -0.509899 0.000000
-0.477683 0.178658 0.000000
0.000000 -0.510000 0.000000
-0.474037 0.188120 0.000000
0.010139 -0.509899 0.000000
-0.470203 0.197508 0.000000
0.020274 -0.509597 0.000000
-0.466183 0.206818 0.000000
0.030400 -0.509093 0.000000
-0.461979 0.216046 0.000000
0.040514 -0.508388 0.000000
-0.457592 0.225188 0.000000
0.050612 -0.507482 0.000000
-0.453024 0.234242 0.000000
0.060691 -0.506376 0.000000
-0.448277 0.243202 0.000000
0.070746 -0.505069 0.000000
-0.443353 0.252067 0.000000
0.080774 -0.503563 0.000000
-0.438254 0.260832 0.000000
0.090771 -0.501857 0.000000
-0.432982 0.269494 0.000000
0.100732 -0.499953 0.000000
-0.427538 0.278049 0.000000
0.110654 -0.497851 0.000000
-0.421925 0.286495 0.000000
0.120532 -0.495552 0.000000
-0.416146 0.294827 0.000000
0.130363 -0.493057 0.000000
-0.410201 0.303043 0.000000
0.140141 -0.490368 0.000000
-0.404095 0.311138 0.000000
0.149864 -0.487484 0.000000
0.159526 -0.484408 0.000000
-0.397829 0.319111 0.000000
0.169126 -0.481141 0.000000
-0.391406 0.326958 0.000000
0.178658 -0.477683 0.000000
-0.384828 0.334675 0.000000
0.188120 -0.474037 0.000000
-0.378098 0.342260 0.000000
0.197508 -0.470203 0.000000
-0.371218 0.349710 0.000000
0.206818 -0.466183 0.000000
-0.364192 0.357021 0.000000
0.216046 -0.461979 0.000000
-0.357021 0.364192 0.000000
0.225188 -0.457592 0.000000
-0.349710 0.371218 0.000000
0.234242 -0.453024 0.000000
-0.342260 0.378098 0.000000
0.243202 -0.448277 0.000000
-0.334675 0.384828 0.000000
0.252067 -0.443353 0.000000
-0.326958 0.391406 0.000000
0.260832 -0.438254 0.000000
-0.319111 0.397829 0.000000
0.269494 -0.432982 0.000000
-0.311138 0.404095 0.000000
0.278049 -0.427538 0.000000
-0.303043 0.410201 0.000000
0.286495 -0.421925 0.000000
-0.294827 0.416146 0.000000
0.294827 -0.416146 0.000000
-0.286495 0.421925 0.000000
0.303043 -0.410201 0.000000
-0.278049 0.427538 0.000000
0.311138 -0.404095 0.000000
-0.269494 0.432982 0.000000
0.319111 -0.397829 0.000000
-0.260832 0.438254 0.000000
0.326958 -0.391406 0.000000
-0.252067 0.443353 0.000000
0.334675 -0.384828 0.000000
-0.243202 0.448277 0.000000
0.342260 -0.378098 0.000000
-0.234242 0.453024 0.000000
0.349710 -0.371218 0.000000
-0.225188 0.457592 0.000000
0.357021 -0.364192 0.000000
-0.216046 0.461979 0.000000
0.364192 -0.357021 0.000000
-0.206818 0.466183 0.000000
0.371218 -0.349710 0.000000
-0.197508 0.470203 0.000000
0.378098 -0.342260 0.000000
-0.188120 0.474037 0.000000
0.384828 -0.334675 0.000000
-0.178658 0.477683 0.000000
0.391406 -0.326958 0.000000
-0.169126 0.481141 0.000000
0.397829 -0.319111 0.000000
-0.159526 0.484408 0.000000
0.404095 -0.311138 0.000000
-0.149864 0.487484 0.000000
0.410201 -0.303043 0.000000
-0.140141 0.490368 0.000000
0.416146 -0.294827 0.000000
-0.130363 0.493057 0.000000
0.421925 -0.286495 0.000000
-0.120532 0.495552 0.000000
0.427538 -0.278049 0.000000
-0.110654 0.497851 0.000000
0.432982 -0.269494 0.000000
-0.100732 0.499953 0.000000
0.438254 -0.260832 0.000000
-0.090771 0.501857 0.000000
0.443353 -0.252067 0.000000
-0.080774 0.503563 0.000000
0.448277 -0.243202 0.000000
-0.070746 0.505069 0.000000
0.453024 -0.234242 0.000000
-0.060691 0.506376 0.000000
0.457592 -0.225188 0.000000
-0.050612 0.507482 0.000000
0.461979 -0.216046 0.000000
-0.040514 0.508388 0.000000
0.466183 -0.206818 0.000000
-0.030400 0.509093 0.000000
0.470203 -0.197508 0.000000
-0.020274 0.509597 0.000000
0.474037 -0.188120 0.000000
-0.010139 0.509899 0.000000
0.477683 -0.178658 0.000000
0.000000 0.510000 0.000000
0.481141 -0.169126 0.000000
0.010139 0.509899 0.000000
0.484408 -0.159526 0.000000
0.020274 0.509597 0.000000
0.487484 -0.149864 0.000000
0.030400 0.509093 0.000000
0.490368 -0.140141 0.000000
0.040514 0.508388 0.000000
0.493057 -0.130363 0.000000
0.050612 0.507482 0.000000
0.495552 -0.120532 0.000000
0.060691 0.506376 0.000000
0.497851 -0.110654 0.000000
0.070746 0.505069 0.000000
0.499953 -0.100732 0.000000
0.080774 0.503563 0.000000
0.501857 -0.090771 0.000000
0.090771 0.501857 0.000000
0.503563 -0.080774 0.000000
0.100732 0.499953 0.000000
0.505069 -0.070746 0.000000
0.110654 0.497851 0.000000
0.506376 -0.060691 0.000000
0.120532 0.495552 0.000000
0.507482 -0.050612 0.000000
0.130363 0.493057 0.000000
0.508388 -0.040514 0.000000
0.140141 0.490368 0.000000
0.509093 -0.030400 0.000000
0.149864 0.487484 0.000000
0.509597 -0.020274 0.000000
0.159526 0.484408 0.000000
0.509899 -0.010139 0.000000
0.169126 0.481141 0.000000
0.510000 0.000000 0.000000
0.178658 0.477683 0.000000
0.509899 0.010139 0.000000
0.188120 0.474037 0.000000
0.509597 0.020274 0.000000
0.197508 0.470203 0.000000
0.509093 0.030400 0.000000
0.206818 0.466183 0.000000
0.508388 0.040514 0.000000
0.216046 0.461979 0.000000
0.507482 0.050612 0.000000
0.225188 0.457592 0.000000
0.506376 0.060691 0.000000
0.234242 0.453024 0.000000
0.505069 0.070746 0.000000
0.243202 0.448277 0.000000
0.503563 0.080774 0.000000
0.252067 0.443353 0.000000
0.501857 0.090771 0.000000
0.260832 0.438254 0.000000
0.499953 0.100732 0.000000
0.269494 0.432982 0.000000
0.497851 0.110654 0.000000
0.278049 0.427538 0.000000
0.495552 0.120532 0.000000
0.286495 0.421925 0.000000
0.493057 0.130363 0.000000
0.294827 0.416146 0.000000
0.490368 0.140141 0.000000
0.303043 0.410201 0.000000
0.487484 0.149864 0.000000
0.311138 0.404095 0.000000
0.484408 0.159526 0.000000
0.319111 0.397829 0.000000
0.481141 0.169126 0.000000
0.326958 0.391406 0.000000
0.477683 0.178658 0.000000
0.334675 0.384828 0.000000
0.474037 0.188120 0.000000
0.342260 0.378098 0.000000
0.470203 0.197508 0.000000
0.349710 0.371218 0.000000
0.466183 0.206818 0.000000
0.357021 0.364192 0.000000
0.461979 0.216046 0.000000
0.364192 0.357021 0.000000
0.457592 0.225188 0.000000
0.371218 0.349710 0.000000
0.453024 0.234242 0.000000
0.378098 0.342260 0.000000
0.448277 0.243202 0.000000
0.384828 0.334675 0.000000
0.443353 0.252067 0.000000
0.391406 0.326958 0.000000
0.438254 0.260832 0.000000
0.397829 0.319111 0.000000
0.432982 0.269494 0.000000
0.404095 0.311138 0.000000
0.427538 0.278049 0.000000
0.410201 0.303043 0.000000
0.421925 0.286495 0.000000
0.416146 0.294827 0.000000
-0.415025 -0.278844 0.000000
-0.403306 -0.295541 0.000000
-0.420627 -0.270320 0.000000
-0.397194 -0.303706 0.000000
-0.426054 -0.261684 0.000000
-0.390916 -0.311745 0.000000
-0.431303 -0.252938 0.000000
-0.384475 -0.319654 0.000000
-0.436373 -0.244088 0.000000
-0.377875 -0.327430 0.000000
-0.441261 -0.235136 0.000000
-0.371117 -0.335070 0.000000
-0.445965 -0.226086 0.000000
-0.364205 -0.342571 0.000000
-0.450484 -0.216942 0.000000
-0.357141 -0.349929 0.000000
-0.454816 -0.207707 0.000000
-0.349929 -0.357141 0.000000
-0.458958 -0.198386 0.000000
-0.342571 -0.364205 0.000000
-0.462910 -0.188983 0.000000
-0.335070 -0.371117 0.000000
-0.466668 -0.179501 0.000000
-0.327430 -0.377875 0.000000
-0.470233 -0.169944 0.000000
-0.319654 -0.384475 0.000000
-0.473602 -0.160317 0.000000
-0.311745 -0.390916 0.000000
-0.476773 -0.150623 0.000000
-0.303706 -0.397194 0.000000
-0.479747 -0.140866 0.000000
-0.295541 -0.403306 0.000000
-0.482520 -0.131050 0.000000
-0.287252 -0.409251 0.000000
-0.485094 -0.121178 0.000000
-0.278844 -0.415025 0.000000
-0.487465 -0.111256 0.000000
-0.270320 -0.420627 0.000000
-0.489633 -0.101287 0.000000
-0.261684 -0.426054 0.000000
-0.491598 -0.091277 0.000000
-0.252938 -0.431303 0.000000
-0.493358 -0.081229 0.000000
-0.244088 -0.436373 0.000000
-0.494912 -0.071148 0.000000
-0.235136 -0.441261 0.000000
-0.496260 -0.061039 0.000000
-0.226086 -0.445965 0.000000
-0.497402 -0.050904 0.000000
-0.216942 -0.450484 0.000000
-0.498337 -0.040749 0.000000
-0.207707 -0.454816 0.000000
-0.499064 -0.030577 0.000000
-0.198386 -0.458958 0.000000
-0.499584 -0.020392 0.000000
-0.188983 -0.462910 0.000000
-0.499896 -0.010199 0.000000
-0.179501 -0.466668 0.000000
-0.500000 0.000000 0.000000
-0.169944 -0.470233 0.000000
-0.499896 0.010199 0.000000
-0.160317 -0.473602 0.000000
-0.499584 0.020392 0.000000
-0.150623 -0.476773 0.000000
-0.499064 0.030577 0.000000
-0.140866 -0.479747 0.000000
-0.498337 0.040749 0.000000
-0.131050 -0.482520 0.000000
-0.497402 0.050904 0.000000
-0.121178 -0.485094 0.000000
-0.496260 0.061039 0.000000
-0.111256 -0.487465 0.000000
-0.494912 0.071148 0.000000
-0.101287 -0.489633 0.000000
-0.493358 0.081229 0.000000
-0.091277 -0.491598 0.000000
-0.491598 0.091277 0.000000
-0.081229 -0.493358 0.000000
-0.489633 0.101287 0.000000
-0.071148 -0.494912 0.000000
-0.487465 0.111256 0.000000
-0.061039 -0.496260 0.000000
-0.485094 0.121178 0.000000
-0.050904 -0.497402 0.000000
-0.482520 0.131050 0.000000
-0.040749 -0.498337 0.000000
-0.479747 0.140866 0.000000
-0.030577 -0.499064 0.000000
-0.476773 0.150623 0.000000
-0.020392 -0.499584 0.000000
-0.473602 0.160317 0.000000
-0.010199 -0.499896 0.000000
-0.470233 0.169944 0.000000
0.000000 -0.500000 0.000000
-0.466668 0.179501 0.000000
0.010199 -0.499896 0.000000
-0.462910 0.188983 0.000000
0.020392 -0.499584 0.000000
-0.458958 0.198386 0.000000
0.030577 -0.499064 0.000000
-0.454816 0.207707 0.000000
0.040749 -0.498337 0.000000
-0.450484 0.216942 0.000000
0.050904 -0.497402 0.000000
-0.445965 0.226086 0.000000
0.061039 -0.496260 0.000000
-0.441261 0.235136 0.000000
0.071148 -0.494912 0.000000
-0.436373 0.244088 0.000000
0.081229 -0.493358 0.000000
-0.431303 0.252938 0.000000
0.091277 -0.491598 0.000000
-0.426054 0.261684 0.000000
0.101287 -0.489633 0.000000
-0.420627 0.270320 0.000000
0.111256 -0.487465 0.000000
-0.415025 0.278844 0.000000
0.121178 -0.485094 0.000000
-0.409251 0.287252 0.000000
0.131050 -0.482520 0.000000
-0.403306 0.295541 0.000000
0.140866 -0.479747 0.000000
-0.397194 0.303706 0.000000
0.150623 -0.476773 0.000000
-0.390916 0.311745 0.000000
0.160317 -0.473602 0.000000
-0.384475 0.319654 0.000000
0.169944 -0.470233 0.000000
-0.377875 0.327430 0.000000
0.179501 -0.466668 0.000000
-0.371117 0.335070 0.000000
0.188983 -0.462910 0.000000
-0.364205 0.342571 0.000000
0.198386 -0.458958 0.000000
-0.357141 0.349929 0.000000
0.207707 -0.454816 0.000000
-0.349929 0.357141 0.000000
0.216942 -0.450484 0.000000
-0.342571 0.364205 0.000000
0.226086 -0.445965 0.000000
-0.335070 0.371117 0.000000
0.235136 -0.441261 0.000000
-0.327430 0.377875 0.000000
0.244088 -0.436373 0.000000
-0.319654 0.384475 0.000000
0.252938 -0.431303 0.000000
-0.311745 0.390916 0.000000
0.261684 -0.426054 0.000000
-0.303706 0.397194 0.000000
0.270320 -0.420627 0.000000
-0.295541 0.403306 0.000000
0.278844 -0.415025 0.000000
-0.287252 0.409251 0.000000
0.287252 -0.409251 0.000000
-0.278844 0.415025 0.000000
0.295541 -0.403306 0.000000
-0.270320 0.420627 0.000000
0.303706 -0.397194 0.000000
-0.261684 0.426054 0.000000
0.311745 -0.390916 0.000000
-0.252938 0.431303 0.000000
0.319654 -0.384475 0.000000
-0.244088 0.436373 0.000000
0.327430 -0.377875 0.000000
-0.235136 0.441261 0.000000
0.335070 -0.371117 0.000000
-0.226086 0.445965 0.000000
0.342571 -0.364205 0.000000
-0.216942 0.450484 0.000000
0.349929 -0.357141 0.000000
-0.207707 0.454816 0.000000
0.357141 -0.349929 0.000000
-0.198386 0.458958 0.000000
0.364205 -0.342571 0.000000
-0.188983 0.462910 0.000000
0.371117 -0.335070 0.000000
-0.179501 0.466668 0.000000
0.377875 -0.327430 0.000000
-0.169944 0.470233 0.000000
0.384475 -0.319654 0.000000
-0.160317 0.473602 0.000000
0.390916 -0.311745 0.000000
-0.150623 0.476773 0.000000
0.397194 -0.303706 0.000000
-0.140866 0.479747 0.000000
0.403306 -0.295541 0.000000
-0.131050 0.482520 0.000000
0.409251 -0.287252 0.000000
-0.121178 0.485094 0.000000
0.415025 -0.278844 0.000000
-0.111256 0.487465 0.000000
0.420627 -0.270320 0.000000
-0.101287 0.489633 0.000000
0.426054 -0.261684 0.000000
-0.091277 0.491598 0.000000
0.431303 -0.252938 0.000000
-0.081229 0.493358 0.000000
0.436373 -0.244088 0.000000
-0.071148 0.494912 0.000000
0.441261 -0.235136 0.000000
-0.061039 0.496260 0.000000
0.445965 -0.226086 0.000000
-0.050904 0.497402 0.000000
0.450484 -0.216942 0.000000
-0.040749 0.498337 0.000000
0.454816 -0.207707 0.000000
-0.030577 0.499064 0.000000
0.458958 -0.198386 0.000000
-0.020392 0.499584 0.000000
0.462910 -0.188983 0.000000
-0.010199 0.499896 0.000000
0.466668 -0.179501 0.000000
0.000000 0.500000 0.000000
0.470233 -0.169944 0.000000
0.010199 0.499896 0.000000
0.473602 -0.160317 0.000000
0.020392 0.499584 0.000000
0.476773 -0.150623 0.000000
0.030577 0.499064 0.000000
0.479747 -0.140866 0.000000
0.040749 0.498337 0.000000
0.482520 -0.131050 0.000000
0.050904 0.497402 0.000000
0.485094 -0.121178 0.000000
0.061039 0.496260 0.000000
0.487465 -0.111256 0.000000
0.071148 0.494912 0.000000
0.489633 -0.101287 0.000000
0.081229 0.493358 0.000000
0.491598 -0.091277 0.000000
0.091277 0.491598 0.000000
0.493358 -0.081229 0.000000
0.101287 0.489633 0.000000
0.494912 -0.071148 0.000000
0.111256 0.487465 0.000000
0.496260 -0.061039 0.000000
0.121178 0.485094 0.000000
0.497402 -0.050904 0.000000
0.131050 0.482520 0.000000
0.498337 -0.040749 0.000000
0.140866 0.479747 0.000000
0.499064 -0.030577 0.000000
0.150623 0.476773 0.000000
0.499584 -0.020392 0.000000
0.160317 0.473602 0.000000
0.499896 -0.010199 0.000000
0.169944 0.470233 0.000000
0.500000 0.000000 0.000000
0.179501 0.466668 0.000000
0.499896 0.010199 0.000000
0.188983 0.462910 0.000000
0.499584 0.020392 0.000000
0.198386 0.458958 0.000000
0.499064 0.030577 0.000000
0.207707 0.454816 0.000000
0.498337 0.040749 0.000000
0.216942 0.450484 0.000000
0.497402 0.050904 0.000000
0.226086 0.445965 0.000000
0.496260 0.061039 0.000000
0.235136 0.441261 0.000000
0.494912 0.071148 0.000000
0.244088 0.436373 0.000000
0.493358 0.081229 0.000000
0.252938 0.431303 0.000000
0.491598 0.091277 0.000000
0.261684 0.426054 0.000000
0.489633 0.101287 0.000000
0.270320 0.420627 0.000000
0.487465 0.111256 0.000000
0.278844 0.415025 0.000000
0.485094 0.121178 0.000000
0.287252 0.409251 0.000000
0.482520 0.131050 0.000000
0.295541 0.403306 0.000000
0.479747 0.140866 0.000000
0.303706 0.397194 0.000000
0.476773 0.150623 0.000000
0.311745 0.390916 0.000000
0.473602 0.160317 0.000000
0.319654 0.384475 0.000000
0.470233 0.169944 0.000000
0.327430 0.377875 0.000000
0.466668 0.179501 0.000000
0.335070 0.371117 0.000000
0.462910 0.188983 0.000000
0.342571 0.364205 0.000000
0.458958 0.198386 0.000000
0.349929 0.357141 0.000000
0.454816 0.207707 0.000000
0.357141 0.349929 0.000000
0.450484 0.216942 0.000000
0.364205 0.342571 0.000000
0.445965 0.226086 0.000000
0.371117 0.335070 0.000000
0.441261 0.235136 0.000000
0.377875 0.327430 0.000000
0.436373 0.244088 0.000000
0.384475 0.319654 0.000000
0.431303 0.252938 0.000000
0.390916 0.311745 0.000000
0.426054 0.261684 0.000000
0.397194 0.303706 0.000000
0.420627 0.270320 0.000000
0.415025 0.278844 0.000000
0.403306 0.295541 0.000000
0.409251 0.287252 0.000000
-0.416651 -0.285100 0.000000
-0.409726 -0.295166 0.000000
-0.421429 -0.278105 0.000000
-0.403699 -0.303357 0.000000
-0.426806 -0.269823 0.000000
-0.397508 -0.311425 0.000000
-0.432197 -0.261278 0.000000
-0.391157 -0.319367 0.000000
-0.437327 -0.252500 0.000000
-0.384646 -0.327179 0.000000
-0.442314 -0.243721 0.000000
-0.377979 -0.334859 0.000000
-0.446941 -0.235122 0.000000
-0.450784 -0.228337 0.000000
-0.370462 -0.343155 0.000000
-0.455028 -0.219045 0.000000
-0.452668 -0.223420 0.000000
-0.364060 -0.349914 0.000000
-0.459296 -0.209724 0.000000
-0.457282 -0.214033 0.000000
-0.357103 -0.357057 0.000000
-0.461352 -0.204833 0.000000
-0.463724 -0.200363 0.000000
-0.350055 -0.363925 0.000000
-0.465669 -0.195543 0.000000
-0.467695 -0.190817 0.000000
-0.343998 -0.369738 0.000000
-0.471431 -0.181492 0.000000
-0.469405 -0.186286 0.000000
-0.334859 -0.377979 0.000000
-0.472952 -0.176626 0.000000
-0.474903 -0.171777 0.000000
-0.327179 -0.384646 0.000000
-0.478846 -0.161727 0.000000
-0.476435 -0.167155 0.000000
-0.319367 -0.391157 0.000000
-0.480787 -0.154555 0.000000
-0.311425 -0.397508 0.000000
-0.483607 -0.145275 0.000000
-0.303357 -0.403699 0.000000
-0.486452 -0.135600 0.000000
-0.293440 -0.410921 0.000000
-0.489031 -0.125774 0.000000
-0.286535 -0.415757 0.000000
-0.491508 -0.115921 0.000000
-0.278352 -0.421319 0.000000
-0.493686 -0.106038 0.000000
-0.269886 -0.426828 0.000000
-0.495651 -0.096362 0.000000
-0.261233 -0.432144 0.000000
-0.497198 -0.088074 0.000000
-0.252462 -0.437285 0.000000
-0.499250 -0.075953 0.000000
-0.243613 -0.442280 0.000000
-0.500654 -0.065906 0.000000
-0.234715 -0.447127 0.000000
-0.228640 -0.450519 0.000000
-0.501880 -0.055811 0.000000
-0.218895 -0.455215 0.000000
-0.223224 -0.452881 0.000000
-0.502902 -0.045695 0.000000
-0.209733 -0.459391 0.000000
-0.214212 -0.457190 0.000000
-0.503721 -0.035560 0.000000
-0.200365 -0.463733 0.000000
-0.204804 -0.461613 0.000000
-0.195531 -0.465664 0.000000
-0.190784 -0.467722 0.000000
-0.504503 -0.023225 0.000000
-0.186244 -0.469425 0.000000
-0.181531 -0.471460 0.000000
-0.504773 -0.013853 0.000000
-0.176954 -0.472745 0.000000
-0.171678 -0.474859 0.000000
-0.505074 -0.003656 0.000000
-0.167137 -0.476450 0.000000
-0.161673 -0.478820 0.000000
-0.504932 0.006910 0.000000
-0.154529 -0.480797 0.000000
-0.504834 0.020042 0.000000
-0.145171 -0.483695 0.000000
-0.503551 0.037586 0.000000
-0.135593 -0.486453 0.000000
-0.502892 0.045680 0.000000
-0.125775 -0.489083 0.000000
-0.502191 0.053713 0.000000
-0.115940 -0.491464 0.000000
-0.500654 0.065906 0.000000
-0.106312 -0.493603 0.000000
-0.499225 0.075974 0.000000
-0.098005 -0.495252 0.000000
-0.497594 0.086013 0.000000
-0.086013 -0.497594 0.000000
-0.495252 0.098004 0.000000
-0.075974 -0.499225 0.000000
-0.493597 0.106314 0.000000
-0.065906 -0.500654 0.000000
-0.491428 0.115952 0.000000
-0.053714 -0.502191 0.000000
-0.489011 0.125775 0.000000
-0.045680 -0.502892 0.000000
-0.486412 0.135576 0.000000
-0.037586 -0.503551 0.000000
-0.483678 0.145285 0.000000
-0.480787 0.154548 0.000000
-0.478775 0.161676 0.000000
-0.019993 -0.505013 0.000000
-0.474875 0.171814 0.000000
-0.476450 0.167142 0.000000
-0.006399 -0.504863 0.000000
-0.471460 0.181500 0.000000
-0.472984 0.176743 0.000000
0.004056 -0.505080 0.000000
-0.469459 0.186171 0.000000
-0.467574 0.190927 0.000000
0.014245 -0.504767 0.000000
-0.465619 0.195494 0.000000
-0.463733 0.200332 0.000000
0.023224 -0.504502 0.000000
-0.461448 0.204867 0.000000
-0.459421 0.209641 0.000000
0.035560 -0.503721 0.000000
-0.457230 0.214138 0.000000
-0.455198 0.218914 0.000000
0.045695 -0.502902 0.000000
-0.452908 0.223198 0.000000
-0.450716 0.228508 0.000000
0.055811 -0.501880 0.000000
-0.446914 0.235146 0.000000
0.065906 -0.500654 0.000000
-0.442240 0.243700 0.000000
0.075974 -0.499225 0.000000
-0.437272 0.252473 0.000000
0.088074 -0.497198 0.000000
-0.432109 0.261213 0.000000
0.096362 -0.495651 0.000000
-0.426787 0.269860 0.000000
0.106034 -0.493683 0.000000
-0.421297 0.278338 0.000000
0.115913 -0.491500 0.000000
-0.415757 0.286535 0.000000
0.125776 -0.489039 0.000000
-0.410932 0.293439 0.000000
0.135601 -0.486450 0.000000
-0.403699 0.303357 0.000000
0.145277 -0.483606 0.000000
-0.397508 0.311425 0.000000
0.154557 -0.480774 0.000000
0.161733 -0.478769 0.000000
-0.391157 0.319367 0.000000
0.167091 -0.476488 0.000000
0.171718 -0.474954 0.000000
-0.384646 0.327179 0.000000
0.176707 -0.473000 0.000000
0.181505 -0.471475 0.000000
-0.377979 0.334859 0.000000
0.186295 -0.469391 0.000000
0.190925 -0.467576 0.000000
-0.369765 0.344010 0.000000
0.195633 -0.465648 0.000000
0.200345 -0.463770 0.000000
-0.363926 0.350050 0.000000
0.209734 -0.459450 0.000000
0.204910 -0.461509 0.000000
-0.357034 0.357061 0.000000
0.214072 -0.457247 0.000000
0.218980 -0.455067 0.000000
-0.349993 0.364032 0.000000
0.228256 -0.450815 0.000000
0.223408 -0.452712 0.000000
-0.343912 0.369752 0.000000
0.235109 -0.446946 0.000000
-0.334859 0.377979 0.000000
0.243720 -0.442311 0.000000
-0.327179 0.384646 0.000000
0.252483 -0.437299 0.000000
-0.319367 0.391157 0.000000
0.261251 -0.432197 0.000000
-0.311425 0.397508 0.000000
0.269819 -0.426806 0.000000
-0.303357 0.403699 0.000000
0.278114 -0.421436 0.000000
-0.295166 0.409726 0.000000
0.285106 -0.416757 0.000000
-0.285453 0.416477 0.000000
0.295191 -0.409722 0.000000
-0.278168 0.421408 0.000000
0.303357 -0.403699 0.000000
-0.269849 0.426857 0.000000
0.311425 -0.397508 0.000000
-0.261220 0.432122 0.000000
0.319367 -0.391157 0.000000
-0.252526 0.437285 0.000000
0.327179 -0.384646 0.000000
-0.243742 0.442304 0.000000
0.334859 -0.377979 0.000000
-0.235192 0.446897 0.000000
-0.228742 0.450552 0.000000
0.343167 -0.370539 0.000000
-0.223460 0.452663 0.000000
-0.218979 0.455026 0.000000
0.349916 -0.364073 0.000000
-0.214046 0.457197 0.000000
-0.209660 0.459391 0.000000
0.357057 -0.357104 0.000000
-0.200375 0.463730 0.000000
-0.204910 0.461372 0.000000
0.363930 -0.350058 0.000000
-0.195557 0.465613 0.000000
-0.190944 0.467564 0.000000
0.369764 -0.344011 0.000000
-0.181545 0.471428 0.000000
-0.186254 0.469430 0.000000
0.377979 -0.334859 0.000000
-0.176635 0.472984 0.000000
-0.171918 0.474870 0.000000
0.384646 -0.327179 0.000000
-0.161683 0.478683 0.000000
-0.167009 0.476454 0.000000
0.391157 -0.319367 0.000000
-0.154877 0.480582 0.000000
0.397508 -0.311425 0.000000
-0.145423 0.483611 0.000000
0.403699 -0.303357 0.000000
-0.135605 0.486389 0.000000
0.410921 -0.293440 0.000000
-0.125786 0.489034 0.000000
0.415757 -0.286535 0.000000
-0.115924 0.491501 0.000000
0.421276 -0.278351 0.000000
-0.106038 0.493682 0.000000
0.426786 -0.269861 0.000000
-0.096362 0.495651 0.000000
0.432129 -0.261224 0.000000
-0.088074 0.497198 0.000000
0.437364 -0.252518 0.000000
-0.075974 0.499225 0.000000
0.442255 -0.243696 0.000000
-0.065906 0.500654 0.000000
0.446901 -0.235165 0.000000
0.450626 -0.228629 0.000000
-0.055811 0.501880 0.000000
0.452863 -0.223239 0.000000
0.455037 -0.219014 0.000000
-0.045695 0.502902 0.000000
0.457157 -0.214077 0.000000
0.459396 -0.209621 0.000000
-0.035560 0.503721 0.000000
0.461359 -0.204897 0.000000
0.463695 -0.200361 0.000000
-0.023304 0.504424 0.000000
0.465641 -0.195495 0.000000
0.467606 -0.190951 0.000000
-0.014879 0.504782 0.000000
0.469414 -0.186248 0.000000
0.471411 -0.181540 0.000000
-0.005033 0.504925 0.000000
0.472918 -0.176630 0.000000
0.474886 -0.171779 0.000000
0.005043 0.504929 0.000000
0.476453 -0.167022 0.000000
0.478685 -0.161862 0.000000
0.014951 0.504764 0.000000
0.480771 -0.154583 0.000000
0.023215 0.504525 0.000000
0.483673 -0.145303 0.000000
0.037586 0.503551 0.000000
0.486450 -0.135593 0.000000
0.045750 0.502896 0.000000
0.489087 -0.125805 0.000000
0.053799 0.502083 0.000000
0.491453 -0.115970 0.000000
0.065906 0.500654 0.000000
0.493600 -0.106336 0.000000
0.075974 0.499225 0.000000
0.495243 -0.098118 0.000000
0.086013 0.497594 0.000000
0.497594 -0.086013 0.000000
0.098116 0.495243 0.000000
0.499225 -0.075974 0.000000
0.106336 0.493600 0.000000
0.500654 -0.065906 0.000000
0.115972 0.491452 0.000000
0.502084 -0.053799 0.000000
0.125820 0.489079 0.000000
0.502897 -0.045748 0.000000
0.135587 0.486408 0.000000
0.503551 -0.037586 0.000000
0.145284 0.483678 0.000000
0.504412 -0.023728 0.000000
0.154553 0.480792 0.000000
0.504678 -0.016946 0.000000
0.161702 0.478804 0.000000
0.166954 0.476453 0.000000
0.504949 -0.002996 0.000000
0.171459 0.474989 0.000000
0.176706 0.472959 0.000000
0.504952 0.005359 0.000000
0.181613 0.471429 0.000000
0.186155 0.469450 0.000000
0.504776 0.014970 0.000000
0.190941 0.467614 0.000000
0.195461 0.465640 0.000000
0.504507 0.023301 0.000000
0.200321 0.463696 0.000000
0.204665 0.461639 0.000000
0.503721 0.035560 0.000000
0.209779 0.459311 0.000000
0.214128 0.457065 0.000000
0.502902 0.045695 0.000000
0.218898 0.455083 0.000000
0.223160 0.452917 0.000000
0.501880 0.055811 0.000000
0.228588 0.450696 0.000000
0.500654 0.065906 0.000000
0.235160 0.446911 0.000000
0.499225 0.075974 0.000000
0.243704 0.442242 0.000000
0.497198 0.088074 0.000000
0.252477 0.437275 0.000000
0.495651 0.096362 0.000000
0.261232 0.432125 0.000000
0.493684 0.106044 0.000000
0.269859 0.426787 0.000000
0.491464 0.115912 0.000000
0.278336 0.421300 0.000000
0.489031 0.125776 0.000000
0.286532 0.415761 0.000000
0.486389 0.135603 0.000000
0.293440 0.410921 0.000000
0.483609 0.145424 0.000000
0.303357 0.403699 0.000000
0.480578 0.154802 0.000000
0.311425 0.397508 0.000000
0.478655 0.161751 0.000000
0.476452 0.166982 0.000000
0.319367 0.391157 0.000000
0.474971 0.171610 0.000000
0.472982 0.176607 0.000000
0.327179 0.384646 0.000000
0.471433 0.181509 0.000000
0.469353 0.186363 0.000000
0.334859 0.377979 0.000000
0.467613 0.190886 0.000000
0.465645 0.195476 0.000000
0.344010 0.369764 0.000000
0.461373 0.204887 0.000000
0.463686 0.200316 0.000000
0.350057 0.363930 0.000000
0.459353 0.209725 0.000000
0.457070 0.214141 0.000000
0.357100 0.357062 0.000000
0.452708 0.223419 0.000000
0.455125 0.218877 0.000000
0.364020 0.349971 0.000000
0.450552 0.228739 0.000000
0.370222 0.343498 0.000000
0.446889 0.235184 0.000000
0.377979 0.334859 0.000000
0.442252 0.243700 0.000000
0.384646 0.327179 0.000000
0.437360 0.252522 0.000000
0.391146 0.319394 0.000000
0.432139 0.261225 0.000000
0.397501 0.311463 0.000000
0.426837 0.269829 0.000000
0.403699 0.303357 0.000000
0.421434 0.278106 0.000000
0.416650 0.285100 0.000000
0.409726 0.295166 0.000000
CELLS 1364 5456
3 624 2 0
3 624 0 1
3 624 1 317
3 317 626 624
3 626 317 319
3 319 628 626
3 4 626 628
3 628 6 4
3 6 628 630
3 630 8 6
3 8 630 632
3 632 10 8
3 10 632 634
3 634 12 10
3 12 634 636
3 636 14 12
3 14 636 637
3 637 16 14
3 640 16 637
3 637 329 640
3 640 329 331
3 639 640 331
3 639 331 643
3 643 18 639
3 639 18 16
3 643 642 18
3 642 20 18
3 645 20 642
3 642 333 645
3 645 333 335
3 646 645 335
3 646 335 648
3 648 22 646
3 646 22 20
3 648 649 22
3 649 24 22
3 652 24 649
3 649 337 652
3 652 337 339
3 651 652 339
3 651 339 654
3 654 26 651
3 651 26 24
3 654 655 26
3 655 28 26
3 658 28 655
3 655 341 658
3 658 341 343
3 657 658 343
3 657 343 660
3 30 657 660
3 660 32 30
3 32 660 662
3 662 34 32
3 34 662 664
3 664 36 34
3 36 664 666
3 666 38 36
3 38 666 668
3 668 40 38
3 40 668 670
3 670 42 40
3 42 670 672
3 672 44 42
3 44 672 674
3 674 46 44
3 674 359 46
3 676 46 359
3 676 359 361
3 676 361 48
3 678 48 361
3 678 361 363
3 678 363 50
3 681 50 363
3 681 363 365
3 681 365 52
3 684 52 365
3 684 365 367
3 684 367 54
3 687 54 367
3 687 367 369
3 687 369 56
3 692 56 369
3 692 369 371
3 371 695 692
3 58 692 695
3 695 60 58
3 60 695 698
3 698 62 60
3 62 698 701
3 701 64 62
3 64 701 703
3 65 64 703
3 65 703 67
3 67 703 381
3 705 67 381
3 705 381 383
3 383 707 705
3 69 705 707
3 707 71 69
3 71 707 709
3 709 73 71
3 709 387 73
3 711 73 387
3 711 387 389
3 711 389 75
3 713 75 389
3 713 389 391
3 713 391 77
3 715 77 391
3 715 391 393
3 715 393 79
3 717 79 393
3 717 393 395
3 395 719 717
3 81 717 719
3 719 83 81
3 83 719 721
3 721 85 83
3 85 721 723
3 723 87 85
3 87 723 725
3 725 89 87
3 89 725 727
3 727 91 89
3 91 727 728
3 728 92 91
3 92 728 729
3 729 95 92
3 732 95 729
3 729 407 732
3 732 407 409
3 731 732 409
3 731 409 735
3 735 97 731
3 731 97 95
3 735 734 97
3 734 99 97
3 737 99 734
3 734 411 737
3 737 411 413
3 738 737 413
3 738 413 740
3 740 101 738
3 738 101 99
3 740 741 101
3 741 103 101
3 743 103 741
3 741 415 743
3 743 415 417
3 744 743 417
3 744 417 746
3 746 105 744
3 744 105 103
3 746 747 105
3 747 107 105
3 749 107 747
3 747 419 749
3 749 419 421
3 750 749 421
3 750 421 752
3 109 750 752
3 752 111 109
3 111 752 754
3 754 113 111
3 113 754 756
3 756 115 113
3 115 756 758
3 758 117 115
3 117 758 760
3 760 119 117
3 119 760 762
3 762 121 119
3 121 762 764
3 764 123 121
3 123 764 766
3 766 125 123
3 766 437 125
3 768 125 437
3 768 437 439
3 768 439 127
3 770 127 439
3 770 439 441
3 770 441 130
3 773 130 441
3 773 441 443
3 773 443 132
3 776 132 443
3 776 443 445
3 776 445 134
3 779 134 445
3 779 445 447
3 779 447 136
3 782 136 447
3 782 447 449
3 449 785 782
3 138 782 785
3 785 140 138
3 140 785 788
3 788 142 140
3 142 788 791
3 791 144 142
3 144 791 794
3 794 146 144
3 794 457 146
3 796 146 457
3 796 457 459
3 796 459 148
3 798 148 459
3 798 459 461
3 798 461 150
3 800 150 461
3 800 461 463
3 800 463 152
3 802 152 463
3 802 463 465
3 802 465 154
3 804 154 465
3 804 465 467
3 804 467 156
3 806 156 467
3 806 467 469
3 806 469 158
3 808 158 469
3 808 469 471
3 471 810 808
3 160 808 810
3 810 162 160
3 162 810 812
3 812 164 162
3 164 812 814
3 814 166 164
3 166 814 816
3 816 168 166
3 168 816 818
3 818 170 168
3 170 818 820
3 820 172 170
3 172 820 821
3 821 174 172
3 823 174 821
3 821 483 823
3 823 483 485
3 824 823 485
3 824 485 826
3 826 176 824
3 824 176 174
3 826 827 176
3 827 178 176
3 830 178 827
3 827 487 830
3 830 487 489
3 829 830 489
3 829 489 832
3 832 180 829
3 829 180 178
3 832 833 180
3 833 182 180
3 836 182 833
3 833 491 836
3 836 491 493
3 835 836 493
3 835 493 838
3 838 184 835
3 835 184 182
3 838 839 184
3 839 186 184
3 842 186 839
3 839 495 842
3 842 495 497
3 841 842 497
3 841 497 844
3 188 841 844
3 844 190 188
3 190 844 846
3 846 192 190
3 192 846 848
3 848 194 192
3 194 848 850
3 850 196 194
3 196 850 852
3 852 198 196
3 198 852 854
3 854 200 198
3 200 854 856
3 856 202 200
3 202 856 858
3 858 204 202
3 858 513 204
3 860 204 513
3 860 513 515
3 860 515 206
3 862 206 515
3 862 515 517
3 862 517 208
3 865 208 517
3 865 517 519
3 865 519 210
3 868 210 519
3 868 519 521
3 868 521 212
3 871 212 521
3 871 521 523
3 871 523 214
3 874 214 523
3 874 523 525
3 525 877 874
3 216 874 877
3 877 218 216
3 218 877 880
3 880 220 218
3 220 880 883
3 883 222 220
3 222 883 886
3 886 224 222
3 224 886 888
3 888 226 224
3 888 535 226
3 890 226 535
3 890 535 537
3 537 892 890
3 228 890 892
3 892 230 228
3 230 892 894
3 894 232 230
3 894 541 232
3 896 232 541
3 896 541 543
3 896 543 234
3 898 234 543
3 898 543 545
3 898 545 236
3 900 236 545
3 900 545 547
3 900 547 238
3 902 238 547
3 902 547 549
3 549 904 902
3 902 904 240
3 904 242 240
3 242 904 906
3 906 244 242
3 244 906 908
3 908 246 244
3 246 908 910
3 910 248 246
3 248 910 912
3 912 250 248
3 250 912 914
3 914 252 250
3 252 914 916
3 916 254 252
3 917 254 916
3 916 561 917
3 917 561 563
3 919 917 563
3 919 563 920
3 920 256 919
3 919 256 254
3 920 922 256
3 922 258 256
3 923 258 922
3 922 565 923
3 923 565 567
3 925 923 567
3 925 567 926
3 926 260 925
3 925 260 258
3 926 928 260
3 928 262 260
3 929 262 928
3 928 569 929
3 929 569 571
3 931 929 571
3 931 571 932
3 932 264 931
3 931 264 262
3 932 934 264
3 934 266 264
3 935 266 934
3 934 573 935
3 935 573 575
3 937 935 575
3 937 575 939
3 268 937 939
3 939 270 268
3 270 939 941
3 941 272 270
3 272 941 943
3 943 274 272
3 274 943 945
3 945 276 274
3 276 945 947
3 947 278 276
3 278 947 949
3 949 280 278
3 280 949 951
3 951 282 280
3 282 951 953
3 953 284 282
3 953 591 284
3 955 284 591
3 955 591 593
3 955 593 286
3 957 286 593
3 957 593 595
3 957 595 288
3 960 288 595
3 960 595 597
3 960 597 290
3 963 290 597
3 963 597 599
3 963 599 292
3 966 292 599
3 966 599 601
3 966 601 294
3 969 294 601
3 969 601 603
3 603 972 969
3 296 969 972
3 972 298 296
3 298 972 975
3 975 300 298
3 300 975 978
3 978 302 300
3 302 978 980
3 980 304 302
3 980 611 304
3 982 304 611
3 982 611 613
3 982 613 306
3 984 306 613
3 984 613 615
3 984 615 308
3 986 308 615
3 986 615 617
3 986 617 310
3 988 310 617
3 988 617 619
3 988 619 312
3 990 312 619
3 990 619 622
3 990 622 314
3 993 314 622
3 993 622 623
3 993 623 316
3 992 316 623
3 992 623 621
3 621 991 992
3 315 992 991
3 991 313 315
3 313 991 989
3 989 311 313
3 311 989 987
3 987 309 311
3 309 987 985
3 985 307 309
3 307 985 983
3 983 305 307
3 305 983 981
3 981 303 305
3 303 981 979
3 979 301 303
3 976 301 979
3 979 610 976
3 976 610 608
3 977 976 608
3 977 608 974
3 974 299 977
3 977 299 301
3 974 973 299
3 973 297 299
3 970 297 973
3 973 606 970
3 970 606 604
3 971 970 604
3 971 604 968
3 968 295 971
3 971 295 297
3 968 967 295
3 967 293 295
3 965 293 967
3 967 602 965
3 965 602 600
3 964 965 600
3 964 600 962
3 962 291 964
3 964 291 293
3 962 961 291
3 961 289 291
3 959 289 961
3 961 598 959
3 959 598 596
3 958 959 596
3 958 596 956
3 287 958 956
3 956 285 287
3 285 956 954
3 954 283 285
3 283 954 952
3 952 281 283
3 281 952 950
3 950 279 281
3 279 950 948
3 948 277 279
3 277 948 946
3 946 275 277
3 275 946 944
3 944 273 275
3 273 944 942
3 942 271 273
3 942 580 271
3 940 271 580
3 940 580 578
3 940 578 269
3 938 269 578
3 938 578 576
3 938 576 267
3 936 267 576
3 936 576 574
3 936 574 265
3 933 265 574
3 933 574 572
3 933 572 263
3 930 263 572
3 930 572 570
3 930 570 261
3 927 261 570
3 927 570 568
3 568 924 927
3 259 927 924
3 924 257 259
3 257 924 921
3 921 255 257
3 255 921 918
3 918 253 255
3 918 562 253
3 915 253 562
3 915 562 560
3 560 913 915
3 251 915 913
3 913 249 251
3 913 558 249
3 911 249 558
3 911 558 556
3 556 909 911
3 247 911 909
3 909 245 247
3 245 909 907
3 907 243 245
3 907 552 243
3 905 243 552
3 905 552 550
3 905 550 241
3 903 241 550
3 903 550 548
3 903 548 239
3 901 239 548
3 901 548 546
3 901 546 237
3 899 237 546
3 899 546 544
3 544 897 899
3 899 897 235
3 897 233 235
3 233 897 895
3 895 231 233
3 231 895 893
3 893 229 231
3 229 893 891
3 891 227 229
3 227 891 889
3 889 225 227
3 225 889 887
3 887 223 225
3 223 887 885
3 885 221 223
3 884 221 885
3 885 532 884
3 884 532 530
3 882 884 530
3 882 530 881
3 881 219 882
3 882 219 221
3 881 879 219
3 879 217 219
3 878 217 879
3 879 528 878
3 878 528 526
3 876 878 526
3 876 526 875
3 875 215 876
3 876 215 217
3 875 873 215
3 873 213 215
3 872 213 873
3 873 524 872
3 872 524 522
3 870 872 522
3 870 522 869
3 869 211 870
3 870 211 213
3 869 867 211
3 867 209 211
3 866 209 867
3 867 520 866
3 866 520 518
3 864 866 518
3 864 518 863
3 207 864 863
3 863 205 207
3 205 863 861
3 861 203 205
3 203 861 859
3 859 201 203
3 201 859 857
3 857 199 201
3 199 857 855
3 855 197 199
3 197 855 853
3 853 195 197
3 195 853 851
3 851 193 195
3 193 851 849
3 849 191 193
3 849 502 191
3 847 191 502
3 847 502 500
3 847 500 189
3 845 189 500
3 845 500 498
3 845 498 187
3 843 187 498
3 843 498 496
3 843 496 185
3 840 185 496
3 840 496 494
3 840 494 183
3 837 183 494
3 837 494 492
3 837 492 181
3 834 181 492
3 834 492 490
3 490 831 834
3 179 834 831
3 831 177 179
3 177 831 828
3 828 175 177
3 175 828 825
3 825 173 175
3 173 825 822
3 822 171 173
3 822 482 171
3 819 171 482
3 819 482 480
3 819 480 169
3 817 169 480
3 817 480 478
3 817 478 167
3 815 167 478
3 815 478 476
3 815 476 165
3 813 165 476
3 813 476 474
3 813 474 163
3 811 163 474
3 811 474 472
3 811 472 161
3 809 161 472
3 809 472 470
3 809 470 159
3 807 159 470
3 807 470 468
3 468 805 807
3 157 807 805
3 805 155 157
3 155 805 803
3 803 153 155
3 153 803 801
3 801 151 153
3 151 801 799
3 799 149 151
3 149 799 797
3 797 147 149
3 147 797 795
3 795 145 147
3 145 795 792
3 792 143 145
3 793 143 792
3 792 456 793
3 793 456 454
3 790 793 454
3 790 454 789
3 789 141 790
3 790 141 143
3 789 786 141
3 786 139 141
3 787 139 786
3 786 452 787
3 787 452 450
3 784 787 450
3 784 450 783
3 783 137 784
3 784 137 139
3 783 781 137
3 781 135 137
3 780 135 781
3 781 448 780
3 780 448 446
3 778 780 446
3 778 446 777
3 777 133 778
3 778 133 135
3 777 775 133
3 775 131 133
3 774 131 775
3 775 444 774
3 774 444 442
3 772 774 442
3 772 442 771
3 129 772 771
3 771 128 129
3 128 771 769
3 769 126 128
3 126 769 767
3 767 124 126
3 124 767 765
3 765 122 124
3 122 765 763
3 763 120 122
3 120 763 761
3 761 118 120
3 118 761 759
3 759 116 118
3 116 759 757
3 757 114 116
3 757 426 114
3 755 114 426
3 755 426 424
3 755 424 112
3 753 112 424
3 753 424 422
3 753 422 110
3 751 110 422
3 751 422 420
3 751 420 108
3 748 108 420
3 748 420 418
3 748 418 106
3 745 106 418
3 745 418 416
3 745 416 104
3 742 104 416
3 742 416 414
3 414 739 742
3 102 742 739
3 739 100 102
3 100 739 736
3 736 98 100
3 98 736 733
3 733 96 98
3 96 733 730
3 94 96 730
3 94 730 93
3 93 730 404
3 726 93 404
3 726 404 402
3 402 724 726
3 90 726 724
3 724 88 90
3 88 724 722
3 722 86 88
3 722 398 86
3 720 86 398
3 720 398 396
3 720 396 84
3 718 84 396
3 718 396 394
3 718 394 82
3 716 82 394
3 716 394 392
3 716 392 80
3 714 80 392
3 714 392 390
3 390 712 714
3 78 714 712
3 712 76 78
3 76 712 710
3 710 74 76
3 74 710 708
3 708 72 74
3 72 708 706
3 706 70 72
3 70 706 704
3 704 68 70
3 68 704 702
3 702 66 68
3 66 702 700
3 700 63 66
3 699 63 700
3 700 378 699
3 699 378 376
3 697 699 376
3 697 376 696
3 696 61 697
3 697 61 63
3 696 694 61
3 694 59 61
3 693 59 694
3 694 374 693
3 693 374 372
3 691 693 372
3 691 372 690
3 690 57 691
3 691 57 59
3 690 688 57
3 688 55 57
3 689 55 688
3 688 370 689
3 689 370 368
3 685 689 368
3 685 368 686
3 686 53 685
3 685 53 55
3 686 682 53
3 682 51 53
3 683 51 682
3 682 366 683
3 683 366 364
3 680 683 364
3 680 364 679
3 49 680 679
3 679 47 49
3 47 679 677
3 677 45 47
3 45 677 675
3 675 43 45
3 43 675 673
3 673 41 43
3 41 673 671
3 671 39 41
3 39 671 669
3 669 37 39
3 37 669 667
3 667 35 37
3 35 667 665
3 665 33 35
3 665 348 33
3 663 33 348
3 663 348 346
3 663 346 31
3 661 31 346
3 661 346 344
3 661 344 29
3 659 29 344
3 659 344 342
3 659 342 27
3 656 27 342
3 656 342 340
3 656 340 25
3 653 25 340
3 653 340 338
3 653 338 23
3 650 23 338
3 650 338 336
3 336 647 650
3 21 650 647
3 647 19 21
3 19 647 644
3 644 17 19
3 17 644 641
3 641 15 17
3 15 641 638
3 638 13 15
3 638 328 13
3 635 13 328
3 635 328 326
3 635 326 11
3 633 11 326
3 633 326 324
3 633 324 9
3 631 9 324
3 631 324 322
3 631 322 7
3 629 7 322
3 629 322 320
3 629 320 5
3 627 5 320
3 627 320 318
3 627 318 3
3 625 3 318
3 625 318 1
3 625 0 3
3 627 3 5
3 629 5 7
3 631 7 9
3 633 9 11
3 635 11 13
3 638 330 328
3 330 638 641
3 641 332 330
3 332 641 644
3 644 334 332
3 334 644 647
3 647 336 334
3 650 21 23
3 653 23 25
3 656 25 27
3 659 27 29
3 661 29 31
3 663 31 33
3 665 350 348
3 350 665 667
3 667 352 350
3 352 667 669
3 669 354 352
3 354 669 671
3 671 356 354
3 356 671 673
3 673 358 356
3 358 673 675
3 675 360 358
3 360 675 677
3 677 362 360
3 362 677 679
3 680 49 51
3 679 364 362
3 683 680 51
3 682 686 366
3 686 368 366
3 689 685 55
3 688 690 370
3 690 372 370
3 693 691 59
3 694 696 374
3 696 376 374
3 699 697 63
3 700 702 378
3 702 380 378
3 380 702 704
3 704 382 380
3 382 704 706
3 706 384 382
3 384 706 708
3 708 386 384
3 386 708 710
3 710 388 386
3 388 710 712
3 712 390 388
3 714 78 80
3 716 80 82
3 718 82 84
3 720 84 86
3 722 400 398
3 400 722 724
3 724 402 400
3 726 90 93
3 406 404 730
3 406 730 408
3 408 730 733
3 733 410 408
3 410 733 736
3 736 412 410
3 412 736 739
3 739 414 412
3 742 102 104
3 745 104 106
3 748 106 108
3 751 108 110
3 753 110 112
3 755 112 114
3 757 428 426
3 428 757 759
3 759 430 428
3 430 759 761
3 761 432 430
3 432 761 763
3 763 434 432
3 434 763 765
3 765 436 434
3 436 765 767
3 767 438 436
3 438 767 769
3 769 440 438
3 440 769 771
3 772 129 131
3 771 442 440
3 774 772 131
3 775 777 444
3 777 446 444
3 780 778 135
3 781 783 448
3 783 450 448
3 787 784 139
3 786 789 452
3 789 454 452
3 793 790 143
3 792 795 456
3 795 458 456
3 458 795 797
3 797 460 458
3 460 797 799
3 799 462 460
3 462 799 801
3 801 464 462
3 464 801 803
3 803 466 464
3 466 803 805
3 805 468 466
3 807 157 159
3 809 159 161
3 811 161 163
3 813 163 165
3 815 165 167
3 817 167 169
3 819 169 171
3 822 484 482
3 484 822 825
3 825 486 484
3 486 825 828
3 828 488 486
3 488 828 831
3 831 490 488
3 834 179 181
3 837 181 183
3 840 183 185
3 843 185 187
3 845 187 189
3 847 189 191
3 849 504 502
3 504 849 851
3 851 506 504
3 506 851 853
3 853 508 506
3 508 853 855
3 855 510 508
3 510 855 857
3 857 512 510
3 512 857 859
3 859 514 512
3 514 859 861
3 861 516 514
3 516 861 863
3 864 207 209
3 863 518 516
3 866 864 209
3 867 869 520
3 869 522 520
3 872 870 213
3 873 875 524
3 875 526 524
3 878 876 217
3 879 881 528
3 881 530 528
3 884 882 221
3 885 887 532
3 887 534 532
3 534 887 889
3 889 536 534
3 536 889 891
3 891 538 536
3 538 891 893
3 893 540 538
3 540 893 895
3 895 542 540
3 542 895 897
3 897 544 542
3 899 235 237
3 901 237 239
3 903 239 241
3 905 241 243
3 907 554 552
3 554 907 909
3 909 556 554
3 911 247 249
3 913 560 558
3 915 251 253
3 918 564 562
3 564 918 921
3 921 566 564
3 566 921 924
3 924 568 566
3 927 259 261
3 930 261 263
3 933 263 265
3 936 265 267
3 938 267 269
3 940 269 271
3 942 582 580
3 582 942 944
3 944 584 582
3 584 944 946
3 946 586 584
3 586 946 948
3 948 588 586
3 588 948 950
3 950 590 588
3 590 950 952
3 952 592 590
3 592 952 954
3 954 594 592
3 594 954 956
3 958 287 289
3 956 596 594
3 959 958 289
3 961 962 598
3 962 600 598
3 965 964 293
3 967 968 602
3 968 604 602
3 970 971 297
3 973 974 606
3 974 608 606
3 976 977 301
3 979 981 610
3 981 612 610
3 612 981 983
3 983 614 612
3 614 983 985
3 985 616 614
3 616 985 987
3 987 618 616
3 618 987 989
3 989 620 618
3 620 989 991
3 991 621 620
3 992 315 316
3 993 316 314
3 990 314 312
3 988 312 310
3 986 310 308
3 984 308 306
3 982 306 304
3 980 609 611
3 609 980 978
3 978 607 609
3 607 978 975
3 975 605 607
3 605 975 972
3 972 603 605
3 969 296 294
3 966 294 292
3 963 292 290
3 960 290 288
3 957 288 286
3 955 286 284
3 953 589 591
3 589 953 951
3 951 587 589
3 587 951 949
3 949 585 587
3 585 949 947
3 947 583 585
3 583 947 945
3 945 581 583
3 581 945 943
3 943 579 581
3 579 943 941
3 941 577 579
3 577 941 939
3 937 268 266
3 939 575 577
3 935 937 266
3 934 932 573
3 932 571 573
3 929 931 262
3 928 926 569
3 926 567 569
3 923 925 258
3 922 920 565
3 920 563 565
3 917 919 254
3 916 914 561
3 914 559 561
3 559 914 912
3 912 557 559
3 557 912 910
3 910 555 557
3 555 910 908
3 908 553 555
3 553 908 906
3 906 551 553
3 551 906 904
3 904 549 551
3 902 240 238
3 900 238 236
3 898 236 234
3 896 234 232
3 894 539 541
3 539 894 892
3 892 537 539
3 890 228 226
3 888 533 535
3 533 888 886
3 886 531 533
3 531 886 883
3 883 529 531
3 529 883 880
3 880 527 529
3 527 880 877
3 877 525 527
3 874 216 214
3 871 214 212
3 868 212 210
3 865 210 208
3 862 208 206
3 860 206 204
3 858 511 513
3 511 858 856
3 856 509 511
3 509 856 854
3 854 507 509
3 507 854 852
3 852 505 507
3 505 852 850
3 850 503 505
3 503 850 848
3 848 501 503
3 501 848 846
3 846 499 501
3 499 846 844
3 841 188 186
3 844 497 499
3 842 841 186
3 839 838 495
3 838 493 495
3 836 835 182
3 833 832 491
3 832 489 491
3 830 829 178
3 827 826 487
3 826 485 487
3 823 824 174
3 821 820 483
3 820 481 483
3 481 820 818
3 818 479 481
3 479 818 816
3 816 477 479
3 477 816 814
3 814 475 477
3 475 814 812
3 812 473 475
3 473 812 810
3 810 471 473
3 808 160 158
3 806 158 156
3 804 156 154
3 802 154 152
3 800 152 150
3 798 150 148
3 796 148 146
3 794 455 457
3 455 794 791
3 791 453 455
3 453 791 788
3 788 451 453
3 451 788 785
3 785 449 451
3 782 138 136
3 779 136 134
3 776 134 132
3 773 132 130
3 770 130 127
3 768 127 125
3 766 435 437
3 435 766 764
3 764 433 435
3 433 764 762
3 762 431 433
3 431 762 760
3 760 429 431
3 429 760 758
3 758 427 429
3 427 758 756
3 756 425 427
3 425 756 754
3 754 423 425
3 423 754 752
3 750 109 107
3 752 421 423
3 749 750 107
3 747 746 419
3 746 417 419
3 743 744 103
3 741 740 415
3 740 413 415
3 737 738 99
3 734 735 411
3 735 409 411
3 732 731 95
3 729 728 407
3 728 405 407
3 405 728 727
3 727 403 405
3 403 727 725
3 725 401 403
3 401 725 723
3 723 399 401
3 399 723 721
3 721 397 399
3 397 721 719
3 719 395 397
3 717 81 79
3 715 79 77
3 713 77 75
3 711 75 73
3 709 385 387
3 385 709 707
3 707 383 385
3 705 69 67
3 379 381 703
3 379 703 377
3 377 703 701
3 701 375 377
3 375 701 698
3 698 373 375
3 373 698 695
3 695 371 373
3 692 58 56
3 687 56 54
3 684 54 52
3 681 52 50
3 678 50 48
3 676 48 46
3 674 357 359
3 357 674 672
3 672 355 357
3 355 672 670
3 670 353 355
3 353 670 668
3 668 351 353
3 351 668 666
3 666 349 351
3 349 666 664
3 664 347 349
3 347 664 662
3 662 345 347
3 345 662 660
3 657 30 28
3 660 343 345
3 658 657 28
3 655 654 341
3 654 339 341
3 652 651 24
3 649 648 337
3 648 335 337
3 645 646 20
3 642 643 333
3 643 331 333
3 640 639 16
3 637 636 329
3 636 327 329
3 327 636 634
3 634 325 327
3 325 634 632
3 632 323 325
3 323 632 630
3 630 321 323
3 321 630 628
3 626 4 2
3 628 319 321
3 625 1 0
3 2 624 626
CELL_TYPES 1364
9
9
9
9
9
9
9
9
9
9
9
9
9
9
9
9
9
9
9
9
9
9
9
9
9
9
9
9
9
9
9
9
9
9
9
9
9
9
9
9
9
9
9
9
9
9
9
9
9
9
9
9
9
9
9
9
9
9
9
9
9
9
9
9
9
9
9
9
9
9
9
9
9
9
9
9
9
9
9
9
9
9
9
9
9
9
9
9
9
9
9
9
9
9
9
9
9
9
9
9
9
9
9
9
9
9
9
9
9
9
9
9
9
9
9
9
9
9
9
9
9
9
9
9
9
9
9
9
9
9
9
9
9
9
9
9
9
9
9
9
9
9
9
9
9
9
9
9
9
9
9
9
9
9
9
9
9
9
9
9
9
9
9
9
9
9
9
9
9
9
9
9
9
9
9
9
9
9
9
9
9
9
9
9
9
9
9
9
9
9
9
9
9
9
9
9
9
9
9
9
9
9
9
9
9
9
9
9
9
9
9
9
9
9
9
9
9
9
9
9
9
9
9
9
9
9
9
9
9
9
9
9
9
9
9
9
9
9
9
9
9
9
9
9
9
9
9
9
9
9
9
9
9
9
9
9
9
9
9
9
9
9
9
9
9
9
9
9
9
9
9
9
9
9
9
9
9
9
9
9
9
9
9
9
9
9
9
9
9
9
9
9
9
9
9
9
9
9
9
9
9
9
9
9
9
9
9
9
9
9
9
9
9
9
9
9
9
9
9
9
9
9
9
9
9
9
9
9
9
9
9
9
9
9
9
9
9
9
9
9
9
9
9
9
9
9
9
9
9
9
9
9
9
9
9
9
9
9
9
9
9
9
9
9
9
9
9
9
9
9
9
9
9
9
9
9
9
9
9
9
9
9
9
9
9
9
9
9
9
9
9
9
9
9
9
9
9
9
9
9
9
9
9
9
9
9
9
9
9
9
9
9
9
9
9
9
9
9
9
9
9
9
9
9
9
9
9
9
9
9
9
9
9
9
9
9
9
9
9
9
9
9
9
9
9
9
9
9
9
9
9
9
9
9
9
9
9
9
9
9
9
9
9
9
9
9
9
9
9
9
9
9
9
9
9
9
9
9
9
9
9
9
9
9
9
9
9
9
9
9
9
9
9
9
9
9
9
9
9
9
9
9
9
9
9
9
9
9
9
9
9
9
9
9
9
9
9
9
9
9
9
9
9
9
9
9
9
9
9
9
9
9
9
9
9
9
9
9
9
9
9
9
9
9
9
9
9
9
9
9
9
9
9
9
9
9
9
9
9
9
9
9
9
9
9
9
9
9
9
9
9
9
9
9
9
9
9
9
9
9
9
9
9
9
9
9
9
9
9
9
9
9
9
9
9
9
9
9
9
9
9
9
9
9
9
9
9
9
9
9
9
9
9
9
9
9
9
9
9
9
9
9
9
9
9
9
9
9
9
9
9
9
9
9
9
9
9
9
9
9
9
9
9
9
9
9
9
9
9
9
9
9
9
9
9
9
9
9
9
9
9
9
9
9
9
9
9
9
9
9
9
9
9
9
9
9
9
9
9
9
9
9
9
9
9
9
9
9
9
9
9
9
9
9
9
9
9
9
9
9
9
9
9
9
9
9
9
9
9
9
9
9
9
9
9
9
9
9
9
9
9
9
9
9
9
9
9
9
9
9
9
9
9
9
9
9
9
9
9
9
9
9
9
9
9
9
9
9
9
9
9
9
9
9
9
9
9
9
9
9
9
9
9
9
9
9
9
9
9
9
9
9
9
9
9
9
9
9
9
9
9
9
9
9
9
9
9
9
9
9
9
9
9
9
9
9
9
9
9
9
9
9
9
9
9
9
9
9
9
9
9
9
9
9
9
9
9
9
9
9
9
9
9
9
9
9
9
9
9
9
9
9
9
9
9
9
9
9
9
9
9
9
9
9
9
9
9
9
9
9
9
9
9
9
9
9
9
9
9
9
9
9
9
9
9
9
9
9
9
9
9
9
9
9
9
9
9
9
9
9
9
9
9
9
9
9
9
9
9
9
9
9
9
9
9
9
9
9
9
9
9
9
9
9
9
9
9
9
9
9
9
9
9
9
9
9
9
9
9
9
9
9
9
9
9
9
9
9
9
9
9
9
9
9
9
9
9
9
9
9
9
9
9
9
9
9
9
9
9
9
9
9
9
9
9
9
9
9
9
9
9
9
9
9
9
9
9
9
9
9
9
9
9
9
9
9
9
9
9
9
9
9
9
9
9
9
9
9
9
9
9
9
9
9
9
9
9
9
9
9
9
9
9
9
9
9
9
9
9
9
9
9
9
9
9
9
9
9
9
9
9
9
9
9
9
9
9
9
9
9
9
9
9
9
9
9
9
9
9
9
9
9
9
9
9
9
9
9
9
9
9
9
9
9
9
9
9
9
9
9
9
9
9
9
9
9
9
9
9
9
9
9
9
9
9
9
9
9
9
9
9
9
9
9
9
9
9
9
9
9
9
9
9
9
9
9
9
9
9
9
9
9
9
9
9
9
9
9
9
9
9
9
9
9
9
9
9
9
9
9
9
9
9
9
9
9
9
9
9
9
9
9
9
9
9
9
9
9
9
9
9
9
9
9
9
9
9
9
9
9
9
9
9
9
9
9
9
9
9
9
9
9
9
9
9
9
9
9
9
9
9
9
9
9
9
9
9
9
9
9
9
9
9
9
9
9
9
9
9
9
9
9
9
9
9
9
9
9
9
9
9
9
9
9
9
9
9
9
9
9
9
9
9
9
9
9
9
9
9
9
9
9
9
9
9
9
9
9
9
9
9
9
9
9
9
9
9
9
9
9
9
9
9
9
9
9
9
9
9
9
9
9
9
9
9
9
9
9
9
9
9
9
9
9
9
9
9
9
9
9
9
9
9
9
9
9
9
9
9
9
9
9
9
9
9
9
9
9
9
9
9
9
9
9
9
9
9
9
9
9
9
9
9
9
9
9
9
9
9
9
9
9
9
9
9
9
9
9
9
9
9
9
9
9
9
9
9
9
9
9
9
9
9
9
9
9
9
9
9
9
9
9
9
9
9
9
9
9
9
9
9
9
9
9
9
9
9
9
9
9
9
9
9
9
POINT_DATA 994
SCALARS u1 float
LOOKUP_TABLE default
-0.2
-0.2
-0.2
-0.2
-0.2
-0.1
-0.2
-0.1
-0.3
-0.1
-0.3
-0.09
-0.3
-0.08
-0.3
-0.07
-0.4
-0.07
-0.4
-0.06
-0.5
-0.06
-0.5
-0.06
-0.5
-0.07
-0.6
-0.07
-0.6
-0.08
-0.7
-0.08
-0.7
-0.09
-0.8
-0.1
-0.9
-0.1
-0.9
-0.1
-1
-0.1
-1
-0.1
-1
-0.1
-1
-0.2
-1
-0.2
-1
-0.2
-1
-0.2
-1
-0.2
-1
-0.2
-1
-0.2
-1
-0.2
-1
-0.3
-1
-1
-0.3
-1
-0.3
-1
-0.3
-1
-0.3
-1
-0.3
-1
-0.3
-1
-0.3
-1
-0.3
-1
-0.3
-1
-0.3
-1
-0.3
-1
-0.3
-0.9
-0.3
-0.9
-0.8
-0.3
-0.3
-0.8
-0.3
-0.8
-0.3
-0.7
-0.3
-0.7
-0.3
-0.6
-0.3
-0.6
-0.3
-0.6
-0.3
-0.6
-0.3
-0.5
-0.3
-0.5
-0.3
-0.5
-0.3
-0.5
-0.3
-0.5
-0.3
-0.5
-0.4
-0.4
-0.4
-0.4
-0.4
-0.4
-0.4
-0.4
-0.4
-0.4
-0.4
-0.5
-0.4
-0.5
-0.4
-0.5
-0.4
-0.5
-0.4
-0.5
-0.4
-0.5
-0.4
-0.6
-0.4
-0.6
-0.4
-0.6
-0.4
-0.6
-0.5
-0.6
-0.5
-0.6
-0.5
-0.7
-0.5
-0.7
-0.5
-0.7
-0.5
-0.7
-0.5
-0.7
-0.6
-0.7
-0.6
-0.7
-0.6
-0.7
-0.6
-0.7
-0.6
-0.8
-0.6
-0.8
-0.7
-0.8
-0.7
-0.8
-0.7
-0.8
-0.7
-0.7
-0.7
-0.7
-0.7
-0.7
-0.8
-0.7
-0.8
-0.7
-0.8
-0.7
-0.8
-0.7
-0.8
-0.7
-0.8
-0.6
-0.8
-0.6
-0.8
-0.6
-0.8
-0.6
-0.8
-0.6
-0.9
-0.5
-0.8
-0.5
-0.8
-0.5
-0.8
-0.4
-0.8
-0.4
-0.8
-0.3
-0.8
-0.3
-0.8
-0.3
-0.8
-0.2
-0.8
-0.2
-0.8
-0.1
-0.8
-0.07
-0.8
-0.03
-0.8
0.01
-0.8
0.05
-0.8
0.09
-0.8
0.1
-0.8
0.1
-0.9
0.2
-0.9
0.2
-0.9
0.2
-0.9
0.2
-0.9
0.2
-0.9
0.2
-0.9
0.2
-1
0.2
-1
0.1
-1
0.1
-1
0.06
-1
0.01
-1
-0.03
-1
-0.08
-1
-0.1
-1
-0.2
-1
-0.2
-1
-0.3
-1
-0.4
-1
-0.4
-1
-0.5
-1
-0.5
-1
-0.6
-1
-0.6
-1
-0.7
-1
-0.7
-1
-0.8
-1
-0.8
-1
-0.8
-1
-0.9
-1
-0.9
-1
-0.9
-1
-0.9
-1
-1
-1
-1
-1
-0.2
-0.2
-0.2
-0.2
-0.3
-0.1
-0.3
-0.1
-0.3
-0.1
-0.3
-0.09
-0.4
-0.08
-0.4
-0.07
-0.5
-0.06
-0.5
-0.06
-0.5
-0.06
-0.6
-0.06
-0.6
-0.07
-0.7
-0.07
-0.7
-0.08
-0.8
-0.08
-0.9
-0.09
-0.9
-0.09
-1
-0.1
-1
-0.1
-1
-0.1
-1
-0.1
-1
-0.1
-1
-0.1
-1
-0.2
-1
-0.2
-1
-0.2
-1
-0.2
-1
-0.2
-1
-0.2
-1
-0.2
-1
-0.2
-1
-0.3
-1
-0.3
-1
-0.3
-1
-0.3
-1
-0.3
-1
-0.3
-1
-0.3
-1
-0.3
-1
-0.3
-1
-0.3
-1
-0.3
-0.9
-0.3
-0.9
-0.3
-0.8
-0.3
-0.8
-0.3
-0.8
-0.3
-0.7
-0.3
-0.7
-0.3
-0.6
-0.3
-0.6
-0.4
-0.6
-0.4
-0.6
-0.4
-0.5
-0.4
-0.5
-0.4
-0.5
-0.4
-0.5
-0.4
-0.5
-0.4
-0.5
-0.4
-0.4
-0.4
-0.4
-0.5
-0.4
-0.5
-0.4
-0.5
-0.4
-0.5
-0.4
-0.5
-0.4
-0.5
-0.4
-0.6
-0.4
-0.6
-0.4
-0.6
-0.4
-0.6
-0.4
-0.6
-0.4
-0.6
-0.4
-0.6
-0.5
-0.7
-0.5
-0.7
-0.5
-0.7
-0.5
-0.7
-0.5
-0.7
-0.5
-0.7
-0.5
-0.7
-0.5
-0.7
-0.6
-0.7
-0.6
-0.8
-0.6
-0.8
-0.6
-0.8
-0.6
-0.8
-0.6
-0.8
-0.7
-0.7
-0.7
-0.7
-0.7
-0.7
-0.7
-0.7
-0.7
-0.7
-0.7
-0.7
-0.8
-0.7
-0.8
-0.7
-0.8
-0.7
-0.8
-0.6
-0.8
-0.6
-0.8
-0.6
-0.8
-0.6
-0.8
-0.5
-0.8
-0.5
-0.8
-0.5
-0.8
-0.4
-0.8
-0.4
-0.8
-0.4
-0.8
-0.3
-0.8
-0.3
-0.8
-0.2
-0.8
-0.2
-0.8
-0.1
-0.8
-0.08
-0.9
-0.03
-0.9
0.01
-0.9
0.05
-0.9
0.09
-0.9
0.1
-0.9
0.1
-0.9
0.2
-0.9
0.2
-0.9
0.2
-0.9
0.2
-1
0.2
-1
0.2
-1
0.2
-1
0.2
-1
0.1
-1
0.1
-1
0.06
-1
0.01
-1
-0.03
-1
-0.09
-1
-0.1
-1
-0.2
-1
-0.2
-1
-0.3
-1
-0.4
-1
-0.4
-1
-0.5
-1
-0.5
-1
-0.6
-1
-0.6
-1
-0.7
-1
-0.7
-1
-0.8
-1
-0.8
-1
-0.8
-1
-0.9
-1
-0.9
-1
-0.9
-1
-0.9
-1
-1
-1
-0.2
-0.2
-0.2
-0.2
-0.2
-0.1
-0.3
-0.1
-0.3
-0.1
-0.3
-0.09
-0.3
-0.4
-0.08
-0.4
-0.4
-0.07
-0.4
-0.4
-0.07
-0.5
-0.5
-0.06
-0.5
-0.5
-0.06
-0.6
-0.6
-0.06
-0.6
-0.6
-0.07
-0.7
-0.7
-0.07
-0.7
-0.08
-0.8
-0.08
-0.8
-0.09
-0.9
-0.1
-0.9
-0.1
-1
-0.1
-1
-0.1
-1
-0.1
-1
-0.1
-1
-0.1
-0.2
-1
-0.2
-0.2
-1
-0.2
-0.2
-1
-0.2
-0.2
-0.2
-0.2
-1
-0.2
-0.2
-1
-0.2
-0.2
-1
-0.2
-0.3
-1
-0.3
-1
-0.3
-1
-0.3
-1
-0.3
-1
-0.3
-1
-0.3
-1
-0.3
-1
-0.3
-1
-0.3
-1
-0.3
-1
-0.3
-1
-0.3
-0.9
-0.3
-0.9
-0.9
-0.8
-0.3
-0.8
-0.8
-0.3
-0.7
-0.8
-0.3
-0.7
-0.7
-0.3
-0.7
-0.7
-0.3
-0.7
-0.6
-0.3
-0.6
-0.6
-0.3
-0.6
-0.6
-0.3
-0.6
-0.3
-0.5
-0.3
-0.5
-0.4
-0.5
-0.4
-0.5
-0.4
-0.5
-0.4
-0.5
-0.4
-0.5
-0.4
-0.4
-0.4
-0.4
-0.4
-0.4
-0.4
-0.5
-0.5
-0.4
-0.5
-0.5
-0.4
-0.5
-0.5
-0.4
-0.5
-0.5
-0.4
-0.5
-0.5
-0.4
-0.5
-0.6
-0.4
-0.6
-0.6
-0.4
-0.6
-0.4
-0.6
-0.4
-0.6
-0.4
-0.6
-0.5
-0.6
-0.5
-0.7
-0.5
-0.7
-0.5
-0.7
-0.5
-0.7
-0.5
-0.7
-0.5
-0.7
-0.5
-0.7
-0.6
-0.7
-0.6
-0.6
-0.7
-0.6
-0.6
-0.8
-0.6
-0.6
-0.8
-0.6
-0.6
-0.8
-0.7
-0.7
-0.8
-0.7
-0.7
-0.8
-0.7
-0.7
-0.7
-0.7
-0.7
-0.7
-0.7
-0.7
-0.7
-0.7
-0.8
-0.7
-0.8
-0.7
-0.8
-0.7
-0.8
-0.7
-0.8
-0.6
-0.8
-0.6
-0.8
-0.6
-0.8
-0.6
-0.6
-0.8
-0.6
-0.5
-0.8
-0.5
-0.5
-0.8
-0.5
-0.5
-0.8
-0.5
-0.4
-0.8
-0.4
-0.4
-0.8
-0.4
-0.4
-0.8
-0.3
-0.3
-0.8
-0.3
-0.8
-0.2
-0.8
-0.2
-0.8
-0.1
-0.8
-0.1
-0.8
-0.05
-0.8
-0.02
-0.8
0.03
-0.9
0.07
-0.9
0.1
-0.9
0.1
-0.9
0.2
-0.9
0.2
-0.9
0.2
-0.9
0.2
-0.9
-0.9
0.2
-0.9
-0.9
0.2
-1
-1
0.2
-1
-1
0.2
-1
-1
0.1
-1
-1
0.1
-1
-1
0.08
-1
0.04
-1
-0.01
-1
-0.07
-1
-0.1
-1
-0.2
-1
-0.2
-1
-0.3
-1
-0.3
-1
-0.4
-1
-0.4
-1
-0.5
-0.5
-1
-0.5
-0.6
-1
-0.6
-0.6
-1
-0.6
-0.7
-1
-0.7
-0.7
-1
-0.7
-0.8
-1
-0.8
-0.8
-1
-0.8
-1
-0.8
-1
-0.9
-1
-0.9
-1
-0.9
-1
-0.9
-1
-1
-1
-1
SCALARS u2 float
LOOKUP_TABLE default
-0.5
-0.5
-0.5
-0.5
-0.5
-0.5
-0.5
-0.5
-0.6
-0.4
-0.6
-0.4
-0.6
-0.4
-0.6
-0.4
-0.6
-0.4
-0.6
-0.4
-0.7
-0.4
-0.7
-0.4
-0.7
-0.4
-0.7
-0.4
-0.7
-0.4
-0.7
-0.4
-0.8
-0.4
-0.8
-0.4
-0.8
-0.5
-0.8
-0.5
-0.8
-0.5
-0.8
-0.5
-0.8
-0.5
-0.8
-0.5
-0.8
-0.6
-0.8
-0.6
-0.8
-0.6
-0.8
-0.6
-0.8
-0.7
-0.8
-0.7
-0.8
-0.7
-0.8
-0.8
-0.8
-0.8
-0.8
-0.8
-0.9
-0.8
-0.9
-0.8
-1
-0.8
-1
-0.8
-1
-0.8
-1
-0.8
-1
-0.8
-1
-0.8
-1
-0.8
-1
-0.8
-1
-0.9
-1
-0.9
-0.9
-1
-1
-0.9
-1
-0.9
-1
-0.9
-1
-0.9
-1
-1
-1
-1
-1
-1
-1
-1
-1
-1
-1
-1
-1
-1
-1
-1
-1
-1
-0.9
-1
-0.9
-1
-0.8
-1
-0.8
-1
-0.7
-0.7
-1
-0.6
-1
-0.6
-1
-0.5
-1
-0.5
-1
-0.4
-1
-0.4
-1
-0.4
-1
-0.3
-1
-0.3
-1
-0.3
-1
-0.2
-1
-0.2
-1
-0.2
-1
-0.2
-1
-0.1
-1
-0.1
-0.9
-0.1
-0.9
-0.09
-0.9
-0.07
-0.9
-0.06
-0.8
-0.05
-0.8
-0.04
-0.8
-0.04
-0.7
-0.03
-0.7
-0.03
-0.7
-0.04
-0.6
-0.04
-0.6
-0.04
-0.5
-0.05
-0.5
-0.06
-0.4
-0.07
-0.3
-0.07
-0.3
-0.08
-0.2
-0.09
-0.2
-0.1
-0.1
-0.1
-0.07
-0.1
-0.03
-0.1
0.02
-0.1
0.06
-0.2
0.1
-0.2
0.1
-0.2
0.2
-0.2
0.2
-0.2
0.2
-0.2
0.2
-0.2
0.2
-0.3
0.2
-0.3
0.2
-0.3
0.2
-0.3
0.1
-0.3
0.1
-0.3
0.08
-0.3
0.05
-0.3
0.007
-0.3
-0.04
-0.3
-0.08
-0.3
-0.1
-0.3
-0.2
-0.3
-0.2
-0.3
-0.3
-0.3
-0.3
-0.3
-0.4
-0.3
-0.4
-0.3
-0.4
-0.3
-0.5
-0.3
-0.5
-0.3
-0.5
-0.3
-0.6
-0.3
-0.6
-0.3
-0.6
-0.3
-0.6
-0.3
-0.7
-0.3
-0.7
-0.3
-0.7
-0.3
-0.7
-0.4
-0.7
-0.4
-0.7
-0.4
-0.7
-0.4
-0.7
-0.4
-0.8
-0.4
-0.8
-0.5
-0.8
-0.5
-0.8
-0.5
-0.8
-0.5
-0.8
-0.5
-0.8
-0.6
-0.7
-0.6
-0.7
-0.6
-0.7
-0.6
-0.7
-0.6
-0.7
-0.6
-0.7
-0.7
-0.7
-0.5
-0.5
-0.5
-0.5
-0.5
-0.4
-0.5
-0.4
-0.5
-0.4
-0.6
-0.4
-0.6
-0.4
-0.6
-0.4
-0.6
-0.4
-0.6
-0.4
-0.6
-0.4
-0.7
-0.4
-0.7
-0.4
-0.7
-0.4
-0.7
-0.4
-0.7
-0.4
-0.7
-0.5
-0.7
-0.5
-0.8
-0.5
-0.8
-0.5
-0.8
-0.5
-0.8
-0.5
-0.8
-0.6
-0.8
-0.6
-0.8
-0.6
-0.8
-0.6
-0.8
-0.7
-0.8
-0.7
-0.8
-0.7
-0.8
-0.8
-0.8
-0.8
-0.8
-0.9
-0.8
-0.9
-0.8
-1
-0.8
-1
-0.8
-1
-0.8
-1
-0.8
-1
-0.9
-1
-0.9
-1
-0.9
-1
-0.9
-1
-0.9
-1
-0.9
-1
-0.9
-1
-0.9
-1
-0.9
-1
-1
-1
-1
-1
-1
-1
-1
-1
-1
-1
-1
-1
-1
-1
-1
-1
-1
-1
-1
-1
-1
-0.9
-1
-0.9
-1
-0.8
-1
-0.8
-1
-0.7
-1
-0.7
-1
-0.6
-1
-0.6
-1
-0.5
-1
-0.5
-1
-0.4
-1
-0.4
-1
-0.3
-1
-0.3
-1
-0.3
-1
-0.3
-1
-0.2
-1
-0.2
-1
-0.2
-1
-0.2
-0.9
-0.1
-0.9
-0.1
-0.9
-0.1
-0.9
-0.09
-0.8
-0.07
-0.8
-0.06
-0.8
-0.05
-0.7
-0.04
-0.7
-0.04
-0.7
-0.03
-0.6
-0.03
-0.6
-0.03
-0.5
-0.04
-0.5
-0.04
-0.4
-0.05
-0.3
-0.06
-0.3
-0.06
-0.2
-0.07
-0.2
-0.08
-0.1
-0.09
-0.08
-0.09
-0.03
-0.1
0.02
-0.1
0.06
-0.1
0.1
-0.1
0.1
-0.1
0.2
-0.2
0.2
-0.2
0.2
-0.2
0.2
-0.2
0.2
-0.2
0.2
-0.2
0.2
-0.2
0.2
-0.2
0.1
-0.3
0.1
-0.3
0.08
-0.3
0.05
-0.3
0.005
-0.3
-0.04
-0.3
-0.08
-0.3
-0.1
-0.3
-0.2
-0.3
-0.2
-0.3
-0.3
-0.3
-0.3
-0.3
-0.4
-0.3
-0.4
-0.3
-0.4
-0.3
-0.5
-0.3
-0.5
-0.3
-0.5
-0.3
-0.6
-0.3
-0.6
-0.4
-0.6
-0.4
-0.6
-0.4
-0.7
-0.4
-0.7
-0.4
-0.7
-0.4
-0.7
-0.4
-0.7
-0.4
-0.7
-0.5
-0.7
-0.5
-0.7
-0.5
-0.8
-0.5
-0.8
-0.5
-0.8
-0.5
-0.8
-0.6
-0.8
-0.6
-0.8
-0.6
-0.8
-0.6
-0.7
-0.6
-0.7
-0.6
-0.7
-0.6
-0.7
-0.7
-0.7
-0.7
-0.7
-0.5
-0.5
-0.5
-0.5
-0.5
-0.5
-0.5
-0.4
-0.5
-0.4
-0.6
-0.4
-0.6
-0.6
-0.4
-0.6
-0.6
-0.4
-0.6
-0.6
-0.4
-0.6
-0.6
-0.4
-0.6
-0.7
-0.4
-0.7
-0.7
-0.4
-0.7
-0.7
-0.4
-0.7
-0.7
-0.4
-0.7
-0.4
-0.7
-0.4
-0.8
-0.4
-0.8
-0.5
-0.8
-0.5
-0.8
-0.5
-0.8
-0.5
-0.8
-0.5
-0.8
-0.5
-0.8
-0.6
-0.6
-0.8
-0.6
-0.6
-0.8
-0.6
-0.6
-0.8
-0.7
-0.6
-0.7
-0.7
-0.8
-0.7
-0.7
-0.8
-0.8
-0.8
-0.8
-0.8
-0.8
-0.8
-0.9
-0.8
-0.9
-0.8
-0.9
-0.8
-1
-0.8
-1
-0.8
-1
-0.8
-1
-0.8
-1
-0.8
-1
-0.8
-1
-0.9
-1
-0.9
-1
-0.9
-1
-0.9
-0.9
-0.9
-1
-0.9
-0.9
-1
-0.9
-0.9
-1
-0.9
-1
-1
-1
-1
-1
-1
-1
-1
-1
-1
-1
-1
-1
-1
-1
-1
-1
-1
-1
-1
-1
-1
-1
-1
-1
-0.9
-1
-0.9
-1
-0.8
-1
-0.7
-1
-0.7
-0.7
-1
-0.6
-0.6
-1
-0.6
-0.5
-1
-0.5
-0.5
-1
-0.5
-0.5
-1
-0.4
-0.4
-1
-0.4
-0.4
-1
-0.3
-0.4
-1
-0.3
-1
-0.3
-1
-0.3
-1
-0.2
-1
-0.2
-1
-0.2
-1
-0.2
-1
-0.1
-0.9
-0.1
-0.9
-0.1
-0.9
-0.09
-0.9
-0.07
-0.8
-0.06
-0.8
-0.8
-0.05
-0.8
-0.8
-0.04
-0.7
-0.7
-0.04
-0.7
-0.7
-0.03
-0.6
-0.6
-0.03
-0.6
-0.6
-0.04
-0.5
-0.5
-0.04
-0.5
-0.5
-0.04
-0.4
-0.05
-0.4
-0.06
-0.3
-0.07
-0.3
-0.07
-0.2
-0.08
-0.2
-0.09
-0.1
-0.1
-0.06
-0.1
-0.003
-0.1
0.04
-0.1
-0.1
0.08
-0.1
-0.1
0.1
-0.2
-0.2
0.2
-0.2
-0.2
0.2
-0.2
-0.2
0.2
-0.2
-0.2
0.2
-0.2
-0.2
0.2
-0.2
-0.2
0.2
-0.2
0.2
-0.3
0.2
-0.3
0.2
-0.3
0.1
-0.3
0.1
-0.3
0.06
-0.3
0.03
-0.3
-0.02
-0.3
-0.06
-0.3
-0.1
-0.3
-0.1
-0.3
-0.2
-0.3
-0.2
-0.3
-0.3
-0.3
-0.3
-0.3
-0.3
-0.4
-0.4
-0.3
-0.4
-0.4
-0.3
-0.4
-0.5
-0.3
-0.5
-0.5
-0.3
-0.5
-0.5
-0.3
-0.6
-0.6
-0.3
-0.6
-0.3
-0.6
-0.3
-0.6
-0.3
-0.6
-0.4
-0.7
-0.4
-0.7
-0.4
-0.7
-0.4
-0.7
-0.4
-0.7
-0.4
-0.7
-0.4
-0.7
-0.4
-0.5
-0.7
-0.5
-0.5
-0.8
-0.5
-0.5
-0.8
-0.5
-0.5
-0.8
-0.5
-0.5
-0.8
-0.5
-0.5
-0.8
-0.6
-0.6
-0.8
-0.6
-0.8
-0.6
-0.7
-0.6
-0.7
-0.6
-0.7
-0.6
-0.7
-0.6
-0.7
-0.7
-0.7
-0.7
SCALARS strain_1 float
LOOKUP_TABLE default
-1.105799
-0.723376
0.711097
-2.768246
2.550090
-4.404236
4.459042
-5.975207
6.473648
-7.428449
8.538214
-8.864544
10.647870
-10.165868
12.861680
-11.451085
15.181148
-12.610869
17.504681
-13.680878
19.922147
-14.737346
22.423263
-15.661633
24.945527
-16.577324
27.556317
-17.399021
30.236048
-18.152616
32.957915
-18.803516
35.733065
-19.459209
38.559068
-19.991777
41.445199
-20.434975
44.383589
-20.861608
47.321963
-21.235146
50.339406
-21.534116
53.385582
-21.775211
56.474120
-21.975085
59.573267
-22.105521
62.730790
-22.168471
65.882737
-22.206547
69.120808
-22.195847
72.303385
-22.121328
75.511469
-22.020663
78.712327
-21.842663
81.969830
-21.648467
85.207776
88.435848
-21.454688
91.651561
-21.170666
94.863149
-20.871118
98.029538
-20.544445
101.243435
-20.179481
104.387609
-19.758780
107.506399
-19.347837
110.590009
-18.931633
113.653453
-18.482904
116.667393
-17.968064
119.641498
-17.493188
122.544939
-16.940164
125.406874
-16.430721
128.191171
130.949911
-15.915120
-15.371981
133.633251
-14.754007
136.234269
-14.210758
138.781180
-13.639300
141.211427
-13.066606
143.586913
-12.485471
145.868468
-11.966790
148.064309
-11.398363
150.179726
-10.822276
152.175033
-10.304566
154.084343
-9.767702
155.896301
-9.225449
157.622044
-8.714100
159.190200
-8.222015
160.669998
-7.719556
162.043222
-7.187773
163.304474
-6.734762
164.466246
-6.319547
-5.892524
165.494807
-5.467405
166.383674
-5.087807
167.185960
-4.705483
167.832223
-4.362532
168.387309
-4.042487
168.803694
-3.712278
169.101355
-3.469192
169.280580
-3.179033
169.303242
-2.946481
169.203359
-2.734479
169.004262
-2.571021
168.709761
-2.382971
168.272848
-2.237344
167.682145
-2.171343
167.000111
-2.043054
166.238752
-1.964834
165.243717
-1.917842
164.209169
-1.928485
163.058840
-1.929040
161.776009
-1.973353
160.380589
-2.000482
158.925641
-2.055945
157.334452
-2.155528
155.614648
-2.302691
153.834994
-2.417068
151.947031
-2.569502
149.966251
-2.759665
147.874942
-2.952984
145.735986
-3.154449
143.482882
-3.393466
141.187249
-3.656010
138.827073
-3.880110
136.346978
-4.175831
133.776223
-4.466053
131.216182
-4.762154
128.538833
-5.078404
125.838268
-5.416348
123.078275
-5.733113
120.266018
-6.091321
117.414099
-6.421704
114.537061
-6.813754
111.622089
-7.152805
108.685693
-7.518530
105.689679
-7.910548
102.695478
-8.244497
99.671722
-8.652756
96.675908
-9.039729
93.627866
-9.421125
90.597763
-9.779895
87.535240
-10.148428
84.500249
-10.545769
81.486866
-10.917367
78.441234
-11.262313
75.424337
-11.622697
72.469745
-11.967798
69.467980
-12.330454
66.548357
-12.635987
63.617984
-12.963594
60.727576
-13.272790
57.857473
-13.556809
55.076942
-13.861603
52.269656
-14.088121
49.559626
-14.365312
46.859290
-14.599020
44.228697
-14.798552
41.615983
-14.980117
39.053784
-15.154961
36.591339
-15.293844
34.120158
-15.423147
31.766192
-15.527342
29.397963
-15.603977
27.134124
-15.682430
24.912072
-15.706567
22.764469
-15.652503
20.651184
-15.599384
18.627872
-15.557966
16.643659
-15.446249
14.756599
-15.314093
12.901199
-15.112186
11.121392
-14.914245
9.390747
-14.680803
7.751178
-14.375188
6.149452
-14.053608
4.627508
-13.639894
3.154049
-13.225846
1.788630
-12.769501
0.414978
-12.268392
-0.859008
-11.695695
-2.077324
-11.114360
-3.219474
-10.428700
-4.325060
-9.713410
-5.379429
-8.980728
-6.358681
-8.143688
-7.301401
1.100084
-2.425416
2.965848
-4.110076
4.897864
-5.671885
6.913763
-7.155301
9.050596
-8.573083
11.222477
-9.927168
13.458701
-11.179535
15.722616
-12.381939
18.105543
-13.510029
20.568428
-14.542346
23.079478
-15.524812
25.633385
-16.408188
28.278895
-17.230585
30.946194
-18.011110
33.717323
-18.711702
36.530678
-19.336329
39.368241
-19.866477
42.253844
-20.367652
45.214852
-20.785720
48.184818
-21.157854
51.190513
-21.418636
54.272475
-21.695651
57.382322
-21.904928
60.475549
-22.023105
63.597051
-22.106915
66.766791
-22.147133
69.945690
-22.121877
73.161986
-22.040041
76.347276
-21.974402
79.554756
-21.798128
82.748208
-21.613848
85.942198
-21.384504
89.147928
-21.125353
92.314032
-20.777362
95.527395
-20.479310
98.633651
-20.119485
101.781129
-19.763395
104.840893
-19.332586
107.937874
-18.876426
110.909378
-18.435560
113.903260
-17.937855
116.834963
-17.505434
119.686866
-16.947524
122.482707
-16.463409
125.231286
-15.911609
127.945624
-15.373294
130.572957
-14.819222
133.097566
-14.309122
135.573012
-13.722547
137.964599
-13.195780
140.271690
-12.632288
142.480557
-12.104429
144.584704
-11.554678
146.625540
-11.021783
148.544876
-10.503355
150.360183
-10.002944
152.086490
-9.492865
153.699761
-8.977130
155.220884
-8.494474
156.571111
-8.043511
157.876350
-7.599553
159.005567
-7.129448
160.036831
-6.738826
160.949501
-6.341843
161.736103
-5.977667
162.402429
-5.614735
162.950285
-5.268764
163.385421
-4.940866
163.665697
-4.679485
163.848649
-4.399836
163.874572
-4.176244
163.806809
-3.939005
163.578818
-3.751242
163.272049
-3.589122
162.786757
-3.412780
162.197501
-3.287740
161.508122
-3.169229
160.685716
-3.161831
159.725794
-3.068469
158.693640
-3.030323
157.517869
-3.054866
156.232000
-3.056783
154.830567
-3.115757
153.305624
-3.197744
151.705390
-3.252096
149.996556
-3.383930
148.183341
-3.500064
146.260758
-3.636290
144.291170
-3.831292
142.176341
-4.003674
140.005942
-4.211610
137.726642
-4.410814
135.385223
-4.690777
133.016194
-4.943155
130.525751
-5.194979
127.988875
-5.466336
125.354219
-5.785194
122.705607
-6.032032
119.998010
-6.398366
117.215168
-6.700709
114.396013
-7.050010
111.547814
-7.402894
108.694814
-7.761410
105.734381
-8.095921
102.833901
-8.473377
99.849676
-8.807501
96.863682
-9.179864
93.853301
-9.533976
90.838881
-9.878721
87.851619
-10.254654
84.825480
-10.623852
81.828214
-10.983374
78.826064
-11.371495
75.780801
-11.719411
72.826647
-12.047223
69.866304
-12.377000
66.936761
-12.702001
63.993046
-12.993000
61.114102
-13.318384
58.274946
-13.618693
55.439344
-13.889601
52.642831
-14.190219
49.922956
-14.449354
47.193662
-14.668499
44.526675
-14.862387
41.903348
-15.060397
39.341630
-15.223984
36.859562
-15.383952
34.349617
-15.544779
31.985045
-15.636656
29.604661
-15.684053
27.302611
-15.734851
25.074424
-15.758358
22.914716
-15.753151
20.760844
-15.737287
18.743167
-15.677158
16.749316
-15.541555
14.809011
-15.397351
12.980771
-15.239758
11.144437
-15.009156
9.433736
-14.774475
7.786632
-14.489804
6.150814
-14.192245
4.600477
-13.780805
3.125289
-13.370165
1.727180
-12.896907
0.361690
-12.405452
-0.913626
-11.821572
-2.189586
-11.232699
-3.328559
-10.582194
-4.429163
-9.851940
-5.481206
-9.085451
-8.264609
-6.475437
-7.390856
0.318856
-1.777075
1.861351
-3.468742
3.713089
-5.061090
5.667249
-6.569321
7.717505
-8.027069
9.861891
-9.375820
11.921982
13.665486
-10.822982
15.985619
14.838563
-11.910518
18.360210
17.262048
-13.051717
19.622610
20.860519
-14.098290
22.119495
23.420913
-14.918079
25.952215
24.637640
-16.056416
27.275299
28.640966
-16.934047
31.508941
29.901759
-17.695655
33.497630
-18.399832
36.125784
-19.057914
38.934083
-19.749819
41.854556
-20.195641
44.765898
-20.612897
47.710473
-21.017529
50.663166
-21.344207
53.168581
-21.602332
56.936303
-21.848053
60.021324
-21.993733
-22.106401
63.148346
-22.167014
-22.140099
66.360649
-22.167435
-22.173202
69.536108
-22.135914
-22.190093
-22.121380
-22.086017
73.398040
-22.011627
-21.939245
76.373275
-21.874642
-21.782607
79.630202
-21.702720
-21.562896
82.935251
-21.411218
87.174856
-21.141056
92.625077
-20.841145
95.173950
-20.505754
97.710388
-20.154230
101.513538
-19.765743
104.624501
-19.405372
107.699388
-18.901988
111.334984
-18.447683
113.839498
-17.978560
116.733082
-17.339996
119.670480
-16.954573
122.516683
-16.561117
125.346131
127.968431
130.096263
-15.580346
132.721831
131.415722
-14.906037
135.398568
134.028170
-14.305753
136.544549
137.828294
-13.744172
138.966723
140.247733
-13.267525
141.279701
142.532300
-12.609396
143.588105
144.776899
-12.049017
145.742996
147.109493
-11.473124
148.479512
-10.952556
150.320736
-10.382505
152.201605
-9.799167
153.940200
-9.339024
155.618229
-8.822221
157.144047
-8.341374
158.517852
-7.864883
159.674024
-7.419348
161.118115
-6.947830
162.218772
-6.557270
-6.176800
163.207157
-6.030525
-5.834430
164.050012
-5.624847
-5.413123
164.778942
-5.239218
-5.081114
165.520024
-4.914485
-4.720617
165.876027
-4.410407
-4.554101
166.195811
-4.313208
-4.132399
166.478940
-3.855425
-4.012141
166.547329
-3.635706
166.522324
-3.461803
166.407962
-3.272757
166.135248
-3.026658
165.727998
-2.943926
165.232494
-2.787169
164.618814
-2.682837
163.671725
-2.592680
162.886938
-2.538131
161.958030
-2.509222
160.830168
-2.476042
159.638149
-2.498756
158.335661
-2.537923
156.962930
155.996146
-2.615111
154.850928
154.127973
-2.662676
153.142814
152.381295
-2.777807
150.627983
151.402801
-2.880401
149.576679
148.630274
-3.000018
146.672177
147.636381
-3.209580
145.518645
144.523792
-3.421568
142.242378
143.330586
-3.588478
140.535406
-3.808101
138.299043
-4.038011
135.861776
-4.340319
133.409984
-4.561283
130.860654
-4.829328
128.251327
-5.123126
125.645690
-5.456888
123.432005
-5.726628
120.136926
-6.045843
117.322699
-6.388298
-6.615490
114.472173
-6.860944
-6.990049
111.573945
-7.211718
-7.379824
108.668504
-7.549051
-7.685153
105.083681
-7.922183
-8.085569
102.648041
-8.285069
-8.442389
99.742118
-8.666985
-8.826982
96.732919
-9.024294
-9.222309
93.836545
-9.491777
91.410283
-9.864067
87.073839
-10.235615
84.653285
-10.613197
82.239689
-10.924541
78.662669
-11.299660
75.631791
-11.591182
72.655920
-12.008932
69.031744
-12.356896
66.614018
-12.666344
63.794583
-13.075722
60.892657
-13.323667
58.056205
-13.564016
55.310827
-13.937642
52.626165
-14.108399
50.667959
49.059762
-14.463639
47.819668
46.314941
-14.631606
45.011809
43.710818
-14.822422
42.426093
41.169511
-15.002805
39.849103
38.643347
-15.174754
37.235433
36.061350
-15.358181
34.806878
33.675555
-15.478886
32.311135
-15.577938
30.532305
-15.653930
28.320172
-15.723242
26.116287
-15.730034
23.910836
-15.727506
21.772128
-15.667553
19.702078
-15.627940
17.712245
-15.491346
16.162931
-15.379973
13.850909
-15.192558
12.030229
-15.036583
-14.916393
10.267458
-14.795768
-14.666834
8.574209
-14.495844
-14.340552
6.923142
-14.158910
-14.017035
5.043786
-13.614439
-13.818697
3.811330
-13.424579
-13.180675
2.427710
-12.697356
-12.961446
1.066043
-12.419894
-0.079434
-12.016705
-1.523080
-11.442900
-2.705326
-10.866201
-3.873927
-10.150455
-4.904847
-9.442628
-5.943342
-8.663913
-7.948251
-6.889891
SCALARS strain_2 float
LOOKUP_TABLE default
0.472285
0.340319
-0.240244
1.180046
-1.011460
1.878892
-1.834004
2.435524
-2.720837
3.016918
-3.610137
3.534904
-4.564632
4.031739
-5.597452
4.503745
-6.616088
4.901119
-7.702500
5.260973
-8.862793
5.607724
-10.090565
5.912563
-11.293986
6.213581
-12.571896
6.472957
-13.921294
6.705076
-15.303138
6.874824
-16.741977
7.051069
-18.200702
7.189378
-19.721742
7.279501
-21.276721
7.382999
-22.855558
7.413976
-24.521694
7.515481
-26.189119
7.518626
-27.912467
7.513765
-29.666050
7.507790
-31.458565
7.463577
-33.313189
7.441260
-35.153884
7.371993
-37.024073
7.270972
-38.977636
7.188527
-40.911268
7.107610
-42.892240
6.998999
-44.891936
-46.866318
6.897834
-48.923956
6.741728
-50.985676
6.598065
-53.036512
6.448838
-55.118383
6.311681
-57.207535
6.144191
-59.268720
5.997188
-61.359013
5.803854
-63.474867
5.652625
-65.500505
5.472270
-67.589869
5.302923
-69.710172
5.082103
-71.716247
4.921741
-73.748457
-75.772213
4.743750
4.562854
-77.734010
4.379580
-79.696240
4.225292
-81.645870
4.029734
-83.556215
3.845735
-85.424236
3.682649
-87.228582
3.514672
-88.998946
3.353598
-90.765771
3.184855
-92.459574
3.004612
-94.049295
2.899877
-95.619031
2.710063
-97.162588
2.560790
-98.607363
2.410610
-100.005022
2.271355
-101.358102
2.115268
-102.595278
1.934688
-103.787164
1.851703
1.699978
-104.898813
1.605528
-105.928628
1.504989
-106.928502
1.367691
-107.818018
1.295274
-108.630777
1.178963
-109.311697
1.132640
-109.968408
1.061183
-110.512345
0.970526
-110.977406
0.932598
-111.361490
0.850772
-111.633009
0.782799
-111.835328
0.761486
-111.985668
0.706848
-111.968178
0.694662
-111.862652
0.639629
-111.714561
0.642859
-111.456483
0.622020
-111.112195
0.609374
-110.643274
0.648999
-110.132878
0.654579
-109.526227
0.689685
-108.804634
0.746108
-108.004666
0.732201
-107.150585
0.789601
-106.181772
0.826210
-105.129870
0.908471
-103.993791
0.977451
-102.836899
1.060096
-101.566833
1.146248
-100.215971
1.236992
-98.747578
1.321717
-97.298336
1.453194
-95.732091
1.580827
-94.112054
1.711000
-92.406338
1.837513
-90.715942
1.974132
-88.879132
2.131203
-87.042823
2.281473
-85.120214
2.458763
-83.182781
2.598676
-81.220177
2.804875
-79.216699
3.019816
-77.133700
3.199158
-75.061923
3.401606
-72.947582
3.608226
-70.825757
3.814209
-68.656315
4.043086
-66.460194
4.272992
-64.279762
4.507384
-62.076405
4.750332
-59.878369
4.977441
-57.647040
5.218155
-55.462383
5.474988
-53.230629
5.716800
-50.993186
5.984173
-48.806637
6.230850
-46.650906
6.492527
-44.474157
6.765881
-42.323229
7.027057
-40.165327
7.273686
-38.077544
7.500472
-36.000740
7.754850
-33.920753
8.012479
-31.908271
8.239758
-29.918875
8.500706
-27.974464
8.707543
-26.049607
8.937452
-24.192115
9.161210
-22.357987
9.363227
-20.563822
9.520174
-18.851535
9.707754
-17.124951
9.874787
-15.490458
10.011560
-13.897742
10.139614
-12.352117
10.235582
-10.856529
10.360047
-9.417773
10.433978
-8.027022
10.491122
-6.678903
10.515906
-5.392456
10.475126
-4.175961
10.434322
-3.001547
10.419839
-1.857511
10.305286
-0.823423
10.178099
0.197400
10.046126
1.152224
9.859617
2.075233
9.646401
2.894163
9.374811
3.715949
9.113676
4.479541
8.750255
5.184470
8.395404
5.813123
7.947127
6.430915
7.518197
6.982181
-0.392973
1.061859
-1.173139
1.743797
-2.031902
2.364634
-2.888472
2.951208
-3.873128
3.486939
-4.867485
3.971792
-5.841965
4.430934
-6.926155
4.877270
-8.077312
5.268098
-9.207512
5.590966
-10.433870
5.922032
-11.712462
6.199811
-13.001692
6.482393
-14.366467
6.685344
-15.758676
6.909723
-17.194585
7.086702
-18.680298
7.218744
-20.266507
7.331749
-21.810110
7.429174
-23.454120
7.479790
-25.124454
7.541687
-26.798632
7.576873
-28.568382
7.570195
-30.316667
7.544155
-32.116451
7.516387
-33.962759
7.480564
-35.821866
7.398153
-37.740310
7.319034
-39.674318
7.248563
-41.627760
7.154118
-43.585635
7.059178
-45.561016
6.905657
-47.621739
6.764450
-49.644159
6.659486
-51.700976
6.533241
-53.694459
6.356460
-55.791963
6.201953
-57.825236
6.045420
-59.908447
5.883952
-61.937725
5.713719
-64.009170
5.536280
-66.045035
5.314077
-68.098734
5.174157
-70.111487
4.997907
-72.105250
4.821066
-74.107951
4.653964
-76.021392
4.468320
-77.944113
4.292566
-79.847158
4.115586
-81.688481
3.955484
-83.512872
3.776242
-85.296823
3.602330
-86.995508
3.444077
-88.666206
3.308452
-90.317372
3.122249
-91.850994
2.981756
-93.397351
2.809449
-94.815688
2.674756
-96.253131
2.528964
-97.531570
2.402402
-98.783744
2.269867
-99.984341
2.136261
-101.103276
1.981715
-102.111366
1.890269
-103.064146
1.804889
-103.948113
1.686661
-104.736282
1.578123
-105.449295
1.546300
-106.085312
1.437947
-106.617647
1.382119
-107.060331
1.291507
-107.433027
1.247749
-107.686046
1.191387
-107.865942
1.141555
-107.944510
1.093014
-107.935291
1.076132
-107.864598
1.029513
-107.630942
1.027453
-107.384886
1.003224
-106.999100
1.008641
-106.560895
1.031137
-105.972726
1.003461
-105.387334
1.037014
-104.620035
1.092377
-103.806478
1.134993
-102.926794
1.143019
-101.910766
1.249343
-100.875749
1.275871
-99.733968
1.360409
-98.474865
1.464514
-97.188137
1.533084
-95.780916
1.635097
-94.357636
1.734549
-92.876646
1.859327
-91.273472
1.940751
-89.627028
2.106825
-87.922609
2.275645
-86.184272
2.398478
-84.364804
2.573108
-82.518292
2.731268
-80.600695
2.870628
-78.643713
3.070870
-76.684812
3.262261
-74.637981
3.442508
-72.563219
3.633168
-70.504847
3.854879
-68.379820
4.062285
-66.252476
4.269205
-64.108543
4.503564
-61.947982
4.739049
-59.751673
4.949929
-57.597647
5.213369
-55.389187
5.443617
-53.204809
5.706157
-51.007366
5.946410
-48.836803
6.196695
-46.636891
6.472259
-44.514054
6.736573
-42.373453
6.935960
-40.229189
7.206780
-38.113938
7.466098
-36.065692
7.728129
-34.021459
7.960756
-31.991400
8.207471
-30.016020
8.404419
-28.065007
8.636183
-26.143150
8.851528
-24.244115
9.063710
-22.436676
9.272822
-20.667081
9.468644
-18.901129
9.649313
-17.200287
9.821214
-15.512757
9.969301
-13.953791
10.091204
-12.402686
10.206959
-10.912683
10.324489
-9.439326
10.383300
-8.067539
10.450321
-6.710383
10.472420
-5.418622
10.482799
-4.207370
10.465436
-3.009749
10.417416
-1.879919
10.316803
-0.813013
10.217887
0.205656
10.062540
1.191210
9.881598
2.072849
9.683395
2.942880
9.374198
3.735350
9.110798
4.505944
8.789227
5.198964
8.381632
5.855445
7.984784
7.522000
6.454376
7.001110
-0.082161
0.792746
-0.736633
1.468468
-1.524479
2.117360
-2.358589
2.728946
-3.267801
3.255544
-4.183649
3.778738
-5.155298
-5.970167
4.301407
-7.035650
-6.469867
4.658832
-8.131478
-7.632356
5.083757
-8.761478
-9.328760
5.427252
-9.937356
-10.564193
5.714940
-11.815689
-11.135127
6.091106
-12.465389
-13.167661
6.345965
-14.608099
-13.799776
6.607692
-15.619877
6.792756
-16.954331
6.967640
-18.453695
7.153548
-19.972566
7.288256
-21.533901
7.370424
-23.113414
7.436009
-24.746182
7.485261
-26.148754
7.549115
-28.224464
7.561960
-29.976664
7.523335
7.528393
-31.784625
7.502211
7.499391
-33.626622
7.430758
7.488375
-35.498937
7.379412
7.401610
7.336033
7.290266
-37.807208
7.257107
7.198871
-39.561561
7.135928
7.083100
-41.580079
7.067906
6.972710
-43.597347
6.876112
-46.230005
6.789918
-49.688966
6.601792
-51.313193
6.504933
-52.989597
6.361233
-55.460597
6.189716
-57.527885
6.047036
-59.606777
5.843171
-62.061783
5.685388
-63.784017
5.533637
-65.810645
5.285468
-67.846316
5.144892
-69.885282
4.997532
-71.927089
-73.809712
-75.344866
4.701738
-77.360673
-76.389680
4.440752
-79.341977
-78.342330
4.285998
-80.287338
-81.239857
4.108588
-82.139975
-83.079843
3.925697
-83.965129
-84.911879
3.726412
-85.764663
-86.738155
3.585261
-87.523759
-88.633283
3.381210
-89.806754
3.199240
-91.384615
3.039482
-92.958361
2.868897
-94.458788
2.711450
-95.976408
2.619227
-97.399416
2.458625
-98.716702
2.326475
-99.805763
2.189301
-101.275303
2.077662
-102.449023
1.956171
1.855429
-103.514112
1.774867
1.724674
-104.508095
1.671701
1.605734
-105.417919
1.563449
1.525670
-106.474882
1.475568
1.425811
-107.042075
1.351865
1.401665
-107.710850
1.275460
1.277532
-108.282603
1.179133
1.233767
-108.710140
1.128270
-109.183697
1.041866
-109.517899
0.987719
-109.737024
0.955767
-109.905900
0.904776
-109.940711
0.869109
-109.874533
0.820418
-109.724154
0.848960
-109.542748
0.822424
-109.210189
0.811294
-108.832068
0.837242
-108.340044
0.833450
-107.758730
0.853251
-107.125196
-106.707008
0.879807
-106.028889
-105.708326
0.925798
-105.191916
-104.774438
0.964979
-103.832353
-104.234503
1.019560
-103.273859
-102.737373
1.063174
-101.618405
-102.146358
1.128733
-100.908739
-100.337398
1.224524
-99.015094
-99.631396
1.267163
-97.964314
1.404711
-96.569492
1.478060
-95.059822
1.635945
-93.486718
1.704860
-91.868470
1.834742
-90.157098
1.978764
-88.468165
2.122792
-87.000368
2.267613
-84.757378
2.421244
-82.893455
2.589205
2.679546
-80.926499
2.807705
2.878645
-78.931331
2.986495
3.083253
-76.921603
3.176956
3.278234
-74.412876
3.382861
3.453430
-72.709999
3.588051
3.665287
-70.661995
3.747165
3.890222
-68.507915
4.021596
4.131569
-66.412519
4.292706
-64.717221
4.537250
-61.552099
4.737774
-59.767753
4.973227
-58.041832
5.211987
-55.396309
5.475643
-53.196986
5.638365
-51.013949
5.936732
-48.336454
6.252127
-46.573785
6.480493
-44.473318
6.763573
-42.338601
6.973390
-40.208161
7.195435
-38.104619
7.532182
-36.141004
7.689989
-34.686228
-33.460854
8.063596
-32.550428
-31.455795
8.247601
-30.452183
-29.481827
8.469787
-28.504538
-27.571454
8.632043
-26.574073
-25.670322
8.919224
-24.641481
-23.749526
9.124058
-22.837639
-21.935723
9.316485
-20.964585
9.504372
-19.637101
9.667304
-18.004769
9.888133
-16.335718
9.968471
-14.720128
10.141296
-13.147521
10.259385
-11.621608
10.321527
-10.183659
10.435668
-8.998642
10.447555
-7.381582
10.456629
-6.055819
10.488846
10.458481
-4.770657
10.481051
10.418655
-3.585102
10.414584
10.399482
-2.440107
10.333169
10.288027
-1.117619
10.179408
10.249401
-0.291762
10.080940
10.002942
0.721505
9.800790
9.893186
1.618111
9.697604
2.396981
9.512212
3.335152
9.242701
4.124215
8.967092
4.832905
8.583185
5.520630
8.193825
6.159827
7.781563
7.369166
6.737893
SCALARS strain_3 float
LOOKUP_TABLE default
4.073113
2.611464
-2.729587
10.601961
-9.817113
16.873194
-17.164722
22.843331
-24.775522
28.535242
-32.640681
33.956925
-40.756971
39.080968
-49.129697
43.938567
-57.728298
48.485193
-66.566130
52.775997
-75.635577
56.781317
-84.917308
60.498933
-94.404183
63.942175
-104.096874
67.110001
-113.967524
70.014319
-124.024368
72.650895
-134.242712
75.015731
-144.627412
77.135905
-155.156408
78.989078
-165.822378
80.592548
-176.607674
81.977701
-187.499074
83.106153
-198.478953
84.004437
-209.559986
84.688845
-220.696697
85.145114
-231.890545
85.402510
-243.116573
85.458960
-254.381359
85.322230
-265.644341
84.988334
-276.908422
84.490635
-288.153793
83.809030
-299.372870
82.976895
-310.532653
-321.641681
81.983676
-332.659865
80.858075
-343.577927
79.590302
-354.388276
78.196832
-365.080167
76.689842
-375.623524
75.076781
-386.017142
73.346115
-396.241205
71.543888
-406.269106
69.663945
-416.105709
67.691535
-425.722193
65.668339
-435.108548
63.590631
-444.249637
61.465405
-453.132489
-461.751262
59.303588
57.118292
-470.090343
54.893833
-478.119179
52.661864
-485.850260
50.428410
-493.262812
48.194628
-500.347567
45.970430
-507.088181
43.755770
-513.481717
41.564734
-519.515746
39.403624
-525.173668
37.280400
-530.472113
35.190869
-535.372511
33.149114
-539.898075
31.158475
-544.010956
29.223537
-547.731215
27.348123
-551.053259
25.534870
-553.949245
23.792716
-556.433392
22.119910
20.527837
-558.503514
18.999640
-560.166722
17.557671
-561.390066
16.204843
-562.205328
14.926680
-562.594214
13.739235
-562.571176
12.631951
-562.127680
11.617701
-561.268913
10.684499
-559.991225
9.843236
-558.309800
9.091220
-556.228585
8.418608
-553.740030
7.840740
-550.861528
7.342412
-547.597527
6.920678
-543.954143
6.591824
-539.931678
6.350443
-535.552387
6.168399
-530.808527
6.071559
-525.734296
6.050837
-520.315599
6.091768
-514.561756
6.220704
-508.496037
6.400491
-502.128213
6.646465
-495.474250
6.949092
-488.526114
7.315636
-481.331479
7.730217
-473.857445
8.199134
-466.147529
8.718466
-458.204488
9.271567
-450.065449
9.881865
-441.706350
10.512708
-433.156744
11.190452
-424.437960
11.887939
-415.537346
12.622759
-406.527018
13.375112
-397.362346
14.151306
-388.080524
14.942069
-378.698939
15.750314
-369.215716
16.572129
-359.676587
17.401381
-350.058645
18.234408
-340.397385
19.068257
-330.703110
19.903911
-320.980286
20.739162
-311.248981
21.570825
-301.518811
22.392332
-291.819384
23.206082
-282.135152
24.000639
-272.486219
24.791615
-262.904872
25.548964
-253.374092
26.310803
-243.919574
27.032453
-234.539205
27.730518
-225.258930
28.416484
-216.091754
29.068154
-207.021665
29.693823
-198.086317
30.285232
-189.277014
30.838701
-180.588203
31.373080
-172.061751
31.859314
-163.687679
32.306218
-155.467577
32.730149
-147.400248
33.095757
-139.513390
33.412568
-131.800951
33.692833
-124.275213
33.929239
-116.911599
34.112303
-109.738515
34.241315
-102.756527
34.325346
-95.960557
34.336820
-89.367814
34.301671
-82.966854
34.197933
-76.759487
34.037879
-70.752373
33.800043
-64.927278
33.512550
-59.308916
33.128806
-53.891046
32.681110
-48.663450
32.156760
-43.630645
31.551454
-38.797780
30.851788
-34.141021
30.072690
-29.678029
29.205683
-25.406662
28.231015
-21.318685
27.162419
-17.416392
25.988968
-13.694679
24.706068
-10.139753
23.317183
-6.751880
21.815551
-3.545073
20.186566
-0.499368
18.443477
2.395181
16.561437
5.123862
14.554404
7.696609
12.403646
10.116815
-4.270470
9.222303
-11.428346
15.539239
-18.840356
21.581774
-26.523523
27.334937
-34.473156
32.812796
-42.662331
38.000668
-51.112961
42.902369
-59.790092
47.514908
-68.701969
51.846251
-77.834349
55.882434
-87.179638
59.643887
-96.723830
63.130038
-106.468382
66.327135
-116.399540
69.258557
-126.500646
71.922271
-136.772427
74.322094
-147.185733
76.451392
-157.737897
78.329337
-168.414404
79.948790
-179.203275
81.337004
-190.102031
82.474148
-201.065452
83.385989
-212.114240
84.073448
-223.207349
84.542789
-234.352336
84.802478
-245.512037
84.864657
-256.689832
84.723114
-267.865208
84.391448
-279.009063
83.894728
-290.130906
83.222634
-301.201649
82.389218
-312.190735
81.407353
-323.118173
80.278439
-333.932193
79.030454
-344.621520
77.646513
-355.189085
76.155534
-365.610210
74.547699
-375.873165
72.850243
-385.946423
71.062125
-395.843646
69.204242
-405.527008
67.269183
-414.985486
65.274977
-424.202948
63.233717
-433.166247
61.151447
-441.875571
59.031519
-450.296544
56.895077
-458.418382
54.727193
-466.247450
52.553881
-473.755206
50.391637
-480.929157
48.216008
-487.769356
46.062314
-494.254538
43.934136
-500.382774
41.818489
-506.144316
39.742614
-511.531832
37.698907
-516.521409
35.719749
-521.135304
33.770876
-525.331751
31.881056
-529.134473
30.047494
-532.521283
28.281856
-535.502678
26.586501
-538.047450
24.953060
-540.181970
23.394182
-541.894307
21.915648
-543.183780
20.523521
-544.040869
19.203324
-544.475879
17.972070
-544.480035
16.816544
-544.073163
15.763532
-543.238932
14.780246
-541.976881
13.885688
-540.317344
13.077107
-538.238622
12.356396
-535.763467
11.733792
-532.884585
11.179895
-529.617166
10.714220
-525.969784
10.330122
-521.939088
10.026576
-517.546852
9.808643
-512.789714
9.658229
-507.692591
9.583090
-502.253390
9.585641
-496.482626
9.654113
-490.393541
9.787014
-484.011348
9.982573
-477.322906
10.238566
-470.362952
10.556188
-463.137664
10.935874
-455.656836
11.365163
-447.927625
11.834723
-439.982819
12.353832
-431.813425
12.898510
-423.452725
13.497537
-414.908335
14.127959
-406.188621
14.784118
-397.312954
15.474071
-388.302628
16.184363
-379.163122
16.916415
-369.915962
17.666096
-360.557814
18.431900
-351.122214
19.201608
-341.638496
19.988899
-332.083568
20.771051
-322.493610
21.568059
-312.870654
22.368473
-303.237977
23.141235
-293.606357
23.932284
-283.976145
24.701804
-274.391396
25.466865
-264.836764
26.220432
-255.334561
26.936821
-245.890713
27.649534
-236.513582
28.353654
-227.221346
29.018925
-218.041875
29.674437
-208.942542
30.286969
-199.962752
30.877774
-191.095245
31.442245
-182.376263
31.961594
-173.779736
32.455616
-165.347300
32.911861
-157.060687
33.323290
-148.929271
33.690160
-140.970939
34.029086
-133.179410
34.311051
-125.562604
34.548544
-118.121565
34.737670
-110.864671
34.868956
-103.813478
34.948270
-96.935137
34.974669
-90.251684
34.950408
-83.769792
34.844491
-77.484416
34.684049
-71.385357
34.464004
-65.494214
34.163902
-59.799322
33.792814
-54.292470
33.346852
-48.996424
32.820265
-43.898359
32.209617
-38.982203
31.519155
-34.275391
30.738388
-29.749680
29.852966
-25.420024
28.881284
-21.277956
27.807724
-17.311597
26.625540
-13.527617
25.335000
-9.926064
23.933992
-6.510204
22.411585
-3.247869
20.770993
-0.154775
19.003978
2.761962
17.110850
5.533013
15.078967
12.914011
8.138767
10.602390
-1.427307
6.664687
-7.263626
13.095734
-14.316120
19.238202
-21.792842
25.114706
-29.561714
30.696167
-37.540181
35.994710
-45.482508
-52.026078
41.498588
-60.706011
-56.392117
45.811374
-69.686602
-65.478697
50.175553
-74.402253
-79.054347
54.207648
-83.791005
-88.569801
57.439335
-98.035241
-93.084152
61.832132
-102.813877
-107.895791
65.159263
-118.595231
-112.603304
68.215836
-125.835267
70.995931
-135.581333
73.505580
-145.910107
76.178320
-156.416668
77.810119
-167.102714
79.506694
-177.807496
81.000266
-188.361429
82.253094
-197.458656
83.269420
-210.853866
84.056759
-221.930267
84.639724
84.926211
-233.104350
85.129672
85.050490
-244.298334
85.138556
85.151001
-255.511735
84.960267
85.057423
84.785064
84.576118
-269.211364
84.331733
84.043666
-279.480284
83.725603
83.309222
-290.810245
82.912556
82.374661
-302.277333
81.634075
-316.806859
80.547817
-335.430550
79.306206
-344.068730
77.918464
-352.669404
76.436481
-365.343577
74.867994
-375.754938
73.462702
-385.995499
71.314165
-397.904941
69.432563
-406.180357
67.484813
-415.541845
65.045378
-424.926135
63.412564
-434.117810
61.739554
-443.069678
-451.333125
-457.933737
57.938712
-466.157812
-462.121306
55.117877
-474.389781
-470.158722
52.815394
-477.935959
-481.730592
50.636714
-485.200787
-489.097224
48.660216
-492.134534
-495.763152
46.019200
-498.864418
-502.485146
43.843768
-505.177807
-509.285510
41.695557
-513.119013
39.580628
-518.301389
37.496928
-523.373625
35.053007
-528.118668
33.406808
-532.508231
31.519714
-536.434510
29.635264
-539.878673
27.827434
-542.558706
26.055244
-545.948828
24.389652
-548.264778
22.837866
21.580250
-550.164482
20.869080
20.132756
-551.627162
19.421112
18.646169
-552.671922
18.034643
17.374529
-553.510655
16.743688
16.095404
-553.461840
14.974920
15.603260
-553.217200
14.524707
13.922281
-552.692782
12.844617
13.501805
-551.822713
12.264580
-550.117015
11.459968
-548.238915
10.755628
-545.958072
10.083784
-543.275961
9.546709
-540.209745
9.080784
-536.750419
8.741437
-532.150021
8.329199
-528.526421
8.097670
-524.150602
7.937813
-519.165056
7.849904
-513.969464
7.848032
-508.488411
7.898495
-502.839759
-498.789739
8.019952
-494.509044
-491.502591
8.219957
-487.740744
-484.688330
8.467376
-477.901864
-480.956681
8.765658
-474.017512
-470.448786
9.042123
-463.088507
-466.696513
9.565707
-458.787410
-455.073593
10.035596
-446.782451
-450.838114
10.554849
-440.646163
11.109491
-432.597154
11.712731
-423.944116
12.502348
-415.243124
13.043210
-406.409164
13.717646
-397.380145
14.433987
-388.488854
15.176454
-380.827190
15.922904
-369.569207
16.713974
-360.118484
17.458238
17.974319
-350.602553
18.526846
18.882266
-341.014436
19.359544
19.720818
-331.387622
20.167773
20.509303
-319.720027
20.945071
21.324563
-311.724141
21.746888
22.121065
-302.307111
22.593840
22.969792
-292.728846
23.381352
23.746480
-283.338841
24.387482
-275.564107
25.123884
-261.927068
25.873954
-254.281461
26.615171
-246.746082
27.349031
-235.514368
28.022817
-226.232137
28.591745
-217.040008
29.372926
-206.006564
29.991984
-198.661748
30.585018
-190.097711
31.248317
-181.452312
31.662974
-172.911764
32.055292
-164.607952
32.681261
-156.723227
32.956425
-150.910188
-146.242049
33.472594
-142.576665
-138.218936
33.732645
-134.392358
-130.612552
33.998370
-126.810197
-123.159724
34.192645
-119.367582
-115.892126
34.416751
-111.898483
-108.435204
34.564189
-104.928870
-101.650752
34.638028
-97.807396
34.660966
-92.761519
34.633303
-86.496554
34.502343
-80.201476
34.348964
-74.057941
34.135535
-68.122828
33.837316
-62.405316
33.464005
-56.990143
33.018073
-52.525258
32.488644
-46.275125
31.899562
-41.299900
31.405114
31.007001
-36.528106
30.634109
30.197088
-31.937841
29.747073
29.275114
-27.545037
28.806659
28.305375
-22.477623
27.198671
27.747054
-19.168350
26.587265
25.987394
-15.463981
24.661139
25.340363
-11.884966
23.873431
-8.797745
22.793191
-4.988376
21.289670
-1.833632
19.603174
1.134429
17.789914
3.958202
15.856421
6.639359
13.825952
11.987334
9.161959
SCALARS stress_1 float
LOOKUP_TABLE default
-39385379.121129
-25627668.425510
25815664.797823
-102101113.376720
94238802.696030
-161907737.890772
164803505.242481
-218461625.447650
238346914.632320
-272796030.558393
314360820.123755
-324419811.107625
393550359.443461
-372646397.290491
474244494.634008
-418475838.833669
558197435.106178
-462139258.874615
644606247.060489
-502113382.197693
733570108.065670
-539891336.724726
824695495.379926
-575178647.240078
917884482.887881
-607469156.881207
1013219368.474159
-637174023.843257
1111288984.770547
-663917041.852906
1210685865.972193
-688609765.731716
1312260493.026779
-710910126.459198
1415554550.718671
-730499072.819715
1520863517.874802
-747665508.735090
1627580006.184650
-762500915.458157
1736408409.848733
-775466724.594844
1845743037.967310
-785949161.871826
1956664679.956534
-794221053.952718
2068877680.290248
-800300343.032668
2182054489.011020
-804697860.559655
2296209814.124225
-806946851.475991
2410967449.356536
-806911663.856072
2526489310.871274
-805936659.268628
2642791723.768697
-803000328.377275
2759120032.680595
-798514514.003575
2875441410.707226
-791940786.969091
2992048846.011909
-784183005.779492
3108712655.852851
3225054332.235424
-774471748.161454
3340893096.575780
-764277489.873480
3455948992.721345
-753100955.699933
3570286565.303907
-739692133.873159
3684395906.170891
-725535393.488045
3796621676.738451
-710986602.618987
3908583780.227593
-695031759.303184
4018463285.896525
-678534198.830670
4127175089.282148
-660881575.080695
4234554606.858303
-642691215.501239
4339092586.788311
-624097178.440025
4442311312.919596
-605133790.092197
4543716408.947005
-585067441.431895
4642341407.812853
4738772592.585571
-565292578.496316
-544312803.791129
4832222598.796688
-523874819.353533
4923165075.393888
-503580888.157666
5011695776.813815
-482622492.867144
5096928975.688258
-461690747.829688
5178747623.396172
-440674140.335331
5258017711.316509
-420418748.105377
5333869211.454643
-400058957.645495
5405972578.873635
-379744526.676989
5473784285.268333
-359708006.489891
5538810041.543852
-340386122.647558
5599654599.237091
-320700021.813607
5656922053.569058
-302038070.804228
5710217512.545127
-283697811.498672
5759210746.601940
-266043362.871079
5804144222.649982
-248872226.642751
5845361509.005148
-232459342.256298
5881661911.325087
-216543687.122501
-201195648.526020
5914191377.141330
-186358814.935326
5941996589.206415
-172733614.108922
5965796082.899297
-159765102.825799
5985046636.656618
-147546131.591627
5999434841.699388
-136153662.596179
6009907240.153724
-125320594.029229
6015791155.551158
-115393976.238499
6016918085.549341
-106392058.160928
6013369017.679803
-98049107.239125
6006598398.068663
-90939743.783612
5994604829.152566
-84437102.610580
5978156246.152519
-78527349.283386
5957118342.878748
-74139166.149752
5931930005.299426
-69644457.988669
5902836060.946083
-66743135.458382
5869422247.476370
-64854935.811725
5831621659.637453
-62616457.391047
5790052722.771087
-62207704.664818
5744287340.098281
-62182175.664865
5694912349.271313
-62674176.580962
5641318992.726827
-64300220.192101
5584732151.648629
-66661448.061640
5523758005.726200
-69728822.063457
5459637135.516931
-73060906.666022
5391614012.083880
-77235804.211686
5321127441.079329
-82197103.168917
5246978156.313500
-87137525.411596
5170358955.596623
-93509167.718714
5090480668.423028
-100085779.653629
5007324798.013722
-106795993.837385
4922509252.610203
-114339175.517446
4834656843.743999
-122257505.162281
4743869216.130453
-131276541.114239
4652365280.358780
-140159787.057426
4558239888.986374
-148722120.081357
4462055988.291929
-158579913.749389
4364326003.301309
-168260284.056150
4264654664.135260
-178502623.780632
4163709795.977592
-188465765.385934
4061636364.164690
-198945949.966942
3958046795.133197
-209749425.828807
3854019257.593079
-220361961.908470
3749174617.823033
-231243986.200557
3643256185.317389
-242184867.326114
3537244698.354845
-253129621.906187
3430653653.645367
-264300425.308987
3324274688.841234
-275036275.097869
3217130465.278831
-286157858.325152
3110716447.984017
-297526843.459304
3003916718.919596
-307901587.431894
2897908187.579899
-318060141.300610
2792000919.927726
-329094897.370602
2686420620.988941
-339327923.794446
2582353572.568397
-349662264.408823
2477945396.318371
-359074662.739892
2375405004.790886
-368976751.250749
2273747304.106688
-378328452.683190
2172895390.975746
-386943463.816205
2074264675.360861
-396067523.233643
1975901849.187635
-403613099.088079
1879673071.361181
-411235966.747723
1784329793.649156
-418552530.365150
1691100379.267194
-425686224.524208
1599349936.456792
-431713029.219525
1509905231.491276
-436919971.192894
1422124549.864976
-442292014.280996
1335628816.756330
-446543073.383573
1251693741.343774
-450648987.868835
1169333792.963692
-453364632.636523
1089031426.047357
-456240219.523319
1011135284.520370
-457374578.802546
935022587.440420
-458137450.468833
861345767.359527
-458307520.479609
789439714.082545
-457353052.361032
719981872.945859
-455585896.696948
652889698.222792
-452637472.387100
588086782.307416
-448884729.230969
525072043.946899
-444181391.539078
464482275.219417
-438330284.484492
405784559.340607
-431052443.282846
349738757.330959
-423029290.986457
295605346.368908
-413579333.400180
243989908.727780
-402736329.892225
194653318.212428
-390393406.577968
146676323.685395
-377475881.572788
101926264.362316
-362607805.618477
58574140.321370
-346271633.146306
17594362.778193
-328819737.955759
-22079775.404674
-309571062.636054
-59334787.953906
-288271525.144619
-94336073.064649
-265878963.754779
-127780328.621526
-241951317.208329
-159259017.135578
-215889011.310121
-188215519.391169
40955506.621536
-88705559.150952
109569347.090447
-149197168.850194
181443715.492261
-207086302.465547
255384138.022125
-261915270.508052
332979060.254140
-314161203.957219
412083736.383451
-363414443.913308
494500784.294681
-410234041.355828
579115785.246038
-453604566.169402
666437268.964196
-494658509.333541
756040066.118144
-532790536.416974
847955953.339670
-568116397.930741
941941165.608285
-600867712.696404
1038420010.929360
-630963623.225005
1136819863.971884
-658520623.553742
1237288806.462531
-683121984.193655
1339513866.406675
-705597092.124254
1443513174.941772
-725455548.756322
1548907787.288831
-743043849.853732
1656157706.901202
-758134425.453684
1765114734.252728
-771040566.535687
1875154790.291093
-781394258.826417
1986540644.742972
-790141442.242325
2098452543.024518
-796602806.510086
2211446301.925469
-800526642.451264
2326062097.761718
-803078704.729474
2440365816.107366
-803842759.539862
2555274902.062672
-802149742.488355
2671115359.633008
-799386840.080623
2786379306.234527
-794432810.827704
2902442502.183124
-788470289.077322
3017452068.426483
-780436994.435402
3132864693.912286
-771841813.097090
3247516618.956428
-761614579.410109
3361864671.722229
-749519472.511915
3475056577.467894
-736812417.965866
3587647964.040848
-722652756.162253
3698719155.762358
-708213996.980327
3808974168.948318
-692533592.178591
3917772788.388464
-676243883.952191
4025227778.246116
-658446927.591160
4130026305.742281
-640678050.227584
4233706979.824642
-622397949.114296
4336072448.967042
-603045236.167747
4434693655.611495
-584333845.425136
4531619225.484677
-563973003.234183
4625501940.712709
-544464444.884921
4717701366.553797
-524089219.630185
4806347614.228948
-504244075.228478
4892027214.648647
-484031999.438301
4975034773.071101
-463732889.512490
5054383767.464484
-443661712.425183
5130826870.460582
-423902878.839995
5203705428.969883
-403942594.478231
5272738802.213391
-384358654.940446
5338384066.196483
-365578413.479474
5399950732.298108
-346564909.227401
5457829466.954913
-328493269.158365
5511690418.488165
-310374810.835724
5561039517.334503
-293172106.017979
5607036982.246468
-276690600.584382
5647715305.071484
-260493025.661648
5685233196.093618
-245039691.444921
5717770851.002349
-230178679.808082
5746029736.550212
-216338465.414745
5769940834.705382
-202948157.828269
5789650173.315285
-190560787.706896
5804089310.348091
-178343261.714242
5814992589.182757
-167511041.097771
5820570671.787457
-157165744.363149
5822083261.225249
-147991474.168622
5818773648.248672
-138794748.077546
5811310342.667951
-131708472.437642
5799149627.235625
-124794377.438685
5782600496.230389
-118759087.859666
5761659904.404780
-113533231.301141
5736537361.726973
-109102536.542103
5706625043.102080
-105175573.614379
5672672198.029805
-102532884.239272
5634643756.788843
-100482562.917079
5592749229.347367
-99312946.742687
5546658822.926387
-99519037.747923
5496433717.925344
-99744009.180250
5442645241.565248
-100883090.760970
5385093551.656323
-102193855.737547
5323579053.850850
-105260594.299755
5259442686.585472
-108464335.695056
5190714203.201944
-112142816.860390
5119537169.194596
-116692735.827583
5045072955.315970
-121567589.217681
4967761438.902447
-127532715.062511
4887221621.295783
-133663845.514647
4804327496.932622
-140226606.605917
4718142687.149349
-147568107.583782
4630564006.072084
-155058744.758767
4540098951.505680
-162997407.846802
4447618968.323425
-171606709.000463
4353408722.646067
-180062301.467212
4256636714.715102
-189439886.810407
4159086250.967175
-199045316.708781
4059713276.428147
-208995828.725690
3958973119.965932
-218875991.482181
3856725148.327697
-228720248.972881
3753972621.912884
-239071385.976782
3650344599.000192
-249367447.583400
3545797628.926003
-259904337.160946
3440418152.716179
-270636384.741247
3334802817.117887
-281113337.066095
3229226042.372622
-291797239.225008
3123372424.721884
-301961115.996976
3017904146.912837
-312703002.123793
2912236401.655448
-323076355.479341
2806882298.601997
-333244390.336941
2701758111.715285
-343555396.254580
2597646413.078861
-353436676.758415
2494308265.439893
-362815990.900763
2391297877.666292
-372850523.460617
2289685226.468028
-381977526.274656
2188436561.649954
-390525918.553147
2089563007.453567
-398971331.980192
1991243885.999617
-407356898.234527
1894254320.897810
-414881229.468726
1798706450.584792
-422249144.424584
1704942591.923103
-429290534.938781
1612697614.565023
-435465224.695423
1522092840.315406
-441036844.746826
1433608917.568324
-445941346.145307
1346366315.976057
-450842776.574971
1261830341.027564
-454701306.619665
1178777646.217175
-457911828.274016
1098196783.938965
-460408864.437767
1019086771.997788
-462791233.536817
942297087.730026
-462773863.255270
867882832.314118
-463462760.803392
795097908.023388
-462138736.765027
725470358.941385
-460906509.413501
657221895.341434
-457850637.801129
591816890.244023
-454118745.454071
527656097.611956
-449259020.918974
466359101.681356
-443855208.974830
407187501.041443
-436742298.484182
350663588.712707
-428798509.441659
296327550.184106
-419097520.120583
243473067.418442
-408318451.851969
193655557.904675
-396331908.630442
145643978.821243
-383144087.476495
100043475.657104
-368076043.758336
55673526.843529
-352093618.806980
14145961.401009
-333901850.895749
-24744398.555079
-314475894.766438
-62334844.004246
-293659724.534423
-98199332.046752
-271328902.004559
-131823761.662105
-246591301.602745
-220870773.133835
-162766827.361347
-192740846.086788
13453660.185305
-64155695.979091
69325706.323271
-126055430.817160
137427401.959269
-184650290.350332
209697079.285299
-240564861.558119
284611639.304489
-293863689.072309
361819804.743380
-344008343.714466
439131520.122939
502964445.129837
-396197720.606562
588066542.969709
546114240.333343
-436776434.718674
675387621.195099
634689355.393890
-478397456.517540
721739168.761488
767589808.875860
-516529300.747942
813786761.188805
861084609.609004
-547394040.392061
954488916.456514
905584966.776728
-588186553.922685
1001642911.104744
1051299967.078716
-619102074.004864
1157341537.746124
1098615333.375487
-647594800.039754
1229715961.072801
-673673301.911978
1326406824.826020
-697373086.127206
1429650150.529647
-722331705.253559
1534669491.010194
-737824748.010425
1642141035.120710
-753147059.536505
1749365965.791529
-767336790.157744
1856095594.584276
-778458886.122801
1947972640.450165
-787974071.811406
2084018984.563591
-795433591.699775
2196877118.177912
-800398052.269898
-803420235.028807
2310786515.713013
-805571936.873663
-804901605.282268
2425758285.720315
-805593642.052273
-805050775.416461
2540939279.889294
-803549375.969711
-804711327.483487
-801676938.873202
-799977460.215682
2682151593.751752
-797979459.297781
-795224405.571230
2788491760.337484
-792073475.497846
-788461036.620623
2905992453.197803
-784296480.766397
-779693083.688258
3025509905.278370
-772662464.302625
3177631148.503936
-762255384.560066
3374173633.170515
-751359885.118356
3465415731.554341
-738466111.553785
3556687849.882468
-724466794.668989
3691391690.834741
-710434529.675772
3802999695.771875
-697103293.573725
3913444471.825738
-676628643.667141
4041800860.949139
-659854373.453691
4131812301.127811
-641609352.979489
4234284869.530934
-619233592.937018
4336481556.065261
-604183137.580841
4438092880.082343
-588647019.273421
4537709443.196884
4629622475.103387
4703152225.606625
-553109627.798120
4796235051.364158
4750564862.686752
-526947463.975859
4889889616.701546
4841841213.396930
-505818772.510301
4930804936.390592
4973939281.989736
-485191395.383740
5014305813.290109
5058788270.563994
-467190168.640428
5094523133.636330
5137021877.343655
-442412812.515622
5173289175.534775
5216021214.058290
-422213093.136895
5247650443.907472
5295883634.313894
-401656581.723386
5342713775.497931
-382005967.685876
5405639904.290765
-362643014.624920
5468018774.659782
-339504275.136830
5527573848.392399
-323780119.736126
5583118728.414432
-306242243.869919
5634181988.367627
-288558516.294028
5680278252.024856
-271316554.650146
5716504196.019639
-254634133.027363
5765152724.373835
-238981753.017280
5799047028.203804
-223914755.173010
-212107000.687987
5829480700.161867
-205252004.622732
-198156912.481795
5855223948.879814
-191627395.915707
-184278199.235917
5876879748.167868
-177860895.859978
-171849178.222968
5898730440.182801
-165764245.573462
-159402246.520925
5906354859.830972
-148798843.422700
-155020236.045502
5914318253.729589
-144283513.983023
-138515295.852800
5918408815.282248
-128219100.799297
-134498694.043565
5918156981.066483
-122543879.060681
5912172588.588642
-114893605.068361
5902223746.437805
-108069831.406752
5888132307.613801
-101498856.828311
5869568231.495583
-96271133.180050
5846381323.577481
-91964605.226770
5818847066.612037
-88770556.353448
5780836072.699639
-84562594.095696
5749804853.310470
-82713870.089781
5712122431.819927
-81537770.007881
5667577905.580987
-80629462.126100
5620267320.169779
-81212292.950104
5569509253.880517
-81740335.100940
5516715932.295177
5479504771.388405
-83596545.955049
5436720386.696991
5408277592.442757
-86056975.552828
5371609751.654932
5342437440.584156
-88828879.042562
5276682255.534002
5306072359.171977
-92404154.574023
5237947376.197019
5202513257.704112
-95988079.163569
5129591355.090454
5165652612.870839
-102161286.680166
5086136209.032597
5048717373.953642
-107596431.392112
4965320555.080009
5006013954.846844
-113769214.674167
4902711126.533106
-120256886.716103
4820395738.258346
-127412694.886133
4731508945.644178
-136763113.264579
4641492146.663412
-143553774.537154
4549936958.733193
-152033829.981371
4455345431.009900
-160378671.395200
4361458709.223828
-169727108.638935
4280582800.624532
-178845664.434080
4161565764.112621
-188728038.038595
4060457165.173577
-197940955.152655
-204723530.092116
3958735107.211088
-211383448.132703
-216704065.629021
3855903714.624597
-222302981.410306
-227251510.675326
3751413002.003323
-232691215.161334
-237086564.299673
3624801824.334646
-242912313.863283
-247764476.665952
3538015201.353778
-253446574.929722
-258735895.590393
3435354546.470298
-265195355.100798
-269969376.514022
3329826825.617425
-275999694.273470
-280704807.118275
3226231162.219561
-289506682.110206
3140488880.680046
-299834449.998218
2989424744.761122
-310067496.105688
2903879538.285951
-321122530.231440
2819740152.728478
-331016153.539754
2693850246.467191
-341265174.286019
2589559330.941392
-349375759.093205
2486009505.154842
-361150074.338037
2360855006.015252
-370824594.284174
2277126694.671326
-379573453.347040
2179923038.097405
-390437717.837935
2081153973.862046
-397413036.194141
1983271405.955181
-404060099.682814
1888078803.518006
-414159049.170689
1796929045.614074
-419111817.741997
1729830953.869212
1675762079.145923
-428445015.347122
1633591320.389832
1582613235.833390
-433548433.117160
1538251931.321500
1493685105.085677
-439274117.397612
1449525569.109175
1407148568.302439
-443406437.762374
1362521407.739107
1322149645.792580
-448836114.401592
1275553208.990942
1234908652.028531
-452545616.232613
1193446297.089653
1154826388.993173
-455661526.225312
1109667475.986155
-457963840.690211
1050068438.629825
-460051378.053210
975568648.193430
-460889634.962463
900979748.274837
-460844909.096574
827971569.985083
-459882074.504345
757639021.208020
-457965007.773837
688903554.002530
-455056069.838387
624542146.987086
-451553916.980066
571194934.741260
-446918929.619625
495970203.614907
-441107401.519249
435742291.399680
-436278003.694827
-432098861.913820
378157357.527455
-428213844.617459
-423585739.823532
322631031.492565
-418811016.401082
-413338574.024655
269654455.410387
-408051266.385867
-402846104.152648
207929657.290140
-390421298.648179
-396630739.768489
168271042.698741
-383289728.159569
-376410035.764922
123393759.336254
-361286337.631009
-369121326.184408
79982630.146697
-351924768.465703
42540945.578246
-339433101.001658
-3957610.797833
-321671874.776647
-42559737.439990
-301609132.619862
-78983884.109344
-280023461.758587
-113094078.548882
-256928534.000320
-145675771.695139
-232722229.861432
-210351627.324021
-176093650.533207
SCALARS stress_2 float
LOOKUP_TABLE default
15038968.161496
10513995.559469
-4635130.644024
33116177.614361
-26453956.290660
49996490.510535
-49170449.144453
64925959.809208
-74078609.338746
79033719.132188
-100562214.065427
91597279.886323
-127743639.987111
103017714.204958
-157513133.254876
113629814.750708
-189076017.042877
122588673.360343
-222306792.246423
129746550.993055
-257393308.783898
136937040.444804
-294071599.847188
141874290.674784
-332733288.843141
147104881.519762
-373491471.178605
150875389.113084
-415057949.830504
153332190.117366
-458956100.932183
155171498.880913
-505100924.949032
156794104.496264
-553123498.840242
157347755.922610
-602587257.716084
157199677.955913
-653572864.850060
156465019.026094
-706618373.137481
155143390.440651
-761476713.026000
153504048.862200
-817793292.451736
151236105.894815
-875599339.647383
148109849.671843
-935015628.764019
145116636.756550
-996236484.563610
141493814.852359
-1058539931.708771
137806986.737497
-1123111013.705698
134178466.330351
-1188637701.002046
129560085.234993
-1255208052.574741
125188729.799731
-1323771030.871438
120531814.372870
-1392791935.398333
115418227.814253
-1463120911.347311
-1534673755.480339
110911850.786496
-1606358595.733534
106014640.579365
-1679558110.124629
101275178.152050
-1753377317.630549
96062521.027013
-1827879984.269028
91368874.889941
-1902899933.976184
86678498.519064
-1978410590.554790
81368977.303495
-2053558163.196731
76768053.062269
-2129322665.193243
72343936.440270
-2205399452.777020
67777264.000763
-2281884033.454259
63577373.859361
-2357906285.242692
59080378.149409
-2432758156.177787
55139909.201479
-2507765953.962967
-2582639188.418738
51248240.404685
47226068.618872
-2656353116.074370
43630627.233151
-2729199569.395253
40209628.578097
-2801651967.224965
37069976.257784
-2872774368.540432
33737968.387823
-2942392227.888660
31115362.787251
-3011354999.816651
27827107.356717
-3078316913.086370
26266186.956066
-3144095680.756360
23804173.485949
-3208179858.862085
20990568.765400
-3270552089.717856
19588369.950840
-3330857090.614908
17058464.646343
-3389084669.356015
15721366.438251
-3445085086.703140
13546149.971445
-3498987697.499863
12549711.576499
-3550396028.822460
11488071.154064
-3599030526.159394
9806580.505442
-3645690288.157016
9332002.804785
7675195.109165
-3688949163.344598
7548452.889310
-3730311736.054183
6380869.434987
-3767997828.832775
5771884.943422
-3803431132.523954
5271860.274458
-3835348078.930492
4972854.799476
-3864679582.169473
4737551.889856
-3890343554.770165
4002137.661211
-3912868759.378923
3906787.054999
-3932360948.525018
3782163.872523
-3948514044.325530
3047892.840279
-3961023225.624041
3262631.544610
-3970402588.223323
3117377.141936
-3976748488.751996
3260731.747867
-3979124578.582910
2605159.559632
-3978218242.245337
2963783.419340
-3973624354.385628
2788775.756914
-3966333686.573863
2944013.925999
-3954655995.967932
2676577.397327
-3939752546.370607
3004734.798044
-3921957775.666276
3283265.499533
-3900671950.698519
3055417.699021
-3875663517.880996
3199452.552927
-3847815956.487208
3767495.944169
-3816291274.715853
3900131.343476
-3782251249.625472
4305588.104496
-3744400111.100454
4853537.697957
-3703669799.769418
4744138.006779
-3659910912.260983
5740669.228187
-3613155295.715307
6206448.518602
-3564089077.935161
6922229.331020
-3512121053.630781
7857987.333397
-3457520815.331438
8875201.996464
-3400211713.980061
10403574.673867
-3340201994.402495
11051491.877143
-3278472288.797441
12804674.530018
-3214636369.264247
14231239.788912
-3148389467.472340
15898718.891860
-3080255180.776836
17866456.036088
-3010223139.591396
20104709.930363
-2938555080.311945
22221238.260374
-2865675269.782063
24915900.990655
-2790853982.182714
27518441.062664
-2715318813.613247
30792997.714436
-2638511787.213820
34185028.398968
-2560546387.083780
37344790.569256
-2482036375.404094
41011617.248374
-2402660830.059148
45088921.592742
-2322534031.444868
49293063.136971
-2242022955.230682
54329297.351791
-2161217536.027475
59193778.416696
-2080321652.975405
63903686.628263
-1999351512.685357
69330913.951024
-1918723242.826759
74797294.367247
-1838265147.266266
81272280.370735
-1757279471.888266
87405731.728793
-1677691212.129491
93651235.150188
-1598959005.345060
100125301.443032
-1519796069.715938
107059306.804552
-1442815475.853009
114136099.298632
-1365854180.978047
121595016.907537
-1290697067.405361
129208736.654343
-1216303909.612493
136495700.521315
-1142969902.640249
144547780.572336
-1071488289.198866
152146652.045442
-1001065524.625727
160023225.748745
-932519888.060990
168196682.176050
-865245277.156347
176275114.879702
-799561285.563494
183924704.882775
-736278513.678355
191875849.737614
-674865047.582546
199475985.938023
-614296532.497839
206849072.821386
-556081092.720812
214423377.625739
-499923691.688196
221553838.200003
-446193305.266647
228241994.311484
-394225973.852090
234776902.024064
-343932664.781909
240742078.890088
-295944550.748607
246033648.014246
-250449587.322260
251095234.123035
-206515301.706910
254905226.106187
-165321624.943362
259307107.004507
-125656759.939080
262214996.352608
-88741420.345758
264079790.017145
-53225005.500780
265599861.021192
-20328459.270801
265556193.957901
10905550.180949
264966189.420426
39788611.813661
263602294.216881
67048398.423296
260539378.428880
92283218.969046
257025245.161114
115623013.287681
251241323.239430
136657102.041816
244467670.512749
156294461.364796
236926550.318456
173853562.663469
227431945.464664
189840947.559642
216139839.818028
203887693.012508
-8913541.759269
30029504.683443
-31487637.720426
47313004.193654
-55126161.945810
63043633.793526
-80566058.568765
77670591.104865
-107173694.269641
90259369.220210
-135808893.181783
101742546.587216
-166134190.712039
112545488.298419
-198696628.052294
121429609.760668
-232176213.865166
130073652.066499
-268545344.516692
136895993.134298
-305655662.983798
142607974.585871
-345136758.359022
147873042.769526
-386199915.404330
151297195.307069
-429555962.485759
154559969.587616
-474401004.265926
156332899.232973
-520970325.506795
158081733.335678
-569737930.045136
158692307.069885
-619866233.683721
158556934.487323
-672311541.747782
158445840.977106
-726023738.470012
157072263.631770
-781442112.315801
154934835.113933
-838958799.947763
152870007.457590
-897309897.302016
149942813.325357
-957656102.099719
146890427.065540
-1019545827.829333
143713256.282214
-1082599393.171207
139927637.108724
-1147618304.572997
135721596.852568
-1213281366.796667
131579384.373589
-1280905155.778335
127090037.293596
-1348923973.006463
122689165.728200
-1418915794.946441
117852092.984900
-1489280102.063656
113258419.197040
-1560302587.846572
107926538.480233
-1632922535.801384
103051350.671248
-1705630795.119979
98503500.926503
-1778777851.820089
93504077.512690
-1852745420.152144
88602635.074691
-1926778809.604604
84226538.902271
-2001694653.898629
79253149.128775
-2076728300.540412
74485919.573238
-2151115893.332728
70171761.310465
-2226246992.740964
65385438.770377
-2300555386.997815
60807755.986971
-2374643283.708826
57397354.349360
-2448485027.536611
53124051.973156
-2521356748.598255
49520390.677395
-2594010288.085642
45947854.891997
-2665108349.801547
42686353.906730
-2735663484.822242
39327669.011356
-2805231502.339615
36429316.635797
-2872876053.726517
33001729.110627
-2939496205.959872
30577218.039920
-3004236734.115956
28288635.324327
-3068365397.997541
25679123.509382
-3129799146.366592
23355351.025005
-3189321897.770113
21613380.946002
-3246956511.051683
19701213.602944
-3302912668.461732
17677910.152252
-3356328492.843838
15954451.883691
-3407061976.530046
14851017.442142
-3455660213.538088
13297889.140445
-3501284132.729278
12081163.111946
-3545054781.377118
11515109.239562
-3585838919.813651
9978119.127368
-3622962343.411729
9921317.931782
-3657234290.189084
8611268.494916
-3689012747.518568
7752314.420845
-3717467809.947183
7306239.377523
-3742973848.847783
6675948.224796
-3764964129.278906
6134467.804773
-3783386755.572597
6035771.273873
-3799067172.357475
6110956.747709
-3811035979.965583
5510003.597661
-3819668806.496271
5316256.020956
-3824635228.281581
4982744.563128
-3826170352.694364
5338861.421404
-3824568118.048930
4674939.222933
-3819587752.247400
5056565.868367
-3810990483.389124
5045153.455585
-3798913114.846952
5231499.670275
-3783116078.423657
5282193.139587
-3764326567.573706
5486697.531479
-3741838070.099870
5272776.746601
-3715599486.630770
5822822.452910
-3687051175.050793
5934558.021786
-3654561210.203520
6577383.121187
-3619347509.246841
6712400.692571
-3580958591.320913
7095735.363088
-3539113184.757779
8418028.585732
-3494728385.953364
8871308.987655
-3447350944.065558
9915522.551122
-3397331397.937943
10578281.903281
-3344243355.966442
11706106.712091
-3288944004.268138
13005341.704049
-3231310798.709687
14184562.017842
-3170750480.978249
15311073.635736
-3108515736.428941
17853988.225687
-3043319039.771998
19431150.944116
-2977001873.851002
21274671.540596
-2908669646.335378
23230619.171545
-2838648886.150323
26128899.289960
-2766971900.865916
29152595.133876
-2694062779.936624
31689306.900520
-2619756479.461794
34430419.513619
-2543716719.837352
37763009.996246
-2467375436.732726
41853378.975550
-2389822857.717994
45597429.259646
-2311631041.503391
50104337.772258
-2232814990.799152
54302952.710615
-2153726501.175356
58907800.882829
-2073963526.812967
63938240.171819
-1994524057.596374
69092245.914968
-1914727980.136461
74685114.506732
-1835156058.399235
80415281.714416
-1755832407.954771
86621699.072632
-1676542885.728267
92814846.778608
-1598417349.900687
99357969.326147
-1520399368.338686
106163520.994093
-1442856199.752500
113093264.293982
-1367097873.497244
120347116.975388
-1291716037.306230
128057921.020576
-1217741166.023036
135309995.237660
-1145117047.810896
142491160.120445
-1073285192.554197
150888586.180467
-1003294512.119593
158596616.952338
-934260659.199586
166396571.970670
-867476535.678564
174436933.747000
-801477135.934720
182162982.345210
-737867171.108211
189839145.003336
-676262005.891537
197343851.273722
-615908312.151354
205409038.476020
-558173746.283587
212618517.121766
-501329901.939930
219720325.489804
-446852418.457767
226118783.644016
-394912459.803102
232871738.921785
-344708289.313320
238868158.857725
-296813965.895882
244617487.219140
-250893440.161675
249581210.680799
-206669086.058969
253679409.439929
-165148572.413612
257470271.659762
-125324902.133066
260792240.578333
-88051405.595522
263146683.533026
-52787233.411868
264592820.157802
-19918771.960294
264797061.690695
11676177.107504
264464539.039169
40390619.413336
262835449.226298
67673972.875584
260288499.886043
92690034.586788
256554434.355787
115945115.953794
251028867.443644
137307526.069139
244737391.742768
156702227.380478
236910295.119813
174374360.980349
227566810.894430
216846538.933273
189822852.490560
204193785.614535
-1215900.144563
22189125.818634
-18386221.163225
39882370.250498
-39888483.594561
56737448.969250
-64266829.283591
71139919.067427
-90045457.671478
85053807.521954
-117151856.054530
96578464.681138
-145420201.785126
-168653574.080740
108788852.677095
-200871954.388973
-185399015.708823
117984880.238005
-235270573.955437
-219153839.779574
126299956.710809
-253830849.960276
-271709081.358914
133641930.285812
-290889254.064833
-309953381.316677
138458722.051097
-348916592.265367
-328211931.621258
144860752.313341
-369143681.880027
-390704845.713470
149365393.623620
-437226048.597515
-411025352.556020
152735578.659168
-469115887.731048
155264626.826833
-513239423.074255
156584818.986457
-560664707.072044
158131390.380975
-611194233.870469
158180084.973559
-662891596.500649
157283188.534234
-715779111.077171
156875570.705263
-769174665.496243
155359188.315279
-815711746.762105
153119612.800411
-886144550.833838
150844489.176383
-945938137.736081
147507275.165521
145187282.845707
-1007919067.178242
141716839.141976
143882988.743400
-1070383722.843550
137892533.760722
139981254.623493
-1134887328.005507
132926356.555130
135498002.536726
131485682.323745
129319212.276565
-1215306981.811955
127075534.928416
124503679.307226
-1277759504.835948
122897103.094248
119941271.655840
-1346362727.205260
117787335.446646
115402945.072369
-1417567470.180828
111619076.046863
-1510829434.000374
106888907.661006
-1633785166.999591
102069004.176165
-1692445090.849896
97259224.362346
-1750706543.126670
92940322.207810
-1840434543.108102
87479906.654158
-1915030499.365469
83604013.737122
-1989756378.627631
77842824.937136
-2079385799.987257
72936369.104137
-2142883289.184552
68624071.372015
-2215659432.532418
63525972.686135
-2290856805.507760
60578041.984759
-2365986481.979060
57209717.643452
-2440182513.939357
-2510990897.575702
-2567484033.195510
50002341.771575
-2642193258.524848
-2606885923.010622
45648931.228991
-2716567029.990781
-2679261728.699225
41526594.315478
-2751185491.822546
-2787229899.459188
38151933.024179
-2820883272.802819
-2857518861.627448
35383572.112357
-2889085477.723552
-2925188198.488464
32085443.600482
-2957303494.659045
-2993777033.010298
29700498.498150
-3023233508.983285
-3065056040.308707
26961784.559046
-3109765829.381751
24598336.957322
-3169004531.953281
22046802.238513
-3229070488.736616
20080415.769702
-3288099439.996945
18771027.500444
-3345265870.649563
16435421.046835
-3399394157.190702
14834738.106087
-3450219425.608902
13971597.501039
-3492016258.621309
12355188.326119
-3550160290.145944
11068184.959365
-3594900642.509483
10091497.786316
9261789.411459
-3636827879.039907
9028441.243223
8462046.270493
-3675997290.714142
8121034.059133
7421587.630021
-3712341394.160808
7444688.945943
6708802.457352
-3753728799.387476
6748929.299964
6207590.071163
-3777260449.386068
6334436.883694
6175259.482224
-3802884567.089717
5679621.925439
5396909.322199
-3826990552.591782
5338911.817567
5339680.140642
-3843933800.764935
4585318.122363
-3865575916.013530
4336380.607294
-3879334675.121898
4424200.993416
-3890610730.705189
4055077.285559
-3897148769.310409
3796657.652736
-3901905182.077713
3783897.075356
-3901543081.339145
3885094.328025
-3896881268.947408
3818094.116054
-3891103201.131948
4171619.251716
-3882175410.074107
3724198.484412
-3868309346.592695
4460655.879192
-3851776262.995337
3883352.295901
-3832519397.913773
3944497.187534
-3809999935.573950
-3794969731.905464
4414592.374641
-3772521178.256014
-3759831578.876643
4613007.804281
-3740446435.551986
-3726722529.526443
5290403.317672
-3693149940.217591
-3706820906.267921
5506647.746378
-3671599848.511081
-3653199576.129869
5704780.032210
-3612732954.836461
-3632233883.560309
6210519.334812
-3586178352.270010
-3565950036.619763
6967983.888146
-3517310242.989395
-3539999398.999873
7578924.213911
-3478072558.717279
8774375.683487
-3428072334.679925
9098215.319947
-3372071497.690387
10431149.415650
-3314650947.898584
11221478.782906
-3255313929.823283
12730021.203875
-3192485117.757220
14239227.294296
-3130023438.326440
15948998.685187
-3075012826.595698
17615450.643812
-2993527309.064509
19580086.879798
-2924038395.783319
21906131.209849
23158004.777185
-2852100403.385042
24685269.317038
25776404.369854
-2778841933.324147
27776100.923302
28930317.921116
-2704877438.426479
30264473.702126
31977891.387252
-2613261947.791537
33595334.503453
34841191.892892
-2549726374.401549
36778865.363969
38932605.928610
-2473890210.480626
40751410.158789
42535327.382382
-2396192453.448853
44558110.847510
46507679.288948
-2319254016.078768
49729798.140980
-2255104628.386230
54309324.791999
-2141160752.469448
59319520.332619
-2076676524.881086
63773048.017800
-2012682744.160791
69264264.936237
-1916489858.198011
74630535.340583
-1836399979.930133
79438772.253530
-1756314435.763133
87118879.801634
-1659499951.121851
93493800.539472
-1595430830.871908
100170676.282105
-1519697556.843329
108299353.297581
-1442865413.838505
113908670.341361
-1366598953.202809
119858068.173595
-1291785231.429508
129553746.650937
-1221298509.753076
134727896.848648
-1169273980.039932
-1126284788.702120
145265846.622158
-1092999684.655338
-1053876881.344445
151618312.030540
-1019855824.831182
-985045152.017116
158972968.671532
-950593423.228399
-917172891.964038
165490482.687701
-883198863.459412
-851055086.133153
175271909.179510
-815435114.013427
-783539546.421705
183201968.017554
-751917358.851398
-722402119.019574
190852640.352246
-687703976.764785
199011614.910085
-641964324.403060
206534861.010722
-585157545.844606
215430215.936109
-528733864.293134
220879566.670247
-473612945.066711
227512369.146484
-420676210.240805
233739310.434846
-369725620.061254
239992764.532935
-321640962.177747
244945260.021273
-282621561.206972
250194748.708815
-228334893.812454
254877425.657014
-185792557.652829
257586218.690587
259078557.323659
-145064213.485164
260378301.983497
262195428.464810
-106484812.449616
263189971.661383
264167555.279041
-70703115.139338
264597777.469433
265283668.534393
-29419272.106607
265549280.808598
265290309.722554
-3159127.820573
264891055.620905
264256018.902260
26204092.829234
262456117.540163
263509999.680904
53227909.955621
261016564.306671
76470773.358871
258216036.279438
104374948.492865
253790352.927245
126549205.652049
248127630.124865
146743224.565393
241372925.481058
165169591.990272
232344768.570168
182230978.923505
222582002.006656
212884679.533528
197433855.355369
SCALARS stress_3 float
LOOKUP_TABLE default
82139218.423087
52334210.466213
-56550038.398028
215304837.724600
-201147619.006625
342746623.593577
-350889176.922822
463980530.447432
-506518200.264919
579815244.672342
-667378104.852149
689683745.371015
-833631126.653277
793665968.661750
-1004906683.904949
891662006.513314
-1181383734.308053
984209660.595358
-1362978247.233172
1070652853.325297
-1549025235.515133
1151561436.790195
-1739761042.973169
1226557861.407467
-1934987288.709985
1296098008.846766
-2134497399.828287
1359901367.226390
-2337963020.863833
1418064636.515107
-2545390359.934925
1471060420.114690
-2756712867.845199
1518500992.560851
-2971118819.012069
1560664164.271004
-3189170802.089593
1597988715.332215
-3409648420.062178
1629809996.311431
-3633303226.300409
1657050453.027839
-3859347733.489577
1679421761.450205
-4087592132.582856
1697183701.846362
-4317790156.982063
1710186834.334611
-4549612184.923846
1719042477.600198
-4782664873.660487
1723553137.194476
-5017020347.160754
1724264047.086166
-5251965605.810872
1720706828.110095
-5487573322.296133
1713526284.534095
-5723310341.152296
1702875531.759941
-5959126455.064653
1688629157.189405
-6194398776.419430
1671571397.956383
-6428814785.035858
-6662267858.166224
1650881450.029639
-6894322426.763697
1627768437.110016
-7124724580.946624
1601650009.614926
-7352965741.250764
1573144960.647030
-7579004989.794463
1542227785.639334
-7802300261.530892
1509410950.560560
-8022770227.294924
1474324000.395067
-8239717342.905789
1437545654.694164
-8453133669.466241
1399098843.308270
-8662764748.378098
1359259012.922632
-8867963116.027584
1318466505.537205
-9068876270.533045
1276014825.270289
-9264676904.131174
1232982741.405312
-9455396898.373320
-9640840278.212702
1189401206.926634
1144825658.968149
-9820360255.499788
1099975178.514217
-9994021353.038216
1055109334.848266
-10161325167.245445
1010004580.238130
-10322565934.657230
964937416.683764
-10476875725.242384
919847587.736474
-10624222192.969723
875470896.112742
-10764244763.091526
831420122.946462
-10896862275.308729
787767518.954114
-11022156733.858023
745124571.687006
-11139473707.306398
703080372.727680
-11249141128.756611
661968430.343968
-11350397733.043528
621860066.685359
-11443628417.419436
583138659.602274
-11528531386.301794
545498530.378140
-11604746993.509880
509298649.729439
-11672397781.311575
474208383.089132
-11731387344.959208
440472224.158106
408636251.235383
-11781838944.303244
378208564.470498
-11823122766.029022
349202255.564290
-11855706176.105356
322132829.681888
-11879279186.949703
296752331.957187
-11894038997.396933
272944217.256200
-11899905206.848913
250698436.444943
-11896927347.156109
230488099.523370
-11884951669.570852
211837310.790549
-11864306233.943609
195087179.679441
-11834754991.676241
179885239.205641
-11796504051.186209
166491227.518637
-11749758803.308386
154862876.200970
-11694668561.176756
144957199.252594
-11631202245.059244
136667109.838638
-11559433962.806316
130088674.974650
-11479627757.670305
124835773.227578
-11391842071.084259
121520905.345090
-11296431396.032635
119603019.476720
-11193224291.350302
118867435.354543
-11082853567.037308
119836583.844574
-10965320531.511106
121993778.111942
-10840881542.622213
125993069.739187
-10709610539.355038
130636907.324444
-10572075724.276609
137022639.017248
-10428097633.087866
144067021.565267
-10278415571.788853
152375883.118036
-10122646373.513554
161636408.273690
-9961774935.395956
171979078.197357
-9795598652.302164
183140440.471578
-9624822627.067051
195070921.127541
-9449376423.989773
207867853.479909
-9269301382.920797
221244137.678215
-9085640673.561104
235083186.470129
-8897904042.209806
249901433.587770
-8707143019.433939
264895261.211862
-8513211626.517026
280595840.924945
-8316513846.175634
296487203.474734
-8117198780.559347
312617910.026357
-7915735779.518673
329086011.477064
-7712340198.785781
345726739.259860
-7507783394.778129
362638313.138056
-7301724215.944409
379353029.410719
-7094549163.568142
396403494.825563
-6886760144.515431
413199463.413778
-6678628972.069797
430010849.206551
-6470355166.679933
447034935.668123
-6262383122.345883
463320142.381037
-6054772546.799815
479899674.541653
-5847804542.758301
496060448.299506
-5641661149.236979
511998438.701379
-5437155569.101956
527313124.195917
-5233740753.368873
542643396.546431
-5032025484.754299
557481309.634574
-4832273891.139936
571687895.074123
-4634635454.525831
585476651.463257
-4439195176.226735
598699869.699225
-4246577294.392227
611530805.962796
-4056612689.471001
623632997.419097
-3869335944.478697
635081565.114957
-3685168481.446593
646023922.932029
-3504258684.941683
655985610.334556
-3326700465.861306
665425337.204191
-3152699341.788050
673852976.587763
-2982381485.021072
681711023.232986
-2815682963.591608
688419069.320629
-2652802580.365762
694255938.464466
-2494013203.941762
699304605.979205
-2339120758.917833
703205299.329087
-2188356985.026143
705868961.828820
-2041715125.431865
707639953.092178
-1899207002.166278
708077509.150396
-1761218525.678029
707378364.751189
-1626958153.281872
705462541.657910
-1497345372.859506
701920946.468742
-1372095828.143098
697041692.230511
-1251170163.163882
690842218.257926
-1134415980.102671
682792155.180402
-1022153864.392518
673309084.013532
-913920459.946357
662223632.103258
-810281732.346774
649135109.032166
-710609599.058057
634093679.996620
-615095008.678433
617281552.878318
-523633069.239134
598330763.141502
-436250340.621862
577300427.683466
-353252797.156964
553831871.401505
-273813764.427025
528221230.476386
-198272702.344981
500322484.073283
-126654904.493417
469646222.821610
-58520873.202682
436529585.020482
5890219.495991
400630448.433252
66625541.720901
362138833.091155
123994616.574756
320589019.174958
178036082.443733
276130446.566361
228642725.745246
-87872464.592854
186953948.990130
-233951740.872365
315696991.782488
-385508080.758498
438447764.394641
-542629612.369553
555564393.212769
-705142741.792642
666822992.772583
-872996333.146065
772050475.759377
-1046008389.532528
871326060.708864
-1224013846.771263
964746278.723750
-1407060252.831035
1052193740.339747
-1594899357.231965
1133912770.391683
-1786965236.509810
1210081271.265736
-1983574677.200284
1280106886.363679
-2184522752.555672
1344511582.071693
-2389241724.096093
1403440999.374137
-2597762755.790312
1456671632.657191
-2809807192.890616
1504782412.456567
-3025306629.066657
1547542696.473153
-3243647255.153307
1584736073.660075
-3465317383.088099
1617417497.001693
-3688874714.272849
1644715913.033720
-3915153819.511199
1667178581.724923
-4143055366.771913
1685154297.910081
-4373102251.008162
1698420273.557962
-4604015675.889647
1707334424.070338
-4836368743.684246
1712017265.715044
-5069488148.479070
1712581502.610379
-5303208994.959412
1709269644.575529
-5537064212.377558
1702063112.744390
-5770626423.686679
1691467489.503140
-6003592187.154654
1677382444.851734
-6236165289.585122
1660238904.609359
-6467509133.781721
1639969348.894313
-6697377622.012329
1616563559.706552
-6925410010.663173
1590887018.715729
-7151203667.553484
1562635313.504385
-7374725866.801607
1532017468.309119
-7595533775.927709
1499113756.980352
-7812971697.199666
1464690935.218925
-8027137090.287179
1428329227.143139
-8237472603.576470
1390345208.304300
-8443839563.902414
1351112967.119776
-8645876510.068647
1310737902.156515
-8842993111.476992
1269380392.249296
-9035149589.797186
1226997662.382480
-9222131348.998003
1184267622.556022
-9403317316.481300
1140810528.321229
-9578591580.066315
1097190530.245048
-9747717162.587917
1053346992.028320
-9910506449.865385
1009391309.371886
-10066319241.717951
965617296.842694
-10215640554.413540
922178027.724171
-10357494864.487909
879038370.284150
-10491964893.760340
836614639.239114
-10618969313.065701
794649759.155962
-10738073819.656279
753822568.601643
-10849180531.500885
713581459.993524
-10952151493.016977
674726674.615033
-11046789631.724722
636495048.048711
-11133079872.041576
599817175.995400
-11210785616.652882
564470228.305519
-11279652955.676979
530328708.144151
-11339969959.649673
497611815.629596
-11391237127.555374
466498255.359990
-11433791302.079416
436731711.603166
-11467290107.489725
408646747.941666
-11491758161.904650
382134631.391038
-11507049697.592108
357487910.219116
-11513779536.520918
334525389.740561
-11511015478.959003
313187531.089268
-11499495564.607292
293578593.280786
-11478991388.151127
275730035.897655
-11449775142.724493
259590680.939830
-11411479159.012726
245134095.273326
-11365014226.299347
232408840.063270
-11309447427.269693
221510095.876565
-11245788066.191690
212085015.878338
-11173725775.632330
204394055.800664
-11093401887.710003
198517658.360024
-11005260247.708231
193921275.438027
-10909277967.894936
191021770.467681
-10805496599.104990
189506159.181060
-10694607392.771496
189520926.892827
-10576422523.729321
190859796.319461
-10451320681.112452
193415300.775626
-10319377618.920935
197365807.127336
-10181176277.572227
202693960.689252
-10036620590.050781
208907481.760442
-9886294383.222704
216471626.072982
-9730329699.773333
224943603.658060
-9568679751.434832
234149694.247750
-9402018519.191656
244474879.723708
-9230691375.461262
255679903.818008
-9054995595.975817
267493459.845312
-8874932700.137184
280062792.821215
-8691143647.827066
293337400.209911
-8503491791.880379
307079671.893056
-8312699674.446700
321182141.185312
-8118999963.825191
336020331.669218
-7922754416.433310
351250643.824612
-7724154022.987629
366421209.234035
-7523684855.070781
382211541.928674
-7321372586.115817
398130248.656244
-7117588979.555838
414160354.581874
-6913097368.674360
430096257.886285
-6707769045.203554
446225354.033719
-6501606583.859987
462210082.756251
-6295405706.076715
478289236.234649
-6089440040.152897
494142524.649634
-5883729262.387690
509802125.166336
-5678864294.214148
525285645.965521
-5474757936.080963
540231119.645325
-5271920117.988181
555262742.236982
-5070606606.951444
569879620.070748
-4870951936.135967
583836499.744803
-4672809746.974806
597748794.455511
-4477280511.050592
610911401.367999
-4283982116.812019
623594952.096041
-4092957508.140786
635562722.969941
-3904750649.336051
646995275.721817
-3719576178.547396
657983186.831506
-3537667439.538219
667903822.180662
-3358804556.725980
677446533.950053
-3183481920.441026
685948065.753455
-3011578676.683401
693695475.322987
-2843498217.334807
700640623.855011
-2679088144.576057
706768140.545891
-2518506132.407197
711414811.127745
-2361869190.442046
715761676.647403
-2209744761.546710
718530911.852579
-2061308703.902005
720149556.057980
-1917152825.389629
720823971.176496
-1777312257.741748
720153086.940246
-1641748573.556590
718326163.679532
-1510414224.865387
714812114.441183
-1383640352.833360
710267903.256431
-1260978001.491742
703875343.321640
-1142798512.304820
695962621.234990
-1028923476.288234
686532945.058949
-919372696.488858
675069627.958646
-813983599.205804
662239092.264426
-713102949.903360
647164920.724005
-616479118.195346
630200973.368617
-523851775.097402
611194092.678143
-435354314.223350
589923221.400298
-350792660.171414
566554900.999369
-270439470.555417
540737550.939596
-194058612.540531
512432701.700861
-121382451.591044
481871333.314398
-52371800.604250
448309197.960975
12651150.955564
412198628.537886
74266979.773692
373246696.926831
132259992.385845
331381237.040698
286415816.761187
186906395.178203
238180725.702120
-29831771.591534
134903992.117523
-149100997.246995
266078768.522699
-292959754.721450
390883851.912798
-445709774.001140
510283196.823533
-604418004.059475
623727263.790662
-767905792.520584
731295440.215960
-930543055.141303
-1064615576.971840
842850111.181922
-1242806425.342721
-1154322489.326326
930235368.086146
-1427126572.025986
-1340711413.087734
1018325879.229730
-1524001361.105458
-1619766035.995901
1099833517.410634
-1716862840.050651
-1815389048.734375
1165357527.820159
-2010124897.689796
-1907753350.113970
1253905057.358750
-2108627021.776095
-2213457071.245753
1320898022.306264
-2433742212.415888
-2310293819.895123
1382079794.729862
-2583253194.578409
1438095769.732251
-2784532132.222861
1488362120.447325
-2998204065.874303
1542012604.928047
-3215654931.704811
1574544656.811091
-3436880051.833247
1608392085.174767
-3658912827.702075
1637962170.414240
-3878205099.676277
1662580578.494521
-4067124630.050684
1682523783.564371
-4345753421.880177
1698020494.078479
-4576490497.191403
1709283835.525456
1714476226.100420
-4809259734.531814
1718404623.670215
1716978584.442302
-5042870851.888089
1717919421.153707
1718514301.632845
-5277283100.244636
1713798774.007666
1716313441.298750
1709904262.059141
1705434593.762472
-5563779031.422410
1700168801.693409
1694161073.115453
-5778804901.601894
1687354053.544654
1678776816.789871
-6016236568.493465
1670617268.438577
1659286452.102214
-6257010025.540065
1644166251.168626
-6562515368.424616
1621585458.266216
-6955221055.283429
1596193581.751187
-7137507020.984725
1567692326.346791
-7318924055.762229
1537331535.474324
-7587272590.334537
1505546534.694279
-7807783369.913520
1477066319.013200
-8025270251.638405
1432964891.911993
-8278569390.462712
1394880717.665687
-8454774749.572665
1355500393.254463
-8654343250.516117
1305630180.279993
-8854724413.982161
1272776847.962000
-9051569547.987057
1238933538.261062
-9243663821.583332
-9420949336.422045
-9563106468.048746
1161712070.291574
-9740747941.715027
-9653480124.010405
1104625800.843462
-9918358031.437382
-9827263171.574781
1058208044.062876
-9995422263.035662
-10077946643.366142
1014037005.674276
-10153273657.854368
-10237842952.485268
974477581.859534
-10304177086.805826
-10383620124.978632
921009960.537050
-10451211837.742386
-10530464054.064680
877493893.229498
-10589601443.421465
-10679390951.575735
833875776.497697
-10764269632.250483
791383144.042534
-10879090787.485718
749414856.430911
-10991715025.729380
700293154.897018
-11097795971.670387
667297889.673147
-11196270095.140076
629363051.510526
-11285317383.869122
591431763.465916
-11364311929.408894
555165071.192113
-11426023311.449100
519642344.834583
-11505075818.399359
486370478.869226
-11560393317.758612
455029651.552107
429882936.895165
-11606852689.350027
415750672.560438
400786383.391917
-11644256649.709364
386621549.860645
371089059.012694
-11672926543.970610
358562550.304811
345551303.922919
-11697973127.740126
332776767.565275
320062021.376754
-11702621250.946369
297680195.463262
310044562.157737
-11703406712.594801
288629315.824233
276438064.524684
-11698270956.838375
254824916.535803
268082645.731869
-11685086685.505903
243120792.104369
-11656105023.869970
227271223.924277
-11622591622.970785
213161718.151468
-11580279544.384697
199654158.015862
-11528972602.080515
188740564.283528
-11469590494.924345
179523917.126732
-11401822897.601526
172641714.783618
-11310265548.753082
164339100.218781
-11237829275.401138
159987671.092680
-11150273997.780064
156651826.248849
-11049074474.680683
155063024.553031
-10943586796.668928
154702975.139120
-10831807689.457102
155776056.038303
-10715874356.970778
-10633088532.825472
158136349.451485
-10543826176.385956
-10482169608.131350
162279653.342642
-10404053397.723194
-10341027779.174410
166856218.483836
-10200817720.061802
-10263315771.339138
173099540.909290
-10119209802.628819
-10045278878.975864
178671108.057995
-9892113766.800585
-9967211734.535246
188940616.138944
-9801421716.245440
-9724080413.779812
198306177.877699
-9550320218.419319
-9635163112.190882
208628809.518362
-9421527770.388664
219841117.926946
-9252389107.644060
231747170.567693
-9070064966.702675
247167132.601703
-8886611897.858742
258509681.577227
-8700074136.045435
271911568.249184
-8509051229.342238
286157963.457944
-8320663657.504814
301139867.695915
-8158320682.728685
315927978.790864
-7919477200.262578
331761118.937708
-7718569071.874201
346812643.559118
357312968.049984
-7515653960.329364
368484658.854580
375722509.478283
-7311267469.061165
385161600.774607
392682829.912597
-7106107184.368718
401662141.185113
408461230.541345
-6856886555.460613
417218818.652345
425041783.248771
-6686001896.774635
433669253.646949
441441123.138330
-6484375829.701562
451064506.587552
458599707.453039
-6279339669.445015
467372538.401079
474533476.816917
-6078201011.200722
487539739.438067
-5911588298.837493
502744813.758120
-5618890794.092730
518545966.106424
-5454630193.101055
533880294.588316
-5292560509.672395
548877760.186697
-5051097969.086130
563256518.943905
-4851304661.497354
574984590.913183
-4653532963.743660
591556579.806737
-4415718011.515885
604846530.081852
-4257166274.731130
617561990.502869
-4072742101.984420
632063601.743417
-3886476054.470524
641078871.627793
-3702243938.909298
649783351.451763
-3523086542.407366
663439490.517121
-3352722869.473356
669747463.492062
-3227501317.297648
-3126278901.992771
681548804.129249
-3047431458.128678
-2953122696.411797
687881014.344840
-2870725763.344079
-2788805546.947441
694378044.530427
-2706800167.564968
-2628030403.262214
699237952.636264
-2546457701.322267
-2471129215.245166
705461012.412968
-2385084262.740330
-2310188061.395196
709321276.056422
-2234458263.032340
-2163825805.309835
712368846.700147
-2080870656.484140
714087417.359737
-1971792309.433811
714568661.948081
-1836423287.795944
713608590.219017
-1700804559.987538
711786147.844610
-1568523526.587569
708391925.240993
-1440557206.083648
703680588.268957
-1317440352.015712
697329338.141023
-1200981546.256579
689362326.303287
-1104901828.759714
679821468.781260
-970756752.278991
668964315.075808
-863941025.563918
660034626.942216
652224450.072843
-761476410.561529
645018768.769960
636751131.895368
-663348718.137931
627962732.568157
618653502.336282
-568986281.190417
609734186.389375
599842865.048390
-461177165.571077
577715117.553590
589045913.641063
-390412216.139549
565787304.170268
553966663.817939
-311323961.541278
527109783.021778
540860236.512256
-235427653.944311
511298590.749781
-169802740.038634
489555308.354519
-89302744.047627
459038958.451542
-22710951.622329
424587268.819855
40079576.079380
387427434.512135
99440090.329558
347561087.905742
155696583.645634
305605580.131900
267237423.043341
208334656.050811
