# vtk DataFile Version 2.0
Generated volume Mesh
ASCII
DATASET UNSTRUCTURED_GRID
POINTS 994 float
-0.416146 -0.294827 0.000000
-0.409251 -0.287252 0.000000
-0.421925 -0.286495 0.000000
-0.410201 -0.303043 0.000000
-0.427538 -0.278049 0.000000
-0.404095 -0.311138 0.000000
-0.432982 -0.269494 0.000000
-0.397829 -0.319111 0.000000
-0.438254 -0.260832 0.000000
-0.391406 -0.326958 0.000000
-0.443353 -0.252067 0.000000
-0.384828 -0.334675 0.000000
-0.448277 -0.243202 0.000000
-0.378098 -0.342260 0.000000
-0.453024 -0.234242 0.000000
-0.371218 -0.349710 0.000000
-0.457592 -0.225188 0.000000
-0.364192 -0.357021 0.000000
-0.461979 -0.216046 0.000000
-0.357021 -0.364192 0.000000
-0.466183 -0.206818 0.000000
-0.349710 -0.371218 0.000000
-0.470203 -0.197508 0.000000
-0.342260 -0.378098 0.000000
-0.474037 -0.188120 0.000000
-0.334675 -0.384828 0.000000
-0.477683 -0.178658 0.000000
-0.326958 -0.391406 0.000000
-0.481141 -0.169126 0.000000
-0.319111 -0.397829 0.000000
-0.484408 -0.159526 0.000000
-0.311138 -0.404095 0.000000
-0.487484 -0.149864 0.000000
-0.303043 -0.410201 0.000000
-0.490368 -0.140141 0.000000
-0.294827 -0.416146 0.000000
-0.493057 -0.130363 0.000000
-0.286495 -0.421925 0.000000
-0.495552 -0.120532 0.000000
-0.278049 -0.427538 0.000000
-0.497851 -0.110654 0.000000
-0.269494 -0.432982 0.000000
-0.499953 -0.100732 0.000000
-0.260832 -0.438254 0.000000
-0.501857 -0.090771 0.000000
-0.252067 -0.443353 0.000000
-0.503563 -0.080774 0.000000
-0.243202 -0.448277 0.000000
-0.505069 -0.070746 0.000000
-0.234242 -0.453024 0.000000
-0.506376 -0.060691 0.000000
-0.225188 -0.457592 0.000000
-0.507482 -0.050612 0.000000
-0.216046 -0.461979 0.000000
-0.508388 -0.040514 0.000000
-0.206818 -0.466183 0.000000
-0.509093 -0.030400 0.000000
-0.197508 -0.470203 0.000000
-0.509597 -0.020274 0.000000
-0.188120 -0.474037 0.000000
-0.509899 -0.010139 0.000000
-0.178658 -0.477683 0.000000
-0.510000 0.000000 0.000000
-0.169126 -0.481141 0.000000
-0.509899 0.010139 0.000000
-0.509597 0.020274 0.000000
-0.159526 -0.484408 0.000000
-0.509093 0.030400 0.000000
-0.149864 -0.487484 0.000000
-0.508388 0.040514 0.000000
-0.140141 -0.490368 0.000000
-0.507482 0.050612 0.000000
-0.130363 -0.493057 0.000000
-0.506376 0.060691 0.000000
-0.120532 -0.495552 0.000000
-0.505069 0.070746 0.000000
-0.110654 -0.497851 0.000000
-0.503563 0.080774 0.000000
-0.100732 -0.499953 0.000000
-0.501857 0.090771 0.000000
-0.090771 -0.501857 0.000000
-0.499953 0.100732 0.000000
-0.080774 -0.503563 0.000000
-0.497851 0.110654 0.000000
-0.070746 -0.505069 0.000000
-0.495552 0.120532 0.000000
-0.060691 -0.506376 0.000000
-0.493057 0.130363 0.000000
-0.050612 -0.507482 0.000000
-0.490368 0.140141 0.000000
-0.040514 -0.508388 0.000000
-0.487484 0.149864 0.000000
-0.484408 0.159526 0.000000
-0.030400 -0.509093 0.000000
-0.020274 -0.509597 0.000000
-0.481141 0.169126 0.000000
-0.010139 -0.509899 0.000000
-0.477683 0.178658 0.000000
0.000000 -0.510000 0.000000
-0.474037 0.188120 0.000000
0.010139 -0.509899 0.000000
-0.470203 0.197508 0.000000
0.020274 -0.509597 0.000000
-0.466183 0.206818 0.000000
0.030400 -0.509093 0.000000
-0.461979 0.216046 0.000000
0.040514 -0.508388 0.000000
-0.457592 0.225188 0.000000
0.050612 -0.507482 0.000000
-0.453024 0.234242 0.000000
0.060691 -0.506376 0.000000
-0.448277 0.243202 0.000000
0.070746 -0.505069 0.000000
-0.443353 0.252067 0.000000
0.080774 -0.503563 0.000000
-0.438254 0.260832 0.000000
0.090771 -0.501857 0.000000
-0.432982 0.269494 0.000000
0.100732 -0.499953 0.000000
-0.427538 0.278049 0.000000
0.110654 -0.497851 0.000000
-0.421925 0.286495 0.000000
0.120532 -0.495552 0.000000
-0.416146 0.294827 0.000000
0.130363 -0.493057 0.000000
-0.410201 0.303043 0.000000
0.140141 -0.490368 0.000000
-0.404095 0.311138 0.000000
0.149864 -0.487484 0.000000
0.159526 -0.484408 0.000000
-0.397829 0.319111 0.000000
0.169126 -0.481141 0.000000
-0.391406 0.326958 0.000000
0.178658 -0.477683 0.000000
-0.384828 0.334675 0.000000
0.188120 -0.474037 0.000000
-0.378098 0.342260 0.000000
0.197508 -0.470203 0.000000
-0.371218 0.349710 0.000000
0.206818 -0.466183 0.000000
-0.364192 0.357021 0.000000
0.216046 -0.461979 0.000000
-0.357021 0.364192 0.000000
0.225188 -0.457592 0.000000
-0.349710 0.371218 0.000000
0.234242 -0.453024 0.000000
-0.342260 0.378098 0.000000
0.243202 -0.448277 0.000000
-0.334675 0.384828 0.000000
0.252067 -0.443353 0.000000
-0.326958 0.391406 0.000000
0.260832 -0.438254 0.000000
-0.319111 0.397829 0.000000
0.269494 -0.432982 0.000000
-0.311138 0.404095 0.000000
0.278049 -0.427538 0.000000
-0.303043 0.410201 0.000000
0.286495 -0.421925 0.000000
-0.294827 0.416146 0.000000
0.294827 -0.416146 0.000000
-0.286495 0.421925 0.000000
0.303043 -0.410201 0.000000
-0.278049 0.427538 0.000000
0.311138 -0.404095 0.000000
-0.269494 0.432982 0.000000
0.319111 -0.397829 0.000000
-0.260832 0.438254 0.000000
0.326958 -0.391406 0.000000
-0.252067 0.443353 0.000000
0.334675 -0.384828 0.000000
-0.243202 0.448277 0.000000
0.342260 -0.378098 0.000000
-0.234242 0.453024 0.000000
0.349710 -0.371218 0.000000
-0.225188 0.457592 0.000000
0.357021 -0.364192 0.000000
-0.216046 0.461979 0.000000
0.364192 -0.357021 0.000000
-0.206818 0.466183 0.000000
0.371218 -0.349710 0.000000
-0.197508 0.470203 0.000000
0.378098 -0.342260 0.000000
-0.188120 0.474037 0.000000
0.384828 -0.334675 0.000000
-0.178658 0.477683 0.000000
0.391406 -0.326958 0.000000
-0.169126 0.481141 0.000000
0.397829 -0.319111 0.000000
-0.159526 0.484408 0.000000
0.404095 -0.311138 0.000000
-0.149864 0.487484 0.000000
0.410201 -0.303043 0.000000
-0.140141 0.490368 0.000000
0.416146 -0.294827 0.000000
-0.130363 0.493057 0.000000
0.421925 -0.286495 0.000000
-0.120532 0.495552 0.000000
0.427538 -0.278049 0.000000
-0.110654 0.497851 0.000000
0.432982 -0.269494 0.000000
-0.100732 0.499953 0.000000
0.438254 -0.260832 0.000000
-0.090771 0.501857 0.000000
0.443353 -0.252067 0.000000
-0.080774 0.503563 0.000000
0.448277 -0.243202 0.000000
-0.070746 0.505069 0.000000
0.453024 -0.234242 0.000000
-0.060691 0.506376 0.000000
0.457592 -0.225188 0.000000
-0.050612 0.507482 0.000000
0.461979 -0.216046 0.000000
-0.040514 0.508388 0.000000
0.466183 -0.206818 0.000000
-0.030400 0.509093 0.000000
0.470203 -0.197508 0.000000
-0.020274 0.509597 0.000000
0.474037 -0.188120 0.000000
-0.010139 0.509899 0.000000
0.477683 -0.178658 0.000000
0.000000 0.510000 0.000000
0.481141 -0.169126 0.000000
0.010139 0.509899 0.000000
0.484408 -0.159526 0.000000
0.020274 0.509597 0.000000
0.487484 -0.149864 0.000000
0.030400 0.509093 0.000000
0.490368 -0.140141 0.000000
0.040514 0.508388 0.000000
0.493057 -0.130363 0.000000
0.050612 0.507482 0.000000
0.495552 -0.120532 0.000000
0.060691 0.506376 0.000000
0.497851 -0.110654 0.000000
0.070746 0.505069 0.000000
0.499953 -0.100732 0.000000
0.080774 0.503563 0.000000
0.501857 -0.090771 0.000000
0.090771 0.501857 0.000000
0.503563 -0.080774 0.000000
0.100732 0.499953 0.000000
0.505069 -0.070746 0.000000
0.110654 0.497851 0.000000
0.506376 -0.060691 0.000000
0.120532 0.495552 0.000000
0.507482 -0.050612 0.000000
0.130363 0.493057 0.000000
0.508388 -0.040514 0.000000
0.140141 0.490368 0.000000
0.509093 -0.030400 0.000000
0.149864 0.487484 0.000000
0.509597 -0.020274 0.000000
0.159526 0.484408 0.000000
0.509899 -0.010139 0.000000
0.169126 0.481141 0.000000
0.510000 0.000000 0.000000
0.178658 0.477683 0.000000
0.509899 0.010139 0.000000
0.188120 0.474037 0.000000
0.509597 0.020274 0.000000
0.197508 0.470203 0.000000
0.509093 0.030400 0.000000
0.206818 0.466183 0.000000
0.508388 0.040514 0.000000
0.216046 0.461979 0.000000
0.507482 0.050612 0.000000
0.225188 0.457592 0.000000
0.506376 0.060691 0.000000
0.234242 0.453024 0.000000
0.505069 0.070746 0.000000
0.243202 0.448277 0.000000
0.503563 0.080774 0.000000
0.252067 0.443353 0.000000
0.501857 0.090771 0.000000
0.260832 0.438254 0.000000
0.499953 0.100732 0.000000
0.269494 0.432982 0.000000
0.497851 0.110654 0.000000
0.278049 0.427538 0.000000
0.495552 0.120532 0.000000
0.286495 0.421925 0.000000
0.493057 0.130363 0.000000
0.294827 0.416146 0.000000
0.490368 0.140141 0.000000
0.303043 0.410201 0.000000
0.487484 0.149864 0.000000
0.311138 0.404095 0.000000
0.484408 0.159526 0.000000
0.319111 0.397829 0.000000
0.481141 0.169126 0.000000
0.326958 0.391406 0.000000
0.477683 0.178658 0.000000
0.334675 0.384828 0.000000
0.474037 0.188120 0.000000
0.342260 0.378098 0.000000
0.470203 0.197508 0.000000
0.349710 0.371218 0.000000
0.466183 0.206818 0.000000
0.357021 0.364192 0.000000
0.461979 0.216046 0.000000
0.364192 0.357021 0.000000
0.457592 0.225188 0.000000
0.371218 0.349710 0.000000
0.453024 0.234242 0.000000
0.378098 0.342260 0.000000
0.448277 0.243202 0.000000
0.384828 0.334675 0.000000
0.443353 0.252067 0.000000
0.391406 0.326958 0.000000
0.438254 0.260832 0.000000
0.397829 0.319111 0.000000
0.432982 0.269494 0.000000
0.404095 0.311138 0.000000
0.427538 0.278049 0.000000
0.410201 0.303043 0.000000
0.421925 0.286495 0.000000
0.416146 0.294827 0.000000
-0.415025 -0.278844 0.000000
-0.403306 -0.295541 0.000000
-0.420627 -0.270320 0.000000
-0.397194 -0.303706 0.000000
-0.426054 -0.261684 0.000000
-0.390916 -0.311745 0.000000
-0.431303 -0.252938 0.000000
-0.384475 -0.319654 0.000000
-0.436373 -0.244088 0.000000
-0.377875 -0.327430 0.000000
-0.441261 -0.235136 0.000000
-0.371117 -0.335070 0.000000
-0.445965 -0.226086 0.000000
-0.364205 -0.342571 0.000000
-0.450484 -0.216942 0.000000
-0.357141 -0.349929 0.000000
-0.454816 -0.207707 0.000000
-0.349929 -0.357141 0.000000
-0.458958 -0.198386 0.000000
-0.342571 -0.364205 0.000000
-0.462910 -0.188983 0.000000
-0.335070 -0.371117 0.000000
-0.466668 -0.179501 0.000000
-0.327430 -0.377875 0.000000
-0.470233 -0.169944 0.000000
-0.319654 -0.384475 0.000000
-0.473602 -0.160317 0.000000
-0.311745 -0.390916 0.000000
-0.476773 -0.150623 0.000000
-0.303706 -0.397194 0.000000
-0.479747 -0.140866 0.000000
-0.295541 -0.403306 0.000000
-0.482520 -0.131050 0.000000
-0.287252 -0.409251 0.000000
-0.485094 -0.121178 0.000000
-0.278844 -0.415025 0.000000
-0.487465 -0.111256 0.000000
-0.270320 -0.420627 0.000000
-0.489633 -0.101287 0.000000
-0.261684 -0.426054 0.000000
-0.491598 -0.091277 0.000000
-0.252938 -0.431303 0.000000
-0.493358 -0.081229 0.000000
-0.244088 -0.436373 0.000000
-0.494912 -0.071148 0.000000
-0.235136 -0.441261 0.000000
-0.496260 -0.061039 0.000000
-0.226086 -0.445965 0.000000
-0.497402 -0.050904 0.000000
-0.216942 -0.450484 0.000000
-0.498337 -0.040749 0.000000
-0.207707 -0.454816 0.000000
-0.499064 -0.030577 0.000000
-0.198386 -0.458958 0.000000
-0.499584 -0.020392 0.000000
-0.188983 -0.462910 0.000000
-0.499896 -0.010199 0.000000
-0.179501 -0.466668 0.000000
-0.500000 0.000000 0.000000
-0.169944 -0.470233 0.000000
-0.499896 0.010199 0.000000
-0.160317 -0.473602 0.000000
-0.499584 0.020392 0.000000
-0.150623 -0.476773 0.000000
-0.499064 0.030577 0.000000
-0.140866 -0.479747 0.000000
-0.498337 0.040749 0.000000
-0.131050 -0.482520 0.000000
-0.497402 0.050904 0.000000
-0.121178 -0.485094 0.000000
-0.496260 0.061039 0.000000
-0.111256 -0.487465 0.000000
-0.494912 0.071148 0.000000
-0.101287 -0.489633 0.000000
-0.493358 0.081229 0.000000
-0.091277 -0.491598 0.000000
-0.491598 0.091277 0.000000
-0.081229 -0.493358 0.000000
-0.489633 0.101287 0.000000
-0.071148 -0.494912 0.000000
-0.487465 0.111256 0.000000
-0.061039 -0.496260 0.000000
-0.485094 0.121178 0.000000
-0.050904 -0.497402 0.000000
-0.482520 0.131050 0.000000
-0.040749 -0.498337 0.000000
-0.479747 0.140866 0.000000
-0.030577 -0.499064 0.000000
-0.476773 0.150623 0.000000
-0.020392 -0.499584 0.000000
-0.473602 0.160317 0.000000
-0.010199 -0.499896 0.000000
-0.470233 0.169944 0.000000
0.000000 -0.500000 0.000000
-0.466668 0.179501 0.000000
0.010199 -0.499896 0.000000
-0.462910 0.188983 0.000000
0.020392 -0.499584 0.000000
-0.458958 0.198386 0.000000
0.030577 -0.499064 0.000000
-0.454816 0.207707 0.000000
0.040749 -0.498337 0.000000
-0.450484 0.216942 0.000000
0.050904 -0.497402 0.000000
-0.445965 0.226086 0.000000
0.061039 -0.496260 0.000000
-0.441261 0.235136 0.000000
0.071148 -0.494912 0.000000
-0.436373 0.244088 0.000000
0.081229 -0.493358 0.000000
-0.431303 0.252938 0.000000
0.091277 -0.491598 0.000000
-0.426054 0.261684 0.000000
0.101287 -0.489633 0.000000
-0.420627 0.270320 0.000000
0.111256 -0.487465 0.000000
-0.415025 0.278844 0.000000
0.121178 -0.485094 0.000000
-0.409251 0.287252 0.000000
0.131050 -0.482520 0.000000
-0.403306 0.295541 0.000000
0.140866 -0.479747 0.000000
-0.397194 0.303706 0.000000
0.150623 -0.476773 0.000000
-0.390916 0.311745 0.000000
0.160317 -0.473602 0.000000
-0.384475 0.319654 0.000000
0.169944 -0.470233 0.000000
-0.377875 0.327430 0.000000
0.179501 -0.466668 0.000000
-0.371117 0.335070 0.000000
0.188983 -0.462910 0.000000
-0.364205 0.342571 0.000000
0.198386 -0.458958 0.000000
-0.357141 0.349929 0.000000
0.207707 -0.454816 0.000000
-0.349929 0.357141 0.000000
0.216942 -0.450484 0.000000
-0.342571 0.364205 0.000000
0.226086 -0.445965 0.000000
-0.335070 0.371117 0.000000
0.235136 -0.441261 0.000000
-0.327430 0.377875 0.000000
0.244088 -0.436373 0.000000
-0.319654 0.384475 0.000000
0.252938 -0.431303 0.000000
-0.311745 0.390916 0.000000
0.261684 -0.426054 0.000000
-0.303706 0.397194 0.000000
0.270320 -0.420627 0.000000
-0.295541 0.403306 0.000000
0.278844 -0.415025 0.000000
-0.287252 0.409251 0.000000
0.287252 -0.409251 0.000000
-0.278844 0.415025 0.000000
0.295541 -0.403306 0.000000
-0.270320 0.420627 0.000000
0.303706 -0.397194 0.000000
-0.261684 0.426054 0.000000
0.311745 -0.390916 0.000000
-0.252938 0.431303 0.000000
0.319654 -0.384475 0.000000
-0.244088 0.436373 0.000000
0.327430 -0.377875 0.000000
-0.235136 0.441261 0.000000
0.335070 -0.371117 0.000000
-0.226086 0.445965 0.000000
0.342571 -0.364205 0.000000
-0.216942 0.450484 0.000000
0.349929 -0.357141 0.000000
-0.207707 0.454816 0.000000
0.357141 -0.349929 0.000000
-0.198386 0.458958 0.000000
0.364205 -0.342571 0.000000
-0.188983 0.462910 0.000000
0.371117 -0.335070 0.000000
-0.179501 0.466668 0.000000
0.377875 -0.327430 0.000000
-0.169944 0.470233 0.000000
0.384475 -0.319654 0.000000
-0.160317 0.473602 0.000000
0.390916 -0.311745 0.000000
-0.150623 0.476773 0.000000
0.397194 -0.303706 0.000000
-0.140866 0.479747 0.000000
0.403306 -0.295541 0.000000
-0.131050 0.482520 0.000000
0.409251 -0.287252 0.000000
-0.121178 0.485094 0.000000
0.415025 -0.278844 0.000000
-0.111256 0.487465 0.000000
0.420627 -0.270320 0.000000
-0.101287 0.489633 0.000000
0.426054 -0.261684 0.000000
-0.091277 0.491598 0.000000
0.431303 -0.252938 0.000000
-0.081229 0.493358 0.000000
0.436373 -0.244088 0.000000
-0.071148 0.494912 0.000000
0.441261 -0.235136 0.000000
-0.061039 0.496260 0.000000
0.445965 -0.226086 0.000000
-0.050904 0.497402 0.000000
0.450484 -0.216942 0.000000
-0.040749 0.498337 0.000000
0.454816 -0.207707 0.000000
-0.030577 0.499064 0.000000
0.458958 -0.198386 0.000000
-0.020392 0.499584 0.000000
0.462910 -0.188983 0.000000
-0.010199 0.499896 0.000000
0.466668 -0.179501 0.000000
0.000000 0.500000 0.000000
0.470233 -0.169944 0.000000
0.010199 0.499896 0.000000
0.473602 -0.160317 0.000000
0.020392 0.499584 0.000000
0.476773 -0.150623 0.000000
0.030577 0.499064 0.000000
0.479747 -0.140866 0.000000
0.040749 0.498337 0.000000
0.482520 -0.131050 0.000000
0.050904 0.497402 0.000000
0.485094 -0.121178 0.000000
0.061039 0.496260 0.000000
0.487465 -0.111256 0.000000
0.071148 0.494912 0.000000
0.489633 -0.101287 0.000000
0.081229 0.493358 0.000000
0.491598 -0.091277 0.000000
0.091277 0.491598 0.000000
0.493358 -0.081229 0.000000
0.101287 0.489633 0.000000
0.494912 -0.071148 0.000000
0.111256 0.487465 0.000000
0.496260 -0.061039 0.000000
0.121178 0.485094 0.000000
0.497402 -0.050904 0.000000
0.131050 0.482520 0.000000
0.498337 -0.040749 0.000000
0.140866 0.479747 0.000000
0.499064 -0.030577 0.000000
0.150623 0.476773 0.000000
0.499584 -0.020392 0.000000
0.160317 0.473602 0.000000
0.499896 -0.010199 0.000000
0.169944 0.470233 0.000000
0.500000 0.000000 0.000000
0.179501 0.466668 0.000000
0.499896 0.010199 0.000000
0.188983 0.462910 0.000000
0.499584 0.020392 0.000000
0.198386 0.458958 0.000000
0.499064 0.030577 0.000000
0.207707 0.454816 0.000000
0.498337 0.040749 0.000000
0.216942 0.450484 0.000000
0.497402 0.050904 0.000000
0.226086 0.445965 0.000000
0.496260 0.061039 0.000000
0.235136 0.441261 0.000000
0.494912 0.071148 0.000000
0.244088 0.436373 0.000000
0.493358 0.081229 0.000000
0.252938 0.431303 0.000000
0.491598 0.091277 0.000000
0.261684 0.426054 0.000000
0.489633 0.101287 0.000000
0.270320 0.420627 0.000000
0.487465 0.111256 0.000000
0.278844 0.415025 0.000000
0.485094 0.121178 0.000000
0.287252 0.409251 0.000000
0.482520 0.131050 0.000000
0.295541 0.403306 0.000000
0.479747 0.140866 0.000000
0.303706 0.397194 0.000000
0.476773 0.150623 0.000000
0.311745 0.390916 0.000000
0.473602 0.160317 0.000000
0.319654 0.384475 0.000000
0.470233 0.169944 0.000000
0.327430 0.377875 0.000000
0.466668 0.179501 0.000000
0.335070 0.371117 0.000000
0.462910 0.188983 0.000000
0.342571 0.364205 0.000000
0.458958 0.198386 0.000000
0.349929 0.357141 0.000000
0.454816 0.207707 0.000000
0.357141 0.349929 0.000000
0.450484 0.216942 0.000000
0.364205 0.342571 0.000000
0.445965 0.226086 0.000000
0.371117 0.335070 0.000000
0.441261 0.235136 0.000000
0.377875 0.327430 0.000000
0.436373 0.244088 0.000000
0.384475 0.319654 0.000000
0.431303 0.252938 0.000000
0.390916 0.311745 0.000000
0.426054 0.261684 0.000000
0.397194 0.303706 0.000000
0.420627 0.270320 0.000000
0.415025 0.278844 0.000000
0.403306 0.295541 0.000000
0.409251 0.287252 0.000000
-0.416651 -0.285100 0.000000
-0.409726 -0.295166 0.000000
-0.421429 -0.278105 0.000000
-0.403699 -0.303357 0.000000
-0.426806 -0.269823 0.000000
-0.397508 -0.311425 0.000000
-0.432197 -0.261278 0.000000
-0.391157 -0.319367 0.000000
-0.437327 -0.252500 0.000000
-0.384646 -0.327179 0.000000
-0.442314 -0.243721 0.000000
-0.377979 -0.334859 0.000000
-0.446941 -0.235122 0.000000
-0.450784 -0.228337 0.000000
-0.370462 -0.343155 0.000000
-0.455028 -0.219045 0.000000
-0.452668 -0.223420 0.000000
-0.364060 -0.349914 0.000000
-0.459296 -0.209724 0.000000
-0.457282 -0.214033 0.000000
-0.357103 -0.357057 0.000000
-0.461352 -0.204833 0.000000
-0.463724 -0.200363 0.000000
-0.350055 -0.363925 0.000000
-0.465669 -0.195543 0.000000
-0.467695 -0.190817 0.000000
-0.343998 -0.369738 0.000000
-0.471431 -0.181492 0.000000
-0.469405 -0.186286 0.000000
-0.334859 -0.377979 0.000000
-0.472952 -0.176626 0.000000
-0.474903 -0.171777 0.000000
-0.327179 -0.384646 0.000000
-0.478846 -0.161727 0.000000
-0.476435 -0.167155 0.000000
-0.319367 -0.391157 0.000000
-0.480787 -0.154555 0.000000
-0.311425 -0.397508 0.000000
-0.483607 -0.145275 0.000000
-0.303357 -0.403699 0.000000
-0.486452 -0.135600 0.000000
-0.293440 -0.410921 0.000000
-0.489031 -0.125774 0.000000
-0.286535 -0.415757 0.000000
-0.491508 -0.115921 0.000000
-0.278352 -0.421319 0.000000
-0.493686 -0.106038 0.000000
-0.269886 -0.426828 0.000000
-0.495651 -0.096362 0.000000
-0.261233 -0.432144 0.000000
-0.497198 -0.088074 0.000000
-0.252462 -0.437285 0.000000
-0.499250 -0.075953 0.000000
-0.243613 -0.442280 0.000000
-0.500654 -0.065906 0.000000
-0.234715 -0.447127 0.000000
-0.228640 -0.450519 0.000000
-0.501880 -0.055811 0.000000
-0.218895 -0.455215 0.000000
-0.223224 -0.452881 0.000000
-0.502902 -0.045695 0.000000
-0.209733 -0.459391 0.000000
-0.214212 -0.457190 0.000000
-0.503721 -0.035560 0.000000
-0.200365 -0.463733 0.000000
-0.204804 -0.461613 0.000000
-0.195531 -0.465664 0.000000
-0.190784 -0.467722 0.000000
-0.504503 -0.023225 0.000000
-0.186244 -0.469425 0.000000
-0.181531 -0.471460 0.000000
-0.504773 -0.013853 0.000000
-0.176954 -0.472745 0.000000
-0.171678 -0.474859 0.000000
-0.505074 -0.003656 0.000000
-0.167137 -0.476450 0.000000
-0.161673 -0.478820 0.000000
-0.504932 0.006910 0.000000
-0.154529 -0.480797 0.000000
-0.504834 0.020042 0.000000
-0.145171 -0.483695 0.000000
-0.503551 0.037586 0.000000
-0.135593 -0.486453 0.000000
-0.502892 0.045680 0.000000
-0.125775 -0.489083 0.000000
-0.502191 0.053713 0.000000
-0.115940 -0.491464 0.000000
-0.500654 0.065906 0.000000
-0.106312 -0.493603 0.000000
-0.499225 0.075974 0.000000
-0.098005 -0.495252 0.000000
-0.497594 0.086013 0.000000
-0.086013 -0.497594 0.000000
-0.495252 0.098004 0.000000
-0.075974 -0.499225 0.000000
-0.493597 0.106314 0.000000
-0.065906 -0.500654 0.000000
-0.491428 0.115952 0.000000
-0.053714 -0.502191 0.000000
-0.489011 0.125775 0.000000
-0.045680 -0.502892 0.000000
-0.486412 0.135576 0.000000
-0.037586 -0.503551 0.000000
-0.483678 0.145285 0.000000
-0.480787 0.154548 0.000000
-0.478775 0.161676 0.000000
-0.019993 -0.505013 0.000000
-0.474875 0.171814 0.000000
-0.476450 0.167142 0.000000
-0.006399 -0.504863 0.000000
-0.471460 0.181500 0.000000
-0.472984 0.176743 0.000000
0.004056 -0.505080 0.000000
-0.469459 0.186171 0.000000
-0.467574 0.190927 0.000000
0.014245 -0.504767 0.000000
-0.465619 0.195494 0.000000
-0.463733 0.200332 0.000000
0.023224 -0.504502 0.000000
-0.461448 0.204867 0.000000
-0.459421 0.209641 0.000000
0.035560 -0.503721 0.000000
-0.457230 0.214138 0.000000
-0.455198 0.218914 0.000000
0.045695 -0.502902 0.000000
-0.452908 0.223198 0.000000
-0.450716 0.228508 0.000000
0.055811 -0.501880 0.000000
-0.446914 0.235146 0.000000
0.065906 -0.500654 0.000000
-0.442240 0.243700 0.000000
0.075974 -0.499225 0.000000
-0.437272 0.252473 0.000000
0.088074 -0.497198 0.000000
-0.432109 0.261213 0.000000
0.096362 -0.495651 0.000000
-0.426787 0.269860 0.000000
0.106034 -0.493683 0.000000
-0.421297 0.278338 0.000000
0.115913 -0.491500 0.000000
-0.415757 0.286535 0.000000
0.125776 -0.489039 0.000000
-0.410932 0.293439 0.000000
0.135601 -0.486450 0.000000
-0.403699 0.303357 0.000000
0.145277 -0.483606 0.000000
-0.397508 0.311425 0.000000
0.154557 -0.480774 0.000000
0.161733 -0.478769 0.000000
-0.391157 0.319367 0.000000
0.167091 -0.476488 0.000000
0.171718 -0.474954 0.000000
-0.384646 0.327179 0.000000
0.176707 -0.473000 0.000000
0.181505 -0.471475 0.000000
-0.377979 0.334859 0.000000
0.186295 -0.469391 0.000000
0.190925 -0.467576 0.000000
-0.369765 0.344010 0.000000
0.195633 -0.465648 0.000000
0.200345 -0.463770 0.000000
-0.363926 0.350050 0.000000
0.209734 -0.459450 0.000000
0.204910 -0.461509 0.000000
-0.357034 0.357061 0.000000
0.214072 -0.457247 0.000000
0.218980 -0.455067 0.000000
-0.349993 0.364032 0.000000
0.228256 -0.450815 0.000000
0.223408 -0.452712 0.000000
-0.343912 0.369752 0.000000
0.235109 -0.446946 0.000000
-0.334859 0.377979 0.000000
0.243720 -0.442311 0.000000
-0.327179 0.384646 0.000000
0.252483 -0.437299 0.000000
-0.319367 0.391157 0.000000
0.261251 -0.432197 0.000000
-0.311425 0.397508 0.000000
0.269819 -0.426806 0.000000
-0.303357 0.403699 0.000000
0.278114 -0.421436 0.000000
-0.295166 0.409726 0.000000
0.285106 -0.416757 0.000000
-0.285453 0.416477 0.000000
0.295191 -0.409722 0.000000
-0.278168 0.421408 0.000000
0.303357 -0.403699 0.000000
-0.269849 0.426857 0.000000
0.311425 -0.397508 0.000000
-0.261220 0.432122 0.000000
0.319367 -0.391157 0.000000
-0.252526 0.437285 0.000000
0.327179 -0.384646 0.000000
-0.243742 0.442304 0.000000
0.334859 -0.377979 0.000000
-0.235192 0.446897 0.000000
-0.228742 0.450552 0.000000
0.343167 -0.370539 0.000000
-0.223460 0.452663 0.000000
-0.218979 0.455026 0.000000
0.349916 -0.364073 0.000000
-0.214046 0.457197 0.000000
-0.209660 0.459391 0.000000
0.357057 -0.357104 0.000000
-0.200375 0.463730 0.000000
-0.204910 0.461372 0.000000
0.363930 -0.350058 0.000000
-0.195557 0.465613 0.000000
-0.190944 0.467564 0.000000
0.369764 -0.344011 0.000000
-0.181545 0.471428 0.000000
-0.186254 0.469430 0.000000
0.377979 -0.334859 0.000000
-0.176635 0.472984 0.000000
-0.171918 0.474870 0.000000
0.384646 -0.327179 0.000000
-0.161683 0.478683 0.000000
-0.167009 0.476454 0.000000
0.391157 -0.319367 0.000000
-0.154877 0.480582 0.000000
0.397508 -0.311425 0.000000
-0.145423 0.483611 0.000000
0.403699 -0.303357 0.000000
-0.135605 0.486389 0.000000
0.410921 -0.293440 0.000000
-0.125786 0.489034 0.000000
0.415757 -0.286535 0.000000
-0.115924 0.491501 0.000000
0.421276 -0.278351 0.000000
-0.106038 0.493682 0.000000
0.426786 -0.269861 0.000000
-0.096362 0.495651 0.000000
0.432129 -0.261224 0.000000
-0.088074 0.497198 0.000000
0.437364 -0.252518 0.000000
-0.075974 0.499225 0.000000
0.442255 -0.243696 0.000000
-0.065906 0.500654 0.000000
0.446901 -0.235165 0.000000
0.450626 -0.228629 0.000000
-0.055811 0.501880 0.000000
0.452863 -0.223239 0.000000
0.455037 -0.219014 0.000000
-0.045695 0.502902 0.000000
0.457157 -0.214077 0.000000
0.459396 -0.209621 0.000000
-0.035560 0.503721 0.000000
0.461359 -0.204897 0.000000
0.463695 -0.200361 0.000000
-0.023304 0.504424 0.000000
0.465641 -0.195495 0.000000
0.467606 -0.190951 0.000000
-0.014879 0.504782 0.000000
0.469414 -0.186248 0.000000
0.471411 -0.181540 0.000000
-0.005033 0.504925 0.000000
0.472918 -0.176630 0.000000
0.474886 -0.171779 0.000000
0.005043 0.504929 0.000000
0.476453 -0.167022 0.000000
0.478685 -0.161862 0.000000
0.014951 0.504764 0.000000
0.480771 -0.154583 0.000000
0.023215 0.504525 0.000000
0.483673 -0.145303 0.000000
0.037586 0.503551 0.000000
0.486450 -0.135593 0.000000
0.045750 0.502896 0.000000
0.489087 -0.125805 0.000000
0.053799 0.502083 0.000000
0.491453 -0.115970 0.000000
0.065906 0.500654 0.000000
0.493600 -0.106336 0.000000
0.075974 0.499225 0.000000
0.495243 -0.098118 0.000000
0.086013 0.497594 0.000000
0.497594 -0.086013 0.000000
0.098116 0.495243 0.000000
0.499225 -0.075974 0.000000
0.106336 0.493600 0.000000
0.500654 -0.065906 0.000000
0.115972 0.491452 0.000000
0.502084 -0.053799 0.000000
0.125820 0.489079 0.000000
0.502897 -0.045748 0.000000
0.135587 0.486408 0.000000
0.503551 -0.037586 0.000000
0.145284 0.483678 0.000000
0.504412 -0.023728 0.000000
0.154553 0.480792 0.000000
0.504678 -0.016946 0.000000
0.161702 0.478804 0.000000
0.166954 0.476453 0.000000
0.504949 -0.002996 0.000000
0.171459 0.474989 0.000000
0.176706 0.472959 0.000000
0.504952 0.005359 0.000000
0.181613 0.471429 0.000000
0.186155 0.469450 0.000000
0.504776 0.014970 0.000000
0.190941 0.467614 0.000000
0.195461 0.465640 0.000000
0.504507 0.023301 0.000000
0.200321 0.463696 0.000000
0.204665 0.461639 0.000000
0.503721 0.035560 0.000000
0.209779 0.459311 0.000000
0.214128 0.457065 0.000000
0.502902 0.045695 0.000000
0.218898 0.455083 0.000000
0.223160 0.452917 0.000000
0.501880 0.055811 0.000000
0.228588 0.450696 0.000000
0.500654 0.065906 0.000000
0.235160 0.446911 0.000000
0.499225 0.075974 0.000000
0.243704 0.442242 0.000000
0.497198 0.088074 0.000000
0.252477 0.437275 0.000000
0.495651 0.096362 0.000000
0.261232 0.432125 0.000000
0.493684 0.106044 0.000000
0.269859 0.426787 0.000000
0.491464 0.115912 0.000000
0.278336 0.421300 0.000000
0.489031 0.125776 0.000000
0.286532 0.415761 0.000000
0.486389 0.135603 0.000000
0.293440 0.410921 0.000000
0.483609 0.145424 0.000000
0.303357 0.403699 0.000000
0.480578 0.154802 0.000000
0.311425 0.397508 0.000000
0.478655 0.161751 0.000000
0.476452 0.166982 0.000000
0.319367 0.391157 0.000000
0.474971 0.171610 0.000000
0.472982 0.176607 0.000000
0.327179 0.384646 0.000000
0.471433 0.181509 0.000000
0.469353 0.186363 0.000000
0.334859 0.377979 0.000000
0.467613 0.190886 0.000000
0.465645 0.195476 0.000000
0.344010 0.369764 0.000000
0.461373 0.204887 0.000000
0.463686 0.200316 0.000000
0.350057 0.363930 0.000000
0.459353 0.209725 0.000000
0.457070 0.214141 0.000000
0.357100 0.357062 0.000000
0.452708 0.223419 0.000000
0.455125 0.218877 0.000000
0.364020 0.349971 0.000000
0.450552 0.228739 0.000000
0.370222 0.343498 0.000000
0.446889 0.235184 0.000000
0.377979 0.334859 0.000000
0.442252 0.243700 0.000000
0.384646 0.327179 0.000000
0.437360 0.252522 0.000000
0.391146 0.319394 0.000000
0.432139 0.261225 0.000000
0.397501 0.311463 0.000000
0.426837 0.269829 0.000000
0.403699 0.303357 0.000000
0.421434 0.278106 0.000000
0.416650 0.285100 0.000000
0.409726 0.295166 0.000000
CELLS 1364 5456
3 624 2 0
3 624 0 1
3 624 1 317
3 317 626 624
3 626 317 319
3 319 628 626
3 4 626 628
3 628 6 4
3 6 628 630
3 630 8 6
3 8 630 632
3 632 10 8
3 10 632 634
3 634 12 10
3 12 634 636
3 636 14 12
3 14 636 637
3 637 16 14
3 640 16 637
3 637 329 640
3 640 329 331
3 639 640 331
3 639 331 643
3 643 18 639
3 639 18 16
3 643 642 18
3 642 20 18
3 645 20 642
3 642 333 645
3 645 333 335
3 646 645 335
3 646 335 648
3 648 22 646
3 646 22 20
3 648 649 22
3 649 24 22
3 652 24 649
3 649 337 652
3 652 337 339
3 651 652 339
3 651 339 654
3 654 26 651
3 651 26 24
3 654 655 26
3 655 28 26
3 658 28 655
3 655 341 658
3 658 341 343
3 657 658 343
3 657 343 660
3 30 657 660
3 660 32 30
3 32 660 662
3 662 34 32
3 34 662 664
3 664 36 34
3 36 664 666
3 666 38 36
3 38 666 668
3 668 40 38
3 40 668 670
3 670 42 40
3 42 670 672
3 672 44 42
3 44 672 674
3 674 46 44
3 674 359 46
3 676 46 359
3 676 359 361
3 676 361 48
3 678 48 361
3 678 361 363
3 678 363 50
3 681 50 363
3 681 363 365
3 681 365 52
3 684 52 365
3 684 365 367
3 684 367 54
3 687 54 367
3 687 367 369
3 687 369 56
3 692 56 369
3 692 369 371
3 371 695 692
3 58 692 695
3 695 60 58
3 60 695 698
3 698 62 60
3 62 698 701
3 701 64 62
3 64 701 703
3 65 64 703
3 65 703 67
3 67 703 381
3 705 67 381
3 705 381 383
3 383 707 705
3 69 705 707
3 707 71 69
3 71 707 709
3 709 73 71
3 709 387 73
3 711 73 387
3 711 387 389
3 711 389 75
3 713 75 389
3 713 389 391
3 713 391 77
3 715 77 391
3 715 391 393
3 715 393 79
3 717 79 393
3 717 393 395
3 395 719 717
3 81 717 719
3 719 83 81
3 83 719 721
3 721 85 83
3 85 721 723
3 723 87 85
3 87 723 725
3 725 89 87
3 89 725 727
3 727 91 89
3 91 727 728
3 728 92 91
3 92 728 729
3 729 95 92
3 732 95 729
3 729 407 732
3 732 407 409
3 731 732 409
3 731 409 735
3 735 97 731
3 731 97 95
3 735 734 97
3 734 99 97
3 737 99 734
3 734 411 737
3 737 411 413
3 738 737 413
3 738 413 740
3 740 101 738
3 738 101 99
3 740 741 101
3 741 103 101
3 743 103 741
3 741 415 743
3 743 415 417
3 744 743 417
3 744 417 746
3 746 105 744
3 744 105 103
3 746 747 105
3 747 107 105
3 749 107 747
3 747 419 749
3 749 419 421
3 750 749 421
3 750 421 752
3 109 750 752
3 752 111 109
3 111 752 754
3 754 113 111
3 113 754 756
3 756 115 113
3 115 756 758
3 758 117 115
3 117 758 760
3 760 119 117
3 119 760 762
3 762 121 119
3 121 762 764
3 764 123 121
3 123 764 766
3 766 125 123
3 766 437 125
3 768 125 437
3 768 437 439
3 768 439 127
3 770 127 439
3 770 439 441
3 770 441 130
3 773 130 441
3 773 441 443
3 773 443 132
3 776 132 443
3 776 443 445
3 776 445 134
3 779 134 445
3 779 445 447
3 779 447 136
3 782 136 447
3 782 447 449
3 449 785 782
3 138 782 785
3 785 140 138
3 140 785 788
3 788 142 140
3 142 788 791
3 791 144 142
3 144 791 794
3 794 146 144
3 794 457 146
3 796 146 457
3 796 457 459
3 796 459 148
3 798 148 459
3 798 459 461
3 798 461 150
3 800 150 461
3 800 461 463
3 800 463 152
3 802 152 463
3 802 463 465
3 802 465 154
3 804 154 465
3 804 465 467
3 804 467 156
3 806 156 467
3 806 467 469
3 806 469 158
3 808 158 469
3 808 469 471
3 471 810 808
3 160 808 810
3 810 162 160
3 162 810 812
3 812 164 162
3 164 812 814
3 814 166 164
3 166 814 816
3 816 168 166
3 168 816 818
3 818 170 168
3 170 818 820
3 820 172 170
3 172 820 821
3 821 174 172
3 823 174 821
3 821 483 823
3 823 483 485
3 824 823 485
3 824 485 826
3 826 176 824
3 824 176 174
3 826 827 176
3 827 178 176
3 830 178 827
3 827 487 830
3 830 487 489
3 829 830 489
3 829 489 832
3 832 180 829
3 829 180 178
3 832 833 180
3 833 182 180
3 836 182 833
3 833 491 836
3 836 491 493
3 835 836 493
3 835 493 838
3 838 184 835
3 835 184 182
3 838 839 184
3 839 186 184
3 842 186 839
3 839 495 842
3 842 495 497
3 841 842 497
3 841 497 844
3 188 841 844
3 844 190 188
3 190 844 846
3 846 192 190
3 192 846 848
3 848 194 192
3 194 848 850
3 850 196 194
3 196 850 852
3 852 198 196
3 198 852 854
3 854 200 198
3 200 854 856
3 856 202 200
3 202 856 858
3 858 204 202
3 858 513 204
3 860 204 513
3 860 513 515
3 860 515 206
3 862 206 515
3 862 515 517
3 862 517 208
3 865 208 517
3 865 517 519
3 865 519 210
3 868 210 519
3 868 519 521
3 868 521 212
3 871 212 521
3 871 521 523
3 871 523 214
3 874 214 523
3 874 523 525
3 525 877 874
3 216 874 877
3 877 218 216
3 218 877 880
3 880 220 218
3 220 880 883
3 883 222 220
3 222 883 886
3 886 224 222
3 224 886 888
3 888 226 224
3 888 535 226
3 890 226 535
3 890 535 537
3 537 892 890
3 228 890 892
3 892 230 228
3 230 892 894
3 894 232 230
3 894 541 232
3 896 232 541
3 896 541 543
3 896 543 234
3 898 234 543
3 898 543 545
3 898 545 236
3 900 236 545
3 900 545 547
3 900 547 238
3 902 238 547
3 902 547 549
3 549 904 902
3 902 904 240
3 904 242 240
3 242 904 906
3 906 244 242
3 244 906 908
3 908 246 244
3 246 908 910
3 910 248 246
3 248 910 912
3 912 250 248
3 250 912 914
3 914 252 250
3 252 914 916
3 916 254 252
3 917 254 916
3 916 561 917
3 917 561 563
3 919 917 563
3 919 563 920
3 920 256 919
3 919 256 254
3 920 922 256
3 922 258 256
3 923 258 922
3 922 565 923
3 923 565 567
3 925 923 567
3 925 567 926
3 926 260 925
3 925 260 258
3 926 928 260
3 928 262 260
3 929 262 928
3 928 569 929
3 929 569 571
3 931 929 571
3 931 571 932
3 932 264 931
3 931 264 262
3 932 934 264
3 934 266 264
3 935 266 934
3 934 573 935
3 935 573 575
3 937 935 575
3 937 575 939
3 268 937 939
3 939 270 268
3 270 939 941
3 941 272 270
3 272 941 943
3 943 274 272
3 274 943 945
3 945 276 274
3 276 945 947
3 947 278 276
3 278 947 949
3 949 280 278
3 280 949 951
3 951 282 280
3 282 951 953
3 953 284 282
3 953 591 284
3 955 284 591
3 955 591 593
3 955 593 286
3 957 286 593
3 957 593 595
3 957 595 288
3 960 288 595
3 960 595 597
3 960 597 290
3 963 290 597
3 963 597 599
3 963 599 292
3 966 292 599
3 966 599 601
3 966 601 294
3 969 294 601
3 969 601 603
3 603 972 969
3 296 969 972
3 972 298 296
3 298 972 975
3 975 300 298
3 300 975 978
3 978 302 300
3 302 978 980
3 980 304 302
3 980 611 304
3 982 304 611
3 982 611 613
3 982 613 306
3 984 306 613
3 984 613 615
3 984 615 308
3 986 308 615
3 986 615 617
3 986 617 310
3 988 310 617
3 988 617 619
3 988 619 312
3 990 312 619
3 990 619 622
3 990 622 314
3 993 314 622
3 993 622 623
3 993 623 316
3 992 316 623
3 992 623 621
3 621 991 992
3 315 992 991
3 991 313 315
3 313 991 989
3 989 311 313
3 311 989 987
3 987 309 311
3 309 987 985
3 985 307 309
3 307 985 983
3 983 305 307
3 305 983 981
3 981 303 305
3 303 981 979
3 979 301 303
3 976 301 979
3 979 610 976
3 976 610 608
3 977 976 608
3 977 608 974
3 974 299 977
3 977 299 301
3 974 973 299
3 973 297 299
3 970 297 973
3 973 606 970
3 970 606 604
3 971 970 604
3 971 604 968
3 968 295 971
3 971 295 297
3 968 967 295
3 967 293 295
3 965 293 967
3 967 602 965
3 965 602 600
3 964 965 600
3 964 600 962
3 962 291 964
3 964 291 293
3 962 961 291
3 961 289 291
3 959 289 961
3 961 598 959
3 959 598 596
3 958 959 596
3 958 596 956
3 287 958 956
3 956 285 287
3 285 956 954
3 954 283 285
3 283 954 952
3 952 281 283
3 281 952 950
3 950 279 281
3 279 950 948
3 948 277 279
3 277 948 946
3 946 275 277
3 275 946 944
3 944 273 275
3 273 944 942
3 942 271 273
3 942 580 271
3 940 271 580
3 940 580 578
3 940 578 269
3 938 269 578
3 938 578 576
3 938 576 267
3 936 267 576
3 936 576 574
3 936 574 265
3 933 265 574
3 933 574 572
3 933 572 263
3 930 263 572
3 930 572 570
3 930 570 261
3 927 261 570
3 927 570 568
3 568 924 927
3 259 927 924
3 924 257 259
3 257 924 921
3 921 255 257
3 255 921 918
3 918 253 255
3 918 562 253
3 915 253 562
3 915 562 560
3 560 913 915
3 251 915 913
3 913 249 251
3 913 558 249
3 911 249 558
3 911 558 556
3 556 909 911
3 247 911 909
3 909 245 247
3 245 909 907
3 907 243 245
3 907 552 243
3 905 243 552
3 905 552 550
3 905 550 241
3 903 241 550
3 903 550 548
3 903 548 239
3 901 239 548
3 901 548 546
3 901 546 237
3 899 237 546
3 899 546 544
3 544 897 899
3 899 897 235
3 897 233 235
3 233 897 895
3 895 231 233
3 231 895 893
3 893 229 231
3 229 893 891
3 891 227 229
3 227 891 889
3 889 225 227
3 225 889 887
3 887 223 225
3 223 887 885
3 885 221 223
3 884 221 885
3 885 532 884
3 884 532 530
3 882 884 530
3 882 530 881
3 881 219 882
3 882 219 221
3 881 879 219
3 879 217 219
3 878 217 879
3 879 528 878
3 878 528 526
3 876 878 526
3 876 526 875
3 875 215 876
3 876 215 217
3 875 873 215
3 873 213 215
3 872 213 873
3 873 524 872
3 872 524 522
3 870 872 522
3 870 522 869
3 869 211 870
3 870 211 213
3 869 867 211
3 867 209 211
3 866 209 867
3 867 520 866
3 866 520 518
3 864 866 518
3 864 518 863
3 207 864 863
3 863 205 207
3 205 863 861
3 861 203 205
3 203 861 859
3 859 201 203
3 201 859 857
3 857 199 201
3 199 857 855
3 855 197 199
3 197 855 853
3 853 195 197
3 195 853 851
3 851 193 195
3 193 851 849
3 849 191 193
3 849 502 191
3 847 191 502
3 847 502 500
3 847 500 189
3 845 189 500
3 845 500 498
3 845 498 187
3 843 187 498
3 843 498 496
3 843 496 185
3 840 185 496
3 840 496 494
3 840 494 183
3 837 183 494
3 837 494 492
3 837 492 181
3 834 181 492
3 834 492 490
3 490 831 834
3 179 834 831
3 831 177 179
3 177 831 828
3 828 175 177
3 175 828 825
3 825 173 175
3 173 825 822
3 822 171 173
3 822 482 171
3 819 171 482
3 819 482 480
3 819 480 169
3 817 169 480
3 817 480 478
3 817 478 167
3 815 167 478
3 815 478 476
3 815 476 165
3 813 165 476
3 813 476 474
3 813 474 163
3 811 163 474
3 811 474 472
3 811 472 161
3 809 161 472
3 809 472 470
3 809 470 159
3 807 159 470
3 807 470 468
3 468 805 807
3 157 807 805
3 805 155 157
3 155 805 803
3 803 153 155
3 153 803 801
3 801 151 153
3 151 801 799
3 799 149 151
3 149 799 797
3 797 147 149
3 147 797 795
3 795 145 147
3 145 795 792
3 792 143 145
3 793 143 792
3 792 456 793
3 793 456 454
3 790 793 454
3 790 454 789
3 789 141 790
3 790 141 143
3 789 786 141
3 786 139 141
3 787 139 786
3 786 452 787
3 787 452 450
3 784 787 450
3 784 450 783
3 783 137 784
3 784 137 139
3 783 781 137
3 781 135 137
3 780 135 781
3 781 448 780
3 780 448 446
3 778 780 446
3 778 446 777
3 777 133 778
3 778 133 135
3 777 775 133
3 775 131 133
3 774 131 775
3 775 444 774
3 774 444 442
3 772 774 442
3 772 442 771
3 129 772 771
3 771 128 129
3 128 771 769
3 769 126 128
3 126 769 767
3 767 124 126
3 124 767 765
3 765 122 124
3 122 765 763
3 763 120 122
3 120 763 761
3 761 118 120
3 118 761 759
3 759 116 118
3 116 759 757
3 757 114 116
3 757 426 114
3 755 114 426
3 755 426 424
3 755 424 112
3 753 112 424
3 753 424 422
3 753 422 110
3 751 110 422
3 751 422 420
3 751 420 108
3 748 108 420
3 748 420 418
3 748 418 106
3 745 106 418
3 745 418 416
3 745 416 104
3 742 104 416
3 742 416 414
3 414 739 742
3 102 742 739
3 739 100 102
3 100 739 736
3 736 98 100
3 98 736 733
3 733 96 98
3 96 733 730
3 94 96 730
3 94 730 93
3 93 730 404
3 726 93 404
3 726 404 402
3 402 724 726
3 90 726 724
3 724 88 90
3 88 724 722
3 722 86 88
3 722 398 86
3 720 86 398
3 720 398 396
3 720 396 84
3 718 84 396
3 718 396 394
3 718 394 82
3 716 82 394
3 716 394 392
3 716 392 80
3 714 80 392
3 714 392 390
3 390 712 714
3 78 714 712
3 712 76 78
3 76 712 710
3 710 74 76
3 74 710 708
3 708 72 74
3 72 708 706
3 706 70 72
3 70 706 704
3 704 68 70
3 68 704 702
3 702 66 68
3 66 702 700
3 700 63 66
3 699 63 700
3 700 378 699
3 699 378 376
3 697 699 376
3 697 376 696
3 696 61 697
3 697 61 63
3 696 694 61
3 694 59 61
3 693 59 694
3 694 374 693
3 693 374 372
3 691 693 372
3 691 372 690
3 690 57 691
3 691 57 59
3 690 688 57
3 688 55 57
3 689 55 688
3 688 370 689
3 689 370 368
3 685 689 368
3 685 368 686
3 686 53 685
3 685 53 55
3 686 682 53
3 682 51 53
3 683 51 682
3 682 366 683
3 683 366 364
3 680 683 364
3 680 364 679
3 49 680 679
3 679 47 49
3 47 679 677
3 677 45 47
3 45 677 675
3 675 43 45
3 43 675 673
3 673 41 43
3 41 673 671
3 671 39 41
3 39 671 669
3 669 37 39
3 37 669 667
3 667 35 37
3 35 667 665
3 665 33 35
3 665 348 33
3 663 33 348
3 663 348 346
3 663 346 31
3 661 31 346
3 661 346 344
3 661 344 29
3 659 29 344
3 659 344 342
3 659 342 27
3 656 27 342
3 656 342 340
3 656 340 25
3 653 25 340
3 653 340 338
3 653 338 23
3 650 23 338
3 650 338 336
3 336 647 650
3 21 650 647
3 647 19 21
3 19 647 644
3 644 17 19
3 17 644 641
3 641 15 17
3 15 641 638
3 638 13 15
3 638 328 13
3 635 13 328
3 635 328 326
3 635 326 11
3 633 11 326
3 633 326 324
3 633 324 9
3 631 9 324
3 631 324 322
3 631 322 7
3 629 7 322
3 629 322 320
3 629 320 5
3 627 5 320
3 627 320 318
3 627 318 3
3 625 3 318
3 625 318 1
3 625 0 3
3 627 3 5
3 629 5 7
3 631 7 9
3 633 9 11
3 635 11 13
3 638 330 328
3 330 638 641
3 641 332 330
3 332 641 644
3 644 334 332
3 334 644 647
3 647 336 334
3 650 21 23
3 653 23 25
3 656 25 27
3 659 27 29
3 661 29 31
3 663 31 33
3 665 350 348
3 350 665 667
3 667 352 350
3 352 667 669
3 669 354 352
3 354 669 671
3 671 356 354
3 356 671 673
3 673 358 356
3 358 673 675
3 675 360 358
3 360 675 677
3 677 362 360
3 362 677 679
3 680 49 51
3 679 364 362
3 683 680 51
3 682 686 366
3 686 368 366
3 689 685 55
3 688 690 370
3 690 372 370
3 693 691 59
3 694 696 374
3 696 376 374
3 699 697 63
3 700 702 378
3 702 380 378
3 380 702 704
3 704 382 380
3 382 704 706
3 706 384 382
3 384 706 708
3 708 386 384
3 386 708 710
3 710 388 386
3 388 710 712
3 712 390 388
3 714 78 80
3 716 80 82
3 718 82 84
3 720 84 86
3 722 400 398
3 400 722 724
3 724 402 400
3 726 90 93
3 406 404 730
3 406 730 408
3 408 730 733
3 733 410 408
3 410 733 736
3 736 412 410
3 412 736 739
3 739 414 412
3 742 102 104
3 745 104 106
3 748 106 108
3 751 108 110
3 753 110 112
3 755 112 114
3 757 428 426
3 428 757 759
3 759 430 428
3 430 759 761
3 761 432 430
3 432 761 763
3 763 434 432
3 434 763 765
3 765 436 434
3 436 765 767
3 767 438 436
3 438 767 769
3 769 440 438
3 440 769 771
3 772 129 131
3 771 442 440
3 774 772 131
3 775 777 444
3 777 446 444
3 780 778 135
3 781 783 448
3 783 450 448
3 787 784 139
3 786 789 452
3 789 454 452
3 793 790 143
3 792 795 456
3 795 458 456
3 458 795 797
3 797 460 458
3 460 797 799
3 799 462 460
3 462 799 801
3 801 464 462
3 464 801 803
3 803 466 464
3 466 803 805
3 805 468 466
3 807 157 159
3 809 159 161
3 811 161 163
3 813 163 165
3 815 165 167
3 817 167 169
3 819 169 171
3 822 484 482
3 484 822 825
3 825 486 484
3 486 825 828
3 828 488 486
3 488 828 831
3 831 490 488
3 834 179 181
3 837 181 183
3 840 183 185
3 843 185 187
3 845 187 189
3 847 189 191
3 849 504 502
3 504 849 851
3 851 506 504
3 506 851 853
3 853 508 506
3 508 853 855
3 855 510 508
3 510 855 857
3 857 512 510
3 512 857 859
3 859 514 512
3 514 859 861
3 861 516 514
3 516 861 863
3 864 207 209
3 863 518 516
3 866 864 209
3 867 869 520
3 869 522 520
3 872 870 213
3 873 875 524
3 875 526 524
3 878 876 217
3 879 881 528
3 881 530 528
3 884 882 221
3 885 887 532
3 887 534 532
3 534 887 889
3 889 536 534
3 536 889 891
3 891 538 536
3 538 891 893
3 893 540 538
3 540 893 895
3 895 542 540
3 542 895 897
3 897 544 542
3 899 235 237
3 901 237 239
3 903 239 241
3 905 241 243
3 907 554 552
3 554 907 909
3 909 556 554
3 911 247 249
3 913 560 558
3 915 251 253
3 918 564 562
3 564 918 921
3 921 566 564
3 566 921 924
3 924 568 566
3 927 259 261
3 930 261 263
3 933 263 265
3 936 265 267
3 938 267 269
3 940 269 271
3 942 582 580
3 582 942 944
3 944 584 582
3 584 944 946
3 946 586 584
3 586 946 948
3 948 588 586
3 588 948 950
3 950 590 588
3 590 950 952
3 952 592 590
3 592 952 954
3 954 594 592
3 594 954 956
3 958 287 289
3 956 596 594
3 959 958 289
3 961 962 598
3 962 600 598
3 965 964 293
3 967 968 602
3 968 604 602
3 970 971 297
3 973 974 606
3 974 608 606
3 976 977 301
3 979 981 610
3 981 612 610
3 612 981 983
3 983 614 612
3 614 983 985
3 985 616 614
3 616 985 987
3 987 618 616
3 618 987 989
3 989 620 618
3 620 989 991
3 991 621 620
3 992 315 316
3 993 316 314
3 990 314 312
3 988 312 310
3 986 310 308
3 984 308 306
3 982 306 304
3 980 609 611
3 609 980 978
3 978 607 609
3 607 978 975
3 975 605 607
3 605 975 972
3 972 603 605
3 969 296 294
3 966 294 292
3 963 292 290
3 960 290 288
3 957 288 286
3 955 286 284
3 953 589 591
3 589 953 951
3 951 587 589
3 587 951 949
3 949 585 587
3 585 949 947
3 947 583 585
3 583 947 945
3 945 581 583
3 581 945 943
3 943 579 581
3 579 943 941
3 941 577 579
3 577 941 939
3 937 268 266
3 939 575 577
3 935 937 266
3 934 932 573
3 932 571 573
3 929 931 262
3 928 926 569
3 926 567 569
3 923 925 258
3 922 920 565
3 920 563 565
3 917 919 254
3 916 914 561
3 914 559 561
3 559 914 912
3 912 557 559
3 557 912 910
3 910 555 557
3 555 910 908
3 908 553 555
3 553 908 906
3 906 551 553
3 551 906 904
3 904 549 551
3 902 240 238
3 900 238 236
3 898 236 234
3 896 234 232
3 894 539 541
3 539 894 892
3 892 537 539
3 890 228 226
3 888 533 535
3 533 888 886
3 886 531 533
3 531 886 883
3 883 529 531
3 529 883 880
3 880 527 529
3 527 880 877
3 877 525 527
3 874 216 214
3 871 214 212
3 868 212 210
3 865 210 208
3 862 208 206
3 860 206 204
3 858 511 513
3 511 858 856
3 856 509 511
3 509 856 854
3 854 507 509
3 507 854 852
3 852 505 507
3 505 852 850
3 850 503 505
3 503 850 848
3 848 501 503
3 501 848 846
3 846 499 501
3 499 846 844
3 841 188 186
3 844 497 499
3 842 841 186
3 839 838 495
3 838 493 495
3 836 835 182
3 833 832 491
3 832 489 491
3 830 829 178
3 827 826 487
3 826 485 487
3 823 824 174
3 821 820 483
3 820 481 483
3 481 820 818
3 818 479 481
3 479 818 816
3 816 477 479
3 477 816 814
3 814 475 477
3 475 814 812
3 812 473 475
3 473 812 810
3 810 471 473
3 808 160 158
3 806 158 156
3 804 156 154
3 802 154 152
3 800 152 150
3 798 150 148
3 796 148 146
3 794 455 457
3 455 794 791
3 791 453 455
3 453 791 788
3 788 451 453
3 451 788 785
3 785 449 451
3 782 138 136
3 779 136 134
3 776 134 132
3 773 132 130
3 770 130 127
3 768 127 125
3 766 435 437
3 435 766 764
3 764 433 435
3 433 764 762
3 762 431 433
3 431 762 760
3 760 429 431
3 429 760 758
3 758 427 429
3 427 758 756
3 756 425 427
3 425 756 754
3 754 423 425
3 423 754 752
3 750 109 107
3 752 421 423
3 749 750 107
3 747 746 419
3 746 417 419
3 743 744 103
3 741 740 415
3 740 413 415
3 737 738 99
3 734 735 411
3 735 409 411
3 732 731 95
3 729 728 407
3 728 405 407
3 405 728 727
3 727 403 405
3 403 727 725
3 725 401 403
3 401 725 723
3 723 399 401
3 399 723 721
3 721 397 399
3 397 721 719
3 719 395 397
3 717 81 79
3 715 79 77
3 713 77 75
3 711 75 73
3 709 385 387
3 385 709 707
3 707 383 385
3 705 69 67
3 379 381 703
3 379 703 377
3 377 703 701
3 701 375 377
3 375 701 698
3 698 373 375
3 373 698 695
3 695 371 373
3 692 58 56
3 687 56 54
3 684 54 52
3 681 52 50
3 678 50 48
3 676 48 46
3 674 357 359
3 357 674 672
3 672 355 357
3 355 672 670
3 670 353 355
3 353 670 668
3 668 351 353
3 351 668 666
3 666 349 351
3 349 666 664
3 664 347 349
3 347 664 662
3 662 345 347
3 345 662 660
3 657 30 28
3 660 343 345
3 658 657 28
3 655 654 341
3 654 339 341
3 652 651 24
3 649 648 337
3 648 335 337
3 645 646 20
3 642 643 333
3 643 331 333
3 640 639 16
3 637 636 329
3 636 327 329
3 327 636 634
3 634 325 327
3 325 634 632
3 632 323 325
3 323 632 630
3 630 321 323
3 321 630 628
3 626 4 2
3 628 319 321
3 625 1 0
3 2 624 626
CELL_TYPES 1364
9
9
9
9
9
9
9
9
9
9
9
9
9
9
9
9
9
9
9
9
9
9
9
9
9
9
9
9
9
9
9
9
9
9
9
9
9
9
9
9
9
9
9
9
9
9
9
9
9
9
9
9
9
9
9
9
9
9
9
9
9
9
9
9
9
9
9
9
9
9
9
9
9
9
9
9
9
9
9
9
9
9
9
9
9
9
9
9
9
9
9
9
9
9
9
9
9
9
9
9
9
9
9
9
9
9
9
9
9
9
9
9
9
9
9
9
9
9
9
9
9
9
9
9
9
9
9
9
9
9
9
9
9
9
9
9
9
9
9
9
9
9
9
9
9
9
9
9
9
9
9
9
9
9
9
9
9
9
9
9
9
9
9
9
9
9
9
9
9
9
9
9
9
9
9
9
9
9
9
9
9
9
9
9
9
9
9
9
9
9
9
9
9
9
9
9
9
9
9
9
9
9
9
9
9
9
9
9
9
9
9
9
9
9
9
9
9
9
9
9
9
9
9
9
9
9
9
9
9
9
9
9
9
9
9
9
9
9
9
9
9
9
9
9
9
9
9
9
9
9
9
9
9
9
9
9
9
9
9
9
9
9
9
9
9
9
9
9
9
9
9
9
9
9
9
9
9
9
9
9
9
9
9
9
9
9
9
9
9
9
9
9
9
9
9
9
9
9
9
9
9
9
9
9
9
9
9
9
9
9
9
9
9
9
9
9
9
9
9
9
9
9
9
9
9
9
9
9
9
9
9
9
9
9
9
9
9
9
9
9
9
9
9
9
9
9
9
9
9
9
9
9
9
9
9
9
9
9
9
9
9
9
9
9
9
9
9
9
9
9
9
9
9
9
9
9
9
9
9
9
9
9
9
9
9
9
9
9
9
9
9
9
9
9
9
9
9
9
9
9
9
9
9
9
9
9
9
9
9
9
9
9
9
9
9
9
9
9
9
9
9
9
9
9
9
9
9
9
9
9
9
9
9
9
9
9
9
9
9
9
9
9
9
9
9
9
9
9
9
9
9
9
9
9
9
9
9
9
9
9
9
9
9
9
9
9
9
9
9
9
9
9
9
9
9
9
9
9
9
9
9
9
9
9
9
9
9
9
9
9
9
9
9
9
9
9
9
9
9
9
9
9
9
9
9
9
9
9
9
9
9
9
9
9
9
9
9
9
9
9
9
9
9
9
9
9
9
9
9
9
9
9
9
9
9
9
9
9
9
9
9
9
9
9
9
9
9
9
9
9
9
9
9
9
9
9
9
9
9
9
9
9
9
9
9
9
9
9
9
9
9
9
9
9
9
9
9
9
9
9
9
9
9
9
9
9
9
9
9
9
9
9
9
9
9
9
9
9
9
9
9
9
9
9
9
9
9
9
9
9
9
9
9
9
9
9
9
9
9
9
9
9
9
9
9
9
9
9
9
9
9
9
9
9
9
9
9
9
9
9
9
9
9
9
9
9
9
9
9
9
9
9
9
9
9
9
9
9
9
9
9
9
9
9
9
9
9
9
9
9
9
9
9
9
9
9
9
9
9
9
9
9
9
9
9
9
9
9
9
9
9
9
9
9
9
9
9
9
9
9
9
9
9
9
9
9
9
9
9
9
9
9
9
9
9
9
9
9
9
9
9
9
9
9
9
9
9
9
9
9
9
9
9
9
9
9
9
9
9
9
9
9
9
9
9
9
9
9
9
9
9
9
9
9
9
9
9
9
9
9
9
9
9
9
9
9
9
9
9
9
9
9
9
9
9
9
9
9
9
9
9
9
9
9
9
9
9
9
9
9
9
9
9
9
9
9
9
9
9
9
9
9
9
9
9
9
9
9
9
9
9
9
9
9
9
9
9
9
9
9
9
9
9
9
9
9
9
9
9
9
9
9
9
9
9
9
9
9
9
9
9
9
9
9
9
9
9
9
9
9
9
9
9
9
9
9
9
9
9
9
9
9
9
9
9
9
9
9
9
9
9
9
9
9
9
9
9
9
9
9
9
9
9
9
9
9
9
9
9
9
9
9
9
9
9
9
9
9
9
9
9
9
9
9
9
9
9
9
9
9
9
9
9
9
9
9
9
9
9
9
9
9
9
9
9
9
9
9
9
9
9
9
9
9
9
9
9
9
9
9
9
9
9
9
9
9
9
9
9
9
9
9
9
9
9
9
9
9
9
9
9
9
9
9
9
9
9
9
9
9
9
9
9
9
9
9
9
9
9
9
9
9
9
9
9
9
9
9
9
9
9
9
9
9
9
9
9
9
9
9
9
9
9
9
9
9
9
9
9
9
9
9
9
9
9
9
9
9
9
9
9
9
9
9
9
9
9
9
9
9
9
9
9
9
9
9
9
9
9
9
9
9
9
9
9
9
9
9
9
9
9
9
9
9
9
9
9
9
9
9
9
9
9
9
9
9
9
9
9
9
9
9
9
9
9
9
9
9
9
9
9
9
9
9
9
9
9
9
9
9
9
9
9
9
9
9
9
9
9
9
9
9
9
9
9
9
9
9
9
9
9
9
9
9
9
9
9
9
9
9
9
9
9
9
9
9
9
9
9
9
9
9
9
9
9
9
9
9
9
9
9
9
9
9
9
9
9
9
9
9
9
9
9
9
9
9
9
9
9
9
9
9
9
9
9
9
9
9
9
9
9
9
9
9
9
9
9
9
9
9
9
9
9
9
9
9
9
9
9
9
9
9
9
9
9
9
9
9
9
9
9
9
9
9
9
9
9
9
9
9
9
9
9
9
9
9
9
9
9
9
9
9
9
9
9
9
9
9
9
9
9
9
9
9
9
9
9
9
9
9
9
9
9
9
9
9
9
9
9
9
9
9
9
9
9
9
9
9
9
9
9
9
9
9
9
9
9
9
9
9
9
9
9
9
9
9
9
9
9
9
9
9
9
9
9
9
9
9
9
9
9
9
9
9
9
9
9
9
9
9
9
9
9
9
9
9
9
9
9
9
9
9
9
9
9
9
9
9
9
9
9
9
9
9
9
9
9
9
9
9
9
9
9
9
9
9
9
9
9
9
9
9
9
9
9
9
9
9
9
9
9
9
9
9
9
9
9
9
9
9
9
9
9
9
POINT_DATA 994
SCALARS u1 float
LOOKUP_TABLE default
-0.1
-0.2
-0.2
-0.1
-0.2
-0.1
-0.2
-0.09
-0.2
-0.08
-0.2
-0.07
-0.2
-0.06
-0.3
-0.06
-0.3
-0.05
-0.3
-0.05
-0.4
-0.05
-0.4
-0.05
-0.4
-0.05
-0.5
-0.06
-0.5
-0.06
-0.5
-0.07
-0.6
-0.07
-0.6
-0.08
-0.7
-0.08
-0.7
-0.09
-0.8
-0.09
-0.8
-0.1
-0.8
-0.1
-0.9
-0.1
-0.9
-0.1
-0.9
-0.1
-1
-0.1
-1
-0.2
-1
-0.2
-1
-0.2
-1
-0.2
-1
-0.2
-1
-1
-0.2
-1
-0.2
-1
-0.2
-1
-0.2
-1
-0.3
-0.9
-0.3
-0.9
-0.3
-0.9
-0.3
-0.9
-0.3
-0.8
-0.3
-0.8
-0.3
-0.8
-0.3
-0.7
-0.3
-0.7
-0.7
-0.3
-0.3
-0.6
-0.3
-0.6
-0.3
-0.6
-0.3
-0.5
-0.3
-0.5
-0.2
-0.5
-0.2
-0.5
-0.2
-0.4
-0.2
-0.4
-0.2
-0.4
-0.3
-0.4
-0.3
-0.4
-0.3
-0.4
-0.3
-0.4
-0.3
-0.4
-0.3
-0.3
-0.3
-0.3
-0.3
-0.3
-0.3
-0.3
-0.3
-0.4
-0.3
-0.4
-0.3
-0.4
-0.3
-0.4
-0.3
-0.4
-0.3
-0.4
-0.3
-0.4
-0.3
-0.5
-0.3
-0.5
-0.3
-0.5
-0.4
-0.5
-0.4
-0.5
-0.4
-0.5
-0.4
-0.5
-0.4
-0.5
-0.4
-0.5
-0.4
-0.5
-0.4
-0.6
-0.4
-0.6
-0.5
-0.6
-0.5
-0.6
-0.5
-0.6
-0.5
-0.6
-0.5
-0.6
-0.5
-0.6
-0.5
-0.6
-0.6
-0.6
-0.6
-0.6
-0.6
-0.6
-0.6
-0.6
-0.6
-0.5
-0.6
-0.5
-0.6
-0.5
-0.6
-0.5
-0.6
-0.5
-0.7
-0.5
-0.7
-0.5
-0.7
-0.5
-0.7
-0.4
-0.7
-0.4
-0.7
-0.4
-0.7
-0.4
-0.7
-0.3
-0.7
-0.3
-0.7
-0.3
-0.6
-0.2
-0.6
-0.2
-0.6
-0.2
-0.6
-0.1
-0.6
-0.09
-0.6
-0.06
-0.6
-0.02
-0.6
0.01
-0.6
0.04
-0.7
0.07
-0.7
0.09
-0.7
0.1
-0.7
0.1
-0.7
0.2
-0.7
0.2
-0.7
0.2
-0.7
0.2
-0.7
0.2
-0.7
0.1
-0.7
0.1
-0.8
0.1
-0.8
0.08
-0.8
0.05
-0.8
0.01
-0.8
-0.03
-0.8
-0.06
-0.8
-0.1
-0.8
-0.1
-0.8
-0.2
-0.8
-0.2
-0.8
-0.3
-0.9
-0.3
-0.9
-0.4
-0.9
-0.4
-0.9
-0.4
-0.9
-0.5
-0.9
-0.5
-0.9
-0.6
-0.9
-0.6
-0.9
-0.6
-0.9
-0.6
-0.9
-0.7
-0.9
-0.7
-0.8
-0.7
-0.8
-0.7
-0.8
-0.8
-0.8
-0.8
-0.8
-0.2
-0.1
-0.2
-0.1
-0.2
-0.1
-0.2
-0.09
-0.2
-0.08
-0.3
-0.07
-0.3
-0.06
-0.3
-0.06
-0.4
-0.05
-0.4
-0.05
-0.4
-0.05
-0.5
-0.05
-0.5
-0.05
-0.5
-0.06
-0.6
-0.06
-0.6
-0.06
-0.7
-0.07
-0.7
-0.07
-0.8
-0.08
-0.8
-0.08
-0.8
-0.09
-0.9
-0.1
-0.9
-0.1
-0.9
-0.1
-1
-0.1
-1
-0.1
-1
-0.1
-1
-0.1
-1
-0.2
-1
-0.2
-1
-0.2
-1
-0.2
-1
-0.2
-1
-0.2
-1
-0.2
-1
-0.2
-0.9
-0.2
-0.9
-0.2
-0.9
-0.2
-0.9
-0.2
-0.8
-0.2
-0.8
-0.3
-0.8
-0.3
-0.7
-0.3
-0.7
-0.3
-0.7
-0.3
-0.6
-0.3
-0.6
-0.3
-0.6
-0.3
-0.5
-0.3
-0.5
-0.3
-0.5
-0.3
-0.5
-0.3
-0.4
-0.3
-0.4
-0.3
-0.4
-0.3
-0.4
-0.3
-0.4
-0.3
-0.4
-0.3
-0.4
-0.3
-0.4
-0.3
-0.3
-0.4
-0.3
-0.4
-0.3
-0.4
-0.3
-0.4
-0.3
-0.4
-0.3
-0.4
-0.3
-0.4
-0.3
-0.4
-0.3
-0.5
-0.3
-0.5
-0.3
-0.5
-0.3
-0.5
-0.3
-0.5
-0.4
-0.5
-0.4
-0.5
-0.4
-0.5
-0.4
-0.5
-0.4
-0.5
-0.4
-0.6
-0.4
-0.6
-0.4
-0.6
-0.4
-0.6
-0.4
-0.6
-0.5
-0.6
-0.5
-0.6
-0.5
-0.6
-0.5
-0.6
-0.5
-0.6
-0.5
-0.6
-0.5
-0.6
-0.6
-0.6
-0.6
-0.6
-0.6
-0.5
-0.6
-0.5
-0.6
-0.5
-0.6
-0.5
-0.6
-0.5
-0.6
-0.5
-0.6
-0.5
-0.6
-0.4
-0.6
-0.4
-0.6
-0.4
-0.6
-0.4
-0.6
-0.3
-0.6
-0.3
-0.6
-0.3
-0.7
-0.2
-0.7
-0.2
-0.7
-0.2
-0.7
-0.1
-0.7
-0.09
-0.7
-0.06
-0.7
-0.02
-0.7
0.008
-0.7
0.04
-0.7
0.07
-0.7
0.09
-0.7
0.1
-0.7
0.1
-0.7
0.2
-0.7
0.2
-0.7
0.2
-0.8
0.2
-0.8
0.2
-0.8
0.1
-0.8
0.1
-0.8
0.1
-0.8
0.08
-0.8
0.04
-0.8
0.01
-0.8
-0.03
-0.8
-0.07
-0.8
-0.1
-0.8
-0.2
-0.9
-0.2
-0.9
-0.2
-0.9
-0.3
-0.9
-0.3
-0.9
-0.4
-0.9
-0.4
-0.9
-0.5
-0.9
-0.5
-0.9
-0.5
-0.9
-0.6
-0.9
-0.6
-0.9
-0.6
-0.9
-0.7
-0.8
-0.7
-0.8
-0.7
-0.8
-0.7
-0.8
-0.7
-0.8
-0.8
-0.8
-0.2
-0.1
-0.2
-0.1
-0.2
-0.1
-0.2
-0.09
-0.2
-0.08
-0.2
-0.07
-0.3
-0.3
-0.06
-0.3
-0.3
-0.06
-0.3
-0.3
-0.05
-0.4
-0.4
-0.05
-0.4
-0.4
-0.05
-0.5
-0.4
-0.05
-0.5
-0.5
-0.05
-0.5
-0.5
-0.06
-0.6
-0.06
-0.6
-0.07
-0.6
-0.07
-0.7
-0.08
-0.7
-0.08
-0.8
-0.09
-0.8
-0.09
-0.8
-0.1
-0.9
-0.1
-0.9
-0.1
-0.1
-1
-0.1
-0.1
-1
-0.1
-0.1
-1
-0.2
-0.1
-0.2
-0.2
-1
-0.2
-0.2
-1
-0.2
-0.2
-1
-0.2
-0.2
-1
-0.2
-1
-0.2
-1
-0.2
-1
-0.2
-1
-0.2
-1
-0.2
-0.9
-0.2
-0.9
-0.3
-0.9
-0.3
-0.8
-0.3
-0.8
-0.3
-0.8
-0.3
-0.7
-0.3
-0.7
-0.7
-0.6
-0.3
-0.6
-0.6
-0.3
-0.6
-0.6
-0.3
-0.6
-0.6
-0.3
-0.5
-0.5
-0.3
-0.5
-0.5
-0.3
-0.5
-0.5
-0.3
-0.5
-0.5
-0.3
-0.4
-0.3
-0.4
-0.3
-0.4
-0.3
-0.4
-0.3
-0.4
-0.3
-0.4
-0.3
-0.4
-0.3
-0.4
-0.3
-0.3
-0.3
-0.3
-0.3
-0.3
-0.3
-0.4
-0.4
-0.3
-0.4
-0.4
-0.3
-0.4
-0.4
-0.3
-0.4
-0.4
-0.3
-0.4
-0.4
-0.3
-0.4
-0.4
-0.3
-0.4
-0.4
-0.3
-0.5
-0.3
-0.5
-0.3
-0.5
-0.3
-0.5
-0.4
-0.5
-0.4
-0.5
-0.4
-0.5
-0.4
-0.5
-0.4
-0.5
-0.4
-0.5
-0.4
-0.6
-0.4
-0.6
-0.4
-0.6
-0.5
-0.5
-0.6
-0.5
-0.5
-0.6
-0.5
-0.5
-0.6
-0.5
-0.5
-0.6
-0.5
-0.5
-0.6
-0.5
-0.5
-0.6
-0.5
-0.5
-0.6
-0.6
-0.6
-0.6
-0.6
-0.6
-0.6
-0.6
-0.6
-0.5
-0.6
-0.5
-0.6
-0.5
-0.6
-0.5
-0.6
-0.5
-0.6
-0.5
-0.6
-0.5
-0.6
-0.5
-0.4
-0.6
-0.4
-0.4
-0.7
-0.4
-0.4
-0.7
-0.4
-0.4
-0.7
-0.4
-0.3
-0.7
-0.3
-0.3
-0.7
-0.3
-0.3
-0.7
-0.3
-0.2
-0.6
-0.2
-0.6
-0.2
-0.6
-0.1
-0.6
-0.1
-0.7
-0.08
-0.7
-0.04
-0.7
-0.01
-0.7
0.02
-0.7
0.05
-0.7
0.08
-0.7
0.1
-0.7
0.1
-0.7
0.1
-0.7
0.2
-0.7
0.2
-0.7
-0.7
0.2
-0.7
-0.7
0.2
-0.7
-0.8
0.2
-0.8
-0.8
0.1
-0.8
-0.8
0.1
-0.8
-0.8
0.09
-0.8
-0.8
0.06
-0.8
0.03
-0.8
-0.008
-0.8
-0.05
-0.8
-0.09
-0.8
-0.1
-0.8
-0.2
-0.8
-0.2
-0.8
-0.3
-0.9
-0.3
-0.9
-0.3
-0.9
-0.4
-0.4
-0.9
-0.4
-0.4
-0.9
-0.5
-0.5
-0.9
-0.5
-0.5
-0.9
-0.6
-0.5
-0.9
-0.6
-0.6
-0.9
-0.6
-0.6
-0.9
-0.6
-0.9
-0.7
-0.9
-0.7
-0.8
-0.7
-0.8
-0.7
-0.8
-0.7
-0.8
-0.8
-0.8
-0.8
SCALARS u2 float
LOOKUP_TABLE default
-0.4
-0.4
-0.4
-0.4
-0.4
-0.4
-0.4
-0.4
-0.4
-0.3
-0.4
-0.3
-0.5
-0.3
-0.5
-0.3
-0.5
-0.3
-0.5
-0.3
-0.5
-0.3
-0.5
-0.3
-0.5
-0.3
-0.6
-0.3
-0.6
-0.3
-0.6
-0.3
-0.6
-0.3
-0.6
-0.4
-0.6
-0.4
-0.6
-0.4
-0.6
-0.4
-0.6
-0.4
-0.6
-0.4
-0.7
-0.4
-0.7
-0.4
-0.7
-0.5
-0.7
-0.5
-0.7
-0.5
-0.7
-0.5
-0.7
-0.6
-0.6
-0.6
-0.6
-0.6
-0.6
-0.6
-0.6
-0.6
-0.7
-0.6
-0.7
-0.6
-0.8
-0.6
-0.8
-0.6
-0.8
-0.6
-0.9
-0.6
-0.9
-0.6
-0.9
-0.6
-0.9
-0.7
-1
-0.7
-1
-0.7
-1
-0.7
-0.7
-1
-1
-0.7
-1
-0.7
-1
-0.7
-1
-0.7
-1
-0.7
-1
-0.8
-1
-0.8
-0.9
-0.8
-0.9
-0.8
-0.9
-0.8
-0.9
-0.8
-0.8
-0.8
-0.8
-0.8
-0.7
-0.8
-0.7
-0.8
-0.6
-0.8
-0.6
-0.8
-0.6
-0.5
-0.8
-0.5
-0.9
-0.4
-0.9
-0.4
-0.9
-0.4
-0.9
-0.3
-0.9
-0.3
-0.9
-0.3
-0.9
-0.2
-0.8
-0.2
-0.8
-0.2
-0.8
-0.2
-0.8
-0.2
-0.8
-0.1
-0.8
-0.1
-0.8
-0.1
-0.8
-0.1
-0.7
-0.08
-0.7
-0.07
-0.7
-0.06
-0.7
-0.05
-0.7
-0.04
-0.6
-0.03
-0.6
-0.03
-0.6
-0.03
-0.5
-0.03
-0.5
-0.03
-0.5
-0.03
-0.4
-0.04
-0.4
-0.04
-0.4
-0.05
-0.3
-0.05
-0.3
-0.06
-0.2
-0.06
-0.2
-0.07
-0.1
-0.08
-0.1
-0.08
-0.06
-0.09
-0.02
-0.1
0.02
-0.1
0.05
-0.1
0.08
-0.1
0.1
-0.1
0.1
-0.2
0.1
-0.2
0.2
-0.2
0.2
-0.2
0.2
-0.2
0.2
-0.2
0.1
-0.2
0.1
-0.2
0.1
-0.2
0.09
-0.2
0.06
-0.3
0.04
-0.3
0.005
-0.3
-0.03
-0.3
-0.06
-0.3
-0.1
-0.3
-0.1
-0.3
-0.2
-0.3
-0.2
-0.3
-0.2
-0.3
-0.3
-0.3
-0.3
-0.2
-0.3
-0.2
-0.4
-0.2
-0.4
-0.2
-0.4
-0.2
-0.4
-0.2
-0.5
-0.2
-0.5
-0.2
-0.5
-0.3
-0.5
-0.3
-0.5
-0.3
-0.5
-0.3
-0.5
-0.3
-0.6
-0.3
-0.6
-0.3
-0.6
-0.3
-0.6
-0.3
-0.6
-0.3
-0.6
-0.4
-0.6
-0.4
-0.6
-0.4
-0.6
-0.4
-0.6
-0.4
-0.6
-0.4
-0.6
-0.5
-0.6
-0.5
-0.6
-0.5
-0.6
-0.5
-0.5
-0.5
-0.5
-0.5
-0.5
-0.4
-0.4
-0.4
-0.4
-0.4
-0.3
-0.4
-0.3
-0.4
-0.3
-0.4
-0.3
-0.4
-0.3
-0.5
-0.3
-0.5
-0.3
-0.5
-0.3
-0.5
-0.3
-0.5
-0.3
-0.5
-0.3
-0.5
-0.3
-0.5
-0.3
-0.6
-0.4
-0.6
-0.4
-0.6
-0.4
-0.6
-0.4
-0.6
-0.4
-0.6
-0.4
-0.6
-0.4
-0.6
-0.4
-0.6
-0.5
-0.6
-0.5
-0.6
-0.5
-0.6
-0.5
-0.6
-0.6
-0.6
-0.6
-0.6
-0.6
-0.6
-0.6
-0.6
-0.7
-0.6
-0.7
-0.6
-0.7
-0.7
-0.8
-0.7
-0.8
-0.7
-0.9
-0.7
-0.9
-0.7
-0.9
-0.7
-0.9
-0.7
-1
-0.7
-1
-0.7
-1
-0.7
-1
-0.7
-1
-0.7
-1
-0.7
-1
-0.7
-1
-0.8
-1
-0.8
-1
-0.8
-1
-0.8
-0.9
-0.8
-0.9
-0.8
-0.9
-0.8
-0.8
-0.8
-0.8
-0.8
-0.8
-0.8
-0.7
-0.8
-0.7
-0.8
-0.6
-0.8
-0.6
-0.8
-0.6
-0.9
-0.5
-0.9
-0.5
-0.9
-0.4
-0.9
-0.4
-0.9
-0.4
-0.9
-0.3
-0.9
-0.3
-0.8
-0.3
-0.8
-0.2
-0.8
-0.2
-0.8
-0.2
-0.8
-0.2
-0.8
-0.2
-0.8
-0.1
-0.8
-0.1
-0.7
-0.1
-0.7
-0.1
-0.7
-0.08
-0.7
-0.07
-0.7
-0.06
-0.6
-0.05
-0.6
-0.04
-0.6
-0.03
-0.5
-0.03
-0.5
-0.03
-0.5
-0.03
-0.4
-0.03
-0.4
-0.03
-0.4
-0.03
-0.3
-0.04
-0.3
-0.04
-0.2
-0.05
-0.2
-0.06
-0.1
-0.06
-0.1
-0.07
-0.06
-0.07
-0.02
-0.08
0.01
-0.09
0.05
-0.1
0.08
-0.1
0.1
-0.1
0.1
-0.1
0.1
-0.1
0.2
-0.1
0.2
-0.2
0.2
-0.2
0.2
-0.2
0.1
-0.2
0.1
-0.2
0.1
-0.2
0.09
-0.2
0.06
-0.2
0.04
-0.2
0.004
-0.2
-0.03
-0.2
-0.06
-0.2
-0.1
-0.2
-0.1
-0.2
-0.2
-0.2
-0.2
-0.3
-0.2
-0.3
-0.3
-0.3
-0.3
-0.3
-0.3
-0.3
-0.4
-0.3
-0.4
-0.3
-0.4
-0.3
-0.4
-0.3
-0.5
-0.3
-0.5
-0.3
-0.5
-0.3
-0.5
-0.3
-0.5
-0.3
-0.5
-0.3
-0.5
-0.3
-0.6
-0.3
-0.6
-0.4
-0.6
-0.4
-0.6
-0.4
-0.6
-0.4
-0.6
-0.4
-0.6
-0.4
-0.6
-0.4
-0.6
-0.4
-0.6
-0.5
-0.6
-0.5
-0.6
-0.5
-0.6
-0.5
-0.6
-0.5
-0.6
-0.5
-0.5
-0.5
-0.5
-0.4
-0.4
-0.4
-0.4
-0.4
-0.4
-0.4
-0.3
-0.4
-0.3
-0.4
-0.3
-0.5
-0.5
-0.3
-0.5
-0.5
-0.3
-0.5
-0.5
-0.3
-0.5
-0.5
-0.3
-0.5
-0.5
-0.3
-0.5
-0.5
-0.3
-0.5
-0.5
-0.3
-0.6
-0.5
-0.3
-0.6
-0.3
-0.6
-0.3
-0.6
-0.4
-0.6
-0.4
-0.6
-0.4
-0.6
-0.4
-0.6
-0.4
-0.6
-0.4
-0.6
-0.4
-0.6
-0.4
-0.4
-0.6
-0.5
-0.5
-0.6
-0.5
-0.5
-0.6
-0.5
-0.5
-0.5
-0.5
-0.6
-0.6
-0.6
-0.6
-0.6
-0.6
-0.6
-0.6
-0.6
-0.6
-0.7
-0.6
-0.7
-0.6
-0.7
-0.6
-0.8
-0.6
-0.8
-0.6
-0.8
-0.6
-0.9
-0.7
-0.9
-0.7
-0.9
-0.7
-0.9
-0.7
-1
-0.7
-1
-0.7
-1
-0.7
-0.7
-0.7
-1
-0.7
-0.7
-1
-0.7
-0.7
-1
-0.7
-0.7
-1
-0.7
-0.8
-1
-0.8
-0.8
-1
-0.8
-0.8
-1
-0.8
-0.8
-0.9
-0.8
-0.9
-0.8
-0.9
-0.8
-0.8
-0.8
-0.8
-0.8
-0.8
-0.8
-0.7
-0.8
-0.7
-0.8
-0.6
-0.8
-0.6
-0.8
-0.5
-0.5
-0.9
-0.5
-0.5
-0.9
-0.4
-0.4
-0.9
-0.4
-0.4
-0.9
-0.4
-0.4
-0.9
-0.3
-0.3
-0.9
-0.3
-0.3
-0.9
-0.3
-0.3
-0.8
-0.2
-0.8
-0.2
-0.8
-0.2
-0.8
-0.2
-0.8
-0.2
-0.8
-0.1
-0.8
-0.1
-0.8
-0.1
-0.7
-0.1
-0.7
-0.08
-0.7
-0.07
-0.7
-0.06
-0.7
-0.05
-0.6
-0.6
-0.04
-0.6
-0.6
-0.03
-0.6
-0.6
-0.03
-0.5
-0.5
-0.03
-0.5
-0.5
-0.03
-0.4
-0.5
-0.03
-0.4
-0.4
-0.03
-0.4
-0.4
-0.04
-0.3
-0.04
-0.3
-0.05
-0.2
-0.05
-0.2
-0.06
-0.2
-0.06
-0.1
-0.07
-0.08
-0.08
-0.05
-0.08
-0.003
-0.09
0.03
-0.1
-0.1
0.06
-0.1
-0.1
0.09
-0.1
-0.1
0.1
-0.1
-0.1
0.1
-0.1
-0.1
0.2
-0.2
-0.2
0.2
-0.2
-0.2
0.2
-0.2
-0.2
0.2
-0.2
0.2
-0.2
0.1
-0.2
0.1
-0.2
0.1
-0.2
0.08
-0.2
0.05
-0.2
0.02
-0.2
-0.02
-0.2
-0.05
-0.3
-0.08
-0.3
-0.1
-0.3
-0.2
-0.3
-0.2
-0.3
-0.2
-0.3
-0.2
-0.3
-0.3
-0.3
-0.3
-0.3
-0.3
-0.3
-0.3
-0.3
-0.4
-0.3
-0.4
-0.4
-0.3
-0.4
-0.4
-0.3
-0.4
-0.4
-0.3
-0.5
-0.3
-0.5
-0.3
-0.5
-0.3
-0.5
-0.3
-0.5
-0.3
-0.5
-0.3
-0.5
-0.3
-0.5
-0.3
-0.6
-0.3
-0.6
-0.3
-0.6
-0.3
-0.4
-0.6
-0.4
-0.4
-0.6
-0.4
-0.4
-0.6
-0.4
-0.4
-0.6
-0.4
-0.4
-0.6
-0.4
-0.4
-0.6
-0.4
-0.4
-0.6
-0.4
-0.6
-0.5
-0.6
-0.5
-0.6
-0.5
-0.6
-0.5
-0.6
-0.5
-0.5
-0.5
-0.5
-0.5
SCALARS strain_1 float
LOOKUP_TABLE default
-0.849686
-0.563055
0.544346
-2.157248
1.969163
-3.454560
3.469938
-4.665461
5.016438
-5.818290
6.647458
-6.902546
8.316866
-7.954403
10.026113
-8.910881
11.819419
-9.835007
13.639143
-10.681138
15.538771
-11.473980
17.464326
-12.213299
19.435826
-12.918666
21.456197
-13.572787
23.547858
-14.139049
25.641268
-14.678060
27.826695
-15.152029
30.030907
-15.585868
32.300042
-15.970837
34.564235
-16.303803
36.860327
-16.583617
39.223950
-16.795882
41.572308
-16.986325
43.956881
-17.142047
46.384737
-17.231146
48.848244
-17.298300
51.317380
-17.324324
53.788410
-17.337069
56.299407
-17.248472
58.768296
-17.164063
61.292723
-17.054118
63.801322
-16.914324
66.309942
68.837071
-16.733705
71.331164
-16.546563
73.821708
-16.284061
76.304509
-16.015627
78.791233
-15.733743
81.203478
-15.445104
83.635407
-15.114117
86.063317
-14.762603
88.439016
-14.398923
90.767355
-14.045621
93.058268
-13.627595
95.344906
-13.245715
97.565639
-12.815134
99.776618
101.876643
-12.395229
-11.988037
103.945515
-11.525004
105.975845
-11.117818
107.938986
-10.683541
109.847345
-10.230324
111.692782
-9.760702
113.455191
-9.344814
115.148180
-8.930742
116.778036
-8.450443
118.331955
-8.043902
119.815257
-7.611105
121.227358
-7.194604
122.539864
-6.782317
123.784450
-6.399453
124.941256
-6.029035
125.974034
-5.645014
126.992625
-5.292212
127.842574
-4.923786
-4.574315
128.632738
-4.269465
129.348118
-3.972251
129.959333
-3.685433
130.464346
-3.394688
130.871384
-3.144555
131.196923
-2.905352
131.441664
-2.707203
131.575420
-2.513304
131.594497
-2.314281
131.544668
-2.153387
131.367256
-1.989489
131.111991
-1.868324
130.733360
-1.757515
130.296432
-1.652009
129.769439
-1.617858
129.146606
-1.562577
128.413002
-1.523430
127.583137
-1.503136
126.708452
-1.509865
125.714147
-1.530783
124.628459
-1.574264
123.459562
-1.614269
122.221088
-1.697066
120.917040
-1.789239
119.516350
-1.878007
118.065556
-2.030783
116.507668
-2.164198
114.895072
-2.295415
113.214502
-2.487017
111.460514
-2.672439
109.672290
-2.847636
107.822211
-3.052434
105.894739
-3.255008
103.922071
-3.501278
101.890877
-3.734476
99.846983
-3.980319
97.735589
-4.212505
95.604482
-4.478470
93.425951
-4.762198
91.201877
-5.020282
88.953660
-5.301169
86.712459
-5.570254
84.397878
-5.884730
82.093819
-6.164847
79.780922
-6.449021
77.432972
-6.731190
75.082834
-7.050746
72.711639
-7.358681
70.388606
-7.645260
68.002603
-7.957242
65.649736
-8.247996
63.282105
-8.520559
60.950619
-8.783041
58.602261
-9.054803
56.282347
-9.350770
53.963451
-9.597063
51.690679
-9.866948
49.413155
-10.095556
47.175752
-10.365684
44.961765
-10.562396
42.775292
-10.775335
40.597443
-10.998449
38.494371
-11.192955
36.393686
-11.367461
34.360809
-11.530778
32.337552
-11.687621
30.358278
-11.830677
28.392164
-11.928983
26.507009
-12.020150
24.658117
-12.124270
22.864428
-12.148318
21.090786
-12.201489
19.352980
-12.203961
17.698332
-12.205328
16.057923
-12.179989
14.470562
-12.131616
12.947898
-12.029473
11.464987
-11.912908
10.031301
-11.762149
8.652690
-11.637000
7.295656
-11.386648
6.033137
-11.173161
4.771130
-10.932131
3.611400
-10.634994
2.473588
-10.294447
1.363053
-9.947380
0.331992
-9.544211
-0.678929
-9.093753
-1.610912
-8.646025
-2.518167
-8.120228
-3.371435
-7.552732
-4.175842
-6.971391
-4.927500
-6.365422
-5.664994
0.838740
-1.901680
2.286845
-3.205975
3.813994
-4.420273
5.387025
-5.604895
7.032017
-6.680303
8.693100
-7.742187
10.467442
-8.738108
12.266152
-9.655123
14.113897
-10.519650
16.024358
-11.347090
17.971611
-12.112070
19.968158
-12.833938
22.009785
-13.477314
24.130923
-14.045909
26.253456
-14.596627
28.439577
-15.084353
30.657096
-15.518882
32.891050
-15.868292
35.210301
-16.208807
37.539868
-16.502633
39.885056
-16.743188
42.263451
-16.933272
44.640598
-17.074356
47.080894
-17.196288
49.526456
-17.265937
52.001899
-17.273332
54.443734
-17.270301
56.941008
-17.224214
59.422155
-17.145831
61.916450
-16.989834
64.415283
-16.865670
66.907359
-16.684756
69.401688
-16.474041
71.866703
-16.231855
74.333386
-15.994902
76.764575
-15.705403
79.190702
-15.421035
81.580983
-15.084306
83.957582
-14.739446
86.298450
-14.377024
88.649656
-14.020828
90.895413
-13.638425
93.133345
-13.253613
95.325462
-12.819321
97.457124
-12.438916
99.549202
-12.008242
101.580678
-11.589107
103.531457
-11.164302
105.467341
-10.704408
107.327273
-10.282955
109.089654
-9.863190
110.792769
-9.440547
112.471416
-9.015099
114.017609
-8.615300
115.512585
-8.224834
116.941366
-7.805475
118.264072
-7.394445
119.488677
-7.001595
120.654401
-6.637790
121.718904
-6.258903
122.755620
-5.910267
123.612799
-5.622927
124.456416
-5.268837
125.127917
-4.946456
125.744375
-4.644394
126.263257
-4.380852
126.668090
-4.102192
126.985401
-3.862961
127.232653
-3.662999
127.328728
-3.429443
127.377525
-3.256371
127.316195
-3.090654
127.112163
-2.929465
126.879614
-2.794364
126.515170
-2.671081
126.049479
-2.600216
125.507879
-2.508887
124.874599
-2.456005
124.153227
-2.413639
123.308249
-2.383551
122.395499
-2.389050
121.392869
-2.419254
120.293205
-2.432976
119.126922
-2.480370
117.854619
-2.561297
116.547989
-2.628010
115.138782
-2.730866
113.637657
-2.880720
112.098464
-2.980490
110.454482
-3.110370
108.776619
-3.307765
106.999605
-3.503699
105.184162
-3.647008
103.323814
-3.834170
101.377261
-4.069715
99.400246
-4.293883
97.371709
-4.483342
95.322534
-4.744131
93.208201
-4.983807
91.057163
-5.255189
88.869804
-5.495617
86.656825
-5.771072
84.426880
-6.038415
82.149379
-6.312167
79.846223
-6.602870
77.548792
-6.891595
75.257045
-7.149312
72.918367
-7.451821
70.575848
-7.704226
68.250931
-8.022514
65.890789
-8.291823
63.568814
-8.583921
61.216597
-8.875761
58.905070
-9.146625
56.570713
-9.382906
54.287644
-9.658651
52.001082
-9.911680
49.716602
-10.155720
47.467039
-10.395185
45.285535
-10.611363
43.037975
-10.843370
40.897860
-11.027507
38.767739
-11.246857
36.651669
-11.401344
34.587694
-11.577948
32.560121
-11.733275
30.571540
-11.856118
28.628281
-11.990211
26.719519
-12.081174
24.832732
-12.177848
23.014755
-12.234379
21.232801
-12.255182
19.494378
-12.282548
17.802651
-12.267438
16.159215
-12.267706
14.561621
-12.203825
13.025687
-12.118309
11.528658
-12.004061
10.061928
-11.876046
8.674540
-11.696628
7.325183
-11.517628
6.042648
-11.275806
4.792703
-11.026573
3.580213
-10.733129
2.430996
-10.410315
1.332338
-10.045480
0.288126
-9.648869
-0.685578
-9.209489
-1.656398
-8.758122
-2.566522
-8.228121
-3.433518
-7.666076
-4.259144
-7.061046
-6.439357
-5.041222
-5.739955
0.275750
-1.389770
1.453067
-2.670222
2.884641
-3.948154
4.417896
-5.143781
6.001298
-6.245830
7.632097
-7.319547
9.296455
10.642898
-8.458317
12.459874
11.563507
-9.319278
14.312314
13.439303
-10.167082
15.285243
16.266864
-10.994160
17.268659
18.233584
-11.653512
20.220096
19.181680
-12.530907
21.216738
22.293674
-13.179919
24.541821
23.290376
-13.803521
26.084796
-14.394386
28.139779
-14.884481
30.343299
-15.432289
32.585929
-15.753984
34.866356
-16.085724
37.151084
-16.391272
39.457986
-16.673780
41.427919
-16.872854
44.320296
-17.051160
46.752173
-17.165815
-17.211418
49.171642
-17.302315
-17.300974
51.638275
-17.297320
-17.298563
54.125173
-17.284011
-17.312405
-17.277398
-17.230500
57.158878
-17.178171
-17.128307
59.451337
-17.116829
-16.988084
61.980606
-16.923534
-16.811258
64.559881
-16.693004
67.856957
-16.487017
72.099568
-16.235421
74.074854
-15.993109
76.052787
-15.734567
78.983657
-15.434220
81.430543
-15.165113
83.797545
-14.774950
86.635912
-14.395431
88.567203
-14.041202
90.856496
-13.553231
93.075275
-13.231641
95.326626
-12.901767
97.491877
99.563497
101.165627
-12.178929
103.261206
102.245233
-11.627876
105.306721
104.269884
-11.171477
106.234309
107.205589
-10.759751
108.080809
109.099629
-10.342274
109.892203
110.822420
-9.822320
111.667329
112.630386
-9.402079
113.352718
114.414705
-8.951955
115.482318
-8.548395
116.917052
-8.127813
118.347532
-7.611200
119.701601
-7.290783
121.011071
-6.948954
122.201329
-6.520202
123.276539
-6.151269
124.109851
-5.772213
125.282106
-5.441567
126.122775
-5.103601
-4.848055
126.872854
-4.702001
-4.560817
127.527660
-4.404437
-4.239313
128.094657
-4.127137
-3.976256
128.667529
-3.829133
-3.702000
128.932582
-3.454067
-3.589622
129.175446
-3.386799
-3.218169
129.367241
-2.985268
-3.142026
129.446080
-2.877579
129.431050
-2.682579
129.314873
-2.548961
129.113794
-2.398152
128.823334
-2.285451
128.402883
-2.197412
127.910197
-2.115680
127.194320
-2.005127
126.612956
-1.976400
125.861281
-1.963502
124.983398
-1.958552
124.026651
-1.943078
123.026256
-1.999685
121.963683
121.195989
-2.040571
120.295908
119.731142
-2.090497
118.993696
118.379729
-2.173026
117.020496
117.609348
-2.269531
116.224335
115.478144
-2.354359
113.958162
114.700396
-2.521690
113.035602
112.265952
-2.623883
110.482158
111.350267
-2.798178
109.184973
-2.970218
107.436868
-3.171785
105.542435
-3.411877
103.623878
-3.546345
101.639584
-3.782745
99.652932
-4.015528
97.629375
-4.236006
95.898278
-4.490194
93.305761
-4.740216
91.135034
-4.978917
-5.183285
88.926045
-5.327266
-5.458066
86.696969
-5.613763
-5.747311
84.424584
-5.902696
-6.025074
81.627589
-6.166578
-6.306538
79.724578
-6.474628
-6.583099
77.448671
-6.752719
-6.891002
75.167217
-7.050054
-7.175146
72.904880
-7.428251
70.969375
-7.688739
67.641482
-7.987189
65.727239
-8.265957
63.885816
-8.537358
61.073397
-8.814237
58.717421
-9.043125
56.426286
-9.370086
53.635050
-9.643709
51.748372
-9.893600
49.544881
-10.184132
47.328925
-10.370928
45.113929
-10.567128
42.946898
-10.857523
40.878717
-10.984393
39.379524
38.106526
-11.235190
37.149735
36.002668
-11.394399
34.968988
33.953184
-11.562500
32.948849
31.980008
-11.683394
30.970415
30.038790
-11.840536
28.947031
28.046909
-11.974488
27.043836
26.180627
-12.075726
25.096752
-12.139167
23.733911
-12.188780
21.995711
-12.220187
20.272195
-12.248056
18.581237
-12.236296
16.931988
-12.199424
15.316358
-12.148194
13.809111
-12.068231
12.559211
-11.966524
10.748464
-11.829387
9.339911
-11.716434
-11.611510
7.983177
-11.532635
-11.408006
6.666948
-11.278495
-11.174139
5.390983
-11.040469
-10.912001
3.942096
-10.583572
-10.753296
2.986656
-10.443970
-10.264563
1.895559
-9.878641
-10.078375
0.835884
-9.682427
-0.051255
-9.342298
-1.187808
-8.926604
-2.088918
-8.442549
-2.966292
-7.899190
-3.822606
-7.315852
-4.610082
-6.733013
-6.173507
-5.347321
SCALARS strain_2 float
LOOKUP_TABLE default
0.384672
0.307478
-0.182318
0.935367
-0.781199
1.417770
-1.418292
1.898774
-2.059433
2.328563
-2.767568
2.741778
-3.525351
3.121832
-4.281959
3.453577
-5.109429
3.762405
-5.975234
4.053932
-6.838605
4.325230
-7.760290
4.578011
-8.707791
4.816425
-9.719656
5.005334
-10.763113
5.151559
-11.837446
5.285162
-12.902775
5.429839
-14.031853
5.520406
-15.220735
5.627423
-16.415667
5.663272
-17.655166
5.718072
-18.942379
5.749331
-20.242339
5.771008
-21.561349
5.803384
-22.916703
5.763496
-24.318584
5.736291
-25.731089
5.698147
-27.175130
5.648090
-28.665815
5.587141
-30.112267
5.509714
-31.644097
5.459542
-33.184316
5.376381
-34.721896
-36.305104
5.257777
-37.881883
5.173398
-39.452419
5.070265
-41.041071
4.958192
-42.689284
4.839418
-44.269318
4.713026
-45.904391
4.597847
-47.535624
4.439740
-49.142652
4.342997
-50.752534
4.183152
-52.395700
4.060620
-53.976879
3.912673
-55.551620
3.777240
-57.161659
-58.703106
3.655327
3.505002
-60.237211
3.354860
-61.771702
3.227692
-63.283558
3.081307
-64.758806
2.952400
-66.197847
2.821499
-67.636485
2.684023
-69.007022
2.574700
-70.357982
2.423763
-71.692671
2.321115
-72.929013
2.183578
-74.165297
2.072720
-75.337729
1.965204
-76.472851
1.839835
-77.578157
1.739182
-78.616913
1.614473
-79.613991
1.502692
-80.517245
1.448043
1.321019
-81.412096
1.248112
-82.200299
1.166423
-82.961845
1.077245
-83.677619
1.003586
-84.271377
0.939917
-84.850670
0.895360
-85.349551
0.811393
-85.754936
0.757899
-86.144433
0.696420
-86.413189
0.641647
-86.658545
0.610529
-86.818905
0.580432
-86.880511
0.557290
-86.907957
0.558507
-86.857270
0.517061
-86.719028
0.511596
-86.541297
0.502949
-86.271959
0.489927
-85.929009
0.500466
-85.513838
0.498518
-85.028328
0.529322
-84.468713
0.544122
-83.866201
0.552800
-83.197238
0.601771
-82.462743
0.660661
-81.683149
0.700448
-80.795139
0.771051
-79.847696
0.823714
-78.849062
0.898304
-77.813815
0.960484
-76.718672
1.071390
-75.575078
1.144136
-74.348480
1.195224
-73.094283
1.327711
-71.787466
1.420128
-70.444817
1.521622
-69.049891
1.643492
-67.620711
1.781418
-66.161568
1.906934
-64.630182
2.037174
-63.092154
2.175671
-61.532532
2.314914
-59.922938
2.479388
-58.321906
2.625967
-56.666389
2.808691
-55.009062
2.954376
-53.321289
3.125349
-51.647701
3.308755
-49.923270
3.485338
-48.224870
3.697706
-46.502637
3.863841
-44.754100
4.044894
-43.052413
4.240188
-41.331399
4.433941
-39.609294
4.638890
-37.896552
4.837313
-36.204358
5.035355
-34.537780
5.245784
-32.867736
5.434965
-31.188550
5.630785
-29.561702
5.826956
-27.925622
6.005955
-26.329627
6.221061
-24.786567
6.397639
-23.236397
6.605799
-21.718853
6.771163
-20.231218
6.921347
-18.751246
7.109631
-17.350425
7.259137
-15.951849
7.392413
-14.598426
7.539256
-13.273082
7.665558
-12.005311
7.783811
-10.797050
7.878434
-9.551332
7.974872
-8.403911
8.031650
-7.282490
8.080805
-6.221708
8.129461
-5.181034
8.177658
-4.190498
8.162163
-3.221763
8.122124
-2.311663
8.090727
-1.440436
8.033607
-0.605380
7.942732
0.192774
7.819840
0.943773
7.681086
1.639564
7.485452
2.288203
7.282067
2.908004
7.063346
3.490164
6.820543
4.053254
6.523396
4.564532
6.213696
5.003233
5.839424
5.463597
-0.313152
0.838211
-0.921111
1.339338
-1.563019
1.811334
-2.258178
2.257849
-2.951098
2.677190
-3.718211
3.069085
-4.514080
3.413287
-5.344278
3.760306
-6.231985
4.065725
-7.095876
4.317338
-8.068463
4.548824
-9.035260
4.792929
-10.059185
4.983477
-11.102124
5.151993
-12.164797
5.325321
-13.285218
5.434384
-14.443128
5.555370
-15.639184
5.624575
-16.836254
5.707947
-18.090201
5.771812
-19.390932
5.789545
-20.702789
5.832753
-22.067219
5.824031
-23.422385
5.803205
-24.830026
5.784967
-26.235872
5.743454
-27.705081
5.703845
-29.198276
5.622496
-30.671942
5.594611
-32.201491
5.496972
-33.744603
5.448994
-35.282148
5.303964
-36.863660
5.228949
-38.414101
5.131664
-40.022542
5.019264
-41.598592
4.895441
-43.182435
4.774888
-44.824337
4.624735
-46.388972
4.514334
-48.003940
4.364886
-49.574687
4.242871
-51.184624
4.116093
-52.737030
3.995367
-54.327707
3.845324
-55.860207
3.722921
-57.414248
3.557905
-58.925091
3.451380
-60.400234
3.284538
-61.883993
3.161227
-63.320908
3.028254
-64.721619
2.899378
-66.108042
2.783921
-67.436606
2.658994
-68.747765
2.526406
-70.011420
2.374958
-71.252874
2.294566
-72.432504
2.163248
-73.557536
2.046995
-74.632046
1.944674
-75.683034
1.837043
-76.642571
1.731081
-77.542510
1.645605
-78.425044
1.536051
-79.235630
1.475219
-79.976118
1.416794
-80.678923
1.322562
-81.248240
1.249209
-81.815574
1.166561
-82.318081
1.096896
-82.740565
1.030563
-83.099283
1.004988
-83.388533
0.953105
-83.566222
0.906009
-83.723356
0.895996
-83.776338
0.825758
-83.787810
0.839898
-83.762368
0.803752
-83.584403
0.789643
-83.366650
0.773043
-83.075072
0.799163
-82.722535
0.782166
-82.315530
0.788804
-81.814923
0.825237
-81.250654
0.852993
-80.605806
0.871427
-79.903987
0.904565
-79.153870
0.956127
-78.316091
0.984223
-77.439131
1.055343
-76.491208
1.136388
-75.481728
1.180051
-74.415501
1.289460
-73.326661
1.357050
-72.110357
1.447806
-70.885713
1.543791
-69.630612
1.616741
-68.279824
1.756114
-66.917001
1.875800
-65.511065
2.000801
-64.085120
2.115809
-62.617610
2.247276
-61.083847
2.387951
-59.549157
2.500307
-57.980767
2.670152
-56.399873
2.826499
-54.766348
2.977261
-53.127770
3.137862
-51.452313
3.310368
-49.792621
3.501200
-48.120835
3.687694
-46.419072
3.870943
-44.701174
4.055842
-43.019114
4.203473
-41.329362
4.398595
-39.627491
4.610287
-37.910989
4.795163
-36.255966
4.987490
-34.575005
5.215170
-32.887548
5.385458
-31.282664
5.606364
-29.620671
5.788588
-28.004524
5.975387
-26.418108
6.182471
-24.839866
6.347123
-23.301031
6.544624
-21.787168
6.699376
-20.314561
6.887334
-18.841231
7.065830
-17.406913
7.203197
-16.046001
7.342431
-14.662531
7.492880
-13.327259
7.645051
-12.073357
7.733097
-10.803915
7.858879
-9.614806
7.959912
-8.424500
8.016261
-7.307932
8.089003
-6.217951
8.116641
-5.174074
8.131717
-4.164565
8.146437
-3.219193
8.132306
-2.291829
8.087874
-1.417109
8.028059
-0.587479
7.934134
0.184886
7.831229
0.941966
7.691813
1.648116
7.521528
2.343636
7.346753
2.942563
7.095997
3.519619
6.843751
4.080391
6.534090
4.593647
6.221528
5.873822
5.044970
5.463154
-0.041958
0.603252
-0.546175
1.134563
-1.154511
1.621924
-1.804938
2.063639
-2.529891
2.500914
-3.243292
2.901064
-3.980445
-4.574807
3.309863
-5.429217
-5.013626
3.608106
-6.267571
-5.867349
3.922652
-6.741574
-7.210091
4.181184
-7.676912
-8.142185
4.388111
-9.129301
-8.627176
4.677513
-9.619132
-10.135592
4.890687
-11.285194
-10.642559
5.066506
-12.084194
5.242784
-13.109312
5.354150
-14.225102
5.498527
-15.438012
5.587582
-16.621557
5.658809
-17.867304
5.707540
-19.130348
5.766410
-20.196554
5.773456
-21.802250
5.809758
-23.163038
5.793439
5.781506
-24.578641
5.778649
5.767143
-25.996081
5.728191
5.745436
-27.465853
5.643602
5.679714
5.649289
5.599706
-29.253442
5.568410
5.524862
-30.625530
5.515181
5.431255
-32.148732
5.428633
5.354838
-33.737393
5.305177
-35.765290
5.193459
-38.445359
5.094097
-39.727837
4.973031
-40.977843
4.871139
-42.942846
4.732982
-44.528767
4.624926
-46.143376
4.476305
-48.037299
4.339552
-49.420269
4.216114
-50.954363
4.072927
-52.535745
3.949370
-54.142934
3.823603
-55.698807
-57.208443
-58.401963
3.614690
-59.964482
-59.196196
3.411103
-61.496857
-60.714204
3.283364
-62.209148
-62.935093
3.157168
-63.648163
-64.429971
3.013831
-65.091053
-65.842782
2.849629
-66.488514
-67.237415
2.743677
-67.852293
-68.707546
2.591675
-69.619959
2.467124
-70.847240
2.349619
-72.089031
2.221061
-73.303687
2.125664
-74.451009
1.994644
-75.550074
1.864124
-76.564111
1.762130
-77.419919
1.678905
-78.559914
1.584010
-79.442066
1.490968
1.403515
-80.304771
1.367011
1.332806
-81.091821
1.298797
1.244378
-81.815336
1.217564
1.166642
-82.607851
1.145930
1.092663
-83.039853
1.017970
1.050545
-83.593638
0.997839
0.942049
-84.033574
0.885851
0.938949
-84.361339
0.874428
-84.748104
0.840427
-84.987339
0.781273
-85.215568
0.751045
-85.303555
0.706000
-85.334736
0.695547
-85.316579
0.677691
-85.168493
0.653681
-85.031389
0.638326
-84.806254
0.648893
-84.477855
0.629998
-84.095992
0.642004
-83.673133
0.668150
-83.210035
-82.859221
0.683625
-82.359485
-82.061965
0.714856
-81.680984
-81.398960
0.779579
-80.651834
-80.943258
0.764152
-80.195258
-79.789848
0.815767
-78.935627
-79.324065
0.878937
-78.381295
-77.917903
0.962306
-76.891681
-77.378357
0.992151
-76.056900
1.106496
-75.014668
1.160135
-73.807009
1.261039
-72.600900
1.320582
-71.332114
1.426423
-70.009096
1.536367
-68.718803
1.638145
-67.542227
1.747128
-65.820931
1.853434
-64.387411
1.984069
2.101577
-62.848631
2.164207
2.243523
-61.315331
2.303547
2.362278
-59.749896
2.447649
2.527012
-57.805370
2.611600
2.670436
-56.471648
2.775233
2.840310
-54.859917
2.925615
3.024007
-53.219332
3.115232
3.181924
-51.577787
3.317452
-50.235686
3.478800
-47.818352
3.670570
-46.439836
3.849871
-45.078874
4.035672
-43.034349
4.236822
-41.330883
4.410995
-39.603134
4.623480
-37.545988
4.838216
-36.161880
5.024512
-34.557840
5.266893
-32.862430
5.386320
-31.239489
5.567553
-29.596859
5.821607
-28.057533
5.962171
-26.933040
-26.003005
6.220683
-25.272519
-24.405303
6.397055
-23.645380
-22.893257
6.573666
-22.134546
-21.376798
6.707265
-20.643038
-19.934258
6.940342
-19.108228
-18.418575
7.065785
-17.698821
-17.053696
7.224028
-16.256267
7.376785
-15.234801
7.521195
-13.947400
7.659080
-12.659154
7.771585
-11.410533
7.884706
-10.176897
7.950337
-9.024392
8.024289
-7.905097
8.079383
-6.965689
8.119748
-5.694847
8.156165
-4.674789
8.179881
8.168563
-3.675758
8.161736
8.122013
-2.744812
8.110356
8.055443
-1.845114
8.085167
8.019157
-0.818220
7.927636
7.981215
-0.173837
7.874262
7.784105
0.564505
7.633048
7.706901
1.295609
7.547756
1.877173
7.402088
2.616150
7.191648
3.241153
6.976239
3.773666
6.672633
4.315754
6.383097
4.793783
6.035468
5.745710
5.236227
SCALARS strain_3 float
LOOKUP_TABLE default
3.166132
2.027077
-2.147094
8.273852
-7.684128
13.167670
-13.415117
17.833408
-19.367354
22.283944
-25.518833
26.513614
-31.863164
30.514555
-38.400050
34.304059
-45.127261
37.862273
-52.036195
41.209932
-59.117781
44.328875
-66.372230
47.231778
-73.783870
49.922471
-81.362419
52.396022
-89.083931
54.665813
-96.944938
56.722259
-104.935156
58.561138
-113.048951
60.213682
-121.277951
61.666368
-129.622649
62.919657
-138.064921
63.989088
-146.575198
64.877306
-155.163696
65.575947
-163.821122
66.098633
-172.530091
66.462129
-181.278391
66.660308
-190.070860
66.706748
-198.876973
66.581148
-207.695723
66.333739
-216.503411
65.934183
-225.303180
65.397550
-234.070851
64.752105
-242.808833
-251.485380
63.984621
-260.112420
63.088666
-268.655526
62.106703
-277.120539
61.021298
-285.484265
59.837067
-293.734215
58.565635
-301.866741
57.224044
-309.863986
55.814906
-317.722292
54.341108
-325.417964
52.811847
-332.942691
51.233664
-340.293053
49.610169
-347.455867
47.942029
-354.407427
-361.154339
46.258251
44.542909
-367.678544
42.812313
-373.969516
41.069816
-380.024358
39.322925
-385.832796
37.583064
-391.376040
35.842834
-396.658494
34.120995
-401.667457
32.404065
-406.402459
30.716420
-410.827855
29.063845
-414.980045
27.435564
-418.821191
25.838109
-422.371081
24.283626
-425.588696
22.770608
-428.518745
21.308267
-431.112662
19.899252
-433.394363
18.539093
-435.345340
17.237768
15.987638
-436.979518
14.798460
-438.273237
13.677961
-439.252631
12.621002
-439.890631
11.619958
-440.206538
10.694070
-440.189403
9.837920
-439.857790
9.044620
-439.183424
8.320745
-438.189020
7.661581
-436.885600
7.071762
-435.264408
6.545613
-433.323994
6.099946
-431.073192
5.703949
-428.525471
5.383244
-425.680842
5.127275
-422.533245
4.929668
-419.115182
4.795504
-415.412301
4.712810
-411.431454
4.693752
-407.189049
4.733401
-402.701963
4.827592
-397.962690
4.968481
-392.983929
5.165308
-387.776740
5.403171
-382.345781
5.691546
-376.705019
6.013578
-370.871346
6.369475
-364.834555
6.778997
-358.626196
7.215502
-352.247991
7.686061
-345.706862
8.180640
-339.026498
8.703138
-332.195982
9.249114
-325.247576
9.820530
-318.179643
10.410288
-311.015903
11.006394
-303.742749
11.622524
-296.400995
12.259152
-288.982890
12.895280
-281.506315
13.537475
-273.984487
14.188912
-266.420655
14.840784
-258.819984
15.489679
-251.219394
16.143155
-243.601101
16.794856
-235.985198
17.426491
-228.382725
18.060733
-220.809366
18.679056
-213.253712
19.288043
-205.752920
19.895004
-198.291421
20.479212
-190.888548
21.042865
-183.552181
21.588404
-176.282857
22.125605
-169.109195
22.630801
-162.003441
23.122299
-155.001281
23.581578
-148.111825
24.023760
-141.318028
24.426911
-134.641226
24.813736
-128.077291
25.161062
-121.646097
25.491594
-115.336921
25.779492
-109.157415
26.030620
-103.116167
26.252579
-97.220802
26.436591
-91.458689
26.580487
-85.846008
26.684775
-80.386482
26.752901
-75.065256
26.763146
-69.905373
26.733132
-64.889767
26.659446
-60.037317
26.529444
-55.326346
26.358034
-50.775225
26.123037
-46.380335
25.835224
-42.138830
25.485130
-38.049031
25.083250
-34.107857
24.604018
-30.328022
24.064789
-26.684451
23.462661
-23.199915
22.777179
-19.868108
22.027892
-16.663203
21.200201
-13.611399
20.281212
-10.694160
19.288294
-7.920369
18.201220
-5.282233
17.030789
-2.769085
15.760677
-0.387314
14.400946
1.863270
12.932596
4.000199
11.362739
6.019506
9.691184
7.907255
-3.347725
7.189105
-8.936250
12.125338
-14.734043
16.848936
-20.737632
21.346166
-26.948685
25.625258
-33.348351
29.670071
-39.946835
33.493473
-46.735805
37.095172
-53.696419
40.473390
-60.831295
43.640050
-68.144566
46.575806
-75.609304
49.295971
-83.220622
51.787301
-90.982361
54.076116
-98.883246
56.145021
-106.909112
58.019091
-115.049875
59.683889
-123.298467
61.152266
-131.644550
62.414896
-140.085423
63.485382
-148.597865
64.381992
-157.187448
65.097555
-165.826790
65.620800
-174.501951
65.988036
-183.210724
66.195054
-191.950868
66.232280
-200.684514
66.120136
-209.423375
65.866868
-218.143486
65.478029
-226.839468
64.949662
-235.499328
64.297796
-244.098623
63.527505
-252.653213
62.645819
-261.104738
61.661939
-269.481484
60.583157
-277.747320
59.419135
-285.897102
58.155915
-293.926182
56.834673
-301.818668
55.440709
-309.564051
53.986886
-317.142080
52.468253
-324.539300
50.917983
-331.761310
49.325002
-338.782748
47.702935
-345.598444
46.042697
-352.188660
44.369116
-358.555314
42.681186
-364.676204
40.986392
-370.563067
39.282941
-376.179248
37.604009
-381.540170
35.908757
-386.620178
34.246930
-391.425150
32.603354
-395.935568
30.975020
-400.157042
29.395346
-404.071027
27.831061
-407.677798
26.321160
-410.971238
24.852184
-413.949425
23.423072
-416.616289
22.041106
-418.939847
20.713790
-420.956264
19.448884
-422.626480
18.226576
-423.975667
17.077567
-424.984822
15.990594
-425.665419
14.954371
-426.018966
14.005214
-426.024474
13.101352
-425.715920
12.265677
-425.063295
11.501065
-424.097383
10.804553
-422.795035
10.180729
-421.167507
9.616850
-419.237052
9.127307
-416.993438
8.704208
-414.441102
8.338752
-411.600087
8.027966
-408.442123
7.793053
-405.010216
7.627860
-401.291713
7.516737
-397.310552
7.454273
-393.055340
7.453627
-388.538539
7.503045
-383.784612
7.608118
-378.788482
7.766114
-373.570201
7.968710
-368.110294
8.213446
-362.467166
8.505408
-356.611299
8.833599
-350.574005
9.202862
-344.343863
9.604408
-337.956308
10.037707
-331.413352
10.497853
-324.722846
10.993143
-317.910232
11.505234
-310.966053
12.038277
-303.908906
12.592250
-296.752547
13.160527
-289.509215
13.744101
-282.197287
14.340254
-274.814147
14.953615
-267.379598
15.559531
-259.908856
16.172883
-252.395856
16.786570
-244.860922
17.402567
-237.322429
18.022296
-229.780406
18.618447
-222.250319
19.237388
-214.745189
19.815874
-207.256990
20.407161
-199.822416
20.976055
-192.420036
21.536759
-185.089934
22.074842
-177.820482
22.594957
-170.622205
23.100551
-163.499812
23.589413
-156.475351
24.041290
-149.536178
24.485990
-142.707036
24.891297
-135.983327
25.276513
-129.380049
25.633338
-122.887712
25.956922
-116.528608
26.249961
-110.289606
26.513197
-104.195902
26.725662
-98.227075
26.918393
-92.407345
27.068204
-86.734821
27.174402
-81.207849
27.246513
-75.821876
27.263326
-70.593311
27.241730
-65.519285
27.166841
-60.597179
27.046252
-55.832406
26.868283
-51.217974
26.644206
-46.754660
26.353055
-42.454985
26.006806
-38.307032
25.596268
-34.323343
25.123380
-30.483930
24.584312
-26.792771
23.971255
-23.259938
23.296460
-19.867653
22.535824
-16.627210
21.699604
-13.531106
20.775665
-10.575496
19.770862
-7.766521
18.680623
-5.079838
17.489120
-2.535514
16.218849
-0.129224
14.831283
2.158289
13.359432
4.320119
11.777215
10.087860
6.355718
8.272628
-1.134760
5.189983
-5.689934
10.217189
-11.206994
15.015390
-17.035824
19.604290
-23.111385
23.963118
-29.342903
28.099132
-35.551899
-40.667157
32.398730
-47.452739
-44.082332
35.766812
-54.465604
-51.177031
39.176519
-58.155039
-61.783398
42.321769
-65.493393
-69.229706
44.849142
-76.619891
-72.748484
48.278168
-80.363954
-84.335160
50.874676
-92.697571
-88.012524
53.255241
-98.353684
55.422747
-105.977869
57.386169
-114.049625
59.478661
-122.265839
60.745636
-130.620888
62.070427
-138.987512
63.224373
-147.249318
64.203253
-154.370624
64.988363
-164.835889
65.616636
-173.502259
66.061777
66.285473
-182.235699
66.452707
66.384840
-190.996895
66.450313
66.464480
-199.768030
66.315380
66.396907
66.171345
66.014252
-210.478959
65.819824
65.590609
-218.510190
65.330717
65.008709
-227.371280
64.695346
64.276383
-236.340484
63.705999
-247.707709
62.845202
-262.286891
61.883789
-269.045252
60.789627
-275.769281
59.629560
-285.694299
58.414638
-293.838596
57.311870
-301.858092
55.635739
-311.181483
54.171445
-317.650788
52.649941
-324.985017
50.732982
-332.326670
49.475076
-339.524305
48.158484
-346.538694
-353.003803
-358.175281
45.188042
-364.607753
-361.440785
42.985977
-371.045336
-367.745894
41.184998
-373.823753
-376.797569
39.484660
-379.520465
-382.569858
37.953366
-384.951544
-387.795523
35.878550
-390.215210
-393.060838
34.184044
-395.161701
-398.384372
32.508310
-401.396042
30.853513
-405.451849
29.226166
-409.420115
27.321708
-413.148426
26.039419
-416.586459
24.565777
-419.662919
23.098151
-422.376725
21.685355
-424.475423
20.305343
-427.137652
19.005016
-428.949855
17.793185
16.811440
-430.448169
16.257686
15.678972
-431.603522
15.121131
14.520202
-432.424993
14.047565
13.535895
-433.079275
13.039911
12.537388
-433.056299
11.658523
12.141305
-432.871383
11.310072
10.835452
-432.462014
9.992683
10.511699
-431.789079
9.541593
-430.462769
8.922750
-429.000241
8.374776
-427.222120
7.845480
-425.131343
7.425020
-422.736999
7.061377
-420.033986
6.793383
-416.440310
6.476112
-413.601649
6.294029
-410.192876
6.169817
-406.291560
6.104100
-402.230147
6.090474
-397.949491
6.140160
-393.527972
-390.365519
6.240090
-387.005456
-384.666638
6.393894
-381.718012
-379.334545
6.578601
-374.031124
-376.410762
6.815328
-370.978960
-368.189523
7.031070
-362.430548
-365.262609
7.445402
-359.065944
-356.167800
7.805326
-349.675657
-352.844117
8.200755
-344.876437
8.646777
-338.567979
9.109232
-331.795194
9.714676
-324.996362
10.142983
-318.081564
10.679922
-311.011973
11.227707
-304.048552
11.807352
-298.057159
12.379044
-289.256294
13.004431
-281.869482
13.579446
13.985645
-274.402453
14.414098
14.692996
-266.906556
15.062424
15.349176
-259.365710
15.691551
15.957305
-250.226672
16.301685
16.603698
-243.967849
16.925933
17.213199
-236.596007
17.589537
17.879367
-229.097952
18.209923
18.485364
-221.753781
18.978013
-215.667429
19.552283
-204.989149
20.144206
-199.000824
20.726464
-193.102949
21.287358
-184.307756
21.821980
-177.038487
22.263351
-169.853123
22.870200
-161.205876
23.353633
-155.458087
23.813340
-148.751223
24.340849
-141.995131
24.663226
-135.303189
24.977954
-128.800665
25.454843
-122.626880
25.669472
-118.082883
-114.410430
26.069034
-111.555722
-108.139285
26.282142
-105.140922
-102.180668
26.485206
-99.207183
-96.347848
26.637484
-93.390870
-90.666416
26.825792
-87.544107
-84.833074
26.927216
-82.081033
-79.517848
26.995365
-76.502245
27.015831
-72.554345
26.992320
-67.648723
26.893230
-62.724044
26.783886
-57.924222
26.612112
-53.272993
26.380957
-48.794536
26.093855
-44.566353
25.744672
-41.070557
25.332059
-36.178749
24.876315
-32.289545
24.500584
24.188060
-28.557831
23.899565
23.557971
-24.968525
23.208605
22.849090
-21.525582
22.478855
22.085566
-17.569414
21.219427
21.661166
-14.981045
20.746817
20.283786
-12.081714
19.247349
19.776101
-9.287768
18.635006
-6.870895
17.798085
-3.898792
16.624018
-1.437339
15.314767
0.885560
13.893566
3.097021
12.385768
5.185055
10.799275
9.364871
7.152447
SCALARS stress_1 float
LOOKUP_TABLE default
-33027907.369421
-21522178.594062
21537473.056724
-85437845.876312
78077615.746403
-134915896.995961
137076469.763105
-182560147.634770
198600875.653896
-227527670.684088
262404748.841600
-270564200.301000
328038019.311161
-310819073.032572
395934897.391807
-349046442.863751
466145480.724200
-384911873.420145
538456583.809708
-418268267.608158
612557628.461135
-449469675.959801
688890658.101304
-478541033.381478
766743230.887301
-504992255.498797
847262488.976210
-530143558.858825
928981153.056595
-552381609.446509
1012433007.675520
-572789642.543178
1097698605.865828
-590877801.602300
1184589890.533922
-607129773.530279
1272804150.915429
-621621080.859126
1362397688.620368
-633771265.057366
1453353926.150104
-644172400.312731
1545975870.755321
-652620176.610166
1639296314.030982
-659370665.058860
1733404684.493509
-664367826.205880
1828939992.472125
-667966394.066817
1924467139.921131
-669683171.720215
2021125304.825472
-669709639.915926
2118740729.311587
-668628148.466757
2216657956.630158
-666047600.481895
2314179755.469748
-662076383.242671
2412436525.081037
-656912996.030412
2510762987.590466
-650363177.782170
2609060514.420859
2707343991.526514
-642239002.482887
2805244226.502394
-633191158.538138
2902440461.130658
-623621412.854325
2998726984.099866
-613090234.353442
3095093757.192179
-601312304.331873
3190409732.002558
-588864127.539472
3284771355.578901
-575632548.351165
3378047231.344031
-561554736.610404
3470022054.690124
-547042052.519976
3560555878.133602
-531793870.095471
3649237375.800903
-516369820.101799
3736614141.474185
-499911047.086026
3822585330.717768
-483756008.547323
3906331874.610192
3988014485.981514
-467439292.860618
-450340654.962958
4067468510.269610
-433116987.229271
4145069412.507323
-416238395.158727
4219897472.836146
-398764917.860516
4292246691.944641
-381526522.099545
4362483625.052844
-364280153.719267
4429623147.380792
-347175256.750327
4493827600.882783
-330427170.129774
4555701564.434575
-313718393.888255
4613858049.600483
-297190897.869220
4669164007.084125
-280748593.931177
4721117412.277675
-264958849.183313
4770240696.229032
-249571100.952659
4816122760.892494
-234546149.442003
4858163374.409554
-219878964.150514
4896875733.438129
-205186509.108838
4931948086.322497
-191873592.378270
4963466472.252050
-178941735.599472
-165829894.661599
4991798716.664666
-153898756.126770
5015909956.046120
-142676704.400561
5036445273.616446
-132083676.435073
5053017429.517140
-121827107.167357
5066607606.796098
-112343975.190180
5075819907.204832
-103759963.096310
5081259724.181221
-95405901.650657
5083045864.914655
-88176347.977463
5081079210.843010
-81329806.138023
5075340119.717802
-75031158.522316
5065809991.680521
-69840850.457374
5052814649.779067
-65515337.801703
5035966267.420669
-61410027.320211
5015360118.184700
-57829879.965002
4991167419.509038
-55220880.890966
4963605282.583075
-52928843.566627
4931853333.938283
-52112912.802596
4897333364.419775
-51201039.160994
4859085053.075446
-51097373.062449
4817605537.140388
-51706413.099729
4772884408.756095
-53243008.224938
4725196806.595536
-55316158.296582
4674148472.268730
-57396641.563149
4620439941.714383
-60533848.586760
4563242193.808252
-63757004.178026
4503617613.785429
-68213802.899068
4441383175.053145
-72318254.998374
4376880139.018633
-77841689.428047
4309450798.744843
-82680978.046594
4239502897.279671
-88632253.633979
4167802962.217545
-95149323.704425
4093514594.996342
-101143466.820057
4017837815.726911
-108732291.791482
3939706718.768586
-115753566.274421
3860354320.060075
-123070349.610959
3778459719.570732
-130840505.659602
3695969451.801385
-139106492.466051
3611964252.549249
-147616214.982410
3526735644.487293
-156167185.816502
3440052132.506327
-164539622.264711
3352607820.747847
-173399616.762719
3264236163.368400
-182822526.434771
3175598724.337339
-191245177.326568
3085972260.717618
-200389974.218074
2995756192.478588
-209996857.889250
2905701477.776800
-218829747.651538
2815101029.847343
-228340843.363441
2724345945.581030
-237302711.992120
2634014695.478690
-246543560.099696
2543278355.165396
-255697874.856113
2453174961.704099
-264896597.182830
2363154118.719871
-273413179.515529
2273966328.713543
-282190972.072051
2185413679.138048
-291051476.725958
2097165915.228477
-298995952.960829
2009949646.969238
-307411161.384486
1923861418.157544
-314872018.574106
1838087514.949945
-322535453.481794
1754100964.971514
-330131682.512585
1671005775.472398
-336801815.884321
1588587553.156210
-343415116.908441
1508023109.100960
-349743479.802787
1429025364.400242
-355214016.972394
1351263118.648485
-360794882.462965
1274899721.860743
-365757312.851675
1200113051.099967
-370217722.012086
1126827487.084829
-373889486.693514
1055532658.533999
-378141582.207400
986029838.338287
-380770457.303059
917744868.684890
-382662573.854053
851518460.823952
-384382689.875436
786916307.676932
-385129487.412910
724116155.228238
-385558292.137249
663501722.930804
-385071771.532031
604415531.675439
-383908046.002295
547438723.477198
-381616652.297356
492315096.148351
-378697495.915849
439403924.220372
-374897667.247756
387843253.161250
-370249541.057447
338370004.064582
-364400502.438522
290638449.476898
-358138350.358138
244818730.116869
-350216596.269228
201352723.999550
-341201399.483231
159354390.577874
-331813393.843062
118936982.226231
-320913629.191635
80878380.038218
-308502430.106128
44619733.481824
-294996870.773734
9464363.650645
-280184152.693089
-23491437.080928
-264243554.223527
-54633182.697839
-246773633.035823
-84060481.747157
-228036043.145032
-112125852.385967
-207842693.128330
-138027327.505616
-186380694.438651
-163510162.012507
33186330.420734
-74489420.534714
91045033.760357
-124840059.198972
151014396.316155
-173131281.665378
213284138.635194
-218815072.825280
277886248.484580
-261917672.132149
344199438.411378
-303045190.836665
412690914.572674
-341519356.392301
483614304.391292
-377979406.956140
556683377.852176
-411640573.981652
631497348.018815
-443707799.281642
708579591.579769
-472895787.747458
787235451.988508
-500328734.660429
868249863.199331
-525302976.911903
950730518.275726
-547844622.876806
1034718867.202637
-568380505.446487
1120467363.934365
-586609184.074414
1208010212.096517
-603293460.401252
1296731154.736992
-617886492.786874
1386975235.825679
-630414389.606206
1478307595.878999
-640444638.312718
1570554835.929794
-649165568.891354
1664143429.963009
-656367481.919829
1758335545.573606
-661092403.383088
1853523259.622289
-664702096.562459
1949484932.453336
-666813656.567132
2045965831.833853
-666797603.944174
2142859365.014521
-665590076.881316
2240016577.949639
-662857550.315608
2337649910.234172
-658961321.138397
2435242810.212399
-653756508.114592
2532613686.917163
-647147057.431924
2629630101.381305
-639576641.637460
2726815885.949104
-630826651.496109
2822932322.747001
-621005018.633481
2918536143.197819
-610253222.908081
3013740765.083715
-598614833.414045
3108101866.703271
-586288218.354158
3201168432.400765
-573268706.133994
3293054011.036901
-559655905.300620
3383871564.738114
-545100265.697486
3473037604.552305
-530505840.995905
3560960363.512312
-514726924.664400
3646934646.134558
-498938265.280685
3730719170.514835
-483395347.219686
3812887866.638088
-466781833.246313
3893183524.255829
-449911437.204016
3970958650.790882
-433596340.561320
4046195005.291143
-416947135.723798
4119373016.414527
-400065647.097023
4189607623.583857
-383534680.149519
4257706804.378504
-366816724.380457
4322342543.487031
-349872938.899027
4384470405.567351
-333860383.735874
4443392213.667362
-317660503.124432
4499049125.741362
-301798758.533225
4551766737.009387
-286351811.633563
4601452719.612932
-271281863.924618
4647457951.850575
-256410907.264895
4690263545.863812
-242487934.059968
4729408078.138416
-228621776.512624
4765103270.456546
-215021666.339874
4796845924.741855
-202393420.088785
4824979062.604359
-190043976.007846
4849762156.529836
-178548893.206244
4870159984.097654
-167255027.542488
4887326347.089975
-156821356.171465
4900578279.086171
-146889550.202367
4910642783.306275
-138068489.149417
4915878429.329664
-129590471.949666
4917668036.032090
-122401195.758002
4915689443.899330
-115036508.432933
4909989002.338614
-108473832.739366
4900465735.835718
-103117379.270070
4886757208.359995
-97772972.977149
4869450572.397218
-93755082.094035
4849116237.526762
-89664731.572832
4824384738.452240
-87077815.834168
4796694022.190904
-84964130.908689
4764379124.712108
-83360289.779146
4729525975.595222
-82054701.741922
4691264365.888143
-82246429.217645
4649025299.357438
-82193247.720542
4603970183.051005
-83134137.281257
4555776726.376075
-84588441.414018
4504163826.567739
-86624498.711591
4449727283.767490
-89687348.688204
4392094840.820439
-92926652.468098
4332451990.789537
-96066912.471903
4269649182.160560
-100388165.479582
4204437959.824317
-105344577.911762
4136388722.625918
-110552395.986286
4066605174.706858
-116071994.123781
3994323340.957946
-121914235.838473
3920318203.130696
-128588067.520343
3843572648.678041
-135007439.245740
3765605957.882967
-142132085.232503
3685375986.542690
-149374852.994859
3604263662.251636
-157065638.391315
3521472145.151297
-164977019.123289
3437006465.742505
-173086635.049290
3351961418.353947
-181167194.949279
3265582165.517099
-189605220.868959
3178594046.998530
-198140425.760432
3090323330.767591
-206939548.965784
3002185113.715096
-215479213.796454
2913103082.341870
-224565266.673071
2823755999.179392
-232870928.172810
2733738935.822088
-242414329.637757
2644047795.864386
-250518544.020015
2554394685.837759
-260051095.896762
2465145539.898757
-268639563.516486
2375429431.282473
-277430336.894240
2287137179.613977
-285722617.934232
2198135572.315559
-294131490.120042
2110004491.918692
-302338832.418828
2022970380.752067
-310190853.782693
1936211332.972231
-318655936.085198
1851110492.032118
-325588914.465643
1766836945.526154
-333054628.579746
1683077637.251554
-339785272.128929
1600919494.114182
-346634083.331032
1519704940.255533
-352593770.763232
1440104284.049996
-358591756.299090
1361983878.732665
-363989519.594327
1285309651.756470
-369083339.616099
1209604216.933681
-373546903.331567
1136265831.499389
-377855802.396448
1064228686.562246
-380904669.215780
993351171.185205
-384095833.835264
924900795.180532
-386159633.004216
857950558.001160
-388227342.955534
792826020.537902
-389054235.344936
729623595.509427
-389321385.311722
668293640.930790
-388816353.260927
608988512.224279
-387833561.207607
551076935.404947
-385809128.118920
495450175.019325
-382743737.478445
441606986.692486
-378964089.316292
389447044.064559
-374627688.584565
339985209.494879
-369053163.657653
291515883.529975
-362651612.581258
245389897.278502
-354513233.370435
201114198.365530
-346046428.961696
158679745.899714
-335991129.400742
118092840.599724
-325525319.234104
79385401.574212
-313019701.773219
42753319.010373
-299473079.954602
7580529.454738
-284491747.793305
-25805549.249779
-268583933.866507
-57406580.556647
-251356160.017122
-87361731.716550
-232192721.698082
-115394138.182956
-211839871.142284
-190427375.802661
-142028936.847213
-167159762.787865
11138017.419869
-53824195.050592
57687616.993996
-105139941.651489
114197793.200556
-154021297.006639
174380537.854556
-200945060.569510
237898848.042309
-245312305.028664
301992809.057414
-287100345.665430
366830425.392156
419795401.650888
-330225748.140933
490618949.914851
455478191.887261
-364308115.898359
564056463.564453
530054836.120888
-398586508.038408
603097627.983376
640997308.846494
-429799734.699169
680193920.990478
719411703.840410
-455537736.621737
797815327.428938
756509476.284544
-489826413.591676
837254810.981640
879272557.727984
-515273654.798923
967697758.522550
918502541.206025
-539018657.937441
1028330360.729693
-560381749.164315
1109899004.648702
-580422043.416595
1196564668.215753
-600570820.541471
1284682373.103369
-613210571.990733
1374578204.237942
-626076888.079083
1465196975.752702
-637323291.494666
1554591033.298343
-647236356.826290
1631855496.696261
-654918589.639519
1746249627.478158
-660613058.312776
1840939799.080854
-664696770.483944
-666869503.941360
1937482049.119487
-668660570.185629
-667826168.582029
2033329577.332663
-668135712.017691
-668517349.658766
2130676797.330399
-666511998.016459
-667486636.343684
-665090508.190176
-663175558.382891
2249715075.787265
-661751743.677672
-658811118.794527
2339387220.237963
-656959066.876235
-653435773.004396
2438527053.910819
-650412990.844623
-646346194.863585
2539190527.342071
-640327604.973184
2667241590.753881
-631909094.885107
2833324630.783566
-622174535.358985
2910446591.359092
-611606445.643890
2987489185.274187
-599996804.309261
3101662596.928996
-588207722.624850
3195766971.081540
-577196769.249523
3289327898.547114
-560593488.824814
3398070330.055322
-546506018.805893
3474138336.773697
-531356088.265700
3560903024.300575
-512068187.561461
3647970058.078529
-499444951.828679
3733836337.279288
-486776943.270056
3817909473.442348
3896132219.659127
3958328685.978891
-457495451.726230
4037482060.443496
3999063718.219833
-435681691.987014
4116411730.598335
4076504810.453966
-417915031.921347
4151319665.789832
4188628313.174993
-401052046.403761
4222559868.493017
4260575912.496939
-385802873.080696
4291539879.629975
4327084552.181843
-366139945.663822
4357951940.835562
4393909602.714460
-348603538.899366
4421624438.726013
4462516230.163963
-332465631.030364
4502246771.161781
-315613631.697480
4556237462.615495
-299378393.134149
4609557620.243576
-280741517.489916
4660355040.733414
-267678278.225839
4707464435.979984
-253150027.213936
4751439019.674307
-238213771.219915
4790988008.453153
-223887118.829081
4822556596.811885
-210553024.374163
4863712202.443237
-197526785.220078
4893840709.432864
-184792970.768139
-174964810.843860
4919979347.594113
-169458213.318960
-163534897.950949
4942864485.615549
-158089929.078934
-151757036.602826
4961665928.904400
-147333098.227221
-142105859.027836
4980383080.878543
-136864454.007850
-131689437.443803
4988142414.508324
-122837077.101990
-128233732.746016
4994733760.168002
-119372127.097587
-114717818.604507
4999347224.118357
-105832563.528785
-111321080.681826
4999090138.524470
-101249695.640638
4995167831.602193
-94789088.778993
4987291055.076729
-89423167.206373
4976269498.327755
-83927311.455065
4960905044.575307
-79711760.304731
4942006354.882337
-75743091.993031
4919505221.734619
-73507375.476048
4887854813.504413
-70198079.448553
4862180335.780871
-68458280.264265
4830472156.115785
-67106345.957235
4793423495.745786
-66922383.709682
4754055014.661135
-66860164.458657
4711888484.448279
-68019500.984121
4667464179.749821
4635766190.568320
-69215889.457348
4600393305.553138
4576306035.014592
-70868964.980723
4545419681.413489
4521164440.211740
-73561891.259867
4465693868.919620
4490045506.947305
-76533783.576080
4432806650.454759
4403263475.760610
-79269740.822592
4342164629.941003
4371804610.236573
-84120158.286328
4305136315.318129
4273722424.176365
-88846138.997476
4203378564.979105
4237469949.999301
-94010408.976041
4150296683.473240
-99353626.814791
4080946175.775169
-105458335.825165
4005853814.555743
-113305764.098556
3929781466.965233
-118725565.835080
3852202851.588963
-125517620.237917
3772263015.067100
-132794103.924034
3693175664.843912
-140544681.536554
3625138104.107988
-148039802.327070
3523893251.752222
-156226427.672050
3438981866.315553
-164279036.818452
-169550032.800517
3352393481.648436
-175684844.091988
-179017271.098575
3265394109.517438
-184078752.319186
-188065885.363130
3177073492.281895
-192743723.197030
-196426340.788763
3069646558.384734
-201491401.549036
-205185074.929165
2995913468.917499
-210228976.958759
-214685711.073499
2908612761.846997
-219752563.749047
-224365765.773449
2819547559.584295
-228850640.055805
-233263121.426328
2732098371.057249
-240440610.764340
2659068692.141536
-248788785.397061
2530455961.888128
-257693967.832868
2458378753.156544
-266540642.492322
2387131961.182968
-275330814.227423
2279934690.883773
-283680874.165752
2191824461.423965
-291010852.421620
2103618427.442886
-300783599.929042
1997388400.919961
-309041040.463468
1926601707.381636
-316583002.310924
1843792216.489407
-325576764.418107
1760121963.992322
-331310051.364171
1676950693.317796
-336841004.165493
1595690989.401192
-345646811.485458
1518773102.074250
-350065035.626953
1461664567.529505
1415566376.576294
-358417815.998516
1379463786.440814
1336507794.559268
-362459946.027595
1298659954.958447
1261495086.642903
-367467829.697773
1224309352.871276
1187607851.541261
-370831243.314803
1150490082.696184
1115583334.423666
-375700242.712326
1075848326.183045
1041261900.116346
-379155582.714590
1006278123.729002
973354622.010272
-382291990.501415
934475393.908973
-384414188.462781
884589723.030988
-386039052.831586
821487532.290038
-387125854.078189
757960290.992928
-387398670.680271
696445179.980765
-386854851.635995
636294887.345410
-385532364.378143
577808494.219625
-383745938.829577
523478949.717458
-381009226.372620
477924591.159544
-376962210.211003
414210758.034667
-372688256.091063
363475039.782388
-368596122.279922
-365289058.325230
314758860.555513
-361974280.432659
-358381975.065037
267797729.416995
-354340158.268725
-350620833.102906
223025560.209749
-345884501.309515
-341291256.461301
171128855.575309
-331413697.241371
-336643966.039793
137229161.925065
-325770461.265576
-319787855.757548
99098953.592993
-307167163.726561
-313755213.153782
62164683.333949
-299904662.582029
30684335.491970
-289477167.628414
-8192283.716497
-274799368.348652
-40543140.353263
-258448382.980669
-71041631.537088
-240056552.700257
-100020062.056454
-220465042.853197
-127033327.730438
-200155324.876753
-181519617.536059
-152478738.331335
SCALARS stress_2 float
LOOKUP_TABLE default
13920368.794599
10297478.905624
-4982855.292257
31514786.343445
-25587222.030674
47701013.069599
-47153923.363394
62765552.916125
-70542911.062834
76117493.768991
-95179209.242383
88763139.627875
-121700921.844943
100268106.265192
-149639352.926968
110606945.623846
-178863438.317811
119295465.476093
-209788778.130700
127373833.764996
-242693468.251763
134439562.205874
-276691236.794389
140041874.741792
-312337827.758255
145842883.145005
-350098873.143041
149696075.187930
-389325445.175847
152976834.813469
-429345591.629090
155496761.680328
-471524736.843419
157222663.503987
-515403912.761900
159022676.227509
-560743583.384049
158946023.566216
-607788404.937128
159106689.292683
-655929977.534365
158414937.008679
-706142053.232375
156820742.657109
-757374080.201321
155520593.839902
-810239138.611530
153318250.329474
-864268532.519454
150672703.670819
-919673270.265906
147763521.863777
-976313215.793789
144992576.339629
-1034603737.500689
141024138.984505
-1093831035.443220
137710057.400333
-1153755781.848484
133559403.245820
-1215392688.773094
129268512.179670
-1277641604.614638
125010311.747038
-1340713985.486505
-1405386087.729506
120996921.890827
-1469575167.513807
116303989.928769
-1535688129.123444
111512931.803929
-1601773516.785517
107025179.004364
-1668173850.784064
102300947.245877
-1735141107.289249
97643803.959750
-1802739054.698819
92865564.861624
-1869606285.126165
88671421.439719
-1937517815.082584
84062621.352900
-2005014148.738402
79588268.146162
-2072830142.491207
75053089.307883
-2139596188.625034
71333420.610482
-2207013135.707957
66948069.428625
-2273187975.739816
-2339690261.402394
62872115.477955
59008150.303627
-2405093920.866179
55380981.621281
-2469429082.471822
51746408.805586
-2533136562.674006
47916471.458473
-2595460937.699832
44547865.068321
-2657620608.003824
41567541.123348
-2717974966.040504
38567011.225646
-2776710444.150684
35735586.920370
-2834448306.675338
32861387.809611
-2890530106.182538
30436613.381588
-2945290826.956483
27823839.181616
-2997949581.508470
25637920.811625
-3048815898.236248
23692441.589509
-3097805873.480629
21775081.174134
-3144754115.696297
19936550.940169
-3189575833.508261
17768362.489704
-3231778627.030071
16280355.026922
-3271776969.114161
15292312.381175
13946737.699870
-3309774995.931015
13153606.812521
-3344951076.048870
11546199.036860
-3377303001.922246
10887561.975138
-3407992486.005831
9818719.172512
-3435338400.697370
9029574.060585
-3459985258.678810
8464558.070962
-3481916012.120636
7395918.692023
-3500775085.875282
7193047.582796
-3516799384.113234
6449143.947461
-3530215627.516437
6066431.558757
-3539899960.539576
5670077.734579
-3547529975.580398
5564738.020241
-3551309849.207299
5178307.904124
-3552802038.045449
5430058.988479
-3550768886.265335
4716798.534424
-3545960738.719390
4693758.314538
-3537975739.635035
4799009.476387
-3526426425.751152
4771071.849486
-3512351413.465490
4563008.808664
-3495462647.289669
5159635.785526
-3475758575.678372
4948896.382323
-3452925903.313707
5619894.144371
-3426725958.422935
5741684.389725
-3397893797.801874
5904754.947898
-3366878653.791496
6792360.966458
-3332253782.903423
6955182.274919
-3295934337.706049
7731170.191335
-3256075342.767771
8032556.317958
-3214043966.543432
9007772.200104
-3169486185.430782
9782481.383249
-3122818448.112086
10613067.299160
-3073892634.757833
11393697.777350
-3022534050.220616
13135307.965386
-2969193246.671081
14413369.749718
-2913736928.905046
15894306.505337
-2856385169.320421
17292949.777559
-2797218328.542536
19110995.225572
-2736661718.912527
20932418.451627
-2674148093.112499
23497146.944427
-2610389699.540523
25577268.419773
-2545294874.651282
28101566.309593
-2479272538.956558
30850184.272912
-2412010284.854259
33841489.968921
-2343277840.799232
36479674.943095
-2274286511.189384
40020322.740911
-2204003424.536498
43613225.135268
-2133631469.352192
47259933.671483
-2062285454.034538
51192464.008904
-1991323691.208867
55673623.977046
-1919689181.159537
59887524.894122
-1848257572.341393
64539334.760295
-1775955481.038795
69230733.007491
-1704346019.877073
74430207.351673
-1632970645.083811
79853461.395254
-1562229429.170630
85550966.967908
-1491130900.592536
91394299.558337
-1421026067.690661
96918051.053153
-1351906058.976788
103123413.054606
-1283131666.735276
109242313.392533
-1215751003.534841
115849735.782896
-1148583533.659681
122373999.998595
-1082833457.621738
128988681.755594
-1018025855.477949
135482764.883727
-954257687.910581
142521785.042183
-892168802.976731
149288078.117573
-831791073.131245
156349315.712309
-772411778.715416
163149537.769777
-714587960.070541
169813384.062878
-657934137.594688
176587710.534995
-603441975.401730
182844156.788543
-550160738.060385
189550250.880619
-499098697.570813
195790472.470410
-449256190.388020
201566573.501463
-401378896.739591
207223937.803454
-355064953.023594
212371325.206217
-310954207.297127
217755303.653138
-268874827.958421
221837969.030989
-227654911.234898
226398089.112508
-188819249.411239
229430591.898178
-152089530.544380
232467597.444936
-116974658.918841
234692545.412130
-83679418.875917
236015532.027344
-52671626.472703
237085485.063477
-23263361.936785
237125476.520851
4667390.504093
235546994.399789
30530590.792996
233850710.586900
54833062.645242
231029441.196057
77377982.003897
226847810.114032
98197252.641214
221862865.511471
117150738.500097
215527495.331923
134746135.352963
207981835.632483
150621683.199490
199915550.299763
165202277.925644
189477455.561346
177897879.474490
-9410348.297764
28317228.309883
-29887653.356896
44942507.744044
-52558756.157737
60393845.207945
-76374872.472704
74047560.587555
-101694034.528738
87115645.598352
-128827330.098254
99080908.296951
-156814983.180930
109066380.398834
-187924641.890157
118676381.903676
-219165354.168836
126886488.526960
-252608167.959711
134040332.154812
-287202747.489880
140431736.673200
-323841596.474826
145388973.740829
-361687147.255359
149902187.243665
-401598031.774222
153332632.897350
-442811521.974318
156088822.587851
-486210370.196458
158227676.030648
-530515760.212898
159478865.055094
-576430436.421386
160128469.319733
-624280334.707728
159980112.540206
-673318663.242249
159295514.431993
-724017918.365601
158049226.937999
-776024972.020685
156594409.432729
-829133048.377668
154725389.859087
-883880619.720423
152335687.875779
-940225846.162503
149548639.084734
-997879591.930846
146290307.258368
-1055882297.082067
142798059.998452
-1115255977.956977
138704152.850139
-1176309954.725741
134933193.699397
-1237462291.501909
130945846.034605
-1300111180.626133
126832021.457533
-1363434782.439062
122558743.740596
-1427800857.054249
117922548.372176
-1492199364.869279
113102795.124526
-1557497121.997541
108494251.542964
-1623078184.723073
103916277.172322
-1689636009.500237
99353159.671466
-1755654196.442584
94871778.358128
-1822203697.833988
90512885.004726
-1888839722.072037
85982247.099477
-1955388469.554479
81584088.073827
-2022166788.621964
77130439.700351
-2088362351.444819
73023613.353557
-2153914278.818540
68493792.749088
-2218887234.686029
64992297.375322
-2283671779.729232
60758526.720478
-2347709322.061538
57046304.557135
-2410998094.080695
53570254.203023
-2473207544.411714
50012230.975876
-2533975689.167983
46683978.648271
-2593996632.974672
43398640.594877
-2652359304.058883
40377856.417623
-2710142175.045625
37876689.718601
-2765967222.332646
34987611.758767
-2819742350.260758
32571230.310700
-2872071559.284484
30489400.805842
-2922764881.858509
27875330.618863
-2971450814.437194
25861067.295079
-3017578941.475223
24169426.152221
-3062056143.540832
22063798.849155
-3103996140.918056
20628632.476514
-3144247806.345617
18356390.806715
-3181261748.050776
17355073.157810
-3216149646.601768
16044079.131731
-3248573414.623763
14695296.273793
-3278056372.400798
14032059.845115
-3305177936.558043
13047209.447626
-3329550875.550022
11866056.513092
-3350615918.001905
11456152.586668
-3369215512.254666
10681248.929472
-3384568986.876537
9813233.086820
-3397207046.435916
9451456.547092
-3406660315.501036
9122558.741892
-3413361858.469807
8451475.273472
-3416956987.910461
8447605.402790
-3417328800.448172
8146060.732098
-3414976120.367136
8016000.636224
-3409052292.463009
7870120.717261
-3400612973.133701
7678532.179550
-3388500875.004383
7360202.738895
-3373820150.472803
7941347.770125
-3355487672.278003
7826958.705005
-3335238376.817731
8222371.145626
-3311243672.660383
8482848.523754
-3284624528.317579
8905078.270994
-3255387584.244003
9245731.819111
-3222997921.178537
10235224.827132
-3187888819.576026
10294716.669886
-3150164344.004704
10982894.892851
-3109971494.862642
12351126.870857
-3067373368.888721
12754364.319865
-3022073502.537626
14021638.614706
-2974767760.207426
15008501.187145
-2924847278.580067
16264919.809921
-2873319881.883132
18039749.744312
-2818994627.025990
19032006.706283
-2763361786.349775
21038170.127598
-2705846576.536754
22724495.553573
-2646127958.041611
24741014.529847
-2585416787.489678
26810750.601735
-2522819017.449512
29427431.314714
-2459046904.148534
32265360.327972
-2393648104.325788
34810209.243761
-2327661890.379182
37826705.437071
-2260432446.706788
41521408.680802
-2192163013.933934
44569430.349784
-2123574040.288046
47963538.330627
-2053771254.451389
51804907.998320
-1984342561.106233
55972426.955118
-1913657304.479999
60426671.087629
-1843271285.084469
64875383.713908
-1773002943.431262
69425932.891053
-1702024655.804738
74163773.823567
-1631441438.830389
79548978.341125
-1560908780.735637
84699450.103076
-1491293914.089039
90780220.711672
-1421449279.402377
96499377.769326
-1352653036.903233
102612784.992162
-1284092835.273875
108474154.266630
-1216677314.855438
114545101.138367
-1150349548.103087
120843553.323338
-1084763919.471508
128059174.708151
-1020093325.188444
134678868.895222
-956565805.765516
140785435.770998
-894410945.430308
148388554.994830
-833587984.581050
154566322.226065
-774284003.729363
161547841.351155
-716229754.989279
168089904.199935
-659670102.815645
175128382.431592
-604900159.606690
181656755.989512
-552100357.589998
187915008.646756
-500647649.163640
194346388.289774
-450607554.668910
200215814.634689
-402021906.162905
205934863.511338
-356167752.271117
211217686.976817
-311587789.050644
216329068.690475
-269208136.786005
220762424.481987
-228430547.761560
224724298.465547
-189296622.318763
228175498.243406
-152412560.628262
231575640.043311
-116803938.974577
233484915.524448
-83659685.471740
235526212.743915
-52070256.404111
236382147.758969
-22708483.885724
236374192.228799
5547951.742129
235355314.437925
31354474.365413
233589418.159245
55931259.870255
230897807.450019
77745979.972137
227232202.367342
98804362.670737
222094426.797826
118139327.681534
216018272.741793
135659667.061143
208627116.426825
151209308.525045
199792301.625984
189620532.566853
165770203.959206
178416001.363465
-1001992.377663
21143647.574194
-18123906.547917
38872547.866742
-38659807.761599
54159513.791284
-61446391.635373
68626137.063299
-85893052.601894
81754561.909887
-111453513.250928
93880675.989754
-137842775.183432
-159906722.956428
105751619.750709
-190200981.992331
-175001082.025030
114697443.987006
-221739618.110826
-206810777.740465
123532301.531401
-238905758.213921
-256069886.152118
130710281.036689
-273663817.664298
-291362099.723955
136351655.751894
-327297827.120952
-308127836.922005
142674299.075166
-346563403.807895
-366380590.355862
148106833.857785
-408773892.129106
-384717158.146767
151647136.507216
-438380745.651276
154219591.023137
-478745211.443629
156824516.950704
-522685729.652577
158764546.595229
-568447977.041279
159198721.206920
-615768651.298501
159395831.922855
-664127929.852799
159203161.828163
-712730547.939052
158261123.955085
-755991021.297908
156904381.435588
-819830174.461789
154720472.074744
-874365899.692435
152878272.688475
151331090.903133
-930011169.957268
147709116.403360
149035940.660471
-986497783.832723
144758945.132996
146456392.782320
-1045258237.546061
140852643.862478
142601347.461466
138965123.909948
136907194.854091
-1117831714.146742
135484902.415182
133268818.798971
-1173520396.752034
131605194.299393
129363354.217392
-1235528868.042874
127023212.251011
124352195.012289
-1300190924.009587
121394295.121141
-1382847543.294549
116854954.696835
-1493867553.339670
112040927.237530
-1546023482.865838
107919670.336150
-1598997563.079417
103300037.504875
-1678704240.045728
98988922.874955
-1745507921.940060
94864485.852268
-1812729094.511195
89154948.510440
-1892076571.408512
85175493.457632
-1948269687.414819
80445317.171031
-2013624461.576126
74984016.275457
-2079738741.033634
72043730.032440
-2146719673.044743
68252332.996656
-2212658162.928144
-2275478276.280596
-2325464138.800211
61311258.513804
-2391188863.739727
-2359527196.088505
56563356.821121
-2457343429.491580
-2424132072.866972
52982797.352271
-2487150336.758575
-2519041244.390190
49539917.727054
-2548914978.792519
-2581735113.654860
46397249.785989
-2609465004.349274
-2641166246.811934
42931344.869648
-2669456390.352664
-2701585616.133218
39466359.832251
-2727715256.509640
-2764194849.778458
36915744.159696
-2803159240.574720
33903249.681335
-2855007423.433557
31462851.658127
-2908197424.427520
28533806.647768
-2959589749.121364
26800460.917963
-3009231861.015206
24752264.466899
-3056871155.400556
22686015.760727
-3100588740.054159
20673077.018668
-3137236791.421598
19202157.222800
-3187538237.851976
17521338.961617
-3226273971.803537
16065530.989468
14895748.815748
-3262327694.714963
14732463.584876
13881828.820023
-3296639726.813355
14018747.064216
12937179.233015
-3327725540.667110
12381522.229435
11873535.759534
-3362500031.093272
11601476.574706
10637815.005964
-3382381616.211215
10165943.909774
10456070.466550
-3404580922.462512
9929466.264942
9485380.129707
-3424657878.041835
8782004.323433
8948889.348713
-3439250941.809699
8461923.249860
-3456644525.292346
7829045.570474
-3468178353.469813
7668022.579434
-3476568335.494317
7408941.266715
-3482090791.820378
6944613.619761
-3484302458.902845
6878325.737351
-3483217289.309951
6203538.457521
-3478072801.543287
6200020.648922
-3472706325.198375
6399619.171934
-3463154373.866477
5818160.089467
-3449978205.730713
6177559.763405
-3434224003.994782
6454713.738902
-3416018152.200459
6717365.561435
-3394983823.200790
-3381111210.249888
6614028.681842
-3360260321.774593
-3348876454.074688
6968747.227374
-3331217857.878118
-3318599682.575786
7440394.905628
-3288344820.419220
-3300841101.975657
7438456.480948
-3268862605.650691
-3251609018.332262
8100447.191875
-3215174162.180809
-3232885291.083952
8591852.936199
-3191628331.516318
-3172616344.062302
9577719.082444
-3128907883.743759
-3149385711.921818
10360214.984052
-3094272034.008816
11547324.072625
-3049027995.010498
12501830.121065
-2998233616.871840
13722774.383088
-2947159766.170568
14779596.323248
-2893887312.685687
15980976.543630
-2838102344.709431
17713301.113808
-2782316356.648874
19229927.040152
-2733283878.378679
21182744.603163
-2660223931.389039
22923977.635415
-2597529737.412247
25183958.286835
26356944.943738
-2533908503.890607
28023185.333940
29478784.417276
-2469006191.563162
30887185.784114
31825197.373744
-2402757256.600559
33460760.794804
34685923.956440
-2321203511.042264
36213669.506481
37665830.935435
-2264674452.699285
39738551.538970
41373541.917811
-2197670196.979245
43307896.046709
44886467.246770
-2128542746.997358
46915659.511746
48585902.275106
-2060327333.713967
51666736.743174
-2003139135.573270
55912777.606724
-1902422180.727567
59489724.669683
-1845012193.576462
64693908.241525
-1788145924.472627
69749671.666044
-1702851964.901942
74500526.775988
-1632117437.188543
78627308.181832
-1561664380.241352
85219086.780284
-1475488761.472205
91095130.209149
-1418549576.047121
96700536.314817
-1351653658.278327
104087458.298736
-1283493801.177154
109210815.842773
-1216094018.205590
114181673.608759
-1150569534.543550
122940878.304260
-1087305428.406858
127352349.600559
-1041058456.353976
-1003484032.620759
136784804.429724
-974234483.470302
-939020194.080817
141882039.127276
-908971450.965588
-878659838.847018
148768732.780105
-847925094.864050
-818593796.963252
154289679.185587
-788639114.697366
-760198553.522090
162261509.815150
-728214872.175201
-699946233.161873
169225472.101811
-672486011.287458
-645756801.624998
175817258.226357
-615283134.497828
181972435.961524
-574760114.081303
188668269.080374
-524238103.615385
196160501.566997
-474168740.028582
201322940.208141
-425325556.878435
206744370.235116
-378640190.957060
212124230.053318
-333485898.551874
217447041.423918
-291145785.051864
221374746.928181
-256607226.326140
225639092.399638
-208333244.681615
229294368.178172
-170150462.754048
230960344.041945
232486366.526846
-134179224.238127
233714620.875867
234558398.409594
-100082761.588696
235599412.582641
236133259.649795
-67764082.806078
236499038.586205
236697971.400381
-31259852.642116
236266619.936805
236580103.431746
-7576408.256302
236024024.918233
235157616.034480
18214914.680430
233469630.785794
234123903.753188
42927658.969815
231521719.668113
63728180.701553
228711757.059594
88410276.279334
224725409.277640
108499014.359202
218744601.872508
126672487.487895
212037838.300125
143541823.839282
204475259.896388
158237732.402346
195063923.442337
186086640.533040
171633064.694895
SCALARS stress_3 float
LOOKUP_TABLE default
73851326.022077
46849247.019817
-50349114.234138
192789577.677571
-179844210.294465
306790157.367241
-313984595.343234
415508368.418068
-453243657.759690
519040466.412687
-597300825.675895
617401269.208448
-746080955.347506
710523493.184594
-899418490.233567
798422106.596781
-1057246779.386342
881184690.752928
-1219596723.866571
958507508.980015
-1386180338.328214
1030829765.912942
-1556996538.903335
1098208172.878689
-1731683311.449283
1160386247.185175
-1910230897.823408
1217534273.211645
-2092327400.432489
1269831059.213754
-2278061183.655771
1317126919.296032
-2467029937.103424
1359591505.164703
-2658905348.102426
1397568248.146748
-2853865291.438803
1430791840.877066
-3051393852.590658
1459474310.806227
-3251456396.618731
1483874939.365741
-3453699734.053392
1503853046.811262
-3657827718.628400
1519726041.645627
-3863889051.148839
1531565904.248079
-4071267615.073753
1539328962.448434
-4279938715.084637
1543628833.175366
-4489581447.437145
1544101873.983976
-4699908822.414469
1540984387.528223
-4910682338.546973
1534642934.310943
-5121737554.241441
1525132628.436666
-5332483712.028241
1512402088.009921
-5542904158.190561
1497096551.931849
-5752809392.860467
-5961724160.719453
1478682124.458103
-6169286779.501277
1458057031.940397
-6375489088.285740
1434688161.705708
-6579765237.479621
1409252104.910831
-6781951418.162719
1381502287.404643
-6981726908.068792
1352066298.742242
-7178944764.552356
1320745933.701181
-7373177919.745476
1288021958.509577
-7564221786.206055
1253507902.343288
-7751748232.739177
1217938333.032127
-7935273661.628031
1181262319.875540
-8115101207.952418
1143453539.252772
-8290272469.871935
1104919330.188554
-8460884968.315258
-8626857327.716702
1065649903.460436
1026167617.969558
-8787526327.952673
985954780.493469
-8942784570.633341
945549802.056902
-9092608625.786243
905212747.162690
-9236702979.818157
864876301.110279
-9374805851.685291
824693550.127790
-9506581732.343857
784769693.789383
-9631907622.475346
745274834.996198
-9750595769.832581
706355133.322395
-9862711772.575155
667909722.996096
-9967846844.854200
630453553.989764
-10065870127.227615
593665058.806236
-10156618293.049915
557738734.868548
-10239755351.002596
523009007.352553
-10315855887.113192
489301583.282984
-10384166932.214319
456680702.234000
-10444622649.509373
425356763.353922
-10497265658.380394
395377803.695016
366561156.803906
-10542333858.703800
339291514.804184
-10579524991.710510
313533216.047560
-10608700156.356737
289195635.179519
-10629885074.670012
266227691.101202
-10642973764.004848
244881707.510359
-10648426303.866890
225008600.104742
-10645604050.132544
206819582.183795
-10635041142.183859
190232069.994699
-10616574071.897242
175210702.685775
-10590212358.778337
161493154.778918
-10556104604.854677
149585219.697164
-10514308667.480776
139330103.412979
-10464990014.958881
130218123.225807
-10408461421.192940
122699325.781136
-10344117010.059359
116902822.900305
-10272777640.940191
112205058.033885
-10194255862.384863
109317075.799826
-10108889506.572033
107542224.321720
-10016949422.856218
107001905.695622
-9917995021.937973
107997595.619283
-9812830265.844828
110209292.738188
-9701801329.153753
113324555.024803
-9584253033.342850
117710694.973488
-9461121859.263796
123105236.707835
-9332596886.669413
129703128.845794
-9198630742.260258
137045287.510956
-9059519966.338573
145490833.197682
-8915413643.206614
154654228.551456
-8766878949.963240
164821047.544746
-8614072047.962961
175483023.221341
-8457044982.854071
187098062.350317
-8296240454.512978
198838441.055266
-8131808361.393056
211595427.954137
-7964347834.442039
224713963.843542
-7793353562.511609
238389961.890861
-7619834458.027603
252491204.068560
-7443907469.965292
266862161.695145
-7265770653.148820
281354865.416102
-7085532614.155150
296051022.673526
-6903809832.481451
311269307.316292
-6720603454.155253
326452601.184803
-6536292872.948438
341428208.526238
-6351059609.286845
356802456.659103
-6164881016.269335
372042502.627189
-5979060918.321745
387172559.474287
-5792831829.215957
402447180.793617
-5606580551.652525
417406468.557646
-5420890797.128613
432067709.156203
-5235764826.619491
446668138.712880
-5051523725.347610
460986028.793363
-4868390606.411828
474973010.468976
-4686408027.034595
488719133.580121
-4505905928.191182
501945839.046999
-4327238313.502342
514931924.586421
-4150390577.668632
527251857.393301
-3975603000.860236
539159376.909737
-3803057253.901298
550811215.003663
-3633067194.563697
561789066.320565
-3465298548.069886
571856597.126685
-3300688396.864762
581693712.342222
-3138811571.099452
590809493.560397
-2979769719.617158
599269445.701412
-2824112339.090903
606878195.031506
-2671383571.168975
613889812.869185
-2522469567.595720
620076007.082386
-2376553057.469998
625183095.387918
-2234299822.687278
629678955.255413
-2095556445.143031
633146396.278091
-1960521612.334421
635717423.925582
-1829286701.607488
637072819.914698
-1701838523.407134
637746479.989784
-1578005828.804681
636935707.469345
-1457922401.970317
635084586.894337
-1341983206.524795
632070689.459677
-1229674225.965281
627715025.431603
-1121455628.036120
621838304.279748
-1016740451.305803
614606232.943371
-915947452.323758
605944901.944369
-819087986.455087
595954964.496716
-726088958.372809
584284797.273434
-636723372.370700
570615814.664353
-551140914.344230
555408516.290228
-469211928.037744
538344015.744280
-390864433.071997
519432071.169159
-316092768.139070
498297416.707517
-245036829.911983
475326160.227288
-177347525.755836
450011663.074512
-112943568.343649
422617936.188451
-51925792.367503
392761070.516840
5753538.428258
360516510.600635
60395780.422877
326000360.184179
112007559.473704
288697607.135410
160447563.163374
248675535.075083
206108374.818868
-78531668.134017
167469645.751587
-209319334.240283
282687870.970909
-344889110.881617
392855395.606457
-485624274.437263
497535995.240865
-631023728.242676
596882937.580359
-781159452.677099
691206585.155307
-936005305.597884
780193261.671935
-1095527435.137093
863669368.987592
-1259241097.550382
942017550.808503
-1427086750.022080
1015195581.788628
-1599276782.958967
1083250565.510602
-1775251760.067266
1146024624.078953
-1954839530.028474
1203794237.076318
-2138193542.026918
1256410351.280245
-2324722556.318254
1304378822.273370
-2514590293.583974
1347320437.761917
-2707171631.132001
1385774754.798151
-2902893066.316848
1419214472.415277
-3101055447.649823
1448137705.390845
-3301183187.936011
1472714105.431080
-3503635832.785583
1492999600.791636
-3707764798.454191
1508958379.425919
-3913273938.675596
1520949473.589583
-4120219845.458272
1529036189.387159
-4328012394.005607
1533167295.321481
-4536584663.653056
1533799795.771795
-4745608040.930989
1530726028.169610
-4954934950.520902
1524386431.416066
-5163949758.156549
1515024717.093798
-5372586627.041325
1502360578.502252
-5580639854.785397
1486980977.072937
-5787526906.998933
1468875973.185099
-5993067258.885324
1448305932.138183
-6197088608.727757
1425063523.240108
-6399254000.658300
1399819344.463340
-6599252169.756750
1372627244.566369
-6796722247.907991
1343002448.725049
-6991434558.315413
1312072559.291092
-7183134396.987491
1279671988.643743
-7371354550.207413
1245847327.011121
-7556029995.329692
1210817347.019652
-7736512661.964499
1174515548.119906
-7912908594.916920
1137414022.265289
-8085153284.895980
1099625860.233350
-8252106628.157336
1061288547.323534
-8414384352.206626
1022440481.763964
-8571215325.175915
983359227.005207
-8722559100.419718
944041889.398975
-8868260724.770649
904977095.296978
-9007630986.360779
865713320.149787
-9140884355.094051
826616942.982132
-9267995653.377243
788242940.296847
-9388383944.042971
750180415.668095
-9502025164.445757
712729729.845889
-9608640667.267086
676012798.280800
-9707985055.463173
640027209.599254
-9800378963.061552
605041038.825981
-9885076497.947104
571012179.933447
-9962144342.147367
538191691.273362
-10031673452.893265
506275022.021582
-10093180533.264593
475751400.123037
-10147363080.368687
446438853.956972
-10193328347.683655
418573624.017749
-10231331132.440416
391776798.808203
-10261274608.542919
366571520.300798
-10283150615.070961
343086900.316877
-10297083509.928486
320853915.359274
-10302983544.071703
300191208.197065
-10300721123.404554
281105041.731390
-10290124879.679865
263683567.783591
-10272023050.128553
247581576.326132
-10245884783.052872
233043048.658460
-10211743691.683744
220164660.478324
-10170068016.447012
208880362.431211
-10120580074.573595
199039955.267137
-10063551679.967438
190675693.631586
-9999253982.779669
183777907.620615
-9927492184.790640
178279764.808384
-9848423230.426191
174204031.414540
-9762581077.590267
171582661.287957
-9669892511.637379
170430560.524691
-9570704339.817514
170345475.893818
-9464910579.485188
171530910.969499
-9353176410.942644
174108900.520810
-9235331580.890444
177512568.245500
-9111819603.356119
182134284.912647
-8982404870.518328
187850506.769430
-8848031391.475931
194545067.911906
-8708151147.459852
202111109.383865
-8563978633.967257
210645457.281363
-8415007907.176805
219951472.524600
-8261739825.116028
229945757.209633
-8104454995.282092
240660234.105538
-7943416889.180636
251865345.734209
-7779102390.432418
263822058.988313
-7611227071.092503
276350118.788050
-7440652537.985037
289120999.902497
-7267439028.758310
302264628.304119
-7091759721.439855
316043568.108032
-6914173933.004944
329727585.286701
-6734962602.827150
343906140.883918
-6553913703.455902
358235290.218188
-6371791834.141187
372542487.934997
-6188631059.308843
387179295.201726
-6004843058.456034
401687561.611595
-5820684044.558031
415975697.260661
-5636269670.164263
430519922.016859
-5451979660.923019
444713333.047570
-5268013518.482590
458940440.998280
-5084601583.392406
472833689.736925
-4901943025.424344
486498247.757864
-4720694983.278961
499951914.805445
-4540416686.178707
512857792.170637
-4361553546.170177
525675083.048357
-4184622623.802798
538134353.828435
-4009495258.450147
549931987.156358
-3836501691.884104
561412316.748936
-3665520791.725423
572068190.597695
-3497341883.622395
582604421.499245
-3331417550.399163
592423413.568702
-3168627831.297238
601459599.726268
-3008523312.344154
609836943.839877
-2851540700.231992
617678595.626341
-2697804653.661307
624534295.882270
-2547161272.252853
630945618.997494
-2400096746.575121
636217147.361846
-2256293367.328664
640898045.771934
-2116154590.930850
644399724.494001
-1979756074.480536
646935294.846552
-1846895880.546214
648448346.299216
-1717936204.748638
648874727.516541
-1592559638.584974
648263891.295136
-1471169819.950691
646518285.626528
-1353473252.590135
643549032.776957
-1239825236.549900
639234668.490768
-1129915891.574332
633485983.157793
-1024116237.957205
626442691.972946
-922010080.920971
617829098.424920
-823747889.432424
607644689.159199
-729379930.439300
595744538.867863
-639015080.235372
582276222.869419
-552286747.238008
567093700.908212
-469212912.669657
549953411.799912
-389885736.947683
530871858.863025
-314233721.967558
509794078.391327
-241964004.146647
486286495.978038
-173471064.830990
461023054.438829
-108355876.314362
433276081.518044
-46562660.739414
403374341.083621
11906201.600080
370762343.278208
67148081.234488
335777707.722562
119283477.870036
298094139.081228
257713384.974962
168482375.089358
214514613.821128
-26765355.023342
120883058.717339
-133291747.755908
238243272.941827
-262222377.661465
350019793.228026
-398637650.167292
456824639.282162
-540860331.777627
558411449.511013
-686946358.502034
654720650.019110
-832676046.634138
-952842936.864164
754596237.390877
-1112123627.805935
-1032781994.893598
832829710.260458
-1277097310.891713
-1199972279.318882
911790006.546007
-1363652625.816180
-1449395901.864086
984739902.296693
-1536476830.015529
-1624573916.978195
1043298825.592935
-1798827119.508855
-1707533117.461437
1122526310.645524
-1887004817.503208
-1980736712.853791
1182479733.956702
-2178062657.021688
-2067736138.683547
1237509003.394643
-2311886688.888031
1287497864.816698
-2492212191.856088
1332780261.124005
-2683217799.022560
1380837956.031837
-2877640391.258943
1409913757.142184
-3075843516.228643
1440239382.507756
-3274373897.007737
1466507408.507478
-3470607732.823381
1488781553.005992
-3639749880.960613
1506744526.217463
-3888936886.532595
1520725462.704144
-4095277884.004385
1530775611.702690
1535559069.646986
-4303629215.695567
1538745075.184992
1537584230.299823
-4513032201.709313
1538458747.445510
1539121532.327689
-4722454831.523729
1534806942.415960
1537000336.549455
1531284677.515183
1527403683.298964
-4978934045.445065
1522951674.818421
1517224008.100875
-5171290048.534142
1511227841.293224
1503661848.706289
-5383822712.741148
1496260741.890281
1486243438.915876
-5599105386.224050
1472791138.928610
-5872384961.845472
1452484183.999246
-6223769015.252119
1429780097.744442
-6386739048.097025
1404379034.438157
-6549212707.107290
1377285744.624039
-6789356009.405384
1348622627.554081
-6986813624.974205
1323074394.416176
-7181220339.499761
1283998417.628246
-7407837830.194696
1249812825.127096
-7565518531.457456
1214365654.135034
-7744319200.466011
1170054949.654428
-7923601529.031720
1140529693.926048
-8099565126.836599
1110216049.951746
-8271452084.910889
-8430310232.210829
-8557207710.603651
1041293199.333554
-8716300665.233255
-8638123987.027510
990081274.062450
-8875174519.065662
-8793626316.993517
948478076.639198
-8944109821.844549
-9017816060.346304
909083523.040036
-9085438994.338335
-9161106779.226400
873585468.154466
-9220316405.816744
-9291343620.478472
825710595.961426
-9351813473.756420
-9422699313.841187
786402313.985242
-9475683819.083357
-9556214791.908695
747627777.933526
-9632040263.392271
709754512.858542
-9734758762.477137
672075263.510306
-9835385946.024649
627962410.196303
-9930491018.858679
598254324.855492
-10018648718.970657
564407222.033660
-10098376907.616953
530455582.442205
-10168945600.603750
497765135.726474
-10224165391.003134
465930039.588515
-10295126700.380762
436360412.950214
-10344480623.146778
408272778.304465
385758305.056892
-10385956031.771954
372860458.445361
359714224.551182
-10419609668.663069
346884206.815635
332805987.482455
-10445033562.122375
321842909.298966
310204148.305179
-10467925572.504599
298856345.730673
287264040.170285
-10471785144.207384
267090684.790370
278262981.675923
-10472481253.389673
258873609.037420
248321641.032996
-10467938527.707232
228726607.695047
240706741.462004
-10456183149.471352
218391697.273717
-10430493675.333778
204185516.699464
-10400414847.023729
191331237.720830
-10362581184.315704
179383338.268305
-10316853786.165913
169679390.762602
-10263726101.673212
161378844.624133
-10202936832.068531
155224411.760991
-10121337340.720676
147913556.184128
-10056552143.465248
143794346.514159
-9978247172.476667
140782255.006858
-9887903007.038309
139225429.156650
-9793457113.116354
139089171.864675
-9693367405.114111
140143744.174723
-9589754767.717157
-9515726793.611294
142392543.115848
-9435902285.389282
-9380815835.586823
146043003.725641
-9310908953.138628
-9254548566.120516
150355729.676184
-9129039255.638580
-9185160116.267168
155813769.333630
-9056326472.070713
-8989965085.904156
160699789.469135
-8853032588.909763
-8920227828.728611
170035438.963321
-8772386511.822332
-8703106185.195587
178338009.504015
-8547748628.225956
-8623456033.535418
187749716.612899
-8432292096.897703
198006787.987723
-8281059908.209174
208618305.221707
-8118047317.549814
222553729.220520
-7953965665.641153
232670293.444695
-7787256025.021430
244644211.866852
-7616420371.893270
257534423.935192
-7447865952.014548
271092035.575280
-7302576533.355358
284480688.063099
-7088870762.669362
298546151.845586
-6909076988.017597
312234120.229720
321534502.220223
-6727887981.092582
331788751.892643
338173752.283546
-6545101685.144298
346809498.246563
353404096.485441
-6361399151.120481
361471872.157216
367773539.179029
-6138342282.222911
375688879.621315
382719731.537450
-5985656352.342931
390461960.992820
397270588.377784
-5805202790.457432
405852328.694792
412928567.155385
-5621889464.023083
420693902.895979
427293932.805014
-5441965886.427267
439001688.597016
-5292790374.988203
452678001.547752
-5030941917.110801
466720878.887899
-4883824643.448279
480709082.700154
-4739106556.445756
494338337.344321
-4522903361.294088
507113963.885259
-4344121540.286151
517836063.969996
-4167060028.787301
532648584.340705
-3954357343.497128
544549197.815149
-3812667796.925062
556028542.246329
-3647543942.212554
569061290.807983
-3480768485.641819
577245531.396296
-3315781322.628053
585221708.093063
-3155480293.344326
597618390.909574
-3003201959.502980
603313042.678084
-2891001297.735315
-2800599668.517083
613928594.768714
-2729852789.807584
-2645400089.818886
619423671.753168
-2571541250.385846
-2498372544.384733
625200577.292358
-2424894678.310817
-2354342390.344958
629609621.113677
-2281271344.925180
-2213945374.249818
635193796.364674
-2136860222.103265
-2069749174.774652
638632094.550259
-2001966890.943620
-1938637193.379619
641311796.536513
-1864300283.591232
642847696.845331
-1766787692.579688
643159260.141259
-1645761407.728544
642409869.801558
-1524096535.272743
640802313.664327
-1405501204.871964
637701202.909421
-1290912450.753323
633491638.566878
-1180395900.494451
627615279.303278
-1076265736.718604
620627881.361549
-990245295.190891
611903663.898992
-869778512.283060
602133789.932180
-774189043.975752
593820649.832759
586695817.101441
-682347254.553698
580427668.892315
572908756.153400
-594271457.115756
565133004.128042
556960927.347709
-510045137.804578
548511085.809460
539810136.949762
-413096479.811345
520056956.917659
529961816.986207
-349779668.897844
509122750.993103
498346358.903304
-278749112.520733
474375473.121446
486718192.209495
-210595153.111505
459985425.852569
-151867037.100187
440529664.494986
-79496693.178165
413116500.675062
-19822116.670068
382257534.921451
36510911.782679
348652742.184945
90027072.554318
312738206.628742
140389067.899118
275030093.572122
240516829.589573
187658530.123606
