# vtk DataFile Version 2.0
Generated volume Mesh
ASCII
DATASET UNSTRUCTURED_GRID
POINTS 1240 float
-0.212153 -0.150304 0.000000
-0.206421 -0.141033 0.000000
-0.215099 -0.146056 0.000000
-0.209122 -0.154492 0.000000
-0.217961 -0.141751 0.000000
-0.206009 -0.158620 0.000000
-0.220736 -0.137389 0.000000
-0.202815 -0.162684 0.000000
-0.223424 -0.132973 0.000000
-0.226023 -0.128505 0.000000
-0.199540 -0.166684 0.000000
-0.228534 -0.123985 0.000000
-0.196187 -0.170619 0.000000
-0.230953 -0.119417 0.000000
-0.192756 -0.174486 0.000000
-0.233282 -0.114802 0.000000
-0.189249 -0.178283 0.000000
-0.235519 -0.110141 0.000000
-0.185666 -0.182011 0.000000
-0.237662 -0.105436 0.000000
-0.182011 -0.185666 0.000000
-0.239711 -0.100690 0.000000
-0.178283 -0.189249 0.000000
-0.241666 -0.095904 0.000000
-0.174486 -0.192756 0.000000
-0.243525 -0.091081 0.000000
-0.170619 -0.196187 0.000000
-0.245288 -0.086221 0.000000
-0.166684 -0.199540 0.000000
-0.246953 -0.081327 0.000000
-0.162684 -0.202815 0.000000
-0.248521 -0.076401 0.000000
-0.158620 -0.206009 0.000000
-0.249991 -0.071445 0.000000
-0.154492 -0.209122 0.000000
-0.251363 -0.066459 0.000000
-0.150304 -0.212153 0.000000
-0.252634 -0.061448 0.000000
-0.146056 -0.215099 0.000000
-0.253806 -0.056412 0.000000
-0.141751 -0.217961 0.000000
-0.137389 -0.220736 0.000000
-0.254878 -0.051354 0.000000
-0.132973 -0.223424 0.000000
-0.255849 -0.046275 0.000000
-0.128505 -0.226023 0.000000
-0.256718 -0.041179 0.000000
-0.123985 -0.228534 0.000000
-0.257486 -0.036067 0.000000
-0.119417 -0.230953 0.000000
-0.258152 -0.030940 0.000000
-0.114802 -0.233282 0.000000
-0.258717 -0.025802 0.000000
-0.110141 -0.235519 0.000000
-0.259178 -0.020654 0.000000
-0.105436 -0.237662 0.000000
-0.259538 -0.015498 0.000000
-0.100690 -0.239711 0.000000
-0.259794 -0.010336 0.000000
-0.095904 -0.241666 0.000000
-0.259949 -0.005169 0.000000
-0.091081 -0.243525 0.000000
-0.260000 0.000000 0.000000
-0.259949 0.005169 0.000000
-0.086221 -0.245288 0.000000
-0.259794 0.010336 0.000000
-0.081327 -0.246953 0.000000
-0.259538 0.015498 0.000000
-0.076401 -0.248521 0.000000
-0.259178 0.020654 0.000000
-0.071445 -0.249991 0.000000
-0.258717 0.025802 0.000000
-0.066459 -0.251363 0.000000
-0.258152 0.030940 0.000000
-0.061448 -0.252634 0.000000
-0.257486 0.036067 0.000000
-0.056412 -0.253806 0.000000
-0.256718 0.041179 0.000000
-0.051354 -0.254878 0.000000
-0.255849 0.046275 0.000000
-0.046275 -0.255849 0.000000
-0.254878 0.051354 0.000000
-0.041179 -0.256718 0.000000
-0.253806 0.056412 0.000000
-0.036067 -0.257486 0.000000
-0.252634 0.061448 0.000000
-0.030940 -0.258152 0.000000
-0.251363 0.066459 0.000000
-0.025802 -0.258717 0.000000
-0.249991 0.071445 0.000000
-0.020654 -0.259178 0.000000
-0.248521 0.076401 0.000000
-0.015498 -0.259538 0.000000
-0.010336 -0.259794 0.000000
-0.246953 0.081327 0.000000
-0.005169 -0.259949 0.000000
-0.245288 0.086221 0.000000
0.000000 -0.260000 0.000000
-0.243525 0.091081 0.000000
0.005169 -0.259949 0.000000
-0.241666 0.095904 0.000000
0.010336 -0.259794 0.000000
-0.239711 0.100690 0.000000
0.015498 -0.259538 0.000000
-0.237662 0.105436 0.000000
0.020654 -0.259178 0.000000
-0.235519 0.110141 0.000000
0.025802 -0.258717 0.000000
-0.233282 0.114802 0.000000
0.030940 -0.258152 0.000000
-0.230953 0.119417 0.000000
0.036067 -0.257486 0.000000
-0.228534 0.123985 0.000000
0.041179 -0.256718 0.000000
-0.226023 0.128505 0.000000
-0.223424 0.132973 0.000000
0.046275 -0.255849 0.000000
-0.220736 0.137389 0.000000
0.051354 -0.254878 0.000000
-0.217961 0.141751 0.000000
0.056412 -0.253806 0.000000
-0.215099 0.146056 0.000000
0.061448 -0.252634 0.000000
-0.212153 0.150304 0.000000
0.066459 -0.251363 0.000000
-0.209122 0.154492 0.000000
0.071445 -0.249991 0.000000
-0.206009 0.158620 0.000000
0.076401 -0.248521 0.000000
-0.202815 0.162684 0.000000
0.081327 -0.246953 0.000000
-0.199540 0.166684 0.000000
0.086221 -0.245288 0.000000
-0.196187 0.170619 0.000000
0.091081 -0.243525 0.000000
-0.192756 0.174486 0.000000
0.095904 -0.241666 0.000000
-0.189249 0.178283 0.000000
0.100690 -0.239711 0.000000
-0.185666 0.182011 0.000000
0.105436 -0.237662 0.000000
-0.182011 0.185666 0.000000
0.110141 -0.235519 0.000000
-0.178283 0.189249 0.000000
0.114802 -0.233282 0.000000
-0.174486 0.192756 0.000000
0.119417 -0.230953 0.000000
0.123985 -0.228534 0.000000
-0.170619 0.196187 0.000000
0.128505 -0.226023 0.000000
-0.166684 0.199540 0.000000
0.132973 -0.223424 0.000000
-0.162684 0.202815 0.000000
0.137389 -0.220736 0.000000
-0.158620 0.206009 0.000000
0.141751 -0.217961 0.000000
-0.154492 0.209122 0.000000
0.146056 -0.215099 0.000000
-0.150304 0.212153 0.000000
0.150304 -0.212153 0.000000
-0.146056 0.215099 0.000000
0.154492 -0.209122 0.000000
-0.141751 0.217961 0.000000
0.158620 -0.206009 0.000000
-0.137389 0.220736 0.000000
0.162684 -0.202815 0.000000
-0.132973 0.223424 0.000000
-0.128505 0.226023 0.000000
0.166684 -0.199540 0.000000
-0.123985 0.228534 0.000000
0.170619 -0.196187 0.000000
-0.119417 0.230953 0.000000
0.174486 -0.192756 0.000000
-0.114802 0.233282 0.000000
0.178283 -0.189249 0.000000
-0.110141 0.235519 0.000000
0.182011 -0.185666 0.000000
-0.105436 0.237662 0.000000
0.185666 -0.182011 0.000000
-0.100690 0.239711 0.000000
0.189249 -0.178283 0.000000
-0.095904 0.241666 0.000000
0.192756 -0.174486 0.000000
-0.091081 0.243525 0.000000
0.196187 -0.170619 0.000000
-0.086221 0.245288 0.000000
0.199540 -0.166684 0.000000
-0.081327 0.246953 0.000000
0.202815 -0.162684 0.000000
-0.076401 0.248521 0.000000
0.206009 -0.158620 0.000000
-0.071445 0.249991 0.000000
0.209122 -0.154492 0.000000
-0.066459 0.251363 0.000000
0.212153 -0.150304 0.000000
-0.061448 0.252634 0.000000
0.215099 -0.146056 0.000000
-0.056412 0.253806 0.000000
0.217961 -0.141751 0.000000
0.220736 -0.137389 0.000000
-0.051354 0.254878 0.000000
0.223424 -0.132973 0.000000
-0.046275 0.255849 0.000000
0.226023 -0.128505 0.000000
-0.041179 0.256718 0.000000
0.228534 -0.123985 0.000000
-0.036067 0.257486 0.000000
0.230953 -0.119417 0.000000
-0.030940 0.258152 0.000000
0.233282 -0.114802 0.000000
-0.025802 0.258717 0.000000
0.235519 -0.110141 0.000000
-0.020654 0.259178 0.000000
0.237662 -0.105436 0.000000
-0.015498 0.259538 0.000000
0.239711 -0.100690 0.000000
-0.010336 0.259794 0.000000
0.241666 -0.095904 0.000000
-0.005169 0.259949 0.000000
0.243525 -0.091081 0.000000
0.000000 0.260000 0.000000
0.245288 -0.086221 0.000000
0.005169 0.259949 0.000000
0.246953 -0.081327 0.000000
0.010336 0.259794 0.000000
0.248521 -0.076401 0.000000
0.015498 0.259538 0.000000
0.249991 -0.071445 0.000000
0.020654 0.259178 0.000000
0.251363 -0.066459 0.000000
0.025802 0.258717 0.000000
0.252634 -0.061448 0.000000
0.030940 0.258152 0.000000
0.253806 -0.056412 0.000000
0.036067 0.257486 0.000000
0.254878 -0.051354 0.000000
0.041179 0.256718 0.000000
0.255849 -0.046275 0.000000
0.046275 0.255849 0.000000
0.256718 -0.041179 0.000000
0.051354 0.254878 0.000000
0.257486 -0.036067 0.000000
0.056412 0.253806 0.000000
0.258152 -0.030940 0.000000
0.061448 0.252634 0.000000
0.258717 -0.025802 0.000000
0.066459 0.251363 0.000000
0.259178 -0.020654 0.000000
0.071445 0.249991 0.000000
0.259538 -0.015498 0.000000
0.076401 0.248521 0.000000
0.259794 -0.010336 0.000000
0.081327 0.246953 0.000000
0.259949 -0.005169 0.000000
0.086221 0.245288 0.000000
0.260000 0.000000 0.000000
0.091081 0.243525 0.000000
0.259949 0.005169 0.000000
0.095904 0.241666 0.000000
0.259794 0.010336 0.000000
0.100690 0.239711 0.000000
0.259538 0.015498 0.000000
0.105436 0.237662 0.000000
0.259178 0.020654 0.000000
0.110141 0.235519 0.000000
0.258717 0.025802 0.000000
0.114802 0.233282 0.000000
0.258152 0.030940 0.000000
0.119417 0.230953 0.000000
0.257486 0.036067 0.000000
0.123985 0.228534 0.000000
0.256718 0.041179 0.000000
0.128505 0.226023 0.000000
0.255849 0.046275 0.000000
0.132973 0.223424 0.000000
0.254878 0.051354 0.000000
0.137389 0.220736 0.000000
0.253806 0.056412 0.000000
0.141751 0.217961 0.000000
0.252634 0.061448 0.000000
0.146056 0.215099 0.000000
0.251363 0.066459 0.000000
0.150304 0.212153 0.000000
0.249991 0.071445 0.000000
0.154492 0.209122 0.000000
0.248521 0.076401 0.000000
0.158620 0.206009 0.000000
0.246953 0.081327 0.000000
0.162684 0.202815 0.000000
0.245288 0.086221 0.000000
0.166684 0.199540 0.000000
0.243525 0.091081 0.000000
0.170619 0.196187 0.000000
0.241666 0.095904 0.000000
0.174486 0.192756 0.000000
0.239711 0.100690 0.000000
0.178283 0.189249 0.000000
0.237662 0.105436 0.000000
0.182011 0.185666 0.000000
0.235519 0.110141 0.000000
0.185666 0.182011 0.000000
0.233282 0.114802 0.000000
0.189249 0.178283 0.000000
0.230953 0.119417 0.000000
0.192756 0.174486 0.000000
0.228534 0.123985 0.000000
0.196187 0.170619 0.000000
0.226023 0.128505 0.000000
0.199540 0.166684 0.000000
0.223424 0.132973 0.000000
0.202815 0.162684 0.000000
0.220736 0.137389 0.000000
0.206009 0.158620 0.000000
0.217961 0.141751 0.000000
0.209122 0.154492 0.000000
0.215099 0.146056 0.000000
0.212153 0.150304 0.000000
-0.203462 -0.145269 0.000000
-0.209292 -0.136737 0.000000
-0.200416 -0.149443 0.000000
-0.212073 -0.132382 0.000000
-0.197285 -0.153553 0.000000
-0.214764 -0.127971 0.000000
-0.194070 -0.157598 0.000000
-0.217362 -0.123505 0.000000
-0.190771 -0.161575 0.000000
-0.219868 -0.118987 0.000000
-0.187391 -0.165483 0.000000
-0.222281 -0.114417 0.000000
-0.183931 -0.169320 0.000000
-0.224598 -0.109799 0.000000
-0.180392 -0.173086 0.000000
-0.226819 -0.105134 0.000000
-0.176777 -0.176777 0.000000
-0.228943 -0.100424 0.000000
-0.173086 -0.180392 0.000000
-0.230970 -0.095671 0.000000
-0.169320 -0.183931 0.000000
-0.232898 -0.090877 0.000000
-0.165483 -0.187391 0.000000
-0.234726 -0.086044 0.000000
-0.161575 -0.190771 0.000000
-0.236454 -0.081175 0.000000
-0.157598 -0.194070 0.000000
-0.238081 -0.076271 0.000000
-0.153553 -0.197285 0.000000
-0.239607 -0.071334 0.000000
-0.149443 -0.200416 0.000000
-0.241030 -0.066366 0.000000
-0.145269 -0.203462 0.000000
-0.242350 -0.061370 0.000000
-0.141033 -0.206421 0.000000
-0.243567 -0.056347 0.000000
-0.136737 -0.209292 0.000000
-0.244680 -0.051301 0.000000
-0.132382 -0.212073 0.000000
-0.245688 -0.046232 0.000000
-0.127971 -0.214764 0.000000
-0.246591 -0.041144 0.000000
-0.123505 -0.217362 0.000000
-0.247389 -0.036039 0.000000
-0.118987 -0.219868 0.000000
-0.248081 -0.030919 0.000000
-0.114417 -0.222281 0.000000
-0.248667 -0.025786 0.000000
-0.109799 -0.224598 0.000000
-0.249146 -0.020642 0.000000
-0.105134 -0.226819 0.000000
-0.249520 -0.015489 0.000000
-0.100424 -0.228943 0.000000
-0.249786 -0.010330 0.000000
-0.095671 -0.230970 0.000000
-0.249947 -0.005166 0.000000
-0.090877 -0.232898 0.000000
-0.250000 0.000000 0.000000
-0.086044 -0.234726 0.000000
-0.249947 0.005166 0.000000
-0.081175 -0.236454 0.000000
-0.249786 0.010330 0.000000
-0.076271 -0.238081 0.000000
-0.249520 0.015489 0.000000
-0.071334 -0.239607 0.000000
-0.249146 0.020642 0.000000
-0.066366 -0.241030 0.000000
-0.248667 0.025786 0.000000
-0.061370 -0.242350 0.000000
-0.248081 0.030919 0.000000
-0.056347 -0.243567 0.000000
-0.247389 0.036039 0.000000
-0.051301 -0.244680 0.000000
-0.246591 0.041144 0.000000
-0.046232 -0.245688 0.000000
-0.245688 0.046232 0.000000
-0.041144 -0.246591 0.000000
-0.244680 0.051301 0.000000
-0.036039 -0.247389 0.000000
-0.243567 0.056347 0.000000
-0.030919 -0.248081 0.000000
-0.242350 0.061370 0.000000
-0.025786 -0.248667 0.000000
-0.241030 0.066366 0.000000
-0.020642 -0.249146 0.000000
-0.239607 0.071334 0.000000
-0.015489 -0.249520 0.000000
-0.238081 0.076271 0.000000
-0.010330 -0.249786 0.000000
-0.236454 0.081175 0.000000
-0.005166 -0.249947 0.000000
-0.234726 0.086044 0.000000
-0.000000 -0.250000 0.000000
-0.232898 0.090877 0.000000
0.005166 -0.249947 0.000000
-0.230970 0.095671 0.000000
0.010330 -0.249786 0.000000
-0.228943 0.100424 0.000000
0.015489 -0.249520 0.000000
-0.226819 0.105134 0.000000
0.020642 -0.249146 0.000000
-0.224598 0.109799 0.000000
0.025786 -0.248667 0.000000
-0.222281 0.114417 0.000000
0.030919 -0.248081 0.000000
-0.219868 0.118987 0.000000
0.036039 -0.247389 0.000000
-0.217362 0.123505 0.000000
0.041144 -0.246591 0.000000
-0.214764 0.127971 0.000000
0.046232 -0.245688 0.000000
-0.212073 0.132382 0.000000
0.051301 -0.244680 0.000000
-0.209292 0.136737 0.000000
0.056347 -0.243567 0.000000
-0.206421 0.141033 0.000000
0.061370 -0.242350 0.000000
-0.203462 0.145269 0.000000
0.066366 -0.241030 0.000000
-0.200416 0.149443 0.000000
0.071334 -0.239607 0.000000
-0.197285 0.153553 0.000000
0.076271 -0.238081 0.000000
-0.194070 0.157598 0.000000
0.081175 -0.236454 0.000000
-0.190771 0.161575 0.000000
0.086044 -0.234726 0.000000
-0.187391 0.165483 0.000000
0.090877 -0.232898 0.000000
-0.183931 0.169320 0.000000
0.095671 -0.230970 0.000000
-0.180392 0.173086 0.000000
0.100424 -0.228943 0.000000
-0.176777 0.176777 0.000000
0.105134 -0.226819 0.000000
-0.173086 0.180392 0.000000
0.109799 -0.224598 0.000000
-0.169320 0.183931 0.000000
0.114417 -0.222281 0.000000
-0.165483 0.187391 0.000000
0.118987 -0.219868 0.000000
-0.161575 0.190771 0.000000
0.123505 -0.217362 0.000000
-0.157598 0.194070 0.000000
0.127971 -0.214764 0.000000
-0.153553 0.197285 0.000000
0.132382 -0.212073 0.000000
-0.149443 0.200416 0.000000
0.136737 -0.209292 0.000000
-0.145269 0.203462 0.000000
0.141033 -0.206421 0.000000
-0.141033 0.206421 0.000000
0.145269 -0.203462 0.000000
-0.136737 0.209292 0.000000
0.149443 -0.200416 0.000000
-0.132382 0.212073 0.000000
0.153553 -0.197285 0.000000
-0.127971 0.214764 0.000000
0.157598 -0.194070 0.000000
-0.123505 0.217362 0.000000
0.161575 -0.190771 0.000000
-0.118987 0.219868 0.000000
0.165483 -0.187391 0.000000
-0.114417 0.222281 0.000000
0.169320 -0.183931 0.000000
-0.109799 0.224598 0.000000
0.173086 -0.180392 0.000000
-0.105134 0.226819 0.000000
0.176777 -0.176777 0.000000
-0.100424 0.228943 0.000000
0.180392 -0.173086 0.000000
-0.095671 0.230970 0.000000
0.183931 -0.169320 0.000000
-0.090877 0.232898 0.000000
0.187391 -0.165483 0.000000
-0.086044 0.234726 0.000000
0.190771 -0.161575 0.000000
-0.081175 0.236454 0.000000
0.194070 -0.157598 0.000000
-0.076271 0.238081 0.000000
0.197285 -0.153553 0.000000
-0.071334 0.239607 0.000000
0.200416 -0.149443 0.000000
-0.066366 0.241030 0.000000
0.203462 -0.145269 0.000000
-0.061370 0.242350 0.000000
0.206421 -0.141033 0.000000
-0.056347 0.243567 0.000000
0.209292 -0.136737 0.000000
-0.051301 0.244680 0.000000
0.212073 -0.132382 0.000000
-0.046232 0.245688 0.000000
0.214764 -0.127971 0.000000
-0.041144 0.246591 0.000000
0.217362 -0.123505 0.000000
-0.036039 0.247389 0.000000
0.219868 -0.118987 0.000000
-0.030919 0.248081 0.000000
0.222281 -0.114417 0.000000
-0.025786 0.248667 0.000000
0.224598 -0.109799 0.000000
-0.020642 0.249146 0.000000
0.226819 -0.105134 0.000000
-0.015489 0.249520 0.000000
0.228943 -0.100424 0.000000
-0.010330 0.249786 0.000000
0.230970 -0.095671 0.000000
-0.005166 0.249947 0.000000
0.232898 -0.090877 0.000000
0.000000 0.250000 0.000000
0.234726 -0.086044 0.000000
0.005166 0.249947 0.000000
0.236454 -0.081175 0.000000
0.010330 0.249786 0.000000
0.238081 -0.076271 0.000000
0.015489 0.249520 0.000000
0.239607 -0.071334 0.000000
0.020642 0.249146 0.000000
0.241030 -0.066366 0.000000
0.025786 0.248667 0.000000
0.242350 -0.061370 0.000000
0.030919 0.248081 0.000000
0.243567 -0.056347 0.000000
0.036039 0.247389 0.000000
0.244680 -0.051301 0.000000
0.041144 0.246591 0.000000
0.245688 -0.046232 0.000000
0.046232 0.245688 0.000000
0.246591 -0.041144 0.000000
0.051301 0.244680 0.000000
0.247389 -0.036039 0.000000
0.056347 0.243567 0.000000
0.248081 -0.030919 0.000000
0.061370 0.242350 0.000000
0.248667 -0.025786 0.000000
0.066366 0.241030 0.000000
0.249146 -0.020642 0.000000
0.071334 0.239607 0.000000
0.249520 -0.015489 0.000000
0.076271 0.238081 0.000000
0.249786 -0.010330 0.000000
0.081175 0.236454 0.000000
0.249947 -0.005166 0.000000
0.086044 0.234726 0.000000
0.250000 -0.000000 0.000000
0.090877 0.232898 0.000000
0.249947 0.005166 0.000000
0.095671 0.230970 0.000000
0.249786 0.010330 0.000000
0.100424 0.228943 0.000000
0.249520 0.015489 0.000000
0.105134 0.226819 0.000000
0.249146 0.020642 0.000000
0.109799 0.224598 0.000000
0.248667 0.025786 0.000000
0.114417 0.222281 0.000000
0.248081 0.030919 0.000000
0.118987 0.219868 0.000000
0.247389 0.036039 0.000000
0.123505 0.217362 0.000000
0.246591 0.041144 0.000000
0.127971 0.214764 0.000000
0.245688 0.046232 0.000000
0.132382 0.212073 0.000000
0.244680 0.051301 0.000000
0.136737 0.209292 0.000000
0.243567 0.056347 0.000000
0.141033 0.206421 0.000000
0.242350 0.061370 0.000000
0.145269 0.203462 0.000000
0.241030 0.066366 0.000000
0.149443 0.200416 0.000000
0.239607 0.071334 0.000000
0.153553 0.197285 0.000000
0.238081 0.076271 0.000000
0.157598 0.194070 0.000000
0.236454 0.081175 0.000000
0.161575 0.190771 0.000000
0.234726 0.086044 0.000000
0.165483 0.187391 0.000000
0.232898 0.090877 0.000000
0.169320 0.183931 0.000000
0.230970 0.095671 0.000000
0.173086 0.180392 0.000000
0.228943 0.100424 0.000000
0.176777 0.176777 0.000000
0.226819 0.105134 0.000000
0.180392 0.173086 0.000000
0.224598 0.109799 0.000000
0.183931 0.169320 0.000000
0.222281 0.114417 0.000000
0.187391 0.165483 0.000000
0.219868 0.118987 0.000000
0.190771 0.161575 0.000000
0.217362 0.123505 0.000000
0.194070 0.157598 0.000000
0.214764 0.127971 0.000000
0.197285 0.153553 0.000000
0.212073 0.132382 0.000000
0.200416 0.149443 0.000000
0.209292 0.136737 0.000000
0.206421 0.141033 0.000000
0.203462 0.145269 0.000000
-0.211239 -0.145764 0.000000
-0.207348 -0.145506 0.000000
-0.208235 -0.149997 0.000000
-0.210271 -0.141224 0.000000
-0.214114 -0.141448 0.000000
-0.204348 -0.149730 0.000000
-0.205202 -0.154186 0.000000
-0.213130 -0.136835 0.000000
-0.216922 -0.137075 0.000000
-0.201224 -0.153860 0.000000
-0.202031 -0.158271 0.000000
-0.215878 -0.132424 0.000000
-0.219710 -0.132611 0.000000
-0.198030 -0.157923 0.000000
-0.198804 -0.162319 0.000000
-0.218605 -0.127699 0.000000
-0.222365 -0.128140 0.000000
-0.224875 -0.124872 0.000000
-0.194761 -0.161929 0.000000
-0.195479 -0.166293 0.000000
-0.221918 -0.123192 0.000000
-0.226380 -0.121036 0.000000
-0.191411 -0.165867 0.000000
-0.192076 -0.170180 0.000000
-0.223993 -0.118092 0.000000
-0.228835 -0.116386 0.000000
-0.187988 -0.169741 0.000000
-0.188629 -0.174050 0.000000
-0.226621 -0.113165 0.000000
-0.231077 -0.111640 0.000000
-0.184488 -0.173541 0.000000
-0.185072 -0.177780 0.000000
-0.228918 -0.108399 0.000000
-0.233287 -0.106944 0.000000
-0.180913 -0.177266 0.000000
-0.181487 -0.181485 0.000000
-0.231106 -0.103709 0.000000
-0.235397 -0.102211 0.000000
-0.177263 -0.180925 0.000000
-0.177757 -0.185116 0.000000
-0.233157 -0.098942 0.000000
-0.237414 -0.097442 0.000000
-0.173562 -0.184499 0.000000
-0.173989 -0.188666 0.000000
-0.235110 -0.094195 0.000000
-0.239353 -0.092615 0.000000
-0.169783 -0.188037 0.000000
-0.170176 -0.192088 0.000000
-0.237036 -0.089400 0.000000
-0.241145 -0.087789 0.000000
-0.165867 -0.191421 0.000000
-0.166261 -0.195470 0.000000
-0.238795 -0.084500 0.000000
-0.242869 -0.082916 0.000000
-0.161926 -0.194766 0.000000
-0.162296 -0.198817 0.000000
-0.240480 -0.079619 0.000000
-0.244533 -0.078015 0.000000
-0.157923 -0.198067 0.000000
-0.158264 -0.202046 0.000000
-0.242098 -0.074704 0.000000
-0.246013 -0.073093 0.000000
-0.153833 -0.201229 0.000000
-0.154141 -0.205206 0.000000
-0.243529 -0.069697 0.000000
-0.247451 -0.068123 0.000000
-0.149674 -0.204349 0.000000
-0.149938 -0.208289 0.000000
-0.244899 -0.064716 0.000000
-0.248766 -0.063116 0.000000
-0.145447 -0.207383 0.000000
-0.145696 -0.211247 0.000000
-0.246147 -0.059719 0.000000
-0.249987 -0.058081 0.000000
-0.141114 -0.210324 0.000000
-0.141350 -0.214172 0.000000
-0.247314 -0.054684 0.000000
-0.251085 -0.053025 0.000000
-0.136554 -0.213213 0.000000
-0.136933 -0.217186 0.000000
-0.133850 -0.219680 0.000000
-0.248378 -0.049626 0.000000
-0.252118 -0.047967 0.000000
-0.132090 -0.216717 0.000000
-0.130020 -0.221252 0.000000
-0.249339 -0.044548 0.000000
-0.253006 -0.042863 0.000000
-0.126984 -0.218897 0.000000
-0.125536 -0.223876 0.000000
-0.250196 -0.039452 0.000000
-0.253814 -0.037756 0.000000
-0.122403 -0.221788 0.000000
-0.120909 -0.226359 0.000000
-0.250948 -0.034339 0.000000
-0.254531 -0.032639 0.000000
-0.117810 -0.224233 0.000000
-0.116302 -0.228773 0.000000
-0.251590 -0.029207 0.000000
-0.255162 -0.027498 0.000000
-0.113063 -0.226648 0.000000
-0.111626 -0.231076 0.000000
-0.252152 -0.024064 0.000000
-0.255682 -0.022349 0.000000
-0.108405 -0.228923 0.000000
-0.106956 -0.233292 0.000000
-0.252595 -0.018895 0.000000
-0.256048 -0.017181 0.000000
-0.103699 -0.231093 0.000000
-0.102209 -0.235408 0.000000
-0.252917 -0.013716 0.000000
-0.256371 -0.011977 0.000000
-0.098950 -0.233168 0.000000
-0.097430 -0.237419 0.000000
-0.253145 -0.008502 0.000000
-0.256525 -0.006784 0.000000
-0.094186 -0.235148 0.000000
-0.092626 -0.239323 0.000000
-0.253246 -0.003274 0.000000
-0.256590 -0.001533 0.000000
-0.089365 -0.237021 0.000000
-0.087789 -0.241137 0.000000
-0.256677 0.003861 0.000000
-0.253142 0.002166 0.000000
-0.257115 0.007822 0.000000
-0.084514 -0.238796 0.000000
-0.082921 -0.242867 0.000000
-0.253720 0.007776 0.000000
-0.256519 0.011763 0.000000
-0.079606 -0.240458 0.000000
-0.078018 -0.244489 0.000000
-0.252852 0.013320 0.000000
-0.256068 0.016920 0.000000
-0.074694 -0.242036 0.000000
-0.073082 -0.246010 0.000000
-0.252611 0.018669 0.000000
-0.255656 0.022234 0.000000
-0.069735 -0.243513 0.000000
-0.068114 -0.247458 0.000000
-0.252141 0.023990 0.000000
-0.255162 0.027444 0.000000
-0.064743 -0.244887 0.000000
-0.063092 -0.248749 0.000000
-0.251604 0.029164 0.000000
-0.254573 0.032595 0.000000
-0.059717 -0.246147 0.000000
-0.058069 -0.249993 0.000000
-0.250974 0.034287 0.000000
-0.253840 0.037734 0.000000
-0.054678 -0.247313 0.000000
-0.053013 -0.251111 0.000000
-0.250231 0.039411 0.000000
-0.253024 0.042842 0.000000
-0.049616 -0.248377 0.000000
-0.047935 -0.252120 0.000000
-0.249361 0.044517 0.000000
-0.252111 0.047933 0.000000
-0.044539 -0.249350 0.000000
-0.042840 -0.253023 0.000000
-0.248407 0.049594 0.000000
-0.251110 0.053004 0.000000
-0.039431 -0.250212 0.000000
-0.037704 -0.253860 0.000000
-0.247324 0.054669 0.000000
-0.249985 0.058059 0.000000
-0.034308 -0.250972 0.000000
-0.032585 -0.254550 0.000000
-0.246143 0.059708 0.000000
-0.248743 0.063082 0.000000
-0.029143 -0.251616 0.000000
-0.027438 -0.255160 0.000000
-0.244868 0.064718 0.000000
-0.247429 0.068085 0.000000
-0.023984 -0.252155 0.000000
-0.022275 -0.255652 0.000000
-0.243509 0.069698 0.000000
-0.245994 0.073043 0.000000
-0.018760 -0.252599 0.000000
-0.017016 -0.256101 0.000000
-0.242036 0.074652 0.000000
-0.244469 0.077981 0.000000
-0.013287 -0.252844 0.000000
-0.011794 -0.256461 0.000000
-0.007824 -0.257115 0.000000
-0.240463 0.079574 0.000000
-0.242849 0.082888 0.000000
-0.007799 -0.253734 0.000000
-0.003878 -0.256704 0.000000
-0.238789 0.084463 0.000000
-0.241130 0.087762 0.000000
-0.002313 -0.253282 0.000000
0.001488 -0.256626 0.000000
-0.237016 0.089317 0.000000
-0.239316 0.092601 0.000000
0.003275 -0.253251 0.000000
0.006791 -0.256518 0.000000
-0.235145 0.094134 0.000000
-0.237412 0.097406 0.000000
0.008519 -0.253134 0.000000
0.011961 -0.256352 0.000000
-0.233173 0.098919 0.000000
-0.235426 0.102191 0.000000
0.013685 -0.252913 0.000000
0.017142 -0.256059 0.000000
-0.231127 0.103687 0.000000
-0.233295 0.106912 0.000000
0.018872 -0.252578 0.000000
0.022325 -0.255665 0.000000
-0.228942 0.108390 0.000000
-0.231092 0.111624 0.000000
0.024038 -0.252148 0.000000
0.027480 -0.255157 0.000000
-0.226657 0.113049 0.000000
-0.228780 0.116278 0.000000
0.029190 -0.251600 0.000000
0.032621 -0.254550 0.000000
-0.224272 0.117709 0.000000
-0.226385 0.120864 0.000000
0.034318 -0.250961 0.000000
0.037740 -0.253831 0.000000
-0.221796 0.122264 0.000000
-0.223999 0.125456 0.000000
0.039411 -0.250224 0.000000
0.042847 -0.253042 0.000000
-0.218901 0.126938 0.000000
-0.221364 0.129767 0.000000
-0.219680 0.133847 0.000000
0.044518 -0.249355 0.000000
0.047933 -0.252121 0.000000
-0.216712 0.132054 0.000000
-0.217004 0.137072 0.000000
0.049586 -0.248413 0.000000
0.052994 -0.251107 0.000000
-0.213232 0.136466 0.000000
-0.214223 0.141523 0.000000
0.054657 -0.247336 0.000000
0.058052 -0.250005 0.000000
-0.210309 0.141140 0.000000
-0.211239 0.145727 0.000000
0.059678 -0.246219 0.000000
0.063074 -0.248801 0.000000
-0.207382 0.145398 0.000000
-0.208266 0.149943 0.000000
0.064707 -0.244891 0.000000
0.068065 -0.247437 0.000000
-0.204377 0.149636 0.000000
-0.205190 0.154130 0.000000
0.069691 -0.243505 0.000000
0.073032 -0.246030 0.000000
-0.201236 0.153821 0.000000
-0.202041 0.158266 0.000000
0.074644 -0.242033 0.000000
0.077971 -0.244510 0.000000
-0.198078 0.157909 0.000000
-0.198801 0.162297 0.000000
0.079563 -0.240462 0.000000
0.082879 -0.242869 0.000000
-0.194813 0.161942 0.000000
-0.195518 0.166295 0.000000
0.084448 -0.238801 0.000000
0.087756 -0.241183 0.000000
-0.191439 0.165882 0.000000
-0.192093 0.170171 0.000000
0.089300 -0.237046 0.000000
0.092599 -0.239343 0.000000
-0.188003 0.169744 0.000000
-0.188653 0.173995 0.000000
0.094143 -0.235202 0.000000
0.097411 -0.237436 0.000000
-0.184499 0.173533 0.000000
-0.185108 0.177774 0.000000
0.098956 -0.233189 0.000000
0.102214 -0.235430 0.000000
-0.180925 0.177258 0.000000
-0.181476 0.181471 0.000000
0.103685 -0.231103 0.000000
0.106930 -0.233289 0.000000
-0.177298 0.180905 0.000000
-0.177799 0.185107 0.000000
0.108419 -0.228930 0.000000
0.111656 -0.231091 0.000000
-0.173586 0.184506 0.000000
-0.174021 0.188619 0.000000
0.113144 -0.226627 0.000000
0.116347 -0.228895 0.000000
-0.169775 0.188019 0.000000
-0.170198 0.192078 0.000000
0.118125 -0.224048 0.000000
0.120958 -0.226462 0.000000
0.124847 -0.224898 0.000000
-0.165874 0.191414 0.000000
-0.166269 0.195460 0.000000
0.123118 -0.221704 0.000000
0.128317 -0.222427 0.000000
-0.161942 0.194765 0.000000
-0.162298 0.198777 0.000000
0.127741 -0.218738 0.000000
0.132718 -0.219773 0.000000
-0.157941 0.198061 0.000000
-0.158267 0.202017 0.000000
0.132458 -0.215906 0.000000
0.137099 -0.216943 0.000000
-0.153841 0.201233 0.000000
-0.154157 0.205176 0.000000
0.136835 -0.213143 0.000000
0.141446 -0.214140 0.000000
-0.149697 0.204336 0.000000
-0.149986 0.208241 0.000000
0.141204 -0.210307 0.000000
0.145766 -0.211267 0.000000
-0.145494 0.207364 0.000000
-0.145771 0.211274 0.000000
0.145482 -0.207382 0.000000
0.149974 -0.208247 0.000000
-0.141205 0.210328 0.000000
-0.141442 0.214144 0.000000
0.149675 -0.204345 0.000000
0.154126 -0.205199 0.000000
-0.136819 0.213112 0.000000
-0.137086 0.216926 0.000000
0.153844 -0.201265 0.000000
0.158238 -0.202080 0.000000
-0.132440 0.215878 0.000000
-0.132694 0.219723 0.000000
0.157910 -0.198046 0.000000
0.162291 -0.198796 0.000000
-0.127703 0.218560 0.000000
-0.128168 0.222340 0.000000
-0.124872 0.224869 0.000000
0.161934 -0.194783 0.000000
0.166261 -0.195477 0.000000
-0.123151 0.221907 0.000000
-0.120918 0.226405 0.000000
0.165879 -0.191440 0.000000
0.170170 -0.192099 0.000000
-0.117906 0.223946 0.000000
-0.116364 0.228838 0.000000
0.169751 -0.188007 0.000000
0.173993 -0.188654 0.000000
-0.113240 0.226633 0.000000
-0.111662 0.231084 0.000000
0.173542 -0.184492 0.000000
0.177760 -0.185096 0.000000
-0.108422 0.228922 0.000000
-0.106961 0.233288 0.000000
0.177261 -0.180914 0.000000
0.181485 -0.181471 0.000000
-0.103737 0.231113 0.000000
-0.102262 0.235399 0.000000
0.180916 -0.177255 0.000000
0.185091 -0.177759 0.000000
-0.098948 0.233164 0.000000
-0.097431 0.237399 0.000000
0.184491 -0.173524 0.000000
0.188622 -0.173999 0.000000
-0.094143 0.235127 0.000000
-0.092613 0.239321 0.000000
0.187992 -0.169728 0.000000
0.192102 -0.170181 0.000000
-0.089317 0.237012 0.000000
-0.087764 0.241132 0.000000
0.191418 -0.165860 0.000000
0.195491 -0.166265 0.000000
-0.084463 0.238789 0.000000
-0.082889 0.242851 0.000000
0.194761 -0.161927 0.000000
0.198782 -0.162297 0.000000
-0.079574 0.240463 0.000000
-0.077984 0.244481 0.000000
0.198034 -0.157937 0.000000
0.202051 -0.158287 0.000000
-0.074655 0.242028 0.000000
-0.073067 0.246024 0.000000
0.201260 -0.153870 0.000000
0.205213 -0.154172 0.000000
-0.069704 0.243501 0.000000
-0.068084 0.247440 0.000000
0.204378 -0.149650 0.000000
0.208273 -0.149949 0.000000
-0.064720 0.244869 0.000000
-0.063076 0.248748 0.000000
0.207393 -0.145398 0.000000
0.211241 -0.145689 0.000000
-0.059719 0.246146 0.000000
-0.058059 0.249953 0.000000
0.210313 -0.141108 0.000000
0.214198 -0.141341 0.000000
-0.054684 0.247314 0.000000
-0.053013 0.251069 0.000000
0.213186 -0.136480 0.000000
0.217027 -0.137061 0.000000
0.219675 -0.133904 0.000000
-0.049626 0.248378 0.000000
-0.047946 0.252085 0.000000
0.216699 -0.132106 0.000000
0.221261 -0.130034 0.000000
-0.044548 0.249339 0.000000
-0.042859 0.253000 0.000000
0.218972 -0.126947 0.000000
0.223829 -0.125513 0.000000
-0.039452 0.250196 0.000000
-0.037755 0.253811 0.000000
0.221761 -0.122278 0.000000
0.226348 -0.120860 0.000000
-0.034339 0.250948 0.000000
-0.032636 0.254520 0.000000
0.224241 -0.117692 0.000000
0.228771 -0.116275 0.000000
-0.029212 0.251597 0.000000
-0.027501 0.255124 0.000000
0.226657 -0.113049 0.000000
0.231079 -0.111599 0.000000
-0.024064 0.252125 0.000000
-0.022349 0.255632 0.000000
0.228947 -0.108402 0.000000
0.233301 -0.106928 0.000000
-0.018895 0.252587 0.000000
-0.017177 0.256059 0.000000
0.231124 -0.103682 0.000000
0.235410 -0.102221 0.000000
-0.013722 0.252906 0.000000
-0.011984 0.256358 0.000000
0.233165 -0.098925 0.000000
0.237410 -0.097418 0.000000
-0.008503 0.253124 0.000000
-0.006797 0.256513 0.000000
0.235127 -0.094138 0.000000
0.239324 -0.092617 0.000000
-0.003298 0.253224 0.000000
-0.001537 0.256626 0.000000
0.236998 -0.089320 0.000000
0.241141 -0.087778 0.000000
0.002151 0.253099 0.000000
0.003665 0.256640 0.000000
0.007850 0.257154 0.000000
0.238771 -0.084467 0.000000
0.242860 -0.082904 0.000000
0.007797 0.253617 0.000000
0.011936 0.256414 0.000000
0.240446 -0.079578 0.000000
0.244481 -0.077996 0.000000
0.013338 0.252784 0.000000
0.017146 0.256139 0.000000
0.242028 -0.074654 0.000000
0.246037 -0.073052 0.000000
0.018795 0.252575 0.000000
0.022298 0.255656 0.000000
0.243509 -0.069698 0.000000
0.247448 -0.068073 0.000000
0.023967 0.252157 0.000000
0.027442 0.255166 0.000000
0.244876 -0.064709 0.000000
0.248758 -0.063061 0.000000
0.029162 0.251616 0.000000
0.032604 0.254548 0.000000
0.246144 -0.059697 0.000000
0.249992 -0.058030 0.000000
0.034292 0.250979 0.000000
0.037736 0.253859 0.000000
0.247309 -0.054662 0.000000
0.251104 -0.052986 0.000000
0.039431 0.250218 0.000000
0.042858 0.253073 0.000000
0.248369 -0.049609 0.000000
0.252103 -0.047938 0.000000
0.044531 0.249396 0.000000
0.047946 0.252110 0.000000
0.249327 -0.044538 0.000000
0.253015 -0.042853 0.000000
0.049638 0.248392 0.000000
0.053019 0.251075 0.000000
0.250196 -0.039452 0.000000
0.253860 -0.037736 0.000000
0.054696 0.247309 0.000000
0.058069 0.249954 0.000000
0.251003 -0.034313 0.000000
0.254598 -0.032621 0.000000
0.059722 0.246136 0.000000
0.063114 0.248759 0.000000
0.251639 -0.029149 0.000000
0.255178 -0.027455 0.000000
0.064734 0.244874 0.000000
0.068093 0.247429 0.000000
0.252168 -0.023976 0.000000
0.255662 -0.022304 0.000000
0.069737 0.243542 0.000000
0.073050 0.246037 0.000000
0.252584 -0.018806 0.000000
0.256143 -0.017147 0.000000
0.074663 0.242036 0.000000
0.077996 0.244480 0.000000
0.252817 -0.013347 0.000000
0.256442 -0.011927 0.000000
0.257154 -0.007852 0.000000
0.079584 0.240452 0.000000
0.082921 0.242866 0.000000
0.253690 -0.007780 0.000000
0.256642 -0.003691 0.000000
0.084471 0.238773 0.000000
0.087778 0.241141 0.000000
0.253096 -0.002165 0.000000
0.256647 0.001559 0.000000
0.089321 0.236998 0.000000
0.092617 0.239324 0.000000
0.253243 0.003287 0.000000
0.256520 0.006794 0.000000
0.094136 0.235126 0.000000
0.097418 0.237410 0.000000
0.253129 0.008465 0.000000
0.256359 0.011971 0.000000
0.098915 0.233157 0.000000
0.102180 0.235399 0.000000
0.252942 0.013681 0.000000
0.256098 0.017161 0.000000
0.103663 0.231094 0.000000
0.106917 0.233294 0.000000
0.252587 0.018892 0.000000
0.255640 0.022345 0.000000
0.108396 0.228944 0.000000
0.111598 0.231082 0.000000
0.252126 0.024061 0.000000
0.255131 0.027498 0.000000
0.113048 0.226663 0.000000
0.116271 0.228781 0.000000
0.251586 0.029205 0.000000
0.254568 0.032637 0.000000
0.117706 0.224256 0.000000
0.120852 0.226357 0.000000
0.250942 0.034329 0.000000
0.253839 0.037736 0.000000
0.122248 0.221776 0.000000
0.125477 0.223846 0.000000
0.250188 0.039438 0.000000
0.253035 0.042843 0.000000
0.126912 0.218965 0.000000
0.130002 0.221279 0.000000
0.249333 0.044533 0.000000
0.252125 0.047929 0.000000
0.132108 0.216694 0.000000
0.133891 0.219601 0.000000
0.248369 0.049612 0.000000
0.251087 0.053006 0.000000
0.136550 0.213160 0.000000
0.137046 0.217019 0.000000
0.247301 0.054671 0.000000
0.249968 0.058053 0.000000
0.141152 0.210287 0.000000
0.141372 0.214174 0.000000
0.246134 0.059706 0.000000
0.248748 0.063076 0.000000
0.145482 0.207387 0.000000
0.145725 0.211231 0.000000
0.244867 0.064717 0.000000
0.247418 0.068075 0.000000
0.149697 0.204345 0.000000
0.149984 0.208266 0.000000
0.243509 0.069698 0.000000
0.246029 0.073052 0.000000
0.153835 0.201247 0.000000
0.154130 0.205204 0.000000
0.242036 0.074652 0.000000
0.244477 0.077982 0.000000
0.157903 0.198039 0.000000
0.158242 0.202054 0.000000
0.240463 0.079574 0.000000
0.242860 0.082888 0.000000
0.161909 0.194770 0.000000
0.162280 0.198807 0.000000
0.238789 0.084463 0.000000
0.241157 0.087764 0.000000
0.165849 0.191427 0.000000
0.166250 0.195508 0.000000
0.237021 0.089328 0.000000
0.239376 0.092639 0.000000
0.169721 0.188004 0.000000
0.170154 0.192121 0.000000
0.235172 0.094182 0.000000
0.237425 0.097450 0.000000
0.173527 0.184503 0.000000
0.173991 0.188648 0.000000
0.233173 0.098964 0.000000
0.235397 0.102209 0.000000
0.177263 0.180930 0.000000
0.177779 0.185108 0.000000
0.231102 0.103711 0.000000
0.233283 0.106944 0.000000
0.180917 0.177274 0.000000
0.181479 0.181481 0.000000
0.228922 0.108427 0.000000
0.231077 0.111631 0.000000
0.184496 0.173546 0.000000
0.185088 0.177792 0.000000
0.226606 0.113135 0.000000
0.228845 0.116324 0.000000
0.187993 0.169732 0.000000
0.188640 0.174022 0.000000
0.223969 0.118039 0.000000
0.226404 0.120897 0.000000
0.191413 0.165855 0.000000
0.192089 0.170164 0.000000
0.221863 0.123176 0.000000
0.224891 0.124847 0.000000
0.194756 0.161915 0.000000
0.195477 0.166261 0.000000
0.218540 0.127743 0.000000
0.222360 0.128216 0.000000
0.198020 0.157909 0.000000
0.198786 0.162290 0.000000
0.215874 0.132431 0.000000
0.219701 0.132630 0.000000
0.201205 0.153841 0.000000
0.202014 0.158253 0.000000
0.213147 0.136837 0.000000
0.216928 0.137078 0.000000
0.204316 0.149710 0.000000
0.210278 0.141207 0.000000
0.207360 0.145490 0.000000
0.205171 0.154172 0.000000
0.214149 0.141432 0.000000
0.208240 0.149993 0.000000
0.211214 0.145747 0.000000
CELLS 1860 7440
3 620 2 0
3 0 622 620
3 621 620 622
3 622 625 621
3 317 621 625
3 625 319 317
3 319 625 629
3 629 321 319
3 321 629 633
3 633 323 321
3 323 633 638
3 638 325 323
3 325 638 642
3 642 327 325
3 327 642 646
3 646 329 327
3 329 646 650
3 650 331 329
3 331 650 654
3 654 333 331
3 333 654 658
3 658 335 333
3 335 658 662
3 662 337 335
3 337 662 666
3 666 339 337
3 339 666 670
3 670 341 339
3 341 670 674
3 674 343 341
3 343 674 678
3 678 345 343
3 345 678 682
3 682 347 345
3 347 682 686
3 686 349 347
3 349 686 690
3 690 351 349
3 351 690 694
3 694 353 351
3 353 694 698
3 698 355 353
3 355 698 703
3 703 357 355
3 357 703 707
3 707 359 357
3 359 707 711
3 711 361 359
3 361 711 715
3 715 363 361
3 363 715 719
3 719 365 363
3 365 719 723
3 723 367 365
3 367 723 727
3 727 369 367
3 369 727 731
3 731 371 369
3 371 731 735
3 735 373 371
3 373 735 739
3 739 375 373
3 375 739 744
3 744 377 375
3 377 744 748
3 748 379 377
3 379 748 752
3 752 381 379
3 381 752 756
3 756 383 381
3 383 756 760
3 760 385 383
3 385 760 764
3 764 387 385
3 387 764 768
3 768 389 387
3 389 768 772
3 772 391 389
3 391 772 776
3 776 393 391
3 393 776 780
3 780 395 393
3 395 780 784
3 784 397 395
3 397 784 788
3 788 399 397
3 399 788 792
3 792 401 399
3 401 792 796
3 796 403 401
3 403 796 800
3 800 405 403
3 405 800 805
3 805 407 405
3 407 805 809
3 809 409 407
3 409 809 813
3 813 411 409
3 411 813 817
3 817 413 411
3 413 817 821
3 821 415 413
3 415 821 825
3 825 417 415
3 417 825 829
3 829 419 417
3 419 829 833
3 833 421 419
3 421 833 837
3 837 423 421
3 423 837 841
3 841 425 423
3 425 841 846
3 846 427 425
3 427 846 850
3 850 429 427
3 429 850 854
3 854 431 429
3 431 854 858
3 858 433 431
3 433 858 862
3 862 435 433
3 435 862 866
3 866 437 435
3 437 866 870
3 870 439 437
3 439 870 874
3 874 441 439
3 441 874 878
3 878 443 441
3 443 878 882
3 882 445 443
3 445 882 886
3 886 447 445
3 447 886 890
3 890 449 447
3 449 890 894
3 894 451 449
3 451 894 898
3 898 453 451
3 453 898 902
3 902 455 453
3 455 902 906
3 906 457 455
3 457 906 911
3 911 459 457
3 459 911 915
3 915 461 459
3 461 915 919
3 919 463 461
3 463 919 923
3 923 465 463
3 465 923 927
3 927 467 465
3 467 927 931
3 931 469 467
3 469 931 935
3 935 471 469
3 471 935 939
3 939 473 471
3 473 939 943
3 943 475 473
3 475 943 948
3 948 477 475
3 477 948 952
3 952 479 477
3 479 952 956
3 956 481 479
3 481 956 960
3 960 483 481
3 483 960 964
3 964 485 483
3 485 964 968
3 968 487 485
3 487 968 972
3 972 489 487
3 489 972 976
3 976 491 489
3 491 976 980
3 980 493 491
3 493 980 984
3 984 495 493
3 495 984 988
3 988 497 495
3 497 988 992
3 992 499 497
3 499 992 996
3 996 501 499
3 501 996 1000
3 1000 503 501
3 503 1000 1004
3 1004 505 503
3 505 1004 1008
3 1008 507 505
3 507 1008 1013
3 1013 509 507
3 509 1013 1017
3 1017 511 509
3 511 1017 1021
3 1021 513 511
3 513 1021 1025
3 1025 515 513
3 515 1025 1029
3 1029 517 515
3 517 1029 1033
3 1033 519 517
3 519 1033 1037
3 1037 521 519
3 521 1037 1041
3 1041 523 521
3 523 1041 1045
3 1045 525 523
3 525 1045 1049
3 1049 527 525
3 527 1049 1054
3 1054 529 527
3 529 1054 1058
3 1058 531 529
3 531 1058 1062
3 1062 533 531
3 533 1062 1066
3 1066 535 533
3 535 1066 1070
3 1070 537 535
3 537 1070 1074
3 1074 539 537
3 539 1074 1078
3 1078 541 539
3 541 1078 1082
3 1082 543 541
3 543 1082 1086
3 1086 545 543
3 545 1086 1090
3 1090 547 545
3 547 1090 1094
3 1094 549 547
3 549 1094 1098
3 1098 551 549
3 551 1098 1102
3 1102 553 551
3 553 1102 1106
3 1106 555 553
3 555 1106 1110
3 1110 557 555
3 557 1110 1115
3 1115 559 557
3 559 1115 1119
3 1119 561 559
3 561 1119 1123
3 1123 563 561
3 563 1123 1127
3 1127 565 563
3 565 1127 1131
3 1131 567 565
3 567 1131 1135
3 1135 569 567
3 569 1135 1139
3 1139 571 569
3 571 1139 1143
3 1143 573 571
3 573 1143 1147
3 1147 575 573
3 575 1147 1151
3 1151 577 575
3 577 1151 1155
3 1155 579 577
3 579 1155 1159
3 1159 581 579
3 581 1159 1163
3 1163 583 581
3 583 1163 1167
3 1167 585 583
3 585 1167 1171
3 1171 587 585
3 587 1171 1175
3 1175 589 587
3 589 1175 1179
3 1179 591 589
3 591 1179 1183
3 1183 593 591
3 593 1183 1187
3 1187 595 593
3 595 1187 1191
3 1191 597 595
3 597 1191 1195
3 1195 599 597
3 599 1195 1199
3 1199 601 599
3 601 1199 1203
3 1203 603 601
3 603 1203 1207
3 1207 605 603
3 605 1207 1211
3 1211 607 605
3 607 1211 1215
3 1215 609 607
3 609 1215 1219
3 1219 611 609
3 611 1219 1223
3 1223 613 611
3 613 1223 1227
3 1227 615 613
3 615 1227 1231
3 1231 617 615
3 617 1231 1234
3 1234 618 617
3 618 1234 1235
3 1235 619 618
3 619 1235 1233
3 1233 616 619
3 616 1233 1229
3 1229 614 616
3 614 1229 1225
3 1225 612 614
3 612 1225 1221
3 1221 610 612
3 610 1221 1217
3 1217 608 610
3 608 1217 1213
3 1213 606 608
3 606 1213 1209
3 1209 604 606
3 604 1209 1205
3 1205 602 604
3 602 1205 1201
3 1201 600 602
3 600 1201 1197
3 1197 598 600
3 598 1197 1193
3 1193 596 598
3 596 1193 1189
3 1189 594 596
3 594 1189 1185
3 1185 592 594
3 592 1185 1181
3 1181 590 592
3 590 1181 1177
3 1177 588 590
3 588 1177 1173
3 1173 586 588
3 586 1173 1169
3 1169 584 586
3 584 1169 1165
3 1165 582 584
3 582 1165 1161
3 1161 580 582
3 580 1161 1157
3 1157 578 580
3 578 1157 1153
3 1153 576 578
3 576 1153 1149
3 1149 574 576
3 574 1149 1145
3 1145 572 574
3 572 1145 1141
3 1141 570 572
3 570 1141 1137
3 1137 568 570
3 568 1137 1133
3 1133 566 568
3 566 1133 1129
3 1129 564 566
3 564 1129 1125
3 1125 562 564
3 562 1125 1121
3 1121 560 562
3 560 1121 1117
3 1117 558 560
3 558 1117 1113
3 1113 556 558
3 556 1113 1108
3 1108 554 556
3 554 1108 1104
3 1104 552 554
3 552 1104 1100
3 1100 550 552
3 550 1100 1096
3 1096 548 550
3 548 1096 1092
3 1092 546 548
3 546 1092 1088
3 1088 544 546
3 544 1088 1084
3 1084 542 544
3 542 1084 1080
3 1080 540 542
3 540 1080 1076
3 1076 538 540
3 538 1076 1072
3 1072 536 538
3 536 1072 1068
3 1068 534 536
3 534 1068 1064
3 1064 532 534
3 532 1064 1060
3 1060 530 532
3 530 1060 1056
3 1056 528 530
3 528 1056 1051
3 1051 526 528
3 526 1051 1047
3 1047 524 526
3 524 1047 1043
3 1043 522 524
3 522 1043 1039
3 1039 520 522
3 520 1039 1035
3 1035 518 520
3 518 1035 1031
3 1031 516 518
3 516 1031 1027
3 1027 514 516
3 514 1027 1023
3 1023 512 514
3 512 1023 1019
3 1019 510 512
3 510 1019 1015
3 1015 508 510
3 508 1015 1011
3 1011 506 508
3 506 1011 1006
3 1006 504 506
3 504 1006 1002
3 1002 502 504
3 502 1002 998
3 998 500 502
3 500 998 994
3 994 498 500
3 498 994 990
3 990 496 498
3 496 990 986
3 986 494 496
3 494 986 982
3 982 492 494
3 492 982 978
3 978 490 492
3 490 978 974
3 974 488 490
3 488 974 970
3 970 486 488
3 486 970 966
3 966 484 486
3 484 966 962
3 962 482 484
3 482 962 958
3 958 480 482
3 480 958 954
3 954 478 480
3 478 954 950
3 950 476 478
3 476 950 945
3 945 474 476
3 474 945 941
3 941 472 474
3 472 941 937
3 937 470 472
3 470 937 933
3 933 468 470
3 468 933 929
3 929 466 468
3 466 929 925
3 925 464 466
3 464 925 921
3 921 462 464
3 462 921 917
3 917 460 462
3 460 917 913
3 913 458 460
3 458 913 909
3 909 456 458
3 456 909 904
3 904 454 456
3 454 904 900
3 900 452 454
3 452 900 896
3 896 450 452
3 450 896 892
3 892 448 450
3 448 892 888
3 888 446 448
3 446 888 884
3 884 444 446
3 444 884 880
3 880 442 444
3 442 880 876
3 876 440 442
3 440 876 872
3 872 438 440
3 438 872 868
3 868 436 438
3 436 868 864
3 864 434 436
3 434 864 860
3 860 432 434
3 432 860 856
3 856 430 432
3 430 856 852
3 852 428 430
3 428 852 848
3 848 426 428
3 426 848 843
3 843 424 426
3 424 843 839
3 839 422 424
3 422 839 835
3 835 420 422
3 420 835 831
3 831 418 420
3 418 831 827
3 827 416 418
3 416 827 823
3 823 414 416
3 414 823 819
3 819 412 414
3 412 819 815
3 815 410 412
3 410 815 811
3 811 408 410
3 408 811 807
3 807 406 408
3 406 807 803
3 803 404 406
3 404 803 798
3 798 402 404
3 402 798 794
3 794 400 402
3 400 794 790
3 790 398 400
3 398 790 786
3 786 396 398
3 396 786 782
3 782 394 396
3 394 782 778
3 778 392 394
3 392 778 774
3 774 390 392
3 390 774 770
3 770 388 390
3 388 770 766
3 766 386 388
3 386 766 762
3 762 384 386
3 384 762 758
3 758 382 384
3 382 758 754
3 754 380 382
3 380 754 750
3 750 378 380
3 378 750 746
3 746 376 378
3 376 746 742
3 742 374 376
3 374 742 737
3 737 372 374
3 372 737 733
3 733 370 372
3 370 733 729
3 729 368 370
3 368 729 725
3 725 366 368
3 366 725 721
3 721 364 366
3 364 721 717
3 717 362 364
3 362 717 713
3 713 360 362
3 360 713 709
3 709 358 360
3 358 709 705
3 705 356 358
3 356 705 701
3 701 354 356
3 354 701 696
3 696 352 354
3 352 696 692
3 692 350 352
3 350 692 688
3 688 348 350
3 348 688 684
3 684 346 348
3 346 684 680
3 680 344 346
3 344 680 676
3 676 342 344
3 342 676 672
3 672 340 342
3 340 672 668
3 668 338 340
3 338 668 664
3 664 336 338
3 336 664 660
3 660 334 336
3 334 660 656
3 656 332 334
3 332 656 652
3 652 330 332
3 330 652 648
3 648 328 330
3 328 648 644
3 644 326 328
3 326 644 640
3 640 324 326
3 324 640 635
3 635 322 324
3 322 635 631
3 631 320 322
3 320 631 627
3 627 318 320
3 318 627 623
3 623 1 318
3 1 623 621
3 624 623 627
3 627 628 624
3 4 624 628
3 628 6 4
3 6 628 632
3 632 8 6
3 8 632 636
3 636 9 8
3 9 636 637
3 637 11 9
3 11 637 641
3 641 13 11
3 13 641 645
3 645 15 13
3 15 645 649
3 649 17 15
3 17 649 653
3 653 19 17
3 19 653 657
3 657 21 19
3 21 657 661
3 661 23 21
3 23 661 665
3 665 25 23
3 25 665 669
3 669 27 25
3 27 669 673
3 673 29 27
3 29 673 677
3 677 31 29
3 31 677 681
3 681 33 31
3 33 681 685
3 685 35 33
3 35 685 689
3 689 37 35
3 37 689 693
3 693 39 37
3 39 693 697
3 697 42 39
3 42 697 702
3 702 44 42
3 44 702 706
3 706 46 44
3 46 706 710
3 710 48 46
3 48 710 714
3 714 50 48
3 50 714 718
3 718 52 50
3 52 718 722
3 722 54 52
3 54 722 726
3 726 56 54
3 56 726 730
3 730 58 56
3 58 730 734
3 734 60 58
3 60 734 738
3 738 62 60
3 62 738 741
3 741 63 62
3 63 741 743
3 743 65 63
3 65 743 747
3 747 67 65
3 67 747 751
3 751 69 67
3 69 751 755
3 755 71 69
3 71 755 759
3 759 73 71
3 73 759 763
3 763 75 73
3 75 763 767
3 767 77 75
3 77 767 771
3 771 79 77
3 79 771 775
3 775 81 79
3 81 775 779
3 779 83 81
3 83 779 783
3 783 85 83
3 85 783 787
3 787 87 85
3 87 787 791
3 791 89 87
3 89 791 795
3 795 91 89
3 91 795 799
3 799 94 91
3 94 799 804
3 804 96 94
3 96 804 808
3 808 98 96
3 98 808 812
3 812 100 98
3 100 812 816
3 816 102 100
3 102 816 820
3 820 104 102
3 104 820 824
3 824 106 104
3 106 824 828
3 828 108 106
3 108 828 832
3 832 110 108
3 110 832 836
3 836 112 110
3 112 836 840
3 840 114 112
3 114 840 844
3 844 115 114
3 115 844 845
3 845 117 115
3 117 845 849
3 849 119 117
3 119 849 853
3 853 121 119
3 121 853 857
3 857 123 121
3 123 857 861
3 861 125 123
3 125 861 865
3 865 127 125
3 127 865 869
3 869 129 127
3 129 869 873
3 873 131 129
3 131 873 877
3 877 133 131
3 133 877 881
3 881 135 133
3 135 881 885
3 885 137 135
3 137 885 889
3 889 139 137
3 139 889 893
3 893 141 139
3 141 893 897
3 897 143 141
3 143 897 901
3 901 145 143
3 145 901 905
3 905 148 145
3 148 905 910
3 910 150 148
3 150 910 914
3 914 152 150
3 152 914 918
3 918 154 152
3 154 918 922
3 922 156 154
3 156 922 926
3 926 158 156
3 158 926 930
3 930 160 158
3 160 930 934
3 934 162 160
3 162 934 938
3 938 164 162
3 164 938 942
3 942 166 164
3 166 942 946
3 946 167 166
3 167 946 947
3 947 169 167
3 169 947 951
3 951 171 169
3 171 951 955
3 955 173 171
3 173 955 959
3 959 175 173
3 175 959 963
3 963 177 175
3 177 963 967
3 967 179 177
3 179 967 971
3 971 181 179
3 181 971 975
3 975 183 181
3 183 975 979
3 979 185 183
3 185 979 983
3 983 187 185
3 187 983 987
3 987 189 187
3 189 987 991
3 991 191 189
3 191 991 995
3 995 193 191
3 193 995 999
3 999 195 193
3 195 999 1003
3 1003 197 195
3 197 1003 1007
3 1007 200 197
3 200 1007 1012
3 1012 202 200
3 202 1012 1016
3 1016 204 202
3 204 1016 1020
3 1020 206 204
3 206 1020 1024
3 1024 208 206
3 208 1024 1028
3 1028 210 208
3 210 1028 1032
3 1032 212 210
3 212 1032 1036
3 1036 214 212
3 214 1036 1040
3 1040 216 214
3 216 1040 1044
3 1044 218 216
3 218 1044 1048
3 1048 220 218
3 220 1048 1052
3 1052 222 220
3 222 1052 1053
3 1053 224 222
3 224 1053 1057
3 1057 226 224
3 226 1057 1061
3 1061 228 226
3 228 1061 1065
3 1065 230 228
3 230 1065 1069
3 1069 232 230
3 232 1069 1073
3 1073 234 232
3 234 1073 1077
3 1077 236 234
3 236 1077 1081
3 1081 238 236
3 238 1081 1085
3 1085 240 238
3 240 1085 1089
3 1089 242 240
3 242 1089 1093
3 1093 244 242
3 244 1093 1097
3 1097 246 244
3 246 1097 1101
3 1101 248 246
3 248 1101 1105
3 1105 250 248
3 250 1105 1109
3 1109 252 250
3 252 1109 1114
3 1114 254 252
3 254 1114 1118
3 1118 256 254
3 256 1118 1122
3 1122 258 256
3 258 1122 1126
3 1126 260 258
3 260 1126 1130
3 1130 262 260
3 262 1130 1134
3 1134 264 262
3 264 1134 1138
3 1138 266 264
3 266 1138 1142
3 1142 268 266
3 268 1142 1146
3 1146 270 268
3 270 1146 1150
3 1150 272 270
3 272 1150 1154
3 1154 274 272
3 274 1154 1158
3 1158 276 274
3 276 1158 1162
3 1162 278 276
3 278 1162 1166
3 1166 280 278
3 280 1166 1170
3 1170 282 280
3 282 1170 1174
3 1174 284 282
3 284 1174 1178
3 1178 286 284
3 286 1178 1182
3 1182 288 286
3 288 1182 1186
3 1186 290 288
3 290 1186 1190
3 1190 292 290
3 292 1190 1194
3 1194 294 292
3 294 1194 1198
3 1198 296 294
3 296 1198 1202
3 1202 298 296
3 298 1202 1206
3 1206 300 298
3 300 1206 1210
3 1210 302 300
3 302 1210 1214
3 1214 304 302
3 304 1214 1218
3 1218 306 304
3 306 1218 1222
3 1222 308 306
3 308 1222 1226
3 1226 310 308
3 310 1226 1230
3 1230 312 310
3 312 1230 1236
3 1236 314 312
3 314 1236 1238
3 1238 316 314
3 316 1238 1239
3 1239 315 316
3 315 1239 1237
3 1237 313 315
3 313 1237 1232
3 1232 311 313
3 311 1232 1228
3 1228 309 311
3 309 1228 1224
3 1224 307 309
3 307 1224 1220
3 1220 305 307
3 305 1220 1216
3 1216 303 305
3 303 1216 1212
3 1212 301 303
3 301 1212 1208
3 1208 299 301
3 299 1208 1204
3 1204 297 299
3 297 1204 1200
3 1200 295 297
3 295 1200 1196
3 1196 293 295
3 293 1196 1192
3 1192 291 293
3 291 1192 1188
3 1188 289 291
3 289 1188 1184
3 1184 287 289
3 287 1184 1180
3 1180 285 287
3 285 1180 1176
3 1176 283 285
3 283 1176 1172
3 1172 281 283
3 281 1172 1168
3 1168 279 281
3 279 1168 1164
3 1164 277 279
3 277 1164 1160
3 1160 275 277
3 275 1160 1156
3 1156 273 275
3 273 1156 1152
3 1152 271 273
3 271 1152 1148
3 1148 269 271
3 269 1148 1144
3 1144 267 269
3 267 1144 1140
3 1140 265 267
3 265 1140 1136
3 1136 263 265
3 263 1136 1132
3 1132 261 263
3 261 1132 1128
3 1128 259 261
3 259 1128 1124
3 1124 257 259
3 257 1124 1120
3 1120 255 257
3 255 1120 1116
3 1116 253 255
3 253 1116 1112
3 1112 251 253
3 251 1112 1111
3 1111 249 251
3 249 1111 1107
3 1107 247 249
3 247 1107 1103
3 1103 245 247
3 245 1103 1099
3 1099 243 245
3 243 1099 1095
3 1095 241 243
3 241 1095 1091
3 1091 239 241
3 239 1091 1087
3 1087 237 239
3 237 1087 1083
3 1083 235 237
3 235 1083 1079
3 1079 233 235
3 233 1079 1075
3 1075 231 233
3 231 1075 1071
3 1071 229 231
3 229 1071 1067
3 1067 227 229
3 227 1067 1063
3 1063 225 227
3 225 1063 1059
3 1059 223 225
3 223 1059 1055
3 1055 221 223
3 221 1055 1050
3 1050 219 221
3 219 1050 1046
3 1046 217 219
3 217 1046 1042
3 1042 215 217
3 215 1042 1038
3 1038 213 215
3 213 1038 1034
3 1034 211 213
3 211 1034 1030
3 1030 209 211
3 209 1030 1026
3 1026 207 209
3 207 1026 1022
3 1022 205 207
3 205 1022 1018
3 1018 203 205
3 203 1018 1014
3 1014 201 203
3 201 1014 1010
3 1010 199 201
3 199 1010 1009
3 1009 198 199
3 198 1009 1005
3 1005 196 198
3 196 1005 1001
3 1001 194 196
3 194 1001 997
3 997 192 194
3 192 997 993
3 993 190 192
3 190 993 989
3 989 188 190
3 188 989 985
3 985 186 188
3 186 985 981
3 981 184 186
3 184 981 977
3 977 182 184
3 182 977 973
3 973 180 182
3 180 973 969
3 969 178 180
3 178 969 965
3 965 176 178
3 176 965 961
3 961 174 176
3 174 961 957
3 957 172 174
3 172 957 953
3 953 170 172
3 170 953 949
3 949 168 170
3 168 949 944
3 944 165 168
3 165 944 940
3 940 163 165
3 163 940 936
3 936 161 163
3 161 936 932
3 932 159 161
3 159 932 928
3 928 157 159
3 157 928 924
3 924 155 157
3 155 924 920
3 920 153 155
3 153 920 916
3 916 151 153
3 151 916 912
3 912 149 151
3 149 912 908
3 908 147 149
3 147 908 907
3 907 146 147
3 146 907 903
3 903 144 146
3 144 903 899
3 899 142 144
3 142 899 895
3 895 140 142
3 140 895 891
3 891 138 140
3 138 891 887
3 887 136 138
3 136 887 883
3 883 134 136
3 134 883 879
3 879 132 134
3 132 879 875
3 875 130 132
3 130 875 871
3 871 128 130
3 128 871 867
3 867 126 128
3 126 867 863
3 863 124 126
3 124 863 859
3 859 122 124
3 122 859 855
3 855 120 122
3 120 855 851
3 851 118 120
3 118 851 847
3 847 116 118
3 116 847 842
3 842 113 116
3 113 842 838
3 838 111 113
3 111 838 834
3 834 109 111
3 109 834 830
3 830 107 109
3 107 830 826
3 826 105 107
3 105 826 822
3 822 103 105
3 103 822 818
3 818 101 103
3 101 818 814
3 814 99 101
3 99 814 810
3 810 97 99
3 97 810 806
3 806 95 97
3 95 806 802
3 802 93 95
3 93 802 801
3 801 92 93
3 92 801 797
3 797 90 92
3 90 797 793
3 793 88 90
3 88 793 789
3 789 86 88
3 86 789 785
3 785 84 86
3 84 785 781
3 781 82 84
3 82 781 777
3 777 80 82
3 80 777 773
3 773 78 80
3 78 773 769
3 769 76 78
3 76 769 765
3 765 74 76
3 74 765 761
3 761 72 74
3 72 761 757
3 757 70 72
3 70 757 753
3 753 68 70
3 68 753 749
3 749 66 68
3 66 749 745
3 745 64 66
3 64 745 740
3 740 61 64
3 61 740 736
3 736 59 61
3 59 736 732
3 732 57 59
3 57 732 728
3 728 55 57
3 55 728 724
3 724 53 55
3 53 724 720
3 720 51 53
3 51 720 716
3 716 49 51
3 49 716 712
3 712 47 49
3 47 712 708
3 708 45 47
3 45 708 704
3 704 43 45
3 43 704 700
3 700 41 43
3 41 700 699
3 699 40 41
3 40 699 695
3 695 38 40
3 38 695 691
3 691 36 38
3 36 691 687
3 687 34 36
3 34 687 683
3 683 32 34
3 32 683 679
3 679 30 32
3 30 679 675
3 675 28 30
3 28 675 671
3 671 26 28
3 26 671 667
3 667 24 26
3 24 667 663
3 663 22 24
3 22 663 659
3 659 20 22
3 20 659 655
3 655 18 20
3 18 655 651
3 651 16 18
3 16 651 647
3 647 14 16
3 14 647 643
3 643 12 14
3 12 643 639
3 639 10 12
3 10 639 634
3 634 7 10
3 7 634 630
3 630 5 7
3 5 630 626
3 626 3 5
3 3 626 622
3 629 626 630
3 633 630 634
3 638 634 639
3 642 639 643
3 646 643 647
3 650 647 651
3 654 651 655
3 658 655 659
3 662 659 663
3 666 663 667
3 670 667 671
3 674 671 675
3 678 675 679
3 682 679 683
3 686 683 687
3 690 687 691
3 694 691 695
3 698 695 699
3 700 703 699
3 700 704 703
3 707 704 708
3 711 708 712
3 715 712 716
3 719 716 720
3 723 720 724
3 727 724 728
3 731 728 732
3 735 732 736
3 739 736 740
3 744 740 745
3 748 745 749
3 752 749 753
3 756 753 757
3 760 757 761
3 764 761 765
3 768 765 769
3 772 769 773
3 776 773 777
3 780 777 781
3 784 781 785
3 788 785 789
3 792 789 793
3 796 793 797
3 800 797 801
3 802 805 801
3 802 806 805
3 809 806 810
3 813 810 814
3 817 814 818
3 821 818 822
3 825 822 826
3 829 826 830
3 833 830 834
3 837 834 838
3 841 838 842
3 846 842 847
3 850 847 851
3 854 851 855
3 858 855 859
3 862 859 863
3 866 863 867
3 870 867 871
3 874 871 875
3 878 875 879
3 882 879 883
3 886 883 887
3 890 887 891
3 894 891 895
3 898 895 899
3 902 899 903
3 906 903 907
3 908 911 907
3 908 912 911
3 915 912 916
3 919 916 920
3 923 920 924
3 927 924 928
3 931 928 932
3 935 932 936
3 939 936 940
3 943 940 944
3 948 944 949
3 952 949 953
3 956 953 957
3 960 957 961
3 964 961 965
3 968 965 969
3 972 969 973
3 976 973 977
3 980 977 981
3 984 981 985
3 988 985 989
3 992 989 993
3 996 993 997
3 1000 997 1001
3 1004 1001 1005
3 1008 1005 1009
3 1010 1013 1009
3 1010 1014 1013
3 1017 1014 1018
3 1021 1018 1022
3 1025 1022 1026
3 1029 1026 1030
3 1033 1030 1034
3 1037 1034 1038
3 1041 1038 1042
3 1045 1042 1046
3 1049 1046 1050
3 1054 1050 1055
3 1058 1055 1059
3 1062 1059 1063
3 1066 1063 1067
3 1070 1067 1071
3 1074 1071 1075
3 1078 1075 1079
3 1082 1079 1083
3 1086 1083 1087
3 1090 1087 1091
3 1094 1091 1095
3 1098 1095 1099
3 1102 1099 1103
3 1106 1103 1107
3 1110 1107 1111
3 1112 1115 1111
3 1112 1116 1115
3 1119 1116 1120
3 1123 1120 1124
3 1127 1124 1128
3 1131 1128 1132
3 1135 1132 1136
3 1139 1136 1140
3 1143 1140 1144
3 1147 1144 1148
3 1151 1148 1152
3 1155 1152 1156
3 1159 1156 1160
3 1163 1160 1164
3 1167 1164 1168
3 1171 1168 1172
3 1175 1172 1176
3 1179 1176 1180
3 1183 1180 1184
3 1187 1184 1188
3 1191 1188 1192
3 1195 1192 1196
3 1199 1196 1200
3 1203 1200 1204
3 1207 1204 1208
3 1211 1208 1212
3 1215 1212 1216
3 1220 1219 1216
3 1220 1224 1219
3 1223 1224 1228
3 1227 1228 1232
3 1231 1232 1237
3 1234 1237 1239
3 1235 1239 1238
3 1233 1238 1236
3 1229 1236 1230
3 1225 1230 1226
3 1221 1226 1222
3 1217 1222 1218
3 1213 1218 1214
3 1209 1214 1210
3 1205 1210 1206
3 1201 1206 1202
3 1197 1202 1198
3 1193 1198 1194
3 1189 1194 1190
3 1185 1190 1186
3 1181 1186 1182
3 1177 1182 1178
3 1173 1178 1174
3 1169 1174 1170
3 1165 1170 1166
3 1161 1166 1162
3 1158 1157 1162
3 1158 1154 1157
3 1153 1154 1150
3 1149 1150 1146
3 1145 1146 1142
3 1141 1142 1138
3 1137 1138 1134
3 1133 1134 1130
3 1129 1130 1126
3 1125 1126 1122
3 1121 1122 1118
3 1117 1118 1114
3 1113 1114 1109
3 1108 1109 1105
3 1104 1105 1101
3 1100 1101 1097
3 1096 1097 1093
3 1092 1093 1089
3 1088 1089 1085
3 1084 1085 1081
3 1080 1081 1077
3 1076 1077 1073
3 1072 1073 1069
3 1068 1069 1065
3 1064 1065 1061
3 1060 1061 1057
3 1053 1056 1057
3 1053 1052 1056
3 1051 1052 1048
3 1047 1048 1044
3 1043 1044 1040
3 1039 1040 1036
3 1035 1036 1032
3 1031 1032 1028
3 1027 1028 1024
3 1023 1024 1020
3 1019 1020 1016
3 1015 1016 1012
3 1011 1012 1007
3 1006 1007 1003
3 1002 1003 999
3 998 999 995
3 994 995 991
3 990 991 987
3 986 987 983
3 982 983 979
3 978 979 975
3 974 975 971
3 970 971 967
3 966 967 963
3 962 963 959
3 958 959 955
3 954 955 951
3 947 950 951
3 947 946 950
3 945 946 942
3 941 942 938
3 937 938 934
3 933 934 930
3 929 930 926
3 925 926 922
3 921 922 918
3 917 918 914
3 913 914 910
3 909 910 905
3 904 905 901
3 900 901 897
3 896 897 893
3 892 893 889
3 888 889 885
3 884 885 881
3 880 881 877
3 876 877 873
3 872 873 869
3 868 869 865
3 864 865 861
3 860 861 857
3 856 857 853
3 852 853 849
3 845 848 849
3 845 844 848
3 844 840 843
3 839 840 836
3 835 836 832
3 831 832 828
3 827 828 824
3 823 824 820
3 819 820 816
3 815 816 812
3 811 812 808
3 807 808 804
3 803 804 799
3 798 799 795
3 794 795 791
3 790 791 787
3 786 787 783
3 782 783 779
3 778 779 775
3 774 775 771
3 770 771 767
3 766 767 763
3 762 763 759
3 758 759 755
3 754 755 751
3 750 751 747
3 743 746 747
3 743 741 746
3 742 741 738
3 737 738 734
3 733 734 730
3 729 730 726
3 725 726 722
3 721 722 718
3 717 718 714
3 713 714 710
3 709 710 706
3 705 706 702
3 701 702 697
3 696 697 693
3 692 693 689
3 688 689 685
3 684 685 681
3 680 681 677
3 676 677 673
3 672 673 669
3 668 669 665
3 664 665 661
3 660 661 657
3 656 657 653
3 652 653 649
3 648 649 645
3 644 645 641
3 637 640 641
3 637 636 640
3 635 636 632
3 631 632 628
3 624 4 2
3 623 624 620
3 628 627 631
3 632 631 635
3 636 635 640
3 641 640 644
3 645 644 648
3 649 648 652
3 653 652 656
3 657 656 660
3 661 660 664
3 665 664 668
3 669 668 672
3 673 672 676
3 677 676 680
3 681 680 684
3 685 684 688
3 689 688 692
3 693 692 696
3 697 696 701
3 702 701 705
3 706 705 709
3 710 709 713
3 714 713 717
3 718 717 721
3 722 721 725
3 726 725 729
3 730 729 733
3 734 733 737
3 738 737 742
3 741 742 746
3 747 746 750
3 751 750 754
3 755 754 758
3 759 758 762
3 763 762 766
3 767 766 770
3 771 770 774
3 775 774 778
3 779 778 782
3 783 782 786
3 787 786 790
3 791 790 794
3 795 794 798
3 799 798 803
3 804 803 807
3 808 807 811
3 812 811 815
3 816 815 819
3 820 819 823
3 824 823 827
3 828 827 831
3 832 831 835
3 836 835 839
3 840 839 843
3 844 843 848
3 849 848 852
3 853 852 856
3 857 856 860
3 861 860 864
3 865 864 868
3 869 868 872
3 873 872 876
3 877 876 880
3 881 880 884
3 885 884 888
3 889 888 892
3 893 892 896
3 897 896 900
3 901 900 904
3 905 904 909
3 910 909 913
3 914 913 917
3 918 917 921
3 922 921 925
3 926 925 929
3 930 929 933
3 934 933 937
3 938 937 941
3 942 941 945
3 946 945 950
3 951 950 954
3 955 954 958
3 959 958 962
3 963 962 966
3 967 966 970
3 971 970 974
3 975 974 978
3 979 978 982
3 983 982 986
3 987 986 990
3 991 990 994
3 995 994 998
3 999 998 1002
3 1003 1002 1006
3 1007 1006 1011
3 1012 1011 1015
3 1016 1015 1019
3 1020 1019 1023
3 1024 1023 1027
3 1028 1027 1031
3 1032 1031 1035
3 1036 1035 1039
3 1040 1039 1043
3 1044 1043 1047
3 1048 1047 1051
3 1052 1051 1056
3 1057 1056 1060
3 1061 1060 1064
3 1065 1064 1068
3 1069 1068 1072
3 1073 1072 1076
3 1077 1076 1080
3 1081 1080 1084
3 1085 1084 1088
3 1089 1088 1092
3 1093 1092 1096
3 1097 1096 1100
3 1101 1100 1104
3 1105 1104 1108
3 1109 1108 1113
3 1114 1113 1117
3 1118 1117 1121
3 1122 1121 1125
3 1126 1125 1129
3 1130 1129 1133
3 1134 1133 1137
3 1138 1137 1141
3 1142 1141 1145
3 1146 1145 1149
3 1150 1149 1153
3 1154 1153 1157
3 1162 1157 1161
3 1166 1161 1165
3 1170 1165 1169
3 1174 1169 1173
3 1178 1173 1177
3 1182 1177 1181
3 1186 1181 1185
3 1190 1185 1189
3 1194 1189 1193
3 1198 1193 1197
3 1202 1197 1201
3 1206 1201 1205
3 1210 1205 1209
3 1214 1209 1213
3 1218 1213 1217
3 1222 1217 1221
3 1226 1221 1225
3 1230 1225 1229
3 1236 1229 1233
3 1238 1233 1235
3 1239 1235 1234
3 1237 1234 1231
3 1232 1231 1227
3 1228 1227 1223
3 1224 1223 1219
3 1216 1219 1215
3 1212 1215 1211
3 1208 1211 1207
3 1204 1207 1203
3 1200 1203 1199
3 1196 1199 1195
3 1192 1195 1191
3 1188 1191 1187
3 1184 1187 1183
3 1180 1183 1179
3 1176 1179 1175
3 1172 1175 1171
3 1168 1171 1167
3 1164 1167 1163
3 1160 1163 1159
3 1156 1159 1155
3 1152 1155 1151
3 1148 1151 1147
3 1144 1147 1143
3 1140 1143 1139
3 1136 1139 1135
3 1132 1135 1131
3 1128 1131 1127
3 1124 1127 1123
3 1120 1123 1119
3 1116 1119 1115
3 1111 1115 1110
3 1107 1110 1106
3 1103 1106 1102
3 1099 1102 1098
3 1095 1098 1094
3 1091 1094 1090
3 1087 1090 1086
3 1083 1086 1082
3 1079 1082 1078
3 1075 1078 1074
3 1071 1074 1070
3 1067 1070 1066
3 1063 1066 1062
3 1059 1062 1058
3 1055 1058 1054
3 1050 1054 1049
3 1046 1049 1045
3 1042 1045 1041
3 1038 1041 1037
3 1034 1037 1033
3 1030 1033 1029
3 1026 1029 1025
3 1022 1025 1021
3 1018 1021 1017
3 1014 1017 1013
3 1009 1013 1008
3 1005 1008 1004
3 1001 1004 1000
3 997 1000 996
3 993 996 992
3 989 992 988
3 985 988 984
3 981 984 980
3 977 980 976
3 973 976 972
3 969 972 968
3 965 968 964
3 961 964 960
3 957 960 956
3 953 956 952
3 949 952 948
3 944 948 943
3 940 943 939
3 936 939 935
3 932 935 931
3 928 931 927
3 924 927 923
3 920 923 919
3 916 919 915
3 912 915 911
3 907 911 906
3 903 906 902
3 899 902 898
3 895 898 894
3 891 894 890
3 887 890 886
3 883 886 882
3 879 882 878
3 875 878 874
3 871 874 870
3 867 870 866
3 863 866 862
3 859 862 858
3 855 858 854
3 851 854 850
3 847 850 846
3 842 846 841
3 838 841 837
3 834 837 833
3 830 833 829
3 826 829 825
3 822 825 821
3 818 821 817
3 814 817 813
3 810 813 809
3 806 809 805
3 801 805 800
3 797 800 796
3 793 796 792
3 789 792 788
3 785 788 784
3 781 784 780
3 777 780 776
3 773 776 772
3 769 772 768
3 765 768 764
3 761 764 760
3 757 760 756
3 753 756 752
3 749 752 748
3 745 748 744
3 740 744 739
3 736 739 735
3 732 735 731
3 728 731 727
3 724 727 723
3 720 723 719
3 716 719 715
3 712 715 711
3 708 711 707
3 704 707 703
3 699 703 698
3 695 698 694
3 691 694 690
3 687 690 686
3 683 686 682
3 679 682 678
3 675 678 674
3 671 674 670
3 667 670 666
3 663 666 662
3 659 662 658
3 655 658 654
3 651 654 650
3 647 650 646
3 643 646 642
3 639 642 638
3 634 638 633
3 630 633 629
3 626 629 625
3 621 317 1
3 625 622 626
3 620 621 623
3 622 0 3
3 2 620 624
CELL_TYPES 1860
9
9
9
9
9
9
9
9
9
9
9
9
9
9
9
9
9
9
9
9
9
9
9
9
9
9
9
9
9
9
9
9
9
9
9
9
9
9
9
9
9
9
9
9
9
9
9
9
9
9
9
9
9
9
9
9
9
9
9
9
9
9
9
9
9
9
9
9
9
9
9
9
9
9
9
9
9
9
9
9
9
9
9
9
9
9
9
9
9
9
9
9
9
9
9
9
9
9
9
9
9
9
9
9
9
9
9
9
9
9
9
9
9
9
9
9
9
9
9
9
9
9
9
9
9
9
9
9
9
9
9
9
9
9
9
9
9
9
9
9
9
9
9
9
9
9
9
9
9
9
9
9
9
9
9
9
9
9
9
9
9
9
9
9
9
9
9
9
9
9
9
9
9
9
9
9
9
9
9
9
9
9
9
9
9
9
9
9
9
9
9
9
9
9
9
9
9
9
9
9
9
9
9
9
9
9
9
9
9
9
9
9
9
9
9
9
9
9
9
9
9
9
9
9
9
9
9
9
9
9
9
9
9
9
9
9
9
9
9
9
9
9
9
9
9
9
9
9
9
9
9
9
9
9
9
9
9
9
9
9
9
9
9
9
9
9
9
9
9
9
9
9
9
9
9
9
9
9
9
9
9
9
9
9
9
9
9
9
9
9
9
9
9
9
9
9
9
9
9
9
9
9
9
9
9
9
9
9
9
9
9
9
9
9
9
9
9
9
9
9
9
9
9
9
9
9
9
9
9
9
9
9
9
9
9
9
9
9
9
9
9
9
9
9
9
9
9
9
9
9
9
9
9
9
9
9
9
9
9
9
9
9
9
9
9
9
9
9
9
9
9
9
9
9
9
9
9
9
9
9
9
9
9
9
9
9
9
9
9
9
9
9
9
9
9
9
9
9
9
9
9
9
9
9
9
9
9
9
9
9
9
9
9
9
9
9
9
9
9
9
9
9
9
9
9
9
9
9
9
9
9
9
9
9
9
9
9
9
9
9
9
9
9
9
9
9
9
9
9
9
9
9
9
9
9
9
9
9
9
9
9
9
9
9
9
9
9
9
9
9
9
9
9
9
9
9
9
9
9
9
9
9
9
9
9
9
9
9
9
9
9
9
9
9
9
9
9
9
9
9
9
9
9
9
9
9
9
9
9
9
9
9
9
9
9
9
9
9
9
9
9
9
9
9
9
9
9
9
9
9
9
9
9
9
9
9
9
9
9
9
9
9
9
9
9
9
9
9
9
9
9
9
9
9
9
9
9
9
9
9
9
9
9
9
9
9
9
9
9
9
9
9
9
9
9
9
9
9
9
9
9
9
9
9
9
9
9
9
9
9
9
9
9
9
9
9
9
9
9
9
9
9
9
9
9
9
9
9
9
9
9
9
9
9
9
9
9
9
9
9
9
9
9
9
9
9
9
9
9
9
9
9
9
9
9
9
9
9
9
9
9
9
9
9
9
9
9
9
9
9
9
9
9
9
9
9
9
9
9
9
9
9
9
9
9
9
9
9
9
9
9
9
9
9
9
9
9
9
9
9
9
9
9
9
9
9
9
9
9
9
9
9
9
9
9
9
9
9
9
9
9
9
9
9
9
9
9
9
9
9
9
9
9
9
9
9
9
9
9
9
9
9
9
9
9
9
9
9
9
9
9
9
9
9
9
9
9
9
9
9
9
9
9
9
9
9
9
9
9
9
9
9
9
9
9
9
9
9
9
9
9
9
9
9
9
9
9
9
9
9
9
9
9
9
9
9
9
9
9
9
9
9
9
9
9
9
9
9
9
9
9
9
9
9
9
9
9
9
9
9
9
9
9
9
9
9
9
9
9
9
9
9
9
9
9
9
9
9
9
9
9
9
9
9
9
9
9
9
9
9
9
9
9
9
9
9
9
9
9
9
9
9
9
9
9
9
9
9
9
9
9
9
9
9
9
9
9
9
9
9
9
9
9
9
9
9
9
9
9
9
9
9
9
9
9
9
9
9
9
9
9
9
9
9
9
9
9
9
9
9
9
9
9
9
9
9
9
9
9
9
9
9
9
9
9
9
9
9
9
9
9
9
9
9
9
9
9
9
9
9
9
9
9
9
9
9
9
9
9
9
9
9
9
9
9
9
9
9
9
9
9
9
9
9
9
9
9
9
9
9
9
9
9
9
9
9
9
9
9
9
9
9
9
9
9
9
9
9
9
9
9
9
9
9
9
9
9
9
9
9
9
9
9
9
9
9
9
9
9
9
9
9
9
9
9
9
9
9
9
9
9
9
9
9
9
9
9
9
9
9
9
9
9
9
9
9
9
9
9
9
9
9
9
9
9
9
9
9
9
9
9
9
9
9
9
9
9
9
9
9
9
9
9
9
9
9
9
9
9
9
9
9
9
9
9
9
9
9
9
9
9
9
9
9
9
9
9
9
9
9
9
9
9
9
9
9
9
9
9
9
9
9
9
9
9
9
9
9
9
9
9
9
9
9
9
9
9
9
9
9
9
9
9
9
9
9
9
9
9
9
9
9
9
9
9
9
9
9
9
9
9
9
9
9
9
9
9
9
9
9
9
9
9
9
9
9
9
9
9
9
9
9
9
9
9
9
9
9
9
9
9
9
9
9
9
9
9
9
9
9
9
9
9
9
9
9
9
9
9
9
9
9
9
9
9
9
9
9
9
9
9
9
9
9
9
9
9
9
9
9
9
9
9
9
9
9
9
9
9
9
9
9
9
9
9
9
9
9
9
9
9
9
9
9
9
9
9
9
9
9
9
9
9
9
9
9
9
9
9
9
9
9
9
9
9
9
9
9
9
9
9
9
9
9
9
9
9
9
9
9
9
9
9
9
9
9
9
9
9
9
9
9
9
9
9
9
9
9
9
9
9
9
9
9
9
9
9
9
9
9
9
9
9
9
9
9
9
9
9
9
9
9
9
9
9
9
9
9
9
9
9
9
9
9
9
9
9
9
9
9
9
9
9
9
9
9
9
9
9
9
9
9
9
9
9
9
9
9
9
9
9
9
9
9
9
9
9
9
9
9
9
9
9
9
9
9
9
9
9
9
9
9
9
9
9
9
9
9
9
9
9
9
9
9
9
9
9
9
9
9
9
9
9
9
9
9
9
9
9
9
9
9
9
9
9
9
9
9
9
9
9
9
9
9
9
9
9
9
9
9
9
9
9
9
9
9
9
9
9
9
9
9
9
9
9
9
9
9
9
9
9
9
9
9
9
9
9
9
9
9
9
9
9
9
9
9
9
9
9
9
9
9
9
9
9
9
9
9
9
9
9
9
9
9
9
9
9
9
9
9
9
9
9
9
9
9
9
9
9
9
9
9
9
9
9
9
9
9
9
9
9
9
9
9
9
9
9
9
9
9
9
9
9
9
9
9
9
9
9
9
9
9
9
9
9
9
9
9
9
9
9
9
9
9
9
9
9
9
9
9
9
9
9
9
9
9
9
9
9
9
9
9
9
9
9
9
9
9
9
9
9
9
9
9
9
9
9
9
9
9
9
9
9
9
9
9
9
9
9
9
9
9
9
9
9
9
9
9
9
9
9
9
9
9
9
9
9
9
9
9
9
9
9
9
9
9
9
9
9
9
9
9
9
9
9
9
9
9
9
9
9
9
9
9
9
9
9
9
9
9
9
9
9
9
9
9
9
9
9
9
9
9
9
9
9
9
9
9
9
9
9
9
9
9
9
9
9
9
9
9
9
9
9
9
9
9
9
9
9
9
9
9
9
9
9
9
9
9
9
9
9
9
9
9
9
9
9
9
9
9
9
9
9
9
9
9
9
9
9
9
9
9
9
9
9
9
9
9
9
9
9
9
9
9
9
9
9
9
9
9
9
9
9
9
9
9
9
9
9
9
9
9
9
9
9
9
9
9
9
9
9
9
9
9
9
9
9
9
9
9
9
9
9
9
9
9
9
9
9
9
9
9
9
9
9
9
9
9
9
9
9
9
9
9
9
9
9
9
9
9
9
9
9
9
9
9
9
9
9
9
9
9
9
9
9
9
9
9
9
9
9
9
9
9
9
9
9
9
9
9
9
9
9
9
9
9
9
9
9
9
9
9
9
9
9
9
9
9
9
9
9
9
9
9
9
9
9
9
9
9
9
9
9
9
9
9
9
9
9
9
9
9
9
9
9
9
9
9
9
9
9
9
9
9
9
9
9
9
9
9
9
9
9
9
9
9
9
9
9
9
POINT_DATA 1240
SCALARS u1 float
LOOKUP_TABLE default
-0.0001
-0.0001
-0.0001
-0.0001
-0.0001
-0.0001
-0.0001
-0.0001
-9e-05
-9e-05
-0.0002
-9e-05
-0.0002
-0.0001
-0.0002
-0.0001
-0.0002
-0.0001
-0.0002
-0.0001
-0.0002
-0.0001
-0.0001
-0.0001
-0.0001
-0.0001
-0.0001
-0.0001
-0.0001
-0.0002
-0.0001
-0.0002
-9e-05
-0.0002
-8e-05
-0.0002
-7e-05
-0.0002
-6e-05
-0.0003
-6e-05
-5e-05
-0.0003
-5e-05
-0.0003
-4e-05
-0.0003
-4e-05
-0.0004
-4e-05
-0.0004
-4e-05
-0.0004
-4e-05
-0.0004
-4e-05
-0.0004
-4e-05
-0.0004
-4e-05
-0.0004
-4e-05
-0.0004
-0.0004
-5e-05
-0.0004
-5e-05
-0.0004
-5e-05
-0.0004
-6e-05
-0.0004
-6e-05
-0.0004
-7e-05
-0.0004
-7e-05
-0.0003
-7e-05
-0.0003
-7e-05
-0.0003
-7e-05
-0.0003
-7e-05
-0.0002
-6e-05
-0.0002
-6e-05
-0.0002
-6e-05
-0.0002
-5e-05
-4e-05
-0.0002
-4e-05
-0.0002
-3e-05
-0.0001
-3e-05
-0.0001
-2e-05
-0.0001
-1e-05
-0.0001
-1e-05
-0.0001
-5e-06
-0.0001
-1e-06
-0.0001
2e-06
-0.0001
4e-06
-0.0001
-0.0001
5e-06
-0.0001
4e-06
-0.0001
2e-06
-0.0001
-6e-07
-0.0001
-4e-06
-0.0001
-8e-06
-0.0002
-1e-05
-0.0002
-2e-05
-0.0002
-2e-05
-0.0002
-2e-05
-0.0002
-2e-05
-0.0002
-3e-05
-0.0002
-3e-05
-0.0002
-3e-05
-0.0002
-3e-05
-0.0002
-3e-05
-3e-05
-0.0002
-2e-05
-0.0001
-2e-05
-0.0001
-2e-05
-0.0001
-2e-05
-0.0001
-1e-05
-0.0001
-2e-06
-9e-05
7e-06
-9e-05
2e-05
-8e-05
3e-05
-8e-05
-8e-05
4e-05
-8e-05
5e-05
-8e-05
6e-05
-8e-05
7e-05
-8e-05
8e-05
-8e-05
8e-05
-8e-05
8e-05
-8e-05
8e-05
-8e-05
8e-05
-8e-05
7e-05
-9e-05
7e-05
-9e-05
6e-05
-9e-05
5e-05
-0.0001
4e-05
-0.0001
3e-05
-0.0001
2e-05
1e-05
-0.0001
1e-05
-0.0001
8e-06
-0.0001
9e-06
-0.0001
1e-05
-0.0001
1e-05
-0.0001
2e-05
-9e-05
2e-05
-9e-05
3e-05
-8e-05
4e-05
-8e-05
5e-05
-7e-05
6e-05
-6e-05
7e-05
-6e-05
8e-05
-5e-05
0.0001
-5e-05
0.0001
-4e-05
0.0001
-4e-05
0.0002
-3e-05
0.0002
-3e-05
0.0002
-3e-05
0.0002
-3e-05
0.0003
-3e-05
0.0003
-4e-05
0.0003
-4e-05
0.0003
-4e-05
0.0003
-5e-05
0.0003
-5e-05
0.0003
-5e-05
0.0003
-6e-05
0.0003
-6e-05
0.0003
-6e-05
0.0003
-6e-05
0.0003
-6e-05
0.0003
-6e-05
0.0003
-6e-05
0.0002
-6e-05
0.0002
-6e-05
0.0002
-5e-05
0.0002
-5e-05
0.0002
-5e-05
0.0001
-4e-05
0.0001
-3e-05
9e-05
-2e-05
7e-05
-1e-05
6e-05
9e-07
4e-05
1e-05
3e-05
3e-05
2e-05
4e-05
2e-05
4e-05
9e-06
5e-05
3e-06
6e-05
-2e-06
6e-05
-6e-06
6e-05
-9e-06
6e-05
-1e-05
5e-05
-9e-06
4e-05
-6e-06
3e-05
-4e-07
2e-05
7e-06
2e-05
-0.0001
-0.0001
-0.0001
-9e-05
-0.0001
-9e-05
-0.0001
-9e-05
-0.0001
-0.0001
-0.0001
-0.0001
-0.0002
-0.0001
-0.0002
-0.0001
-0.0002
-0.0001
-0.0002
-0.0001
-0.0002
-0.0001
-0.0001
-0.0001
-0.0001
-0.0002
-0.0001
-0.0002
-0.0001
-0.0002
-0.0001
-0.0002
-9e-05
-0.0002
-8e-05
-0.0003
-7e-05
-0.0003
-6e-05
-0.0003
-5e-05
-0.0003
-5e-05
-0.0004
-4e-05
-0.0004
-4e-05
-0.0004
-4e-05
-0.0004
-4e-05
-0.0004
-3e-05
-0.0004
-3e-05
-0.0004
-3e-05
-0.0004
-3e-05
-0.0004
-3e-05
-0.0004
-2e-05
-0.0004
-2e-05
-0.0004
-2e-05
-0.0004
-2e-05
-0.0004
-3e-05
-0.0004
-3e-05
-0.0003
-3e-05
-0.0003
-3e-05
-0.0003
-3e-05
-0.0003
-3e-05
-0.0002
-3e-05
-0.0002
-3e-05
-0.0002
-3e-05
-0.0002
-3e-05
-0.0002
-3e-05
-0.0002
-3e-05
-0.0002
-3e-05
-0.0001
-3e-05
-0.0001
-3e-05
-0.0001
-3e-05
-0.0001
-3e-05
-0.0001
-3e-05
-0.0001
-4e-05
-0.0001
-4e-05
-0.0001
-4e-05
-0.0001
-4e-05
-0.0001
-4e-05
-0.0001
-4e-05
-0.0001
-4e-05
-0.0001
-4e-05
-0.0001
-4e-05
-0.0002
-4e-05
-0.0002
-4e-05
-0.0002
-4e-05
-0.0002
-4e-05
-0.0002
-4e-05
-0.0002
-3e-05
-0.0002
-3e-05
-0.0002
-3e-05
-0.0002
-3e-05
-0.0002
-2e-05
-0.0002
-2e-05
-0.0001
-9e-06
-0.0001
-5e-07
-0.0001
9e-06
-0.0001
2e-05
-0.0001
3e-05
-9e-05
4e-05
-9e-05
5e-05
-8e-05
6e-05
-7e-05
7e-05
-7e-05
8e-05
-7e-05
8e-05
-7e-05
8e-05
-7e-05
8e-05
-6e-05
8e-05
-6e-05
7e-05
-6e-05
6e-05
-6e-05
5e-05
-6e-05
4e-05
-6e-05
3e-05
-6e-05
3e-05
-6e-05
2e-05
-6e-05
1e-05
-6e-05
1e-05
-6e-05
8e-06
-7e-05
9e-06
-7e-05
1e-05
-7e-05
2e-05
-7e-05
2e-05
-7e-05
3e-05
-7e-05
3e-05
-7e-05
4e-05
-7e-05
5e-05
-7e-05
6e-05
-7e-05
7e-05
-7e-05
9e-05
-7e-05
0.0001
-7e-05
0.0001
-7e-05
0.0001
-7e-05
0.0002
-7e-05
0.0002
-7e-05
0.0002
-7e-05
0.0002
-7e-05
0.0003
-8e-05
0.0003
-8e-05
0.0003
-8e-05
0.0003
-8e-05
0.0003
-8e-05
0.0003
-8e-05
0.0003
-7e-05
0.0003
-7e-05
0.0003
-7e-05
0.0003
-7e-05
0.0003
-7e-05
0.0003
-6e-05
0.0003
-6e-05
0.0003
-6e-05
0.0003
-5e-05
0.0002
-5e-05
0.0002
-4e-05
0.0002
-3e-05
0.0002
-2e-05
0.0001
-9e-06
0.0001
3e-06
9e-05
2e-05
8e-05
3e-05
6e-05
4e-05
5e-05
5e-05
4e-05
5e-05
3e-05
6e-05
2e-05
6e-05
1e-05
6e-05
5e-06
5e-05
-3e-07
5e-05
-5e-06
4e-05
-8e-06
3e-05
-1e-05
2e-05
-9e-06
1e-05
-6e-06
-1e-06
6e-06
-0.0001
-0.0001
-0.0001
-0.0001
-0.0001
-0.0001
-0.0001
-0.0001
-0.0001
-0.0001
-0.0001
-9e-05
-9e-05
-0.0001
-0.0001
-9e-05
-9e-05
-9e-05
-0.0001
-0.0002
-9e-05
-9e-05
-0.0002
-0.0002
-0.0001
-0.0001
-0.0002
-0.0002
-0.0001
-0.0001
-0.0002
-0.0002
-0.0001
-0.0001
-0.0002
-0.0002
-0.0001
-0.0001
-0.0002
-0.0002
-0.0001
-0.0001
-0.0002
-0.0001
-0.0001
-0.0001
-0.0001
-0.0001
-0.0001
-0.0001
-0.0001
-0.0001
-0.0002
-0.0002
-0.0001
-0.0001
-0.0002
-0.0002
-0.0001
-0.0001
-0.0002
-0.0002
-0.0001
-9e-05
-0.0002
-0.0002
-9e-05
-8e-05
-0.0002
-0.0002
-8e-05
-7e-05
-0.0002
-0.0003
-7e-05
-6e-05
-0.0003
-0.0003
-6e-05
-6e-05
-5e-05
-0.0003
-0.0003
-5e-05
-5e-05
-0.0003
-0.0003
-5e-05
-4e-05
-0.0003
-0.0003
-4e-05
-4e-05
-0.0004
-0.0004
-4e-05
-4e-05
-0.0004
-0.0004
-4e-05
-4e-05
-0.0004
-0.0004
-4e-05
-4e-05
-0.0004
-0.0004
-4e-05
-4e-05
-0.0004
-0.0004
-4e-05
-4e-05
-0.0004
-0.0004
-3e-05
-4e-05
-0.0004
-0.0004
-3e-05
-4e-05
-0.0004
-0.0004
-0.0004
-3e-05
-4e-05
-0.0004
-0.0004
-3e-05
-4e-05
-0.0004
-0.0004
-3e-05
-5e-05
-0.0004
-0.0004
-4e-05
-5e-05
-0.0004
-0.0004
-4e-05
-5e-05
-0.0004
-0.0004
-4e-05
-5e-05
-0.0004
-0.0004
-4e-05
-5e-05
-0.0003
-0.0003
-4e-05
-6e-05
-0.0003
-0.0003
-4e-05
-6e-05
-0.0003
-0.0003
-4e-05
-6e-05
-0.0003
-0.0003
-4e-05
-5e-05
-0.0003
-0.0002
-4e-05
-5e-05
-0.0002
-0.0002
-4e-05
-5e-05
-0.0002
-0.0002
-4e-05
-5e-05
-0.0002
-0.0002
-4e-05
-4e-05
-4e-05
-0.0002
-0.0002
-4e-05
-4e-05
-0.0002
-0.0002
-3e-05
-3e-05
-0.0002
-0.0001
-3e-05
-3e-05
-0.0001
-0.0001
-3e-05
-2e-05
-0.0001
-0.0001
-3e-05
-2e-05
-0.0001
-0.0001
-3e-05
-2e-05
-0.0001
-0.0001
-2e-05
-1e-05
-0.0001
-0.0001
-2e-05
-1e-05
-0.0001
-0.0001
-2e-05
-1e-05
-0.0001
-0.0001
-2e-05
-9e-06
-0.0001
-0.0001
-0.0001
-2e-05
-1e-05
-0.0001
-0.0001
-2e-05
-1e-05
-0.0001
-0.0001
-3e-05
-1e-05
-0.0001
-0.0001
-3e-05
-2e-05
-0.0001
-0.0001
-3e-05
-2e-05
-0.0001
-0.0001
-3e-05
-2e-05
-0.0001
-0.0002
-3e-05
-2e-05
-0.0002
-0.0002
-3e-05
-3e-05
-0.0002
-0.0002
-3e-05
-3e-05
-0.0002
-0.0002
-3e-05
-3e-05
-0.0002
-0.0002
-3e-05
-3e-05
-0.0002
-0.0002
-3e-05
-3e-05
-0.0002
-0.0002
-3e-05
-3e-05
-0.0002
-0.0002
-3e-05
-3e-05
-0.0002
-0.0002
-3e-05
-3e-05
-0.0002
-0.0002
-3e-05
-3e-05
-3e-05
-0.0002
-0.0002
-3e-05
-2e-05
-0.0002
-0.0001
-2e-05
-2e-05
-0.0001
-0.0001
-2e-05
-2e-05
-0.0001
-0.0001
-9e-06
-9e-06
-0.0001
-0.0001
-4e-07
-9e-07
-0.0001
-0.0001
9e-06
9e-06
-0.0001
-9e-05
2e-05
2e-05
-9e-05
-9e-05
3e-05
3e-05
-9e-05
-8e-05
4e-05
4e-05
-8e-05
-8e-05
-8e-05
5e-05
5e-05
-8e-05
-7e-05
6e-05
6e-05
-7e-05
-7e-05
7e-05
7e-05
-7e-05
-7e-05
8e-05
8e-05
-7e-05
-7e-05
8e-05
8e-05
-7e-05
-7e-05
8e-05
8e-05
-7e-05
-7e-05
8e-05
8e-05
-7e-05
-7e-05
8e-05
8e-05
-7e-05
-7e-05
7e-05
7e-05
-7e-05
-8e-05
6e-05
7e-05
-7e-05
-8e-05
6e-05
6e-05
-7e-05
-8e-05
5e-05
5e-05
-7e-05
-8e-05
4e-05
4e-05
-7e-05
-9e-05
3e-05
3e-05
-7e-05
-9e-05
2e-05
2e-05
-8e-05
-9e-05
1e-05
1e-05
1e-05
-8e-05
-9e-05
9e-06
9e-06
-8e-05
-9e-05
8e-06
8e-06
-8e-05
-9e-05
9e-06
1e-05
-8e-05
-9e-05
1e-05
1e-05
-8e-05
-9e-05
2e-05
2e-05
-8e-05
-9e-05
2e-05
2e-05
-8e-05
-8e-05
3e-05
3e-05
-7e-05
-8e-05
3e-05
4e-05
-7e-05
-7e-05
4e-05
4e-05
-7e-05
-7e-05
5e-05
5e-05
-7e-05
-7e-05
-6e-05
6e-05
7e-05
-6e-05
-6e-05
8e-05
8e-05
-6e-05
-6e-05
9e-05
0.0001
-6e-05
-5e-05
0.0001
0.0001
-6e-05
-5e-05
0.0001
0.0001
-6e-05
-5e-05
0.0002
0.0002
-6e-05
-5e-05
0.0002
0.0002
-6e-05
-5e-05
0.0002
0.0002
-6e-05
-5e-05
0.0002
0.0002
-6e-05
-5e-05
0.0002
0.0002
-6e-05
-5e-05
0.0003
0.0003
-6e-05
-5e-05
0.0003
0.0003
-7e-05
-5e-05
0.0003
0.0003
-7e-05
-6e-05
0.0003
0.0003
-7e-05
-6e-05
0.0003
0.0003
0.0003
-7e-05
-6e-05
0.0003
0.0003
-7e-05
-6e-05
0.0003
0.0003
-7e-05
-6e-05
0.0003
0.0003
-7e-05
-6e-05
0.0003
0.0003
-7e-05
-6e-05
0.0003
0.0003
-7e-05
-6e-05
0.0003
0.0003
-6e-05
-6e-05
0.0003
0.0003
-6e-05
-6e-05
0.0003
0.0003
-6e-05
-6e-05
0.0003
0.0002
-6e-05
-6e-05
0.0002
0.0002
-5e-05
-5e-05
0.0002
0.0002
-5e-05
-5e-05
0.0002
0.0002
-4e-05
-5e-05
0.0002
0.0002
-3e-05
-4e-05
0.0001
0.0001
-2e-05
-3e-05
0.0001
0.0001
-9e-06
-2e-05
0.0001
9e-05
2e-06
-1e-05
8e-05
7e-05
1e-05
2e-06
6e-05
5e-05
3e-05
1e-05
5e-05
4e-05
4e-05
3e-05
4e-05
3e-05
4e-05
4e-05
3e-05
2e-05
5e-05
4e-05
2e-05
1e-05
6e-05
5e-05
1e-05
8e-06
6e-05
6e-05
6e-06
2e-06
6e-05
6e-05
7e-07
-3e-06
5e-05
6e-05
-5e-06
-7e-06
5e-05
5e-05
-8e-06
-9e-06
4e-05
5e-05
-1e-05
-1e-05
3e-05
4e-05
-9e-06
-9e-06
2e-05
3e-05
-6e-06
-6e-06
1e-05
-9e-07
6e-06
2e-05
-7e-07
1e-05
6e-06
SCALARS u2 float
LOOKUP_TABLE default
-3e-05
-4e-05
-2e-05
-4e-05
-1e-05
-5e-05
-9e-06
-6e-05
-6e-06
-4e-06
-7e-05
-4e-06
-8e-05
-3e-06
-9e-05
-3e-06
-0.0001
-3e-06
-0.0001
-3e-06
-0.0001
-4e-06
-0.0001
-5e-06
-0.0001
-7e-06
-0.0001
-1e-05
-0.0001
-1e-05
-0.0001
-2e-05
-9e-05
-2e-05
-8e-05
-3e-05
-7e-05
-3e-05
-6e-05
-3e-05
-5e-05
-4e-05
-3e-05
-4e-05
-3e-05
-4e-05
-3e-05
-4e-05
-3e-05
-4e-05
-3e-05
-4e-05
-2e-05
-5e-05
-2e-05
-5e-05
-1e-05
-6e-05
-9e-06
-7e-05
-3e-06
-8e-05
3e-06
9e-06
-9e-05
2e-05
-0.0001
2e-05
-0.0001
3e-05
-0.0001
3e-05
-0.0002
3e-05
-0.0002
4e-05
-0.0002
4e-05
-0.0002
4e-05
-0.0002
4e-05
-0.0003
4e-05
-0.0003
4e-05
-0.0003
3e-05
-0.0003
3e-05
-0.0003
2e-05
-0.0003
-0.0003
2e-05
-0.0004
2e-05
-0.0004
2e-05
-0.0004
1e-05
-0.0003
1e-05
-0.0003
1e-05
-0.0003
1e-05
-0.0003
1e-05
-0.0003
1e-05
-0.0003
1e-05
-0.0003
2e-05
2e-05
-0.0002
2e-05
-0.0002
3e-05
-0.0002
3e-05
-0.0002
4e-05
-0.0001
5e-05
-0.0001
6e-05
-0.0001
7e-05
-9e-05
9e-05
-7e-05
0.0001
-6e-05
0.0001
-5e-05
0.0001
-5e-05
0.0001
-4e-05
0.0001
-3e-05
0.0001
-3e-05
0.0001
-2e-05
-2e-05
0.0001
-2e-05
0.0001
-2e-05
0.0001
-2e-05
0.0001
-3e-05
0.0001
-4e-05
9e-05
-5e-05
8e-05
-5e-05
7e-05
-6e-05
7e-05
-7e-05
6e-05
6e-05
-8e-05
6e-05
-9e-05
7e-05
-9e-05
7e-05
-9e-05
8e-05
-9e-05
8e-05
-8e-05
9e-05
-7e-05
0.0001
-7e-05
0.0001
-5e-05
0.0001
-4e-05
0.0001
-3e-05
0.0001
-2e-05
0.0002
-7e-06
0.0002
2e-06
0.0002
1e-05
0.0002
2e-05
2e-05
0.0003
3e-05
0.0003
3e-05
0.0003
3e-05
0.0003
3e-05
0.0003
3e-05
0.0004
3e-05
0.0004
3e-05
0.0004
3e-05
0.0004
3e-05
0.0004
3e-05
0.0004
2e-05
0.0004
2e-05
0.0004
2e-05
0.0004
1e-05
0.0004
1e-05
0.0004
7e-06
0.0003
4e-06
0.0003
2e-06
0.0003
2e-06
0.0003
3e-06
0.0003
5e-06
0.0002
8e-06
0.0002
1e-05
0.0002
2e-05
0.0002
2e-05
0.0002
3e-05
0.0001
3e-05
0.0001
4e-05
0.0001
5e-05
0.0001
5e-05
0.0001
6e-05
0.0001
6e-05
9e-05
7e-05
9e-05
7e-05
8e-05
7e-05
8e-05
8e-05
8e-05
8e-05
8e-05
8e-05
9e-05
7e-05
9e-05
7e-05
0.0001
7e-05
0.0001
6e-05
0.0001
6e-05
0.0001
6e-05
0.0001
5e-05
0.0001
5e-05
0.0002
5e-05
0.0002
5e-05
0.0002
5e-05
0.0002
5e-05
0.0002
5e-05
0.0001
5e-05
0.0001
5e-05
0.0001
5e-05
0.0001
5e-05
0.0001
5e-05
9e-05
6e-05
8e-05
6e-05
7e-05
-5e-05
-3e-05
-6e-05
-2e-05
-7e-05
-1e-05
-8e-05
-7e-06
-9e-05
-3e-06
-0.0001
4e-07
-0.0001
3e-06
-0.0001
5e-06
-0.0001
7e-06
-0.0001
8e-06
-0.0001
1e-05
-0.0001
1e-05
-9e-05
1e-05
-8e-05
1e-05
-7e-05
1e-05
-6e-05
1e-05
-6e-05
1e-05
-5e-05
1e-05
-4e-05
1e-05
-4e-05
9e-06
-4e-05
7e-06
-4e-05
6e-06
-4e-05
4e-06
-5e-05
3e-06
-5e-05
3e-06
-6e-05
3e-06
-6e-05
3e-06
-7e-05
3e-06
-8e-05
4e-06
-9e-05
4e-06
-0.0001
4e-06
-0.0001
4e-06
-0.0001
5e-06
-0.0002
4e-06
-0.0002
3e-06
-0.0002
2e-06
-0.0002
6e-07
-0.0002
-9e-07
-0.0003
-2e-06
-0.0003
-4e-06
-0.0003
-5e-06
-0.0003
-5e-06
-0.0003
-5e-06
-0.0003
-5e-06
-0.0004
-4e-06
-0.0004
-2e-06
-0.0004
-4e-07
-0.0004
1e-06
-0.0004
3e-06
-0.0003
6e-06
-0.0003
8e-06
-0.0003
1e-05
-0.0003
1e-05
-0.0003
2e-05
-0.0003
3e-05
-0.0002
3e-05
-0.0002
4e-05
-0.0002
5e-05
-0.0002
6e-05
-0.0001
8e-05
-0.0001
9e-05
-0.0001
0.0001
-9e-05
0.0001
-8e-05
0.0001
-7e-05
0.0001
-6e-05
0.0001
-5e-05
0.0001
-4e-05
0.0001
-4e-05
0.0001
-3e-05
0.0001
-2e-05
0.0001
-2e-05
0.0001
-2e-05
9e-05
-2e-05
9e-05
-2e-05
8e-05
-3e-05
7e-05
-4e-05
7e-05
-4e-05
6e-05
-5e-05
6e-05
-6e-05
6e-05
-7e-05
7e-05
-8e-05
7e-05
-8e-05
8e-05
-9e-05
8e-05
-9e-05
9e-05
-9e-05
0.0001
-8e-05
0.0001
-7e-05
0.0001
-7e-05
0.0001
-6e-05
0.0001
-5e-05
0.0002
-3e-05
0.0002
-2e-05
0.0002
-1e-05
0.0002
4e-07
0.0003
1e-05
0.0003
2e-05
0.0003
2e-05
0.0003
3e-05
0.0003
3e-05
0.0004
3e-05
0.0004
4e-05
0.0004
4e-05
0.0004
4e-05
0.0004
4e-05
0.0004
4e-05
0.0004
5e-05
0.0004
5e-05
0.0004
5e-05
0.0004
5e-05
0.0004
5e-05
0.0003
5e-05
0.0003
4e-05
0.0003
4e-05
0.0003
4e-05
0.0003
4e-05
0.0002
4e-05
0.0002
4e-05
0.0002
4e-05
0.0002
4e-05
0.0002
4e-05
0.0001
4e-05
0.0001
4e-05
0.0001
4e-05
0.0001
4e-05
0.0001
4e-05
0.0001
4e-05
9e-05
4e-05
9e-05
4e-05
8e-05
4e-05
8e-05
4e-05
8e-05
3e-05
8e-05
3e-05
9e-05
3e-05
9e-05
3e-05
0.0001
3e-05
0.0001
3e-05
0.0001
3e-05
0.0001
3e-05
0.0001
3e-05
0.0001
3e-05
0.0001
3e-05
0.0002
4e-05
0.0002
4e-05
0.0002
4e-05
0.0001
4e-05
0.0001
5e-05
0.0001
5e-05
0.0001
6e-05
0.0001
6e-05
0.0001
7e-05
8e-05
9e-05
-3e-05
-4e-05
-4e-05
-3e-05
-2e-05
-5e-05
-5e-05
-2e-05
-1e-05
-6e-05
-6e-05
-1e-05
-9e-06
-7e-05
-7e-05
-9e-06
-6e-06
-4e-06
-8e-05
-8e-05
-4e-06
-3e-06
-9e-05
-9e-05
-2e-06
-2e-06
-0.0001
-0.0001
3e-07
-7e-07
-0.0001
-0.0001
2e-06
-4e-08
-0.0001
-0.0001
3e-06
3e-07
-0.0001
-0.0001
4e-06
1e-07
-0.0001
-0.0001
5e-06
-4e-07
-0.0001
-0.0001
5e-06
-1e-06
-0.0001
-0.0001
5e-06
-3e-06
-9e-05
-9e-05
5e-06
-5e-06
-8e-05
-9e-05
4e-06
-8e-06
-7e-05
-8e-05
2e-06
-1e-05
-6e-05
-7e-05
7e-07
-1e-05
-6e-05
-6e-05
-1e-06
-2e-05
-5e-05
-5e-05
-3e-06
-2e-05
-4e-05
-4e-05
-4e-05
-5e-06
-2e-05
-4e-05
-4e-05
-6e-06
-2e-05
-4e-05
-4e-05
-7e-06
-2e-05
-4e-05
-4e-05
-7e-06
-2e-05
-4e-05
-4e-05
-7e-06
-2e-05
-5e-05
-5e-05
-6e-06
-1e-05
-5e-05
-5e-05
-4e-06
-1e-05
-6e-05
-6e-05
-3e-06
-7e-06
-6e-05
-7e-05
-4e-07
-3e-06
-7e-05
-7e-05
2e-06
2e-06
-8e-05
-8e-05
7e-06
4e-06
1e-05
-9e-05
-9e-05
7e-06
1e-05
-0.0001
-0.0001
9e-06
2e-05
-0.0001
-0.0001
1e-05
2e-05
-0.0001
-0.0001
1e-05
2e-05
-0.0002
-0.0002
1e-05
2e-05
-0.0002
-0.0002
1e-05
3e-05
-0.0002
-0.0002
1e-05
3e-05
-0.0002
-0.0002
1e-05
3e-05
-0.0003
-0.0003
1e-05
3e-05
-0.0003
-0.0003
1e-05
2e-05
-0.0003
-0.0003
9e-06
2e-05
-0.0003
-0.0003
7e-06
2e-05
-0.0003
-0.0003
6e-06
2e-05
-0.0003
-0.0003
5e-06
1e-05
-0.0003
-0.0003
-0.0004
4e-06
1e-05
-0.0004
-0.0004
4e-06
1e-05
-0.0004
-0.0004
4e-06
9e-06
-0.0004
-0.0004
5e-06
9e-06
-0.0004
-0.0003
5e-06
9e-06
-0.0003
-0.0003
7e-06
1e-05
-0.0003
-0.0003
8e-06
1e-05
-0.0003
-0.0003
1e-05
1e-05
-0.0003
-0.0003
1e-05
1e-05
-0.0003
-0.0003
2e-05
2e-05
-0.0003
-0.0003
2e-05
2e-05
2e-05
-0.0002
-0.0002
2e-05
3e-05
-0.0002
-0.0002
3e-05
3e-05
-0.0002
-0.0002
4e-05
4e-05
-0.0002
-0.0002
5e-05
5e-05
-0.0001
-0.0001
6e-05
6e-05
-0.0001
-0.0001
7e-05
7e-05
-0.0001
-0.0001
9e-05
9e-05
-9e-05
-8e-05
0.0001
0.0001
-8e-05
-7e-05
0.0001
0.0001
-7e-05
-6e-05
0.0001
0.0001
-6e-05
-5e-05
0.0001
0.0001
-5e-05
-4e-05
0.0001
0.0001
-4e-05
-4e-05
0.0001
0.0001
-4e-05
-3e-05
0.0001
0.0001
-3e-05
-3e-05
0.0001
0.0001
-3e-05
-2e-05
-2e-05
0.0001
0.0001
-2e-05
-2e-05
0.0001
0.0001
-2e-05
-2e-05
0.0001
0.0001
-2e-05
-2e-05
0.0001
0.0001
-2e-05
-3e-05
9e-05
9e-05
-3e-05
-4e-05
8e-05
8e-05
-4e-05
-4e-05
7e-05
7e-05
-4e-05
-5e-05
7e-05
7e-05
-5e-05
-6e-05
6e-05
6e-05
-6e-05
-7e-05
6e-05
6e-05
6e-05
-7e-05
-8e-05
6e-05
7e-05
-8e-05
-8e-05
7e-05
7e-05
-8e-05
-9e-05
7e-05
7e-05
-9e-05
-9e-05
8e-05
8e-05
-9e-05
-9e-05
8e-05
9e-05
-9e-05
-8e-05
9e-05
9e-05
-8e-05
-7e-05
0.0001
0.0001
-7e-05
-7e-05
0.0001
0.0001
-7e-05
-6e-05
0.0001
0.0001
-6e-05
-4e-05
0.0001
0.0001
-4e-05
-3e-05
0.0002
0.0002
-3e-05
-2e-05
0.0002
0.0002
-2e-05
-9e-06
0.0002
0.0002
-9e-06
1e-06
0.0002
0.0002
6e-07
1e-05
0.0002
0.0002
9e-06
2e-05
2e-05
0.0003
0.0003
2e-05
2e-05
0.0003
0.0003
2e-05
3e-05
0.0003
0.0003
3e-05
3e-05
0.0003
0.0003
3e-05
3e-05
0.0003
0.0004
3e-05
3e-05
0.0004
0.0004
3e-05
3e-05
0.0004
0.0004
4e-05
3e-05
0.0004
0.0004
4e-05
3e-05
0.0004
0.0004
4e-05
3e-05
0.0004
0.0004
4e-05
3e-05
0.0004
0.0004
0.0004
4e-05
3e-05
0.0004
0.0004
4e-05
3e-05
0.0004
0.0004
4e-05
3e-05
0.0004
0.0004
4e-05
2e-05
0.0004
0.0004
4e-05
2e-05
0.0004
0.0003
3e-05
2e-05
0.0003
0.0003
3e-05
2e-05
0.0003
0.0003
3e-05
2e-05
0.0003
0.0003
3e-05
2e-05
0.0003
0.0003
3e-05
2e-05
0.0002
0.0002
3e-05
2e-05
0.0002
0.0002
3e-05
2e-05
0.0002
0.0002
3e-05
2e-05
0.0002
0.0002
3e-05
3e-05
0.0002
0.0002
3e-05
3e-05
3e-05
0.0001
0.0001
4e-05
4e-05
0.0001
0.0001
4e-05
4e-05
0.0001
0.0001
4e-05
4e-05
0.0001
0.0001
4e-05
5e-05
0.0001
0.0001
4e-05
5e-05
0.0001
9e-05
5e-05
6e-05
9e-05
9e-05
5e-05
6e-05
9e-05
9e-05
5e-05
6e-05
8e-05
8e-05
5e-05
6e-05
8e-05
8e-05
5e-05
6e-05
8e-05
8e-05
5e-05
6e-05
8e-05
8e-05
5e-05
6e-05
9e-05
9e-05
5e-05
6e-05
9e-05
9e-05
4e-05
6e-05
0.0001
0.0001
4e-05
5e-05
0.0001
0.0001
4e-05
5e-05
0.0001
0.0001
4e-05
5e-05
0.0001
0.0001
4e-05
5e-05
0.0001
0.0001
4e-05
4e-05
0.0001
0.0001
4e-05
4e-05
0.0001
0.0002
4e-05
4e-05
0.0002
0.0002
4e-05
4e-05
0.0002
0.0002
4e-05
4e-05
0.0002
0.0002
4e-05
4e-05
0.0001
0.0001
4e-05
4e-05
0.0001
0.0001
4e-05
5e-05
0.0001
0.0001
5e-05
5e-05
0.0001
0.0001
5e-05
5e-05
0.0001
0.0001
6e-05
5e-05
0.0001
0.0001
6e-05
6e-05
9e-05
7e-05
8e-05
9e-05
6e-05
8e-05
7e-05
SCALARS strain_1 float
LOOKUP_TABLE default
-0.000160
-0.000167
-0.000169
-0.000094
-0.000144
-0.000055
-0.000191
-0.000259
-0.000256
-0.000311
-0.000295
-0.000395
-0.000349
-0.000390
-0.000526
-0.000422
-0.000647
-0.000358
-0.000912
-0.000369
-0.001068
-0.000330
-0.001441
-0.000093
-0.001834
0.000031
-0.002333
0.000267
-0.002787
0.000494
-0.003247
0.000742
-0.003823
0.001135
-0.004544
0.001625
-0.005204
0.002055
-0.005993
0.002583
-0.006857
-0.007682
0.003171
-0.008655
0.003892
-0.009779
0.004612
-0.010709
0.005467
-0.011897
0.006398
-0.013179
0.007391
-0.014309
0.008500
-0.015707
0.009674
-0.017014
0.010850
-0.018390
0.012202
-0.019951
0.013513
0.015047
-0.021434
0.016544
-0.023002
0.018095
-0.024573
0.019752
-0.026214
0.021594
-0.027757
0.023435
-0.029588
0.025263
-0.031313
0.027138
-0.033003
0.029207
-0.034814
0.031226
-0.036600
0.033255
-0.038386
0.035364
-0.040108
0.037436
-0.041930
0.039595
-0.043697
0.041794
-0.045564
-0.047312
0.043954
-0.048977
0.046105
-0.050731
0.048230
-0.052481
0.050447
-0.054138
0.052639
-0.055764
0.054798
-0.057409
0.056842
-0.058903
0.058911
-0.060366
0.060861
-0.061844
0.062901
-0.063242
0.064783
0.066600
-0.064499
0.068407
-0.065888
0.070121
-0.067064
0.071785
-0.068179
0.073309
-0.069180
0.074839
-0.070239
0.076137
-0.071081
0.077402
-0.071992
0.078477
-0.072663
0.079609
-0.073291
0.080533
-0.073850
0.081357
-0.074400
0.081982
-0.074687
0.082648
-0.075117
0.083113
-0.075189
0.083470
-0.075326
-0.075317
0.083738
-0.075278
0.083892
-0.075152
0.083871
-0.074918
0.083869
-0.074490
0.083604
-0.074033
0.083233
-0.073566
0.082797
-0.072985
0.082299
-0.072256
0.081571
-0.071555
0.080821
0.079916
-0.070681
0.078972
-0.069763
0.077956
-0.068784
0.076791
-0.067733
0.075425
-0.066553
0.074252
-0.065348
0.072812
-0.064212
0.071419
-0.062853
0.069833
-0.061482
0.068311
-0.060114
0.066655
-0.058635
0.064901
-0.057203
0.063266
-0.055715
0.061445
-0.054040
0.059628
-0.052511
0.057765
-0.050956
-0.049207
0.055948
-0.047693
0.053999
-0.046037
0.052208
-0.044355
0.050211
-0.042639
0.048314
-0.041039
0.046575
-0.039364
0.044543
-0.037739
0.042678
-0.036053
0.040852
-0.034443
0.038998
-0.032809
0.037209
-0.031312
0.035347
-0.029781
0.033539
-0.028185
0.031844
-0.026619
0.030115
-0.025117
0.028446
-0.023613
0.026823
-0.022361
0.025253
-0.021021
0.023613
-0.019652
0.022155
-0.018376
0.020777
-0.017086
0.019302
-0.015890
0.017972
-0.014717
0.016684
-0.013555
0.015420
-0.012545
0.014205
-0.011481
0.013044
-0.010560
0.011884
-0.009692
0.010909
-0.008900
0.009990
-0.007900
0.008993
-0.007178
0.008173
-0.006499
0.007402
-0.005697
0.006639
-0.005175
0.005835
-0.004478
0.005138
-0.004015
0.004593
-0.003532
0.003987
-0.003007
0.003417
-0.002622
0.002961
-0.002228
0.002505
-0.001861
0.002144
-0.001625
0.001766
-0.001249
0.001382
-0.001021
0.001180
-0.000874
0.000992
-0.000692
0.000729
-0.000567
0.000539
-0.000433
0.000429
-0.000286
0.000284
-0.000228
0.000196
-0.000132
0.000107
-0.000174
0.000005
-0.000127
-0.000059
-0.000110
-0.000063
-0.000031
-0.000176
-0.000117
-0.000106
-0.000171
0.000004
-0.000130
-0.000046
-0.000241
-0.000221
-0.000181
-0.000266
-0.000149
-0.000293
-0.000182
-0.000303
-0.000269
-0.000332
-0.000351
-0.000406
-0.000527
-0.000394
-0.000732
-0.000308
-0.000961
-0.000372
-0.001126
-0.000182
-0.001557
-0.000103
-0.001848
0.000066
-0.002331
0.000260
-0.002848
0.000444
-0.003279
0.000772
-0.003913
0.001101
-0.004617
0.001560
-0.005200
0.001951
-0.006113
0.002583
-0.006835
0.003174
-0.007696
0.003799
-0.008657
0.004574
-0.009710
0.005327
-0.010784
0.006316
-0.011935
0.007257
-0.013084
0.008265
-0.014354
0.009342
-0.015553
0.010559
-0.016932
0.011855
-0.018353
0.013152
-0.019759
0.014542
-0.021212
0.016116
-0.022736
0.017713
-0.024331
0.019223
-0.025837
0.020851
-0.027344
0.022724
-0.028939
0.024492
-0.030675
0.026241
-0.032348
0.028028
-0.034012
0.030067
-0.035638
0.031973
-0.037270
0.033901
-0.039003
0.035837
-0.040624
0.037871
-0.042346
0.039828
-0.043891
0.041912
-0.045471
0.043847
-0.047129
0.045846
-0.048687
0.047739
-0.050229
0.049773
-0.051694
0.051682
-0.053085
0.053463
-0.054420
0.055241
-0.055802
0.057074
-0.057122
0.058856
-0.058325
0.060421
-0.059517
0.061964
-0.060580
0.063403
-0.061610
0.064764
-0.062575
0.066223
-0.063411
0.067437
-0.064353
0.068555
-0.065023
0.069601
-0.065561
0.070494
-0.066180
0.071363
-0.066660
0.072164
-0.067002
0.072786
-0.067264
0.073312
-0.067582
0.073612
-0.067653
0.073924
-0.067678
0.074158
-0.067586
0.074209
-0.067463
0.074191
-0.067229
0.074016
-0.066907
0.073719
-0.066432
0.073350
-0.066009
0.072900
-0.065435
0.072290
-0.064799
0.071660
-0.064063
0.070828
-0.063245
0.069974
-0.062330
0.069047
-0.061489
0.068001
-0.060393
0.066867
-0.059394
0.065669
-0.058258
0.064429
-0.057177
0.062976
-0.055772
0.061768
-0.054590
0.060158
-0.053212
0.058672
-0.051923
0.057120
-0.050456
0.055396
-0.049027
0.053911
-0.047577
0.052182
-0.046054
0.050473
-0.044536
0.048785
-0.043162
0.047075
-0.041522
0.045319
-0.039908
0.043595
-0.038427
0.041832
-0.036945
0.040122
-0.035307
0.038300
-0.033804
0.036564
-0.032359
0.034940
-0.030703
0.033230
-0.029268
0.031587
-0.027705
0.029860
-0.026278
0.028297
-0.024872
0.026705
-0.023564
0.025203
-0.022129
0.023597
-0.020821
0.022213
-0.019534
0.020736
-0.018278
0.019407
-0.017027
0.018064
-0.015746
0.016719
-0.014756
0.015493
-0.013568
0.014338
-0.012540
0.013120
-0.011518
0.012123
-0.010622
0.011059
-0.009699
0.010147
-0.008836
0.009155
-0.008009
0.008337
-0.007134
0.007490
-0.006483
0.006647
-0.005804
0.005862
-0.005155
0.005233
-0.004562
0.004599
-0.004014
0.004040
-0.003515
0.003532
-0.003076
0.002983
-0.002638
0.002548
-0.002278
0.002078
-0.001874
0.001826
-0.001536
0.001558
-0.001346
0.001168
-0.001082
0.000975
-0.000917
0.000739
-0.000721
0.000536
-0.000610
0.000510
-0.000409
0.000290
-0.000362
0.000129
-0.000212
0.000082
-0.000247
-0.000026
-0.000161
-0.000032
-0.000085
-0.000074
-0.000130
-0.000157
-0.000123
-0.000105
-0.000165
-0.000139
-0.000065
-0.000101
-0.000081
-0.000177
-0.000185
-0.000172
-0.000202
-0.000177
-0.000148
-0.000227
-0.000235
-0.000161
-0.000133
-0.000163
-0.000249
-0.000314
-0.000100
-0.000158
-0.000321
-0.000267
-0.000324
-0.000269
-0.000276
-0.000288
-0.000339
-0.000274
-0.000413
-0.000333
-0.000389
-0.000511
-0.000562
-0.000422
-0.000410
-0.000625
-0.000823
-0.000286
-0.000217
-0.000845
-0.001028
-0.000337
-0.000236
-0.001137
-0.001303
-0.000198
-0.000115
-0.001413
-0.001579
-0.000193
-0.000107
-0.001720
-0.001933
0.000004
0.000069
-0.002155
-0.002377
0.000177
0.000266
-0.002537
-0.002956
0.000342
0.000604
-0.003099
-0.003446
0.000711
0.000846
-0.003642
-0.004033
0.000992
0.001207
-0.004373
-0.004752
0.001425
0.001713
-0.005052
-0.005557
0.001784
0.002166
-0.005735
-0.006322
0.002205
0.002752
-0.006620
-0.007199
-0.007962
0.002879
0.003365
-0.007624
-0.008677
0.003609
0.004098
-0.008609
-0.009656
0.004417
0.004860
-0.009645
-0.010810
0.005098
0.005790
-0.010685
-0.011896
0.006020
0.006738
-0.011840
-0.013084
0.006982
0.007572
-0.013121
-0.014326
0.007962
0.008718
-0.014334
-0.015593
0.009180
0.009941
-0.015620
-0.017049
0.010281
0.011109
-0.016962
-0.018356
0.011592
0.012559
-0.018312
-0.019887
0.014050
0.012981
0.015253
-0.019806
-0.021320
0.014621
0.016406
-0.021261
-0.022972
0.016046
0.017891
-0.022844
-0.024482
0.017809
0.019551
-0.024281
-0.026126
0.019490
0.021309
-0.025910
-0.027714
0.021135
0.023178
-0.027594
-0.029283
0.022860
0.024983
-0.029224
-0.031080
0.024666
0.026830
-0.030898
-0.032812
0.026638
0.028822
-0.032597
-0.034538
0.028448
0.030776
-0.034248
-0.036274
0.030405
0.032808
-0.035956
-0.038080
0.032415
0.034863
-0.037655
-0.039816
0.034425
0.037000
-0.039402
-0.041576
0.036373
0.039018
-0.041193
-0.043376
0.038350
0.041112
-0.042909
-0.045147
-0.046717
0.040544
0.043134
-0.044932
-0.047794
0.042504
0.045321
-0.046427
-0.049428
0.044649
0.047452
-0.048260
-0.051155
0.046673
0.049574
-0.049925
-0.052701
0.048633
0.051615
-0.051312
-0.054328
0.050740
0.053735
-0.053035
-0.055949
0.052669
0.055731
-0.054475
-0.057439
0.054634
0.057714
-0.055904
-0.058832
0.056613
0.059724
-0.057286
-0.060237
0.058368
0.061569
-0.058644
-0.061638
0.060188
0.063245
0.065264
-0.059940
-0.062815
0.062571
0.066174
-0.061185
-0.064096
0.063684
0.067935
-0.062408
-0.065198
0.065612
0.069378
-0.063437
-0.066263
0.067041
0.070811
-0.064441
-0.067309
0.068356
0.072245
-0.065280
-0.068264
0.069751
0.073495
-0.066214
-0.069084
0.071027
0.074704
-0.066963
-0.069797
0.072153
0.075812
-0.067693
-0.070480
0.073144
0.076742
-0.068282
-0.071065
0.074018
0.077653
-0.068920
-0.071515
0.074838
0.078330
-0.069271
-0.071924
0.075508
0.079052
-0.069651
-0.072257
0.076118
0.079557
-0.069889
-0.072539
0.076603
0.079947
-0.070071
-0.072795
0.076939
0.080342
-0.070114
-0.072786
-0.073130
0.077094
0.080442
-0.070376
-0.072750
0.077323
0.080485
-0.070084
-0.072486
0.077286
0.080446
-0.069779
-0.072115
0.077204
0.080352
-0.069406
-0.071767
0.076997
0.080114
-0.069084
-0.071385
0.076644
0.079738
-0.068630
-0.070755
0.076234
0.079163
-0.068118
-0.070187
0.075567
0.078507
-0.067442
-0.069481
0.075012
0.077965
-0.066631
-0.068640
0.074111
0.077060
0.076840
-0.066023
-0.067721
0.073671
0.075572
-0.065045
-0.066879
0.072089
0.074654
-0.064135
-0.065869
0.071334
0.073357
-0.063068
-0.064807
0.070036
0.072117
-0.062065
-0.063717
0.068851
0.070851
-0.060866
-0.062475
0.067528
0.069407
-0.059742
-0.061246
0.066145
0.067942
-0.058548
-0.060001
0.064823
0.066497
-0.057150
-0.058612
0.063278
0.064941
-0.055823
-0.057308
0.061699
0.063329
-0.054493
-0.055841
0.060123
0.061718
-0.053190
-0.054420
0.058572
0.060034
-0.051643
-0.052806
0.056849
0.058196
-0.050078
-0.051255
0.055100
0.056420
-0.048602
-0.049746
0.053461
0.054693
-0.046919
-0.048148
-0.047263
0.051683
0.052831
-0.045648
-0.045607
0.049966
0.051059
-0.043498
-0.044041
0.048122
0.049198
-0.041912
-0.042317
0.046316
0.047356
-0.040362
-0.040700
0.044493
0.045444
-0.038731
-0.039002
0.042705
0.043643
-0.037230
-0.037523
0.040946
0.041833
-0.035528
-0.035905
0.039107
0.039962
-0.034055
-0.034237
0.037283
0.038193
-0.032420
-0.032659
0.035506
0.036299
-0.030940
-0.031105
0.033634
0.034592
0.033437
-0.029406
-0.029573
0.032127
0.031789
-0.027913
-0.028069
0.030087
0.030096
-0.026474
-0.026581
0.028337
0.028398
-0.025053
-0.025055
0.026857
0.026766
-0.023465
-0.023607
0.025109
0.025141
-0.022165
-0.022239
0.023671
0.023719
-0.020835
-0.020886
0.022247
0.022141
-0.019516
-0.019576
0.020723
0.020766
-0.018298
-0.018255
0.019314
0.019331
-0.016968
-0.017044
0.017975
0.017921
-0.015902
-0.015844
0.016662
0.016665
-0.014731
-0.014759
0.015484
0.015393
-0.013567
-0.013574
0.014319
0.014232
-0.012526
-0.012558
0.013107
0.013087
-0.011477
-0.011496
-0.010822
0.012068
0.012064
-0.010455
-0.009957
0.011021
0.011007
-0.009368
-0.009087
0.010069
0.010012
-0.008507
-0.008206
0.009133
0.009080
-0.007744
-0.007433
0.008207
0.008154
-0.006971
-0.006657
0.007395
0.007425
-0.006226
-0.006018
0.006644
0.006564
-0.005489
-0.005362
0.005878
0.005924
-0.004879
-0.004771
0.005250
0.005142
-0.004377
-0.004126
0.004531
0.004505
-0.003869
-0.003635
0.003931
0.004026
-0.003391
-0.003170
0.003364
0.003599
-0.002903
-0.002788
0.002929
0.003186
-0.002460
-0.002345
0.002438
0.002663
-0.002179
-0.002012
0.002026
0.002301
-0.001815
-0.001642
0.001774
0.001925
-0.001501
-0.001436
0.001309
0.001614
-0.001298
-0.001098
0.001195
0.001222
-0.001043
-0.000962
0.000837
0.000957
-0.000840
-0.000778
0.000586
0.000848
-0.000592
-0.000533
0.000372
0.000548
-0.000523
-0.000505
0.000375
0.000423
-0.000459
-0.000395
0.000187
0.000271
-0.000319
-0.000348
0.000030
0.000177
-0.000240
-0.000229
-0.000008
0.000000
-0.000189
-0.000202
0.000002
0.000024
-0.000127
-0.000136
-0.000101
-0.000036
-0.000183
-0.000170
-0.000147
-0.000008
-0.000059
-0.000038
-0.000131
-0.000104
-0.000136
-0.000125
-0.000082
-0.000099
-0.000141
-0.000140
-0.000102
-0.000188
-0.000110
-0.000205
-0.000149
-0.000148
-0.000108
SCALARS strain_2 float
LOOKUP_TABLE default
0.000923
0.000732
0.000947
0.000708
0.001377
0.000166
0.002003
0.001611
0.002527
0.003557
0.002451
0.003498
0.004036
0.003649
0.005465
0.003181
0.007643
0.003561
0.010277
0.003037
0.013639
0.001458
0.018135
0.000756
0.022346
-0.001231
0.028263
-0.003995
0.034583
-0.006621
0.041765
-0.010235
0.049264
-0.014297
0.057745
-0.019003
0.066313
-0.024927
0.076723
-0.031676
0.087422
0.099148
-0.038760
0.111633
-0.047035
0.124904
-0.056427
0.139282
-0.066652
0.153768
-0.077163
0.169514
-0.090609
0.186350
-0.102650
0.203632
-0.116472
0.221421
-0.131592
0.240954
-0.146594
0.259044
-0.164482
-0.181913
0.279309
-0.201495
0.300057
-0.220467
0.321915
-0.241340
0.343719
-0.262745
0.365763
-0.285480
0.388549
-0.308811
0.410633
-0.332249
0.434758
-0.356883
0.457949
-0.381945
0.482526
-0.407231
0.505837
-0.433277
0.529523
-0.459542
0.553613
-0.486863
0.577121
-0.513646
0.601720
0.624155
-0.541279
0.647517
-0.568694
0.670700
-0.596350
0.692750
-0.624096
0.715014
-0.651334
0.736461
-0.677561
0.757885
-0.704779
0.777533
-0.730868
0.796626
-0.757087
0.815610
-0.782362
0.832943
-0.806609
-0.830633
0.849836
-0.853325
0.865422
-0.875692
0.880430
-0.897450
0.893926
-0.917280
0.906763
-0.936112
0.917861
-0.954225
0.928042
-0.970971
0.936574
-0.986042
0.944867
-1.000217
0.951396
-1.012153
0.956454
-1.023329
0.960460
-1.032714
0.963618
-1.041602
0.964668
-1.048173
0.965164
-1.052608
0.962840
0.959880
-1.055578
0.957100
-1.057602
0.951585
-1.057917
0.945455
-1.057136
0.937175
-1.054407
0.928818
-1.049734
0.918859
-1.044319
0.907907
-1.036626
0.895724
-1.028024
0.883051
-1.017657
-1.005794
0.868216
-0.992971
0.853995
-0.979131
0.837177
-0.963663
0.820363
-0.946663
0.804504
-0.928660
0.785317
-0.910702
0.766995
-0.891659
0.747841
-0.870083
0.728155
-0.848807
0.707926
-0.826779
0.687375
-0.805014
0.666491
-0.781884
0.644788
-0.757158
0.623591
-0.733231
0.602155
-0.708900
0.580057
0.559471
-0.684065
0.537323
-0.658975
0.516437
-0.633735
0.494576
-0.608943
0.473655
-0.584159
0.451964
-0.558701
0.430956
-0.533920
0.411471
-0.508655
0.391256
-0.484283
0.371803
-0.460654
0.352173
-0.436268
0.333957
-0.412450
0.315639
-0.390085
0.297217
-0.367015
0.279798
-0.345734
0.263690
-0.324344
0.246776
-0.303933
0.231042
-0.283468
0.216477
-0.263999
0.200836
-0.246598
0.186774
-0.228022
0.174081
-0.210638
0.161260
-0.194118
0.148935
-0.178818
0.137262
-0.162816
0.126439
-0.149738
0.115241
-0.135590
0.105349
-0.122395
0.095633
-0.111410
0.087031
-0.100163
0.078637
-0.089650
0.070339
-0.080158
0.061864
-0.071312
0.056505
-0.062362
0.049516
-0.053975
0.044204
-0.046884
0.038262
-0.040715
0.033455
-0.034416
0.027900
-0.028757
0.024423
-0.024254
0.020409
-0.020535
0.016560
-0.017338
0.014617
-0.013252
0.011292
-0.010096
0.009787
-0.008051
0.006912
-0.006012
0.005059
-0.004190
0.003450
-0.002160
0.003062
-0.001243
0.001327
-0.000606
0.001148
0.000252
0.000073
0.000181
-0.000359
0.000515
0.000393
0.000834
-0.000203
0.000725
-0.000750
0.000487
-0.000206
0.000645
-0.000472
0.000288
-0.000764
-0.000458
0.000611
0.001396
0.000836
0.002107
0.001108
0.002006
0.001915
0.002354
0.002598
0.003244
0.003950
0.003735
0.005797
0.003089
0.008690
0.002780
0.011704
0.002910
0.014921
0.001467
0.019857
0.000162
0.024022
-0.001042
0.029313
-0.004088
0.036190
-0.007069
0.042608
-0.010294
0.050545
-0.014456
0.059449
-0.018900
0.068861
-0.025159
0.078716
-0.031204
0.089208
-0.038812
0.100506
-0.046293
0.113400
-0.056016
0.127190
-0.065371
0.141048
-0.076329
0.155457
-0.088070
0.172187
-0.101267
0.187376
-0.114354
0.204376
-0.129118
0.222014
-0.143928
0.240770
-0.161124
0.259471
-0.177672
0.279454
-0.195465
0.299472
-0.215436
0.320244
-0.235053
0.341141
-0.255334
0.362350
-0.276366
0.383771
-0.297759
0.406278
-0.321643
0.427885
-0.344100
0.450367
-0.367824
0.471950
-0.392650
0.495012
-0.416567
0.516963
-0.440728
0.539237
-0.465582
0.560604
-0.490434
0.583529
-0.515838
0.604407
-0.541179
0.625124
-0.565664
0.646109
-0.591188
0.665918
-0.615852
0.684907
-0.639488
0.703632
-0.663651
0.721889
-0.685773
0.739402
-0.709374
0.755234
-0.730477
0.770238
-0.752373
0.785702
-0.772405
0.799074
-0.790988
0.811575
-0.810056
0.823325
-0.826999
0.833478
-0.842860
0.842459
-0.857766
0.849862
-0.871817
0.856354
-0.883721
0.861414
-0.894867
0.866253
-0.904764
0.869549
-0.912852
0.870842
-0.920795
0.871902
-0.924755
0.870789
-0.929106
0.868289
-0.931039
0.864773
-0.932039
0.860418
-0.931535
0.854655
-0.929262
0.847357
-0.926074
0.839894
-0.921288
0.830577
-0.914648
0.819713
-0.907132
0.808639
-0.897510
0.797231
-0.887042
0.783689
-0.875975
0.769370
-0.862774
0.754361
-0.848795
0.739479
-0.832856
0.722790
-0.817145
0.705847
-0.799774
0.687825
-0.781156
0.670339
-0.763003
0.651373
-0.743617
0.632302
-0.723125
0.613336
-0.702289
0.593933
-0.680798
0.573736
-0.658691
0.553806
-0.637144
0.533649
-0.614092
0.513255
-0.591410
0.493360
-0.568825
0.473380
-0.545092
0.453075
-0.522287
0.433251
-0.499219
0.413158
-0.476882
0.394630
-0.454540
0.375255
-0.431110
0.356884
-0.408732
0.338086
-0.387019
0.319568
-0.365071
0.302199
-0.344513
0.284885
-0.324486
0.268931
-0.303922
0.252005
-0.284523
0.236339
-0.265247
0.221704
-0.247028
0.207196
-0.229454
0.192624
-0.211601
0.178369
-0.195836
0.165254
-0.180351
0.153314
-0.165221
0.140756
-0.151484
0.130149
-0.138015
0.119642
-0.124760
0.108920
-0.113286
0.098598
-0.102195
0.089136
-0.091220
0.081133
-0.081535
0.072719
-0.072164
0.065684
-0.063069
0.058323
-0.055464
0.051512
-0.048245
0.046223
-0.041174
0.039648
-0.035555
0.034660
-0.029358
0.030059
-0.024205
0.025692
-0.020379
0.022190
-0.016353
0.018261
-0.013810
0.014948
-0.010789
0.012556
-0.007696
0.009869
-0.005754
0.007056
-0.003640
0.005722
-0.002461
0.003721
-0.001220
0.002869
0.000185
0.001406
0.000599
0.000812
0.001135
0.000392
0.001457
-0.000050
0.002123
0.000159
0.000738
0.000043
0.000998
-0.000557
0.001223
0.000159
0.001156
-0.000072
0.000170
0.000702
0.000732
0.000317
0.000777
0.001253
0.000404
0.000640
0.000417
0.001007
0.001547
0.000728
0.000963
0.001623
0.001692
0.001984
0.002659
0.003009
0.002695
0.002630
0.002373
0.002992
0.003051
0.003611
0.003792
0.004721
0.002892
0.003337
0.005539
0.006714
0.003925
0.003227
0.007141
0.008456
0.003254
0.003207
0.010067
0.012077
0.002973
0.002210
0.013415
0.016080
0.001667
0.001867
0.017221
0.019649
0.000485
0.000220
0.021927
0.025154
-0.000137
-0.002182
0.027083
0.031496
-0.002888
-0.004537
0.032592
0.037451
-0.005187
-0.007683
0.040432
0.043954
-0.008535
-0.011649
0.047795
0.052477
-0.012760
-0.015618
0.055604
0.061122
-0.016951
-0.020710
0.065065
0.070233
-0.022640
-0.026368
0.074394
0.080823
-0.029058
-0.033586
0.084834
0.092733
0.102366
-0.036020
-0.041611
0.099463
0.111480
-0.044001
-0.049906
0.111306
0.125156
-0.052568
-0.058926
0.124848
0.139154
-0.062631
-0.069717
0.139500
0.153840
-0.072602
-0.080822
0.154899
0.170476
-0.084295
-0.093182
0.170969
0.186364
-0.096538
-0.106685
0.186899
0.203472
-0.110606
-0.121127
0.205157
0.221456
-0.125381
-0.135620
0.222504
0.240664
-0.140364
-0.152133
0.240248
0.259384
-0.170544
-0.157586
-0.185304
0.259402
0.279602
-0.177730
-0.198175
0.279045
0.299975
-0.195782
-0.217956
0.299156
0.320687
-0.215867
-0.238812
0.319932
0.342445
-0.236236
-0.260303
0.341424
0.364840
-0.257974
-0.281692
0.363249
0.387331
-0.278746
-0.305186
0.385032
0.408907
-0.301883
-0.327931
0.406991
0.432465
-0.324929
-0.351882
0.431098
0.455418
-0.348157
-0.377016
0.453464
0.479462
-0.372517
-0.402050
0.475690
0.502724
-0.397212
-0.427518
0.499052
0.525913
-0.421621
-0.453723
0.521787
0.549039
-0.447119
-0.480254
0.544439
0.573321
-0.472868
-0.506405
0.568235
0.597344
0.617709
-0.498370
-0.532574
0.596282
0.632316
-0.524459
-0.558264
0.616171
0.654080
-0.549564
-0.586338
0.639313
0.676484
-0.575701
-0.613364
0.660550
0.697969
-0.601593
-0.639477
0.680906
0.718295
-0.627987
-0.665197
0.700928
0.739508
-0.652109
-0.690630
0.721338
0.758522
-0.677242
-0.717221
0.740100
0.777264
-0.702268
-0.740877
0.757727
0.795127
-0.725733
-0.766848
0.774857
0.812095
-0.747344
-0.788152
-0.813535
0.791037
0.827824
-0.778787
-0.825800
0.806960
0.842685
-0.795331
-0.848193
0.820787
0.856936
-0.818349
-0.866734
0.834814
0.869555
-0.837108
-0.886194
0.845843
0.881530
-0.856463
-0.904133
0.857279
0.892440
-0.873149
-0.921951
0.867049
0.901231
-0.888955
-0.936971
0.875667
0.911025
-0.904380
-0.951153
0.883140
0.917775
-0.917000
-0.964131
0.889780
0.922306
-0.928803
-0.975299
0.894258
0.927270
-0.939211
-0.985708
0.898146
0.930516
-0.948104
-0.994056
0.900635
0.932148
-0.956059
-1.001684
0.901513
0.932812
-0.962291
-1.007151
0.901277
0.933384
-0.968635
-1.010852
0.899214
0.930952
0.932589
-0.970184
-1.014107
0.899297
0.925485
-0.972021
-1.014881
0.891965
0.919468
-0.972429
-1.014217
0.886582
0.911586
-0.971017
-1.012299
0.879458
0.904736
-0.968876
-1.008180
0.871834
0.895614
-0.963939
-1.004274
0.863050
0.885190
-0.959152
-0.996654
0.852291
0.874166
-0.950425
-0.989335
0.841057
0.862323
-0.941962
-0.979493
0.829003
0.849286
-0.929797
-0.968390
-0.966330
0.816262
0.834858
-0.925563
-0.948661
0.801725
0.819682
-0.902724
-0.935682
0.786270
0.804348
-0.891971
-0.918967
0.770682
0.787221
-0.874946
-0.902376
0.754124
0.769988
-0.858717
-0.885204
0.736977
0.751473
-0.841267
-0.866198
0.720073
0.732860
-0.823089
-0.846024
0.701301
0.714831
-0.804315
-0.826761
0.682193
0.694936
-0.783912
-0.805152
0.663992
0.675192
-0.763434
-0.783390
0.644068
0.655244
-0.741758
-0.761477
0.623925
0.634231
-0.720202
-0.739329
0.602931
0.612900
-0.698254
-0.715539
0.582669
0.591652
-0.675375
-0.691443
0.561720
0.570419
-0.652144
-0.668077
0.539452
0.550330
0.536564
-0.628823
-0.643157
0.520603
0.516093
-0.605177
-0.619072
0.494652
0.494487
-0.581950
-0.594807
0.474202
0.473341
-0.557381
-0.570404
0.453167
0.453150
-0.533928
-0.545381
0.433083
0.432423
-0.510460
-0.521167
0.413245
0.412456
-0.486892
-0.497275
0.393864
0.392426
-0.463318
-0.473426
0.374645
0.373249
-0.440736
-0.449735
0.355291
0.353815
-0.416898
-0.426133
0.336578
0.335968
-0.392685
-0.403534
-0.387535
0.318652
0.317080
-0.371794
-0.368135
0.301207
0.299805
-0.346456
-0.345896
0.283734
0.281614
-0.324517
-0.324184
0.267199
0.265014
-0.304044
-0.303839
0.250538
0.249354
-0.283660
-0.283838
0.234681
0.232631
-0.264547
-0.264708
0.219617
0.217241
-0.246268
-0.246551
0.204387
0.203020
-0.229235
-0.228268
0.190289
0.189368
-0.211659
-0.210826
0.177483
0.175429
-0.195546
-0.194482
0.164289
0.162952
-0.179445
-0.179070
0.151050
0.150189
-0.165240
-0.163873
0.139616
0.138291
-0.150549
-0.150285
0.128341
0.126395
-0.137311
-0.136311
0.117310
0.115466
0.108896
-0.124402
-0.123790
0.106762
0.101050
-0.112733
-0.111540
0.095227
0.091091
-0.101166
-0.100299
0.086132
0.081719
-0.090020
-0.089489
0.077660
0.073904
-0.080472
-0.079778
0.069218
0.066328
-0.071053
-0.070809
0.062308
0.058949
-0.062613
-0.062954
0.055742
0.052828
-0.054589
-0.053938
0.049856
0.046135
-0.047017
-0.047166
0.043124
0.041131
-0.041085
-0.040314
0.037812
0.035973
-0.034639
-0.034308
0.032329
0.030913
-0.028862
-0.029938
0.027717
0.025927
-0.024130
-0.026134
0.023286
0.022014
-0.019938
-0.021432
0.020250
0.018769
-0.015836
-0.017651
0.017245
0.015259
-0.012484
-0.014030
0.013385
0.012660
-0.009134
-0.011882
0.011260
0.009618
-0.006557
-0.008002
0.008937
0.007764
-0.004524
-0.006298
0.007186
0.006253
-0.003061
-0.004412
0.004782
0.004122
-0.001997
-0.002834
0.003300
0.002841
-0.000915
-0.001479
0.002747
0.002029
0.000465
-0.000346
0.001449
0.001450
0.000928
-0.000081
0.001485
0.000185
0.000615
0.000714
0.000078
-0.000211
0.001600
0.000878
-0.000031
-0.000484
0.000607
0.001551
0.000195
-0.001144
0.001190
0.000621
-0.000552
-0.001056
0.000652
0.001024
-0.000747
-0.000572
0.000601
0.000376
-0.000256
-0.000016
0.000747
-0.000190
0.000291
0.000484
0.000570
-0.000100
0.000274
SCALARS strain_3 float
LOOKUP_TABLE default
-0.002691
-0.001609
-0.002586
-0.001897
-0.003718
-0.001961
-0.003146
-0.003255
-0.003827
-0.005326
-0.004502
-0.005706
-0.005426
-0.004611
-0.008301
-0.005889
-0.011014
-0.005522
-0.016057
-0.004914
-0.020542
-0.003361
-0.027309
-0.001609
-0.032543
0.002236
-0.040940
0.005206
-0.050870
0.009589
-0.059550
0.015485
-0.072659
0.021812
-0.083009
0.028479
-0.097398
0.037439
-0.112613
0.047256
-0.128649
-0.145666
0.059803
-0.162735
0.070579
-0.182566
0.085648
-0.203332
0.101317
-0.223363
0.117538
-0.246850
0.136521
-0.271642
0.154928
-0.296579
0.176620
-0.321741
0.198412
-0.349325
0.223717
-0.376638
0.248598
0.275610
-0.405041
0.304443
-0.434328
0.332937
-0.464686
0.364497
-0.496835
0.395654
-0.527387
0.429598
-0.559441
0.463740
-0.592348
0.499338
-0.624850
0.535548
-0.658155
0.572296
-0.690435
0.609690
-0.723651
0.647885
-0.756683
0.687455
-0.789330
0.726216
-0.823548
0.766331
-0.854504
-0.886897
0.806986
-0.917933
0.846955
-0.947898
0.886841
-0.978502
0.926344
-1.008075
0.965166
-1.036650
1.004924
-1.063317
1.043994
-1.090533
1.081442
-1.114366
1.117658
-1.137872
1.153999
-1.161795
1.190107
1.221985
-1.181782
1.254698
-1.201107
1.285215
-1.219811
1.314989
-1.235704
1.342016
-1.249558
1.368308
-1.262802
1.392731
-1.275482
1.415274
-1.282945
1.434713
-1.291082
1.452606
-1.298323
1.470592
-1.300995
1.483790
-1.303710
1.493952
-1.304643
1.504357
-1.301769
1.510119
-1.297744
1.516452
-1.293911
-1.285549
1.518256
-1.277105
1.519449
-1.265359
1.517132
-1.255750
1.512338
-1.242330
1.505191
-1.227118
1.496948
-1.210095
1.487153
-1.191753
1.473614
-1.172609
1.457641
-1.151540
1.440220
1.422013
-1.130164
1.399389
-1.106587
1.378360
-1.083314
1.353696
-1.059651
1.328001
-1.033537
1.300164
-1.005962
1.271727
-0.979984
1.242022
-0.952042
1.210606
-0.924150
1.178700
-0.894915
1.144974
-0.866249
1.111113
-0.836332
1.077009
-0.808029
1.042018
-0.778449
1.006699
-0.748942
0.970275
-0.719634
-0.690887
0.933864
-0.662656
0.897685
-0.633986
0.860486
-0.604233
0.825463
-0.579276
0.788872
-0.549625
0.752202
-0.522869
0.716472
-0.498898
0.683248
-0.471610
0.647192
-0.446834
0.614208
-0.422106
0.581354
-0.399584
0.546311
-0.376758
0.514642
-0.353757
0.485286
-0.332136
0.453781
-0.311476
0.424587
-0.290232
0.396158
-0.271400
0.367277
-0.253027
0.342522
-0.235547
0.316220
-0.217647
0.293993
-0.202107
0.269253
-0.185276
0.247287
-0.172946
0.226330
-0.158718
0.207337
-0.146189
0.187051
-0.133977
0.169610
-0.121623
0.153064
-0.110622
0.137646
-0.099791
0.123921
-0.089008
0.109276
-0.079827
0.095864
-0.072646
0.084568
-0.065031
0.074288
-0.056790
0.065891
-0.050800
0.055194
-0.044721
0.048264
-0.038651
0.039553
-0.033376
0.033513
-0.028169
0.026303
-0.024359
0.022394
-0.019576
0.017147
-0.017194
0.013874
-0.013712
0.010806
-0.010532
0.008050
-0.009212
0.004718
-0.006807
0.002326
-0.004198
0.001330
-0.003560
-0.000029
-0.002251
-0.000665
-0.000281
-0.002006
-0.000651
-0.002255
-0.000456
-0.002145
0.000089
-0.001171
0.001098
-0.002461
0.001133
-0.001557
0.001299
-0.002225
0.000097
-0.001369
-0.000772
0.000825
-0.000005
-0.003284
-0.001607
-0.003514
-0.001831
-0.003637
-0.003319
-0.004844
-0.003695
-0.004304
-0.006352
-0.005015
-0.008624
-0.006465
-0.012314
-0.005361
-0.016881
-0.004196
-0.021631
-0.002764
-0.027569
-0.000594
-0.035004
0.002001
-0.043001
0.005647
-0.052242
0.010567
-0.061608
0.015442
-0.073396
0.021403
-0.085823
0.029436
-0.100188
0.037436
-0.115143
0.046458
-0.129694
0.058663
-0.146669
0.070053
-0.165175
0.085137
-0.185082
0.099077
-0.204482
0.114005
-0.226306
0.132317
-0.248856
0.151636
-0.272205
0.173285
-0.296759
0.194502
-0.320708
0.217113
-0.348163
0.242080
-0.375658
0.268007
-0.403896
0.294232
-0.431598
0.324899
-0.461458
0.352059
-0.490366
0.383441
-0.521893
0.413912
-0.551080
0.446856
-0.581852
0.481042
-0.613632
0.514895
-0.644179
0.549012
-0.673681
0.585109
-0.705605
0.621868
-0.736742
0.656855
-0.767350
0.693054
-0.795841
0.729627
-0.825727
0.767428
-0.855224
0.802575
-0.882665
0.838177
-0.910329
0.874059
-0.936237
0.909306
-0.960666
0.943873
-0.985406
0.978793
-1.009967
1.011913
-1.032564
1.043609
-1.051800
1.074842
-1.070352
1.103162
-1.089924
1.131073
-1.105628
1.158428
-1.120309
1.183730
-1.133855
1.207355
-1.144748
1.227843
-1.155791
1.249209
-1.163429
1.267978
-1.169997
1.282787
-1.174814
1.295624
-1.175931
1.308986
-1.177489
1.317892
-1.177161
1.326759
-1.174876
1.331597
-1.170891
1.335052
-1.163645
1.334869
-1.157139
1.335569
-1.147266
1.332032
-1.137204
1.326134
-1.124838
1.317397
-1.110472
1.309434
-1.095528
1.297948
-1.078096
1.284656
-1.061201
1.270018
-1.041968
1.252612
-1.021695
1.234048
-1.001358
1.212470
-0.976542
1.190298
-0.955598
1.167612
-0.930911
1.141897
-0.906590
1.115246
-0.880693
1.087735
-0.856187
1.059332
-0.828984
1.030745
-0.802998
1.000608
-0.775513
0.968332
-0.748311
0.937118
-0.721013
0.904556
-0.694959
0.870755
-0.666181
0.838393
-0.639731
0.805595
-0.612121
0.773600
-0.585145
0.739556
-0.560376
0.706476
-0.533051
0.672626
-0.507221
0.640806
-0.482138
0.607665
-0.456652
0.576427
-0.432222
0.544643
-0.409929
0.514266
-0.388012
0.483807
-0.364680
0.453280
-0.343274
0.425681
-0.322314
0.397683
-0.301297
0.371195
-0.280751
0.345746
-0.263361
0.319578
-0.245785
0.296023
-0.227679
0.272837
-0.210991
0.251316
-0.196353
0.229823
-0.180058
0.210900
-0.165086
0.190541
-0.151694
0.174082
-0.140173
0.156542
-0.127109
0.141068
-0.115593
0.125383
-0.104306
0.112359
-0.095172
0.099347
-0.085495
0.088061
-0.076182
0.076438
-0.066926
0.065657
-0.060608
0.056978
-0.052742
0.049488
-0.046987
0.040975
-0.041406
0.033829
-0.034524
0.027035
-0.030026
0.021926
-0.025329
0.018514
-0.020404
0.012641
-0.018246
0.009560
-0.014085
0.006095
-0.011934
0.004946
-0.008567
0.001927
-0.007191
0.001086
-0.005801
-0.001706
-0.002905
-0.000888
-0.002290
-0.002366
-0.001347
-0.002645
-0.001197
-0.003077
0.000428
-0.001961
0.000969
-0.001983
0.000292
-0.002652
0.000058
-0.001283
-0.001767
-0.001156
0.000971
-0.000155
-0.000923
-0.002426
-0.001875
-0.001479
-0.002294
-0.001432
-0.001325
-0.001236
-0.002115
-0.001484
-0.001948
-0.002013
-0.003277
-0.004261
-0.003121
-0.003540
-0.004571
-0.004488
-0.004419
-0.002530
-0.005666
-0.005371
-0.005139
-0.005045
-0.007360
-0.005173
-0.005400
-0.008289
-0.010124
-0.005461
-0.005331
-0.011165
-0.012244
-0.006757
-0.004506
-0.015499
-0.017748
-0.004552
-0.003435
-0.019901
-0.022116
-0.004036
-0.003179
-0.025333
-0.029871
-0.001417
-0.001212
-0.032014
-0.036735
0.000339
0.002808
-0.040202
-0.045382
0.002994
0.005505
-0.049186
-0.054684
0.008236
0.011362
-0.057935
-0.063617
0.012974
0.017893
-0.069080
-0.075873
0.019550
0.024278
-0.081969
-0.089005
0.025801
0.031096
-0.094266
-0.104054
0.034800
0.042077
-0.109381
-0.118958
0.044438
0.050579
-0.124128
-0.135523
-0.148081
0.055075
0.062336
-0.144797
-0.163299
0.066812
0.076327
-0.162158
-0.181230
0.080055
0.089999
-0.182496
-0.202320
0.093884
0.105701
-0.203110
-0.225409
0.110658
0.122879
-0.226318
-0.248462
0.128538
0.141361
-0.248269
-0.271511
0.147149
0.160850
-0.272086
-0.296196
0.166167
0.182075
-0.296851
-0.321834
0.189432
0.204785
-0.323832
-0.349348
0.213146
0.230713
-0.348248
-0.376383
0.256292
0.237458
0.280009
-0.375472
-0.403672
0.267754
0.300429
-0.403156
-0.434321
0.293947
0.327158
-0.432245
-0.463590
0.324980
0.359198
-0.463603
-0.494017
0.354897
0.391584
-0.492746
-0.525027
0.387270
0.423798
-0.522342
-0.557449
0.418940
0.458050
-0.552701
-0.588339
0.452988
0.492955
-0.585670
-0.620817
0.485963
0.528279
-0.617854
-0.653363
0.520484
0.564659
-0.647642
-0.685493
0.555630
0.601805
-0.680755
-0.718820
0.593453
0.638835
-0.712383
-0.750664
0.630276
0.677089
-0.743953
-0.782556
0.666417
0.715003
-0.776208
-0.815227
0.704269
0.754711
-0.807961
-0.848273
-0.876102
0.742099
0.792613
-0.846084
-0.894931
0.780238
0.831637
-0.872215
-0.925502
0.817159
0.869342
-0.902829
-0.955186
0.854781
0.908035
-0.932109
-0.983581
0.892170
0.946611
-0.960000
-1.010899
0.928958
0.984772
-0.985893
-1.037663
0.964511
1.022267
-1.011634
-1.061875
1.000864
1.057494
-1.034968
-1.085312
1.035098
1.093755
-1.059708
-1.109148
1.068967
1.128664
-1.081508
-1.130842
1.099102
1.159166
1.195730
-1.100960
-1.150000
1.144948
1.213327
-1.120305
-1.169107
1.168039
1.243540
-1.137274
-1.184660
1.198552
1.270112
-1.153234
-1.200884
1.225435
1.295327
-1.166391
-1.213563
1.250704
1.319630
-1.179292
-1.226295
1.274034
1.343856
-1.189316
-1.235900
1.294556
1.363679
-1.199143
-1.244343
1.314933
1.383868
-1.208498
-1.252616
1.332060
1.400201
-1.211704
-1.254643
1.347706
1.414632
-1.216121
-1.260357
1.360242
1.427153
-1.218446
-1.260542
1.370724
1.436930
-1.219707
-1.258986
1.380842
1.445769
-1.217743
-1.257704
1.387870
1.450591
-1.212684
-1.255545
1.393286
1.453746
-1.207359
-1.247128
-1.246895
1.393652
1.454668
-1.203564
-1.235418
1.394908
1.454607
-1.190829
-1.223754
1.392662
1.451181
-1.179556
-1.210723
1.387167
1.445914
-1.167479
-1.196169
1.381349
1.437341
-1.152960
-1.181958
1.373267
1.429555
-1.137863
-1.164551
1.361936
1.416852
-1.121611
-1.148005
1.349572
1.401795
-1.103966
-1.129272
1.334870
1.387231
-1.084335
-1.108149
1.314372
1.369613
1.362678
-1.063256
-1.085247
1.304520
1.336573
-1.042608
-1.063017
1.271973
1.316145
-1.019687
-1.039842
1.251751
1.289986
-0.995850
-1.014094
1.227456
1.263751
-0.972204
-0.988923
1.201598
1.236422
-0.947191
-0.963611
1.175967
1.207504
-0.921727
-0.937243
1.146577
1.177647
-0.895887
-0.909620
1.117649
1.148044
-0.869193
-0.881294
1.088607
1.116215
-0.841055
-0.853573
1.056796
1.085239
-0.814166
-0.825972
1.024023
1.050964
-0.786716
-0.797461
0.991917
1.017742
-0.758319
-0.767870
0.959334
0.982936
-0.729781
-0.738499
0.926488
0.948260
-0.702076
-0.709661
0.891858
0.912123
-0.670736
-0.682335
-0.663788
0.857060
0.877882
-0.645726
-0.636907
0.823915
0.843054
-0.611775
-0.608561
0.791094
0.807770
-0.583276
-0.580875
0.755194
0.771873
-0.557232
-0.553757
0.721416
0.735838
-0.530132
-0.527699
0.687602
0.701770
-0.503954
-0.500485
0.653443
0.669141
-0.478288
-0.474677
0.619980
0.633776
-0.454490
-0.450268
0.586741
0.599333
-0.428688
-0.425764
0.555795
0.567183
-0.405932
-0.403148
0.521149
0.535072
0.513265
-0.381919
-0.379318
0.492952
0.484251
-0.361068
-0.356122
0.456288
0.455369
-0.339677
-0.334969
0.427511
0.425177
-0.318617
-0.315278
0.398449
0.397010
-0.299152
-0.294697
0.370621
0.369605
-0.278071
-0.275216
0.344546
0.343764
-0.259018
-0.256511
0.317991
0.318781
-0.241436
-0.239373
0.296249
0.294584
-0.225598
-0.220641
0.272128
0.271717
-0.209326
-0.205530
0.250304
0.247912
-0.193803
-0.189524
0.229130
0.226529
-0.176912
-0.174657
0.209622
0.207734
-0.163633
-0.160613
0.189541
0.188509
-0.149261
-0.148443
0.172289
0.171423
-0.136152
-0.135851
-0.124248
0.155222
0.154713
-0.123373
-0.116289
0.138796
0.139102
-0.111473
-0.105367
0.125434
0.123082
-0.099722
-0.094805
0.110771
0.110083
-0.090385
-0.085283
0.097803
0.097136
-0.080577
-0.076143
0.087428
0.086926
-0.071764
-0.069067
0.074480
0.074359
-0.064240
-0.060157
0.064464
0.064333
-0.056080
-0.053979
0.056266
0.055342
-0.049371
-0.045471
0.047608
0.047509
-0.043857
-0.041321
0.040551
0.040480
-0.038383
-0.035321
0.033778
0.034325
-0.033637
-0.031412
0.025968
0.028602
-0.026467
-0.025347
0.020550
0.023993
-0.024019
-0.020950
0.016536
0.019501
-0.020386
-0.018213
0.011887
0.014043
-0.017418
-0.013476
0.008937
0.011714
-0.012252
-0.011885
0.006366
0.007611
-0.008959
-0.009786
0.004115
0.006211
-0.007566
-0.006683
0.001527
0.002378
-0.006079
-0.004816
0.000156
0.002495
-0.003742
-0.004005
-0.000940
0.000388
-0.002507
-0.002878
-0.002045
-0.000628
-0.001465
-0.002051
-0.002131
-0.001441
-0.000942
0.000025
-0.002841
-0.001805
0.000147
-0.000625
-0.002500
-0.001864
0.001130
0.000543
-0.002311
-0.001714
-0.001264
-0.000186
-0.002373
-0.002072
0.000100
0.000180
-0.001580
-0.002639
0.000207
-0.000158
-0.001536
-0.000154
0.000709
-0.000670
-0.001958
0.000036
-0.000658
-0.001675
-0.000330
-0.001343
-0.001132
SCALARS stress_1 float
LOOKUP_TABLE default
5430.603610
12609.439803
5362.692733
11619.214266
7645.956969
6887.807481
7433.113537
10916.080526
8000.210179
5387.756868
9144.033403
7910.181197
7044.266310
11712.503114
8860.731507
6238.260386
9720.919020
-4262.719594
12103.511429
11418.073149
12407.488787
7628.686354
10845.106081
7551.802601
19911.343362
10858.614446
20699.773037
12301.121887
12497.885133
8862.517479
20152.962428
10838.593974
22015.384777
11992.288941
24325.152178
9699.602379
24325.292424
14674.664409
30483.757775
12410.330217
30670.513590
36297.512129
13548.219951
41012.036172
18140.588598
41157.575744
17259.738884
52844.813426
20482.780983
53912.729269
24341.969882
64737.116028
26554.463494
70595.036134
27439.661620
79797.979615
30946.212201
81769.229249
33056.197615
89111.212629
29959.583224
98513.847375
27605.133987
36059.070252
103513.133487
31073.901991
113182.988584
35332.959726
120262.950432
34115.643256
128727.191637
36970.600521
142191.712200
42759.913903
152616.602346
43033.548759
166335.227234
33119.807818
176628.187065
36867.801253
183123.226851
39193.784051
196183.374385
33622.914125
211337.739840
37124.301649
217078.068228
37640.421955
225492.752503
34222.419858
240596.172518
29038.991038
254805.231198
261024.735990
24394.135494
273597.162228
24055.645980
283309.744950
23802.460062
288260.704503
15059.480668
303001.530912
12546.707797
307399.554698
6057.044376
311773.155714
2165.172986
329275.236885
2771.141365
332778.605658
-11210.830139
333201.737367
-21153.203760
344779.659803
-22070.152104
-34917.234479
348449.483140
-29704.878477
343422.952391
-44206.863752
352284.460509
-42955.142563
350499.117666
-51726.432132
344368.889222
-60551.112312
342984.410018
-66501.900322
345049.865758
-76373.638249
333413.256443
-78518.326094
329390.119840
-90857.998496
323066.628554
-89796.607717
314743.430525
-96339.933408
303396.525753
-99174.658151
284942.562177
-103512.341252
277903.967391
-110674.092885
265816.024174
-113199.472356
247352.952873
230346.546240
-113738.907259
216521.866709
-113458.177248
201531.354972
-118773.999543
183120.328450
-117615.898811
162907.007489
-122367.875051
138154.674869
-119277.535312
116011.378328
-121676.831852
103549.718068
-113533.164473
74381.741828
-109106.485434
60307.842560
-103869.511956
-93100.023692
40304.020265
-95628.703223
19304.750276
-84891.109856
-8754.684627
-75002.181158
-24016.064099
-68114.124374
-52233.815732
-66832.719160
-69371.498833
-56902.682736
-85294.223575
-50009.587508
-111549.549267
-36988.785537
-127480.158487
-27376.276823
-139499.830890
-15463.413427
-160556.518734
-7228.022741
-177308.256662
5077.432999
-190363.044672
15148.953794
-210451.724851
18714.725351
-214615.014420
37697.382508
-224883.293232
-237177.278507
44318.890626
-243964.922505
60796.359877
-256140.004879
67346.183214
-259584.953223
77196.105650
-267735.326844
90803.237358
-268469.298348
102818.606132
-273527.329969
109600.687303
-269867.201360
117590.288318
-270884.864781
128612.312104
-271093.637651
135001.138514
-265372.617046
145392.098067
-262265.802963
150304.680789
-263724.292477
152125.107026
-250993.148021
160904.611818
-245168.576842
162921.670499
-243690.578939
167273.090513
-231590.458632
170919.774788
-220921.071109
179380.103177
-215099.941034
173958.468632
-209573.958237
176266.616165
-197601.964802
173129.655952
-185691.705743
178398.615782
-173098.070886
170901.240671
-159564.757505
171214.130817
-152101.800240
170726.651379
-142983.116709
167062.892585
-133924.058975
160062.854433
-126429.227235
157828.709530
-111383.290970
158475.995641
-103945.740207
148198.630388
-93890.354599
144052.613768
-79172.369184
138983.863402
-79185.818604
135514.806882
-64988.620477
124348.726989
-63288.126865
117765.113747
-48868.937966
108945.029591
-41229.895867
105240.267273
-40190.745581
95273.806845
-31310.376935
88276.330887
-26908.487201
89295.329427
-23092.821392
77130.085242
-23781.759362
74072.550593
-10522.445925
65304.690839
-9016.750958
57278.458240
-12800.674462
53924.880588
-7791.278870
48619.957884
-3244.771429
40962.069980
-5153.959585
38710.499655
657.156663
33024.736936
-2140.230132
26086.354229
-795.437390
27286.331587
-896.417369
28868.923997
3293.339903
17409.111510
2519.661820
11257.576707
2994.086149
15141.809614
6141.632838
19257.762490
436.729479
9718.035536
6655.886048
7546.628750
9003.150283
8487.239406
4637.601008
2046.695597
8912.241646
9935.195785
3760.851742
6398.988106
6251.176310
11213.472362
8467.167610
10785.123886
14089.425840
8575.515084
10091.013433
5108.093498
9170.357984
5773.541708
15572.011950
5166.797281
17345.292752
5813.225376
14004.627983
8169.335969
15595.680274
6286.066626
18999.767047
11695.465086
20447.060906
10177.786339
22607.941706
7202.395542
28121.692225
12537.802671
35016.057476
13524.055465
34194.527486
14303.836505
38015.274860
16189.448519
35659.362032
19506.463911
50214.071780
16089.613005
49021.783959
26320.260958
50064.463926
15737.345339
65359.429103
16978.231307
64376.342121
25309.856430
71877.630573
23918.441054
80157.467067
24768.750140
88628.706787
30194.749048
100450.839760
24865.202738
105518.038592
33406.331556
116037.586062
32114.645478
118293.227184
36601.475021
124689.817144
37682.219988
140786.845968
34104.210897
147591.596435
35475.957723
157354.496138
36157.253219
170134.572870
34193.462545
173053.144051
36392.378455
193671.920053
30559.366108
201227.756062
36465.155825
211278.824685
37784.175199
221253.981107
28649.582144
234583.397936
22484.059239
244405.295517
33827.654225
252674.908889
19722.587449
266086.713387
25126.224070
273987.944048
17663.674262
280748.821220
15874.985765
289784.834929
7335.951332
300547.315693
10656.791310
307386.643367
1450.870859
315418.148469
2813.982732
321561.321026
-11671.190490
327387.698804
-10730.635708
331126.136989
-11201.925330
331116.173348
-24875.439206
335154.663067
-24809.211980
334515.316519
-26575.195908
334876.816282
-41721.853227
333575.555311
-36209.391182
329677.961198
-47235.589427
326143.316723
-51527.337788
321005.842232
-52304.588526
321614.392911
-57121.376280
313386.078933
-62561.908298
302768.183078
-64919.756987
293028.243113
-69528.909246
284344.479383
-75510.682496
271361.747075
-72342.649144
263523.583955
-75203.051076
241016.417617
-81517.205713
226518.006173
-77905.575288
216107.032203
-75785.684468
192888.095906
-77766.250474
185411.672616
-76510.163132
164893.045113
-72639.202096
144028.006149
-72037.829600
128964.093491
-73434.252889
105767.527485
-62765.189186
92719.418305
-60440.163156
68331.048730
-52538.574600
51040.894093
-48997.740939
26676.492160
-35555.904059
10036.525513
-42522.636367
-8521.247737
-24390.400096
-30538.399996
-15506.340062
-41856.248685
-10508.235917
-56352.780703
-3888.549894
-79057.568458
8048.000785
-92506.819196
12894.526294
-107486.567557
27183.881818
-119632.765802
33014.287705
-134024.303756
45985.026734
-147666.961075
57962.526498
-154424.945004
69195.179949
-165878.717777
71889.669668
-171392.231654
86503.706027
-180023.521275
97634.144213
-190474.966493
99140.521991
-193216.139716
115651.694548
-202253.027843
118883.199650
-196642.948294
125466.527323
-202410.108316
138085.008088
-204997.142748
141265.021796
-201249.831245
144953.898968
-197448.381053
148983.129630
-194540.744432
151770.934127
-194053.811209
160872.547500
-191734.216222
164422.445081
-187979.739127
167543.861909
-181370.332182
169903.018332
-173011.312808
176594.086955
-170241.523091
171349.922964
-164810.535438
169632.698966
-151155.619529
170183.270147
-147295.410203
167379.346879
-138614.114707
165590.246582
-121722.367881
164234.997049
-126004.376971
154732.025872
-108635.632005
149224.615832
-104468.802461
158296.256954
-99296.488540
146927.804425
-88131.359721
141499.003257
-77108.906031
138153.136230
-73474.907124
129696.375950
-63376.598038
126648.212443
-53504.013414
118693.500896
-53172.388291
113422.413914
-41883.502322
108077.379090
-42706.417941
107168.059058
-28795.769988
87703.771236
-28788.620895
90546.480985
-22879.605502
78494.568157
-24289.993489
76555.315531
-14646.212449
66357.785540
-10555.959654
62404.150792
-12164.552525
52813.901311
-6307.943322
50206.782110
-4817.622070
45062.075970
-1392.223609
39762.162742
-555.492952
34409.215034
-1207.382360
32668.550265
143.045736
22153.831066
7568.301309
18507.485033
-758.250481
22130.829583
990.327933
22228.417177
2364.719131
14666.675407
10192.370655
19186.666706
11294.854911
12396.991275
5550.647232
7437.601371
11487.147420
11292.403214
704.242009
5080.869885
1182.999373
10659.741659
9448.046131
7898.184450
11247.438299
6346.179709
9714.690859
6283.943210
4974.693149
5946.621578
4164.855989
9525.035320
8156.283614
7651.862769
7465.711514
8316.479484
9803.066493
12422.897530
10320.688907
11437.939071
5350.216920
11182.460957
11282.778313
6146.036345
5443.960622
12673.124959
9328.449761
2552.678973
12003.099300
10978.353365
6155.524752
5855.683672
6738.684003
15384.318779
13907.562633
4225.956806
6832.253930
14311.164423
15941.088584
5973.091015
5187.484813
14194.183510
11173.077010
8687.972700
8949.773787
9375.277450
16456.453493
7584.545527
5225.889152
18674.673798
18584.912274
7790.039392
7526.846920
18836.759694
19870.101095
9678.860387
11543.036858
17162.301292
19156.096727
11633.824920
11156.215479
30251.763657
22608.083358
14944.032170
8442.671344
27813.053731
25503.303872
13503.903322
9071.277792
27210.565586
27804.525742
16092.686832
13236.578244
34537.272621
32760.752785
15246.897255
13682.950559
39325.421852
41851.370344
41089.455485
17837.366243
18590.164161
44640.406778
41320.789718
21540.141539
15437.978076
52013.140879
46786.552303
19030.160707
22063.536800
49971.675814
56674.925278
21751.678736
24793.358750
55496.648912
59230.752089
23591.192500
22946.025768
62655.295265
63005.308584
21906.990432
22719.769309
68894.436195
71869.046171
28152.157701
24544.694486
76227.381744
78957.601077
30508.760400
25600.660277
80613.095681
88330.802095
33483.279042
29103.871210
90151.550613
91856.277214
24767.937236
27003.436709
99012.596666
101860.209553
27480.800305
23874.231861
33890.386356
104425.922077
106259.549776
32972.106381
32851.492719
112177.743130
117204.205591
36920.731529
32862.582694
119998.517083
126305.810244
37070.560684
35727.183728
139494.253570
137713.903570
35451.583255
32319.710454
143581.573734
149965.741793
41228.296361
35683.888059
155944.541602
163773.071159
37008.054890
34202.683215
168183.788230
168202.284860
35386.812816
36423.148125
176909.577048
183217.690282
40561.552857
32361.740363
182622.837180
192195.473132
33958.169898
35932.356008
197503.075536
206096.674378
34982.992587
35148.871386
207961.276826
212304.805434
34458.484032
33407.200932
215126.339913
226166.357475
28227.576546
33928.395375
231180.297651
236720.523575
30905.228640
23400.567154
240953.616726
242890.289792
31655.882200
26979.907153
246088.631675
259067.127326
263079.989999
31705.619011
30871.785788
260361.496886
274938.167111
25122.694059
22679.857847
271815.194802
286926.461156
19157.327691
21131.198862
285346.644437
296427.216165
17545.312660
14279.264219
292306.484220
299407.251414
12677.953286
7185.918542
306200.687936
310215.895467
9816.555883
4592.256987
305034.098067
320000.743745
6124.090741
-3676.048052
316275.642545
325139.750500
1586.899810
-6645.371097
323722.628876
333227.168131
-5927.733013
-4633.768924
327235.762654
336795.543839
-9601.605901
-17736.413894
335962.969342
340613.270059
-15951.867339
-22509.724547
-26566.718137
332910.089155
339335.875163
-18325.948430
-36190.278130
337464.056753
344553.690146
-29537.515863
-38013.578592
339604.593259
339982.720861
-35411.749908
-45031.083176
343375.206219
347249.521759
-41075.741009
-42174.075196
335388.374034
342938.365230
-48059.432771
-56557.314486
334683.193894
342150.119991
-48035.100454
-57240.956489
331966.567254
337338.715810
-56667.826951
-74755.838558
333238.903350
324145.974825
-61400.764008
-73146.581987
331016.345405
326311.773123
-71392.828766
-78618.768869
318301.735505
316234.992253
-69462.163052
-84811.875484
306662.224315
311529.733904
-79328.745323
-88479.163272
300918.184883
297256.748464
-78553.573987
-86009.680095
286626.234927
281668.815314
-80145.823840
-95513.801224
277036.762538
267923.699168
-87309.020425
-99978.469326
265328.403075
254492.913941
-87828.481680
-96502.202375
247026.187668
245392.564682
228516.099758
-92897.881867
-102568.701627
237233.247463
221107.696212
-92060.503916
-103094.792085
216629.951900
205576.291310
-93967.087986
-100811.979464
197685.928314
180789.304175
-93885.363844
-100867.657712
181444.384417
157425.284868
-90881.355774
-103747.256613
166070.432919
144403.029969
-85231.382191
-102007.827048
144850.642767
127094.326227
-80914.496491
-102423.882544
122920.749060
103270.455458
-86150.222908
-94645.416007
107841.766644
87461.225227
-82392.669731
-90214.581524
87075.947688
64452.597276
-71598.858166
-84858.180103
-90791.772091
69302.054119
42227.569250
-72175.857632
-85518.918325
45305.334000
22668.352181
-65526.364376
-69368.894776
32540.395971
-3825.824747
-56513.606599
-65712.512532
13608.121418
-14979.188009
-45098.176101
-61317.034331
-11130.368977
-34262.325226
-40728.982869
-49615.220995
-30342.782398
-57917.963329
-34172.698109
-38556.083562
-47090.134136
-77640.295792
-26299.187792
-28824.146171
-70356.211689
-95426.410651
-13195.415682
-20265.697777
-90105.365523
-114966.507385
-9421.897531
-12227.569436
-100295.396835
-131592.194156
570.960610
-6331.519260
-119392.403692
-149309.142243
13963.392188
5964.784265
-140585.872340
-164524.008775
23540.938154
20237.554316
-147795.595684
-170212.979458
31452.044456
29643.353189
-152401.119499
-182141.867037
37529.996463
41507.609472
-172685.960010
-194720.118140
47541.811534
49400.215183
-181427.415715
-210245.221876
-219570.393815
62792.780292
58174.099448
-197465.155678
-219298.141460
75763.502937
64862.372439
-204962.505536
-235048.145193
80697.517235
84884.364676
-205494.029202
-230417.297434
85667.933359
90263.566186
-216448.772445
-240394.985289
100388.668929
103609.597115
-216341.056794
-244861.614723
111019.017235
114171.886649
-220162.194729
-252006.058248
122351.436370
115538.913309
-221268.842987
-251348.756632
121661.754086
124854.330764
-223484.594044
-246564.375055
130455.343108
139002.605311
-225013.042647
-251125.855309
138247.462884
147390.333924
-222735.740258
-241585.797073
146830.830457
146060.438367
153738.114973
-222894.424046
-238641.725015
146751.063187
156716.078731
-219551.776591
-236006.956553
157986.358897
160634.028075
-208217.253279
-226102.967421
158983.642453
164530.754479
-211739.385623
-223056.867589
162517.449289
164805.679689
-202045.297495
-218146.105994
169809.378834
172756.278473
-197912.576989
-213073.816344
169028.629620
177038.168239
-183075.513734
-202760.233874
167174.672000
176928.544204
-184383.839642
-190511.063701
170575.027897
170140.275011
-171356.837493
-188249.948389
170414.620219
176741.565481
-160262.018257
-172336.026901
166725.088430
169661.392482
-152114.864992
-170940.987788
166290.671830
168759.868374
-145095.657805
-157095.200547
172140.991162
164192.713725
-137268.841374
-141676.125664
168472.939438
165245.286090
-128875.659180
-136729.863482
159730.581321
157747.187695
-120753.493091
-124986.781897
-121522.742069
159625.602416
163736.975820
-106746.705251
-109886.030144
148502.006786
149729.606668
-97203.402141
-102365.713583
150837.759790
150924.731560
-89521.684982
-89184.716028
148610.688822
140724.315260
-79783.339072
-83661.590662
139351.221476
138994.785361
-70881.716908
-71878.579524
131587.172045
131722.107818
-64890.846199
-61329.237060
122136.920978
125324.411559
-60793.982254
-58064.927364
120302.722947
120220.885674
-53186.273950
-53807.971518
110303.964448
119130.655707
-44648.444360
-47808.732010
107386.635098
107466.996111
-38039.340824
-29736.883658
97145.073397
100676.320312
-34539.494262
-35691.376253
95891.438905
90536.780041
-24884.118767
-31026.993707
82100.308282
83628.145524
-17114.621986
-18565.498715
78727.577320
81826.318023
-17960.411563
-13482.434896
75355.581351
77389.838355
-12291.059906
-19283.953910
65587.684964
69456.569203
-9888.319871
-4419.228169
57844.937732
65837.828344
-8369.976965
-5676.723483
51711.205829
51737.692698
-9787.032183
-5216.043322
46959.622086
56569.409212
-5330.375353
-3514.112750
45454.770415
44377.696224
7082.857153
5895.852666
40873.601484
37846.271429
-3961.766916
1698.194039
33517.894946
38380.197262
-5249.106251
-2069.045753
30957.265693
30536.808024
1256.231423
3316.869386
32870.353225
35000.431449
5913.336730
-353.113063
25310.656007
22203.285814
-213.944657
5087.926429
21276.723313
20997.801974
-1951.754349
5078.242494
18826.717835
25246.427274
5736.342849
9338.999536
13832.639574
18167.851859
11651.891531
5545.625412
15575.391455
15839.471746
-260.080660
6047.687013
12476.243159
16396.776963
6796.517914
3655.286507
7041.739300
9494.407596
9452.633808
9300.474816
5169.614089
7696.693712
12979.266821
SCALARS stress_2 float
LOOKUP_TABLE default
117158.466019
69233.959986
68127.242095
75753.754422
98694.472143
60777.052487
150876.210978
154351.353813
180136.199698
210500.968913
177276.658399
243037.167017
299448.997730
274981.855229
421916.630709
256588.244037
633805.026725
240210.950352
780066.099479
189460.504783
1016422.787752
139672.648427
1297608.356848
60343.294985
1682705.745549
-69085.111236
2085784.305461
-234020.570235
2486145.505974
-462188.637703
2978637.292273
-680282.837848
3553950.571654
-1011561.991665
4055925.344117
-1359386.099153
4767652.289542
-1773363.537002
5491491.666832
-2240225.008420
6258123.334868
7098643.552555
-2744517.420705
7962876.265075
-3346739.508552
8891434.941820
-3999990.265558
9926647.496489
-4732683.129629
10993324.867864
-5466052.835461
12165413.531739
-6360601.079861
13308380.309108
-7326383.894314
14551670.669364
-8309337.506236
15794932.557691
-9308774.033415
17161216.622482
-10491261.616965
18513898.981525
-11718936.460973
-12982449.441251
19988019.634819
-14325998.027189
21422506.700150
-15723206.532505
22931581.388006
-17226466.988684
24544809.081478
-18687507.623143
26101037.780566
-20327976.553667
27714392.986146
-21953097.921373
29324250.525616
-23682114.719857
30959962.430461
-25431568.387026
32668715.435377
-27205125.657575
34354976.220245
-29029528.228312
36068667.347157
-30837445.537142
37781455.550809
-32692699.194573
39475551.338480
-34714926.497393
41209101.617467
-36649607.931923
42868791.425657
44509226.318741
-38592359.498161
46164632.686213
-40492146.720314
47747962.732160
-42490404.419379
49439701.580768
-44443807.557467
50957134.701430
-46404068.134579
52473709.780427
-48313493.112826
54015189.725057
-50250074.578509
55396451.573207
-52154540.790530
56787940.880568
-53958662.624702
58119436.036634
-55753658.870534
59365547.721284
-57537734.911116
-59224096.498073
60543302.496613
-60842738.279799
61708591.097315
-62438583.132106
62709224.030670
-63957607.313895
63704435.858772
-65402370.879982
64595498.440504
-66712364.737664
65463259.948468
-67978340.941756
66146405.365735
-69173281.189066
66786118.692307
-70270433.479594
67356717.138671
-71198541.954456
67806230.087919
-72150878.872554
68163249.312632
-72919695.109699
68477822.812812
-73641654.579592
68612654.361042
-74246731.033854
68704234.605715
-74652111.034581
68711219.492017
-75032504.333396
68627214.144137
68455637.037866
-75282097.578693
68153346.994203
-75398069.646284
67787170.261523
-75435716.590985
67313498.926126
-75338028.023303
66787378.112202
-75158379.943237
66123559.764935
-74833793.843509
65421507.625423
-74377701.983022
64628781.725151
-73899120.330289
63792621.805216
-73194265.144213
62804230.372899
-72531296.479609
-71690689.212289
61841015.428198
-70777235.255953
60745843.360607
-69752396.362223
59655674.115310
-68669169.710104
58454800.816495
-67462952.823802
57214988.815768
-66216044.579128
55939704.361505
-64915133.030899
54548944.891613
-63508079.530719
53223840.654467
-62045396.306005
51767951.736370
-60498667.356757
50410019.261508
-58945540.910393
48873314.970980
-57354659.583822
47422758.723670
-55664538.166554
45871214.519578
-54002152.658590
44353220.661896
-52294194.076858
42818345.095809
-50491430.248756
41268344.914020
39791412.061713
-48692333.315401
38231778.279987
-46932484.714699
36698760.693030
-45195625.939370
35179132.652447
-43398858.254720
33669448.406615
-41585699.098654
32161390.572444
-39794337.791293
30680476.360423
-38016403.943143
29272662.894739
-36159147.998514
27866533.916492
-34482060.919516
26441313.339381
-32724115.798855
25051494.201293
-31070136.950246
23797556.502228
-29393622.904300
22462889.280075
-27739240.536827
21184457.713837
-26174581.643743
19931632.279307
-24573771.835553
18726172.976486
-23086237.556566
17538695.319056
-21579021.768895
16463578.010226
-20162681.565243
15372999.439489
-18805854.438331
14344018.168940
-17468137.653464
13310212.501771
-16225176.648547
12319371.703287
-14972056.743702
11454314.335581
-13781655.204232
10616533.405057
-12667499.998652
9741092.770598
-11625063.299564
8985096.314419
-10615739.606092
8183087.809103
-9626216.918236
7479283.223165
-8732529.852906
6815066.242887
-7918505.199612
6220607.398879
-7078590.840569
5563559.815328
-6303538.775777
5028379.288150
-5650996.887450
4453745.676227
-4987162.527194
4008282.861774
-4372835.749825
3560838.617375
-3851371.085950
3172812.911543
-3369141.714576
2742072.047472
-2826473.159906
2415733.290466
-2439994.483161
2075911.202619
-2022481.770641
1767842.790334
-1681673.552955
1515125.318915
-1397473.884918
1251035.881067
-1164386.507629
1033131.773578
-911411.562203
834844.619762
-719196.789740
680878.419617
-500619.510359
536806.352149
-351423.724061
419998.893150
-254294.523547
283786.486929
-142159.963636
164393.133487
-46982.574934
106285.277131
-15013.005838
81518.831562
33567.682435
41973.537877
42100.755188
-19300.073315
85541.151205
1252.614897
85640.784183
-54019.186999
88389.123515
-53222.417784
105938.428101
-24474.429064
85208.729427
-24516.690229
56152.027492
-17501.460181
-40932.684105
77359.790385
100464.248882
75556.561074
130605.273981
124661.741444
195760.776383
133878.066191
224850.724601
221981.794216
240453.508130
281236.957004
257374.478574
435286.375552
260989.345547
614028.698253
233082.022748
807256.215496
229849.689180
1101409.013580
150348.172243
1369553.740901
78252.002546
1750733.249939
-116737.640907
2129403.626995
-227125.017019
2558810.255160
-451264.860483
3024012.041729
-714741.343903
3626256.931888
-999031.936668
4250939.660331
-1359936.897680
4892721.696450
-1754360.313240
5594736.423335
-2185193.176946
6377330.661981
-2759230.137191
7195704.357573
-3296535.539179
8096996.417409
-3962053.555510
9060686.700370
-4662595.007182
10093087.292759
-5375456.066794
11109497.047057
-6295191.555342
12204678.611657
-7154916.348640
13441221.369650
-8127806.650772
14615690.617827
-9190606.602855
15884411.825577
-10232844.408976
17197718.375990
-11416690.944945
18534234.214253
-12653095.680154
19915162.075058
-13943714.928320
21356075.255197
-15278988.720928
22822195.224061
-16722013.371696
24313265.926832
-18197946.350013
25815378.011907
-19720777.180088
27371494.159165
-21263578.034521
28956694.454907
-22840338.437518
30529677.492712
-24545346.561681
32112928.569369
-26183434.752212
33697485.067969
-27867584.360716
35256296.285301
-29640025.084001
36884207.604456
-31399293.008367
38472040.149622
-33190692.392717
40013642.124885
-34960970.112862
41544263.919738
-36764350.341403
43116761.738267
-38587646.516246
44554756.704662
-40374914.896293
46070510.288311
-42109297.005750
47462046.175499
-43878211.720429
48891191.273522
-45558347.212932
50218177.268662
-47302701.007463
51484769.630310
-48919825.190325
52708933.568955
-50569240.161535
53823810.381387
-52095255.272699
54936069.278095
-53572401.431112
55955811.555868
-55043342.777892
56973703.808286
-56378023.571940
57822409.949047
-57714638.602767
58658092.485431
-58957225.394579
59359578.065833
-60087218.823188
60069202.635436
-61134440.326501
60638107.318429
-62144706.163418
61018377.411602
-63038184.475056
61437855.477048
-63783040.785621
61717853.459954
-64485984.446719
61927920.570806
-65046183.858368
62016733.933794
-65517951.106868
62093050.845707
-65900347.543824
62048372.517035
-66167594.834560
61859701.596171
-66385525.065375
61602096.417794
-66413677.025780
61276668.895603
-66395744.326284
60873475.061082
-66232143.021701
60419829.303726
-65981366.549937
59787091.568717
-65642641.786803
59160568.331850
-65191091.521812
58372368.803615
-64610497.279169
57578146.108198
-63946171.113689
56741294.807694
-63206254.635880
55759158.847288
-62417971.814257
54786924.616473
-61517362.735121
53718397.325738
-60439865.063793
52602304.888782
-59382556.151880
51501417.640282
-58230702.788892
50224418.228633
-56979867.678040
48958402.567535
-55699805.695135
47732906.256970
-54352967.629688
46367107.945331
-52985945.536515
45042602.108414
-51478544.853522
43626356.605102
-50001944.283919
42279787.176493
-48536938.703517
40823056.384680
-46981256.167133
39415785.353853
-45374918.026372
37983824.559806
-43727649.773954
36546419.213026
-42135875.496181
35109465.054613
-40494080.599473
33661657.943449
-38832899.787041
32282322.972239
-37194399.848396
30850798.789377
-35550463.486748
29426316.994845
-33902709.491608
28055941.502343
-32295132.393585
26711858.787664
-30679340.506398
25369412.678207
-29039554.922748
24074176.298160
-27509271.956354
22776704.123317
-26017030.137824
21508107.894776
-24536072.342971
20285798.174631
-23053222.367708
19101246.790281
-21562925.822542
17982618.865914
-20223270.503387
16803970.142629
-18871819.286055
15722060.534125
-17572574.787455
14724228.343594
-16294731.710798
13681108.219432
-15060436.672993
12764443.816435
-13888804.377251
11798922.962002
-12833936.229993
10882044.131927
-11734768.144918
10030367.153609
-10771697.442147
9228622.502842
-9760233.473284
8468196.710234
-8891352.293145
7799017.462068
-8015768.432339
7055668.726859
-7242068.594077
6398414.190890
-6472506.043663
5753232.384769
-5769032.835913
5222784.432686
-5067011.587737
4666150.130554
-4455748.829743
4185817.337256
-3868855.265143
3653409.848707
-3382365.510846
3291780.789095
-2948108.918457
2862727.337424
-2461474.635495
2446937.321093
-2076022.575660
2142335.919105
-1716656.880067
1836714.958859
-1450286.641421
1548602.095154
-1159919.914536
1337474.679594
-922617.878417
1105081.718582
-687439.149974
866231.125817
-481482.259815
702594.642397
-285464.473246
547830.798932
-275129.845082
466755.422821
-151563.468026
309909.779368
-43407.958987
166901.609671
31840.768333
128488.092734
38761.566418
60615.759166
79157.083660
26820.436367
122347.406362
49763.303339
148780.824910
-19459.726216
130595.987698
-26256.942688
102219.715723
-11374.994469
129484.040469
30740.507933
95133.220840
38481.533032
40783.821928
57105.991529
90185.637944
73334.999334
96128.549479
145005.796551
107924.246431
76865.281154
119366.454791
120316.330665
117282.331601
77211.274275
169175.856885
172414.791570
178075.302231
92745.661901
193248.141992
180652.734577
209284.640456
240614.141801
158694.339053
211243.270654
227927.823403
292427.025118
306730.364667
324887.332675
237855.375728
242026.132193
453450.580699
512856.332434
262384.560372
215957.416034
552109.256577
667698.090852
270951.231939
187799.636210
723279.775391
854859.851730
241358.669627
168252.210030
981833.360436
1147987.981607
198001.922374
128005.589955
1238419.212897
1451702.462832
77471.906418
49765.400520
1585537.597386
1784868.812768
-11053.473768
-124512.189250
1915834.442081
2237016.478460
-159324.074322
-305053.813738
2358756.442630
2678962.744932
-402136.295802
-506743.925497
2858270.039929
3180125.752425
-596011.025514
-802735.529587
3408157.222664
3719725.710734
-886589.065396
-1103330.223828
3998001.290785
4390584.442605
-1211914.901178
-1462471.477508
4617832.689911
5017942.674656
-1614762.460315
-1897843.263882
5371783.385145
5806156.321568
-2039125.260008
-2380882.990503
6129273.382391
6647678.251694
7378522.016802
-2552334.859451
-2942262.690185
7050652.550663
8007843.000156
-3109711.517547
-3605646.437285
7968029.711481
8923965.145069
-3739922.055291
-4216257.797067
8963391.919835
9986840.737912
-4391593.207378
-4943629.297770
9974072.837524
11018135.253393
-5178138.043182
-5749610.489211
11078076.491433
12196344.609000
-6016677.801263
-6634884.962070
12178559.934563
13317881.363130
-6876146.474509
-7534285.648017
13390005.316308
14582478.820920
-7865046.740521
-8614301.108118
14594081.015634
15828672.591642
-8876264.935122
-9664077.096247
15846765.187596
17142601.386658
-9988722.267654
-10804539.786078
17141243.635220
18557802.551701
-12117147.870236
-11207024.225390
-13215846.036595
18522595.088460
19950344.865757
-12649521.306770
-14176788.369188
19926653.335165
21438907.806461
-13910061.662870
-15484977.742994
21404564.237543
22914752.066498
-15413438.304050
-16977466.280206
22879655.381726
24411869.877845
-16823895.844056
-18510900.961055
24403932.017844
25997458.225070
-18325663.512704
-20126400.331147
25902144.446808
27598583.980028
-19876961.883399
-21658154.105696
27477554.558898
29187481.211835
-21466447.436406
-23385154.372334
29117768.560569
30838177.585723
-23127862.888964
-25129389.000377
30762398.689674
32485102.084765
-24803751.309403
-26852834.413175
32305452.297907
34179643.695459
-26490725.545372
-28675649.607738
33932466.982881
35832675.015055
-28280090.430853
-30447009.426112
35590756.446145
37540839.083646
-30062594.768164
-32317985.654924
37237382.861341
39179194.961391
-31856284.159656
-34166742.223034
38909621.329433
40881868.304163
-33684293.711971
-36081450.872689
40517649.521042
42534007.318296
44028076.750339
-35540250.865385
-37921837.795168
42490350.322834
45065253.654008
-37350638.354595
-39836249.756653
43926980.236836
46680937.098958
-39225019.055411
-41768788.336165
45591599.682011
48205789.981798
-41052710.492041
-43605280.205430
47115105.596850
49747088.106582
-42850408.178164
-45537334.969081
48603995.061747
51264336.059201
-44720551.312614
-47418747.273217
50058030.748622
52727179.431391
-46520380.183480
-49279143.038484
51432546.250347
54012234.796906
-48309597.691053
-51088400.484220
52745957.013070
55398751.783709
-50045311.951805
-52833779.615165
54071463.190625
56661288.700865
-51690428.278049
-54670822.392754
55217174.519457
57882983.439802
-53261604.011941
-56198996.871120
-57985408.661472
56390492.162443
59010001.186711
-55489335.834234
-58872785.446488
57531279.392770
60092789.169446
-56685979.489844
-60449318.508409
58529254.328496
61097696.691819
-58304045.378791
-61771770.510725
59456469.135986
61986372.359067
-59672461.762371
-63122456.345091
60340088.965747
62844639.934652
-61070222.446757
-64419049.466840
61086512.978709
63612342.782639
-62266755.886769
-65683296.322740
61776266.513762
64279529.537649
-63394686.720651
-66785009.244131
62392462.637999
64845624.835271
-64482025.679311
-67824854.894418
62935252.574714
65384510.116660
-65421581.338961
-68728063.145442
63376466.020715
65710218.733766
-66215995.930536
-69556555.610019
63747006.983024
66060671.233252
-66961324.912902
-70286626.039578
63966241.981979
66321652.112051
-67581260.806143
-70848205.956135
64149233.746043
66401419.051781
-68149239.795756
-71398662.314794
64262539.776286
66473700.426697
-68648703.868755
-71794684.862605
64218240.861161
66503490.322830
-68983885.727293
-72070463.162114
64077191.775936
66342032.543792
66465555.910569
-69189652.124836
-72233656.836618
64019650.629330
65882859.229422
-69285736.419844
-72276703.353244
63524615.067780
65508048.685727
-69265496.200626
-72292627.418705
63083046.992836
64990874.298835
-69210032.873770
-72140831.697705
62652061.417383
64409683.627250
-69018668.031027
-71837453.641045
62109143.329033
63789058.503368
-68746169.916123
-71541586.875376
61407913.925364
62984670.685893
-68319137.086412
-71038236.093713
60703023.300921
62298609.594944
-67776864.685105
-70427820.413164
59939823.948880
61370316.567130
-67127239.298446
-69854306.780319
59028381.377288
60473682.034210
-66285561.286377
-68985883.566486
-68807218.421503
58048173.835505
59431206.338580
-65927223.931364
-67589477.616805
57088494.420959
58327521.286769
-64362426.795146
-66661528.437340
56020208.106290
57232749.779052
-63534800.315543
-65446331.358519
54873159.388249
56057472.333412
-62384778.739592
-64295239.255929
53700858.791572
54799119.902495
-61220341.384593
-63063821.882506
52499206.682511
53580178.138712
-59959455.544739
-61653683.676565
51252012.658679
52233367.146969
-58661051.673656
-60304613.772939
49911892.225602
50879792.228796
-57257614.150310
-58870691.548919
48600128.635779
49449546.772010
-55828724.102486
-57402142.122820
47220142.472263
48038493.345546
-54339535.637442
-55845127.829320
45823794.615519
46631341.808393
-52868796.031008
-54219152.824711
44416537.878477
45115586.711047
-51323109.112865
-52641147.574336
42958964.372067
43634751.070438
-49707518.653314
-50989305.854296
41413754.411942
42137690.275272
-48119853.069830
-49260056.858773
40019015.328745
40592658.206904
-46464406.938536
-47575932.347454
38378197.889710
39183223.264628
38162730.766225
-44760350.695586
-45895688.082486
37031295.557649
36734832.395435
-43115292.309495
-44107065.501777
35215272.981118
35192717.482649
-41459554.569774
-42398344.919042
33740705.545572
33731967.732889
-39749102.914328
-40620880.864891
32294805.301068
32191690.360589
-38028401.225373
-38866484.246622
30862111.472967
30761725.407045
-36338277.595082
-37134452.935923
29373511.687812
29346875.783952
-34686255.276922
-35442617.583469
28066353.471215
27952880.536293
-32965767.893329
-33740296.893784
26662542.629433
26542294.248526
-31345115.052259
-32026852.741018
25272263.599858
25187391.550111
-29677907.317133
-30302333.545699
23947268.249530
23855557.025414
-27986349.207976
-28666861.287241
-27574692.460966
22675471.462413
22510233.063929
-26463913.341302
-26143929.664572
21382673.324808
21250707.579356
-24632371.985299
-24617535.534150
20198668.508442
20071173.347266
-23082634.312552
-23097517.747356
19011805.941569
18859162.152944
-21659295.884114
-21625439.377507
17807704.139625
17709485.294416
-20245708.983732
-20214171.725244
16687210.513679
16599139.353606
-18892206.222547
-18825846.748480
15630783.657312
15463797.638868
-17559417.998190
-17541847.658927
14556772.435810
14419323.537946
-16292435.750773
-16220869.799159
13592408.903988
13417419.040494
-15026903.748831
-15006202.427112
12608378.373813
12497094.747113
-13877008.793293
-13859665.563839
11701948.618048
11571397.659374
-12767116.856175
-12695273.844836
10782565.895309
10705683.419345
-11708963.522285
-11628454.982359
9960011.327519
9892102.130708
-10674992.393884
-10653935.205834
9107083.769440
9034729.305059
-9736488.355390
-9623736.536567
8339337.808485
8304379.924202
7737461.942093
-8818689.806370
-8801775.170144
7553234.195325
7139537.017072
-7993617.410484
-7913395.292242
6815107.919766
6475792.853304
-7158143.308850
-7147231.682891
6179389.116660
5860852.983141
-6415560.884556
-6363751.805696
5528457.898230
5286894.152966
-5720259.489209
-5689121.012263
4936947.292043
4733849.284179
-5037260.105881
-5007848.121217
4424849.184680
4237093.631363
-4441204.504784
-4437788.154228
4001348.182540
3715926.371364
-3911457.689088
-3871594.680835
3485366.246074
3362132.916475
-3367305.637637
-3318824.170096
3050586.016654
2870711.643099
-2863628.672335
-2859609.696881
2667511.816154
2523481.689737
-2430263.376700
-2417319.217020
2370999.895320
2211546.653912
-2057460.424769
-2190667.636823
2014239.268710
1897157.835915
-1644377.580831
-1833142.150595
1723576.349146
1607420.948880
-1356773.435356
-1510116.631738
1432973.549453
1348549.478504
-1053147.256613
-1250795.077001
1187785.518026
1109023.260341
-855908.767154
-975546.471767
990971.901507
925275.398859
-626399.184129
-754534.969079
811292.520273
761699.169600
-499689.706536
-544689.015421
666339.216900
568189.014788
-321965.292803
-416343.451708
507602.553482
414904.032911
-227592.471257
-285646.284780
381096.767960
326473.539528
-95766.462915
-165133.918249
316996.553110
234279.750021
-17116.391963
-95515.531118
162199.383837
174645.399283
31296.852981
-12669.154784
93165.878467
102100.739283
46984.103348
26538.772140
57490.372812
37827.589175
117127.769681
81222.352353
53278.358445
-2312.184865
79929.182535
89905.900719
1237.393729
-3532.800464
96609.084850
91006.639297
-23661.760585
-35384.891719
82687.476627
107625.046430
-33587.009774
2680.942278
89201.395752
99158.808310
-889.811973
-14816.045052
90711.187428
72301.394330
-21439.398862
-3304.181154
101555.523382
6399.979489
13897.621032
51572.219153
45911.460855
61515.645258
41080.886729
SCALARS stress_3 float
LOOKUP_TABLE default
-135285.737726
-136463.030166
-106124.437334
-121798.292214
-181944.924383
-116467.796751
-212869.502919
-179654.414841
-274809.474304
-316405.908808
-216894.146485
-308258.038417
-385272.920514
-439744.003673
-488815.435570
-441334.035666
-828224.621379
-305485.437546
-1042500.245063
-348967.279585
-1403320.166078
-245002.863144
-1740620.919561
-68559.955343
-2217792.364968
93776.606426
-2735723.270315
344662.822163
-3322220.565330
654857.854477
-3931321.945968
1026450.937142
-4742643.342851
1427049.767902
-5566488.755981
1968782.346758
-6366191.346174
2508607.534061
-7414255.812070
3180846.865843
-8402791.616744
-9579471.458833
3928828.272727
-10756253.034293
4746743.219578
-12055151.272851
5691111.869899
-13482269.941627
6682319.224586
-14840294.900080
7761148.748501
-16392352.914434
9004522.141181
-17929411.682432
10345269.331458
-19601646.133805
11719097.089138
-21296789.964505
13187387.575934
-23083746.406516
14767215.328773
-24956825.621553
16416066.742247
18269623.818146
-26844603.609614
20114029.486199
-28783374.532414
22073958.749092
-30804664.621042
24111937.535658
-32802864.572346
26173656.615702
-34921590.386326
28461042.150938
-37067462.921545
30729792.678293
-39160785.712242
33060236.361268
-41311796.687252
35417302.200760
-43522111.311439
37853037.661633
-45688502.745621
40423884.443421
-47822745.988902
42920179.547020
-50078776.506146
45496884.439084
-52193030.992414
48164317.583581
-54439333.378327
50817090.448958
-56548841.429216
-58667930.307689
53471587.035213
-60714854.547093
56031592.576123
-62743612.542018
58737610.769431
-64733210.290676
61356723.849806
-66583198.722795
63950883.817250
-68504006.835689
66582852.906432
-70277170.559983
69059647.350231
-72013495.661005
71594635.847288
-73699101.301365
74011692.399392
-75216914.014407
76439290.775453
-76684122.960950
78768237.672322
81030281.093578
-78051575.140098
83104372.271206
-79412278.016717
85111857.206996
-80553100.285864
87104056.599588
-81591544.946644
88893460.753027
-82611401.462131
90646117.597938
-83378254.298084
92221621.438367
-84142034.915788
93700989.973848
-84724567.315242
94983871.204382
-85283073.727536
96190507.666894
-85636424.849518
97287228.060023
-85912145.911383
98229490.385560
-86043932.913131
98863142.410625
-86070991.084956
99607004.138798
-85956751.658842
100003858.569185
-85734868.330743
100361933.705367
-85369755.098870
-84880826.729446
100507700.779327
-84340906.920216
100557641.792856
-83586151.667600
100341655.050001
-82764569.204477
100125550.017415
-81941949.529056
99683534.695100
-80975818.337292
99092036.387996
-79747526.930545
98315079.794743
-78694993.237649
97466938.986507
-77392880.559965
96402582.661928
-75996697.592550
95324901.125051
94002216.377667
-74519756.335405
92726072.186897
-73059255.321876
91167000.556321
-71509328.247916
89530961.788194
-69772181.111735
87886093.116293
-68144990.681347
86011724.542407
-66286504.953174
84132506.370582
-64494708.928109
82088655.368834
-62624702.602572
80051142.306969
-60812206.209443
77994879.184987
-59003457.746931
75729876.772693
-57067776.516398
73506128.373239
-55115063.980916
71212491.755535
-53209576.140487
68874822.919581
-51423895.295576
66528118.404094
-49285307.142137
64162569.743314
-47347379.749545
-45525238.813755
61792435.474168
-43627531.636127
59350388.597549
-41763824.214871
56939992.418401
-39900029.318002
54569103.471858
-38089902.941941
52213146.758815
-36245774.389837
49730357.118456
-34498753.892780
47400112.017433
-32700615.448981
45037124.293140
-31042470.359799
42831388.180246
-29366326.392355
40616599.748127
-27820365.311980
38407865.999469
-26183403.118672
36161764.004543
-24709861.577763
34063383.765140
-23191748.991507
32057958.886667
-21826144.126130
30045474.835778
-20406710.981633
27983492.449864
-19087990.089569
26158773.963597
-17833038.985971
24402199.446353
-16643312.204182
22725428.203072
-15494488.743309
20986044.768890
-14342158.903817
19382706.144703
-13233091.220842
17904975.169693
-12300660.693487
16307524.378996
-11321435.158251
14962931.843777
-10416324.078207
13652654.029796
-9480681.291641
12435254.078493
-8822256.028748
11222155.989865
-7996730.360695
10136121.067065
-7288517.284796
9106967.079004
-6578929.871322
8155999.863967
-5869758.118484
7235603.421955
-5324347.631687
6427499.591256
-4769975.874007
5608769.139883
-4152940.683730
4958494.371885
-3751807.291050
4254052.357531
-3237969.767135
3732635.399078
-3005802.412448
3160044.730301
-2536057.762127
2607898.491743
-2148222.815276
2077260.916284
-1769905.408392
1809381.074194
-1566402.076610
1472109.269521
-1291024.889307
1253996.803625
-1108716.310451
899734.213431
-831253.479691
649840.800302
-735116.397026
482103.403419
-479705.364712
367850.022781
-385747.148975
241896.727766
-254130.587206
183229.822419
-233591.679405
-14901.622989
-93275.262964
-30666.376471
-55093.105003
-46910.297486
-133772.506884
-147521.921170
116797.461124
-85011.106980
56735.495868
-126089.622035
57459.366259
-242500.396064
-73737.068245
-141244.127708
25858.960370
-45966.745798
27702.381833
-84924.250336
22537.894784
9459.195177
-125405.109315
-157234.509158
-94484.444351
-206032.849444
-102995.965001
-201841.352384
-154347.136131
-326518.089145
-274514.656378
-307853.593071
-343080.454577
-403088.632179
-591588.228472
-362088.578996
-828077.210047
-360685.200642
-1164954.026775
-297126.799373
-1415890.911535
-204356.909430
-1875327.096312
-11048.601083
-2315444.207684
127269.823410
-2837402.478530
427295.062689
-3446696.605699
621842.581619
-4068222.519815
993104.845958
-4876945.916831
1400440.785436
-5711154.261612
1881347.098692
-6626302.483887
2463512.018605
-7607917.280504
3103871.708679
-8634870.349207
3890785.400898
-9788687.385950
4674142.026782
-10928216.321357
5582278.052090
-12251422.618502
6591505.174565
-13604490.510264
7621007.859967
-14999729.623220
8816313.806041
-16472251.189356
10084753.014577
-17976605.905521
11492355.880166
-19665960.235683
12860100.939737
-21287545.109570
14366402.587880
-23077255.224033
16042494.826388
-24911560.275024
17766168.584988
-26613131.727408
19522578.866365
-28612384.045154
21459083.599354
-30439972.157990
23384453.786640
-32456973.761871
25353888.357950
-34414084.088780
27444740.547061
-36489164.299536
29591298.819732
-38492302.627018
31833284.409737
-40515815.999166
34091929.782836
-42595622.879947
36380963.870548
-44609473.966210
38776635.440889
-46691079.721926
41102170.193392
-48651886.843942
43487144.360937
-50672373.330469
45925278.642164
-52583561.576099
48304959.038863
-54573530.114177
50751194.016793
-56496085.339297
53134960.576850
-58361977.249669
55586427.417673
-60153188.775019
57915171.773036
-61923476.912665
60188011.644730
-63553193.593228
62555811.498515
-65129375.814023
64754420.568165
-66607894.504780
66967943.086560
-68182579.896587
69009286.289265
-69505606.453414
71033034.944296
-70807156.406350
73072372.982276
-71879692.219364
74876598.940132
-72981930.820394
76679561.516502
-73945383.976561
78295366.480298
-74851576.382923
79928343.065293
-75531587.271465
81305341.273280
-76256894.338141
82620154.105151
-76749479.581159
83866246.259548
-77271053.464490
84860244.273396
-77480622.987238
85758093.380469
-77722881.845356
86628362.348783
-77732140.269935
87304438.413904
-77705004.259184
87710841.808711
-77507920.277071
88115565.301220
-77261246.554687
88357292.662131
-76866206.324016
88343392.124324
-76365843.814357
88335457.456711
-75791606.792830
88109826.125944
-75048165.188268
87767756.436072
-74241165.534018
87317441.387988
-73285733.526033
86610914.983484
-72201283.930537
85914378.991469
-71190094.978621
84915298.645719
-69934212.668493
83942004.250281
-68749795.999260
82799249.271808
-67367138.666874
81566491.781467
-66005295.204680
80302652.012138
-64528623.843769
78707149.734522
-62948348.351261
77194409.716635
-61355640.956453
75562665.727386
-59742860.891333
73707903.302807
-58105871.923018
71938604.444689
-56425174.815945
70177418.921941
-54666504.802097
68138277.038610
-52843644.647701
66177787.795592
-51097471.815829
64110016.728916
-49390745.607842
61967733.840374
-47532233.022847
59865509.434012
-45734156.059051
57680168.277845
-43936313.482681
55474057.676815
-42135159.524825
53290225.863801
-40331597.486845
51113667.910865
-38613768.831814
48867249.354038
-36847369.629109
46744467.962231
-35157367.110714
44523549.271474
-33365030.041064
42298151.050679
-31823598.187279
40219666.370115
-30147750.315585
38138082.232470
-28497405.960222
36017142.707119
-26851827.119399
34092114.796748
-25503068.559343
31923799.571628
-23938241.581412
30021895.033550
-22520097.184713
28120178.787920
-21158186.903486
26294508.301393
-19828188.735941
24571525.179377
-18507965.983438
22936895.423661
-17271718.413097
21149092.337397
-16053276.325385
19579749.456616
-14999622.952286
18039052.084469
-13952133.362281
16706633.756987
-12864135.089611
15176065.546231
-11875362.900500
13912459.219321
-10997512.329189
12664993.615441
-9945870.141903
11509149.502605
-9215637.408914
10356233.184859
-8386203.127537
9281093.732475
-7606913.368937
8425732.681484
-6908229.130430
7457270.567021
-6249287.482286
6636197.693133
-5678470.422715
5786523.362972
-4940051.557126
5038904.646807
-4427324.348590
4369711.080671
-3953682.402516
3692807.967714
-3424403.717114
3152540.075953
-3054408.594639
2727893.778808
-2609376.569331
2270348.843401
-2256867.943448
1847155.806658
-2049794.251228
1531626.737955
-1652378.561154
1223803.941338
-1428869.641241
929967.719063
-1179131.327986
704783.374282
-906963.388507
496891.977266
-817813.124168
323110.063150
-597153.605238
195607.935981
-444328.365959
28721.665135
-300121.941466
-62979.446237
-154685.633119
-135343.631014
-64731.743176
-90856.515774
-84117.341907
-110549.332502
9702.036447
-128158.314077
11278.089630
-237402.087972
-55028.949478
-127279.886171
59379.546595
-112535.406418
-12561.190165
-75310.577548
-52913.693105
-134254.098198
21167.966609
-77939.512383
-58533.433234
-153572.977799
-101925.408833
-37446.316283
-120077.690707
-166858.042325
-64141.771172
-10016.173922
-91896.043699
-188511.838029
-98491.258120
-121132.237183
-192852.769759
-178482.186097
-172982.109090
-191859.925858
-241618.748378
-322236.310376
-359677.642581
-260647.835362
-270168.113146
-336859.902170
-368511.105985
-321247.606707
-430068.466175
-340317.956752
-322436.518823
-535926.347480
-667518.570838
-384111.010603
-311035.875403
-756193.458542
-820525.760361
-369016.783929
-351664.164490
-993175.636742
-1126016.276309
-322012.572077
-273889.871671
-1332014.786161
-1531963.387596
-263003.510080
-126843.387958
-1671248.899144
-2014942.546727
-127665.056000
-16702.316473
-2102055.301002
-2382778.075158
50833.483435
191406.089623
-2603314.784453
-2989885.256352
276715.311921
440227.325321
-3142538.550599
-3576214.989109
518040.731980
713315.959461
-3848524.180410
-4254775.658708
894258.777094
1146378.388287
-4576656.997846
-5087678.286413
1315583.778386
1633941.382237
-5362140.589295
-5891868.287092
1686075.985610
2085417.293738
-6267712.433452
-6777381.350339
2279334.768874
2740670.491156
-7138819.345059
-7827565.972223
2859138.493459
3438560.332202
-8265256.705916
-8953560.396906
-9877867.386456
3594377.756219
4224679.786484
-9573469.116258
-10782570.798646
4433717.255796
5018989.166060
-10704962.925271
-12036315.503458
5340156.689932
5999356.405763
-12072927.948693
-13428362.870519
6239535.523491
6974443.427263
-13443518.052658
-14869282.945972
7305793.450638
8165698.810322
-14874297.417393
-16375449.864140
8469723.374872
9319259.080630
-16379737.031916
-17917864.434752
9771675.850397
10681360.651846
-17981213.963551
-19665569.430526
11063893.067257
12186036.814728
-19596090.043424
-21365811.455164
12524021.939875
13682169.744679
-21275639.767103
-23095489.598320
14039770.014217
15191236.814231
-23040202.185792
-24950630.045160
17047991.478321
15729623.274892
18568213.432480
-24882794.467158
-26765437.862377
17752984.732540
19849741.916272
-26712080.840814
-28751153.711144
19504979.009930
21809330.580554
-28582477.848428
-30670518.425273
21568412.244545
23784112.635320
-30626870.473620
-32681932.716116
23543652.124258
25922967.932312
-32578880.429933
-34766153.041910
25634954.780256
28065876.007741
-34576895.047060
-36855809.081066
27752181.887685
30325508.283504
-36686725.539083
-38876535.807578
29934985.976490
32625740.033258
-38709389.449192
-40997040.814320
32170856.719169
34999581.244469
-40832406.071589
-43194359.562575
34491061.702064
37311887.527917
-42875216.352114
-45384021.169525
36895000.076727
39874950.303526
-44942533.906602
-47456615.953533
39276839.569547
42345842.673481
-47120390.731788
-49664450.872351
41709357.622429
44817292.403918
-49236147.401252
-51765045.559225
44165322.148406
47389251.684076
-51273304.115294
-53917107.989408
46647029.175495
49916394.500438
-53305882.408245
-56057818.729316
-57954475.447257
49166714.853193
52519167.574606
-55878962.014003
-59210377.749738
51698090.646362
55093104.300277
-57593472.608326
-61195381.085190
54157702.556794
57651696.215272
-59667715.497857
-63121599.022061
56545335.818263
60192914.926788
-61568962.217735
-64925320.319903
59088490.962324
62755307.318632
-63446733.251900
-66756247.641641
61503905.232198
65166987.252542
-65080458.962679
-68522040.020261
63891547.885108
67627933.985257
-66878830.668707
-70199821.442739
66195027.983183
70114690.511314
-68381955.102328
-71732119.168093
68494711.046835
72395983.127911
-69905810.295633
-73279514.079638
70737164.673453
74838729.259368
-71444197.430611
-74671988.076578
72794148.788916
76814101.594186
79153906.106901
-72725970.057929
-76036804.685318
75748756.190437
80249395.860470
-73986609.732866
-77163143.751487
77292928.031358
82335455.461872
-75110995.150612
-78259605.007025
79336674.642389
84099960.677433
-76169063.482775
-79268398.367741
81057859.059324
85739135.546607
-77007979.096685
-80204973.180734
82781116.228650
87339998.063703
-77896305.656924
-80889755.575184
84315233.290503
88890480.392538
-78572220.436341
-81635734.780612
85754335.885426
90253685.284341
-79169740.158326
-82212182.356009
86971753.111083
91554368.836510
-79688246.726962
-82625768.602514
88220228.280872
92647419.741814
-80065397.841783
-82956516.599973
89143777.998322
93673775.236633
-80326162.770761
-83161128.391895
90090084.490943
94503820.569418
-80378072.015949
-83262300.326772
90785712.126786
95092514.180998
-80447989.748062
-83039004.883068
91352157.222430
95728947.437547
-80288251.580787
-83029066.393664
91847499.749229
96008252.001623
-80032976.775739
-82801284.557959
92171066.735916
96296574.347630
-79680202.857447
-82327104.473516
-82368015.509443
92291968.081021
96329241.215740
-79391487.428604
-81433759.968816
92245871.864356
96217178.964384
-78612904.685241
-80762182.067550
92165527.463011
96036840.563840
-77822938.929445
-79894181.792808
91821671.905224
95777356.353335
-76974415.979699
-78901501.117788
91387854.623459
95225295.184583
-76155255.886050
-77913720.007933
90921225.494763
94555159.675303
-75071374.629292
-76880695.113668
90182529.221042
93693814.571659
-73945926.173751
-75646961.731172
89227808.368174
92814541.225014
-72830573.299668
-74433526.162519
88163713.083250
91780940.736617
-71458101.690278
-72992499.706110
86952178.410696
90536095.252503
90180422.920792
-70206296.070947
-71596841.655210
86397062.955980
88489428.484494
-68713256.408775
-70107902.495273
84193759.873249
86986076.345817
-67223373.640651
-68604296.888950
82952102.565393
85252342.089365
-65724351.759415
-67010922.589171
81190213.205322
83622146.381877
-64069409.252490
-65284931.635686
79523304.813518
81840989.868235
-62504204.455836
-63552517.548901
77724541.151270
79926117.826205
-60782730.985286
-61795793.039184
75899481.694191
77914033.932994
-59009175.818777
-59953802.867705
73948592.273407
75851568.080955
-57275251.818451
-58191517.629034
71966794.499201
73857055.685449
-55381567.210025
-56265185.234596
69907825.831067
71694500.975776
-53679034.114664
-54380829.724768
67693651.506360
69570477.310454
-51912578.854315
-52531008.489659
65662866.030094
67294920.531839
-49964004.278899
-50673150.067986
63429983.661690
65021617.703848
-48110614.050043
-48754597.605442
61273621.429079
62748715.950330
-46202575.709151
-46807761.188145
59026978.467834
60346388.650661
-44251867.984881
-45031402.629051
-43704899.535228
56817678.061725
57999084.510640
-42581224.639040
-41995626.852258
54509882.281919
55707572.531163
-40286299.764643
-40041827.965149
52212608.897327
53375087.714915
-38498489.075146
-38243230.185408
49941218.908844
51019391.132168
-36698213.739861
-36408542.840363
47722138.154757
48663682.713545
-34939350.525732
-34679308.365598
45496461.450793
46429751.595114
-33207607.473178
-33019038.677108
43284247.988567
44163767.979632
-31564642.635099
-31313450.586543
40919224.756080
41841806.044431
-29885493.963471
-29725057.138749
38800453.715736
39640602.252003
-28196827.605015
-28064181.175869
36729912.907415
37551472.175397
-26595410.576426
-26429375.564920
34487533.101267
35320433.698780
33924867.853997
-25257550.433115
-24985678.839250
32529092.254413
32067966.073922
-23758071.407961
-23528250.765977
30196438.669692
30065444.755422
-22207585.108162
-22125253.155371
28219384.281318
28144280.420801
-20955724.690955
-20655880.333317
26360901.449206
26260459.860462
-19497952.405019
-19394037.626736
24503149.596945
24417311.284450
-18283325.441789
-18051972.975696
22823606.022142
22720994.283362
-17146624.729203
-16820433.654209
21119196.412286
21063003.551762
-15935919.566831
-15741712.478496
19485086.960696
19366000.152398
-14764244.258719
-14657397.101991
18002958.517108
17953929.040607
-13655800.090430
-13496101.720603
16532838.103775
16390303.620827
-12652272.647809
-12425707.695803
15164155.226111
15025555.274224
-11677963.696541
-11489772.201431
13802087.826959
13769121.055403
-10687222.663540
-10629703.484380
12647539.641528
12460046.171465
-9885114.146155
-9706761.860562
11435531.114357
11362490.160852
-8895988.384186
-8869015.129358
-8309990.941240
10308896.591882
10205987.552707
-8109843.303108
-7608398.729884
9238510.305507
9230483.019262
-7294606.721610
-6820257.188533
8243238.792156
8208821.735030
-6544605.280156
-6224850.775948
7394368.748680
7419972.224718
-5918747.577628
-5517852.743814
6570516.943092
6376983.256342
-5297794.659402
-4989380.937573
5745646.836678
5679835.379046
-4764639.550184
-4452780.435012
5086504.511031
4974299.428745
-4280033.250381
-3835013.544393
4365710.901879
4297886.348864
-3772432.455366
-3523953.920624
3672238.027481
3673244.570609
-3253771.129150
-3031941.491103
3232383.243093
3040005.260211
-2893957.828041
-2627417.323463
2656007.844012
2694119.792622
-2496583.697056
-2323998.855711
2198842.105665
2342555.752772
-2133050.126313
-2096919.986067
1775709.578054
1985253.959527
-1830136.024371
-1752003.920780
1505060.234473
1648378.067574
-1509660.299786
-1407012.696821
1147002.078843
1286040.261418
-1356750.184545
-1180059.402050
825985.313910
984131.772067
-1066427.193506
-922023.671014
598920.727431
777436.657793
-834825.592940
-761675.808115
470815.518801
506900.149461
-648355.738679
-569632.435099
262860.132793
365875.063604
-503432.629828
-470892.026364
124156.668903
244754.312543
-362255.738412
-282499.479545
-3755.939559
157352.743917
-190790.076069
-262553.465799
-74031.694383
48510.659982
-168488.444070
-89680.205118
-148252.920787
20313.811745
-84115.364170
-140399.305997
-117903.840907
-66971.190598
-39635.351315
-106268.571229
-175664.392529
-150723.864992
-69801.025322
-56503.265337
-197853.939229
-162285.899249
2690.189198
17538.501348
-149873.677317
-237836.334499
23151.326546
71644.633778
-201451.606793
-120689.441221
114031.880124
103555.909045
-115233.492988
-120130.038901
10267.669114
68434.130972
-91316.267421
-120349.057269
33727.979128
-3504.011252
-90295.537288
-7094.268995
-4866.623826
-93423.299833
296.345311
-28887.134825
-144838.405408
