# vtk DataFile Version 2.0
Generated volume Mesh
ASCII
DATASET UNSTRUCTURED_GRID
POINTS 1240 float
-0.212153 -0.150304 0.000000
-0.206421 -0.141033 0.000000
-0.215099 -0.146056 0.000000
-0.209122 -0.154492 0.000000
-0.217961 -0.141751 0.000000
-0.206009 -0.158620 0.000000
-0.220736 -0.137389 0.000000
-0.202815 -0.162684 0.000000
-0.223424 -0.132973 0.000000
-0.226023 -0.128505 0.000000
-0.199540 -0.166684 0.000000
-0.228534 -0.123985 0.000000
-0.196187 -0.170619 0.000000
-0.230953 -0.119417 0.000000
-0.192756 -0.174486 0.000000
-0.233282 -0.114802 0.000000
-0.189249 -0.178283 0.000000
-0.235519 -0.110141 0.000000
-0.185666 -0.182011 0.000000
-0.237662 -0.105436 0.000000
-0.182011 -0.185666 0.000000
-0.239711 -0.100690 0.000000
-0.178283 -0.189249 0.000000
-0.241666 -0.095904 0.000000
-0.174486 -0.192756 0.000000
-0.243525 -0.091081 0.000000
-0.170619 -0.196187 0.000000
-0.245288 -0.086221 0.000000
-0.166684 -0.199540 0.000000
-0.246953 -0.081327 0.000000
-0.162684 -0.202815 0.000000
-0.248521 -0.076401 0.000000
-0.158620 -0.206009 0.000000
-0.249991 -0.071445 0.000000
-0.154492 -0.209122 0.000000
-0.251363 -0.066459 0.000000
-0.150304 -0.212153 0.000000
-0.252634 -0.061448 0.000000
-0.146056 -0.215099 0.000000
-0.253806 -0.056412 0.000000
-0.141751 -0.217961 0.000000
-0.137389 -0.220736 0.000000
-0.254878 -0.051354 0.000000
-0.132973 -0.223424 0.000000
-0.255849 -0.046275 0.000000
-0.128505 -0.226023 0.000000
-0.256718 -0.041179 0.000000
-0.123985 -0.228534 0.000000
-0.257486 -0.036067 0.000000
-0.119417 -0.230953 0.000000
-0.258152 -0.030940 0.000000
-0.114802 -0.233282 0.000000
-0.258717 -0.025802 0.000000
-0.110141 -0.235519 0.000000
-0.259178 -0.020654 0.000000
-0.105436 -0.237662 0.000000
-0.259538 -0.015498 0.000000
-0.100690 -0.239711 0.000000
-0.259794 -0.010336 0.000000
-0.095904 -0.241666 0.000000
-0.259949 -0.005169 0.000000
-0.091081 -0.243525 0.000000
-0.260000 0.000000 0.000000
-0.259949 0.005169 0.000000
-0.086221 -0.245288 0.000000
-0.259794 0.010336 0.000000
-0.081327 -0.246953 0.000000
-0.259538 0.015498 0.000000
-0.076401 -0.248521 0.000000
-0.259178 0.020654 0.000000
-0.071445 -0.249991 0.000000
-0.258717 0.025802 0.000000
-0.066459 -0.251363 0.000000
-0.258152 0.030940 0.000000
-0.061448 -0.252634 0.000000
-0.257486 0.036067 0.000000
-0.056412 -0.253806 0.000000
-0.256718 0.041179 0.000000
-0.051354 -0.254878 0.000000
-0.255849 0.046275 0.000000
-0.046275 -0.255849 0.000000
-0.254878 0.051354 0.000000
-0.041179 -0.256718 0.000000
-0.253806 0.056412 0.000000
-0.036067 -0.257486 0.000000
-0.252634 0.061448 0.000000
-0.030940 -0.258152 0.000000
-0.251363 0.066459 0.000000
-0.025802 -0.258717 0.000000
-0.249991 0.071445 0.000000
-0.020654 -0.259178 0.000000
-0.248521 0.076401 0.000000
-0.015498 -0.259538 0.000000
-0.010336 -0.259794 0.000000
-0.246953 0.081327 0.000000
-0.005169 -0.259949 0.000000
-0.245288 0.086221 0.000000
0.000000 -0.260000 0.000000
-0.243525 0.091081 0.000000
0.005169 -0.259949 0.000000
-0.241666 0.095904 0.000000
0.010336 -0.259794 0.000000
-0.239711 0.100690 0.000000
0.015498 -0.259538 0.000000
-0.237662 0.105436 0.000000
0.020654 -0.259178 0.000000
-0.235519 0.110141 0.000000
0.025802 -0.258717 0.000000
-0.233282 0.114802 0.000000
0.030940 -0.258152 0.000000
-0.230953 0.119417 0.000000
0.036067 -0.257486 0.000000
-0.228534 0.123985 0.000000
0.041179 -0.256718 0.000000
-0.226023 0.128505 0.000000
-0.223424 0.132973 0.000000
0.046275 -0.255849 0.000000
-0.220736 0.137389 0.000000
0.051354 -0.254878 0.000000
-0.217961 0.141751 0.000000
0.056412 -0.253806 0.000000
-0.215099 0.146056 0.000000
0.061448 -0.252634 0.000000
-0.212153 0.150304 0.000000
0.066459 -0.251363 0.000000
-0.209122 0.154492 0.000000
0.071445 -0.249991 0.000000
-0.206009 0.158620 0.000000
0.076401 -0.248521 0.000000
-0.202815 0.162684 0.000000
0.081327 -0.246953 0.000000
-0.199540 0.166684 0.000000
0.086221 -0.245288 0.000000
-0.196187 0.170619 0.000000
0.091081 -0.243525 0.000000
-0.192756 0.174486 0.000000
0.095904 -0.241666 0.000000
-0.189249 0.178283 0.000000
0.100690 -0.239711 0.000000
-0.185666 0.182011 0.000000
0.105436 -0.237662 0.000000
-0.182011 0.185666 0.000000
0.110141 -0.235519 0.000000
-0.178283 0.189249 0.000000
0.114802 -0.233282 0.000000
-0.174486 0.192756 0.000000
0.119417 -0.230953 0.000000
0.123985 -0.228534 0.000000
-0.170619 0.196187 0.000000
0.128505 -0.226023 0.000000
-0.166684 0.199540 0.000000
0.132973 -0.223424 0.000000
-0.162684 0.202815 0.000000
0.137389 -0.220736 0.000000
-0.158620 0.206009 0.000000
0.141751 -0.217961 0.000000
-0.154492 0.209122 0.000000
0.146056 -0.215099 0.000000
-0.150304 0.212153 0.000000
0.150304 -0.212153 0.000000
-0.146056 0.215099 0.000000
0.154492 -0.209122 0.000000
-0.141751 0.217961 0.000000
0.158620 -0.206009 0.000000
-0.137389 0.220736 0.000000
0.162684 -0.202815 0.000000
-0.132973 0.223424 0.000000
-0.128505 0.226023 0.000000
0.166684 -0.199540 0.000000
-0.123985 0.228534 0.000000
0.170619 -0.196187 0.000000
-0.119417 0.230953 0.000000
0.174486 -0.192756 0.000000
-0.114802 0.233282 0.000000
0.178283 -0.189249 0.000000
-0.110141 0.235519 0.000000
0.182011 -0.185666 0.000000
-0.105436 0.237662 0.000000
0.185666 -0.182011 0.000000
-0.100690 0.239711 0.000000
0.189249 -0.178283 0.000000
-0.095904 0.241666 0.000000
0.192756 -0.174486 0.000000
-0.091081 0.243525 0.000000
0.196187 -0.170619 0.000000
-0.086221 0.245288 0.000000
0.199540 -0.166684 0.000000
-0.081327 0.246953 0.000000
0.202815 -0.162684 0.000000
-0.076401 0.248521 0.000000
0.206009 -0.158620 0.000000
-0.071445 0.249991 0.000000
0.209122 -0.154492 0.000000
-0.066459 0.251363 0.000000
0.212153 -0.150304 0.000000
-0.061448 0.252634 0.000000
0.215099 -0.146056 0.000000
-0.056412 0.253806 0.000000
0.217961 -0.141751 0.000000
0.220736 -0.137389 0.000000
-0.051354 0.254878 0.000000
0.223424 -0.132973 0.000000
-0.046275 0.255849 0.000000
0.226023 -0.128505 0.000000
-0.041179 0.256718 0.000000
0.228534 -0.123985 0.000000
-0.036067 0.257486 0.000000
0.230953 -0.119417 0.000000
-0.030940 0.258152 0.000000
0.233282 -0.114802 0.000000
-0.025802 0.258717 0.000000
0.235519 -0.110141 0.000000
-0.020654 0.259178 0.000000
0.237662 -0.105436 0.000000
-0.015498 0.259538 0.000000
0.239711 -0.100690 0.000000
-0.010336 0.259794 0.000000
0.241666 -0.095904 0.000000
-0.005169 0.259949 0.000000
0.243525 -0.091081 0.000000
0.000000 0.260000 0.000000
0.245288 -0.086221 0.000000
0.005169 0.259949 0.000000
0.246953 -0.081327 0.000000
0.010336 0.259794 0.000000
0.248521 -0.076401 0.000000
0.015498 0.259538 0.000000
0.249991 -0.071445 0.000000
0.020654 0.259178 0.000000
0.251363 -0.066459 0.000000
0.025802 0.258717 0.000000
0.252634 -0.061448 0.000000
0.030940 0.258152 0.000000
0.253806 -0.056412 0.000000
0.036067 0.257486 0.000000
0.254878 -0.051354 0.000000
0.041179 0.256718 0.000000
0.255849 -0.046275 0.000000
0.046275 0.255849 0.000000
0.256718 -0.041179 0.000000
0.051354 0.254878 0.000000
0.257486 -0.036067 0.000000
0.056412 0.253806 0.000000
0.258152 -0.030940 0.000000
0.061448 0.252634 0.000000
0.258717 -0.025802 0.000000
0.066459 0.251363 0.000000
0.259178 -0.020654 0.000000
0.071445 0.249991 0.000000
0.259538 -0.015498 0.000000
0.076401 0.248521 0.000000
0.259794 -0.010336 0.000000
0.081327 0.246953 0.000000
0.259949 -0.005169 0.000000
0.086221 0.245288 0.000000
0.260000 0.000000 0.000000
0.091081 0.243525 0.000000
0.259949 0.005169 0.000000
0.095904 0.241666 0.000000
0.259794 0.010336 0.000000
0.100690 0.239711 0.000000
0.259538 0.015498 0.000000
0.105436 0.237662 0.000000
0.259178 0.020654 0.000000
0.110141 0.235519 0.000000
0.258717 0.025802 0.000000
0.114802 0.233282 0.000000
0.258152 0.030940 0.000000
0.119417 0.230953 0.000000
0.257486 0.036067 0.000000
0.123985 0.228534 0.000000
0.256718 0.041179 0.000000
0.128505 0.226023 0.000000
0.255849 0.046275 0.000000
0.132973 0.223424 0.000000
0.254878 0.051354 0.000000
0.137389 0.220736 0.000000
0.253806 0.056412 0.000000
0.141751 0.217961 0.000000
0.252634 0.061448 0.000000
0.146056 0.215099 0.000000
0.251363 0.066459 0.000000
0.150304 0.212153 0.000000
0.249991 0.071445 0.000000
0.154492 0.209122 0.000000
0.248521 0.076401 0.000000
0.158620 0.206009 0.000000
0.246953 0.081327 0.000000
0.162684 0.202815 0.000000
0.245288 0.086221 0.000000
0.166684 0.199540 0.000000
0.243525 0.091081 0.000000
0.170619 0.196187 0.000000
0.241666 0.095904 0.000000
0.174486 0.192756 0.000000
0.239711 0.100690 0.000000
0.178283 0.189249 0.000000
0.237662 0.105436 0.000000
0.182011 0.185666 0.000000
0.235519 0.110141 0.000000
0.185666 0.182011 0.000000
0.233282 0.114802 0.000000
0.189249 0.178283 0.000000
0.230953 0.119417 0.000000
0.192756 0.174486 0.000000
0.228534 0.123985 0.000000
0.196187 0.170619 0.000000
0.226023 0.128505 0.000000
0.199540 0.166684 0.000000
0.223424 0.132973 0.000000
0.202815 0.162684 0.000000
0.220736 0.137389 0.000000
0.206009 0.158620 0.000000
0.217961 0.141751 0.000000
0.209122 0.154492 0.000000
0.215099 0.146056 0.000000
0.212153 0.150304 0.000000
-0.203462 -0.145269 0.000000
-0.209292 -0.136737 0.000000
-0.200416 -0.149443 0.000000
-0.212073 -0.132382 0.000000
-0.197285 -0.153553 0.000000
-0.214764 -0.127971 0.000000
-0.194070 -0.157598 0.000000
-0.217362 -0.123505 0.000000
-0.190771 -0.161575 0.000000
-0.219868 -0.118987 0.000000
-0.187391 -0.165483 0.000000
-0.222281 -0.114417 0.000000
-0.183931 -0.169320 0.000000
-0.224598 -0.109799 0.000000
-0.180392 -0.173086 0.000000
-0.226819 -0.105134 0.000000
-0.176777 -0.176777 0.000000
-0.228943 -0.100424 0.000000
-0.173086 -0.180392 0.000000
-0.230970 -0.095671 0.000000
-0.169320 -0.183931 0.000000
-0.232898 -0.090877 0.000000
-0.165483 -0.187391 0.000000
-0.234726 -0.086044 0.000000
-0.161575 -0.190771 0.000000
-0.236454 -0.081175 0.000000
-0.157598 -0.194070 0.000000
-0.238081 -0.076271 0.000000
-0.153553 -0.197285 0.000000
-0.239607 -0.071334 0.000000
-0.149443 -0.200416 0.000000
-0.241030 -0.066366 0.000000
-0.145269 -0.203462 0.000000
-0.242350 -0.061370 0.000000
-0.141033 -0.206421 0.000000
-0.243567 -0.056347 0.000000
-0.136737 -0.209292 0.000000
-0.244680 -0.051301 0.000000
-0.132382 -0.212073 0.000000
-0.245688 -0.046232 0.000000
-0.127971 -0.214764 0.000000
-0.246591 -0.041144 0.000000
-0.123505 -0.217362 0.000000
-0.247389 -0.036039 0.000000
-0.118987 -0.219868 0.000000
-0.248081 -0.030919 0.000000
-0.114417 -0.222281 0.000000
-0.248667 -0.025786 0.000000
-0.109799 -0.224598 0.000000
-0.249146 -0.020642 0.000000
-0.105134 -0.226819 0.000000
-0.249520 -0.015489 0.000000
-0.100424 -0.228943 0.000000
-0.249786 -0.010330 0.000000
-0.095671 -0.230970 0.000000
-0.249947 -0.005166 0.000000
-0.090877 -0.232898 0.000000
-0.250000 0.000000 0.000000
-0.086044 -0.234726 0.000000
-0.249947 0.005166 0.000000
-0.081175 -0.236454 0.000000
-0.249786 0.010330 0.000000
-0.076271 -0.238081 0.000000
-0.249520 0.015489 0.000000
-0.071334 -0.239607 0.000000
-0.249146 0.020642 0.000000
-0.066366 -0.241030 0.000000
-0.248667 0.025786 0.000000
-0.061370 -0.242350 0.000000
-0.248081 0.030919 0.000000
-0.056347 -0.243567 0.000000
-0.247389 0.036039 0.000000
-0.051301 -0.244680 0.000000
-0.246591 0.041144 0.000000
-0.046232 -0.245688 0.000000
-0.245688 0.046232 0.000000
-0.041144 -0.246591 0.000000
-0.244680 0.051301 0.000000
-0.036039 -0.247389 0.000000
-0.243567 0.056347 0.000000
-0.030919 -0.248081 0.000000
-0.242350 0.061370 0.000000
-0.025786 -0.248667 0.000000
-0.241030 0.066366 0.000000
-0.020642 -0.249146 0.000000
-0.239607 0.071334 0.000000
-0.015489 -0.249520 0.000000
-0.238081 0.076271 0.000000
-0.010330 -0.249786 0.000000
-0.236454 0.081175 0.000000
-0.005166 -0.249947 0.000000
-0.234726 0.086044 0.000000
-0.000000 -0.250000 0.000000
-0.232898 0.090877 0.000000
0.005166 -0.249947 0.000000
-0.230970 0.095671 0.000000
0.010330 -0.249786 0.000000
-0.228943 0.100424 0.000000
0.015489 -0.249520 0.000000
-0.226819 0.105134 0.000000
0.020642 -0.249146 0.000000
-0.224598 0.109799 0.000000
0.025786 -0.248667 0.000000
-0.222281 0.114417 0.000000
0.030919 -0.248081 0.000000
-0.219868 0.118987 0.000000
0.036039 -0.247389 0.000000
-0.217362 0.123505 0.000000
0.041144 -0.246591 0.000000
-0.214764 0.127971 0.000000
0.046232 -0.245688 0.000000
-0.212073 0.132382 0.000000
0.051301 -0.244680 0.000000
-0.209292 0.136737 0.000000
0.056347 -0.243567 0.000000
-0.206421 0.141033 0.000000
0.061370 -0.242350 0.000000
-0.203462 0.145269 0.000000
0.066366 -0.241030 0.000000
-0.200416 0.149443 0.000000
0.071334 -0.239607 0.000000
-0.197285 0.153553 0.000000
0.076271 -0.238081 0.000000
-0.194070 0.157598 0.000000
0.081175 -0.236454 0.000000
-0.190771 0.161575 0.000000
0.086044 -0.234726 0.000000
-0.187391 0.165483 0.000000
0.090877 -0.232898 0.000000
-0.183931 0.169320 0.000000
0.095671 -0.230970 0.000000
-0.180392 0.173086 0.000000
0.100424 -0.228943 0.000000
-0.176777 0.176777 0.000000
0.105134 -0.226819 0.000000
-0.173086 0.180392 0.000000
0.109799 -0.224598 0.000000
-0.169320 0.183931 0.000000
0.114417 -0.222281 0.000000
-0.165483 0.187391 0.000000
0.118987 -0.219868 0.000000
-0.161575 0.190771 0.000000
0.123505 -0.217362 0.000000
-0.157598 0.194070 0.000000
0.127971 -0.214764 0.000000
-0.153553 0.197285 0.000000
0.132382 -0.212073 0.000000
-0.149443 0.200416 0.000000
0.136737 -0.209292 0.000000
-0.145269 0.203462 0.000000
0.141033 -0.206421 0.000000
-0.141033 0.206421 0.000000
0.145269 -0.203462 0.000000
-0.136737 0.209292 0.000000
0.149443 -0.200416 0.000000
-0.132382 0.212073 0.000000
0.153553 -0.197285 0.000000
-0.127971 0.214764 0.000000
0.157598 -0.194070 0.000000
-0.123505 0.217362 0.000000
0.161575 -0.190771 0.000000
-0.118987 0.219868 0.000000
0.165483 -0.187391 0.000000
-0.114417 0.222281 0.000000
0.169320 -0.183931 0.000000
-0.109799 0.224598 0.000000
0.173086 -0.180392 0.000000
-0.105134 0.226819 0.000000
0.176777 -0.176777 0.000000
-0.100424 0.228943 0.000000
0.180392 -0.173086 0.000000
-0.095671 0.230970 0.000000
0.183931 -0.169320 0.000000
-0.090877 0.232898 0.000000
0.187391 -0.165483 0.000000
-0.086044 0.234726 0.000000
0.190771 -0.161575 0.000000
-0.081175 0.236454 0.000000
0.194070 -0.157598 0.000000
-0.076271 0.238081 0.000000
0.197285 -0.153553 0.000000
-0.071334 0.239607 0.000000
0.200416 -0.149443 0.000000
-0.066366 0.241030 0.000000
0.203462 -0.145269 0.000000
-0.061370 0.242350 0.000000
0.206421 -0.141033 0.000000
-0.056347 0.243567 0.000000
0.209292 -0.136737 0.000000
-0.051301 0.244680 0.000000
0.212073 -0.132382 0.000000
-0.046232 0.245688 0.000000
0.214764 -0.127971 0.000000
-0.041144 0.246591 0.000000
0.217362 -0.123505 0.000000
-0.036039 0.247389 0.000000
0.219868 -0.118987 0.000000
-0.030919 0.248081 0.000000
0.222281 -0.114417 0.000000
-0.025786 0.248667 0.000000
0.224598 -0.109799 0.000000
-0.020642 0.249146 0.000000
0.226819 -0.105134 0.000000
-0.015489 0.249520 0.000000
0.228943 -0.100424 0.000000
-0.010330 0.249786 0.000000
0.230970 -0.095671 0.000000
-0.005166 0.249947 0.000000
0.232898 -0.090877 0.000000
0.000000 0.250000 0.000000
0.234726 -0.086044 0.000000
0.005166 0.249947 0.000000
0.236454 -0.081175 0.000000
0.010330 0.249786 0.000000
0.238081 -0.076271 0.000000
0.015489 0.249520 0.000000
0.239607 -0.071334 0.000000
0.020642 0.249146 0.000000
0.241030 -0.066366 0.000000
0.025786 0.248667 0.000000
0.242350 -0.061370 0.000000
0.030919 0.248081 0.000000
0.243567 -0.056347 0.000000
0.036039 0.247389 0.000000
0.244680 -0.051301 0.000000
0.041144 0.246591 0.000000
0.245688 -0.046232 0.000000
0.046232 0.245688 0.000000
0.246591 -0.041144 0.000000
0.051301 0.244680 0.000000
0.247389 -0.036039 0.000000
0.056347 0.243567 0.000000
0.248081 -0.030919 0.000000
0.061370 0.242350 0.000000
0.248667 -0.025786 0.000000
0.066366 0.241030 0.000000
0.249146 -0.020642 0.000000
0.071334 0.239607 0.000000
0.249520 -0.015489 0.000000
0.076271 0.238081 0.000000
0.249786 -0.010330 0.000000
0.081175 0.236454 0.000000
0.249947 -0.005166 0.000000
0.086044 0.234726 0.000000
0.250000 -0.000000 0.000000
0.090877 0.232898 0.000000
0.249947 0.005166 0.000000
0.095671 0.230970 0.000000
0.249786 0.010330 0.000000
0.100424 0.228943 0.000000
0.249520 0.015489 0.000000
0.105134 0.226819 0.000000
0.249146 0.020642 0.000000
0.109799 0.224598 0.000000
0.248667 0.025786 0.000000
0.114417 0.222281 0.000000
0.248081 0.030919 0.000000
0.118987 0.219868 0.000000
0.247389 0.036039 0.000000
0.123505 0.217362 0.000000
0.246591 0.041144 0.000000
0.127971 0.214764 0.000000
0.245688 0.046232 0.000000
0.132382 0.212073 0.000000
0.244680 0.051301 0.000000
0.136737 0.209292 0.000000
0.243567 0.056347 0.000000
0.141033 0.206421 0.000000
0.242350 0.061370 0.000000
0.145269 0.203462 0.000000
0.241030 0.066366 0.000000
0.149443 0.200416 0.000000
0.239607 0.071334 0.000000
0.153553 0.197285 0.000000
0.238081 0.076271 0.000000
0.157598 0.194070 0.000000
0.236454 0.081175 0.000000
0.161575 0.190771 0.000000
0.234726 0.086044 0.000000
0.165483 0.187391 0.000000
0.232898 0.090877 0.000000
0.169320 0.183931 0.000000
0.230970 0.095671 0.000000
0.173086 0.180392 0.000000
0.228943 0.100424 0.000000
0.176777 0.176777 0.000000
0.226819 0.105134 0.000000
0.180392 0.173086 0.000000
0.224598 0.109799 0.000000
0.183931 0.169320 0.000000
0.222281 0.114417 0.000000
0.187391 0.165483 0.000000
0.219868 0.118987 0.000000
0.190771 0.161575 0.000000
0.217362 0.123505 0.000000
0.194070 0.157598 0.000000
0.214764 0.127971 0.000000
0.197285 0.153553 0.000000
0.212073 0.132382 0.000000
0.200416 0.149443 0.000000
0.209292 0.136737 0.000000
0.206421 0.141033 0.000000
0.203462 0.145269 0.000000
-0.211239 -0.145764 0.000000
-0.207348 -0.145506 0.000000
-0.208235 -0.149997 0.000000
-0.210271 -0.141224 0.000000
-0.214114 -0.141448 0.000000
-0.204348 -0.149730 0.000000
-0.205202 -0.154186 0.000000
-0.213130 -0.136835 0.000000
-0.216922 -0.137075 0.000000
-0.201224 -0.153860 0.000000
-0.202031 -0.158271 0.000000
-0.215878 -0.132424 0.000000
-0.219710 -0.132611 0.000000
-0.198030 -0.157923 0.000000
-0.198804 -0.162319 0.000000
-0.218605 -0.127699 0.000000
-0.222365 -0.128140 0.000000
-0.224875 -0.124872 0.000000
-0.194761 -0.161929 0.000000
-0.195479 -0.166293 0.000000
-0.221918 -0.123192 0.000000
-0.226380 -0.121036 0.000000
-0.191411 -0.165867 0.000000
-0.192076 -0.170180 0.000000
-0.223993 -0.118092 0.000000
-0.228835 -0.116386 0.000000
-0.187988 -0.169741 0.000000
-0.188629 -0.174050 0.000000
-0.226621 -0.113165 0.000000
-0.231077 -0.111640 0.000000
-0.184488 -0.173541 0.000000
-0.185072 -0.177780 0.000000
-0.228918 -0.108399 0.000000
-0.233287 -0.106944 0.000000
-0.180913 -0.177266 0.000000
-0.181487 -0.181485 0.000000
-0.231106 -0.103709 0.000000
-0.235397 -0.102211 0.000000
-0.177263 -0.180925 0.000000
-0.177757 -0.185116 0.000000
-0.233157 -0.098942 0.000000
-0.237414 -0.097442 0.000000
-0.173562 -0.184499 0.000000
-0.173989 -0.188666 0.000000
-0.235110 -0.094195 0.000000
-0.239353 -0.092615 0.000000
-0.169783 -0.188037 0.000000
-0.170176 -0.192088 0.000000
-0.237036 -0.089400 0.000000
-0.241145 -0.087789 0.000000
-0.165867 -0.191421 0.000000
-0.166261 -0.195470 0.000000
-0.238795 -0.084500 0.000000
-0.242869 -0.082916 0.000000
-0.161926 -0.194766 0.000000
-0.162296 -0.198817 0.000000
-0.240480 -0.079619 0.000000
-0.244533 -0.078015 0.000000
-0.157923 -0.198067 0.000000
-0.158264 -0.202046 0.000000
-0.242098 -0.074704 0.000000
-0.246013 -0.073093 0.000000
-0.153833 -0.201229 0.000000
-0.154141 -0.205206 0.000000
-0.243529 -0.069697 0.000000
-0.247451 -0.068123 0.000000
-0.149674 -0.204349 0.000000
-0.149938 -0.208289 0.000000
-0.244899 -0.064716 0.000000
-0.248766 -0.063116 0.000000
-0.145447 -0.207383 0.000000
-0.145696 -0.211247 0.000000
-0.246147 -0.059719 0.000000
-0.249987 -0.058081 0.000000
-0.141114 -0.210324 0.000000
-0.141350 -0.214172 0.000000
-0.247314 -0.054684 0.000000
-0.251085 -0.053025 0.000000
-0.136554 -0.213213 0.000000
-0.136933 -0.217186 0.000000
-0.133850 -0.219680 0.000000
-0.248378 -0.049626 0.000000
-0.252118 -0.047967 0.000000
-0.132090 -0.216717 0.000000
-0.130020 -0.221252 0.000000
-0.249339 -0.044548 0.000000
-0.253006 -0.042863 0.000000
-0.126984 -0.218897 0.000000
-0.125536 -0.223876 0.000000
-0.250196 -0.039452 0.000000
-0.253814 -0.037756 0.000000
-0.122403 -0.221788 0.000000
-0.120909 -0.226359 0.000000
-0.250948 -0.034339 0.000000
-0.254531 -0.032639 0.000000
-0.117810 -0.224233 0.000000
-0.116302 -0.228773 0.000000
-0.251590 -0.029207 0.000000
-0.255162 -0.027498 0.000000
-0.113063 -0.226648 0.000000
-0.111626 -0.231076 0.000000
-0.252152 -0.024064 0.000000
-0.255682 -0.022349 0.000000
-0.108405 -0.228923 0.000000
-0.106956 -0.233292 0.000000
-0.252595 -0.018895 0.000000
-0.256048 -0.017181 0.000000
-0.103699 -0.231093 0.000000
-0.102209 -0.235408 0.000000
-0.252917 -0.013716 0.000000
-0.256371 -0.011977 0.000000
-0.098950 -0.233168 0.000000
-0.097430 -0.237419 0.000000
-0.253145 -0.008502 0.000000
-0.256525 -0.006784 0.000000
-0.094186 -0.235148 0.000000
-0.092626 -0.239323 0.000000
-0.253246 -0.003274 0.000000
-0.256590 -0.001533 0.000000
-0.089365 -0.237021 0.000000
-0.087789 -0.241137 0.000000
-0.256677 0.003861 0.000000
-0.253142 0.002166 0.000000
-0.257115 0.007822 0.000000
-0.084514 -0.238796 0.000000
-0.082921 -0.242867 0.000000
-0.253720 0.007776 0.000000
-0.256519 0.011763 0.000000
-0.079606 -0.240458 0.000000
-0.078018 -0.244489 0.000000
-0.252852 0.013320 0.000000
-0.256068 0.016920 0.000000
-0.074694 -0.242036 0.000000
-0.073082 -0.246010 0.000000
-0.252611 0.018669 0.000000
-0.255656 0.022234 0.000000
-0.069735 -0.243513 0.000000
-0.068114 -0.247458 0.000000
-0.252141 0.023990 0.000000
-0.255162 0.027444 0.000000
-0.064743 -0.244887 0.000000
-0.063092 -0.248749 0.000000
-0.251604 0.029164 0.000000
-0.254573 0.032595 0.000000
-0.059717 -0.246147 0.000000
-0.058069 -0.249993 0.000000
-0.250974 0.034287 0.000000
-0.253840 0.037734 0.000000
-0.054678 -0.247313 0.000000
-0.053013 -0.251111 0.000000
-0.250231 0.039411 0.000000
-0.253024 0.042842 0.000000
-0.049616 -0.248377 0.000000
-0.047935 -0.252120 0.000000
-0.249361 0.044517 0.000000
-0.252111 0.047933 0.000000
-0.044539 -0.249350 0.000000
-0.042840 -0.253023 0.000000
-0.248407 0.049594 0.000000
-0.251110 0.053004 0.000000
-0.039431 -0.250212 0.000000
-0.037704 -0.253860 0.000000
-0.247324 0.054669 0.000000
-0.249985 0.058059 0.000000
-0.034308 -0.250972 0.000000
-0.032585 -0.254550 0.000000
-0.246143 0.059708 0.000000
-0.248743 0.063082 0.000000
-0.029143 -0.251616 0.000000
-0.027438 -0.255160 0.000000
-0.244868 0.064718 0.000000
-0.247429 0.068085 0.000000
-0.023984 -0.252155 0.000000
-0.022275 -0.255652 0.000000
-0.243509 0.069698 0.000000
-0.245994 0.073043 0.000000
-0.018760 -0.252599 0.000000
-0.017016 -0.256101 0.000000
-0.242036 0.074652 0.000000
-0.244469 0.077981 0.000000
-0.013287 -0.252844 0.000000
-0.011794 -0.256461 0.000000
-0.007824 -0.257115 0.000000
-0.240463 0.079574 0.000000
-0.242849 0.082888 0.000000
-0.007799 -0.253734 0.000000
-0.003878 -0.256704 0.000000
-0.238789 0.084463 0.000000
-0.241130 0.087762 0.000000
-0.002313 -0.253282 0.000000
0.001488 -0.256626 0.000000
-0.237016 0.089317 0.000000
-0.239316 0.092601 0.000000
0.003275 -0.253251 0.000000
0.006791 -0.256518 0.000000
-0.235145 0.094134 0.000000
-0.237412 0.097406 0.000000
0.008519 -0.253134 0.000000
0.011961 -0.256352 0.000000
-0.233173 0.098919 0.000000
-0.235426 0.102191 0.000000
0.013685 -0.252913 0.000000
0.017142 -0.256059 0.000000
-0.231127 0.103687 0.000000
-0.233295 0.106912 0.000000
0.018872 -0.252578 0.000000
0.022325 -0.255665 0.000000
-0.228942 0.108390 0.000000
-0.231092 0.111624 0.000000
0.024038 -0.252148 0.000000
0.027480 -0.255157 0.000000
-0.226657 0.113049 0.000000
-0.228780 0.116278 0.000000
0.029190 -0.251600 0.000000
0.032621 -0.254550 0.000000
-0.224272 0.117709 0.000000
-0.226385 0.120864 0.000000
0.034318 -0.250961 0.000000
0.037740 -0.253831 0.000000
-0.221796 0.122264 0.000000
-0.223999 0.125456 0.000000
0.039411 -0.250224 0.000000
0.042847 -0.253042 0.000000
-0.218901 0.126938 0.000000
-0.221364 0.129767 0.000000
-0.219680 0.133847 0.000000
0.044518 -0.249355 0.000000
0.047933 -0.252121 0.000000
-0.216712 0.132054 0.000000
-0.217004 0.137072 0.000000
0.049586 -0.248413 0.000000
0.052994 -0.251107 0.000000
-0.213232 0.136466 0.000000
-0.214223 0.141523 0.000000
0.054657 -0.247336 0.000000
0.058052 -0.250005 0.000000
-0.210309 0.141140 0.000000
-0.211239 0.145727 0.000000
0.059678 -0.246219 0.000000
0.063074 -0.248801 0.000000
-0.207382 0.145398 0.000000
-0.208266 0.149943 0.000000
0.064707 -0.244891 0.000000
0.068065 -0.247437 0.000000
-0.204377 0.149636 0.000000
-0.205190 0.154130 0.000000
0.069691 -0.243505 0.000000
0.073032 -0.246030 0.000000
-0.201236 0.153821 0.000000
-0.202041 0.158266 0.000000
0.074644 -0.242033 0.000000
0.077971 -0.244510 0.000000
-0.198078 0.157909 0.000000
-0.198801 0.162297 0.000000
0.079563 -0.240462 0.000000
0.082879 -0.242869 0.000000
-0.194813 0.161942 0.000000
-0.195518 0.166295 0.000000
0.084448 -0.238801 0.000000
0.087756 -0.241183 0.000000
-0.191439 0.165882 0.000000
-0.192093 0.170171 0.000000
0.089300 -0.237046 0.000000
0.092599 -0.239343 0.000000
-0.188003 0.169744 0.000000
-0.188653 0.173995 0.000000
0.094143 -0.235202 0.000000
0.097411 -0.237436 0.000000
-0.184499 0.173533 0.000000
-0.185108 0.177774 0.000000
0.098956 -0.233189 0.000000
0.102214 -0.235430 0.000000
-0.180925 0.177258 0.000000
-0.181476 0.181471 0.000000
0.103685 -0.231103 0.000000
0.106930 -0.233289 0.000000
-0.177298 0.180905 0.000000
-0.177799 0.185107 0.000000
0.108419 -0.228930 0.000000
0.111656 -0.231091 0.000000
-0.173586 0.184506 0.000000
-0.174021 0.188619 0.000000
0.113144 -0.226627 0.000000
0.116347 -0.228895 0.000000
-0.169775 0.188019 0.000000
-0.170198 0.192078 0.000000
0.118125 -0.224048 0.000000
0.120958 -0.226462 0.000000
0.124847 -0.224898 0.000000
-0.165874 0.191414 0.000000
-0.166269 0.195460 0.000000
0.123118 -0.221704 0.000000
0.128317 -0.222427 0.000000
-0.161942 0.194765 0.000000
-0.162298 0.198777 0.000000
0.127741 -0.218738 0.000000
0.132718 -0.219773 0.000000
-0.157941 0.198061 0.000000
-0.158267 0.202017 0.000000
0.132458 -0.215906 0.000000
0.137099 -0.216943 0.000000
-0.153841 0.201233 0.000000
-0.154157 0.205176 0.000000
0.136835 -0.213143 0.000000
0.141446 -0.214140 0.000000
-0.149697 0.204336 0.000000
-0.149986 0.208241 0.000000
0.141204 -0.210307 0.000000
0.145766 -0.211267 0.000000
-0.145494 0.207364 0.000000
-0.145771 0.211274 0.000000
0.145482 -0.207382 0.000000
0.149974 -0.208247 0.000000
-0.141205 0.210328 0.000000
-0.141442 0.214144 0.000000
0.149675 -0.204345 0.000000
0.154126 -0.205199 0.000000
-0.136819 0.213112 0.000000
-0.137086 0.216926 0.000000
0.153844 -0.201265 0.000000
0.158238 -0.202080 0.000000
-0.132440 0.215878 0.000000
-0.132694 0.219723 0.000000
0.157910 -0.198046 0.000000
0.162291 -0.198796 0.000000
-0.127703 0.218560 0.000000
-0.128168 0.222340 0.000000
-0.124872 0.224869 0.000000
0.161934 -0.194783 0.000000
0.166261 -0.195477 0.000000
-0.123151 0.221907 0.000000
-0.120918 0.226405 0.000000
0.165879 -0.191440 0.000000
0.170170 -0.192099 0.000000
-0.117906 0.223946 0.000000
-0.116364 0.228838 0.000000
0.169751 -0.188007 0.000000
0.173993 -0.188654 0.000000
-0.113240 0.226633 0.000000
-0.111662 0.231084 0.000000
0.173542 -0.184492 0.000000
0.177760 -0.185096 0.000000
-0.108422 0.228922 0.000000
-0.106961 0.233288 0.000000
0.177261 -0.180914 0.000000
0.181485 -0.181471 0.000000
-0.103737 0.231113 0.000000
-0.102262 0.235399 0.000000
0.180916 -0.177255 0.000000
0.185091 -0.177759 0.000000
-0.098948 0.233164 0.000000
-0.097431 0.237399 0.000000
0.184491 -0.173524 0.000000
0.188622 -0.173999 0.000000
-0.094143 0.235127 0.000000
-0.092613 0.239321 0.000000
0.187992 -0.169728 0.000000
0.192102 -0.170181 0.000000
-0.089317 0.237012 0.000000
-0.087764 0.241132 0.000000
0.191418 -0.165860 0.000000
0.195491 -0.166265 0.000000
-0.084463 0.238789 0.000000
-0.082889 0.242851 0.000000
0.194761 -0.161927 0.000000
0.198782 -0.162297 0.000000
-0.079574 0.240463 0.000000
-0.077984 0.244481 0.000000
0.198034 -0.157937 0.000000
0.202051 -0.158287 0.000000
-0.074655 0.242028 0.000000
-0.073067 0.246024 0.000000
0.201260 -0.153870 0.000000
0.205213 -0.154172 0.000000
-0.069704 0.243501 0.000000
-0.068084 0.247440 0.000000
0.204378 -0.149650 0.000000
0.208273 -0.149949 0.000000
-0.064720 0.244869 0.000000
-0.063076 0.248748 0.000000
0.207393 -0.145398 0.000000
0.211241 -0.145689 0.000000
-0.059719 0.246146 0.000000
-0.058059 0.249953 0.000000
0.210313 -0.141108 0.000000
0.214198 -0.141341 0.000000
-0.054684 0.247314 0.000000
-0.053013 0.251069 0.000000
0.213186 -0.136480 0.000000
0.217027 -0.137061 0.000000
0.219675 -0.133904 0.000000
-0.049626 0.248378 0.000000
-0.047946 0.252085 0.000000
0.216699 -0.132106 0.000000
0.221261 -0.130034 0.000000
-0.044548 0.249339 0.000000
-0.042859 0.253000 0.000000
0.218972 -0.126947 0.000000
0.223829 -0.125513 0.000000
-0.039452 0.250196 0.000000
-0.037755 0.253811 0.000000
0.221761 -0.122278 0.000000
0.226348 -0.120860 0.000000
-0.034339 0.250948 0.000000
-0.032636 0.254520 0.000000
0.224241 -0.117692 0.000000
0.228771 -0.116275 0.000000
-0.029212 0.251597 0.000000
-0.027501 0.255124 0.000000
0.226657 -0.113049 0.000000
0.231079 -0.111599 0.000000
-0.024064 0.252125 0.000000
-0.022349 0.255632 0.000000
0.228947 -0.108402 0.000000
0.233301 -0.106928 0.000000
-0.018895 0.252587 0.000000
-0.017177 0.256059 0.000000
0.231124 -0.103682 0.000000
0.235410 -0.102221 0.000000
-0.013722 0.252906 0.000000
-0.011984 0.256358 0.000000
0.233165 -0.098925 0.000000
0.237410 -0.097418 0.000000
-0.008503 0.253124 0.000000
-0.006797 0.256513 0.000000
0.235127 -0.094138 0.000000
0.239324 -0.092617 0.000000
-0.003298 0.253224 0.000000
-0.001537 0.256626 0.000000
0.236998 -0.089320 0.000000
0.241141 -0.087778 0.000000
0.002151 0.253099 0.000000
0.003665 0.256640 0.000000
0.007850 0.257154 0.000000
0.238771 -0.084467 0.000000
0.242860 -0.082904 0.000000
0.007797 0.253617 0.000000
0.011936 0.256414 0.000000
0.240446 -0.079578 0.000000
0.244481 -0.077996 0.000000
0.013338 0.252784 0.000000
0.017146 0.256139 0.000000
0.242028 -0.074654 0.000000
0.246037 -0.073052 0.000000
0.018795 0.252575 0.000000
0.022298 0.255656 0.000000
0.243509 -0.069698 0.000000
0.247448 -0.068073 0.000000
0.023967 0.252157 0.000000
0.027442 0.255166 0.000000
0.244876 -0.064709 0.000000
0.248758 -0.063061 0.000000
0.029162 0.251616 0.000000
0.032604 0.254548 0.000000
0.246144 -0.059697 0.000000
0.249992 -0.058030 0.000000
0.034292 0.250979 0.000000
0.037736 0.253859 0.000000
0.247309 -0.054662 0.000000
0.251104 -0.052986 0.000000
0.039431 0.250218 0.000000
0.042858 0.253073 0.000000
0.248369 -0.049609 0.000000
0.252103 -0.047938 0.000000
0.044531 0.249396 0.000000
0.047946 0.252110 0.000000
0.249327 -0.044538 0.000000
0.253015 -0.042853 0.000000
0.049638 0.248392 0.000000
0.053019 0.251075 0.000000
0.250196 -0.039452 0.000000
0.253860 -0.037736 0.000000
0.054696 0.247309 0.000000
0.058069 0.249954 0.000000
0.251003 -0.034313 0.000000
0.254598 -0.032621 0.000000
0.059722 0.246136 0.000000
0.063114 0.248759 0.000000
0.251639 -0.029149 0.000000
0.255178 -0.027455 0.000000
0.064734 0.244874 0.000000
0.068093 0.247429 0.000000
0.252168 -0.023976 0.000000
0.255662 -0.022304 0.000000
0.069737 0.243542 0.000000
0.073050 0.246037 0.000000
0.252584 -0.018806 0.000000
0.256143 -0.017147 0.000000
0.074663 0.242036 0.000000
0.077996 0.244480 0.000000
0.252817 -0.013347 0.000000
0.256442 -0.011927 0.000000
0.257154 -0.007852 0.000000
0.079584 0.240452 0.000000
0.082921 0.242866 0.000000
0.253690 -0.007780 0.000000
0.256642 -0.003691 0.000000
0.084471 0.238773 0.000000
0.087778 0.241141 0.000000
0.253096 -0.002165 0.000000
0.256647 0.001559 0.000000
0.089321 0.236998 0.000000
0.092617 0.239324 0.000000
0.253243 0.003287 0.000000
0.256520 0.006794 0.000000
0.094136 0.235126 0.000000
0.097418 0.237410 0.000000
0.253129 0.008465 0.000000
0.256359 0.011971 0.000000
0.098915 0.233157 0.000000
0.102180 0.235399 0.000000
0.252942 0.013681 0.000000
0.256098 0.017161 0.000000
0.103663 0.231094 0.000000
0.106917 0.233294 0.000000
0.252587 0.018892 0.000000
0.255640 0.022345 0.000000
0.108396 0.228944 0.000000
0.111598 0.231082 0.000000
0.252126 0.024061 0.000000
0.255131 0.027498 0.000000
0.113048 0.226663 0.000000
0.116271 0.228781 0.000000
0.251586 0.029205 0.000000
0.254568 0.032637 0.000000
0.117706 0.224256 0.000000
0.120852 0.226357 0.000000
0.250942 0.034329 0.000000
0.253839 0.037736 0.000000
0.122248 0.221776 0.000000
0.125477 0.223846 0.000000
0.250188 0.039438 0.000000
0.253035 0.042843 0.000000
0.126912 0.218965 0.000000
0.130002 0.221279 0.000000
0.249333 0.044533 0.000000
0.252125 0.047929 0.000000
0.132108 0.216694 0.000000
0.133891 0.219601 0.000000
0.248369 0.049612 0.000000
0.251087 0.053006 0.000000
0.136550 0.213160 0.000000
0.137046 0.217019 0.000000
0.247301 0.054671 0.000000
0.249968 0.058053 0.000000
0.141152 0.210287 0.000000
0.141372 0.214174 0.000000
0.246134 0.059706 0.000000
0.248748 0.063076 0.000000
0.145482 0.207387 0.000000
0.145725 0.211231 0.000000
0.244867 0.064717 0.000000
0.247418 0.068075 0.000000
0.149697 0.204345 0.000000
0.149984 0.208266 0.000000
0.243509 0.069698 0.000000
0.246029 0.073052 0.000000
0.153835 0.201247 0.000000
0.154130 0.205204 0.000000
0.242036 0.074652 0.000000
0.244477 0.077982 0.000000
0.157903 0.198039 0.000000
0.158242 0.202054 0.000000
0.240463 0.079574 0.000000
0.242860 0.082888 0.000000
0.161909 0.194770 0.000000
0.162280 0.198807 0.000000
0.238789 0.084463 0.000000
0.241157 0.087764 0.000000
0.165849 0.191427 0.000000
0.166250 0.195508 0.000000
0.237021 0.089328 0.000000
0.239376 0.092639 0.000000
0.169721 0.188004 0.000000
0.170154 0.192121 0.000000
0.235172 0.094182 0.000000
0.237425 0.097450 0.000000
0.173527 0.184503 0.000000
0.173991 0.188648 0.000000
0.233173 0.098964 0.000000
0.235397 0.102209 0.000000
0.177263 0.180930 0.000000
0.177779 0.185108 0.000000
0.231102 0.103711 0.000000
0.233283 0.106944 0.000000
0.180917 0.177274 0.000000
0.181479 0.181481 0.000000
0.228922 0.108427 0.000000
0.231077 0.111631 0.000000
0.184496 0.173546 0.000000
0.185088 0.177792 0.000000
0.226606 0.113135 0.000000
0.228845 0.116324 0.000000
0.187993 0.169732 0.000000
0.188640 0.174022 0.000000
0.223969 0.118039 0.000000
0.226404 0.120897 0.000000
0.191413 0.165855 0.000000
0.192089 0.170164 0.000000
0.221863 0.123176 0.000000
0.224891 0.124847 0.000000
0.194756 0.161915 0.000000
0.195477 0.166261 0.000000
0.218540 0.127743 0.000000
0.222360 0.128216 0.000000
0.198020 0.157909 0.000000
0.198786 0.162290 0.000000
0.215874 0.132431 0.000000
0.219701 0.132630 0.000000
0.201205 0.153841 0.000000
0.202014 0.158253 0.000000
0.213147 0.136837 0.000000
0.216928 0.137078 0.000000
0.204316 0.149710 0.000000
0.210278 0.141207 0.000000
0.207360 0.145490 0.000000
0.205171 0.154172 0.000000
0.214149 0.141432 0.000000
0.208240 0.149993 0.000000
0.211214 0.145747 0.000000
CELLS 1860 7440
3 620 2 0
3 0 622 620
3 621 620 622
3 622 625 621
3 317 621 625
3 625 319 317
3 319 625 629
3 629 321 319
3 321 629 633
3 633 323 321
3 323 633 638
3 638 325 323
3 325 638 642
3 642 327 325
3 327 642 646
3 646 329 327
3 329 646 650
3 650 331 329
3 331 650 654
3 654 333 331
3 333 654 658
3 658 335 333
3 335 658 662
3 662 337 335
3 337 662 666
3 666 339 337
3 339 666 670
3 670 341 339
3 341 670 674
3 674 343 341
3 343 674 678
3 678 345 343
3 345 678 682
3 682 347 345
3 347 682 686
3 686 349 347
3 349 686 690
3 690 351 349
3 351 690 694
3 694 353 351
3 353 694 698
3 698 355 353
3 355 698 703
3 703 357 355
3 357 703 707
3 707 359 357
3 359 707 711
3 711 361 359
3 361 711 715
3 715 363 361
3 363 715 719
3 719 365 363
3 365 719 723
3 723 367 365
3 367 723 727
3 727 369 367
3 369 727 731
3 731 371 369
3 371 731 735
3 735 373 371
3 373 735 739
3 739 375 373
3 375 739 744
3 744 377 375
3 377 744 748
3 748 379 377
3 379 748 752
3 752 381 379
3 381 752 756
3 756 383 381
3 383 756 760
3 760 385 383
3 385 760 764
3 764 387 385
3 387 764 768
3 768 389 387
3 389 768 772
3 772 391 389
3 391 772 776
3 776 393 391
3 393 776 780
3 780 395 393
3 395 780 784
3 784 397 395
3 397 784 788
3 788 399 397
3 399 788 792
3 792 401 399
3 401 792 796
3 796 403 401
3 403 796 800
3 800 405 403
3 405 800 805
3 805 407 405
3 407 805 809
3 809 409 407
3 409 809 813
3 813 411 409
3 411 813 817
3 817 413 411
3 413 817 821
3 821 415 413
3 415 821 825
3 825 417 415
3 417 825 829
3 829 419 417
3 419 829 833
3 833 421 419
3 421 833 837
3 837 423 421
3 423 837 841
3 841 425 423
3 425 841 846
3 846 427 425
3 427 846 850
3 850 429 427
3 429 850 854
3 854 431 429
3 431 854 858
3 858 433 431
3 433 858 862
3 862 435 433
3 435 862 866
3 866 437 435
3 437 866 870
3 870 439 437
3 439 870 874
3 874 441 439
3 441 874 878
3 878 443 441
3 443 878 882
3 882 445 443
3 445 882 886
3 886 447 445
3 447 886 890
3 890 449 447
3 449 890 894
3 894 451 449
3 451 894 898
3 898 453 451
3 453 898 902
3 902 455 453
3 455 902 906
3 906 457 455
3 457 906 911
3 911 459 457
3 459 911 915
3 915 461 459
3 461 915 919
3 919 463 461
3 463 919 923
3 923 465 463
3 465 923 927
3 927 467 465
3 467 927 931
3 931 469 467
3 469 931 935
3 935 471 469
3 471 935 939
3 939 473 471
3 473 939 943
3 943 475 473
3 475 943 948
3 948 477 475
3 477 948 952
3 952 479 477
3 479 952 956
3 956 481 479
3 481 956 960
3 960 483 481
3 483 960 964
3 964 485 483
3 485 964 968
3 968 487 485
3 487 968 972
3 972 489 487
3 489 972 976
3 976 491 489
3 491 976 980
3 980 493 491
3 493 980 984
3 984 495 493
3 495 984 988
3 988 497 495
3 497 988 992
3 992 499 497
3 499 992 996
3 996 501 499
3 501 996 1000
3 1000 503 501
3 503 1000 1004
3 1004 505 503
3 505 1004 1008
3 1008 507 505
3 507 1008 1013
3 1013 509 507
3 509 1013 1017
3 1017 511 509
3 511 1017 1021
3 1021 513 511
3 513 1021 1025
3 1025 515 513
3 515 1025 1029
3 1029 517 515
3 517 1029 1033
3 1033 519 517
3 519 1033 1037
3 1037 521 519
3 521 1037 1041
3 1041 523 521
3 523 1041 1045
3 1045 525 523
3 525 1045 1049
3 1049 527 525
3 527 1049 1054
3 1054 529 527
3 529 1054 1058
3 1058 531 529
3 531 1058 1062
3 1062 533 531
3 533 1062 1066
3 1066 535 533
3 535 1066 1070
3 1070 537 535
3 537 1070 1074
3 1074 539 537
3 539 1074 1078
3 1078 541 539
3 541 1078 1082
3 1082 543 541
3 543 1082 1086
3 1086 545 543
3 545 1086 1090
3 1090 547 545
3 547 1090 1094
3 1094 549 547
3 549 1094 1098
3 1098 551 549
3 551 1098 1102
3 1102 553 551
3 553 1102 1106
3 1106 555 553
3 555 1106 1110
3 1110 557 555
3 557 1110 1115
3 1115 559 557
3 559 1115 1119
3 1119 561 559
3 561 1119 1123
3 1123 563 561
3 563 1123 1127
3 1127 565 563
3 565 1127 1131
3 1131 567 565
3 567 1131 1135
3 1135 569 567
3 569 1135 1139
3 1139 571 569
3 571 1139 1143
3 1143 573 571
3 573 1143 1147
3 1147 575 573
3 575 1147 1151
3 1151 577 575
3 577 1151 1155
3 1155 579 577
3 579 1155 1159
3 1159 581 579
3 581 1159 1163
3 1163 583 581
3 583 1163 1167
3 1167 585 583
3 585 1167 1171
3 1171 587 585
3 587 1171 1175
3 1175 589 587
3 589 1175 1179
3 1179 591 589
3 591 1179 1183
3 1183 593 591
3 593 1183 1187
3 1187 595 593
3 595 1187 1191
3 1191 597 595
3 597 1191 1195
3 1195 599 597
3 599 1195 1199
3 1199 601 599
3 601 1199 1203
3 1203 603 601
3 603 1203 1207
3 1207 605 603
3 605 1207 1211
3 1211 607 605
3 607 1211 1215
3 1215 609 607
3 609 1215 1219
3 1219 611 609
3 611 1219 1223
3 1223 613 611
3 613 1223 1227
3 1227 615 613
3 615 1227 1231
3 1231 617 615
3 617 1231 1234
3 1234 618 617
3 618 1234 1235
3 1235 619 618
3 619 1235 1233
3 1233 616 619
3 616 1233 1229
3 1229 614 616
3 614 1229 1225
3 1225 612 614
3 612 1225 1221
3 1221 610 612
3 610 1221 1217
3 1217 608 610
3 608 1217 1213
3 1213 606 608
3 606 1213 1209
3 1209 604 606
3 604 1209 1205
3 1205 602 604
3 602 1205 1201
3 1201 600 602
3 600 1201 1197
3 1197 598 600
3 598 1197 1193
3 1193 596 598
3 596 1193 1189
3 1189 594 596
3 594 1189 1185
3 1185 592 594
3 592 1185 1181
3 1181 590 592
3 590 1181 1177
3 1177 588 590
3 588 1177 1173
3 1173 586 588
3 586 1173 1169
3 1169 584 586
3 584 1169 1165
3 1165 582 584
3 582 1165 1161
3 1161 580 582
3 580 1161 1157
3 1157 578 580
3 578 1157 1153
3 1153 576 578
3 576 1153 1149
3 1149 574 576
3 574 1149 1145
3 1145 572 574
3 572 1145 1141
3 1141 570 572
3 570 1141 1137
3 1137 568 570
3 568 1137 1133
3 1133 566 568
3 566 1133 1129
3 1129 564 566
3 564 1129 1125
3 1125 562 564
3 562 1125 1121
3 1121 560 562
3 560 1121 1117
3 1117 558 560
3 558 1117 1113
3 1113 556 558
3 556 1113 1108
3 1108 554 556
3 554 1108 1104
3 1104 552 554
3 552 1104 1100
3 1100 550 552
3 550 1100 1096
3 1096 548 550
3 548 1096 1092
3 1092 546 548
3 546 1092 1088
3 1088 544 546
3 544 1088 1084
3 1084 542 544
3 542 1084 1080
3 1080 540 542
3 540 1080 1076
3 1076 538 540
3 538 1076 1072
3 1072 536 538
3 536 1072 1068
3 1068 534 536
3 534 1068 1064
3 1064 532 534
3 532 1064 1060
3 1060 530 532
3 530 1060 1056
3 1056 528 530
3 528 1056 1051
3 1051 526 528
3 526 1051 1047
3 1047 524 526
3 524 1047 1043
3 1043 522 524
3 522 1043 1039
3 1039 520 522
3 520 1039 1035
3 1035 518 520
3 518 1035 1031
3 1031 516 518
3 516 1031 1027
3 1027 514 516
3 514 1027 1023
3 1023 512 514
3 512 1023 1019
3 1019 510 512
3 510 1019 1015
3 1015 508 510
3 508 1015 1011
3 1011 506 508
3 506 1011 1006
3 1006 504 506
3 504 1006 1002
3 1002 502 504
3 502 1002 998
3 998 500 502
3 500 998 994
3 994 498 500
3 498 994 990
3 990 496 498
3 496 990 986
3 986 494 496
3 494 986 982
3 982 492 494
3 492 982 978
3 978 490 492
3 490 978 974
3 974 488 490
3 488 974 970
3 970 486 488
3 486 970 966
3 966 484 486
3 484 966 962
3 962 482 484
3 482 962 958
3 958 480 482
3 480 958 954
3 954 478 480
3 478 954 950
3 950 476 478
3 476 950 945
3 945 474 476
3 474 945 941
3 941 472 474
3 472 941 937
3 937 470 472
3 470 937 933
3 933 468 470
3 468 933 929
3 929 466 468
3 466 929 925
3 925 464 466
3 464 925 921
3 921 462 464
3 462 921 917
3 917 460 462
3 460 917 913
3 913 458 460
3 458 913 909
3 909 456 458
3 456 909 904
3 904 454 456
3 454 904 900
3 900 452 454
3 452 900 896
3 896 450 452
3 450 896 892
3 892 448 450
3 448 892 888
3 888 446 448
3 446 888 884
3 884 444 446
3 444 884 880
3 880 442 444
3 442 880 876
3 876 440 442
3 440 876 872
3 872 438 440
3 438 872 868
3 868 436 438
3 436 868 864
3 864 434 436
3 434 864 860
3 860 432 434
3 432 860 856
3 856 430 432
3 430 856 852
3 852 428 430
3 428 852 848
3 848 426 428
3 426 848 843
3 843 424 426
3 424 843 839
3 839 422 424
3 422 839 835
3 835 420 422
3 420 835 831
3 831 418 420
3 418 831 827
3 827 416 418
3 416 827 823
3 823 414 416
3 414 823 819
3 819 412 414
3 412 819 815
3 815 410 412
3 410 815 811
3 811 408 410
3 408 811 807
3 807 406 408
3 406 807 803
3 803 404 406
3 404 803 798
3 798 402 404
3 402 798 794
3 794 400 402
3 400 794 790
3 790 398 400
3 398 790 786
3 786 396 398
3 396 786 782
3 782 394 396
3 394 782 778
3 778 392 394
3 392 778 774
3 774 390 392
3 390 774 770
3 770 388 390
3 388 770 766
3 766 386 388
3 386 766 762
3 762 384 386
3 384 762 758
3 758 382 384
3 382 758 754
3 754 380 382
3 380 754 750
3 750 378 380
3 378 750 746
3 746 376 378
3 376 746 742
3 742 374 376
3 374 742 737
3 737 372 374
3 372 737 733
3 733 370 372
3 370 733 729
3 729 368 370
3 368 729 725
3 725 366 368
3 366 725 721
3 721 364 366
3 364 721 717
3 717 362 364
3 362 717 713
3 713 360 362
3 360 713 709
3 709 358 360
3 358 709 705
3 705 356 358
3 356 705 701
3 701 354 356
3 354 701 696
3 696 352 354
3 352 696 692
3 692 350 352
3 350 692 688
3 688 348 350
3 348 688 684
3 684 346 348
3 346 684 680
3 680 344 346
3 344 680 676
3 676 342 344
3 342 676 672
3 672 340 342
3 340 672 668
3 668 338 340
3 338 668 664
3 664 336 338
3 336 664 660
3 660 334 336
3 334 660 656
3 656 332 334
3 332 656 652
3 652 330 332
3 330 652 648
3 648 328 330
3 328 648 644
3 644 326 328
3 326 644 640
3 640 324 326
3 324 640 635
3 635 322 324
3 322 635 631
3 631 320 322
3 320 631 627
3 627 318 320
3 318 627 623
3 623 1 318
3 1 623 621
3 624 623 627
3 627 628 624
3 4 624 628
3 628 6 4
3 6 628 632
3 632 8 6
3 8 632 636
3 636 9 8
3 9 636 637
3 637 11 9
3 11 637 641
3 641 13 11
3 13 641 645
3 645 15 13
3 15 645 649
3 649 17 15
3 17 649 653
3 653 19 17
3 19 653 657
3 657 21 19
3 21 657 661
3 661 23 21
3 23 661 665
3 665 25 23
3 25 665 669
3 669 27 25
3 27 669 673
3 673 29 27
3 29 673 677
3 677 31 29
3 31 677 681
3 681 33 31
3 33 681 685
3 685 35 33
3 35 685 689
3 689 37 35
3 37 689 693
3 693 39 37
3 39 693 697
3 697 42 39
3 42 697 702
3 702 44 42
3 44 702 706
3 706 46 44
3 46 706 710
3 710 48 46
3 48 710 714
3 714 50 48
3 50 714 718
3 718 52 50
3 52 718 722
3 722 54 52
3 54 722 726
3 726 56 54
3 56 726 730
3 730 58 56
3 58 730 734
3 734 60 58
3 60 734 738
3 738 62 60
3 62 738 741
3 741 63 62
3 63 741 743
3 743 65 63
3 65 743 747
3 747 67 65
3 67 747 751
3 751 69 67
3 69 751 755
3 755 71 69
3 71 755 759
3 759 73 71
3 73 759 763
3 763 75 73
3 75 763 767
3 767 77 75
3 77 767 771
3 771 79 77
3 79 771 775
3 775 81 79
3 81 775 779
3 779 83 81
3 83 779 783
3 783 85 83
3 85 783 787
3 787 87 85
3 87 787 791
3 791 89 87
3 89 791 795
3 795 91 89
3 91 795 799
3 799 94 91
3 94 799 804
3 804 96 94
3 96 804 808
3 808 98 96
3 98 808 812
3 812 100 98
3 100 812 816
3 816 102 100
3 102 816 820
3 820 104 102
3 104 820 824
3 824 106 104
3 106 824 828
3 828 108 106
3 108 828 832
3 832 110 108
3 110 832 836
3 836 112 110
3 112 836 840
3 840 114 112
3 114 840 844
3 844 115 114
3 115 844 845
3 845 117 115
3 117 845 849
3 849 119 117
3 119 849 853
3 853 121 119
3 121 853 857
3 857 123 121
3 123 857 861
3 861 125 123
3 125 861 865
3 865 127 125
3 127 865 869
3 869 129 127
3 129 869 873
3 873 131 129
3 131 873 877
3 877 133 131
3 133 877 881
3 881 135 133
3 135 881 885
3 885 137 135
3 137 885 889
3 889 139 137
3 139 889 893
3 893 141 139
3 141 893 897
3 897 143 141
3 143 897 901
3 901 145 143
3 145 901 905
3 905 148 145
3 148 905 910
3 910 150 148
3 150 910 914
3 914 152 150
3 152 914 918
3 918 154 152
3 154 918 922
3 922 156 154
3 156 922 926
3 926 158 156
3 158 926 930
3 930 160 158
3 160 930 934
3 934 162 160
3 162 934 938
3 938 164 162
3 164 938 942
3 942 166 164
3 166 942 946
3 946 167 166
3 167 946 947
3 947 169 167
3 169 947 951
3 951 171 169
3 171 951 955
3 955 173 171
3 173 955 959
3 959 175 173
3 175 959 963
3 963 177 175
3 177 963 967
3 967 179 177
3 179 967 971
3 971 181 179
3 181 971 975
3 975 183 181
3 183 975 979
3 979 185 183
3 185 979 983
3 983 187 185
3 187 983 987
3 987 189 187
3 189 987 991
3 991 191 189
3 191 991 995
3 995 193 191
3 193 995 999
3 999 195 193
3 195 999 1003
3 1003 197 195
3 197 1003 1007
3 1007 200 197
3 200 1007 1012
3 1012 202 200
3 202 1012 1016
3 1016 204 202
3 204 1016 1020
3 1020 206 204
3 206 1020 1024
3 1024 208 206
3 208 1024 1028
3 1028 210 208
3 210 1028 1032
3 1032 212 210
3 212 1032 1036
3 1036 214 212
3 214 1036 1040
3 1040 216 214
3 216 1040 1044
3 1044 218 216
3 218 1044 1048
3 1048 220 218
3 220 1048 1052
3 1052 222 220
3 222 1052 1053
3 1053 224 222
3 224 1053 1057
3 1057 226 224
3 226 1057 1061
3 1061 228 226
3 228 1061 1065
3 1065 230 228
3 230 1065 1069
3 1069 232 230
3 232 1069 1073
3 1073 234 232
3 234 1073 1077
3 1077 236 234
3 236 1077 1081
3 1081 238 236
3 238 1081 1085
3 1085 240 238
3 240 1085 1089
3 1089 242 240
3 242 1089 1093
3 1093 244 242
3 244 1093 1097
3 1097 246 244
3 246 1097 1101
3 1101 248 246
3 248 1101 1105
3 1105 250 248
3 250 1105 1109
3 1109 252 250
3 252 1109 1114
3 1114 254 252
3 254 1114 1118
3 1118 256 254
3 256 1118 1122
3 1122 258 256
3 258 1122 1126
3 1126 260 258
3 260 1126 1130
3 1130 262 260
3 262 1130 1134
3 1134 264 262
3 264 1134 1138
3 1138 266 264
3 266 1138 1142
3 1142 268 266
3 268 1142 1146
3 1146 270 268
3 270 1146 1150
3 1150 272 270
3 272 1150 1154
3 1154 274 272
3 274 1154 1158
3 1158 276 274
3 276 1158 1162
3 1162 278 276
3 278 1162 1166
3 1166 280 278
3 280 1166 1170
3 1170 282 280
3 282 1170 1174
3 1174 284 282
3 284 1174 1178
3 1178 286 284
3 286 1178 1182
3 1182 288 286
3 288 1182 1186
3 1186 290 288
3 290 1186 1190
3 1190 292 290
3 292 1190 1194
3 1194 294 292
3 294 1194 1198
3 1198 296 294
3 296 1198 1202
3 1202 298 296
3 298 1202 1206
3 1206 300 298
3 300 1206 1210
3 1210 302 300
3 302 1210 1214
3 1214 304 302
3 304 1214 1218
3 1218 306 304
3 306 1218 1222
3 1222 308 306
3 308 1222 1226
3 1226 310 308
3 310 1226 1230
3 1230 312 310
3 312 1230 1236
3 1236 314 312
3 314 1236 1238
3 1238 316 314
3 316 1238 1239
3 1239 315 316
3 315 1239 1237
3 1237 313 315
3 313 1237 1232
3 1232 311 313
3 311 1232 1228
3 1228 309 311
3 309 1228 1224
3 1224 307 309
3 307 1224 1220
3 1220 305 307
3 305 1220 1216
3 1216 303 305
3 303 1216 1212
3 1212 301 303
3 301 1212 1208
3 1208 299 301
3 299 1208 1204
3 1204 297 299
3 297 1204 1200
3 1200 295 297
3 295 1200 1196
3 1196 293 295
3 293 1196 1192
3 1192 291 293
3 291 1192 1188
3 1188 289 291
3 289 1188 1184
3 1184 287 289
3 287 1184 1180
3 1180 285 287
3 285 1180 1176
3 1176 283 285
3 283 1176 1172
3 1172 281 283
3 281 1172 1168
3 1168 279 281
3 279 1168 1164
3 1164 277 279
3 277 1164 1160
3 1160 275 277
3 275 1160 1156
3 1156 273 275
3 273 1156 1152
3 1152 271 273
3 271 1152 1148
3 1148 269 271
3 269 1148 1144
3 1144 267 269
3 267 1144 1140
3 1140 265 267
3 265 1140 1136
3 1136 263 265
3 263 1136 1132
3 1132 261 263
3 261 1132 1128
3 1128 259 261
3 259 1128 1124
3 1124 257 259
3 257 1124 1120
3 1120 255 257
3 255 1120 1116
3 1116 253 255
3 253 1116 1112
3 1112 251 253
3 251 1112 1111
3 1111 249 251
3 249 1111 1107
3 1107 247 249
3 247 1107 1103
3 1103 245 247
3 245 1103 1099
3 1099 243 245
3 243 1099 1095
3 1095 241 243
3 241 1095 1091
3 1091 239 241
3 239 1091 1087
3 1087 237 239
3 237 1087 1083
3 1083 235 237
3 235 1083 1079
3 1079 233 235
3 233 1079 1075
3 1075 231 233
3 231 1075 1071
3 1071 229 231
3 229 1071 1067
3 1067 227 229
3 227 1067 1063
3 1063 225 227
3 225 1063 1059
3 1059 223 225
3 223 1059 1055
3 1055 221 223
3 221 1055 1050
3 1050 219 221
3 219 1050 1046
3 1046 217 219
3 217 1046 1042
3 1042 215 217
3 215 1042 1038
3 1038 213 215
3 213 1038 1034
3 1034 211 213
3 211 1034 1030
3 1030 209 211
3 209 1030 1026
3 1026 207 209
3 207 1026 1022
3 1022 205 207
3 205 1022 1018
3 1018 203 205
3 203 1018 1014
3 1014 201 203
3 201 1014 1010
3 1010 199 201
3 199 1010 1009
3 1009 198 199
3 198 1009 1005
3 1005 196 198
3 196 1005 1001
3 1001 194 196
3 194 1001 997
3 997 192 194
3 192 997 993
3 993 190 192
3 190 993 989
3 989 188 190
3 188 989 985
3 985 186 188
3 186 985 981
3 981 184 186
3 184 981 977
3 977 182 184
3 182 977 973
3 973 180 182
3 180 973 969
3 969 178 180
3 178 969 965
3 965 176 178
3 176 965 961
3 961 174 176
3 174 961 957
3 957 172 174
3 172 957 953
3 953 170 172
3 170 953 949
3 949 168 170
3 168 949 944
3 944 165 168
3 165 944 940
3 940 163 165
3 163 940 936
3 936 161 163
3 161 936 932
3 932 159 161
3 159 932 928
3 928 157 159
3 157 928 924
3 924 155 157
3 155 924 920
3 920 153 155
3 153 920 916
3 916 151 153
3 151 916 912
3 912 149 151
3 149 912 908
3 908 147 149
3 147 908 907
3 907 146 147
3 146 907 903
3 903 144 146
3 144 903 899
3 899 142 144
3 142 899 895
3 895 140 142
3 140 895 891
3 891 138 140
3 138 891 887
3 887 136 138
3 136 887 883
3 883 134 136
3 134 883 879
3 879 132 134
3 132 879 875
3 875 130 132
3 130 875 871
3 871 128 130
3 128 871 867
3 867 126 128
3 126 867 863
3 863 124 126
3 124 863 859
3 859 122 124
3 122 859 855
3 855 120 122
3 120 855 851
3 851 118 120
3 118 851 847
3 847 116 118
3 116 847 842
3 842 113 116
3 113 842 838
3 838 111 113
3 111 838 834
3 834 109 111
3 109 834 830
3 830 107 109
3 107 830 826
3 826 105 107
3 105 826 822
3 822 103 105
3 103 822 818
3 818 101 103
3 101 818 814
3 814 99 101
3 99 814 810
3 810 97 99
3 97 810 806
3 806 95 97
3 95 806 802
3 802 93 95
3 93 802 801
3 801 92 93
3 92 801 797
3 797 90 92
3 90 797 793
3 793 88 90
3 88 793 789
3 789 86 88
3 86 789 785
3 785 84 86
3 84 785 781
3 781 82 84
3 82 781 777
3 777 80 82
3 80 777 773
3 773 78 80
3 78 773 769
3 769 76 78
3 76 769 765
3 765 74 76
3 74 765 761
3 761 72 74
3 72 761 757
3 757 70 72
3 70 757 753
3 753 68 70
3 68 753 749
3 749 66 68
3 66 749 745
3 745 64 66
3 64 745 740
3 740 61 64
3 61 740 736
3 736 59 61
3 59 736 732
3 732 57 59
3 57 732 728
3 728 55 57
3 55 728 724
3 724 53 55
3 53 724 720
3 720 51 53
3 51 720 716
3 716 49 51
3 49 716 712
3 712 47 49
3 47 712 708
3 708 45 47
3 45 708 704
3 704 43 45
3 43 704 700
3 700 41 43
3 41 700 699
3 699 40 41
3 40 699 695
3 695 38 40
3 38 695 691
3 691 36 38
3 36 691 687
3 687 34 36
3 34 687 683
3 683 32 34
3 32 683 679
3 679 30 32
3 30 679 675
3 675 28 30
3 28 675 671
3 671 26 28
3 26 671 667
3 667 24 26
3 24 667 663
3 663 22 24
3 22 663 659
3 659 20 22
3 20 659 655
3 655 18 20
3 18 655 651
3 651 16 18
3 16 651 647
3 647 14 16
3 14 647 643
3 643 12 14
3 12 643 639
3 639 10 12
3 10 639 634
3 634 7 10
3 7 634 630
3 630 5 7
3 5 630 626
3 626 3 5
3 3 626 622
3 629 626 630
3 633 630 634
3 638 634 639
3 642 639 643
3 646 643 647
3 650 647 651
3 654 651 655
3 658 655 659
3 662 659 663
3 666 663 667
3 670 667 671
3 674 671 675
3 678 675 679
3 682 679 683
3 686 683 687
3 690 687 691
3 694 691 695
3 698 695 699
3 700 703 699
3 700 704 703
3 707 704 708
3 711 708 712
3 715 712 716
3 719 716 720
3 723 720 724
3 727 724 728
3 731 728 732
3 735 732 736
3 739 736 740
3 744 740 745
3 748 745 749
3 752 749 753
3 756 753 757
3 760 757 761
3 764 761 765
3 768 765 769
3 772 769 773
3 776 773 777
3 780 777 781
3 784 781 785
3 788 785 789
3 792 789 793
3 796 793 797
3 800 797 801
3 802 805 801
3 802 806 805
3 809 806 810
3 813 810 814
3 817 814 818
3 821 818 822
3 825 822 826
3 829 826 830
3 833 830 834
3 837 834 838
3 841 838 842
3 846 842 847
3 850 847 851
3 854 851 855
3 858 855 859
3 862 859 863
3 866 863 867
3 870 867 871
3 874 871 875
3 878 875 879
3 882 879 883
3 886 883 887
3 890 887 891
3 894 891 895
3 898 895 899
3 902 899 903
3 906 903 907
3 908 911 907
3 908 912 911
3 915 912 916
3 919 916 920
3 923 920 924
3 927 924 928
3 931 928 932
3 935 932 936
3 939 936 940
3 943 940 944
3 948 944 949
3 952 949 953
3 956 953 957
3 960 957 961
3 964 961 965
3 968 965 969
3 972 969 973
3 976 973 977
3 980 977 981
3 984 981 985
3 988 985 989
3 992 989 993
3 996 993 997
3 1000 997 1001
3 1004 1001 1005
3 1008 1005 1009
3 1010 1013 1009
3 1010 1014 1013
3 1017 1014 1018
3 1021 1018 1022
3 1025 1022 1026
3 1029 1026 1030
3 1033 1030 1034
3 1037 1034 1038
3 1041 1038 1042
3 1045 1042 1046
3 1049 1046 1050
3 1054 1050 1055
3 1058 1055 1059
3 1062 1059 1063
3 1066 1063 1067
3 1070 1067 1071
3 1074 1071 1075
3 1078 1075 1079
3 1082 1079 1083
3 1086 1083 1087
3 1090 1087 1091
3 1094 1091 1095
3 1098 1095 1099
3 1102 1099 1103
3 1106 1103 1107
3 1110 1107 1111
3 1112 1115 1111
3 1112 1116 1115
3 1119 1116 1120
3 1123 1120 1124
3 1127 1124 1128
3 1131 1128 1132
3 1135 1132 1136
3 1139 1136 1140
3 1143 1140 1144
3 1147 1144 1148
3 1151 1148 1152
3 1155 1152 1156
3 1159 1156 1160
3 1163 1160 1164
3 1167 1164 1168
3 1171 1168 1172
3 1175 1172 1176
3 1179 1176 1180
3 1183 1180 1184
3 1187 1184 1188
3 1191 1188 1192
3 1195 1192 1196
3 1199 1196 1200
3 1203 1200 1204
3 1207 1204 1208
3 1211 1208 1212
3 1215 1212 1216
3 1220 1219 1216
3 1220 1224 1219
3 1223 1224 1228
3 1227 1228 1232
3 1231 1232 1237
3 1234 1237 1239
3 1235 1239 1238
3 1233 1238 1236
3 1229 1236 1230
3 1225 1230 1226
3 1221 1226 1222
3 1217 1222 1218
3 1213 1218 1214
3 1209 1214 1210
3 1205 1210 1206
3 1201 1206 1202
3 1197 1202 1198
3 1193 1198 1194
3 1189 1194 1190
3 1185 1190 1186
3 1181 1186 1182
3 1177 1182 1178
3 1173 1178 1174
3 1169 1174 1170
3 1165 1170 1166
3 1161 1166 1162
3 1158 1157 1162
3 1158 1154 1157
3 1153 1154 1150
3 1149 1150 1146
3 1145 1146 1142
3 1141 1142 1138
3 1137 1138 1134
3 1133 1134 1130
3 1129 1130 1126
3 1125 1126 1122
3 1121 1122 1118
3 1117 1118 1114
3 1113 1114 1109
3 1108 1109 1105
3 1104 1105 1101
3 1100 1101 1097
3 1096 1097 1093
3 1092 1093 1089
3 1088 1089 1085
3 1084 1085 1081
3 1080 1081 1077
3 1076 1077 1073
3 1072 1073 1069
3 1068 1069 1065
3 1064 1065 1061
3 1060 1061 1057
3 1053 1056 1057
3 1053 1052 1056
3 1051 1052 1048
3 1047 1048 1044
3 1043 1044 1040
3 1039 1040 1036
3 1035 1036 1032
3 1031 1032 1028
3 1027 1028 1024
3 1023 1024 1020
3 1019 1020 1016
3 1015 1016 1012
3 1011 1012 1007
3 1006 1007 1003
3 1002 1003 999
3 998 999 995
3 994 995 991
3 990 991 987
3 986 987 983
3 982 983 979
3 978 979 975
3 974 975 971
3 970 971 967
3 966 967 963
3 962 963 959
3 958 959 955
3 954 955 951
3 947 950 951
3 947 946 950
3 945 946 942
3 941 942 938
3 937 938 934
3 933 934 930
3 929 930 926
3 925 926 922
3 921 922 918
3 917 918 914
3 913 914 910
3 909 910 905
3 904 905 901
3 900 901 897
3 896 897 893
3 892 893 889
3 888 889 885
3 884 885 881
3 880 881 877
3 876 877 873
3 872 873 869
3 868 869 865
3 864 865 861
3 860 861 857
3 856 857 853
3 852 853 849
3 845 848 849
3 845 844 848
3 844 840 843
3 839 840 836
3 835 836 832
3 831 832 828
3 827 828 824
3 823 824 820
3 819 820 816
3 815 816 812
3 811 812 808
3 807 808 804
3 803 804 799
3 798 799 795
3 794 795 791
3 790 791 787
3 786 787 783
3 782 783 779
3 778 779 775
3 774 775 771
3 770 771 767
3 766 767 763
3 762 763 759
3 758 759 755
3 754 755 751
3 750 751 747
3 743 746 747
3 743 741 746
3 742 741 738
3 737 738 734
3 733 734 730
3 729 730 726
3 725 726 722
3 721 722 718
3 717 718 714
3 713 714 710
3 709 710 706
3 705 706 702
3 701 702 697
3 696 697 693
3 692 693 689
3 688 689 685
3 684 685 681
3 680 681 677
3 676 677 673
3 672 673 669
3 668 669 665
3 664 665 661
3 660 661 657
3 656 657 653
3 652 653 649
3 648 649 645
3 644 645 641
3 637 640 641
3 637 636 640
3 635 636 632
3 631 632 628
3 624 4 2
3 623 624 620
3 628 627 631
3 632 631 635
3 636 635 640
3 641 640 644
3 645 644 648
3 649 648 652
3 653 652 656
3 657 656 660
3 661 660 664
3 665 664 668
3 669 668 672
3 673 672 676
3 677 676 680
3 681 680 684
3 685 684 688
3 689 688 692
3 693 692 696
3 697 696 701
3 702 701 705
3 706 705 709
3 710 709 713
3 714 713 717
3 718 717 721
3 722 721 725
3 726 725 729
3 730 729 733
3 734 733 737
3 738 737 742
3 741 742 746
3 747 746 750
3 751 750 754
3 755 754 758
3 759 758 762
3 763 762 766
3 767 766 770
3 771 770 774
3 775 774 778
3 779 778 782
3 783 782 786
3 787 786 790
3 791 790 794
3 795 794 798
3 799 798 803
3 804 803 807
3 808 807 811
3 812 811 815
3 816 815 819
3 820 819 823
3 824 823 827
3 828 827 831
3 832 831 835
3 836 835 839
3 840 839 843
3 844 843 848
3 849 848 852
3 853 852 856
3 857 856 860
3 861 860 864
3 865 864 868
3 869 868 872
3 873 872 876
3 877 876 880
3 881 880 884
3 885 884 888
3 889 888 892
3 893 892 896
3 897 896 900
3 901 900 904
3 905 904 909
3 910 909 913
3 914 913 917
3 918 917 921
3 922 921 925
3 926 925 929
3 930 929 933
3 934 933 937
3 938 937 941
3 942 941 945
3 946 945 950
3 951 950 954
3 955 954 958
3 959 958 962
3 963 962 966
3 967 966 970
3 971 970 974
3 975 974 978
3 979 978 982
3 983 982 986
3 987 986 990
3 991 990 994
3 995 994 998
3 999 998 1002
3 1003 1002 1006
3 1007 1006 1011
3 1012 1011 1015
3 1016 1015 1019
3 1020 1019 1023
3 1024 1023 1027
3 1028 1027 1031
3 1032 1031 1035
3 1036 1035 1039
3 1040 1039 1043
3 1044 1043 1047
3 1048 1047 1051
3 1052 1051 1056
3 1057 1056 1060
3 1061 1060 1064
3 1065 1064 1068
3 1069 1068 1072
3 1073 1072 1076
3 1077 1076 1080
3 1081 1080 1084
3 1085 1084 1088
3 1089 1088 1092
3 1093 1092 1096
3 1097 1096 1100
3 1101 1100 1104
3 1105 1104 1108
3 1109 1108 1113
3 1114 1113 1117
3 1118 1117 1121
3 1122 1121 1125
3 1126 1125 1129
3 1130 1129 1133
3 1134 1133 1137
3 1138 1137 1141
3 1142 1141 1145
3 1146 1145 1149
3 1150 1149 1153
3 1154 1153 1157
3 1162 1157 1161
3 1166 1161 1165
3 1170 1165 1169
3 1174 1169 1173
3 1178 1173 1177
3 1182 1177 1181
3 1186 1181 1185
3 1190 1185 1189
3 1194 1189 1193
3 1198 1193 1197
3 1202 1197 1201
3 1206 1201 1205
3 1210 1205 1209
3 1214 1209 1213
3 1218 1213 1217
3 1222 1217 1221
3 1226 1221 1225
3 1230 1225 1229
3 1236 1229 1233
3 1238 1233 1235
3 1239 1235 1234
3 1237 1234 1231
3 1232 1231 1227
3 1228 1227 1223
3 1224 1223 1219
3 1216 1219 1215
3 1212 1215 1211
3 1208 1211 1207
3 1204 1207 1203
3 1200 1203 1199
3 1196 1199 1195
3 1192 1195 1191
3 1188 1191 1187
3 1184 1187 1183
3 1180 1183 1179
3 1176 1179 1175
3 1172 1175 1171
3 1168 1171 1167
3 1164 1167 1163
3 1160 1163 1159
3 1156 1159 1155
3 1152 1155 1151
3 1148 1151 1147
3 1144 1147 1143
3 1140 1143 1139
3 1136 1139 1135
3 1132 1135 1131
3 1128 1131 1127
3 1124 1127 1123
3 1120 1123 1119
3 1116 1119 1115
3 1111 1115 1110
3 1107 1110 1106
3 1103 1106 1102
3 1099 1102 1098
3 1095 1098 1094
3 1091 1094 1090
3 1087 1090 1086
3 1083 1086 1082
3 1079 1082 1078
3 1075 1078 1074
3 1071 1074 1070
3 1067 1070 1066
3 1063 1066 1062
3 1059 1062 1058
3 1055 1058 1054
3 1050 1054 1049
3 1046 1049 1045
3 1042 1045 1041
3 1038 1041 1037
3 1034 1037 1033
3 1030 1033 1029
3 1026 1029 1025
3 1022 1025 1021
3 1018 1021 1017
3 1014 1017 1013
3 1009 1013 1008
3 1005 1008 1004
3 1001 1004 1000
3 997 1000 996
3 993 996 992
3 989 992 988
3 985 988 984
3 981 984 980
3 977 980 976
3 973 976 972
3 969 972 968
3 965 968 964
3 961 964 960
3 957 960 956
3 953 956 952
3 949 952 948
3 944 948 943
3 940 943 939
3 936 939 935
3 932 935 931
3 928 931 927
3 924 927 923
3 920 923 919
3 916 919 915
3 912 915 911
3 907 911 906
3 903 906 902
3 899 902 898
3 895 898 894
3 891 894 890
3 887 890 886
3 883 886 882
3 879 882 878
3 875 878 874
3 871 874 870
3 867 870 866
3 863 866 862
3 859 862 858
3 855 858 854
3 851 854 850
3 847 850 846
3 842 846 841
3 838 841 837
3 834 837 833
3 830 833 829
3 826 829 825
3 822 825 821
3 818 821 817
3 814 817 813
3 810 813 809
3 806 809 805
3 801 805 800
3 797 800 796
3 793 796 792
3 789 792 788
3 785 788 784
3 781 784 780
3 777 780 776
3 773 776 772
3 769 772 768
3 765 768 764
3 761 764 760
3 757 760 756
3 753 756 752
3 749 752 748
3 745 748 744
3 740 744 739
3 736 739 735
3 732 735 731
3 728 731 727
3 724 727 723
3 720 723 719
3 716 719 715
3 712 715 711
3 708 711 707
3 704 707 703
3 699 703 698
3 695 698 694
3 691 694 690
3 687 690 686
3 683 686 682
3 679 682 678
3 675 678 674
3 671 674 670
3 667 670 666
3 663 666 662
3 659 662 658
3 655 658 654
3 651 654 650
3 647 650 646
3 643 646 642
3 639 642 638
3 634 638 633
3 630 633 629
3 626 629 625
3 621 317 1
3 625 622 626
3 620 621 623
3 622 0 3
3 2 620 624
CELL_TYPES 1860
9
9
9
9
9
9
9
9
9
9
9
9
9
9
9
9
9
9
9
9
9
9
9
9
9
9
9
9
9
9
9
9
9
9
9
9
9
9
9
9
9
9
9
9
9
9
9
9
9
9
9
9
9
9
9
9
9
9
9
9
9
9
9
9
9
9
9
9
9
9
9
9
9
9
9
9
9
9
9
9
9
9
9
9
9
9
9
9
9
9
9
9
9
9
9
9
9
9
9
9
9
9
9
9
9
9
9
9
9
9
9
9
9
9
9
9
9
9
9
9
9
9
9
9
9
9
9
9
9
9
9
9
9
9
9
9
9
9
9
9
9
9
9
9
9
9
9
9
9
9
9
9
9
9
9
9
9
9
9
9
9
9
9
9
9
9
9
9
9
9
9
9
9
9
9
9
9
9
9
9
9
9
9
9
9
9
9
9
9
9
9
9
9
9
9
9
9
9
9
9
9
9
9
9
9
9
9
9
9
9
9
9
9
9
9
9
9
9
9
9
9
9
9
9
9
9
9
9
9
9
9
9
9
9
9
9
9
9
9
9
9
9
9
9
9
9
9
9
9
9
9
9
9
9
9
9
9
9
9
9
9
9
9
9
9
9
9
9
9
9
9
9
9
9
9
9
9
9
9
9
9
9
9
9
9
9
9
9
9
9
9
9
9
9
9
9
9
9
9
9
9
9
9
9
9
9
9
9
9
9
9
9
9
9
9
9
9
9
9
9
9
9
9
9
9
9
9
9
9
9
9
9
9
9
9
9
9
9
9
9
9
9
9
9
9
9
9
9
9
9
9
9
9
9
9
9
9
9
9
9
9
9
9
9
9
9
9
9
9
9
9
9
9
9
9
9
9
9
9
9
9
9
9
9
9
9
9
9
9
9
9
9
9
9
9
9
9
9
9
9
9
9
9
9
9
9
9
9
9
9
9
9
9
9
9
9
9
9
9
9
9
9
9
9
9
9
9
9
9
9
9
9
9
9
9
9
9
9
9
9
9
9
9
9
9
9
9
9
9
9
9
9
9
9
9
9
9
9
9
9
9
9
9
9
9
9
9
9
9
9
9
9
9
9
9
9
9
9
9
9
9
9
9
9
9
9
9
9
9
9
9
9
9
9
9
9
9
9
9
9
9
9
9
9
9
9
9
9
9
9
9
9
9
9
9
9
9
9
9
9
9
9
9
9
9
9
9
9
9
9
9
9
9
9
9
9
9
9
9
9
9
9
9
9
9
9
9
9
9
9
9
9
9
9
9
9
9
9
9
9
9
9
9
9
9
9
9
9
9
9
9
9
9
9
9
9
9
9
9
9
9
9
9
9
9
9
9
9
9
9
9
9
9
9
9
9
9
9
9
9
9
9
9
9
9
9
9
9
9
9
9
9
9
9
9
9
9
9
9
9
9
9
9
9
9
9
9
9
9
9
9
9
9
9
9
9
9
9
9
9
9
9
9
9
9
9
9
9
9
9
9
9
9
9
9
9
9
9
9
9
9
9
9
9
9
9
9
9
9
9
9
9
9
9
9
9
9
9
9
9
9
9
9
9
9
9
9
9
9
9
9
9
9
9
9
9
9
9
9
9
9
9
9
9
9
9
9
9
9
9
9
9
9
9
9
9
9
9
9
9
9
9
9
9
9
9
9
9
9
9
9
9
9
9
9
9
9
9
9
9
9
9
9
9
9
9
9
9
9
9
9
9
9
9
9
9
9
9
9
9
9
9
9
9
9
9
9
9
9
9
9
9
9
9
9
9
9
9
9
9
9
9
9
9
9
9
9
9
9
9
9
9
9
9
9
9
9
9
9
9
9
9
9
9
9
9
9
9
9
9
9
9
9
9
9
9
9
9
9
9
9
9
9
9
9
9
9
9
9
9
9
9
9
9
9
9
9
9
9
9
9
9
9
9
9
9
9
9
9
9
9
9
9
9
9
9
9
9
9
9
9
9
9
9
9
9
9
9
9
9
9
9
9
9
9
9
9
9
9
9
9
9
9
9
9
9
9
9
9
9
9
9
9
9
9
9
9
9
9
9
9
9
9
9
9
9
9
9
9
9
9
9
9
9
9
9
9
9
9
9
9
9
9
9
9
9
9
9
9
9
9
9
9
9
9
9
9
9
9
9
9
9
9
9
9
9
9
9
9
9
9
9
9
9
9
9
9
9
9
9
9
9
9
9
9
9
9
9
9
9
9
9
9
9
9
9
9
9
9
9
9
9
9
9
9
9
9
9
9
9
9
9
9
9
9
9
9
9
9
9
9
9
9
9
9
9
9
9
9
9
9
9
9
9
9
9
9
9
9
9
9
9
9
9
9
9
9
9
9
9
9
9
9
9
9
9
9
9
9
9
9
9
9
9
9
9
9
9
9
9
9
9
9
9
9
9
9
9
9
9
9
9
9
9
9
9
9
9
9
9
9
9
9
9
9
9
9
9
9
9
9
9
9
9
9
9
9
9
9
9
9
9
9
9
9
9
9
9
9
9
9
9
9
9
9
9
9
9
9
9
9
9
9
9
9
9
9
9
9
9
9
9
9
9
9
9
9
9
9
9
9
9
9
9
9
9
9
9
9
9
9
9
9
9
9
9
9
9
9
9
9
9
9
9
9
9
9
9
9
9
9
9
9
9
9
9
9
9
9
9
9
9
9
9
9
9
9
9
9
9
9
9
9
9
9
9
9
9
9
9
9
9
9
9
9
9
9
9
9
9
9
9
9
9
9
9
9
9
9
9
9
9
9
9
9
9
9
9
9
9
9
9
9
9
9
9
9
9
9
9
9
9
9
9
9
9
9
9
9
9
9
9
9
9
9
9
9
9
9
9
9
9
9
9
9
9
9
9
9
9
9
9
9
9
9
9
9
9
9
9
9
9
9
9
9
9
9
9
9
9
9
9
9
9
9
9
9
9
9
9
9
9
9
9
9
9
9
9
9
9
9
9
9
9
9
9
9
9
9
9
9
9
9
9
9
9
9
9
9
9
9
9
9
9
9
9
9
9
9
9
9
9
9
9
9
9
9
9
9
9
9
9
9
9
9
9
9
9
9
9
9
9
9
9
9
9
9
9
9
9
9
9
9
9
9
9
9
9
9
9
9
9
9
9
9
9
9
9
9
9
9
9
9
9
9
9
9
9
9
9
9
9
9
9
9
9
9
9
9
9
9
9
9
9
9
9
9
9
9
9
9
9
9
9
9
9
9
9
9
9
9
9
9
9
9
9
9
9
9
9
9
9
9
9
9
9
9
9
9
9
9
9
9
9
9
9
9
9
9
9
9
9
9
9
9
9
9
9
9
9
9
9
9
9
9
9
9
9
9
9
9
9
9
9
9
9
9
9
9
9
9
9
9
9
9
9
9
9
9
9
9
9
9
9
9
9
9
9
9
9
9
9
9
9
9
9
9
9
9
9
9
9
9
9
9
9
9
9
9
9
9
9
9
9
9
9
9
9
9
9
9
9
9
9
9
9
9
9
9
9
9
9
9
9
9
9
9
9
9
9
9
9
9
9
9
9
9
9
9
9
9
9
9
9
9
9
9
9
9
9
9
9
9
9
9
9
9
9
9
9
9
9
9
9
9
9
9
9
9
9
9
9
9
9
9
9
9
9
9
9
9
9
9
9
9
9
9
9
9
9
9
9
9
9
9
9
9
9
9
9
9
9
9
9
9
9
9
9
9
9
9
9
9
9
9
9
9
9
9
9
9
9
9
9
9
9
9
9
9
9
9
9
9
9
9
9
9
9
9
9
9
9
9
9
9
9
9
9
9
9
9
9
9
9
9
9
9
9
9
9
9
9
9
9
9
9
9
9
9
9
9
9
9
9
9
9
9
9
9
9
9
9
9
9
9
9
9
9
9
9
9
9
9
9
9
9
9
9
9
9
9
9
9
9
9
9
9
9
9
9
9
9
9
9
9
9
9
9
9
9
9
9
9
9
9
9
9
9
9
9
9
9
9
9
9
9
9
9
9
9
9
9
9
9
9
9
9
9
9
9
9
9
9
9
9
9
9
9
9
9
9
9
9
9
9
9
9
9
9
9
9
9
9
9
9
9
9
9
9
9
9
9
9
9
9
9
9
9
9
9
9
9
9
9
9
9
9
9
9
9
9
9
9
9
9
9
9
9
9
9
9
9
9
9
9
9
9
9
9
9
9
9
9
9
9
9
9
9
9
9
9
9
9
9
9
9
9
9
9
9
POINT_DATA 1240
SCALARS u1 float
LOOKUP_TABLE default
-0.0001
-0.0001
-0.0001
-0.0002
-0.0001
-0.0002
-0.0001
-0.0002
-0.0001
-0.0001
-0.0002
-0.0001
-0.0002
-0.0001
-0.0002
-0.0001
-0.0002
-0.0001
-0.0002
-0.0001
-0.0002
-0.0001
-0.0002
-0.0002
-0.0002
-0.0002
-0.0002
-0.0002
-0.0001
-0.0002
-0.0001
-0.0002
-0.0001
-0.0002
-0.0001
-0.0003
-9e-05
-0.0003
-8e-05
-0.0003
-7e-05
-6e-05
-0.0003
-6e-05
-0.0004
-5e-05
-0.0004
-5e-05
-0.0004
-5e-05
-0.0005
-5e-05
-0.0005
-5e-05
-0.0005
-5e-05
-0.0005
-5e-05
-0.0005
-5e-05
-0.0005
-6e-05
-0.0005
-0.0005
-6e-05
-0.0005
-6e-05
-0.0005
-7e-05
-0.0005
-7e-05
-0.0005
-8e-05
-0.0005
-8e-05
-0.0004
-8e-05
-0.0004
-9e-05
-0.0004
-9e-05
-0.0004
-9e-05
-0.0003
-8e-05
-0.0003
-8e-05
-0.0003
-7e-05
-0.0003
-7e-05
-0.0002
-6e-05
-6e-05
-0.0002
-5e-05
-0.0002
-4e-05
-0.0002
-3e-05
-0.0002
-2e-05
-0.0002
-2e-05
-0.0002
-1e-05
-0.0001
-6e-06
-0.0001
-1e-06
-0.0001
2e-06
-0.0001
5e-06
-0.0001
-0.0001
6e-06
-0.0001
5e-06
-0.0001
3e-06
-0.0002
-7e-07
-0.0002
-5e-06
-0.0002
-1e-05
-0.0002
-2e-05
-0.0002
-2e-05
-0.0002
-2e-05
-0.0002
-3e-05
-0.0002
-3e-05
-0.0002
-3e-05
-0.0002
-3e-05
-0.0002
-3e-05
-0.0002
-3e-05
-0.0002
-3e-05
-3e-05
-0.0002
-3e-05
-0.0002
-3e-05
-0.0002
-2e-05
-0.0001
-2e-05
-0.0001
-1e-05
-0.0001
-2e-06
-0.0001
9e-06
-0.0001
2e-05
-0.0001
4e-05
-0.0001
-9e-05
5e-05
-9e-05
7e-05
-9e-05
8e-05
-9e-05
9e-05
-9e-05
0.0001
-9e-05
0.0001
-9e-05
0.0001
-0.0001
0.0001
-0.0001
0.0001
-0.0001
9e-05
-0.0001
8e-05
-0.0001
7e-05
-0.0001
6e-05
-0.0001
5e-05
-0.0001
3e-05
-0.0001
2e-05
2e-05
-0.0001
1e-05
-0.0001
1e-05
-0.0001
1e-05
-0.0001
1e-05
-0.0001
2e-05
-0.0001
2e-05
-0.0001
3e-05
-0.0001
4e-05
-0.0001
5e-05
-9e-05
6e-05
-9e-05
7e-05
-8e-05
9e-05
-7e-05
0.0001
-6e-05
0.0001
-6e-05
0.0001
-5e-05
0.0002
-5e-05
0.0002
-4e-05
0.0002
-4e-05
0.0003
-4e-05
0.0003
-4e-05
0.0003
-4e-05
0.0003
-4e-05
0.0004
-5e-05
0.0004
-5e-05
0.0004
-6e-05
0.0004
-6e-05
0.0004
-7e-05
0.0004
-7e-05
0.0004
-7e-05
0.0004
-7e-05
0.0004
-7e-05
0.0004
-7e-05
0.0004
-7e-05
0.0003
-7e-05
0.0003
-7e-05
0.0003
-7e-05
0.0003
-7e-05
0.0002
-6e-05
0.0002
-6e-05
0.0002
-5e-05
0.0001
-4e-05
0.0001
-3e-05
9e-05
-1e-05
7e-05
1e-06
5e-05
2e-05
4e-05
3e-05
3e-05
4e-05
2e-05
6e-05
1e-05
6e-05
4e-06
7e-05
-2e-06
7e-05
-7e-06
7e-05
-1e-05
7e-05
-1e-05
6e-05
-1e-05
5e-05
-7e-06
4e-05
-4e-07
3e-05
8e-06
2e-05
-0.0001
-0.0001
-0.0001
-0.0001
-0.0002
-0.0001
-0.0002
-0.0001
-0.0002
-0.0001
-0.0002
-0.0001
-0.0002
-0.0001
-0.0002
-0.0001
-0.0002
-0.0001
-0.0002
-0.0002
-0.0002
-0.0002
-0.0002
-0.0002
-0.0002
-0.0002
-0.0002
-0.0002
-0.0001
-0.0002
-0.0001
-0.0003
-0.0001
-0.0003
-0.0001
-0.0003
-9e-05
-0.0004
-8e-05
-0.0004
-7e-05
-0.0004
-6e-05
-0.0004
-5e-05
-0.0005
-5e-05
-0.0005
-5e-05
-0.0005
-4e-05
-0.0005
-4e-05
-0.0005
-4e-05
-0.0005
-4e-05
-0.0005
-3e-05
-0.0005
-3e-05
-0.0005
-3e-05
-0.0005
-3e-05
-0.0005
-3e-05
-0.0005
-3e-05
-0.0005
-3e-05
-0.0004
-3e-05
-0.0004
-4e-05
-0.0004
-4e-05
-0.0004
-4e-05
-0.0003
-4e-05
-0.0003
-4e-05
-0.0003
-4e-05
-0.0003
-4e-05
-0.0002
-4e-05
-0.0002
-4e-05
-0.0002
-4e-05
-0.0002
-4e-05
-0.0002
-4e-05
-0.0002
-4e-05
-0.0002
-4e-05
-0.0002
-4e-05
-0.0001
-4e-05
-0.0001
-4e-05
-0.0001
-5e-05
-0.0001
-5e-05
-0.0001
-5e-05
-0.0001
-5e-05
-0.0001
-5e-05
-0.0002
-5e-05
-0.0002
-5e-05
-0.0002
-5e-05
-0.0002
-5e-05
-0.0002
-5e-05
-0.0002
-5e-05
-0.0002
-5e-05
-0.0002
-4e-05
-0.0002
-4e-05
-0.0002
-4e-05
-0.0002
-4e-05
-0.0002
-3e-05
-0.0002
-3e-05
-0.0002
-2e-05
-0.0002
-1e-05
-0.0002
-6e-07
-0.0002
1e-05
-0.0001
3e-05
-0.0001
4e-05
-0.0001
5e-05
-0.0001
7e-05
-0.0001
8e-05
-9e-05
9e-05
-9e-05
0.0001
-9e-05
0.0001
-8e-05
0.0001
-8e-05
0.0001
-8e-05
9e-05
-8e-05
9e-05
-7e-05
8e-05
-7e-05
7e-05
-7e-05
5e-05
-7e-05
4e-05
-7e-05
3e-05
-7e-05
2e-05
-7e-05
2e-05
-8e-05
1e-05
-8e-05
1e-05
-8e-05
1e-05
-8e-05
1e-05
-8e-05
2e-05
-9e-05
3e-05
-9e-05
3e-05
-9e-05
4e-05
-8e-05
5e-05
-8e-05
6e-05
-8e-05
7e-05
-8e-05
9e-05
-8e-05
0.0001
-8e-05
0.0001
-8e-05
0.0002
-8e-05
0.0002
-8e-05
0.0002
-9e-05
0.0002
-9e-05
0.0003
-9e-05
0.0003
-9e-05
0.0003
-9e-05
0.0003
-9e-05
0.0004
-0.0001
0.0004
-0.0001
0.0004
-9e-05
0.0004
-9e-05
0.0004
-9e-05
0.0004
-9e-05
0.0004
-9e-05
0.0004
-8e-05
0.0004
-8e-05
0.0004
-8e-05
0.0004
-8e-05
0.0003
-7e-05
0.0003
-7e-05
0.0003
-6e-05
0.0003
-5e-05
0.0002
-4e-05
0.0002
-2e-05
0.0002
-1e-05
0.0001
4e-06
0.0001
2e-05
9e-05
3e-05
7e-05
5e-05
6e-05
6e-05
4e-05
6e-05
3e-05
7e-05
2e-05
7e-05
1e-05
7e-05
7e-06
7e-05
-4e-07
6e-05
-6e-06
5e-05
-1e-05
4e-05
-1e-05
3e-05
-1e-05
2e-05
-7e-06
-1e-06
7e-06
-0.0001
-0.0001
-0.0001
-0.0001
-0.0001
-0.0001
-0.0002
-0.0001
-0.0001
-0.0002
-0.0002
-0.0001
-0.0001
-0.0002
-0.0002
-0.0001
-0.0001
-0.0001
-0.0002
-0.0002
-0.0001
-0.0001
-0.0002
-0.0002
-0.0001
-0.0001
-0.0002
-0.0002
-0.0001
-0.0001
-0.0002
-0.0002
-0.0001
-0.0001
-0.0002
-0.0002
-0.0001
-0.0001
-0.0002
-0.0002
-0.0001
-0.0002
-0.0002
-0.0002
-0.0002
-0.0002
-0.0002
-0.0002
-0.0002
-0.0002
-0.0002
-0.0002
-0.0002
-0.0002
-0.0002
-0.0001
-0.0002
-0.0002
-0.0001
-0.0001
-0.0002
-0.0002
-0.0001
-0.0001
-0.0002
-0.0003
-0.0001
-0.0001
-0.0003
-0.0003
-0.0001
-9e-05
-0.0003
-0.0003
-9e-05
-8e-05
-0.0003
-0.0003
-8e-05
-7e-05
-6e-05
-0.0004
-0.0004
-7e-05
-6e-05
-0.0004
-0.0004
-6e-05
-6e-05
-0.0004
-0.0004
-6e-05
-5e-05
-0.0004
-0.0004
-5e-05
-5e-05
-0.0005
-0.0005
-5e-05
-5e-05
-0.0005
-0.0005
-5e-05
-5e-05
-0.0005
-0.0005
-4e-05
-5e-05
-0.0005
-0.0005
-4e-05
-5e-05
-0.0005
-0.0005
-4e-05
-5e-05
-0.0005
-0.0005
-4e-05
-5e-05
-0.0005
-0.0005
-0.0005
-4e-05
-5e-05
-0.0005
-0.0005
-4e-05
-5e-05
-0.0005
-0.0005
-4e-05
-6e-05
-0.0005
-0.0005
-4e-05
-6e-05
-0.0005
-0.0005
-5e-05
-6e-05
-0.0005
-0.0005
-5e-05
-7e-05
-0.0004
-0.0004
-5e-05
-7e-05
-0.0004
-0.0004
-5e-05
-7e-05
-0.0004
-0.0004
-5e-05
-7e-05
-0.0004
-0.0003
-5e-05
-7e-05
-0.0003
-0.0003
-5e-05
-7e-05
-0.0003
-0.0003
-5e-05
-6e-05
-0.0003
-0.0003
-5e-05
-6e-05
-0.0003
-0.0002
-5e-05
-6e-05
-0.0002
-0.0002
-5e-05
-5e-05
-5e-05
-0.0002
-0.0002
-5e-05
-4e-05
-0.0002
-0.0002
-4e-05
-4e-05
-0.0002
-0.0002
-4e-05
-3e-05
-0.0002
-0.0002
-4e-05
-3e-05
-0.0002
-0.0002
-3e-05
-2e-05
-0.0002
-0.0002
-3e-05
-2e-05
-0.0002
-0.0001
-3e-05
-2e-05
-0.0001
-0.0001
-3e-05
-1e-05
-0.0001
-0.0001
-3e-05
-1e-05
-0.0001
-0.0001
-3e-05
-1e-05
-0.0001
-0.0001
-0.0001
-3e-05
-1e-05
-0.0001
-0.0001
-3e-05
-1e-05
-0.0001
-0.0001
-3e-05
-2e-05
-0.0001
-0.0002
-3e-05
-2e-05
-0.0002
-0.0002
-4e-05
-2e-05
-0.0002
-0.0002
-4e-05
-3e-05
-0.0002
-0.0002
-4e-05
-3e-05
-0.0002
-0.0002
-4e-05
-3e-05
-0.0002
-0.0002
-4e-05
-3e-05
-0.0002
-0.0002
-4e-05
-4e-05
-0.0002
-0.0002
-4e-05
-4e-05
-0.0002
-0.0002
-4e-05
-4e-05
-0.0002
-0.0002
-4e-05
-4e-05
-0.0002
-0.0002
-4e-05
-4e-05
-0.0002
-0.0002
-4e-05
-3e-05
-0.0002
-0.0002
-3e-05
-3e-05
-3e-05
-0.0002
-0.0002
-3e-05
-3e-05
-0.0002
-0.0002
-3e-05
-2e-05
-0.0002
-0.0002
-2e-05
-2e-05
-0.0002
-0.0001
-1e-05
-1e-05
-0.0001
-0.0001
-5e-07
-1e-06
-0.0001
-0.0001
1e-05
1e-05
-0.0001
-0.0001
2e-05
2e-05
-0.0001
-0.0001
4e-05
4e-05
-0.0001
-0.0001
5e-05
5e-05
-0.0001
-0.0001
-9e-05
7e-05
7e-05
-9e-05
-9e-05
8e-05
8e-05
-9e-05
-9e-05
9e-05
9e-05
-9e-05
-9e-05
0.0001
0.0001
-9e-05
-9e-05
0.0001
0.0001
-8e-05
-9e-05
0.0001
0.0001
-8e-05
-9e-05
0.0001
0.0001
-8e-05
-9e-05
0.0001
0.0001
-8e-05
-9e-05
9e-05
9e-05
-8e-05
-9e-05
8e-05
8e-05
-8e-05
-0.0001
7e-05
7e-05
-8e-05
-0.0001
6e-05
6e-05
-9e-05
-0.0001
4e-05
4e-05
-9e-05
-0.0001
3e-05
3e-05
-9e-05
-0.0001
2e-05
2e-05
-9e-05
-0.0001
2e-05
2e-05
1e-05
-9e-05
-0.0001
1e-05
1e-05
-0.0001
-0.0001
1e-05
1e-05
-0.0001
-0.0001
1e-05
1e-05
-0.0001
-0.0001
2e-05
2e-05
-0.0001
-0.0001
2e-05
2e-05
-0.0001
-0.0001
3e-05
3e-05
-9e-05
-0.0001
3e-05
4e-05
-9e-05
-0.0001
4e-05
4e-05
-9e-05
-9e-05
5e-05
5e-05
-9e-05
-9e-05
6e-05
7e-05
-8e-05
-8e-05
-8e-05
8e-05
8e-05
-8e-05
-7e-05
9e-05
0.0001
-8e-05
-7e-05
0.0001
0.0001
-8e-05
-6e-05
0.0001
0.0001
-7e-05
-6e-05
0.0002
0.0002
-7e-05
-6e-05
0.0002
0.0002
-7e-05
-6e-05
0.0002
0.0002
-7e-05
-6e-05
0.0002
0.0003
-7e-05
-6e-05
0.0003
0.0003
-7e-05
-6e-05
0.0003
0.0003
-8e-05
-6e-05
0.0003
0.0003
-8e-05
-6e-05
0.0003
0.0004
-8e-05
-7e-05
0.0004
0.0004
-8e-05
-7e-05
0.0004
0.0004
-8e-05
-7e-05
0.0004
0.0004
0.0004
-8e-05
-8e-05
0.0004
0.0004
-8e-05
-8e-05
0.0004
0.0004
-8e-05
-8e-05
0.0004
0.0004
-8e-05
-8e-05
0.0004
0.0004
-8e-05
-8e-05
0.0004
0.0004
-8e-05
-8e-05
0.0004
0.0004
-8e-05
-8e-05
0.0004
0.0003
-8e-05
-7e-05
0.0003
0.0003
-7e-05
-7e-05
0.0003
0.0003
-7e-05
-7e-05
0.0003
0.0003
-6e-05
-7e-05
0.0003
0.0002
-6e-05
-6e-05
0.0002
0.0002
-5e-05
-6e-05
0.0002
0.0002
-4e-05
-5e-05
0.0002
0.0002
-3e-05
-4e-05
0.0001
0.0001
-1e-05
-3e-05
0.0001
0.0001
3e-06
-1e-05
0.0001
8e-05
2e-05
2e-06
8e-05
7e-05
3e-05
2e-05
6e-05
5e-05
4e-05
3e-05
5e-05
4e-05
5e-05
4e-05
3e-05
3e-05
6e-05
5e-05
2e-05
2e-05
7e-05
6e-05
2e-05
9e-06
7e-05
7e-05
8e-06
3e-06
7e-05
7e-05
9e-07
-4e-06
7e-05
7e-05
-6e-06
-9e-06
6e-05
7e-05
-1e-05
-1e-05
5e-05
6e-05
-1e-05
-1e-05
4e-05
5e-05
-1e-05
-1e-05
3e-05
4e-05
-7e-06
-7e-06
2e-05
-1e-06
7e-06
3e-05
-9e-07
2e-05
8e-06
SCALARS u2 float
LOOKUP_TABLE default
-3e-05
-5e-05
-2e-05
-5e-05
-2e-05
-6e-05
-1e-05
-7e-05
-8e-06
-6e-06
-9e-05
-5e-06
-0.0001
-4e-06
-0.0001
-4e-06
-0.0001
-4e-06
-0.0001
-4e-06
-0.0001
-5e-06
-0.0001
-6e-06
-0.0001
-9e-06
-0.0001
-1e-05
-0.0001
-2e-05
-0.0001
-2e-05
-0.0001
-3e-05
-9e-05
-3e-05
-8e-05
-4e-05
-7e-05
-4e-05
-6e-05
-5e-05
-4e-05
-5e-05
-4e-05
-5e-05
-4e-05
-5e-05
-4e-05
-5e-05
-3e-05
-5e-05
-3e-05
-6e-05
-2e-05
-7e-05
-2e-05
-7e-05
-1e-05
-8e-05
-4e-06
-9e-05
4e-06
1e-05
-0.0001
2e-05
-0.0001
3e-05
-0.0001
3e-05
-0.0002
4e-05
-0.0002
4e-05
-0.0002
5e-05
-0.0002
5e-05
-0.0003
5e-05
-0.0003
5e-05
-0.0003
5e-05
-0.0003
4e-05
-0.0004
4e-05
-0.0004
3e-05
-0.0004
3e-05
-0.0004
-0.0004
3e-05
-0.0004
2e-05
-0.0004
2e-05
-0.0004
2e-05
-0.0004
2e-05
-0.0004
1e-05
-0.0004
1e-05
-0.0004
2e-05
-0.0004
2e-05
-0.0003
2e-05
-0.0003
2e-05
2e-05
-0.0003
3e-05
-0.0003
3e-05
-0.0002
4e-05
-0.0002
5e-05
-0.0002
6e-05
-0.0001
8e-05
-0.0001
9e-05
-0.0001
0.0001
-9e-05
0.0001
-8e-05
0.0001
-7e-05
0.0001
-6e-05
0.0002
-5e-05
0.0002
-4e-05
0.0002
-3e-05
0.0002
-3e-05
-3e-05
0.0002
-2e-05
0.0002
-3e-05
0.0001
-3e-05
0.0001
-4e-05
0.0001
-4e-05
0.0001
-6e-05
0.0001
-7e-05
9e-05
-8e-05
8e-05
-9e-05
8e-05
8e-05
-0.0001
8e-05
-0.0001
8e-05
-0.0001
9e-05
-0.0001
9e-05
-0.0001
0.0001
-0.0001
0.0001
-9e-05
0.0001
-8e-05
0.0001
-7e-05
0.0001
-5e-05
0.0002
-4e-05
0.0002
-2e-05
0.0002
-9e-06
0.0002
3e-06
0.0003
1e-05
0.0003
2e-05
3e-05
0.0003
3e-05
0.0003
3e-05
0.0004
4e-05
0.0004
4e-05
0.0004
4e-05
0.0004
4e-05
0.0005
4e-05
0.0005
4e-05
0.0005
4e-05
0.0005
3e-05
0.0005
3e-05
0.0005
3e-05
0.0005
2e-05
0.0005
2e-05
0.0005
1e-05
0.0004
8e-06
0.0004
5e-06
0.0004
3e-06
0.0004
2e-06
0.0003
3e-06
0.0003
6e-06
0.0003
1e-05
0.0003
1e-05
0.0002
2e-05
0.0002
3e-05
0.0002
3e-05
0.0002
4e-05
0.0002
5e-05
0.0001
6e-05
0.0001
6e-05
0.0001
7e-05
0.0001
8e-05
0.0001
8e-05
0.0001
9e-05
0.0001
9e-05
0.0001
9e-05
0.0001
9e-05
0.0001
9e-05
0.0001
9e-05
0.0001
9e-05
0.0001
8e-05
0.0001
8e-05
0.0001
7e-05
0.0002
7e-05
0.0002
6e-05
0.0002
6e-05
0.0002
6e-05
0.0002
6e-05
0.0002
6e-05
0.0002
6e-05
0.0002
6e-05
0.0002
6e-05
0.0002
6e-05
0.0002
6e-05
0.0001
6e-05
0.0001
6e-05
0.0001
7e-05
0.0001
8e-05
9e-05
-6e-05
-4e-05
-8e-05
-3e-05
-9e-05
-2e-05
-0.0001
-9e-06
-0.0001
-3e-06
-0.0001
5e-07
-0.0001
3e-06
-0.0001
6e-06
-0.0001
8e-06
-0.0001
1e-05
-0.0001
1e-05
-0.0001
1e-05
-0.0001
2e-05
-0.0001
2e-05
-9e-05
2e-05
-8e-05
2e-05
-7e-05
2e-05
-6e-05
1e-05
-5e-05
1e-05
-5e-05
1e-05
-5e-05
9e-06
-5e-05
7e-06
-5e-05
5e-06
-6e-05
4e-06
-6e-05
3e-06
-7e-05
3e-06
-8e-05
4e-06
-9e-05
4e-06
-0.0001
4e-06
-0.0001
5e-06
-0.0001
5e-06
-0.0001
5e-06
-0.0002
6e-06
-0.0002
5e-06
-0.0002
4e-06
-0.0002
3e-06
-0.0003
7e-07
-0.0003
-1e-06
-0.0003
-3e-06
-0.0004
-5e-06
-0.0004
-6e-06
-0.0004
-6e-06
-0.0004
-6e-06
-0.0004
-6e-06
-0.0004
-4e-06
-0.0004
-3e-06
-0.0004
-5e-07
-0.0004
2e-06
-0.0004
4e-06
-0.0004
7e-06
-0.0004
1e-05
-0.0004
1e-05
-0.0004
2e-05
-0.0003
2e-05
-0.0003
3e-05
-0.0003
4e-05
-0.0003
5e-05
-0.0002
6e-05
-0.0002
8e-05
-0.0002
9e-05
-0.0002
0.0001
-0.0001
0.0001
-0.0001
0.0001
-9e-05
0.0001
-8e-05
0.0002
-7e-05
0.0002
-6e-05
0.0002
-5e-05
0.0002
-4e-05
0.0002
-4e-05
0.0001
-3e-05
0.0001
-3e-05
0.0001
-2e-05
0.0001
-3e-05
0.0001
-3e-05
0.0001
-4e-05
9e-05
-4e-05
8e-05
-5e-05
8e-05
-6e-05
8e-05
-8e-05
8e-05
-9e-05
8e-05
-0.0001
9e-05
-0.0001
0.0001
-0.0001
0.0001
-0.0001
0.0001
-0.0001
0.0001
-0.0001
0.0001
-9e-05
0.0001
-8e-05
0.0002
-7e-05
0.0002
-6e-05
0.0002
-4e-05
0.0002
-3e-05
0.0003
-1e-05
0.0003
6e-07
0.0003
1e-05
0.0003
2e-05
0.0004
3e-05
0.0004
3e-05
0.0004
4e-05
0.0004
4e-05
0.0005
5e-05
0.0005
5e-05
0.0005
5e-05
0.0005
5e-05
0.0005
5e-05
0.0005
6e-05
0.0005
6e-05
0.0005
6e-05
0.0005
6e-05
0.0004
6e-05
0.0004
6e-05
0.0004
6e-05
0.0004
5e-05
0.0004
5e-05
0.0003
5e-05
0.0003
5e-05
0.0003
5e-05
0.0002
5e-05
0.0002
5e-05
0.0002
5e-05
0.0002
5e-05
0.0002
5e-05
0.0001
5e-05
0.0001
5e-05
0.0001
5e-05
0.0001
5e-05
0.0001
5e-05
0.0001
5e-05
0.0001
5e-05
0.0001
4e-05
0.0001
4e-05
0.0001
4e-05
0.0001
4e-05
0.0001
4e-05
0.0001
4e-05
0.0001
4e-05
0.0001
4e-05
0.0002
4e-05
0.0002
4e-05
0.0002
4e-05
0.0002
4e-05
0.0002
4e-05
0.0002
5e-05
0.0002
5e-05
0.0002
5e-05
0.0002
6e-05
0.0002
6e-05
0.0002
7e-05
0.0001
8e-05
0.0001
9e-05
0.0001
0.0001
-4e-05
-5e-05
-5e-05
-4e-05
-3e-05
-6e-05
-6e-05
-3e-05
-2e-05
-7e-05
-7e-05
-2e-05
-1e-05
-9e-05
-9e-05
-1e-05
-7e-06
-5e-06
-0.0001
-0.0001
-5e-06
-3e-06
-0.0001
-0.0001
-2e-06
-2e-06
-0.0001
-0.0001
3e-07
-9e-07
-0.0001
-0.0001
2e-06
-6e-08
-0.0001
-0.0001
4e-06
3e-07
-0.0001
-0.0001
5e-06
2e-07
-0.0001
-0.0001
6e-06
-5e-07
-0.0001
-0.0001
6e-06
-2e-06
-0.0001
-0.0001
6e-06
-4e-06
-0.0001
-0.0001
6e-06
-7e-06
-0.0001
-0.0001
4e-06
-1e-05
-9e-05
-9e-05
3e-06
-1e-05
-8e-05
-8e-05
8e-07
-2e-05
-7e-05
-7e-05
-1e-06
-2e-05
-6e-05
-6e-05
-4e-06
-2e-05
-5e-05
-5e-05
-5e-05
-6e-06
-2e-05
-5e-05
-5e-05
-7e-06
-2e-05
-5e-05
-5e-05
-8e-06
-2e-05
-5e-05
-5e-05
-9e-06
-2e-05
-5e-05
-5e-05
-8e-06
-2e-05
-6e-05
-6e-05
-7e-06
-2e-05
-6e-05
-6e-05
-5e-06
-1e-05
-7e-05
-7e-05
-3e-06
-8e-06
-8e-05
-8e-05
-5e-07
-3e-06
-9e-05
-9e-05
2e-06
2e-06
-0.0001
-0.0001
8e-06
5e-06
1e-05
-0.0001
-0.0001
9e-06
2e-05
-0.0001
-0.0001
1e-05
2e-05
-0.0001
-0.0002
1e-05
2e-05
-0.0002
-0.0002
2e-05
3e-05
-0.0002
-0.0002
2e-05
3e-05
-0.0002
-0.0002
2e-05
3e-05
-0.0003
-0.0003
2e-05
3e-05
-0.0003
-0.0003
2e-05
3e-05
-0.0003
-0.0003
1e-05
3e-05
-0.0003
-0.0003
1e-05
3e-05
-0.0004
-0.0004
1e-05
3e-05
-0.0004
-0.0004
9e-06
2e-05
-0.0004
-0.0004
7e-06
2e-05
-0.0004
-0.0004
6e-06
2e-05
-0.0004
-0.0004
-0.0004
5e-06
1e-05
-0.0004
-0.0004
4e-06
1e-05
-0.0004
-0.0004
5e-06
1e-05
-0.0004
-0.0004
6e-06
1e-05
-0.0004
-0.0004
7e-06
1e-05
-0.0004
-0.0004
8e-06
1e-05
-0.0004
-0.0004
1e-05
1e-05
-0.0004
-0.0004
1e-05
1e-05
-0.0004
-0.0004
2e-05
2e-05
-0.0004
-0.0003
2e-05
2e-05
-0.0003
-0.0003
2e-05
2e-05
3e-05
-0.0003
-0.0003
3e-05
3e-05
-0.0003
-0.0003
4e-05
4e-05
-0.0002
-0.0002
5e-05
5e-05
-0.0002
-0.0002
6e-05
6e-05
-0.0002
-0.0002
8e-05
8e-05
-0.0002
-0.0001
9e-05
9e-05
-0.0001
-0.0001
0.0001
0.0001
-0.0001
-0.0001
0.0001
0.0001
-0.0001
-9e-05
0.0001
0.0001
-8e-05
-7e-05
0.0001
0.0001
-7e-05
-6e-05
0.0002
0.0002
-6e-05
-5e-05
0.0002
0.0002
-5e-05
-5e-05
0.0002
0.0002
-4e-05
-4e-05
0.0002
0.0002
-4e-05
-3e-05
0.0002
0.0002
-3e-05
-3e-05
-3e-05
0.0001
0.0001
-3e-05
-2e-05
0.0001
0.0001
-2e-05
-3e-05
0.0001
0.0001
-3e-05
-3e-05
0.0001
0.0001
-3e-05
-4e-05
0.0001
0.0001
-4e-05
-4e-05
0.0001
0.0001
-4e-05
-5e-05
9e-05
9e-05
-5e-05
-7e-05
8e-05
8e-05
-7e-05
-8e-05
8e-05
8e-05
-8e-05
-9e-05
8e-05
8e-05
8e-05
-9e-05
-0.0001
8e-05
8e-05
-0.0001
-0.0001
8e-05
9e-05
-0.0001
-0.0001
9e-05
9e-05
-0.0001
-0.0001
0.0001
0.0001
-0.0001
-0.0001
0.0001
0.0001
-0.0001
-0.0001
0.0001
0.0001
-0.0001
-9e-05
0.0001
0.0001
-9e-05
-8e-05
0.0001
0.0001
-8e-05
-7e-05
0.0002
0.0002
-7e-05
-5e-05
0.0002
0.0002
-5e-05
-4e-05
0.0002
0.0002
-4e-05
-2e-05
0.0002
0.0002
-3e-05
-1e-05
0.0002
0.0002
-1e-05
1e-06
0.0003
0.0003
7e-07
1e-05
0.0003
0.0003
1e-05
2e-05
3e-05
0.0003
0.0003
2e-05
3e-05
0.0004
0.0004
3e-05
3e-05
0.0004
0.0004
3e-05
4e-05
0.0004
0.0004
4e-05
4e-05
0.0004
0.0004
4e-05
4e-05
0.0004
0.0005
4e-05
4e-05
0.0005
0.0005
4e-05
4e-05
0.0005
0.0005
5e-05
4e-05
0.0005
0.0005
5e-05
4e-05
0.0005
0.0005
5e-05
4e-05
0.0005
0.0005
0.0005
5e-05
4e-05
0.0005
0.0005
5e-05
4e-05
0.0005
0.0005
5e-05
3e-05
0.0005
0.0005
5e-05
3e-05
0.0005
0.0004
4e-05
3e-05
0.0004
0.0004
4e-05
2e-05
0.0004
0.0004
4e-05
2e-05
0.0004
0.0004
4e-05
2e-05
0.0004
0.0003
4e-05
2e-05
0.0003
0.0003
4e-05
2e-05
0.0003
0.0003
3e-05
2e-05
0.0003
0.0003
4e-05
2e-05
0.0002
0.0002
4e-05
3e-05
0.0002
0.0002
4e-05
3e-05
0.0002
0.0002
4e-05
4e-05
4e-05
0.0002
0.0002
4e-05
4e-05
0.0002
0.0002
5e-05
5e-05
0.0002
0.0001
5e-05
6e-05
0.0001
0.0001
5e-05
6e-05
0.0001
0.0001
6e-05
6e-05
0.0001
0.0001
6e-05
7e-05
0.0001
0.0001
6e-05
7e-05
0.0001
0.0001
6e-05
7e-05
0.0001
0.0001
6e-05
8e-05
0.0001
0.0001
6e-05
8e-05
0.0001
0.0001
6e-05
8e-05
0.0001
0.0001
6e-05
7e-05
0.0001
0.0001
6e-05
7e-05
0.0001
0.0001
5e-05
7e-05
0.0001
0.0001
5e-05
7e-05
0.0001
0.0001
5e-05
6e-05
0.0001
0.0001
5e-05
6e-05
0.0002
0.0002
5e-05
6e-05
0.0002
0.0002
5e-05
5e-05
0.0002
0.0002
5e-05
5e-05
0.0002
0.0002
5e-05
5e-05
0.0002
0.0002
5e-05
5e-05
0.0002
0.0002
5e-05
5e-05
0.0002
0.0002
5e-05
5e-05
0.0002
0.0002
5e-05
5e-05
0.0002
0.0002
5e-05
6e-05
0.0002
0.0002
6e-05
6e-05
0.0002
0.0002
6e-05
6e-05
0.0001
0.0001
7e-05
6e-05
0.0001
0.0001
8e-05
7e-05
0.0001
9e-05
0.0001
0.0001
8e-05
0.0001
9e-05
SCALARS strain_1 float
LOOKUP_TABLE default
-0.000119
-0.000217
-0.000193
-0.000061
-0.000153
-0.000093
-0.000103
-0.000132
-0.000196
-0.000303
-0.000326
-0.000349
-0.000396
-0.000368
-0.000568
-0.000390
-0.000783
-0.000372
-0.001013
-0.000309
-0.001290
-0.000153
-0.001731
-0.000070
-0.002208
0.000181
-0.002715
0.000268
-0.003209
0.000600
-0.003873
0.001025
-0.004685
0.001482
-0.005499
0.002046
-0.006364
0.002533
-0.007232
0.003205
-0.008356
-0.009436
0.003970
-0.010492
0.004842
-0.011829
0.005740
-0.013221
0.006812
-0.014497
0.007979
-0.016065
0.009227
-0.017621
0.010520
-0.019199
0.011899
-0.020810
0.013357
-0.022711
0.015016
-0.024340
0.016741
0.018552
-0.026235
0.020455
-0.028273
0.022403
-0.030103
0.024429
-0.032103
0.026770
-0.034187
0.028841
-0.036239
0.031096
-0.038412
0.033474
-0.040551
0.036011
-0.042785
0.038437
-0.044912
0.040996
-0.047194
0.043689
-0.049370
0.046291
-0.051513
0.048830
-0.053635
0.051507
-0.055884
-0.058079
0.054201
-0.060296
0.056877
-0.062348
0.059471
-0.064471
0.062210
-0.066586
0.064880
-0.068487
0.067400
-0.070547
0.070035
-0.072454
0.072646
-0.074279
0.075066
-0.076012
0.077554
-0.077713
0.079752
0.082048
-0.079403
0.084336
-0.080982
0.086451
-0.082442
0.088385
-0.083788
0.090172
-0.085121
0.092165
-0.086211
0.093735
-0.087370
0.095338
-0.088392
0.096724
-0.089294
0.098021
-0.090054
0.099159
-0.090826
0.100262
-0.091453
0.101048
-0.091837
0.101749
-0.092294
0.102483
-0.092474
0.102909
-0.092536
-0.092647
0.103187
-0.092607
0.103295
-0.092291
0.103254
-0.092074
0.103263
-0.091603
0.102946
-0.091163
0.102546
-0.090392
0.101969
-0.089628
0.101260
-0.088837
0.100432
-0.087887
0.099588
0.098465
-0.086855
0.097284
-0.085737
0.095962
-0.084479
0.094422
-0.083147
0.093117
-0.081905
0.091376
-0.080487
0.089797
-0.078733
0.087971
-0.077284
0.086007
-0.075526
0.084120
-0.073917
0.082115
-0.072074
0.079990
-0.070183
0.077906
-0.068300
0.075684
-0.066493
0.073557
-0.064518
0.071200
-0.062540
-0.060513
0.068839
-0.058506
0.066622
-0.056484
0.064260
-0.054394
0.062025
-0.052446
0.059596
-0.050330
0.057340
-0.048432
0.055003
-0.046296
0.052727
-0.044332
0.050440
-0.042394
0.047995
-0.040350
0.045771
-0.038307
0.043538
-0.036439
0.041382
-0.034491
0.039243
-0.032673
0.037122
-0.030947
0.035127
-0.029175
0.033092
-0.027411
0.031139
-0.025712
0.029281
-0.024106
0.027406
-0.022410
0.025619
-0.020979
0.023833
-0.019545
0.022135
-0.018026
0.020612
-0.016632
0.018990
-0.015375
0.017627
-0.014144
0.016143
-0.012982
0.014777
-0.011884
0.013530
-0.010800
0.012288
-0.009769
0.011237
-0.008826
0.010123
-0.007807
0.009055
-0.006989
0.008188
-0.006165
0.007224
-0.005429
0.006425
-0.004831
0.005756
-0.004177
0.005044
-0.003669
0.004374
-0.003154
0.003777
-0.002628
0.003224
-0.002177
0.002641
-0.001815
0.002306
-0.001505
0.001898
-0.001256
0.001467
-0.000981
0.001174
-0.000828
0.000954
-0.000570
0.000605
-0.000384
0.000536
-0.000254
0.000401
-0.000216
0.000359
-0.000257
0.000263
-0.000026
0.000052
-0.000152
-0.000060
-0.000041
-0.000007
0.000005
0.000023
-0.000001
-0.000024
-0.000020
-0.000107
0.000008
-0.000075
-0.000044
-0.000122
-0.000071
-0.000160
-0.000054
-0.000228
-0.000185
-0.000304
-0.000172
-0.000355
-0.000432
-0.000361
-0.000640
-0.000361
-0.000778
-0.000331
-0.001078
-0.000318
-0.001394
-0.000105
-0.001808
-0.000113
-0.002205
0.000057
-0.002741
0.000385
-0.003339
0.000582
-0.004039
0.000999
-0.004709
0.001466
-0.005563
0.001938
-0.006282
0.002511
-0.007349
0.003223
-0.008311
0.003963
-0.009447
0.004774
-0.010535
0.005623
-0.011829
0.006675
-0.013230
0.007801
-0.014515
0.009001
-0.015939
0.010286
-0.017620
0.011689
-0.019102
0.013096
-0.020708
0.014736
-0.022390
0.016300
-0.024206
0.018108
-0.026051
0.019876
-0.027891
0.021792
-0.029671
0.023841
-0.031662
0.025896
-0.033637
0.027965
-0.035630
0.030203
-0.037692
0.032431
-0.039728
0.034671
-0.041666
0.036972
-0.043744
0.039443
-0.045859
0.041818
-0.047884
0.044318
-0.049857
0.046733
-0.051878
0.049137
-0.053999
0.051750
-0.055941
0.054146
-0.057952
0.056483
-0.059796
0.058850
-0.061621
0.061263
-0.063507
0.063704
-0.065312
0.065961
-0.067073
0.068177
-0.068622
0.070282
-0.070106
0.072439
-0.071655
0.074426
-0.073130
0.076279
-0.074449
0.078187
-0.075704
0.079855
-0.076924
0.081559
-0.078015
0.083204
-0.078837
0.084430
-0.079925
0.085809
-0.080642
0.086972
-0.081360
0.087862
-0.081965
0.088755
-0.082405
0.089604
-0.082759
0.090279
-0.083036
0.090775
-0.083047
0.091158
-0.083206
0.091305
-0.083134
0.091397
-0.082926
0.091328
-0.082524
0.091114
-0.082301
0.090843
-0.081707
0.090287
-0.081171
0.089870
-0.080405
0.089028
-0.079589
0.088244
-0.078811
0.087290
-0.077713
0.086264
-0.076719
0.085037
-0.075583
0.083776
-0.074310
0.082340
-0.072967
0.080904
-0.071690
0.079305
-0.070077
0.077631
-0.068543
0.075961
-0.067065
0.074161
-0.065399
0.072342
-0.063788
0.070441
-0.062038
0.068315
-0.060262
0.066337
-0.058468
0.064309
-0.056635
0.062299
-0.054764
0.060147
-0.052877
0.057951
-0.050973
0.055732
-0.049080
0.053699
-0.047183
0.051614
-0.045295
0.049413
-0.043444
0.047423
-0.041469
0.045194
-0.039521
0.043045
-0.037714
0.040981
-0.035967
0.038940
-0.034157
0.036774
-0.032377
0.034930
-0.030457
0.032922
-0.028872
0.030982
-0.027190
0.029246
-0.025481
0.027356
-0.023880
0.025568
-0.022353
0.023923
-0.020926
0.022300
-0.019506
0.020727
-0.018041
0.019185
-0.016664
0.017752
-0.015262
0.016296
-0.014173
0.014985
-0.012905
0.013662
-0.011758
0.012521
-0.010625
0.011312
-0.009683
0.010266
-0.008672
0.009287
-0.007909
0.008271
-0.007031
0.007405
-0.006295
0.006554
-0.005506
0.005784
-0.004846
0.005002
-0.004241
0.004404
-0.003727
0.003838
-0.003185
0.003270
-0.002588
0.002714
-0.002274
0.002315
-0.001826
0.002044
-0.001504
0.001540
-0.001297
0.001164
-0.000983
0.001020
-0.000765
0.000756
-0.000661
0.000526
-0.000439
0.000364
-0.000239
0.000343
-0.000259
0.000117
-0.000087
0.000143
-0.000129
-0.000026
0.000024
0.000068
0.000004
-0.000061
0.000010
-0.000044
-0.000021
-0.000083
-0.000050
0.000007
-0.000002
0.000021
-0.000146
-0.000111
-0.000170
-0.000141
-0.000100
-0.000156
-0.000104
-0.000245
-0.000146
-0.000190
-0.000210
-0.000218
-0.000134
-0.000226
-0.000332
-0.000323
-0.000267
-0.000136
-0.000377
-0.000355
-0.000372
-0.000290
-0.000484
-0.000379
-0.000389
-0.000533
-0.000721
-0.000418
-0.000275
-0.000665
-0.000791
-0.000328
-0.000299
-0.000967
-0.001151
-0.000331
-0.000314
-0.001265
-0.001420
-0.000288
-0.000223
-0.001745
-0.001977
-0.000171
-0.000039
-0.002120
-0.002355
0.000088
0.000272
-0.002519
-0.002805
0.000233
0.000555
-0.003089
-0.003460
0.000559
0.000755
-0.003691
-0.004219
0.000818
0.001166
-0.004472
-0.004968
0.001324
0.001623
-0.005185
-0.005756
0.001823
0.002196
-0.006014
-0.006723
0.002333
0.002748
-0.007037
-0.007653
0.002993
0.003429
-0.008142
-0.008837
-0.009670
0.003715
0.004286
-0.009320
-0.010595
0.004521
0.005099
-0.010418
-0.011811
0.005478
0.006075
-0.011713
-0.013167
0.006297
0.007178
-0.013126
-0.014489
0.007506
0.008220
-0.014591
-0.016097
0.008614
0.009515
-0.015952
-0.017459
0.009923
0.010908
-0.017669
-0.019039
0.011283
0.012406
-0.019219
-0.020841
0.012644
0.013900
-0.020736
-0.022548
0.014267
0.015526
-0.022535
-0.024398
0.017387
0.016094
0.018895
-0.024301
-0.026213
0.017991
0.020246
-0.026005
-0.028110
0.019921
0.022132
-0.027930
-0.029971
0.021989
0.024179
-0.029797
-0.032030
0.023993
0.026412
-0.031882
-0.034026
0.026084
0.028485
-0.033784
-0.036027
0.028192
0.030863
-0.035917
-0.038127
0.030488
0.033210
-0.037892
-0.040245
0.032732
0.035540
-0.039943
-0.042341
0.035090
0.037927
-0.042067
-0.044560
0.037503
0.040560
-0.044163
-0.046676
0.039843
0.042930
-0.046425
-0.048822
0.042437
0.045525
-0.048396
-0.051066
0.044918
0.048122
-0.050527
-0.053301
0.047326
0.050617
-0.052653
-0.055441
-0.057359
0.050020
0.053345
-0.055283
-0.058699
0.052470
0.055869
-0.057095
-0.060679
0.055065
0.058546
-0.059262
-0.062873
0.057442
0.061119
-0.061254
-0.064759
0.059964
0.063635
-0.063168
-0.066775
0.062440
0.066164
-0.065109
-0.068660
0.064876
0.068685
-0.067004
-0.070494
0.067355
0.071124
-0.068694
-0.072373
0.069599
0.073510
-0.070383
-0.073927
0.071890
0.075946
-0.072100
-0.075695
0.073998
0.077971
0.080391
-0.073616
-0.077269
0.077039
0.081627
-0.075264
-0.078718
0.078621
0.083733
-0.076593
-0.080182
0.080675
0.085420
-0.077943
-0.081499
0.082556
0.087247
-0.079137
-0.082725
0.084317
0.088964
-0.080310
-0.083771
0.085994
0.090542
-0.081366
-0.084783
0.087519
0.092000
-0.082311
-0.085677
0.088921
0.093311
-0.083250
-0.086601
0.090097
0.094593
-0.084035
-0.087371
0.091118
0.095617
-0.084585
-0.087889
0.092243
0.096514
-0.085134
-0.088382
0.092919
0.097343
-0.085566
-0.088882
0.093653
0.098029
-0.085898
-0.089187
0.094333
0.098467
-0.086120
-0.089448
0.094750
0.098898
-0.086238
-0.089503
-0.089913
0.095067
0.099034
-0.086544
-0.089412
0.095207
0.099158
-0.086113
-0.089178
0.095302
0.099119
-0.085707
-0.088648
0.095189
0.098937
-0.085379
-0.088307
0.094802
0.098595
-0.084927
-0.087729
0.094404
0.098085
-0.084340
-0.087016
0.093854
0.097575
-0.083680
-0.086279
0.093236
0.096807
-0.082923
-0.085381
0.092343
0.095973
-0.082070
-0.084439
0.091234
0.094916
0.094671
-0.081058
-0.083408
0.090914
0.093074
-0.079981
-0.082134
0.088903
0.091841
-0.078803
-0.080987
0.087744
0.090379
-0.077563
-0.079753
0.086286
0.088839
-0.076181
-0.078310
0.084792
0.087172
-0.074925
-0.076848
0.083273
0.085526
-0.073500
-0.075275
0.081549
0.083807
-0.071881
-0.073799
0.079757
0.081896
-0.070248
-0.072137
0.077901
0.080030
-0.068689
-0.070446
0.076055
0.077973
-0.066989
-0.068650
0.074145
0.075994
-0.065297
-0.066841
0.072132
0.073994
-0.063424
-0.064842
0.070097
0.071745
-0.061573
-0.063098
0.068000
0.069540
-0.059716
-0.061059
0.065858
0.067384
-0.057604
-0.059166
-0.058127
0.063699
0.065183
-0.056057
-0.056045
0.061509
0.062899
-0.053517
-0.054035
0.059349
0.060657
-0.051472
-0.051949
0.057025
0.058284
-0.049554
-0.050000
0.054952
0.056067
-0.047648
-0.048005
0.052703
0.053843
-0.045706
-0.045903
0.050455
0.051595
-0.043659
-0.044128
0.048274
0.049267
-0.041818
-0.042033
0.046022
0.046964
-0.039929
-0.040134
0.043906
0.044811
-0.037992
-0.038134
0.041501
0.042738
0.041165
-0.036005
-0.036297
0.039529
0.039230
-0.034231
-0.034366
0.037067
0.037157
-0.032431
-0.032630
0.034974
0.035029
-0.030615
-0.030722
0.033076
0.032993
-0.028931
-0.028982
0.031125
0.031173
-0.027141
-0.027234
0.029234
0.029213
-0.025639
-0.025610
0.027396
0.027487
-0.023907
-0.024071
0.025707
0.025574
-0.022376
-0.022452
0.023925
0.023903
-0.020873
-0.020879
0.022310
0.022299
-0.019474
-0.019501
0.020615
0.020566
-0.018057
-0.018024
0.019129
0.019036
-0.016680
-0.016704
0.017781
0.017588
-0.015218
-0.015303
0.016283
0.016209
-0.014026
-0.014044
-0.013209
0.014921
0.014873
-0.012742
-0.012220
0.013600
0.013645
-0.011417
-0.011203
0.012436
0.012404
-0.010379
-0.009926
0.011312
0.011231
-0.009364
-0.009013
0.010158
0.010196
-0.008416
-0.008160
0.009020
0.009133
-0.007653
-0.007296
0.008265
0.008241
-0.006758
-0.006470
0.007415
0.007287
-0.006019
-0.005725
0.006490
0.006474
-0.005340
-0.005121
0.005663
0.005665
-0.004717
-0.004415
0.004980
0.005043
-0.004073
-0.003826
0.004307
0.004486
-0.003448
-0.003357
0.003658
0.003991
-0.002940
-0.002810
0.003135
0.003394
-0.002508
-0.002393
0.002571
0.002867
-0.002091
-0.001989
0.002067
0.002386
-0.001869
-0.001587
0.001858
0.001951
-0.001408
-0.001281
0.001449
0.001525
-0.001142
-0.001139
0.001176
0.001319
-0.001018
-0.000906
0.000761
0.001049
-0.000738
-0.000652
0.000668
0.000822
-0.000550
-0.000510
0.000434
0.000680
-0.000424
-0.000436
0.000334
0.000427
-0.000305
-0.000182
0.000248
0.000272
-0.000201
-0.000101
0.000110
0.000134
-0.000089
-0.000086
0.000106
0.000154
-0.000058
-0.000074
0.000038
0.000072
-0.000007
-0.000120
-0.000043
-0.000019
0.000006
-0.000080
-0.000079
0.000016
-0.000092
-0.000144
-0.000041
-0.000108
-0.000143
-0.000005
-0.000040
-0.000056
0.000064
-0.000068
-0.000040
-0.000035
-0.000072
SCALARS strain_2 float
LOOKUP_TABLE default
0.000958
0.002366
0.001912
0.001167
0.002450
0.001516
0.002972
0.002285
0.003953
0.004603
0.003429
0.004777
0.005911
0.005165
0.007716
0.005256
0.010127
0.004671
0.013931
0.004030
0.018382
0.002775
0.023502
0.000887
0.029128
-0.000535
0.035182
-0.003913
0.043287
-0.007466
0.052187
-0.012374
0.061120
-0.017823
0.071620
-0.023183
0.082353
-0.029703
0.094555
-0.038394
0.109289
0.122753
-0.047837
0.137524
-0.057523
0.155040
-0.068751
0.171805
-0.081018
0.190365
-0.094406
0.209488
-0.109165
0.229845
-0.126207
0.251855
-0.142389
0.273494
-0.161180
0.296542
-0.180574
0.320847
-0.202196
-0.223246
0.344265
-0.246496
0.370958
-0.271200
0.396170
-0.296346
0.423244
-0.323440
0.450527
-0.350010
0.477934
-0.378708
0.507225
-0.407748
0.535839
-0.438530
0.564239
-0.469573
0.594065
-0.500614
0.622756
-0.532320
0.652786
-0.564802
0.681756
-0.598254
0.710956
-0.631801
0.740022
0.768994
-0.665228
0.797361
-0.698732
0.825118
-0.732473
0.853973
-0.766845
0.880343
-0.799878
0.907247
-0.834325
0.932413
-0.866185
0.957140
-0.899149
0.980623
-0.930597
1.003574
-0.962086
1.026002
-0.992382
-1.021776
1.046444
-1.049496
1.064935
-1.077130
1.084071
-1.103115
1.100809
-1.127714
1.116176
-1.152120
1.130886
-1.172525
1.143674
-1.193920
1.154329
-1.212095
1.163143
-1.229164
1.171350
-1.244838
1.178353
-1.258643
1.183329
-1.269869
1.186751
-1.280580
1.187714
-1.288328
1.187415
-1.293938
1.186377
1.182983
-1.298534
1.177574
-1.301259
1.171144
-1.301168
1.164424
-1.300363
1.154442
-1.296125
1.143002
-1.291676
1.131612
-1.284565
1.117197
-1.274783
1.103166
-1.263968
1.086542
-1.251461
-1.236412
1.068434
-1.220919
1.050717
-1.204088
1.031327
-1.184455
1.010737
-1.164570
0.989695
-1.142858
0.967544
-1.119665
0.944691
-1.095608
0.920711
-1.071301
0.895421
-1.044784
0.871703
-1.018228
0.845558
-0.988385
0.819854
-0.961017
0.794207
-0.931701
0.767734
-0.901559
0.741700
-0.871267
0.714464
0.688417
-0.840558
0.662200
-0.811221
0.635190
-0.779248
0.609010
-0.748263
0.583418
-0.717541
0.557532
-0.686024
0.532007
-0.655641
0.506540
-0.625398
0.482775
-0.594549
0.458099
-0.565665
0.433764
-0.536051
0.411795
-0.507123
0.388221
-0.479625
0.366028
-0.451611
0.345417
-0.425112
0.324641
-0.398559
0.304469
-0.373088
0.285314
-0.348063
0.266292
-0.324331
0.248837
-0.301455
0.230739
-0.280086
0.215481
-0.257591
0.199074
-0.238408
0.184403
-0.218677
0.169096
-0.200930
0.155444
-0.183164
0.142401
-0.166928
0.130263
-0.149875
0.118445
-0.136463
0.107233
-0.122164
0.097456
-0.109805
0.087179
-0.097515
0.078757
-0.085462
0.070481
-0.076022
0.062390
-0.065509
0.054472
-0.057149
0.047836
-0.049387
0.042246
-0.041748
0.035691
-0.035869
0.030883
-0.030061
0.025851
-0.024910
0.021590
-0.019833
0.018052
-0.015250
0.015625
-0.011860
0.011961
-0.009389
0.008899
-0.005864
0.007661
-0.004007
0.005423
-0.002711
0.004032
-0.000872
0.003161
-0.000639
0.000868
0.000867
0.001245
0.001146
0.000161
0.001650
0.000568
0.001731
0.000437
0.001813
0.000584
0.001610
-0.000130
0.000640
0.000209
0.000561
0.000523
0.001141
0.001601
0.002056
0.001594
0.002022
0.002336
0.003100
0.002793
0.003896
0.004288
0.004247
0.005754
0.004659
0.008462
0.005022
0.010575
0.004673
0.014550
0.003634
0.019327
0.002628
0.024776
0.001101
0.030372
-0.001463
0.036848
-0.003313
0.044335
-0.007851
0.052754
-0.012252
0.062380
-0.017229
0.072831
-0.022681
0.084070
-0.030471
0.097016
-0.038904
0.110258
-0.046858
0.124851
-0.056954
0.141205
-0.068129
0.156123
-0.080278
0.173760
-0.092724
0.192092
-0.107977
0.211665
-0.123427
0.231831
-0.139877
0.252626
-0.158808
0.274405
-0.176739
0.297118
-0.197377
0.320111
-0.218419
0.344815
-0.240871
0.369457
-0.264085
0.394444
-0.287649
0.420435
-0.313653
0.445625
-0.339647
0.472636
-0.366442
0.500206
-0.394306
0.526898
-0.422415
0.554674
-0.451880
0.582269
-0.481754
0.609557
-0.511635
0.636875
-0.541618
0.664776
-0.573558
0.691647
-0.604002
0.717608
-0.634213
0.744281
-0.665520
0.770236
-0.696658
0.796001
-0.726696
0.819595
-0.756970
0.843930
-0.786258
0.866237
-0.815147
0.888782
-0.843781
0.910289
-0.872194
0.930611
-0.899299
0.949434
-0.924906
0.967174
-0.949327
0.983782
-0.972139
0.999457
-0.996077
1.013165
-1.017234
1.026173
-1.037425
1.036999
-1.055268
1.046476
-1.072260
1.054606
-1.087125
1.061589
-1.100950
1.067284
-1.112470
1.070472
-1.123156
1.072136
-1.130329
1.071998
-1.137482
1.070936
-1.142327
1.068417
-1.144643
1.065387
-1.146526
1.059267
-1.146155
1.052284
-1.142475
1.043939
-1.138656
1.033810
-1.132911
1.022152
-1.123631
1.010418
-1.115116
0.996090
-1.103818
0.980938
-1.091216
0.965043
-1.076278
0.947847
-1.061479
0.929044
-1.044741
0.910172
-1.024890
0.890468
-1.004240
0.869158
-0.983642
0.847510
-0.962078
0.825102
-0.938756
0.802321
-0.914399
0.778482
-0.889168
0.754982
-0.863846
0.731044
-0.836483
0.707469
-0.810587
0.681746
-0.782610
0.657141
-0.755469
0.632594
-0.727193
0.608219
-0.699680
0.583346
-0.670084
0.558485
-0.642623
0.534978
-0.614173
0.510372
-0.585655
0.486116
-0.557597
0.462724
-0.529357
0.439590
-0.502478
0.416459
-0.475337
0.394689
-0.448980
0.372447
-0.423164
0.351837
-0.397385
0.330983
-0.372783
0.311128
-0.349127
0.291630
-0.326199
0.273257
-0.303479
0.255187
-0.281730
0.238140
-0.260029
0.220187
-0.240183
0.204284
-0.221438
0.188596
-0.202828
0.173991
-0.185157
0.159956
-0.168315
0.146699
-0.152512
0.134473
-0.138072
0.122541
-0.123995
0.111688
-0.111071
0.100097
-0.099038
0.090313
-0.088264
0.081180
-0.077043
0.071520
-0.066725
0.063870
-0.058570
0.056578
-0.050082
0.050151
-0.042483
0.043416
-0.036216
0.038138
-0.029244
0.032050
-0.024319
0.027141
-0.019280
0.022335
-0.015599
0.019301
-0.011922
0.014972
-0.009171
0.012299
-0.005928
0.010558
-0.003510
0.007735
-0.002093
0.005869
-0.000464
0.003735
0.000869
0.003405
0.000939
0.001736
0.002251
0.001380
0.002197
0.001300
0.002627
0.000186
0.002225
0.000694
0.001946
0.000403
0.002093
0.001026
0.000501
0.000112
0.000656
0.000708
0.001485
0.002038
0.001068
0.001362
0.002520
0.001178
0.000941
0.002282
0.002396
0.001671
0.001966
0.002857
0.003242
0.002168
0.003057
0.003239
0.004169
0.004586
0.003353
0.004980
0.004110
0.004586
0.005340
0.006004
0.004515
0.004242
0.007365
0.008205
0.004533
0.004561
0.009906
0.010617
0.004696
0.003765
0.012858
0.015781
0.003812
0.003349
0.017667
0.020239
0.003003
0.002187
0.022254
0.025441
0.001576
0.000763
0.027521
0.031561
-0.000045
-0.002685
0.033641
0.038581
-0.003265
-0.004966
0.041510
0.046353
-0.005019
-0.009049
0.049443
0.055622
-0.010008
-0.013395
0.058434
0.065121
-0.015280
-0.018541
0.069701
0.075498
-0.020503
-0.025709
0.080805
0.087820
-0.027659
-0.033086
0.092462
0.100637
-0.035026
-0.041059
0.106460
0.115120
0.126761
-0.043639
-0.050572
0.122008
0.138161
-0.053553
-0.060881
0.137410
0.154590
-0.064424
-0.072040
0.155046
0.172277
-0.075738
-0.085376
0.172473
0.190489
-0.088906
-0.098727
0.192135
0.209707
-0.102756
-0.114249
0.210565
0.230484
-0.118574
-0.130694
0.230736
0.251777
-0.135168
-0.148443
0.252630
0.273609
-0.153028
-0.165984
0.274499
0.296565
-0.172040
-0.186145
0.296704
0.320699
-0.208836
-0.192695
-0.227735
0.319345
0.344817
-0.216983
-0.243782
0.344665
0.370514
-0.240042
-0.267209
0.369673
0.395443
-0.265170
-0.292719
0.394905
0.422378
-0.291039
-0.318664
0.421588
0.449715
-0.315497
-0.346105
0.447643
0.476857
-0.342579
-0.374930
0.474222
0.504660
-0.370488
-0.403549
0.502908
0.532982
-0.399134
-0.432210
0.530121
0.561346
-0.428049
-0.462901
0.558299
0.590078
-0.457949
-0.494288
0.586000
0.619534
-0.487103
-0.525147
0.614754
0.647739
-0.518315
-0.557407
0.642427
0.676676
-0.549587
-0.589685
0.671215
0.706330
-0.580905
-0.622035
0.700080
0.735852
0.760773
-0.612175
-0.654189
0.734088
0.777170
-0.644071
-0.687655
0.758715
0.805691
-0.676833
-0.720370
0.787156
0.832775
-0.708022
-0.753090
0.814031
0.859695
-0.739660
-0.786212
0.838656
0.884814
-0.771598
-0.818026
0.864557
0.909595
-0.802619
-0.849603
0.888335
0.934831
-0.832393
-0.880652
0.912098
0.957143
-0.862474
-0.911861
0.932882
0.978226
-0.891759
-0.942898
0.954520
0.999991
-0.919548
-0.969305
-1.001612
0.974575
1.019455
-0.957665
-1.015729
0.993216
1.038202
-0.978018
-1.043106
1.011147
1.054955
-1.006910
-1.066375
1.027165
1.071378
-1.029430
-1.088695
1.041326
1.086175
-1.052398
-1.111592
1.055778
1.098476
-1.072775
-1.132886
1.067248
1.110803
-1.093100
-1.152303
1.078726
1.120816
-1.112263
-1.170251
1.087741
1.129456
-1.127513
-1.185811
1.095089
1.136088
-1.142145
-1.199378
1.102083
1.141462
-1.155431
-1.212571
1.106346
1.146469
-1.166043
-1.222899
1.109285
1.147710
-1.175901
-1.231772
1.110311
1.148388
-1.184248
-1.238495
1.110077
1.148953
-1.190145
-1.243994
1.107453
1.146719
1.148179
-1.193135
-1.246240
1.106734
1.138626
-1.195517
-1.246858
1.098729
1.132077
-1.196602
-1.247199
1.091381
1.122693
-1.194304
-1.244840
1.082293
1.112560
-1.190311
-1.240162
1.073722
1.103127
-1.186287
-1.234009
1.062692
1.089355
-1.178940
-1.225280
1.049593
1.076096
-1.168519
-1.214836
1.035425
1.061500
-1.157296
-1.204307
1.020576
1.044409
-1.144079
-1.191882
-1.187644
1.004426
1.027165
-1.137418
-1.167100
0.986378
1.009065
-1.111511
-1.149951
0.968202
0.990462
-1.096030
-1.129911
0.949047
0.968910
-1.076339
-1.109297
0.929810
0.948073
-1.057172
-1.088577
0.907170
0.926411
-1.034761
-1.065057
0.885399
0.904026
-1.011776
-1.040994
0.864152
0.880171
-0.988507
-1.015607
0.840998
0.855873
-0.965203
-0.989806
0.816778
0.831341
-0.938800
-0.963612
0.792531
0.806654
-0.912584
-0.937244
0.767480
0.781708
-0.885995
-0.908570
0.743179
0.755874
-0.858753
-0.879990
0.717204
0.729539
-0.830515
-0.850479
0.691731
0.703134
-0.803259
-0.821288
0.664896
0.677040
0.660583
-0.773796
-0.791641
0.641285
0.635730
-0.743886
-0.761479
0.609939
0.609921
-0.714889
-0.731117
0.583701
0.583761
-0.685393
-0.701556
0.558431
0.558245
-0.656542
-0.670770
0.533695
0.532504
-0.627520
-0.641697
0.509094
0.508731
-0.598869
-0.612052
0.484573
0.484053
-0.569744
-0.581648
0.462003
0.459685
-0.541731
-0.552679
0.437687
0.435979
-0.512229
-0.523820
0.415269
0.413659
-0.482348
-0.495505
-0.476381
0.392107
0.390569
-0.456533
-0.451651
0.370240
0.368363
-0.425564
-0.424786
0.349764
0.347364
-0.398819
-0.398793
0.328965
0.327357
-0.373876
-0.372744
0.308998
0.306304
-0.350184
-0.348548
0.289739
0.286981
-0.325787
-0.325602
0.270683
0.268827
-0.302959
-0.303553
0.252668
0.250475
-0.280849
-0.280585
0.235028
0.233732
-0.259723
-0.258690
0.218844
0.217408
-0.239620
-0.238944
0.202032
0.200465
-0.220884
-0.219737
0.186760
0.185785
-0.202301
-0.201596
0.172399
0.171389
-0.184290
-0.183456
0.157923
0.156862
-0.168665
-0.166257
0.144399
0.144029
0.133899
-0.152439
-0.151722
0.131737
0.124159
-0.137971
-0.136418
0.118143
0.113181
-0.123266
-0.122973
0.106713
0.101879
-0.110441
-0.110148
0.095641
0.091592
-0.098963
-0.097716
0.086455
0.082437
-0.087051
-0.086871
0.076617
0.073663
-0.075998
-0.075896
0.069168
0.065467
-0.066548
-0.066517
0.060670
0.058176
-0.057294
-0.057053
0.054446
0.050548
-0.049573
-0.048954
0.047099
0.044566
-0.041478
-0.042176
0.040870
0.039199
-0.035033
-0.036053
0.034104
0.033288
-0.028571
-0.031129
0.029375
0.027716
-0.023762
-0.026141
0.025685
0.023809
-0.017975
-0.021497
0.021493
0.020534
-0.014392
-0.016813
0.017112
0.015882
-0.009925
-0.013026
0.013703
0.012576
-0.008777
-0.009627
0.010767
0.009986
-0.004393
-0.007170
0.008759
0.008364
-0.003217
-0.003652
0.006624
0.006171
-0.001989
-0.003277
0.005693
0.004503
-0.000946
-0.001877
0.003910
0.003038
0.001072
0.000105
0.002463
0.001640
0.001142
0.000809
0.000862
0.000677
0.002328
0.001359
0.000811
0.000538
0.001415
0.001047
0.001016
0.000188
0.001747
0.001923
-0.000275
-0.000458
0.001966
0.002397
-0.000048
0.000119
0.001778
0.001749
-0.000129
0.000524
0.001748
0.001849
-0.000180
0.000728
0.001728
0.001247
0.001192
0.001000
0.000567
0.001486
0.000544
SCALARS strain_3 float
LOOKUP_TABLE default
-0.000760
-0.002232
-0.001272
0.000119
-0.001816
-0.001541
-0.003321
-0.003424
-0.004988
-0.005950
-0.005368
-0.006535
-0.006081
-0.005634
-0.008792
-0.005576
-0.013834
-0.006163
-0.019160
-0.004051
-0.024381
-0.004309
-0.031762
-0.000678
-0.041432
0.003160
-0.050500
0.007737
-0.061239
0.012136
-0.072550
0.020141
-0.087344
0.026457
-0.101770
0.036394
-0.118643
0.047132
-0.137482
0.059698
-0.156915
-0.177236
0.073005
-0.199571
0.090156
-0.223346
0.106799
-0.247972
0.126114
-0.275446
0.143332
-0.302423
0.168182
-0.333135
0.192263
-0.363559
0.218803
-0.393795
0.247026
-0.429114
0.275409
-0.463524
0.306084
0.340059
-0.500055
0.374437
-0.535408
0.411619
-0.571299
0.449210
-0.610166
0.487721
-0.648374
0.529186
-0.687674
0.570956
-0.728631
0.613728
-0.767830
0.659103
-0.807979
0.704364
-0.848899
0.750971
-0.890782
0.798849
-0.930198
0.847403
-0.971431
0.895351
-1.011878
0.944806
-1.052159
-1.090649
0.993156
-1.129861
1.043173
-1.167908
1.092935
-1.204332
1.140903
-1.240085
1.189042
-1.274306
1.237584
-1.308419
1.284554
-1.339795
1.331248
-1.370681
1.376536
-1.399734
1.421914
-1.427989
1.464136
1.506018
-1.453614
1.545091
-1.476348
1.582571
-1.498740
1.619989
-1.518492
1.653472
-1.536831
1.685084
-1.553866
1.714679
-1.567799
1.741029
-1.578480
1.768056
-1.587864
1.788957
-1.594768
1.808806
-1.600343
1.823803
-1.601351
1.841003
-1.603252
1.852770
-1.601698
1.861384
-1.597321
1.866071
-1.589671
-1.582018
1.868592
-1.571571
1.869654
-1.557584
1.867172
-1.543938
1.861745
-1.527469
1.852829
-1.508719
1.843214
-1.488099
1.829811
-1.465736
1.812443
-1.440193
1.794546
-1.417128
1.773810
1.751053
-1.390572
1.724311
-1.361469
1.696415
-1.331478
1.666948
-1.301454
1.634647
-1.270310
1.601434
-1.237845
1.565441
-1.205470
1.528701
-1.171529
1.489995
-1.135952
1.450433
-1.100395
1.409120
-1.064087
1.368742
-1.030718
1.326206
-0.992959
1.282003
-0.957369
1.238113
-0.920895
1.194362
-0.884259
-0.848762
1.151070
-0.814618
1.105722
-0.778821
1.060570
-0.744457
1.015656
-0.711091
0.972836
-0.676080
0.926821
-0.642757
0.883555
-0.611377
0.838981
-0.579486
0.797097
-0.549666
0.755061
-0.518265
0.714521
-0.489423
0.673365
-0.461638
0.635427
-0.433509
0.595975
-0.406755
0.558320
-0.382089
0.522900
-0.357475
0.488637
-0.334672
0.454176
-0.310022
0.420914
-0.287688
0.390187
-0.268302
0.361981
-0.247900
0.332369
-0.227656
0.303570
-0.210647
0.278513
-0.194822
0.254745
-0.178219
0.231892
-0.162556
0.211191
-0.149189
0.188082
-0.135058
0.169172
-0.121141
0.152412
-0.110741
0.135751
-0.098002
0.117710
-0.087785
0.106249
-0.078230
0.092986
-0.068330
0.080616
-0.061347
0.069697
-0.052591
0.059605
-0.045919
0.048742
-0.039423
0.042128
-0.032330
0.033777
-0.029045
0.027810
-0.022904
0.022331
-0.019639
0.017177
-0.016276
0.014137
-0.011506
0.010105
-0.009109
0.006209
-0.006809
0.005496
-0.003689
0.002424
-0.003483
-0.000158
-0.000540
0.000700
-0.000263
-0.000458
0.000576
-0.000920
0.001614
-0.000980
0.001073
-0.001655
0.001141
-0.001596
0.000930
-0.002107
0.002186
-0.001796
0.000001
0.000279
0.000621
0.001627
-0.000845
-0.002745
-0.001394
-0.003111
-0.001785
-0.004722
-0.001859
-0.003994
-0.004142
-0.006647
-0.006458
-0.006598
-0.010582
-0.007417
-0.014619
-0.006031
-0.020219
-0.004547
-0.025983
-0.002366
-0.033295
0.000395
-0.042589
0.002818
-0.052186
0.006094
-0.062486
0.010776
-0.076037
0.018407
-0.088708
0.026924
-0.105287
0.034487
-0.121899
0.048286
-0.139645
0.059702
-0.158355
0.072674
-0.179184
0.087659
-0.202869
0.105224
-0.226594
0.122145
-0.252515
0.141815
-0.278368
0.163307
-0.306075
0.187427
-0.335652
0.213187
-0.365966
0.240620
-0.395217
0.267689
-0.428449
0.298942
-0.461567
0.331318
-0.495691
0.363510
-0.530422
0.399113
-0.565538
0.434073
-0.602275
0.472017
-0.639144
0.511631
-0.676254
0.550887
-0.715621
0.592715
-0.753297
0.633994
-0.792807
0.676636
-0.829315
0.720893
-0.867682
0.763696
-0.905119
0.808434
-0.941742
0.853574
-0.977822
0.898238
-1.014630
0.944218
-1.051329
0.988863
-1.085848
1.033824
-1.118134
1.077166
-1.151134
1.120812
-1.183394
1.163276
-1.211913
1.203352
-1.241629
1.245512
-1.268359
1.285216
-1.294091
1.322352
-1.318871
1.358493
-1.340113
1.391945
-1.359784
1.425459
-1.377368
1.456696
-1.395080
1.486298
-1.408075
1.511914
-1.419717
1.536982
-1.430888
1.559464
-1.437476
1.578375
-1.442389
1.596366
-1.448427
1.610130
-1.448581
1.623267
-1.447325
1.632057
-1.444142
1.640094
-1.439488
1.643989
-1.432234
1.644660
-1.423625
1.643275
-1.411476
1.640347
-1.396950
1.633427
-1.382675
1.624170
-1.366711
1.612077
-1.346253
1.598649
-1.327213
1.581198
-1.304336
1.562966
-1.280866
1.542293
-1.256746
1.517615
-1.230376
1.492594
-1.202021
1.466074
-1.175479
1.437308
-1.145994
1.406399
-1.114504
1.374515
-1.082254
1.338814
-1.050550
1.305558
-1.018809
1.268684
-0.987076
1.232184
-0.953449
1.192652
-0.920013
1.153199
-0.887023
1.114017
-0.853363
1.073218
-0.820582
1.033630
-0.786936
0.992582
-0.753297
0.951952
-0.720430
0.910820
-0.686795
0.869568
-0.653752
0.829949
-0.623743
0.789676
-0.592739
0.748849
-0.561532
0.709665
-0.532594
0.671092
-0.503644
0.632591
-0.475689
0.597059
-0.447370
0.561201
-0.420368
0.526430
-0.394599
0.492038
-0.369957
0.457381
-0.345492
0.425976
-0.322558
0.395362
-0.299963
0.365816
-0.279885
0.337570
-0.259466
0.310746
-0.239096
0.284725
-0.220086
0.259827
-0.203260
0.236903
-0.186176
0.213921
-0.170943
0.193385
-0.155406
0.174382
-0.141390
0.155264
-0.127803
0.138623
-0.116461
0.122697
-0.103582
0.109273
-0.093661
0.094399
-0.081691
0.082034
-0.073638
0.070253
-0.064115
0.060541
-0.056536
0.051518
-0.050122
0.042123
-0.042426
0.035538
-0.036355
0.028181
-0.031279
0.022336
-0.024617
0.018672
-0.021002
0.013144
-0.016056
0.009377
-0.013353
0.005984
-0.009610
0.004206
-0.007269
0.003238
-0.004968
0.001222
-0.003347
0.000418
-0.001731
-0.002344
-0.001097
-0.001874
-0.000707
-0.001838
0.001212
-0.002364
0.000938
-0.002884
0.000486
-0.002229
-0.000014
-0.000701
0.001048
-0.000428
0.001068
-0.000822
-0.001950
-0.001709
-0.002298
-0.001905
-0.003966
-0.001736
-0.000415
-0.000919
-0.002498
-0.003216
-0.001557
-0.001672
-0.002214
-0.004083
-0.002733
-0.003828
-0.003882
-0.004784
-0.004137
-0.002983
-0.005223
-0.005448
-0.006512
-0.006644
-0.007962
-0.006186
-0.004821
-0.009454
-0.009148
-0.006112
-0.005771
-0.013148
-0.014661
-0.006847
-0.005497
-0.018502
-0.021622
-0.004901
-0.003770
-0.022677
-0.026913
-0.003320
-0.002101
-0.030141
-0.034774
-0.000529
0.000638
-0.039070
-0.044156
0.001262
0.003151
-0.048319
-0.055686
0.006391
0.007731
-0.057629
-0.066191
0.011513
0.014117
-0.070930
-0.077461
0.016872
0.023408
-0.082502
-0.093755
0.024245
0.029412
-0.098927
-0.108069
0.032915
0.040350
-0.116418
-0.124244
0.043926
0.050212
-0.133686
-0.145286
0.054078
0.062884
-0.153627
-0.165114
-0.184457
0.067943
0.078174
-0.177046
-0.199411
0.083696
0.094529
-0.199264
-0.224158
0.098418
0.111589
-0.223447
-0.249765
0.117097
0.131234
-0.250904
-0.274457
0.135768
0.153530
-0.276528
-0.304609
0.158820
0.174707
-0.305238
-0.334029
0.181507
0.199182
-0.334222
-0.363042
0.206452
0.225221
-0.365784
-0.396528
0.232172
0.252301
-0.395711
-0.428293
0.262235
0.283777
-0.428587
-0.462314
0.316152
0.293381
0.345484
-0.461500
-0.497020
0.330386
0.368611
-0.497645
-0.533689
0.362713
0.404543
-0.531612
-0.568463
0.401133
0.443531
-0.568316
-0.607110
0.438087
0.482012
-0.604992
-0.645630
0.477021
0.523745
-0.642135
-0.685532
0.517342
0.563698
-0.681742
-0.724651
0.558036
0.607113
-0.719750
-0.763397
0.599237
0.650103
-0.758042
-0.800913
0.642551
0.694605
-0.798090
-0.843331
0.686071
0.740768
-0.836823
-0.883166
0.730832
0.786758
-0.875657
-0.923687
0.776569
0.834310
-0.915905
-0.962684
0.820409
0.881432
-0.953234
-1.002502
0.866914
0.928692
-0.993568
-1.042541
-1.077877
0.914174
0.976218
-1.038474
-1.102035
0.960302
1.024866
-1.071406
-1.137932
1.006601
1.072067
-1.110650
-1.174500
1.052408
1.119568
-1.145703
-1.209657
1.098232
1.166448
-1.180232
-1.242305
1.144388
1.212227
-1.212965
-1.275413
1.188125
1.259233
-1.243395
-1.307293
1.230342
1.302728
-1.273657
-1.336952
1.275690
1.347468
-1.300999
-1.364508
1.315633
1.390476
-1.328839
-1.389933
1.353657
1.428321
1.473395
-1.352738
-1.414422
1.408748
1.492789
-1.376880
-1.439153
1.435890
1.530814
-1.397870
-1.458162
1.475533
1.563881
-1.418591
-1.476850
1.508734
1.594957
-1.435845
-1.493468
1.539900
1.625941
-1.450198
-1.509165
1.568954
1.654777
-1.464138
-1.521782
1.595089
1.679025
-1.474543
-1.529860
1.619121
1.704415
-1.483688
-1.539462
1.639137
1.723453
-1.490432
-1.543896
1.657944
1.740358
-1.496437
-1.549099
1.675076
1.756106
-1.498765
-1.549519
1.688343
1.769005
-1.498555
-1.548281
1.701179
1.779262
-1.496044
-1.547601
1.709256
1.784981
-1.491973
-1.542067
1.713830
1.790722
-1.483629
-1.533709
-1.534838
1.715118
1.793197
-1.480705
-1.519433
1.716787
1.790932
-1.464243
-1.504751
1.715752
1.787317
-1.450029
-1.490165
1.708890
1.780120
-1.435022
-1.471505
1.700517
1.771228
-1.419640
-1.453733
1.691517
1.758356
-1.399351
-1.432017
1.677726
1.743094
-1.379752
-1.410578
1.660123
1.726890
-1.358576
-1.387630
1.643603
1.707074
-1.334543
-1.362855
1.617502
1.685566
1.679260
-1.308144
-1.334554
1.606912
1.645959
-1.281677
-1.307813
1.563879
1.618969
-1.253635
-1.278074
1.541824
1.587839
-1.225697
-1.247547
1.509288
1.557558
-1.195002
-1.215936
1.481415
1.523202
-1.165069
-1.183340
1.445612
1.487623
-1.133673
-1.151694
1.411193
1.449872
-1.101046
-1.119501
1.376237
1.413438
-1.067697
-1.083562
1.339731
1.373903
-1.034660
-1.049591
1.301971
1.334758
-1.001858
-1.014984
1.262250
1.294556
-0.966605
-0.979451
1.221699
1.252071
-0.931452
-0.944409
1.180916
1.210531
-0.897486
-0.908554
1.141427
1.168122
-0.861925
-0.875000
1.099649
1.124139
-0.825056
-0.839223
-0.815426
1.056878
1.080600
-0.792706
-0.783432
1.014233
1.037178
-0.753635
-0.749806
0.973079
0.993567
-0.717885
-0.714728
0.930592
0.950100
-0.683961
-0.680921
0.888107
0.906402
-0.651102
-0.648161
0.846409
0.863311
-0.620894
-0.615678
0.805488
0.823468
-0.588435
-0.584297
0.765627
0.780955
-0.557678
-0.552981
0.723776
0.738971
-0.527678
-0.522205
0.683669
0.697962
-0.499772
-0.494413
0.641418
0.659519
0.632000
-0.469314
-0.464922
0.606338
0.597784
-0.442248
-0.439556
0.563039
0.560619
-0.415890
-0.411950
0.524756
0.524521
-0.390637
-0.386068
0.490189
0.490378
-0.365808
-0.362656
0.455370
0.454710
-0.341762
-0.337097
0.425123
0.423909
-0.318894
-0.314732
0.394625
0.392819
-0.296223
-0.292703
0.364947
0.362559
-0.274901
-0.272317
0.333881
0.334322
-0.255367
-0.251181
0.307419
0.307033
-0.235362
-0.231914
0.283532
0.280332
-0.217733
-0.214434
0.257592
0.255861
-0.200504
-0.197695
0.235089
0.233389
-0.183013
-0.181452
0.213028
0.210636
-0.166839
-0.165836
-0.153451
0.193417
0.190631
-0.151925
-0.142846
0.172235
0.171523
-0.136395
-0.128857
0.154803
0.154773
-0.122193
-0.115453
0.136775
0.136596
-0.109262
-0.103585
0.120942
0.120861
-0.098073
-0.093207
0.106911
0.106044
-0.088623
-0.082093
0.094630
0.092187
-0.078614
-0.072002
0.081320
0.080370
-0.068393
-0.065243
0.070331
0.069515
-0.061177
-0.057751
0.060027
0.057661
-0.052396
-0.049923
0.049519
0.050287
-0.044757
-0.042290
0.039602
0.043622
-0.039433
-0.037494
0.032692
0.037512
-0.032462
-0.030494
0.027589
0.031200
-0.028444
-0.026404
0.020210
0.024137
-0.022430
-0.019890
0.015747
0.017909
-0.020355
-0.016435
0.012194
0.013548
-0.015834
-0.013186
0.008683
0.009623
-0.012585
-0.011505
0.004901
0.006920
-0.009591
-0.007893
0.003701
0.004299
-0.006887
-0.005936
0.001285
0.003427
-0.003759
-0.003032
-0.000832
0.001656
-0.003677
-0.002087
-0.000071
-0.000404
-0.001053
-0.000746
-0.002897
-0.000398
0.000433
-0.000437
-0.003292
-0.001784
0.001783
0.000025
-0.001334
-0.001581
0.000601
0.000580
-0.002579
-0.003717
0.002113
0.000993
-0.000425
-0.002016
0.000417
0.001258
-0.002168
-0.001355
0.000672
0.000523
-0.001176
-0.001123
0.000356
0.000967
-0.001228
0.000513
-0.000465
0.000209
0.001170
0.000103
0.000191
SCALARS stress_1 float
LOOKUP_TABLE default
4243.321078
-7710.494953
6837.669424
-8418.875083
-2570.900151
1247.938631
-1083.245334
3819.633894
-3748.055460
-4275.695212
2912.210707
4143.454639
-1799.910130
744.664730
1595.960718
1757.610407
-2213.812067
-1298.509900
2853.208404
-5366.060873
121.751495
-1589.731848
6384.634865
-3103.085935
5670.587878
-3310.050929
16801.991306
-1058.626830
13361.209830
5543.258569
13441.101139
8142.098273
27155.973798
-866.853170
23881.827806
-9643.595760
30294.703193
6115.197257
35235.289294
1340.764338
40718.880687
47714.166705
6110.796921
50634.005038
11778.112664
55092.760367
8854.839890
65236.869582
9353.034718
67815.062046
12401.514807
82537.830767
11923.646939
85745.921196
12661.010316
101517.698017
11207.336401
106154.018917
16930.641283
120192.503127
16614.219539
131865.134558
15388.524146
16477.667339
139827.913210
22555.284436
159384.822996
21305.543792
168717.539262
17886.024605
178546.863579
11098.458342
197768.795947
15782.861090
208632.121849
9122.527426
225125.715062
6781.585675
237931.996385
420.091954
261106.148161
8270.863922
276940.210418
5185.268363
286950.239275
1383.361394
301255.417072
-1325.927091
319176.657617
-13745.835549
335436.269474
-11483.321851
352380.801767
364438.182290
-21834.385996
386313.340937
-33472.534979
403211.824733
-32402.514252
407669.745912
-43733.774690
425269.469158
-45226.316294
435471.162824
-53157.589939
444197.135474
-63861.158738
463745.936233
-80353.712024
457313.492895
-78899.137562
475828.735354
-90275.760005
485359.703641
-99540.380923
-110868.775845
488350.453872
-121054.563999
491240.168389
-129369.633151
501829.761000
-139918.672635
500931.287821
-146832.824762
493952.043430
-165634.398096
502903.154049
-175126.534950
494304.026493
-172681.868540
491034.660761
-188508.398865
474572.732199
-196110.831350
479223.042380
-205417.855328
453867.322769
-211829.358564
451337.573365
-225539.777947
429763.525633
-223428.889003
426098.798805
-226244.747853
409604.250567
-231763.130023
388111.993156
371092.519578
-239625.654743
346054.575287
-238896.209778
327478.384753
-243225.937439
307569.511088
-240341.907830
280912.066529
-242468.120953
249150.908764
-241867.663000
225013.348457
-238741.223306
197709.806410
-240550.381071
176735.593288
-230599.825631
150531.622896
-227148.699295
-212316.889829
116473.895236
-206666.834121
90675.340201
-202598.307698
62588.815481
-190426.565109
40686.433311
-181865.113347
13358.574461
-163865.840176
-10962.536596
-157535.887907
-45152.955978
-143969.637311
-76876.459214
-131853.356923
-89255.483193
-115779.046742
-114425.915677
-98672.975303
-131692.446003
-90614.341035
-159743.779592
-75981.468592
-184627.916446
-61238.357972
-197317.489781
-42937.602363
-213767.641908
-23420.075542
-229500.681391
-250679.750543
-9438.482932
-251905.538697
5867.231586
-274113.933619
23289.981817
-274610.554537
30132.950103
-282659.176980
55880.192563
-298612.602518
59303.749224
-306529.155805
78596.549983
-307728.724603
92506.522634
-303883.998248
108692.216300
-301888.539852
123443.939545
-300259.800291
123229.860725
-300949.779563
137664.344520
-296203.928546
145555.503168
-290170.992691
151468.883691
-287620.478993
157693.415983
-280360.387452
162401.027840
-273117.675936
169890.268385
-268823.582905
176995.446183
-255749.178465
185533.475040
-244218.406496
182231.537297
-232307.900217
186237.689072
-221464.841969
186819.970396
-206525.175632
180209.563609
-196720.772884
185568.889511
-186740.339148
182774.821879
-175695.858334
186428.146196
-158481.598979
182544.862462
-155539.981881
180661.772247
-140658.838688
170064.550900
-133180.534081
164713.182331
-114680.955825
152191.666540
-104701.650943
152763.987441
-102315.324858
146615.764262
-83625.961482
137599.854691
-77191.829349
130242.623412
-68767.349260
118164.815876
-61357.154432
110164.925091
-56536.427206
111263.680420
-33301.111463
103527.518753
-43731.078881
83738.804771
-41209.511799
83366.396163
-34634.718782
74898.982264
-37075.461372
74111.857652
-21476.412815
52693.711660
-22525.573111
55656.584318
-18547.687712
44856.475628
-16232.263613
44871.694152
-14743.228607
33635.097580
-12160.582694
36889.050593
-7264.253669
23599.933963
-8547.804642
22852.477054
-11187.924949
20367.497525
-5630.979272
12589.724740
-7429.769181
12465.595588
-4514.619330
8489.474751
-6642.259082
4318.051564
-5371.069209
4745.746827
-5867.414392
2668.560540
-2283.983966
-8745.635620
-523.135944
3053.440534
-1731.736985
-872.131053
614.066606
-4615.899049
-2598.542831
-3692.284254
6431.124040
-1028.356773
-1710.511981
-7241.735837
7333.294558
-95.531579
11444.162888
-819.307112
7041.203142
-7129.807889
10777.978434
-7406.160132
7352.107992
321.271476
13610.758070
-640.258518
13375.491778
1604.560551
20311.110688
1384.546343
17331.923364
-4463.427365
25506.787495
-1841.725258
28874.885422
4120.963332
42266.581827
11491.075293
38770.678281
6108.738947
42951.920236
1484.335067
48743.165381
6491.611205
55826.722282
4911.441138
58761.885513
7539.079414
82426.218188
7467.399809
86866.886560
9667.656870
91693.509857
10259.962834
102346.889650
6374.770677
108286.264399
12347.374975
122069.998786
9948.228706
138066.894381
9953.444106
147777.808874
15804.656491
162473.924605
19154.034217
167710.480033
2823.156482
193517.839842
9344.191640
197028.861718
10734.775009
219197.164892
11249.399596
230794.789395
5932.939178
241275.298336
-1280.113241
260565.168635
3311.116118
281899.638750
7652.374808
295231.510253
-1670.717941
300644.021602
-5038.795347
324761.974368
-12449.420521
339449.480787
-13895.282798
349656.087882
-20168.269942
363206.725549
-19871.508176
373914.940810
-21536.941383
393388.845901
-32725.258896
406506.805505
-40317.967710
417624.987976
-51394.955589
428889.701877
-56607.348757
427313.115563
-64500.654206
449261.593717
-73712.435048
450708.811684
-78428.086042
466234.007925
-90237.987957
466082.857788
-97624.449358
471234.599730
-106988.175668
480255.710671
-109633.856222
474316.627499
-114131.815672
474882.264019
-131651.561013
468826.239463
-132472.980007
463873.411518
-147048.016538
471631.892420
-148313.359939
459256.920629
-155341.715635
443336.552262
-163398.590618
442475.645008
-170698.365660
429639.874215
-172834.435517
419125.352118
-179132.363302
403367.317176
-179454.529785
386851.444737
-179851.147382
364931.354031
-188271.779206
353348.832640
-183814.749908
331002.317454
-176255.129594
309118.229272
-186092.060576
292673.497989
-176865.486736
269712.981294
-181543.295837
248075.172193
-178423.812532
226197.746034
-165524.543814
196328.815052
-169072.631996
170640.435366
-155643.147183
144569.464663
-145113.668573
118964.832840
-145721.759279
104968.215242
-131773.631718
82278.048759
-130603.666660
48588.120975
-109886.188757
26004.051117
-108225.959551
5584.276076
-84926.866804
-16136.598907
-71247.235171
-45820.954603
-63014.206963
-63790.298005
-53303.726060
-82877.334535
-42000.554005
-95954.753530
-33688.578562
-118274.498870
-11522.942041
-135892.458320
4265.974787
-151882.138874
13063.085727
-164829.865184
32710.827670
-172408.326586
43375.677532
-191066.228501
56948.873773
-194469.879494
70268.091741
-208705.660337
81496.569894
-212022.965786
97615.983581
-215187.358953
107632.697482
-224056.346832
111806.879953
-225697.055646
122780.839557
-222357.373160
131598.744648
-225942.806366
142754.959909
-222926.044600
146673.597575
-220719.031744
159056.204671
-219060.894021
166639.711090
-216679.519195
162949.663856
-209551.596601
171562.175205
-200954.689351
176926.046707
-198757.430661
180692.516823
-182902.201302
177838.387122
-179619.253720
176030.896063
-174727.714139
177868.520565
-169285.089552
179972.823740
-157814.506182
176347.845616
-148061.471024
168523.205424
-132200.348759
175967.760853
-126034.971034
157735.876584
-111767.758648
162198.791076
-109554.543249
157651.686672
-100241.689518
154667.421059
-91421.085219
142238.795808
-87946.277376
133436.175601
-78361.971413
131574.798898
-69441.714351
118575.467269
-59273.393956
119775.799944
-50181.755681
105014.963176
-42705.925747
105474.520076
-41282.649609
93857.765222
-33939.053490
82263.007177
-38393.389835
85583.103631
-33839.277875
72574.800036
-24868.589285
65830.897962
-21670.887177
55509.762093
-22590.860886
50162.574770
-20666.875094
45226.193680
-13206.056024
34814.927388
-7511.586018
34961.577466
-11048.154410
27343.707024
-12956.506653
22376.482315
-10467.007430
24757.522570
-7158.782963
9028.390900
-5964.578706
9176.197439
-12305.957769
20746.561418
-2538.030288
7312.228289
-3278.415493
4707.618852
2865.816511
4461.422443
220.244924
-5271.819589
-8395.178599
-860.128026
-2613.267387
-4992.945012
-3283.015526
1733.546611
4326.460550
-887.942743
2130.858586
4759.830231
1268.336515
1220.169456
3623.386674
2651.972416
-7346.405110
1275.439930
-5467.272013
-4336.301147
-3515.786258
2858.508411
-2864.303833
-6149.820519
-2466.749668
2182.555928
1777.643211
-2250.050016
-1655.072162
24.438831
9554.917051
-801.263883
-2694.231834
6529.311318
5308.911267
-4000.103699
-2767.362432
-2334.025040
-275.355155
-2766.236017
-1284.580856
7840.361752
5093.260399
3042.156812
95.884392
10181.032324
9786.957270
2964.602912
1960.710207
15619.675010
9271.867098
2558.359173
-5554.053831
3157.202435
9950.139976
-1278.169182
-1693.459233
18519.210475
7646.160284
-900.219643
-814.251283
19001.603194
19082.139382
1710.387311
467.843775
30116.395456
23010.623292
4074.004608
-5107.039451
28417.111567
24973.928432
8490.208001
4748.747219
33438.147667
28913.472571
2829.875175
7936.093437
36620.914815
36140.199521
1113.782997
8225.099765
41125.398660
43348.844240
42954.359207
9230.861744
2779.982395
51300.014903
58807.498606
4644.422079
5731.979876
64200.645547
56309.268473
-1274.281449
7923.128327
65899.999349
66843.887251
6251.568818
1166.558007
69309.070173
70474.745322
6961.002956
11796.248624
78139.672995
80947.381942
5834.092958
7658.709655
90093.222872
94545.724649
5755.135546
12185.508457
93377.176450
99335.697842
11479.882475
20258.952406
110511.998760
114969.982409
16839.130734
18893.552334
121575.028230
128983.039179
13534.620402
12898.701306
132341.014557
132779.341419
11550.998288
14733.547676
15151.705907
144051.608936
147032.748918
20574.518471
17014.867944
158714.538843
170334.299436
17370.917980
12845.561981
162766.293206
177584.289652
10113.767649
13148.814492
185351.818053
191052.571670
10178.046628
15732.726573
193640.908821
204594.823815
10948.059821
14218.588263
208621.140508
223324.922976
14787.765975
12724.523559
229727.254701
232838.539625
1122.062301
10379.606343
237195.563999
250370.912389
10966.580467
9447.050964
253801.828011
264713.448081
10553.753114
3492.741154
267855.401295
279828.760728
6008.918927
800.637093
284540.123519
296733.377683
-2942.871773
-3754.936395
300474.159050
310293.705140
-3432.200287
-3578.356642
318786.036676
329588.572094
-5040.437431
-16008.043687
337073.159985
341599.206810
-9057.907645
-25190.723623
349952.154347
360724.869953
371330.253673
-12487.320385
-24235.686825
360034.653279
381539.212763
-24519.857991
-37016.536435
375346.086448
397540.349736
-30123.408229
-34497.921758
400286.288217
403466.391518
-33811.478091
-37562.183535
407077.932547
425330.451303
-50057.109709
-51062.484366
420158.440388
435931.214737
-48845.137211
-50297.612625
434279.139132
444298.613984
-58731.839873
-68907.393414
442866.337300
452209.546382
-64001.242401
-72760.330698
452964.651851
458845.896043
-69995.004771
-78797.955623
464240.071067
476268.937253
-77696.243749
-94795.628812
464781.348254
478916.827031
-91893.929624
-101783.724520
-109301.011712
474946.286961
480949.051361
-96057.544111
-118885.035037
473660.482767
489171.125810
-115516.014511
-128258.702633
481488.840951
491879.611768
-116319.038813
-136743.162393
486244.685077
492701.827375
-130002.794463
-142703.053289
486585.391915
495304.336954
-135236.112249
-159471.055065
478945.624557
484032.921841
-148608.490168
-162416.979289
478450.480912
474147.476767
-151604.016816
-168926.380121
480809.139121
474121.364314
-162950.772163
-181848.990506
471339.531180
463467.787999
-164079.392910
-188096.231103
460502.290304
466205.984676
-174382.328594
-191305.041946
447294.739428
447287.105947
-175097.479034
-193238.211914
440667.931299
439989.548332
-187626.014686
-202416.430004
429503.245599
424591.883755
-183978.292208
-213318.863231
412606.454462
414479.124244
-193276.107376
-211530.664482
389095.440900
393267.911544
-201631.780090
-217630.175977
374417.323378
378216.694659
362324.217517
-190341.630633
-221345.685398
362996.443873
344443.939782
-204186.454202
-230602.804714
336114.934720
325866.208766
-198976.975748
-223049.437397
321711.761034
293483.969984
-203521.626859
-224410.601254
294091.270693
273606.580993
-197745.378770
-221153.470604
273521.841335
257610.329012
-194945.898595
-223105.605625
246506.878798
223533.208146
-194929.711304
-216973.120007
230100.619273
207846.531260
-198975.949368
-203157.907408
203980.435056
173635.604480
-185870.988834
-205325.540398
171600.303996
152710.125658
-175653.013851
-192823.510236
-197459.381557
144796.957487
118513.751795
-175356.012184
-185796.875744
123054.579041
96536.374518
-161881.686574
-177403.796546
95539.084396
73734.979461
-159440.930736
-167946.665191
65738.922496
46956.892869
-139796.416209
-157209.565293
46477.821154
15155.542395
-143161.729089
-144130.596316
27554.962544
-5889.129052
-123922.277468
-133474.871027
-4181.813667
-39049.328927
-113166.287340
-118360.018460
-26773.164638
-60260.287622
-99814.223739
-108968.867397
-47682.529357
-78706.711490
-86308.314618
-96275.622570
-71215.895769
-104433.169060
-73080.079027
-79542.071562
-96822.818752
-123522.352892
-63602.799488
-61511.942019
-111861.278352
-147374.152444
-44353.141561
-47535.196800
-130857.705085
-164299.974530
-27149.044929
-31535.748373
-154845.331604
-182622.992367
-13598.718355
-19659.873508
-163243.733076
-193742.644858
578.175249
-5574.073232
-183101.699035
-213193.327557
-222278.304044
17843.262967
6393.412062
-204657.002251
-233205.160179
27534.965598
25662.638494
-209397.418220
-248684.514069
39706.958490
43917.774415
-224307.281322
-253310.194980
54947.297761
58005.184510
-229738.540758
-259470.721444
70607.967322
63986.560213
-235221.072142
-265418.793354
80761.496559
79078.350299
-240621.328156
-277295.427081
98313.856609
95279.143755
-243352.504085
-274556.815851
106880.214782
105589.855104
-247505.629666
-283147.649888
114978.214122
118741.193759
-252139.942766
-277146.356406
127274.435507
123340.677970
-245094.449517
-279312.599418
137531.864771
137715.329445
141822.293170
-245719.562866
-272317.449028
149479.386579
147553.418664
-243825.719702
-265390.468348
154657.163707
165835.377048
-240578.579284
-271445.965730
157586.337760
161950.123531
-239845.877111
-259487.965922
163094.301907
171518.882069
-241889.000087
-250766.841247
170952.761047
166442.416190
-227899.867771
-248064.956006
176454.411392
178291.546273
-220080.003245
-238285.204310
180459.662833
178489.246826
-212557.983608
-225972.227228
178492.714417
180133.330428
-196386.666548
-219024.542047
177141.945082
183137.158438
-198595.791385
-204934.348916
180775.032178
185275.801129
-181121.679076
-192194.024446
175943.254575
182026.869709
-171471.600723
-192090.143016
179959.029252
175021.787371
-167278.196806
-182114.262224
183959.959182
181819.415164
-157798.509284
-166828.145074
169685.588368
174468.941067
-148830.763502
-153512.852115
-150244.063749
170257.390995
175907.373428
-138858.508574
-138706.910823
171499.751825
171438.408010
-118107.814547
-118028.671031
163139.965433
165990.782456
-114423.756805
-119548.139612
164569.230250
154217.065799
-97113.372733
-103447.214863
154341.165504
152302.877268
-90633.386662
-90144.046708
143088.364383
149402.236984
-92621.185587
-89187.269003
138111.860995
143797.020613
-70926.996867
-77552.367051
127161.747580
132805.641145
-69563.966803
-71603.910266
123084.966725
115846.968067
-59663.799099
-64953.185841
120285.909349
122021.058180
-57548.962819
-48848.514307
112463.916027
100813.536997
-50316.467918
-54217.029785
96160.572856
103189.452023
-40252.486783
-37644.351886
90491.918800
91948.828641
-36115.368006
-35147.409743
80025.404790
88420.989110
-33607.460184
-36948.440094
79201.117203
81112.245444
-25791.144086
-23616.869874
70853.079165
71465.320899
-22610.371447
-24080.153566
56198.187552
65765.747468
-19409.591425
-20172.969088
63796.699730
53119.674019
-12288.908019
-18158.049368
47612.254331
56445.801731
-6996.265113
-18698.769256
44275.007824
44008.755247
-11140.929308
-11110.752351
37914.819997
40005.024093
-16559.630137
-14595.505566
24667.578614
35431.353719
-11751.990571
-7148.859910
20749.139264
28964.297116
-9286.475384
-7168.475192
30285.738473
13811.742002
-5792.920637
-12074.150713
24127.235861
12149.623858
-8683.655564
-3848.347596
14423.082475
16513.189757
-4596.247933
-10391.698897
12749.133732
17873.982477
-7624.446185
-5351.513747
8609.389632
10651.208178
-3045.015698
4160.879235
5694.399300
4626.061423
-1688.282517
-3146.014772
3802.415183
-3003.093105
-6497.573807
-2271.170815
-3544.221979
-5085.206520
2610.512305
-162.059246
-1685.543973
5396.281875
-256.278675
SCALARS stress_2 float
LOOKUP_TABLE default
64507.632273
118029.083999
81603.730274
57114.212891
185202.430708
83780.157284
137187.048416
165099.433268
212233.278828
248089.795457
209680.040842
293664.826690
340272.100021
329863.719554
507735.915377
284173.495964
731474.813396
280640.264291
993223.359220
231252.698049
1260620.205823
190270.492666
1644155.689960
65188.213286
2062828.464604
-95134.901435
2453650.301369
-265098.851496
3059000.526742
-606788.398242
3619843.825880
-899442.183000
4298252.731740
-1213395.303870
5069651.244322
-1716071.760852
5822817.712028
-2167315.413390
6754372.439429
-2743997.804712
7692486.676825
8691444.728788
-3416703.467775
9869555.280476
-4106686.065822
11030413.658374
-4915691.566667
12176746.427626
-5835093.176782
13506848.241204
-6752864.559410
14877704.457780
-7821159.225592
16352482.175454
-8967655.295345
17896568.720712
-10238574.953224
19449584.778711
-11482581.754101
21013846.577839
-12939088.447676
22792577.672967
-14430224.023677
-15975342.895048
24502130.064095
-17633784.388274
26345727.306094
-19367124.122768
28213224.420881
-21144768.218546
30126239.300084
-23045450.860163
32052515.943703
-24995915.602493
34026431.798239
-26980087.195233
36036543.993977
-29103039.606199
38053282.650934
-31269106.041861
40129997.432352
-33395700.165463
42228170.686632
-35671327.488047
44293197.207303
-37955009.216084
46366394.657607
-40271577.425759
48519914.516233
-42624640.573845
50564341.316136
-44975185.149469
52678375.209518
54684388.957722
-47433291.152631
56724974.484562
-49808917.224658
58758196.779768
-52188014.463652
60697117.430398
-54647882.717412
62630771.762937
-57057705.985937
64472144.157972
-59330432.117028
66387915.148461
-61749286.545540
68083440.886604
-63982761.576045
69759718.133745
-66270371.621487
71366826.813697
-68529749.659949
72933321.274863
-70667825.583060
-72776556.216706
74334452.310770
-74761233.789273
75804561.584663
-76754620.713701
77068408.575227
-78584185.294564
78258012.075992
-80366626.846702
79402503.337258
-82032337.903073
80369453.228741
-83537761.778520
81214974.587797
-85033003.984084
82038395.414427
-86330928.519765
82732642.730547
-87530404.135264
83261990.427785
-88632211.135150
83728184.321584
-89665687.932367
84091544.411946
-90458969.092057
84255928.514313
-91208459.440104
84446372.857071
-91716193.770039
84337026.125379
-92181392.907744
84262581.906295
84027033.558489
-92455333.081606
83710188.180062
-92693304.704567
83227000.945130
-92657959.091470
82651033.288550
-92582768.318500
82000562.797379
-92358420.385656
81252074.156776
-91907387.814252
80377651.062169
-91403762.908859
79350283.633573
-90812603.549462
78391399.566417
-89984930.040633
77205022.339387
-89095809.697213
-88080372.932145
75951919.952485
-86956706.310572
74594460.329523
-85726142.658378
73252488.155661
-84372874.877462
71779417.017956
-82897837.609154
70267906.688022
-81365441.266396
68667984.339974
-79751841.164029
67033487.180284
-78056513.073667
65337226.383067
-76191279.179868
63596443.383181
-74365803.482630
61785639.767683
-72435844.166510
60034339.232001
-70433799.339880
58206553.026437
-68383541.980823
56371145.150990
-66266384.089341
54445082.094619
-64195684.828075
52609648.542481
-62101889.327310
50711731.961618
48822281.037190
-59908762.336746
46913635.464623
-57672189.062853
45093160.830978
-55485394.026946
43215436.907866
-53264307.565780
41313946.869404
-51054062.885827
39532192.823963
-48848633.638687
37680925.793457
-46667987.900544
35905399.364945
-44497496.910055
34185377.233854
-42337660.515020
32427585.965329
-40282918.182480
30695525.711570
-38153277.531851
29122828.472575
-36088055.236645
27536706.400548
-34108141.709804
25950536.397386
-32116975.961601
24474231.821762
-30232062.068219
22949072.673677
-28378099.268315
21562296.464001
-26528195.409690
20175382.735964
-24797525.959385
18876651.413380
-23135187.438715
17562345.289778
-21442262.184435
16399030.854116
-19921067.403017
15168494.443150
-18442952.746060
14065730.850410
-16962248.550321
13041986.108080
-15614508.695786
12015543.466463
-14241960.052167
10962635.370685
-13081841.172964
9982959.636191
-11853576.058177
9243302.142965
-10761850.816177
8342023.271595
-9672842.425050
7611975.695593
-8646751.329922
6817741.002018
-7733241.530794
6181478.201141
-6944897.472795
5472990.543262
-6157290.927537
4882782.473510
-5413905.209863
4347223.807327
-4687912.993287
3840076.424699
-4126067.179709
3385058.814585
-3526806.410457
2930869.313739
-3008508.032559
2484342.715692
-2572029.480871
2176181.052629
-2139343.428908
1821194.661307
-1756493.191512
1532511.008769
-1427050.464111
1278410.551787
-1146971.996405
1037673.430917
-902933.483823
768571.646159
-687628.577962
626562.099414
-529729.278825
487318.149352
-288155.053452
324691.034631
-186357.216687
173752.755251
-55684.442042
186274.549868
-35668.957905
94390.983626
118063.888697
4329.751953
40868.434521
25455.528363
92063.332540
-9769.578773
115143.147896
-71458.547540
116199.207075
-57362.030911
97803.814649
-60907.800499
45747.090633
39812.817210
84957.035026
24883.517643
5883.615644
100823.235266
121604.926193
46626.478093
189772.870217
123066.138967
219864.611502
183811.881130
266538.030031
243980.009154
277057.049620
347216.643053
303121.441882
560272.880929
289040.782232
770008.951167
263909.635811
1023411.278352
286928.904521
1301625.297343
178207.718647
1729079.236526
29190.751702
2086186.314014
-131641.094413
2617003.964667
-306348.124270
3168814.080112
-526264.001111
3741641.193306
-853775.594652
4452513.989409
-1216382.231377
5193246.131662
-1642000.215859
5980168.946552
-2144542.982954
6901716.325708
-2714140.500478
7795775.367230
-3365396.996815
8879214.756276
-4034414.211394
9902459.025804
-4796379.013929
11119663.426113
-5697562.502521
12359909.392062
-6682335.546884
13655002.141765
-7700201.245117
14995481.903608
-8752850.010164
16459798.569221
-9944778.831753
17960936.595375
-11259912.459583
19470939.308557
-12626875.883384
21113568.600394
-14024319.516098
22766749.156047
-15563806.684210
24439286.638756
-17147777.007136
26195717.505295
-18809892.604888
28052629.082150
-20473073.096881
29887434.054478
-22298545.809602
31713712.650665
-24196365.384377
33631187.219113
-26143670.690922
35576459.194678
-28094548.370564
37516297.490904
-30111897.293017
39473254.564564
-32163563.197711
41405460.307286
-34340925.856259
43358251.175842
-36495338.779704
45294877.061862
-38650443.402902
47259727.552402
-40853612.030424
49154035.637193
-42997991.075214
51094281.240049
-45169263.406986
52940481.350698
-47396690.232209
54780033.556200
-49582235.855457
56536597.183040
-51751666.918056
58325652.611804
-53925617.832949
59970328.375450
-56025675.469851
61634744.854565
-58077350.470089
63221825.375634
-60105052.268521
64755568.960573
-62108845.919417
66171488.066153
-64011919.194391
67456205.714289
-65852184.626401
68774610.361754
-67614846.965145
69952158.922091
-69285070.515195
71015129.960443
-70928200.254636
72009306.955496
-72429202.824796
72916014.135637
-73845320.638618
73726840.186024
-75172022.902572
74421150.693715
-76323049.921230
74905786.115481
-77426966.444291
75419261.244851
-78368739.113084
75810572.766983
-79252803.699221
76020775.703792
-79948665.256975
76245811.642336
-80586205.221201
76269641.039387
-80992611.363514
76199206.916859
-81288167.074942
76019161.503138
-81526465.790340
75665541.407198
-81647412.487796
75257297.194181
-81571903.243493
74749242.984102
-81356733.372274
74132674.700776
-81095932.080610
73468557.029360
-80631701.781443
72650227.328527
-80059851.452859
71734452.620191
-79373891.736185
70694966.491410
-78581209.946264
69684779.735713
-77684878.159281
68489657.038257
-76643042.255221
67240670.322859
-75481391.668942
65968730.611431
-74261329.791469
64565972.469118
-72923708.394419
63189104.504892
-71572272.455875
61727290.947139
-70020117.519066
60146138.361001
-68454789.996933
58468365.692208
-66780098.867563
56948193.169147
-65083559.445798
55276718.150489
-63305856.938107
53630783.886535
-61495606.887720
51867018.072713
-59602275.707579
50116159.502553
-57724130.712525
48429765.763112
-55704231.674174
46661238.213062
-53722075.113837
44830991.874318
-51763158.466372
43061638.442309
-49726568.818236
41348517.167334
-47734137.712656
39584851.516438
-45752138.127717
37842333.718006
-43676865.606648
36171586.717768
-41678369.127533
34469353.080866
-39676317.363887
32818666.165973
-37713437.935123
31160723.103374
-35771274.308283
29608521.480126
-33865162.102781
27957094.654903
-31933201.992131
26433246.323132
-30102012.389276
24889187.278342
-28359000.304485
23471426.650819
-26529829.813944
22064354.027621
-24840499.927925
20615477.104176
-23226909.059369
19298786.445628
-21553263.316647
18067856.540935
-20065810.242987
16803915.618481
-18544531.946761
15629997.938839
-17130203.971196
14504964.632294
-15751609.402748
13379241.057519
-14495186.806561
12353256.344799
-13197213.834233
11286299.852805
-12025358.257378
10409848.255053
-10879743.390839
9515285.932128
-9826213.908129
8655222.764015
-8863721.352477
7850931.131301
-7987812.060639
7087103.707500
-7134193.347458
6399170.079670
-6251295.321304
5725897.258081
-5535266.655691
5089248.493034
-4790498.893848
4558294.794801
-4118766.144145
4007697.750438
-3689272.178196
3464914.261846
-3103107.777887
3044965.459311
-2569335.508359
2613004.244732
-2146120.119313
2212883.748395
-1802461.077791
1916950.230872
-1476625.698635
1603335.463776
-1179942.883745
1333621.479294
-882346.741491
1113350.842569
-636881.945389
822959.249028
-433462.832194
600483.372187
-320436.716750
483632.342330
-164659.066097
383728.496215
-65087.988609
267735.529270
-6530.049426
152870.343396
71491.969565
89617.612106
78878.296751
46054.465686
172134.366988
55781.806035
149158.604864
8630.198298
112875.238763
-9778.782114
92915.366787
15902.636416
134205.108950
14250.377700
95188.769824
33778.321724
48874.163918
74016.012651
135269.138699
135082.682017
95253.317168
139066.312281
110474.591578
74160.687744
46530.006156
146972.855553
173926.529451
123809.250178
137772.403018
159841.614838
192792.471601
123041.961018
179415.099979
239960.123144
263394.082416
287352.444182
203767.329766
249261.594538
295971.666783
295548.276877
335919.769532
415023.107560
296183.338847
305217.049917
471623.367976
600710.964169
350149.078075
307554.923027
694411.560125
795526.578314
318596.209555
311941.744931
901230.237608
1096683.669080
264065.397825
207822.817950
1213130.486712
1409853.823305
174297.781213
183354.305930
1548905.050984
1774091.522287
172679.085635
815.201515
1978849.456006
2157162.605609
-34128.903225
-125754.910495
2381467.540142
2744035.787845
-239732.372547
-405625.114467
2921411.874056
3315763.770781
-434372.004715
-660940.845599
3456853.181751
3875209.764994
-765542.153602
-1004180.467750
4181838.065003
4595361.981223
-1122003.003813
-1377944.808972
4869287.453621
5389518.410571
-1488191.091853
-1757328.151956
5659084.709703
6259145.290002
-1969640.085268
-2325820.787222
6547551.198581
7120211.767576
-2570793.053377
-2952051.381964
7550788.456414
8151394.327466
9046739.679928
-3098444.543527
-3639057.952080
8754149.202187
9807793.366311
-3852638.860291
-4318603.634735
9745511.074958
10981836.218606
-4635679.101768
-5157067.283697
11015064.666970
12232532.726558
-5417202.931202
-6037733.367211
12318215.464615
13481452.807369
-6419300.620807
-7071928.655348
13598358.136532
14923776.398685
-7368400.797862
-8155917.815471
14964302.014795
16330434.192884
-8492502.846563
-9290010.884749
16417641.590525
17880261.887072
-9669926.181396
-10623138.119768
17886119.657082
19454192.932904
-10913720.764511
-11940627.735445
19456350.609274
21087563.798796
-12288376.264646
-13320578.455761
21042622.073174
22859396.265090
-14924014.967022
-13783538.394201
-16240183.465021
22711787.301491
24468378.179414
-15560052.838818
-17353696.811256
24482009.650658
26346943.064795
-17089304.230116
-19061196.255300
26303727.614278
28070809.334005
-18935528.220544
-20824321.519727
28057615.764323
30080621.039432
-20699248.687359
-22724214.736942
29978008.167912
31946373.684581
-22537095.380025
-24740114.307392
31901780.380086
33946365.539627
-24437728.490299
-26729663.983708
33780552.499810
35878118.649929
-26413637.973331
-28736825.096628
35734981.722079
37931223.135163
-28412678.288808
-30756420.755559
37693270.090555
39932671.832688
-30463723.399563
-32991105.209597
39721010.648203
42001217.866956
-32606124.841822
-35209792.941208
41652218.135484
43993774.707778
-34732976.320761
-37497541.309406
43738950.473978
46105783.942360
-36915282.878838
-39709110.818535
45701002.842782
48117814.835904
-39191411.667048
-42014248.530935
47706340.677923
50253861.503250
-41397531.797544
-44273635.495215
49774559.181518
52316912.323158
54126291.234316
-43633080.682064
-46611964.636732
52255948.776498
55326955.749541
-45887151.983851
-48962135.738744
53965992.406469
57342426.149276
-48157084.115847
-51330678.757421
55964304.666235
59245125.983039
-50447651.719381
-53648067.115977
57877746.888485
61105231.413849
-52672684.305325
-56003830.899325
59701092.149978
62938416.559263
-55023278.184401
-58265715.629492
61445032.189075
64726850.168472
-57160969.074839
-60552069.717163
63150621.335700
66407805.746197
-59358345.937585
-62724879.920616
64766326.992867
68072186.572177
-61426040.204071
-64898898.650387
66369728.703292
69601701.126643
-63530093.913676
-67150862.715542
67868147.023221
71107414.861738
-65469396.569008
-69017306.843646
-71289581.228681
69257111.546883
72507686.794074
-68223767.777010
-72311828.975413
70648985.722165
73814181.877769
-69668343.970693
-74332657.567877
71823520.917997
75012103.914046
-71651509.020832
-75944650.932394
73051396.927412
76215492.527641
-73336311.885066
-77598188.566380
74130109.864585
77181921.798337
-75000561.260548
-79202587.334977
74963680.300838
78087978.249151
-76517357.743947
-80683927.953462
75886985.214767
78896707.233623
-77878429.291046
-82051612.015065
76596583.944671
79615516.915769
-79174048.192584
-83313717.247548
77325655.576836
80221738.246449
-80355413.429902
-84449973.963405
77840817.622304
80724388.310244
-81376064.746004
-85476120.717620
78290321.425528
81173761.589430
-82286316.336919
-86309944.020932
78616298.571180
81430626.974942
-83088971.745707
-87128612.852104
78787527.645821
81553173.935741
-83695219.177804
-87757191.486928
78904012.411099
81671480.399534
-84381884.026135
-88164623.111014
78904233.763273
81650515.987122
-84751997.752101
-88530753.059895
78665912.669196
81483277.906719
81600685.830173
-84999109.345942
-88698217.701685
78678811.643071
80977454.862731
-85122791.153459
-88890441.201397
78101111.600867
80470309.846800
-85212811.636749
-88800236.888263
77558405.819531
79727501.933436
-85077052.652530
-88624546.841045
76954294.684285
79122215.044053
-84793634.722432
-88298521.601938
76298954.120696
78327166.761088
-84418061.881389
-87902680.327241
75459662.042510
77451914.981345
-83896432.512393
-87285242.970251
74547458.081127
76447244.167214
-83169367.571114
-86516774.047107
73627617.299862
75402052.363376
-82428722.858560
-85832139.823000
72511547.487488
74203890.785731
-81380480.436179
-84848826.476891
-84567718.483462
71328758.401037
72987346.384119
-80988581.582427
-83075305.581095
70084458.145645
71718968.570620
-79051225.793230
-81921142.643498
68777163.699567
70293282.533740
-78067715.981160
-80441961.825301
67406513.411034
68828979.425326
-76628347.956881
-79021309.042715
65966345.962288
67366318.044547
-75203542.173262
-77533685.245068
64436157.353669
65732156.674267
-73681681.021778
-75820034.863506
62911082.325638
64139045.306074
-72062669.791893
-74167473.431780
61325909.463880
62490304.807278
-70385355.276967
-72337314.349156
59597053.040781
60695025.707600
-68655066.121414
-70465269.211420
57987664.839428
58974459.602315
-66835600.749651
-68599502.627544
56282086.411947
57279934.785521
-64948682.628889
-66646431.616867
54510241.202603
55386701.066019
-63070895.823332
-64695285.906515
52685560.192079
53577333.606453
-61129431.214506
-62634552.870378
50910568.620738
51738608.248109
-59083161.060238
-60561893.679996
49103017.270633
49827759.669434
-57102095.070515
-58433292.815088
47140413.636366
48111562.753881
46855991.831674
-55053555.558808
-56374052.231994
45495939.381376
45117046.508474
-53010632.405100
-54196857.137187
43285826.687807
43300667.002219
-50911438.587478
-52086515.150078
41399853.067103
41360500.088013
-48831571.312412
-49878214.944183
39602650.924524
39590785.528578
-46717055.025030
-47834637.052458
37838977.185502
37763031.805525
-44635121.151461
-45654700.789576
36043409.962541
36010634.549380
-42627186.774566
-43539085.317837
34398857.291762
34298166.755705
-40473626.495780
-41449766.303912
32705004.771187
32606369.602381
-38468157.643314
-39363524.539092
31015057.338817
30907765.220537
-36505326.906582
-37277067.710446
29401187.170141
29328177.516702
-34367714.738873
-35259683.686266
-33940857.965007
27805981.603287
27652566.414690
-32510620.950089
-32149804.944332
26220314.073114
26078986.479644
-30257485.672710
-30275357.420939
24677826.002835
24612333.044542
-28436219.860085
-28365043.101436
23330922.914966
23146998.945403
-26580752.842590
-26617816.998845
21895437.213381
21727323.263532
-24837943.565394
-24837970.668909
20430451.123720
20349700.201280
-23162829.189392
-23137835.362247
19170765.559528
18973963.655257
-21542690.791143
-21526892.952864
17878645.803290
17702110.656278
-19969515.012124
-19950308.748063
16625991.169849
16585414.616591
-18493341.975797
-18434764.427183
15469462.385616
15364111.794191
-17091219.102268
-16947366.251136
14313567.808739
14236610.539376
-15655026.057527
-15648285.112584
13238800.157290
13126610.547256
-14358717.517663
-14304406.606266
12230145.856854
12073786.957332
-13144847.362322
-13090732.036595
11196493.059461
11089376.661709
-11955069.286395
-11903455.706100
10200140.730401
10139962.328329
9521878.760172
-10853101.987392
-10806268.366354
9309301.198885
8787446.134154
-9814767.234690
-9684128.765498
8399221.582729
7963349.991962
-8847541.777988
-8723341.060548
7537438.850863
7105990.473863
-7886515.508914
-7780491.858069
6757766.576891
6460947.499174
-7020764.199084
-6952592.929676
6110385.499665
5753266.016226
-6218336.685856
-6165307.168199
5428771.616997
5211296.916171
-5441426.579405
-5393818.146818
4810745.679243
4639530.983230
-4704425.939969
-4705967.000630
4287705.912554
4021605.295133
-4123151.462844
-4086359.330355
3755701.200864
3570580.124823
-3560811.237513
-3497854.541629
3273876.088774
3107363.562317
-2982461.812968
-3061615.266304
2859361.955668
2707565.076726
-2474195.066930
-2687083.149546
2424269.758919
2333870.910825
-2046624.342378
-2242856.508298
2157108.617169
1994324.198474
-1602085.719044
-1864886.674436
1839347.649060
1665130.116537
-1339419.715866
-1505995.622991
1444375.082978
1363550.720486
-1020463.198009
-1252370.670121
1200920.254307
1149557.232351
-819237.446430
-922839.090774
992552.948881
913385.532846
-643377.542113
-689594.013729
778194.566624
744214.241859
-312215.004149
-534007.217259
565959.901067
610275.546353
-318127.572135
-326687.503113
470232.267221
412945.230095
-151675.398443
-203230.982916
294383.349210
233985.908598
-28768.070130
-96374.558569
245513.379384
183925.560253
31467.935491
12000.921264
136281.633350
152482.416530
77603.575622
-4600.333503
27658.300817
12911.411176
45769.034990
113118.233712
58734.549919
6034.953001
95309.824298
53025.595504
45985.342908
-23097.955359
86397.803329
126866.213626
-40994.815351
-60416.721868
117848.972082
92212.194724
-13286.896427
-60192.643430
113899.482759
98522.648030
-51399.409377
-49167.905925
93851.074788
92240.900033
-12610.620483
10579.652721
106705.171382
55414.944363
60962.867555
81356.233727
53289.705117
46911.049391
-7212.573703
SCALARS stress_3 float
LOOKUP_TABLE default
-85964.320789
-141926.226879
-120791.960431
-68881.570682
-112036.355044
-166807.300959
-217153.913776
-133876.483925
-331899.305115
-345485.247482
-177193.119579
-387356.937828
-474081.242609
-421539.813000
-755538.184531
-445103.823059
-949567.226920
-361274.130269
-1271531.925938
-379263.453051
-1682654.844740
-230218.459891
-2229942.342535
-12254.706951
-2649592.982478
226627.531183
-3318273.567619
448796.254513
-4039571.379533
782891.188451
-4862622.009072
1317444.023726
-5864699.984700
1716612.844963
-6836397.306417
2390509.652162
-7953411.205861
3082780.255365
-9014323.014547
4004550.260672
-10357103.879488
-11801327.132197
4853190.196546
-13275296.363526
5813885.703777
-14850886.855050
7026563.754668
-16502822.162931
8312559.596105
-18238148.850323
9560098.868879
-20107343.226499
11129194.151391
-22000355.376086
12653681.478330
-24187972.580661
14430146.146522
-26275426.431072
16178628.634494
-28309986.124272
18228037.795233
-30682668.138786
20371050.551105
22380897.395886
-33020224.474614
24786157.611152
-35325063.610283
27099220.937568
-37802895.495856
29594435.409822
-40343134.969069
32231746.324741
-42882294.029924
35068858.160850
-45426115.994686
37725303.771138
-48002383.975677
40606482.127909
-50741830.007587
43648416.478049
-53398791.731203
46586500.462347
-56128998.378165
49656842.659207
-58838474.701584
52759626.315515
-61486358.342248
55985363.565837
-64125601.644120
59185904.804073
-66732615.135665
62373216.658564
-69353243.879267
-71974047.600342
65705251.129309
-74490178.164325
68918539.907035
-77050408.493580
72160057.076368
-79445796.094333
75404181.574923
-81803000.248159
78672161.402700
-84123743.214394
81769159.497313
-86214451.521503
84910148.302601
-88425098.231871
87999693.150077
-90490851.070913
91019152.533519
-92398509.904064
93900032.502865
-94164539.962963
96724259.895851
99539031.700033
-95932278.000723
102069569.112358
-97388221.658130
104582926.626604
-98831339.279148
107003893.574285
-100088551.616888
109253638.364551
-101386725.818363
111275803.525866
-102397534.771248
113256773.467381
-103271511.128780
115091664.767497
-104030158.890958
116754877.426216
-104641108.007845
118201816.296524
-105141485.317178
119532118.709938
-105484305.522133
120593767.160232
-105577920.622708
121626445.203568
-105635953.322077
122384997.827500
-105415368.817192
122914457.785138
-105117110.698901
123314502.064036
-104760332.473429
-104207350.450049
123501583.861144
-103498386.713388
123529253.670237
-102642052.275894
123293847.900465
-101686919.581404
122967030.686394
-100599150.136142
122497858.028023
-99337767.530959
121718433.581389
-97867646.434340
120836426.678008
-96449310.880974
119678097.283191
-94942163.539345
118557098.728453
-93164660.753416
117085351.422943
115537589.860437
-91456770.523188
113853465.597098
-89586924.714095
111998767.620478
-87704098.916987
109998553.845950
-85657462.638089
107869675.964241
-83542338.680451
105708436.469126
-81404970.056519
103324899.769757
-79149636.013183
100884532.669182
-76948019.562889
98283536.464227
-74771381.149475
95724407.154894
-72397466.279167
93090290.038007
-70096557.620448
90348410.275829
-67618338.320332
87447937.918297
-65263096.378817
84622856.965412
-62846435.217502
81767946.763937
-60516562.427236
78947854.426197
-58172907.479555
-55803933.965309
75842016.805179
-53522484.552984
72929177.147772
-51142656.748803
69984607.110012
-48828381.355816
67064785.051113
-46587501.386470
64110342.217961
-44428714.003028
61186477.378920
-42242081.155552
58201942.668552
-40112804.350264
55460226.361443
-38056702.255651
52561435.395208
-35995762.427874
49827655.241382
-34040853.929319
47071819.640629
-32146664.759986
44392037.311374
-30210815.982260
41811394.747391
-28536637.511515
39306303.026316
-26709965.657024
36932202.282714
-25005232.418788
34491588.791169
-23386919.168466
32203321.489297
-21880551.512158
29968109.848633
-20407393.315298
27797257.525214
-19054461.331000
25767210.878252
-17546478.980860
23820649.154636
-16285524.624089
21866099.122726
-15027351.013801
20186599.141735
-13779743.177692
18395417.176973
-12774944.262773
16868482.116118
-11704113.790519
15311538.642905
-10734538.464103
13856426.757332
-9790014.248837
12458595.621663
-8901191.404056
11197519.285835
-8012834.648184
9984261.271321
-7177377.487445
8894853.578121
-6504862.999473
7839591.727710
-5753678.331281
6963718.523135
-5169735.004342
6037874.373548
-4558591.721830
5243879.997372
-3976908.449056
4578121.309980
-3525984.607619
3895658.002099
-3067994.556728
3378115.510575
-2498211.049497
2793490.279246
-2204835.113623
2290579.026537
-1927161.108316
1846102.161596
-1564618.505113
1492262.352910
-1308769.697914
1197008.453466
-994592.876677
854559.131749
-685320.041403
753089.156121
-564729.107464
494774.526582
-382752.384135
316964.714668
-258302.146000
132380.129527
-179346.393060
-48166.510416
-90717.399900
-64766.008211
-37538.722682
-137712.927013
41682.970108
-45469.626031
170950.960049
-152458.668420
48192.084877
-136955.610342
157360.394531
-102323.733372
130206.452164
-94952.369026
37733.060825
-48965.551992
-1592.497907
-30155.282270
8955.107480
239.467838
-36300.352944
-131681.399498
-73393.862320
-232887.033064
-139482.036584
-256305.796062
-119206.516524
-329509.653802
-299596.633654
-351746.471721
-489592.422664
-451363.052869
-701511.968179
-368550.031042
-998752.467149
-457678.962403
-1341091.285779
-267903.762324
-1735628.867905
-295999.543130
-2272130.410478
-91723.023244
-2736782.032814
259707.881961
-3450540.178749
413002.504000
-4225763.686023
823170.483660
-4942351.083100
1259420.708618
-5954845.960831
1787996.460451
-6992241.960003
2396151.070672
-8020686.362194
3089192.983121
-9305146.005141
3785097.170101
-10608850.973472
4833212.828561
-11969416.858036
5822901.733854
-13411638.187299
6826988.773656
-14938894.108271
8138880.032595
-16617165.064792
9319144.398346
-18359101.176177
10880835.955536
-20182787.639374
12371905.197942
-22140199.292124
14031749.047927
-24031474.528326
15829596.358481
-26164776.629556
17701228.051967
-28256720.433554
19708642.622163
-30485721.531168
21811587.350644
-32756389.563188
24041107.978076
-34955134.923514
26268608.539146
-37414440.893722
28761166.774518
-39801235.064663
31187713.965771
-42215778.633286
33811373.803629
-44760552.831231
36408523.175769
-47235298.102335
39120173.772918
-49744611.234398
41882702.482751
-52277814.621322
44701727.080623
-54748643.100843
47636730.369582
-57291827.066864
50564908.928031
-59771693.357121
53465203.199809
-62200995.477838
56401922.516430
-64638394.351381
59366921.371671
-67036897.843185
62316288.653207
-69441598.875615
65262335.607928
-71548066.954894
68216379.567347
-73856977.362600
71187592.222191
-75943812.358067
73940756.066236
-78013078.469761
76887127.987158
-80012993.957017
79553575.675684
-81954762.101411
82342207.575653
-83619388.853007
84860577.871566
-85327972.605703
87382697.366473
-86872783.309562
89758768.588840
-88293319.358484
92033028.391653
-89614817.540269
94215770.106429
-90850657.411079
96303267.783104
-91862303.314877
98171317.112406
-92780992.448612
99947964.588110
-93612852.403135
101594065.457104
-94300492.684669
103001385.050903
-94685011.687115
104309392.222496
-95210546.163584
105390554.662608
-95357911.704927
106380131.174289
-95400658.261205
107231275.942041
-95434995.338643
107819505.409704
-95208325.331141
108249102.380327
-94773782.188760
108593955.397624
-94325323.108451
108575980.905433
-93762947.546499
108518876.953693
-93014531.059067
108316291.676968
-92081525.680842
107945201.484407
-91114571.277260
107239229.622899
-89996147.439172
106446742.586221
-88645146.475850
105516910.424309
-87391182.337358
104510104.827891
-85825632.529919
103245606.206116
-84308921.806644
101800102.693548
-82694089.758384
100288366.255500
-80989184.250575
98554937.335809
-79215339.233278
96791208.478190
-77375694.262655
94823446.485692
-75418888.794992
92820725.408254
-73324096.027240
90680314.851976
-71231415.515559
88462165.310633
-69213037.075447
86170742.834164
-66958597.903854
83766383.831718
-64902830.310055
81228887.550184
-62680985.441061
78705379.595661
-60436369.965357
76099138.461926
-58368640.636055
73474180.558128
-56104758.959380
70868228.687318
-53848801.244604
68202986.505533
-51637261.441791
65428978.456611
-49429382.219424
62738311.752752
-47338110.724517
60014176.000055
-45269788.428604
57406701.248460
-43049732.528635
54714597.104066
-40919348.840109
52045241.616810
-38956784.919187
49362855.505116
-36862821.075142
46856948.509649
-34949912.420298
44261318.101943
-33067484.460879
41790818.022664
-31112925.506158
39397636.990234
-29396966.224622
36968669.498430
-27666655.369381
34697926.624887
-25883984.052760
32389200.504170
-24369673.780982
30174038.213913
-22741207.222533
28155398.247892
-21182203.933574
26089561.768371
-19705899.335702
24108038.381447
-18343178.625869
22210565.249384
-16904104.028720
20508683.978280
-15813514.656580
18672773.780335
-14475230.818722
17119926.211712
-13297451.627469
15614796.040771
-12190365.392097
14087330.070563
-11166320.831027
12792264.710237
-10317920.203595
11483132.678217
-9299391.475114
10218483.580603
-8414536.904918
9203019.776605
-7592249.211432
8040469.675375
-6788705.900878
7146570.439173
-6258590.050893
6281510.786423
-5449760.808488
5421664.323225
-4817861.251297
4622832.211841
-4230236.885546
3981873.255320
-3763913.626607
3355225.334347
-3202706.586805
2850988.005085
-2774681.681512
2321142.120521
-2341990.023052
1849693.152190
-1991685.836073
1506801.509243
-1671635.923623
1181333.107052
-1327673.313402
792129.107880
-1093753.561569
563762.230149
-783455.336611
346118.833072
-650279.356951
217295.325798
-529752.734912
123057.179863
-444817.829707
-3418.442473
-239517.309821
-87823.985046
-216413.090627
-125497.567172
-1805.890548
-98172.385802
201.178091
-232084.884772
57158.199918
-241764.430287
32293.618770
-198032.219297
191560.800851
-165174.336427
51028.943110
-174594.816367
124122.180113
-45354.990631
-25211.453453
-7798.626072
-127760.500007
-190957.333854
-162298.511325
-67966.928680
-70197.711614
-169526.171038
-108992.888495
-106173.340834
-214503.797785
-185656.111343
-54708.564645
-64892.733049
-307498.786938
-314190.501924
-82638.191449
-274005.518073
-300292.005334
-249528.805011
-335111.612976
-290935.345774
-325993.846016
-392585.879753
-307947.586204
-428009.728140
-476979.425776
-447921.126019
-411657.946312
-580445.138795
-777243.884982
-446553.501674
-455775.964519
-857497.228320
-1096982.817026
-439270.228900
-324929.488413
-1131172.834454
-1391975.330423
-336170.756863
-311767.739311
-1564127.962653
-1766047.130085
-196789.478205
-215786.652027
-2057923.772645
-2430193.396538
-66890.021675
21414.054747
-2540498.198705
-3041906.611527
65848.448273
257231.157023
-3199444.993687
-3658387.491135
295732.205874
543808.791509
-3843179.174606
-4433716.057576
625644.970708
882125.815530
-4710754.673502
-5236084.801270
1104858.840699
1480097.757765
-5540999.731250
-6109639.247341
1668283.707241
1957690.667670
-6628368.840646
-7160872.112948
2223389.127531
2581238.380422
-7563782.727523
-8297313.777276
2860657.474321
3413182.179013
-8840459.014643
-9608649.605456
3623441.908216
4161135.881861
-10223322.673680
-10977244.948580
-12207755.818985
4438843.419691
5188762.498789
-11641576.279430
-13225185.786499
5442083.340261
6222970.256922
-13131081.085006
-14685390.030866
6539239.754553
7407044.439548
-14788626.720415
-16486717.692558
7729642.303354
8548971.106249
-16463979.944262
-18228319.918088
8992748.083738
10044390.058541
-18299258.152941
-20074160.820102
10445940.737909
11524894.321586
-20076549.027526
-22063083.517741
11933860.289348
13114554.482019
-22020065.051519
-23931666.434043
13703820.233364
14940822.133131
-24063723.771288
-26098397.650954
15471449.156352
16796824.951027
-26100022.701434
-28365130.434800
17184971.878266
18763352.554865
-28339324.896113
-30526891.664732
20975010.356938
19470201.881248
22875204.049677
-30560394.678434
-32873697.071620
21814252.111777
24423644.265568
-32802814.388316
-35186944.519781
23945742.425452
26743495.216442
-35133106.592808
-37638445.296248
26505504.799872
29236469.803664
-37518443.368304
-40154736.170501
29037205.703332
31818908.699967
-40021162.359782
-42612076.092048
31528572.046664
34493951.492982
-42479331.252512
-45268571.677040
34025712.342102
37226019.972868
-44990698.305682
-47775423.686292
36839059.449062
40175785.558595
-47520559.100497
-50460205.741007
39616362.557770
43020618.793730
-50152386.330338
-53111978.494420
42419407.081593
45982062.237236
-52643081.720766
-55721799.466201
45296874.899654
48940893.203965
-55255480.428439
-58380306.030349
48272067.996999
52020570.416676
-57770928.349441
-60900526.586951
51238302.478960
55150726.686558
-60354514.055155
-63449812.365260
54397378.819874
58205415.760119
-62957552.123742
-66221230.321403
57394331.152891
61377813.435952
-65503964.475560
-68778988.066299
-71091369.904272
60376713.383739
64522082.581027
-68642384.597486
-72605657.156733
63419631.153207
67683036.870822
-70823146.744181
-75079828.941951
66469882.955070
70793320.405212
-73345483.946083
-77402125.450169
69532288.480055
74000142.755608
-75591671.068901
-79741962.895365
72563649.099822
77127512.132676
-77850117.712998
-81942891.541562
75588165.839144
80128591.473151
-79967601.818699
-84138202.621517
78479445.804012
83140444.988577
-81988441.224981
-86265925.813630
81365328.992769
85982066.714177
-83973669.761472
-88118425.703026
84192791.432697
88945957.967633
-85846123.414042
-89945489.635203
86878689.398094
91906207.785508
-87680362.456009
-91723982.999455
89416820.068830
94344096.362490
97320189.166566
-89318539.327317
-93341380.086302
93075733.516320
98633692.826790
-90775443.279868
-94760784.373854
94845700.688467
101146374.021137
-92163083.559726
-96144531.310018
97476520.873806
103260671.824387
-93475897.440616
-97379878.607882
99573274.483638
105412363.135127
-94683791.395767
-98387074.025311
101646490.332341
107470054.603035
-95563424.956287
-99455233.254585
103641312.489680
109286760.084047
-96450817.792345
-100201664.152178
105370502.047477
110949101.090528
-97210163.264689
-100935313.859647
106925236.090034
112575868.212524
-97837461.378773
-101528196.645288
108346029.877104
113891707.449693
-98285428.713002
-101829572.478314
109600276.494458
114996079.720699
-98532518.321382
-102076247.153953
110602520.904607
116012869.644184
-98768794.846920
-102058648.542125
111514469.506908
116908956.097059
-98699648.316455
-102096733.983112
112324944.166943
117546979.486819
-98587958.415163
-101904292.753376
112941040.984292
117954462.804474
-98239596.985388
-101643272.529216
113333051.357462
118224743.508308
-97741979.635735
-101082497.250718
-101069364.474782
113369205.829048
118416453.264393
-97438735.620703
-100112111.782184
113416724.934967
118287638.141864
-96468514.544566
-99096217.951446
113263543.041543
117966925.011883
-95518697.480801
-98081978.175234
112840066.682116
117562398.391852
-94478924.755230
-96829675.111694
112347005.613328
116922238.506568
-93391510.005448
-95749647.434480
111694528.452460
116241873.489911
-92169755.679725
-94379439.059891
110746270.634945
115194033.271190
-90740972.804637
-92858894.141977
109630356.812465
113976772.427884
-89387745.741394
-91329408.614579
108554566.600422
112851976.017208
-87762591.657520
-89616250.940540
106856914.178918
111246659.888719
110800270.569387
-86159067.374431
-87897544.147695
106044537.169244
108657769.574548
-84385013.157455
-86071264.555259
103382822.186350
106903336.626891
-82547818.263274
-84137161.637690
101834546.562199
104828431.825592
-80602240.716782
-82110979.903043
99733069.522067
102745404.468547
-78640237.312503
-80049322.177459
97682872.783717
100620691.994554
-76619590.463924
-78010149.502860
95446862.665525
98115534.784014
-74575807.327703
-75783771.903750
93118718.756296
95770896.632503
-72399569.615271
-73495341.091711
90908070.602399
93231112.852484
-70273097.630447
-71304410.698273
88458463.897630
90702465.026283
-68049705.841963
-69053708.685531
85917056.801449
88113880.610184
-65866539.138762
-66771035.646895
83265465.992134
85480441.171410
-63581998.867758
-64427009.284929
80690770.318338
82660909.098794
-61300611.774607
-62051576.946398
77989504.746905
79892994.884456
-59028958.170138
-59876747.149289
75202979.912900
76994937.158003
-56731007.141779
-57373181.576393
72567796.153563
74151209.644703
-54304578.387387
-55184635.032110
-53587230.705490
69722538.083251
71324675.651175
-52060942.850036
-51415401.996500
66955289.667275
68420638.424308
-49485023.943782
-49137722.821196
64135860.955574
65626047.704765
-47200517.930563
-46927060.883090
61374099.195036
62698020.210970
-44951160.936350
-44757587.671194
58668107.907134
59809574.471388
-42842157.845720
-42542084.497834
55885987.459607
57030603.688425
-40735267.346154
-40496006.042991
53117981.441352
54301944.795358
-38621632.502137
-38393970.821682
50442095.679761
51500779.849533
-36707164.865345
-36323168.676401
47753417.805533
48775423.634709
-34696713.102755
-34303828.581151
45045239.546912
46069273.438445
-32732224.021608
-32464089.455911
42344249.207707
43401893.759059
41716958.862333
-30862455.775907
-30638431.166116
40044873.279704
39365194.040656
-29093228.809489
-28792361.267929
37130003.297356
36931004.206111
-27375912.693766
-26946405.149672
34685779.816161
34585309.266808
-25589151.672825
-25372918.123516
32468867.966376
32276219.858771
-23986929.750854
-23751934.635978
30169622.238542
29998832.807126
-22416916.535220
-22231310.549573
28033121.317420
27923661.359491
-20964508.813724
-20702314.260976
25981378.204786
25961372.994660
-19492902.761075
-19219875.003090
24030175.485229
23855558.492889
-18148802.786422
-17803068.301876
22126457.922875
22058049.993217
-16815575.997899
-16474015.999140
20374940.773186
20294964.133778
-15498994.943707
-15330198.882387
18591833.266532
18528357.133617
-14393549.663935
-14000141.519496
17044624.504177
16910687.052906
-13151828.452366
-12959340.406241
15474304.037945
15371466.157263
-12034449.164642
-11880229.546864
14043348.634404
13829521.328472
-10997921.188024
-10867632.494211
-10137568.906428
12639577.865493
12586688.662507
-9908787.097877
-9331000.555637
11346396.564908
11260099.869977
-8875458.237741
-8450448.721454
10185257.585637
10139618.365460
-8056362.091964
-7644172.227110
9038151.765419
8934882.429145
-7224140.738491
-6878150.686453
8022161.907304
7930654.864083
-6436227.628226
-6113434.610702
7055884.664527
6977643.096060
-5737333.386385
-5501475.671088
6098148.081422
6141527.789520
-5132515.380048
-4922820.016944
5322468.688166
5300382.408979
-4528356.836813
-4293614.784370
4589188.400223
4573713.501129
-3956553.899623
-3775174.491983
3915781.666259
3837427.873006
-3537823.969370
-3267815.521557
3213031.870651
3264647.404815
-3021524.717340
-2818298.107238
2774167.179859
2898763.104206
-2598040.831458
-2397957.907986
2183532.556353
2454489.471969
-2194624.551622
-1995585.346546
1753840.067808
1996454.197731
-1907488.117727
-1663743.024947
1330125.992472
1587970.737289
-1537628.726723
-1347085.715740
1050877.292900
1230056.527979
-1166396.943032
-1191165.262149
772021.283111
1027658.115616
-991090.824969
-868227.051026
558394.309019
674946.064711
-797602.199092
-714831.989541
406180.198151
555872.491806
-624563.818512
-455814.550618
219375.932605
336036.605881
-455363.299125
-350038.029963
74813.781509
145432.779013
-154878.850474
-218300.585178
-57248.748912
84382.926574
-239877.987985
-213388.225963
-106411.109489
23000.160741
-142015.771565
-92720.152339
-240262.781402
-62381.322776
-34558.263721
74019.106111
-119496.268221
-103496.210782
60132.009618
11588.580830
-83621.734862
-155403.374049
86619.069691
25565.153565
-125139.404852
-141438.765413
-12297.704042
24037.007181
-100689.278192
-131887.198012
31953.821746
85168.235606
-110132.417268
-121804.008671
46994.039319
62118.443496
-64622.597432
-91672.478966
16522.405309
61189.108578
-24585.390095
2144.782563
7331.123186
-71890.403835
-6729.687249
-1074.164168
9074.102400
