# vtk DataFile Version 2.0
Generated volume Mesh
ASCII
DATASET UNSTRUCTURED_GRID
POINTS 994 float
-0.416146 -0.294827 0.000000
-0.409251 -0.287252 0.000000
-0.421925 -0.286495 0.000000
-0.410201 -0.303043 0.000000
-0.427538 -0.278049 0.000000
-0.404095 -0.311138 0.000000
-0.432982 -0.269494 0.000000
-0.397829 -0.319111 0.000000
-0.438254 -0.260832 0.000000
-0.391406 -0.326958 0.000000
-0.443353 -0.252067 0.000000
-0.384828 -0.334675 0.000000
-0.448277 -0.243202 0.000000
-0.378098 -0.342260 0.000000
-0.453024 -0.234242 0.000000
-0.371218 -0.349710 0.000000
-0.457592 -0.225188 0.000000
-0.364192 -0.357021 0.000000
-0.461979 -0.216046 0.000000
-0.357021 -0.364192 0.000000
-0.466183 -0.206818 0.000000
-0.349710 -0.371218 0.000000
-0.470203 -0.197508 0.000000
-0.342260 -0.378098 0.000000
-0.474037 -0.188120 0.000000
-0.334675 -0.384828 0.000000
-0.477683 -0.178658 0.000000
-0.326958 -0.391406 0.000000
-0.481141 -0.169126 0.000000
-0.319111 -0.397829 0.000000
-0.484408 -0.159526 0.000000
-0.311138 -0.404095 0.000000
-0.487484 -0.149864 0.000000
-0.303043 -0.410201 0.000000
-0.490368 -0.140141 0.000000
-0.294827 -0.416146 0.000000
-0.493057 -0.130363 0.000000
-0.286495 -0.421925 0.000000
-0.495552 -0.120532 0.000000
-0.278049 -0.427538 0.000000
-0.497851 -0.110654 0.000000
-0.269494 -0.432982 0.000000
-0.499953 -0.100732 0.000000
-0.260832 -0.438254 0.000000
-0.501857 -0.090771 0.000000
-0.252067 -0.443353 0.000000
-0.503563 -0.080774 0.000000
-0.243202 -0.448277 0.000000
-0.505069 -0.070746 0.000000
-0.234242 -0.453024 0.000000
-0.506376 -0.060691 0.000000
-0.225188 -0.457592 0.000000
-0.507482 -0.050612 0.000000
-0.216046 -0.461979 0.000000
-0.508388 -0.040514 0.000000
-0.206818 -0.466183 0.000000
-0.509093 -0.030400 0.000000
-0.197508 -0.470203 0.000000
-0.509597 -0.020274 0.000000
-0.188120 -0.474037 0.000000
-0.509899 -0.010139 0.000000
-0.178658 -0.477683 0.000000
-0.510000 0.000000 0.000000
-0.169126 -0.481141 0.000000
-0.509899 0.010139 0.000000
-0.509597 0.020274 0.000000
-0.159526 -0.484408 0.000000
-0.509093 0.030400 0.000000
-0.149864 -0.487484 0.000000
-0.508388 0.040514 0.000000
-0.140141 -0.490368 0.000000
-0.507482 0.050612 0.000000
-0.130363 -0.493057 0.000000
-0.506376 0.060691 0.000000
-0.120532 -0.495552 0.000000
-0.505069 0.070746 0.000000
-0.110654 -0.497851 0.000000
-0.503563 0.080774 0.000000
-0.100732 -0.499953 0.000000
-0.501857 0.090771 0.000000
-0.090771 -0.501857 0.000000
-0.499953 0.100732 0.000000
-0.080774 -0.503563 0.000000
-0.497851 0.110654 0.000000
-0.070746 -0.505069 0.000000
-0.495552 0.120532 0.000000
-0.060691 -0.506376 0.000000
-0.493057 0.130363 0.000000
-0.050612 -0.507482 0.000000
-0.490368 0.140141 0.000000
-0.040514 -0.508388 0.000000
-0.487484 0.149864 0.000000
-0.484408 0.159526 0.000000
-0.030400 -0.509093 0.000000
-0.020274 -0.509597 0.000000
-0.481141 0.169126 0.000000
-0.010139 -0.509899 0.000000
-0.477683 0.178658 0.000000
0.000000 -0.510000 0.000000
-0.474037 0.188120 0.000000
0.010139 -0.509899 0.000000
-0.470203 0.197508 0.000000
0.020274 -0.509597 0.000000
-0.466183 0.206818 0.000000
0.030400 -0.509093 0.000000
-0.461979 0.216046 0.000000
0.040514 -0.508388 0.000000
-0.457592 0.225188 0.000000
0.050612 -0.507482 0.000000
-0.453024 0.234242 0.000000
0.060691 -0.506376 0.000000
-0.448277 0.243202 0.000000
0.070746 -0.505069 0.000000
-0.443353 0.252067 0.000000
0.080774 -0.503563 0.000000
-0.438254 0.260832 0.000000
0.090771 -0.501857 0.000000
-0.432982 0.269494 0.000000
0.100732 -0.499953 0.000000
-0.427538 0.278049 0.000000
0.110654 -0.497851 0.000000
-0.421925 0.286495 0.000000
0.120532 -0.495552 0.000000
-0.416146 0.294827 0.000000
0.130363 -0.493057 0.000000
-0.410201 0.303043 0.000000
0.140141 -0.490368 0.000000
-0.404095 0.311138 0.000000
0.149864 -0.487484 0.000000
0.159526 -0.484408 0.000000
-0.397829 0.319111 0.000000
0.169126 -0.481141 0.000000
-0.391406 0.326958 0.000000
0.178658 -0.477683 0.000000
-0.384828 0.334675 0.000000
0.188120 -0.474037 0.000000
-0.378098 0.342260 0.000000
0.197508 -0.470203 0.000000
-0.371218 0.349710 0.000000
0.206818 -0.466183 0.000000
-0.364192 0.357021 0.000000
0.216046 -0.461979 0.000000
-0.357021 0.364192 0.000000
0.225188 -0.457592 0.000000
-0.349710 0.371218 0.000000
0.234242 -0.453024 0.000000
-0.342260 0.378098 0.000000
0.243202 -0.448277 0.000000
-0.334675 0.384828 0.000000
0.252067 -0.443353 0.000000
-0.326958 0.391406 0.000000
0.260832 -0.438254 0.000000
-0.319111 0.397829 0.000000
0.269494 -0.432982 0.000000
-0.311138 0.404095 0.000000
0.278049 -0.427538 0.000000
-0.303043 0.410201 0.000000
0.286495 -0.421925 0.000000
-0.294827 0.416146 0.000000
0.294827 -0.416146 0.000000
-0.286495 0.421925 0.000000
0.303043 -0.410201 0.000000
-0.278049 0.427538 0.000000
0.311138 -0.404095 0.000000
-0.269494 0.432982 0.000000
0.319111 -0.397829 0.000000
-0.260832 0.438254 0.000000
0.326958 -0.391406 0.000000
-0.252067 0.443353 0.000000
0.334675 -0.384828 0.000000
-0.243202 0.448277 0.000000
0.342260 -0.378098 0.000000
-0.234242 0.453024 0.000000
0.349710 -0.371218 0.000000
-0.225188 0.457592 0.000000
0.357021 -0.364192 0.000000
-0.216046 0.461979 0.000000
0.364192 -0.357021 0.000000
-0.206818 0.466183 0.000000
0.371218 -0.349710 0.000000
-0.197508 0.470203 0.000000
0.378098 -0.342260 0.000000
-0.188120 0.474037 0.000000
0.384828 -0.334675 0.000000
-0.178658 0.477683 0.000000
0.391406 -0.326958 0.000000
-0.169126 0.481141 0.000000
0.397829 -0.319111 0.000000
-0.159526 0.484408 0.000000
0.404095 -0.311138 0.000000
-0.149864 0.487484 0.000000
0.410201 -0.303043 0.000000
-0.140141 0.490368 0.000000
0.416146 -0.294827 0.000000
-0.130363 0.493057 0.000000
0.421925 -0.286495 0.000000
-0.120532 0.495552 0.000000
0.427538 -0.278049 0.000000
-0.110654 0.497851 0.000000
0.432982 -0.269494 0.000000
-0.100732 0.499953 0.000000
0.438254 -0.260832 0.000000
-0.090771 0.501857 0.000000
0.443353 -0.252067 0.000000
-0.080774 0.503563 0.000000
0.448277 -0.243202 0.000000
-0.070746 0.505069 0.000000
0.453024 -0.234242 0.000000
-0.060691 0.506376 0.000000
0.457592 -0.225188 0.000000
-0.050612 0.507482 0.000000
0.461979 -0.216046 0.000000
-0.040514 0.508388 0.000000
0.466183 -0.206818 0.000000
-0.030400 0.509093 0.000000
0.470203 -0.197508 0.000000
-0.020274 0.509597 0.000000
0.474037 -0.188120 0.000000
-0.010139 0.509899 0.000000
0.477683 -0.178658 0.000000
0.000000 0.510000 0.000000
0.481141 -0.169126 0.000000
0.010139 0.509899 0.000000
0.484408 -0.159526 0.000000
0.020274 0.509597 0.000000
0.487484 -0.149864 0.000000
0.030400 0.509093 0.000000
0.490368 -0.140141 0.000000
0.040514 0.508388 0.000000
0.493057 -0.130363 0.000000
0.050612 0.507482 0.000000
0.495552 -0.120532 0.000000
0.060691 0.506376 0.000000
0.497851 -0.110654 0.000000
0.070746 0.505069 0.000000
0.499953 -0.100732 0.000000
0.080774 0.503563 0.000000
0.501857 -0.090771 0.000000
0.090771 0.501857 0.000000
0.503563 -0.080774 0.000000
0.100732 0.499953 0.000000
0.505069 -0.070746 0.000000
0.110654 0.497851 0.000000
0.506376 -0.060691 0.000000
0.120532 0.495552 0.000000
0.507482 -0.050612 0.000000
0.130363 0.493057 0.000000
0.508388 -0.040514 0.000000
0.140141 0.490368 0.000000
0.509093 -0.030400 0.000000
0.149864 0.487484 0.000000
0.509597 -0.020274 0.000000
0.159526 0.484408 0.000000
0.509899 -0.010139 0.000000
0.169126 0.481141 0.000000
0.510000 0.000000 0.000000
0.178658 0.477683 0.000000
0.509899 0.010139 0.000000
0.188120 0.474037 0.000000
0.509597 0.020274 0.000000
0.197508 0.470203 0.000000
0.509093 0.030400 0.000000
0.206818 0.466183 0.000000
0.508388 0.040514 0.000000
0.216046 0.461979 0.000000
0.507482 0.050612 0.000000
0.225188 0.457592 0.000000
0.506376 0.060691 0.000000
0.234242 0.453024 0.000000
0.505069 0.070746 0.000000
0.243202 0.448277 0.000000
0.503563 0.080774 0.000000
0.252067 0.443353 0.000000
0.501857 0.090771 0.000000
0.260832 0.438254 0.000000
0.499953 0.100732 0.000000
0.269494 0.432982 0.000000
0.497851 0.110654 0.000000
0.278049 0.427538 0.000000
0.495552 0.120532 0.000000
0.286495 0.421925 0.000000
0.493057 0.130363 0.000000
0.294827 0.416146 0.000000
0.490368 0.140141 0.000000
0.303043 0.410201 0.000000
0.487484 0.149864 0.000000
0.311138 0.404095 0.000000
0.484408 0.159526 0.000000
0.319111 0.397829 0.000000
0.481141 0.169126 0.000000
0.326958 0.391406 0.000000
0.477683 0.178658 0.000000
0.334675 0.384828 0.000000
0.474037 0.188120 0.000000
0.342260 0.378098 0.000000
0.470203 0.197508 0.000000
0.349710 0.371218 0.000000
0.466183 0.206818 0.000000
0.357021 0.364192 0.000000
0.461979 0.216046 0.000000
0.364192 0.357021 0.000000
0.457592 0.225188 0.000000
0.371218 0.349710 0.000000
0.453024 0.234242 0.000000
0.378098 0.342260 0.000000
0.448277 0.243202 0.000000
0.384828 0.334675 0.000000
0.443353 0.252067 0.000000
0.391406 0.326958 0.000000
0.438254 0.260832 0.000000
0.397829 0.319111 0.000000
0.432982 0.269494 0.000000
0.404095 0.311138 0.000000
0.427538 0.278049 0.000000
0.410201 0.303043 0.000000
0.421925 0.286495 0.000000
0.416146 0.294827 0.000000
-0.415025 -0.278844 0.000000
-0.403306 -0.295541 0.000000
-0.420627 -0.270320 0.000000
-0.397194 -0.303706 0.000000
-0.426054 -0.261684 0.000000
-0.390916 -0.311745 0.000000
-0.431303 -0.252938 0.000000
-0.384475 -0.319654 0.000000
-0.436373 -0.244088 0.000000
-0.377875 -0.327430 0.000000
-0.441261 -0.235136 0.000000
-0.371117 -0.335070 0.000000
-0.445965 -0.226086 0.000000
-0.364205 -0.342571 0.000000
-0.450484 -0.216942 0.000000
-0.357141 -0.349929 0.000000
-0.454816 -0.207707 0.000000
-0.349929 -0.357141 0.000000
-0.458958 -0.198386 0.000000
-0.342571 -0.364205 0.000000
-0.462910 -0.188983 0.000000
-0.335070 -0.371117 0.000000
-0.466668 -0.179501 0.000000
-0.327430 -0.377875 0.000000
-0.470233 -0.169944 0.000000
-0.319654 -0.384475 0.000000
-0.473602 -0.160317 0.000000
-0.311745 -0.390916 0.000000
-0.476773 -0.150623 0.000000
-0.303706 -0.397194 0.000000
-0.479747 -0.140866 0.000000
-0.295541 -0.403306 0.000000
-0.482520 -0.131050 0.000000
-0.287252 -0.409251 0.000000
-0.485094 -0.121178 0.000000
-0.278844 -0.415025 0.000000
-0.487465 -0.111256 0.000000
-0.270320 -0.420627 0.000000
-0.489633 -0.101287 0.000000
-0.261684 -0.426054 0.000000
-0.491598 -0.091277 0.000000
-0.252938 -0.431303 0.000000
-0.493358 -0.081229 0.000000
-0.244088 -0.436373 0.000000
-0.494912 -0.071148 0.000000
-0.235136 -0.441261 0.000000
-0.496260 -0.061039 0.000000
-0.226086 -0.445965 0.000000
-0.497402 -0.050904 0.000000
-0.216942 -0.450484 0.000000
-0.498337 -0.040749 0.000000
-0.207707 -0.454816 0.000000
-0.499064 -0.030577 0.000000
-0.198386 -0.458958 0.000000
-0.499584 -0.020392 0.000000
-0.188983 -0.462910 0.000000
-0.499896 -0.010199 0.000000
-0.179501 -0.466668 0.000000
-0.500000 0.000000 0.000000
-0.169944 -0.470233 0.000000
-0.499896 0.010199 0.000000
-0.160317 -0.473602 0.000000
-0.499584 0.020392 0.000000
-0.150623 -0.476773 0.000000
-0.499064 0.030577 0.000000
-0.140866 -0.479747 0.000000
-0.498337 0.040749 0.000000
-0.131050 -0.482520 0.000000
-0.497402 0.050904 0.000000
-0.121178 -0.485094 0.000000
-0.496260 0.061039 0.000000
-0.111256 -0.487465 0.000000
-0.494912 0.071148 0.000000
-0.101287 -0.489633 0.000000
-0.493358 0.081229 0.000000
-0.091277 -0.491598 0.000000
-0.491598 0.091277 0.000000
-0.081229 -0.493358 0.000000
-0.489633 0.101287 0.000000
-0.071148 -0.494912 0.000000
-0.487465 0.111256 0.000000
-0.061039 -0.496260 0.000000
-0.485094 0.121178 0.000000
-0.050904 -0.497402 0.000000
-0.482520 0.131050 0.000000
-0.040749 -0.498337 0.000000
-0.479747 0.140866 0.000000
-0.030577 -0.499064 0.000000
-0.476773 0.150623 0.000000
-0.020392 -0.499584 0.000000
-0.473602 0.160317 0.000000
-0.010199 -0.499896 0.000000
-0.470233 0.169944 0.000000
0.000000 -0.500000 0.000000
-0.466668 0.179501 0.000000
0.010199 -0.499896 0.000000
-0.462910 0.188983 0.000000
0.020392 -0.499584 0.000000
-0.458958 0.198386 0.000000
0.030577 -0.499064 0.000000
-0.454816 0.207707 0.000000
0.040749 -0.498337 0.000000
-0.450484 0.216942 0.000000
0.050904 -0.497402 0.000000
-0.445965 0.226086 0.000000
0.061039 -0.496260 0.000000
-0.441261 0.235136 0.000000
0.071148 -0.494912 0.000000
-0.436373 0.244088 0.000000
0.081229 -0.493358 0.000000
-0.431303 0.252938 0.000000
0.091277 -0.491598 0.000000
-0.426054 0.261684 0.000000
0.101287 -0.489633 0.000000
-0.420627 0.270320 0.000000
0.111256 -0.487465 0.000000
-0.415025 0.278844 0.000000
0.121178 -0.485094 0.000000
-0.409251 0.287252 0.000000
0.131050 -0.482520 0.000000
-0.403306 0.295541 0.000000
0.140866 -0.479747 0.000000
-0.397194 0.303706 0.000000
0.150623 -0.476773 0.000000
-0.390916 0.311745 0.000000
0.160317 -0.473602 0.000000
-0.384475 0.319654 0.000000
0.169944 -0.470233 0.000000
-0.377875 0.327430 0.000000
0.179501 -0.466668 0.000000
-0.371117 0.335070 0.000000
0.188983 -0.462910 0.000000
-0.364205 0.342571 0.000000
0.198386 -0.458958 0.000000
-0.357141 0.349929 0.000000
0.207707 -0.454816 0.000000
-0.349929 0.357141 0.000000
0.216942 -0.450484 0.000000
-0.342571 0.364205 0.000000
0.226086 -0.445965 0.000000
-0.335070 0.371117 0.000000
0.235136 -0.441261 0.000000
-0.327430 0.377875 0.000000
0.244088 -0.436373 0.000000
-0.319654 0.384475 0.000000
0.252938 -0.431303 0.000000
-0.311745 0.390916 0.000000
0.261684 -0.426054 0.000000
-0.303706 0.397194 0.000000
0.270320 -0.420627 0.000000
-0.295541 0.403306 0.000000
0.278844 -0.415025 0.000000
-0.287252 0.409251 0.000000
0.287252 -0.409251 0.000000
-0.278844 0.415025 0.000000
0.295541 -0.403306 0.000000
-0.270320 0.420627 0.000000
0.303706 -0.397194 0.000000
-0.261684 0.426054 0.000000
0.311745 -0.390916 0.000000
-0.252938 0.431303 0.000000
0.319654 -0.384475 0.000000
-0.244088 0.436373 0.000000
0.327430 -0.377875 0.000000
-0.235136 0.441261 0.000000
0.335070 -0.371117 0.000000
-0.226086 0.445965 0.000000
0.342571 -0.364205 0.000000
-0.216942 0.450484 0.000000
0.349929 -0.357141 0.000000
-0.207707 0.454816 0.000000
0.357141 -0.349929 0.000000
-0.198386 0.458958 0.000000
0.364205 -0.342571 0.000000
-0.188983 0.462910 0.000000
0.371117 -0.335070 0.000000
-0.179501 0.466668 0.000000
0.377875 -0.327430 0.000000
-0.169944 0.470233 0.000000
0.384475 -0.319654 0.000000
-0.160317 0.473602 0.000000
0.390916 -0.311745 0.000000
-0.150623 0.476773 0.000000
0.397194 -0.303706 0.000000
-0.140866 0.479747 0.000000
0.403306 -0.295541 0.000000
-0.131050 0.482520 0.000000
0.409251 -0.287252 0.000000
-0.121178 0.485094 0.000000
0.415025 -0.278844 0.000000
-0.111256 0.487465 0.000000
0.420627 -0.270320 0.000000
-0.101287 0.489633 0.000000
0.426054 -0.261684 0.000000
-0.091277 0.491598 0.000000
0.431303 -0.252938 0.000000
-0.081229 0.493358 0.000000
0.436373 -0.244088 0.000000
-0.071148 0.494912 0.000000
0.441261 -0.235136 0.000000
-0.061039 0.496260 0.000000
0.445965 -0.226086 0.000000
-0.050904 0.497402 0.000000
0.450484 -0.216942 0.000000
-0.040749 0.498337 0.000000
0.454816 -0.207707 0.000000
-0.030577 0.499064 0.000000
0.458958 -0.198386 0.000000
-0.020392 0.499584 0.000000
0.462910 -0.188983 0.000000
-0.010199 0.499896 0.000000
0.466668 -0.179501 0.000000
0.000000 0.500000 0.000000
0.470233 -0.169944 0.000000
0.010199 0.499896 0.000000
0.473602 -0.160317 0.000000
0.020392 0.499584 0.000000
0.476773 -0.150623 0.000000
0.030577 0.499064 0.000000
0.479747 -0.140866 0.000000
0.040749 0.498337 0.000000
0.482520 -0.131050 0.000000
0.050904 0.497402 0.000000
0.485094 -0.121178 0.000000
0.061039 0.496260 0.000000
0.487465 -0.111256 0.000000
0.071148 0.494912 0.000000
0.489633 -0.101287 0.000000
0.081229 0.493358 0.000000
0.491598 -0.091277 0.000000
0.091277 0.491598 0.000000
0.493358 -0.081229 0.000000
0.101287 0.489633 0.000000
0.494912 -0.071148 0.000000
0.111256 0.487465 0.000000
0.496260 -0.061039 0.000000
0.121178 0.485094 0.000000
0.497402 -0.050904 0.000000
0.131050 0.482520 0.000000
0.498337 -0.040749 0.000000
0.140866 0.479747 0.000000
0.499064 -0.030577 0.000000
0.150623 0.476773 0.000000
0.499584 -0.020392 0.000000
0.160317 0.473602 0.000000
0.499896 -0.010199 0.000000
0.169944 0.470233 0.000000
0.500000 0.000000 0.000000
0.179501 0.466668 0.000000
0.499896 0.010199 0.000000
0.188983 0.462910 0.000000
0.499584 0.020392 0.000000
0.198386 0.458958 0.000000
0.499064 0.030577 0.000000
0.207707 0.454816 0.000000
0.498337 0.040749 0.000000
0.216942 0.450484 0.000000
0.497402 0.050904 0.000000
0.226086 0.445965 0.000000
0.496260 0.061039 0.000000
0.235136 0.441261 0.000000
0.494912 0.071148 0.000000
0.244088 0.436373 0.000000
0.493358 0.081229 0.000000
0.252938 0.431303 0.000000
0.491598 0.091277 0.000000
0.261684 0.426054 0.000000
0.489633 0.101287 0.000000
0.270320 0.420627 0.000000
0.487465 0.111256 0.000000
0.278844 0.415025 0.000000
0.485094 0.121178 0.000000
0.287252 0.409251 0.000000
0.482520 0.131050 0.000000
0.295541 0.403306 0.000000
0.479747 0.140866 0.000000
0.303706 0.397194 0.000000
0.476773 0.150623 0.000000
0.311745 0.390916 0.000000
0.473602 0.160317 0.000000
0.319654 0.384475 0.000000
0.470233 0.169944 0.000000
0.327430 0.377875 0.000000
0.466668 0.179501 0.000000
0.335070 0.371117 0.000000
0.462910 0.188983 0.000000
0.342571 0.364205 0.000000
0.458958 0.198386 0.000000
0.349929 0.357141 0.000000
0.454816 0.207707 0.000000
0.357141 0.349929 0.000000
0.450484 0.216942 0.000000
0.364205 0.342571 0.000000
0.445965 0.226086 0.000000
0.371117 0.335070 0.000000
0.441261 0.235136 0.000000
0.377875 0.327430 0.000000
0.436373 0.244088 0.000000
0.384475 0.319654 0.000000
0.431303 0.252938 0.000000
0.390916 0.311745 0.000000
0.426054 0.261684 0.000000
0.397194 0.303706 0.000000
0.420627 0.270320 0.000000
0.415025 0.278844 0.000000
0.403306 0.295541 0.000000
0.409251 0.287252 0.000000
-0.416651 -0.285100 0.000000
-0.409726 -0.295166 0.000000
-0.421429 -0.278105 0.000000
-0.403699 -0.303357 0.000000
-0.426806 -0.269823 0.000000
-0.397508 -0.311425 0.000000
-0.432197 -0.261278 0.000000
-0.391157 -0.319367 0.000000
-0.437327 -0.252500 0.000000
-0.384646 -0.327179 0.000000
-0.442314 -0.243721 0.000000
-0.377979 -0.334859 0.000000
-0.446941 -0.235122 0.000000
-0.450784 -0.228337 0.000000
-0.370462 -0.343155 0.000000
-0.455028 -0.219045 0.000000
-0.452668 -0.223420 0.000000
-0.364060 -0.349914 0.000000
-0.459296 -0.209724 0.000000
-0.457282 -0.214033 0.000000
-0.357103 -0.357057 0.000000
-0.461352 -0.204833 0.000000
-0.463724 -0.200363 0.000000
-0.350055 -0.363925 0.000000
-0.465669 -0.195543 0.000000
-0.467695 -0.190817 0.000000
-0.343998 -0.369738 0.000000
-0.471431 -0.181492 0.000000
-0.469405 -0.186286 0.000000
-0.334859 -0.377979 0.000000
-0.472952 -0.176626 0.000000
-0.474903 -0.171777 0.000000
-0.327179 -0.384646 0.000000
-0.478846 -0.161727 0.000000
-0.476435 -0.167155 0.000000
-0.319367 -0.391157 0.000000
-0.480787 -0.154555 0.000000
-0.311425 -0.397508 0.000000
-0.483607 -0.145275 0.000000
-0.303357 -0.403699 0.000000
-0.486452 -0.135600 0.000000
-0.293440 -0.410921 0.000000
-0.489031 -0.125774 0.000000
-0.286535 -0.415757 0.000000
-0.491508 -0.115921 0.000000
-0.278352 -0.421319 0.000000
-0.493686 -0.106038 0.000000
-0.269886 -0.426828 0.000000
-0.495651 -0.096362 0.000000
-0.261233 -0.432144 0.000000
-0.497198 -0.088074 0.000000
-0.252462 -0.437285 0.000000
-0.499250 -0.075953 0.000000
-0.243613 -0.442280 0.000000
-0.500654 -0.065906 0.000000
-0.234715 -0.447127 0.000000
-0.228640 -0.450519 0.000000
-0.501880 -0.055811 0.000000
-0.218895 -0.455215 0.000000
-0.223224 -0.452881 0.000000
-0.502902 -0.045695 0.000000
-0.209733 -0.459391 0.000000
-0.214212 -0.457190 0.000000
-0.503721 -0.035560 0.000000
-0.200365 -0.463733 0.000000
-0.204804 -0.461613 0.000000
-0.195531 -0.465664 0.000000
-0.190784 -0.467722 0.000000
-0.504503 -0.023225 0.000000
-0.186244 -0.469425 0.000000
-0.181531 -0.471460 0.000000
-0.504773 -0.013853 0.000000
-0.176954 -0.472745 0.000000
-0.171678 -0.474859 0.000000
-0.505074 -0.003656 0.000000
-0.167137 -0.476450 0.000000
-0.161673 -0.478820 0.000000
-0.504932 0.006910 0.000000
-0.154529 -0.480797 0.000000
-0.504834 0.020042 0.000000
-0.145171 -0.483695 0.000000
-0.503551 0.037586 0.000000
-0.135593 -0.486453 0.000000
-0.502892 0.045680 0.000000
-0.125775 -0.489083 0.000000
-0.502191 0.053713 0.000000
-0.115940 -0.491464 0.000000
-0.500654 0.065906 0.000000
-0.106312 -0.493603 0.000000
-0.499225 0.075974 0.000000
-0.098005 -0.495252 0.000000
-0.497594 0.086013 0.000000
-0.086013 -0.497594 0.000000
-0.495252 0.098004 0.000000
-0.075974 -0.499225 0.000000
-0.493597 0.106314 0.000000
-0.065906 -0.500654 0.000000
-0.491428 0.115952 0.000000
-0.053714 -0.502191 0.000000
-0.489011 0.125775 0.000000
-0.045680 -0.502892 0.000000
-0.486412 0.135576 0.000000
-0.037586 -0.503551 0.000000
-0.483678 0.145285 0.000000
-0.480787 0.154548 0.000000
-0.478775 0.161676 0.000000
-0.019993 -0.505013 0.000000
-0.474875 0.171814 0.000000
-0.476450 0.167142 0.000000
-0.006399 -0.504863 0.000000
-0.471460 0.181500 0.000000
-0.472984 0.176743 0.000000
0.004056 -0.505080 0.000000
-0.469459 0.186171 0.000000
-0.467574 0.190927 0.000000
0.014245 -0.504767 0.000000
-0.465619 0.195494 0.000000
-0.463733 0.200332 0.000000
0.023224 -0.504502 0.000000
-0.461448 0.204867 0.000000
-0.459421 0.209641 0.000000
0.035560 -0.503721 0.000000
-0.457230 0.214138 0.000000
-0.455198 0.218914 0.000000
0.045695 -0.502902 0.000000
-0.452908 0.223198 0.000000
-0.450716 0.228508 0.000000
0.055811 -0.501880 0.000000
-0.446914 0.235146 0.000000
0.065906 -0.500654 0.000000
-0.442240 0.243700 0.000000
0.075974 -0.499225 0.000000
-0.437272 0.252473 0.000000
0.088074 -0.497198 0.000000
-0.432109 0.261213 0.000000
0.096362 -0.495651 0.000000
-0.426787 0.269860 0.000000
0.106034 -0.493683 0.000000
-0.421297 0.278338 0.000000
0.115913 -0.491500 0.000000
-0.415757 0.286535 0.000000
0.125776 -0.489039 0.000000
-0.410932 0.293439 0.000000
0.135601 -0.486450 0.000000
-0.403699 0.303357 0.000000
0.145277 -0.483606 0.000000
-0.397508 0.311425 0.000000
0.154557 -0.480774 0.000000
0.161733 -0.478769 0.000000
-0.391157 0.319367 0.000000
0.167091 -0.476488 0.000000
0.171718 -0.474954 0.000000
-0.384646 0.327179 0.000000
0.176707 -0.473000 0.000000
0.181505 -0.471475 0.000000
-0.377979 0.334859 0.000000
0.186295 -0.469391 0.000000
0.190925 -0.467576 0.000000
-0.369765 0.344010 0.000000
0.195633 -0.465648 0.000000
0.200345 -0.463770 0.000000
-0.363926 0.350050 0.000000
0.209734 -0.459450 0.000000
0.204910 -0.461509 0.000000
-0.357034 0.357061 0.000000
0.214072 -0.457247 0.000000
0.218980 -0.455067 0.000000
-0.349993 0.364032 0.000000
0.228256 -0.450815 0.000000
0.223408 -0.452712 0.000000
-0.343912 0.369752 0.000000
0.235109 -0.446946 0.000000
-0.334859 0.377979 0.000000
0.243720 -0.442311 0.000000
-0.327179 0.384646 0.000000
0.252483 -0.437299 0.000000
-0.319367 0.391157 0.000000
0.261251 -0.432197 0.000000
-0.311425 0.397508 0.000000
0.269819 -0.426806 0.000000
-0.303357 0.403699 0.000000
0.278114 -0.421436 0.000000
-0.295166 0.409726 0.000000
0.285106 -0.416757 0.000000
-0.285453 0.416477 0.000000
0.295191 -0.409722 0.000000
-0.278168 0.421408 0.000000
0.303357 -0.403699 0.000000
-0.269849 0.426857 0.000000
0.311425 -0.397508 0.000000
-0.261220 0.432122 0.000000
0.319367 -0.391157 0.000000
-0.252526 0.437285 0.000000
0.327179 -0.384646 0.000000
-0.243742 0.442304 0.000000
0.334859 -0.377979 0.000000
-0.235192 0.446897 0.000000
-0.228742 0.450552 0.000000
0.343167 -0.370539 0.000000
-0.223460 0.452663 0.000000
-0.218979 0.455026 0.000000
0.349916 -0.364073 0.000000
-0.214046 0.457197 0.000000
-0.209660 0.459391 0.000000
0.357057 -0.357104 0.000000
-0.200375 0.463730 0.000000
-0.204910 0.461372 0.000000
0.363930 -0.350058 0.000000
-0.195557 0.465613 0.000000
-0.190944 0.467564 0.000000
0.369764 -0.344011 0.000000
-0.181545 0.471428 0.000000
-0.186254 0.469430 0.000000
0.377979 -0.334859 0.000000
-0.176635 0.472984 0.000000
-0.171918 0.474870 0.000000
0.384646 -0.327179 0.000000
-0.161683 0.478683 0.000000
-0.167009 0.476454 0.000000
0.391157 -0.319367 0.000000
-0.154877 0.480582 0.000000
0.397508 -0.311425 0.000000
-0.145423 0.483611 0.000000
0.403699 -0.303357 0.000000
-0.135605 0.486389 0.000000
0.410921 -0.293440 0.000000
-0.125786 0.489034 0.000000
0.415757 -0.286535 0.000000
-0.115924 0.491501 0.000000
0.421276 -0.278351 0.000000
-0.106038 0.493682 0.000000
0.426786 -0.269861 0.000000
-0.096362 0.495651 0.000000
0.432129 -0.261224 0.000000
-0.088074 0.497198 0.000000
0.437364 -0.252518 0.000000
-0.075974 0.499225 0.000000
0.442255 -0.243696 0.000000
-0.065906 0.500654 0.000000
0.446901 -0.235165 0.000000
0.450626 -0.228629 0.000000
-0.055811 0.501880 0.000000
0.452863 -0.223239 0.000000
0.455037 -0.219014 0.000000
-0.045695 0.502902 0.000000
0.457157 -0.214077 0.000000
0.459396 -0.209621 0.000000
-0.035560 0.503721 0.000000
0.461359 -0.204897 0.000000
0.463695 -0.200361 0.000000
-0.023304 0.504424 0.000000
0.465641 -0.195495 0.000000
0.467606 -0.190951 0.000000
-0.014879 0.504782 0.000000
0.469414 -0.186248 0.000000
0.471411 -0.181540 0.000000
-0.005033 0.504925 0.000000
0.472918 -0.176630 0.000000
0.474886 -0.171779 0.000000
0.005043 0.504929 0.000000
0.476453 -0.167022 0.000000
0.478685 -0.161862 0.000000
0.014951 0.504764 0.000000
0.480771 -0.154583 0.000000
0.023215 0.504525 0.000000
0.483673 -0.145303 0.000000
0.037586 0.503551 0.000000
0.486450 -0.135593 0.000000
0.045750 0.502896 0.000000
0.489087 -0.125805 0.000000
0.053799 0.502083 0.000000
0.491453 -0.115970 0.000000
0.065906 0.500654 0.000000
0.493600 -0.106336 0.000000
0.075974 0.499225 0.000000
0.495243 -0.098118 0.000000
0.086013 0.497594 0.000000
0.497594 -0.086013 0.000000
0.098116 0.495243 0.000000
0.499225 -0.075974 0.000000
0.106336 0.493600 0.000000
0.500654 -0.065906 0.000000
0.115972 0.491452 0.000000
0.502084 -0.053799 0.000000
0.125820 0.489079 0.000000
0.502897 -0.045748 0.000000
0.135587 0.486408 0.000000
0.503551 -0.037586 0.000000
0.145284 0.483678 0.000000
0.504412 -0.023728 0.000000
0.154553 0.480792 0.000000
0.504678 -0.016946 0.000000
0.161702 0.478804 0.000000
0.166954 0.476453 0.000000
0.504949 -0.002996 0.000000
0.171459 0.474989 0.000000
0.176706 0.472959 0.000000
0.504952 0.005359 0.000000
0.181613 0.471429 0.000000
0.186155 0.469450 0.000000
0.504776 0.014970 0.000000
0.190941 0.467614 0.000000
0.195461 0.465640 0.000000
0.504507 0.023301 0.000000
0.200321 0.463696 0.000000
0.204665 0.461639 0.000000
0.503721 0.035560 0.000000
0.209779 0.459311 0.000000
0.214128 0.457065 0.000000
0.502902 0.045695 0.000000
0.218898 0.455083 0.000000
0.223160 0.452917 0.000000
0.501880 0.055811 0.000000
0.228588 0.450696 0.000000
0.500654 0.065906 0.000000
0.235160 0.446911 0.000000
0.499225 0.075974 0.000000
0.243704 0.442242 0.000000
0.497198 0.088074 0.000000
0.252477 0.437275 0.000000
0.495651 0.096362 0.000000
0.261232 0.432125 0.000000
0.493684 0.106044 0.000000
0.269859 0.426787 0.000000
0.491464 0.115912 0.000000
0.278336 0.421300 0.000000
0.489031 0.125776 0.000000
0.286532 0.415761 0.000000
0.486389 0.135603 0.000000
0.293440 0.410921 0.000000
0.483609 0.145424 0.000000
0.303357 0.403699 0.000000
0.480578 0.154802 0.000000
0.311425 0.397508 0.000000
0.478655 0.161751 0.000000
0.476452 0.166982 0.000000
0.319367 0.391157 0.000000
0.474971 0.171610 0.000000
0.472982 0.176607 0.000000
0.327179 0.384646 0.000000
0.471433 0.181509 0.000000
0.469353 0.186363 0.000000
0.334859 0.377979 0.000000
0.467613 0.190886 0.000000
0.465645 0.195476 0.000000
0.344010 0.369764 0.000000
0.461373 0.204887 0.000000
0.463686 0.200316 0.000000
0.350057 0.363930 0.000000
0.459353 0.209725 0.000000
0.457070 0.214141 0.000000
0.357100 0.357062 0.000000
0.452708 0.223419 0.000000
0.455125 0.218877 0.000000
0.364020 0.349971 0.000000
0.450552 0.228739 0.000000
0.370222 0.343498 0.000000
0.446889 0.235184 0.000000
0.377979 0.334859 0.000000
0.442252 0.243700 0.000000
0.384646 0.327179 0.000000
0.437360 0.252522 0.000000
0.391146 0.319394 0.000000
0.432139 0.261225 0.000000
0.397501 0.311463 0.000000
0.426837 0.269829 0.000000
0.403699 0.303357 0.000000
0.421434 0.278106 0.000000
0.416650 0.285100 0.000000
0.409726 0.295166 0.000000
CELLS 1364 5456
3 624 2 0
3 624 0 1
3 624 1 317
3 317 626 624
3 626 317 319
3 319 628 626
3 4 626 628
3 628 6 4
3 6 628 630
3 630 8 6
3 8 630 632
3 632 10 8
3 10 632 634
3 634 12 10
3 12 634 636
3 636 14 12
3 14 636 637
3 637 16 14
3 640 16 637
3 637 329 640
3 640 329 331
3 639 640 331
3 639 331 643
3 643 18 639
3 639 18 16
3 643 642 18
3 642 20 18
3 645 20 642
3 642 333 645
3 645 333 335
3 646 645 335
3 646 335 648
3 648 22 646
3 646 22 20
3 648 649 22
3 649 24 22
3 652 24 649
3 649 337 652
3 652 337 339
3 651 652 339
3 651 339 654
3 654 26 651
3 651 26 24
3 654 655 26
3 655 28 26
3 658 28 655
3 655 341 658
3 658 341 343
3 657 658 343
3 657 343 660
3 30 657 660
3 660 32 30
3 32 660 662
3 662 34 32
3 34 662 664
3 664 36 34
3 36 664 666
3 666 38 36
3 38 666 668
3 668 40 38
3 40 668 670
3 670 42 40
3 42 670 672
3 672 44 42
3 44 672 674
3 674 46 44
3 674 359 46
3 676 46 359
3 676 359 361
3 676 361 48
3 678 48 361
3 678 361 363
3 678 363 50
3 681 50 363
3 681 363 365
3 681 365 52
3 684 52 365
3 684 365 367
3 684 367 54
3 687 54 367
3 687 367 369
3 687 369 56
3 692 56 369
3 692 369 371
3 371 695 692
3 58 692 695
3 695 60 58
3 60 695 698
3 698 62 60
3 62 698 701
3 701 64 62
3 64 701 703
3 65 64 703
3 65 703 67
3 67 703 381
3 705 67 381
3 705 381 383
3 383 707 705
3 69 705 707
3 707 71 69
3 71 707 709
3 709 73 71
3 709 387 73
3 711 73 387
3 711 387 389
3 711 389 75
3 713 75 389
3 713 389 391
3 713 391 77
3 715 77 391
3 715 391 393
3 715 393 79
3 717 79 393
3 717 393 395
3 395 719 717
3 81 717 719
3 719 83 81
3 83 719 721
3 721 85 83
3 85 721 723
3 723 87 85
3 87 723 725
3 725 89 87
3 89 725 727
3 727 91 89
3 91 727 728
3 728 92 91
3 92 728 729
3 729 95 92
3 732 95 729
3 729 407 732
3 732 407 409
3 731 732 409
3 731 409 735
3 735 97 731
3 731 97 95
3 735 734 97
3 734 99 97
3 737 99 734
3 734 411 737
3 737 411 413
3 738 737 413
3 738 413 740
3 740 101 738
3 738 101 99
3 740 741 101
3 741 103 101
3 743 103 741
3 741 415 743
3 743 415 417
3 744 743 417
3 744 417 746
3 746 105 744
3 744 105 103
3 746 747 105
3 747 107 105
3 749 107 747
3 747 419 749
3 749 419 421
3 750 749 421
3 750 421 752
3 109 750 752
3 752 111 109
3 111 752 754
3 754 113 111
3 113 754 756
3 756 115 113
3 115 756 758
3 758 117 115
3 117 758 760
3 760 119 117
3 119 760 762
3 762 121 119
3 121 762 764
3 764 123 121
3 123 764 766
3 766 125 123
3 766 437 125
3 768 125 437
3 768 437 439
3 768 439 127
3 770 127 439
3 770 439 441
3 770 441 130
3 773 130 441
3 773 441 443
3 773 443 132
3 776 132 443
3 776 443 445
3 776 445 134
3 779 134 445
3 779 445 447
3 779 447 136
3 782 136 447
3 782 447 449
3 449 785 782
3 138 782 785
3 785 140 138
3 140 785 788
3 788 142 140
3 142 788 791
3 791 144 142
3 144 791 794
3 794 146 144
3 794 457 146
3 796 146 457
3 796 457 459
3 796 459 148
3 798 148 459
3 798 459 461
3 798 461 150
3 800 150 461
3 800 461 463
3 800 463 152
3 802 152 463
3 802 463 465
3 802 465 154
3 804 154 465
3 804 465 467
3 804 467 156
3 806 156 467
3 806 467 469
3 806 469 158
3 808 158 469
3 808 469 471
3 471 810 808
3 160 808 810
3 810 162 160
3 162 810 812
3 812 164 162
3 164 812 814
3 814 166 164
3 166 814 816
3 816 168 166
3 168 816 818
3 818 170 168
3 170 818 820
3 820 172 170
3 172 820 821
3 821 174 172
3 823 174 821
3 821 483 823
3 823 483 485
3 824 823 485
3 824 485 826
3 826 176 824
3 824 176 174
3 826 827 176
3 827 178 176
3 830 178 827
3 827 487 830
3 830 487 489
3 829 830 489
3 829 489 832
3 832 180 829
3 829 180 178
3 832 833 180
3 833 182 180
3 836 182 833
3 833 491 836
3 836 491 493
3 835 836 493
3 835 493 838
3 838 184 835
3 835 184 182
3 838 839 184
3 839 186 184
3 842 186 839
3 839 495 842
3 842 495 497
3 841 842 497
3 841 497 844
3 188 841 844
3 844 190 188
3 190 844 846
3 846 192 190
3 192 846 848
3 848 194 192
3 194 848 850
3 850 196 194
3 196 850 852
3 852 198 196
3 198 852 854
3 854 200 198
3 200 854 856
3 856 202 200
3 202 856 858
3 858 204 202
3 858 513 204
3 860 204 513
3 860 513 515
3 860 515 206
3 862 206 515
3 862 515 517
3 862 517 208
3 865 208 517
3 865 517 519
3 865 519 210
3 868 210 519
3 868 519 521
3 868 521 212
3 871 212 521
3 871 521 523
3 871 523 214
3 874 214 523
3 874 523 525
3 525 877 874
3 216 874 877
3 877 218 216
3 218 877 880
3 880 220 218
3 220 880 883
3 883 222 220
3 222 883 886
3 886 224 222
3 224 886 888
3 888 226 224
3 888 535 226
3 890 226 535
3 890 535 537
3 537 892 890
3 228 890 892
3 892 230 228
3 230 892 894
3 894 232 230
3 894 541 232
3 896 232 541
3 896 541 543
3 896 543 234
3 898 234 543
3 898 543 545
3 898 545 236
3 900 236 545
3 900 545 547
3 900 547 238
3 902 238 547
3 902 547 549
3 549 904 902
3 902 904 240
3 904 242 240
3 242 904 906
3 906 244 242
3 244 906 908
3 908 246 244
3 246 908 910
3 910 248 246
3 248 910 912
3 912 250 248
3 250 912 914
3 914 252 250
3 252 914 916
3 916 254 252
3 917 254 916
3 916 561 917
3 917 561 563
3 919 917 563
3 919 563 920
3 920 256 919
3 919 256 254
3 920 922 256
3 922 258 256
3 923 258 922
3 922 565 923
3 923 565 567
3 925 923 567
3 925 567 926
3 926 260 925
3 925 260 258
3 926 928 260
3 928 262 260
3 929 262 928
3 928 569 929
3 929 569 571
3 931 929 571
3 931 571 932
3 932 264 931
3 931 264 262
3 932 934 264
3 934 266 264
3 935 266 934
3 934 573 935
3 935 573 575
3 937 935 575
3 937 575 939
3 268 937 939
3 939 270 268
3 270 939 941
3 941 272 270
3 272 941 943
3 943 274 272
3 274 943 945
3 945 276 274
3 276 945 947
3 947 278 276
3 278 947 949
3 949 280 278
3 280 949 951
3 951 282 280
3 282 951 953
3 953 284 282
3 953 591 284
3 955 284 591
3 955 591 593
3 955 593 286
3 957 286 593
3 957 593 595
3 957 595 288
3 960 288 595
3 960 595 597
3 960 597 290
3 963 290 597
3 963 597 599
3 963 599 292
3 966 292 599
3 966 599 601
3 966 601 294
3 969 294 601
3 969 601 603
3 603 972 969
3 296 969 972
3 972 298 296
3 298 972 975
3 975 300 298
3 300 975 978
3 978 302 300
3 302 978 980
3 980 304 302
3 980 611 304
3 982 304 611
3 982 611 613
3 982 613 306
3 984 306 613
3 984 613 615
3 984 615 308
3 986 308 615
3 986 615 617
3 986 617 310
3 988 310 617
3 988 617 619
3 988 619 312
3 990 312 619
3 990 619 622
3 990 622 314
3 993 314 622
3 993 622 623
3 993 623 316
3 992 316 623
3 992 623 621
3 621 991 992
3 315 992 991
3 991 313 315
3 313 991 989
3 989 311 313
3 311 989 987
3 987 309 311
3 309 987 985
3 985 307 309
3 307 985 983
3 983 305 307
3 305 983 981
3 981 303 305
3 303 981 979
3 979 301 303
3 976 301 979
3 979 610 976
3 976 610 608
3 977 976 608
3 977 608 974
3 974 299 977
3 977 299 301
3 974 973 299
3 973 297 299
3 970 297 973
3 973 606 970
3 970 606 604
3 971 970 604
3 971 604 968
3 968 295 971
3 971 295 297
3 968 967 295
3 967 293 295
3 965 293 967
3 967 602 965
3 965 602 600
3 964 965 600
3 964 600 962
3 962 291 964
3 964 291 293
3 962 961 291
3 961 289 291
3 959 289 961
3 961 598 959
3 959 598 596
3 958 959 596
3 958 596 956
3 287 958 956
3 956 285 287
3 285 956 954
3 954 283 285
3 283 954 952
3 952 281 283
3 281 952 950
3 950 279 281
3 279 950 948
3 948 277 279
3 277 948 946
3 946 275 277
3 275 946 944
3 944 273 275
3 273 944 942
3 942 271 273
3 942 580 271
3 940 271 580
3 940 580 578
3 940 578 269
3 938 269 578
3 938 578 576
3 938 576 267
3 936 267 576
3 936 576 574
3 936 574 265
3 933 265 574
3 933 574 572
3 933 572 263
3 930 263 572
3 930 572 570
3 930 570 261
3 927 261 570
3 927 570 568
3 568 924 927
3 259 927 924
3 924 257 259
3 257 924 921
3 921 255 257
3 255 921 918
3 918 253 255
3 918 562 253
3 915 253 562
3 915 562 560
3 560 913 915
3 251 915 913
3 913 249 251
3 913 558 249
3 911 249 558
3 911 558 556
3 556 909 911
3 247 911 909
3 909 245 247
3 245 909 907
3 907 243 245
3 907 552 243
3 905 243 552
3 905 552 550
3 905 550 241
3 903 241 550
3 903 550 548
3 903 548 239
3 901 239 548
3 901 548 546
3 901 546 237
3 899 237 546
3 899 546 544
3 544 897 899
3 899 897 235
3 897 233 235
3 233 897 895
3 895 231 233
3 231 895 893
3 893 229 231
3 229 893 891
3 891 227 229
3 227 891 889
3 889 225 227
3 225 889 887
3 887 223 225
3 223 887 885
3 885 221 223
3 884 221 885
3 885 532 884
3 884 532 530
3 882 884 530
3 882 530 881
3 881 219 882
3 882 219 221
3 881 879 219
3 879 217 219
3 878 217 879
3 879 528 878
3 878 528 526
3 876 878 526
3 876 526 875
3 875 215 876
3 876 215 217
3 875 873 215
3 873 213 215
3 872 213 873
3 873 524 872
3 872 524 522
3 870 872 522
3 870 522 869
3 869 211 870
3 870 211 213
3 869 867 211
3 867 209 211
3 866 209 867
3 867 520 866
3 866 520 518
3 864 866 518
3 864 518 863
3 207 864 863
3 863 205 207
3 205 863 861
3 861 203 205
3 203 861 859
3 859 201 203
3 201 859 857
3 857 199 201
3 199 857 855
3 855 197 199
3 197 855 853
3 853 195 197
3 195 853 851
3 851 193 195
3 193 851 849
3 849 191 193
3 849 502 191
3 847 191 502
3 847 502 500
3 847 500 189
3 845 189 500
3 845 500 498
3 845 498 187
3 843 187 498
3 843 498 496
3 843 496 185
3 840 185 496
3 840 496 494
3 840 494 183
3 837 183 494
3 837 494 492
3 837 492 181
3 834 181 492
3 834 492 490
3 490 831 834
3 179 834 831
3 831 177 179
3 177 831 828
3 828 175 177
3 175 828 825
3 825 173 175
3 173 825 822
3 822 171 173
3 822 482 171
3 819 171 482
3 819 482 480
3 819 480 169
3 817 169 480
3 817 480 478
3 817 478 167
3 815 167 478
3 815 478 476
3 815 476 165
3 813 165 476
3 813 476 474
3 813 474 163
3 811 163 474
3 811 474 472
3 811 472 161
3 809 161 472
3 809 472 470
3 809 470 159
3 807 159 470
3 807 470 468
3 468 805 807
3 157 807 805
3 805 155 157
3 155 805 803
3 803 153 155
3 153 803 801
3 801 151 153
3 151 801 799
3 799 149 151
3 149 799 797
3 797 147 149
3 147 797 795
3 795 145 147
3 145 795 792
3 792 143 145
3 793 143 792
3 792 456 793
3 793 456 454
3 790 793 454
3 790 454 789
3 789 141 790
3 790 141 143
3 789 786 141
3 786 139 141
3 787 139 786
3 786 452 787
3 787 452 450
3 784 787 450
3 784 450 783
3 783 137 784
3 784 137 139
3 783 781 137
3 781 135 137
3 780 135 781
3 781 448 780
3 780 448 446
3 778 780 446
3 778 446 777
3 777 133 778
3 778 133 135
3 777 775 133
3 775 131 133
3 774 131 775
3 775 444 774
3 774 444 442
3 772 774 442
3 772 442 771
3 129 772 771
3 771 128 129
3 128 771 769
3 769 126 128
3 126 769 767
3 767 124 126
3 124 767 765
3 765 122 124
3 122 765 763
3 763 120 122
3 120 763 761
3 761 118 120
3 118 761 759
3 759 116 118
3 116 759 757
3 757 114 116
3 757 426 114
3 755 114 426
3 755 426 424
3 755 424 112
3 753 112 424
3 753 424 422
3 753 422 110
3 751 110 422
3 751 422 420
3 751 420 108
3 748 108 420
3 748 420 418
3 748 418 106
3 745 106 418
3 745 418 416
3 745 416 104
3 742 104 416
3 742 416 414
3 414 739 742
3 102 742 739
3 739 100 102
3 100 739 736
3 736 98 100
3 98 736 733
3 733 96 98
3 96 733 730
3 94 96 730
3 94 730 93
3 93 730 404
3 726 93 404
3 726 404 402
3 402 724 726
3 90 726 724
3 724 88 90
3 88 724 722
3 722 86 88
3 722 398 86
3 720 86 398
3 720 398 396
3 720 396 84
3 718 84 396
3 718 396 394
3 718 394 82
3 716 82 394
3 716 394 392
3 716 392 80
3 714 80 392
3 714 392 390
3 390 712 714
3 78 714 712
3 712 76 78
3 76 712 710
3 710 74 76
3 74 710 708
3 708 72 74
3 72 708 706
3 706 70 72
3 70 706 704
3 704 68 70
3 68 704 702
3 702 66 68
3 66 702 700
3 700 63 66
3 699 63 700
3 700 378 699
3 699 378 376
3 697 699 376
3 697 376 696
3 696 61 697
3 697 61 63
3 696 694 61
3 694 59 61
3 693 59 694
3 694 374 693
3 693 374 372
3 691 693 372
3 691 372 690
3 690 57 691
3 691 57 59
3 690 688 57
3 688 55 57
3 689 55 688
3 688 370 689
3 689 370 368
3 685 689 368
3 685 368 686
3 686 53 685
3 685 53 55
3 686 682 53
3 682 51 53
3 683 51 682
3 682 366 683
3 683 366 364
3 680 683 364
3 680 364 679
3 49 680 679
3 679 47 49
3 47 679 677
3 677 45 47
3 45 677 675
3 675 43 45
3 43 675 673
3 673 41 43
3 41 673 671
3 671 39 41
3 39 671 669
3 669 37 39
3 37 669 667
3 667 35 37
3 35 667 665
3 665 33 35
3 665 348 33
3 663 33 348
3 663 348 346
3 663 346 31
3 661 31 346
3 661 346 344
3 661 344 29
3 659 29 344
3 659 344 342
3 659 342 27
3 656 27 342
3 656 342 340
3 656 340 25
3 653 25 340
3 653 340 338
3 653 338 23
3 650 23 338
3 650 338 336
3 336 647 650
3 21 650 647
3 647 19 21
3 19 647 644
3 644 17 19
3 17 644 641
3 641 15 17
3 15 641 638
3 638 13 15
3 638 328 13
3 635 13 328
3 635 328 326
3 635 326 11
3 633 11 326
3 633 326 324
3 633 324 9
3 631 9 324
3 631 324 322
3 631 322 7
3 629 7 322
3 629 322 320
3 629 320 5
3 627 5 320
3 627 320 318
3 627 318 3
3 625 3 318
3 625 318 1
3 625 0 3
3 627 3 5
3 629 5 7
3 631 7 9
3 633 9 11
3 635 11 13
3 638 330 328
3 330 638 641
3 641 332 330
3 332 641 644
3 644 334 332
3 334 644 647
3 647 336 334
3 650 21 23
3 653 23 25
3 656 25 27
3 659 27 29
3 661 29 31
3 663 31 33
3 665 350 348
3 350 665 667
3 667 352 350
3 352 667 669
3 669 354 352
3 354 669 671
3 671 356 354
3 356 671 673
3 673 358 356
3 358 673 675
3 675 360 358
3 360 675 677
3 677 362 360
3 362 677 679
3 680 49 51
3 679 364 362
3 683 680 51
3 682 686 366
3 686 368 366
3 689 685 55
3 688 690 370
3 690 372 370
3 693 691 59
3 694 696 374
3 696 376 374
3 699 697 63
3 700 702 378
3 702 380 378
3 380 702 704
3 704 382 380
3 382 704 706
3 706 384 382
3 384 706 708
3 708 386 384
3 386 708 710
3 710 388 386
3 388 710 712
3 712 390 388
3 714 78 80
3 716 80 82
3 718 82 84
3 720 84 86
3 722 400 398
3 400 722 724
3 724 402 400
3 726 90 93
3 406 404 730
3 406 730 408
3 408 730 733
3 733 410 408
3 410 733 736
3 736 412 410
3 412 736 739
3 739 414 412
3 742 102 104
3 745 104 106
3 748 106 108
3 751 108 110
3 753 110 112
3 755 112 114
3 757 428 426
3 428 757 759
3 759 430 428
3 430 759 761
3 761 432 430
3 432 761 763
3 763 434 432
3 434 763 765
3 765 436 434
3 436 765 767
3 767 438 436
3 438 767 769
3 769 440 438
3 440 769 771
3 772 129 131
3 771 442 440
3 774 772 131
3 775 777 444
3 777 446 444
3 780 778 135
3 781 783 448
3 783 450 448
3 787 784 139
3 786 789 452
3 789 454 452
3 793 790 143
3 792 795 456
3 795 458 456
3 458 795 797
3 797 460 458
3 460 797 799
3 799 462 460
3 462 799 801
3 801 464 462
3 464 801 803
3 803 466 464
3 466 803 805
3 805 468 466
3 807 157 159
3 809 159 161
3 811 161 163
3 813 163 165
3 815 165 167
3 817 167 169
3 819 169 171
3 822 484 482
3 484 822 825
3 825 486 484
3 486 825 828
3 828 488 486
3 488 828 831
3 831 490 488
3 834 179 181
3 837 181 183
3 840 183 185
3 843 185 187
3 845 187 189
3 847 189 191
3 849 504 502
3 504 849 851
3 851 506 504
3 506 851 853
3 853 508 506
3 508 853 855
3 855 510 508
3 510 855 857
3 857 512 510
3 512 857 859
3 859 514 512
3 514 859 861
3 861 516 514
3 516 861 863
3 864 207 209
3 863 518 516
3 866 864 209
3 867 869 520
3 869 522 520
3 872 870 213
3 873 875 524
3 875 526 524
3 878 876 217
3 879 881 528
3 881 530 528
3 884 882 221
3 885 887 532
3 887 534 532
3 534 887 889
3 889 536 534
3 536 889 891
3 891 538 536
3 538 891 893
3 893 540 538
3 540 893 895
3 895 542 540
3 542 895 897
3 897 544 542
3 899 235 237
3 901 237 239
3 903 239 241
3 905 241 243
3 907 554 552
3 554 907 909
3 909 556 554
3 911 247 249
3 913 560 558
3 915 251 253
3 918 564 562
3 564 918 921
3 921 566 564
3 566 921 924
3 924 568 566
3 927 259 261
3 930 261 263
3 933 263 265
3 936 265 267
3 938 267 269
3 940 269 271
3 942 582 580
3 582 942 944
3 944 584 582
3 584 944 946
3 946 586 584
3 586 946 948
3 948 588 586
3 588 948 950
3 950 590 588
3 590 950 952
3 952 592 590
3 592 952 954
3 954 594 592
3 594 954 956
3 958 287 289
3 956 596 594
3 959 958 289
3 961 962 598
3 962 600 598
3 965 964 293
3 967 968 602
3 968 604 602
3 970 971 297
3 973 974 606
3 974 608 606
3 976 977 301
3 979 981 610
3 981 612 610
3 612 981 983
3 983 614 612
3 614 983 985
3 985 616 614
3 616 985 987
3 987 618 616
3 618 987 989
3 989 620 618
3 620 989 991
3 991 621 620
3 992 315 316
3 993 316 314
3 990 314 312
3 988 312 310
3 986 310 308
3 984 308 306
3 982 306 304
3 980 609 611
3 609 980 978
3 978 607 609
3 607 978 975
3 975 605 607
3 605 975 972
3 972 603 605
3 969 296 294
3 966 294 292
3 963 292 290
3 960 290 288
3 957 288 286
3 955 286 284
3 953 589 591
3 589 953 951
3 951 587 589
3 587 951 949
3 949 585 587
3 585 949 947
3 947 583 585
3 583 947 945
3 945 581 583
3 581 945 943
3 943 579 581
3 579 943 941
3 941 577 579
3 577 941 939
3 937 268 266
3 939 575 577
3 935 937 266
3 934 932 573
3 932 571 573
3 929 931 262
3 928 926 569
3 926 567 569
3 923 925 258
3 922 920 565
3 920 563 565
3 917 919 254
3 916 914 561
3 914 559 561
3 559 914 912
3 912 557 559
3 557 912 910
3 910 555 557
3 555 910 908
3 908 553 555
3 553 908 906
3 906 551 553
3 551 906 904
3 904 549 551
3 902 240 238
3 900 238 236
3 898 236 234
3 896 234 232
3 894 539 541
3 539 894 892
3 892 537 539
3 890 228 226
3 888 533 535
3 533 888 886
3 886 531 533
3 531 886 883
3 883 529 531
3 529 883 880
3 880 527 529
3 527 880 877
3 877 525 527
3 874 216 214
3 871 214 212
3 868 212 210
3 865 210 208
3 862 208 206
3 860 206 204
3 858 511 513
3 511 858 856
3 856 509 511
3 509 856 854
3 854 507 509
3 507 854 852
3 852 505 507
3 505 852 850
3 850 503 505
3 503 850 848
3 848 501 503
3 501 848 846
3 846 499 501
3 499 846 844
3 841 188 186
3 844 497 499
3 842 841 186
3 839 838 495
3 838 493 495
3 836 835 182
3 833 832 491
3 832 489 491
3 830 829 178
3 827 826 487
3 826 485 487
3 823 824 174
3 821 820 483
3 820 481 483
3 481 820 818
3 818 479 481
3 479 818 816
3 816 477 479
3 477 816 814
3 814 475 477
3 475 814 812
3 812 473 475
3 473 812 810
3 810 471 473
3 808 160 158
3 806 158 156
3 804 156 154
3 802 154 152
3 800 152 150
3 798 150 148
3 796 148 146
3 794 455 457
3 455 794 791
3 791 453 455
3 453 791 788
3 788 451 453
3 451 788 785
3 785 449 451
3 782 138 136
3 779 136 134
3 776 134 132
3 773 132 130
3 770 130 127
3 768 127 125
3 766 435 437
3 435 766 764
3 764 433 435
3 433 764 762
3 762 431 433
3 431 762 760
3 760 429 431
3 429 760 758
3 758 427 429
3 427 758 756
3 756 425 427
3 425 756 754
3 754 423 425
3 423 754 752
3 750 109 107
3 752 421 423
3 749 750 107
3 747 746 419
3 746 417 419
3 743 744 103
3 741 740 415
3 740 413 415
3 737 738 99
3 734 735 411
3 735 409 411
3 732 731 95
3 729 728 407
3 728 405 407
3 405 728 727
3 727 403 405
3 403 727 725
3 725 401 403
3 401 725 723
3 723 399 401
3 399 723 721
3 721 397 399
3 397 721 719
3 719 395 397
3 717 81 79
3 715 79 77
3 713 77 75
3 711 75 73
3 709 385 387
3 385 709 707
3 707 383 385
3 705 69 67
3 379 381 703
3 379 703 377
3 377 703 701
3 701 375 377
3 375 701 698
3 698 373 375
3 373 698 695
3 695 371 373
3 692 58 56
3 687 56 54
3 684 54 52
3 681 52 50
3 678 50 48
3 676 48 46
3 674 357 359
3 357 674 672
3 672 355 357
3 355 672 670
3 670 353 355
3 353 670 668
3 668 351 353
3 351 668 666
3 666 349 351
3 349 666 664
3 664 347 349
3 347 664 662
3 662 345 347
3 345 662 660
3 657 30 28
3 660 343 345
3 658 657 28
3 655 654 341
3 654 339 341
3 652 651 24
3 649 648 337
3 648 335 337
3 645 646 20
3 642 643 333
3 643 331 333
3 640 639 16
3 637 636 329
3 636 327 329
3 327 636 634
3 634 325 327
3 325 634 632
3 632 323 325
3 323 632 630
3 630 321 323
3 321 630 628
3 626 4 2
3 628 319 321
3 625 1 0
3 2 624 626
CELL_TYPES 1364
9
9
9
9
9
9
9
9
9
9
9
9
9
9
9
9
9
9
9
9
9
9
9
9
9
9
9
9
9
9
9
9
9
9
9
9
9
9
9
9
9
9
9
9
9
9
9
9
9
9
9
9
9
9
9
9
9
9
9
9
9
9
9
9
9
9
9
9
9
9
9
9
9
9
9
9
9
9
9
9
9
9
9
9
9
9
9
9
9
9
9
9
9
9
9
9
9
9
9
9
9
9
9
9
9
9
9
9
9
9
9
9
9
9
9
9
9
9
9
9
9
9
9
9
9
9
9
9
9
9
9
9
9
9
9
9
9
9
9
9
9
9
9
9
9
9
9
9
9
9
9
9
9
9
9
9
9
9
9
9
9
9
9
9
9
9
9
9
9
9
9
9
9
9
9
9
9
9
9
9
9
9
9
9
9
9
9
9
9
9
9
9
9
9
9
9
9
9
9
9
9
9
9
9
9
9
9
9
9
9
9
9
9
9
9
9
9
9
9
9
9
9
9
9
9
9
9
9
9
9
9
9
9
9
9
9
9
9
9
9
9
9
9
9
9
9
9
9
9
9
9
9
9
9
9
9
9
9
9
9
9
9
9
9
9
9
9
9
9
9
9
9
9
9
9
9
9
9
9
9
9
9
9
9
9
9
9
9
9
9
9
9
9
9
9
9
9
9
9
9
9
9
9
9
9
9
9
9
9
9
9
9
9
9
9
9
9
9
9
9
9
9
9
9
9
9
9
9
9
9
9
9
9
9
9
9
9
9
9
9
9
9
9
9
9
9
9
9
9
9
9
9
9
9
9
9
9
9
9
9
9
9
9
9
9
9
9
9
9
9
9
9
9
9
9
9
9
9
9
9
9
9
9
9
9
9
9
9
9
9
9
9
9
9
9
9
9
9
9
9
9
9
9
9
9
9
9
9
9
9
9
9
9
9
9
9
9
9
9
9
9
9
9
9
9
9
9
9
9
9
9
9
9
9
9
9
9
9
9
9
9
9
9
9
9
9
9
9
9
9
9
9
9
9
9
9
9
9
9
9
9
9
9
9
9
9
9
9
9
9
9
9
9
9
9
9
9
9
9
9
9
9
9
9
9
9
9
9
9
9
9
9
9
9
9
9
9
9
9
9
9
9
9
9
9
9
9
9
9
9
9
9
9
9
9
9
9
9
9
9
9
9
9
9
9
9
9
9
9
9
9
9
9
9
9
9
9
9
9
9
9
9
9
9
9
9
9
9
9
9
9
9
9
9
9
9
9
9
9
9
9
9
9
9
9
9
9
9
9
9
9
9
9
9
9
9
9
9
9
9
9
9
9
9
9
9
9
9
9
9
9
9
9
9
9
9
9
9
9
9
9
9
9
9
9
9
9
9
9
9
9
9
9
9
9
9
9
9
9
9
9
9
9
9
9
9
9
9
9
9
9
9
9
9
9
9
9
9
9
9
9
9
9
9
9
9
9
9
9
9
9
9
9
9
9
9
9
9
9
9
9
9
9
9
9
9
9
9
9
9
9
9
9
9
9
9
9
9
9
9
9
9
9
9
9
9
9
9
9
9
9
9
9
9
9
9
9
9
9
9
9
9
9
9
9
9
9
9
9
9
9
9
9
9
9
9
9
9
9
9
9
9
9
9
9
9
9
9
9
9
9
9
9
9
9
9
9
9
9
9
9
9
9
9
9
9
9
9
9
9
9
9
9
9
9
9
9
9
9
9
9
9
9
9
9
9
9
9
9
9
9
9
9
9
9
9
9
9
9
9
9
9
9
9
9
9
9
9
9
9
9
9
9
9
9
9
9
9
9
9
9
9
9
9
9
9
9
9
9
9
9
9
9
9
9
9
9
9
9
9
9
9
9
9
9
9
9
9
9
9
9
9
9
9
9
9
9
9
9
9
9
9
9
9
9
9
9
9
9
9
9
9
9
9
9
9
9
9
9
9
9
9
9
9
9
9
9
9
9
9
9
9
9
9
9
9
9
9
9
9
9
9
9
9
9
9
9
9
9
9
9
9
9
9
9
9
9
9
9
9
9
9
9
9
9
9
9
9
9
9
9
9
9
9
9
9
9
9
9
9
9
9
9
9
9
9
9
9
9
9
9
9
9
9
9
9
9
9
9
9
9
9
9
9
9
9
9
9
9
9
9
9
9
9
9
9
9
9
9
9
9
9
9
9
9
9
9
9
9
9
9
9
9
9
9
9
9
9
9
9
9
9
9
9
9
9
9
9
9
9
9
9
9
9
9
9
9
9
9
9
9
9
9
9
9
9
9
9
9
9
9
9
9
9
9
9
9
9
9
9
9
9
9
9
9
9
9
9
9
9
9
9
9
9
9
9
9
9
9
9
9
9
9
9
9
9
9
9
9
9
9
9
9
9
9
9
9
9
9
9
9
9
9
9
9
9
9
9
9
9
9
9
9
9
9
9
9
9
9
9
9
9
9
9
9
9
9
9
9
9
9
9
9
9
9
9
9
9
9
9
9
9
9
9
9
9
9
9
9
9
9
9
9
9
9
9
9
9
9
9
9
9
9
9
9
9
9
9
9
9
9
9
9
9
9
9
9
9
9
9
9
9
9
9
9
9
9
9
9
9
9
9
9
9
9
9
9
9
9
9
9
9
9
9
9
9
9
9
9
9
9
9
9
9
9
9
9
9
9
9
9
9
9
9
9
9
9
9
9
9
9
9
9
9
9
9
9
9
9
9
9
9
9
9
9
9
9
9
9
9
9
9
9
9
9
9
9
9
9
9
9
9
9
9
9
9
9
9
9
9
9
9
9
9
9
9
9
9
9
9
9
9
9
9
9
9
9
9
9
9
9
9
9
9
9
9
9
9
9
9
9
9
9
9
9
9
9
9
9
9
9
9
9
9
9
9
9
9
9
9
9
9
9
9
9
9
9
9
9
9
9
9
9
9
9
9
9
9
9
9
9
9
9
9
9
9
9
9
9
9
9
9
9
9
9
9
9
9
9
9
9
9
9
9
9
9
9
9
9
9
9
9
9
9
9
9
9
9
9
9
9
9
9
9
9
9
9
9
9
9
9
9
9
9
9
9
9
9
9
9
9
9
9
9
POINT_DATA 994
SCALARS u1 float
LOOKUP_TABLE default
-0.05
-0.06
-0.06
-0.04
-0.06
-0.04
-0.07
-0.03
-0.07
-0.03
-0.08
-0.03
-0.09
-0.02
-0.1
-0.02
-0.1
-0.02
-0.1
-0.02
-0.1
-0.02
-0.1
-0.02
-0.2
-0.02
-0.2
-0.02
-0.2
-0.02
-0.2
-0.02
-0.2
-0.03
-0.2
-0.03
-0.2
-0.03
-0.3
-0.03
-0.3
-0.03
-0.3
-0.04
-0.3
-0.04
-0.3
-0.04
-0.3
-0.05
-0.3
-0.05
-0.4
-0.05
-0.4
-0.06
-0.4
-0.06
-0.4
-0.07
-0.4
-0.07
-0.4
-0.07
-0.4
-0.4
-0.08
-0.4
-0.08
-0.4
-0.09
-0.4
-0.09
-0.4
-0.09
-0.3
-0.09
-0.3
-0.1
-0.3
-0.1
-0.3
-0.1
-0.3
-0.1
-0.3
-0.1
-0.3
-0.1
-0.3
-0.1
-0.3
-0.2
-0.1
-0.1
-0.2
-0.1
-0.2
-0.09
-0.2
-0.09
-0.2
-0.09
-0.2
-0.09
-0.2
-0.09
-0.2
-0.09
-0.2
-0.09
-0.2
-0.09
-0.1
-0.09
-0.1
-0.09
-0.1
-0.1
-0.1
-0.1
-0.1
-0.1
-0.1
-0.1
-0.1
-0.1
-0.1
-0.1
-0.1
-0.1
-0.1
-0.1
-0.1
-0.1
-0.1
-0.1
-0.1
-0.1
-0.1
-0.1
-0.1
-0.1
-0.2
-0.1
-0.2
-0.1
-0.2
-0.1
-0.2
-0.1
-0.2
-0.1
-0.2
-0.1
-0.2
-0.1
-0.2
-0.1
-0.2
-0.1
-0.2
-0.2
-0.2
-0.2
-0.2
-0.2
-0.2
-0.2
-0.2
-0.2
-0.2
-0.2
-0.2
-0.2
-0.2
-0.2
-0.2
-0.2
-0.2
-0.2
-0.2
-0.2
-0.2
-0.2
-0.2
-0.2
-0.2
-0.2
-0.2
-0.2
-0.2
-0.2
-0.2
-0.2
-0.2
-0.2
-0.2
-0.2
-0.2
-0.2
-0.2
-0.2
-0.2
-0.2
-0.2
-0.2
-0.2
-0.2
-0.2
-0.2
-0.2
-0.2
-0.1
-0.2
-0.1
-0.2
-0.1
-0.2
-0.1
-0.2
-0.1
-0.2
-0.09
-0.2
-0.07
-0.2
-0.06
-0.2
-0.05
-0.2
-0.03
-0.2
-0.02
-0.2
-0.008
-0.2
0.004
-0.2
0.02
-0.2
0.03
-0.2
0.03
-0.2
0.04
-0.2
0.05
-0.2
0.06
-0.3
0.06
-0.3
0.06
-0.3
0.06
-0.3
0.06
-0.3
0.05
-0.3
0.05
-0.3
0.04
-0.3
0.03
-0.3
0.02
-0.3
0.004
-0.3
-0.009
-0.3
-0.02
-0.3
-0.04
-0.3
-0.05
-0.3
-0.07
-0.3
-0.09
-0.3
-0.1
-0.3
-0.1
-0.3
-0.1
-0.3
-0.1
-0.3
-0.2
-0.3
-0.2
-0.3
-0.2
-0.3
-0.2
-0.3
-0.2
-0.3
-0.2
-0.3
-0.2
-0.3
-0.2
-0.3
-0.3
-0.3
-0.3
-0.3
-0.3
-0.3
-0.3
-0.3
-0.3
-0.3
-0.06
-0.05
-0.07
-0.04
-0.07
-0.04
-0.08
-0.03
-0.09
-0.03
-0.1
-0.03
-0.1
-0.02
-0.1
-0.02
-0.1
-0.02
-0.1
-0.02
-0.2
-0.02
-0.2
-0.02
-0.2
-0.02
-0.2
-0.02
-0.2
-0.02
-0.2
-0.02
-0.2
-0.03
-0.3
-0.03
-0.3
-0.03
-0.3
-0.03
-0.3
-0.03
-0.3
-0.04
-0.3
-0.04
-0.3
-0.04
-0.4
-0.04
-0.4
-0.05
-0.4
-0.05
-0.4
-0.05
-0.4
-0.06
-0.4
-0.06
-0.4
-0.06
-0.4
-0.07
-0.4
-0.07
-0.4
-0.08
-0.4
-0.08
-0.4
-0.08
-0.3
-0.08
-0.3
-0.09
-0.3
-0.09
-0.3
-0.09
-0.3
-0.09
-0.3
-0.09
-0.3
-0.09
-0.3
-0.09
-0.3
-0.09
-0.2
-0.09
-0.2
-0.1
-0.2
-0.1
-0.2
-0.1
-0.2
-0.1
-0.2
-0.1
-0.2
-0.1
-0.2
-0.1
-0.2
-0.1
-0.2
-0.1
-0.1
-0.1
-0.1
-0.1
-0.1
-0.1
-0.1
-0.1
-0.1
-0.1
-0.1
-0.1
-0.1
-0.1
-0.1
-0.1
-0.1
-0.1
-0.1
-0.1
-0.1
-0.1
-0.1
-0.2
-0.1
-0.2
-0.1
-0.2
-0.1
-0.2
-0.1
-0.2
-0.1
-0.2
-0.1
-0.2
-0.1
-0.2
-0.1
-0.2
-0.1
-0.2
-0.1
-0.2
-0.1
-0.2
-0.1
-0.2
-0.1
-0.2
-0.2
-0.2
-0.2
-0.2
-0.2
-0.2
-0.2
-0.2
-0.2
-0.2
-0.2
-0.2
-0.2
-0.2
-0.2
-0.2
-0.2
-0.2
-0.2
-0.2
-0.2
-0.2
-0.2
-0.2
-0.2
-0.2
-0.2
-0.2
-0.2
-0.2
-0.2
-0.2
-0.2
-0.2
-0.2
-0.2
-0.2
-0.2
-0.2
-0.2
-0.2
-0.2
-0.2
-0.2
-0.2
-0.1
-0.2
-0.1
-0.2
-0.1
-0.2
-0.1
-0.2
-0.1
-0.2
-0.09
-0.2
-0.07
-0.2
-0.06
-0.2
-0.05
-0.2
-0.03
-0.2
-0.02
-0.2
-0.008
-0.2
0.004
-0.2
0.01
-0.3
0.03
-0.3
0.03
-0.3
0.04
-0.3
0.05
-0.3
0.06
-0.3
0.06
-0.3
0.06
-0.3
0.06
-0.3
0.06
-0.3
0.05
-0.3
0.05
-0.3
0.04
-0.3
0.03
-0.3
0.02
-0.3
0.004
-0.3
-0.009
-0.3
-0.02
-0.3
-0.04
-0.3
-0.05
-0.3
-0.07
-0.3
-0.09
-0.3
-0.1
-0.3
-0.1
-0.3
-0.1
-0.3
-0.2
-0.3
-0.2
-0.3
-0.2
-0.3
-0.2
-0.3
-0.2
-0.3
-0.2
-0.3
-0.2
-0.3
-0.2
-0.3
-0.2
-0.3
-0.3
-0.3
-0.3
-0.3
-0.3
-0.3
-0.3
-0.3
-0.06
-0.05
-0.06
-0.04
-0.07
-0.04
-0.07
-0.03
-0.08
-0.03
-0.09
-0.03
-0.1
-0.1
-0.02
-0.1
-0.1
-0.02
-0.1
-0.1
-0.02
-0.1
-0.1
-0.02
-0.1
-0.2
-0.02
-0.2
-0.2
-0.02
-0.2
-0.2
-0.02
-0.2
-0.2
-0.02
-0.2
-0.02
-0.2
-0.02
-0.2
-0.03
-0.3
-0.03
-0.3
-0.03
-0.3
-0.03
-0.3
-0.03
-0.3
-0.04
-0.3
-0.04
-0.3
-0.04
-0.04
-0.3
-0.05
-0.05
-0.4
-0.05
-0.05
-0.4
-0.06
-0.05
-0.06
-0.06
-0.4
-0.06
-0.06
-0.4
-0.06
-0.07
-0.4
-0.07
-0.07
-0.4
-0.07
-0.4
-0.08
-0.4
-0.08
-0.4
-0.08
-0.4
-0.09
-0.4
-0.09
-0.3
-0.09
-0.3
-0.09
-0.3
-0.09
-0.3
-0.09
-0.3
-0.1
-0.3
-0.1
-0.3
-0.1
-0.3
-0.2
-0.2
-0.1
-0.2
-0.2
-0.09
-0.2
-0.2
-0.09
-0.2
-0.2
-0.09
-0.2
-0.2
-0.09
-0.2
-0.2
-0.09
-0.2
-0.2
-0.09
-0.2
-0.2
-0.1
-0.2
-0.1
-0.2
-0.1
-0.1
-0.1
-0.1
-0.1
-0.1
-0.1
-0.1
-0.1
-0.1
-0.1
-0.1
-0.1
-0.1
-0.1
-0.1
-0.1
-0.1
-0.1
-0.1
-0.1
-0.1
-0.1
-0.1
-0.1
-0.1
-0.1
-0.1
-0.1
-0.1
-0.1
-0.2
-0.1
-0.1
-0.2
-0.2
-0.1
-0.2
-0.2
-0.1
-0.2
-0.1
-0.2
-0.1
-0.2
-0.1
-0.2
-0.1
-0.2
-0.1
-0.2
-0.1
-0.2
-0.1
-0.2
-0.1
-0.2
-0.1
-0.2
-0.2
-0.2
-0.2
-0.2
-0.2
-0.2
-0.2
-0.2
-0.2
-0.2
-0.2
-0.2
-0.2
-0.2
-0.2
-0.2
-0.2
-0.2
-0.2
-0.2
-0.2
-0.2
-0.2
-0.2
-0.2
-0.2
-0.2
-0.2
-0.2
-0.2
-0.2
-0.2
-0.2
-0.2
-0.2
-0.2
-0.2
-0.2
-0.2
-0.2
-0.2
-0.2
-0.2
-0.2
-0.2
-0.2
-0.2
-0.2
-0.2
-0.2
-0.2
-0.2
-0.2
-0.2
-0.2
-0.1
-0.1
-0.2
-0.1
-0.1
-0.2
-0.1
-0.1
-0.2
-0.1
-0.1
-0.2
-0.1
-0.1
-0.2
-0.1
-0.09
-0.2
-0.08
-0.2
-0.07
-0.2
-0.05
-0.2
-0.04
-0.2
-0.03
-0.2
-0.01
-0.2
-0.004
-0.2
0.01
-0.2
0.02
-0.2
0.03
-0.2
0.04
-0.3
0.05
-0.3
0.05
-0.3
0.06
-0.3
0.06
-0.3
-0.3
0.06
-0.3
-0.3
0.06
-0.3
-0.3
0.06
-0.3
-0.3
0.05
-0.3
-0.3
0.04
-0.3
-0.3
0.03
-0.3
-0.3
0.02
-0.3
0.01
-0.3
-0.002
-0.3
-0.02
-0.3
-0.03
-0.3
-0.05
-0.3
-0.06
-0.3
-0.08
-0.3
-0.09
-0.3
-0.1
-0.3
-0.1
-0.3
-0.1
-0.1
-0.3
-0.2
-0.2
-0.3
-0.2
-0.2
-0.3
-0.2
-0.2
-0.3
-0.2
-0.2
-0.3
-0.2
-0.2
-0.3
-0.2
-0.2
-0.3
-0.2
-0.3
-0.2
-0.3
-0.2
-0.3
-0.3
-0.3
-0.3
-0.3
-0.3
-0.3
-0.3
-0.3
-0.3
SCALARS u2 float
LOOKUP_TABLE default
-0.1
-0.1
-0.1
-0.1
-0.1
-0.1
-0.2
-0.1
-0.2
-0.1
-0.2
-0.1
-0.2
-0.1
-0.2
-0.1
-0.2
-0.1
-0.2
-0.1
-0.2
-0.1
-0.2
-0.1
-0.2
-0.1
-0.2
-0.1
-0.2
-0.1
-0.2
-0.1
-0.2
-0.1
-0.2
-0.1
-0.2
-0.1
-0.2
-0.1
-0.2
-0.1
-0.2
-0.1
-0.2
-0.1
-0.2
-0.2
-0.2
-0.2
-0.2
-0.2
-0.2
-0.2
-0.2
-0.2
-0.2
-0.2
-0.2
-0.2
-0.2
-0.2
-0.2
-0.2
-0.2
-0.2
-0.2
-0.2
-0.3
-0.2
-0.3
-0.2
-0.3
-0.2
-0.3
-0.2
-0.3
-0.2
-0.3
-0.2
-0.3
-0.2
-0.3
-0.2
-0.3
-0.2
-0.4
-0.2
-0.4
-0.2
-0.4
-0.2
-0.3
-0.4
-0.4
-0.3
-0.4
-0.3
-0.4
-0.3
-0.4
-0.3
-0.4
-0.3
-0.4
-0.3
-0.4
-0.3
-0.3
-0.3
-0.3
-0.3
-0.3
-0.3
-0.3
-0.3
-0.3
-0.3
-0.3
-0.3
-0.3
-0.3
-0.3
-0.3
-0.2
-0.3
-0.2
-0.3
-0.2
-0.2
-0.3
-0.2
-0.3
-0.2
-0.3
-0.1
-0.3
-0.1
-0.3
-0.1
-0.3
-0.1
-0.3
-0.1
-0.3
-0.09
-0.3
-0.08
-0.3
-0.07
-0.3
-0.07
-0.3
-0.06
-0.3
-0.05
-0.3
-0.05
-0.3
-0.04
-0.3
-0.04
-0.3
-0.03
-0.3
-0.03
-0.3
-0.02
-0.2
-0.02
-0.2
-0.01
-0.2
-0.01
-0.2
-0.01
-0.2
-0.01
-0.2
-0.01
-0.2
-0.01
-0.2
-0.01
-0.2
-0.01
-0.1
-0.02
-0.1
-0.02
-0.1
-0.02
-0.1
-0.02
-0.08
-0.02
-0.07
-0.03
-0.05
-0.03
-0.04
-0.03
-0.02
-0.03
-0.007
-0.04
0.006
-0.04
0.02
-0.04
0.03
-0.05
0.04
-0.05
0.05
-0.06
0.05
-0.06
0.06
-0.07
0.06
-0.07
0.06
-0.07
0.06
-0.08
0.05
-0.08
0.05
-0.09
0.04
-0.09
0.03
-0.09
0.02
-0.09
0.01
-0.09
0.002
-0.1
-0.01
-0.1
-0.02
-0.1
-0.04
-0.1
-0.05
-0.1
-0.06
-0.1
-0.07
-0.09
-0.09
-0.09
-0.1
-0.09
-0.1
-0.09
-0.1
-0.09
-0.1
-0.09
-0.1
-0.09
-0.2
-0.09
-0.2
-0.09
-0.2
-0.09
-0.2
-0.09
-0.2
-0.09
-0.2
-0.09
-0.2
-0.1
-0.2
-0.1
-0.2
-0.1
-0.2
-0.1
-0.2
-0.1
-0.2
-0.1
-0.2
-0.1
-0.2
-0.1
-0.2
-0.1
-0.2
-0.1
-0.2
-0.1
-0.2
-0.1
-0.2
-0.2
-0.2
-0.2
-0.2
-0.2
-0.2
-0.2
-0.2
-0.2
-0.2
-0.2
-0.2
-0.2
-0.2
-0.2
-0.2
-0.1
-0.1
-0.1
-0.1
-0.1
-0.1
-0.2
-0.1
-0.2
-0.1
-0.2
-0.1
-0.2
-0.1
-0.2
-0.1
-0.2
-0.1
-0.2
-0.1
-0.2
-0.1
-0.2
-0.1
-0.2
-0.1
-0.2
-0.1
-0.2
-0.1
-0.2
-0.1
-0.2
-0.1
-0.2
-0.1
-0.2
-0.1
-0.2
-0.1
-0.2
-0.1
-0.2
-0.2
-0.2
-0.2
-0.2
-0.2
-0.2
-0.2
-0.2
-0.2
-0.2
-0.2
-0.2
-0.2
-0.2
-0.2
-0.2
-0.2
-0.2
-0.2
-0.2
-0.2
-0.2
-0.3
-0.2
-0.3
-0.2
-0.3
-0.2
-0.3
-0.2
-0.3
-0.2
-0.3
-0.2
-0.3
-0.2
-0.3
-0.2
-0.4
-0.3
-0.4
-0.3
-0.4
-0.3
-0.4
-0.3
-0.4
-0.3
-0.4
-0.3
-0.4
-0.3
-0.4
-0.3
-0.4
-0.3
-0.4
-0.3
-0.4
-0.3
-0.3
-0.3
-0.3
-0.3
-0.3
-0.3
-0.3
-0.3
-0.3
-0.3
-0.3
-0.3
-0.3
-0.3
-0.3
-0.3
-0.2
-0.3
-0.2
-0.3
-0.2
-0.3
-0.2
-0.3
-0.2
-0.3
-0.2
-0.3
-0.1
-0.3
-0.1
-0.3
-0.1
-0.3
-0.1
-0.3
-0.1
-0.3
-0.09
-0.3
-0.08
-0.3
-0.07
-0.3
-0.07
-0.3
-0.06
-0.3
-0.05
-0.3
-0.05
-0.3
-0.04
-0.3
-0.04
-0.3
-0.03
-0.2
-0.03
-0.2
-0.02
-0.2
-0.02
-0.2
-0.01
-0.2
-0.01
-0.2
-0.01
-0.2
-0.01
-0.2
-0.01
-0.2
-0.01
-0.1
-0.01
-0.1
-0.01
-0.1
-0.01
-0.1
-0.02
-0.08
-0.02
-0.07
-0.02
-0.05
-0.02
-0.04
-0.02
-0.02
-0.03
-0.008
-0.03
0.005
-0.03
0.02
-0.04
0.03
-0.04
0.04
-0.04
0.05
-0.04
0.05
-0.05
0.06
-0.05
0.06
-0.06
0.06
-0.06
0.06
-0.06
0.05
-0.07
0.05
-0.07
0.04
-0.07
0.03
-0.08
0.02
-0.08
0.01
-0.08
0.002
-0.08
-0.01
-0.09
-0.02
-0.09
-0.04
-0.09
-0.05
-0.09
-0.06
-0.09
-0.08
-0.09
-0.09
-0.09
-0.1
-0.09
-0.1
-0.09
-0.1
-0.09
-0.1
-0.1
-0.1
-0.1
-0.2
-0.1
-0.2
-0.1
-0.2
-0.1
-0.2
-0.1
-0.2
-0.1
-0.2
-0.1
-0.2
-0.1
-0.2
-0.1
-0.2
-0.1
-0.2
-0.1
-0.2
-0.1
-0.2
-0.1
-0.2
-0.1
-0.2
-0.1
-0.2
-0.1
-0.2
-0.2
-0.2
-0.2
-0.2
-0.2
-0.2
-0.2
-0.2
-0.2
-0.2
-0.2
-0.2
-0.2
-0.2
-0.2
-0.2
-0.2
-0.2
-0.2
-0.2
-0.1
-0.1
-0.1
-0.1
-0.1
-0.1
-0.2
-0.1
-0.2
-0.1
-0.2
-0.1
-0.2
-0.2
-0.1
-0.2
-0.2
-0.1
-0.2
-0.2
-0.1
-0.2
-0.2
-0.1
-0.2
-0.2
-0.1
-0.2
-0.2
-0.1
-0.2
-0.2
-0.1
-0.2
-0.2
-0.1
-0.2
-0.1
-0.2
-0.1
-0.2
-0.1
-0.2
-0.1
-0.2
-0.1
-0.2
-0.1
-0.2
-0.1
-0.2
-0.1
-0.2
-0.2
-0.2
-0.2
-0.2
-0.2
-0.2
-0.2
-0.2
-0.2
-0.2
-0.2
-0.2
-0.2
-0.2
-0.2
-0.2
-0.2
-0.2
-0.2
-0.2
-0.2
-0.2
-0.2
-0.2
-0.2
-0.2
-0.2
-0.3
-0.2
-0.3
-0.2
-0.3
-0.2
-0.3
-0.2
-0.3
-0.2
-0.3
-0.2
-0.3
-0.2
-0.3
-0.2
-0.3
-0.2
-0.4
-0.2
-0.4
-0.3
-0.4
-0.3
-0.3
-0.3
-0.4
-0.3
-0.3
-0.4
-0.3
-0.3
-0.4
-0.3
-0.3
-0.4
-0.3
-0.3
-0.4
-0.3
-0.3
-0.4
-0.3
-0.3
-0.4
-0.3
-0.3
-0.3
-0.3
-0.3
-0.3
-0.3
-0.3
-0.3
-0.3
-0.3
-0.3
-0.3
-0.3
-0.3
-0.3
-0.2
-0.3
-0.2
-0.3
-0.2
-0.3
-0.2
-0.2
-0.3
-0.2
-0.2
-0.3
-0.2
-0.2
-0.3
-0.2
-0.1
-0.3
-0.1
-0.1
-0.3
-0.1
-0.1
-0.3
-0.1
-0.1
-0.3
-0.1
-0.1
-0.3
-0.09
-0.3
-0.08
-0.3
-0.07
-0.3
-0.07
-0.3
-0.06
-0.3
-0.05
-0.3
-0.05
-0.3
-0.04
-0.3
-0.04
-0.3
-0.03
-0.3
-0.03
-0.2
-0.02
-0.2
-0.02
-0.2
-0.2
-0.01
-0.2
-0.2
-0.01
-0.2
-0.2
-0.01
-0.2
-0.2
-0.01
-0.2
-0.2
-0.01
-0.2
-0.2
-0.01
-0.2
-0.1
-0.01
-0.1
-0.1
-0.01
-0.1
-0.01
-0.1
-0.02
-0.09
-0.02
-0.07
-0.02
-0.06
-0.02
-0.04
-0.03
-0.03
-0.03
-0.02
-0.03
-0.0009
-0.03
0.01
-0.04
-0.04
0.02
-0.04
-0.04
0.03
-0.04
-0.05
0.04
-0.05
-0.05
0.05
-0.05
-0.05
0.06
-0.06
-0.06
0.06
-0.06
-0.06
0.06
-0.06
-0.07
0.06
-0.07
0.06
-0.07
0.05
-0.08
0.04
-0.08
0.04
-0.08
0.03
-0.09
0.02
-0.09
0.008
-0.09
-0.006
-0.09
-0.02
-0.09
-0.03
-0.09
-0.04
-0.09
-0.06
-0.09
-0.07
-0.09
-0.08
-0.09
-0.09
-0.1
-0.09
-0.1
-0.1
-0.09
-0.1
-0.1
-0.09
-0.1
-0.1
-0.09
-0.1
-0.1
-0.09
-0.1
-0.2
-0.09
-0.2
-0.2
-0.09
-0.2
-0.09
-0.2
-0.1
-0.2
-0.1
-0.2
-0.1
-0.2
-0.1
-0.2
-0.1
-0.2
-0.1
-0.2
-0.1
-0.2
-0.1
-0.2
-0.1
-0.2
-0.1
-0.1
-0.2
-0.1
-0.1
-0.2
-0.1
-0.1
-0.2
-0.1
-0.1
-0.2
-0.1
-0.1
-0.2
-0.2
-0.2
-0.2
-0.2
-0.2
-0.2
-0.2
-0.2
-0.2
-0.2
-0.2
-0.2
-0.2
-0.2
-0.2
-0.2
-0.2
-0.2
-0.2
-0.2
-0.2
SCALARS strain_1 float
LOOKUP_TABLE default
-0.312818
-0.207531
0.198883
-0.804026
0.731556
-1.261087
1.290942
-1.712936
1.862408
-2.130649
2.454002
-2.541203
3.076591
-2.923127
3.717109
-3.279722
4.369830
-3.622231
5.049515
-3.936499
5.737618
-4.229623
6.447437
-4.508808
7.188246
-4.761131
7.931604
-4.995759
8.701421
-5.218069
9.475860
-5.405621
10.284562
-5.585776
11.097988
-5.738764
11.925538
-5.882179
12.774398
-5.993333
13.627347
-6.097519
14.491585
-6.180824
15.366487
-6.254504
16.251188
-6.305880
17.148980
-6.347066
18.046289
-6.360726
18.963871
-6.375830
19.873011
-6.365772
20.797144
-6.354871
21.730028
-6.320810
22.650419
-6.270692
23.580140
-6.214555
24.510027
25.435420
-6.149961
26.367292
-6.077322
27.284017
-5.990416
28.194125
-5.885857
29.118594
-5.786737
30.018957
-5.670508
30.922046
-5.549519
31.805023
-5.422704
32.683846
-5.296800
33.553621
-5.158652
34.406019
-5.006586
35.241998
-4.858560
36.057369
-4.703996
36.866536
37.657246
-4.551579
-4.391573
38.427413
-4.239988
39.164685
-4.077090
39.899059
-3.912426
40.595608
-3.745542
41.280548
-3.587336
41.930165
-3.420988
42.562504
-3.262031
43.163380
-3.101824
43.743499
-2.942477
44.280990
-2.789267
44.804627
-2.634898
45.293267
-2.479658
45.743223
-2.347495
46.171311
-2.190478
46.561620
-2.059536
46.920246
-1.938119
47.249939
-1.800727
-1.674149
47.541899
-1.562059
47.801093
-1.450830
48.011987
-1.342685
48.209951
-1.239485
48.368226
-1.149204
48.483592
-1.056863
48.563851
-0.979587
48.617245
-0.907999
48.628749
-0.837024
48.592336
-0.773880
48.537029
-0.723618
48.444368
-0.681139
48.314560
-0.641841
48.145976
-0.610631
47.950323
-0.575474
47.712653
-0.556771
47.436368
-0.548475
47.130818
-0.544494
46.805254
-0.541208
46.439867
-0.549030
46.034993
-0.561761
45.603893
-0.587000
45.153386
-0.613196
44.660472
-0.652810
44.146612
-0.682708
43.595169
-0.732441
43.031621
-0.777396
42.428828
-0.833592
41.811298
-0.893612
41.164599
-0.964079
40.492959
-1.032457
39.813091
-1.105716
39.106871
-1.187575
38.369405
-1.260219
37.622613
-1.349570
36.855118
-1.443694
36.076886
-1.532850
35.294854
-1.630124
34.482121
-1.719195
33.669300
-1.832186
32.827554
-1.926410
31.992615
-2.033018
31.145657
-2.132991
30.290558
-2.241861
29.435225
-2.344889
28.568638
-2.458326
27.699432
-2.563037
26.831364
-2.673449
25.955969
-2.775659
25.083240
-2.890830
24.209728
-2.994182
23.342983
-3.099060
22.476861
-3.202796
21.610736
-3.301878
20.754707
-3.399369
19.888480
-3.494206
19.058907
-3.582611
18.221767
-3.677308
17.388514
-3.766223
16.570710
-3.853526
15.759178
-3.938378
14.965728
-4.009934
14.181323
-4.076384
13.416537
-4.134334
12.650005
-4.201492
11.909530
-4.262871
11.178976
-4.307976
10.470040
-4.349153
9.760844
-4.383842
9.083487
-4.417685
8.405583
-4.438229
7.759725
-4.441467
7.129648
-4.456457
6.510210
-4.455867
5.905658
-4.449353
5.322580
-4.419585
4.770229
-4.393427
4.219292
-4.346968
3.688795
-4.295347
3.183495
-4.247226
2.690677
-4.162712
2.216302
-4.089154
1.761465
-3.992753
1.328715
-3.885230
0.915718
-3.771712
0.508189
-3.632920
0.125396
-3.480687
-0.238522
-3.329793
-0.583460
-3.158254
-0.909907
-2.965342
-1.229964
-2.765580
-1.529225
-2.553972
-1.813679
-2.322080
-2.075028
0.314025
-0.695973
0.847695
-1.166812
1.417657
-1.621637
1.997680
-2.056059
2.596780
-2.468510
3.222785
-2.847877
3.869103
-3.216028
4.529134
-3.551846
5.215819
-3.878662
5.922449
-4.180372
6.641684
-4.464551
7.382940
-4.725116
8.140702
-4.954019
8.909968
-5.171419
9.699897
-5.375126
10.502773
-5.539035
11.325938
-5.708322
12.159353
-5.848587
13.011936
-5.971810
13.867685
-6.077399
14.729139
-6.158278
15.613758
-6.228891
16.494553
-6.283748
17.397381
-6.325436
18.299166
-6.347632
19.213073
-6.356943
20.123596
-6.344727
21.047314
-6.332256
21.971640
-6.297806
22.884361
-6.258868
23.797172
-6.199964
24.726772
-6.133072
25.644345
-6.057494
26.564636
-5.970680
27.472498
-5.879374
28.369011
-5.767858
29.268061
-5.660570
30.151208
-5.541073
31.036863
-5.411703
31.899243
-5.276277
32.752727
-5.143254
33.591065
-5.004472
34.418517
-4.857163
35.220870
-4.713310
36.016194
-4.560860
36.783936
-4.410834
37.541909
-4.248476
38.262743
-4.087258
38.980454
-3.933451
39.661587
-3.779014
40.315255
-3.616419
40.953893
-3.459731
41.550971
-3.307510
42.132829
-3.149918
42.689800
-2.998444
43.212088
-2.842384
43.706255
-2.700700
44.162748
-2.564022
44.592279
-2.422386
44.982725
-2.296322
45.347984
-2.168678
45.678484
-2.041667
45.974331
-1.917652
46.237198
-1.807037
46.461548
-1.699475
46.649195
-1.596969
46.803147
-1.503084
46.918248
-1.414563
47.004466
-1.333145
47.047130
-1.255948
47.064755
-1.174948
47.035455
-1.129849
46.961021
-1.060144
46.875607
-1.019081
46.740114
-0.975703
46.570734
-0.936263
46.361833
-0.909835
46.123978
-0.886802
45.855923
-0.872833
45.550302
-0.867335
45.208186
-0.864858
44.831847
-0.874839
44.433220
-0.883998
44.004821
-0.900796
43.535631
-0.925149
43.037703
-0.951724
42.512943
-0.993239
41.968644
-1.030571
41.393172
-1.086088
40.788210
-1.131147
40.164572
-1.193720
39.514294
-1.253707
38.838815
-1.323721
38.144194
-1.398770
37.427851
-1.474265
36.699125
-1.556819
35.949695
-1.635482
35.190256
-1.722859
34.396243
-1.812509
33.611071
-1.910079
32.804307
-1.999852
31.979477
-2.101383
31.151059
-2.195899
30.318292
-2.292475
29.466504
-2.403823
28.617259
-2.500809
27.760532
-2.603949
26.899941
-2.707060
26.029337
-2.814440
25.172510
-2.913892
24.305621
-3.015957
23.438892
-3.121000
22.579871
-3.225778
21.718021
-3.318462
20.860039
-3.419094
20.011748
-3.508658
19.169208
-3.605614
18.335945
-3.696310
17.503491
-3.787468
16.680124
-3.869962
15.865815
-3.948695
15.072131
-4.024530
14.287093
-4.091024
13.503956
-4.163198
12.737718
-4.219350
11.988599
-4.277567
11.256198
-4.319548
10.540264
-4.372159
9.828560
-4.402954
9.144255
-4.443675
8.472196
-4.465895
7.808574
-4.473528
7.183396
-4.483806
6.545022
-4.472694
5.948954
-4.468386
5.355639
-4.449787
4.786907
-4.420693
4.236760
-4.388910
3.707129
-4.331517
3.186161
-4.282067
2.694835
-4.209334
2.215322
-4.119297
1.758345
-4.027699
1.314011
-3.934441
0.899264
-3.814237
0.497252
-3.673571
0.109188
-3.517691
-0.262259
-3.366613
-0.613183
-3.192878
-0.945190
-3.014920
-1.255222
-2.805747
-1.571375
-2.592231
-2.353726
-1.845560
-2.100603
0.102387
-0.503226
0.540295
-0.983836
1.065913
-1.445162
1.636032
-1.886122
2.228421
-2.302065
2.832503
-2.695939
3.445530
3.931842
-3.112968
4.597069
4.264973
-3.428443
5.290550
4.962841
-3.749084
5.645732
6.001059
-4.049415
6.366802
6.744391
-4.288334
7.477875
7.096724
-4.614535
7.846234
8.239268
-4.868831
9.070472
8.604151
-5.086619
9.640380
-5.293289
10.401041
-5.473612
11.211642
-5.677715
12.038980
-5.799180
12.880614
-5.926260
13.731314
-6.039909
14.581209
-6.137247
15.308201
-6.221057
16.367437
-6.274905
17.268263
-6.318775
-6.341315
18.176587
-6.358125
-6.360606
19.084199
-6.361512
-6.368441
19.996698
-6.354610
-6.367049
-6.352396
-6.333018
21.124121
-6.320025
-6.294464
21.963157
-6.282613
-6.250590
22.914071
-6.227509
-6.185314
23.859971
-6.141360
25.070815
-6.066635
26.648203
-5.979222
27.370415
-5.882923
28.110769
-5.782594
29.196252
-5.672858
30.097944
-5.569248
30.972102
-5.422863
32.015937
-5.289638
32.744971
-5.144055
33.578370
-4.971180
34.415322
-4.860048
35.233528
-4.735364
36.037125
36.786686
37.391700
-4.459213
38.164305
37.787605
-4.265609
38.915650
38.526059
-4.102512
39.260617
39.613961
-3.941773
39.942798
40.315512
-3.794781
40.612144
40.967596
-3.606160
41.266917
41.620705
-3.440918
41.887097
42.288112
-3.279054
42.687059
-3.124851
43.213166
-2.969691
43.735367
-2.795178
44.234728
-2.676784
44.709522
-2.519425
45.160009
-2.382995
45.550080
-2.238153
45.879708
-2.111283
46.294402
-1.984652
46.615836
-1.862492
-1.768075
46.884873
-1.718392
-1.660122
47.126399
-1.604464
-1.543121
47.329269
-1.496865
-1.443090
47.546394
-1.397935
-1.343546
47.643652
-1.259192
-1.303651
47.735848
-1.227568
-1.169802
47.802879
-1.090343
-1.145457
47.824524
-1.036468
47.826047
-0.973300
47.780211
-0.922538
47.702281
-0.877124
47.587099
-0.832075
47.442205
-0.795741
47.255475
-0.771111
46.983094
-0.730033
46.766635
-0.719821
46.493765
-0.705780
46.167805
-0.705117
45.819960
-0.704556
45.443050
-0.723293
45.046126
44.762901
-0.733219
44.441479
44.219669
-0.764215
43.948852
43.717128
-0.775058
43.217648
43.446276
-0.822637
42.917259
42.648928
-0.855516
42.082649
42.362408
-0.912915
41.735893
41.456000
-0.966760
40.806292
41.118502
-1.014296
40.308541
-1.079488
39.676301
-1.150510
38.966088
-1.232118
38.259636
-1.297423
37.528763
-1.369108
36.783279
-1.455289
36.042478
-1.548492
35.396590
-1.625753
34.445614
-1.717705
33.633123
-1.815921
-1.876932
32.815281
-1.940356
-1.989149
31.993990
-2.044963
-2.085653
31.149832
-2.147623
-2.182637
30.130642
-2.240762
-2.294142
29.420341
-2.355033
-2.400576
28.587130
-2.456072
-2.503714
27.728727
-2.559481
-2.612854
26.884888
-2.698226
26.187655
-2.799713
24.953109
-2.904360
24.252648
-3.009016
23.566458
-3.101720
22.527694
-3.209907
21.661314
-3.283568
20.814558
-3.404626
19.766181
-3.509106
19.083153
-3.589469
18.268720
-3.711420
17.439977
-3.775091
16.623015
-3.842324
15.835085
-3.951555
15.068737
-4.001566
14.503922
14.047535
-4.098734
13.696210
13.259717
-4.155795
12.882817
12.505708
-4.210265
12.137207
11.775578
-4.257734
11.399518
11.056513
-4.325584
10.654606
10.318591
-4.350463
9.957700
9.636607
-4.402324
9.247351
-4.425762
8.742859
-4.449114
8.098528
-4.463503
7.470979
-4.466980
6.844168
-4.467296
6.225310
-4.452662
5.640149
-4.431701
5.070141
-4.400972
4.616895
-4.367025
3.951367
-4.323501
3.443895
-4.275936
-4.239860
2.939618
-4.215515
-4.170454
2.452055
-4.122231
-4.071328
1.985600
-4.041882
-3.991296
1.450362
-3.874275
-3.935637
1.095075
-3.816882
-3.754193
0.692534
-3.611142
-3.685896
0.315790
-3.530056
-0.016664
-3.425442
-0.425061
-3.260934
-0.761685
-3.082976
-1.089591
-2.884382
-1.391685
-2.684094
-1.676349
-2.464965
-2.262457
-1.953956
SCALARS strain_2 float
LOOKUP_TABLE default
0.139432
0.105856
-0.053430
0.336440
-0.272897
0.509152
-0.499673
0.675269
-0.745848
0.841621
-0.999932
0.984028
-1.268634
1.120686
-1.555723
1.242554
-1.839476
1.349391
-2.149780
1.458529
-2.467347
1.551659
-2.811084
1.634641
-3.159618
1.713578
-3.512085
1.779321
-3.894587
1.837480
-4.287598
1.886112
-4.677904
1.930107
-5.091994
1.967999
-5.523505
1.995272
-5.961559
2.020970
-6.414068
2.028625
-6.879437
2.039105
-7.357399
2.049130
-7.840250
2.044302
-8.337374
2.040873
-8.844350
2.027240
-9.371428
2.014654
-9.896359
2.000920
-10.431340
1.972626
-10.982699
1.951509
-11.531993
1.916098
-12.094816
1.890704
-12.656381
-13.230946
1.855305
-13.815194
1.823846
-14.400315
1.768252
-14.981772
1.733461
-15.580785
1.691779
-16.177558
1.648354
-16.770966
1.606248
-17.365511
1.566093
-17.960058
1.506908
-18.557886
1.461913
-19.151154
1.418439
-19.745576
1.368190
-20.327807
1.314127
-20.905532
-21.487981
1.258825
1.225131
-22.054759
1.163862
-22.617919
1.121925
-23.173163
1.069184
-23.716930
1.035450
-24.253584
0.981559
-24.783215
0.931704
-25.290174
0.887613
-25.785303
0.843937
-26.271735
0.799597
-26.737979
0.753767
-27.205606
0.710122
-27.637359
0.674317
-28.058113
0.631839
-28.465036
0.597003
-28.851616
0.563115
-29.217842
0.517644
-29.562199
0.492823
0.458668
-29.886506
0.430327
-30.186821
0.396235
-30.473123
0.379977
-30.730859
0.346662
-30.953777
0.325863
-31.168082
0.301009
-31.358870
0.275666
-31.510343
0.264505
-31.654960
0.246936
-31.764603
0.223585
-31.851699
0.211458
-31.904379
0.195809
-31.950445
0.195951
-31.954217
0.186399
-31.937533
0.178302
-31.894116
0.174966
-31.824323
0.169486
-31.725791
0.171149
-31.603379
0.176941
-31.460721
0.175294
-31.278994
0.179298
-31.090020
0.193861
-30.861801
0.193512
-30.608335
0.215492
-30.341441
0.231290
-30.048520
0.247385
-29.726854
0.267236
-29.383859
0.287331
-29.027082
0.306230
-28.639529
0.335561
-28.240457
0.365350
-27.806172
0.395119
-27.361652
0.424799
-26.899202
0.466607
-26.423418
0.499710
-25.921829
0.535853
-25.415764
0.577381
-24.889340
0.619071
-24.339834
0.665110
-23.777118
0.714781
-23.222161
0.760435
-22.638933
0.819792
-22.048530
0.877377
-21.456668
0.929557
-20.848190
0.984787
-20.237967
1.051387
-19.620847
1.112906
-18.995836
1.173523
-18.368519
1.232395
-17.730218
1.298479
-17.097147
1.364213
-16.463436
1.442088
-15.831618
1.504904
-15.193141
1.583331
-14.557379
1.652239
-13.932983
1.725823
-13.300895
1.799582
-12.677572
1.870857
-12.067399
1.948335
-11.460344
2.019830
-10.848579
2.090978
-10.262607
2.157038
-9.656283
2.234144
-9.084630
2.302181
-8.517014
2.366657
-7.960128
2.436148
-7.412861
2.495404
-6.883626
2.557143
-6.349825
2.617224
-5.843072
2.679950
-5.340154
2.730800
-4.859997
2.773217
-4.391719
2.821134
-3.931044
2.860160
-3.489307
2.882748
-3.055650
2.916985
-2.653743
2.944823
-2.253791
2.957979
-1.873126
2.972947
-1.505402
2.969218
-1.154641
2.961838
-0.828766
2.957028
-0.499829
2.934666
-0.205299
2.902208
0.092909
2.858566
0.364401
2.807906
0.617966
2.749007
0.863614
2.670780
1.078396
2.598978
1.301981
2.505904
1.500559
2.396082
1.679859
2.277460
1.848421
2.155405
2.009784
-0.107565
0.298600
-0.335182
0.482993
-0.563684
0.656832
-0.809313
0.813887
-1.061790
0.962829
-1.342114
1.101087
-1.624277
1.229031
-1.930601
1.344210
-2.247043
1.447362
-2.563950
1.547643
-2.908522
1.627347
-3.266728
1.714440
-3.631584
1.785234
-4.005521
1.839375
-4.405868
1.898709
-4.818072
1.935408
-5.237009
1.968888
-5.674125
2.006233
-6.124651
2.029512
-6.579294
2.042878
-7.050596
2.052921
-7.537209
2.061740
-8.022878
2.059565
-8.525522
2.060934
-9.036340
2.045111
-9.563731
2.034073
-10.087543
2.002930
-10.627646
1.987468
-11.174622
1.966810
-11.738226
1.938661
-12.296087
1.909747
-12.866852
1.871284
-13.438670
1.830501
-14.020177
1.793256
-14.600859
1.754816
-15.191682
1.713361
-15.778817
1.658286
-16.358346
1.627830
-16.952704
1.578542
-17.541109
1.527046
-18.127320
1.480447
-18.713868
1.435581
-19.298540
1.381978
-19.871155
1.334541
-20.439518
1.287680
-21.014452
1.240562
-21.568722
1.192831
-22.113530
1.146228
-22.658723
1.091996
-23.189882
1.056756
-23.716004
1.009901
-24.222297
0.955473
-24.715311
0.917177
-25.204909
0.872587
-25.673487
0.831480
-26.124919
0.796445
-26.557349
0.749082
-26.979895
0.709069
-27.377884
0.679491
-27.767391
0.634361
-28.113729
0.599977
-28.465435
0.563894
-28.791732
0.536651
-29.088432
0.512527
-29.361969
0.481049
-29.613909
0.452513
-29.845071
0.430232
-30.054691
0.407893
-30.240778
0.387471
-30.398552
0.364613
-30.528832
0.343984
-30.636345
0.330738
-30.718493
0.314650
-30.775132
0.303560
-30.794995
0.294697
-30.802339
0.282106
-30.782011
0.276198
-30.729691
0.278216
-30.658909
0.275267
-30.551438
0.277864
-30.420438
0.275790
-30.265872
0.280190
-30.090764
0.283273
-29.876774
0.291910
-29.644260
0.303569
-29.389048
0.320484
-29.106943
0.334131
-28.813551
0.357486
-28.488693
0.368974
-28.142607
0.386452
-27.773055
0.422638
-27.375127
0.448026
-26.959306
0.474982
-26.538611
0.497540
-26.085694
0.535889
-25.621620
0.572471
-25.132580
0.611472
-24.632946
0.650967
-24.113415
0.697093
-23.581036
0.741821
-23.035294
0.791408
-22.482770
0.840996
-21.914639
0.895982
-21.326363
0.942004
-20.735016
0.996050
-20.145083
1.057424
-19.537755
1.112347
-18.927160
1.178806
-18.314366
1.238148
-17.689841
1.310166
-17.069554
1.366946
-16.439197
1.435228
-15.813042
1.499314
-15.189231
1.573993
-14.562749
1.639518
-13.932471
1.719720
-13.316076
1.778863
-12.692562
1.862505
-12.081186
1.928543
-11.471554
2.002157
-10.871714
2.077389
-10.279807
2.142656
-9.686922
2.214835
-9.107804
2.284293
-8.547086
2.357774
-7.973140
2.416877
-7.431961
2.480656
-6.896332
2.543636
-6.375387
2.610240
-5.867040
2.658991
-5.361765
2.704688
-4.875780
2.762109
-4.403582
2.804060
-3.942246
2.844233
-3.498215
2.877871
-3.071739
2.911476
-2.662811
2.936274
-2.264463
2.947880
-1.882305
2.970611
-1.504734
2.966505
-1.159577
2.961953
-0.821693
2.950735
-0.506451
2.924926
-0.196522
2.898957
0.096142
2.861713
0.370192
2.811507
0.623799
2.754817
0.867221
2.675779
1.102647
2.599678
1.311404
2.510898
1.509108
2.396494
1.693933
2.280419
2.160346
1.861725
2.014552
-0.021809
0.224234
-0.201709
0.414823
-0.412053
0.585850
-0.648822
0.743548
-0.898293
0.903886
-1.160606
1.043316
-1.426451
-1.654256
1.184494
-1.955585
-1.800119
1.300564
-2.260111
-2.125381
1.405923
-2.431425
-2.607701
1.505117
-2.770079
-2.952787
1.587254
-3.299560
-3.119187
1.677505
-3.477953
-3.679389
1.748905
-4.085318
-3.854761
1.806358
-4.366986
1.864257
-4.754599
1.910539
-5.166084
1.959722
-5.598299
1.984647
-6.042541
2.011344
-6.494614
2.032374
-6.942349
2.041297
-7.339613
2.053582
-7.930929
2.063486
-8.426734
2.053084
2.045531
-8.943741
2.037345
2.044694
-9.454605
2.019053
2.025922
-9.990926
1.995038
2.005409
1.974905
1.978099
-10.647272
1.970912
1.949997
-11.149843
1.936561
1.927006
-11.712644
1.906299
1.881814
-12.296884
1.860877
-13.032512
1.821068
-14.027277
1.791468
-14.499233
1.750793
-14.966457
1.706916
-15.673087
1.662641
-16.264221
1.624014
-16.859930
1.565908
-17.563895
1.523207
-18.064172
1.469305
-18.635503
1.416263
-19.214703
1.382377
-19.809031
1.337095
-20.371368
-20.933703
-21.370211
1.247573
-21.944060
-21.664078
1.194720
-22.516574
-22.227757
1.134018
-22.782067
-23.057519
1.085050
-23.315156
-23.604829
1.050750
-23.842796
-24.119698
0.991382
-24.365520
-24.645876
0.944980
-24.870739
-25.188251
0.902151
-25.520203
0.847886
-25.974134
0.814204
-26.423169
0.761878
-26.875501
0.738049
-27.297674
0.682926
-27.712293
0.654784
-28.095457
0.614311
-28.400221
0.580704
-28.842029
0.535828
-29.174609
0.525444
0.488873
-29.480527
0.486078
0.457887
-29.771237
0.447362
0.429548
-30.048539
0.419767
0.405130
-30.336901
0.392676
0.377162
-30.511330
0.350743
0.375955
-30.695922
0.343094
0.337570
-30.873768
0.309409
0.328543
-30.991184
0.295471
-31.140413
0.290690
-31.240101
0.277555
-31.309163
0.257706
-31.362095
0.250240
-31.370311
0.240900
-31.364415
0.233298
-31.315192
0.227713
-31.267769
0.223751
-31.183159
0.221272
-31.078237
0.226079
-30.935047
0.224400
-30.775355
0.234942
-30.598203
-30.478184
0.238574
-30.296844
-30.191688
0.246012
-30.042024
-29.934767
0.260766
-29.674726
-29.783652
0.275190
-29.504788
-29.349014
0.282392
-29.035495
-29.190889
0.308474
-28.827128
-28.669125
0.338789
-28.299926
-28.469931
0.347761
-27.991233
0.376560
-27.596440
0.404698
-27.163087
0.445130
-26.714528
0.466597
-26.250999
0.494255
-25.774528
0.539918
-25.288051
0.582408
-24.860464
0.618031
-24.222726
0.652426
-23.684265
0.699004
0.733094
-23.123662
0.767107
0.781683
-22.563708
0.816198
0.840964
-21.980715
0.866902
0.901733
-21.270341
0.917753
0.942531
-20.782674
0.983064
1.000727
-20.181869
1.032257
1.067770
-19.573990
1.097208
1.133283
-18.979862
1.175469
-18.475463
1.240308
-17.585583
1.308476
-17.080229
1.375759
-16.580781
1.442029
-15.823750
1.503037
-15.192838
1.555298
-14.563420
1.645499
-13.802361
1.725693
-13.281968
1.793983
-12.683905
1.884623
-12.074937
1.943329
-11.456320
1.996074
-10.869746
2.091202
-10.300628
2.140876
-9.878908
-9.537386
2.238268
-9.278405
-8.949249
2.296740
-8.675808
-8.393622
2.361538
-8.109670
-7.842897
2.420222
-7.564761
-7.298222
2.489263
-7.011757
-6.749523
2.549012
-6.481704
-6.240907
2.616151
-5.953104
2.669212
-5.573920
2.720916
-5.107057
2.781677
-4.620824
2.814588
-4.164560
2.849133
-3.717888
2.892109
-3.287483
2.916206
-2.868395
2.934147
-2.531819
2.952233
-2.066499
2.968546
-1.681715
2.970279
2.962907
-1.336340
2.968022
2.966221
-0.981891
2.947702
2.949434
-0.657317
2.935454
2.919644
-0.284670
2.895805
2.907018
-0.046489
2.869838
2.847057
0.227537
2.791538
2.818534
0.494078
2.775405
0.712146
2.715881
0.981389
2.636429
1.195526
2.560895
1.401926
2.454133
1.598608
2.346598
1.771503
2.231021
2.114756
1.941340
SCALARS strain_3 float
LOOKUP_TABLE default
1.160380
0.740750
-0.787637
3.034634
-2.815088
4.825081
-4.923354
6.535925
-7.101856
8.163361
-9.360408
9.714571
-11.687887
11.183068
-14.087996
12.568653
-16.555658
13.872823
-19.094024
15.095024
-21.693071
16.238453
-24.357853
17.301213
-27.082431
18.285047
-29.864042
19.189811
-32.700664
20.017995
-35.587151
20.767924
-38.524347
21.444030
-41.508277
22.046060
-44.534704
22.574041
-47.598380
23.033091
-50.698490
23.422322
-53.832950
23.743002
-56.992344
23.997427
-60.177888
24.189484
-63.384925
24.317375
-66.604235
24.388719
-69.837452
24.401835
-73.076880
24.356526
-76.320800
24.261679
-79.568228
24.111717
-82.807862
23.918335
-86.038050
23.677179
-89.256277
-92.455095
23.393115
-95.633452
23.067455
-98.781277
22.704405
-101.900027
22.303989
-104.984941
21.868761
-108.028132
21.407599
-111.025331
20.914992
-113.977870
20.397322
-116.875372
19.856099
-119.716980
19.296116
-122.495546
18.714057
-125.206982
18.120647
-127.850981
17.512381
-130.420517
-132.911076
16.891991
16.263788
-135.322296
15.631967
-137.648672
14.995772
-139.888325
14.357377
-142.034899
13.717863
-144.089679
13.082023
-146.043391
12.452897
-147.897253
11.828694
-149.647732
11.210253
-151.292934
10.601150
-152.831466
10.008758
-154.258688
9.426157
-155.575156
8.858879
-156.774579
8.307215
-157.860756
7.771384
-158.828991
7.256622
-159.676351
6.759241
-160.407370
6.284171
5.827298
-161.017657
5.393563
-161.507402
4.985376
-161.876487
4.599131
-162.122420
4.236823
-162.246550
3.897762
-162.253100
3.583275
-162.135056
3.293892
-161.897561
3.030584
-161.543730
2.789721
-161.071197
2.575332
-160.480950
2.384891
-159.775557
2.218448
-158.955584
2.076411
-158.023915
1.959753
-156.981225
1.864546
-155.831315
1.793406
-154.577185
1.744850
-153.217329
1.716617
-151.758040
1.710462
-150.202020
1.725209
-148.550748
1.758594
-146.807846
1.809751
-144.974841
1.877752
-143.060671
1.965096
-141.063635
2.068592
-138.987779
2.187748
-136.837758
2.319500
-134.618778
2.465796
-132.331409
2.624672
-129.978828
2.793438
-127.570711
2.975200
-125.106022
3.163667
-122.589549
3.364682
-120.026857
3.570498
-117.421635
3.785259
-114.776461
4.002117
-112.095875
4.229557
-109.386362
4.459947
-106.649042
4.690293
-103.890592
4.923091
-101.114928
5.162857
-98.322262
5.397317
-95.521517
5.636909
-92.711495
5.873819
-89.898372
6.108348
-87.088708
6.341786
-84.279591
6.573206
-81.482029
6.798284
-78.692569
7.026295
-75.920686
7.243135
-73.164877
7.454368
-70.431200
7.662618
-67.719313
7.863308
-65.035644
8.057846
-62.382654
8.244040
-59.761896
8.422866
-57.173082
8.594763
-54.627591
8.754844
-52.116956
8.906846
-49.649880
9.048389
-47.228812
9.177833
-44.847684
9.297557
-42.517979
9.405929
-40.237834
9.500509
-38.006961
9.584056
-35.827638
9.651569
-33.698851
9.707759
-31.626546
9.749643
-29.609280
9.771065
-27.647616
9.781674
-25.740062
9.775077
-23.890717
9.751764
-22.097168
9.705529
-20.358886
9.643762
-18.678883
9.561901
-17.057908
9.458919
-15.492756
9.334897
-13.985818
9.187209
-12.533529
9.019117
-11.138580
8.824769
-9.796908
8.605395
-8.513054
8.359734
-7.282150
8.086694
-6.104766
7.784156
-4.979342
7.449879
-3.907227
7.087477
-2.888396
6.695500
-1.914920
6.265789
-0.991528
5.802018
-0.116770
5.304147
0.710616
4.770420
1.494764
4.196029
2.234491
3.580992
2.928264
-1.228498
2.634119
-3.277214
4.447185
-5.404705
6.174386
-7.607535
7.822840
-9.883611
9.388980
-12.235295
10.873285
-14.655428
12.274080
-17.146989
13.590555
-19.702699
14.827872
-22.324120
15.983269
-25.006422
17.061059
-27.747079
18.053526
-30.547125
18.967788
-33.399333
19.801999
-36.301796
20.560223
-39.249567
21.245792
-42.242925
21.851432
-45.276197
22.384249
-48.347948
22.847463
-51.447980
23.238665
-54.581531
23.563701
-57.737111
23.821560
-60.914949
24.014853
-64.109056
24.144713
-67.315276
24.217528
-70.529444
24.229495
-73.747398
24.187417
-76.966024
24.090726
-80.176701
23.944831
-83.379915
23.751117
-86.567413
23.513154
-89.737538
23.230251
-92.886502
22.905015
-96.006121
22.544070
-99.090891
22.146611
-102.138919
21.715408
-105.146536
21.257403
-108.107026
20.768965
-111.017572
20.257643
-113.873042
19.727133
-116.671184
19.173441
-119.403685
18.601257
-122.067366
18.016469
-124.660162
17.421135
-127.176015
16.818289
-129.612678
16.204911
-131.962633
15.584775
-134.230035
14.963650
-136.403049
14.343580
-138.481907
13.725898
-140.464549
13.110700
-142.346999
12.500225
-144.124993
11.898241
-145.796764
11.305698
-147.360114
10.726856
-148.813336
10.155343
-150.153024
9.601511
-151.374228
9.061808
-152.484284
8.542796
-153.472642
8.039331
-154.341803
7.555418
-155.093793
7.090918
-155.722449
6.646853
-156.225887
6.224484
-156.608028
5.827033
-156.868139
5.452589
-157.007090
5.098931
-157.021100
4.774352
-156.913663
4.472058
-156.683442
4.193553
-156.336122
3.937972
-155.865983
3.710666
-155.278098
3.504906
-154.574129
3.323738
-153.753534
3.167377
-152.821335
3.035696
-151.777294
2.926118
-150.623933
2.841130
-149.364927
2.777419
-148.002184
2.735892
-146.536624
2.714825
-144.972731
2.714697
-143.315698
2.731223
-141.568411
2.769766
-139.730033
2.826098
-137.807657
2.899478
-135.802157
2.990448
-133.721306
3.096797
-131.565660
3.216813
-129.340491
3.347734
-127.047467
3.494931
-124.692948
3.650821
-122.282571
3.820828
-119.818058
3.995734
-117.303700
4.186270
-114.743184
4.379314
-112.142567
4.580595
-109.502796
4.790651
-106.830351
5.003628
-104.130995
5.218843
-101.408475
5.438551
-98.665305
5.662205
-95.906151
5.884125
-93.133592
6.108759
-90.354851
6.335809
-87.569038
6.556899
-84.785927
6.781562
-82.005854
6.998502
-79.230377
7.215952
-76.469394
7.430141
-73.723053
7.638249
-70.992533
7.841938
-68.281392
8.041993
-65.594910
8.232926
-62.938531
8.418166
-60.307519
8.594229
-57.711301
8.766002
-55.148920
8.922447
-52.625167
9.075103
-50.140058
9.217750
-47.700649
9.346727
-45.304022
9.467783
-42.954662
9.578298
-40.650938
9.675162
-38.400011
9.757044
-36.196114
9.830058
-34.047687
9.885907
-31.952192
9.928024
-29.909036
9.953236
-27.923501
9.963141
-25.991212
9.957755
-24.120979
9.935129
-22.303060
9.891854
-20.543698
9.830630
-18.840911
9.749763
-17.198072
9.648348
-15.611971
9.523463
-14.081587
9.378067
-12.609153
9.210691
-11.193763
9.014893
-9.834040
8.792751
-8.533181
8.545500
-7.284366
8.270725
-6.090671
7.965741
-4.950776
7.633444
-3.862507
7.265234
-2.826855
6.869560
-1.842686
6.435571
-0.908796
5.968104
-0.020512
5.463939
0.821240
4.926821
1.612100
4.344007
3.723879
2.360286
3.062981
-0.415244
1.903992
-2.087075
3.746516
-4.108929
5.505001
-6.248765
7.183693
-8.476860
8.784904
-10.764955
10.299455
-13.044039
-14.918641
11.873136
-17.410771
-16.173777
13.106146
-19.986635
-18.780892
14.352955
-21.341481
-22.674536
15.504758
-24.035703
-25.406880
16.430502
-28.121991
-26.699299
17.683784
-29.495534
-30.958286
18.634603
-34.028075
-32.310200
19.501830
-36.106889
20.297654
-38.909508
21.014243
-41.877648
21.775087
-44.897068
22.242276
-47.967283
22.722834
-51.045786
23.146273
-54.082903
23.496650
-56.701406
23.787254
-60.552570
24.013722
-63.741785
24.174680
24.255587
-66.953551
24.312213
24.288451
-70.181155
24.312412
24.316383
-73.408791
24.257513
24.287349
24.203661
24.142576
-77.353689
24.072885
23.987109
-80.310640
23.895544
23.775139
-83.572171
23.661060
23.505098
-86.875684
23.292944
-91.064411
22.976266
-96.435163
22.624694
-98.928722
22.225290
-101.406207
21.797200
-105.068207
21.350089
-108.068925
20.946339
-111.025160
20.327697
-114.463670
19.791130
-116.852664
19.236521
-119.560963
18.533818
-122.270465
18.070787
-124.926931
17.589799
-127.516375
-129.903212
-131.814099
16.501315
-134.196504
-133.026442
15.695484
-136.576971
-135.352842
15.037682
-137.606115
-138.702598
14.415271
-139.707862
-140.840134
13.853760
-141.717000
-142.770246
13.096848
-143.667422
-144.720158
12.477753
-145.499251
-146.694597
11.862158
-147.803911
11.259206
-149.311845
10.665389
-150.782967
9.969082
-152.164894
9.497150
-153.442076
8.960318
-154.586619
8.423850
-155.594652
7.907300
-156.377551
7.402285
-157.369423
6.930099
-158.052594
6.487460
6.130209
-158.608921
5.927747
5.716491
-159.047920
5.516029
5.293520
-159.361854
5.117253
4.932966
-159.617318
4.752718
4.565746
-159.611767
4.249675
4.426638
-159.553638
4.120496
3.950335
-159.412885
3.641194
3.829824
-159.171379
3.476215
-158.694783
3.250370
-158.164641
3.048419
-157.516106
2.856585
-156.753698
2.704824
-155.879208
2.572515
-154.889286
2.472872
-153.571898
2.360802
-152.535549
2.293047
-151.284457
2.246883
-149.851691
2.222059
-148.361094
2.218921
-146.786765
2.233682
-145.161590
-144.000303
2.266366
-142.765161
-141.904336
2.326465
-140.819836
-139.940757
2.394309
-137.989024
-138.867774
2.481939
-136.865282
-135.840736
2.559047
-133.722880
-134.763700
2.708066
-132.481980
-131.411434
2.839139
-129.020644
-130.189878
2.987482
-127.253439
3.144289
-124.929676
3.314268
-122.434401
3.535293
-119.924351
3.691047
-117.376219
3.883919
-114.767567
4.086075
-112.202696
4.296201
-109.991217
4.505404
-106.741297
4.733444
-104.013702
4.941839
5.087931
-101.260331
5.245881
5.347710
-98.494823
5.481166
5.582785
-95.710292
5.709966
5.808518
-92.338688
5.932911
6.041937
-90.029429
6.157742
6.266510
-87.306304
6.397973
6.508407
-84.539144
6.625075
6.728914
-81.825393
6.907547
-79.579286
7.119185
-75.635738
7.336174
-73.421245
7.545527
-71.249473
7.752490
-67.997609
7.946551
-65.313815
8.109787
-62.654520
8.331333
-59.461481
8.506202
-57.337672
8.680287
-54.861202
8.870741
-52.365779
8.989500
-49.890858
9.104617
-47.490833
9.284444
-45.211310
9.364138
-43.530900
-42.177730
9.513795
-41.120167
-39.859282
9.589579
-38.752236
-37.658633
9.667525
-36.561720
-35.502601
9.726516
-34.411093
-33.404422
9.796751
-32.253295
-31.250220
9.837303
-30.235338
-29.288641
9.863300
-28.176139
9.872726
-26.717883
9.865596
-24.908063
9.835460
-23.089873
9.799415
-21.314838
9.737192
-19.602554
9.657219
-17.950705
9.554616
-16.390228
9.428243
-15.101971
9.282924
-13.294068
9.119243
-11.860683
8.980686
8.869339
-10.483499
8.764990
8.640640
-9.162781
8.514569
8.380553
-7.894885
8.249433
8.108538
-6.437181
7.795490
7.952462
-5.485998
7.621711
7.450527
-4.416618
7.075920
7.265966
-3.388905
6.850028
-2.501681
6.545389
-1.406795
6.116685
-0.504549
5.638265
0.352050
5.119984
1.164226
4.566494
1.930262
3.988792
3.460303
2.651327
SCALARS stress_1 float
LOOKUP_TABLE default
-15680057.443075
-10226163.861560
10245633.294480
-40065354.693844
37099079.792401
-63859313.604253
64993135.012120
-85929556.403587
94120952.504706
-107511382.916491
124304093.909810
-127752871.875114
155446492.822792
-146601416.830523
187867541.112591
-164622455.378077
220996322.100988
-181591372.434918
255178708.793711
-197215470.230330
290718137.649330
-212042395.910740
326641546.307497
-225519355.705434
363991413.500363
-238025894.531552
402093993.960076
-249716253.940160
441173996.233792
-260054047.526620
480765117.872579
-269527649.934492
521398981.697172
-278191116.944130
562850473.936856
-285821382.784817
605156528.689855
-292251342.602981
647595655.137251
-298237326.583614
691580734.284772
-303098467.599562
735499870.635281
-307222027.246187
780157522.965221
-310080715.030261
825272686.684959
-312408356.502852
870611793.663434
-314007555.400016
916855947.355306
-315027839.087830
963001817.355936
-314833848.394847
1009804092.256773
-314419195.779638
1056793660.560682
-312769166.748977
1103824542.814818
-310832935.946425
1151037931.522047
-308388222.015546
1198303779.273818
-305249893.326323
1245482559.709784
1292483280.284606
-301678235.474117
1339835967.774726
-297314655.013903
1386649004.498017
-292861782.174967
1433323227.001635
-287747602.922652
1479747305.603451
-281866382.305162
1525718083.079908
-276149481.151050
1571300048.656382
-270196275.874595
1616165259.972526
-263365097.075064
1660640064.527293
-256662440.029948
1704662593.731052
-249376860.475303
1747902096.175253
-242322793.644325
1790083402.177767
-234546513.088081
1831858348.374338
-226954923.132261
1872436430.131041
1912250038.991122
-219288712.191143
-211246012.634710
1951212706.998876
-203374424.877240
1988545336.975037
-195241461.244423
2025360827.915695
-187085783.243034
2060837360.368009
-179072610.106266
2095113008.694143
-170941200.433390
2127883479.256261
-162866704.365104
2159588211.509026
-155188278.271391
2189650813.541022
-147089840.292952
2218727217.987993
-139293689.029054
2245800855.801738
-132007885.483609
2271601530.481210
-124438899.163388
2295864003.251784
-117209105.257294
2318444033.568122
-109989703.042815
2339500152.426315
-103085484.845641
2358571966.232820
-96391024.806472
2376330933.261214
-89959663.206704
2392418441.732966
-84101123.368120
-77967768.435327
2406774647.692369
-72434546.364032
2418906532.409090
-67232975.709212
2429664874.245296
-62142919.245491
2438522124.197075
-57464621.342852
2445471091.489805
-52810484.097702
2450804880.300658
-48565005.606445
2454475934.673927
-44938461.102278
2455969994.831078
-41346026.496612
2455374672.816405
-38099090.070847
2453376288.807081
-35347750.643899
2449549693.799195
-33026255.404670
2443715665.018125
-30609481.357070
2436165544.367463
-28995831.734293
2427057410.887594
-27361009.310964
2416196252.622811
-25922028.139195
2403530657.794580
-25111634.403978
2388832680.217909
-24565495.883847
2372909305.840686
-24394656.534509
2354878847.888287
-24309965.315580
2335317463.127515
-24667248.323465
2314455362.554463
-25127584.332789
2291473562.980228
-26032154.347462
2267489677.585894
-27466734.190311
2241911742.090061
-28647391.817042
2214898596.581317
-30315715.006189
2186624989.826468
-32187483.713459
2156874359.729106
-34356665.761680
2125790592.192828
-36904179.925474
2093503522.847648
-39280327.208753
2060425800.918942
-42227673.249351
2025760947.851735
-45268484.777599
1990229407.690320
-48296717.749203
1953536033.290087
-51750855.942699
1916153437.329257
-55174481.084507
1877729271.526431
-58966546.768169
1838760129.740910
-62816969.997594
1798525475.647004
-66927335.318122
1757917309.967225
-70907521.504378
1716712617.512671
-74660557.057406
1674930784.776568
-79100611.025409
1632439526.755007
-83450918.772645
1589661376.848719
-87970432.210527
1546472384.917006
-92227903.884393
1503094546.589882
-96916747.432080
1459315847.726650
-101221000.491421
1415546533.728039
-105769970.515260
1371613193.360855
-110456326.507506
1327397997.118325
-115119133.647425
1283470648.674758
-119631867.890722
1239193435.615877
-124000409.694151
1195111937.571697
-128476639.691637
1151538714.127941
-133090705.247436
1107732748.958919
-137372304.043677
1064555608.513564
-141562075.488910
1021512345.558680
-145977888.172766
978802404.358210
-150234002.596292
936695193.634666
-154095161.119835
894665022.788778
-158092842.518019
853675715.406268
-161754364.014401
812836870.658583
-165389711.291111
772725263.497519
-168608287.800990
733237067.957733
-172023183.226168
694390549.809939
-175223154.790202
656310830.499162
-177969467.038431
618893272.430041
-180805102.331202
582095679.232592
-183247756.077066
546236588.263254
-185186955.773157
511167592.878463
-187151656.872320
476758575.571446
-188666842.871690
443148467.883632
-190186145.179818
410978772.986467
-191242430.201343
379100539.513877
-191920546.481605
348237499.729803
-192277934.151665
318419732.083178
-192208525.801156
289545791.067229
-191993302.653635
261502847.086597
-191128576.206239
234293879.268433
-190163449.453240
208075965.427745
-188465685.213556
182842130.418108
-186139661.388963
158684368.010236
-183713595.750176
134952654.423776
-180698873.476460
112661847.015168
-177211589.016747
90931116.189050
-173252313.823881
70570828.394356
-168536329.165714
50711966.713946
-163376932.310095
32050684.918533
-157616689.617373
14301479.861693
-151034084.628975
-2929030.685861
-144030764.339176
-19102887.641270
-136440365.426194
-34412792.599893
-127906632.021090
-48984315.112797
-118965950.528504
-62588125.912131
-108926359.308785
-75335172.822540
-98573648.810865
-87192854.073309
15865529.942493
-35146178.126715
43001807.788308
-59124410.906900
71287473.500532
-81554677.568192
100897248.630229
-103205333.935235
131572537.090632
-123546755.788380
163066172.432806
-143056007.630492
195703833.388903
-161260809.241922
229444297.598573
-178298423.354820
263998986.657177
-194407225.749537
299554481.526149
-209212764.884643
336200322.752646
-223141380.584784
373752998.117020
-235784423.493523
412150187.073931
-247463785.435503
451566182.584815
-258073754.825003
491372438.245031
-267663839.486668
532454857.509240
-276656735.200848
574277529.294582
-283854837.289327
616622318.826434
-290731631.761740
659764037.295515
-296358111.032365
703237360.112193
-301322858.881553
747264662.097203
-305480656.904665
792216820.845904
-308605888.793466
837255799.134741
-311104248.143316
882939986.647657
-312651053.597777
928910697.658233
-313345702.663622
975282072.079699
-313653732.891918
1021447782.414919
-312924997.155512
1068154468.118554
-311619483.824390
1115098619.967046
-309547084.723195
1162066960.233974
-307270331.085123
1208845639.740074
-304157507.783022
1255693897.306080
-300450920.367958
1302119927.205571
-296412044.073125
1348597842.029998
-291638087.815665
1394854995.419014
-286457944.599488
1440849689.690489
-280948673.526726
1486371862.572664
-275258657.874868
1531482668.339117
-269180856.198889
1575857808.673794
-262689286.049857
1619748164.168145
-255834502.027039
1663054384.047547
-248927297.592918
1705611771.132734
-241724578.932484
1747383032.834074
-234266969.737503
1788402939.602320
-226588022.422252
1828147393.032830
-218885724.219926
1866886969.302777
-211313029.729795
1904719710.051814
-203538781.136850
1941615896.505318
-195585312.996067
1977410047.069745
-187874319.862423
2011688203.384750
-179873939.920910
2044874684.490716
-172081477.497218
2076880854.934800
-164424298.098121
2106967793.123460
-156700719.864317
2136058100.282071
-149332580.213994
2163632751.865295
-141751153.332143
2189649598.235297
-134537568.681245
2214154530.388166
-127515338.586990
2236810510.052144
-120525932.053288
2258165188.223319
-113741187.635115
2277791082.171360
-107364784.609959
2295468318.214141
-101223020.985639
2311637313.665623
-95046202.313222
2325945217.706887
-89569320.415535
2338437635.607604
-83910780.799350
2349211206.408156
-78817268.468579
2357929320.426415
-73969221.475332
2365249768.702766
-69158837.326384
2370335777.599373
-65143326.752065
2373728402.156621
-61145686.122360
2375551666.463093
-57436177.489380
2375249063.788461
-54247437.857036
2373060736.036319
-51468206.458522
2368958560.476335
-48514277.390244
2363430938.967811
-46203849.426826
2355618260.780415
-44135463.986454
2346274572.954532
-42656279.843754
2334870730.441957
-41239577.958342
2322014920.327371
-39878236.470916
2307448024.470070
-39541028.296799
2291051641.910442
-39026538.484195
2272859541.873860
-38625199.992719
2253219934.942138
-39047119.552703
2231888062.340652
-39298039.304845
2209040577.972996
-40280577.979477
2184686342.605976
-41232353.673004
2158809807.235681
-42599281.115758
2131476581.810000
-44128312.219151
2102939381.958948
-45890743.942800
2072944804.952195
-47871381.924540
2041647405.282966
-50014547.123988
2009331928.899151
-52693713.223271
1975663338.796838
-55455889.182007
1941080861.469255
-58288237.730525
1905240673.093575
-60892345.687745
1868535348.118731
-64871699.739703
1830946076.536904
-68242525.568528
1792289659.070606
-71559281.904551
1752936977.164861
-75157005.751681
1713144865.815759
-79106495.381679
1672438548.697610
-82944067.798455
1631217888.347933
-87096896.639844
1589340954.581737
-91346726.451184
1547149813.980834
-95276812.007100
1504473412.404526
-99738714.901134
1461413056.346039
-103805262.586130
1418214865.479683
-108272744.021702
1374632461.620466
-112717485.568198
1331591734.213411
-117206664.819161
1287593740.703542
-121423888.549214
1243956774.905868
-125793355.118704
1200480778.221119
-130103880.350459
1156863315.416100
-134639946.649118
1113484530.076534
-138817919.563931
1070201398.510655
-143338643.684529
1027377846.533472
-147103200.190178
984721512.682505
-151470459.855501
942573010.358484
-155349862.089048
900839538.010342
-159123049.206873
859404553.083104
-162972578.935398
818502648.299281
-166682529.546383
778488892.556741
-169891142.721956
738751768.851573
-173206936.822464
699511796.266638
-176336023.256458
661381995.568739
-179422047.750359
623606013.206811
-182035787.483430
586778700.308006
-184372659.634938
550626293.639128
-186586549.931303
514962069.375533
-188718823.596083
480477015.147237
-190213305.174617
446725598.081392
-191504290.164041
414106536.626932
-192850374.651125
381985905.277082
-193698884.362289
350829697.388281
-193835493.613587
320566043.365169
-194223167.628577
291484047.515981
-193563284.811899
263124768.245356
-193017918.342818
235823269.772943
-191842024.810966
209269519.684464
-190291225.025624
183730831.970283
-188450533.761415
159139147.308619
-185622966.101200
135598105.919119
-182802682.590316
112927127.977139
-179182581.633404
91002549.068400
-175036882.269030
70514189.368259
-170436097.042533
50332650.233153
-165420378.173561
31416039.838436
-159488537.114957
13051321.725538
-153074536.905287
-3998407.885892
-146004107.949191
-20460235.728004
-138220168.607016
-35468665.581149
-130199856.146613
-50100825.948192
-120732161.016916
-63956116.609484
-111048479.304692
-100603401.458877
-76768653.389670
-89333083.654824
5300297.297474
-25446386.247101
27279101.510758
-49585678.332928
54272176.271174
-72700291.074485
82572352.761075
-94631288.252124
112522489.520542
-115623858.413002
143135465.370150
-135429096.200682
173586191.140388
198844795.563188
-155841945.104575
232529611.964455
215955131.707988
-171933643.386591
267673425.178929
251116115.890751
-187961902.806250
285996642.970935
303994106.122471
-202861883.425813
322679409.893570
341264808.030682
-214536206.021578
378631869.905879
359164309.070436
-230634665.420342
397260240.602985
417702968.852220
-242736248.077060
459707384.408542
436055512.908445
-254102999.863427
488296146.821327
-263946487.511590
527385796.578390
-272915115.391534
568441077.991303
-282645315.216636
610634390.352980
-288548094.018871
653659759.455941
-294681811.302207
696972297.111533
-299866467.659000
739354442.784150
-304509047.119362
776549542.983570
-308021096.603312
831353682.159336
-310464178.843802
876876534.973409
-312731707.796796
-313386562.894389
922823759.685888
-314240222.158433
-313952552.839777
968968111.394981
-314016049.478060
-313910480.840837
1015601859.281770
-313106799.036494
-313836022.619502
-312507010.770726
-311874433.179878
1072803390.654577
-310839377.295887
-309855622.996056
1115792993.691870
-308632677.867616
-306992622.686178
1163384189.010662
-305548041.030086
-303384689.441351
1211750756.829958
-300729885.217482
1273669671.578233
-296735895.224542
1353382869.420147
-292100944.032973
1390650480.202891
-287162580.151383
1427805622.214612
-281788124.757882
1483074020.509752
-276182982.614053
1528476108.492463
-270815796.684190
1573553514.126257
-262975009.111563
1626414289.512117
-256295759.440807
1663139974.874416
-249412799.719094
1705201136.123553
-240299508.762605
1747439110.005692
-234352886.760356
1788954003.731469
-228529174.953494
1829981385.528819
1867903145.856045
1898151880.924307
-214614608.685218
1936891448.889426
1918017875.287543
-204489039.812767
1975426772.822714
1955758099.565214
-196305695.083658
1992535428.964689
2010572693.750041
-188032595.456787
2027183281.863280
2045879738.524409
-181256515.184212
2060760939.538589
2078414586.996169
-171464453.985761
2093578744.513715
2111015087.160196
-163701004.569032
2124645462.970956
2144472637.371343
-155895994.677943
2164331813.034202
-148213739.634277
2190585379.265397
-140559980.856219
2217151569.733577
-131783113.926224
2242362246.752525
-125723545.932205
2266019535.199739
-118774640.511971
2287632031.303665
-111970653.354749
2307177981.470170
-105060215.704873
2323059840.370514
-98552837.078868
2343770215.718486
-92761643.116027
2359116235.745709
-86709540.140136
-82255355.651160
2372343309.807739
-79542231.073770
-77061419.929404
2384145138.451734
-74359562.752962
-71372526.560674
2393678471.581286
-69055622.573541
-66769259.589464
2403799770.585199
-64434451.847882
-61943758.896854
2408011647.462409
-57771208.381291
-60047945.933020
2411860326.915568
-56324533.480277
-53959489.710381
2414819554.622204
-49921693.345199
-52235953.276690
2415449891.656007
-47811896.707584
2414332113.657337
-44674498.242533
2411012653.052856
-42290274.287632
2406237145.996972
-39611071.181283
2399750450.851848
-37796175.106228
2391326051.247501
-35878197.410011
2381007504.453599
-34793461.714736
2366277997.403223
-32831861.204740
2354398482.728941
-32345266.763885
2339674684.838712
-31901826.368232
2322386690.791468
-31595305.513356
2304043351.708969
-31633788.569241
2284158970.648761
-32276513.173721
2263154266.216703
2248192445.851323
-32667942.428789
2231346496.653186
2220015173.894852
-33653771.652422
2205347299.208251
2193585636.780178
-34819312.422607
2167401972.077159
2179022470.156762
-36540017.514495
2151719423.148818
2137795704.957126
-37661678.057290
2108663064.773544
2122611835.514713
-40110551.097670
2090639804.084919
2075544961.404113
-42443329.968118
2042090252.523451
2058336399.792894
-44760413.324124
2016802897.288562
-47388955.262093
1983383902.411278
-50306999.234870
1947311574.536644
-54047142.767565
1910802762.947474
-56702284.986554
1873616212.684119
-59950730.984206
1834843837.762392
-63360994.671830
1796633674.415821
-67223763.914307
1763793530.409840
-70845865.584812
1714779933.339835
-74840346.941498
1673705628.117893
-78628545.154039
-81329597.660870
1631865195.161559
-84224221.041302
-86186544.889514
1589504445.052648
-88592225.126452
-90388816.560738
1547134902.469377
-92832494.183442
-94759706.588754
1494885844.937707
-97008128.207962
-99163559.023610
1458993638.246090
-101363234.110622
-103661472.399834
1416505776.400999
-106160131.643520
-108432568.175977
1373198747.843696
-110494219.941148
-112862095.322533
1330692191.864444
-116160211.064742
1295236323.944146
-120638510.045477
1232823495.437110
-125022334.407588
1197451367.171536
-129491536.388702
1162760448.881620
-133964059.865330
1110588784.202710
-138080382.103949
1067084799.924423
-141600413.266991
1024558801.595179
-146492601.642641
972327908.665967
-150669596.008847
937647044.727941
-155023668.026136
897382269.842841
-159344180.864195
856434078.344476
-162245544.955127
815600549.117129
-165163812.936531
775855162.485625
-170104317.922787
738144509.604949
-172153873.023491
710148919.795979
687855730.176563
-176538607.167006
669902528.130565
648855828.139322
-178653625.763641
630355948.304812
612184960.127626
-181123767.724351
593704315.958607
575781194.062563
-183156304.196960
557652057.511487
540434773.689651
-186014226.798154
520965319.159632
503779923.653443
-187627262.911366
486791043.975717
470589610.479235
-189522847.202273
451789553.356516
-190937670.489793
426748331.987615
-191890712.860694
395941901.942547
-192850934.499955
364846240.842261
-192994970.300534
334443864.109478
-193149545.633645
305070745.253582
-192727012.811046
276576151.904882
-192151752.142942
249353290.677841
-190765737.745304
227154931.700252
-189195907.291379
195779419.875150
-187367587.456321
171094439.995206
-185439359.874606
-183931181.187857
147019400.347043
-182746784.235072
-180958081.745493
124005672.560676
-179032614.562688
-177018036.929385
101817689.903958
-175263095.570197
-173071391.464980
76395966.058626
-168422964.931522
-170679397.724609
59538208.410474
-165472575.559829
-162727253.789529
40921610.328431
-156831310.387743
-159803070.528133
23015423.373380
-153243793.527924
7377901.470437
-148091533.947498
-11508583.315702
-141140172.748713
-27457437.103382
-133038121.993921
-42352653.975026
-124620587.392398
-56232203.287363
-115048248.740917
-69777729.183456
-105269172.701451
-96051405.906354
-82046813.269283
SCALARS stress_2 float
LOOKUP_TABLE default
7057936.359259
5111704.884052
-2974088.317855
16170282.845292
-13497306.307553
24788619.427081
-24691299.303439
32679410.961991
-36752712.316862
39842241.582876
-49256866.887444
46714804.125973
-62780946.290671
53059567.602631
-76803952.923530
58325267.288338
-91995682.940005
63302178.612560
-107648544.297836
67715806.432666
-124079850.711756
71762443.035490
-140993947.721386
75104105.278401
-159096816.162964
78070268.590867
-177671076.872727
80769513.984238
-197225776.093679
82666960.734000
-217332918.837172
84383353.148118
-238300394.467711
85906377.095310
-260205963.842666
86762881.432944
-282647350.216391
87736934.447854
-305890177.413773
87882686.733274
-329775717.392551
87826963.454535
-354184670.131596
87553027.887123
-379550242.731279
87175994.778254
-405712011.873855
86255581.139277
-432161267.956312
85218134.574775
-459562541.925039
84135045.502865
-487155673.055521
82769272.824746
-515310053.854900
81399218.255152
-544213584.302045
79683292.541297
-573904270.639962
77707711.991148
-603611548.847520
75984676.912670
-633741675.431859
74025368.492328
-664418835.932601
-695639913.296136
71856058.005606
-727092642.622835
69573981.232199
-758833525.298337
67555907.029476
-790794071.565646
65050519.859385
-823194622.810402
63174532.754406
-855247778.132976
60439576.615737
-887933523.622390
58285658.893977
-920419628.818266
55685273.632957
-952991354.931129
53210302.722524
-985564054.643231
50852917.767260
-1018048368.461714
48638574.392877
-1050177213.772217
46403469.610725
-1082561257.346014
44195750.343133
-1114548945.601225
-1146267454.012510
41749440.040699
39747175.889887
-1177212584.844004
37396645.341294
-1208370115.460215
35677835.317251
-1238698719.092798
33569220.564970
-1268734065.984759
31436224.710165
-1298251691.785870
29691085.796666
-1326926780.145905
27974072.153569
-1355174006.011255
26134284.967337
-1382595277.910188
24500120.567068
-1409414190.613983
22681000.996590
-1435183727.090158
21177581.024250
-1460293596.549237
19975951.397262
-1484310665.080244
18475269.477203
-1507532871.629568
17241273.153920
-1529903977.428863
16010813.349742
-1550904216.392039
15056990.393764
-1570995983.640598
13760692.944179
-1590076978.495217
12736421.154970
11656106.123579
-1607845755.220032
10675785.585869
-1624454518.168201
9966423.321537
-1639580498.989497
9209537.241559
-1654041954.915575
8651540.532400
-1666645944.035457
7951523.259020
-1678136379.405685
7102399.486379
-1688387943.290394
6918104.840191
-1697234847.010263
6213626.792184
-1704709468.829425
5537214.000550
-1710652553.804423
5411722.640403
-1714975095.166913
5043798.073320
-1718556727.005916
4622799.067645
-1719972983.256470
4450661.249092
-1720367363.414368
4227334.528636
-1719270485.743744
4069002.707104
-1716459217.565276
4102968.377728
-1712467760.285732
4200108.219830
-1706807194.104285
3963499.969275
-1699683361.109960
3853228.130273
-1691439445.677043
3995326.767783
-1681798025.037190
4392849.792785
-1670542789.828824
4381139.973622
-1658080675.876831
4465564.253754
-1643965834.523019
5068400.369044
-1628848750.295660
5351916.998816
-1612118239.569040
5635991.878934
-1594424460.278199
6290823.952856
-1575276834.358177
7004075.131561
-1555246100.622510
7516592.183392
-1533196661.160219
8001639.458577
-1511085424.191610
8444228.603957
-1487244927.980819
9569741.355398
-1462308393.430404
10499486.392223
-1436726280.386382
11526780.592927
-1410110084.190560
12585662.043604
-1382559440.513843
13537809.512597
-1354351834.433902
14802084.053517
-1324954296.060890
16096867.577343
-1295008628.033230
17351938.873548
-1264315747.603708
18807466.974615
-1233138904.003977
20626929.109265
-1201352579.190209
22131168.749230
-1168843416.833306
23851686.948118
-1135991691.746805
25779476.056158
-1102667663.601611
27420152.423575
-1069024342.353891
29784285.807364
-1035263600.377935
31859058.975870
-1001145394.926527
34479366.564585
-966805899.077339
36619550.309374
-932281713.379773
39086322.735577
-897809752.647366
41591205.425074
-863281209.429517
44711371.606591
-828631552.803900
47304879.894488
-794299017.759164
50093921.781626
-760047204.669597
52991112.585750
-726010917.930617
56034775.096336
-692302307.652377
59242035.773762
-658623823.791046
62554508.529006
-625489250.896025
65846186.261697
-592830478.066116
68997079.586195
-560442152.268839
72221086.259496
-528586117.042246
75594824.895961
-497063779.528968
78951328.395219
-466500847.949310
82594769.810879
-436524939.027788
85823427.603322
-407008423.577937
89146501.265405
-378188669.291792
92509210.818260
-350024515.861386
95742478.018881
-322765392.539506
99082338.888399
-295962913.611415
102044712.919672
-269958568.175918
104881856.837215
-244926725.814894
107965527.694639
-220633550.923764
110637075.094956
-197478366.491175
113257626.355911
-174692745.769914
115559862.377133
-152991793.484495
117886315.179751
-131998540.469584
119672768.806026
-112173460.131950
121534239.431071
-93017156.184758
122775275.800531
-74849179.770640
123783013.057039
-57573301.020878
124622297.836087
-40701895.627507
125024805.126324
-25300276.315041
125161424.684746
-10735574.072130
124809503.675116
3182422.530694
123670613.261196
16347154.350800
122415191.903365
28436769.675022
120506789.886890
39825989.360728
118042695.254031
50285184.837387
115299287.850804
60215411.380484
111740797.280222
69219394.001369
107644056.266799
77378473.536279
102999567.270913
84919562.118067
97502141.281215
91648036.604101
-5089897.659043
14340933.435240
-15868094.172913
23359164.984742
-27423172.790413
31310045.950676
-39638434.522891
38893576.465895
-52795308.031473
45589538.399116
-66246662.327507
52046631.729209
-80977006.247231
57648382.324892
-96066045.330266
62863203.022400
-112111442.852097
67471931.690452
-128666092.506329
71499018.043782
-146265664.535966
75036206.215243
-164367412.809727
77878896.512800
-183592860.274000
80841777.069307
-203668980.622390
82901111.335362
-224214493.130382
84892067.443818
-245357352.744365
86175643.263393
-267652314.893809
87122626.948069
-290320133.667735
87698113.223931
-313773799.617114
88367261.541578
-338192857.424201
88347709.769727
-362953356.453503
88001601.183863
-388683679.980507
87690137.124434
-414903627.105583
87062756.866925
-441788193.632489
85886188.719302
-469197662.682728
84625755.428779
-497241430.917423
83519062.006707
-525845254.315444
81833061.618418
-554639423.823180
80420375.450378
-584214842.541003
78483915.635437
-614335537.590417
76667633.799309
-644709334.335929
74629651.107326
-675326682.142046
72429396.570838
-706408312.130272
70415909.815559
-738038944.807747
68093322.270955
-769443693.714093
65755440.705373
-801264788.234946
63797603.141513
-832980514.438200
61298699.469222
-865184339.445356
58685693.468195
-897150139.060172
56405086.149783
-929179721.789787
54246523.557816
-961310993.723225
51678342.175374
-993380804.224993
49632708.595688
-1025071033.977344
47233832.159204
-1056580375.158324
45055416.316521
-1087924859.043418
42875108.693352
-1119139790.689167
40664827.333528
-1149745195.635193
38496578.830279
-1180135331.970518
36721550.963301
-1209626593.609051
34576819.512289
-1238756862.090413
32888055.070475
-1267465412.910395
30869868.560187
-1295655084.312001
28676286.728640
-1322752862.209140
27237817.904929
-1349329132.690835
25507092.307999
-1374979370.703476
24356884.531081
-1399821127.896835
22817259.057255
-1424048021.502568
21139114.808848
-1447023649.588567
19616258.554206
-1469103421.386486
18624454.073024
-1490036085.249483
17363423.255148
-1509888382.563197
16142251.637271
-1528738399.944920
15102288.230740
-1546530225.219540
14089443.979015
-1562895870.740213
13175825.629310
-1577942548.002731
12171911.949971
-1591974566.392731
11822622.741822
-1604601473.406004
10813568.752079
-1615891668.692323
10114849.627583
-1625765995.747480
9356430.554798
-1634031163.099744
9033375.334550
-1641494735.102273
8472834.735183
-1647109077.690107
7876392.382410
-1651497435.216403
7746914.341192
-1654392851.352066
7411614.522505
-1655947530.450252
6931091.145295
-1655832460.006752
6769198.120538
-1654284654.989085
6630307.952445
-1651138553.157178
6734272.970111
-1646995550.181935
6357823.413611
-1640910185.559145
6490696.315425
-1633690413.377832
6362128.179763
-1624882419.419050
6733322.653467
-1614477005.771824
6642436.065633
-1602997354.371190
7164016.063104
-1590018649.591438
7289504.710840
-1575970028.664223
7814921.655683
-1559924299.788719
8110262.369364
-1543064553.778462
8645851.356091
-1525108818.986611
9189448.966091
-1505538524.665951
9222195.703573
-1484751535.015655
10287078.182900
-1462976283.267380
11150484.908280
-1440116086.673911
11787187.526557
-1416333226.291789
12853162.212843
-1391304081.109664
13584242.349845
-1365069773.590846
14691926.551926
-1338537077.845488
15841738.465928
-1310607286.093895
16971132.860195
-1282092511.567721
18388831.666836
-1252788959.344639
19759905.654195
-1222736772.941569
21269907.172500
-1191835273.765280
22917857.275360
-1160681271.596828
24555257.873755
-1128727234.107116
26241075.053773
-1096415102.548929
28250646.572411
-1063754073.999941
30061016.933878
-1030842125.866919
32266848.598553
-997307590.370168
34619907.652527
-963503791.729993
36938928.006778
-929612675.353162
39380300.121684
-895777011.195844
41834990.940704
-861621135.632328
44606457.188353
-827519569.212014
47326022.686585
-793846342.594457
50051710.753147
-759921193.186424
52584176.023531
-726111944.504836
55903368.408716
-692544982.505862
58863703.401559
-659103534.178153
61933257.198306
-626132731.742013
65180066.677452
-593648469.307595
68333269.771107
-561484784.852199
71729581.093632
-529777951.607478
74784015.105406
-498321374.143966
78255627.299289
-467773628.835949
81581670.553777
-437587862.672077
85091183.504363
-408386530.487018
88330868.786540
-379058736.655059
91725115.278804
-350993441.043347
94840715.880783
-323569446.465419
98174355.646088
-297026231.755942
101124438.595849
-270921391.903565
104357760.068943
-245791076.161074
107012564.943866
-221288972.220504
110128321.416863
-197878280.806367
112522254.387561
-175294056.578218
115020060.580474
-153514124.260571
117395770.631094
-132397197.984709
119037711.857169
-112276838.300033
120683869.707725
-93288302.480458
122574866.093742
-74696258.372002
123379753.585750
-57414140.105947
124367313.237360
-40772667.549440
124579433.773087
-25142265.251883
124735605.499326
-10597077.080422
124505121.469689
3397625.272908
123459975.815457
16788177.940960
122227762.293625
28527926.638468
120317603.210591
40281869.234151
118114875.290867
50785810.564244
115065312.994833
60475948.497465
111810519.486251
69327191.012684
107623417.753773
77513591.978618
103135987.136273
97776798.622403
85059311.528120
92097180.079308
-968605.421811
10567358.990773
-9503516.735889
19754862.173089
-20564712.690143
28209844.682815
-31875688.014182
35907704.388668
-44521084.099905
42865967.533653
-57540266.040945
49127842.425737
-70989123.698928
-82277229.106604
55742657.771541
-97332047.767807
-89874148.068176
60405655.718776
-113317258.048441
-105961162.710138
65505296.715711
-122123338.571619
-130805014.440486
69487422.927212
-139422679.701367
-148538312.646986
72517986.677650
-166464742.484250
-156930255.669719
76991800.753857
-175903437.715694
-185892705.935092
79479673.215149
-206982589.828179
-195157617.727079
81834890.000351
-221912949.388459
83618599.945700
-242288913.159656
85218528.237660
-263843870.018691
86795035.952309
-286355048.104098
87553061.026524
-309798308.304037
87912483.920230
-333778467.369577
88191164.591468
-357719911.689815
87936854.020542
-378781588.318288
87549919.580423
-410287109.796011
86861187.873957
-436998988.479010
86155517.624507
85411380.614764
-464191123.043569
84139989.805132
84793527.648712
-492082829.341985
82702692.513220
83554201.269256
-520501459.199145
81150561.033726
81815223.504272
80284391.381914
79717186.320265
-555820201.378226
78640549.724811
77631320.645381
-583021115.930735
76748902.469185
75772122.095676
-613389764.668328
74885001.007752
73503361.318128
-644768325.889514
72129080.689128
-685275241.171759
69981267.900674
-738851064.909046
67655236.361914
-764368052.657850
65588709.411516
-789785926.070350
63260271.045722
-828203710.728285
60697844.781225
-860412851.948226
58721458.114413
-892654556.346358
56267477.817519
-930986022.051821
53709273.505568
-958228036.107736
51317680.863520
-989457127.946470
48583221.648253
-1021346144.606947
46768526.549804
-1053321339.588037
44911995.205959
-1085023315.201388
-1115148752.478509
-1139387940.234325
40887420.024803
-1170967862.139455
-1155599369.799568
38322303.941555
-1202573082.645483
-1186478919.096866
36201327.139750
-1216794400.904475
-1232007256.092167
34132798.435952
-1246117641.024966
-1261758827.527667
32465239.721278
-1274922574.287739
-1289923077.501359
30337451.614849
-1303593301.688090
-1318920706.263287
28474458.668467
-1331360785.255016
-1348981539.847554
26714009.190301
-1367489497.313890
25232331.334334
-1392097163.029756
23729575.319510
-1417017468.146148
21487205.910545
-1441659039.607425
20477774.040598
-1465553900.380494
19323136.730604
-1487637734.751997
17854588.582659
-1508881720.525409
16688199.069429
-1525915075.269919
15521558.603769
-1549670472.160983
14440291.325453
-1568163265.368235
13688550.778001
12670979.568982
-1585187286.688689
12276904.374948
11796565.125882
-1601065214.365348
11252120.017423
11153447.000283
-1615781606.333253
10491228.816049
10299026.248251
-1632097470.300721
9785874.909314
9490240.346348
-1641527260.302834
9002254.865706
9152364.153662
-1651766666.151928
8358228.481243
8160859.128463
-1661269729.626837
7434340.034324
7946949.282772
-1667721552.850405
7433926.872655
-1675871496.812779
6747705.795809
-1681060117.293616
6297408.036594
-1684791128.404949
6147450.261918
-1687079681.796551
6189990.867538
-1687943556.281960
5741194.673511
-1687000428.214333
5653451.490793
-1684573331.612096
5190693.005302
-1681071391.393931
5039033.245320
-1676737387.407386
5283126.759911
-1669944500.549997
5185933.368309
-1662350651.169271
5206858.256976
-1653409739.232160
5617469.776139
-1643195464.766993
-1636177803.393251
5592797.481302
-1626270733.372201
-1620508805.452523
5924472.438815
-1612079995.267461
-1606084061.936246
6280988.180818
-1591234182.914564
-1597443081.013231
6377111.593720
-1581824355.115055
-1573350817.378206
6897784.999945
-1555743451.527600
-1564368846.144638
7313691.296613
-1544185641.382425
-1535374399.942460
8000307.328708
-1514322337.661026
-1524105390.799633
8555531.652048
-1497325246.561817
9123830.331595
-1475634297.252422
10044029.124343
-1451316319.659775
11120606.935302
-1426734916.943667
11736941.488769
-1401020453.795773
12646400.654523
-1374192476.141532
13420455.079718
-1347333401.077238
14587853.470203
-1323703344.947185
16103375.587040
-1288514418.356150
17136804.786883
-1258727830.370974
18493223.478981
19438024.655433
-1228111204.226941
20389694.575286
21324637.906670
-1196454437.705107
22092838.510237
22821500.095141
-1164652406.651489
23804881.827371
24505732.500641
-1125564188.767252
25506839.902025
26575710.105788
-1098424804.006871
27761190.037698
28591090.712968
-1066266859.299150
29549474.001770
30665073.466336
-1032834997.757508
31789616.163237
32761415.593369
-1000019418.151373
34424111.561427
-972732894.404366
36647332.554304
-923992902.242599
38988156.747222
-896429962.106549
41876900.204962
-869213873.458382
44305686.400910
-828033403.900160
47129092.844719
-794056612.542208
49476846.759075
-760088736.854159
52887057.309718
-718358869.122175
56063464.911586
-691058535.618900
59010291.691645
-658800134.303085
62818253.546994
-625519835.038875
65603551.007042
-592945261.852668
68068141.872406
-561156905.987678
72504364.377708
-531053286.648306
74724256.493226
-508855460.928649
-490525504.081436
79436695.591003
-476384752.275774
-459089225.944314
82250609.778291
-444771846.387812
-429834440.343857
85558914.363452
-415067563.486735
-400658129.113475
88039703.772221
-385934176.767067
-372220631.731774
92461832.162505
-356687300.054294
-343111998.484077
95381698.305345
-329921224.750791
-316769671.514891
98629832.006929
-302075747.974399
101711233.442370
-281987988.777485
104584089.950544
-257457086.211190
108382665.281648
-233033315.673814
110315932.653174
-209226671.414841
113011792.290676
-186280202.610283
115428320.271732
-164174571.865291
117159640.188960
-143328143.930312
119439323.351104
-126410982.988949
121288244.081728
-102664875.274300
122610816.850105
-83751154.982340
123317389.903199
123893460.637994
-66034005.036991
124262894.083106
124588718.126303
-49199428.251789
124925643.387150
124968980.234954
-33043203.790498
124988739.624685
124954783.213170
-14624212.694147
124428630.586616
124557595.319937
-2920124.753327
123863680.665448
123353267.117200
10155937.941253
121751671.606150
122690622.753210
22350262.072042
120739338.306866
32854821.717322
119222732.852893
45385874.537623
116839166.618711
55401733.429707
113639470.611471
64891102.977752
109766781.461442
73486938.665406
105548808.822919
81347270.790271
100616510.776921
95924853.681787
88146805.972587
SCALARS stress_3 float
LOOKUP_TABLE default
45050672.195045
28942830.463974
-30731603.861204
118005763.436168
-109672670.502222
187603604.366226
-191726292.600090
254106002.686031
-276678554.372423
317278392.382842
-364516576.174498
377586874.627926
-455378864.292761
434338301.638899
-548998250.783301
488088971.702208
-645275844.162923
538583587.621100
-744386759.372535
586169973.096388
-846027219.813765
630399982.632134
-950282649.841887
671486271.929150
-1056791758.628171
709439783.790684
-1165656103.343884
744521738.434352
-1276719695.528313
776305394.146601
-1389854635.399073
805371207.961035
-1505064508.265094
831468063.796083
-1622009009.827188
854546473.352556
-1740736027.842257
874997971.134516
-1861126859.263953
892428838.773943
-1983000267.033189
907451965.005257
-2106126368.620419
919726624.114903
-2230357031.265742
929513870.251665
-2355818975.623623
936751339.633158
-2481913257.750153
941544102.108979
-2608906028.368626
944104728.264761
-2736481137.765489
944394676.766091
-2864327115.548860
942609883.014595
-2992537663.189194
938728777.159055
-3120719224.225778
932922216.233079
-3248695164.129068
925139873.270270
-3376694684.507182
915732999.534593
-3504045449.715395
-3630763754.477005
904561573.312492
-3756869402.032112
891947671.499912
-3881895444.219187
877677965.797665
-4005898884.577519
862061989.756159
-4128351334.945583
845238590.122554
-4249481494.563476
827177417.562437
-4368892298.453683
808090625.408601
-4486615922.971480
788107944.625821
-4602177308.908996
766995149.662068
-4715670408.920694
745168606.366940
-4826808328.614694
722705219.119576
-4935382167.829469
699698272.137593
-5041314094.241966
676072866.616120
-5144419366.437823
-5244501619.277995
652180419.887952
627921623.217051
-5341556922.831315
603348885.936211
-5435232510.406711
578706797.240562
-5525541253.325855
554072091.278889
-5612314875.128036
529308680.430333
-5695467521.720556
504751095.659668
-5774688059.010723
480410956.530044
-5850066509.721833
456213530.305424
-5921455749.991546
432358852.548958
-5988593627.496813
408878350.225420
-6051546095.490473
385877936.013139
-6110223118.764654
363393384.060900
-6164448816.341839
341505528.679011
-6214272250.945324
320139888.315444
-6259304885.896782
299528764.165331
-6299981225.172349
279700159.791822
-6335858730.541667
260501186.321218
-6366901368.348893
242205688.270320
224566653.880608
-6393301816.662856
207882925.083250
-6414978568.574874
192038306.774191
-6431780233.992250
177257831.930946
-6443846660.236656
163212815.817477
-6450928238.330576
150021207.928105
-6453218144.549334
138046717.757147
-6450765696.961761
126850153.683745
-6443416077.912013
116607311.570236
-6431386541.468921
107370102.542921
-6414624503.907808
99109773.648147
-6393151028.550347
91833431.196223
-6367052378.419022
85466763.865479
-6336321196.019512
79898260.035054
-6301142550.742322
75377528.682466
-6261573952.656281
71854417.233201
-6217657192.105546
68955687.319242
-6169302659.458135
67081916.596432
-6116896379.288559
66073194.995942
-6060438598.619303
65658437.127267
-6000073597.071227
66283272.484728
-5935773285.966002
67599294.045841
-5867739454.993317
69597726.488933
-5796050009.106825
72232849.538681
-5721033965.180226
75586417.126253
-5642761287.351185
79579774.907495
-5561056767.240558
84106260.813575
-5476404567.354026
89324954.569169
-5388883346.197270
94965273.151794
-5298555548.506330
101182281.239777
-5205691757.303688
107680904.925813
-5110334439.693400
114726971.118587
-5012631217.744297
122078649.749269
-4912927407.214903
129714630.473702
-4811133483.588411
137786635.522244
-4707672671.738524
146073152.918758
-4602500584.102091
154630943.341573
-4495814999.483980
163423232.067392
-4387907487.436219
172261356.073732
-4278775037.648500
181243542.568466
-4168807859.972038
190496350.298752
-4057945097.728504
199675723.587643
-3946396987.953125
208990226.297476
-3834397671.082748
218317067.704955
-3722009591.853413
227541397.902775
-3609536522.701969
236765454.983631
-3496963420.663642
246034635.408234
-3384467333.359291
254992003.854915
-3272221382.640131
263924791.014743
-3160456115.311032
272857406.818887
-3049106834.039200
281511080.406388
-2938518607.560673
289943577.191614
-2828786482.542657
298310553.497614
-2719764173.790020
306272045.485916
-2611952317.085148
314090371.548400
-2505278104.048901
321503643.030602
-2399804400.831681
328773927.140396
-2295777720.985517
335737975.522503
-2193187117.545634
342153877.154439
-2092135829.179239
348378660.796107
-1992789373.220745
354203434.609031
-1895152262.922992
359673595.053925
-1799414676.735572
364699034.292315
-1705466358.957673
369239469.084101
-1613513616.693350
373249932.705988
-1523639127.656159
376960392.802698
-1435696440.582136
379932751.766114
-1349989834.437675
382568924.125780
-1266475428.189171
384463746.342409
-1185043719.687841
385781564.945546
-1105908373.532059
386543034.327072
-1029017819.056238
386716144.200543
-954466685.674745
386141239.842662
-882235919.537983
384774193.197339
-812207660.428337
382787291.610109
-744473110.197023
379947739.840873
-679180482.557596
376329772.419177
-616126488.775636
371778754.404108
-555434511.219163
366405196.842014
-497036599.384115
360136635.975993
-440806113.569681
352858720.105233
-386985977.857432
344502327.920805
-335241495.213764
335166687.205091
-285950255.352230
324655530.418807
-238670814.055214
313043428.390685
-193572452.519468
300134615.949456
-150557203.044180
286044372.739843
-109634939.125288
270810235.360221
-70822381.061979
253876160.869681
-33825962.051006
235779312.751418
1083224.194078
216123306.949343
34145917.890889
195166949.177010
65316220.210694
172386543.079142
94711821.140752
148184420.438124
122307808.381875
-47807218.425781
102391559.113115
-127649185.026607
172840641.209713
-210573783.325760
240084855.339401
-296399865.540857
304073955.489439
-385192205.796818
364876313.578252
-476872056.311258
422593823.076297
-571307502.255444
476844295.902001
-668592159.984655
527966857.226633
-768516375.785336
575939766.968618
-871017530.529568
620582128.529583
-975861811.756637
662236911.896785
-1083260951.384970
700567070.103830
-1192772492.137863
736050741.137977
-1304493558.887397
768269294.332018
-1418202209.920018
797594371.673213
-1533980275.959022
823905929.079989
-1651257067.807657
847162419.069149
-1770426048.488409
867714501.259931
-1890928646.574168
885495800.985131
-2013141438.719400
900599266.163174
-2136187370.233035
912934027.080508
-2260422035.401520
922838459.517897
-2385607189.464953
930033277.761789
-2511357382.847441
935131706.845787
-2637893629.318630
937604272.918677
-2764711359.003439
937994820.198074
-2891633937.372324
936256781.418395
-3018804635.148581
932299039.843603
-3145964727.572308
926603829.460956
-3272655292.413149
918908086.649596
-3398896298.980035
909451964.143940
-3524420996.581895
898529450.161602
-3649286558.988372
885791465.081725
-3773070923.807585
871679031.707557
-3895658811.394810
856343118.717426
-4016869993.588521
839515638.546563
-4136564946.881659
821572669.642939
-4254518221.043866
802721600.902499
-4370680238.499251
782879588.542856
-4484542920.855932
762151787.528786
-4596356371.136392
740713069.940242
-4705501582.649561
718644853.409205
-4812154428.049905
695912777.716441
-4916081929.382390
672745380.194741
-5017209600.933463
649338349.223249
-5115005626.978449
625678055.766737
-5209674215.872623
601673885.457188
-5300949374.638474
577697067.190544
-5388696263.252131
553741997.862750
-5472709490.068876
529656623.105786
-5553051244.479213
505878044.114784
-5629319778.022424
482388787.038528
-5701703834.674648
459098071.440168
-5769929229.458369
436065915.330827
-5833795169.096884
413750568.342484
-5893408311.497496
391794422.555094
-5948523479.981877
370302803.163787
-5999099455.042969
349516790.846892
-6045112244.002440
329324286.500353
-6086472147.951607
309929336.572141
-6123093146.728945
291248854.418913
-6154873419.494596
273380220.258284
-6181989175.202219
256158929.814931
-6204141818.943124
239964821.237637
-6221418116.107814
224625279.204731
-6233838542.534766
210106535.141700
-6241461191.614480
196624587.197329
-6244036369.254262
183994702.280302
-6241999000.844616
172285507.654583
-6234849706.523203
161549250.745659
-6223023075.381337
151728004.231859
-6206294661.924702
142951920.492323
-6184959791.244609
134990789.021371
-6158826619.777911
128012298.796518
-6128067592.615921
121998643.828887
-6092753091.149142
116929097.095993
-6053071948.630416
112708701.207335
-6008857144.519073
109308115.726062
-5960351011.251966
106853401.192841
-5907689466.219598
105307276.354831
-5850930100.444451
104533823.821529
-5790295519.915403
104438422.501622
-5725519731.654939
105204723.958258
-5657295794.168739
106758587.100123
-5585378867.077663
108853417.421536
-5510007101.703382
111726369.831182
-5431320762.620409
115287000.191399
-5349300374.564780
119342047.111685
-5264413294.627810
123932308.684734
-5176672900.660717
129134859.520043
-5086092481.238011
134912839.779138
-4992926571.681364
140929628.071517
-4897585861.841992
147422379.305864
-4799767911.995221
154407396.528527
-4700042989.923433
161585092.579360
-4598346726.269973
169172559.619888
-4494888770.586867
177062888.558797
-4389961445.978174
185169480.074415
-4283630871.765564
193451633.673803
-4175951466.753907
201871902.035289
-4067399622.863248
210409643.251568
-3957947170.461608
219204210.599344
-3847710219.537864
227825277.056132
-3737000734.528866
236694402.645797
-3625840285.285830
245521111.829051
-3514397978.613624
254349711.215393
-3403006092.880268
263066104.449544
-3291711191.189817
271694539.555369
-3180494300.646329
280304401.510383
-3069646739.617822
288773401.959310
-2959571257.139521
297096780.626824
-2849945188.832285
305103263.226481
-2741064285.363323
313103651.713312
-2633237338.951867
320623065.432852
-2526305107.965936
328210879.076171
-2420694832.325579
335322077.620786
-2316260397.066020
342259939.458579
-2213228005.969643
348680826.165441
-2111713854.140506
354896203.971729
-2011739175.130637
360779356.384505
-1913449176.504805
366199215.565292
-1817028761.584682
371123605.158815
-1722303147.567020
375831227.556955
-1629617318.072676
379851212.990069
-1538787876.884037
383536328.149228
-1450086671.266683
386657707.725500
-1363522812.841475
389358881.949243
-1279048243.621154
391316943.580359
-1196721312.341757
392736781.895550
-1116650026.268867
393491927.424361
-1038880365.184869
393751078.041872
-963401130.940977
393186723.978440
-890094714.503588
391918074.809955
-819256785.586254
389863887.296320
-750807016.408211
387180567.151088
-684619188.683011
383504081.065329
-620727330.492229
379031292.384577
-559128184.503069
373587588.535942
-499913459.096293
367328370.496938
-442989533.755098
360009223.464317
-388341284.561057
351646620.714783
-336104973.526910
342265895.961890
-285970143.319865
331749444.333557
-237995231.952663
320031819.106488
-192263334.391698
307122472.362256
-148771448.649713
292919344.561575
-107344119.325081
277317118.832364
-67863822.499377
260427144.888178
-30573065.001332
242192670.373738
4776749.087481
222385162.117777
38258841.237519
201021927.902680
69904719.367207
178226609.603527
153647875.002701
99504393.463805
127524386.112946
-16131675.069392
74008351.580870
-81263660.938791
145642520.031306
-159832481.264343
213977365.492347
-243321923.457929
279281963.882423
-330218566.461614
341367558.740820
-419401807.267132
400216591.101143
-508282693.097165
-581611995.730321
461252584.819314
-678868846.903340
-630558009.735922
509126838.337897
-779357746.832756
-732368236.934362
557382079.210179
-832403887.493338
-884494144.810811
602007715.153275
-937776696.868686
-991354218.004560
637856871.229906
-1097755524.501687
-1041890743.533687
686364532.076521
-1151451585.837780
-1208555585.339884
722984864.162713
-1328890499.431252
-1261557801.596565
756598130.570326
-1410417549.652540
787170720.470628
-1520234477.414028
814795837.127580
-1636698153.271195
844320730.766785
-1755250074.573790
862105301.354154
-1875904497.217241
880653606.725014
-1996809953.297230
896905094.066082
-2116145152.341301
910438709.587490
-2219213184.601908
921549949.665799
-2370878695.265832
930001859.280803
-2496469741.811791
936188391.865875
939162213.407920
-2623347267.132636
941178214.457027
940522964.054081
-2750335082.334307
941016955.335917
941306099.650279
-2877945268.370459
938681057.240347
940105351.244531
936680438.151172
934250983.680827
-3033614885.990605
931399350.232227
928078757.856461
-3150663445.124522
924365256.071663
919751012.392280
-3279742138.984859
915128817.227715
909178657.627754
-3410461285.829838
900856332.898504
-3576451170.318844
888552328.645321
-3789516433.923532
874600020.749239
-3888433937.914799
859116046.272588
-3986938388.151792
842517420.244690
-4132592623.698807
825199033.253688
-4252091709.364872
809456821.748879
-4369944243.520864
785503688.137309
-4507187082.674287
764558899.263576
-4602440344.270708
743084009.460092
-4710661850.243130
715893138.931840
-4819057992.889211
697777537.003400
-4925501907.511657
679349847.278035
-5029356369.696427
-5125215866.622183
-5202031169.386453
637067893.946195
-5297846865.427765
-5250736726.129383
605792986.093271
-5393766393.653029
-5344481713.180009
580396368.905281
-5435235747.448228
-5479620961.378675
556255889.726271
-5520302489.659760
-5566033823.850822
534658187.424443
-5601550697.723096
-5644312527.597419
505241806.410160
-5680689458.389799
-5723454298.574432
481421527.014403
-5755262152.616896
-5803488126.865256
457722556.741265
-5849071623.815309
434332724.107549
-5910577664.990857
411398063.124376
-5970906194.291697
384405021.171665
-6027828309.909817
366276569.060711
-6080557419.558858
345506706.128691
-6127962489.829179
324795114.523274
-6169920267.533916
304887329.954130
-6202711107.879787
285372801.649801
-6244668642.278525
267122150.557595
-6273869007.335136
250063291.979805
236253212.498716
-6298299866.437773
228426476.699310
220254426.427249
-6317743791.125721
212530772.391691
203984648.621843
-6332426895.904661
197076487.995229
189983097.910083
-6345114015.448389
183104482.162519
175915734.909909
-6346705063.694642
163726052.003778
170476088.494614
-6346393942.017159
158840531.498692
152105391.528067
-6342847109.315141
140269944.661001
147524452.076720
-6335072694.174050
133891886.052453
-6318540375.909105
125219618.705830
-6299320185.610864
117327586.906404
-6275662649.055561
110002590.660973
-6247223864.150502
104069127.327123
-6214103139.631724
99031438.177450
-6176710488.590543
95261270.851757
-6126406054.876165
90670748.306984
-6086575402.312045
88219764.208644
-6038328923.144581
86499912.727422
-5983087155.741386
85467977.632482
-5925121115.629391
85393290.187784
-5863962196.370870
85927528.486025
-5800654915.104575
-5755330258.220749
87336052.309316
-5706780174.424551
-5673095938.044827
89562282.445649
-5630491808.378611
-5596055194.014641
92184131.778963
-5519626985.246138
-5553845403.138262
95600461.929026
-5475315100.569643
-5435017232.447203
98554121.956478
-5351618198.991918
-5392530100.365878
104360608.481581
-5302626892.723241
-5260335384.977230
109481663.702641
-5166031460.815989
-5212030745.117557
115105259.014693
-5095908304.171653
121279711.912056
-5004089024.421939
127739122.855445
-4905034005.783040
136262110.547783
-4805504567.641413
142471964.110837
-4704441850.085637
149899586.039219
-4600878873.172630
157675734.066946
-4498726856.483790
165917614.433887
-4410764812.594745
174130589.980507
-4281323422.547456
182902644.867205
-4172473379.530629
191113640.188495
196789115.817909
-4062702252.164345
202925651.635705
206917298.043672
-3952179398.437483
212108634.508154
216113330.270537
-3841073341.833240
221090848.378529
224875531.775556
-3706130698.584365
229791637.400065
234047698.608177
-3613752720.538988
238746406.613457
242963778.820622
-3504844886.252906
248224621.597156
252406153.997546
-3393930040.634873
257080690.436930
261044186.825697
-3285164737.465280
268231291.286193
-3195135682.283949
276485238.426510
-3036933702.701115
285105364.038966
-2948229654.006536
293421540.906195
-2860847667.274861
301669742.493494
-2730266584.883172
309601514.933580
-2622430754.686656
315929773.725452
-2515596727.560389
324873924.097785
-2387244221.710310
332059981.941791
-2301784348.915007
338934784.275727
-2202105912.397329
346729919.945042
-2101597313.954531
351671974.243892
-2002156849.093351
356396706.500452
-1905465073.317307
363686889.791147
-1813573830.329466
367137285.598164
-1745864010.871708
-1691321966.670051
373366223.726905
-1648876398.086603
-1597905971.777239
376800991.963923
-1553428689.620241
-1509307976.911602
380186293.599267
-1465019362.775171
-1422395545.690630
382641374.550008
-1378427311.498242
-1337868158.239555
385897924.947379
-1291341743.080297
-1250961855.132856
387872890.911227
-1210019457.124538
-1171990663.400183
389343827.709556
-1127151667.786055
390142718.388711
-1068363109.526250
390229364.823772
-995368390.582251
389443985.178828
-922106466.176954
388362256.918221
-850602959.006191
386392828.815061
-781454417.735104
383569875.734352
-714948215.903856
379886848.920353
-652092170.789976
375462249.909988
-600260554.189865
369954922.197395
-527629356.550660
363877485.322445
-469947791.893708
358756145.098096
354554477.227497
-414508385.993406
350495376.664225
345933203.123370
-361426831.585793
341157860.488594
336003368.673386
-310503267.499601
330905108.545404
325551363.746329
-252000565.439510
313367654.714825
319445416.808755
-213776453.784228
306775515.783034
300120466.062028
-170872393.761179
285500638.788396
292966023.679133
-129794776.686518
276727969.315368
-94266718.910821
264843186.964539
-50545150.524223
248208005.854214
-14387958.163900
229229927.576921
19647263.560578
208872714.466756
52044666.419730
187049501.854484
82570232.545614
164131024.320580
143316336.462302
111167728.996050
