# vtk DataFile Version 2.0
Generated volume Mesh
ASCII
DATASET UNSTRUCTURED_GRID
POINTS 994 float
-0.416146 -0.294827 0.000000
-0.409251 -0.287252 0.000000
-0.421925 -0.286495 0.000000
-0.410201 -0.303043 0.000000
-0.427538 -0.278049 0.000000
-0.404095 -0.311138 0.000000
-0.432982 -0.269494 0.000000
-0.397829 -0.319111 0.000000
-0.438254 -0.260832 0.000000
-0.391406 -0.326958 0.000000
-0.443353 -0.252067 0.000000
-0.384828 -0.334675 0.000000
-0.448277 -0.243202 0.000000
-0.378098 -0.342260 0.000000
-0.453024 -0.234242 0.000000
-0.371218 -0.349710 0.000000
-0.457592 -0.225188 0.000000
-0.364192 -0.357021 0.000000
-0.461979 -0.216046 0.000000
-0.357021 -0.364192 0.000000
-0.466183 -0.206818 0.000000
-0.349710 -0.371218 0.000000
-0.470203 -0.197508 0.000000
-0.342260 -0.378098 0.000000
-0.474037 -0.188120 0.000000
-0.334675 -0.384828 0.000000
-0.477683 -0.178658 0.000000
-0.326958 -0.391406 0.000000
-0.481141 -0.169126 0.000000
-0.319111 -0.397829 0.000000
-0.484408 -0.159526 0.000000
-0.311138 -0.404095 0.000000
-0.487484 -0.149864 0.000000
-0.303043 -0.410201 0.000000
-0.490368 -0.140141 0.000000
-0.294827 -0.416146 0.000000
-0.493057 -0.130363 0.000000
-0.286495 -0.421925 0.000000
-0.495552 -0.120532 0.000000
-0.278049 -0.427538 0.000000
-0.497851 -0.110654 0.000000
-0.269494 -0.432982 0.000000
-0.499953 -0.100732 0.000000
-0.260832 -0.438254 0.000000
-0.501857 -0.090771 0.000000
-0.252067 -0.443353 0.000000
-0.503563 -0.080774 0.000000
-0.243202 -0.448277 0.000000
-0.505069 -0.070746 0.000000
-0.234242 -0.453024 0.000000
-0.506376 -0.060691 0.000000
-0.225188 -0.457592 0.000000
-0.507482 -0.050612 0.000000
-0.216046 -0.461979 0.000000
-0.508388 -0.040514 0.000000
-0.206818 -0.466183 0.000000
-0.509093 -0.030400 0.000000
-0.197508 -0.470203 0.000000
-0.509597 -0.020274 0.000000
-0.188120 -0.474037 0.000000
-0.509899 -0.010139 0.000000
-0.178658 -0.477683 0.000000
-0.510000 0.000000 0.000000
-0.169126 -0.481141 0.000000
-0.509899 0.010139 0.000000
-0.509597 0.020274 0.000000
-0.159526 -0.484408 0.000000
-0.509093 0.030400 0.000000
-0.149864 -0.487484 0.000000
-0.508388 0.040514 0.000000
-0.140141 -0.490368 0.000000
-0.507482 0.050612 0.000000
-0.130363 -0.493057 0.000000
-0.506376 0.060691 0.000000
-0.120532 -0.495552 0.000000
-0.505069 0.070746 0.000000
-0.110654 -0.497851 0.000000
-0.503563 0.080774 0.000000
-0.100732 -0.499953 0.000000
-0.501857 0.090771 0.000000
-0.090771 -0.501857 0.000000
-0.499953 0.100732 0.000000
-0.080774 -0.503563 0.000000
-0.497851 0.110654 0.000000
-0.070746 -0.505069 0.000000
-0.495552 0.120532 0.000000
-0.060691 -0.506376 0.000000
-0.493057 0.130363 0.000000
-0.050612 -0.507482 0.000000
-0.490368 0.140141 0.000000
-0.040514 -0.508388 0.000000
-0.487484 0.149864 0.000000
-0.484408 0.159526 0.000000
-0.030400 -0.509093 0.000000
-0.020274 -0.509597 0.000000
-0.481141 0.169126 0.000000
-0.010139 -0.509899 0.000000
-0.477683 0.178658 0.000000
0.000000 -0.510000 0.000000
-0.474037 0.188120 0.000000
0.010139 -0.509899 0.000000
-0.470203 0.197508 0.000000
0.020274 -0.509597 0.000000
-0.466183 0.206818 0.000000
0.030400 -0.509093 0.000000
-0.461979 0.216046 0.000000
0.040514 -0.508388 0.000000
-0.457592 0.225188 0.000000
0.050612 -0.507482 0.000000
-0.453024 0.234242 0.000000
0.060691 -0.506376 0.000000
-0.448277 0.243202 0.000000
0.070746 -0.505069 0.000000
-0.443353 0.252067 0.000000
0.080774 -0.503563 0.000000
-0.438254 0.260832 0.000000
0.090771 -0.501857 0.000000
-0.432982 0.269494 0.000000
0.100732 -0.499953 0.000000
-0.427538 0.278049 0.000000
0.110654 -0.497851 0.000000
-0.421925 0.286495 0.000000
0.120532 -0.495552 0.000000
-0.416146 0.294827 0.000000
0.130363 -0.493057 0.000000
-0.410201 0.303043 0.000000
0.140141 -0.490368 0.000000
-0.404095 0.311138 0.000000
0.149864 -0.487484 0.000000
0.159526 -0.484408 0.000000
-0.397829 0.319111 0.000000
0.169126 -0.481141 0.000000
-0.391406 0.326958 0.000000
0.178658 -0.477683 0.000000
-0.384828 0.334675 0.000000
0.188120 -0.474037 0.000000
-0.378098 0.342260 0.000000
0.197508 -0.470203 0.000000
-0.371218 0.349710 0.000000
0.206818 -0.466183 0.000000
-0.364192 0.357021 0.000000
0.216046 -0.461979 0.000000
-0.357021 0.364192 0.000000
0.225188 -0.457592 0.000000
-0.349710 0.371218 0.000000
0.234242 -0.453024 0.000000
-0.342260 0.378098 0.000000
0.243202 -0.448277 0.000000
-0.334675 0.384828 0.000000
0.252067 -0.443353 0.000000
-0.326958 0.391406 0.000000
0.260832 -0.438254 0.000000
-0.319111 0.397829 0.000000
0.269494 -0.432982 0.000000
-0.311138 0.404095 0.000000
0.278049 -0.427538 0.000000
-0.303043 0.410201 0.000000
0.286495 -0.421925 0.000000
-0.294827 0.416146 0.000000
0.294827 -0.416146 0.000000
-0.286495 0.421925 0.000000
0.303043 -0.410201 0.000000
-0.278049 0.427538 0.000000
0.311138 -0.404095 0.000000
-0.269494 0.432982 0.000000
0.319111 -0.397829 0.000000
-0.260832 0.438254 0.000000
0.326958 -0.391406 0.000000
-0.252067 0.443353 0.000000
0.334675 -0.384828 0.000000
-0.243202 0.448277 0.000000
0.342260 -0.378098 0.000000
-0.234242 0.453024 0.000000
0.349710 -0.371218 0.000000
-0.225188 0.457592 0.000000
0.357021 -0.364192 0.000000
-0.216046 0.461979 0.000000
0.364192 -0.357021 0.000000
-0.206818 0.466183 0.000000
0.371218 -0.349710 0.000000
-0.197508 0.470203 0.000000
0.378098 -0.342260 0.000000
-0.188120 0.474037 0.000000
0.384828 -0.334675 0.000000
-0.178658 0.477683 0.000000
0.391406 -0.326958 0.000000
-0.169126 0.481141 0.000000
0.397829 -0.319111 0.000000
-0.159526 0.484408 0.000000
0.404095 -0.311138 0.000000
-0.149864 0.487484 0.000000
0.410201 -0.303043 0.000000
-0.140141 0.490368 0.000000
0.416146 -0.294827 0.000000
-0.130363 0.493057 0.000000
0.421925 -0.286495 0.000000
-0.120532 0.495552 0.000000
0.427538 -0.278049 0.000000
-0.110654 0.497851 0.000000
0.432982 -0.269494 0.000000
-0.100732 0.499953 0.000000
0.438254 -0.260832 0.000000
-0.090771 0.501857 0.000000
0.443353 -0.252067 0.000000
-0.080774 0.503563 0.000000
0.448277 -0.243202 0.000000
-0.070746 0.505069 0.000000
0.453024 -0.234242 0.000000
-0.060691 0.506376 0.000000
0.457592 -0.225188 0.000000
-0.050612 0.507482 0.000000
0.461979 -0.216046 0.000000
-0.040514 0.508388 0.000000
0.466183 -0.206818 0.000000
-0.030400 0.509093 0.000000
0.470203 -0.197508 0.000000
-0.020274 0.509597 0.000000
0.474037 -0.188120 0.000000
-0.010139 0.509899 0.000000
0.477683 -0.178658 0.000000
0.000000 0.510000 0.000000
0.481141 -0.169126 0.000000
0.010139 0.509899 0.000000
0.484408 -0.159526 0.000000
0.020274 0.509597 0.000000
0.487484 -0.149864 0.000000
0.030400 0.509093 0.000000
0.490368 -0.140141 0.000000
0.040514 0.508388 0.000000
0.493057 -0.130363 0.000000
0.050612 0.507482 0.000000
0.495552 -0.120532 0.000000
0.060691 0.506376 0.000000
0.497851 -0.110654 0.000000
0.070746 0.505069 0.000000
0.499953 -0.100732 0.000000
0.080774 0.503563 0.000000
0.501857 -0.090771 0.000000
0.090771 0.501857 0.000000
0.503563 -0.080774 0.000000
0.100732 0.499953 0.000000
0.505069 -0.070746 0.000000
0.110654 0.497851 0.000000
0.506376 -0.060691 0.000000
0.120532 0.495552 0.000000
0.507482 -0.050612 0.000000
0.130363 0.493057 0.000000
0.508388 -0.040514 0.000000
0.140141 0.490368 0.000000
0.509093 -0.030400 0.000000
0.149864 0.487484 0.000000
0.509597 -0.020274 0.000000
0.159526 0.484408 0.000000
0.509899 -0.010139 0.000000
0.169126 0.481141 0.000000
0.510000 0.000000 0.000000
0.178658 0.477683 0.000000
0.509899 0.010139 0.000000
0.188120 0.474037 0.000000
0.509597 0.020274 0.000000
0.197508 0.470203 0.000000
0.509093 0.030400 0.000000
0.206818 0.466183 0.000000
0.508388 0.040514 0.000000
0.216046 0.461979 0.000000
0.507482 0.050612 0.000000
0.225188 0.457592 0.000000
0.506376 0.060691 0.000000
0.234242 0.453024 0.000000
0.505069 0.070746 0.000000
0.243202 0.448277 0.000000
0.503563 0.080774 0.000000
0.252067 0.443353 0.000000
0.501857 0.090771 0.000000
0.260832 0.438254 0.000000
0.499953 0.100732 0.000000
0.269494 0.432982 0.000000
0.497851 0.110654 0.000000
0.278049 0.427538 0.000000
0.495552 0.120532 0.000000
0.286495 0.421925 0.000000
0.493057 0.130363 0.000000
0.294827 0.416146 0.000000
0.490368 0.140141 0.000000
0.303043 0.410201 0.000000
0.487484 0.149864 0.000000
0.311138 0.404095 0.000000
0.484408 0.159526 0.000000
0.319111 0.397829 0.000000
0.481141 0.169126 0.000000
0.326958 0.391406 0.000000
0.477683 0.178658 0.000000
0.334675 0.384828 0.000000
0.474037 0.188120 0.000000
0.342260 0.378098 0.000000
0.470203 0.197508 0.000000
0.349710 0.371218 0.000000
0.466183 0.206818 0.000000
0.357021 0.364192 0.000000
0.461979 0.216046 0.000000
0.364192 0.357021 0.000000
0.457592 0.225188 0.000000
0.371218 0.349710 0.000000
0.453024 0.234242 0.000000
0.378098 0.342260 0.000000
0.448277 0.243202 0.000000
0.384828 0.334675 0.000000
0.443353 0.252067 0.000000
0.391406 0.326958 0.000000
0.438254 0.260832 0.000000
0.397829 0.319111 0.000000
0.432982 0.269494 0.000000
0.404095 0.311138 0.000000
0.427538 0.278049 0.000000
0.410201 0.303043 0.000000
0.421925 0.286495 0.000000
0.416146 0.294827 0.000000
-0.415025 -0.278844 0.000000
-0.403306 -0.295541 0.000000
-0.420627 -0.270320 0.000000
-0.397194 -0.303706 0.000000
-0.426054 -0.261684 0.000000
-0.390916 -0.311745 0.000000
-0.431303 -0.252938 0.000000
-0.384475 -0.319654 0.000000
-0.436373 -0.244088 0.000000
-0.377875 -0.327430 0.000000
-0.441261 -0.235136 0.000000
-0.371117 -0.335070 0.000000
-0.445965 -0.226086 0.000000
-0.364205 -0.342571 0.000000
-0.450484 -0.216942 0.000000
-0.357141 -0.349929 0.000000
-0.454816 -0.207707 0.000000
-0.349929 -0.357141 0.000000
-0.458958 -0.198386 0.000000
-0.342571 -0.364205 0.000000
-0.462910 -0.188983 0.000000
-0.335070 -0.371117 0.000000
-0.466668 -0.179501 0.000000
-0.327430 -0.377875 0.000000
-0.470233 -0.169944 0.000000
-0.319654 -0.384475 0.000000
-0.473602 -0.160317 0.000000
-0.311745 -0.390916 0.000000
-0.476773 -0.150623 0.000000
-0.303706 -0.397194 0.000000
-0.479747 -0.140866 0.000000
-0.295541 -0.403306 0.000000
-0.482520 -0.131050 0.000000
-0.287252 -0.409251 0.000000
-0.485094 -0.121178 0.000000
-0.278844 -0.415025 0.000000
-0.487465 -0.111256 0.000000
-0.270320 -0.420627 0.000000
-0.489633 -0.101287 0.000000
-0.261684 -0.426054 0.000000
-0.491598 -0.091277 0.000000
-0.252938 -0.431303 0.000000
-0.493358 -0.081229 0.000000
-0.244088 -0.436373 0.000000
-0.494912 -0.071148 0.000000
-0.235136 -0.441261 0.000000
-0.496260 -0.061039 0.000000
-0.226086 -0.445965 0.000000
-0.497402 -0.050904 0.000000
-0.216942 -0.450484 0.000000
-0.498337 -0.040749 0.000000
-0.207707 -0.454816 0.000000
-0.499064 -0.030577 0.000000
-0.198386 -0.458958 0.000000
-0.499584 -0.020392 0.000000
-0.188983 -0.462910 0.000000
-0.499896 -0.010199 0.000000
-0.179501 -0.466668 0.000000
-0.500000 0.000000 0.000000
-0.169944 -0.470233 0.000000
-0.499896 0.010199 0.000000
-0.160317 -0.473602 0.000000
-0.499584 0.020392 0.000000
-0.150623 -0.476773 0.000000
-0.499064 0.030577 0.000000
-0.140866 -0.479747 0.000000
-0.498337 0.040749 0.000000
-0.131050 -0.482520 0.000000
-0.497402 0.050904 0.000000
-0.121178 -0.485094 0.000000
-0.496260 0.061039 0.000000
-0.111256 -0.487465 0.000000
-0.494912 0.071148 0.000000
-0.101287 -0.489633 0.000000
-0.493358 0.081229 0.000000
-0.091277 -0.491598 0.000000
-0.491598 0.091277 0.000000
-0.081229 -0.493358 0.000000
-0.489633 0.101287 0.000000
-0.071148 -0.494912 0.000000
-0.487465 0.111256 0.000000
-0.061039 -0.496260 0.000000
-0.485094 0.121178 0.000000
-0.050904 -0.497402 0.000000
-0.482520 0.131050 0.000000
-0.040749 -0.498337 0.000000
-0.479747 0.140866 0.000000
-0.030577 -0.499064 0.000000
-0.476773 0.150623 0.000000
-0.020392 -0.499584 0.000000
-0.473602 0.160317 0.000000
-0.010199 -0.499896 0.000000
-0.470233 0.169944 0.000000
0.000000 -0.500000 0.000000
-0.466668 0.179501 0.000000
0.010199 -0.499896 0.000000
-0.462910 0.188983 0.000000
0.020392 -0.499584 0.000000
-0.458958 0.198386 0.000000
0.030577 -0.499064 0.000000
-0.454816 0.207707 0.000000
0.040749 -0.498337 0.000000
-0.450484 0.216942 0.000000
0.050904 -0.497402 0.000000
-0.445965 0.226086 0.000000
0.061039 -0.496260 0.000000
-0.441261 0.235136 0.000000
0.071148 -0.494912 0.000000
-0.436373 0.244088 0.000000
0.081229 -0.493358 0.000000
-0.431303 0.252938 0.000000
0.091277 -0.491598 0.000000
-0.426054 0.261684 0.000000
0.101287 -0.489633 0.000000
-0.420627 0.270320 0.000000
0.111256 -0.487465 0.000000
-0.415025 0.278844 0.000000
0.121178 -0.485094 0.000000
-0.409251 0.287252 0.000000
0.131050 -0.482520 0.000000
-0.403306 0.295541 0.000000
0.140866 -0.479747 0.000000
-0.397194 0.303706 0.000000
0.150623 -0.476773 0.000000
-0.390916 0.311745 0.000000
0.160317 -0.473602 0.000000
-0.384475 0.319654 0.000000
0.169944 -0.470233 0.000000
-0.377875 0.327430 0.000000
0.179501 -0.466668 0.000000
-0.371117 0.335070 0.000000
0.188983 -0.462910 0.000000
-0.364205 0.342571 0.000000
0.198386 -0.458958 0.000000
-0.357141 0.349929 0.000000
0.207707 -0.454816 0.000000
-0.349929 0.357141 0.000000
0.216942 -0.450484 0.000000
-0.342571 0.364205 0.000000
0.226086 -0.445965 0.000000
-0.335070 0.371117 0.000000
0.235136 -0.441261 0.000000
-0.327430 0.377875 0.000000
0.244088 -0.436373 0.000000
-0.319654 0.384475 0.000000
0.252938 -0.431303 0.000000
-0.311745 0.390916 0.000000
0.261684 -0.426054 0.000000
-0.303706 0.397194 0.000000
0.270320 -0.420627 0.000000
-0.295541 0.403306 0.000000
0.278844 -0.415025 0.000000
-0.287252 0.409251 0.000000
0.287252 -0.409251 0.000000
-0.278844 0.415025 0.000000
0.295541 -0.403306 0.000000
-0.270320 0.420627 0.000000
0.303706 -0.397194 0.000000
-0.261684 0.426054 0.000000
0.311745 -0.390916 0.000000
-0.252938 0.431303 0.000000
0.319654 -0.384475 0.000000
-0.244088 0.436373 0.000000
0.327430 -0.377875 0.000000
-0.235136 0.441261 0.000000
0.335070 -0.371117 0.000000
-0.226086 0.445965 0.000000
0.342571 -0.364205 0.000000
-0.216942 0.450484 0.000000
0.349929 -0.357141 0.000000
-0.207707 0.454816 0.000000
0.357141 -0.349929 0.000000
-0.198386 0.458958 0.000000
0.364205 -0.342571 0.000000
-0.188983 0.462910 0.000000
0.371117 -0.335070 0.000000
-0.179501 0.466668 0.000000
0.377875 -0.327430 0.000000
-0.169944 0.470233 0.000000
0.384475 -0.319654 0.000000
-0.160317 0.473602 0.000000
0.390916 -0.311745 0.000000
-0.150623 0.476773 0.000000
0.397194 -0.303706 0.000000
-0.140866 0.479747 0.000000
0.403306 -0.295541 0.000000
-0.131050 0.482520 0.000000
0.409251 -0.287252 0.000000
-0.121178 0.485094 0.000000
0.415025 -0.278844 0.000000
-0.111256 0.487465 0.000000
0.420627 -0.270320 0.000000
-0.101287 0.489633 0.000000
0.426054 -0.261684 0.000000
-0.091277 0.491598 0.000000
0.431303 -0.252938 0.000000
-0.081229 0.493358 0.000000
0.436373 -0.244088 0.000000
-0.071148 0.494912 0.000000
0.441261 -0.235136 0.000000
-0.061039 0.496260 0.000000
0.445965 -0.226086 0.000000
-0.050904 0.497402 0.000000
0.450484 -0.216942 0.000000
-0.040749 0.498337 0.000000
0.454816 -0.207707 0.000000
-0.030577 0.499064 0.000000
0.458958 -0.198386 0.000000
-0.020392 0.499584 0.000000
0.462910 -0.188983 0.000000
-0.010199 0.499896 0.000000
0.466668 -0.179501 0.000000
0.000000 0.500000 0.000000
0.470233 -0.169944 0.000000
0.010199 0.499896 0.000000
0.473602 -0.160317 0.000000
0.020392 0.499584 0.000000
0.476773 -0.150623 0.000000
0.030577 0.499064 0.000000
0.479747 -0.140866 0.000000
0.040749 0.498337 0.000000
0.482520 -0.131050 0.000000
0.050904 0.497402 0.000000
0.485094 -0.121178 0.000000
0.061039 0.496260 0.000000
0.487465 -0.111256 0.000000
0.071148 0.494912 0.000000
0.489633 -0.101287 0.000000
0.081229 0.493358 0.000000
0.491598 -0.091277 0.000000
0.091277 0.491598 0.000000
0.493358 -0.081229 0.000000
0.101287 0.489633 0.000000
0.494912 -0.071148 0.000000
0.111256 0.487465 0.000000
0.496260 -0.061039 0.000000
0.121178 0.485094 0.000000
0.497402 -0.050904 0.000000
0.131050 0.482520 0.000000
0.498337 -0.040749 0.000000
0.140866 0.479747 0.000000
0.499064 -0.030577 0.000000
0.150623 0.476773 0.000000
0.499584 -0.020392 0.000000
0.160317 0.473602 0.000000
0.499896 -0.010199 0.000000
0.169944 0.470233 0.000000
0.500000 0.000000 0.000000
0.179501 0.466668 0.000000
0.499896 0.010199 0.000000
0.188983 0.462910 0.000000
0.499584 0.020392 0.000000
0.198386 0.458958 0.000000
0.499064 0.030577 0.000000
0.207707 0.454816 0.000000
0.498337 0.040749 0.000000
0.216942 0.450484 0.000000
0.497402 0.050904 0.000000
0.226086 0.445965 0.000000
0.496260 0.061039 0.000000
0.235136 0.441261 0.000000
0.494912 0.071148 0.000000
0.244088 0.436373 0.000000
0.493358 0.081229 0.000000
0.252938 0.431303 0.000000
0.491598 0.091277 0.000000
0.261684 0.426054 0.000000
0.489633 0.101287 0.000000
0.270320 0.420627 0.000000
0.487465 0.111256 0.000000
0.278844 0.415025 0.000000
0.485094 0.121178 0.000000
0.287252 0.409251 0.000000
0.482520 0.131050 0.000000
0.295541 0.403306 0.000000
0.479747 0.140866 0.000000
0.303706 0.397194 0.000000
0.476773 0.150623 0.000000
0.311745 0.390916 0.000000
0.473602 0.160317 0.000000
0.319654 0.384475 0.000000
0.470233 0.169944 0.000000
0.327430 0.377875 0.000000
0.466668 0.179501 0.000000
0.335070 0.371117 0.000000
0.462910 0.188983 0.000000
0.342571 0.364205 0.000000
0.458958 0.198386 0.000000
0.349929 0.357141 0.000000
0.454816 0.207707 0.000000
0.357141 0.349929 0.000000
0.450484 0.216942 0.000000
0.364205 0.342571 0.000000
0.445965 0.226086 0.000000
0.371117 0.335070 0.000000
0.441261 0.235136 0.000000
0.377875 0.327430 0.000000
0.436373 0.244088 0.000000
0.384475 0.319654 0.000000
0.431303 0.252938 0.000000
0.390916 0.311745 0.000000
0.426054 0.261684 0.000000
0.397194 0.303706 0.000000
0.420627 0.270320 0.000000
0.415025 0.278844 0.000000
0.403306 0.295541 0.000000
0.409251 0.287252 0.000000
-0.416651 -0.285100 0.000000
-0.409726 -0.295166 0.000000
-0.421429 -0.278105 0.000000
-0.403699 -0.303357 0.000000
-0.426806 -0.269823 0.000000
-0.397508 -0.311425 0.000000
-0.432197 -0.261278 0.000000
-0.391157 -0.319367 0.000000
-0.437327 -0.252500 0.000000
-0.384646 -0.327179 0.000000
-0.442314 -0.243721 0.000000
-0.377979 -0.334859 0.000000
-0.446941 -0.235122 0.000000
-0.450784 -0.228337 0.000000
-0.370462 -0.343155 0.000000
-0.455028 -0.219045 0.000000
-0.452668 -0.223420 0.000000
-0.364060 -0.349914 0.000000
-0.459296 -0.209724 0.000000
-0.457282 -0.214033 0.000000
-0.357103 -0.357057 0.000000
-0.461352 -0.204833 0.000000
-0.463724 -0.200363 0.000000
-0.350055 -0.363925 0.000000
-0.465669 -0.195543 0.000000
-0.467695 -0.190817 0.000000
-0.343998 -0.369738 0.000000
-0.471431 -0.181492 0.000000
-0.469405 -0.186286 0.000000
-0.334859 -0.377979 0.000000
-0.472952 -0.176626 0.000000
-0.474903 -0.171777 0.000000
-0.327179 -0.384646 0.000000
-0.478846 -0.161727 0.000000
-0.476435 -0.167155 0.000000
-0.319367 -0.391157 0.000000
-0.480787 -0.154555 0.000000
-0.311425 -0.397508 0.000000
-0.483607 -0.145275 0.000000
-0.303357 -0.403699 0.000000
-0.486452 -0.135600 0.000000
-0.293440 -0.410921 0.000000
-0.489031 -0.125774 0.000000
-0.286535 -0.415757 0.000000
-0.491508 -0.115921 0.000000
-0.278352 -0.421319 0.000000
-0.493686 -0.106038 0.000000
-0.269886 -0.426828 0.000000
-0.495651 -0.096362 0.000000
-0.261233 -0.432144 0.000000
-0.497198 -0.088074 0.000000
-0.252462 -0.437285 0.000000
-0.499250 -0.075953 0.000000
-0.243613 -0.442280 0.000000
-0.500654 -0.065906 0.000000
-0.234715 -0.447127 0.000000
-0.228640 -0.450519 0.000000
-0.501880 -0.055811 0.000000
-0.218895 -0.455215 0.000000
-0.223224 -0.452881 0.000000
-0.502902 -0.045695 0.000000
-0.209733 -0.459391 0.000000
-0.214212 -0.457190 0.000000
-0.503721 -0.035560 0.000000
-0.200365 -0.463733 0.000000
-0.204804 -0.461613 0.000000
-0.195531 -0.465664 0.000000
-0.190784 -0.467722 0.000000
-0.504503 -0.023225 0.000000
-0.186244 -0.469425 0.000000
-0.181531 -0.471460 0.000000
-0.504773 -0.013853 0.000000
-0.176954 -0.472745 0.000000
-0.171678 -0.474859 0.000000
-0.505074 -0.003656 0.000000
-0.167137 -0.476450 0.000000
-0.161673 -0.478820 0.000000
-0.504932 0.006910 0.000000
-0.154529 -0.480797 0.000000
-0.504834 0.020042 0.000000
-0.145171 -0.483695 0.000000
-0.503551 0.037586 0.000000
-0.135593 -0.486453 0.000000
-0.502892 0.045680 0.000000
-0.125775 -0.489083 0.000000
-0.502191 0.053713 0.000000
-0.115940 -0.491464 0.000000
-0.500654 0.065906 0.000000
-0.106312 -0.493603 0.000000
-0.499225 0.075974 0.000000
-0.098005 -0.495252 0.000000
-0.497594 0.086013 0.000000
-0.086013 -0.497594 0.000000
-0.495252 0.098004 0.000000
-0.075974 -0.499225 0.000000
-0.493597 0.106314 0.000000
-0.065906 -0.500654 0.000000
-0.491428 0.115952 0.000000
-0.053714 -0.502191 0.000000
-0.489011 0.125775 0.000000
-0.045680 -0.502892 0.000000
-0.486412 0.135576 0.000000
-0.037586 -0.503551 0.000000
-0.483678 0.145285 0.000000
-0.480787 0.154548 0.000000
-0.478775 0.161676 0.000000
-0.019993 -0.505013 0.000000
-0.474875 0.171814 0.000000
-0.476450 0.167142 0.000000
-0.006399 -0.504863 0.000000
-0.471460 0.181500 0.000000
-0.472984 0.176743 0.000000
0.004056 -0.505080 0.000000
-0.469459 0.186171 0.000000
-0.467574 0.190927 0.000000
0.014245 -0.504767 0.000000
-0.465619 0.195494 0.000000
-0.463733 0.200332 0.000000
0.023224 -0.504502 0.000000
-0.461448 0.204867 0.000000
-0.459421 0.209641 0.000000
0.035560 -0.503721 0.000000
-0.457230 0.214138 0.000000
-0.455198 0.218914 0.000000
0.045695 -0.502902 0.000000
-0.452908 0.223198 0.000000
-0.450716 0.228508 0.000000
0.055811 -0.501880 0.000000
-0.446914 0.235146 0.000000
0.065906 -0.500654 0.000000
-0.442240 0.243700 0.000000
0.075974 -0.499225 0.000000
-0.437272 0.252473 0.000000
0.088074 -0.497198 0.000000
-0.432109 0.261213 0.000000
0.096362 -0.495651 0.000000
-0.426787 0.269860 0.000000
0.106034 -0.493683 0.000000
-0.421297 0.278338 0.000000
0.115913 -0.491500 0.000000
-0.415757 0.286535 0.000000
0.125776 -0.489039 0.000000
-0.410932 0.293439 0.000000
0.135601 -0.486450 0.000000
-0.403699 0.303357 0.000000
0.145277 -0.483606 0.000000
-0.397508 0.311425 0.000000
0.154557 -0.480774 0.000000
0.161733 -0.478769 0.000000
-0.391157 0.319367 0.000000
0.167091 -0.476488 0.000000
0.171718 -0.474954 0.000000
-0.384646 0.327179 0.000000
0.176707 -0.473000 0.000000
0.181505 -0.471475 0.000000
-0.377979 0.334859 0.000000
0.186295 -0.469391 0.000000
0.190925 -0.467576 0.000000
-0.369765 0.344010 0.000000
0.195633 -0.465648 0.000000
0.200345 -0.463770 0.000000
-0.363926 0.350050 0.000000
0.209734 -0.459450 0.000000
0.204910 -0.461509 0.000000
-0.357034 0.357061 0.000000
0.214072 -0.457247 0.000000
0.218980 -0.455067 0.000000
-0.349993 0.364032 0.000000
0.228256 -0.450815 0.000000
0.223408 -0.452712 0.000000
-0.343912 0.369752 0.000000
0.235109 -0.446946 0.000000
-0.334859 0.377979 0.000000
0.243720 -0.442311 0.000000
-0.327179 0.384646 0.000000
0.252483 -0.437299 0.000000
-0.319367 0.391157 0.000000
0.261251 -0.432197 0.000000
-0.311425 0.397508 0.000000
0.269819 -0.426806 0.000000
-0.303357 0.403699 0.000000
0.278114 -0.421436 0.000000
-0.295166 0.409726 0.000000
0.285106 -0.416757 0.000000
-0.285453 0.416477 0.000000
0.295191 -0.409722 0.000000
-0.278168 0.421408 0.000000
0.303357 -0.403699 0.000000
-0.269849 0.426857 0.000000
0.311425 -0.397508 0.000000
-0.261220 0.432122 0.000000
0.319367 -0.391157 0.000000
-0.252526 0.437285 0.000000
0.327179 -0.384646 0.000000
-0.243742 0.442304 0.000000
0.334859 -0.377979 0.000000
-0.235192 0.446897 0.000000
-0.228742 0.450552 0.000000
0.343167 -0.370539 0.000000
-0.223460 0.452663 0.000000
-0.218979 0.455026 0.000000
0.349916 -0.364073 0.000000
-0.214046 0.457197 0.000000
-0.209660 0.459391 0.000000
0.357057 -0.357104 0.000000
-0.200375 0.463730 0.000000
-0.204910 0.461372 0.000000
0.363930 -0.350058 0.000000
-0.195557 0.465613 0.000000
-0.190944 0.467564 0.000000
0.369764 -0.344011 0.000000
-0.181545 0.471428 0.000000
-0.186254 0.469430 0.000000
0.377979 -0.334859 0.000000
-0.176635 0.472984 0.000000
-0.171918 0.474870 0.000000
0.384646 -0.327179 0.000000
-0.161683 0.478683 0.000000
-0.167009 0.476454 0.000000
0.391157 -0.319367 0.000000
-0.154877 0.480582 0.000000
0.397508 -0.311425 0.000000
-0.145423 0.483611 0.000000
0.403699 -0.303357 0.000000
-0.135605 0.486389 0.000000
0.410921 -0.293440 0.000000
-0.125786 0.489034 0.000000
0.415757 -0.286535 0.000000
-0.115924 0.491501 0.000000
0.421276 -0.278351 0.000000
-0.106038 0.493682 0.000000
0.426786 -0.269861 0.000000
-0.096362 0.495651 0.000000
0.432129 -0.261224 0.000000
-0.088074 0.497198 0.000000
0.437364 -0.252518 0.000000
-0.075974 0.499225 0.000000
0.442255 -0.243696 0.000000
-0.065906 0.500654 0.000000
0.446901 -0.235165 0.000000
0.450626 -0.228629 0.000000
-0.055811 0.501880 0.000000
0.452863 -0.223239 0.000000
0.455037 -0.219014 0.000000
-0.045695 0.502902 0.000000
0.457157 -0.214077 0.000000
0.459396 -0.209621 0.000000
-0.035560 0.503721 0.000000
0.461359 -0.204897 0.000000
0.463695 -0.200361 0.000000
-0.023304 0.504424 0.000000
0.465641 -0.195495 0.000000
0.467606 -0.190951 0.000000
-0.014879 0.504782 0.000000
0.469414 -0.186248 0.000000
0.471411 -0.181540 0.000000
-0.005033 0.504925 0.000000
0.472918 -0.176630 0.000000
0.474886 -0.171779 0.000000
0.005043 0.504929 0.000000
0.476453 -0.167022 0.000000
0.478685 -0.161862 0.000000
0.014951 0.504764 0.000000
0.480771 -0.154583 0.000000
0.023215 0.504525 0.000000
0.483673 -0.145303 0.000000
0.037586 0.503551 0.000000
0.486450 -0.135593 0.000000
0.045750 0.502896 0.000000
0.489087 -0.125805 0.000000
0.053799 0.502083 0.000000
0.491453 -0.115970 0.000000
0.065906 0.500654 0.000000
0.493600 -0.106336 0.000000
0.075974 0.499225 0.000000
0.495243 -0.098118 0.000000
0.086013 0.497594 0.000000
0.497594 -0.086013 0.000000
0.098116 0.495243 0.000000
0.499225 -0.075974 0.000000
0.106336 0.493600 0.000000
0.500654 -0.065906 0.000000
0.115972 0.491452 0.000000
0.502084 -0.053799 0.000000
0.125820 0.489079 0.000000
0.502897 -0.045748 0.000000
0.135587 0.486408 0.000000
0.503551 -0.037586 0.000000
0.145284 0.483678 0.000000
0.504412 -0.023728 0.000000
0.154553 0.480792 0.000000
0.504678 -0.016946 0.000000
0.161702 0.478804 0.000000
0.166954 0.476453 0.000000
0.504949 -0.002996 0.000000
0.171459 0.474989 0.000000
0.176706 0.472959 0.000000
0.504952 0.005359 0.000000
0.181613 0.471429 0.000000
0.186155 0.469450 0.000000
0.504776 0.014970 0.000000
0.190941 0.467614 0.000000
0.195461 0.465640 0.000000
0.504507 0.023301 0.000000
0.200321 0.463696 0.000000
0.204665 0.461639 0.000000
0.503721 0.035560 0.000000
0.209779 0.459311 0.000000
0.214128 0.457065 0.000000
0.502902 0.045695 0.000000
0.218898 0.455083 0.000000
0.223160 0.452917 0.000000
0.501880 0.055811 0.000000
0.228588 0.450696 0.000000
0.500654 0.065906 0.000000
0.235160 0.446911 0.000000
0.499225 0.075974 0.000000
0.243704 0.442242 0.000000
0.497198 0.088074 0.000000
0.252477 0.437275 0.000000
0.495651 0.096362 0.000000
0.261232 0.432125 0.000000
0.493684 0.106044 0.000000
0.269859 0.426787 0.000000
0.491464 0.115912 0.000000
0.278336 0.421300 0.000000
0.489031 0.125776 0.000000
0.286532 0.415761 0.000000
0.486389 0.135603 0.000000
0.293440 0.410921 0.000000
0.483609 0.145424 0.000000
0.303357 0.403699 0.000000
0.480578 0.154802 0.000000
0.311425 0.397508 0.000000
0.478655 0.161751 0.000000
0.476452 0.166982 0.000000
0.319367 0.391157 0.000000
0.474971 0.171610 0.000000
0.472982 0.176607 0.000000
0.327179 0.384646 0.000000
0.471433 0.181509 0.000000
0.469353 0.186363 0.000000
0.334859 0.377979 0.000000
0.467613 0.190886 0.000000
0.465645 0.195476 0.000000
0.344010 0.369764 0.000000
0.461373 0.204887 0.000000
0.463686 0.200316 0.000000
0.350057 0.363930 0.000000
0.459353 0.209725 0.000000
0.457070 0.214141 0.000000
0.357100 0.357062 0.000000
0.452708 0.223419 0.000000
0.455125 0.218877 0.000000
0.364020 0.349971 0.000000
0.450552 0.228739 0.000000
0.370222 0.343498 0.000000
0.446889 0.235184 0.000000
0.377979 0.334859 0.000000
0.442252 0.243700 0.000000
0.384646 0.327179 0.000000
0.437360 0.252522 0.000000
0.391146 0.319394 0.000000
0.432139 0.261225 0.000000
0.397501 0.311463 0.000000
0.426837 0.269829 0.000000
0.403699 0.303357 0.000000
0.421434 0.278106 0.000000
0.416650 0.285100 0.000000
0.409726 0.295166 0.000000
CELLS 1364 5456
3 624 2 0
3 624 0 1
3 624 1 317
3 317 626 624
3 626 317 319
3 319 628 626
3 4 626 628
3 628 6 4
3 6 628 630
3 630 8 6
3 8 630 632
3 632 10 8
3 10 632 634
3 634 12 10
3 12 634 636
3 636 14 12
3 14 636 637
3 637 16 14
3 640 16 637
3 637 329 640
3 640 329 331
3 639 640 331
3 639 331 643
3 643 18 639
3 639 18 16
3 643 642 18
3 642 20 18
3 645 20 642
3 642 333 645
3 645 333 335
3 646 645 335
3 646 335 648
3 648 22 646
3 646 22 20
3 648 649 22
3 649 24 22
3 652 24 649
3 649 337 652
3 652 337 339
3 651 652 339
3 651 339 654
3 654 26 651
3 651 26 24
3 654 655 26
3 655 28 26
3 658 28 655
3 655 341 658
3 658 341 343
3 657 658 343
3 657 343 660
3 30 657 660
3 660 32 30
3 32 660 662
3 662 34 32
3 34 662 664
3 664 36 34
3 36 664 666
3 666 38 36
3 38 666 668
3 668 40 38
3 40 668 670
3 670 42 40
3 42 670 672
3 672 44 42
3 44 672 674
3 674 46 44
3 674 359 46
3 676 46 359
3 676 359 361
3 676 361 48
3 678 48 361
3 678 361 363
3 678 363 50
3 681 50 363
3 681 363 365
3 681 365 52
3 684 52 365
3 684 365 367
3 684 367 54
3 687 54 367
3 687 367 369
3 687 369 56
3 692 56 369
3 692 369 371
3 371 695 692
3 58 692 695
3 695 60 58
3 60 695 698
3 698 62 60
3 62 698 701
3 701 64 62
3 64 701 703
3 65 64 703
3 65 703 67
3 67 703 381
3 705 67 381
3 705 381 383
3 383 707 705
3 69 705 707
3 707 71 69
3 71 707 709
3 709 73 71
3 709 387 73
3 711 73 387
3 711 387 389
3 711 389 75
3 713 75 389
3 713 389 391
3 713 391 77
3 715 77 391
3 715 391 393
3 715 393 79
3 717 79 393
3 717 393 395
3 395 719 717
3 81 717 719
3 719 83 81
3 83 719 721
3 721 85 83
3 85 721 723
3 723 87 85
3 87 723 725
3 725 89 87
3 89 725 727
3 727 91 89
3 91 727 728
3 728 92 91
3 92 728 729
3 729 95 92
3 732 95 729
3 729 407 732
3 732 407 409
3 731 732 409
3 731 409 735
3 735 97 731
3 731 97 95
3 735 734 97
3 734 99 97
3 737 99 734
3 734 411 737
3 737 411 413
3 738 737 413
3 738 413 740
3 740 101 738
3 738 101 99
3 740 741 101
3 741 103 101
3 743 103 741
3 741 415 743
3 743 415 417
3 744 743 417
3 744 417 746
3 746 105 744
3 744 105 103
3 746 747 105
3 747 107 105
3 749 107 747
3 747 419 749
3 749 419 421
3 750 749 421
3 750 421 752
3 109 750 752
3 752 111 109
3 111 752 754
3 754 113 111
3 113 754 756
3 756 115 113
3 115 756 758
3 758 117 115
3 117 758 760
3 760 119 117
3 119 760 762
3 762 121 119
3 121 762 764
3 764 123 121
3 123 764 766
3 766 125 123
3 766 437 125
3 768 125 437
3 768 437 439
3 768 439 127
3 770 127 439
3 770 439 441
3 770 441 130
3 773 130 441
3 773 441 443
3 773 443 132
3 776 132 443
3 776 443 445
3 776 445 134
3 779 134 445
3 779 445 447
3 779 447 136
3 782 136 447
3 782 447 449
3 449 785 782
3 138 782 785
3 785 140 138
3 140 785 788
3 788 142 140
3 142 788 791
3 791 144 142
3 144 791 794
3 794 146 144
3 794 457 146
3 796 146 457
3 796 457 459
3 796 459 148
3 798 148 459
3 798 459 461
3 798 461 150
3 800 150 461
3 800 461 463
3 800 463 152
3 802 152 463
3 802 463 465
3 802 465 154
3 804 154 465
3 804 465 467
3 804 467 156
3 806 156 467
3 806 467 469
3 806 469 158
3 808 158 469
3 808 469 471
3 471 810 808
3 160 808 810
3 810 162 160
3 162 810 812
3 812 164 162
3 164 812 814
3 814 166 164
3 166 814 816
3 816 168 166
3 168 816 818
3 818 170 168
3 170 818 820
3 820 172 170
3 172 820 821
3 821 174 172
3 823 174 821
3 821 483 823
3 823 483 485
3 824 823 485
3 824 485 826
3 826 176 824
3 824 176 174
3 826 827 176
3 827 178 176
3 830 178 827
3 827 487 830
3 830 487 489
3 829 830 489
3 829 489 832
3 832 180 829
3 829 180 178
3 832 833 180
3 833 182 180
3 836 182 833
3 833 491 836
3 836 491 493
3 835 836 493
3 835 493 838
3 838 184 835
3 835 184 182
3 838 839 184
3 839 186 184
3 842 186 839
3 839 495 842
3 842 495 497
3 841 842 497
3 841 497 844
3 188 841 844
3 844 190 188
3 190 844 846
3 846 192 190
3 192 846 848
3 848 194 192
3 194 848 850
3 850 196 194
3 196 850 852
3 852 198 196
3 198 852 854
3 854 200 198
3 200 854 856
3 856 202 200
3 202 856 858
3 858 204 202
3 858 513 204
3 860 204 513
3 860 513 515
3 860 515 206
3 862 206 515
3 862 515 517
3 862 517 208
3 865 208 517
3 865 517 519
3 865 519 210
3 868 210 519
3 868 519 521
3 868 521 212
3 871 212 521
3 871 521 523
3 871 523 214
3 874 214 523
3 874 523 525
3 525 877 874
3 216 874 877
3 877 218 216
3 218 877 880
3 880 220 218
3 220 880 883
3 883 222 220
3 222 883 886
3 886 224 222
3 224 886 888
3 888 226 224
3 888 535 226
3 890 226 535
3 890 535 537
3 537 892 890
3 228 890 892
3 892 230 228
3 230 892 894
3 894 232 230
3 894 541 232
3 896 232 541
3 896 541 543
3 896 543 234
3 898 234 543
3 898 543 545
3 898 545 236
3 900 236 545
3 900 545 547
3 900 547 238
3 902 238 547
3 902 547 549
3 549 904 902
3 902 904 240
3 904 242 240
3 242 904 906
3 906 244 242
3 244 906 908
3 908 246 244
3 246 908 910
3 910 248 246
3 248 910 912
3 912 250 248
3 250 912 914
3 914 252 250
3 252 914 916
3 916 254 252
3 917 254 916
3 916 561 917
3 917 561 563
3 919 917 563
3 919 563 920
3 920 256 919
3 919 256 254
3 920 922 256
3 922 258 256
3 923 258 922
3 922 565 923
3 923 565 567
3 925 923 567
3 925 567 926
3 926 260 925
3 925 260 258
3 926 928 260
3 928 262 260
3 929 262 928
3 928 569 929
3 929 569 571
3 931 929 571
3 931 571 932
3 932 264 931
3 931 264 262
3 932 934 264
3 934 266 264
3 935 266 934
3 934 573 935
3 935 573 575
3 937 935 575
3 937 575 939
3 268 937 939
3 939 270 268
3 270 939 941
3 941 272 270
3 272 941 943
3 943 274 272
3 274 943 945
3 945 276 274
3 276 945 947
3 947 278 276
3 278 947 949
3 949 280 278
3 280 949 951
3 951 282 280
3 282 951 953
3 953 284 282
3 953 591 284
3 955 284 591
3 955 591 593
3 955 593 286
3 957 286 593
3 957 593 595
3 957 595 288
3 960 288 595
3 960 595 597
3 960 597 290
3 963 290 597
3 963 597 599
3 963 599 292
3 966 292 599
3 966 599 601
3 966 601 294
3 969 294 601
3 969 601 603
3 603 972 969
3 296 969 972
3 972 298 296
3 298 972 975
3 975 300 298
3 300 975 978
3 978 302 300
3 302 978 980
3 980 304 302
3 980 611 304
3 982 304 611
3 982 611 613
3 982 613 306
3 984 306 613
3 984 613 615
3 984 615 308
3 986 308 615
3 986 615 617
3 986 617 310
3 988 310 617
3 988 617 619
3 988 619 312
3 990 312 619
3 990 619 622
3 990 622 314
3 993 314 622
3 993 622 623
3 993 623 316
3 992 316 623
3 992 623 621
3 621 991 992
3 315 992 991
3 991 313 315
3 313 991 989
3 989 311 313
3 311 989 987
3 987 309 311
3 309 987 985
3 985 307 309
3 307 985 983
3 983 305 307
3 305 983 981
3 981 303 305
3 303 981 979
3 979 301 303
3 976 301 979
3 979 610 976
3 976 610 608
3 977 976 608
3 977 608 974
3 974 299 977
3 977 299 301
3 974 973 299
3 973 297 299
3 970 297 973
3 973 606 970
3 970 606 604
3 971 970 604
3 971 604 968
3 968 295 971
3 971 295 297
3 968 967 295
3 967 293 295
3 965 293 967
3 967 602 965
3 965 602 600
3 964 965 600
3 964 600 962
3 962 291 964
3 964 291 293
3 962 961 291
3 961 289 291
3 959 289 961
3 961 598 959
3 959 598 596
3 958 959 596
3 958 596 956
3 287 958 956
3 956 285 287
3 285 956 954
3 954 283 285
3 283 954 952
3 952 281 283
3 281 952 950
3 950 279 281
3 279 950 948
3 948 277 279
3 277 948 946
3 946 275 277
3 275 946 944
3 944 273 275
3 273 944 942
3 942 271 273
3 942 580 271
3 940 271 580
3 940 580 578
3 940 578 269
3 938 269 578
3 938 578 576
3 938 576 267
3 936 267 576
3 936 576 574
3 936 574 265
3 933 265 574
3 933 574 572
3 933 572 263
3 930 263 572
3 930 572 570
3 930 570 261
3 927 261 570
3 927 570 568
3 568 924 927
3 259 927 924
3 924 257 259
3 257 924 921
3 921 255 257
3 255 921 918
3 918 253 255
3 918 562 253
3 915 253 562
3 915 562 560
3 560 913 915
3 251 915 913
3 913 249 251
3 913 558 249
3 911 249 558
3 911 558 556
3 556 909 911
3 247 911 909
3 909 245 247
3 245 909 907
3 907 243 245
3 907 552 243
3 905 243 552
3 905 552 550
3 905 550 241
3 903 241 550
3 903 550 548
3 903 548 239
3 901 239 548
3 901 548 546
3 901 546 237
3 899 237 546
3 899 546 544
3 544 897 899
3 899 897 235
3 897 233 235
3 233 897 895
3 895 231 233
3 231 895 893
3 893 229 231
3 229 893 891
3 891 227 229
3 227 891 889
3 889 225 227
3 225 889 887
3 887 223 225
3 223 887 885
3 885 221 223
3 884 221 885
3 885 532 884
3 884 532 530
3 882 884 530
3 882 530 881
3 881 219 882
3 882 219 221
3 881 879 219
3 879 217 219
3 878 217 879
3 879 528 878
3 878 528 526
3 876 878 526
3 876 526 875
3 875 215 876
3 876 215 217
3 875 873 215
3 873 213 215
3 872 213 873
3 873 524 872
3 872 524 522
3 870 872 522
3 870 522 869
3 869 211 870
3 870 211 213
3 869 867 211
3 867 209 211
3 866 209 867
3 867 520 866
3 866 520 518
3 864 866 518
3 864 518 863
3 207 864 863
3 863 205 207
3 205 863 861
3 861 203 205
3 203 861 859
3 859 201 203
3 201 859 857
3 857 199 201
3 199 857 855
3 855 197 199
3 197 855 853
3 853 195 197
3 195 853 851
3 851 193 195
3 193 851 849
3 849 191 193
3 849 502 191
3 847 191 502
3 847 502 500
3 847 500 189
3 845 189 500
3 845 500 498
3 845 498 187
3 843 187 498
3 843 498 496
3 843 496 185
3 840 185 496
3 840 496 494
3 840 494 183
3 837 183 494
3 837 494 492
3 837 492 181
3 834 181 492
3 834 492 490
3 490 831 834
3 179 834 831
3 831 177 179
3 177 831 828
3 828 175 177
3 175 828 825
3 825 173 175
3 173 825 822
3 822 171 173
3 822 482 171
3 819 171 482
3 819 482 480
3 819 480 169
3 817 169 480
3 817 480 478
3 817 478 167
3 815 167 478
3 815 478 476
3 815 476 165
3 813 165 476
3 813 476 474
3 813 474 163
3 811 163 474
3 811 474 472
3 811 472 161
3 809 161 472
3 809 472 470
3 809 470 159
3 807 159 470
3 807 470 468
3 468 805 807
3 157 807 805
3 805 155 157
3 155 805 803
3 803 153 155
3 153 803 801
3 801 151 153
3 151 801 799
3 799 149 151
3 149 799 797
3 797 147 149
3 147 797 795
3 795 145 147
3 145 795 792
3 792 143 145
3 793 143 792
3 792 456 793
3 793 456 454
3 790 793 454
3 790 454 789
3 789 141 790
3 790 141 143
3 789 786 141
3 786 139 141
3 787 139 786
3 786 452 787
3 787 452 450
3 784 787 450
3 784 450 783
3 783 137 784
3 784 137 139
3 783 781 137
3 781 135 137
3 780 135 781
3 781 448 780
3 780 448 446
3 778 780 446
3 778 446 777
3 777 133 778
3 778 133 135
3 777 775 133
3 775 131 133
3 774 131 775
3 775 444 774
3 774 444 442
3 772 774 442
3 772 442 771
3 129 772 771
3 771 128 129
3 128 771 769
3 769 126 128
3 126 769 767
3 767 124 126
3 124 767 765
3 765 122 124
3 122 765 763
3 763 120 122
3 120 763 761
3 761 118 120
3 118 761 759
3 759 116 118
3 116 759 757
3 757 114 116
3 757 426 114
3 755 114 426
3 755 426 424
3 755 424 112
3 753 112 424
3 753 424 422
3 753 422 110
3 751 110 422
3 751 422 420
3 751 420 108
3 748 108 420
3 748 420 418
3 748 418 106
3 745 106 418
3 745 418 416
3 745 416 104
3 742 104 416
3 742 416 414
3 414 739 742
3 102 742 739
3 739 100 102
3 100 739 736
3 736 98 100
3 98 736 733
3 733 96 98
3 96 733 730
3 94 96 730
3 94 730 93
3 93 730 404
3 726 93 404
3 726 404 402
3 402 724 726
3 90 726 724
3 724 88 90
3 88 724 722
3 722 86 88
3 722 398 86
3 720 86 398
3 720 398 396
3 720 396 84
3 718 84 396
3 718 396 394
3 718 394 82
3 716 82 394
3 716 394 392
3 716 392 80
3 714 80 392
3 714 392 390
3 390 712 714
3 78 714 712
3 712 76 78
3 76 712 710
3 710 74 76
3 74 710 708
3 708 72 74
3 72 708 706
3 706 70 72
3 70 706 704
3 704 68 70
3 68 704 702
3 702 66 68
3 66 702 700
3 700 63 66
3 699 63 700
3 700 378 699
3 699 378 376
3 697 699 376
3 697 376 696
3 696 61 697
3 697 61 63
3 696 694 61
3 694 59 61
3 693 59 694
3 694 374 693
3 693 374 372
3 691 693 372
3 691 372 690
3 690 57 691
3 691 57 59
3 690 688 57
3 688 55 57
3 689 55 688
3 688 370 689
3 689 370 368
3 685 689 368
3 685 368 686
3 686 53 685
3 685 53 55
3 686 682 53
3 682 51 53
3 683 51 682
3 682 366 683
3 683 366 364
3 680 683 364
3 680 364 679
3 49 680 679
3 679 47 49
3 47 679 677
3 677 45 47
3 45 677 675
3 675 43 45
3 43 675 673
3 673 41 43
3 41 673 671
3 671 39 41
3 39 671 669
3 669 37 39
3 37 669 667
3 667 35 37
3 35 667 665
3 665 33 35
3 665 348 33
3 663 33 348
3 663 348 346
3 663 346 31
3 661 31 346
3 661 346 344
3 661 344 29
3 659 29 344
3 659 344 342
3 659 342 27
3 656 27 342
3 656 342 340
3 656 340 25
3 653 25 340
3 653 340 338
3 653 338 23
3 650 23 338
3 650 338 336
3 336 647 650
3 21 650 647
3 647 19 21
3 19 647 644
3 644 17 19
3 17 644 641
3 641 15 17
3 15 641 638
3 638 13 15
3 638 328 13
3 635 13 328
3 635 328 326
3 635 326 11
3 633 11 326
3 633 326 324
3 633 324 9
3 631 9 324
3 631 324 322
3 631 322 7
3 629 7 322
3 629 322 320
3 629 320 5
3 627 5 320
3 627 320 318
3 627 318 3
3 625 3 318
3 625 318 1
3 625 0 3
3 627 3 5
3 629 5 7
3 631 7 9
3 633 9 11
3 635 11 13
3 638 330 328
3 330 638 641
3 641 332 330
3 332 641 644
3 644 334 332
3 334 644 647
3 647 336 334
3 650 21 23
3 653 23 25
3 656 25 27
3 659 27 29
3 661 29 31
3 663 31 33
3 665 350 348
3 350 665 667
3 667 352 350
3 352 667 669
3 669 354 352
3 354 669 671
3 671 356 354
3 356 671 673
3 673 358 356
3 358 673 675
3 675 360 358
3 360 675 677
3 677 362 360
3 362 677 679
3 680 49 51
3 679 364 362
3 683 680 51
3 682 686 366
3 686 368 366
3 689 685 55
3 688 690 370
3 690 372 370
3 693 691 59
3 694 696 374
3 696 376 374
3 699 697 63
3 700 702 378
3 702 380 378
3 380 702 704
3 704 382 380
3 382 704 706
3 706 384 382
3 384 706 708
3 708 386 384
3 386 708 710
3 710 388 386
3 388 710 712
3 712 390 388
3 714 78 80
3 716 80 82
3 718 82 84
3 720 84 86
3 722 400 398
3 400 722 724
3 724 402 400
3 726 90 93
3 406 404 730
3 406 730 408
3 408 730 733
3 733 410 408
3 410 733 736
3 736 412 410
3 412 736 739
3 739 414 412
3 742 102 104
3 745 104 106
3 748 106 108
3 751 108 110
3 753 110 112
3 755 112 114
3 757 428 426
3 428 757 759
3 759 430 428
3 430 759 761
3 761 432 430
3 432 761 763
3 763 434 432
3 434 763 765
3 765 436 434
3 436 765 767
3 767 438 436
3 438 767 769
3 769 440 438
3 440 769 771
3 772 129 131
3 771 442 440
3 774 772 131
3 775 777 444
3 777 446 444
3 780 778 135
3 781 783 448
3 783 450 448
3 787 784 139
3 786 789 452
3 789 454 452
3 793 790 143
3 792 795 456
3 795 458 456
3 458 795 797
3 797 460 458
3 460 797 799
3 799 462 460
3 462 799 801
3 801 464 462
3 464 801 803
3 803 466 464
3 466 803 805
3 805 468 466
3 807 157 159
3 809 159 161
3 811 161 163
3 813 163 165
3 815 165 167
3 817 167 169
3 819 169 171
3 822 484 482
3 484 822 825
3 825 486 484
3 486 825 828
3 828 488 486
3 488 828 831
3 831 490 488
3 834 179 181
3 837 181 183
3 840 183 185
3 843 185 187
3 845 187 189
3 847 189 191
3 849 504 502
3 504 849 851
3 851 506 504
3 506 851 853
3 853 508 506
3 508 853 855
3 855 510 508
3 510 855 857
3 857 512 510
3 512 857 859
3 859 514 512
3 514 859 861
3 861 516 514
3 516 861 863
3 864 207 209
3 863 518 516
3 866 864 209
3 867 869 520
3 869 522 520
3 872 870 213
3 873 875 524
3 875 526 524
3 878 876 217
3 879 881 528
3 881 530 528
3 884 882 221
3 885 887 532
3 887 534 532
3 534 887 889
3 889 536 534
3 536 889 891
3 891 538 536
3 538 891 893
3 893 540 538
3 540 893 895
3 895 542 540
3 542 895 897
3 897 544 542
3 899 235 237
3 901 237 239
3 903 239 241
3 905 241 243
3 907 554 552
3 554 907 909
3 909 556 554
3 911 247 249
3 913 560 558
3 915 251 253
3 918 564 562
3 564 918 921
3 921 566 564
3 566 921 924
3 924 568 566
3 927 259 261
3 930 261 263
3 933 263 265
3 936 265 267
3 938 267 269
3 940 269 271
3 942 582 580
3 582 942 944
3 944 584 582
3 584 944 946
3 946 586 584
3 586 946 948
3 948 588 586
3 588 948 950
3 950 590 588
3 590 950 952
3 952 592 590
3 592 952 954
3 954 594 592
3 594 954 956
3 958 287 289
3 956 596 594
3 959 958 289
3 961 962 598
3 962 600 598
3 965 964 293
3 967 968 602
3 968 604 602
3 970 971 297
3 973 974 606
3 974 608 606
3 976 977 301
3 979 981 610
3 981 612 610
3 612 981 983
3 983 614 612
3 614 983 985
3 985 616 614
3 616 985 987
3 987 618 616
3 618 987 989
3 989 620 618
3 620 989 991
3 991 621 620
3 992 315 316
3 993 316 314
3 990 314 312
3 988 312 310
3 986 310 308
3 984 308 306
3 982 306 304
3 980 609 611
3 609 980 978
3 978 607 609
3 607 978 975
3 975 605 607
3 605 975 972
3 972 603 605
3 969 296 294
3 966 294 292
3 963 292 290
3 960 290 288
3 957 288 286
3 955 286 284
3 953 589 591
3 589 953 951
3 951 587 589
3 587 951 949
3 949 585 587
3 585 949 947
3 947 583 585
3 583 947 945
3 945 581 583
3 581 945 943
3 943 579 581
3 579 943 941
3 941 577 579
3 577 941 939
3 937 268 266
3 939 575 577
3 935 937 266
3 934 932 573
3 932 571 573
3 929 931 262
3 928 926 569
3 926 567 569
3 923 925 258
3 922 920 565
3 920 563 565
3 917 919 254
3 916 914 561
3 914 559 561
3 559 914 912
3 912 557 559
3 557 912 910
3 910 555 557
3 555 910 908
3 908 553 555
3 553 908 906
3 906 551 553
3 551 906 904
3 904 549 551
3 902 240 238
3 900 238 236
3 898 236 234
3 896 234 232
3 894 539 541
3 539 894 892
3 892 537 539
3 890 228 226
3 888 533 535
3 533 888 886
3 886 531 533
3 531 886 883
3 883 529 531
3 529 883 880
3 880 527 529
3 527 880 877
3 877 525 527
3 874 216 214
3 871 214 212
3 868 212 210
3 865 210 208
3 862 208 206
3 860 206 204
3 858 511 513
3 511 858 856
3 856 509 511
3 509 856 854
3 854 507 509
3 507 854 852
3 852 505 507
3 505 852 850
3 850 503 505
3 503 850 848
3 848 501 503
3 501 848 846
3 846 499 501
3 499 846 844
3 841 188 186
3 844 497 499
3 842 841 186
3 839 838 495
3 838 493 495
3 836 835 182
3 833 832 491
3 832 489 491
3 830 829 178
3 827 826 487
3 826 485 487
3 823 824 174
3 821 820 483
3 820 481 483
3 481 820 818
3 818 479 481
3 479 818 816
3 816 477 479
3 477 816 814
3 814 475 477
3 475 814 812
3 812 473 475
3 473 812 810
3 810 471 473
3 808 160 158
3 806 158 156
3 804 156 154
3 802 154 152
3 800 152 150
3 798 150 148
3 796 148 146
3 794 455 457
3 455 794 791
3 791 453 455
3 453 791 788
3 788 451 453
3 451 788 785
3 785 449 451
3 782 138 136
3 779 136 134
3 776 134 132
3 773 132 130
3 770 130 127
3 768 127 125
3 766 435 437
3 435 766 764
3 764 433 435
3 433 764 762
3 762 431 433
3 431 762 760
3 760 429 431
3 429 760 758
3 758 427 429
3 427 758 756
3 756 425 427
3 425 756 754
3 754 423 425
3 423 754 752
3 750 109 107
3 752 421 423
3 749 750 107
3 747 746 419
3 746 417 419
3 743 744 103
3 741 740 415
3 740 413 415
3 737 738 99
3 734 735 411
3 735 409 411
3 732 731 95
3 729 728 407
3 728 405 407
3 405 728 727
3 727 403 405
3 403 727 725
3 725 401 403
3 401 725 723
3 723 399 401
3 399 723 721
3 721 397 399
3 397 721 719
3 719 395 397
3 717 81 79
3 715 79 77
3 713 77 75
3 711 75 73
3 709 385 387
3 385 709 707
3 707 383 385
3 705 69 67
3 379 381 703
3 379 703 377
3 377 703 701
3 701 375 377
3 375 701 698
3 698 373 375
3 373 698 695
3 695 371 373
3 692 58 56
3 687 56 54
3 684 54 52
3 681 52 50
3 678 50 48
3 676 48 46
3 674 357 359
3 357 674 672
3 672 355 357
3 355 672 670
3 670 353 355
3 353 670 668
3 668 351 353
3 351 668 666
3 666 349 351
3 349 666 664
3 664 347 349
3 347 664 662
3 662 345 347
3 345 662 660
3 657 30 28
3 660 343 345
3 658 657 28
3 655 654 341
3 654 339 341
3 652 651 24
3 649 648 337
3 648 335 337
3 645 646 20
3 642 643 333
3 643 331 333
3 640 639 16
3 637 636 329
3 636 327 329
3 327 636 634
3 634 325 327
3 325 634 632
3 632 323 325
3 323 632 630
3 630 321 323
3 321 630 628
3 626 4 2
3 628 319 321
3 625 1 0
3 2 624 626
CELL_TYPES 1364
9
9
9
9
9
9
9
9
9
9
9
9
9
9
9
9
9
9
9
9
9
9
9
9
9
9
9
9
9
9
9
9
9
9
9
9
9
9
9
9
9
9
9
9
9
9
9
9
9
9
9
9
9
9
9
9
9
9
9
9
9
9
9
9
9
9
9
9
9
9
9
9
9
9
9
9
9
9
9
9
9
9
9
9
9
9
9
9
9
9
9
9
9
9
9
9
9
9
9
9
9
9
9
9
9
9
9
9
9
9
9
9
9
9
9
9
9
9
9
9
9
9
9
9
9
9
9
9
9
9
9
9
9
9
9
9
9
9
9
9
9
9
9
9
9
9
9
9
9
9
9
9
9
9
9
9
9
9
9
9
9
9
9
9
9
9
9
9
9
9
9
9
9
9
9
9
9
9
9
9
9
9
9
9
9
9
9
9
9
9
9
9
9
9
9
9
9
9
9
9
9
9
9
9
9
9
9
9
9
9
9
9
9
9
9
9
9
9
9
9
9
9
9
9
9
9
9
9
9
9
9
9
9
9
9
9
9
9
9
9
9
9
9
9
9
9
9
9
9
9
9
9
9
9
9
9
9
9
9
9
9
9
9
9
9
9
9
9
9
9
9
9
9
9
9
9
9
9
9
9
9
9
9
9
9
9
9
9
9
9
9
9
9
9
9
9
9
9
9
9
9
9
9
9
9
9
9
9
9
9
9
9
9
9
9
9
9
9
9
9
9
9
9
9
9
9
9
9
9
9
9
9
9
9
9
9
9
9
9
9
9
9
9
9
9
9
9
9
9
9
9
9
9
9
9
9
9
9
9
9
9
9
9
9
9
9
9
9
9
9
9
9
9
9
9
9
9
9
9
9
9
9
9
9
9
9
9
9
9
9
9
9
9
9
9
9
9
9
9
9
9
9
9
9
9
9
9
9
9
9
9
9
9
9
9
9
9
9
9
9
9
9
9
9
9
9
9
9
9
9
9
9
9
9
9
9
9
9
9
9
9
9
9
9
9
9
9
9
9
9
9
9
9
9
9
9
9
9
9
9
9
9
9
9
9
9
9
9
9
9
9
9
9
9
9
9
9
9
9
9
9
9
9
9
9
9
9
9
9
9
9
9
9
9
9
9
9
9
9
9
9
9
9
9
9
9
9
9
9
9
9
9
9
9
9
9
9
9
9
9
9
9
9
9
9
9
9
9
9
9
9
9
9
9
9
9
9
9
9
9
9
9
9
9
9
9
9
9
9
9
9
9
9
9
9
9
9
9
9
9
9
9
9
9
9
9
9
9
9
9
9
9
9
9
9
9
9
9
9
9
9
9
9
9
9
9
9
9
9
9
9
9
9
9
9
9
9
9
9
9
9
9
9
9
9
9
9
9
9
9
9
9
9
9
9
9
9
9
9
9
9
9
9
9
9
9
9
9
9
9
9
9
9
9
9
9
9
9
9
9
9
9
9
9
9
9
9
9
9
9
9
9
9
9
9
9
9
9
9
9
9
9
9
9
9
9
9
9
9
9
9
9
9
9
9
9
9
9
9
9
9
9
9
9
9
9
9
9
9
9
9
9
9
9
9
9
9
9
9
9
9
9
9
9
9
9
9
9
9
9
9
9
9
9
9
9
9
9
9
9
9
9
9
9
9
9
9
9
9
9
9
9
9
9
9
9
9
9
9
9
9
9
9
9
9
9
9
9
9
9
9
9
9
9
9
9
9
9
9
9
9
9
9
9
9
9
9
9
9
9
9
9
9
9
9
9
9
9
9
9
9
9
9
9
9
9
9
9
9
9
9
9
9
9
9
9
9
9
9
9
9
9
9
9
9
9
9
9
9
9
9
9
9
9
9
9
9
9
9
9
9
9
9
9
9
9
9
9
9
9
9
9
9
9
9
9
9
9
9
9
9
9
9
9
9
9
9
9
9
9
9
9
9
9
9
9
9
9
9
9
9
9
9
9
9
9
9
9
9
9
9
9
9
9
9
9
9
9
9
9
9
9
9
9
9
9
9
9
9
9
9
9
9
9
9
9
9
9
9
9
9
9
9
9
9
9
9
9
9
9
9
9
9
9
9
9
9
9
9
9
9
9
9
9
9
9
9
9
9
9
9
9
9
9
9
9
9
9
9
9
9
9
9
9
9
9
9
9
9
9
9
9
9
9
9
9
9
9
9
9
9
9
9
9
9
9
9
9
9
9
9
9
9
9
9
9
9
9
9
9
9
9
9
9
9
9
9
9
9
9
9
9
9
9
9
9
9
9
9
9
9
9
9
9
9
9
9
9
9
9
9
9
9
9
9
9
9
9
9
9
9
9
9
9
9
9
9
9
9
9
9
9
9
9
9
9
9
9
9
9
9
9
9
9
9
9
9
9
9
9
9
9
9
9
9
9
9
9
9
9
9
9
9
9
9
9
9
9
9
9
9
9
9
9
9
9
9
9
9
9
9
9
9
9
9
9
9
9
9
9
9
9
9
9
9
9
9
9
9
9
9
9
9
9
9
9
9
9
9
9
9
9
9
9
9
9
9
9
9
9
9
9
9
9
9
9
9
9
9
9
9
9
9
9
9
9
9
9
9
9
9
9
9
9
9
9
9
9
9
9
9
9
9
9
9
9
9
9
9
9
9
9
9
9
9
9
9
9
9
9
9
9
9
9
9
9
9
9
9
9
9
9
9
9
9
9
9
9
9
9
9
9
9
9
9
9
9
9
9
9
9
9
9
9
9
9
9
9
9
9
9
9
9
9
9
9
9
9
9
9
9
9
9
9
9
9
9
9
9
9
9
9
9
9
9
9
9
9
9
9
9
9
9
9
9
9
9
9
9
9
9
9
9
9
9
9
9
9
9
9
9
9
9
9
9
9
9
9
9
9
9
9
9
9
9
9
9
9
9
9
9
9
9
9
9
9
9
9
9
9
9
9
9
9
9
9
9
9
9
9
9
9
9
9
9
9
9
9
9
9
9
9
9
9
9
9
9
9
9
9
9
9
9
9
9
9
9
9
9
9
9
9
9
9
9
9
9
9
9
9
9
9
9
9
9
9
9
9
9
9
9
9
9
9
9
9
9
9
9
9
9
9
9
9
POINT_DATA 994
SCALARS u1 float
LOOKUP_TABLE default
-0.07
-0.08
-0.08
-0.07
-0.09
-0.06
-0.1
-0.05
-0.1
-0.04
-0.1
-0.04
-0.1
-0.03
-0.1
-0.03
-0.2
-0.03
-0.2
-0.03
-0.2
-0.03
-0.2
-0.03
-0.2
-0.03
-0.3
-0.03
-0.3
-0.03
-0.3
-0.04
-0.3
-0.04
-0.3
-0.04
-0.4
-0.04
-0.4
-0.05
-0.4
-0.05
-0.4
-0.05
-0.5
-0.06
-0.5
-0.06
-0.5
-0.07
-0.5
-0.07
-0.5
-0.08
-0.5
-0.09
-0.5
-0.09
-0.6
-0.1
-0.6
-0.1
-0.6
-0.1
-0.6
-0.6
-0.1
-0.6
-0.1
-0.5
-0.1
-0.5
-0.1
-0.5
-0.1
-0.5
-0.1
-0.5
-0.1
-0.5
-0.1
-0.5
-0.1
-0.5
-0.1
-0.4
-0.1
-0.4
-0.1
-0.4
-0.1
-0.4
-0.4
-0.1
-0.1
-0.3
-0.1
-0.3
-0.1
-0.3
-0.1
-0.3
-0.1
-0.3
-0.1
-0.3
-0.1
-0.2
-0.1
-0.2
-0.1
-0.2
-0.1
-0.2
-0.1
-0.2
-0.1
-0.2
-0.1
-0.2
-0.1
-0.2
-0.2
-0.2
-0.2
-0.2
-0.2
-0.2
-0.2
-0.2
-0.2
-0.2
-0.2
-0.2
-0.2
-0.2
-0.2
-0.2
-0.2
-0.2
-0.2
-0.2
-0.2
-0.2
-0.2
-0.2
-0.2
-0.2
-0.2
-0.3
-0.2
-0.3
-0.2
-0.3
-0.2
-0.3
-0.2
-0.3
-0.2
-0.3
-0.2
-0.3
-0.2
-0.3
-0.2
-0.3
-0.2
-0.3
-0.2
-0.3
-0.2
-0.3
-0.3
-0.3
-0.3
-0.3
-0.3
-0.3
-0.3
-0.3
-0.3
-0.3
-0.3
-0.3
-0.3
-0.3
-0.3
-0.3
-0.3
-0.3
-0.3
-0.3
-0.3
-0.3
-0.3
-0.3
-0.3
-0.3
-0.3
-0.3
-0.4
-0.3
-0.4
-0.3
-0.4
-0.3
-0.4
-0.2
-0.4
-0.2
-0.4
-0.2
-0.4
-0.2
-0.4
-0.2
-0.4
-0.2
-0.4
-0.2
-0.4
-0.1
-0.4
-0.1
-0.4
-0.1
-0.3
-0.09
-0.3
-0.07
-0.3
-0.05
-0.3
-0.03
-0.3
-0.01
-0.3
0.006
-0.4
0.02
-0.4
0.04
-0.4
0.05
-0.4
0.06
-0.4
0.07
-0.4
0.08
-0.4
0.09
-0.4
0.09
-0.4
0.09
-0.4
0.09
-0.4
0.08
-0.4
0.07
-0.4
0.06
-0.4
0.04
-0.4
0.02
-0.4
0.006
-0.4
-0.01
-0.4
-0.03
-0.4
-0.06
-0.4
-0.08
-0.5
-0.1
-0.5
-0.1
-0.5
-0.2
-0.5
-0.2
-0.5
-0.2
-0.5
-0.2
-0.5
-0.2
-0.5
-0.3
-0.5
-0.3
-0.5
-0.3
-0.5
-0.3
-0.5
-0.3
-0.5
-0.4
-0.5
-0.4
-0.5
-0.4
-0.5
-0.4
-0.5
-0.4
-0.4
-0.4
-0.4
-0.4
-0.4
-0.09
-0.07
-0.1
-0.07
-0.1
-0.06
-0.1
-0.05
-0.1
-0.04
-0.1
-0.04
-0.2
-0.03
-0.2
-0.03
-0.2
-0.03
-0.2
-0.03
-0.2
-0.03
-0.3
-0.03
-0.3
-0.03
-0.3
-0.03
-0.3
-0.03
-0.3
-0.04
-0.4
-0.04
-0.4
-0.04
-0.4
-0.04
-0.4
-0.05
-0.5
-0.05
-0.5
-0.05
-0.5
-0.06
-0.5
-0.06
-0.5
-0.06
-0.5
-0.07
-0.5
-0.07
-0.6
-0.08
-0.6
-0.09
-0.6
-0.09
-0.6
-0.1
-0.6
-0.1
-0.6
-0.1
-0.5
-0.1
-0.5
-0.1
-0.5
-0.1
-0.5
-0.1
-0.5
-0.1
-0.5
-0.1
-0.5
-0.1
-0.4
-0.1
-0.4
-0.1
-0.4
-0.1
-0.4
-0.1
-0.4
-0.1
-0.4
-0.1
-0.3
-0.1
-0.3
-0.1
-0.3
-0.1
-0.3
-0.1
-0.3
-0.1
-0.3
-0.1
-0.2
-0.2
-0.2
-0.2
-0.2
-0.2
-0.2
-0.2
-0.2
-0.2
-0.2
-0.2
-0.2
-0.2
-0.2
-0.2
-0.2
-0.2
-0.2
-0.2
-0.2
-0.2
-0.2
-0.2
-0.2
-0.2
-0.2
-0.2
-0.2
-0.2
-0.2
-0.2
-0.2
-0.2
-0.2
-0.2
-0.2
-0.3
-0.2
-0.3
-0.2
-0.3
-0.2
-0.3
-0.2
-0.3
-0.2
-0.3
-0.2
-0.3
-0.2
-0.3
-0.2
-0.3
-0.2
-0.3
-0.2
-0.3
-0.2
-0.3
-0.2
-0.3
-0.2
-0.3
-0.3
-0.3
-0.3
-0.3
-0.3
-0.3
-0.3
-0.3
-0.3
-0.3
-0.3
-0.3
-0.3
-0.3
-0.3
-0.3
-0.3
-0.3
-0.3
-0.3
-0.3
-0.3
-0.3
-0.3
-0.3
-0.3
-0.3
-0.3
-0.3
-0.3
-0.3
-0.2
-0.3
-0.2
-0.3
-0.2
-0.3
-0.2
-0.3
-0.2
-0.4
-0.2
-0.4
-0.2
-0.4
-0.1
-0.4
-0.1
-0.4
-0.1
-0.4
-0.09
-0.4
-0.07
-0.4
-0.05
-0.4
-0.03
-0.4
-0.01
-0.4
0.005
-0.4
0.02
-0.4
0.04
-0.4
0.05
-0.4
0.06
-0.4
0.07
-0.4
0.08
-0.4
0.09
-0.4
0.09
-0.4
0.09
-0.4
0.09
-0.4
0.08
-0.4
0.07
-0.4
0.06
-0.4
0.04
-0.4
0.02
-0.4
0.006
-0.4
-0.01
-0.5
-0.04
-0.5
-0.06
-0.5
-0.08
-0.5
-0.1
-0.5
-0.1
-0.5
-0.2
-0.5
-0.2
-0.5
-0.2
-0.5
-0.2
-0.5
-0.2
-0.5
-0.3
-0.5
-0.3
-0.5
-0.3
-0.5
-0.3
-0.5
-0.3
-0.5
-0.4
-0.5
-0.4
-0.5
-0.4
-0.4
-0.4
-0.4
-0.4
-0.4
-0.4
-0.4
-0.08
-0.07
-0.09
-0.07
-0.1
-0.06
-0.1
-0.05
-0.1
-0.04
-0.1
-0.04
-0.1
-0.2
-0.03
-0.2
-0.2
-0.03
-0.2
-0.2
-0.03
-0.2
-0.2
-0.03
-0.2
-0.2
-0.03
-0.2
-0.2
-0.03
-0.3
-0.3
-0.03
-0.3
-0.3
-0.03
-0.3
-0.03
-0.3
-0.04
-0.4
-0.04
-0.4
-0.04
-0.4
-0.04
-0.4
-0.05
-0.4
-0.05
-0.5
-0.05
-0.5
-0.06
-0.5
-0.06
-0.07
-0.5
-0.07
-0.07
-0.5
-0.08
-0.07
-0.5
-0.08
-0.08
-0.08
-0.09
-0.6
-0.09
-0.09
-0.6
-0.1
-0.1
-0.6
-0.1
-0.1
-0.6
-0.1
-0.6
-0.1
-0.6
-0.1
-0.5
-0.1
-0.5
-0.1
-0.5
-0.1
-0.5
-0.1
-0.5
-0.1
-0.5
-0.1
-0.5
-0.1
-0.4
-0.1
-0.4
-0.1
-0.4
-0.1
-0.4
-0.4
-0.4
-0.1
-0.3
-0.3
-0.1
-0.3
-0.3
-0.1
-0.3
-0.3
-0.1
-0.3
-0.3
-0.1
-0.3
-0.3
-0.1
-0.3
-0.3
-0.1
-0.3
-0.2
-0.1
-0.2
-0.1
-0.2
-0.1
-0.2
-0.1
-0.2
-0.2
-0.2
-0.2
-0.2
-0.2
-0.2
-0.2
-0.2
-0.2
-0.2
-0.2
-0.2
-0.2
-0.2
-0.2
-0.2
-0.2
-0.2
-0.2
-0.2
-0.2
-0.2
-0.2
-0.2
-0.2
-0.2
-0.2
-0.2
-0.2
-0.2
-0.2
-0.2
-0.2
-0.2
-0.2
-0.2
-0.2
-0.2
-0.3
-0.2
-0.3
-0.2
-0.3
-0.2
-0.3
-0.2
-0.3
-0.2
-0.3
-0.2
-0.3
-0.2
-0.3
-0.2
-0.3
-0.2
-0.3
-0.2
-0.3
-0.2
-0.3
-0.2
-0.3
-0.3
-0.3
-0.3
-0.3
-0.3
-0.3
-0.3
-0.3
-0.3
-0.3
-0.3
-0.3
-0.3
-0.3
-0.3
-0.3
-0.3
-0.3
-0.3
-0.3
-0.3
-0.3
-0.3
-0.3
-0.3
-0.3
-0.3
-0.3
-0.3
-0.3
-0.3
-0.3
-0.3
-0.3
-0.3
-0.3
-0.3
-0.3
-0.3
-0.3
-0.4
-0.2
-0.2
-0.4
-0.2
-0.2
-0.4
-0.2
-0.2
-0.4
-0.2
-0.2
-0.4
-0.2
-0.2
-0.4
-0.2
-0.2
-0.4
-0.2
-0.2
-0.4
-0.1
-0.1
-0.4
-0.1
-0.4
-0.1
-0.4
-0.08
-0.4
-0.06
-0.4
-0.04
-0.4
-0.02
-0.4
-0.007
-0.4
0.01
-0.4
0.03
-0.4
0.04
-0.4
0.06
-0.4
0.07
-0.4
0.08
-0.4
0.09
-0.4
0.09
-0.4
-0.4
0.09
-0.4
-0.4
0.09
-0.4
-0.4
0.08
-0.4
-0.4
0.08
-0.4
-0.4
0.06
-0.4
-0.4
0.05
-0.4
-0.4
0.03
-0.4
0.02
-0.4
-0.004
-0.4
-0.03
-0.4
-0.05
-0.5
-0.07
-0.5
-0.09
-0.5
-0.1
-0.5
-0.1
-0.5
-0.2
-0.5
-0.2
-0.5
-0.2
-0.2
-0.5
-0.2
-0.2
-0.5
-0.3
-0.3
-0.5
-0.3
-0.3
-0.5
-0.3
-0.3
-0.5
-0.3
-0.3
-0.5
-0.3
-0.3
-0.5
-0.3
-0.5
-0.4
-0.5
-0.4
-0.5
-0.4
-0.5
-0.4
-0.4
-0.4
-0.4
-0.4
-0.4
-0.4
SCALARS u2 float
LOOKUP_TABLE default
-0.2
-0.2
-0.2
-0.2
-0.2
-0.2
-0.2
-0.2
-0.2
-0.2
-0.2
-0.2
-0.2
-0.2
-0.3
-0.2
-0.3
-0.2
-0.3
-0.2
-0.3
-0.2
-0.3
-0.2
-0.3
-0.2
-0.3
-0.2
-0.3
-0.2
-0.3
-0.2
-0.3
-0.2
-0.3
-0.2
-0.3
-0.2
-0.3
-0.2
-0.3
-0.2
-0.3
-0.2
-0.4
-0.2
-0.4
-0.2
-0.4
-0.2
-0.4
-0.2
-0.4
-0.3
-0.4
-0.3
-0.4
-0.3
-0.4
-0.3
-0.4
-0.3
-0.4
-0.3
-0.3
-0.3
-0.4
-0.3
-0.4
-0.3
-0.4
-0.3
-0.4
-0.3
-0.4
-0.3
-0.4
-0.3
-0.5
-0.3
-0.5
-0.3
-0.5
-0.4
-0.5
-0.4
-0.5
-0.4
-0.5
-0.4
-0.5
-0.4
-0.4
-0.6
-0.6
-0.4
-0.6
-0.4
-0.6
-0.4
-0.6
-0.4
-0.5
-0.4
-0.5
-0.4
-0.5
-0.4
-0.5
-0.4
-0.5
-0.4
-0.5
-0.4
-0.5
-0.4
-0.4
-0.4
-0.4
-0.4
-0.4
-0.4
-0.4
-0.5
-0.4
-0.5
-0.3
-0.5
-0.3
-0.3
-0.5
-0.3
-0.5
-0.2
-0.5
-0.2
-0.5
-0.2
-0.5
-0.2
-0.5
-0.2
-0.5
-0.1
-0.5
-0.1
-0.5
-0.1
-0.5
-0.1
-0.4
-0.1
-0.4
-0.09
-0.4
-0.08
-0.4
-0.07
-0.4
-0.06
-0.4
-0.05
-0.4
-0.05
-0.4
-0.04
-0.4
-0.03
-0.4
-0.03
-0.4
-0.02
-0.3
-0.02
-0.3
-0.02
-0.3
-0.01
-0.3
-0.01
-0.3
-0.02
-0.3
-0.02
-0.2
-0.02
-0.2
-0.02
-0.2
-0.03
-0.2
-0.03
-0.1
-0.03
-0.1
-0.03
-0.1
-0.04
-0.08
-0.04
-0.05
-0.05
-0.03
-0.05
-0.01
-0.06
0.008
-0.06
0.03
-0.07
0.04
-0.07
0.06
-0.08
0.07
-0.08
0.08
-0.09
0.09
-0.1
0.09
-0.1
0.09
-0.1
0.09
-0.1
0.08
-0.1
0.07
-0.1
0.06
-0.1
0.05
-0.1
0.04
-0.1
0.02
-0.1
0.003
-0.1
-0.01
-0.1
-0.03
-0.1
-0.05
-0.1
-0.07
-0.1
-0.09
-0.1
-0.1
-0.1
-0.1
-0.1
-0.1
-0.1
-0.2
-0.1
-0.2
-0.1
-0.2
-0.1
-0.2
-0.1
-0.2
-0.1
-0.2
-0.1
-0.3
-0.1
-0.3
-0.1
-0.3
-0.1
-0.3
-0.1
-0.3
-0.1
-0.3
-0.1
-0.3
-0.2
-0.3
-0.2
-0.3
-0.2
-0.3
-0.2
-0.3
-0.2
-0.3
-0.2
-0.3
-0.2
-0.3
-0.2
-0.3
-0.2
-0.3
-0.2
-0.3
-0.2
-0.3
-0.2
-0.3
-0.2
-0.3
-0.3
-0.3
-0.3
-0.3
-0.3
-0.3
-0.3
-0.3
-0.3
-0.3
-0.2
-0.2
-0.2
-0.2
-0.2
-0.2
-0.2
-0.2
-0.2
-0.2
-0.2
-0.2
-0.2
-0.2
-0.3
-0.2
-0.3
-0.2
-0.3
-0.2
-0.3
-0.2
-0.3
-0.2
-0.3
-0.2
-0.3
-0.2
-0.3
-0.2
-0.3
-0.2
-0.3
-0.2
-0.3
-0.2
-0.3
-0.2
-0.3
-0.2
-0.3
-0.2
-0.3
-0.2
-0.3
-0.2
-0.3
-0.2
-0.3
-0.3
-0.3
-0.3
-0.3
-0.3
-0.3
-0.3
-0.3
-0.3
-0.3
-0.3
-0.4
-0.4
-0.4
-0.4
-0.4
-0.4
-0.4
-0.4
-0.4
-0.4
-0.4
-0.4
-0.4
-0.5
-0.4
-0.5
-0.4
-0.5
-0.4
-0.5
-0.4
-0.5
-0.4
-0.5
-0.4
-0.5
-0.4
-0.6
-0.4
-0.6
-0.4
-0.6
-0.4
-0.6
-0.4
-0.6
-0.4
-0.5
-0.4
-0.5
-0.4
-0.5
-0.4
-0.5
-0.4
-0.5
-0.4
-0.5
-0.4
-0.5
-0.4
-0.4
-0.4
-0.4
-0.4
-0.4
-0.5
-0.4
-0.5
-0.4
-0.5
-0.3
-0.5
-0.3
-0.5
-0.3
-0.5
-0.3
-0.5
-0.2
-0.5
-0.2
-0.5
-0.2
-0.5
-0.2
-0.5
-0.2
-0.5
-0.1
-0.5
-0.1
-0.4
-0.1
-0.4
-0.1
-0.4
-0.1
-0.4
-0.09
-0.4
-0.08
-0.4
-0.07
-0.4
-0.06
-0.4
-0.05
-0.4
-0.05
-0.4
-0.04
-0.4
-0.03
-0.3
-0.03
-0.3
-0.02
-0.3
-0.02
-0.3
-0.02
-0.3
-0.01
-0.3
-0.01
-0.2
-0.02
-0.2
-0.02
-0.2
-0.02
-0.2
-0.02
-0.1
-0.02
-0.1
-0.03
-0.1
-0.03
-0.08
-0.03
-0.05
-0.04
-0.03
-0.04
-0.01
-0.04
0.008
-0.05
0.03
-0.05
0.04
-0.06
0.06
-0.06
0.07
-0.07
0.08
-0.07
0.09
-0.08
0.09
-0.08
0.09
-0.09
0.09
-0.1
0.08
-0.1
0.07
-0.1
0.06
-0.1
0.05
-0.1
0.03
-0.1
0.02
-0.1
0.002
-0.1
-0.02
-0.1
-0.03
-0.1
-0.05
-0.1
-0.07
-0.1
-0.09
-0.1
-0.1
-0.1
-0.1
-0.1
-0.2
-0.1
-0.2
-0.1
-0.2
-0.1
-0.2
-0.1
-0.2
-0.1
-0.2
-0.1
-0.2
-0.1
-0.3
-0.2
-0.3
-0.2
-0.3
-0.2
-0.3
-0.2
-0.3
-0.2
-0.3
-0.2
-0.3
-0.2
-0.3
-0.2
-0.3
-0.2
-0.3
-0.2
-0.3
-0.2
-0.3
-0.2
-0.3
-0.2
-0.3
-0.2
-0.3
-0.2
-0.3
-0.2
-0.3
-0.2
-0.3
-0.3
-0.3
-0.3
-0.3
-0.3
-0.3
-0.3
-0.3
-0.3
-0.3
-0.3
-0.3
-0.2
-0.2
-0.2
-0.2
-0.2
-0.2
-0.2
-0.2
-0.2
-0.2
-0.2
-0.2
-0.2
-0.3
-0.2
-0.3
-0.3
-0.2
-0.3
-0.3
-0.2
-0.3
-0.3
-0.2
-0.3
-0.3
-0.2
-0.3
-0.3
-0.2
-0.3
-0.3
-0.2
-0.3
-0.3
-0.2
-0.3
-0.2
-0.3
-0.2
-0.3
-0.2
-0.3
-0.2
-0.3
-0.2
-0.3
-0.2
-0.3
-0.2
-0.3
-0.2
-0.3
-0.2
-0.3
-0.2
-0.2
-0.3
-0.3
-0.3
-0.4
-0.3
-0.3
-0.4
-0.3
-0.3
-0.3
-0.3
-0.4
-0.3
-0.3
-0.4
-0.3
-0.3
-0.4
-0.3
-0.3
-0.3
-0.4
-0.3
-0.4
-0.3
-0.4
-0.3
-0.4
-0.3
-0.4
-0.4
-0.5
-0.4
-0.5
-0.4
-0.5
-0.4
-0.5
-0.4
-0.5
-0.4
-0.5
-0.4
-0.5
-0.4
-0.5
-0.4
-0.4
-0.4
-0.6
-0.4
-0.4
-0.6
-0.4
-0.4
-0.6
-0.4
-0.4
-0.6
-0.4
-0.4
-0.5
-0.4
-0.4
-0.5
-0.4
-0.4
-0.5
-0.4
-0.4
-0.5
-0.4
-0.5
-0.4
-0.5
-0.4
-0.4
-0.4
-0.4
-0.4
-0.4
-0.4
-0.4
-0.5
-0.4
-0.5
-0.3
-0.5
-0.3
-0.5
-0.3
-0.3
-0.5
-0.3
-0.3
-0.5
-0.2
-0.2
-0.5
-0.2
-0.2
-0.5
-0.2
-0.2
-0.5
-0.2
-0.2
-0.5
-0.2
-0.2
-0.5
-0.1
-0.2
-0.5
-0.1
-0.5
-0.1
-0.4
-0.1
-0.4
-0.1
-0.4
-0.09
-0.4
-0.08
-0.4
-0.07
-0.4
-0.06
-0.4
-0.05
-0.4
-0.05
-0.4
-0.04
-0.4
-0.03
-0.4
-0.03
-0.3
-0.3
-0.02
-0.3
-0.3
-0.02
-0.3
-0.3
-0.02
-0.3
-0.3
-0.01
-0.3
-0.3
-0.01
-0.2
-0.3
-0.02
-0.2
-0.2
-0.02
-0.2
-0.2
-0.02
-0.2
-0.02
-0.2
-0.02
-0.1
-0.03
-0.1
-0.03
-0.09
-0.03
-0.07
-0.04
-0.04
-0.04
-0.03
-0.04
-0.001
-0.05
0.02
-0.05
-0.06
0.03
-0.06
-0.06
0.05
-0.07
-0.07
0.06
-0.07
-0.07
0.08
-0.08
-0.08
0.08
-0.08
-0.09
0.09
-0.09
-0.09
0.09
-0.1
-0.1
0.09
-0.1
0.09
-0.1
0.07
-0.1
0.07
-0.1
0.06
-0.1
0.04
-0.1
0.03
-0.1
0.01
-0.1
-0.01
-0.1
-0.02
-0.1
-0.04
-0.1
-0.06
-0.1
-0.08
-0.1
-0.1
-0.1
-0.1
-0.1
-0.1
-0.1
-0.1
-0.2
-0.2
-0.1
-0.2
-0.2
-0.1
-0.2
-0.2
-0.1
-0.2
-0.2
-0.1
-0.2
-0.2
-0.1
-0.2
-0.2
-0.1
-0.2
-0.1
-0.3
-0.1
-0.3
-0.1
-0.3
-0.1
-0.3
-0.2
-0.3
-0.2
-0.3
-0.2
-0.3
-0.2
-0.3
-0.2
-0.3
-0.2
-0.3
-0.2
-0.2
-0.3
-0.2
-0.2
-0.3
-0.2
-0.2
-0.3
-0.2
-0.2
-0.3
-0.2
-0.2
-0.3
-0.2
-0.2
-0.3
-0.2
-0.2
-0.3
-0.2
-0.3
-0.2
-0.3
-0.3
-0.3
-0.3
-0.3
-0.3
-0.3
-0.3
-0.3
-0.3
-0.3
-0.3
SCALARS strain_1 float
LOOKUP_TABLE default
-0.465794
-0.303890
0.286563
-1.189136
1.079030
-1.878365
1.887075
-2.538245
2.749052
-3.156581
3.621856
-3.762302
4.523680
-4.312460
5.459647
-4.843316
6.431113
-5.352938
7.434894
-5.818993
8.455618
-6.256277
9.505115
-6.666870
10.593271
-7.038710
11.691276
-7.394035
12.829138
-7.704164
13.981242
-7.979992
15.148408
-8.249137
16.356643
-8.498784
17.578114
-8.692219
18.815726
-8.868281
20.064829
-9.019685
21.344826
-9.148510
22.632627
-9.246129
23.936516
-9.326479
25.259416
-9.374590
26.592869
-9.409870
27.930655
-9.424074
29.280668
-9.431250
30.649127
-9.382610
32.015013
-9.347644
33.365258
-9.285126
34.734002
-9.196320
36.097429
37.477843
-9.104547
38.824446
-8.982408
40.189453
-8.852002
41.540006
-8.709597
42.882668
-8.565472
44.214979
-8.400153
45.536290
-8.219770
46.844878
-8.041097
48.124824
-7.832795
49.405041
-7.639343
50.657168
-7.423802
51.891919
-7.204750
53.101302
-6.979807
54.278481
55.439134
-6.747535
-6.512007
56.576287
-6.281064
57.672693
-6.034015
58.734654
-5.797999
59.763611
-5.553167
60.775634
-5.311534
61.726608
-5.076557
62.659101
-4.841443
63.545981
-4.596833
64.392806
-4.382084
65.177208
-4.119481
65.940151
-3.928205
66.680132
-3.692111
67.330586
-3.473000
67.958487
-3.274474
68.551686
-3.054459
69.062565
-2.864545
69.544627
-2.677529
-2.490320
69.977225
-2.318439
70.344678
-2.153163
70.669768
-1.988672
70.943050
-1.858947
71.169855
-1.711310
71.352191
-1.583536
71.473073
-1.461882
71.549384
-1.340888
71.554984
-1.245536
71.531797
-1.161566
71.429119
-1.074763
71.292199
-1.003727
71.094125
-0.970237
70.859492
-0.904997
70.562161
-0.869358
70.210104
-0.831728
69.813065
-0.823075
69.372678
-0.810212
68.882434
-0.808704
68.344603
-0.826787
67.745468
-0.846922
67.116821
-0.868422
66.447653
-0.910885
65.733370
-0.970179
64.971740
-1.034914
64.172844
-1.094852
63.331744
-1.155676
62.444721
-1.250630
61.538464
-1.343626
60.587542
-1.442034
59.604707
-1.547374
58.584692
-1.648190
57.554268
-1.759947
56.471305
-1.888272
55.389924
-2.012719
54.263453
-2.151645
53.114660
-2.282623
51.941557
-2.438162
50.757138
-2.583159
49.556604
-2.716909
48.332586
-2.871451
47.097607
-3.028265
45.865787
-3.190315
44.593993
-3.351543
43.340411
-3.497346
42.060192
-3.653382
40.786855
-3.812616
39.489234
-3.979477
38.209258
-4.145438
36.927736
-4.296162
35.637909
-4.455576
34.371121
-4.611286
33.100456
-4.767226
31.821863
-4.900244
30.560804
-5.062847
29.308203
-5.190878
28.063903
-5.330490
26.823949
-5.468297
25.619929
-5.601875
24.420294
-5.722463
23.224527
-5.829840
22.044542
-5.949915
20.907921
-6.051209
19.763817
-6.143769
18.634930
-6.238348
17.554783
-6.328638
16.470001
-6.398290
15.419733
-6.459776
14.387951
-6.514324
13.378672
-6.546349
12.392695
-6.582702
11.443082
-6.601445
10.497685
-6.619918
9.591638
-6.605913
8.715869
-6.592161
7.858410
-6.559383
7.023008
-6.506126
6.212813
-6.444863
5.432805
-6.383898
4.700433
-6.294172
3.956223
-6.182556
3.273627
-6.055863
2.606499
-5.918513
1.959944
-5.771726
1.324174
-5.574000
0.742152
-5.372954
0.178819
-5.171019
-0.348253
-4.909247
-0.858982
-4.679175
-1.360577
-4.383885
-1.825715
-4.094419
-2.252563
-3.777951
-2.680439
-3.426157
-3.075168
0.449208
-1.045968
1.253848
-1.742006
2.085747
-2.408118
2.930646
-3.047244
3.822334
-3.643053
4.744963
-4.217877
5.703172
-4.760392
6.691211
-5.264249
7.685281
-5.739728
8.724693
-6.194409
9.775000
-6.594977
10.872728
-6.980527
11.999045
-7.315181
13.126976
-7.646818
14.293269
-7.941146
15.486295
-8.196849
16.686908
-8.434331
17.917043
-8.654599
19.173778
-8.819719
20.420476
-8.983915
21.705441
-9.115577
22.998648
-9.213911
24.312532
-9.296256
25.630584
-9.354344
26.968782
-9.395782
28.298174
-9.402893
29.640114
-9.391827
30.993347
-9.363483
32.337104
-9.312745
33.716052
-9.251627
35.073635
-9.178945
36.424591
-9.077265
37.776109
-8.965315
39.124853
-8.842994
40.465563
-8.692402
41.793327
-8.546908
43.107610
-8.379691
44.413406
-8.186178
45.704094
-8.005454
46.979878
-7.827559
48.226191
-7.623984
49.466437
-7.403053
50.695837
-7.207062
51.878545
-6.987089
53.018229
-6.748799
54.170361
-6.529719
55.268891
-6.293006
56.341365
-6.057035
57.385526
-5.837623
58.398063
-5.597925
59.363536
-5.374136
60.296934
-5.130406
61.195266
-4.917921
62.031636
-4.681702
62.848247
-4.462907
63.604404
-4.225094
64.343396
-4.012025
65.008781
-3.796889
65.644947
-3.604779
66.223151
-3.406430
66.744464
-3.201201
67.245921
-3.037452
67.671590
-2.847869
68.060479
-2.686813
68.387622
-2.532721
68.660925
-2.391282
68.883623
-2.229698
69.070684
-2.095755
69.175781
-1.978633
69.262847
-1.869739
69.275671
-1.758497
69.215662
-1.665222
69.143433
-1.597294
68.989486
-1.517155
68.798076
-1.457592
68.541554
-1.391058
68.248821
-1.360461
67.885008
-1.327510
67.492680
-1.306689
67.037716
-1.302054
66.534481
-1.295113
65.980827
-1.299715
65.398688
-1.319562
64.769084
-1.345435
64.078784
-1.374702
63.338362
-1.428906
62.573257
-1.491967
61.757058
-1.539533
60.915709
-1.621699
60.024757
-1.689453
59.115379
-1.775296
58.168854
-1.870745
57.154624
-1.974879
56.147817
-2.071120
55.087011
-2.198116
54.013008
-2.314147
52.910394
-2.448322
51.797291
-2.563334
50.648386
-2.703418
49.469231
-2.840054
48.288092
-2.987448
47.078579
-3.123174
45.853071
-3.268755
44.628008
-3.413513
43.383941
-3.565770
42.130575
-3.714359
40.865813
-3.881996
39.608753
-4.026264
38.334547
-4.179186
37.064901
-4.336621
35.785973
-4.492292
34.500275
-4.645460
33.241470
-4.791567
31.981788
-4.950161
30.717178
-5.089782
29.481154
-5.216819
28.222274
-5.377209
27.000453
-5.496276
25.783764
-5.616999
24.582305
-5.750410
23.370032
-5.863579
22.199267
-5.964820
21.052168
-6.087619
19.903536
-6.186091
18.787287
-6.271011
17.665783
-6.358528
16.591832
-6.433761
15.531120
-6.477197
14.486901
-6.549905
13.477200
-6.587195
12.482589
-6.620096
11.519384
-6.652769
10.583404
-6.647159
9.660971
-6.653332
8.769602
-6.640765
7.896597
-6.591427
7.057310
-6.561244
6.247807
-6.500401
5.462074
-6.419680
4.717550
-6.340789
3.975147
-6.251310
3.266470
-6.115472
2.599425
-5.962812
1.947515
-5.804473
1.322424
-5.643113
0.731099
-5.447261
0.158639
-5.231072
-0.377650
-4.978674
-0.900106
-4.740249
-1.406682
-4.459279
-1.860627
-4.157227
-2.312505
-3.828745
-3.489682
-2.732299
-3.123668
0.145564
-0.754128
0.788020
-1.476656
1.573985
-2.153916
2.398921
-2.786057
3.280244
-3.420177
4.170368
-3.974031
5.054913
5.805812
-4.589866
6.769944
6.287284
-5.065268
7.790374
7.320965
-5.554297
8.331790
8.849536
-5.989931
9.391898
9.929882
-6.340630
11.018642
10.445717
-6.819050
11.561480
12.146547
-7.186658
13.352084
12.686013
-7.523201
14.201258
-7.821964
15.332191
-8.103012
16.521538
-8.399478
17.746345
-8.574401
18.988802
-8.759690
20.239771
-8.934192
21.474820
-9.053974
22.553136
-9.190955
24.134807
-9.283492
25.443817
-9.340444
-9.369492
26.772180
-9.411366
-9.395867
28.129062
-9.421923
-9.402399
29.460118
-9.405148
-9.407867
-9.388017
-9.368811
31.118832
-9.345086
-9.318800
32.368928
-9.283809
-9.245971
33.736146
-9.216823
-9.161044
35.150243
-9.087675
36.929477
-8.964837
39.240981
-8.850452
40.326641
-8.707746
41.391051
-8.554369
42.997391
-8.400671
44.314169
-8.243953
45.620335
-8.020901
47.152806
-7.825123
48.218228
-7.626504
49.429791
-7.368954
50.661551
-7.201831
51.877390
-7.022565
53.063558
54.177349
55.075081
-6.605511
56.158086
55.632043
-6.327166
57.311548
56.738217
-6.076049
57.794115
58.343388
-5.833482
58.823860
59.344202
-5.627384
59.804118
60.304297
-5.343153
60.745854
61.261237
-5.113138
61.658959
62.246979
-4.876539
62.828437
-4.637889
63.613005
-4.422164
64.382958
-4.141253
65.126205
-3.958228
65.811602
-3.755500
66.473718
-3.540059
67.056877
-3.329651
67.520667
-3.154443
68.141856
-2.953291
68.597975
-2.782989
-2.638135
69.005339
-2.551366
-2.465491
69.364292
-2.391205
-2.307382
69.669041
-2.219300
-2.140424
69.974681
-2.088098
-2.005744
70.115157
-1.866224
-1.949535
70.256048
-1.821061
-1.752467
70.371876
-1.631692
-1.694065
70.406500
-1.560410
70.395438
-1.456049
70.326557
-1.386009
70.195374
-1.300743
70.042736
-1.238241
69.813668
-1.187937
69.542659
-1.147627
69.151952
-1.101751
68.828706
-1.084122
68.428809
-1.063068
67.938889
-1.055916
67.431035
-1.052333
66.881354
-1.077635
66.293018
65.880904
-1.113905
65.405535
65.089330
-1.130487
64.674019
64.344909
-1.171759
63.607160
63.936219
-1.221917
63.167164
62.759703
-1.266514
61.945511
62.351385
-1.350261
61.428833
61.008726
-1.434917
60.055116
60.512707
-1.507117
59.330728
-1.612325
58.392665
-1.711504
57.355514
-1.840444
56.316502
-1.925354
55.243854
-2.045507
54.142344
-2.156414
53.044707
-2.284928
52.098948
-2.428649
50.700660
-2.569181
49.503910
-2.704615
-2.800145
48.302252
-2.888404
-2.947763
47.074862
-3.044599
-3.118492
45.862739
-3.195611
-3.261122
44.350091
-3.343953
-3.413063
43.325459
-3.495206
-3.570330
42.091535
-3.645102
-3.739737
40.831413
-3.808627
-3.886316
39.590164
-4.007022
38.562097
-4.167302
36.726110
-4.321347
35.710135
-4.477964
34.703922
-4.633909
33.171113
-4.774421
31.901959
-4.892163
30.641560
-5.083904
29.112379
-5.224394
28.096898
-5.342307
26.900291
-5.512319
25.689357
-5.610496
24.493244
-5.700034
23.309191
-5.878900
22.199296
-5.938062
21.352246
20.686778
-6.098065
20.167313
19.531000
-6.174449
18.980964
18.431695
-6.248454
17.880728
17.355535
-6.322881
16.803300
16.293608
-6.410992
15.693386
15.195834
-6.484233
14.675822
14.201203
-6.535676
13.626099
-6.561928
12.887536
-6.606223
11.944740
-6.623639
10.999589
-6.627843
10.078686
-6.629597
9.189566
-6.603549
8.320856
-6.574770
7.494245
-6.533156
6.803706
-6.471385
5.847938
-6.399607
5.080074
-6.337173
-6.288826
4.332092
-6.239358
-6.185104
3.610662
-6.119785
-6.053705
2.932752
-5.966474
-5.903000
2.135891
-5.749645
-5.836385
1.605270
-5.642584
-5.566543
1.031519
-5.356370
-5.462291
0.471946
-5.232764
-0.030145
-5.061793
-0.628088
-4.821640
-1.137265
-4.562043
-1.611315
-4.269572
-2.061708
-3.963321
-2.484106
-3.638369
-3.358168
-2.890105
SCALARS strain_2 float
LOOKUP_TABLE default
0.216341
0.150762
-0.091484
0.484619
-0.409911
0.766938
-0.753329
1.013740
-1.106489
1.240397
-1.482916
1.457882
-1.886634
1.663517
-2.297354
1.831294
-2.734006
2.009554
-3.187650
2.166803
-3.663900
2.306216
-4.167617
2.431699
-4.669856
2.538004
-5.211250
2.644183
-5.769187
2.736679
-6.333421
2.812700
-6.927587
2.868838
-7.543873
2.918763
-8.176765
2.971510
-8.820623
3.003292
-9.481643
3.033290
-10.168233
3.044406
-10.876945
3.057662
-11.594083
3.055121
-12.323898
3.040346
-13.075384
3.032741
-13.862817
3.007433
-14.625237
2.982125
-15.413289
2.941948
-16.212782
2.909988
-17.038593
2.872956
-17.873708
2.820021
-18.704311
-19.564177
2.768020
-20.413603
2.712972
-21.272577
2.655853
-22.142533
2.599253
-23.018803
2.543072
-23.884876
2.465858
-24.765006
2.403393
-25.661367
2.340572
-26.520927
2.265579
-27.398716
2.183197
-28.265148
2.125328
-29.144361
2.061582
-30.009194
1.978580
-30.873313
-31.716260
1.898921
1.824345
-32.545102
1.761338
-33.367239
1.684923
-34.207777
1.611968
-34.995642
1.545078
-35.787917
1.472197
-36.565267
1.400805
-37.326067
1.327759
-38.056859
1.260413
-38.769178
1.200876
-39.448962
1.137224
-40.126797
1.065939
-40.777375
1.008439
-41.397607
0.954982
-41.982571
0.893653
-42.548684
0.832783
-43.103866
0.792820
-43.597623
0.738372
0.688553
-44.081455
0.645697
-44.527353
0.598377
-44.934537
0.561036
-45.312858
0.522475
-45.658613
0.490309
-45.966005
0.450180
-46.243683
0.419463
-46.483026
0.394769
-46.669980
0.371034
-46.843668
0.342545
-46.945579
0.311431
-47.063442
0.302999
-47.091987
0.296416
-47.124298
0.283539
-47.083701
0.270781
-47.020409
0.261940
-46.920370
0.265518
-46.772779
0.258823
-46.592490
0.256805
-46.381661
0.275988
-46.125848
0.265752
-45.839158
0.287294
-45.497641
0.298195
-45.121376
0.318246
-44.732550
0.336661
-44.299750
0.374938
-43.833062
0.399694
-43.324016
0.427324
-42.790648
0.464214
-42.226936
0.505651
-41.643577
0.542045
-41.000637
0.595384
-40.351757
0.644749
-39.658721
0.696993
-38.965045
0.760232
-38.226388
0.799107
-37.468336
0.863093
-36.694772
0.939657
-35.891604
0.989667
-35.080291
1.074061
-34.243339
1.142484
-33.385355
1.228659
-32.515341
1.310531
-31.647060
1.383139
-30.751548
1.475706
-29.847085
1.563970
-28.928506
1.669943
-28.013852
1.757415
-27.078540
1.863511
-26.150142
1.948995
-25.213491
2.048420
-24.273330
2.159283
-23.343285
2.252807
-22.407356
2.367979
-21.495044
2.462219
-20.559574
2.576351
-19.641326
2.681348
-18.713047
2.791772
-17.798281
2.907655
-16.891258
3.011450
-16.017590
3.112342
-15.139411
3.232334
-14.273687
3.331296
-13.413293
3.421352
-12.579841
3.532919
-11.762557
3.623075
-10.941773
3.719667
-10.163859
3.811494
-9.384967
3.890516
-8.642816
3.982536
-7.893553
4.044957
-7.173804
4.119567
-6.478176
4.183316
-5.821795
4.241111
-5.162647
4.284315
-4.538946
4.337478
-3.926750
4.366208
-3.327753
4.385175
-2.767832
4.402581
-2.237465
4.404388
-1.713329
4.400162
-1.234347
4.377933
-0.759145
4.345787
-0.302485
4.297758
0.120131
4.229711
0.527990
4.153021
0.901319
4.074644
1.274540
3.965194
1.596264
3.842971
1.914091
3.697866
2.205812
3.544169
2.474830
3.372992
2.740914
3.186279
2.969519
-0.159758
0.434124
-0.479478
0.706433
-0.831340
0.968659
-1.197652
1.200165
-1.593268
1.431966
-1.984140
1.617171
-2.408949
1.827932
-2.856685
2.002223
-3.331980
2.160439
-3.813092
2.297209
-4.315858
2.429126
-4.830034
2.533870
-5.378407
2.635846
-5.953152
2.734705
-6.524110
2.805781
-7.135797
2.879723
-7.760993
2.942379
-8.391358
2.980696
-9.043846
3.020324
-9.723684
3.040398
-10.426796
3.062763
-11.134743
3.076470
-11.862266
3.065277
-12.615551
3.057156
-13.360038
3.052373
-14.132553
3.028964
-14.913550
2.998421
-15.720570
2.971029
-16.526604
2.934208
-17.338350
2.899594
-18.168337
2.845718
-19.021889
2.794806
-19.857121
2.731028
-20.708655
2.696621
-21.570365
2.630100
-22.435627
2.563710
-23.299506
2.502722
-24.172485
2.426309
-25.043538
2.362435
-25.911033
2.291844
-26.766142
2.226416
-27.626397
2.157377
-28.491287
2.072317
-29.328386
2.011046
-30.179679
1.930268
-31.017760
1.853209
-31.827348
1.801002
-32.639288
1.721692
-33.447903
1.646334
-34.222408
1.582876
-34.998882
1.513422
-35.753734
1.439461
-36.473476
1.363587
-37.188707
1.302701
-37.881690
1.247907
-38.543954
1.183255
-39.193529
1.122949
-39.812293
1.076186
-40.393249
1.013594
-40.950504
0.956557
-41.491107
0.902714
-42.001438
0.855733
-42.458403
0.814824
-42.902109
0.760966
-43.307354
0.713852
-43.691565
0.692709
-44.026976
0.651907
-44.332218
0.615182
-44.598326
0.566086
-44.829418
0.554485
-45.017995
0.519140
-45.178903
0.486944
-45.294752
0.471373
-45.385898
0.455498
-45.414322
0.434612
-45.411586
0.438906
-45.383160
0.415455
-45.317865
0.409579
-45.204563
0.412681
-45.041245
0.405986
-44.855338
0.411764
-44.630552
0.423967
-44.366605
0.442014
-44.066135
0.447041
-43.715065
0.475470
-43.347779
0.482311
-42.930647
0.497504
-42.483046
0.530012
-42.005897
0.549977
-41.487704
0.599687
-40.946225
0.629736
-40.374463
0.665569
-39.749569
0.706386
-39.131660
0.765637
-38.463232
0.814583
-37.783149
0.857772
-37.057329
0.917108
-36.317585
0.990068
-35.559728
1.041915
-34.777852
1.110651
-33.969231
1.176181
-33.154846
1.259663
-32.304125
1.327076
-31.449018
1.406803
-30.585718
1.485570
-29.699407
1.582350
-28.827544
1.661768
-27.916861
1.762702
-27.013329
1.852355
-26.085074
1.951746
-25.181623
2.050682
-24.248007
2.154297
-23.331816
2.248144
-22.410183
2.342742
-21.486634
2.463407
-20.561739
2.554512
-19.645597
2.661880
-18.745159
2.771878
-17.838039
2.875121
-16.928608
2.996810
-16.044313
3.106213
-15.171568
3.201157
-14.305366
3.302927
-13.459828
3.398234
-12.624325
3.512634
-11.797010
3.590634
-10.977845
3.701949
-10.181605
3.791069
-9.401913
3.885009
-8.654255
3.953755
-7.920677
4.035552
-7.210556
4.093919
-6.502879
4.162583
-5.838303
4.219114
-5.183097
4.276459
-4.540075
4.306588
-3.945240
4.358840
-3.351212
4.380983
-2.779712
4.393807
-2.233171
4.395482
-1.720860
4.375180
-1.224109
4.372339
-0.748516
4.346811
-0.295797
4.293629
0.125274
4.225115
0.541424
4.158633
0.899554
4.070516
1.280115
3.966753
1.615711
3.846267
1.927711
3.717985
2.213172
3.555408
2.492488
3.390558
3.187537
2.739773
2.980288
-0.025162
0.326926
-0.308560
0.587774
-0.619536
0.851762
-0.970376
1.106080
-1.343119
1.340321
-1.719559
1.549986
-2.134447
-2.448020
1.764987
-2.892584
-2.679375
1.928563
-3.357444
-3.147996
2.077763
-3.611171
-3.857727
2.224265
-4.120697
-4.386094
2.333891
-4.874952
-4.625514
2.492237
-5.162121
-5.436008
2.587303
-6.040347
-5.711216
2.691245
-6.466100
2.772432
-7.033118
2.835779
-7.655815
2.927718
-8.280418
2.953983
-8.936549
2.988667
-9.609791
3.033047
-10.265917
3.042129
-10.847467
3.055780
-11.733264
3.062697
-12.463295
3.057232
3.046040
-13.219876
3.033969
3.031557
-13.982741
3.012507
3.023280
-14.773473
2.991667
3.002500
2.975546
2.952536
-15.745739
2.940162
2.906867
-16.479301
2.894670
2.862061
-17.314627
2.852119
2.804116
-18.166760
2.783332
-19.266064
2.724436
-20.728490
2.675310
-21.418709
2.610009
-22.116484
2.554634
-23.165137
2.481340
-24.023726
2.432652
-24.895891
2.339845
-25.940432
2.282502
-26.671154
2.203612
-27.512389
2.117359
-28.369076
2.060159
-29.243141
2.006926
-30.085463
-30.892532
-31.541716
1.864979
-32.402239
-31.985229
1.787625
-33.236444
-32.806125
1.696301
-33.623600
-34.038079
1.649287
-34.414189
-34.829425
1.574696
-35.183232
-35.599456
1.488026
-35.949547
-36.359233
1.414743
-36.687724
-37.151702
1.360443
-37.657556
1.278749
-38.324937
1.238685
-38.996552
1.155338
-39.651140
1.099464
-40.267818
1.026784
-40.880378
0.987818
-41.440036
0.930007
-41.908008
0.878109
-42.539445
0.828244
-43.030004
0.778294
0.745258
-43.493150
0.718209
0.696035
-43.922627
0.675247
0.645569
-44.299591
0.639271
0.615537
-44.742220
0.597649
0.573275
-44.993315
0.531846
0.560927
-45.272578
0.517579
0.503758
-45.523045
0.460077
0.487864
-45.701580
0.463557
-45.925495
0.433174
-46.077232
0.407013
-46.173642
0.382444
-46.236894
0.358707
-46.258778
0.366456
-46.255475
0.363994
-46.185711
0.352851
-46.111841
0.340756
-45.980008
0.337183
-45.812833
0.334111
-45.616826
0.334992
-45.378924
0.355983
-45.111752
-44.939765
0.354646
-44.661450
-44.518887
0.375108
-44.298095
-44.126148
0.387296
-43.747347
-43.911618
0.406743
-43.494029
-43.287224
0.419306
-42.820485
-43.039359
0.465065
-42.520471
-42.276268
0.493009
-41.721000
-41.972676
0.518487
-41.261541
0.565595
-40.694739
0.611169
-40.037821
0.652190
-39.390026
0.703045
-38.708861
0.746312
-37.975285
0.807820
-37.279449
0.868787
-36.658321
0.917627
-35.723968
0.991483
-34.919061
1.046178
1.105553
-34.104759
1.153671
1.185675
-33.264527
1.225603
1.263753
-32.409588
1.294095
1.335386
-31.363928
1.390777
1.410882
-30.646902
1.459695
1.501365
-29.778782
1.552432
1.593238
-28.866734
1.639387
1.694306
-27.998214
1.760304
-27.253872
1.848282
-25.923727
1.946654
-25.199588
2.052369
-24.450387
2.163643
-23.345633
2.249248
-22.414514
2.340979
-21.477838
2.470667
-20.343057
2.567740
-19.589225
2.676681
-18.705360
2.799694
-17.813267
2.889229
-16.923263
2.981366
-16.026153
3.127584
-15.202238
3.186693
-14.581253
-14.076339
3.337222
-13.689385
-13.212398
3.420683
-12.797467
-12.382576
3.509261
-11.980710
-11.582286
3.588945
-11.174074
-10.785226
3.703351
-10.351056
-9.962268
3.796164
-9.572221
-9.224375
3.876927
-8.787393
3.967758
-8.236142
4.034639
-7.543401
4.138185
-6.830900
4.191035
-6.159827
4.244351
-5.487042
4.282248
-4.865524
4.336990
-4.248843
4.350815
-3.746741
4.368458
-3.049944
4.400497
-2.505762
4.386952
4.403025
-1.978896
4.385548
4.396840
-1.465041
4.381833
4.365516
-0.979473
4.339163
4.335822
-0.441049
4.277410
4.296687
-0.059822
4.252320
4.208601
0.328419
4.146055
4.187728
0.710301
4.099066
1.037695
4.034232
1.436410
3.912294
1.767780
3.775743
2.075632
3.629998
2.347290
3.462577
2.624819
3.294422
3.121919
2.859178
SCALARS strain_3 float
LOOKUP_TABLE default
1.721883
1.099681
-1.169703
4.493938
-4.177639
7.151660
-7.295421
9.689669
-10.526316
12.099995
-13.869084
14.394699
-17.321994
16.574727
-20.879890
18.627851
-24.532256
20.565625
-28.291635
22.376931
-32.143112
24.073681
-36.092407
25.650126
-40.126921
27.111353
-44.249679
28.452328
-48.447610
29.676690
-52.723005
30.795757
-57.075236
31.791789
-61.496971
32.691266
-65.975595
33.474482
-70.515752
34.153385
-75.106300
34.730493
-79.740022
35.205783
-84.421902
35.590207
-89.142410
35.871287
-93.881132
36.066679
-98.649052
36.169046
-103.438821
36.190055
-108.232613
36.122973
-113.037002
35.983025
-117.834767
35.769442
-122.632849
35.479138
-127.415618
35.122091
-132.174756
-136.909037
34.697545
-141.610140
34.221447
-146.269155
33.680969
-150.883139
33.087288
-155.440253
32.446127
-159.951462
31.755850
-164.383569
31.031811
-168.743636
30.262862
-173.035328
29.461675
-177.233489
28.626010
-181.342021
27.769021
-185.353720
26.887264
-189.261140
25.986683
-193.064878
-196.747485
25.067864
24.142496
-200.308599
23.197979
-203.742223
22.254664
-207.053624
21.301410
-210.232780
20.360892
-213.258823
19.420255
-216.152021
18.484848
-218.888567
17.555373
-221.477503
16.642187
-223.905158
15.737069
-226.179112
14.854163
-228.281423
13.991116
-230.221131
13.151069
-231.994082
12.329482
-233.597487
11.539871
-235.023543
10.770618
-236.271999
10.033402
-237.346665
9.327350
8.651083
-238.246325
8.008500
-238.963668
7.401388
-239.509682
6.828885
-239.866443
6.292181
-240.049582
5.784660
-240.047034
5.318625
-239.872842
4.892095
-239.520927
4.503474
-238.984459
4.141735
-238.284818
3.822134
-237.404079
3.541343
-236.355432
3.295439
-235.138291
3.086102
-233.752802
2.908198
-232.210078
2.766580
-230.507458
2.661233
-228.643980
2.592865
-226.636398
2.550728
-224.471047
2.537729
-222.163703
2.558483
-219.719266
2.607001
-217.135082
2.688636
-214.430319
2.787255
-211.590126
2.917135
-208.632699
3.072637
-205.563560
3.244601
-202.378462
3.443382
-199.092445
3.659818
-195.705904
3.898164
-192.229590
4.149627
-188.666112
4.421274
-185.015597
4.700406
-181.298589
4.997861
-177.504854
5.303636
-173.648347
5.624068
-169.739952
5.950840
-165.775434
6.280658
-161.765800
6.623159
-157.717920
6.966867
-153.638419
7.317261
-149.533173
7.669583
-145.403199
8.018817
-141.261580
8.371802
-137.111275
8.727557
-132.950596
9.079609
-128.794354
9.420155
-124.642454
9.769319
-120.502864
10.100018
-116.379771
10.431534
-112.281377
10.760442
-108.208447
11.071985
-104.166376
11.379347
-100.156788
11.680575
-96.189597
11.965177
-92.266663
12.240974
-88.391447
12.510893
-84.566413
12.760427
-80.800880
12.995672
-77.091699
13.221775
-73.443803
13.432756
-69.861479
13.621789
-66.346121
13.801082
-62.902258
13.959303
-59.529081
14.096822
-56.233814
14.220004
-53.011972
14.321287
-49.865421
14.403617
-46.799203
14.461388
-43.817378
14.496936
-40.914230
14.507459
-38.100430
14.496886
-35.358657
14.459117
-32.709950
14.391739
-30.141399
14.298666
-27.653524
14.179431
-25.258068
14.025384
-22.939939
13.836065
-20.711850
13.616480
-18.565915
13.364468
-16.497874
13.078697
-14.517286
12.749663
-12.615642
12.384106
-10.795894
11.974348
-9.051969
11.527128
-7.387446
11.029899
-5.803313
10.490125
-4.292052
9.909170
-2.850867
9.273638
-1.485658
8.586109
-0.187781
7.847954
1.039440
7.051142
2.200252
6.201549
3.293887
5.294320
4.323267
-1.822954
3.901716
-4.860312
6.587870
-8.009797
9.154101
-11.274555
11.596102
-14.648946
13.914812
-18.130624
16.116197
-21.724688
18.193382
-25.413787
20.151103
-29.194968
21.986146
-33.083698
23.698980
-37.051035
25.289448
-41.117570
26.762765
-45.261085
28.120606
-49.481908
29.361968
-53.782702
30.484865
-58.150158
31.497315
-62.581062
32.397957
-67.075176
33.190527
-71.616829
33.879150
-76.215657
34.461834
-80.854065
34.942097
-85.523729
35.324283
-90.230854
35.615328
-94.953942
35.809825
-99.697626
35.913722
-104.460541
35.933583
-109.220209
35.875588
-113.987613
35.731282
-118.736855
35.520043
-123.476961
35.228780
-128.195586
34.871852
-132.889419
34.454357
-137.544172
33.978221
-142.156665
33.447431
-146.721387
32.855622
-151.233455
32.219828
-155.682484
31.536484
-160.063830
30.816045
-164.364785
30.056895
-168.594620
29.266072
-172.724290
28.446836
-176.765253
27.601856
-180.705415
26.737797
-184.540520
25.855001
-188.261511
24.953318
-191.855712
24.047966
-195.339340
23.129652
-198.684692
22.207973
-201.899834
21.289844
-204.969979
20.369510
-207.901983
19.457068
-210.677648
18.556148
-213.305284
17.661358
-215.776720
16.782421
-218.084262
15.917368
-220.227548
15.078978
-222.205620
14.253423
-224.010899
13.453136
-225.648288
12.677950
-227.107666
11.926864
-228.387934
11.214859
-229.489475
10.524816
-230.417052
9.864041
-231.160668
9.242631
-231.720345
8.651048
-232.101576
8.094633
-232.298158
7.571888
-232.319983
7.087318
-232.153035
6.638694
-231.804892
6.221958
-231.285088
5.846004
-230.589132
5.508851
-229.713252
5.203028
-228.664913
4.933655
-227.451820
4.706913
-226.065326
4.506683
-224.518017
4.340022
-222.806138
4.217409
-220.942892
4.122213
-218.924516
4.060893
-216.751141
4.029886
-214.437701
4.027837
-211.979932
4.056312
-209.389211
4.110417
-206.668983
4.195499
-203.824395
4.308003
-200.852789
4.443894
-197.778732
4.597532
-194.587710
4.776359
-191.293795
4.976692
-187.901533
5.188276
-184.423637
5.422075
-180.853791
5.674172
-177.204835
5.940657
-173.484851
6.219072
-169.695707
6.508075
-165.848288
6.808142
-161.943375
7.114494
-157.994655
7.432390
-154.002164
7.752412
-149.974485
8.077485
-145.914441
8.408344
-141.837944
8.741200
-137.738667
9.077262
-133.628605
9.411292
-129.508283
9.743147
-125.392486
10.069059
-121.279672
10.397931
-117.184658
10.719014
-113.097083
11.034278
-109.033346
11.346024
-105.001164
11.645729
-100.988600
11.942047
-97.023291
12.223998
-93.089260
12.498924
-89.204367
12.760103
-85.366579
13.012790
-81.575557
13.248575
-77.844897
13.476376
-74.173034
13.681429
-70.567959
13.879360
-67.022489
14.057249
-63.550579
14.216077
-60.143958
14.361832
-56.814127
14.482199
-53.556372
14.585741
-50.377313
14.670266
-47.281256
14.728713
-44.262737
14.762551
-41.325344
14.782295
-38.472034
14.773196
-35.701863
14.734284
-33.017430
14.671675
-30.412291
14.577457
-27.897111
14.456657
-25.463981
14.302333
-23.118921
14.113760
-20.855486
13.901729
-18.681292
13.646943
-16.582077
13.354938
-14.572527
13.028280
-12.643763
12.656982
-10.798498
12.255852
-9.032492
11.798525
-7.341509
11.304205
-5.738155
10.757276
-4.200601
10.168031
-2.740481
9.527702
-1.360385
8.832523
-0.047290
8.086916
1.197079
7.282852
2.371220
6.423894
5.504456
3.477662
4.523472
-0.616815
2.817794
-3.096327
5.547315
-6.087624
8.154343
-9.265889
10.645553
-12.564739
13.018613
-15.951736
15.266166
-19.331972
-22.109226
17.602401
-25.803586
-23.967405
19.427504
-29.618324
-27.829630
21.277024
-31.621662
-33.598448
22.985875
-35.613692
-37.647367
24.356970
-41.669980
-39.565322
26.214437
-43.702750
-45.867286
27.625315
-50.416608
-47.868969
28.915198
-53.494142
30.092239
-57.646015
31.155676
-62.036929
32.288555
-66.513014
32.980263
-71.056754
33.690232
-75.617464
34.318106
-80.112644
34.847400
-83.988749
35.274707
-89.690960
35.607979
-94.410524
35.848821
35.967361
-99.169511
36.061414
36.025153
-103.939576
36.059306
36.063031
-108.719498
35.977545
36.024882
35.901825
35.810646
-114.560809
35.706565
35.582107
-118.939493
35.440203
35.267018
-123.765932
35.094653
34.866943
-128.654805
34.555020
-134.853855
34.089805
-142.796531
33.559971
-146.482842
32.970342
-150.149016
32.336598
-155.564461
31.677193
-160.007514
31.080642
-164.380838
30.158767
-169.464421
29.367831
-172.998587
28.537757
-177.003462
27.501481
-181.008043
26.817553
-184.942211
26.105039
-188.767072
-192.296822
-195.124548
24.492360
-198.641512
-196.909924
23.289635
-202.156563
-200.350752
22.314733
-203.680316
-205.302225
21.393763
-206.789795
-208.457692
20.562589
-209.754433
-211.314640
19.435638
-212.637751
-214.195729
18.517908
-215.344787
-217.103293
17.607913
-218.747506
16.714303
-220.969796
15.831663
-223.146368
14.794920
-225.186479
14.099223
-227.070834
13.305267
-228.759368
12.507673
-230.243277
11.741928
-231.397872
10.992764
-232.861536
10.288537
-233.863828
9.630888
9.098476
-234.683901
8.799293
8.490562
-235.320646
8.187857
7.857990
-235.787515
7.597491
7.323554
-236.160119
7.054791
6.777158
-236.150267
6.309963
6.569893
-236.055529
6.118093
5.863240
-235.843461
5.411846
5.685564
-235.486306
5.160320
-234.771196
4.826620
-233.983262
4.523464
-233.017269
4.243298
-231.886042
4.014915
-230.584604
3.819299
-229.122123
3.673233
-227.168550
3.498751
-225.630565
3.401237
-223.778113
3.336465
-221.656086
3.294963
-219.444180
3.292327
-217.113894
3.314392
-214.710276
-212.987245
3.366514
-211.160210
-209.882670
3.449658
-208.276347
-206.976861
3.553483
-204.086378
-205.391198
3.687533
-202.427914
-200.911207
3.800235
-197.774934
-199.310312
4.018822
-195.937893
-194.354669
4.221630
-190.812848
-192.545664
4.436936
-188.201308
4.671185
-184.764776
4.922555
-181.070041
5.248360
-177.358097
5.484472
-173.589929
5.769602
-169.736586
6.069348
-165.937618
6.382201
-162.661880
6.691727
-157.859267
7.030796
-153.822596
7.342534
7.559824
-149.753071
7.794001
7.945243
-145.662211
8.141899
8.292529
-141.549668
8.478184
8.621649
-136.558367
8.813386
8.972438
-133.143884
9.148425
9.308502
-129.117914
9.510819
9.663214
-125.025246
9.844668
9.993362
-121.013239
10.261132
-117.691769
10.575049
-111.861770
10.892846
-108.591584
11.209125
-105.371411
11.511985
-100.567680
11.801142
-96.600635
12.040446
-92.671235
12.372521
-87.950640
12.636160
-84.810808
12.885245
-81.151280
13.171974
-77.457310
13.347425
-73.802100
13.517584
-70.252490
13.779919
-66.881989
13.903209
-64.397335
-62.399537
14.119791
-60.838995
-58.969413
14.233576
-57.335445
-55.717824
14.348865
-54.094823
-52.535489
14.434643
-50.917006
-49.429835
14.537597
-47.721844
-46.242918
14.595199
-44.742817
-43.347164
14.635437
-41.700181
14.644761
-39.540918
14.633568
-36.866112
14.589074
-34.174973
14.529742
-31.552207
14.437362
-29.018414
14.314483
-26.575817
14.163627
-24.268033
13.976855
-22.361081
13.759385
-19.692436
13.512504
-17.571138
13.308140
13.140297
-15.533256
12.983590
12.803598
-13.578090
12.612438
12.414802
-11.703223
12.218685
12.010767
-9.544587
11.541461
11.777345
-8.136647
11.284510
11.030836
-6.556129
10.478559
10.759347
-5.032592
10.142013
-3.722227
9.685764
-2.101265
9.052988
-0.760817
8.343845
0.503811
7.571115
1.704860
6.751280
2.845002
5.892000
5.113617
3.914245
SCALARS stress_1 float
LOOKUP_TABLE default
-21216390.001660
-13864076.143186
13614821.324482
-54281578.347313
49564536.456923
-85831718.610665
87190131.560387
-115871130.571355
126328613.560883
-144682933.981200
167020639.476765
-171960025.225288
209000241.280213
-197408339.229625
252181323.769219
-221540147.966393
297027358.090153
-244319482.554142
343247273.453912
-265328774.772510
390677677.419772
-285134391.519685
439158523.006088
-303884012.575305
488964338.597944
-320255525.057920
540504820.580429
-335691567.893537
592714306.605164
-349909789.054339
646089259.598156
-362669770.833063
700849810.036839
-374201959.935356
756279381.700850
-384555732.140854
813041671.167819
-393498734.347747
870468279.896825
-400949845.289498
928817001.098765
-407684679.038485
988099995.379089
-412736851.566889
1047894896.169055
-417103112.754542
1108586200.707381
-420309173.527454
1169698693.792058
-422037191.545095
1231604009.707977
-423389039.000010
1293778132.427318
-423260840.918400
1356379528.647878
-422369844.859543
1419182790.975103
-420651936.703271
1482428881.060618
-418124746.742325
1545970215.509871
-414633873.269443
1609330381.020656
-410430769.751555
1672668818.611329
1735808298.566780
-405515708.160842
1798846646.318267
-399895180.697695
1861950871.737777
-393348227.141753
1924469008.476930
-386622188.932124
1986670466.407712
-379226520.389369
2048075534.961383
-371081346.539690
2109014664.643194
-362818473.896189
2169323712.471499
-354062891.705432
2228935465.777364
-344926390.067617
2287894453.799503
-335271350.642213
2345531751.235713
-325271578.483245
2402276511.957979
-315063088.516720
2458151459.710268
-304918389.163393
2512591394.685124
2565876689.259786
-294220006.936365
-283571651.302565
2617515248.480424
-272835080.775096
2668075362.824473
-262012467.774712
2717018907.017549
-250970066.181246
2764173146.711271
-240037329.048723
2809827396.823800
-229166925.623708
2854008828.273292
-218565029.593492
2896020019.344638
-207909654.425003
2935990892.130184
-197308669.805532
2974579050.373900
-186989176.981646
3011054431.755227
-176915861.227729
3045075391.605228
-166803424.423616
3077476188.429156
-157215366.577157
3107608552.511901
-147501621.788546
3135704406.579077
-138319722.478540
3161384842.595016
-129318786.334430
3184895269.385529
-120694072.730796
3205937900.181483
-112392956.814009
-104537145.545745
3224676000.029051
-97209133.879830
3240898772.479659
-89784630.016657
3255030700.451466
-83129215.450974
3266722074.670086
-76748871.649709
3275922417.640771
-70944555.253979
3282498357.548215
-65021894.904902
3286760615.438591
-60080391.656502
3288694028.542768
-55375723.416430
3288056357.906917
-51320237.559268
3284837111.715733
-47656636.625939
3279321460.694829
-44018628.624290
3271532655.349461
-41157330.828708
3261382731.038508
-38734548.293215
3248525499.533760
-36595958.512559
3233857409.881390
-35145493.081684
3216191843.312265
-33552462.734054
3196543809.092921
-32827358.238802
3174677311.628414
-31991810.549755
3150488625.423996
-32301319.895124
3124111145.425644
-33065610.916027
3095723546.358974
-33937849.107211
3065147352.216135
-34813087.743062
3032525172.456207
-36164666.638886
2998341683.704608
-38189768.748510
2961575832.053685
-40346500.841065
2923618484.449414
-42930349.870380
2883693548.250679
-45693759.651761
2841868706.816362
-49133671.679954
2798695322.679535
-52567603.229345
2753623206.345450
-56214143.381777
2707338089.613714
-60271800.585823
2659696037.530501
-64335645.795310
2610477039.134135
-69039337.779371
2560204759.278246
-73572219.712195
2508806818.588252
-78558959.629451
2456015603.376862
-83325266.805523
2402476109.223322
-88482546.955522
2348056066.027435
-94015741.574195
2292683493.781352
-99123711.330479
2236655978.605237
-105056710.544932
2180164483.224709
-110673807.473587
2122600978.393197
-116697048.024094
2064852922.423413
-122414829.911566
2006730301.848428
-128369326.217843
1948289086.980952
-134177014.024768
1889506976.574417
-140366979.680719
1830517365.574801
-146183012.460080
1771666992.102271
-152236469.885419
1712802131.736071
-158101942.910562
1653819361.963098
-163961907.158273
1594954653.316426
-169980154.436008
1536288903.282951
-175822664.999798
1478389283.441919
-181650108.977659
1420501282.867322
-187070547.671794
1362995864.505138
-192481819.843488
1305990166.695894
-198254242.161677
1249798383.339395
-203200277.608007
1193976325.189074
-208591011.677225
1138994009.731830
-213202218.938071
1084820719.941458
-218124361.518562
1031275257.497400
-222342333.767074
978339368.960547
-226782757.811624
926533022.551261
-230631008.220951
875837438.069149
-234465722.710165
825965623.542030
-237582692.260913
776948749.502976
-241109594.175398
729264801.659248
-243911963.848172
682416917.718106
-245924967.627613
636772315.799715
-248275132.908272
592125748.344801
-250152728.992353
549171490.327160
-251147883.907675
506877301.554248
-252273411.369350
465704384.366594
-252890414.579383
425946803.838191
-252724988.299060
387631810.089204
-252224075.097119
350259419.147453
-250986394.368113
314381120.940560
-249057256.901144
279422676.735061
-247141925.237133
245718839.632769
-244416958.798450
213523337.854044
-240959957.805458
182384540.693243
-236808839.780724
152538769.857625
-232233093.798239
123977561.375010
-226807438.206382
96536228.319391
-220429376.620067
70668531.572216
-213680444.654207
45731175.353848
-206102193.290447
21940128.766099
-197579486.969513
-655679.970669
-187940548.480507
-22241465.975007
-177979378.677059
-42375133.219094
-166557368.761178
-61590008.628940
-154456582.760682
-79746924.589630
-141738763.657217
-96645672.852982
-127710840.524776
-112741133.198635
21261004.635795
-47241090.346734
58158600.595658
-79333605.506306
96059159.488220
-109822181.814444
135786824.239489
-138895731.022968
176513548.693631
-166555323.837523
219276467.776653
-192415808.863556
262838685.873641
-217014832.806714
308088732.002950
-239676652.052082
354781118.136761
-261573793.305306
402588484.439797
-281543440.125661
451940208.563681
-299856424.264965
502292593.214058
-317116104.015959
554041848.675818
-332905183.130460
606913863.113684
-347220588.121570
660634476.499839
-360259422.741108
715771931.119171
-371883493.694720
771552978.090232
-382150768.128774
828643939.918274
-391246860.528554
886263024.547658
-398750905.407161
944970857.217101
-405556901.470240
1004180656.404037
-410735328.689973
1064072918.080646
-415185431.679658
1124999419.678188
-418104666.411475
1186164659.261191
-420350343.178164
1247900061.655466
-421518379.859559
1309996076.705178
-421589143.381668
1372157665.015776
-420605063.816867
1434662252.872150
-418842170.632085
1497435633.705560
-416391071.579141
1560448784.341817
-412999587.712057
1623327915.258354
-408624133.103211
1686096548.932604
-403929106.678611
1748479902.190379
-398023353.492278
1811017369.729474
-391874424.662764
1872864872.568243
-385098845.464454
1934230380.578671
-377702405.749363
1995251704.871459
-369723167.617687
2055457454.272418
-361429767.269819
2115117086.846075
-352851723.631766
2173778765.290227
-343859785.950094
2231822092.110126
-334271631.058465
2288549693.783205
-324337913.690342
2344370643.548180
-314650678.459023
2399462514.415556
-304432707.877611
2452568106.357515
-294066703.000128
2504606719.558750
-283648693.073140
2555143875.037614
-273138516.830112
2604636999.299362
-262583626.471437
2652170608.308323
-252031474.197506
2698153999.082852
-241331306.741785
2742122199.394738
-230919472.525028
2785114890.895603
-220682705.427069
2825479309.549777
-210098091.135199
2863869489.862513
-200237257.436906
2901099434.118701
-190425163.065653
2935344921.236500
-180422140.855101
2968255089.941524
-170824283.226006
2998374407.344474
-161428339.452751
3026737612.170965
-152580769.735731
3052793939.972422
-143873172.175142
3076333568.620831
-135456101.319753
3097698086.713789
-127527012.095572
3116493527.710378
-119506572.317907
3133119399.162021
-112481643.866590
3147077960.840507
-105507600.016007
3158745118.617821
-99070292.361102
3168147420.265751
-92851654.781709
3175123620.702456
-87152595.726402
3179384875.699722
-81749432.662110
3181208563.349896
-77136209.183776
3180379791.204407
-72429738.565786
3177359458.622133
-68360881.862163
3171703297.154504
-64935683.714024
3163770381.114226
-61635277.616116
3153177882.052726
-59252763.355928
3140460251.741793
-56986650.428206
3125202819.860868
-54982423.061162
3107497095.227911
-53659246.942088
3087513736.155633
-52298925.253021
3065533242.415822
-51721632.314520
3041144688.513729
-51888532.354798
3014239006.661868
-52027381.822428
2985699607.365491
-52688418.404701
2954541501.983481
-53562246.550191
2921926181.461815
-54773694.900016
2887090240.526107
-56570423.902750
2850489907.581414
-58392431.466046
2811754945.160808
-60917681.818116
2771518332.815712
-63856860.040802
2729242072.666295
-66663226.362315
2685857529.117612
-70238826.910672
2640543952.895278
-73832121.914084
2594254290.119458
-77502355.821125
2546048256.974847
-81356775.172717
2496895758.535437
-85959007.371259
2446396384.252457
-90228634.544769
2394667720.025712
-94839301.141819
2341899881.654807
-99677868.436795
2288529591.865359
-105036605.318996
2234026294.236611
-110089669.062807
2178387991.934905
-115452960.750071
2122654270.226774
-120844958.095897
2066216349.324733
-126467690.595033
2009031895.541490
-132036514.283147
1951660638.997211
-137789699.508617
1893555639.271142
-143442650.499656
1835244481.629818
-149339734.237909
1777367841.872846
-155159442.759044
1718833787.799833
-160960445.557809
1660468912.677316
-166636549.615851
1602263203.258729
-172403046.748474
1543981414.490047
-178202320.983499
1486011643.858171
-183738015.310420
1428265654.749800
-189158112.490522
1370935160.431471
-194316210.046370
1314272116.069524
-199868993.472712
1257639820.417392
-205297548.071753
1202094194.549068
-209971967.778965
1146879178.264159
-215014907.768537
1092558821.462470
-219964972.929768
1038480166.291983
-224007985.390673
985723007.478316
-228422200.132899
933598321.902917
-232574014.458648
882571280.511763
-236238499.542111
832239628.378846
-239752580.905855
783314599.431791
-242695424.072445
735102196.616572
-245657204.216071
687962372.181373
-248437695.905473
641594520.659265
-250259760.855761
597021171.977870
-251987782.461486
553205191.211181
-253581454.878483
510730884.479364
-254377577.280941
469334861.489679
-254979139.604332
429373202.269946
-255058940.417396
390516006.206866
-254309507.747952
352541817.328259
-253268471.118568
316219612.928479
-251940453.290526
280901202.494425
-249763758.319466
247101387.540814
-247014143.700133
214504152.921276
-243612890.313979
182928203.930165
-239761803.876112
152753972.815664
-234792964.414352
124086933.064671
-229648131.763976
96275324.925366
-223476439.640092
69895438.105011
-216342353.337055
44762456.851788
-208516911.203245
20605597.606419
-200110385.073936
-1970002.336738
-190925894.976947
-23693527.362772
-180537759.893925
-44332576.177326
-169220315.439783
-63862445.385850
-157140650.688514
-81874605.693989
-144102811.795952
-129974879.836090
-99233808.853561
-114842375.057109
6836041.466433
-34428331.606497
36675394.946130
-66850174.202754
72813444.343859
-98009371.442326
111105618.013181
-127497394.030858
150911002.192595
-155567491.619971
192182695.401796
-182282350.502406
233603418.957556
267338731.041944
-209654741.312729
312650861.912565
290149717.862097
-231238772.665176
359654244.007355
337636811.815809
-252910244.925572
384104102.485128
408575022.908785
-273034816.362369
433658856.410116
458812620.019266
-288954427.846037
508527727.563919
482362600.032346
-310385548.526673
533915945.566013
561013610.892691
-326675291.182786
617511270.167279
585899936.609683
-341553725.843524
656358545.981709
-354889876.893973
708557396.033729
-367320221.801062
763990018.819759
-380036943.914856
820407354.807795
-388180039.818403
878172695.054057
-396132733.268883
936259321.566056
-403422427.818168
993624618.663442
-409227296.479317
1043495280.167742
-414065480.124545
1116951014.805389
-417556637.448878
1177767611.451537
-420355070.913356
-421670237.440159
1239458347.556535
-422436821.631272
-422170707.936133
1301578305.803869
-422488867.338089
-422600923.736331
1363975183.652618
-421058286.955771
-421864911.239379
-420429366.852124
-419206227.215167
1440867465.678266
-417827295.073226
-416286015.401989
1498520438.909873
-414884447.285474
-412661155.524518
1562200035.125714
-410651854.261265
-407796319.850853
1627530366.441739
-404258187.602363
1710578802.105934
-398768773.122965
1817177897.608444
-392953923.769278
1867039434.227467
-385939407.251792
1916870169.436477
-378395148.313340
1990698721.546489
-370972986.211576
2051765675.473706
-364025117.886652
2111933361.455070
-353392545.010341
2183000511.191355
-344291636.937692
2232445775.887969
-334926590.636731
2288080278.746334
-322753884.802957
2344714660.166739
-314904811.030353
2400742023.416309
-306790928.595854
2455197419.162026
2506176083.640556
2546586138.314884
-288319306.009837
2598301626.533772
2573066809.025372
-274569576.589282
2649850552.520887
2623724153.812796
-263112747.804506
2672580636.670073
2696905431.181364
-252426849.410409
2719082787.403049
2743864747.422817
-242990372.942707
2763735251.879078
2787431789.034029
-230316283.414550
2807622624.707882
2831116709.870682
-219649119.754191
2849085554.799894
2875637270.148275
-209027627.881567
2902065721.596806
-198558926.943047
2937530589.708726
-188454484.726119
2972635229.213576
-176688056.227045
3006017902.857070
-168596775.516137
3037698754.211188
-159211201.081213
3066336832.957336
-149930486.507433
3092672260.066547
-141262708.589106
3113342337.849158
-132350063.458509
3140881358.225408
-124201717.261910
3160900522.342041
-116488059.336362
-110161287.542305
3178684085.161911
-106981990.429164
-103185409.956761
3193694768.336639
-99678416.147659
-95565268.247915
3206700671.225110
-92770282.096225
-89476123.550083
3219771675.064114
-86364445.057161
-82850348.452035
3225162971.463478
-77465613.956130
-80556508.899351
3230285136.100480
-75145638.703115
-71999950.915967
3233735366.896790
-66827932.783215
-70076095.418704
3234313362.175098
-63739406.099558
3232533064.227067
-59707796.986484
3228148759.888483
-56261991.795518
3221094612.371802
-53138354.932390
3212511904.595183
-50281414.745386
3200535359.091697
-48028709.005233
3186719555.412770
-46323500.799300
3167040056.956512
-44063000.096383
3150769439.562759
-43352786.291991
3130935393.484945
-42328627.795477
3107203339.068707
-41900135.572097
3081926949.606421
-42326955.088777
3055272674.608422
-42914267.427361
3027139427.692869
3007263865.945269
-43811368.634159
2984230001.380711
2969083820.011532
-45084312.406330
2949435479.683133
2933635956.255439
-46452352.110998
2898112604.765998
2913680466.267116
-48536493.893599
2876991512.180202
2858118825.336744
-50330349.218235
2818801565.784896
2838098700.828631
-53511698.425404
2795173525.958566
2774876880.094109
-56746435.536934
2729621752.188492
2751748973.339691
-59532872.362205
2695440642.059654
-63212349.542336
2651083532.454199
-66810721.425702
2602199239.978524
-71765741.670601
2553099481.786018
-75134615.266842
2503289321.860179
-79755137.491233
2451537984.826896
-84452500.365309
2400218516.315843
-89330010.180762
2356044837.026750
-94058312.093766
2290568897.525825
-99386956.059661
2235313467.742753
-104520476.719412
-108229902.392890
2179406488.681273
-111755864.574007
-114327801.824293
2123005132.553896
-117349246.866859
-119973448.660737
2065531240.214256
-122988498.331365
-125510762.584671
1995756356.610476
-128634644.122332
-131168500.736498
1948184585.508370
-134466227.579587
-137208364.174833
1891136035.307293
-140368769.875736
-143240739.151707
1833069492.848472
-146322127.674135
-149042599.720639
1776175942.559692
-153960158.256871
1728889703.918324
-159314595.763682
1644792445.395560
-165319291.661389
1598171465.849684
-171059003.108226
1551632464.368690
-176820866.346026
1482111851.436436
-182173003.904145
1424515489.737398
-186987917.621007
1366990861.810047
-193590084.655365
1297839240.109772
-198929726.674000
1251501321.051569
-204115572.746784
1197706281.803339
-210069397.367231
1142879153.206065
-214106420.516524
1088278646.949340
-217818812.808738
1035683729.382794
-223815304.097361
985163771.268167
-226618336.871990
947868944.892278
917809613.710276
-232432892.519871
894337429.332170
866110128.773829
-235548088.245462
841521237.073799
817117337.911134
-238866489.225460
792487833.185613
768784633.890314
-241201598.792453
744288598.896768
721463097.327776
-244503458.852912
695501940.039915
673013889.343731
-247298517.004164
649990759.034705
628661658.400383
-249326014.756830
603614738.085514
-251295310.651831
570377851.096450
-252465682.845003
529175792.311616
-253681923.368037
487836735.554288
-253876669.863736
447449589.757496
-253887885.977248
408022794.645234
-253455482.674415
370295788.046080
-252133998.833900
334278340.866290
-250595279.362893
304791484.714562
-248518806.023485
263136522.600767
-246014150.816684
230279425.693678
-243522170.323141
-241435479.142873
198179498.643229
-239477620.199976
-237244151.919139
167547847.982491
-234601787.050144
-231876810.096437
138327033.326378
-229594359.782076
-226559712.747310
104621366.310984
-220469357.280947
-223563590.638339
82308409.831011
-216858971.716825
-213059077.357110
57553361.560553
-205066033.980202
-209190889.171714
33742227.259981
-200626609.312117
12857628.470126
-193822598.828064
-12377892.697889
-184266842.668465
-33489423.580323
-173694235.374652
-53154181.351939
-162225338.599945
-71845715.015503
-149622429.652891
-89463316.997540
-136654425.725669
-124504172.033460
-105812455.593798
SCALARS stress_2 float
LOOKUP_TABLE default
9670583.871178
7109642.545789
-3942941.090326
21948263.134057
-18084808.181932
33802982.847005
-33143232.724330
44202446.639759
-49605621.390999
53948861.617274
-66803334.458891
63106963.470503
-85153659.403220
71029566.872925
-104204940.130678
78613191.299754
-124456975.685004
85255307.269946
-145724054.188627
91422754.413239
-168255822.901023
96574338.878327
-191461466.099144
101307972.294949
-216048791.473944
104955589.182061
-241447654.716375
108246260.213140
-268099240.689387
110937816.863402
-295540684.066459
112813345.220327
-324052834.142017
114847571.587132
-353570050.545800
116237575.593556
-384504828.814237
116905011.388293
-416270657.964801
117149269.799345
-448915298.119922
117064628.543931
-482413477.340812
116548183.097265
-516985092.120162
116083731.331091
-552268807.105184
114704599.918886
-588865638.202569
113181202.362132
-625991874.861265
111337010.506305
-663745316.556488
109725541.266888
-702841092.952926
107814105.903357
-742295468.111791
105324646.287455
-782668410.896035
102486712.506662
-823287481.366872
100037758.648457
-864785889.188988
97015990.368846
-907072530.639335
-949552111.166863
94395751.143043
-992317551.264260
91170573.455055
-1035760988.164739
87815488.934621
-1079787030.731250
84900102.712961
-1124009576.197005
81855749.402339
-1167829321.054693
78621545.918238
-1212666307.123524
75287882.718398
-1257012214.680451
71994685.088563
-1301602461.976158
68644223.270737
-1346444353.657860
65666942.766400
-1390610523.390242
62318433.015819
-1434804404.406517
59450644.692473
-1479044319.173108
56438142.650630
-1522973515.535492
-1566167756.546090
53301685.348031
50525366.440681
-1608892795.006639
47720344.386320
-1651224680.211566
44842816.039218
-1693043462.350341
42298755.271115
-1734241462.285916
39634567.522279
-1774395226.053238
37059810.078454
-1813847251.687256
34837496.965905
-1852280772.636919
32825033.840636
-1890022494.505700
30503098.728914
-1926738483.760022
28134496.916482
-1962137245.787621
26179146.213868
-1996319318.839183
24596556.492814
-2029516904.733919
22577268.391851
-2061146996.920776
20818176.152982
-2091405037.589228
19381972.630475
-2120522445.575960
17806679.850596
-2147974341.312445
16597845.865877
-2173995856.807367
15198501.720058
14057147.249932
-2198258824.862463
13096445.653764
-2220925328.098679
11760489.415559
-2241911880.550963
11205620.716108
-2261499940.408788
10044061.211414
-2278721581.491363
9424048.126008
-2294488263.005635
8544122.684419
-2308049929.753341
8081186.326913
-2320206961.743162
7294837.450018
-2330340375.776835
6862656.106265
-2338280287.061306
6424977.278180
-2344660409.786047
6319221.604294
-2348631601.770269
5538938.895134
-2351056761.789443
5481926.590968
-2351602460.834774
5571918.872586
-2349449011.708003
4991560.162779
-2345847354.417809
4740657.289551
-2340162226.136192
4805262.244219
-2332543334.440358
4878662.225046
-2322719073.149517
4892878.240824
-2311118460.823403
4886131.516083
-2297711659.651488
5297964.231612
-2282103904.995241
5400454.197939
-2264867853.872136
5576478.208117
-2245895270.229642
5928923.460412
-2224456091.671231
6370113.946140
-2201753480.756638
6708024.863564
-2177356000.261331
7501661.005740
-2150946900.960782
7859364.553456
-2123205353.198987
8662941.317240
-2093777830.795156
9512549.262144
-2062568977.265281
10725337.767222
-2030315585.411101
11281890.030736
-1996094019.395820
12253698.044005
-1960887232.175699
13285001.375553
-1924210155.698205
14857085.188695
-1886373215.937074
16033131.293960
-1847383352.038037
17850802.242398
-1807305525.759091
18984264.214799
-1766220108.461705
20787058.960477
-1724216742.274137
22543065.091696
-1681048501.385859
24389608.142033
-1637517540.511128
26790510.508015
-1593209293.623677
28829642.740693
-1548184435.067502
31172122.805118
-1502917230.816338
33811324.666343
-1456534571.584441
35990671.461416
-1409961091.931543
38850017.000867
-1363347873.985904
42116703.990268
-1316423328.893254
45021171.627885
-1269322346.195853
47885256.861294
-1221810688.237696
51299183.845019
-1174817868.561042
54871894.112636
-1127826538.311623
58538930.430935
-1080611434.815960
61921035.135227
-1033736744.633787
65699031.578301
-987124278.263621
70157405.509470
-941240405.463461
73920892.651782
-895314416.947562
78215467.186027
-850152946.258184
82436208.619516
-805431852.479844
86809475.719037
-761400313.000278
91496195.621640
-718164562.688266
95416103.094112
-675515809.914069
100028661.643765
-633477482.193680
104626637.821649
-592467876.051885
109305231.350812
-552097105.832678
114143936.566568
-513040837.448580
118332441.407703
-474872912.812111
122388025.011265
-437576478.051528
127114199.316042
-401364733.907355
131308410.657345
-366425539.464109
135188251.559961
-332308734.876314
139316248.574939
-299378498.642488
143222457.795589
-267552928.089154
146563702.574699
-237040449.344568
149947478.419578
-207563038.933516
152928017.269013
-179304947.138779
155899927.000577
-152331327.132355
157979254.596794
-126552588.765550
159957728.521236
-101862340.408625
161626557.144163
-78420447.758363
162958843.171151
-56116144.727284
163856299.928721
-35429167.840172
163890030.553921
-15323246.423550
163318883.355799
3021554.041538
162598314.643403
20829833.184831
160930596.139781
36941901.155023
158332320.585455
52115413.581852
155468431.857997
66079616.984273
151744922.913667
79444310.837502
147113737.845776
91140421.815018
142136533.179107
102010925.607772
135847644.636709
112026541.320719
128779569.545103
120871772.583599
-6732119.089662
19826706.059821
-21632346.907746
31500278.187128
-36783520.013416
42449446.773185
-53750293.080151
52476994.922948
-71224458.816378
61984208.939632
-89808111.895575
69995544.884452
-109475876.008696
77944481.060625
-129931847.432692
84666953.159105
-152047969.642778
90855063.483109
-174791145.959646
96156347.292113
-198745921.246247
100799571.691073
-223674605.805797
105186318.767468
-249403793.087246
108361611.626252
-276776354.411285
111263712.725166
-304640809.253131
113564333.169164
-333642951.061732
115464055.261463
-364032218.356042
116627094.045804
-395033196.955274
117335847.455142
-427246989.809857
117975617.947219
-460213957.567003
117854059.825251
-494362405.521140
117171372.564455
-529216693.147481
116596056.864574
-564918892.938717
115541880.200825
-601819781.973534
113923000.660686
-639230640.683410
112378864.115899
-677534909.776770
110467085.239945
-716822005.314828
108335189.750040
-756353272.746533
105938887.302190
-796807360.564576
103654401.001349
-837974781.200432
100507944.287783
-879296703.948525
97871746.878711
-921434906.103282
95061759.447613
-964126652.096178
92005315.434754
-1006870559.591900
88824877.359090
-1050161252.867399
85923019.031149
-1093727317.155888
82562425.797888
-1137345602.337791
79464567.901312
-1181302236.844583
76249665.825426
-1225284445.754953
73167558.243709
-1269257790.733587
69641370.441905
-1312852361.599695
66675579.490020
-1356885583.647705
63467752.216056
-1400418585.524827
60690485.319756
-1443657722.869485
57475705.258863
-1486483707.156892
54528985.473644
-1528956029.593995
51789547.249840
-1571204770.457746
49196333.415456
-1612237427.567354
46209820.454498
-1652985835.759505
43715892.850972
-1692994347.311151
40822005.432881
-1732388285.213498
38393667.054493
-1770642178.329499
36132339.587551
-1807590133.495838
34038893.058319
-1844287648.531725
31889491.735067
-1879565988.886110
29569830.445799
-1913534180.593941
28035234.260518
-1946477777.844689
26246572.033494
-1977882814.518780
24336081.575254
-2008235548.805685
22669455.369806
-2036878863.326351
21071139.659153
-2063975519.313990
19674538.064351
-2089736264.191285
18463249.258879
-2113816250.975711
17054198.035791
-2136402138.288215
15824686.266829
-2156865585.120005
14632519.762521
-2176041096.704292
13983350.945661
-2193103724.032285
13042065.687990
-2208834237.138932
12138101.368561
-2222276615.015442
11542559.643380
-2233966459.265287
10679748.935238
-2243390012.509415
10148851.054664
-2251180797.523296
9529039.441925
-2257185504.927877
9120679.321551
-2261243520.696892
8974192.874330
-2262845183.451289
8345552.368532
-2262693352.182276
8223163.984946
-2260299924.277588
7736232.732365
-2256285351.530169
7762172.637053
-2249948347.913755
7725587.906066
-2242155612.419553
7672213.151669
-2231722130.866774
7902709.382654
-2219408314.987148
8013329.978073
-2205720798.599887
8009040.964192
-2189593264.480461
8354447.720064
-2171700491.188603
8715035.470219
-2152082272.913785
8969681.593709
-2130491005.233213
9557632.487062
-2106848098.490884
10279837.159069
-2082310963.307744
10822469.574781
-2055343129.812052
11604974.742992
-2027114209.581014
12435919.430488
-1996861180.804102
13202268.646062
-1965722261.609574
14045043.768767
-1932540431.204376
15243555.781128
-1898335610.915030
16390449.260461
-1862609853.120478
17560530.973557
-1825735319.578717
18776038.299466
-1787563405.805741
20476409.048717
-1748314129.991022
21729721.340887
-1708326207.280291
23454644.986502
-1666845016.603542
25599497.950615
-1624685279.132774
27592214.784276
-1581804590.599716
29651153.668275
-1538349536.978104
31860287.765927
-1494004256.396195
34249472.214282
-1449443335.999721
36885896.022131
-1403949592.960680
39430582.912522
-1358402518.795063
42393490.048772
-1311858885.018867
45194255.611669
-1265563492.804086
48300815.324262
-1219466528.864980
51780653.979604
-1172825555.761279
54937956.102481
-1126221927.035243
58397854.054472
-1079568773.987129
61858131.188364
-1033287601.788932
65562226.209730
-987455277.370649
69638385.299360
-941669731.446535
73506646.792568
-896275045.343112
77713257.610665
-851151286.576372
81775481.322176
-806568216.904313
86002484.046677
-762759342.979977
90563280.550955
-719567850.992836
95065646.558059
-676904046.423935
99363796.403302
-635065875.833006
103708177.655208
-593975532.546572
108530645.019353
-553850034.847413
112800781.201310
-514721089.295263
117260553.769604
-476531960.785168
121792466.231546
-439290075.661123
126184901.138187
-402708644.205909
130090394.428311
-367717475.746048
134505857.393494
-333316676.409798
138448841.602258
-300206488.109678
142330425.975917
-268514391.370474
146045402.021780
-238186285.492442
149270690.264634
-208133139.000365
152126849.410051
-179899265.591027
154979310.810819
-152714338.806687
157427675.516508
-126648216.714387
159714877.707908
-102081740.270390
161206454.866062
-78498935.171476
162690213.542022
-56199418.312692
163077122.260573
-35289407.236297
163576405.701023
-15204262.837337
162956542.414423
3519612.971668
162155638.097555
20693195.295672
160806235.887469
37180531.394152
158696248.463473
52584187.570325
155441156.350352
66862403.515145
151996319.271154
79773393.531829
147404073.534927
91533549.681591
142262452.468192
102601502.267649
136101999.362523
128967787.544439
112243458.394956
120979209.908988
-1236309.578377
14776088.848777
-12737240.396230
26485909.557003
-27432828.573076
38132052.904769
-42949000.214911
48489693.195292
-60095472.644178
57983631.291524
-78043757.059871
66470681.280943
-95884829.348748
-111242265.562573
75268048.475013
-131884763.907715
-121597068.802520
81706589.869087
-153719086.060439
-143597675.472165
88156573.649279
-165581563.701368
-177357333.343475
93344534.083213
-189539545.255902
-201612912.913573
97582741.395474
-226351914.451955
-213164801.464442
103014134.945257
-238788635.976937
-252735461.148966
106788773.093730
-281343875.579334
-265122481.759915
109709666.249121
-301583049.732874
112095502.102384
-329338988.204498
114373030.309522
-358927296.109731
116232947.603053
-389758063.562888
116894606.618003
-421669013.419245
117403497.913974
-454215413.589816
117564014.481716
-487073133.600319
117213858.268606
-515950780.107122
116797544.957444
-558845727.621035
115974956.851887
-594890166.847522
114361933.389441
113436441.550469
-632535259.410806
111555187.005436
112795281.748004
-670778571.899833
109557991.006634
110669529.156270
-709676665.332078
107435295.911151
108427968.025993
106065352.040267
104843833.788805
-758018486.459593
103741254.822436
102544017.608978
-795157582.786273
101220606.502894
99418778.163519
-837019887.295378
98266495.945763
96369234.545342
-879538980.599807
94259434.407884
-934957370.105442
91744308.977541
-1008217857.368037
88310078.670214
-1042871197.014464
85320432.617028
-1078141221.208934
82147386.244491
-1130427970.039845
78880942.778695
-1174676320.601083
76480182.919847
-1218905607.046943
72399392.960609
-1271380903.727776
69272659.935056
-1308639885.120015
66092915.482470
-1351706662.809278
62387000.391791
-1395240175.259365
59921933.074522
-1439268961.803888
57555837.978166
-1482927737.086427
-1524125348.586125
-1556712135.778645
52470328.047627
-1599934559.235077
-1579098282.109453
48763014.476714
-1643184404.414360
-1621136715.740493
45834734.279685
-1662893608.120209
-1683666613.464227
43247068.547902
-1703151930.562736
-1724436805.630270
40856059.402097
-1742402960.252761
-1763380502.501664
37813208.775064
-1781841712.406077
-1802996931.293511
35549060.562580
-1819738825.136150
-1843671291.059876
33433305.010855
-1869070687.025880
31220269.163630
-1902928774.647594
29218597.289173
-1937469066.739105
26806741.175490
-1971004731.680181
25033059.680110
-2003162971.511037
23426992.032685
-2033984469.353745
21877452.070613
-2062651654.518782
20117674.707618
-2086109609.621748
18786062.691083
-2118599983.406272
17370682.373813
-2143523862.916207
16010075.412144
15092017.093868
-2167204107.849267
14710648.973256
14194539.331476
-2188820335.068399
13701996.431084
13233641.053470
-2208985587.349078
12482689.585196
12001674.323685
-2231368903.739481
11492785.148437
11210911.530302
-2244009299.036915
10224897.460093
10909426.397846
-2258010907.796322
10082322.793114
9874309.183517
-2270931477.871403
9130742.225279
9522092.048554
-2279550424.393153
8788128.764303
-2290749544.472082
8210118.744336
-2297673197.678132
8044463.129279
-2302532071.187403
7556317.860602
-2305885751.034842
6844845.740327
-2306795487.564445
6818529.111875
-2305992707.397160
6607035.852216
-2301656751.145576
6192071.364859
-2297325330.341690
6198004.019222
-2291116823.862897
6271307.489619
-2281747023.420183
6333691.642180
-2271278150.892779
6275330.132909
-2258830120.691697
6491004.926858
-2244855519.518575
-2235296927.304941
6521670.493273
-2221605144.636861
-2213458384.987984
7015964.359025
-2202052265.889248
-2193374486.369920
7360172.452354
-2173317349.284996
-2181389715.499123
7626408.109787
-2160378623.708564
-2148784739.591738
7948739.392522
-2124672670.178316
-2136275236.690699
8883463.803855
-2108943281.236192
-2096395710.198431
9489027.523176
-2067443745.892584
-2080887403.801652
10142752.304043
-2044035883.898625
11075371.370984
-2014014402.396181
11579459.861049
-1980838529.740297
12834335.414800
-1946873941.191518
13741082.973559
-1911619749.846086
14859682.697957
-1874569334.137641
15881303.164078
-1837727311.225333
17440273.481821
-1805487808.720713
18774227.397583
-1757236240.834396
20573892.755304
-1716180760.708853
22047775.763657
23165736.670503
-1674378180.556079
24755938.375736
25584579.828709
-1631253616.107803
26577503.242932
27415488.621222
-1587728580.320288
28763610.081511
29743685.560699
-1533831414.654763
30881027.693750
31761815.493264
-1496863248.380335
33133529.593240
34602755.525688
-1452673343.785122
35602217.897697
37149385.686658
-1407179726.397702
38665946.210741
39837711.366326
-1361890683.917749
42057248.114103
-1324551276.784498
44921366.727932
-1258008681.523389
48014000.859082
-1220154350.736875
51487193.777926
-1182993129.426774
55194966.030750
-1126794335.027694
58168526.586561
-1079851327.480280
61317422.314474
-1033617164.505832
65982747.501720
-977296443.360836
69987957.055860
-939574292.907159
73883990.494621
-895420213.626602
78659480.408397
-850416866.655253
82385285.729077
-806084015.439623
85735957.822814
-762600953.972433
91794092.059820
-721185280.967823
94623695.068081
-690750064.548400
-665992462.081564
100882239.413624
-646830585.996601
-623649725.207982
104542099.659468
-603521275.790162
-583497353.128117
108782221.977972
-563226560.631871
-543797921.783113
112484861.654424
-524017253.222616
-505173447.415879
117967245.786855
-484139976.854920
-465577096.892600
122286048.354610
-447160601.270029
-429702459.030599
126882799.865582
-409112997.382073
130984139.302298
-382512738.764500
135070881.956331
-349478971.269244
139994064.561899
-316073213.870061
142860418.055096
-283723994.498843
146381978.167021
-252466122.694151
149626614.148434
-222540394.934194
152839476.449140
-194683611.058272
155652728.293793
-171522015.148277
157748697.976178
-139224721.854745
159814849.001083
-114222585.647607
161240493.286032
161933554.854064
-89931341.794345
162507029.423482
162847413.912664
-67325072.638953
163201307.746269
163716096.059076
-45605858.490480
163710748.202340
163594057.192285
-20867716.299532
163004408.111952
163373025.390627
-5148487.377750
162627708.132888
161987898.994848
12316142.126190
160008928.481514
161295236.960460
28711107.442780
159089708.792140
42734185.338043
157110384.707317
59467771.173834
153787424.652229
73271429.163253
149800173.183144
85274430.638413
144600375.247660
96951059.646046
139363444.488243
107308670.897774
132854023.996739
126646569.447154
116757499.606000
SCALARS stress_3 float
LOOKUP_TABLE default
55733139.692483
35604208.902844
-38157008.121420
145905842.793967
-135997852.376993
232231904.054633
-237812416.126449
314600287.248801
-342927732.828122
392956301.564057
-451969715.850210
467388950.278293
-564458134.605981
537782322.849844
-680592474.237954
604385276.691974
-800154868.430141
667028098.901963
-922951476.189689
725542409.254132
-1049055137.065237
780315106.620080
-1178268468.424986
831284306.774126
-1310516633.546827
878308968.813550
-1445384827.708653
921613150.196686
-1583294498.368971
961044300.336799
-1723748806.986114
997010462.601916
-1866652884.747841
1029174098.224690
-2011821967.428472
1057784618.979441
-2159291255.944845
1082905339.737768
-2308667648.116522
1104568360.319057
-2460003062.950647
1123087071.865656
-2613116611.950793
1138288443.790831
-2767474930.349788
1150248853.597981
-2923315255.741509
1159106342.745439
-3080124369.268477
1165104780.510926
-3237959508.479504
1168321436.533387
-3396365018.787857
1168774566.000236
-3555352971.606974
1166393648.460112
-3714808014.440430
1161439381.416417
-3874287338.746729
1154373056.237175
-4033786184.029446
1144840860.290413
-4192833293.702018
1133054449.214905
-4351395125.132646
-4509168467.870142
1119221720.423917
-4666054133.147333
1103484029.375609
-4821863708.648404
1085939235.844301
-4976088849.831863
1066658732.882033
-5128893400.381895
1045666538.443564
-5279805435.531325
1023345451.716309
-5428767949.054648
999751704.293972
-5575415622.320062
974887611.589649
-5719588828.831313
948834091.332418
-5861270854.182281
921880068.800000
-5999871657.786406
894110333.766541
-6135456779.327873
865437647.690375
-6267686258.175056
836356066.255342
-6396592307.966900
-6521573158.162085
806671965.055147
776760839.728566
-6642743720.715542
746293897.869303
-6760213926.815033
715814347.161200
-6872989230.460731
685230629.107656
-6981667207.111139
654684877.482819
-7085600916.405380
624261327.699780
-7184852025.982573
594061487.622995
-7279526925.391528
564149556.891236
-7368982990.542113
534770403.368957
-7453343108.802702
505705158.469251
-7532435806.218534
477313488.191945
-7606044112.293353
449389146.040438
-7674496044.801654
422352569.833946
-7737099273.292249
395981573.301547
-7794145395.765310
370368804.127081
-7845270319.814893
345808282.175004
-7890846561.170247
322097519.174220
-7930371431.606042
299338136.808744
277712780.942856
-7964086819.077207
256782955.621623
-7991788485.313170
237279840.303205
-8013480753.953052
218912281.213108
-8029172598.997024
201584733.990108
-8038790630.219579
185476306.543722
-8042384895.440450
170561306.783473
-8040180898.614571
156633708.483507
-8031741487.516606
144069895.733957
-8017419142.101491
132655092.263731
-7997325350.188956
122462912.253268
-7971112733.779177
113213377.521783
-7939486142.646644
105413610.069103
-7901832292.881838
98730607.669373
-7858705150.439865
93110784.548102
-7810035307.275659
88614240.659877
-7755840267.163884
85076467.824084
-7696206714.285154
82713434.266057
-7631574260.684884
81381556.030862
-7561828556.137566
81112595.163395
-7486913482.869050
81803035.573175
-7407362302.879512
83423867.485710
-7323188754.349739
85867812.900825
-7234323319.099289
89142167.998789
-7141312549.399255
93365492.824668
-7043825117.159504
98303195.603797
-6942538088.605888
103877228.381242
-6837354275.828890
110127655.337270
-6728618858.918986
117369530.697389
-6616402806.237404
124995864.461425
-6500845719.558638
133149788.990260
-6382187171.424525
141740630.554466
-6260656761.790002
150874661.199111
-6136407716.790785
160497513.149529
-6009698862.742863
170412798.676467
-5880871951.917328
180742946.185872
-5749727172.449727
191405253.677571
-5616905060.656219
202162259.602752
-5482300122.807726
213304442.186921
-5346237393.085032
224450755.926332
-5209234413.984738
235846402.775746
-5070829119.507018
247474991.366791
-4931654074.238776
258795401.789599
-4791980506.315561
270413948.495358
-4651744216.098600
281941283.844949
-4511208239.723438
293381276.199251
-4370742997.776981
304840862.099760
-4230255508.485085
316159515.546302
-4090038034.344347
327305129.351118
-3950346087.670929
338261095.559274
-3811569900.871123
349141760.712092
-3673321690.306157
359812511.170625
-3536044936.382323
369929275.566500
-3400003343.415781
380171986.215532
-3265144885.948200
390049339.704280
-3131782086.205431
399225794.438866
-3000023330.909754
408405744.915544
-2869910582.332090
416942797.766113
-2741588981.059346
425356807.216082
-2615383223.497814
432903186.032623
-2490980142.460083
440278250.531552
-2368937351.991391
447171145.254361
-2249068771.039699
453631018.516864
-2131636987.830686
459118083.086236
-2016607142.906194
464459837.413664
-1904234186.852956
469067232.130948
-1794335136.032198
472944579.824648
-1686972987.075894
476080256.991193
-1582407344.616017
478872016.172075
-1480565927.149168
480628297.863723
-1381674903.126707
481717958.652695
-1285421105.361220
481965869.125728
-1192075424.213762
481363943.734006
-1101598790.406612
479921593.335012
-1014152170.481438
477475308.334866
-929372466.934839
474161141.500740
-847657990.353549
469627501.329064
-768896053.595222
464117380.812690
-692808796.840471
457618378.132060
-619734313.217697
449882300.370333
-549447766.952580
440930071.753190
-482053224.812467
430623089.092872
-417445747.429332
419024014.931045
-355761501.389907
405989929.809204
-296563437.235861
391726742.449456
-240164627.869913
375760425.573908
-186385293.517744
358198249.814360
-135276807.307755
339135311.622172
-86810941.465625
318282123.990200
-40612640.894075
295692713.234429
3013991.820162
271278186.212340
44264342.135417
245060021.510668
83325717.329585
216780945.761211
119959106.590252
186511813.505638
154336097.691736
-59333022.747909
126780279.886591
-158403486.569239
214025367.165240
-261077355.748733
297297956.377737
-367476287.744724
376502396.711668
-477517367.654665
451899165.399685
-591170700.936888
523016557.945363
-708357354.869287
590471403.581352
-829068362.820060
653660481.585548
-952762054.202474
712917997.190602
-1079985740.068743
768533877.945154
-1210214691.877371
819908665.036791
-1343193290.861012
867495457.833538
-1479216342.568479
911067533.522983
-1617819446.051985
951090723.698831
-1759017986.724795
987264577.548669
-1902631634.135722
1019943780.305150
-2048416947.382047
1048787585.652286
-2196251384.238261
1074047834.597051
-2346083795.530899
1096059286.733152
-2497782778.853837
1114693299.293241
-2650651353.394837
1130006217.690585
-2805069448.567165
1142086039.247970
-2960528275.603646
1150997301.378662
-3116867539.827414
1157152143.450689
-3274054252.967720
1160540926.967449
-3431944060.122018
1160896189.387276
-3589872744.793881
1158678777.852517
-3748004040.532122
1153920124.001944
-3905976614.569566
1146672033.023144
-4063847590.635466
1137228190.690263
-4220797107.917583
1125648036.145649
-4377131705.603674
1111733738.847633
-4532728283.422993
1095918248.570364
-4686910784.788979
1078703596.411120
-4839440867.069832
1059490984.369728
-4990773189.949738
1038765391.362855
-5139858850.706763
1016583159.119581
-5286771357.070160
993196235.098065
-5431465102.363061
968587012.756641
-5573612189.998907
942835631.508402
-5713053213.752190
916395076.901815
-5849480312.810667
888920616.756266
-5982602340.768221
861053208.394543
-6112399493.173836
832423099.410351
-6238440691.440779
803319879.577837
-6360816943.388783
773835976.310095
-6479150642.386045
744335265.426512
-6593384782.207061
714594558.385247
-6703155270.445882
684878090.644461
-6808338452.470708
655201578.023540
-6908980390.236645
625792836.206324
-7004679235.202199
596699570.696214
-7095324846.961423
567924985.357662
-7180827451.288811
539610545.784203
-7261191037.733173
511735103.795223
-7335936601.933630
484624668.939189
-7405306589.890356
458036016.899941
-7469022146.881414
432328813.677306
-7527043094.906981
407365886.729444
-7579324939.696480
383240441.785435
-7625593252.934097
360172098.844933
-7665951220.304194
338012179.366271
-7700464491.626328
316829419.529716
-7728891964.629928
296806692.838669
-7751107669.270097
277726129.292956
-7767353273.231024
259836244.847164
-7777543766.467812
243090537.004694
-7781617936.619584
227435196.036119
-7779544021.641443
212860693.580212
-7771441253.443258
199537721.591561
-7757338865.754455
187469594.069993
-7737237974.665512
176605932.789655
-7711257925.905856
166740821.660066
-7679444667.611032
158230274.906734
-7641962601.510468
150748814.123193
-7598620221.559271
144390309.534949
-7549614693.802678
139112795.186897
-7495197104.150730
135238962.943489
-7435368344.738975
132026206.894687
-7370330125.522516
130035120.995251
-7300246624.275847
129113147.290074
-7224955895.405437
129034444.049730
-7144900644.685776
129941479.138673
-7060335940.207343
131792730.827477
-6971041824.195993
134451915.025662
-6877555654.651900
138045446.003802
-6779719027.620476
142417227.852031
-6678078047.462946
147582638.615241
-6572620987.908737
153217866.654315
-6463332911.454451
159776562.014146
-6350809078.145498
166713953.010547
-6235017501.982052
174213353.688412
-6116229965.460714
182339738.318316
-5994484228.401217
190998785.080698
-5870387721.345225
200005388.291199
-5743659384.293088
209269432.265633
-5614718011.515723
218982867.274574
-5483897383.554971
229124431.317848
-5351439946.411005
239538803.117391
-5217343164.399984
249930288.673029
-5081965059.973444
260556708.345642
-4945408701.311996
271459128.586418
-4808015950.822105
282272667.620863
-4669599284.639321
293267209.854926
-4531020309.260242
304279355.830100
-4391952905.001029
315181123.591279
-4252799148.042294
326137127.770263
-4113782226.925877
336835620.773000
-3975100754.193619
347649000.824997
-3836677574.026133
358197114.558055
-3698977315.010324
368499546.152440
-3562091315.372048
378635118.194886
-3426086223.517596
388521235.136408
-3291422906.124184
398064019.383126
-3157712911.372422
407505795.747280
-3025629653.713846
416354706.454379
-2895252737.735363
425008280.090982
-2766444121.978636
433192635.333957
-2639435186.985510
441030872.454051
-2514382583.026901
448244790.173198
-2391542707.186146
455231696.807211
-2270912245.463415
461648302.987892
-2152509358.761430
467396521.301801
-2036527785.306044
472628124.019685
-1923009707.638925
477323291.953784
-1811883398.617725
481187773.916340
-1703576068.468298
484623198.178100
-1597953992.003057
487396977.506237
-1494977545.583230
489132386.351938
-1394783898.066470
490178249.211632
-1297603647.994444
490609288.987865
-1203073697.863751
490118525.951384
-1111588820.306366
488636878.779056
-1022851005.909023
486329072.238056
-937144993.348934
483015880.915117
-854242405.212833
478587373.622480
-774390668.268067
473207720.766266
-697394286.920931
466489799.519941
-623185740.164450
458736376.109014
-552064814.314612
449805867.436203
-483590808.138764
439661515.952698
-418404140.449320
427964352.245231
-355641667.652572
414928921.261590
-295792256.560935
400330049.452962
-238660855.806383
384353723.586693
-184187468.201329
366619456.204279
-132504054.197134
347395040.253505
-83178104.561144
326427522.321107
-36476968.015467
303562029.038884
7736952.672551
279000373.128943
49393361.006481
252481633.132952
88789598.218978
224019091.953458
193417364.132128
125875069.497627
160796676.481375
-20320302.690109
91531207.352815
-100924679.112722
180204840.475108
-198312263.854675
265016229.756756
-301746419.464144
345787580.430413
-409391167.045594
422547123.954583
-519961945.848566
495453047.697293
-630191923.773918
-720893309.331379
571139719.590717
-841676198.483096
-781730703.100464
630347066.723199
-966455707.728003
-908021620.526122
690187629.959286
-1032054005.510122
-1096810388.836913
745326100.185575
-1162785670.983477
-1229351101.719774
789711758.098960
-1361375267.463035
-1292086699.521342
849722299.024238
-1427832457.546756
-1498748618.160990
894928561.114266
-1648137276.743493
-1564453522.206959
936647374.006511
-1749284564.927229
974492604.978867
-1885708147.857787
1008733253.670106
-2030293666.518532
1045020000.908397
-2177493923.599100
1067065653.141946
-2327186213.123473
1090089271.068538
-2477449561.707361
1109978047.377120
-2625685639.033622
1126917962.445968
-2753714446.713327
1140482442.480643
-2942201254.884398
1150984901.794711
-3098228815.772183
1158595655.498532
1162166193.298269
-3255770963.083310
1164853659.050432
1163858934.151246
-3413910820.814723
1164479223.759613
1164915401.319099
-3572492854.785979
1161726101.543960
1163372403.680964
1159121893.492499
1156027470.776790
-3766296953.237522
1152574937.310021
1148405758.410296
-3911688658.340468
1143916029.698764
1138157788.336190
-4072144269.926032
1132432261.797900
1124954592.068585
-4235118055.458559
1114746782.852677
-4441655196.332899
1099375348.254668
-4707072245.461597
1082202410.571838
-4830398235.662368
1062904197.234802
-4952908851.812478
1042416879.724984
-5134306299.619853
1020957208.761310
-5283384959.511727
1001545854.169544
-5430324459.235826
971854362.171617
-5601350461.000904
945831189.554255
-5720509054.496916
919246594.210346
-5855383113.351274
885597005.298107
-5990632964.853671
863286675.718576
-6123673284.942043
840401941.871759
-6253311938.384656
-6373092347.272558
-6469002450.517653
788154530.552755
-6588939442.737925
-6529952298.506061
749561041.875404
-6708747023.568116
-6647263591.223867
717860447.407527
-6760788279.193973
-6816338770.802145
688052421.170141
-6867175620.503266
-6924217561.121757
661273784.159628
-6968931804.689731
-7022577253.911080
625029042.455847
-7068154300.823689
-7121609883.864252
595515886.842926
-7161428765.001952
-7221943017.882883
566039562.033364
-7279145197.146067
537127673.711175
-7356509501.037413
508745559.469892
-7432341526.025392
475455047.778398
-7503709760.936249
452998376.817200
-7570013416.898614
427418775.848182
-7629930396.811347
401552876.467346
-7683020844.168800
377039558.007779
-7724435857.057617
352937718.788755
-7777781016.503645
330363647.593805
-7814644883.608290
309182310.261901
292074952.878653
-7845887243.206812
282317021.954829
272343894.140821
-7870782662.757718
262773130.160966
252100363.007757
-7889868834.351489
243837341.458327
234862363.875294
-7906670961.375237
226171336.038979
217466671.332563
-7909141457.730429
202244524.408363
210657273.503031
-7909646778.440351
196201259.930882
188077680.041783
-7905870842.279643
173410998.118327
182428671.115133
-7896695005.461115
165366181.229884
-7876861369.632493
154563915.404463
-7853796164.612299
145089822.269857
-7824947566.553364
135951551.403171
-7790205211.094809
128582409.352222
-7749791618.597861
122258965.490399
-7703719638.791945
117706225.502072
-7641584479.549691
111998131.892336
-7592565133.192284
108906103.982079
-7533152555.581250
106729488.479028
-7464674577.066436
105545827.937582
-7393091648.873596
105411129.996517
-7317477385.059377
106095791.016712
-7238941164.707817
-7182798043.019920
107851302.105795
-7122467793.793561
-7080832137.016945
110626838.260561
-7027928261.430017
-6985359554.354418
113916211.722682
-6890288683.242606
-6932856339.572647
118164336.558861
-6835146901.053383
-6785197000.582420
121749382.804522
-6681647120.873252
-6732471789.651100
128945943.735707
-6620577212.108693
-6568189247.446563
135300028.141937
-6450825363.336984
-6508003396.562767
142267392.591030
-6363678579.784106
149924744.992508
-6249385146.071225
158063629.887863
-6126111483.507981
168702617.583837
-6002310838.849759
176209697.553019
-5876329920.211874
185487554.058980
-5747225196.689816
195261182.327900
-5620006387.432981
205286411.615708
-5510391634.394179
215542391.809628
-5349032034.085673
226387469.234737
-5213352964.326956
236506903.928394
243683449.519693
-5076393236.649145
251345147.872683
256279674.246446
-4938564345.458707
262678319.357739
267813920.330163
-4799887549.071628
273794452.097861
278601393.000153
-4631645339.440811
284749022.009604
289992286.325140
-4516287401.070943
295825042.938148
301077319.942247
-4380352449.270022
307515805.350645
312857332.377445
-4241761251.881660
318660969.916383
323761752.953738
-4105931408.786697
332573981.949941
-3993547492.138240
342966255.754064
-3795963168.487541
353523362.059263
-3685127420.554386
364094737.162400
-3575938803.617488
374353309.429880
-3412889612.826128
383995605.130271
-3278063136.170037
392187775.004938
-3144563492.787398
403407840.620045
-2984023245.542926
412362100.895946
-2877168262.803611
421085937.004072
-2752646925.826471
430920837.176002
-2627034653.245290
436949464.703516
-2502522541.637653
442945514.845816
-2381529398.364449
452221342.594315
-2266736432.624231
456466184.513020
-2182270511.899498
-2114016429.345919
464469806.526233
-2060670882.327680
-1997135551.680518
468748451.751822
-1941399727.424354
-1886170571.347432
473095204.783442
-1830654462.594092
-1777436151.180783
476282100.694583
-1722460961.124415
-1671577876.369080
480420140.170198
-1613575567.391410
-1563018156.598956
483023898.198941
-1511779825.525996
-1464078339.420098
484927048.467529
-1407899838.571100
486014789.156402
-1334496166.687183
486251251.168108
-1243133109.048395
485552132.097545
-1151390388.388090
484274044.417840
-1061910902.579960
482034462.098725
-975578722.880869
478583949.752560
-892409590.557130
474309052.712572
-813682658.570141
468633109.807311
-748668523.524178
462014699.251973
-657884496.285887
454611654.000110
-585788615.594648
448264091.630178
442987044.546001
-516518872.622293
438111830.293431
432379090.212270
-450052027.730047
426492516.726517
420138915.785857
-386335941.640019
413820672.358078
407226365.270359
-313303071.150772
392052759.480613
399690027.152032
-265498281.297611
383824518.124328
375665480.144996
-212024457.522855
357613350.232322
366740345.369803
-160512766.667534
346673339.344320
-116018264.313195
331804576.069035
-61365378.313074
311184494.476615
-16230334.570364
287713486.431716
26259520.305349
262146820.785371
66677203.851124
235077149.226160
104731084.909111
206547476.813100
180479445.984021
140623662.031404
