# vtk DataFile Version 2.0
Generated volume Mesh
ASCII
DATASET UNSTRUCTURED_GRID
POINTS 994 float
-0.416146 -0.294827 0.000000
-0.409251 -0.287252 0.000000
-0.421925 -0.286495 0.000000
-0.410201 -0.303043 0.000000
-0.427538 -0.278049 0.000000
-0.404095 -0.311138 0.000000
-0.432982 -0.269494 0.000000
-0.397829 -0.319111 0.000000
-0.438254 -0.260832 0.000000
-0.391406 -0.326958 0.000000
-0.443353 -0.252067 0.000000
-0.384828 -0.334675 0.000000
-0.448277 -0.243202 0.000000
-0.378098 -0.342260 0.000000
-0.453024 -0.234242 0.000000
-0.371218 -0.349710 0.000000
-0.457592 -0.225188 0.000000
-0.364192 -0.357021 0.000000
-0.461979 -0.216046 0.000000
-0.357021 -0.364192 0.000000
-0.466183 -0.206818 0.000000
-0.349710 -0.371218 0.000000
-0.470203 -0.197508 0.000000
-0.342260 -0.378098 0.000000
-0.474037 -0.188120 0.000000
-0.334675 -0.384828 0.000000
-0.477683 -0.178658 0.000000
-0.326958 -0.391406 0.000000
-0.481141 -0.169126 0.000000
-0.319111 -0.397829 0.000000
-0.484408 -0.159526 0.000000
-0.311138 -0.404095 0.000000
-0.487484 -0.149864 0.000000
-0.303043 -0.410201 0.000000
-0.490368 -0.140141 0.000000
-0.294827 -0.416146 0.000000
-0.493057 -0.130363 0.000000
-0.286495 -0.421925 0.000000
-0.495552 -0.120532 0.000000
-0.278049 -0.427538 0.000000
-0.497851 -0.110654 0.000000
-0.269494 -0.432982 0.000000
-0.499953 -0.100732 0.000000
-0.260832 -0.438254 0.000000
-0.501857 -0.090771 0.000000
-0.252067 -0.443353 0.000000
-0.503563 -0.080774 0.000000
-0.243202 -0.448277 0.000000
-0.505069 -0.070746 0.000000
-0.234242 -0.453024 0.000000
-0.506376 -0.060691 0.000000
-0.225188 -0.457592 0.000000
-0.507482 -0.050612 0.000000
-0.216046 -0.461979 0.000000
-0.508388 -0.040514 0.000000
-0.206818 -0.466183 0.000000
-0.509093 -0.030400 0.000000
-0.197508 -0.470203 0.000000
-0.509597 -0.020274 0.000000
-0.188120 -0.474037 0.000000
-0.509899 -0.010139 0.000000
-0.178658 -0.477683 0.000000
-0.510000 0.000000 0.000000
-0.169126 -0.481141 0.000000
-0.509899 0.010139 0.000000
-0.509597 0.020274 0.000000
-0.159526 -0.484408 0.000000
-0.509093 0.030400 0.000000
-0.149864 -0.487484 0.000000
-0.508388 0.040514 0.000000
-0.140141 -0.490368 0.000000
-0.507482 0.050612 0.000000
-0.130363 -0.493057 0.000000
-0.506376 0.060691 0.000000
-0.120532 -0.495552 0.000000
-0.505069 0.070746 0.000000
-0.110654 -0.497851 0.000000
-0.503563 0.080774 0.000000
-0.100732 -0.499953 0.000000
-0.501857 0.090771 0.000000
-0.090771 -0.501857 0.000000
-0.499953 0.100732 0.000000
-0.080774 -0.503563 0.000000
-0.497851 0.110654 0.000000
-0.070746 -0.505069 0.000000
-0.495552 0.120532 0.000000
-0.060691 -0.506376 0.000000
-0.493057 0.130363 0.000000
-0.050612 -0.507482 0.000000
-0.490368 0.140141 0.000000
-0.040514 -0.508388 0.000000
-0.487484 0.149864 0.000000
-0.484408 0.159526 0.000000
-0.030400 -0.509093 0.000000
-0.020274 -0.509597 0.000000
-0.481141 0.169126 0.000000
-0.010139 -0.509899 0.000000
-0.477683 0.178658 0.000000
0.000000 -0.510000 0.000000
-0.474037 0.188120 0.000000
0.010139 -0.509899 0.000000
-0.470203 0.197508 0.000000
0.020274 -0.509597 0.000000
-0.466183 0.206818 0.000000
0.030400 -0.509093 0.000000
-0.461979 0.216046 0.000000
0.040514 -0.508388 0.000000
-0.457592 0.225188 0.000000
0.050612 -0.507482 0.000000
-0.453024 0.234242 0.000000
0.060691 -0.506376 0.000000
-0.448277 0.243202 0.000000
0.070746 -0.505069 0.000000
-0.443353 0.252067 0.000000
0.080774 -0.503563 0.000000
-0.438254 0.260832 0.000000
0.090771 -0.501857 0.000000
-0.432982 0.269494 0.000000
0.100732 -0.499953 0.000000
-0.427538 0.278049 0.000000
0.110654 -0.497851 0.000000
-0.421925 0.286495 0.000000
0.120532 -0.495552 0.000000
-0.416146 0.294827 0.000000
0.130363 -0.493057 0.000000
-0.410201 0.303043 0.000000
0.140141 -0.490368 0.000000
-0.404095 0.311138 0.000000
0.149864 -0.487484 0.000000
0.159526 -0.484408 0.000000
-0.397829 0.319111 0.000000
0.169126 -0.481141 0.000000
-0.391406 0.326958 0.000000
0.178658 -0.477683 0.000000
-0.384828 0.334675 0.000000
0.188120 -0.474037 0.000000
-0.378098 0.342260 0.000000
0.197508 -0.470203 0.000000
-0.371218 0.349710 0.000000
0.206818 -0.466183 0.000000
-0.364192 0.357021 0.000000
0.216046 -0.461979 0.000000
-0.357021 0.364192 0.000000
0.225188 -0.457592 0.000000
-0.349710 0.371218 0.000000
0.234242 -0.453024 0.000000
-0.342260 0.378098 0.000000
0.243202 -0.448277 0.000000
-0.334675 0.384828 0.000000
0.252067 -0.443353 0.000000
-0.326958 0.391406 0.000000
0.260832 -0.438254 0.000000
-0.319111 0.397829 0.000000
0.269494 -0.432982 0.000000
-0.311138 0.404095 0.000000
0.278049 -0.427538 0.000000
-0.303043 0.410201 0.000000
0.286495 -0.421925 0.000000
-0.294827 0.416146 0.000000
0.294827 -0.416146 0.000000
-0.286495 0.421925 0.000000
0.303043 -0.410201 0.000000
-0.278049 0.427538 0.000000
0.311138 -0.404095 0.000000
-0.269494 0.432982 0.000000
0.319111 -0.397829 0.000000
-0.260832 0.438254 0.000000
0.326958 -0.391406 0.000000
-0.252067 0.443353 0.000000
0.334675 -0.384828 0.000000
-0.243202 0.448277 0.000000
0.342260 -0.378098 0.000000
-0.234242 0.453024 0.000000
0.349710 -0.371218 0.000000
-0.225188 0.457592 0.000000
0.357021 -0.364192 0.000000
-0.216046 0.461979 0.000000
0.364192 -0.357021 0.000000
-0.206818 0.466183 0.000000
0.371218 -0.349710 0.000000
-0.197508 0.470203 0.000000
0.378098 -0.342260 0.000000
-0.188120 0.474037 0.000000
0.384828 -0.334675 0.000000
-0.178658 0.477683 0.000000
0.391406 -0.326958 0.000000
-0.169126 0.481141 0.000000
0.397829 -0.319111 0.000000
-0.159526 0.484408 0.000000
0.404095 -0.311138 0.000000
-0.149864 0.487484 0.000000
0.410201 -0.303043 0.000000
-0.140141 0.490368 0.000000
0.416146 -0.294827 0.000000
-0.130363 0.493057 0.000000
0.421925 -0.286495 0.000000
-0.120532 0.495552 0.000000
0.427538 -0.278049 0.000000
-0.110654 0.497851 0.000000
0.432982 -0.269494 0.000000
-0.100732 0.499953 0.000000
0.438254 -0.260832 0.000000
-0.090771 0.501857 0.000000
0.443353 -0.252067 0.000000
-0.080774 0.503563 0.000000
0.448277 -0.243202 0.000000
-0.070746 0.505069 0.000000
0.453024 -0.234242 0.000000
-0.060691 0.506376 0.000000
0.457592 -0.225188 0.000000
-0.050612 0.507482 0.000000
0.461979 -0.216046 0.000000
-0.040514 0.508388 0.000000
0.466183 -0.206818 0.000000
-0.030400 0.509093 0.000000
0.470203 -0.197508 0.000000
-0.020274 0.509597 0.000000
0.474037 -0.188120 0.000000
-0.010139 0.509899 0.000000
0.477683 -0.178658 0.000000
0.000000 0.510000 0.000000
0.481141 -0.169126 0.000000
0.010139 0.509899 0.000000
0.484408 -0.159526 0.000000
0.020274 0.509597 0.000000
0.487484 -0.149864 0.000000
0.030400 0.509093 0.000000
0.490368 -0.140141 0.000000
0.040514 0.508388 0.000000
0.493057 -0.130363 0.000000
0.050612 0.507482 0.000000
0.495552 -0.120532 0.000000
0.060691 0.506376 0.000000
0.497851 -0.110654 0.000000
0.070746 0.505069 0.000000
0.499953 -0.100732 0.000000
0.080774 0.503563 0.000000
0.501857 -0.090771 0.000000
0.090771 0.501857 0.000000
0.503563 -0.080774 0.000000
0.100732 0.499953 0.000000
0.505069 -0.070746 0.000000
0.110654 0.497851 0.000000
0.506376 -0.060691 0.000000
0.120532 0.495552 0.000000
0.507482 -0.050612 0.000000
0.130363 0.493057 0.000000
0.508388 -0.040514 0.000000
0.140141 0.490368 0.000000
0.509093 -0.030400 0.000000
0.149864 0.487484 0.000000
0.509597 -0.020274 0.000000
0.159526 0.484408 0.000000
0.509899 -0.010139 0.000000
0.169126 0.481141 0.000000
0.510000 0.000000 0.000000
0.178658 0.477683 0.000000
0.509899 0.010139 0.000000
0.188120 0.474037 0.000000
0.509597 0.020274 0.000000
0.197508 0.470203 0.000000
0.509093 0.030400 0.000000
0.206818 0.466183 0.000000
0.508388 0.040514 0.000000
0.216046 0.461979 0.000000
0.507482 0.050612 0.000000
0.225188 0.457592 0.000000
0.506376 0.060691 0.000000
0.234242 0.453024 0.000000
0.505069 0.070746 0.000000
0.243202 0.448277 0.000000
0.503563 0.080774 0.000000
0.252067 0.443353 0.000000
0.501857 0.090771 0.000000
0.260832 0.438254 0.000000
0.499953 0.100732 0.000000
0.269494 0.432982 0.000000
0.497851 0.110654 0.000000
0.278049 0.427538 0.000000
0.495552 0.120532 0.000000
0.286495 0.421925 0.000000
0.493057 0.130363 0.000000
0.294827 0.416146 0.000000
0.490368 0.140141 0.000000
0.303043 0.410201 0.000000
0.487484 0.149864 0.000000
0.311138 0.404095 0.000000
0.484408 0.159526 0.000000
0.319111 0.397829 0.000000
0.481141 0.169126 0.000000
0.326958 0.391406 0.000000
0.477683 0.178658 0.000000
0.334675 0.384828 0.000000
0.474037 0.188120 0.000000
0.342260 0.378098 0.000000
0.470203 0.197508 0.000000
0.349710 0.371218 0.000000
0.466183 0.206818 0.000000
0.357021 0.364192 0.000000
0.461979 0.216046 0.000000
0.364192 0.357021 0.000000
0.457592 0.225188 0.000000
0.371218 0.349710 0.000000
0.453024 0.234242 0.000000
0.378098 0.342260 0.000000
0.448277 0.243202 0.000000
0.384828 0.334675 0.000000
0.443353 0.252067 0.000000
0.391406 0.326958 0.000000
0.438254 0.260832 0.000000
0.397829 0.319111 0.000000
0.432982 0.269494 0.000000
0.404095 0.311138 0.000000
0.427538 0.278049 0.000000
0.410201 0.303043 0.000000
0.421925 0.286495 0.000000
0.416146 0.294827 0.000000
-0.415025 -0.278844 0.000000
-0.403306 -0.295541 0.000000
-0.420627 -0.270320 0.000000
-0.397194 -0.303706 0.000000
-0.426054 -0.261684 0.000000
-0.390916 -0.311745 0.000000
-0.431303 -0.252938 0.000000
-0.384475 -0.319654 0.000000
-0.436373 -0.244088 0.000000
-0.377875 -0.327430 0.000000
-0.441261 -0.235136 0.000000
-0.371117 -0.335070 0.000000
-0.445965 -0.226086 0.000000
-0.364205 -0.342571 0.000000
-0.450484 -0.216942 0.000000
-0.357141 -0.349929 0.000000
-0.454816 -0.207707 0.000000
-0.349929 -0.357141 0.000000
-0.458958 -0.198386 0.000000
-0.342571 -0.364205 0.000000
-0.462910 -0.188983 0.000000
-0.335070 -0.371117 0.000000
-0.466668 -0.179501 0.000000
-0.327430 -0.377875 0.000000
-0.470233 -0.169944 0.000000
-0.319654 -0.384475 0.000000
-0.473602 -0.160317 0.000000
-0.311745 -0.390916 0.000000
-0.476773 -0.150623 0.000000
-0.303706 -0.397194 0.000000
-0.479747 -0.140866 0.000000
-0.295541 -0.403306 0.000000
-0.482520 -0.131050 0.000000
-0.287252 -0.409251 0.000000
-0.485094 -0.121178 0.000000
-0.278844 -0.415025 0.000000
-0.487465 -0.111256 0.000000
-0.270320 -0.420627 0.000000
-0.489633 -0.101287 0.000000
-0.261684 -0.426054 0.000000
-0.491598 -0.091277 0.000000
-0.252938 -0.431303 0.000000
-0.493358 -0.081229 0.000000
-0.244088 -0.436373 0.000000
-0.494912 -0.071148 0.000000
-0.235136 -0.441261 0.000000
-0.496260 -0.061039 0.000000
-0.226086 -0.445965 0.000000
-0.497402 -0.050904 0.000000
-0.216942 -0.450484 0.000000
-0.498337 -0.040749 0.000000
-0.207707 -0.454816 0.000000
-0.499064 -0.030577 0.000000
-0.198386 -0.458958 0.000000
-0.499584 -0.020392 0.000000
-0.188983 -0.462910 0.000000
-0.499896 -0.010199 0.000000
-0.179501 -0.466668 0.000000
-0.500000 0.000000 0.000000
-0.169944 -0.470233 0.000000
-0.499896 0.010199 0.000000
-0.160317 -0.473602 0.000000
-0.499584 0.020392 0.000000
-0.150623 -0.476773 0.000000
-0.499064 0.030577 0.000000
-0.140866 -0.479747 0.000000
-0.498337 0.040749 0.000000
-0.131050 -0.482520 0.000000
-0.497402 0.050904 0.000000
-0.121178 -0.485094 0.000000
-0.496260 0.061039 0.000000
-0.111256 -0.487465 0.000000
-0.494912 0.071148 0.000000
-0.101287 -0.489633 0.000000
-0.493358 0.081229 0.000000
-0.091277 -0.491598 0.000000
-0.491598 0.091277 0.000000
-0.081229 -0.493358 0.000000
-0.489633 0.101287 0.000000
-0.071148 -0.494912 0.000000
-0.487465 0.111256 0.000000
-0.061039 -0.496260 0.000000
-0.485094 0.121178 0.000000
-0.050904 -0.497402 0.000000
-0.482520 0.131050 0.000000
-0.040749 -0.498337 0.000000
-0.479747 0.140866 0.000000
-0.030577 -0.499064 0.000000
-0.476773 0.150623 0.000000
-0.020392 -0.499584 0.000000
-0.473602 0.160317 0.000000
-0.010199 -0.499896 0.000000
-0.470233 0.169944 0.000000
0.000000 -0.500000 0.000000
-0.466668 0.179501 0.000000
0.010199 -0.499896 0.000000
-0.462910 0.188983 0.000000
0.020392 -0.499584 0.000000
-0.458958 0.198386 0.000000
0.030577 -0.499064 0.000000
-0.454816 0.207707 0.000000
0.040749 -0.498337 0.000000
-0.450484 0.216942 0.000000
0.050904 -0.497402 0.000000
-0.445965 0.226086 0.000000
0.061039 -0.496260 0.000000
-0.441261 0.235136 0.000000
0.071148 -0.494912 0.000000
-0.436373 0.244088 0.000000
0.081229 -0.493358 0.000000
-0.431303 0.252938 0.000000
0.091277 -0.491598 0.000000
-0.426054 0.261684 0.000000
0.101287 -0.489633 0.000000
-0.420627 0.270320 0.000000
0.111256 -0.487465 0.000000
-0.415025 0.278844 0.000000
0.121178 -0.485094 0.000000
-0.409251 0.287252 0.000000
0.131050 -0.482520 0.000000
-0.403306 0.295541 0.000000
0.140866 -0.479747 0.000000
-0.397194 0.303706 0.000000
0.150623 -0.476773 0.000000
-0.390916 0.311745 0.000000
0.160317 -0.473602 0.000000
-0.384475 0.319654 0.000000
0.169944 -0.470233 0.000000
-0.377875 0.327430 0.000000
0.179501 -0.466668 0.000000
-0.371117 0.335070 0.000000
0.188983 -0.462910 0.000000
-0.364205 0.342571 0.000000
0.198386 -0.458958 0.000000
-0.357141 0.349929 0.000000
0.207707 -0.454816 0.000000
-0.349929 0.357141 0.000000
0.216942 -0.450484 0.000000
-0.342571 0.364205 0.000000
0.226086 -0.445965 0.000000
-0.335070 0.371117 0.000000
0.235136 -0.441261 0.000000
-0.327430 0.377875 0.000000
0.244088 -0.436373 0.000000
-0.319654 0.384475 0.000000
0.252938 -0.431303 0.000000
-0.311745 0.390916 0.000000
0.261684 -0.426054 0.000000
-0.303706 0.397194 0.000000
0.270320 -0.420627 0.000000
-0.295541 0.403306 0.000000
0.278844 -0.415025 0.000000
-0.287252 0.409251 0.000000
0.287252 -0.409251 0.000000
-0.278844 0.415025 0.000000
0.295541 -0.403306 0.000000
-0.270320 0.420627 0.000000
0.303706 -0.397194 0.000000
-0.261684 0.426054 0.000000
0.311745 -0.390916 0.000000
-0.252938 0.431303 0.000000
0.319654 -0.384475 0.000000
-0.244088 0.436373 0.000000
0.327430 -0.377875 0.000000
-0.235136 0.441261 0.000000
0.335070 -0.371117 0.000000
-0.226086 0.445965 0.000000
0.342571 -0.364205 0.000000
-0.216942 0.450484 0.000000
0.349929 -0.357141 0.000000
-0.207707 0.454816 0.000000
0.357141 -0.349929 0.000000
-0.198386 0.458958 0.000000
0.364205 -0.342571 0.000000
-0.188983 0.462910 0.000000
0.371117 -0.335070 0.000000
-0.179501 0.466668 0.000000
0.377875 -0.327430 0.000000
-0.169944 0.470233 0.000000
0.384475 -0.319654 0.000000
-0.160317 0.473602 0.000000
0.390916 -0.311745 0.000000
-0.150623 0.476773 0.000000
0.397194 -0.303706 0.000000
-0.140866 0.479747 0.000000
0.403306 -0.295541 0.000000
-0.131050 0.482520 0.000000
0.409251 -0.287252 0.000000
-0.121178 0.485094 0.000000
0.415025 -0.278844 0.000000
-0.111256 0.487465 0.000000
0.420627 -0.270320 0.000000
-0.101287 0.489633 0.000000
0.426054 -0.261684 0.000000
-0.091277 0.491598 0.000000
0.431303 -0.252938 0.000000
-0.081229 0.493358 0.000000
0.436373 -0.244088 0.000000
-0.071148 0.494912 0.000000
0.441261 -0.235136 0.000000
-0.061039 0.496260 0.000000
0.445965 -0.226086 0.000000
-0.050904 0.497402 0.000000
0.450484 -0.216942 0.000000
-0.040749 0.498337 0.000000
0.454816 -0.207707 0.000000
-0.030577 0.499064 0.000000
0.458958 -0.198386 0.000000
-0.020392 0.499584 0.000000
0.462910 -0.188983 0.000000
-0.010199 0.499896 0.000000
0.466668 -0.179501 0.000000
0.000000 0.500000 0.000000
0.470233 -0.169944 0.000000
0.010199 0.499896 0.000000
0.473602 -0.160317 0.000000
0.020392 0.499584 0.000000
0.476773 -0.150623 0.000000
0.030577 0.499064 0.000000
0.479747 -0.140866 0.000000
0.040749 0.498337 0.000000
0.482520 -0.131050 0.000000
0.050904 0.497402 0.000000
0.485094 -0.121178 0.000000
0.061039 0.496260 0.000000
0.487465 -0.111256 0.000000
0.071148 0.494912 0.000000
0.489633 -0.101287 0.000000
0.081229 0.493358 0.000000
0.491598 -0.091277 0.000000
0.091277 0.491598 0.000000
0.493358 -0.081229 0.000000
0.101287 0.489633 0.000000
0.494912 -0.071148 0.000000
0.111256 0.487465 0.000000
0.496260 -0.061039 0.000000
0.121178 0.485094 0.000000
0.497402 -0.050904 0.000000
0.131050 0.482520 0.000000
0.498337 -0.040749 0.000000
0.140866 0.479747 0.000000
0.499064 -0.030577 0.000000
0.150623 0.476773 0.000000
0.499584 -0.020392 0.000000
0.160317 0.473602 0.000000
0.499896 -0.010199 0.000000
0.169944 0.470233 0.000000
0.500000 0.000000 0.000000
0.179501 0.466668 0.000000
0.499896 0.010199 0.000000
0.188983 0.462910 0.000000
0.499584 0.020392 0.000000
0.198386 0.458958 0.000000
0.499064 0.030577 0.000000
0.207707 0.454816 0.000000
0.498337 0.040749 0.000000
0.216942 0.450484 0.000000
0.497402 0.050904 0.000000
0.226086 0.445965 0.000000
0.496260 0.061039 0.000000
0.235136 0.441261 0.000000
0.494912 0.071148 0.000000
0.244088 0.436373 0.000000
0.493358 0.081229 0.000000
0.252938 0.431303 0.000000
0.491598 0.091277 0.000000
0.261684 0.426054 0.000000
0.489633 0.101287 0.000000
0.270320 0.420627 0.000000
0.487465 0.111256 0.000000
0.278844 0.415025 0.000000
0.485094 0.121178 0.000000
0.287252 0.409251 0.000000
0.482520 0.131050 0.000000
0.295541 0.403306 0.000000
0.479747 0.140866 0.000000
0.303706 0.397194 0.000000
0.476773 0.150623 0.000000
0.311745 0.390916 0.000000
0.473602 0.160317 0.000000
0.319654 0.384475 0.000000
0.470233 0.169944 0.000000
0.327430 0.377875 0.000000
0.466668 0.179501 0.000000
0.335070 0.371117 0.000000
0.462910 0.188983 0.000000
0.342571 0.364205 0.000000
0.458958 0.198386 0.000000
0.349929 0.357141 0.000000
0.454816 0.207707 0.000000
0.357141 0.349929 0.000000
0.450484 0.216942 0.000000
0.364205 0.342571 0.000000
0.445965 0.226086 0.000000
0.371117 0.335070 0.000000
0.441261 0.235136 0.000000
0.377875 0.327430 0.000000
0.436373 0.244088 0.000000
0.384475 0.319654 0.000000
0.431303 0.252938 0.000000
0.390916 0.311745 0.000000
0.426054 0.261684 0.000000
0.397194 0.303706 0.000000
0.420627 0.270320 0.000000
0.415025 0.278844 0.000000
0.403306 0.295541 0.000000
0.409251 0.287252 0.000000
-0.416651 -0.285100 0.000000
-0.409726 -0.295166 0.000000
-0.421429 -0.278105 0.000000
-0.403699 -0.303357 0.000000
-0.426806 -0.269823 0.000000
-0.397508 -0.311425 0.000000
-0.432197 -0.261278 0.000000
-0.391157 -0.319367 0.000000
-0.437327 -0.252500 0.000000
-0.384646 -0.327179 0.000000
-0.442314 -0.243721 0.000000
-0.377979 -0.334859 0.000000
-0.446941 -0.235122 0.000000
-0.450784 -0.228337 0.000000
-0.370462 -0.343155 0.000000
-0.455028 -0.219045 0.000000
-0.452668 -0.223420 0.000000
-0.364060 -0.349914 0.000000
-0.459296 -0.209724 0.000000
-0.457282 -0.214033 0.000000
-0.357103 -0.357057 0.000000
-0.461352 -0.204833 0.000000
-0.463724 -0.200363 0.000000
-0.350055 -0.363925 0.000000
-0.465669 -0.195543 0.000000
-0.467695 -0.190817 0.000000
-0.343998 -0.369738 0.000000
-0.471431 -0.181492 0.000000
-0.469405 -0.186286 0.000000
-0.334859 -0.377979 0.000000
-0.472952 -0.176626 0.000000
-0.474903 -0.171777 0.000000
-0.327179 -0.384646 0.000000
-0.478846 -0.161727 0.000000
-0.476435 -0.167155 0.000000
-0.319367 -0.391157 0.000000
-0.480787 -0.154555 0.000000
-0.311425 -0.397508 0.000000
-0.483607 -0.145275 0.000000
-0.303357 -0.403699 0.000000
-0.486452 -0.135600 0.000000
-0.293440 -0.410921 0.000000
-0.489031 -0.125774 0.000000
-0.286535 -0.415757 0.000000
-0.491508 -0.115921 0.000000
-0.278352 -0.421319 0.000000
-0.493686 -0.106038 0.000000
-0.269886 -0.426828 0.000000
-0.495651 -0.096362 0.000000
-0.261233 -0.432144 0.000000
-0.497198 -0.088074 0.000000
-0.252462 -0.437285 0.000000
-0.499250 -0.075953 0.000000
-0.243613 -0.442280 0.000000
-0.500654 -0.065906 0.000000
-0.234715 -0.447127 0.000000
-0.228640 -0.450519 0.000000
-0.501880 -0.055811 0.000000
-0.218895 -0.455215 0.000000
-0.223224 -0.452881 0.000000
-0.502902 -0.045695 0.000000
-0.209733 -0.459391 0.000000
-0.214212 -0.457190 0.000000
-0.503721 -0.035560 0.000000
-0.200365 -0.463733 0.000000
-0.204804 -0.461613 0.000000
-0.195531 -0.465664 0.000000
-0.190784 -0.467722 0.000000
-0.504503 -0.023225 0.000000
-0.186244 -0.469425 0.000000
-0.181531 -0.471460 0.000000
-0.504773 -0.013853 0.000000
-0.176954 -0.472745 0.000000
-0.171678 -0.474859 0.000000
-0.505074 -0.003656 0.000000
-0.167137 -0.476450 0.000000
-0.161673 -0.478820 0.000000
-0.504932 0.006910 0.000000
-0.154529 -0.480797 0.000000
-0.504834 0.020042 0.000000
-0.145171 -0.483695 0.000000
-0.503551 0.037586 0.000000
-0.135593 -0.486453 0.000000
-0.502892 0.045680 0.000000
-0.125775 -0.489083 0.000000
-0.502191 0.053713 0.000000
-0.115940 -0.491464 0.000000
-0.500654 0.065906 0.000000
-0.106312 -0.493603 0.000000
-0.499225 0.075974 0.000000
-0.098005 -0.495252 0.000000
-0.497594 0.086013 0.000000
-0.086013 -0.497594 0.000000
-0.495252 0.098004 0.000000
-0.075974 -0.499225 0.000000
-0.493597 0.106314 0.000000
-0.065906 -0.500654 0.000000
-0.491428 0.115952 0.000000
-0.053714 -0.502191 0.000000
-0.489011 0.125775 0.000000
-0.045680 -0.502892 0.000000
-0.486412 0.135576 0.000000
-0.037586 -0.503551 0.000000
-0.483678 0.145285 0.000000
-0.480787 0.154548 0.000000
-0.478775 0.161676 0.000000
-0.019993 -0.505013 0.000000
-0.474875 0.171814 0.000000
-0.476450 0.167142 0.000000
-0.006399 -0.504863 0.000000
-0.471460 0.181500 0.000000
-0.472984 0.176743 0.000000
0.004056 -0.505080 0.000000
-0.469459 0.186171 0.000000
-0.467574 0.190927 0.000000
0.014245 -0.504767 0.000000
-0.465619 0.195494 0.000000
-0.463733 0.200332 0.000000
0.023224 -0.504502 0.000000
-0.461448 0.204867 0.000000
-0.459421 0.209641 0.000000
0.035560 -0.503721 0.000000
-0.457230 0.214138 0.000000
-0.455198 0.218914 0.000000
0.045695 -0.502902 0.000000
-0.452908 0.223198 0.000000
-0.450716 0.228508 0.000000
0.055811 -0.501880 0.000000
-0.446914 0.235146 0.000000
0.065906 -0.500654 0.000000
-0.442240 0.243700 0.000000
0.075974 -0.499225 0.000000
-0.437272 0.252473 0.000000
0.088074 -0.497198 0.000000
-0.432109 0.261213 0.000000
0.096362 -0.495651 0.000000
-0.426787 0.269860 0.000000
0.106034 -0.493683 0.000000
-0.421297 0.278338 0.000000
0.115913 -0.491500 0.000000
-0.415757 0.286535 0.000000
0.125776 -0.489039 0.000000
-0.410932 0.293439 0.000000
0.135601 -0.486450 0.000000
-0.403699 0.303357 0.000000
0.145277 -0.483606 0.000000
-0.397508 0.311425 0.000000
0.154557 -0.480774 0.000000
0.161733 -0.478769 0.000000
-0.391157 0.319367 0.000000
0.167091 -0.476488 0.000000
0.171718 -0.474954 0.000000
-0.384646 0.327179 0.000000
0.176707 -0.473000 0.000000
0.181505 -0.471475 0.000000
-0.377979 0.334859 0.000000
0.186295 -0.469391 0.000000
0.190925 -0.467576 0.000000
-0.369765 0.344010 0.000000
0.195633 -0.465648 0.000000
0.200345 -0.463770 0.000000
-0.363926 0.350050 0.000000
0.209734 -0.459450 0.000000
0.204910 -0.461509 0.000000
-0.357034 0.357061 0.000000
0.214072 -0.457247 0.000000
0.218980 -0.455067 0.000000
-0.349993 0.364032 0.000000
0.228256 -0.450815 0.000000
0.223408 -0.452712 0.000000
-0.343912 0.369752 0.000000
0.235109 -0.446946 0.000000
-0.334859 0.377979 0.000000
0.243720 -0.442311 0.000000
-0.327179 0.384646 0.000000
0.252483 -0.437299 0.000000
-0.319367 0.391157 0.000000
0.261251 -0.432197 0.000000
-0.311425 0.397508 0.000000
0.269819 -0.426806 0.000000
-0.303357 0.403699 0.000000
0.278114 -0.421436 0.000000
-0.295166 0.409726 0.000000
0.285106 -0.416757 0.000000
-0.285453 0.416477 0.000000
0.295191 -0.409722 0.000000
-0.278168 0.421408 0.000000
0.303357 -0.403699 0.000000
-0.269849 0.426857 0.000000
0.311425 -0.397508 0.000000
-0.261220 0.432122 0.000000
0.319367 -0.391157 0.000000
-0.252526 0.437285 0.000000
0.327179 -0.384646 0.000000
-0.243742 0.442304 0.000000
0.334859 -0.377979 0.000000
-0.235192 0.446897 0.000000
-0.228742 0.450552 0.000000
0.343167 -0.370539 0.000000
-0.223460 0.452663 0.000000
-0.218979 0.455026 0.000000
0.349916 -0.364073 0.000000
-0.214046 0.457197 0.000000
-0.209660 0.459391 0.000000
0.357057 -0.357104 0.000000
-0.200375 0.463730 0.000000
-0.204910 0.461372 0.000000
0.363930 -0.350058 0.000000
-0.195557 0.465613 0.000000
-0.190944 0.467564 0.000000
0.369764 -0.344011 0.000000
-0.181545 0.471428 0.000000
-0.186254 0.469430 0.000000
0.377979 -0.334859 0.000000
-0.176635 0.472984 0.000000
-0.171918 0.474870 0.000000
0.384646 -0.327179 0.000000
-0.161683 0.478683 0.000000
-0.167009 0.476454 0.000000
0.391157 -0.319367 0.000000
-0.154877 0.480582 0.000000
0.397508 -0.311425 0.000000
-0.145423 0.483611 0.000000
0.403699 -0.303357 0.000000
-0.135605 0.486389 0.000000
0.410921 -0.293440 0.000000
-0.125786 0.489034 0.000000
0.415757 -0.286535 0.000000
-0.115924 0.491501 0.000000
0.421276 -0.278351 0.000000
-0.106038 0.493682 0.000000
0.426786 -0.269861 0.000000
-0.096362 0.495651 0.000000
0.432129 -0.261224 0.000000
-0.088074 0.497198 0.000000
0.437364 -0.252518 0.000000
-0.075974 0.499225 0.000000
0.442255 -0.243696 0.000000
-0.065906 0.500654 0.000000
0.446901 -0.235165 0.000000
0.450626 -0.228629 0.000000
-0.055811 0.501880 0.000000
0.452863 -0.223239 0.000000
0.455037 -0.219014 0.000000
-0.045695 0.502902 0.000000
0.457157 -0.214077 0.000000
0.459396 -0.209621 0.000000
-0.035560 0.503721 0.000000
0.461359 -0.204897 0.000000
0.463695 -0.200361 0.000000
-0.023304 0.504424 0.000000
0.465641 -0.195495 0.000000
0.467606 -0.190951 0.000000
-0.014879 0.504782 0.000000
0.469414 -0.186248 0.000000
0.471411 -0.181540 0.000000
-0.005033 0.504925 0.000000
0.472918 -0.176630 0.000000
0.474886 -0.171779 0.000000
0.005043 0.504929 0.000000
0.476453 -0.167022 0.000000
0.478685 -0.161862 0.000000
0.014951 0.504764 0.000000
0.480771 -0.154583 0.000000
0.023215 0.504525 0.000000
0.483673 -0.145303 0.000000
0.037586 0.503551 0.000000
0.486450 -0.135593 0.000000
0.045750 0.502896 0.000000
0.489087 -0.125805 0.000000
0.053799 0.502083 0.000000
0.491453 -0.115970 0.000000
0.065906 0.500654 0.000000
0.493600 -0.106336 0.000000
0.075974 0.499225 0.000000
0.495243 -0.098118 0.000000
0.086013 0.497594 0.000000
0.497594 -0.086013 0.000000
0.098116 0.495243 0.000000
0.499225 -0.075974 0.000000
0.106336 0.493600 0.000000
0.500654 -0.065906 0.000000
0.115972 0.491452 0.000000
0.502084 -0.053799 0.000000
0.125820 0.489079 0.000000
0.502897 -0.045748 0.000000
0.135587 0.486408 0.000000
0.503551 -0.037586 0.000000
0.145284 0.483678 0.000000
0.504412 -0.023728 0.000000
0.154553 0.480792 0.000000
0.504678 -0.016946 0.000000
0.161702 0.478804 0.000000
0.166954 0.476453 0.000000
0.504949 -0.002996 0.000000
0.171459 0.474989 0.000000
0.176706 0.472959 0.000000
0.504952 0.005359 0.000000
0.181613 0.471429 0.000000
0.186155 0.469450 0.000000
0.504776 0.014970 0.000000
0.190941 0.467614 0.000000
0.195461 0.465640 0.000000
0.504507 0.023301 0.000000
0.200321 0.463696 0.000000
0.204665 0.461639 0.000000
0.503721 0.035560 0.000000
0.209779 0.459311 0.000000
0.214128 0.457065 0.000000
0.502902 0.045695 0.000000
0.218898 0.455083 0.000000
0.223160 0.452917 0.000000
0.501880 0.055811 0.000000
0.228588 0.450696 0.000000
0.500654 0.065906 0.000000
0.235160 0.446911 0.000000
0.499225 0.075974 0.000000
0.243704 0.442242 0.000000
0.497198 0.088074 0.000000
0.252477 0.437275 0.000000
0.495651 0.096362 0.000000
0.261232 0.432125 0.000000
0.493684 0.106044 0.000000
0.269859 0.426787 0.000000
0.491464 0.115912 0.000000
0.278336 0.421300 0.000000
0.489031 0.125776 0.000000
0.286532 0.415761 0.000000
0.486389 0.135603 0.000000
0.293440 0.410921 0.000000
0.483609 0.145424 0.000000
0.303357 0.403699 0.000000
0.480578 0.154802 0.000000
0.311425 0.397508 0.000000
0.478655 0.161751 0.000000
0.476452 0.166982 0.000000
0.319367 0.391157 0.000000
0.474971 0.171610 0.000000
0.472982 0.176607 0.000000
0.327179 0.384646 0.000000
0.471433 0.181509 0.000000
0.469353 0.186363 0.000000
0.334859 0.377979 0.000000
0.467613 0.190886 0.000000
0.465645 0.195476 0.000000
0.344010 0.369764 0.000000
0.461373 0.204887 0.000000
0.463686 0.200316 0.000000
0.350057 0.363930 0.000000
0.459353 0.209725 0.000000
0.457070 0.214141 0.000000
0.357100 0.357062 0.000000
0.452708 0.223419 0.000000
0.455125 0.218877 0.000000
0.364020 0.349971 0.000000
0.450552 0.228739 0.000000
0.370222 0.343498 0.000000
0.446889 0.235184 0.000000
0.377979 0.334859 0.000000
0.442252 0.243700 0.000000
0.384646 0.327179 0.000000
0.437360 0.252522 0.000000
0.391146 0.319394 0.000000
0.432139 0.261225 0.000000
0.397501 0.311463 0.000000
0.426837 0.269829 0.000000
0.403699 0.303357 0.000000
0.421434 0.278106 0.000000
0.416650 0.285100 0.000000
0.409726 0.295166 0.000000
CELLS 1364 5456
3 624 2 0
3 624 0 1
3 624 1 317
3 317 626 624
3 626 317 319
3 319 628 626
3 4 626 628
3 628 6 4
3 6 628 630
3 630 8 6
3 8 630 632
3 632 10 8
3 10 632 634
3 634 12 10
3 12 634 636
3 636 14 12
3 14 636 637
3 637 16 14
3 640 16 637
3 637 329 640
3 640 329 331
3 639 640 331
3 639 331 643
3 643 18 639
3 639 18 16
3 643 642 18
3 642 20 18
3 645 20 642
3 642 333 645
3 645 333 335
3 646 645 335
3 646 335 648
3 648 22 646
3 646 22 20
3 648 649 22
3 649 24 22
3 652 24 649
3 649 337 652
3 652 337 339
3 651 652 339
3 651 339 654
3 654 26 651
3 651 26 24
3 654 655 26
3 655 28 26
3 658 28 655
3 655 341 658
3 658 341 343
3 657 658 343
3 657 343 660
3 30 657 660
3 660 32 30
3 32 660 662
3 662 34 32
3 34 662 664
3 664 36 34
3 36 664 666
3 666 38 36
3 38 666 668
3 668 40 38
3 40 668 670
3 670 42 40
3 42 670 672
3 672 44 42
3 44 672 674
3 674 46 44
3 674 359 46
3 676 46 359
3 676 359 361
3 676 361 48
3 678 48 361
3 678 361 363
3 678 363 50
3 681 50 363
3 681 363 365
3 681 365 52
3 684 52 365
3 684 365 367
3 684 367 54
3 687 54 367
3 687 367 369
3 687 369 56
3 692 56 369
3 692 369 371
3 371 695 692
3 58 692 695
3 695 60 58
3 60 695 698
3 698 62 60
3 62 698 701
3 701 64 62
3 64 701 703
3 65 64 703
3 65 703 67
3 67 703 381
3 705 67 381
3 705 381 383
3 383 707 705
3 69 705 707
3 707 71 69
3 71 707 709
3 709 73 71
3 709 387 73
3 711 73 387
3 711 387 389
3 711 389 75
3 713 75 389
3 713 389 391
3 713 391 77
3 715 77 391
3 715 391 393
3 715 393 79
3 717 79 393
3 717 393 395
3 395 719 717
3 81 717 719
3 719 83 81
3 83 719 721
3 721 85 83
3 85 721 723
3 723 87 85
3 87 723 725
3 725 89 87
3 89 725 727
3 727 91 89
3 91 727 728
3 728 92 91
3 92 728 729
3 729 95 92
3 732 95 729
3 729 407 732
3 732 407 409
3 731 732 409
3 731 409 735
3 735 97 731
3 731 97 95
3 735 734 97
3 734 99 97
3 737 99 734
3 734 411 737
3 737 411 413
3 738 737 413
3 738 413 740
3 740 101 738
3 738 101 99
3 740 741 101
3 741 103 101
3 743 103 741
3 741 415 743
3 743 415 417
3 744 743 417
3 744 417 746
3 746 105 744
3 744 105 103
3 746 747 105
3 747 107 105
3 749 107 747
3 747 419 749
3 749 419 421
3 750 749 421
3 750 421 752
3 109 750 752
3 752 111 109
3 111 752 754
3 754 113 111
3 113 754 756
3 756 115 113
3 115 756 758
3 758 117 115
3 117 758 760
3 760 119 117
3 119 760 762
3 762 121 119
3 121 762 764
3 764 123 121
3 123 764 766
3 766 125 123
3 766 437 125
3 768 125 437
3 768 437 439
3 768 439 127
3 770 127 439
3 770 439 441
3 770 441 130
3 773 130 441
3 773 441 443
3 773 443 132
3 776 132 443
3 776 443 445
3 776 445 134
3 779 134 445
3 779 445 447
3 779 447 136
3 782 136 447
3 782 447 449
3 449 785 782
3 138 782 785
3 785 140 138
3 140 785 788
3 788 142 140
3 142 788 791
3 791 144 142
3 144 791 794
3 794 146 144
3 794 457 146
3 796 146 457
3 796 457 459
3 796 459 148
3 798 148 459
3 798 459 461
3 798 461 150
3 800 150 461
3 800 461 463
3 800 463 152
3 802 152 463
3 802 463 465
3 802 465 154
3 804 154 465
3 804 465 467
3 804 467 156
3 806 156 467
3 806 467 469
3 806 469 158
3 808 158 469
3 808 469 471
3 471 810 808
3 160 808 810
3 810 162 160
3 162 810 812
3 812 164 162
3 164 812 814
3 814 166 164
3 166 814 816
3 816 168 166
3 168 816 818
3 818 170 168
3 170 818 820
3 820 172 170
3 172 820 821
3 821 174 172
3 823 174 821
3 821 483 823
3 823 483 485
3 824 823 485
3 824 485 826
3 826 176 824
3 824 176 174
3 826 827 176
3 827 178 176
3 830 178 827
3 827 487 830
3 830 487 489
3 829 830 489
3 829 489 832
3 832 180 829
3 829 180 178
3 832 833 180
3 833 182 180
3 836 182 833
3 833 491 836
3 836 491 493
3 835 836 493
3 835 493 838
3 838 184 835
3 835 184 182
3 838 839 184
3 839 186 184
3 842 186 839
3 839 495 842
3 842 495 497
3 841 842 497
3 841 497 844
3 188 841 844
3 844 190 188
3 190 844 846
3 846 192 190
3 192 846 848
3 848 194 192
3 194 848 850
3 850 196 194
3 196 850 852
3 852 198 196
3 198 852 854
3 854 200 198
3 200 854 856
3 856 202 200
3 202 856 858
3 858 204 202
3 858 513 204
3 860 204 513
3 860 513 515
3 860 515 206
3 862 206 515
3 862 515 517
3 862 517 208
3 865 208 517
3 865 517 519
3 865 519 210
3 868 210 519
3 868 519 521
3 868 521 212
3 871 212 521
3 871 521 523
3 871 523 214
3 874 214 523
3 874 523 525
3 525 877 874
3 216 874 877
3 877 218 216
3 218 877 880
3 880 220 218
3 220 880 883
3 883 222 220
3 222 883 886
3 886 224 222
3 224 886 888
3 888 226 224
3 888 535 226
3 890 226 535
3 890 535 537
3 537 892 890
3 228 890 892
3 892 230 228
3 230 892 894
3 894 232 230
3 894 541 232
3 896 232 541
3 896 541 543
3 896 543 234
3 898 234 543
3 898 543 545
3 898 545 236
3 900 236 545
3 900 545 547
3 900 547 238
3 902 238 547
3 902 547 549
3 549 904 902
3 902 904 240
3 904 242 240
3 242 904 906
3 906 244 242
3 244 906 908
3 908 246 244
3 246 908 910
3 910 248 246
3 248 910 912
3 912 250 248
3 250 912 914
3 914 252 250
3 252 914 916
3 916 254 252
3 917 254 916
3 916 561 917
3 917 561 563
3 919 917 563
3 919 563 920
3 920 256 919
3 919 256 254
3 920 922 256
3 922 258 256
3 923 258 922
3 922 565 923
3 923 565 567
3 925 923 567
3 925 567 926
3 926 260 925
3 925 260 258
3 926 928 260
3 928 262 260
3 929 262 928
3 928 569 929
3 929 569 571
3 931 929 571
3 931 571 932
3 932 264 931
3 931 264 262
3 932 934 264
3 934 266 264
3 935 266 934
3 934 573 935
3 935 573 575
3 937 935 575
3 937 575 939
3 268 937 939
3 939 270 268
3 270 939 941
3 941 272 270
3 272 941 943
3 943 274 272
3 274 943 945
3 945 276 274
3 276 945 947
3 947 278 276
3 278 947 949
3 949 280 278
3 280 949 951
3 951 282 280
3 282 951 953
3 953 284 282
3 953 591 284
3 955 284 591
3 955 591 593
3 955 593 286
3 957 286 593
3 957 593 595
3 957 595 288
3 960 288 595
3 960 595 597
3 960 597 290
3 963 290 597
3 963 597 599
3 963 599 292
3 966 292 599
3 966 599 601
3 966 601 294
3 969 294 601
3 969 601 603
3 603 972 969
3 296 969 972
3 972 298 296
3 298 972 975
3 975 300 298
3 300 975 978
3 978 302 300
3 302 978 980
3 980 304 302
3 980 611 304
3 982 304 611
3 982 611 613
3 982 613 306
3 984 306 613
3 984 613 615
3 984 615 308
3 986 308 615
3 986 615 617
3 986 617 310
3 988 310 617
3 988 617 619
3 988 619 312
3 990 312 619
3 990 619 622
3 990 622 314
3 993 314 622
3 993 622 623
3 993 623 316
3 992 316 623
3 992 623 621
3 621 991 992
3 315 992 991
3 991 313 315
3 313 991 989
3 989 311 313
3 311 989 987
3 987 309 311
3 309 987 985
3 985 307 309
3 307 985 983
3 983 305 307
3 305 983 981
3 981 303 305
3 303 981 979
3 979 301 303
3 976 301 979
3 979 610 976
3 976 610 608
3 977 976 608
3 977 608 974
3 974 299 977
3 977 299 301
3 974 973 299
3 973 297 299
3 970 297 973
3 973 606 970
3 970 606 604
3 971 970 604
3 971 604 968
3 968 295 971
3 971 295 297
3 968 967 295
3 967 293 295
3 965 293 967
3 967 602 965
3 965 602 600
3 964 965 600
3 964 600 962
3 962 291 964
3 964 291 293
3 962 961 291
3 961 289 291
3 959 289 961
3 961 598 959
3 959 598 596
3 958 959 596
3 958 596 956
3 287 958 956
3 956 285 287
3 285 956 954
3 954 283 285
3 283 954 952
3 952 281 283
3 281 952 950
3 950 279 281
3 279 950 948
3 948 277 279
3 277 948 946
3 946 275 277
3 275 946 944
3 944 273 275
3 273 944 942
3 942 271 273
3 942 580 271
3 940 271 580
3 940 580 578
3 940 578 269
3 938 269 578
3 938 578 576
3 938 576 267
3 936 267 576
3 936 576 574
3 936 574 265
3 933 265 574
3 933 574 572
3 933 572 263
3 930 263 572
3 930 572 570
3 930 570 261
3 927 261 570
3 927 570 568
3 568 924 927
3 259 927 924
3 924 257 259
3 257 924 921
3 921 255 257
3 255 921 918
3 918 253 255
3 918 562 253
3 915 253 562
3 915 562 560
3 560 913 915
3 251 915 913
3 913 249 251
3 913 558 249
3 911 249 558
3 911 558 556
3 556 909 911
3 247 911 909
3 909 245 247
3 245 909 907
3 907 243 245
3 907 552 243
3 905 243 552
3 905 552 550
3 905 550 241
3 903 241 550
3 903 550 548
3 903 548 239
3 901 239 548
3 901 548 546
3 901 546 237
3 899 237 546
3 899 546 544
3 544 897 899
3 899 897 235
3 897 233 235
3 233 897 895
3 895 231 233
3 231 895 893
3 893 229 231
3 229 893 891
3 891 227 229
3 227 891 889
3 889 225 227
3 225 889 887
3 887 223 225
3 223 887 885
3 885 221 223
3 884 221 885
3 885 532 884
3 884 532 530
3 882 884 530
3 882 530 881
3 881 219 882
3 882 219 221
3 881 879 219
3 879 217 219
3 878 217 879
3 879 528 878
3 878 528 526
3 876 878 526
3 876 526 875
3 875 215 876
3 876 215 217
3 875 873 215
3 873 213 215
3 872 213 873
3 873 524 872
3 872 524 522
3 870 872 522
3 870 522 869
3 869 211 870
3 870 211 213
3 869 867 211
3 867 209 211
3 866 209 867
3 867 520 866
3 866 520 518
3 864 866 518
3 864 518 863
3 207 864 863
3 863 205 207
3 205 863 861
3 861 203 205
3 203 861 859
3 859 201 203
3 201 859 857
3 857 199 201
3 199 857 855
3 855 197 199
3 197 855 853
3 853 195 197
3 195 853 851
3 851 193 195
3 193 851 849
3 849 191 193
3 849 502 191
3 847 191 502
3 847 502 500
3 847 500 189
3 845 189 500
3 845 500 498
3 845 498 187
3 843 187 498
3 843 498 496
3 843 496 185
3 840 185 496
3 840 496 494
3 840 494 183
3 837 183 494
3 837 494 492
3 837 492 181
3 834 181 492
3 834 492 490
3 490 831 834
3 179 834 831
3 831 177 179
3 177 831 828
3 828 175 177
3 175 828 825
3 825 173 175
3 173 825 822
3 822 171 173
3 822 482 171
3 819 171 482
3 819 482 480
3 819 480 169
3 817 169 480
3 817 480 478
3 817 478 167
3 815 167 478
3 815 478 476
3 815 476 165
3 813 165 476
3 813 476 474
3 813 474 163
3 811 163 474
3 811 474 472
3 811 472 161
3 809 161 472
3 809 472 470
3 809 470 159
3 807 159 470
3 807 470 468
3 468 805 807
3 157 807 805
3 805 155 157
3 155 805 803
3 803 153 155
3 153 803 801
3 801 151 153
3 151 801 799
3 799 149 151
3 149 799 797
3 797 147 149
3 147 797 795
3 795 145 147
3 145 795 792
3 792 143 145
3 793 143 792
3 792 456 793
3 793 456 454
3 790 793 454
3 790 454 789
3 789 141 790
3 790 141 143
3 789 786 141
3 786 139 141
3 787 139 786
3 786 452 787
3 787 452 450
3 784 787 450
3 784 450 783
3 783 137 784
3 784 137 139
3 783 781 137
3 781 135 137
3 780 135 781
3 781 448 780
3 780 448 446
3 778 780 446
3 778 446 777
3 777 133 778
3 778 133 135
3 777 775 133
3 775 131 133
3 774 131 775
3 775 444 774
3 774 444 442
3 772 774 442
3 772 442 771
3 129 772 771
3 771 128 129
3 128 771 769
3 769 126 128
3 126 769 767
3 767 124 126
3 124 767 765
3 765 122 124
3 122 765 763
3 763 120 122
3 120 763 761
3 761 118 120
3 118 761 759
3 759 116 118
3 116 759 757
3 757 114 116
3 757 426 114
3 755 114 426
3 755 426 424
3 755 424 112
3 753 112 424
3 753 424 422
3 753 422 110
3 751 110 422
3 751 422 420
3 751 420 108
3 748 108 420
3 748 420 418
3 748 418 106
3 745 106 418
3 745 418 416
3 745 416 104
3 742 104 416
3 742 416 414
3 414 739 742
3 102 742 739
3 739 100 102
3 100 739 736
3 736 98 100
3 98 736 733
3 733 96 98
3 96 733 730
3 94 96 730
3 94 730 93
3 93 730 404
3 726 93 404
3 726 404 402
3 402 724 726
3 90 726 724
3 724 88 90
3 88 724 722
3 722 86 88
3 722 398 86
3 720 86 398
3 720 398 396
3 720 396 84
3 718 84 396
3 718 396 394
3 718 394 82
3 716 82 394
3 716 394 392
3 716 392 80
3 714 80 392
3 714 392 390
3 390 712 714
3 78 714 712
3 712 76 78
3 76 712 710
3 710 74 76
3 74 710 708
3 708 72 74
3 72 708 706
3 706 70 72
3 70 706 704
3 704 68 70
3 68 704 702
3 702 66 68
3 66 702 700
3 700 63 66
3 699 63 700
3 700 378 699
3 699 378 376
3 697 699 376
3 697 376 696
3 696 61 697
3 697 61 63
3 696 694 61
3 694 59 61
3 693 59 694
3 694 374 693
3 693 374 372
3 691 693 372
3 691 372 690
3 690 57 691
3 691 57 59
3 690 688 57
3 688 55 57
3 689 55 688
3 688 370 689
3 689 370 368
3 685 689 368
3 685 368 686
3 686 53 685
3 685 53 55
3 686 682 53
3 682 51 53
3 683 51 682
3 682 366 683
3 683 366 364
3 680 683 364
3 680 364 679
3 49 680 679
3 679 47 49
3 47 679 677
3 677 45 47
3 45 677 675
3 675 43 45
3 43 675 673
3 673 41 43
3 41 673 671
3 671 39 41
3 39 671 669
3 669 37 39
3 37 669 667
3 667 35 37
3 35 667 665
3 665 33 35
3 665 348 33
3 663 33 348
3 663 348 346
3 663 346 31
3 661 31 346
3 661 346 344
3 661 344 29
3 659 29 344
3 659 344 342
3 659 342 27
3 656 27 342
3 656 342 340
3 656 340 25
3 653 25 340
3 653 340 338
3 653 338 23
3 650 23 338
3 650 338 336
3 336 647 650
3 21 650 647
3 647 19 21
3 19 647 644
3 644 17 19
3 17 644 641
3 641 15 17
3 15 641 638
3 638 13 15
3 638 328 13
3 635 13 328
3 635 328 326
3 635 326 11
3 633 11 326
3 633 326 324
3 633 324 9
3 631 9 324
3 631 324 322
3 631 322 7
3 629 7 322
3 629 322 320
3 629 320 5
3 627 5 320
3 627 320 318
3 627 318 3
3 625 3 318
3 625 318 1
3 625 0 3
3 627 3 5
3 629 5 7
3 631 7 9
3 633 9 11
3 635 11 13
3 638 330 328
3 330 638 641
3 641 332 330
3 332 641 644
3 644 334 332
3 334 644 647
3 647 336 334
3 650 21 23
3 653 23 25
3 656 25 27
3 659 27 29
3 661 29 31
3 663 31 33
3 665 350 348
3 350 665 667
3 667 352 350
3 352 667 669
3 669 354 352
3 354 669 671
3 671 356 354
3 356 671 673
3 673 358 356
3 358 673 675
3 675 360 358
3 360 675 677
3 677 362 360
3 362 677 679
3 680 49 51
3 679 364 362
3 683 680 51
3 682 686 366
3 686 368 366
3 689 685 55
3 688 690 370
3 690 372 370
3 693 691 59
3 694 696 374
3 696 376 374
3 699 697 63
3 700 702 378
3 702 380 378
3 380 702 704
3 704 382 380
3 382 704 706
3 706 384 382
3 384 706 708
3 708 386 384
3 386 708 710
3 710 388 386
3 388 710 712
3 712 390 388
3 714 78 80
3 716 80 82
3 718 82 84
3 720 84 86
3 722 400 398
3 400 722 724
3 724 402 400
3 726 90 93
3 406 404 730
3 406 730 408
3 408 730 733
3 733 410 408
3 410 733 736
3 736 412 410
3 412 736 739
3 739 414 412
3 742 102 104
3 745 104 106
3 748 106 108
3 751 108 110
3 753 110 112
3 755 112 114
3 757 428 426
3 428 757 759
3 759 430 428
3 430 759 761
3 761 432 430
3 432 761 763
3 763 434 432
3 434 763 765
3 765 436 434
3 436 765 767
3 767 438 436
3 438 767 769
3 769 440 438
3 440 769 771
3 772 129 131
3 771 442 440
3 774 772 131
3 775 777 444
3 777 446 444
3 780 778 135
3 781 783 448
3 783 450 448
3 787 784 139
3 786 789 452
3 789 454 452
3 793 790 143
3 792 795 456
3 795 458 456
3 458 795 797
3 797 460 458
3 460 797 799
3 799 462 460
3 462 799 801
3 801 464 462
3 464 801 803
3 803 466 464
3 466 803 805
3 805 468 466
3 807 157 159
3 809 159 161
3 811 161 163
3 813 163 165
3 815 165 167
3 817 167 169
3 819 169 171
3 822 484 482
3 484 822 825
3 825 486 484
3 486 825 828
3 828 488 486
3 488 828 831
3 831 490 488
3 834 179 181
3 837 181 183
3 840 183 185
3 843 185 187
3 845 187 189
3 847 189 191
3 849 504 502
3 504 849 851
3 851 506 504
3 506 851 853
3 853 508 506
3 508 853 855
3 855 510 508
3 510 855 857
3 857 512 510
3 512 857 859
3 859 514 512
3 514 859 861
3 861 516 514
3 516 861 863
3 864 207 209
3 863 518 516
3 866 864 209
3 867 869 520
3 869 522 520
3 872 870 213
3 873 875 524
3 875 526 524
3 878 876 217
3 879 881 528
3 881 530 528
3 884 882 221
3 885 887 532
3 887 534 532
3 534 887 889
3 889 536 534
3 536 889 891
3 891 538 536
3 538 891 893
3 893 540 538
3 540 893 895
3 895 542 540
3 542 895 897
3 897 544 542
3 899 235 237
3 901 237 239
3 903 239 241
3 905 241 243
3 907 554 552
3 554 907 909
3 909 556 554
3 911 247 249
3 913 560 558
3 915 251 253
3 918 564 562
3 564 918 921
3 921 566 564
3 566 921 924
3 924 568 566
3 927 259 261
3 930 261 263
3 933 263 265
3 936 265 267
3 938 267 269
3 940 269 271
3 942 582 580
3 582 942 944
3 944 584 582
3 584 944 946
3 946 586 584
3 586 946 948
3 948 588 586
3 588 948 950
3 950 590 588
3 590 950 952
3 952 592 590
3 592 952 954
3 954 594 592
3 594 954 956
3 958 287 289
3 956 596 594
3 959 958 289
3 961 962 598
3 962 600 598
3 965 964 293
3 967 968 602
3 968 604 602
3 970 971 297
3 973 974 606
3 974 608 606
3 976 977 301
3 979 981 610
3 981 612 610
3 612 981 983
3 983 614 612
3 614 983 985
3 985 616 614
3 616 985 987
3 987 618 616
3 618 987 989
3 989 620 618
3 620 989 991
3 991 621 620
3 992 315 316
3 993 316 314
3 990 314 312
3 988 312 310
3 986 310 308
3 984 308 306
3 982 306 304
3 980 609 611
3 609 980 978
3 978 607 609
3 607 978 975
3 975 605 607
3 605 975 972
3 972 603 605
3 969 296 294
3 966 294 292
3 963 292 290
3 960 290 288
3 957 288 286
3 955 286 284
3 953 589 591
3 589 953 951
3 951 587 589
3 587 951 949
3 949 585 587
3 585 949 947
3 947 583 585
3 583 947 945
3 945 581 583
3 581 945 943
3 943 579 581
3 579 943 941
3 941 577 579
3 577 941 939
3 937 268 266
3 939 575 577
3 935 937 266
3 934 932 573
3 932 571 573
3 929 931 262
3 928 926 569
3 926 567 569
3 923 925 258
3 922 920 565
3 920 563 565
3 917 919 254
3 916 914 561
3 914 559 561
3 559 914 912
3 912 557 559
3 557 912 910
3 910 555 557
3 555 910 908
3 908 553 555
3 553 908 906
3 906 551 553
3 551 906 904
3 904 549 551
3 902 240 238
3 900 238 236
3 898 236 234
3 896 234 232
3 894 539 541
3 539 894 892
3 892 537 539
3 890 228 226
3 888 533 535
3 533 888 886
3 886 531 533
3 531 886 883
3 883 529 531
3 529 883 880
3 880 527 529
3 527 880 877
3 877 525 527
3 874 216 214
3 871 214 212
3 868 212 210
3 865 210 208
3 862 208 206
3 860 206 204
3 858 511 513
3 511 858 856
3 856 509 511
3 509 856 854
3 854 507 509
3 507 854 852
3 852 505 507
3 505 852 850
3 850 503 505
3 503 850 848
3 848 501 503
3 501 848 846
3 846 499 501
3 499 846 844
3 841 188 186
3 844 497 499
3 842 841 186
3 839 838 495
3 838 493 495
3 836 835 182
3 833 832 491
3 832 489 491
3 830 829 178
3 827 826 487
3 826 485 487
3 823 824 174
3 821 820 483
3 820 481 483
3 481 820 818
3 818 479 481
3 479 818 816
3 816 477 479
3 477 816 814
3 814 475 477
3 475 814 812
3 812 473 475
3 473 812 810
3 810 471 473
3 808 160 158
3 806 158 156
3 804 156 154
3 802 154 152
3 800 152 150
3 798 150 148
3 796 148 146
3 794 455 457
3 455 794 791
3 791 453 455
3 453 791 788
3 788 451 453
3 451 788 785
3 785 449 451
3 782 138 136
3 779 136 134
3 776 134 132
3 773 132 130
3 770 130 127
3 768 127 125
3 766 435 437
3 435 766 764
3 764 433 435
3 433 764 762
3 762 431 433
3 431 762 760
3 760 429 431
3 429 760 758
3 758 427 429
3 427 758 756
3 756 425 427
3 425 756 754
3 754 423 425
3 423 754 752
3 750 109 107
3 752 421 423
3 749 750 107
3 747 746 419
3 746 417 419
3 743 744 103
3 741 740 415
3 740 413 415
3 737 738 99
3 734 735 411
3 735 409 411
3 732 731 95
3 729 728 407
3 728 405 407
3 405 728 727
3 727 403 405
3 403 727 725
3 725 401 403
3 401 725 723
3 723 399 401
3 399 723 721
3 721 397 399
3 397 721 719
3 719 395 397
3 717 81 79
3 715 79 77
3 713 77 75
3 711 75 73
3 709 385 387
3 385 709 707
3 707 383 385
3 705 69 67
3 379 381 703
3 379 703 377
3 377 703 701
3 701 375 377
3 375 701 698
3 698 373 375
3 373 698 695
3 695 371 373
3 692 58 56
3 687 56 54
3 684 54 52
3 681 52 50
3 678 50 48
3 676 48 46
3 674 357 359
3 357 674 672
3 672 355 357
3 355 672 670
3 670 353 355
3 353 670 668
3 668 351 353
3 351 668 666
3 666 349 351
3 349 666 664
3 664 347 349
3 347 664 662
3 662 345 347
3 345 662 660
3 657 30 28
3 660 343 345
3 658 657 28
3 655 654 341
3 654 339 341
3 652 651 24
3 649 648 337
3 648 335 337
3 645 646 20
3 642 643 333
3 643 331 333
3 640 639 16
3 637 636 329
3 636 327 329
3 327 636 634
3 634 325 327
3 325 634 632
3 632 323 325
3 323 632 630
3 630 321 323
3 321 630 628
3 626 4 2
3 628 319 321
3 625 1 0
3 2 624 626
CELL_TYPES 1364
9
9
9
9
9
9
9
9
9
9
9
9
9
9
9
9
9
9
9
9
9
9
9
9
9
9
9
9
9
9
9
9
9
9
9
9
9
9
9
9
9
9
9
9
9
9
9
9
9
9
9
9
9
9
9
9
9
9
9
9
9
9
9
9
9
9
9
9
9
9
9
9
9
9
9
9
9
9
9
9
9
9
9
9
9
9
9
9
9
9
9
9
9
9
9
9
9
9
9
9
9
9
9
9
9
9
9
9
9
9
9
9
9
9
9
9
9
9
9
9
9
9
9
9
9
9
9
9
9
9
9
9
9
9
9
9
9
9
9
9
9
9
9
9
9
9
9
9
9
9
9
9
9
9
9
9
9
9
9
9
9
9
9
9
9
9
9
9
9
9
9
9
9
9
9
9
9
9
9
9
9
9
9
9
9
9
9
9
9
9
9
9
9
9
9
9
9
9
9
9
9
9
9
9
9
9
9
9
9
9
9
9
9
9
9
9
9
9
9
9
9
9
9
9
9
9
9
9
9
9
9
9
9
9
9
9
9
9
9
9
9
9
9
9
9
9
9
9
9
9
9
9
9
9
9
9
9
9
9
9
9
9
9
9
9
9
9
9
9
9
9
9
9
9
9
9
9
9
9
9
9
9
9
9
9
9
9
9
9
9
9
9
9
9
9
9
9
9
9
9
9
9
9
9
9
9
9
9
9
9
9
9
9
9
9
9
9
9
9
9
9
9
9
9
9
9
9
9
9
9
9
9
9
9
9
9
9
9
9
9
9
9
9
9
9
9
9
9
9
9
9
9
9
9
9
9
9
9
9
9
9
9
9
9
9
9
9
9
9
9
9
9
9
9
9
9
9
9
9
9
9
9
9
9
9
9
9
9
9
9
9
9
9
9
9
9
9
9
9
9
9
9
9
9
9
9
9
9
9
9
9
9
9
9
9
9
9
9
9
9
9
9
9
9
9
9
9
9
9
9
9
9
9
9
9
9
9
9
9
9
9
9
9
9
9
9
9
9
9
9
9
9
9
9
9
9
9
9
9
9
9
9
9
9
9
9
9
9
9
9
9
9
9
9
9
9
9
9
9
9
9
9
9
9
9
9
9
9
9
9
9
9
9
9
9
9
9
9
9
9
9
9
9
9
9
9
9
9
9
9
9
9
9
9
9
9
9
9
9
9
9
9
9
9
9
9
9
9
9
9
9
9
9
9
9
9
9
9
9
9
9
9
9
9
9
9
9
9
9
9
9
9
9
9
9
9
9
9
9
9
9
9
9
9
9
9
9
9
9
9
9
9
9
9
9
9
9
9
9
9
9
9
9
9
9
9
9
9
9
9
9
9
9
9
9
9
9
9
9
9
9
9
9
9
9
9
9
9
9
9
9
9
9
9
9
9
9
9
9
9
9
9
9
9
9
9
9
9
9
9
9
9
9
9
9
9
9
9
9
9
9
9
9
9
9
9
9
9
9
9
9
9
9
9
9
9
9
9
9
9
9
9
9
9
9
9
9
9
9
9
9
9
9
9
9
9
9
9
9
9
9
9
9
9
9
9
9
9
9
9
9
9
9
9
9
9
9
9
9
9
9
9
9
9
9
9
9
9
9
9
9
9
9
9
9
9
9
9
9
9
9
9
9
9
9
9
9
9
9
9
9
9
9
9
9
9
9
9
9
9
9
9
9
9
9
9
9
9
9
9
9
9
9
9
9
9
9
9
9
9
9
9
9
9
9
9
9
9
9
9
9
9
9
9
9
9
9
9
9
9
9
9
9
9
9
9
9
9
9
9
9
9
9
9
9
9
9
9
9
9
9
9
9
9
9
9
9
9
9
9
9
9
9
9
9
9
9
9
9
9
9
9
9
9
9
9
9
9
9
9
9
9
9
9
9
9
9
9
9
9
9
9
9
9
9
9
9
9
9
9
9
9
9
9
9
9
9
9
9
9
9
9
9
9
9
9
9
9
9
9
9
9
9
9
9
9
9
9
9
9
9
9
9
9
9
9
9
9
9
9
9
9
9
9
9
9
9
9
9
9
9
9
9
9
9
9
9
9
9
9
9
9
9
9
9
9
9
9
9
9
9
9
9
9
9
9
9
9
9
9
9
9
9
9
9
9
9
9
9
9
9
9
9
9
9
9
9
9
9
9
9
9
9
9
9
9
9
9
9
9
9
9
9
9
9
9
9
9
9
9
9
9
9
9
9
9
9
9
9
9
9
9
9
9
9
9
9
9
9
9
9
9
9
9
9
9
9
9
9
9
9
9
9
9
9
9
9
9
9
9
9
9
9
9
9
9
9
9
9
9
9
9
9
9
9
9
9
9
9
9
9
9
9
9
9
9
9
9
9
9
9
9
9
9
9
9
9
9
9
9
9
9
9
9
9
9
9
9
9
9
9
9
9
9
9
9
9
9
9
9
9
9
9
9
9
9
9
9
9
9
9
9
9
9
9
9
9
9
9
9
9
9
9
9
9
9
9
9
9
9
9
9
9
9
9
9
9
9
9
9
9
9
9
9
9
9
9
9
9
9
9
9
9
9
9
9
9
9
9
9
9
9
9
9
9
9
9
9
9
9
9
9
9
9
9
9
9
9
9
9
9
9
9
9
9
9
9
9
9
9
9
9
9
9
9
9
9
9
9
9
9
9
9
9
9
9
9
9
9
9
9
9
9
9
9
9
9
9
9
9
9
9
9
9
9
9
9
9
9
9
9
9
9
9
9
9
9
9
9
9
9
9
9
9
9
9
9
9
9
9
9
9
9
9
9
9
9
9
9
9
9
9
9
9
9
9
9
9
9
9
9
9
9
9
9
9
9
9
9
9
9
9
9
9
9
9
9
9
9
9
9
9
9
9
9
9
9
9
9
9
9
9
9
9
9
9
9
9
9
9
9
9
9
9
9
9
9
9
9
9
9
9
9
9
9
9
9
9
9
9
9
9
9
9
9
9
9
9
9
9
9
9
9
9
9
9
9
9
9
9
9
9
9
9
9
9
9
9
9
9
9
9
9
9
9
9
9
9
9
9
9
9
9
9
9
9
9
9
9
9
9
9
9
9
9
9
9
9
9
9
9
9
9
9
POINT_DATA 994
SCALARS u1 float
LOOKUP_TABLE default
-0.02
-0.02
-0.02
-0.01
-0.02
-0.01
-0.02
-0.01
-0.02
-0.009
-0.03
-0.008
-0.03
-0.007
-0.03
-0.006
-0.03
-0.006
-0.04
-0.005
-0.04
-0.005
-0.04
-0.006
-0.05
-0.006
-0.05
-0.006
-0.06
-0.007
-0.06
-0.007
-0.07
-0.008
-0.07
-0.008
-0.07
-0.009
-0.08
-0.01
-0.08
-0.01
-0.09
-0.01
-0.09
-0.01
-0.1
-0.01
-0.1
-0.01
-0.1
-0.02
-0.1
-0.02
-0.1
-0.02
-0.1
-0.02
-0.1
-0.02
-0.1
-0.02
-0.1
-0.02
-0.1
-0.1
-0.02
-0.1
-0.02
-0.1
-0.03
-0.1
-0.03
-0.1
-0.03
-0.1
-0.03
-0.1
-0.03
-0.1
-0.03
-0.1
-0.03
-0.09
-0.03
-0.09
-0.03
-0.08
-0.03
-0.08
-0.03
-0.08
-0.07
-0.03
-0.03
-0.07
-0.03
-0.07
-0.03
-0.06
-0.03
-0.06
-0.03
-0.06
-0.03
-0.05
-0.03
-0.05
-0.03
-0.05
-0.03
-0.05
-0.03
-0.05
-0.03
-0.04
-0.03
-0.04
-0.03
-0.04
-0.03
-0.04
-0.03
-0.04
-0.03
-0.04
-0.03
-0.04
-0.03
-0.04
-0.04
-0.04
-0.04
-0.04
-0.04
-0.04
-0.04
-0.04
-0.04
-0.04
-0.04
-0.05
-0.04
-0.05
-0.04
-0.05
-0.04
-0.05
-0.04
-0.05
-0.04
-0.05
-0.04
-0.05
-0.04
-0.05
-0.04
-0.06
-0.04
-0.06
-0.04
-0.06
-0.05
-0.06
-0.05
-0.06
-0.05
-0.06
-0.05
-0.06
-0.05
-0.06
-0.05
-0.06
-0.05
-0.06
-0.06
-0.06
-0.06
-0.07
-0.06
-0.06
-0.06
-0.06
-0.06
-0.06
-0.06
-0.06
-0.07
-0.06
-0.07
-0.06
-0.07
-0.06
-0.07
-0.06
-0.07
-0.06
-0.07
-0.06
-0.07
-0.06
-0.07
-0.05
-0.07
-0.05
-0.07
-0.05
-0.07
-0.05
-0.07
-0.05
-0.07
-0.04
-0.07
-0.04
-0.07
-0.04
-0.07
-0.03
-0.07
-0.03
-0.07
-0.03
-0.07
-0.02
-0.07
-0.02
-0.07
-0.01
-0.07
-0.01
-0.07
-0.006
-0.07
-0.002
-0.07
0.001
-0.07
0.005
-0.07
0.008
-0.07
0.01
-0.07
0.01
-0.07
0.02
-0.08
0.02
-0.08
0.02
-0.08
0.02
-0.08
0.02
-0.08
0.02
-0.08
0.02
-0.08
0.01
-0.08
0.01
-0.09
0.009
-0.09
0.005
-0.09
0.001
-0.09
-0.003
-0.09
-0.007
-0.09
-0.01
-0.09
-0.02
-0.09
-0.02
-0.09
-0.03
-0.09
-0.03
-0.09
-0.04
-0.09
-0.04
-0.1
-0.04
-0.1
-0.05
-0.1
-0.05
-0.1
-0.06
-0.1
-0.06
-0.1
-0.07
-0.1
-0.07
-0.1
-0.07
-0.1
-0.07
-0.09
-0.08
-0.09
-0.08
-0.09
-0.08
-0.09
-0.08
-0.09
-0.09
-0.09
-0.02
-0.02
-0.02
-0.01
-0.02
-0.01
-0.02
-0.01
-0.03
-0.009
-0.03
-0.008
-0.03
-0.007
-0.04
-0.006
-0.04
-0.006
-0.04
-0.005
-0.05
-0.005
-0.05
-0.005
-0.06
-0.006
-0.06
-0.006
-0.06
-0.007
-0.07
-0.007
-0.07
-0.008
-0.08
-0.008
-0.08
-0.009
-0.09
-0.009
-0.09
-0.01
-0.1
-0.01
-0.1
-0.01
-0.1
-0.01
-0.1
-0.01
-0.1
-0.01
-0.1
-0.02
-0.1
-0.02
-0.1
-0.02
-0.1
-0.02
-0.1
-0.02
-0.1
-0.02
-0.1
-0.02
-0.1
-0.02
-0.1
-0.02
-0.1
-0.02
-0.1
-0.03
-0.1
-0.03
-0.1
-0.03
-0.1
-0.03
-0.09
-0.03
-0.09
-0.03
-0.08
-0.03
-0.08
-0.03
-0.08
-0.03
-0.07
-0.03
-0.07
-0.03
-0.07
-0.03
-0.06
-0.03
-0.06
-0.03
-0.06
-0.03
-0.05
-0.03
-0.05
-0.03
-0.05
-0.03
-0.05
-0.03
-0.05
-0.03
-0.04
-0.03
-0.04
-0.03
-0.04
-0.04
-0.04
-0.04
-0.04
-0.04
-0.04
-0.04
-0.04
-0.04
-0.04
-0.04
-0.04
-0.04
-0.04
-0.05
-0.04
-0.05
-0.04
-0.05
-0.04
-0.05
-0.04
-0.05
-0.04
-0.05
-0.04
-0.05
-0.04
-0.05
-0.04
-0.06
-0.04
-0.06
-0.04
-0.06
-0.04
-0.06
-0.04
-0.06
-0.04
-0.06
-0.05
-0.06
-0.05
-0.06
-0.05
-0.06
-0.05
-0.06
-0.05
-0.06
-0.05
-0.07
-0.05
-0.07
-0.05
-0.07
-0.06
-0.06
-0.06
-0.06
-0.06
-0.06
-0.06
-0.06
-0.06
-0.06
-0.06
-0.06
-0.06
-0.06
-0.07
-0.06
-0.07
-0.06
-0.07
-0.06
-0.07
-0.05
-0.07
-0.05
-0.07
-0.05
-0.07
-0.05
-0.07
-0.05
-0.07
-0.04
-0.07
-0.04
-0.07
-0.04
-0.07
-0.03
-0.07
-0.03
-0.07
-0.03
-0.07
-0.02
-0.07
-0.02
-0.07
-0.01
-0.07
-0.01
-0.07
-0.006
-0.07
-0.002
-0.07
0.001
-0.08
0.005
-0.08
0.008
-0.08
0.01
-0.08
0.01
-0.08
0.02
-0.08
0.02
-0.08
0.02
-0.08
0.02
-0.08
0.02
-0.08
0.02
-0.09
0.02
-0.09
0.01
-0.09
0.01
-0.09
0.008
-0.09
0.005
-0.09
0.001
-0.09
-0.003
-0.09
-0.007
-0.09
-0.01
-0.09
-0.02
-0.09
-0.02
-0.09
-0.03
-0.1
-0.03
-0.1
-0.04
-0.1
-0.04
-0.1
-0.05
-0.1
-0.05
-0.1
-0.05
-0.1
-0.06
-0.1
-0.06
-0.1
-0.07
-0.1
-0.07
-0.09
-0.07
-0.09
-0.07
-0.09
-0.08
-0.09
-0.08
-0.09
-0.08
-0.08
-0.09
-0.09
-0.02
-0.02
-0.02
-0.01
-0.02
-0.01
-0.02
-0.01
-0.02
-0.009
-0.03
-0.008
-0.03
-0.03
-0.007
-0.04
-0.03
-0.006
-0.04
-0.04
-0.006
-0.04
-0.04
-0.005
-0.04
-0.05
-0.005
-0.05
-0.05
-0.006
-0.05
-0.05
-0.006
-0.06
-0.06
-0.006
-0.06
-0.007
-0.07
-0.007
-0.07
-0.008
-0.08
-0.008
-0.08
-0.009
-0.09
-0.01
-0.09
-0.01
-0.09
-0.01
-0.1
-0.01
-0.1
-0.01
-0.01
-0.1
-0.01
-0.01
-0.1
-0.02
-0.01
-0.1
-0.02
-0.02
-0.02
-0.02
-0.1
-0.02
-0.02
-0.1
-0.02
-0.02
-0.1
-0.02
-0.02
-0.1
-0.02
-0.1
-0.02
-0.1
-0.02
-0.1
-0.03
-0.1
-0.03
-0.1
-0.03
-0.1
-0.03
-0.1
-0.03
-0.1
-0.03
-0.09
-0.03
-0.09
-0.03
-0.09
-0.03
-0.08
-0.03
-0.08
-0.07
-0.07
-0.03
-0.07
-0.07
-0.03
-0.06
-0.07
-0.03
-0.06
-0.06
-0.03
-0.06
-0.06
-0.03
-0.06
-0.06
-0.03
-0.05
-0.05
-0.03
-0.05
-0.05
-0.03
-0.05
-0.03
-0.05
-0.03
-0.05
-0.03
-0.04
-0.03
-0.04
-0.03
-0.04
-0.03
-0.04
-0.03
-0.04
-0.03
-0.04
-0.04
-0.04
-0.04
-0.04
-0.04
-0.04
-0.04
-0.04
-0.04
-0.04
-0.04
-0.04
-0.04
-0.04
-0.04
-0.04
-0.04
-0.05
-0.05
-0.04
-0.05
-0.05
-0.04
-0.05
-0.05
-0.04
-0.05
-0.04
-0.05
-0.04
-0.05
-0.04
-0.05
-0.04
-0.06
-0.04
-0.06
-0.04
-0.06
-0.04
-0.06
-0.04
-0.06
-0.05
-0.06
-0.05
-0.06
-0.05
-0.06
-0.05
-0.06
-0.05
-0.05
-0.06
-0.05
-0.05
-0.06
-0.05
-0.05
-0.06
-0.06
-0.06
-0.07
-0.06
-0.06
-0.07
-0.06
-0.06
-0.06
-0.06
-0.06
-0.06
-0.06
-0.06
-0.06
-0.06
-0.06
-0.06
-0.06
-0.07
-0.06
-0.07
-0.06
-0.07
-0.06
-0.07
-0.06
-0.07
-0.06
-0.07
-0.05
-0.07
-0.05
-0.07
-0.05
-0.05
-0.07
-0.05
-0.05
-0.07
-0.05
-0.04
-0.07
-0.04
-0.04
-0.07
-0.04
-0.04
-0.07
-0.04
-0.03
-0.07
-0.03
-0.03
-0.07
-0.03
-0.03
-0.07
-0.02
-0.07
-0.02
-0.07
-0.02
-0.07
-0.01
-0.07
-0.008
-0.07
-0.004
-0.07
-0.001
-0.07
0.003
-0.07
0.006
-0.07
0.009
-0.08
0.01
-0.08
0.01
-0.08
0.02
-0.08
0.02
-0.08
0.02
-0.08
-0.08
0.02
-0.08
-0.08
0.02
-0.08
-0.08
0.02
-0.08
-0.08
0.02
-0.08
-0.09
0.01
-0.09
-0.09
0.01
-0.09
-0.09
0.007
-0.09
0.003
-0.09
-0.0006
-0.09
-0.006
-0.09
-0.009
-0.09
-0.01
-0.09
-0.02
-0.09
-0.02
-0.09
-0.03
-0.09
-0.03
-0.1
-0.04
-0.1
-0.04
-0.04
-0.1
-0.05
-0.05
-0.1
-0.05
-0.05
-0.1
-0.06
-0.06
-0.1
-0.06
-0.06
-0.1
-0.06
-0.06
-0.1
-0.07
-0.07
-0.1
-0.07
-0.1
-0.07
-0.09
-0.07
-0.09
-0.08
-0.09
-0.08
-0.09
-0.08
-0.09
-0.08
-0.09
-0.09
SCALARS u2 float
LOOKUP_TABLE default
-0.04
-0.04
-0.04
-0.04
-0.05
-0.04
-0.05
-0.04
-0.05
-0.04
-0.05
-0.04
-0.05
-0.04
-0.05
-0.04
-0.05
-0.04
-0.05
-0.04
-0.06
-0.03
-0.06
-0.03
-0.06
-0.04
-0.06
-0.04
-0.06
-0.04
-0.06
-0.04
-0.07
-0.04
-0.07
-0.04
-0.07
-0.04
-0.07
-0.04
-0.07
-0.04
-0.07
-0.04
-0.07
-0.04
-0.07
-0.05
-0.07
-0.05
-0.07
-0.05
-0.07
-0.05
-0.07
-0.06
-0.07
-0.06
-0.07
-0.06
-0.07
-0.06
-0.07
-0.07
-0.07
-0.07
-0.07
-0.07
-0.08
-0.07
-0.08
-0.07
-0.08
-0.07
-0.09
-0.07
-0.09
-0.07
-0.09
-0.07
-0.1
-0.07
-0.1
-0.07
-0.1
-0.07
-0.1
-0.07
-0.1
-0.07
-0.1
-0.08
-0.08
-0.1
-0.1
-0.08
-0.1
-0.08
-0.1
-0.08
-0.1
-0.08
-0.1
-0.08
-0.1
-0.08
-0.1
-0.09
-0.1
-0.09
-0.1
-0.09
-0.1
-0.09
-0.09
-0.09
-0.09
-0.09
-0.09
-0.09
-0.08
-0.09
-0.08
-0.09
-0.07
-0.09
-0.07
-0.09
-0.06
-0.06
-0.09
-0.05
-0.09
-0.05
-0.09
-0.04
-0.1
-0.04
-0.1
-0.04
-0.1
-0.03
-0.09
-0.03
-0.09
-0.03
-0.09
-0.02
-0.09
-0.02
-0.09
-0.02
-0.09
-0.02
-0.09
-0.02
-0.09
-0.01
-0.09
-0.01
-0.08
-0.01
-0.08
-0.009
-0.08
-0.008
-0.08
-0.007
-0.08
-0.005
-0.07
-0.004
-0.07
-0.004
-0.07
-0.003
-0.06
-0.003
-0.06
-0.003
-0.06
-0.003
-0.05
-0.004
-0.05
-0.004
-0.04
-0.005
-0.04
-0.005
-0.03
-0.006
-0.03
-0.006
-0.02
-0.007
-0.02
-0.008
-0.02
-0.008
-0.01
-0.009
-0.006
-0.01
-0.002
-0.01
0.002
-0.01
0.005
-0.01
0.009
-0.01
0.01
-0.02
0.01
-0.02
0.02
-0.02
0.02
-0.02
0.02
-0.02
0.02
-0.02
0.02
-0.02
0.02
-0.02
0.01
-0.03
0.01
-0.03
0.01
-0.03
0.007
-0.03
0.004
-0.03
0.0008
-0.03
-0.003
-0.03
-0.007
-0.03
-0.01
-0.03
-0.01
-0.03
-0.02
-0.03
-0.02
-0.03
-0.03
-0.03
-0.03
-0.03
-0.03
-0.03
-0.04
-0.03
-0.04
-0.03
-0.04
-0.03
-0.05
-0.03
-0.05
-0.03
-0.05
-0.03
-0.05
-0.03
-0.05
-0.03
-0.06
-0.03
-0.06
-0.03
-0.06
-0.03
-0.06
-0.03
-0.06
-0.03
-0.06
-0.03
-0.06
-0.04
-0.06
-0.04
-0.06
-0.04
-0.07
-0.04
-0.07
-0.04
-0.07
-0.04
-0.07
-0.05
-0.07
-0.05
-0.06
-0.05
-0.06
-0.05
-0.06
-0.05
-0.06
-0.05
-0.06
-0.05
-0.06
-0.06
-0.06
-0.06
-0.06
-0.04
-0.04
-0.04
-0.04
-0.04
-0.04
-0.05
-0.04
-0.05
-0.04
-0.05
-0.04
-0.05
-0.04
-0.05
-0.04
-0.05
-0.03
-0.05
-0.03
-0.06
-0.04
-0.06
-0.04
-0.06
-0.04
-0.06
-0.04
-0.06
-0.04
-0.06
-0.04
-0.06
-0.04
-0.06
-0.04
-0.07
-0.04
-0.07
-0.04
-0.07
-0.04
-0.07
-0.05
-0.07
-0.05
-0.07
-0.05
-0.07
-0.05
-0.07
-0.06
-0.07
-0.06
-0.07
-0.06
-0.07
-0.06
-0.07
-0.07
-0.07
-0.07
-0.07
-0.08
-0.07
-0.08
-0.07
-0.08
-0.07
-0.09
-0.07
-0.09
-0.07
-0.09
-0.07
-0.1
-0.07
-0.1
-0.07
-0.1
-0.08
-0.1
-0.08
-0.1
-0.08
-0.1
-0.08
-0.1
-0.08
-0.1
-0.08
-0.1
-0.08
-0.1
-0.08
-0.1
-0.08
-0.1
-0.09
-0.1
-0.09
-0.1
-0.09
-0.1
-0.09
-0.1
-0.09
-0.1
-0.09
-0.09
-0.09
-0.09
-0.09
-0.09
-0.09
-0.08
-0.09
-0.08
-0.09
-0.07
-0.09
-0.07
-0.09
-0.06
-0.09
-0.06
-0.09
-0.05
-0.1
-0.05
-0.1
-0.04
-0.1
-0.04
-0.09
-0.04
-0.09
-0.03
-0.09
-0.03
-0.09
-0.03
-0.09
-0.02
-0.09
-0.02
-0.09
-0.02
-0.09
-0.02
-0.09
-0.02
-0.08
-0.01
-0.08
-0.01
-0.08
-0.01
-0.08
-0.009
-0.08
-0.008
-0.07
-0.006
-0.07
-0.005
-0.07
-0.004
-0.06
-0.004
-0.06
-0.003
-0.06
-0.003
-0.05
-0.003
-0.05
-0.003
-0.04
-0.003
-0.04
-0.004
-0.03
-0.004
-0.03
-0.005
-0.03
-0.006
-0.02
-0.006
-0.02
-0.007
-0.01
-0.007
-0.006
-0.008
-0.002
-0.009
0.002
-0.01
0.005
-0.01
0.009
-0.01
0.01
-0.01
0.01
-0.01
0.02
-0.01
0.02
-0.02
0.02
-0.02
0.02
-0.02
0.02
-0.02
0.02
-0.02
0.01
-0.02
0.01
-0.02
0.01
-0.02
0.007
-0.02
0.004
-0.02
0.0007
-0.03
-0.003
-0.03
-0.007
-0.03
-0.01
-0.03
-0.01
-0.03
-0.02
-0.03
-0.02
-0.03
-0.03
-0.03
-0.03
-0.03
-0.03
-0.03
-0.04
-0.03
-0.04
-0.03
-0.04
-0.03
-0.05
-0.03
-0.05
-0.03
-0.05
-0.03
-0.05
-0.03
-0.06
-0.03
-0.06
-0.03
-0.06
-0.03
-0.06
-0.04
-0.06
-0.04
-0.06
-0.04
-0.06
-0.04
-0.06
-0.04
-0.06
-0.04
-0.06
-0.04
-0.07
-0.04
-0.07
-0.05
-0.07
-0.05
-0.07
-0.05
-0.07
-0.05
-0.06
-0.05
-0.06
-0.05
-0.06
-0.05
-0.06
-0.06
-0.06
-0.06
-0.06
-0.06
-0.06
-0.04
-0.04
-0.04
-0.04
-0.05
-0.04
-0.05
-0.04
-0.05
-0.04
-0.05
-0.04
-0.05
-0.05
-0.04
-0.05
-0.05
-0.04
-0.05
-0.05
-0.04
-0.05
-0.06
-0.03
-0.06
-0.06
-0.03
-0.06
-0.06
-0.04
-0.06
-0.06
-0.04
-0.06
-0.06
-0.04
-0.06
-0.04
-0.06
-0.04
-0.07
-0.04
-0.07
-0.04
-0.07
-0.04
-0.07
-0.04
-0.07
-0.04
-0.07
-0.04
-0.07
-0.05
-0.07
-0.05
-0.05
-0.07
-0.05
-0.05
-0.07
-0.05
-0.05
-0.07
-0.06
-0.06
-0.06
-0.06
-0.07
-0.06
-0.06
-0.07
-0.07
-0.07
-0.07
-0.07
-0.07
-0.07
-0.07
-0.07
-0.08
-0.07
-0.08
-0.07
-0.09
-0.07
-0.09
-0.07
-0.09
-0.07
-0.1
-0.07
-0.1
-0.07
-0.1
-0.07
-0.1
-0.07
-0.1
-0.07
-0.1
-0.08
-0.1
-0.08
-0.08
-0.08
-0.1
-0.08
-0.08
-0.1
-0.08
-0.08
-0.1
-0.08
-0.08
-0.1
-0.08
-0.08
-0.1
-0.08
-0.08
-0.1
-0.09
-0.09
-0.1
-0.09
-0.09
-0.1
-0.09
-0.1
-0.09
-0.1
-0.09
-0.09
-0.09
-0.09
-0.09
-0.08
-0.09
-0.08
-0.09
-0.07
-0.09
-0.07
-0.09
-0.06
-0.09
-0.06
-0.06
-0.09
-0.05
-0.05
-0.09
-0.05
-0.05
-0.1
-0.05
-0.04
-0.1
-0.04
-0.04
-0.1
-0.04
-0.04
-0.09
-0.03
-0.03
-0.09
-0.03
-0.03
-0.09
-0.03
-0.09
-0.02
-0.09
-0.02
-0.09
-0.02
-0.09
-0.02
-0.09
-0.02
-0.09
-0.01
-0.08
-0.01
-0.08
-0.01
-0.08
-0.009
-0.08
-0.008
-0.08
-0.007
-0.07
-0.005
-0.07
-0.07
-0.004
-0.07
-0.06
-0.004
-0.06
-0.06
-0.003
-0.06
-0.06
-0.003
-0.06
-0.05
-0.003
-0.05
-0.05
-0.003
-0.05
-0.05
-0.003
-0.04
-0.04
-0.004
-0.04
-0.005
-0.03
-0.005
-0.03
-0.006
-0.02
-0.006
-0.02
-0.007
-0.01
-0.008
-0.009
-0.008
-0.005
-0.009
-0.0002
-0.01
0.004
-0.01
-0.01
0.007
-0.01
-0.01
0.01
-0.01
-0.01
0.01
-0.01
-0.02
0.02
-0.02
-0.02
0.02
-0.02
-0.02
0.02
-0.02
-0.02
0.02
-0.02
-0.02
0.02
-0.02
0.02
-0.02
0.02
-0.02
0.01
-0.02
0.01
-0.03
0.009
-0.03
0.006
-0.03
0.002
-0.03
-0.002
-0.03
-0.005
-0.03
-0.009
-0.03
-0.01
-0.03
-0.02
-0.03
-0.02
-0.03
-0.02
-0.03
-0.03
-0.03
-0.03
-0.03
-0.03
-0.03
-0.04
-0.04
-0.03
-0.04
-0.04
-0.03
-0.04
-0.04
-0.03
-0.04
-0.05
-0.03
-0.05
-0.05
-0.03
-0.05
-0.03
-0.05
-0.03
-0.05
-0.03
-0.06
-0.03
-0.06
-0.03
-0.06
-0.03
-0.06
-0.03
-0.06
-0.03
-0.06
-0.04
-0.06
-0.04
-0.06
-0.04
-0.04
-0.06
-0.04
-0.04
-0.06
-0.04
-0.04
-0.07
-0.04
-0.04
-0.07
-0.05
-0.04
-0.07
-0.05
-0.05
-0.07
-0.05
-0.05
-0.07
-0.05
-0.06
-0.05
-0.06
-0.05
-0.06
-0.05
-0.06
-0.05
-0.06
-0.06
-0.06
-0.06
-0.06
-0.06
SCALARS strain_1 float
LOOKUP_TABLE default
-0.098488
-0.065420
0.061452
-0.249556
0.226662
-0.394382
0.400101
-0.532173
0.578479
-0.663602
0.759076
-0.786960
0.953033
-0.904540
1.151955
-1.017045
1.353985
-1.120634
1.565498
-1.217292
1.781797
-1.310229
2.004556
-1.395111
2.231427
-1.471821
2.463935
-1.544728
2.704912
-1.612245
2.947925
-1.668458
3.196262
-1.725092
3.448520
-1.772383
3.709185
-1.814271
3.972759
-1.852196
4.235791
-1.881344
4.508411
-1.906782
4.783781
-1.929554
5.060308
-1.943899
5.339122
-1.953882
5.623144
-1.962068
5.905936
-1.964316
6.192221
-1.960020
6.481386
-1.954436
6.771169
-1.941833
7.061233
-1.931128
7.351844
-1.912687
7.644555
7.933898
-1.890784
8.224812
-1.865402
8.512500
-1.840966
8.801231
-1.808575
9.090112
-1.776597
9.372610
-1.740618
9.654668
-1.706105
9.931431
-1.664098
10.208716
-1.621713
10.481242
-1.579966
10.749487
-1.533556
11.013020
-1.488288
11.272683
-1.442342
11.524324
11.770556
-1.393618
-1.345177
12.012504
-1.296200
12.249458
-1.246608
12.478205
-1.195891
12.700511
-1.146132
12.915389
-1.097191
13.119077
-1.047091
13.321059
-0.996757
13.509792
-0.947661
13.690208
-0.900729
13.864041
-0.852857
14.025818
-0.805946
14.181788
-0.758391
14.326327
-0.714380
14.460892
-0.673040
14.584279
-0.630931
14.699753
-0.590602
14.804700
-0.550865
-0.510609
14.896861
-0.476917
14.981197
-0.441929
15.050864
-0.409072
15.111284
-0.379635
15.160985
-0.351372
15.200106
-0.326674
15.226780
-0.298991
15.242305
-0.275683
15.249086
-0.254388
15.241068
-0.237092
15.224986
-0.222528
15.193630
-0.206798
15.155808
-0.196565
15.103695
-0.183721
15.040766
-0.177282
14.968440
-0.172400
14.887656
-0.167171
14.790650
-0.164130
14.686842
-0.165823
14.571585
-0.169118
14.447218
-0.171765
14.314797
-0.178777
14.169647
-0.187850
14.017520
-0.198071
13.857251
-0.210648
13.686143
-0.223752
13.505039
-0.237215
13.321375
-0.254187
13.122903
-0.270651
12.921915
-0.293511
12.710797
-0.314662
12.495895
-0.336945
12.272980
-0.361415
12.044703
-0.383924
11.809859
-0.411473
11.568775
-0.437175
11.323849
-0.465187
11.073580
-0.495607
10.823082
-0.523810
10.564960
-0.554468
10.302349
-0.585183
10.038658
-0.617792
9.772260
-0.651876
9.504734
-0.683599
9.233997
-0.713610
8.961625
-0.746676
8.687669
-0.780729
8.413099
-0.814893
8.139427
-0.847736
7.864085
-0.880645
7.588467
-0.911272
7.316200
-0.940389
7.042022
-0.975908
6.770750
-1.004439
6.501185
-1.035202
6.231058
-1.066102
5.968696
-1.094426
5.703771
-1.124300
5.443116
-1.151000
5.186994
-1.177825
4.932560
-1.202036
4.680935
-1.225376
4.433093
-1.245348
4.192806
-1.267298
3.954212
-1.284607
3.718494
-1.302716
3.489490
-1.319978
3.266888
-1.332887
3.047049
-1.345169
2.830611
-1.355978
2.619883
-1.363968
2.416818
-1.367409
2.219821
-1.369292
2.024187
-1.370323
1.836896
-1.364981
1.655447
-1.360929
1.479831
-1.351668
1.309524
-1.339583
1.143759
-1.326384
0.984305
-1.307858
0.830545
-1.287950
0.687387
-1.263023
0.543569
-1.236439
0.405586
-1.203163
0.276456
-1.165027
0.150928
-1.124992
0.030981
-1.082172
-0.081433
-1.033701
-0.188393
-0.981651
-0.289320
-0.922727
-0.389438
-0.862453
-0.478675
-0.795184
-0.565243
-0.723206
-0.648348
0.096057
-0.216117
0.263184
-0.363729
0.437735
-0.504226
0.616081
-0.637611
0.804322
-0.763890
0.998494
-0.883639
1.200336
-0.993601
1.406825
-1.102898
1.619000
-1.202046
1.837318
-1.293641
2.061439
-1.378111
2.293231
-1.459889
2.529177
-1.534490
2.770498
-1.598471
3.013472
-1.662577
3.265538
-1.713904
3.523741
-1.763075
3.783036
-1.804452
4.046783
-1.841029
4.316382
-1.873515
4.585508
-1.900294
4.861579
-1.921315
5.139066
-1.937588
5.416225
-1.948752
5.702330
-1.954786
5.985718
-1.955632
6.271302
-1.953250
6.557793
-1.948048
6.844608
-1.939263
7.135833
-1.925380
7.422275
-1.908207
7.709359
-1.884422
8.001967
-1.860841
8.285440
-1.835118
8.571893
-1.804760
8.856191
-1.771942
9.136801
-1.736670
9.413414
-1.702469
9.690756
-1.661804
9.961645
-1.621399
10.231261
-1.576199
10.498256
-1.534816
10.755087
-1.489814
11.010436
-1.445015
11.257163
-1.396277
11.499770
-1.347151
11.735631
-1.299748
11.966416
-1.251242
12.189304
-1.204180
12.402828
-1.154904
12.613233
-1.107364
12.813951
-1.057874
13.004909
-1.011021
13.188906
-0.963614
13.361877
-0.917244
13.526346
-0.870093
13.683402
-0.829222
13.827755
-0.783837
13.963579
-0.740085
14.090067
-0.701055
14.204528
-0.659960
14.309634
-0.622268
14.404647
-0.586710
14.485558
-0.552165
14.557267
-0.520747
14.619707
-0.487894
14.668442
-0.458038
14.707551
-0.432412
14.734947
-0.406570
14.750561
-0.382570
14.756121
-0.361948
14.748382
-0.342302
14.728919
-0.325324
14.699249
-0.310135
14.659483
-0.295805
14.606863
-0.286033
14.544281
-0.278087
14.470318
-0.272828
14.386614
-0.265207
14.288823
-0.264384
14.185146
-0.265214
14.067390
-0.264445
13.941161
-0.268918
13.805045
-0.274283
13.658635
-0.283724
13.504271
-0.293926
13.341847
-0.302974
13.169371
-0.316282
12.989303
-0.328639
12.800354
-0.345859
12.604400
-0.362482
12.398137
-0.382643
12.186653
-0.402934
11.970606
-0.423299
11.746513
-0.448483
11.518140
-0.472968
11.280444
-0.496309
11.038418
-0.523579
10.792753
-0.551158
10.543773
-0.580121
10.290338
-0.608831
10.033114
-0.638607
9.772362
-0.668449
9.509203
-0.698280
9.243598
-0.728957
8.974681
-0.761440
8.704858
-0.790787
8.434726
-0.826655
8.162471
-0.856722
7.889096
-0.888346
7.617855
-0.918336
7.346634
-0.951575
7.074663
-0.984690
6.803212
-1.011765
6.533894
-1.043671
6.266118
-1.072299
6.000637
-1.102449
5.737447
-1.128937
5.475862
-1.154819
5.219294
-1.180928
4.965964
-1.206658
4.714063
-1.228626
4.465661
-1.251173
4.222153
-1.271097
3.983228
-1.290968
3.746041
-1.310154
3.515496
-1.325237
3.289636
-1.338542
3.067507
-1.351266
2.852551
-1.361365
2.640764
-1.369820
2.436899
-1.374803
2.235580
-1.377114
2.039093
-1.378191
1.848770
-1.375438
1.669126
-1.370358
1.488437
-1.361825
1.315426
-1.351486
1.147888
-1.337457
0.988384
-1.319092
0.833186
-1.296796
0.685159
-1.273100
0.541888
-1.246264
0.404073
-1.216418
0.272013
-1.178733
0.148237
-1.138586
0.028411
-1.094572
-0.085823
-1.044189
-0.194647
-0.991771
-0.298831
-0.936953
-0.395900
-0.873933
-0.487935
-0.807018
-0.731382
-0.575733
-0.657766
0.029196
-0.159204
0.165952
-0.306946
0.331160
-0.448130
0.506049
-0.584656
0.689827
-0.713710
0.876673
-0.834443
1.065547
1.221575
-0.961208
1.427637
1.324349
-1.060900
1.638318
1.541504
-1.162826
1.753553
1.863977
-1.253753
1.978370
2.094361
-1.325655
2.321681
2.202832
-1.427232
2.435828
2.561015
-1.502953
2.819528
2.675212
-1.573308
2.994687
-1.634911
3.231881
-1.693813
3.487099
-1.753032
3.744589
-1.790221
4.006734
-1.828096
4.273034
-1.863014
4.534621
-1.891942
4.762287
-1.914355
5.099348
-1.934770
5.376521
-1.946660
-1.953745
5.660437
-1.962212
-1.958516
5.944621
-1.958824
-1.961330
6.233434
-1.956515
-1.960279
-1.953563
-1.948943
6.581899
-1.943815
-1.938390
6.846954
-1.933504
-1.924255
7.142526
-1.914871
-1.904469
7.440508
-1.887969
7.821651
-1.862781
8.313282
-1.837727
8.543496
-1.806091
8.771474
-1.773755
9.112548
-1.739030
9.395000
-1.709156
9.672835
-1.663330
9.998933
-1.621005
10.227335
-1.579260
10.488412
-1.525739
10.748037
-1.487442
11.008990
-1.452226
11.263147
11.498875
11.689468
-1.368103
11.929753
11.814022
-1.305979
12.170945
12.049734
-1.254199
12.276582
12.390972
-1.205711
12.494918
12.612032
-1.159688
12.705937
12.817127
-1.101280
12.912088
13.021766
-1.053346
13.108333
13.232617
-1.003749
13.356388
-0.956610
13.523094
-0.909443
13.692430
-0.851604
13.850690
-0.815276
14.002176
-0.770520
14.142271
-0.727638
14.266426
-0.685772
14.369737
-0.646434
14.502090
-0.608803
14.602314
-0.569023
-0.539311
14.689501
-0.523234
-0.505232
14.768439
-0.489793
-0.470441
14.835575
-0.457826
-0.439298
14.904944
-0.425161
-0.408327
14.936409
-0.384565
-0.400583
14.965654
-0.371326
-0.356745
14.987679
-0.331302
-0.348463
14.997881
-0.318189
14.997534
-0.299671
14.986022
-0.282926
14.959484
-0.265788
14.926851
-0.255010
14.879418
-0.243831
14.823306
-0.234720
14.741135
-0.224012
14.672560
-0.218356
14.586475
-0.215619
14.486735
-0.216208
14.376339
-0.214487
14.259716
-0.220811
14.135103
14.048974
-0.223828
13.947155
13.877806
-0.229733
13.791236
13.720191
-0.240018
13.562255
13.633716
-0.248858
13.470506
13.384269
-0.259756
13.208963
13.293799
-0.277358
13.101100
13.010532
-0.293107
12.805790
12.904593
-0.308377
12.652722
-0.328887
12.449536
-0.348994
12.230112
-0.375602
12.007206
-0.395648
11.778873
-0.417734
11.544913
-0.441978
11.310993
-0.467398
11.106080
-0.495480
10.809090
-0.523433
10.554042
-0.551579
-0.571047
10.297195
-0.591007
-0.604013
10.035666
-0.622425
-0.635254
9.773510
-0.653876
-0.667002
9.449200
-0.681953
-0.696665
9.228497
-0.713553
-0.731477
8.965925
-0.747084
-0.763346
8.696806
-0.779215
-0.793387
8.432876
-0.819673
8.210032
-0.850989
7.820166
-0.884301
7.601577
-0.915027
7.384403
-0.948379
7.056758
-0.978006
6.788781
-1.002517
6.515462
-1.040002
6.191958
-1.069815
5.971828
-1.099345
5.718870
-1.131720
5.460321
-1.153226
5.200961
-1.171874
4.952512
-1.206397
4.710333
-1.223074
4.535730
4.392054
-1.254783
4.277913
4.146449
-1.270815
4.027302
3.909516
-1.288802
3.791838
3.679075
-1.303703
3.561556
3.450741
-1.324661
3.327749
3.218001
-1.335775
3.108566
3.005829
-1.349626
2.884951
-1.357824
2.722261
-1.366693
2.525373
-1.371642
2.323851
-1.374231
2.129334
-1.373689
1.937906
-1.370379
1.752038
-1.365202
1.578875
-1.357608
1.432649
-1.344868
1.227616
-1.332487
1.065534
-1.319511
-1.310706
0.909021
-1.300574
-1.287845
0.757917
-1.276592
-1.261675
0.611274
-1.248007
-1.232664
0.445514
-1.198826
-1.216027
0.334136
-1.181839
-1.162772
0.210605
-1.122458
-1.143542
0.092301
-1.095742
-0.010947
-1.060168
-0.137765
-1.012071
-0.243332
-0.960428
-0.344180
-0.898586
-0.440339
-0.833138
-0.527873
-0.767574
-0.706302
-0.611711
SCALARS strain_2 float
LOOKUP_TABLE default
0.044676
0.031522
-0.020128
0.103178
-0.085401
0.160628
-0.157916
0.213881
-0.233615
0.261076
-0.313745
0.308221
-0.396107
0.347016
-0.483748
0.386952
-0.576578
0.422198
-0.672363
0.454740
-0.772172
0.484028
-0.876762
0.510275
-0.986099
0.534336
-1.097618
0.553130
-1.216470
0.570378
-1.336583
0.585902
-1.462494
0.599672
-1.591580
0.610528
-1.726338
0.621247
-1.863407
0.626279
-2.002841
0.633409
-2.150802
0.635066
-2.298097
0.636627
-2.450613
0.635407
-2.606940
0.634525
-2.764782
0.630651
-2.926487
0.623763
-3.093572
0.619627
-3.260418
0.613518
-3.431200
0.603457
-3.604907
0.593717
-3.780097
0.584398
-3.957558
-4.137404
0.571928
-4.316669
0.559885
-4.501785
0.550468
-4.683683
0.536967
-4.869985
0.524728
-5.054797
0.509759
-5.241740
0.497617
-5.427364
0.481901
-5.613120
0.467710
-5.799310
0.451999
-5.985924
0.435660
-6.171979
0.421686
-6.354137
0.404257
-6.533068
-6.715135
0.391249
0.375040
-6.896459
0.358562
-7.072027
0.343076
-7.242807
0.328984
-7.415537
0.314310
-7.580290
0.299273
-7.747126
0.284735
-7.904687
0.269602
-8.059403
0.256080
-8.210837
0.244448
-8.358708
0.229527
-8.500778
0.219377
-8.637588
0.206411
-8.770351
0.191519
-8.896312
0.182950
-9.013812
0.169266
-9.129042
0.160459
-9.238141
0.149603
0.140343
-9.337444
0.132073
-9.431884
0.123336
-9.519224
0.113318
-9.600585
0.108006
-9.672662
0.098771
-9.739077
0.093011
-9.798176
0.085238
-9.848297
0.077809
-9.889284
0.075009
-9.923475
0.069641
-9.951043
0.062966
-9.967924
0.062318
-9.981156
0.059738
-9.982612
0.055662
-9.975431
0.051384
-9.960880
0.050111
-9.937826
0.050792
-9.908667
0.053032
-9.871932
0.051471
-9.825017
0.055519
-9.769991
0.055417
-9.709437
0.056391
-9.636330
0.061476
-9.561186
0.065457
-9.475455
0.070576
-9.381204
0.074303
-9.283062
0.080894
-9.174276
0.085199
-9.060942
0.092230
-8.939878
0.103034
-8.813091
0.109688
-8.680697
0.119031
-8.541494
0.131048
-8.397952
0.139577
-8.246884
0.150369
-8.091060
0.161447
-7.929893
0.174743
-7.763620
0.187821
-7.595924
0.201060
-7.422650
0.217395
-7.245102
0.234059
-7.062542
0.248345
-6.880821
0.265660
-6.690872
0.281681
-6.503672
0.298889
-6.309512
0.316650
-6.119279
0.336925
-5.920791
0.355450
-5.726337
0.376623
-5.528774
0.395546
-5.331421
0.416918
-5.131436
0.438464
-4.933786
0.460557
-4.735538
0.482107
-4.540530
0.504339
-4.342776
0.526135
-4.146269
0.549210
-3.950118
0.572837
-3.760025
0.592935
-3.567075
0.616742
-3.380416
0.638497
-3.193729
0.659640
-3.008415
0.683992
-2.829196
0.703657
-2.650337
0.725292
-2.477263
0.747106
-2.305973
0.765563
-2.141316
0.783354
-1.976878
0.801520
-1.818185
0.821076
-1.661963
0.837448
-1.511541
0.851955
-1.363496
0.864267
-1.222037
0.877500
-1.084445
0.890776
-0.952826
0.898360
-0.823455
0.904288
-0.699897
0.911128
-0.580353
0.915587
-0.466258
0.914981
-0.357823
0.914080
-0.254892
0.910624
-0.157589
0.905168
-0.062036
0.894298
0.027279
0.884577
0.115089
0.867863
0.191260
0.850381
0.266626
0.829756
0.338533
0.802326
0.403622
0.775541
0.464336
0.743177
0.520397
0.707161
0.575070
0.664684
0.623074
-0.033530
0.093251
-0.102788
0.149702
-0.175242
0.204688
-0.252299
0.252500
-0.333431
0.299580
-0.418885
0.343392
-0.509786
0.382991
-0.602467
0.418343
-0.700224
0.453936
-0.803479
0.482141
-0.908901
0.510616
-1.018597
0.532650
-1.134756
0.553888
-1.255452
0.571434
-1.377175
0.592030
-1.504219
0.604356
-1.636310
0.613327
-1.772983
0.622455
-1.913715
0.631589
-2.054291
0.637923
-2.202147
0.638100
-2.352307
0.640672
-2.506292
0.639900
-2.661804
0.637497
-2.825432
0.632581
-2.987952
0.627993
-3.152839
0.624774
-3.321613
0.617864
-3.494236
0.607658
-3.667959
0.598344
-3.843992
0.588859
-4.020313
0.577647
-4.200091
0.567188
-4.380206
0.555192
-4.563733
0.541608
-4.745572
0.530070
-4.930685
0.516310
-5.113728
0.500581
-5.296983
0.487493
-5.481508
0.471316
-5.664152
0.457550
-5.847530
0.442079
-6.029837
0.427016
-6.210752
0.413494
-6.388504
0.396271
-6.565308
0.381732
-6.741067
0.366858
-6.912692
0.352758
-7.079895
0.335688
-7.248378
0.322456
-7.410319
0.306724
-7.570989
0.293594
-7.725770
0.281361
-7.876208
0.266376
-8.023243
0.252456
-8.164576
0.241348
-8.299497
0.229522
-8.430407
0.216986
-8.554916
0.206832
-8.677623
0.193418
-8.787993
0.182710
-8.895929
0.174773
-8.993950
0.164155
-9.089156
0.154798
-9.175402
0.147167
-9.255947
0.137401
-9.327666
0.129164
-9.392383
0.122865
-9.448925
0.117229
-9.498172
0.110590
-9.539259
0.103413
-9.573091
0.099825
-9.594989
0.094863
-9.611659
0.091128
-9.622542
0.088386
-9.622805
0.085852
-9.614305
0.083599
-9.598614
0.082059
-9.573346
0.083169
-9.541237
0.084096
-9.502400
0.085340
-9.454537
0.082882
-9.395197
0.085854
-9.329956
0.088591
-9.260576
0.092169
-9.178138
0.098371
-9.092182
0.099359
-8.995743
0.107290
-8.895189
0.113080
-8.784472
0.118478
-8.669928
0.126513
-8.546391
0.133320
-8.416847
0.141167
-8.279849
0.153021
-8.139882
0.164103
-7.994336
0.172192
-7.843786
0.184135
-7.686605
0.196308
-7.522847
0.210737
-7.357049
0.224774
-7.186823
0.238948
-7.013081
0.252716
-6.836149
0.269871
-6.654096
0.288320
-6.469910
0.301386
-6.283001
0.319272
-6.093396
0.337070
-5.902428
0.358607
-5.709692
0.376200
-5.516618
0.396049
-5.322652
0.416367
-5.124275
0.437307
-4.928747
0.457908
-4.735146
0.477565
-4.536815
0.501842
-4.343390
0.523543
-4.148426
0.544418
-3.955277
0.565879
-3.762225
0.589424
-3.574058
0.610242
-3.385064
0.634229
-3.198563
0.654890
-3.016324
0.677483
-2.834342
0.699875
-2.660001
0.719511
-2.484477
0.740706
-2.315423
0.761232
-2.145272
0.780335
-1.980853
0.798754
-1.823385
0.814386
-1.667036
0.831970
-1.517356
0.847144
-1.367354
0.864159
-1.225117
0.873805
-1.088534
0.887739
-0.953454
0.897276
-0.825613
0.901899
-0.700889
0.908449
-0.583735
0.910555
-0.466977
0.911818
-0.356658
0.911545
-0.254457
0.909308
-0.155549
0.903494
-0.059996
0.892646
0.028450
0.883171
0.114580
0.868758
0.194335
0.850448
0.268510
0.828639
0.338567
0.803091
0.406369
0.776372
0.466449
0.743871
0.524029
0.707793
0.669908
0.576269
0.623959
-0.007226
0.068584
-0.062880
0.128841
-0.129275
0.181171
-0.204452
0.233358
-0.283424
0.282038
-0.363752
0.323583
-0.445617
-0.517275
0.369331
-0.609949
-0.562335
0.404575
-0.708337
-0.662967
0.436891
-0.761478
-0.812243
0.465430
-0.866607
-0.922100
0.490462
-1.030639
-0.974094
0.520511
-1.086658
-1.147374
0.542005
-1.275275
-1.204001
0.564024
-1.365331
0.582842
-1.486166
0.597123
-1.612797
0.609739
-1.748382
0.616561
-1.886429
0.628092
-2.029449
0.632686
-2.170192
0.636196
-2.294776
0.637690
-2.479178
0.638774
-2.635084
0.637748
0.635259
-2.793940
0.632482
0.633938
-2.955316
0.626911
0.628749
-3.123877
0.619414
0.623818
0.616229
0.611152
-3.327670
0.608745
0.602648
-3.485985
0.599469
0.596028
-3.662050
0.589996
0.583149
-3.840883
0.575121
-4.076785
0.565049
-4.386932
0.552611
-4.531834
0.539261
-4.678446
0.527875
-4.899367
0.513934
-5.083567
0.501947
-5.270389
0.483994
-5.489484
0.467637
-5.645018
0.454246
-5.822630
0.433989
-6.006445
0.424796
-6.192068
0.411110
-6.370375
-6.540968
-6.679837
0.384468
-6.858786
-6.771925
0.367825
-7.038830
-6.947736
0.350192
-7.120103
-7.205660
0.333737
-7.289170
-7.376261
0.321183
-7.451543
-7.538328
0.304160
-7.615295
-7.701481
0.290876
-7.769787
-7.870730
0.276999
-7.977225
0.261555
-8.117320
0.250780
-8.260906
0.233189
-8.398642
0.222558
-8.531815
0.211473
-8.658762
0.198445
-8.778727
0.188639
-8.878245
0.176863
-9.011403
0.165502
-9.117206
0.155790
0.149183
-9.214977
0.145097
0.140734
-9.303214
0.134900
0.129519
-9.386425
0.128221
0.123474
-9.480652
0.119406
0.114890
-9.533052
0.109396
0.113028
-9.592348
0.106670
0.101436
-9.646719
0.094914
0.098117
-9.683436
0.091886
-9.730910
0.087552
-9.759353
0.082756
-9.782389
0.078788
-9.795827
0.074928
-9.802042
0.071988
-9.796842
0.069735
-9.783784
0.068764
-9.767421
0.068394
-9.743118
0.066696
-9.705007
0.069248
-9.661102
0.069223
-9.611712
0.070596
-9.554819
-9.519068
0.071238
-9.462466
-9.430083
0.073840
-9.380107
-9.346426
0.079129
-9.265115
-9.300289
0.084017
-9.213958
-9.166095
0.088225
-9.065942
-9.113550
0.093390
-9.002670
-8.952397
0.097429
-8.833673
-8.889045
0.105841
-8.736810
0.114485
-8.615572
0.119216
-8.478097
0.134606
-8.339653
0.141087
-8.195475
0.150357
-8.044235
0.164045
-7.891601
0.175081
-7.758799
0.186973
-7.558708
0.199133
-7.388941
0.212499
0.221702
-7.216030
0.231922
0.238109
-7.037402
0.248793
0.252839
-6.855740
0.262851
0.269671
-6.632464
0.278878
0.286727
-6.480077
0.297260
0.304162
-6.295043
0.314662
0.323644
-6.106004
0.332122
0.341854
-5.918481
0.358853
-5.761552
0.375135
-5.482343
0.397016
-5.325583
0.417164
-5.169189
0.436627
-4.931973
0.457481
-4.735099
0.475999
-4.536917
0.502958
-4.298591
0.522984
-4.139980
0.546640
-3.951221
0.573671
-3.761926
0.591283
-3.570024
0.608545
-3.384786
0.640939
-3.208152
0.655930
-3.076584
-2.970273
0.686270
-2.885717
-2.786431
0.704163
-2.701397
-2.612281
0.721719
-2.525207
-2.440184
0.738642
-2.353026
-2.272144
0.764741
-2.180697
-2.099558
0.782307
-2.017662
-1.938434
0.799611
-1.851859
0.818764
-1.733606
0.834739
-1.586189
0.851869
-1.437264
0.865193
-1.295838
0.876422
-1.152665
0.886538
-1.017904
0.898948
-0.893790
0.905580
-0.787143
0.911675
-0.640860
0.912540
-0.525200
0.914601
0.914597
-0.411594
0.913117
0.911830
-0.305682
0.910914
0.908315
-0.203317
0.905148
0.900801
-0.088580
0.890109
0.897484
-0.012077
0.886860
0.878550
0.073049
0.862713
0.870704
0.152156
0.851846
0.219739
0.836069
0.302998
0.814835
0.370911
0.790993
0.435893
0.759735
0.493366
0.725953
0.551543
0.688902
0.655141
0.597792
SCALARS strain_3 float
LOOKUP_TABLE default
0.354631
0.226109
-0.239984
0.924567
-0.858087
1.470059
-1.500159
1.992063
-2.165704
2.489858
-2.853637
2.961652
-3.563647
3.408430
-4.295545
3.830556
-5.049221
4.228568
-5.822699
4.599750
-6.616495
4.948943
-7.429673
5.272497
-8.260871
5.571503
-9.109457
5.847467
-9.974269
6.099970
-10.855653
6.327953
-11.752384
6.533483
-12.663194
6.716421
-13.586275
6.877412
-14.521915
7.016682
-15.468493
7.135503
-16.425531
7.232558
-17.390004
7.309397
-18.362459
7.367678
-19.341243
7.407176
-20.324538
7.428440
-21.312494
7.431185
-22.302254
7.417831
-23.293252
7.388555
-24.284432
7.342603
-25.272938
7.283324
-26.261239
7.209491
-27.244893
-28.220984
7.122472
-29.191888
7.023616
-30.155575
6.912556
-31.107451
6.790240
-32.050429
6.658543
-32.980369
6.515777
-33.897305
6.365705
-34.799218
6.208258
-35.684049
6.043584
-36.553641
5.871856
-37.402211
5.695740
-38.233496
5.514283
-39.042218
5.329661
-39.828007
-40.589308
5.140663
4.949860
-41.327281
4.757127
-42.039025
4.563020
-42.724879
4.367823
-43.380963
4.173452
-44.010011
3.980860
-44.608743
3.788059
-45.176273
3.597669
-45.713321
3.410203
-46.216833
3.224555
-46.687943
3.043910
-47.125016
2.866689
-47.528148
2.694123
-47.896909
2.525687
-48.230372
2.362885
-48.527135
2.207193
-48.787824
2.055291
-49.012106
1.910518
1.772668
-49.200502
1.640365
-49.351321
1.514823
-49.465784
1.397854
-49.541560
1.287622
-49.582297
1.185022
-49.584475
1.088905
-49.550017
1.001430
-49.479339
0.921530
-49.372063
0.848599
-49.227962
0.782882
-49.049085
0.724936
-48.834579
0.674653
-48.585135
0.631811
-48.301613
0.596074
-47.983770
0.567237
-47.633944
0.545222
-47.250797
0.530480
-46.837050
0.522066
-46.391484
0.520050
-45.915692
0.523481
-45.412623
0.533595
-44.879947
0.549776
-44.321069
0.570542
-43.735951
0.596623
-43.126884
0.628060
-42.492088
0.663876
-41.835825
0.704098
-41.157567
0.748815
-40.457944
0.796574
-39.740744
0.848748
-39.004297
0.902862
-38.251075
0.961097
-37.481956
1.022290
-36.698912
1.084548
-35.902699
1.150297
-35.093535
1.216220
-34.274051
1.284334
-33.445916
1.354134
-32.608861
1.424581
-31.765975
1.496405
-30.916820
1.567440
-30.063173
1.640125
-29.206001
1.711989
-28.346743
1.783688
-27.487053
1.855602
-26.627181
1.926817
-25.768203
1.996903
-24.912459
2.065970
-24.059972
2.133758
-23.211739
2.200509
-22.368117
2.265997
-21.532621
2.329308
-20.702787
2.389587
-19.882266
2.449016
-19.070195
2.506255
-18.268474
2.560801
-17.477430
2.612137
-16.698168
2.661362
-15.929672
2.707839
-15.175005
2.750499
-14.434488
2.790795
-13.706622
2.827323
-12.993302
2.860546
-12.295376
2.889547
-11.613567
2.914698
-10.946598
2.936504
-10.296552
2.953990
-9.662155
2.966823
-9.045168
2.974137
-8.444284
2.977124
-7.861801
2.975239
-7.295479
2.968726
-6.747250
2.955623
-6.216479
2.937321
-5.702684
2.912619
-5.206893
2.882160
-4.728458
2.844013
-4.267963
2.799978
-3.823816
2.749378
-3.397636
2.690656
-2.988105
2.623726
-2.595427
2.548699
-2.219501
2.466373
-1.859524
2.375194
-1.516725
2.273522
-1.188817
2.163542
-0.877032
2.043945
-0.579769
1.913335
-0.298442
1.772356
-0.031894
1.620693
0.221165
1.457940
0.460943
1.282940
0.684901
1.096508
0.897385
-0.374005
0.802922
-0.999749
1.355084
-1.648248
1.881967
-2.320473
2.384768
-3.014238
2.861879
-3.730360
3.313890
-4.470542
3.741220
-5.228938
4.141745
-6.008868
4.520399
-6.808891
4.872081
-7.627692
5.198831
-8.463586
5.501189
-9.317531
5.779087
-10.187996
6.033864
-11.073342
6.264627
-11.973829
6.472345
-12.887647
6.658417
-13.813164
6.819737
-14.750403
6.959535
-15.698156
7.079830
-16.654084
7.177522
-17.618183
7.255423
-18.587596
7.315054
-19.562884
7.354486
-20.542077
7.375847
-21.524102
7.380429
-22.506942
7.365919
-23.489788
7.336902
-24.470591
7.291374
-25.449120
7.233006
-26.423434
7.158904
-27.392568
7.072450
-28.353257
6.973898
-29.306628
6.863011
-30.248908
6.742623
-31.180494
6.611563
-32.099583
6.470436
-33.004862
6.323186
-33.895687
6.165945
-34.768121
6.003498
-35.623737
5.834905
-36.459966
5.660697
-37.274154
5.483366
-38.067706
5.301597
-38.836955
5.117121
-39.580960
4.930755
-40.301609
4.742175
-40.994402
4.553783
-41.659996
4.364181
-42.296191
4.175517
-42.903068
3.987662
-43.478701
3.801922
-44.023520
3.619711
-44.536565
3.438854
-45.014570
3.262292
-45.459473
3.089638
-45.869935
2.920653
-46.245421
2.756815
-46.586316
2.597520
-46.889538
2.444334
-47.155975
2.296915
-47.386482
2.156371
-47.580238
2.021080
-47.736251
1.892608
-47.854086
1.771347
-47.935083
1.657504
-47.978103
1.551151
-47.983361
1.451124
-47.951868
1.359248
-47.883840
1.273686
-47.778272
1.197135
-47.635856
1.127332
-47.457052
1.065354
-47.242200
1.010011
-46.993058
0.962498
-46.709003
0.922403
-46.391641
0.889186
-46.039847
0.863408
-45.656008
0.843188
-45.239989
0.830383
-44.793578
0.824440
-44.316935
0.823770
-43.810139
0.829956
-43.276354
0.842201
-42.715675
0.858807
-42.128169
0.882121
-41.515504
0.908067
-40.880311
0.939754
-40.222928
0.977150
-39.541913
1.017351
-38.842520
1.061105
-38.122800
1.109827
-37.386208
1.160478
-36.633145
1.214263
-35.864394
1.271300
-35.081368
1.330674
-34.286435
1.392139
-33.479879
1.454913
-32.662467
1.519928
-31.837503
1.585548
-31.004841
1.651315
-30.166193
1.719472
-29.322057
1.787652
-28.474191
1.855992
-27.625120
1.924876
-26.773584
1.992329
-25.922059
2.059958
-25.071958
2.127014
-24.223472
2.192945
-23.378438
2.257756
-22.537716
2.321062
-21.702565
2.382942
-20.873858
2.443090
-20.051485
2.502224
-19.238957
2.557906
-18.434848
2.612683
-17.640432
2.664069
-16.856602
2.712966
-16.084891
2.759210
-15.324786
2.802480
-14.578755
2.842716
-13.845519
2.880043
-13.126156
2.913472
-12.422487
2.943445
-11.733343
2.967922
-11.060014
2.990309
-10.402431
3.008638
-9.761348
3.020747
-9.136816
3.029597
-8.528800
3.032215
-7.938999
3.031949
-7.365788
3.024390
-6.810149
3.012668
-6.272730
2.993995
-5.752257
2.970162
-5.249179
2.939387
-4.764204
2.902358
-4.296882
2.858337
-3.847053
2.806285
-3.414706
2.747278
-2.999102
2.681043
-2.601132
2.606028
-2.219733
2.522897
-1.855005
2.430124
-1.507030
2.328984
-1.175037
2.217603
-0.858711
2.096765
-0.557753
1.965378
-0.272658
1.823398
-0.002167
1.670146
0.253945
1.505580
0.496114
1.328791
1.140288
0.723127
0.938902
-0.126285
0.580300
-0.637564
1.142095
-1.253208
1.677983
-1.904957
2.189712
-2.584049
2.677125
-3.282726
3.139653
-3.976818
-4.549832
3.619186
-5.309775
-4.933210
3.995408
-6.095239
-5.727520
4.375121
-6.508533
-6.914742
4.725402
-7.330082
-7.749202
5.007474
-8.578793
-8.143917
5.389037
-8.996398
-9.442784
5.678237
-10.379551
-9.855141
5.942363
-11.014840
6.184216
-11.870552
6.403073
-12.776285
6.635095
-13.697298
6.776349
-14.634846
6.922246
-15.574357
7.050288
-16.501624
7.158997
-17.300732
7.245696
-18.476509
7.313879
-19.450445
7.363195
7.386818
-20.432401
7.404973
7.398367
-21.416905
7.404501
7.405351
-22.402751
7.386926
7.396643
7.371096
7.351219
-23.607586
7.329981
7.304225
-24.510284
7.276292
7.239067
-25.507719
7.204278
7.157129
-26.517154
7.092781
-27.797042
6.996312
-29.438737
6.887914
-30.199771
6.765368
-30.957105
6.636086
-32.076097
6.499401
-32.993694
6.375567
-33.898174
6.187761
-34.948507
6.023521
-35.679000
5.854513
-36.506686
5.640715
-37.335235
5.499975
-38.147101
5.353385
-38.940424
-39.670675
-40.255963
5.021670
-40.983169
-40.625180
4.775899
-41.711714
-41.338568
4.575849
-42.027383
-42.362994
4.385630
-42.671153
-43.016529
4.215451
-43.284774
-43.608776
3.984623
-43.882455
-44.205245
3.796110
-44.443952
-44.809504
3.609497
-45.150320
3.424856
-45.610168
3.244134
-46.062343
3.032301
-46.485753
2.888750
-46.877400
2.725646
-47.227644
2.561553
-47.537307
2.404969
-47.777437
2.251900
-48.082614
2.107900
-48.292176
1.972462
1.863252
-48.463516
1.802006
1.738946
-48.600018
1.677539
1.609607
-48.696804
1.555996
1.499281
-48.775365
1.444685
1.388291
-48.776079
1.291901
1.345735
-48.759360
1.252351
1.200349
-48.717591
1.106552
1.164256
-48.645726
1.056381
-48.499331
0.987380
-48.339681
0.926414
-48.142521
0.867632
-47.910569
0.821270
-47.643464
0.781574
-47.343085
0.751761
-46.941823
0.716506
-46.625040
0.696475
-46.243172
0.681857
-45.807450
0.675528
-45.352877
0.674003
-44.872342
0.678624
-44.376091
-44.021496
0.688745
-43.644470
-43.380864
0.706174
-43.050070
-42.781863
0.727898
-42.186058
-42.454283
0.754043
-41.843226
-41.529347
0.777365
-40.882544
-41.200346
0.822371
-40.503206
-40.176356
0.862364
-39.445445
-39.803093
0.907167
-38.905665
0.954761
-38.196248
1.006917
-37.432900
1.073153
-36.666225
1.121507
-35.888107
1.179876
-35.090961
1.240866
-34.306610
1.304915
-33.629513
1.369093
-32.637061
1.436928
-31.802601
1.500669
1.545655
-30.961255
1.593825
1.624640
-30.114681
1.664627
1.696130
-29.264696
1.734941
1.762964
-28.232558
1.802355
1.835426
-27.526058
1.871215
1.904045
-26.693812
1.944452
1.976729
-25.846603
2.012784
2.044077
-25.016817
2.099108
-24.329960
2.163039
-23.123036
2.229218
-22.447270
2.292831
-21.781160
2.355599
-20.786945
2.415316
-19.966268
2.464062
-19.153777
2.531934
-18.176534
2.586134
-17.526124
2.638080
-16.769175
2.697178
-16.004872
2.733572
-15.248477
2.768786
-14.514587
2.823248
-13.816906
2.848048
-13.302886
-12.889377
2.893315
-12.566292
-12.179538
2.917153
-11.841461
-11.507393
2.941011
-11.171316
-10.848164
2.958931
-10.513696
-10.206152
2.980787
-9.853250
-9.546583
2.993704
-9.236694
-8.946702
3.002273
-8.607135
3.006080
-8.160382
3.004185
-7.607232
2.994643
-7.050627
2.983498
-6.508443
2.965679
-5.983807
2.940998
-5.479631
2.910800
-5.002154
2.873843
-4.607932
2.828649
-4.056819
2.779331
-3.618403
2.737992
2.703565
-3.197763
2.672280
2.634961
-2.794126
2.597053
2.556484
-2.406933
2.516128
2.473654
-1.961051
2.377907
2.426156
-1.670224
2.325783
2.274540
-1.343861
2.159517
2.218379
-1.030778
2.091009
-0.759231
1.998479
-0.426088
1.868519
-0.149062
1.722960
0.111283
1.565345
0.358943
1.396489
0.592908
1.220016
1.059528
0.812463
SCALARS stress_1 float
LOOKUP_TABLE default
-5919754.766453
-3910163.810090
3814065.950871
-15222286.574362
13894571.504219
-24141968.875318
24503584.661681
-32572367.949812
35246602.301426
-40668232.602625
46567916.593863
-48041979.321353
58412806.063281
-55307232.984166
70442777.160583
-61981240.115353
83039456.483447
-68467193.836883
95931360.446079
-74456932.429248
109244053.609464
-79963055.294906
122806916.144010
-85226264.714351
136789932.537314
-89836697.809549
151017487.276971
-94260011.458670
165801140.216204
-98302732.186005
180618900.233184
-101769649.186909
195977275.107745
-105108049.620045
211552743.120379
-108081451.765904
227291545.002480
-110439799.026945
243440728.363473
-112670252.037541
259727785.617565
-114483454.273541
276345678.971861
-116037676.259233
293077646.560075
-117242217.226668
310047918.272124
-118337454.054016
327198064.558911
-118748908.253819
344508256.956472
-119163684.069874
361935037.989097
-119213251.331911
379474389.156130
-119029318.600912
397232232.664673
-118429025.108928
414838656.367951
-117876104.051316
432562910.473066
-116915760.623430
450451664.479363
-115883852.094016
468068570.557250
485939080.242764
-114459928.987363
503739935.669622
-112904833.206588
521349482.410554
-111221699.032183
538994800.318784
-109235982.257181
556450810.967042
-107335065.552649
573970768.489046
-105100242.748316
590863550.140339
-102803696.759045
608004552.091331
-100363043.134072
624799807.524180
-97735646.824957
641262954.328802
-95003413.344241
657709974.004542
-92343541.997362
673687948.124129
-89570937.662491
689411295.833028
-86781003.962253
704797073.375036
719938231.578429
-83796387.811510
-80814706.479008
734656920.089328
-77843950.879611
748837566.687568
-74688708.635944
762691130.348201
-71638182.980056
776137490.924452
-68614597.217386
789121879.635171
-65550926.897171
801554199.699209
-62449143.007662
813564126.652605
-59605166.817605
825225527.787597
-56454185.315251
836174262.249648
-53629078.049837
846504227.367692
-50701286.046310
856514384.323886
-47819212.536720
865682570.373775
-45090611.180385
874234717.053397
-42461070.928864
882356695.337805
-39824779.404781
889788238.091969
-37384411.596389
896547141.242502
-34869989.480193
902759961.020003
-32530019.653871
-30194426.130621
908251919.070590
-28048227.264325
913134010.295929
-26032776.958098
917417001.914872
-24078877.956395
920905324.902471
-22286355.527961
923574480.514273
-20615383.014928
925739627.334755
-18979541.759429
927180419.010038
-17533503.066903
928140659.770721
-16145543.645110
928038019.262923
-14988565.470554
927489224.071123
-13819104.933811
926193233.170375
-12868307.694199
924292971.816224
-12070622.776664
921599402.666537
-11378993.486646
918284386.342488
-10676606.568598
914265304.490195
-10252525.718535
909576553.340259
-9925751.570827
904305948.258307
-9653695.894876
898418377.548325
-9526145.044563
891873982.465860
-9551462.398714
884719307.705472
-9679581.299462
876935424.242215
-9991832.491262
868534386.416771
-10374024.999060
859492393.838564
-10759320.238378
850072256.531090
-11332736.563094
839986369.786589
-11973349.742612
829389310.299622
-12863618.130811
818377224.728056
-13588031.143211
806759539.729759
-14576079.524268
794748238.035986
-15546660.298929
782207716.902282
-16733742.248342
769228366.425532
-17922906.470841
755993808.251854
-19277667.320308
742340806.368050
-20625388.566144
728316278.176442
-21993330.281736
713959289.700525
-23502495.602115
699129629.952046
-24965989.552225
684081591.308381
-26579256.596031
668920784.817971
-28146123.477987
653271680.821498
-29858637.015936
637509652.086912
-31574771.880944
621629081.589265
-33367852.927549
605550049.779323
-35147628.863510
589188153.668831
-36967720.152791
572817327.989047
-38820943.576540
556329105.751717
-40536787.915907
539711151.407605
-42374573.317667
523172313.651272
-44271820.806769
506451037.250669
-46073766.603375
489768334.583171
-47958773.061367
473061942.733913
-49950113.352468
456351332.434152
-51519403.232881
439647968.769023
-53515647.557141
423247104.115902
-55282260.752519
406856137.596618
-56910813.319670
390350605.905733
-58558675.368678
374180059.530706
-60327269.717385
358149053.519977
-61902864.195382
342298500.324310
-63484037.547123
326659833.028842
-64971647.638893
310977965.803843
-66398260.897961
295662699.978249
-67971997.471104
280633091.759024
-69303535.785589
265818422.865677
-70530789.707702
251215899.395091
-71555827.701406
236970354.822976
-72715669.596290
222814539.880589
-73710205.893012
209061937.372573
-74648042.384469
195615406.103571
-75372243.217436
182475534.841535
-76002166.184811
169725143.025479
-76565381.787250
157090200.825677
-77014723.500463
144936275.998329
-77293219.788414
133153303.030894
-77473636.200200
121679081.045202
-77373886.845905
110457366.809202
-77410925.591812
99532641.798606
-77029294.230819
89118486.537564
-76532732.348718
79005244.391706
-75912784.336084
69279643.958570
-75071145.461523
59750646.957666
-74170057.444544
50773270.230331
-72840228.505310
42051204.581209
-71382465.765653
33618179.486011
-69768345.372349
25707418.066567
-67913386.837803
18046799.200909
-65961973.674418
10645476.608544
-63582965.711786
3826210.887014
-61136686.388923
-2988596.244174
-58330395.291620
-9169433.906987
-55179265.822202
-15099340.625715
-52032543.529765
-20753989.278528
-48370997.890020
-26192260.353021
-44527552.732559
-31160838.653977
-40350407.179210
-35879434.461886
6053761.281920
-13192648.296673
16231097.186460
-22302807.263104
26845200.708313
-30795712.953179
37850240.725647
-39053442.171680
49354513.335484
-46491602.077269
61306555.415994
-53937010.877051
73485695.454772
-60784283.729686
86162145.622229
-67181901.122770
99126560.442653
-73375934.214965
112576634.684132
-78921067.567255
126372344.199890
-84055505.984422
140465872.148588
-89017190.661822
154855822.066263
-93415078.404235
169797232.721004
-97467592.126528
184746422.637099
-101176392.633480
200040427.350587
-104429663.083754
215803911.983434
-107257286.075028
231688281.791186
-109907955.046456
247943517.822423
-112075804.912901
264269913.967062
-113869690.833026
280934362.004938
-115602507.331121
297707036.460341
-116942138.273608
314910311.466986
-117649030.184776
331839364.841402
-118375844.259982
349219576.510201
-118737991.731275
366585802.570404
-118846313.476826
384135101.229115
-118667452.972483
401634652.022370
-118131763.486990
419313645.083886
-117449289.825129
436982004.340274
-116625199.292338
454407421.571369
-115391639.364465
472227988.557006
-114091386.919680
489837885.223796
-112475145.263422
507279173.071083
-110890811.517658
524814896.269277
-108939522.707335
542033096.391108
-106924368.588793
559243036.899226
-104775578.113591
576131761.720242
-102635209.184844
592886864.670685
-100077526.680722
609452615.249899
-97532146.150463
625892066.713429
-94963337.179996
641937070.841110
-92246420.403694
657770225.522859
-89381055.687978
673036357.269768
-86635841.947714
688327912.606125
-83643210.488340
703052786.116411
-80843528.859091
717396709.971033
-78007157.694340
731334673.425538
-74987386.897204
744809161.344897
-72003074.370800
757946513.899519
-68972036.749498
770428095.710577
-66039341.655925
782594138.631294
-63160880.322130
794172599.526642
-60236223.736365
805285923.652166
-57422851.838442
815747882.543903
-54570997.262732
825688027.420704
-51804161.595167
835008069.257622
-49219796.458370
843640439.517307
-46498910.877288
851959937.174813
-43921290.755037
859311093.131803
-41496525.043177
866239388.961010
-39034631.791600
872491601.210218
-36852275.878476
878114073.488853
-34487866.719327
882838920.698580
-32714447.546201
887197427.460572
-30544355.384047
890587683.347561
-28688029.928877
893476972.980719
-26920114.412740
895576031.578898
-25242253.933973
897075151.763272
-23798817.761319
897851080.826079
-22415509.590791
897810013.668985
-21134298.447336
897223712.949856
-19999263.636393
895898533.570359
-19009490.500094
894022456.542241
-18026149.782893
891153004.767166
-17410497.424602
887766166.866307
-16618712.169675
883823744.168600
-16219285.396939
879049922.941336
-15732908.094647
873696172.196263
-15440001.995505
867671184.554554
-15258445.770580
861096381.271754
-15295930.798698
853673994.408054
-15430710.178196
845892549.218997
-15505522.897324
837325952.362452
-15843038.054418
828346380.532979
-16300516.991611
818786936.705634
-16871412.807238
808579229.184401
-17342082.209058
797994120.700537
-18077240.575900
786767822.155708
-19003144.688911
775039674.317862
-19854237.926919
762878501.490988
-20826926.717192
750397982.650137
-21858918.438557
737401586.563261
-23037874.189349
724000183.814838
-24290314.360142
710193013.526698
-25665686.403152
696083529.648948
-27043468.745647
681710271.230030
-28479578.485961
666853868.366827
-29938672.649043
651900896.034393
-31487807.772242
636496878.610103
-33189432.880505
621001130.508026
-34704588.754982
605250075.093791
-36346991.859634
589273624.427586
-38109396.938916
573293551.521159
-39821479.127858
557019117.142460
-41567454.573236
540770149.668865
-43240998.653878
524226912.466001
-45080827.199372
507788531.630752
-46904839.344750
491367733.260000
-48629501.834465
474691884.719375
-50435674.498107
458372266.459639
-52256518.751199
441741183.175355
-53991620.069449
425260659.951657
-55654647.941768
408910556.922124
-57380444.478238
392598465.452383
-59058789.899024
376377523.956504
-60830918.948581
360275332.885251
-62319922.127565
344438075.360454
-63946461.619447
328688877.478996
-65649221.497616
313127206.289319
-66959706.299423
297759732.035082
-68312402.452135
282718053.691341
-69607593.785345
267734658.136125
-71022866.799708
253112090.063998
-71973641.568613
238559796.596789
-73063938.312225
224592414.258651
-74091377.250709
210808999.744144
-74965458.457454
197120852.248487
-75817951.798743
183886386.502936
-76546317.738540
170947471.031642
-77008282.069741
158317168.956437
-77563516.695325
146060581.045269
-77847089.688680
134009398.102782
-78057455.233277
122514789.604687
-78065775.195401
111093255.684562
-77875059.050762
100217309.818116
-77757551.019526
89659824.846689
-77094429.211773
79511113.855415
-76448256.578926
69564979.405141
-75795915.865438
59938994.898188
-74659973.949343
50835601.175896
-73471907.294602
42137425.433482
-72118501.376927
33657788.756083
-70627341.428229
25550678.338916
-68803727.912471
17834152.986626
-66627381.670992
10396983.894431
-64327414.850568
3418758.501346
-61839252.683112
-3331746.351288
-59110608.644333
-9632323.151070
-55964966.563823
-15673747.056659
-52693141.953986
-21511764.275161
-49007653.936652
-26830269.965236
-45233358.414800
-41079190.510259
-31837772.931666
-36482561.418249
1975775.978669
-9617036.871068
10257591.139177
-18694319.752364
20293773.530601
-27510624.101760
31136083.131984
-35708373.077917
42335054.068676
-43520278.534058
53753080.399673
-51040921.665540
65327062.312715
74814422.336444
-58688157.792447
87405217.160812
81063547.183035
-64870817.182922
100511947.436843
94325918.134494
-70864942.625673
107404700.773378
114379508.430867
-76425703.113596
121214584.369772
128323551.167354
-80927541.220597
142290778.333162
134919545.040378
-87120954.853485
149404138.446902
156936075.546822
-91624021.504272
172800561.658376
163906467.218139
-95824520.562207
183487901.170691
-99601620.514883
198261507.227722
-103241514.631047
213673981.849294
-106849138.101807
229509308.383185
-109090865.384808
245616014.260799
-111288385.943944
261967576.077879
-113458700.794626
277967719.859905
-115121219.249536
291825817.294223
-116402371.855009
312483689.198282
-117605378.362620
329547342.535239
-118429591.897376
-118550905.458465
346803526.092640
-119045926.795784
-118907846.250202
364166245.126581
-118996973.971630
-119040415.884286
381643443.246487
-118716133.898373
-118906060.095812
-118478689.477232
-118164707.311440
403329049.829432
-117823203.776741
-117551957.551310
419428380.086858
-117072914.942567
-116559939.040205
437489916.784198
-115999907.078575
-115075984.938933
455687785.535121
-114177901.505853
478929994.487071
-112758099.618089
508997321.199175
-111022710.812202
522944571.227343
-109157897.184802
537072458.338983
-107217155.028391
557900907.265902
-105120733.649515
574971429.961632
-103208313.293327
591912689.664823
-100151175.535445
611929610.514325
-97739697.152452
625776000.385778
-95034578.158842
641698402.020727
-91694765.424944
657612423.106246
-89499424.874494
673399225.112363
-87371843.751724
688891950.562738
703187661.445735
714755377.180125
-82044197.143686
729318870.211278
722299091.208068
-78280027.811839
743907692.821416
736520852.875693
-75127513.593889
750436624.909208
757321977.322416
-72013588.299535
763601683.003454
770631510.742770
-69461640.561670
776387567.921005
782903082.035133
-65761469.095911
788942056.003498
795565835.776945
-62842514.362360
800707391.330877
808251517.448780
-60033136.206431
815815522.966135
-56962833.225800
825846283.375772
-54145437.360280
835902091.074141
-50599547.029514
845389757.412891
-48484051.425325
854438812.771672
-45677839.387344
862993949.216404
-43180715.802598
870387405.209381
-40565935.091853
876457712.968754
-38188065.737327
884481235.108433
-35879460.286517
890360418.856009
-33595228.881730
-31846585.182548
895483676.729895
-30857228.000092
-29925216.091207
900129800.583315
-28927265.949409
-27693466.131949
903954617.074136
-26854526.339943
-25986629.168440
907845408.228949
-25106633.109982
-24041849.617487
909585485.911264
-22473517.038505
-23461564.697485
911321635.220562
-21935290.248007
-20966157.505402
912530082.322821
-19465243.263651
-20413456.590643
912862153.022038
-18618525.617662
912655284.390578
-17515978.250798
911740631.019725
-16394698.837950
909997125.793147
-15634318.536697
907732495.929695
-14752873.068050
904639556.160625
-13995756.961784
900986485.387601
-13519781.504658
895672627.938381
-12908398.539511
891339733.577959
-12714073.388964
885968926.195531
-12548645.158034
879532122.389065
-12442203.021486
872783215.456891
-12461292.248064
865508691.787506
-12637641.618917
857653850.264864
852197448.232307
-12947037.432320
845897947.070613
841814917.089788
-13415947.478950
836276007.431798
831999163.116981
-13729144.731470
822089505.405799
826385268.442046
-14390370.164412
816315680.703490
811034637.473235
-14821871.811169
800182964.491541
805424581.547305
-15910094.302475
793463842.971362
787924944.343340
-16776221.811654
775521812.657816
781476235.533411
-17721649.958234
765837147.108562
-18802808.084348
753442910.932480
-19950824.336772
739889491.001899
-21458587.722834
726157960.508182
-22386914.437720
712149885.121906
-23776651.582675
697749706.853567
-25349740.353892
683325118.196986
-26729158.701144
671034469.801175
-28183770.772597
652473224.131941
-29864415.699543
637077243.997461
-31332963.015082
-32452505.663861
621338714.978091
-33667870.337051
-34435467.741661
605405821.134021
-35392424.148078
-36189834.459242
589366439.867572
-37086850.479731
-37848807.088311
569659059.096299
-38877879.290394
-39650133.281460
556079296.525626
-40540585.236371
-41436927.059640
540112578.787144
-42379604.891874
-43376664.666275
523747014.900975
-44289631.081549
-45091341.780327
507656769.526229
-46594339.033347
494223219.982182
-48223502.037503
470521390.523385
-50152312.911431
457055745.995958
-51952377.329267
443999155.194453
-53743791.979909
424078012.930503
-55322485.469830
407743899.924113
-56855070.780473
391580530.307106
-58889478.893162
371748124.942396
-60558395.189972
358603957.923560
-62073472.494241
343203727.509677
-63993900.661932
327596758.083060
-65208413.364955
312120464.029509
-66475230.427514
296838655.607977
-68402824.822616
282633673.706509
-69236191.591320
271829424.321884
263161449.915263
-70955969.750353
256430933.118353
248498026.904628
-71988128.219085
241297295.194711
234219941.236194
-72884749.376262
227135711.918348
220513661.165207
-73766355.000270
213318267.356162
206874499.732654
-74757832.474826
199487180.398319
192858229.425545
-75621498.354920
186336393.675373
180084054.042943
-76274011.320979
172805384.231315
-76879459.763578
163281731.890909
-77213835.585696
151395560.603837
-77626030.522563
139464075.017520
-77580157.088245
127747351.006822
-77787249.720425
116409579.497802
-77548335.775573
105483212.943438
-77324373.538136
94872479.351687
-76873200.950275
86321500.873468
-76176900.354259
74309909.402708
-75395925.627466
64660671.286544
-74734390.588599
-74101091.402405
55429235.333867
-73533715.334431
-72895496.856848
46420032.275933
-72174168.303329
-71419941.936944
37835813.625146
-70547725.873055
-69835377.669087
27883328.752539
-67808873.359325
-68793569.436903
21509120.703100
-66820852.548881
-65764730.643315
14191066.629247
-63237473.760625
-64484433.786719
7191023.358706
-61932330.400904
1270555.025543
-60050981.759693
-6282107.562799
-57217600.064128
-12455166.694281
-54035976.022603
-18241804.648727
-50666602.701907
-23780069.952504
-46824480.706007
-29120869.475975
-42982944.744892
-39381105.524194
-34042248.357271
SCALARS stress_2 float
LOOKUP_TABLE default
2446764.030901
1826914.265353
-1097466.339568
5820576.272528
-4922528.978448
8820642.644588
-8840303.780871
11741350.398937
-12989081.432620
14369068.360924
-17500678.394901
16781417.173827
-22403652.241209
18949263.523429
-27338286.684606
21115180.983222
-32785413.159019
22874638.560627
-38263882.447295
24740135.507501
-43861221.053142
26029112.083118
-50173117.437769
27371827.539333
-56442120.244455
28510694.883567
-63106810.116477
29511812.801602
-69952815.332971
30186138.866931
-77124058.579720
31102119.947407
-84433126.275428
31613649.980667
-92042309.671949
31940364.218565
-100021959.734202
32365334.920377
-108138862.419683
32691594.450246
-116506812.511239
32707800.927878
-125185523.400293
32622223.926769
-133934498.617837
32608135.244986
-143060671.373223
32438769.568311
-152408101.379513
32069273.946667
-161978404.733773
31690522.701693
-171638859.009497
31255179.065384
-181573775.373534
31034065.541451
-191640627.217308
30347461.927960
-201863122.819955
29873383.092766
-212363951.572898
29179315.903719
-222959808.642986
28497501.089105
-233753326.491427
-244631945.215286
27889776.222418
-255627552.345555
27217334.396083
-266662492.909515
26297378.861957
-277785051.186301
25496691.921817
-289061444.203196
24714650.870022
-300396583.491190
24072366.938566
-311872993.895494
23266363.743446
-323250779.877314
22309733.264802
-334497600.421431
21455632.048848
-345988484.737194
20754439.145505
-357348639.991455
19839956.213275
-368605883.211494
19046569.937938
-379821480.451873
18125918.160067
-391097218.034231
-402112845.831061
17422716.495658
16624949.672995
-413157478.730074
15806485.308076
-423896759.149976
15114737.241471
-434702504.684121
14323105.271250
-445150423.611645
13593263.055912
-455377223.847544
12806718.575597
-465506301.306810
12146061.306733
-475456840.086510
11442635.977606
-485013469.962069
10868280.064643
-494459152.988050
10261493.547984
-503621615.870094
9620122.834275
-512432677.592980
9021695.721584
-520840207.001918
8385362.980697
-528995324.193973
7832697.157829
-536928342.762501
7357000.093549
-544298109.510208
6923773.264288
-551289790.576663
6458387.622903
-558062304.400430
6020810.603320
5671670.088614
-564421437.869223
5216059.191072
-570368654.715965
4877155.003120
-575715542.855650
4451600.679547
-580682879.881633
4200308.948639
-585540070.639124
3864690.399111
-589521014.678975
3577323.619678
-593193866.888900
3317610.268843
-596404201.707463
3074616.571177
-599044846.022377
2837201.479540
-601149443.384495
2643507.036434
-603011987.387171
2517644.012647
-604132346.875616
2313074.814823
-604812119.261113
2303089.101463
-605234029.024731
2079018.027357
-604998551.054183
2183717.293506
-604080795.788033
2094075.264055
-602768354.862140
2038245.500437
-600899812.575500
1961609.114940
-598674941.773324
2026529.626495
-595750308.797111
2093201.623818
-592640579.240216
2260348.261701
-588715946.331854
2305143.946786
-584495324.029519
2425881.128223
-579636573.380355
2501892.918299
-574519780.159787
2668660.878447
-568713446.709315
2960654.120956
-562729602.440224
3280229.094973
-556078804.763796
3390236.955288
-549218988.951748
3725260.108546
-541802599.849291
3936110.639753
-534037564.363996
4471372.815986
-525806981.383579
4886795.749532
-517302127.024964
5275877.001825
-508406713.854225
5764234.433297
-499104746.918505
6262429.241242
-489598148.741374
6812851.832303
-479596145.482260
7267966.109417
-469601804.594952
7964063.227373
-459130727.308661
8542828.201392
-448461225.825319
9272278.325833
-437583677.738282
9880715.546134
-426446079.067410
10728918.086867
-415134128.336273
11635045.850969
-403706400.816589
12380470.923444
-392083219.031927
13152581.389299
-380252515.002148
14023924.969398
-368416135.068752
15057372.070384
-356559015.433671
16034832.273555
-344393454.256334
16968758.691196
-332363215.920743
18028361.450817
-320219163.698615
19198382.230779
-308072261.973951
20222482.976518
-295918968.906181
21429198.660754
-283851393.809524
22555370.116638
-271701207.025479
23737968.134817
-259796397.504123
24848565.730513
-247850528.699242
26266322.442519
-235998476.630698
27461225.425625
-224217061.682493
28570859.148838
-212615572.622633
29957038.584879
-201098024.156759
31191063.454610
-189763041.983094
32606588.730751
-178669006.849781
33753934.882309
-167733029.664396
35129149.812221
-157087832.853442
36290657.059278
-146465335.688637
37546177.456632
-136292419.302127
38849309.612858
-126241276.826061
39984857.248821
-116491916.462370
41178802.973097
-106837003.707343
42337971.618837
-97584995.328987
43340621.612546
-88471289.005662
44392496.857160
-79828993.687445
45284993.639616
-71247946.688555
46183754.750562
-63126780.210922
46843900.659006
-55260808.681053
47641941.973525
-47619709.979241
48180435.911273
-40335427.741343
48742260.514751
-33310745.708083
49279592.819044
-26682892.627607
49381821.572295
-20297718.562278
49482632.355800
-14396760.644243
49606550.483778
-8452261.300009
49445707.677093
-3054505.843794
49068403.292466
2058598.731823
48655576.686618
6909567.678696
48011923.398343
11574625.256102
47178940.923930
15774718.715895
46210770.480533
19605029.065496
44918932.634224
23411553.878400
43604263.671943
26875367.840386
41711358.020195
29989611.594735
40081711.217771
32795117.966796
37913992.578892
35497698.208423
-1870375.711881
5172914.412743
-5640236.910384
8259132.807492
-9800494.155506
11268251.771239
-14170974.133026
14033232.129334
-18916083.443722
16432767.819414
-23723040.773373
18770796.232902
-28738074.765259
20804155.307433
-34132425.880587
22712865.686287
-39857851.692851
24488261.307100
-45792280.097185
25947020.673583
-52008059.372725
27349624.611084
-58435083.457107
28573831.987456
-65064728.447398
29622075.628049
-72343242.238729
30434079.148859
-79398574.404596
31225779.375237
-86884117.042064
31784222.244819
-94645707.158553
32158623.191530
-102740269.599274
32480591.404862
-110934615.511215
32724154.500814
-119425598.103728
32910342.417020
-128192715.795518
32880832.726976
-137171342.160079
32780377.592892
-146403092.728403
32627294.588262
-155839906.849410
32477006.580938
-165509254.662667
31987201.368989
-175231990.768952
31661225.638197
-185222452.559686
31179705.508267
-195437712.131936
30679137.707486
-205518489.016692
30103075.061202
-216211101.353522
29530759.227916
-226880647.561132
28776960.327334
-237627970.058225
28103873.045239
-248469274.984371
27485267.040130
-259442953.506417
26669187.319428
-270652662.085572
25899752.289778
-281659785.749116
25094119.322742
-292743266.733683
24330340.964534
-303944399.178842
23467050.307580
-315195666.433512
22683498.037661
-326464803.664542
21859656.134917
-337605471.717144
21074241.509703
-348813745.010021
20035054.526161
-359972108.752526
19440319.346501
-370981932.635079
18653247.586721
-382088350.231174
17868792.905321
-392879053.091663
16986383.282440
-403727521.677754
16179739.082220
-414202744.834656
15377125.397088
-424667057.365078
14746935.319470
-434944563.730226
13996969.213508
-444896452.411168
13391888.919772
-454782975.687041
12641094.236333
-464480580.360551
11838086.639618
-473755887.276910
11263476.152270
-482723152.533182
10702375.138430
-491355756.044361
10120860.508455
-499879595.403802
9593130.102915
-508002220.848140
9032038.328456
-515831769.970728
8453914.277504
-523171562.504490
7902506.496271
-530171271.476707
7538883.798048
-536895683.508015
7066648.868616
-543025568.555912
6663614.157124
-549114326.353320
6168715.461639
-554466601.381308
5865495.188806
-559414338.667156
5412585.039629
-563763942.691933
5221848.812176
-567986457.370633
4862766.773523
-571427487.184324
4589083.651955
-574657069.908432
4295463.148475
-577141629.275879
4166119.669728
-579452586.697951
3823590.874214
-580946285.907570
3926791.350649
-582042249.428307
3634924.253823
-582658996.993085
3487671.606378
-582743221.082972
3372300.563105
-582340248.403610
3362086.642934
-581525630.323781
3277123.322296
-580058921.367055
3238979.232408
-578067550.014499
3240215.667630
-575635577.111325
3234300.146893
-572727128.634890
3311928.937275
-569398617.430404
3460619.515203
-565445784.909152
3468476.147755
-560975245.412632
3717421.423648
-556099744.534199
3906471.609957
-550731594.572852
3979124.931257
-544855130.800306
4305104.906480
-538639240.949483
4501431.620632
-531894781.222315
4797028.592644
-524849455.917800
5204014.795236
-517223306.629293
5519697.747339
-509321269.558724
5830165.716031
-501250204.256947
6289272.743814
-492588172.038180
6782056.210052
-483338968.089132
7392827.087463
-474160283.863592
7799609.643126
-464452110.269131
8323834.283684
-454521752.899107
9000926.772505
-444232549.912946
9619325.516233
-433768440.400294
10171346.599875
-423133879.997009
10994829.926364
-412174722.680449
11654994.650491
-401054490.974184
12514497.969549
-389875881.080146
13372991.604401
-378296919.157764
14285319.073980
-366829964.842897
15156527.917077
-355121793.043117
16151131.330987
-343239018.665998
16963884.470497
-331383217.347398
17918138.874403
-319463985.107178
19110298.991850
-307563360.286837
20206655.249345
-295573171.270379
21287917.956468
-283603641.895594
22459313.903866
-271613659.798338
23548320.672835
-259791260.068256
24661853.418165
-247840726.725210
26082544.973007
-236022617.083418
27188759.988440
-224425562.050454
28334468.324895
-212961269.080104
29708183.745741
-201568708.800806
30919081.223694
-190131250.805915
32269008.297549
-179093874.088011
33510677.800456
-168259576.988592
34805035.592846
-157443988.821879
35980583.256015
-146849235.468163
37268766.371259
-136663851.268944
38390210.799010
-126666267.398873
39741061.008275
-116710771.129666
40864020.901991
-107116224.341614
41986609.088733
-97737168.348938
43035554.967726
-88784331.353568
44134940.399403
-79888434.487653
45064538.034842
-71504760.177697
45910732.343051
-63352364.261490
46603493.750538
-55330497.165539
47394235.838597
-47744272.952206
48054361.397877
-40509072.005495
48562595.281387
-33521957.135913
48936764.643920
-26730128.909536
49333592.478053
-20382893.388725
49429414.686721
-14224377.748133
49404569.696431
-8481770.371760
49341193.612049
-2949886.434259
49009318.336509
2099528.932223
48734537.932175
6987372.553036
48042584.119911
11521618.931891
47134889.004583
15841570.006422
46031023.012697
19738638.419910
44967297.683045
23513406.109989
43447276.372350
26969586.468085
41777596.394829
30040657.431832
40117435.149708
37900469.951205
32967131.826581
35642411.973970
-318732.233521
3869422.477935
-3421473.158422
7117004.534338
-7315978.210659
10116386.314529
-11433509.360689
12917781.756144
-15917276.771574
15350339.138321
-20522619.148837
17681961.328911
-25368755.632811
-29329427.448804
20109081.772116
-34615554.305629
-31993218.298643
21914091.482668
-40462047.769010
-37696342.159691
23745785.346701
-43378711.117013
-46480645.309660
25320810.832889
-49524890.822219
-52772206.146727
26598983.373690
-59177728.192772
-55862925.613582
28027757.335770
-62373053.693391
-65928861.089786
29084152.779651
-73345647.853669
-69234769.614938
29940491.076468
-78560833.962369
30797272.869501
-85850824.925783
31400850.887032
-93384982.772711
32023351.307805
-101252865.513144
32344660.631393
-109500583.940654
32568148.604937
-117843380.713887
32637363.750928
-126374459.713558
32794977.317959
-133716731.679226
32790822.612819
-144726777.216652
32759549.894611
-154107731.468292
32466646.582965
32172371.793732
-163661650.778945
31823529.805299
32067102.866921
-173309266.766626
31478490.252009
31661350.343007
-183500373.388834
30895463.607925
31150063.763571
30688683.723403
30377969.816486
-195742873.222707
30078591.371622
29792998.260154
-205166574.047173
29627708.248406
29182858.117992
-215907488.655574
28920035.306875
28449325.082380
-226903895.171128
27929855.403657
-241057368.609620
27255015.348488
-259679397.914972
26542773.007458
-268542075.067494
25710239.901736
-277429151.123830
24829692.077042
-290861225.089814
24283360.828801
-302205790.683284
23468458.290619
-313581086.078844
22438549.460241
-326995082.708410
21732274.831107
-336424910.130342
20880899.018296
-347448154.463543
19798468.949887
-358650104.040312
19176570.272406
-369805594.289263
18610877.601592
-380844403.537940
-391438742.495471
-399839355.401545
17120558.401228
-411003608.007703
-405671723.276991
16163247.794936
-421962715.851802
-416379349.338360
15416782.098926
-427069429.214566
-432240912.525442
14600951.819376
-437314392.770482
-442742076.541135
13893346.496166
-447457947.102713
-452797497.011565
13181069.969011
-457542763.110259
-462808119.789898
12458498.832039
-467166689.777634
-473356492.323946
11730074.320585
-479914023.331403
10985107.868575
-488598167.398531
10477073.498650
-497345688.711836
9595168.891221
-506011434.831872
9271636.842292
-514388159.391124
8664941.186121
-522226077.331821
8170299.844817
-529720766.985397
7662394.816623
-535750127.688978
7222289.639491
-544073658.490454
6846122.385885
-550530246.674431
6294342.395008
6000970.770197
-556582826.782570
5904497.410967
5619872.016972
-562147587.094007
5387566.022568
5260185.866367
-567584493.020026
5040183.176032
4794339.845150
-573409332.957591
4832537.198325
4584060.334013
-576731650.574661
4275136.336094
4541585.961447
-580342907.152214
4176265.246181
3925423.770733
-583869285.649717
3755059.601526
3872738.901604
-586156557.658885
3637456.863181
-589275142.834550
3461165.498525
-591190910.889814
3214167.767665
-592603661.864774
3140033.407017
-593399735.674422
2971978.628177
-593791307.590475
2902365.089270
-593653377.345856
2661691.568149
-592855077.689711
2712123.312540
-591805698.972063
2599385.829799
-590413702.367734
2768965.913746
-588162655.045702
2575004.104098
-585688352.676264
2731021.129138
-582672548.742127
2849429.073873
-579316361.931379
-576980904.228882
2866099.621077
-573424341.614005
-571569967.574627
3003676.047364
-568620377.229908
-566604472.687289
2921249.203188
-561536795.423921
-563650156.282542
3284007.527428
-558251776.238845
-555549058.983885
3492712.309202
-549286096.624053
-552400744.680043
3670907.259350
-545499774.008906
-542326623.225300
4013457.333330
-535114685.635857
-538343546.474128
4251193.021893
-529183947.291489
4590420.913754
-521747046.215268
5042248.729777
-513356577.928712
5393948.861299
-504794102.105510
5780557.224720
-495791552.532928
6301935.487444
-486478165.288297
6841842.742734
-477247686.602968
7184791.662150
-469152914.651897
7761256.060340
-456897411.259326
8400203.185925
-446328837.629251
9061165.611753
9495595.505791
-435695116.081262
9929234.349008
10176876.364254
-424853364.592716
10637697.897598
10954053.198346
-413869055.729687
11453969.452838
11808044.675420
-400044909.134316
12137395.934458
12569199.263674
-390600948.100244
13013159.273713
13476068.221244
-379204265.792715
13876934.479974
14472695.686687
-367651976.061515
14955301.344191
15341679.047425
-356067250.535887
16108816.205488
-346539500.849468
17017279.431506
-329471023.362269
18111553.423557
-319739428.498920
19069268.348713
-310242045.723283
20183224.894977
-295735668.778972
21287196.288202
-283664676.591783
22253408.630989
-271649287.220917
23675564.318168
-257064195.889239
25019372.922607
-247240300.168535
26154295.329137
-235900360.501401
27673572.843325
-224158738.134746
28657451.651146
-212799675.815991
29578036.154296
-201530385.869523
31384816.458828
-190709720.882959
32261587.303524
-182762673.239662
-176127210.539196
33985325.450113
-171132664.933178
-165104951.921669
35090404.949846
-159977466.113963
-154826788.183373
36108176.689095
-149311127.698997
-144267250.413924
37164944.037336
-139035366.939486
-134085388.401985
38618851.628158
-128586289.970679
-123718188.532724
39776737.005950
-118819621.323686
-114241798.462823
41059809.018268
-108858568.734932
42122721.707616
-101809580.438620
43223468.473218
-92956240.875548
44365193.918549
-84261781.802402
45212873.952882
-75562477.222462
45913797.736057
-67266270.456833
46678894.563047
-59252585.778374
47616733.892036
-51707973.566720
48135001.691863
-45570729.068481
48579324.198792
-36821252.647709
49128756.491209
-30089034.630177
49286014.543382
49361385.686409
-23468156.837144
49526002.294338
49518328.144686
-17225578.540327
49514254.254283
49436117.693974
-11355359.096446
49348715.130978
49293203.755715
-4571731.504833
49001891.301185
49083702.187832
-181553.608787
48662558.700068
48457078.534758
4518588.787756
47785602.185340
48219407.160336
9182909.017190
47336453.981810
13039033.100198
46705969.666443
17892964.910412
45455560.211100
21673547.101003
44163572.537803
25229405.370131
42692191.461578
28500045.851087
41029449.224484
31392705.704986
39019993.557175
37189606.654915
34251167.761388
SCALARS stress_3 float
LOOKUP_TABLE default
19076211.620896
12172428.495611
-12911311.631503
49787118.949058
-46203033.038810
79207470.354451
-80821038.032575
107213236.237369
-116670774.698345
133977062.914027
-153744850.782419
159341961.415684
-192038886.200719
183385411.827885
-231456275.099837
206093818.066552
-272043903.165027
227491253.732860
-313798315.658215
247468025.227104
-356577949.379989
266167888.550750
-400448116.076648
283579454.104093
-445270258.779450
299662283.488307
-491066588.519653
314448800.788938
-537791917.758596
327995041.921909
-585417230.581825
340263706.257724
-633855289.681353
351235892.282222
-682998449.457471
361079410.395697
-732920986.457066
369673824.599617
-783476495.625851
377166405.463899
-834660498.225753
383474670.759342
-886385762.887736
388699712.401867
-938547584.473434
392833958.646644
-991177608.328852
395934409.579219
-1044136220.600584
397976983.855054
-1097367062.465011
399092594.989778
-1150831961.838056
399265260.923813
-1204411039.011436
398465034.457746
-1258166566.616115
396874807.846746
-1311840365.113433
394446016.461317
-1365519283.134354
391222255.671964
-1419018928.970596
387230802.618521
-1472331910.368457
-1525388556.504320
382513357.216910
-1578056514.239819
377177907.176882
-1630359329.636000
371182342.898732
-1682109479.154204
364613049.438214
-1733275212.855479
357487282.249912
-1783882897.601458
349900675.274247
-1833677644.168229
341814005.481429
-1882773916.302092
333296408.411586
-1930978199.009806
324437717.919593
-1978232025.637376
315206684.660914
-2024534300.476518
305720730.660048
-2069732441.588280
295963128.002539
-2113830533.094756
285991813.997846
-2156738304.511575
-2198274588.675871
275863821.616179
265612571.997373
-2238569493.418021
255297146.111637
-2277443621.430037
244846457.268430
-2314885921.087712
234412677.722920
-2350865540.852388
223970893.499607
-2385256582.615489
213556448.138618
-2418072412.268436
203266376.379493
-2449210590.987613
193031699.362068
-2478611846.433773
182943307.825881
-2506353990.729009
173018113.311061
-2532272312.418740
163319391.441813
-2556346352.509725
153813970.473306
-2578613061.778050
144498380.599663
-2598980241.400101
135518775.675758
-2617409191.751669
126775397.011050
-2633934842.554556
118355039.345079
-2648495688.039432
110224444.156925
-2661044923.358179
102447905.131842
95060804.633574
-2671655312.341176
87982186.831744
-2680209241.594886
81314919.436105
-2686811213.010734
74979043.670567
-2691360062.964513
69068396.674964
-2693900934.232312
63541713.358461
-2694418706.135639
58368992.630221
-2692956446.504868
53706568.514744
-2689489878.491885
49379217.351274
-2684006773.927064
45467344.618895
-2676553452.131913
41959659.371893
-2667180301.482227
38856787.804392
-2655865904.754093
36165685.540596
-2642642311.038349
33861438.605004
-2627577376.541164
31891736.221528
-2610648633.092917
30405717.468955
-2591918843.845490
29215804.917203
-2571398434.228966
28412835.414387
-2549193241.164557
27968077.130132
-2525286967.428353
27845417.858265
-2499725006.995855
28038408.507952
-2472604852.242857
28628882.303103
-2443934068.975236
29454834.867923
-2413764908.138705
30602042.880907
-2382179780.254183
31995694.511677
-2349221812.982423
33696930.608351
-2314948688.298926
35605339.340551
-2279384263.294528
37780073.386772
-2242660939.060066
40159605.970924
-2204808782.455706
42739628.717214
-2165921064.257535
45545687.734218
-2126023940.755803
48490596.415470
-2085129759.780887
51608086.930594
-2043419202.969041
54866116.127707
-2000877128.635012
58191021.776139
-1957599259.299720
61702498.154089
-1913705648.223624
65295884.885763
-1869161910.097267
69010132.794778
-1824112707.065774
72739683.105047
-1778614756.935022
76533666.809811
-1732737071.449842
80371451.363651
-1686529014.986029
84254072.644474
-1640076076.003455
88137378.991527
-1593394883.762580
92063393.228427
-1546588209.123569
95921469.463751
-1499712617.346882
99808833.806075
-1452872028.892391
103623217.794060
-1406078045.735599
107436089.051909
-1359401727.621334
111192348.887613
-1312919281.240141
114888865.470795
-1266623849.621808
118486645.964319
-1220693979.626501
122006328.852556
-1175033726.284009
125443830.013414
-1129778688.284876
128787891.385844
-1084930233.543555
131981240.678131
-1040631036.035547
135127400.544268
-996852953.105391
138112685.977496
-953683302.898209
140957801.231517
-911088789.873874
143666755.530243
-869150621.062176
146203966.012038
-827939050.522693
148571486.615857
-787419414.800844
150787880.880358
-747657904.840872
152852130.744495
-708737590.242483
154652877.346634
-670559699.295926
156320207.510392
-633308836.085279
157733513.489471
-596873755.470708
158954306.992153
-561292782.081708
159946939.387474
-526652368.547775
160730998.214095
-492940630.613740
161220658.841050
-460118907.479015
161436472.976623
-428236973.203180
161411492.704891
-397305226.270606
161135516.849472
-367307812.025829
160514687.263774
-338342354.383304
159543982.601791
-310238249.087861
158300460.001889
-283156548.223579
156677814.833105
-257036374.019658
154763469.833509
-231817495.906184
152393558.057391
-207563005.881686
149708842.957864
-184294533.545871
146578378.134634
-161932676.412900
143025912.895691
-140484015.112269
139073295.155489
-119950881.728054
134630544.452687
-100352052.174712
129720505.756027
-81624540.851065
124265672.034253
-63735705.356822
118345115.541065
-46758877.690514
111862831.475876
-30578471.451846
104861186.576757
-15241069.039645
97248239.158457
-690634.537989
89029459.074384
13049960.138670
80213322.408614
26053102.021587
70740661.414848
38287661.426980
60568812.007541
49835432.755142
-20137642.416111
43243112.404308
-53835388.961820
72988882.026490
-88739153.457734
101325610.877787
-124991951.989399
128344025.274413
-162390742.533783
154005767.702210
-200990477.176432
178351606.792140
-240853302.948604
201289937.030043
-281819251.596599
222866521.447176
-323851175.036337
243125946.529380
-366993686.699372
262060793.077241
-411186239.047042
279655291.406975
-456317770.565188
295847564.889088
-502442514.430192
310829715.839794
-549408476.073605
324501081.229304
-597251211.411349
336887875.373835
-645839609.619806
348040828.759227
-695230512.300151
357964843.070730
-745256070.228473
366625531.194479
-795919811.236616
374175158.100684
-847163268.670586
380529286.275184
-898892037.222393
385798223.633903
-951014696.807960
389942469.001925
-1003497198.288921
393074378.295174
-1056278961.241951
395163818.884154
-1109338415.897722
396304595.024034
-1162459208.233202
396512746.800360
-1215742522.879356
395767231.983929
-1268981473.012565
394153695.714577
-1322195257.494463
391727024.308518
-1375231234.555721
388487903.790253
-1428052342.888349
384554555.930578
-1480589777.184360
379863148.815040
-1532779983.674421
374589472.468137
-1584533802.650252
368621408.491045
-1635730177.858150
362058072.507968
-1686399823.359164
355028824.689999
-1736345002.560344
347447370.892011
-1785522641.692362
339499522.823758
-1833961248.331893
331098920.570784
-1881467214.770655
322307531.673217
-1928040627.784734
313296924.555850
-1973537930.066144
303925601.788600
-2017890414.960888
294378318.196553
-2061219088.021144
284571818.749919
-2103125329.162833
274642981.473198
-2143808033.707464
264619981.906518
-2183135905.401334
254484202.619794
-2220987175.020532
244384591.322779
-2257369124.286859
234202831.725224
-2292181176.946612
224084146.397045
-2325390837.205964
214030152.647700
-2357023573.526255
204043518.732357
-2386889035.629285
194247903.390559
-2414979118.291143
184541407.216720
-2441310166.688211
175028292.780757
-2465830010.711912
165748032.507463
-2488457966.738041
156697123.706296
-2509209290.173650
147887642.001461
-2528014561.394534
139370231.102708
-2544855495.007158
131144612.864914
-2559710581.072569
123233914.536488
-2572624058.027608
115667488.202977
-2583494576.817988
108422566.542875
-2592312044.050173
101544825.811349
-2599128955.930335
95039173.632607
-2603877722.519520
88890909.085434
-2606600600.023900
83187692.425000
-2607283306.334898
77786017.044840
-2605954785.658687
72884168.084788
-2602582389.656017
68349684.623631
-2597151928.933357
64204882.285574
-2589801948.581540
60476047.095117
-2580429171.207033
57111673.961423
-2569128050.070295
54159804.108404
-2555901803.777790
51620938.130475
-2540809072.535691
49482701.251549
-2523826456.889415
47680309.265454
-2505022896.875511
46273932.911730
-2484464173.754436
45238664.153829
-2462135199.732366
44546702.446333
-2438126173.585385
44183439.583072
-2412461170.719079
44232696.957579
-2385191477.909536
44520149.309395
-2356415704.247592
45117330.032056
-2326136235.708749
46053630.034725
-2294449540.668801
47278726.710937
-2261331408.048961
48726964.399938
-2226970624.709395
50445174.895558
-2191332521.256568
52401560.306373
-2154483037.435311
54567176.426211
-2116560778.166836
57008589.194026
-2077565955.826939
59588310.403647
-2037593182.160450
62287761.448607
-1996743048.488875
65210339.383196
-1955051738.726670
68254461.770572
-1912540157.625422
71444710.549688
-1869327367.330258
74738955.114079
-1825470244.131425
78139031.087950
-1781114408.404719
81632755.064250
-1736216258.840681
85193290.667182
-1690902211.014520
88765288.005324
-1645236962.356319
92465521.902294
-1599358252.271661
96113681.582002
-1553205910.021006
99806933.322650
-1506912435.349185
103493184.662897
-1460522290.946741
107187523.396571
-1414123726.243756
110830781.777373
-1367803313.530479
114460734.083503
-1321559561.097160
118052717.538872
-1275476622.373881
121572140.397182
-1229650225.820514
125014667.336926
-1184055109.412562
128392870.442182
-1138851328.179812
131685072.160773
-1094045615.297179
134836075.146693
-1049619724.194746
137933116.707932
-1005736934.447720
140864494.068401
-962383406.515973
143733702.936383
-919639356.313960
146375019.735202
-877445948.131930
148974878.234189
-835952964.115007
151322439.026290
-795173380.092099
153594860.050460
-755146320.439001
155612141.560398
-715857951.554540
157515667.264388
-677378243.414214
159125278.931759
-639746451.932480
160611157.870501
-602939587.338538
161869053.388603
-566986659.607891
162857047.255394
-531956686.424321
163656292.609241
-497827510.647995
164152140.273761
-464635534.508116
164400077.617990
-432370861.919136
164428042.664959
-401088168.625887
164097861.183998
-370704947.257864
163524385.598431
-341283945.899146
162577825.046624
-312897433.724646
161344479.612655
-285411550.818441
159771298.604512
-258929166.694692
157818444.676190
-233372768.383188
155469077.995844
-208814630.997797
152779431.787387
-185167932.853266
149653752.449643
-162554999.463755
146116654.806230
-140788848.513049
142119270.941226
-120002911.030937
137661019.423080
-100081884.701203
132673331.075410
-81119390.153342
127249859.412376
-63005245.071138
121252495.972637
-45772468.654004
114747219.324643
-29415386.416101
107609385.552470
-13848299.326172
99969266.909821
853571.101625
91668460.365437
14813937.498252
82770797.833773
27977034.349548
73208985.337859
62934214.792149
40328115.971730
51975567.880427
-6807534.610183
31242526.088635
-34282731.309131
61500437.933577
-67404842.881609
90307238.231545
-102620741.131527
117886713.468378
-139212742.882530
144066700.105417
-176798111.267265
168930729.513166
-214285814.997389
-245143897.352925
194769343.659736
-286112768.294910
-265756490.388221
214929556.805151
-328493842.053171
-308662309.938718
235351486.509900
-350747639.074317
-372760889.604666
254182538.000587
-395144396.445001
-417728930.045200
269315303.563728
-462452874.940050
-439031545.182640
289847644.851023
-485036151.297378
-509143536.083244
305407802.430292
-559753458.373707
-531412608.447802
319565020.387319
-594006323.085636
332543237.753361
-640192149.192564
344245827.668252
-689129410.618151
356703639.784328
-738921471.427097
364302227.385079
-789585603.187762
372111787.075542
-840427799.690968
378973042.235509
-890610608.764710
384762920.367914
-933793947.036281
389437728.058864
-997414089.324224
393026454.361981
-1050090461.470357
395637960.771730
396919981.431983
-1103269028.803018
397846843.897478
397491607.675087
-1156576828.845178
397775833.468057
397907703.649870
-1210015936.542548
396846693.191549
397394535.632875
395985193.989951
394983612.932181
-1275229304.046083
393777085.804797
392403980.088325
-1324233252.186386
390810305.627563
388861212.367972
-1378340100.341487
386991638.873165
384433514.515579
-1433028314.174544
380904115.754401
-1502493245.519467
375724066.871415
-1591587636.681604
369888067.444476
-1632948289.946670
363342046.390391
-1674059331.215436
356314277.210461
-1734825950.915351
348951133.928045
-1784723359.926911
342366904.590042
-1833883262.844810
332233391.252670
-1891071644.234026
323397632.442555
-1930873520.405380
314267103.666341
-1975915315.880348
302792413.182052
-2021061033.688028
295205521.975432
-2065342305.895530
287352476.515376
-2108552292.183263
-2148374335.648954
-2180261426.876628
269524489.620296
-2220075014.947214
-2200493643.983314
256328213.194547
-2259873649.944402
-2239458387.316874
245525612.925574
-2277098179.415964
-2295493379.028851
235351641.583188
-2312324513.387175
-2331225100.827539
226172983.504515
-2345993994.912897
-2363669036.913860
213775257.333046
-2378710612.595852
-2396370920.790938
203659511.737999
-2409448665.250207
-2429487379.449692
193642848.970196
-2448218317.267321
183793658.714889
-2473551574.586651
174044857.566495
-2498413191.425389
162669716.352815
-2521754459.637097
155027330.040119
-2543366823.883376
146247064.900935
-2562738022.494322
137449225.572392
-2579957232.762368
129009400.866354
-2593291606.413409
120789171.751637
-2610298828.624447
113072054.506198
-2622041599.278717
105796824.720308
99948086.104971
-2631773712.058576
96648627.376707
93228134.797769
-2639480699.425365
89936961.504607
86273547.159747
-2645166962.469921
83458336.566896
80414929.542256
-2649929752.687309
77504062.323722
74483594.198597
-2650213700.935839
69303553.970912
72146534.135731
-2649717199.255266
67166490.904191
64377495.758409
-2647790399.646916
59310046.888247
62447554.576362
-2644172715.762650
56647888.299203
-2636696004.629897
52963341.099810
-2628331707.171918
49711593.068068
-2617992153.320745
46543364.991697
-2605763412.967799
44075154.238882
-2591545504.973248
41939698.857703
-2575533135.943557
40280623.080887
-2554098119.118083
38419190.656973
-2537121996.323289
37340861.349287
-2516684768.431996
36612465.343838
-2493242124.099507
36151797.696783
-2468768147.053506
36150999.547957
-2442925314.262030
36414433.005935
-2416213623.923030
-2397143037.355513
36947215.664028
-2376691248.033902
-2362545882.396070
37918397.236020
-2344656679.703831
-2330167428.486577
39008710.117848
-2297964327.887208
-2312409776.560606
40449499.249362
-2279400476.641260
-2262467596.136027
41682425.232971
-2227470433.806119
-2244669741.376086
44124558.845959
-2206934531.490943
-2189256687.118179
46277015.801404
-2149637873.895680
-2168992134.288661
48688172.434615
-2120354295.301892
51257371.654756
-2081883934.949541
54032873.000485
-2040459316.271208
57613207.808656
-1998838743.217406
60197901.138407
-1956576521.946475
63351699.355133
-1913313486.500397
66622600.429037
-1870626149.664081
70058528.045279
-1833877111.976777
73480125.395163
-1779886237.190456
77191646.149652
-1734511070.338850
80613541.156452
83054114.516445
-1688718148.594157
85613549.720638
87267470.511783
-1642680027.361960
89499178.809305
91139241.720564
-1596361084.957008
93260998.190188
94799903.687282
-1540149519.327936
96875478.378791
98673611.518174
-1501707207.813426
100637303.734330
102374642.670003
-1456333886.022015
104589316.533044
106310048.225438
-1410203532.802647
108291604.344693
110005147.446598
-1364955646.201887
112960527.547599
-1327517269.664132
116416256.908062
-1261698176.139338
119994736.482447
-1224807327.085148
123500326.947165
-1188471832.483682
126918830.056392
-1134238659.290303
130123958.389170
-1089423844.066517
132807707.026485
-1045063826.876631
136506523.220849
-991733568.882414
139473340.302950
-956241709.737017
142340603.291389
-914885991.337116
145542315.163213
-873164274.298826
147563754.055126
-831891851.548768
149511505.057643
-791755498.656386
152545537.022684
-753613633.794042
153891367.426615
-725549759.248700
-702958244.003713
156445784.128012
-685277955.592452
-664157683.900094
157811758.898201
-645723201.654274
-627389715.184073
159086042.536896
-609029092.750824
-591395154.434860
160148036.047758
-573163383.544736
-556301817.648890
161410780.918586
-537028301.426921
-520311608.754208
162160729.221216
-503373076.600553
-487503688.909639
162687681.179056
-468904994.823783
162941433.846395
-444533187.114619
162896677.246263
-414280611.299902
162546359.412319
-383879244.110555
161985997.140749
-354247671.898285
161073589.328934
-325586392.894331
159838744.063958
-297969385.331535
158238170.033805
-271918864.692825
156260011.292581
-250398587.408290
153936455.183621
-220304423.292214
151331811.505782
-196321001.377322
149110476.944865
147309822.026567
-173359808.011280
145606176.821135
143644641.933293
-151314718.054254
141622577.706868
139450460.257327
-130160448.474985
137277742.745961
134997714.932590
-105916873.608479
129883838.694324
132451228.388376
-90005080.617790
127051186.301910
124274587.182156
-72233308.702311
118127620.250584
121284306.653669
-55103559.456670
114454476.204063
-40329886.333703
109450567.342049
-22173581.137128
102407161.888693
-7129711.729379
94554883.392310
7055279.156252
85996078.922396
20500491.521938
76853436.115944
33236486.442461
67285174.375711
58577326.271180
45188350.287404
