# vtk DataFile Version 2.0
Generated volume Mesh
ASCII
DATASET UNSTRUCTURED_GRID
POINTS 1240 float
-0.212153 -0.150304 0.000000
-0.206421 -0.141033 0.000000
-0.215099 -0.146056 0.000000
-0.209122 -0.154492 0.000000
-0.217961 -0.141751 0.000000
-0.206009 -0.158620 0.000000
-0.220736 -0.137389 0.000000
-0.202815 -0.162684 0.000000
-0.223424 -0.132973 0.000000
-0.226023 -0.128505 0.000000
-0.199540 -0.166684 0.000000
-0.228534 -0.123985 0.000000
-0.196187 -0.170619 0.000000
-0.230953 -0.119417 0.000000
-0.192756 -0.174486 0.000000
-0.233282 -0.114802 0.000000
-0.189249 -0.178283 0.000000
-0.235519 -0.110141 0.000000
-0.185666 -0.182011 0.000000
-0.237662 -0.105436 0.000000
-0.182011 -0.185666 0.000000
-0.239711 -0.100690 0.000000
-0.178283 -0.189249 0.000000
-0.241666 -0.095904 0.000000
-0.174486 -0.192756 0.000000
-0.243525 -0.091081 0.000000
-0.170619 -0.196187 0.000000
-0.245288 -0.086221 0.000000
-0.166684 -0.199540 0.000000
-0.246953 -0.081327 0.000000
-0.162684 -0.202815 0.000000
-0.248521 -0.076401 0.000000
-0.158620 -0.206009 0.000000
-0.249991 -0.071445 0.000000
-0.154492 -0.209122 0.000000
-0.251363 -0.066459 0.000000
-0.150304 -0.212153 0.000000
-0.252634 -0.061448 0.000000
-0.146056 -0.215099 0.000000
-0.253806 -0.056412 0.000000
-0.141751 -0.217961 0.000000
-0.137389 -0.220736 0.000000
-0.254878 -0.051354 0.000000
-0.132973 -0.223424 0.000000
-0.255849 -0.046275 0.000000
-0.128505 -0.226023 0.000000
-0.256718 -0.041179 0.000000
-0.123985 -0.228534 0.000000
-0.257486 -0.036067 0.000000
-0.119417 -0.230953 0.000000
-0.258152 -0.030940 0.000000
-0.114802 -0.233282 0.000000
-0.258717 -0.025802 0.000000
-0.110141 -0.235519 0.000000
-0.259178 -0.020654 0.000000
-0.105436 -0.237662 0.000000
-0.259538 -0.015498 0.000000
-0.100690 -0.239711 0.000000
-0.259794 -0.010336 0.000000
-0.095904 -0.241666 0.000000
-0.259949 -0.005169 0.000000
-0.091081 -0.243525 0.000000
-0.260000 0.000000 0.000000
-0.259949 0.005169 0.000000
-0.086221 -0.245288 0.000000
-0.259794 0.010336 0.000000
-0.081327 -0.246953 0.000000
-0.259538 0.015498 0.000000
-0.076401 -0.248521 0.000000
-0.259178 0.020654 0.000000
-0.071445 -0.249991 0.000000
-0.258717 0.025802 0.000000
-0.066459 -0.251363 0.000000
-0.258152 0.030940 0.000000
-0.061448 -0.252634 0.000000
-0.257486 0.036067 0.000000
-0.056412 -0.253806 0.000000
-0.256718 0.041179 0.000000
-0.051354 -0.254878 0.000000
-0.255849 0.046275 0.000000
-0.046275 -0.255849 0.000000
-0.254878 0.051354 0.000000
-0.041179 -0.256718 0.000000
-0.253806 0.056412 0.000000
-0.036067 -0.257486 0.000000
-0.252634 0.061448 0.000000
-0.030940 -0.258152 0.000000
-0.251363 0.066459 0.000000
-0.025802 -0.258717 0.000000
-0.249991 0.071445 0.000000
-0.020654 -0.259178 0.000000
-0.248521 0.076401 0.000000
-0.015498 -0.259538 0.000000
-0.010336 -0.259794 0.000000
-0.246953 0.081327 0.000000
-0.005169 -0.259949 0.000000
-0.245288 0.086221 0.000000
0.000000 -0.260000 0.000000
-0.243525 0.091081 0.000000
0.005169 -0.259949 0.000000
-0.241666 0.095904 0.000000
0.010336 -0.259794 0.000000
-0.239711 0.100690 0.000000
0.015498 -0.259538 0.000000
-0.237662 0.105436 0.000000
0.020654 -0.259178 0.000000
-0.235519 0.110141 0.000000
0.025802 -0.258717 0.000000
-0.233282 0.114802 0.000000
0.030940 -0.258152 0.000000
-0.230953 0.119417 0.000000
0.036067 -0.257486 0.000000
-0.228534 0.123985 0.000000
0.041179 -0.256718 0.000000
-0.226023 0.128505 0.000000
-0.223424 0.132973 0.000000
0.046275 -0.255849 0.000000
-0.220736 0.137389 0.000000
0.051354 -0.254878 0.000000
-0.217961 0.141751 0.000000
0.056412 -0.253806 0.000000
-0.215099 0.146056 0.000000
0.061448 -0.252634 0.000000
-0.212153 0.150304 0.000000
0.066459 -0.251363 0.000000
-0.209122 0.154492 0.000000
0.071445 -0.249991 0.000000
-0.206009 0.158620 0.000000
0.076401 -0.248521 0.000000
-0.202815 0.162684 0.000000
0.081327 -0.246953 0.000000
-0.199540 0.166684 0.000000
0.086221 -0.245288 0.000000
-0.196187 0.170619 0.000000
0.091081 -0.243525 0.000000
-0.192756 0.174486 0.000000
0.095904 -0.241666 0.000000
-0.189249 0.178283 0.000000
0.100690 -0.239711 0.000000
-0.185666 0.182011 0.000000
0.105436 -0.237662 0.000000
-0.182011 0.185666 0.000000
0.110141 -0.235519 0.000000
-0.178283 0.189249 0.000000
0.114802 -0.233282 0.000000
-0.174486 0.192756 0.000000
0.119417 -0.230953 0.000000
0.123985 -0.228534 0.000000
-0.170619 0.196187 0.000000
0.128505 -0.226023 0.000000
-0.166684 0.199540 0.000000
0.132973 -0.223424 0.000000
-0.162684 0.202815 0.000000
0.137389 -0.220736 0.000000
-0.158620 0.206009 0.000000
0.141751 -0.217961 0.000000
-0.154492 0.209122 0.000000
0.146056 -0.215099 0.000000
-0.150304 0.212153 0.000000
0.150304 -0.212153 0.000000
-0.146056 0.215099 0.000000
0.154492 -0.209122 0.000000
-0.141751 0.217961 0.000000
0.158620 -0.206009 0.000000
-0.137389 0.220736 0.000000
0.162684 -0.202815 0.000000
-0.132973 0.223424 0.000000
-0.128505 0.226023 0.000000
0.166684 -0.199540 0.000000
-0.123985 0.228534 0.000000
0.170619 -0.196187 0.000000
-0.119417 0.230953 0.000000
0.174486 -0.192756 0.000000
-0.114802 0.233282 0.000000
0.178283 -0.189249 0.000000
-0.110141 0.235519 0.000000
0.182011 -0.185666 0.000000
-0.105436 0.237662 0.000000
0.185666 -0.182011 0.000000
-0.100690 0.239711 0.000000
0.189249 -0.178283 0.000000
-0.095904 0.241666 0.000000
0.192756 -0.174486 0.000000
-0.091081 0.243525 0.000000
0.196187 -0.170619 0.000000
-0.086221 0.245288 0.000000
0.199540 -0.166684 0.000000
-0.081327 0.246953 0.000000
0.202815 -0.162684 0.000000
-0.076401 0.248521 0.000000
0.206009 -0.158620 0.000000
-0.071445 0.249991 0.000000
0.209122 -0.154492 0.000000
-0.066459 0.251363 0.000000
0.212153 -0.150304 0.000000
-0.061448 0.252634 0.000000
0.215099 -0.146056 0.000000
-0.056412 0.253806 0.000000
0.217961 -0.141751 0.000000
0.220736 -0.137389 0.000000
-0.051354 0.254878 0.000000
0.223424 -0.132973 0.000000
-0.046275 0.255849 0.000000
0.226023 -0.128505 0.000000
-0.041179 0.256718 0.000000
0.228534 -0.123985 0.000000
-0.036067 0.257486 0.000000
0.230953 -0.119417 0.000000
-0.030940 0.258152 0.000000
0.233282 -0.114802 0.000000
-0.025802 0.258717 0.000000
0.235519 -0.110141 0.000000
-0.020654 0.259178 0.000000
0.237662 -0.105436 0.000000
-0.015498 0.259538 0.000000
0.239711 -0.100690 0.000000
-0.010336 0.259794 0.000000
0.241666 -0.095904 0.000000
-0.005169 0.259949 0.000000
0.243525 -0.091081 0.000000
0.000000 0.260000 0.000000
0.245288 -0.086221 0.000000
0.005169 0.259949 0.000000
0.246953 -0.081327 0.000000
0.010336 0.259794 0.000000
0.248521 -0.076401 0.000000
0.015498 0.259538 0.000000
0.249991 -0.071445 0.000000
0.020654 0.259178 0.000000
0.251363 -0.066459 0.000000
0.025802 0.258717 0.000000
0.252634 -0.061448 0.000000
0.030940 0.258152 0.000000
0.253806 -0.056412 0.000000
0.036067 0.257486 0.000000
0.254878 -0.051354 0.000000
0.041179 0.256718 0.000000
0.255849 -0.046275 0.000000
0.046275 0.255849 0.000000
0.256718 -0.041179 0.000000
0.051354 0.254878 0.000000
0.257486 -0.036067 0.000000
0.056412 0.253806 0.000000
0.258152 -0.030940 0.000000
0.061448 0.252634 0.000000
0.258717 -0.025802 0.000000
0.066459 0.251363 0.000000
0.259178 -0.020654 0.000000
0.071445 0.249991 0.000000
0.259538 -0.015498 0.000000
0.076401 0.248521 0.000000
0.259794 -0.010336 0.000000
0.081327 0.246953 0.000000
0.259949 -0.005169 0.000000
0.086221 0.245288 0.000000
0.260000 0.000000 0.000000
0.091081 0.243525 0.000000
0.259949 0.005169 0.000000
0.095904 0.241666 0.000000
0.259794 0.010336 0.000000
0.100690 0.239711 0.000000
0.259538 0.015498 0.000000
0.105436 0.237662 0.000000
0.259178 0.020654 0.000000
0.110141 0.235519 0.000000
0.258717 0.025802 0.000000
0.114802 0.233282 0.000000
0.258152 0.030940 0.000000
0.119417 0.230953 0.000000
0.257486 0.036067 0.000000
0.123985 0.228534 0.000000
0.256718 0.041179 0.000000
0.128505 0.226023 0.000000
0.255849 0.046275 0.000000
0.132973 0.223424 0.000000
0.254878 0.051354 0.000000
0.137389 0.220736 0.000000
0.253806 0.056412 0.000000
0.141751 0.217961 0.000000
0.252634 0.061448 0.000000
0.146056 0.215099 0.000000
0.251363 0.066459 0.000000
0.150304 0.212153 0.000000
0.249991 0.071445 0.000000
0.154492 0.209122 0.000000
0.248521 0.076401 0.000000
0.158620 0.206009 0.000000
0.246953 0.081327 0.000000
0.162684 0.202815 0.000000
0.245288 0.086221 0.000000
0.166684 0.199540 0.000000
0.243525 0.091081 0.000000
0.170619 0.196187 0.000000
0.241666 0.095904 0.000000
0.174486 0.192756 0.000000
0.239711 0.100690 0.000000
0.178283 0.189249 0.000000
0.237662 0.105436 0.000000
0.182011 0.185666 0.000000
0.235519 0.110141 0.000000
0.185666 0.182011 0.000000
0.233282 0.114802 0.000000
0.189249 0.178283 0.000000
0.230953 0.119417 0.000000
0.192756 0.174486 0.000000
0.228534 0.123985 0.000000
0.196187 0.170619 0.000000
0.226023 0.128505 0.000000
0.199540 0.166684 0.000000
0.223424 0.132973 0.000000
0.202815 0.162684 0.000000
0.220736 0.137389 0.000000
0.206009 0.158620 0.000000
0.217961 0.141751 0.000000
0.209122 0.154492 0.000000
0.215099 0.146056 0.000000
0.212153 0.150304 0.000000
-0.203462 -0.145269 0.000000
-0.209292 -0.136737 0.000000
-0.200416 -0.149443 0.000000
-0.212073 -0.132382 0.000000
-0.197285 -0.153553 0.000000
-0.214764 -0.127971 0.000000
-0.194070 -0.157598 0.000000
-0.217362 -0.123505 0.000000
-0.190771 -0.161575 0.000000
-0.219868 -0.118987 0.000000
-0.187391 -0.165483 0.000000
-0.222281 -0.114417 0.000000
-0.183931 -0.169320 0.000000
-0.224598 -0.109799 0.000000
-0.180392 -0.173086 0.000000
-0.226819 -0.105134 0.000000
-0.176777 -0.176777 0.000000
-0.228943 -0.100424 0.000000
-0.173086 -0.180392 0.000000
-0.230970 -0.095671 0.000000
-0.169320 -0.183931 0.000000
-0.232898 -0.090877 0.000000
-0.165483 -0.187391 0.000000
-0.234726 -0.086044 0.000000
-0.161575 -0.190771 0.000000
-0.236454 -0.081175 0.000000
-0.157598 -0.194070 0.000000
-0.238081 -0.076271 0.000000
-0.153553 -0.197285 0.000000
-0.239607 -0.071334 0.000000
-0.149443 -0.200416 0.000000
-0.241030 -0.066366 0.000000
-0.145269 -0.203462 0.000000
-0.242350 -0.061370 0.000000
-0.141033 -0.206421 0.000000
-0.243567 -0.056347 0.000000
-0.136737 -0.209292 0.000000
-0.244680 -0.051301 0.000000
-0.132382 -0.212073 0.000000
-0.245688 -0.046232 0.000000
-0.127971 -0.214764 0.000000
-0.246591 -0.041144 0.000000
-0.123505 -0.217362 0.000000
-0.247389 -0.036039 0.000000
-0.118987 -0.219868 0.000000
-0.248081 -0.030919 0.000000
-0.114417 -0.222281 0.000000
-0.248667 -0.025786 0.000000
-0.109799 -0.224598 0.000000
-0.249146 -0.020642 0.000000
-0.105134 -0.226819 0.000000
-0.249520 -0.015489 0.000000
-0.100424 -0.228943 0.000000
-0.249786 -0.010330 0.000000
-0.095671 -0.230970 0.000000
-0.249947 -0.005166 0.000000
-0.090877 -0.232898 0.000000
-0.250000 0.000000 0.000000
-0.086044 -0.234726 0.000000
-0.249947 0.005166 0.000000
-0.081175 -0.236454 0.000000
-0.249786 0.010330 0.000000
-0.076271 -0.238081 0.000000
-0.249520 0.015489 0.000000
-0.071334 -0.239607 0.000000
-0.249146 0.020642 0.000000
-0.066366 -0.241030 0.000000
-0.248667 0.025786 0.000000
-0.061370 -0.242350 0.000000
-0.248081 0.030919 0.000000
-0.056347 -0.243567 0.000000
-0.247389 0.036039 0.000000
-0.051301 -0.244680 0.000000
-0.246591 0.041144 0.000000
-0.046232 -0.245688 0.000000
-0.245688 0.046232 0.000000
-0.041144 -0.246591 0.000000
-0.244680 0.051301 0.000000
-0.036039 -0.247389 0.000000
-0.243567 0.056347 0.000000
-0.030919 -0.248081 0.000000
-0.242350 0.061370 0.000000
-0.025786 -0.248667 0.000000
-0.241030 0.066366 0.000000
-0.020642 -0.249146 0.000000
-0.239607 0.071334 0.000000
-0.015489 -0.249520 0.000000
-0.238081 0.076271 0.000000
-0.010330 -0.249786 0.000000
-0.236454 0.081175 0.000000
-0.005166 -0.249947 0.000000
-0.234726 0.086044 0.000000
-0.000000 -0.250000 0.000000
-0.232898 0.090877 0.000000
0.005166 -0.249947 0.000000
-0.230970 0.095671 0.000000
0.010330 -0.249786 0.000000
-0.228943 0.100424 0.000000
0.015489 -0.249520 0.000000
-0.226819 0.105134 0.000000
0.020642 -0.249146 0.000000
-0.224598 0.109799 0.000000
0.025786 -0.248667 0.000000
-0.222281 0.114417 0.000000
0.030919 -0.248081 0.000000
-0.219868 0.118987 0.000000
0.036039 -0.247389 0.000000
-0.217362 0.123505 0.000000
0.041144 -0.246591 0.000000
-0.214764 0.127971 0.000000
0.046232 -0.245688 0.000000
-0.212073 0.132382 0.000000
0.051301 -0.244680 0.000000
-0.209292 0.136737 0.000000
0.056347 -0.243567 0.000000
-0.206421 0.141033 0.000000
0.061370 -0.242350 0.000000
-0.203462 0.145269 0.000000
0.066366 -0.241030 0.000000
-0.200416 0.149443 0.000000
0.071334 -0.239607 0.000000
-0.197285 0.153553 0.000000
0.076271 -0.238081 0.000000
-0.194070 0.157598 0.000000
0.081175 -0.236454 0.000000
-0.190771 0.161575 0.000000
0.086044 -0.234726 0.000000
-0.187391 0.165483 0.000000
0.090877 -0.232898 0.000000
-0.183931 0.169320 0.000000
0.095671 -0.230970 0.000000
-0.180392 0.173086 0.000000
0.100424 -0.228943 0.000000
-0.176777 0.176777 0.000000
0.105134 -0.226819 0.000000
-0.173086 0.180392 0.000000
0.109799 -0.224598 0.000000
-0.169320 0.183931 0.000000
0.114417 -0.222281 0.000000
-0.165483 0.187391 0.000000
0.118987 -0.219868 0.000000
-0.161575 0.190771 0.000000
0.123505 -0.217362 0.000000
-0.157598 0.194070 0.000000
0.127971 -0.214764 0.000000
-0.153553 0.197285 0.000000
0.132382 -0.212073 0.000000
-0.149443 0.200416 0.000000
0.136737 -0.209292 0.000000
-0.145269 0.203462 0.000000
0.141033 -0.206421 0.000000
-0.141033 0.206421 0.000000
0.145269 -0.203462 0.000000
-0.136737 0.209292 0.000000
0.149443 -0.200416 0.000000
-0.132382 0.212073 0.000000
0.153553 -0.197285 0.000000
-0.127971 0.214764 0.000000
0.157598 -0.194070 0.000000
-0.123505 0.217362 0.000000
0.161575 -0.190771 0.000000
-0.118987 0.219868 0.000000
0.165483 -0.187391 0.000000
-0.114417 0.222281 0.000000
0.169320 -0.183931 0.000000
-0.109799 0.224598 0.000000
0.173086 -0.180392 0.000000
-0.105134 0.226819 0.000000
0.176777 -0.176777 0.000000
-0.100424 0.228943 0.000000
0.180392 -0.173086 0.000000
-0.095671 0.230970 0.000000
0.183931 -0.169320 0.000000
-0.090877 0.232898 0.000000
0.187391 -0.165483 0.000000
-0.086044 0.234726 0.000000
0.190771 -0.161575 0.000000
-0.081175 0.236454 0.000000
0.194070 -0.157598 0.000000
-0.076271 0.238081 0.000000
0.197285 -0.153553 0.000000
-0.071334 0.239607 0.000000
0.200416 -0.149443 0.000000
-0.066366 0.241030 0.000000
0.203462 -0.145269 0.000000
-0.061370 0.242350 0.000000
0.206421 -0.141033 0.000000
-0.056347 0.243567 0.000000
0.209292 -0.136737 0.000000
-0.051301 0.244680 0.000000
0.212073 -0.132382 0.000000
-0.046232 0.245688 0.000000
0.214764 -0.127971 0.000000
-0.041144 0.246591 0.000000
0.217362 -0.123505 0.000000
-0.036039 0.247389 0.000000
0.219868 -0.118987 0.000000
-0.030919 0.248081 0.000000
0.222281 -0.114417 0.000000
-0.025786 0.248667 0.000000
0.224598 -0.109799 0.000000
-0.020642 0.249146 0.000000
0.226819 -0.105134 0.000000
-0.015489 0.249520 0.000000
0.228943 -0.100424 0.000000
-0.010330 0.249786 0.000000
0.230970 -0.095671 0.000000
-0.005166 0.249947 0.000000
0.232898 -0.090877 0.000000
0.000000 0.250000 0.000000
0.234726 -0.086044 0.000000
0.005166 0.249947 0.000000
0.236454 -0.081175 0.000000
0.010330 0.249786 0.000000
0.238081 -0.076271 0.000000
0.015489 0.249520 0.000000
0.239607 -0.071334 0.000000
0.020642 0.249146 0.000000
0.241030 -0.066366 0.000000
0.025786 0.248667 0.000000
0.242350 -0.061370 0.000000
0.030919 0.248081 0.000000
0.243567 -0.056347 0.000000
0.036039 0.247389 0.000000
0.244680 -0.051301 0.000000
0.041144 0.246591 0.000000
0.245688 -0.046232 0.000000
0.046232 0.245688 0.000000
0.246591 -0.041144 0.000000
0.051301 0.244680 0.000000
0.247389 -0.036039 0.000000
0.056347 0.243567 0.000000
0.248081 -0.030919 0.000000
0.061370 0.242350 0.000000
0.248667 -0.025786 0.000000
0.066366 0.241030 0.000000
0.249146 -0.020642 0.000000
0.071334 0.239607 0.000000
0.249520 -0.015489 0.000000
0.076271 0.238081 0.000000
0.249786 -0.010330 0.000000
0.081175 0.236454 0.000000
0.249947 -0.005166 0.000000
0.086044 0.234726 0.000000
0.250000 -0.000000 0.000000
0.090877 0.232898 0.000000
0.249947 0.005166 0.000000
0.095671 0.230970 0.000000
0.249786 0.010330 0.000000
0.100424 0.228943 0.000000
0.249520 0.015489 0.000000
0.105134 0.226819 0.000000
0.249146 0.020642 0.000000
0.109799 0.224598 0.000000
0.248667 0.025786 0.000000
0.114417 0.222281 0.000000
0.248081 0.030919 0.000000
0.118987 0.219868 0.000000
0.247389 0.036039 0.000000
0.123505 0.217362 0.000000
0.246591 0.041144 0.000000
0.127971 0.214764 0.000000
0.245688 0.046232 0.000000
0.132382 0.212073 0.000000
0.244680 0.051301 0.000000
0.136737 0.209292 0.000000
0.243567 0.056347 0.000000
0.141033 0.206421 0.000000
0.242350 0.061370 0.000000
0.145269 0.203462 0.000000
0.241030 0.066366 0.000000
0.149443 0.200416 0.000000
0.239607 0.071334 0.000000
0.153553 0.197285 0.000000
0.238081 0.076271 0.000000
0.157598 0.194070 0.000000
0.236454 0.081175 0.000000
0.161575 0.190771 0.000000
0.234726 0.086044 0.000000
0.165483 0.187391 0.000000
0.232898 0.090877 0.000000
0.169320 0.183931 0.000000
0.230970 0.095671 0.000000
0.173086 0.180392 0.000000
0.228943 0.100424 0.000000
0.176777 0.176777 0.000000
0.226819 0.105134 0.000000
0.180392 0.173086 0.000000
0.224598 0.109799 0.000000
0.183931 0.169320 0.000000
0.222281 0.114417 0.000000
0.187391 0.165483 0.000000
0.219868 0.118987 0.000000
0.190771 0.161575 0.000000
0.217362 0.123505 0.000000
0.194070 0.157598 0.000000
0.214764 0.127971 0.000000
0.197285 0.153553 0.000000
0.212073 0.132382 0.000000
0.200416 0.149443 0.000000
0.209292 0.136737 0.000000
0.206421 0.141033 0.000000
0.203462 0.145269 0.000000
-0.211239 -0.145764 0.000000
-0.207348 -0.145506 0.000000
-0.208235 -0.149997 0.000000
-0.210271 -0.141224 0.000000
-0.214114 -0.141448 0.000000
-0.204348 -0.149730 0.000000
-0.205202 -0.154186 0.000000
-0.213130 -0.136835 0.000000
-0.216922 -0.137075 0.000000
-0.201224 -0.153860 0.000000
-0.202031 -0.158271 0.000000
-0.215878 -0.132424 0.000000
-0.219710 -0.132611 0.000000
-0.198030 -0.157923 0.000000
-0.198804 -0.162319 0.000000
-0.218605 -0.127699 0.000000
-0.222365 -0.128140 0.000000
-0.224875 -0.124872 0.000000
-0.194761 -0.161929 0.000000
-0.195479 -0.166293 0.000000
-0.221918 -0.123192 0.000000
-0.226380 -0.121036 0.000000
-0.191411 -0.165867 0.000000
-0.192076 -0.170180 0.000000
-0.223993 -0.118092 0.000000
-0.228835 -0.116386 0.000000
-0.187988 -0.169741 0.000000
-0.188629 -0.174050 0.000000
-0.226621 -0.113165 0.000000
-0.231077 -0.111640 0.000000
-0.184488 -0.173541 0.000000
-0.185072 -0.177780 0.000000
-0.228918 -0.108399 0.000000
-0.233287 -0.106944 0.000000
-0.180913 -0.177266 0.000000
-0.181487 -0.181485 0.000000
-0.231106 -0.103709 0.000000
-0.235397 -0.102211 0.000000
-0.177263 -0.180925 0.000000
-0.177757 -0.185116 0.000000
-0.233157 -0.098942 0.000000
-0.237414 -0.097442 0.000000
-0.173562 -0.184499 0.000000
-0.173989 -0.188666 0.000000
-0.235110 -0.094195 0.000000
-0.239353 -0.092615 0.000000
-0.169783 -0.188037 0.000000
-0.170176 -0.192088 0.000000
-0.237036 -0.089400 0.000000
-0.241145 -0.087789 0.000000
-0.165867 -0.191421 0.000000
-0.166261 -0.195470 0.000000
-0.238795 -0.084500 0.000000
-0.242869 -0.082916 0.000000
-0.161926 -0.194766 0.000000
-0.162296 -0.198817 0.000000
-0.240480 -0.079619 0.000000
-0.244533 -0.078015 0.000000
-0.157923 -0.198067 0.000000
-0.158264 -0.202046 0.000000
-0.242098 -0.074704 0.000000
-0.246013 -0.073093 0.000000
-0.153833 -0.201229 0.000000
-0.154141 -0.205206 0.000000
-0.243529 -0.069697 0.000000
-0.247451 -0.068123 0.000000
-0.149674 -0.204349 0.000000
-0.149938 -0.208289 0.000000
-0.244899 -0.064716 0.000000
-0.248766 -0.063116 0.000000
-0.145447 -0.207383 0.000000
-0.145696 -0.211247 0.000000
-0.246147 -0.059719 0.000000
-0.249987 -0.058081 0.000000
-0.141114 -0.210324 0.000000
-0.141350 -0.214172 0.000000
-0.247314 -0.054684 0.000000
-0.251085 -0.053025 0.000000
-0.136554 -0.213213 0.000000
-0.136933 -0.217186 0.000000
-0.133850 -0.219680 0.000000
-0.248378 -0.049626 0.000000
-0.252118 -0.047967 0.000000
-0.132090 -0.216717 0.000000
-0.130020 -0.221252 0.000000
-0.249339 -0.044548 0.000000
-0.253006 -0.042863 0.000000
-0.126984 -0.218897 0.000000
-0.125536 -0.223876 0.000000
-0.250196 -0.039452 0.000000
-0.253814 -0.037756 0.000000
-0.122403 -0.221788 0.000000
-0.120909 -0.226359 0.000000
-0.250948 -0.034339 0.000000
-0.254531 -0.032639 0.000000
-0.117810 -0.224233 0.000000
-0.116302 -0.228773 0.000000
-0.251590 -0.029207 0.000000
-0.255162 -0.027498 0.000000
-0.113063 -0.226648 0.000000
-0.111626 -0.231076 0.000000
-0.252152 -0.024064 0.000000
-0.255682 -0.022349 0.000000
-0.108405 -0.228923 0.000000
-0.106956 -0.233292 0.000000
-0.252595 -0.018895 0.000000
-0.256048 -0.017181 0.000000
-0.103699 -0.231093 0.000000
-0.102209 -0.235408 0.000000
-0.252917 -0.013716 0.000000
-0.256371 -0.011977 0.000000
-0.098950 -0.233168 0.000000
-0.097430 -0.237419 0.000000
-0.253145 -0.008502 0.000000
-0.256525 -0.006784 0.000000
-0.094186 -0.235148 0.000000
-0.092626 -0.239323 0.000000
-0.253246 -0.003274 0.000000
-0.256590 -0.001533 0.000000
-0.089365 -0.237021 0.000000
-0.087789 -0.241137 0.000000
-0.256677 0.003861 0.000000
-0.253142 0.002166 0.000000
-0.257115 0.007822 0.000000
-0.084514 -0.238796 0.000000
-0.082921 -0.242867 0.000000
-0.253720 0.007776 0.000000
-0.256519 0.011763 0.000000
-0.079606 -0.240458 0.000000
-0.078018 -0.244489 0.000000
-0.252852 0.013320 0.000000
-0.256068 0.016920 0.000000
-0.074694 -0.242036 0.000000
-0.073082 -0.246010 0.000000
-0.252611 0.018669 0.000000
-0.255656 0.022234 0.000000
-0.069735 -0.243513 0.000000
-0.068114 -0.247458 0.000000
-0.252141 0.023990 0.000000
-0.255162 0.027444 0.000000
-0.064743 -0.244887 0.000000
-0.063092 -0.248749 0.000000
-0.251604 0.029164 0.000000
-0.254573 0.032595 0.000000
-0.059717 -0.246147 0.000000
-0.058069 -0.249993 0.000000
-0.250974 0.034287 0.000000
-0.253840 0.037734 0.000000
-0.054678 -0.247313 0.000000
-0.053013 -0.251111 0.000000
-0.250231 0.039411 0.000000
-0.253024 0.042842 0.000000
-0.049616 -0.248377 0.000000
-0.047935 -0.252120 0.000000
-0.249361 0.044517 0.000000
-0.252111 0.047933 0.000000
-0.044539 -0.249350 0.000000
-0.042840 -0.253023 0.000000
-0.248407 0.049594 0.000000
-0.251110 0.053004 0.000000
-0.039431 -0.250212 0.000000
-0.037704 -0.253860 0.000000
-0.247324 0.054669 0.000000
-0.249985 0.058059 0.000000
-0.034308 -0.250972 0.000000
-0.032585 -0.254550 0.000000
-0.246143 0.059708 0.000000
-0.248743 0.063082 0.000000
-0.029143 -0.251616 0.000000
-0.027438 -0.255160 0.000000
-0.244868 0.064718 0.000000
-0.247429 0.068085 0.000000
-0.023984 -0.252155 0.000000
-0.022275 -0.255652 0.000000
-0.243509 0.069698 0.000000
-0.245994 0.073043 0.000000
-0.018760 -0.252599 0.000000
-0.017016 -0.256101 0.000000
-0.242036 0.074652 0.000000
-0.244469 0.077981 0.000000
-0.013287 -0.252844 0.000000
-0.011794 -0.256461 0.000000
-0.007824 -0.257115 0.000000
-0.240463 0.079574 0.000000
-0.242849 0.082888 0.000000
-0.007799 -0.253734 0.000000
-0.003878 -0.256704 0.000000
-0.238789 0.084463 0.000000
-0.241130 0.087762 0.000000
-0.002313 -0.253282 0.000000
0.001488 -0.256626 0.000000
-0.237016 0.089317 0.000000
-0.239316 0.092601 0.000000
0.003275 -0.253251 0.000000
0.006791 -0.256518 0.000000
-0.235145 0.094134 0.000000
-0.237412 0.097406 0.000000
0.008519 -0.253134 0.000000
0.011961 -0.256352 0.000000
-0.233173 0.098919 0.000000
-0.235426 0.102191 0.000000
0.013685 -0.252913 0.000000
0.017142 -0.256059 0.000000
-0.231127 0.103687 0.000000
-0.233295 0.106912 0.000000
0.018872 -0.252578 0.000000
0.022325 -0.255665 0.000000
-0.228942 0.108390 0.000000
-0.231092 0.111624 0.000000
0.024038 -0.252148 0.000000
0.027480 -0.255157 0.000000
-0.226657 0.113049 0.000000
-0.228780 0.116278 0.000000
0.029190 -0.251600 0.000000
0.032621 -0.254550 0.000000
-0.224272 0.117709 0.000000
-0.226385 0.120864 0.000000
0.034318 -0.250961 0.000000
0.037740 -0.253831 0.000000
-0.221796 0.122264 0.000000
-0.223999 0.125456 0.000000
0.039411 -0.250224 0.000000
0.042847 -0.253042 0.000000
-0.218901 0.126938 0.000000
-0.221364 0.129767 0.000000
-0.219680 0.133847 0.000000
0.044518 -0.249355 0.000000
0.047933 -0.252121 0.000000
-0.216712 0.132054 0.000000
-0.217004 0.137072 0.000000
0.049586 -0.248413 0.000000
0.052994 -0.251107 0.000000
-0.213232 0.136466 0.000000
-0.214223 0.141523 0.000000
0.054657 -0.247336 0.000000
0.058052 -0.250005 0.000000
-0.210309 0.141140 0.000000
-0.211239 0.145727 0.000000
0.059678 -0.246219 0.000000
0.063074 -0.248801 0.000000
-0.207382 0.145398 0.000000
-0.208266 0.149943 0.000000
0.064707 -0.244891 0.000000
0.068065 -0.247437 0.000000
-0.204377 0.149636 0.000000
-0.205190 0.154130 0.000000
0.069691 -0.243505 0.000000
0.073032 -0.246030 0.000000
-0.201236 0.153821 0.000000
-0.202041 0.158266 0.000000
0.074644 -0.242033 0.000000
0.077971 -0.244510 0.000000
-0.198078 0.157909 0.000000
-0.198801 0.162297 0.000000
0.079563 -0.240462 0.000000
0.082879 -0.242869 0.000000
-0.194813 0.161942 0.000000
-0.195518 0.166295 0.000000
0.084448 -0.238801 0.000000
0.087756 -0.241183 0.000000
-0.191439 0.165882 0.000000
-0.192093 0.170171 0.000000
0.089300 -0.237046 0.000000
0.092599 -0.239343 0.000000
-0.188003 0.169744 0.000000
-0.188653 0.173995 0.000000
0.094143 -0.235202 0.000000
0.097411 -0.237436 0.000000
-0.184499 0.173533 0.000000
-0.185108 0.177774 0.000000
0.098956 -0.233189 0.000000
0.102214 -0.235430 0.000000
-0.180925 0.177258 0.000000
-0.181476 0.181471 0.000000
0.103685 -0.231103 0.000000
0.106930 -0.233289 0.000000
-0.177298 0.180905 0.000000
-0.177799 0.185107 0.000000
0.108419 -0.228930 0.000000
0.111656 -0.231091 0.000000
-0.173586 0.184506 0.000000
-0.174021 0.188619 0.000000
0.113144 -0.226627 0.000000
0.116347 -0.228895 0.000000
-0.169775 0.188019 0.000000
-0.170198 0.192078 0.000000
0.118125 -0.224048 0.000000
0.120958 -0.226462 0.000000
0.124847 -0.224898 0.000000
-0.165874 0.191414 0.000000
-0.166269 0.195460 0.000000
0.123118 -0.221704 0.000000
0.128317 -0.222427 0.000000
-0.161942 0.194765 0.000000
-0.162298 0.198777 0.000000
0.127741 -0.218738 0.000000
0.132718 -0.219773 0.000000
-0.157941 0.198061 0.000000
-0.158267 0.202017 0.000000
0.132458 -0.215906 0.000000
0.137099 -0.216943 0.000000
-0.153841 0.201233 0.000000
-0.154157 0.205176 0.000000
0.136835 -0.213143 0.000000
0.141446 -0.214140 0.000000
-0.149697 0.204336 0.000000
-0.149986 0.208241 0.000000
0.141204 -0.210307 0.000000
0.145766 -0.211267 0.000000
-0.145494 0.207364 0.000000
-0.145771 0.211274 0.000000
0.145482 -0.207382 0.000000
0.149974 -0.208247 0.000000
-0.141205 0.210328 0.000000
-0.141442 0.214144 0.000000
0.149675 -0.204345 0.000000
0.154126 -0.205199 0.000000
-0.136819 0.213112 0.000000
-0.137086 0.216926 0.000000
0.153844 -0.201265 0.000000
0.158238 -0.202080 0.000000
-0.132440 0.215878 0.000000
-0.132694 0.219723 0.000000
0.157910 -0.198046 0.000000
0.162291 -0.198796 0.000000
-0.127703 0.218560 0.000000
-0.128168 0.222340 0.000000
-0.124872 0.224869 0.000000
0.161934 -0.194783 0.000000
0.166261 -0.195477 0.000000
-0.123151 0.221907 0.000000
-0.120918 0.226405 0.000000
0.165879 -0.191440 0.000000
0.170170 -0.192099 0.000000
-0.117906 0.223946 0.000000
-0.116364 0.228838 0.000000
0.169751 -0.188007 0.000000
0.173993 -0.188654 0.000000
-0.113240 0.226633 0.000000
-0.111662 0.231084 0.000000
0.173542 -0.184492 0.000000
0.177760 -0.185096 0.000000
-0.108422 0.228922 0.000000
-0.106961 0.233288 0.000000
0.177261 -0.180914 0.000000
0.181485 -0.181471 0.000000
-0.103737 0.231113 0.000000
-0.102262 0.235399 0.000000
0.180916 -0.177255 0.000000
0.185091 -0.177759 0.000000
-0.098948 0.233164 0.000000
-0.097431 0.237399 0.000000
0.184491 -0.173524 0.000000
0.188622 -0.173999 0.000000
-0.094143 0.235127 0.000000
-0.092613 0.239321 0.000000
0.187992 -0.169728 0.000000
0.192102 -0.170181 0.000000
-0.089317 0.237012 0.000000
-0.087764 0.241132 0.000000
0.191418 -0.165860 0.000000
0.195491 -0.166265 0.000000
-0.084463 0.238789 0.000000
-0.082889 0.242851 0.000000
0.194761 -0.161927 0.000000
0.198782 -0.162297 0.000000
-0.079574 0.240463 0.000000
-0.077984 0.244481 0.000000
0.198034 -0.157937 0.000000
0.202051 -0.158287 0.000000
-0.074655 0.242028 0.000000
-0.073067 0.246024 0.000000
0.201260 -0.153870 0.000000
0.205213 -0.154172 0.000000
-0.069704 0.243501 0.000000
-0.068084 0.247440 0.000000
0.204378 -0.149650 0.000000
0.208273 -0.149949 0.000000
-0.064720 0.244869 0.000000
-0.063076 0.248748 0.000000
0.207393 -0.145398 0.000000
0.211241 -0.145689 0.000000
-0.059719 0.246146 0.000000
-0.058059 0.249953 0.000000
0.210313 -0.141108 0.000000
0.214198 -0.141341 0.000000
-0.054684 0.247314 0.000000
-0.053013 0.251069 0.000000
0.213186 -0.136480 0.000000
0.217027 -0.137061 0.000000
0.219675 -0.133904 0.000000
-0.049626 0.248378 0.000000
-0.047946 0.252085 0.000000
0.216699 -0.132106 0.000000
0.221261 -0.130034 0.000000
-0.044548 0.249339 0.000000
-0.042859 0.253000 0.000000
0.218972 -0.126947 0.000000
0.223829 -0.125513 0.000000
-0.039452 0.250196 0.000000
-0.037755 0.253811 0.000000
0.221761 -0.122278 0.000000
0.226348 -0.120860 0.000000
-0.034339 0.250948 0.000000
-0.032636 0.254520 0.000000
0.224241 -0.117692 0.000000
0.228771 -0.116275 0.000000
-0.029212 0.251597 0.000000
-0.027501 0.255124 0.000000
0.226657 -0.113049 0.000000
0.231079 -0.111599 0.000000
-0.024064 0.252125 0.000000
-0.022349 0.255632 0.000000
0.228947 -0.108402 0.000000
0.233301 -0.106928 0.000000
-0.018895 0.252587 0.000000
-0.017177 0.256059 0.000000
0.231124 -0.103682 0.000000
0.235410 -0.102221 0.000000
-0.013722 0.252906 0.000000
-0.011984 0.256358 0.000000
0.233165 -0.098925 0.000000
0.237410 -0.097418 0.000000
-0.008503 0.253124 0.000000
-0.006797 0.256513 0.000000
0.235127 -0.094138 0.000000
0.239324 -0.092617 0.000000
-0.003298 0.253224 0.000000
-0.001537 0.256626 0.000000
0.236998 -0.089320 0.000000
0.241141 -0.087778 0.000000
0.002151 0.253099 0.000000
0.003665 0.256640 0.000000
0.007850 0.257154 0.000000
0.238771 -0.084467 0.000000
0.242860 -0.082904 0.000000
0.007797 0.253617 0.000000
0.011936 0.256414 0.000000
0.240446 -0.079578 0.000000
0.244481 -0.077996 0.000000
0.013338 0.252784 0.000000
0.017146 0.256139 0.000000
0.242028 -0.074654 0.000000
0.246037 -0.073052 0.000000
0.018795 0.252575 0.000000
0.022298 0.255656 0.000000
0.243509 -0.069698 0.000000
0.247448 -0.068073 0.000000
0.023967 0.252157 0.000000
0.027442 0.255166 0.000000
0.244876 -0.064709 0.000000
0.248758 -0.063061 0.000000
0.029162 0.251616 0.000000
0.032604 0.254548 0.000000
0.246144 -0.059697 0.000000
0.249992 -0.058030 0.000000
0.034292 0.250979 0.000000
0.037736 0.253859 0.000000
0.247309 -0.054662 0.000000
0.251104 -0.052986 0.000000
0.039431 0.250218 0.000000
0.042858 0.253073 0.000000
0.248369 -0.049609 0.000000
0.252103 -0.047938 0.000000
0.044531 0.249396 0.000000
0.047946 0.252110 0.000000
0.249327 -0.044538 0.000000
0.253015 -0.042853 0.000000
0.049638 0.248392 0.000000
0.053019 0.251075 0.000000
0.250196 -0.039452 0.000000
0.253860 -0.037736 0.000000
0.054696 0.247309 0.000000
0.058069 0.249954 0.000000
0.251003 -0.034313 0.000000
0.254598 -0.032621 0.000000
0.059722 0.246136 0.000000
0.063114 0.248759 0.000000
0.251639 -0.029149 0.000000
0.255178 -0.027455 0.000000
0.064734 0.244874 0.000000
0.068093 0.247429 0.000000
0.252168 -0.023976 0.000000
0.255662 -0.022304 0.000000
0.069737 0.243542 0.000000
0.073050 0.246037 0.000000
0.252584 -0.018806 0.000000
0.256143 -0.017147 0.000000
0.074663 0.242036 0.000000
0.077996 0.244480 0.000000
0.252817 -0.013347 0.000000
0.256442 -0.011927 0.000000
0.257154 -0.007852 0.000000
0.079584 0.240452 0.000000
0.082921 0.242866 0.000000
0.253690 -0.007780 0.000000
0.256642 -0.003691 0.000000
0.084471 0.238773 0.000000
0.087778 0.241141 0.000000
0.253096 -0.002165 0.000000
0.256647 0.001559 0.000000
0.089321 0.236998 0.000000
0.092617 0.239324 0.000000
0.253243 0.003287 0.000000
0.256520 0.006794 0.000000
0.094136 0.235126 0.000000
0.097418 0.237410 0.000000
0.253129 0.008465 0.000000
0.256359 0.011971 0.000000
0.098915 0.233157 0.000000
0.102180 0.235399 0.000000
0.252942 0.013681 0.000000
0.256098 0.017161 0.000000
0.103663 0.231094 0.000000
0.106917 0.233294 0.000000
0.252587 0.018892 0.000000
0.255640 0.022345 0.000000
0.108396 0.228944 0.000000
0.111598 0.231082 0.000000
0.252126 0.024061 0.000000
0.255131 0.027498 0.000000
0.113048 0.226663 0.000000
0.116271 0.228781 0.000000
0.251586 0.029205 0.000000
0.254568 0.032637 0.000000
0.117706 0.224256 0.000000
0.120852 0.226357 0.000000
0.250942 0.034329 0.000000
0.253839 0.037736 0.000000
0.122248 0.221776 0.000000
0.125477 0.223846 0.000000
0.250188 0.039438 0.000000
0.253035 0.042843 0.000000
0.126912 0.218965 0.000000
0.130002 0.221279 0.000000
0.249333 0.044533 0.000000
0.252125 0.047929 0.000000
0.132108 0.216694 0.000000
0.133891 0.219601 0.000000
0.248369 0.049612 0.000000
0.251087 0.053006 0.000000
0.136550 0.213160 0.000000
0.137046 0.217019 0.000000
0.247301 0.054671 0.000000
0.249968 0.058053 0.000000
0.141152 0.210287 0.000000
0.141372 0.214174 0.000000
0.246134 0.059706 0.000000
0.248748 0.063076 0.000000
0.145482 0.207387 0.000000
0.145725 0.211231 0.000000
0.244867 0.064717 0.000000
0.247418 0.068075 0.000000
0.149697 0.204345 0.000000
0.149984 0.208266 0.000000
0.243509 0.069698 0.000000
0.246029 0.073052 0.000000
0.153835 0.201247 0.000000
0.154130 0.205204 0.000000
0.242036 0.074652 0.000000
0.244477 0.077982 0.000000
0.157903 0.198039 0.000000
0.158242 0.202054 0.000000
0.240463 0.079574 0.000000
0.242860 0.082888 0.000000
0.161909 0.194770 0.000000
0.162280 0.198807 0.000000
0.238789 0.084463 0.000000
0.241157 0.087764 0.000000
0.165849 0.191427 0.000000
0.166250 0.195508 0.000000
0.237021 0.089328 0.000000
0.239376 0.092639 0.000000
0.169721 0.188004 0.000000
0.170154 0.192121 0.000000
0.235172 0.094182 0.000000
0.237425 0.097450 0.000000
0.173527 0.184503 0.000000
0.173991 0.188648 0.000000
0.233173 0.098964 0.000000
0.235397 0.102209 0.000000
0.177263 0.180930 0.000000
0.177779 0.185108 0.000000
0.231102 0.103711 0.000000
0.233283 0.106944 0.000000
0.180917 0.177274 0.000000
0.181479 0.181481 0.000000
0.228922 0.108427 0.000000
0.231077 0.111631 0.000000
0.184496 0.173546 0.000000
0.185088 0.177792 0.000000
0.226606 0.113135 0.000000
0.228845 0.116324 0.000000
0.187993 0.169732 0.000000
0.188640 0.174022 0.000000
0.223969 0.118039 0.000000
0.226404 0.120897 0.000000
0.191413 0.165855 0.000000
0.192089 0.170164 0.000000
0.221863 0.123176 0.000000
0.224891 0.124847 0.000000
0.194756 0.161915 0.000000
0.195477 0.166261 0.000000
0.218540 0.127743 0.000000
0.222360 0.128216 0.000000
0.198020 0.157909 0.000000
0.198786 0.162290 0.000000
0.215874 0.132431 0.000000
0.219701 0.132630 0.000000
0.201205 0.153841 0.000000
0.202014 0.158253 0.000000
0.213147 0.136837 0.000000
0.216928 0.137078 0.000000
0.204316 0.149710 0.000000
0.210278 0.141207 0.000000
0.207360 0.145490 0.000000
0.205171 0.154172 0.000000
0.214149 0.141432 0.000000
0.208240 0.149993 0.000000
0.211214 0.145747 0.000000
CELLS 1860 7440
3 620 2 0
3 0 622 620
3 621 620 622
3 622 625 621
3 317 621 625
3 625 319 317
3 319 625 629
3 629 321 319
3 321 629 633
3 633 323 321
3 323 633 638
3 638 325 323
3 325 638 642
3 642 327 325
3 327 642 646
3 646 329 327
3 329 646 650
3 650 331 329
3 331 650 654
3 654 333 331
3 333 654 658
3 658 335 333
3 335 658 662
3 662 337 335
3 337 662 666
3 666 339 337
3 339 666 670
3 670 341 339
3 341 670 674
3 674 343 341
3 343 674 678
3 678 345 343
3 345 678 682
3 682 347 345
3 347 682 686
3 686 349 347
3 349 686 690
3 690 351 349
3 351 690 694
3 694 353 351
3 353 694 698
3 698 355 353
3 355 698 703
3 703 357 355
3 357 703 707
3 707 359 357
3 359 707 711
3 711 361 359
3 361 711 715
3 715 363 361
3 363 715 719
3 719 365 363
3 365 719 723
3 723 367 365
3 367 723 727
3 727 369 367
3 369 727 731
3 731 371 369
3 371 731 735
3 735 373 371
3 373 735 739
3 739 375 373
3 375 739 744
3 744 377 375
3 377 744 748
3 748 379 377
3 379 748 752
3 752 381 379
3 381 752 756
3 756 383 381
3 383 756 760
3 760 385 383
3 385 760 764
3 764 387 385
3 387 764 768
3 768 389 387
3 389 768 772
3 772 391 389
3 391 772 776
3 776 393 391
3 393 776 780
3 780 395 393
3 395 780 784
3 784 397 395
3 397 784 788
3 788 399 397
3 399 788 792
3 792 401 399
3 401 792 796
3 796 403 401
3 403 796 800
3 800 405 403
3 405 800 805
3 805 407 405
3 407 805 809
3 809 409 407
3 409 809 813
3 813 411 409
3 411 813 817
3 817 413 411
3 413 817 821
3 821 415 413
3 415 821 825
3 825 417 415
3 417 825 829
3 829 419 417
3 419 829 833
3 833 421 419
3 421 833 837
3 837 423 421
3 423 837 841
3 841 425 423
3 425 841 846
3 846 427 425
3 427 846 850
3 850 429 427
3 429 850 854
3 854 431 429
3 431 854 858
3 858 433 431
3 433 858 862
3 862 435 433
3 435 862 866
3 866 437 435
3 437 866 870
3 870 439 437
3 439 870 874
3 874 441 439
3 441 874 878
3 878 443 441
3 443 878 882
3 882 445 443
3 445 882 886
3 886 447 445
3 447 886 890
3 890 449 447
3 449 890 894
3 894 451 449
3 451 894 898
3 898 453 451
3 453 898 902
3 902 455 453
3 455 902 906
3 906 457 455
3 457 906 911
3 911 459 457
3 459 911 915
3 915 461 459
3 461 915 919
3 919 463 461
3 463 919 923
3 923 465 463
3 465 923 927
3 927 467 465
3 467 927 931
3 931 469 467
3 469 931 935
3 935 471 469
3 471 935 939
3 939 473 471
3 473 939 943
3 943 475 473
3 475 943 948
3 948 477 475
3 477 948 952
3 952 479 477
3 479 952 956
3 956 481 479
3 481 956 960
3 960 483 481
3 483 960 964
3 964 485 483
3 485 964 968
3 968 487 485
3 487 968 972
3 972 489 487
3 489 972 976
3 976 491 489
3 491 976 980
3 980 493 491
3 493 980 984
3 984 495 493
3 495 984 988
3 988 497 495
3 497 988 992
3 992 499 497
3 499 992 996
3 996 501 499
3 501 996 1000
3 1000 503 501
3 503 1000 1004
3 1004 505 503
3 505 1004 1008
3 1008 507 505
3 507 1008 1013
3 1013 509 507
3 509 1013 1017
3 1017 511 509
3 511 1017 1021
3 1021 513 511
3 513 1021 1025
3 1025 515 513
3 515 1025 1029
3 1029 517 515
3 517 1029 1033
3 1033 519 517
3 519 1033 1037
3 1037 521 519
3 521 1037 1041
3 1041 523 521
3 523 1041 1045
3 1045 525 523
3 525 1045 1049
3 1049 527 525
3 527 1049 1054
3 1054 529 527
3 529 1054 1058
3 1058 531 529
3 531 1058 1062
3 1062 533 531
3 533 1062 1066
3 1066 535 533
3 535 1066 1070
3 1070 537 535
3 537 1070 1074
3 1074 539 537
3 539 1074 1078
3 1078 541 539
3 541 1078 1082
3 1082 543 541
3 543 1082 1086
3 1086 545 543
3 545 1086 1090
3 1090 547 545
3 547 1090 1094
3 1094 549 547
3 549 1094 1098
3 1098 551 549
3 551 1098 1102
3 1102 553 551
3 553 1102 1106
3 1106 555 553
3 555 1106 1110
3 1110 557 555
3 557 1110 1115
3 1115 559 557
3 559 1115 1119
3 1119 561 559
3 561 1119 1123
3 1123 563 561
3 563 1123 1127
3 1127 565 563
3 565 1127 1131
3 1131 567 565
3 567 1131 1135
3 1135 569 567
3 569 1135 1139
3 1139 571 569
3 571 1139 1143
3 1143 573 571
3 573 1143 1147
3 1147 575 573
3 575 1147 1151
3 1151 577 575
3 577 1151 1155
3 1155 579 577
3 579 1155 1159
3 1159 581 579
3 581 1159 1163
3 1163 583 581
3 583 1163 1167
3 1167 585 583
3 585 1167 1171
3 1171 587 585
3 587 1171 1175
3 1175 589 587
3 589 1175 1179
3 1179 591 589
3 591 1179 1183
3 1183 593 591
3 593 1183 1187
3 1187 595 593
3 595 1187 1191
3 1191 597 595
3 597 1191 1195
3 1195 599 597
3 599 1195 1199
3 1199 601 599
3 601 1199 1203
3 1203 603 601
3 603 1203 1207
3 1207 605 603
3 605 1207 1211
3 1211 607 605
3 607 1211 1215
3 1215 609 607
3 609 1215 1219
3 1219 611 609
3 611 1219 1223
3 1223 613 611
3 613 1223 1227
3 1227 615 613
3 615 1227 1231
3 1231 617 615
3 617 1231 1234
3 1234 618 617
3 618 1234 1235
3 1235 619 618
3 619 1235 1233
3 1233 616 619
3 616 1233 1229
3 1229 614 616
3 614 1229 1225
3 1225 612 614
3 612 1225 1221
3 1221 610 612
3 610 1221 1217
3 1217 608 610
3 608 1217 1213
3 1213 606 608
3 606 1213 1209
3 1209 604 606
3 604 1209 1205
3 1205 602 604
3 602 1205 1201
3 1201 600 602
3 600 1201 1197
3 1197 598 600
3 598 1197 1193
3 1193 596 598
3 596 1193 1189
3 1189 594 596
3 594 1189 1185
3 1185 592 594
3 592 1185 1181
3 1181 590 592
3 590 1181 1177
3 1177 588 590
3 588 1177 1173
3 1173 586 588
3 586 1173 1169
3 1169 584 586
3 584 1169 1165
3 1165 582 584
3 582 1165 1161
3 1161 580 582
3 580 1161 1157
3 1157 578 580
3 578 1157 1153
3 1153 576 578
3 576 1153 1149
3 1149 574 576
3 574 1149 1145
3 1145 572 574
3 572 1145 1141
3 1141 570 572
3 570 1141 1137
3 1137 568 570
3 568 1137 1133
3 1133 566 568
3 566 1133 1129
3 1129 564 566
3 564 1129 1125
3 1125 562 564
3 562 1125 1121
3 1121 560 562
3 560 1121 1117
3 1117 558 560
3 558 1117 1113
3 1113 556 558
3 556 1113 1108
3 1108 554 556
3 554 1108 1104
3 1104 552 554
3 552 1104 1100
3 1100 550 552
3 550 1100 1096
3 1096 548 550
3 548 1096 1092
3 1092 546 548
3 546 1092 1088
3 1088 544 546
3 544 1088 1084
3 1084 542 544
3 542 1084 1080
3 1080 540 542
3 540 1080 1076
3 1076 538 540
3 538 1076 1072
3 1072 536 538
3 536 1072 1068
3 1068 534 536
3 534 1068 1064
3 1064 532 534
3 532 1064 1060
3 1060 530 532
3 530 1060 1056
3 1056 528 530
3 528 1056 1051
3 1051 526 528
3 526 1051 1047
3 1047 524 526
3 524 1047 1043
3 1043 522 524
3 522 1043 1039
3 1039 520 522
3 520 1039 1035
3 1035 518 520
3 518 1035 1031
3 1031 516 518
3 516 1031 1027
3 1027 514 516
3 514 1027 1023
3 1023 512 514
3 512 1023 1019
3 1019 510 512
3 510 1019 1015
3 1015 508 510
3 508 1015 1011
3 1011 506 508
3 506 1011 1006
3 1006 504 506
3 504 1006 1002
3 1002 502 504
3 502 1002 998
3 998 500 502
3 500 998 994
3 994 498 500
3 498 994 990
3 990 496 498
3 496 990 986
3 986 494 496
3 494 986 982
3 982 492 494
3 492 982 978
3 978 490 492
3 490 978 974
3 974 488 490
3 488 974 970
3 970 486 488
3 486 970 966
3 966 484 486
3 484 966 962
3 962 482 484
3 482 962 958
3 958 480 482
3 480 958 954
3 954 478 480
3 478 954 950
3 950 476 478
3 476 950 945
3 945 474 476
3 474 945 941
3 941 472 474
3 472 941 937
3 937 470 472
3 470 937 933
3 933 468 470
3 468 933 929
3 929 466 468
3 466 929 925
3 925 464 466
3 464 925 921
3 921 462 464
3 462 921 917
3 917 460 462
3 460 917 913
3 913 458 460
3 458 913 909
3 909 456 458
3 456 909 904
3 904 454 456
3 454 904 900
3 900 452 454
3 452 900 896
3 896 450 452
3 450 896 892
3 892 448 450
3 448 892 888
3 888 446 448
3 446 888 884
3 884 444 446
3 444 884 880
3 880 442 444
3 442 880 876
3 876 440 442
3 440 876 872
3 872 438 440
3 438 872 868
3 868 436 438
3 436 868 864
3 864 434 436
3 434 864 860
3 860 432 434
3 432 860 856
3 856 430 432
3 430 856 852
3 852 428 430
3 428 852 848
3 848 426 428
3 426 848 843
3 843 424 426
3 424 843 839
3 839 422 424
3 422 839 835
3 835 420 422
3 420 835 831
3 831 418 420
3 418 831 827
3 827 416 418
3 416 827 823
3 823 414 416
3 414 823 819
3 819 412 414
3 412 819 815
3 815 410 412
3 410 815 811
3 811 408 410
3 408 811 807
3 807 406 408
3 406 807 803
3 803 404 406
3 404 803 798
3 798 402 404
3 402 798 794
3 794 400 402
3 400 794 790
3 790 398 400
3 398 790 786
3 786 396 398
3 396 786 782
3 782 394 396
3 394 782 778
3 778 392 394
3 392 778 774
3 774 390 392
3 390 774 770
3 770 388 390
3 388 770 766
3 766 386 388
3 386 766 762
3 762 384 386
3 384 762 758
3 758 382 384
3 382 758 754
3 754 380 382
3 380 754 750
3 750 378 380
3 378 750 746
3 746 376 378
3 376 746 742
3 742 374 376
3 374 742 737
3 737 372 374
3 372 737 733
3 733 370 372
3 370 733 729
3 729 368 370
3 368 729 725
3 725 366 368
3 366 725 721
3 721 364 366
3 364 721 717
3 717 362 364
3 362 717 713
3 713 360 362
3 360 713 709
3 709 358 360
3 358 709 705
3 705 356 358
3 356 705 701
3 701 354 356
3 354 701 696
3 696 352 354
3 352 696 692
3 692 350 352
3 350 692 688
3 688 348 350
3 348 688 684
3 684 346 348
3 346 684 680
3 680 344 346
3 344 680 676
3 676 342 344
3 342 676 672
3 672 340 342
3 340 672 668
3 668 338 340
3 338 668 664
3 664 336 338
3 336 664 660
3 660 334 336
3 334 660 656
3 656 332 334
3 332 656 652
3 652 330 332
3 330 652 648
3 648 328 330
3 328 648 644
3 644 326 328
3 326 644 640
3 640 324 326
3 324 640 635
3 635 322 324
3 322 635 631
3 631 320 322
3 320 631 627
3 627 318 320
3 318 627 623
3 623 1 318
3 1 623 621
3 624 623 627
3 627 628 624
3 4 624 628
3 628 6 4
3 6 628 632
3 632 8 6
3 8 632 636
3 636 9 8
3 9 636 637
3 637 11 9
3 11 637 641
3 641 13 11
3 13 641 645
3 645 15 13
3 15 645 649
3 649 17 15
3 17 649 653
3 653 19 17
3 19 653 657
3 657 21 19
3 21 657 661
3 661 23 21
3 23 661 665
3 665 25 23
3 25 665 669
3 669 27 25
3 27 669 673
3 673 29 27
3 29 673 677
3 677 31 29
3 31 677 681
3 681 33 31
3 33 681 685
3 685 35 33
3 35 685 689
3 689 37 35
3 37 689 693
3 693 39 37
3 39 693 697
3 697 42 39
3 42 697 702
3 702 44 42
3 44 702 706
3 706 46 44
3 46 706 710
3 710 48 46
3 48 710 714
3 714 50 48
3 50 714 718
3 718 52 50
3 52 718 722
3 722 54 52
3 54 722 726
3 726 56 54
3 56 726 730
3 730 58 56
3 58 730 734
3 734 60 58
3 60 734 738
3 738 62 60
3 62 738 741
3 741 63 62
3 63 741 743
3 743 65 63
3 65 743 747
3 747 67 65
3 67 747 751
3 751 69 67
3 69 751 755
3 755 71 69
3 71 755 759
3 759 73 71
3 73 759 763
3 763 75 73
3 75 763 767
3 767 77 75
3 77 767 771
3 771 79 77
3 79 771 775
3 775 81 79
3 81 775 779
3 779 83 81
3 83 779 783
3 783 85 83
3 85 783 787
3 787 87 85
3 87 787 791
3 791 89 87
3 89 791 795
3 795 91 89
3 91 795 799
3 799 94 91
3 94 799 804
3 804 96 94
3 96 804 808
3 808 98 96
3 98 808 812
3 812 100 98
3 100 812 816
3 816 102 100
3 102 816 820
3 820 104 102
3 104 820 824
3 824 106 104
3 106 824 828
3 828 108 106
3 108 828 832
3 832 110 108
3 110 832 836
3 836 112 110
3 112 836 840
3 840 114 112
3 114 840 844
3 844 115 114
3 115 844 845
3 845 117 115
3 117 845 849
3 849 119 117
3 119 849 853
3 853 121 119
3 121 853 857
3 857 123 121
3 123 857 861
3 861 125 123
3 125 861 865
3 865 127 125
3 127 865 869
3 869 129 127
3 129 869 873
3 873 131 129
3 131 873 877
3 877 133 131
3 133 877 881
3 881 135 133
3 135 881 885
3 885 137 135
3 137 885 889
3 889 139 137
3 139 889 893
3 893 141 139
3 141 893 897
3 897 143 141
3 143 897 901
3 901 145 143
3 145 901 905
3 905 148 145
3 148 905 910
3 910 150 148
3 150 910 914
3 914 152 150
3 152 914 918
3 918 154 152
3 154 918 922
3 922 156 154
3 156 922 926
3 926 158 156
3 158 926 930
3 930 160 158
3 160 930 934
3 934 162 160
3 162 934 938
3 938 164 162
3 164 938 942
3 942 166 164
3 166 942 946
3 946 167 166
3 167 946 947
3 947 169 167
3 169 947 951
3 951 171 169
3 171 951 955
3 955 173 171
3 173 955 959
3 959 175 173
3 175 959 963
3 963 177 175
3 177 963 967
3 967 179 177
3 179 967 971
3 971 181 179
3 181 971 975
3 975 183 181
3 183 975 979
3 979 185 183
3 185 979 983
3 983 187 185
3 187 983 987
3 987 189 187
3 189 987 991
3 991 191 189
3 191 991 995
3 995 193 191
3 193 995 999
3 999 195 193
3 195 999 1003
3 1003 197 195
3 197 1003 1007
3 1007 200 197
3 200 1007 1012
3 1012 202 200
3 202 1012 1016
3 1016 204 202
3 204 1016 1020
3 1020 206 204
3 206 1020 1024
3 1024 208 206
3 208 1024 1028
3 1028 210 208
3 210 1028 1032
3 1032 212 210
3 212 1032 1036
3 1036 214 212
3 214 1036 1040
3 1040 216 214
3 216 1040 1044
3 1044 218 216
3 218 1044 1048
3 1048 220 218
3 220 1048 1052
3 1052 222 220
3 222 1052 1053
3 1053 224 222
3 224 1053 1057
3 1057 226 224
3 226 1057 1061
3 1061 228 226
3 228 1061 1065
3 1065 230 228
3 230 1065 1069
3 1069 232 230
3 232 1069 1073
3 1073 234 232
3 234 1073 1077
3 1077 236 234
3 236 1077 1081
3 1081 238 236
3 238 1081 1085
3 1085 240 238
3 240 1085 1089
3 1089 242 240
3 242 1089 1093
3 1093 244 242
3 244 1093 1097
3 1097 246 244
3 246 1097 1101
3 1101 248 246
3 248 1101 1105
3 1105 250 248
3 250 1105 1109
3 1109 252 250
3 252 1109 1114
3 1114 254 252
3 254 1114 1118
3 1118 256 254
3 256 1118 1122
3 1122 258 256
3 258 1122 1126
3 1126 260 258
3 260 1126 1130
3 1130 262 260
3 262 1130 1134
3 1134 264 262
3 264 1134 1138
3 1138 266 264
3 266 1138 1142
3 1142 268 266
3 268 1142 1146
3 1146 270 268
3 270 1146 1150
3 1150 272 270
3 272 1150 1154
3 1154 274 272
3 274 1154 1158
3 1158 276 274
3 276 1158 1162
3 1162 278 276
3 278 1162 1166
3 1166 280 278
3 280 1166 1170
3 1170 282 280
3 282 1170 1174
3 1174 284 282
3 284 1174 1178
3 1178 286 284
3 286 1178 1182
3 1182 288 286
3 288 1182 1186
3 1186 290 288
3 290 1186 1190
3 1190 292 290
3 292 1190 1194
3 1194 294 292
3 294 1194 1198
3 1198 296 294
3 296 1198 1202
3 1202 298 296
3 298 1202 1206
3 1206 300 298
3 300 1206 1210
3 1210 302 300
3 302 1210 1214
3 1214 304 302
3 304 1214 1218
3 1218 306 304
3 306 1218 1222
3 1222 308 306
3 308 1222 1226
3 1226 310 308
3 310 1226 1230
3 1230 312 310
3 312 1230 1236
3 1236 314 312
3 314 1236 1238
3 1238 316 314
3 316 1238 1239
3 1239 315 316
3 315 1239 1237
3 1237 313 315
3 313 1237 1232
3 1232 311 313
3 311 1232 1228
3 1228 309 311
3 309 1228 1224
3 1224 307 309
3 307 1224 1220
3 1220 305 307
3 305 1220 1216
3 1216 303 305
3 303 1216 1212
3 1212 301 303
3 301 1212 1208
3 1208 299 301
3 299 1208 1204
3 1204 297 299
3 297 1204 1200
3 1200 295 297
3 295 1200 1196
3 1196 293 295
3 293 1196 1192
3 1192 291 293
3 291 1192 1188
3 1188 289 291
3 289 1188 1184
3 1184 287 289
3 287 1184 1180
3 1180 285 287
3 285 1180 1176
3 1176 283 285
3 283 1176 1172
3 1172 281 283
3 281 1172 1168
3 1168 279 281
3 279 1168 1164
3 1164 277 279
3 277 1164 1160
3 1160 275 277
3 275 1160 1156
3 1156 273 275
3 273 1156 1152
3 1152 271 273
3 271 1152 1148
3 1148 269 271
3 269 1148 1144
3 1144 267 269
3 267 1144 1140
3 1140 265 267
3 265 1140 1136
3 1136 263 265
3 263 1136 1132
3 1132 261 263
3 261 1132 1128
3 1128 259 261
3 259 1128 1124
3 1124 257 259
3 257 1124 1120
3 1120 255 257
3 255 1120 1116
3 1116 253 255
3 253 1116 1112
3 1112 251 253
3 251 1112 1111
3 1111 249 251
3 249 1111 1107
3 1107 247 249
3 247 1107 1103
3 1103 245 247
3 245 1103 1099
3 1099 243 245
3 243 1099 1095
3 1095 241 243
3 241 1095 1091
3 1091 239 241
3 239 1091 1087
3 1087 237 239
3 237 1087 1083
3 1083 235 237
3 235 1083 1079
3 1079 233 235
3 233 1079 1075
3 1075 231 233
3 231 1075 1071
3 1071 229 231
3 229 1071 1067
3 1067 227 229
3 227 1067 1063
3 1063 225 227
3 225 1063 1059
3 1059 223 225
3 223 1059 1055
3 1055 221 223
3 221 1055 1050
3 1050 219 221
3 219 1050 1046
3 1046 217 219
3 217 1046 1042
3 1042 215 217
3 215 1042 1038
3 1038 213 215
3 213 1038 1034
3 1034 211 213
3 211 1034 1030
3 1030 209 211
3 209 1030 1026
3 1026 207 209
3 207 1026 1022
3 1022 205 207
3 205 1022 1018
3 1018 203 205
3 203 1018 1014
3 1014 201 203
3 201 1014 1010
3 1010 199 201
3 199 1010 1009
3 1009 198 199
3 198 1009 1005
3 1005 196 198
3 196 1005 1001
3 1001 194 196
3 194 1001 997
3 997 192 194
3 192 997 993
3 993 190 192
3 190 993 989
3 989 188 190
3 188 989 985
3 985 186 188
3 186 985 981
3 981 184 186
3 184 981 977
3 977 182 184
3 182 977 973
3 973 180 182
3 180 973 969
3 969 178 180
3 178 969 965
3 965 176 178
3 176 965 961
3 961 174 176
3 174 961 957
3 957 172 174
3 172 957 953
3 953 170 172
3 170 953 949
3 949 168 170
3 168 949 944
3 944 165 168
3 165 944 940
3 940 163 165
3 163 940 936
3 936 161 163
3 161 936 932
3 932 159 161
3 159 932 928
3 928 157 159
3 157 928 924
3 924 155 157
3 155 924 920
3 920 153 155
3 153 920 916
3 916 151 153
3 151 916 912
3 912 149 151
3 149 912 908
3 908 147 149
3 147 908 907
3 907 146 147
3 146 907 903
3 903 144 146
3 144 903 899
3 899 142 144
3 142 899 895
3 895 140 142
3 140 895 891
3 891 138 140
3 138 891 887
3 887 136 138
3 136 887 883
3 883 134 136
3 134 883 879
3 879 132 134
3 132 879 875
3 875 130 132
3 130 875 871
3 871 128 130
3 128 871 867
3 867 126 128
3 126 867 863
3 863 124 126
3 124 863 859
3 859 122 124
3 122 859 855
3 855 120 122
3 120 855 851
3 851 118 120
3 118 851 847
3 847 116 118
3 116 847 842
3 842 113 116
3 113 842 838
3 838 111 113
3 111 838 834
3 834 109 111
3 109 834 830
3 830 107 109
3 107 830 826
3 826 105 107
3 105 826 822
3 822 103 105
3 103 822 818
3 818 101 103
3 101 818 814
3 814 99 101
3 99 814 810
3 810 97 99
3 97 810 806
3 806 95 97
3 95 806 802
3 802 93 95
3 93 802 801
3 801 92 93
3 92 801 797
3 797 90 92
3 90 797 793
3 793 88 90
3 88 793 789
3 789 86 88
3 86 789 785
3 785 84 86
3 84 785 781
3 781 82 84
3 82 781 777
3 777 80 82
3 80 777 773
3 773 78 80
3 78 773 769
3 769 76 78
3 76 769 765
3 765 74 76
3 74 765 761
3 761 72 74
3 72 761 757
3 757 70 72
3 70 757 753
3 753 68 70
3 68 753 749
3 749 66 68
3 66 749 745
3 745 64 66
3 64 745 740
3 740 61 64
3 61 740 736
3 736 59 61
3 59 736 732
3 732 57 59
3 57 732 728
3 728 55 57
3 55 728 724
3 724 53 55
3 53 724 720
3 720 51 53
3 51 720 716
3 716 49 51
3 49 716 712
3 712 47 49
3 47 712 708
3 708 45 47
3 45 708 704
3 704 43 45
3 43 704 700
3 700 41 43
3 41 700 699
3 699 40 41
3 40 699 695
3 695 38 40
3 38 695 691
3 691 36 38
3 36 691 687
3 687 34 36
3 34 687 683
3 683 32 34
3 32 683 679
3 679 30 32
3 30 679 675
3 675 28 30
3 28 675 671
3 671 26 28
3 26 671 667
3 667 24 26
3 24 667 663
3 663 22 24
3 22 663 659
3 659 20 22
3 20 659 655
3 655 18 20
3 18 655 651
3 651 16 18
3 16 651 647
3 647 14 16
3 14 647 643
3 643 12 14
3 12 643 639
3 639 10 12
3 10 639 634
3 634 7 10
3 7 634 630
3 630 5 7
3 5 630 626
3 626 3 5
3 3 626 622
3 629 626 630
3 633 630 634
3 638 634 639
3 642 639 643
3 646 643 647
3 650 647 651
3 654 651 655
3 658 655 659
3 662 659 663
3 666 663 667
3 670 667 671
3 674 671 675
3 678 675 679
3 682 679 683
3 686 683 687
3 690 687 691
3 694 691 695
3 698 695 699
3 700 703 699
3 700 704 703
3 707 704 708
3 711 708 712
3 715 712 716
3 719 716 720
3 723 720 724
3 727 724 728
3 731 728 732
3 735 732 736
3 739 736 740
3 744 740 745
3 748 745 749
3 752 749 753
3 756 753 757
3 760 757 761
3 764 761 765
3 768 765 769
3 772 769 773
3 776 773 777
3 780 777 781
3 784 781 785
3 788 785 789
3 792 789 793
3 796 793 797
3 800 797 801
3 802 805 801
3 802 806 805
3 809 806 810
3 813 810 814
3 817 814 818
3 821 818 822
3 825 822 826
3 829 826 830
3 833 830 834
3 837 834 838
3 841 838 842
3 846 842 847
3 850 847 851
3 854 851 855
3 858 855 859
3 862 859 863
3 866 863 867
3 870 867 871
3 874 871 875
3 878 875 879
3 882 879 883
3 886 883 887
3 890 887 891
3 894 891 895
3 898 895 899
3 902 899 903
3 906 903 907
3 908 911 907
3 908 912 911
3 915 912 916
3 919 916 920
3 923 920 924
3 927 924 928
3 931 928 932
3 935 932 936
3 939 936 940
3 943 940 944
3 948 944 949
3 952 949 953
3 956 953 957
3 960 957 961
3 964 961 965
3 968 965 969
3 972 969 973
3 976 973 977
3 980 977 981
3 984 981 985
3 988 985 989
3 992 989 993
3 996 993 997
3 1000 997 1001
3 1004 1001 1005
3 1008 1005 1009
3 1010 1013 1009
3 1010 1014 1013
3 1017 1014 1018
3 1021 1018 1022
3 1025 1022 1026
3 1029 1026 1030
3 1033 1030 1034
3 1037 1034 1038
3 1041 1038 1042
3 1045 1042 1046
3 1049 1046 1050
3 1054 1050 1055
3 1058 1055 1059
3 1062 1059 1063
3 1066 1063 1067
3 1070 1067 1071
3 1074 1071 1075
3 1078 1075 1079
3 1082 1079 1083
3 1086 1083 1087
3 1090 1087 1091
3 1094 1091 1095
3 1098 1095 1099
3 1102 1099 1103
3 1106 1103 1107
3 1110 1107 1111
3 1112 1115 1111
3 1112 1116 1115
3 1119 1116 1120
3 1123 1120 1124
3 1127 1124 1128
3 1131 1128 1132
3 1135 1132 1136
3 1139 1136 1140
3 1143 1140 1144
3 1147 1144 1148
3 1151 1148 1152
3 1155 1152 1156
3 1159 1156 1160
3 1163 1160 1164
3 1167 1164 1168
3 1171 1168 1172
3 1175 1172 1176
3 1179 1176 1180
3 1183 1180 1184
3 1187 1184 1188
3 1191 1188 1192
3 1195 1192 1196
3 1199 1196 1200
3 1203 1200 1204
3 1207 1204 1208
3 1211 1208 1212
3 1215 1212 1216
3 1220 1219 1216
3 1220 1224 1219
3 1223 1224 1228
3 1227 1228 1232
3 1231 1232 1237
3 1234 1237 1239
3 1235 1239 1238
3 1233 1238 1236
3 1229 1236 1230
3 1225 1230 1226
3 1221 1226 1222
3 1217 1222 1218
3 1213 1218 1214
3 1209 1214 1210
3 1205 1210 1206
3 1201 1206 1202
3 1197 1202 1198
3 1193 1198 1194
3 1189 1194 1190
3 1185 1190 1186
3 1181 1186 1182
3 1177 1182 1178
3 1173 1178 1174
3 1169 1174 1170
3 1165 1170 1166
3 1161 1166 1162
3 1158 1157 1162
3 1158 1154 1157
3 1153 1154 1150
3 1149 1150 1146
3 1145 1146 1142
3 1141 1142 1138
3 1137 1138 1134
3 1133 1134 1130
3 1129 1130 1126
3 1125 1126 1122
3 1121 1122 1118
3 1117 1118 1114
3 1113 1114 1109
3 1108 1109 1105
3 1104 1105 1101
3 1100 1101 1097
3 1096 1097 1093
3 1092 1093 1089
3 1088 1089 1085
3 1084 1085 1081
3 1080 1081 1077
3 1076 1077 1073
3 1072 1073 1069
3 1068 1069 1065
3 1064 1065 1061
3 1060 1061 1057
3 1053 1056 1057
3 1053 1052 1056
3 1051 1052 1048
3 1047 1048 1044
3 1043 1044 1040
3 1039 1040 1036
3 1035 1036 1032
3 1031 1032 1028
3 1027 1028 1024
3 1023 1024 1020
3 1019 1020 1016
3 1015 1016 1012
3 1011 1012 1007
3 1006 1007 1003
3 1002 1003 999
3 998 999 995
3 994 995 991
3 990 991 987
3 986 987 983
3 982 983 979
3 978 979 975
3 974 975 971
3 970 971 967
3 966 967 963
3 962 963 959
3 958 959 955
3 954 955 951
3 947 950 951
3 947 946 950
3 945 946 942
3 941 942 938
3 937 938 934
3 933 934 930
3 929 930 926
3 925 926 922
3 921 922 918
3 917 918 914
3 913 914 910
3 909 910 905
3 904 905 901
3 900 901 897
3 896 897 893
3 892 893 889
3 888 889 885
3 884 885 881
3 880 881 877
3 876 877 873
3 872 873 869
3 868 869 865
3 864 865 861
3 860 861 857
3 856 857 853
3 852 853 849
3 845 848 849
3 845 844 848
3 844 840 843
3 839 840 836
3 835 836 832
3 831 832 828
3 827 828 824
3 823 824 820
3 819 820 816
3 815 816 812
3 811 812 808
3 807 808 804
3 803 804 799
3 798 799 795
3 794 795 791
3 790 791 787
3 786 787 783
3 782 783 779
3 778 779 775
3 774 775 771
3 770 771 767
3 766 767 763
3 762 763 759
3 758 759 755
3 754 755 751
3 750 751 747
3 743 746 747
3 743 741 746
3 742 741 738
3 737 738 734
3 733 734 730
3 729 730 726
3 725 726 722
3 721 722 718
3 717 718 714
3 713 714 710
3 709 710 706
3 705 706 702
3 701 702 697
3 696 697 693
3 692 693 689
3 688 689 685
3 684 685 681
3 680 681 677
3 676 677 673
3 672 673 669
3 668 669 665
3 664 665 661
3 660 661 657
3 656 657 653
3 652 653 649
3 648 649 645
3 644 645 641
3 637 640 641
3 637 636 640
3 635 636 632
3 631 632 628
3 624 4 2
3 623 624 620
3 628 627 631
3 632 631 635
3 636 635 640
3 641 640 644
3 645 644 648
3 649 648 652
3 653 652 656
3 657 656 660
3 661 660 664
3 665 664 668
3 669 668 672
3 673 672 676
3 677 676 680
3 681 680 684
3 685 684 688
3 689 688 692
3 693 692 696
3 697 696 701
3 702 701 705
3 706 705 709
3 710 709 713
3 714 713 717
3 718 717 721
3 722 721 725
3 726 725 729
3 730 729 733
3 734 733 737
3 738 737 742
3 741 742 746
3 747 746 750
3 751 750 754
3 755 754 758
3 759 758 762
3 763 762 766
3 767 766 770
3 771 770 774
3 775 774 778
3 779 778 782
3 783 782 786
3 787 786 790
3 791 790 794
3 795 794 798
3 799 798 803
3 804 803 807
3 808 807 811
3 812 811 815
3 816 815 819
3 820 819 823
3 824 823 827
3 828 827 831
3 832 831 835
3 836 835 839
3 840 839 843
3 844 843 848
3 849 848 852
3 853 852 856
3 857 856 860
3 861 860 864
3 865 864 868
3 869 868 872
3 873 872 876
3 877 876 880
3 881 880 884
3 885 884 888
3 889 888 892
3 893 892 896
3 897 896 900
3 901 900 904
3 905 904 909
3 910 909 913
3 914 913 917
3 918 917 921
3 922 921 925
3 926 925 929
3 930 929 933
3 934 933 937
3 938 937 941
3 942 941 945
3 946 945 950
3 951 950 954
3 955 954 958
3 959 958 962
3 963 962 966
3 967 966 970
3 971 970 974
3 975 974 978
3 979 978 982
3 983 982 986
3 987 986 990
3 991 990 994
3 995 994 998
3 999 998 1002
3 1003 1002 1006
3 1007 1006 1011
3 1012 1011 1015
3 1016 1015 1019
3 1020 1019 1023
3 1024 1023 1027
3 1028 1027 1031
3 1032 1031 1035
3 1036 1035 1039
3 1040 1039 1043
3 1044 1043 1047
3 1048 1047 1051
3 1052 1051 1056
3 1057 1056 1060
3 1061 1060 1064
3 1065 1064 1068
3 1069 1068 1072
3 1073 1072 1076
3 1077 1076 1080
3 1081 1080 1084
3 1085 1084 1088
3 1089 1088 1092
3 1093 1092 1096
3 1097 1096 1100
3 1101 1100 1104
3 1105 1104 1108
3 1109 1108 1113
3 1114 1113 1117
3 1118 1117 1121
3 1122 1121 1125
3 1126 1125 1129
3 1130 1129 1133
3 1134 1133 1137
3 1138 1137 1141
3 1142 1141 1145
3 1146 1145 1149
3 1150 1149 1153
3 1154 1153 1157
3 1162 1157 1161
3 1166 1161 1165
3 1170 1165 1169
3 1174 1169 1173
3 1178 1173 1177
3 1182 1177 1181
3 1186 1181 1185
3 1190 1185 1189
3 1194 1189 1193
3 1198 1193 1197
3 1202 1197 1201
3 1206 1201 1205
3 1210 1205 1209
3 1214 1209 1213
3 1218 1213 1217
3 1222 1217 1221
3 1226 1221 1225
3 1230 1225 1229
3 1236 1229 1233
3 1238 1233 1235
3 1239 1235 1234
3 1237 1234 1231
3 1232 1231 1227
3 1228 1227 1223
3 1224 1223 1219
3 1216 1219 1215
3 1212 1215 1211
3 1208 1211 1207
3 1204 1207 1203
3 1200 1203 1199
3 1196 1199 1195
3 1192 1195 1191
3 1188 1191 1187
3 1184 1187 1183
3 1180 1183 1179
3 1176 1179 1175
3 1172 1175 1171
3 1168 1171 1167
3 1164 1167 1163
3 1160 1163 1159
3 1156 1159 1155
3 1152 1155 1151
3 1148 1151 1147
3 1144 1147 1143
3 1140 1143 1139
3 1136 1139 1135
3 1132 1135 1131
3 1128 1131 1127
3 1124 1127 1123
3 1120 1123 1119
3 1116 1119 1115
3 1111 1115 1110
3 1107 1110 1106
3 1103 1106 1102
3 1099 1102 1098
3 1095 1098 1094
3 1091 1094 1090
3 1087 1090 1086
3 1083 1086 1082
3 1079 1082 1078
3 1075 1078 1074
3 1071 1074 1070
3 1067 1070 1066
3 1063 1066 1062
3 1059 1062 1058
3 1055 1058 1054
3 1050 1054 1049
3 1046 1049 1045
3 1042 1045 1041
3 1038 1041 1037
3 1034 1037 1033
3 1030 1033 1029
3 1026 1029 1025
3 1022 1025 1021
3 1018 1021 1017
3 1014 1017 1013
3 1009 1013 1008
3 1005 1008 1004
3 1001 1004 1000
3 997 1000 996
3 993 996 992
3 989 992 988
3 985 988 984
3 981 984 980
3 977 980 976
3 973 976 972
3 969 972 968
3 965 968 964
3 961 964 960
3 957 960 956
3 953 956 952
3 949 952 948
3 944 948 943
3 940 943 939
3 936 939 935
3 932 935 931
3 928 931 927
3 924 927 923
3 920 923 919
3 916 919 915
3 912 915 911
3 907 911 906
3 903 906 902
3 899 902 898
3 895 898 894
3 891 894 890
3 887 890 886
3 883 886 882
3 879 882 878
3 875 878 874
3 871 874 870
3 867 870 866
3 863 866 862
3 859 862 858
3 855 858 854
3 851 854 850
3 847 850 846
3 842 846 841
3 838 841 837
3 834 837 833
3 830 833 829
3 826 829 825
3 822 825 821
3 818 821 817
3 814 817 813
3 810 813 809
3 806 809 805
3 801 805 800
3 797 800 796
3 793 796 792
3 789 792 788
3 785 788 784
3 781 784 780
3 777 780 776
3 773 776 772
3 769 772 768
3 765 768 764
3 761 764 760
3 757 760 756
3 753 756 752
3 749 752 748
3 745 748 744
3 740 744 739
3 736 739 735
3 732 735 731
3 728 731 727
3 724 727 723
3 720 723 719
3 716 719 715
3 712 715 711
3 708 711 707
3 704 707 703
3 699 703 698
3 695 698 694
3 691 694 690
3 687 690 686
3 683 686 682
3 679 682 678
3 675 678 674
3 671 674 670
3 667 670 666
3 663 666 662
3 659 662 658
3 655 658 654
3 651 654 650
3 647 650 646
3 643 646 642
3 639 642 638
3 634 638 633
3 630 633 629
3 626 629 625
3 621 317 1
3 625 622 626
3 620 621 623
3 622 0 3
3 2 620 624
CELL_TYPES 1860
9
9
9
9
9
9
9
9
9
9
9
9
9
9
9
9
9
9
9
9
9
9
9
9
9
9
9
9
9
9
9
9
9
9
9
9
9
9
9
9
9
9
9
9
9
9
9
9
9
9
9
9
9
9
9
9
9
9
9
9
9
9
9
9
9
9
9
9
9
9
9
9
9
9
9
9
9
9
9
9
9
9
9
9
9
9
9
9
9
9
9
9
9
9
9
9
9
9
9
9
9
9
9
9
9
9
9
9
9
9
9
9
9
9
9
9
9
9
9
9
9
9
9
9
9
9
9
9
9
9
9
9
9
9
9
9
9
9
9
9
9
9
9
9
9
9
9
9
9
9
9
9
9
9
9
9
9
9
9
9
9
9
9
9
9
9
9
9
9
9
9
9
9
9
9
9
9
9
9
9
9
9
9
9
9
9
9
9
9
9
9
9
9
9
9
9
9
9
9
9
9
9
9
9
9
9
9
9
9
9
9
9
9
9
9
9
9
9
9
9
9
9
9
9
9
9
9
9
9
9
9
9
9
9
9
9
9
9
9
9
9
9
9
9
9
9
9
9
9
9
9
9
9
9
9
9
9
9
9
9
9
9
9
9
9
9
9
9
9
9
9
9
9
9
9
9
9
9
9
9
9
9
9
9
9
9
9
9
9
9
9
9
9
9
9
9
9
9
9
9
9
9
9
9
9
9
9
9
9
9
9
9
9
9
9
9
9
9
9
9
9
9
9
9
9
9
9
9
9
9
9
9
9
9
9
9
9
9
9
9
9
9
9
9
9
9
9
9
9
9
9
9
9
9
9
9
9
9
9
9
9
9
9
9
9
9
9
9
9
9
9
9
9
9
9
9
9
9
9
9
9
9
9
9
9
9
9
9
9
9
9
9
9
9
9
9
9
9
9
9
9
9
9
9
9
9
9
9
9
9
9
9
9
9
9
9
9
9
9
9
9
9
9
9
9
9
9
9
9
9
9
9
9
9
9
9
9
9
9
9
9
9
9
9
9
9
9
9
9
9
9
9
9
9
9
9
9
9
9
9
9
9
9
9
9
9
9
9
9
9
9
9
9
9
9
9
9
9
9
9
9
9
9
9
9
9
9
9
9
9
9
9
9
9
9
9
9
9
9
9
9
9
9
9
9
9
9
9
9
9
9
9
9
9
9
9
9
9
9
9
9
9
9
9
9
9
9
9
9
9
9
9
9
9
9
9
9
9
9
9
9
9
9
9
9
9
9
9
9
9
9
9
9
9
9
9
9
9
9
9
9
9
9
9
9
9
9
9
9
9
9
9
9
9
9
9
9
9
9
9
9
9
9
9
9
9
9
9
9
9
9
9
9
9
9
9
9
9
9
9
9
9
9
9
9
9
9
9
9
9
9
9
9
9
9
9
9
9
9
9
9
9
9
9
9
9
9
9
9
9
9
9
9
9
9
9
9
9
9
9
9
9
9
9
9
9
9
9
9
9
9
9
9
9
9
9
9
9
9
9
9
9
9
9
9
9
9
9
9
9
9
9
9
9
9
9
9
9
9
9
9
9
9
9
9
9
9
9
9
9
9
9
9
9
9
9
9
9
9
9
9
9
9
9
9
9
9
9
9
9
9
9
9
9
9
9
9
9
9
9
9
9
9
9
9
9
9
9
9
9
9
9
9
9
9
9
9
9
9
9
9
9
9
9
9
9
9
9
9
9
9
9
9
9
9
9
9
9
9
9
9
9
9
9
9
9
9
9
9
9
9
9
9
9
9
9
9
9
9
9
9
9
9
9
9
9
9
9
9
9
9
9
9
9
9
9
9
9
9
9
9
9
9
9
9
9
9
9
9
9
9
9
9
9
9
9
9
9
9
9
9
9
9
9
9
9
9
9
9
9
9
9
9
9
9
9
9
9
9
9
9
9
9
9
9
9
9
9
9
9
9
9
9
9
9
9
9
9
9
9
9
9
9
9
9
9
9
9
9
9
9
9
9
9
9
9
9
9
9
9
9
9
9
9
9
9
9
9
9
9
9
9
9
9
9
9
9
9
9
9
9
9
9
9
9
9
9
9
9
9
9
9
9
9
9
9
9
9
9
9
9
9
9
9
9
9
9
9
9
9
9
9
9
9
9
9
9
9
9
9
9
9
9
9
9
9
9
9
9
9
9
9
9
9
9
9
9
9
9
9
9
9
9
9
9
9
9
9
9
9
9
9
9
9
9
9
9
9
9
9
9
9
9
9
9
9
9
9
9
9
9
9
9
9
9
9
9
9
9
9
9
9
9
9
9
9
9
9
9
9
9
9
9
9
9
9
9
9
9
9
9
9
9
9
9
9
9
9
9
9
9
9
9
9
9
9
9
9
9
9
9
9
9
9
9
9
9
9
9
9
9
9
9
9
9
9
9
9
9
9
9
9
9
9
9
9
9
9
9
9
9
9
9
9
9
9
9
9
9
9
9
9
9
9
9
9
9
9
9
9
9
9
9
9
9
9
9
9
9
9
9
9
9
9
9
9
9
9
9
9
9
9
9
9
9
9
9
9
9
9
9
9
9
9
9
9
9
9
9
9
9
9
9
9
9
9
9
9
9
9
9
9
9
9
9
9
9
9
9
9
9
9
9
9
9
9
9
9
9
9
9
9
9
9
9
9
9
9
9
9
9
9
9
9
9
9
9
9
9
9
9
9
9
9
9
9
9
9
9
9
9
9
9
9
9
9
9
9
9
9
9
9
9
9
9
9
9
9
9
9
9
9
9
9
9
9
9
9
9
9
9
9
9
9
9
9
9
9
9
9
9
9
9
9
9
9
9
9
9
9
9
9
9
9
9
9
9
9
9
9
9
9
9
9
9
9
9
9
9
9
9
9
9
9
9
9
9
9
9
9
9
9
9
9
9
9
9
9
9
9
9
9
9
9
9
9
9
9
9
9
9
9
9
9
9
9
9
9
9
9
9
9
9
9
9
9
9
9
9
9
9
9
9
9
9
9
9
9
9
9
9
9
9
9
9
9
9
9
9
9
9
9
9
9
9
9
9
9
9
9
9
9
9
9
9
9
9
9
9
9
9
9
9
9
9
9
9
9
9
9
9
9
9
9
9
9
9
9
9
9
9
9
9
9
9
9
9
9
9
9
9
9
9
9
9
9
9
9
9
9
9
9
9
9
9
9
9
9
9
9
9
9
9
9
9
9
9
9
9
9
9
9
9
9
9
9
9
9
9
9
9
9
9
9
9
9
9
9
9
9
9
9
9
9
9
9
9
9
9
9
9
9
9
9
9
9
9
9
9
9
9
9
9
9
9
9
9
9
9
9
9
9
9
9
9
9
9
9
9
9
9
9
9
9
9
9
9
9
9
9
9
9
9
9
9
9
9
9
9
9
9
9
9
9
9
9
9
9
9
9
9
9
9
9
9
9
9
9
9
9
9
9
9
9
9
9
9
9
9
9
9
9
9
9
9
9
9
9
9
9
9
9
9
9
9
9
9
9
9
9
9
9
9
9
9
9
9
9
9
9
9
9
9
9
9
9
9
9
9
9
9
9
9
9
9
9
9
9
9
9
9
9
9
9
9
9
9
9
9
9
9
9
9
9
9
9
9
9
9
9
9
9
9
9
9
9
9
9
9
9
9
9
9
9
9
9
9
9
9
9
9
9
9
9
9
9
9
9
9
9
9
9
9
9
9
9
9
9
9
9
9
9
9
9
9
9
9
9
9
9
9
9
9
9
9
9
9
9
9
9
9
9
9
9
9
9
9
9
9
9
9
9
9
9
9
9
9
9
9
9
9
9
9
9
9
9
9
9
9
9
9
9
9
9
9
9
9
9
9
9
9
9
9
9
9
9
9
9
9
9
9
9
9
9
9
9
9
9
9
9
9
9
9
9
9
9
9
9
9
9
9
9
9
9
9
9
9
9
9
9
9
9
9
9
9
9
9
9
9
9
9
9
9
9
9
9
9
9
9
9
9
9
9
9
9
9
9
9
9
9
9
9
9
9
9
9
9
9
9
9
9
9
9
9
9
9
9
9
9
9
9
9
9
9
9
9
9
9
9
9
9
9
9
9
9
9
9
9
9
9
9
9
9
9
9
9
9
9
9
9
9
9
9
9
9
9
9
9
9
9
9
9
9
9
9
9
9
9
9
9
9
9
9
9
9
9
9
9
9
9
9
9
9
9
9
9
9
9
9
9
9
9
9
9
9
9
9
9
9
9
POINT_DATA 1240
SCALARS u1 float
LOOKUP_TABLE default
-1e-05
-1e-05
-1e-05
-1e-05
-1e-05
-2e-05
-1e-05
-2e-05
-1e-05
-1e-05
-2e-05
-1e-05
-2e-05
-1e-05
-2e-05
-1e-05
-2e-05
-1e-05
-2e-05
-1e-05
-2e-05
-1e-05
-2e-05
-1e-05
-2e-05
-2e-05
-2e-05
-2e-05
-1e-05
-2e-05
-1e-05
-2e-05
-1e-05
-2e-05
-9e-06
-3e-05
-8e-06
-3e-05
-7e-06
-3e-05
-7e-06
-6e-06
-3e-05
-6e-06
-4e-05
-5e-06
-4e-05
-5e-06
-4e-05
-5e-06
-4e-05
-5e-06
-5e-05
-5e-06
-5e-05
-5e-06
-5e-05
-5e-06
-5e-05
-5e-06
-5e-05
-5e-06
-5e-05
-5e-05
-6e-06
-5e-05
-6e-06
-5e-05
-6e-06
-5e-05
-7e-06
-5e-05
-7e-06
-4e-05
-8e-06
-4e-05
-8e-06
-4e-05
-8e-06
-4e-05
-8e-06
-3e-05
-8e-06
-3e-05
-8e-06
-3e-05
-8e-06
-3e-05
-7e-06
-2e-05
-7e-06
-2e-05
-6e-06
-5e-06
-2e-05
-5e-06
-2e-05
-4e-06
-2e-05
-3e-06
-2e-05
-2e-06
-2e-05
-2e-06
-1e-05
-1e-06
-1e-05
-6e-07
-1e-05
-1e-07
-1e-05
2e-07
-1e-05
5e-07
-1e-05
-1e-05
5e-07
-1e-05
5e-07
-1e-05
3e-07
-2e-05
-7e-08
-2e-05
-5e-07
-2e-05
-1e-06
-2e-05
-1e-06
-2e-05
-2e-06
-2e-05
-2e-06
-2e-05
-3e-06
-2e-05
-3e-06
-2e-05
-3e-06
-2e-05
-3e-06
-2e-05
-3e-06
-2e-05
-3e-06
-2e-05
-3e-06
-3e-06
-2e-05
-3e-06
-2e-05
-3e-06
-2e-05
-2e-06
-1e-05
-2e-06
-1e-05
-1e-06
-1e-05
-2e-07
-1e-05
9e-07
-1e-05
2e-06
-1e-05
4e-06
-9e-06
-9e-06
5e-06
-9e-06
6e-06
-9e-06
7e-06
-9e-06
8e-06
-9e-06
9e-06
-9e-06
1e-05
-9e-06
1e-05
-9e-06
1e-05
-9e-06
9e-06
-1e-05
9e-06
-1e-05
8e-06
-1e-05
7e-06
-1e-05
6e-06
-1e-05
4e-06
-1e-05
3e-06
-1e-05
2e-06
2e-06
-1e-05
1e-06
-1e-05
1e-06
-1e-05
1e-06
-1e-05
1e-06
-1e-05
2e-06
-1e-05
2e-06
-1e-05
3e-06
-1e-05
4e-06
-1e-05
4e-06
-9e-06
5e-06
-8e-06
7e-06
-7e-06
8e-06
-7e-06
1e-05
-6e-06
1e-05
-6e-06
1e-05
-5e-06
2e-05
-4e-06
2e-05
-4e-06
2e-05
-4e-06
3e-05
-4e-06
3e-05
-4e-06
3e-05
-4e-06
3e-05
-4e-06
3e-05
-5e-06
4e-05
-5e-06
4e-05
-6e-06
4e-05
-6e-06
4e-05
-6e-06
4e-05
-7e-06
4e-05
-7e-06
4e-05
-7e-06
4e-05
-7e-06
4e-05
-7e-06
3e-05
-7e-06
3e-05
-7e-06
3e-05
-7e-06
3e-05
-7e-06
2e-05
-7e-06
2e-05
-6e-06
2e-05
-6e-06
2e-05
-5e-06
1e-05
-4e-06
1e-05
-3e-06
9e-06
-1e-06
7e-06
9e-08
5e-06
2e-06
4e-06
3e-06
3e-06
4e-06
2e-06
5e-06
1e-06
6e-06
4e-07
7e-06
-2e-07
7e-06
-7e-07
7e-06
-1e-06
7e-06
-1e-06
6e-06
-1e-06
5e-06
-7e-07
4e-06
-6e-08
3e-06
8e-07
2e-06
-1e-05
-1e-05
-1e-05
-1e-05
-1e-05
-1e-05
-2e-05
-1e-05
-2e-05
-1e-05
-2e-05
-1e-05
-2e-05
-1e-05
-2e-05
-1e-05
-2e-05
-1e-05
-2e-05
-2e-05
-2e-05
-2e-05
-2e-05
-2e-05
-2e-05
-2e-05
-2e-05
-2e-05
-1e-05
-2e-05
-1e-05
-3e-05
-1e-05
-3e-05
-1e-05
-3e-05
-8e-06
-3e-05
-7e-06
-4e-05
-7e-06
-4e-05
-6e-06
-4e-05
-5e-06
-4e-05
-5e-06
-5e-05
-4e-06
-5e-05
-4e-06
-5e-05
-4e-06
-5e-05
-4e-06
-5e-05
-3e-06
-5e-05
-3e-06
-5e-05
-3e-06
-5e-05
-3e-06
-5e-05
-3e-06
-5e-05
-3e-06
-5e-05
-3e-06
-4e-05
-3e-06
-4e-05
-3e-06
-4e-05
-3e-06
-4e-05
-4e-06
-3e-05
-4e-06
-3e-05
-4e-06
-3e-05
-4e-06
-3e-05
-4e-06
-2e-05
-4e-06
-2e-05
-4e-06
-2e-05
-4e-06
-2e-05
-4e-06
-2e-05
-4e-06
-2e-05
-4e-06
-2e-05
-4e-06
-2e-05
-4e-06
-1e-05
-4e-06
-1e-05
-4e-06
-1e-05
-4e-06
-1e-05
-4e-06
-1e-05
-5e-06
-1e-05
-5e-06
-1e-05
-5e-06
-1e-05
-5e-06
-2e-05
-5e-06
-2e-05
-5e-06
-2e-05
-5e-06
-2e-05
-5e-06
-2e-05
-5e-06
-2e-05
-5e-06
-2e-05
-5e-06
-2e-05
-4e-06
-2e-05
-4e-06
-2e-05
-4e-06
-2e-05
-4e-06
-2e-05
-3e-06
-2e-05
-3e-06
-2e-05
-2e-06
-2e-05
-1e-06
-2e-05
-6e-08
-1e-05
1e-06
-1e-05
2e-06
-1e-05
4e-06
-1e-05
5e-06
-1e-05
6e-06
-9e-06
8e-06
-9e-06
8e-06
-9e-06
9e-06
-8e-06
1e-05
-8e-06
1e-05
-8e-06
1e-05
-8e-06
9e-06
-7e-06
8e-06
-7e-06
8e-06
-7e-06
6e-06
-7e-06
5e-06
-7e-06
4e-06
-7e-06
3e-06
-7e-06
2e-06
-7e-06
2e-06
-7e-06
1e-06
-8e-06
1e-06
-8e-06
1e-06
-8e-06
1e-06
-8e-06
2e-06
-8e-06
2e-06
-8e-06
3e-06
-8e-06
4e-06
-8e-06
5e-06
-8e-06
6e-06
-8e-06
7e-06
-8e-06
8e-06
-8e-06
1e-05
-8e-06
1e-05
-8e-06
1e-05
-8e-06
2e-05
-8e-06
2e-05
-8e-06
2e-05
-9e-06
3e-05
-9e-06
3e-05
-9e-06
3e-05
-9e-06
3e-05
-9e-06
3e-05
-9e-06
4e-05
-9e-06
4e-05
-9e-06
4e-05
-9e-06
4e-05
-9e-06
4e-05
-9e-06
4e-05
-8e-06
4e-05
-8e-06
4e-05
-8e-06
4e-05
-8e-06
3e-05
-7e-06
3e-05
-7e-06
3e-05
-6e-06
3e-05
-6e-06
2e-05
-5e-06
2e-05
-4e-06
2e-05
-2e-06
2e-05
-1e-06
1e-05
4e-07
1e-05
2e-06
9e-06
3e-06
7e-06
4e-06
6e-06
5e-06
4e-06
6e-06
3e-06
7e-06
2e-06
7e-06
1e-06
7e-06
6e-07
6e-06
-5e-08
6e-06
-6e-07
5e-06
-1e-06
4e-06
-1e-06
3e-06
-1e-06
2e-06
-7e-07
-1e-07
6e-07
-1e-05
-1e-05
-1e-05
-1e-05
-1e-05
-1e-05
-1e-05
-1e-05
-1e-05
-1e-05
-2e-05
-1e-05
-1e-05
-2e-05
-2e-05
-1e-05
-1e-05
-1e-05
-2e-05
-2e-05
-1e-05
-1e-05
-2e-05
-2e-05
-1e-05
-1e-05
-2e-05
-2e-05
-1e-05
-1e-05
-2e-05
-2e-05
-1e-05
-1e-05
-2e-05
-2e-05
-1e-05
-1e-05
-2e-05
-2e-05
-1e-05
-1e-05
-2e-05
-2e-05
-2e-05
-2e-05
-2e-05
-2e-05
-2e-05
-2e-05
-2e-05
-2e-05
-2e-05
-2e-05
-2e-05
-1e-05
-2e-05
-2e-05
-1e-05
-1e-05
-2e-05
-2e-05
-1e-05
-1e-05
-2e-05
-2e-05
-1e-05
-1e-05
-3e-05
-3e-05
-1e-05
-8e-06
-3e-05
-3e-05
-8e-06
-7e-06
-3e-05
-3e-05
-7e-06
-7e-06
-6e-06
-3e-05
-4e-05
-6e-06
-6e-06
-4e-05
-4e-05
-6e-06
-5e-06
-4e-05
-4e-05
-5e-06
-5e-06
-4e-05
-4e-05
-5e-06
-5e-06
-4e-05
-5e-05
-5e-06
-5e-06
-5e-05
-5e-05
-4e-06
-5e-06
-5e-05
-5e-05
-4e-06
-5e-06
-5e-05
-5e-05
-4e-06
-5e-06
-5e-05
-5e-05
-4e-06
-5e-06
-5e-05
-5e-05
-4e-06
-5e-06
-5e-05
-5e-05
-5e-05
-4e-06
-5e-06
-5e-05
-5e-05
-4e-06
-5e-06
-5e-05
-5e-05
-4e-06
-5e-06
-5e-05
-5e-05
-4e-06
-6e-06
-5e-05
-5e-05
-4e-06
-6e-06
-5e-05
-4e-05
-5e-06
-6e-06
-4e-05
-4e-05
-5e-06
-7e-06
-4e-05
-4e-05
-5e-06
-7e-06
-4e-05
-4e-05
-5e-06
-7e-06
-4e-05
-3e-05
-5e-06
-7e-06
-3e-05
-3e-05
-5e-06
-6e-06
-3e-05
-3e-05
-5e-06
-6e-06
-3e-05
-3e-05
-5e-06
-6e-06
-2e-05
-2e-05
-5e-06
-5e-06
-2e-05
-2e-05
-5e-06
-5e-06
-5e-06
-2e-05
-2e-05
-4e-06
-4e-06
-2e-05
-2e-05
-4e-06
-4e-06
-2e-05
-2e-05
-4e-06
-3e-06
-2e-05
-2e-05
-3e-06
-3e-06
-2e-05
-2e-05
-3e-06
-2e-06
-2e-05
-1e-05
-3e-06
-2e-06
-1e-05
-1e-05
-3e-06
-2e-06
-1e-05
-1e-05
-3e-06
-1e-06
-1e-05
-1e-05
-3e-06
-1e-06
-1e-05
-1e-05
-3e-06
-1e-06
-1e-05
-1e-05
-1e-05
-3e-06
-1e-06
-1e-05
-1e-05
-3e-06
-1e-06
-1e-05
-1e-05
-3e-06
-2e-06
-1e-05
-2e-05
-3e-06
-2e-06
-2e-05
-2e-05
-4e-06
-2e-06
-2e-05
-2e-05
-4e-06
-3e-06
-2e-05
-2e-05
-4e-06
-3e-06
-2e-05
-2e-05
-4e-06
-3e-06
-2e-05
-2e-05
-4e-06
-3e-06
-2e-05
-2e-05
-4e-06
-3e-06
-2e-05
-2e-05
-4e-06
-4e-06
-2e-05
-2e-05
-4e-06
-4e-06
-2e-05
-2e-05
-4e-06
-3e-06
-2e-05
-2e-05
-4e-06
-3e-06
-2e-05
-2e-05
-4e-06
-3e-06
-2e-05
-2e-05
-3e-06
-3e-06
-3e-06
-2e-05
-2e-05
-3e-06
-3e-06
-2e-05
-2e-05
-2e-06
-2e-06
-2e-05
-2e-05
-2e-06
-2e-06
-2e-05
-1e-05
-1e-06
-1e-06
-1e-05
-1e-05
-5e-08
-1e-07
-1e-05
-1e-05
1e-06
1e-06
-1e-05
-1e-05
2e-06
2e-06
-1e-05
-1e-05
4e-06
4e-06
-1e-05
-1e-05
5e-06
5e-06
-1e-05
-9e-06
-9e-06
6e-06
6e-06
-9e-06
-9e-06
7e-06
7e-06
-9e-06
-9e-06
8e-06
8e-06
-9e-06
-9e-06
9e-06
9e-06
-8e-06
-9e-06
1e-05
1e-05
-8e-06
-9e-06
1e-05
1e-05
-8e-06
-9e-06
1e-05
1e-05
-8e-06
-9e-06
9e-06
9e-06
-8e-06
-9e-06
9e-06
9e-06
-8e-06
-9e-06
8e-06
8e-06
-8e-06
-9e-06
7e-06
7e-06
-8e-06
-1e-05
5e-06
5e-06
-8e-06
-1e-05
4e-06
4e-06
-8e-06
-1e-05
3e-06
3e-06
-9e-06
-1e-05
2e-06
2e-06
-9e-06
-1e-05
2e-06
2e-06
1e-06
-9e-06
-1e-05
1e-06
1e-06
-9e-06
-1e-05
1e-06
1e-06
-9e-06
-1e-05
1e-06
1e-06
-9e-06
-1e-05
1e-06
2e-06
-9e-06
-1e-05
2e-06
2e-06
-9e-06
-1e-05
3e-06
3e-06
-9e-06
-1e-05
3e-06
3e-06
-9e-06
-9e-06
4e-06
4e-06
-9e-06
-9e-06
5e-06
5e-06
-8e-06
-8e-06
6e-06
6e-06
-8e-06
-8e-06
-7e-06
7e-06
8e-06
-8e-06
-7e-06
9e-06
9e-06
-8e-06
-7e-06
1e-05
1e-05
-7e-06
-6e-06
1e-05
1e-05
-7e-06
-6e-06
2e-05
2e-05
-7e-06
-6e-06
2e-05
2e-05
-7e-06
-5e-06
2e-05
2e-05
-7e-06
-5e-06
2e-05
2e-05
-7e-06
-5e-06
3e-05
3e-05
-7e-06
-6e-06
3e-05
3e-05
-7e-06
-6e-06
3e-05
3e-05
-8e-06
-6e-06
3e-05
3e-05
-8e-06
-6e-06
4e-05
4e-05
-8e-06
-7e-06
4e-05
4e-05
-8e-06
-7e-06
4e-05
4e-05
4e-05
-8e-06
-7e-06
4e-05
4e-05
-8e-06
-7e-06
4e-05
4e-05
-8e-06
-8e-06
4e-05
4e-05
-8e-06
-8e-06
4e-05
4e-05
-8e-06
-8e-06
4e-05
4e-05
-8e-06
-7e-06
4e-05
3e-05
-8e-06
-7e-06
3e-05
3e-05
-7e-06
-7e-06
3e-05
3e-05
-7e-06
-7e-06
3e-05
3e-05
-7e-06
-7e-06
3e-05
3e-05
-6e-06
-6e-06
3e-05
2e-05
-6e-06
-6e-06
2e-05
2e-05
-5e-06
-5e-06
2e-05
2e-05
-4e-06
-5e-06
2e-05
2e-05
-2e-06
-4e-06
1e-05
1e-05
-1e-06
-3e-06
1e-05
1e-05
3e-07
-1e-06
1e-05
8e-06
2e-06
2e-07
8e-06
6e-06
3e-06
2e-06
6e-06
5e-06
4e-06
3e-06
5e-06
4e-06
5e-06
4e-06
3e-06
3e-06
6e-06
5e-06
2e-06
2e-06
7e-06
6e-06
1e-06
9e-07
7e-06
7e-06
7e-07
2e-07
7e-06
7e-06
7e-08
-4e-07
6e-06
7e-06
-5e-07
-8e-07
6e-06
6e-06
-1e-06
-1e-06
5e-06
6e-06
-1e-06
-1e-06
4e-06
5e-06
-1e-06
-1e-06
3e-06
4e-06
-7e-07
-7e-07
2e-06
-1e-07
7e-07
3e-06
-1e-07
2e-06
7e-07
SCALARS u2 float
LOOKUP_TABLE default
-3e-06
-5e-06
-2e-06
-4e-06
-2e-06
-6e-06
-1e-06
-7e-06
-8e-07
-5e-07
-8e-06
-4e-07
-1e-05
-4e-07
-1e-05
-4e-07
-1e-05
-4e-07
-1e-05
-4e-07
-1e-05
-5e-07
-1e-05
-6e-07
-1e-05
-9e-07
-1e-05
-1e-06
-1e-05
-2e-06
-1e-05
-2e-06
-1e-05
-3e-06
-9e-06
-3e-06
-8e-06
-3e-06
-7e-06
-4e-06
-6e-06
-5e-06
-4e-06
-5e-06
-4e-06
-4e-06
-4e-06
-5e-06
-4e-06
-5e-06
-3e-06
-5e-06
-3e-06
-6e-06
-2e-06
-6e-06
-2e-06
-7e-06
-1e-06
-8e-06
-4e-07
-9e-06
3e-07
1e-06
-1e-05
2e-06
-1e-05
2e-06
-1e-05
3e-06
-2e-05
4e-06
-2e-05
4e-06
-2e-05
4e-06
-2e-05
5e-06
-3e-05
5e-06
-3e-05
5e-06
-3e-05
5e-06
-3e-05
4e-06
-4e-05
4e-06
-4e-05
3e-06
-4e-05
3e-06
-4e-05
-4e-05
2e-06
-4e-05
2e-06
-4e-05
2e-06
-4e-05
2e-06
-4e-05
1e-06
-4e-05
1e-06
-4e-05
1e-06
-4e-05
1e-06
-4e-05
2e-06
-3e-05
2e-06
-3e-05
2e-06
2e-06
-3e-05
2e-06
-2e-05
3e-06
-2e-05
4e-06
-2e-05
5e-06
-2e-05
6e-06
-1e-05
7e-06
-1e-05
9e-06
-1e-05
1e-05
-9e-06
1e-05
-7e-06
1e-05
-6e-06
1e-05
-5e-06
1e-05
-5e-06
2e-05
-4e-06
2e-05
-3e-06
2e-05
-3e-06
-2e-06
2e-05
-2e-06
1e-05
-2e-06
1e-05
-3e-06
1e-05
-3e-06
1e-05
-4e-06
1e-05
-5e-06
9e-06
-6e-06
8e-06
-8e-06
8e-06
-9e-06
7e-06
7e-06
-1e-05
7e-06
-1e-05
8e-06
-1e-05
8e-06
-1e-05
9e-06
-1e-05
1e-05
-1e-05
1e-05
-9e-06
1e-05
-8e-06
1e-05
-7e-06
1e-05
-5e-06
2e-05
-4e-06
2e-05
-2e-06
2e-05
-9e-07
2e-05
3e-07
2e-05
1e-06
3e-05
2e-06
3e-06
3e-05
3e-06
3e-05
3e-06
4e-05
3e-06
4e-05
3e-06
4e-05
4e-06
4e-05
4e-06
4e-05
4e-06
5e-05
4e-06
5e-05
3e-06
5e-05
3e-06
5e-05
3e-06
5e-05
3e-06
5e-05
2e-06
5e-05
2e-06
4e-05
1e-06
4e-05
8e-07
4e-05
5e-07
4e-05
3e-07
4e-05
2e-07
3e-05
3e-07
3e-05
6e-07
3e-05
1e-06
3e-05
1e-06
2e-05
2e-06
2e-05
3e-06
2e-05
3e-06
2e-05
4e-06
2e-05
5e-06
1e-05
5e-06
1e-05
6e-06
1e-05
7e-06
1e-05
7e-06
1e-05
8e-06
1e-05
8e-06
1e-05
9e-06
1e-05
9e-06
1e-05
9e-06
1e-05
9e-06
1e-05
9e-06
1e-05
8e-06
1e-05
8e-06
1e-05
8e-06
1e-05
7e-06
2e-05
7e-06
2e-05
6e-06
2e-05
6e-06
2e-05
6e-06
2e-05
5e-06
2e-05
5e-06
2e-05
5e-06
2e-05
5e-06
2e-05
5e-06
2e-05
5e-06
1e-05
6e-06
1e-05
6e-06
1e-05
6e-06
1e-05
7e-06
9e-06
7e-06
8e-06
-6e-06
-3e-06
-7e-06
-2e-06
-9e-06
-2e-06
-1e-05
-9e-07
-1e-05
-3e-07
-1e-05
4e-08
-1e-05
3e-07
-1e-05
6e-07
-1e-05
8e-07
-1e-05
1e-06
-1e-05
1e-06
-1e-05
1e-06
-1e-05
1e-06
-1e-05
2e-06
-9e-06
2e-06
-8e-06
2e-06
-7e-06
2e-06
-6e-06
1e-06
-5e-06
1e-06
-5e-06
1e-06
-5e-06
8e-07
-5e-06
6e-07
-5e-06
5e-07
-5e-06
4e-07
-6e-06
3e-07
-7e-06
3e-07
-7e-06
4e-07
-8e-06
4e-07
-9e-06
4e-07
-1e-05
4e-07
-1e-05
5e-07
-1e-05
5e-07
-2e-05
5e-07
-2e-05
5e-07
-2e-05
4e-07
-2e-05
2e-07
-3e-05
6e-08
-3e-05
-1e-07
-3e-05
-3e-07
-3e-05
-5e-07
-4e-05
-6e-07
-4e-05
-6e-07
-4e-05
-6e-07
-4e-05
-6e-07
-4e-05
-4e-07
-4e-05
-3e-07
-4e-05
-5e-08
-4e-05
2e-07
-4e-05
4e-07
-4e-05
7e-07
-4e-05
1e-06
-4e-05
1e-06
-4e-05
2e-06
-3e-05
2e-06
-3e-05
3e-06
-3e-05
4e-06
-3e-05
5e-06
-2e-05
6e-06
-2e-05
8e-06
-2e-05
9e-06
-1e-05
1e-05
-1e-05
1e-05
-1e-05
1e-05
-9e-06
1e-05
-8e-06
1e-05
-7e-06
2e-05
-6e-06
2e-05
-5e-06
2e-05
-4e-06
1e-05
-3e-06
1e-05
-3e-06
1e-05
-3e-06
1e-05
-2e-06
1e-05
-2e-06
1e-05
-3e-06
9e-06
-3e-06
8e-06
-4e-06
8e-06
-5e-06
7e-06
-6e-06
7e-06
-7e-06
8e-06
-8e-06
8e-06
-9e-06
8e-06
-1e-05
9e-06
-1e-05
1e-05
-1e-05
1e-05
-1e-05
1e-05
-1e-05
1e-05
-9e-06
1e-05
-8e-06
2e-05
-7e-06
2e-05
-5e-06
2e-05
-4e-06
2e-05
-3e-06
2e-05
-1e-06
3e-05
6e-08
3e-05
1e-06
3e-05
2e-06
4e-05
3e-06
4e-05
3e-06
4e-05
4e-06
4e-05
4e-06
4e-05
4e-06
5e-05
5e-06
5e-05
5e-06
5e-05
5e-06
5e-05
5e-06
5e-05
5e-06
5e-05
6e-06
5e-05
6e-06
4e-05
6e-06
4e-05
6e-06
4e-05
5e-06
4e-05
5e-06
4e-05
5e-06
3e-05
5e-06
3e-05
5e-06
3e-05
5e-06
3e-05
5e-06
2e-05
4e-06
2e-05
5e-06
2e-05
5e-06
2e-05
5e-06
2e-05
5e-06
1e-05
5e-06
1e-05
5e-06
1e-05
5e-06
1e-05
5e-06
1e-05
5e-06
1e-05
5e-06
1e-05
4e-06
1e-05
4e-06
1e-05
4e-06
1e-05
4e-06
1e-05
4e-06
1e-05
3e-06
1e-05
3e-06
1e-05
3e-06
1e-05
3e-06
2e-05
4e-06
2e-05
4e-06
2e-05
4e-06
2e-05
4e-06
2e-05
4e-06
2e-05
4e-06
2e-05
5e-06
2e-05
5e-06
2e-05
5e-06
2e-05
6e-06
1e-05
7e-06
1e-05
7e-06
1e-05
8e-06
1e-05
1e-05
-3e-06
-5e-06
-5e-06
-3e-06
-2e-06
-6e-06
-6e-06
-2e-06
-2e-06
-7e-06
-7e-06
-2e-06
-1e-06
-9e-06
-8e-06
-1e-06
-7e-07
-5e-07
-1e-05
-1e-05
-5e-07
-3e-07
-1e-05
-1e-05
-2e-07
-2e-07
-1e-05
-1e-05
2e-08
-1e-07
-1e-05
-1e-05
2e-07
-1e-08
-1e-05
-1e-05
4e-07
2e-08
-1e-05
-1e-05
5e-07
7e-09
-1e-05
-1e-05
6e-07
-5e-08
-1e-05
-1e-05
6e-07
-2e-07
-1e-05
-1e-05
6e-07
-4e-07
-1e-05
-1e-05
5e-07
-6e-07
-1e-05
-1e-05
4e-07
-9e-07
-9e-06
-9e-06
3e-07
-1e-06
-8e-06
-8e-06
7e-08
-2e-06
-7e-06
-7e-06
-1e-07
-2e-06
-6e-06
-6e-06
-4e-07
-2e-06
-5e-06
-5e-06
-5e-06
-6e-07
-2e-06
-5e-06
-5e-06
-7e-07
-2e-06
-4e-06
-4e-06
-8e-07
-2e-06
-5e-06
-5e-06
-9e-07
-2e-06
-5e-06
-5e-06
-8e-07
-2e-06
-6e-06
-6e-06
-7e-07
-2e-06
-6e-06
-6e-06
-5e-07
-1e-06
-7e-06
-7e-06
-3e-07
-8e-07
-8e-06
-8e-06
-6e-08
-3e-07
-8e-06
-9e-06
2e-07
2e-07
-1e-05
-1e-05
8e-07
5e-07
1e-06
-1e-05
-1e-05
9e-07
2e-06
-1e-05
-1e-05
1e-06
2e-06
-1e-05
-1e-05
1e-06
2e-06
-2e-05
-2e-05
1e-06
3e-06
-2e-05
-2e-05
2e-06
3e-06
-2e-05
-2e-05
2e-06
3e-06
-2e-05
-3e-05
2e-06
3e-06
-3e-05
-3e-05
2e-06
3e-06
-3e-05
-3e-05
1e-06
3e-06
-3e-05
-3e-05
1e-06
3e-06
-3e-05
-4e-05
1e-06
2e-06
-4e-05
-4e-05
8e-07
2e-06
-4e-05
-4e-05
7e-07
2e-06
-4e-05
-4e-05
5e-07
2e-06
-4e-05
-4e-05
-4e-05
4e-07
1e-06
-4e-05
-4e-05
4e-07
1e-06
-4e-05
-4e-05
4e-07
1e-06
-4e-05
-4e-05
5e-07
1e-06
-4e-05
-4e-05
6e-07
1e-06
-4e-05
-4e-05
8e-07
1e-06
-4e-05
-4e-05
1e-06
1e-06
-4e-05
-4e-05
1e-06
1e-06
-4e-05
-3e-05
1e-06
2e-06
-3e-05
-3e-05
2e-06
2e-06
-3e-05
-3e-05
2e-06
2e-06
3e-06
-3e-05
-3e-05
3e-06
3e-06
-3e-05
-2e-05
4e-06
4e-06
-2e-05
-2e-05
5e-06
5e-06
-2e-05
-2e-05
6e-06
6e-06
-2e-05
-2e-05
7e-06
7e-06
-2e-05
-1e-05
9e-06
9e-06
-1e-05
-1e-05
1e-05
1e-05
-1e-05
-1e-05
1e-05
1e-05
-9e-06
-8e-06
1e-05
1e-05
-8e-06
-7e-06
1e-05
1e-05
-7e-06
-6e-06
1e-05
1e-05
-6e-06
-5e-06
2e-05
2e-05
-5e-06
-4e-06
2e-05
2e-05
-4e-06
-4e-06
2e-05
2e-05
-4e-06
-3e-06
1e-05
2e-05
-3e-06
-3e-06
-2e-06
1e-05
1e-05
-3e-06
-2e-06
1e-05
1e-05
-2e-06
-2e-06
1e-05
1e-05
-2e-06
-3e-06
1e-05
1e-05
-3e-06
-3e-06
1e-05
1e-05
-3e-06
-4e-06
9e-06
9e-06
-4e-06
-5e-06
8e-06
8e-06
-5e-06
-6e-06
8e-06
8e-06
-6e-06
-7e-06
7e-06
7e-06
-7e-06
-9e-06
7e-06
7e-06
7e-06
-8e-06
-9e-06
8e-06
8e-06
-9e-06
-1e-05
8e-06
8e-06
-1e-05
-1e-05
9e-06
9e-06
-1e-05
-1e-05
9e-06
9e-06
-1e-05
-1e-05
1e-05
1e-05
-1e-05
-1e-05
1e-05
1e-05
-1e-05
-9e-06
1e-05
1e-05
-9e-06
-8e-06
1e-05
1e-05
-8e-06
-7e-06
1e-05
1e-05
-7e-06
-5e-06
2e-05
2e-05
-5e-06
-4e-06
2e-05
2e-05
-4e-06
-2e-06
2e-05
2e-05
-2e-06
-1e-06
2e-05
2e-05
-1e-06
1e-07
3e-05
3e-05
7e-08
1e-06
3e-05
3e-05
1e-06
2e-06
2e-06
3e-05
3e-05
2e-06
3e-06
3e-05
3e-05
3e-06
3e-06
4e-05
4e-05
3e-06
3e-06
4e-05
4e-05
4e-06
4e-06
4e-05
4e-05
4e-06
4e-06
4e-05
4e-05
4e-06
4e-06
4e-05
4e-05
4e-06
4e-06
5e-05
5e-05
4e-06
4e-06
5e-05
5e-05
5e-06
4e-06
5e-05
5e-05
5e-06
4e-06
5e-05
5e-05
5e-05
5e-06
4e-06
5e-05
5e-05
5e-06
3e-06
5e-05
5e-05
5e-06
3e-06
4e-05
4e-05
4e-06
3e-06
4e-05
4e-05
4e-06
3e-06
4e-05
4e-05
4e-06
2e-06
4e-05
4e-05
4e-06
2e-06
4e-05
4e-05
4e-06
2e-06
3e-05
3e-05
3e-06
2e-06
3e-05
3e-05
3e-06
2e-06
3e-05
3e-05
3e-06
2e-06
3e-05
2e-05
3e-06
2e-06
2e-05
2e-05
4e-06
3e-06
2e-05
2e-05
4e-06
3e-06
2e-05
2e-05
4e-06
4e-06
4e-06
2e-05
2e-05
4e-06
4e-06
2e-05
1e-05
5e-06
5e-06
1e-05
1e-05
5e-06
5e-06
1e-05
1e-05
5e-06
6e-06
1e-05
1e-05
5e-06
6e-06
1e-05
1e-05
6e-06
7e-06
1e-05
1e-05
6e-06
7e-06
1e-05
1e-05
6e-06
7e-06
1e-05
1e-05
6e-06
7e-06
1e-05
1e-05
6e-06
7e-06
1e-05
1e-05
6e-06
7e-06
1e-05
1e-05
6e-06
7e-06
1e-05
1e-05
5e-06
7e-06
1e-05
1e-05
5e-06
7e-06
1e-05
1e-05
5e-06
6e-06
1e-05
1e-05
5e-06
6e-06
1e-05
1e-05
5e-06
6e-06
2e-05
2e-05
4e-06
5e-06
2e-05
2e-05
4e-06
5e-06
2e-05
2e-05
4e-06
5e-06
2e-05
2e-05
4e-06
5e-06
2e-05
2e-05
5e-06
5e-06
2e-05
2e-05
5e-06
5e-06
2e-05
2e-05
5e-06
5e-06
2e-05
2e-05
5e-06
5e-06
2e-05
2e-05
5e-06
5e-06
2e-05
2e-05
6e-06
6e-06
1e-05
1e-05
6e-06
6e-06
1e-05
1e-05
7e-06
6e-06
1e-05
1e-05
8e-06
7e-06
1e-05
8e-06
1e-05
1e-05
7e-06
1e-05
8e-06
SCALARS strain_1 float
LOOKUP_TABLE default
-0.000008
-0.000012
-0.000015
-0.000009
-0.000024
-0.000014
-0.000026
-0.000023
-0.000026
-0.000038
-0.000031
-0.000039
-0.000044
-0.000033
-0.000060
-0.000040
-0.000085
-0.000040
-0.000112
-0.000030
-0.000135
-0.000023
-0.000181
-0.000016
-0.000216
0.000011
-0.000269
0.000032
-0.000321
0.000063
-0.000382
0.000095
-0.000451
0.000135
-0.000536
0.000188
-0.000621
0.000247
-0.000705
0.000307
-0.000802
-0.000919
0.000378
-0.001017
0.000457
-0.001147
0.000547
-0.001276
0.000661
-0.001405
0.000760
-0.001551
0.000872
-0.001698
0.001011
-0.001859
0.001142
-0.002012
0.001284
-0.002193
0.001444
-0.002360
0.001606
0.001783
-0.002537
0.001952
-0.002717
0.002148
-0.002914
0.002352
-0.003100
0.002558
-0.003302
0.002769
-0.003501
0.002999
-0.003706
0.003221
-0.003913
0.003456
-0.004120
0.003702
-0.004337
0.003944
-0.004541
0.004192
-0.004756
0.004453
-0.004976
0.004693
-0.005185
0.004960
-0.005390
-0.005600
0.005209
-0.005809
0.005475
-0.006016
0.005731
-0.006215
0.005978
-0.006411
0.006239
-0.006604
0.006496
-0.006794
0.006741
-0.006984
0.006982
-0.007156
0.007225
-0.007326
0.007457
-0.007496
0.007681
0.007900
-0.007658
0.008108
-0.007798
0.008310
-0.007937
0.008498
-0.008075
0.008691
-0.008201
0.008861
-0.008315
0.009013
-0.008430
0.009169
-0.008523
0.009305
-0.008607
0.009432
-0.008683
0.009543
-0.008756
0.009643
-0.008814
0.009725
-0.008856
0.009799
-0.008893
0.009858
-0.008904
0.009894
-0.008922
-0.008929
0.009923
-0.008918
0.009945
-0.008903
0.009944
-0.008865
0.009929
-0.008824
0.009896
-0.008773
0.009867
-0.008709
0.009813
-0.008646
0.009739
-0.008566
0.009668
-0.008466
0.009574
0.009475
-0.008367
0.009364
-0.008257
0.009232
-0.008137
0.009103
-0.008026
0.008949
-0.007879
0.008798
-0.007746
0.008629
-0.007597
0.008453
-0.007443
0.008279
-0.007281
0.008096
-0.007125
0.007896
-0.006948
0.007706
-0.006768
0.007496
-0.006587
0.007290
-0.006403
0.007065
-0.006218
0.006850
-0.006035
-0.005838
0.006636
-0.005640
0.006414
-0.005450
0.006192
-0.005256
0.005963
-0.005053
0.005739
-0.004858
0.005516
-0.004652
0.005290
-0.004466
0.005063
-0.004265
0.004846
-0.004082
0.004627
-0.003887
0.004409
-0.003708
0.004199
-0.003517
0.003982
-0.003334
0.003767
-0.003158
0.003569
-0.002980
0.003373
-0.002816
0.003183
-0.002638
0.002989
-0.002477
0.002806
-0.002317
0.002633
-0.002176
0.002459
-0.002027
0.002299
-0.001875
0.002124
-0.001750
0.001974
-0.001615
0.001824
-0.001479
0.001688
-0.001362
0.001546
-0.001254
0.001420
-0.001147
0.001300
-0.001036
0.001188
-0.000940
0.001075
-0.000846
0.000967
-0.000755
0.000875
-0.000679
0.000783
-0.000604
0.000698
-0.000533
0.000612
-0.000469
0.000539
-0.000409
0.000474
-0.000352
0.000409
-0.000304
0.000359
-0.000262
0.000300
-0.000222
0.000255
-0.000187
0.000222
-0.000143
0.000175
-0.000126
0.000144
-0.000097
0.000117
-0.000081
0.000093
-0.000050
0.000062
-0.000054
0.000043
-0.000034
0.000031
-0.000032
0.000016
-0.000018
0.000017
-0.000006
-0.000001
-0.000010
-0.000004
-0.000014
0.000001
-0.000015
-0.000003
-0.000006
-0.000003
-0.000008
-0.000011
-0.000011
-0.000003
-0.000015
-0.000024
-0.000013
-0.000022
-0.000028
-0.000030
-0.000013
-0.000033
-0.000021
-0.000043
-0.000048
-0.000043
-0.000065
-0.000039
-0.000081
-0.000031
-0.000107
-0.000039
-0.000145
-0.000014
-0.000181
-0.000013
-0.000221
0.000007
-0.000271
0.000030
-0.000331
0.000058
-0.000395
0.000090
-0.000461
0.000133
-0.000532
0.000181
-0.000618
0.000246
-0.000717
0.000304
-0.000808
0.000380
-0.000912
0.000456
-0.001024
0.000542
-0.001148
0.000635
-0.001277
0.000747
-0.001407
0.000867
-0.001544
0.000983
-0.001703
0.001117
-0.001846
0.001255
-0.002003
0.001409
-0.002172
0.001565
-0.002338
0.001735
-0.002513
0.001912
-0.002689
0.002091
-0.002872
0.002284
-0.003047
0.002475
-0.003244
0.002697
-0.003436
0.002900
-0.003629
0.003110
-0.003828
0.003334
-0.004028
0.003566
-0.004216
0.003794
-0.004424
0.004025
-0.004615
0.004253
-0.004809
0.004500
-0.005006
0.004731
-0.005188
0.004967
-0.005394
0.005199
-0.005577
0.005425
-0.005761
0.005667
-0.005945
0.005898
-0.006118
0.006120
-0.006293
0.006339
-0.006457
0.006556
-0.006610
0.006772
-0.006765
0.006963
-0.006913
0.007156
-0.007052
0.007360
-0.007177
0.007515
-0.007304
0.007681
-0.007419
0.007852
-0.007530
0.007996
-0.007612
0.008124
-0.007689
0.008255
-0.007771
0.008361
-0.007840
0.008461
-0.007894
0.008554
-0.007935
0.008629
-0.007967
0.008690
-0.007994
0.008731
-0.008011
0.008772
-0.008015
0.008786
-0.008006
0.008797
-0.007987
0.008792
-0.007964
0.008767
-0.007918
0.008742
-0.007876
0.008691
-0.007817
0.008641
-0.007738
0.008565
-0.007677
0.008489
-0.007596
0.008398
-0.007502
0.008298
-0.007385
0.008182
-0.007272
0.008057
-0.007158
0.007925
-0.007035
0.007783
-0.006910
0.007635
-0.006763
0.007479
-0.006617
0.007308
-0.006460
0.007127
-0.006299
0.006955
-0.006141
0.006776
-0.005976
0.006576
-0.005812
0.006388
-0.005629
0.006185
-0.005460
0.005991
-0.005274
0.005786
-0.005102
0.005588
-0.004917
0.005381
-0.004728
0.005170
-0.004550
0.004970
-0.004361
0.004754
-0.004180
0.004543
-0.004002
0.004336
-0.003819
0.004135
-0.003644
0.003941
-0.003464
0.003742
-0.003290
0.003546
-0.003113
0.003354
-0.002952
0.003162
-0.002783
0.002984
-0.002619
0.002801
-0.002466
0.002626
-0.002302
0.002464
-0.002162
0.002304
-0.002011
0.002138
-0.001870
0.001992
-0.001743
0.001843
-0.001607
0.001702
-0.001474
0.001560
-0.001364
0.001438
-0.001258
0.001325
-0.001148
0.001200
-0.001043
0.001090
-0.000943
0.000989
-0.000852
0.000885
-0.000767
0.000787
-0.000680
0.000702
-0.000607
0.000626
-0.000539
0.000562
-0.000467
0.000487
-0.000410
0.000420
-0.000354
0.000363
-0.000305
0.000303
-0.000272
0.000262
-0.000227
0.000210
-0.000180
0.000175
-0.000150
0.000145
-0.000122
0.000111
-0.000109
0.000084
-0.000075
0.000071
-0.000072
0.000043
-0.000048
0.000036
-0.000037
0.000021
-0.000037
0.000015
-0.000020
0.000000
-0.000021
-0.000002
-0.000015
-0.000010
-0.000014
-0.000021
-0.000015
-0.000014
-0.000004
-0.000015
-0.000010
-0.000013
-0.000011
-0.000013
-0.000019
-0.000021
-0.000019
-0.000016
-0.000013
-0.000021
-0.000026
-0.000026
-0.000013
-0.000009
-0.000026
-0.000030
-0.000013
-0.000022
-0.000027
-0.000031
-0.000038
-0.000032
-0.000039
-0.000038
-0.000045
-0.000038
-0.000049
-0.000040
-0.000037
-0.000048
-0.000074
-0.000047
-0.000040
-0.000082
-0.000093
-0.000047
-0.000031
-0.000100
-0.000123
-0.000036
-0.000026
-0.000127
-0.000149
-0.000035
-0.000019
-0.000167
-0.000182
-0.000012
-0.000006
-0.000210
-0.000232
-0.000004
0.000015
-0.000252
-0.000286
0.000020
0.000049
-0.000311
-0.000349
0.000047
0.000071
-0.000361
-0.000403
0.000083
0.000108
-0.000428
-0.000480
0.000123
0.000142
-0.000508
-0.000556
0.000170
0.000200
-0.000594
-0.000640
0.000220
0.000262
-0.000680
-0.000748
0.000280
0.000328
-0.000782
-0.000845
-0.000939
0.000349
0.000401
-0.000901
-0.001018
0.000430
0.000488
-0.001007
-0.001144
0.000508
0.000578
-0.001136
-0.001275
0.000610
0.000686
-0.001273
-0.001396
0.000707
0.000786
-0.001406
-0.001556
0.000828
0.000920
-0.001542
-0.001695
0.000948
0.001049
-0.001698
-0.001854
0.001078
0.001181
-0.001848
-0.002009
0.001226
0.001330
-0.002010
-0.002180
0.001374
0.001496
-0.002169
-0.002349
0.001666
0.001537
0.001821
-0.002340
-0.002521
0.001738
0.001936
-0.002517
-0.002708
0.001909
0.002124
-0.002700
-0.002901
0.002106
0.002325
-0.002876
-0.003082
0.002304
0.002527
-0.003071
-0.003275
0.002502
0.002753
-0.003261
-0.003476
0.002714
0.002962
-0.003455
-0.003688
0.002926
0.003192
-0.003651
-0.003885
0.003151
0.003420
-0.003861
-0.004090
0.003375
0.003645
-0.004053
-0.004288
0.003606
0.003893
-0.004258
-0.004502
0.003846
0.004138
-0.004464
-0.004719
0.004076
0.004381
-0.004665
-0.004916
0.004319
0.004630
-0.004871
-0.005133
0.004562
0.004878
-0.005082
-0.005348
-0.005530
0.004801
0.005122
-0.005326
-0.005652
0.005045
0.005374
-0.005508
-0.005855
0.005294
0.005629
-0.005713
-0.006046
0.005530
0.005877
-0.005897
-0.006243
0.005773
0.006125
-0.006089
-0.006441
0.006018
0.006364
-0.006270
-0.006616
0.006251
0.006609
-0.006451
-0.006798
0.006476
0.006845
-0.006620
-0.006965
0.006706
0.007067
-0.006785
-0.007138
0.006908
0.007311
-0.006948
-0.007300
0.007128
0.007504
0.007733
-0.007100
-0.007435
0.007406
0.007847
-0.007250
-0.007589
0.007561
0.008049
-0.007379
-0.007718
0.007766
0.008220
-0.007516
-0.007856
0.007950
0.008403
-0.007626
-0.007971
0.008112
0.008563
-0.007737
-0.008072
0.008278
0.008709
-0.007844
-0.008181
0.008415
0.008852
-0.007934
-0.008264
0.008547
0.008993
-0.008016
-0.008346
0.008668
0.009097
-0.008093
-0.008416
0.008772
0.009205
-0.008156
-0.008477
0.008868
0.009292
-0.008201
-0.008531
0.008950
0.009372
-0.008254
-0.008566
0.009026
0.009435
-0.008285
-0.008595
0.009071
0.009475
-0.008296
-0.008617
0.009113
0.009514
-0.008309
-0.008610
-0.008657
0.009147
0.009533
-0.008332
-0.008612
0.009160
0.009551
-0.008292
-0.008585
0.009166
0.009546
-0.008261
-0.008538
0.009151
0.009526
-0.008230
-0.008500
0.009126
0.009494
-0.008189
-0.008459
0.009086
0.009453
-0.008135
-0.008382
0.009039
0.009385
-0.008066
-0.008308
0.008972
0.009313
-0.007986
-0.008227
0.008890
0.009235
-0.007899
-0.008136
0.008785
0.009136
0.009103
-0.007811
-0.008036
0.008741
0.008962
-0.007707
-0.007927
0.008536
0.008840
-0.007593
-0.007814
0.008449
0.008692
-0.007476
-0.007678
0.008300
0.008553
-0.007348
-0.007547
0.008164
0.008402
-0.007216
-0.007402
0.008007
0.008237
-0.007070
-0.007259
0.007840
0.008064
-0.006930
-0.007104
0.007676
0.007874
-0.006777
-0.006946
0.007505
0.007696
-0.006614
-0.006784
0.007314
0.007504
-0.006453
-0.006612
0.007131
0.007322
-0.006291
-0.006442
0.006941
0.007099
-0.006114
-0.006261
0.006739
0.006905
-0.005935
-0.006068
0.006542
0.006699
-0.005750
-0.005887
0.006329
0.006481
-0.005554
-0.005700
-0.005586
0.006126
0.006266
-0.005393
-0.005411
0.005916
0.006048
-0.005155
-0.005211
0.005712
0.005826
-0.004963
-0.005012
0.005491
0.005609
-0.004780
-0.004818
0.005273
0.005382
-0.004593
-0.004627
0.005066
0.005180
-0.004406
-0.004433
0.004854
0.004961
-0.004216
-0.004242
0.004645
0.004732
-0.004027
-0.004052
0.004432
0.004527
-0.003838
-0.003864
0.004223
0.004306
-0.003657
-0.003676
0.003990
0.004102
0.003956
-0.003480
-0.003491
0.003810
0.003775
-0.003312
-0.003325
0.003568
0.003569
-0.003114
-0.003143
0.003365
0.003363
-0.002950
-0.002970
0.003176
0.003180
-0.002794
-0.002803
0.002984
0.002990
-0.002624
-0.002641
0.002811
0.002809
-0.002471
-0.002477
0.002635
0.002634
-0.002308
-0.002319
0.002469
0.002455
-0.002156
-0.002168
0.002293
0.002295
-0.002015
-0.002022
0.002138
0.002142
-0.001874
-0.001881
0.001977
0.001978
-0.001740
-0.001745
0.001830
0.001831
-0.001602
-0.001609
0.001691
0.001686
-0.001495
-0.001485
0.001565
0.001563
-0.001352
-0.001368
-0.001284
0.001429
0.001429
-0.001239
-0.001179
0.001305
0.001296
-0.001114
-0.001078
0.001196
0.001188
-0.001005
-0.000979
0.001086
0.001081
-0.000905
-0.000886
0.000980
0.000974
-0.000820
-0.000796
0.000875
0.000873
-0.000738
-0.000701
0.000790
0.000786
-0.000655
-0.000628
0.000707
0.000698
-0.000581
-0.000564
0.000620
0.000617
-0.000514
-0.000495
0.000544
0.000543
-0.000452
-0.000427
0.000469
0.000474
-0.000389
-0.000377
0.000400
0.000424
-0.000340
-0.000326
0.000343
0.000376
-0.000297
-0.000278
0.000289
0.000327
-0.000254
-0.000227
0.000245
0.000277
-0.000204
-0.000201
0.000205
0.000224
-0.000177
-0.000157
0.000166
0.000192
-0.000139
-0.000134
0.000130
0.000156
-0.000118
-0.000109
0.000098
0.000118
-0.000087
-0.000077
0.000077
0.000090
-0.000080
-0.000065
0.000057
0.000067
-0.000060
-0.000056
0.000042
0.000057
-0.000042
-0.000041
0.000028
0.000034
-0.000034
-0.000036
0.000022
0.000027
-0.000020
-0.000030
0.000010
0.000015
-0.000022
-0.000017
0.000005
-0.000001
-0.000020
-0.000016
-0.000005
-0.000005
-0.000008
-0.000006
-0.000002
-0.000001
-0.000005
-0.000014
-0.000011
-0.000019
-0.000013
-0.000007
-0.000018
-0.000005
-0.000005
-0.000014
-0.000017
-0.000005
-0.000010
-0.000013
-0.000009
-0.000016
-0.000006
SCALARS strain_2 float
LOOKUP_TABLE default
0.000129
0.000165
0.000222
0.000167
0.000265
0.000176
0.000257
0.000252
0.000251
0.000421
0.000474
0.000454
0.000555
0.000486
0.000706
0.000559
0.001036
0.000495
0.001327
0.000499
0.001771
0.000337
0.002217
0.000231
0.002778
-0.000094
0.003329
-0.000285
0.004159
-0.000643
0.005059
-0.001106
0.005910
-0.001567
0.006866
-0.002194
0.007991
-0.002835
0.009135
-0.003678
0.010391
0.011783
-0.004552
0.013318
-0.005495
0.014951
-0.006626
0.016626
-0.007824
0.018258
-0.009082
0.020218
-0.010573
0.022124
-0.012090
0.024276
-0.013691
0.026333
-0.015460
0.028625
-0.017414
0.030855
-0.019357
-0.021459
0.033313
-0.023777
0.035603
-0.026078
0.038235
-0.028517
0.040831
-0.031053
0.043435
-0.033708
0.046179
-0.036444
0.048914
-0.039336
0.051631
-0.042145
0.054402
-0.045177
0.057197
-0.048160
0.060007
-0.051204
0.062816
-0.054422
0.065614
-0.057609
0.068584
-0.060819
0.071262
0.074071
-0.064017
0.076857
-0.067267
0.079474
-0.070564
0.082167
-0.073865
0.084727
-0.077038
0.087377
-0.080255
0.089769
-0.083399
0.092232
-0.086481
0.094554
-0.089576
0.096731
-0.092597
0.098808
-0.095556
-0.098338
0.100776
-0.101084
0.102643
-0.103735
0.104404
-0.106195
0.105969
-0.108608
0.107473
-0.110799
0.108759
-0.112882
0.110105
-0.114910
0.111113
-0.116622
0.112058
-0.118347
0.112822
-0.119821
0.113514
-0.121130
0.114044
-0.122382
0.114284
-0.123253
0.114379
-0.124017
0.114394
-0.124593
0.114209
0.113867
-0.125018
0.113478
-0.125239
0.112824
-0.125320
0.112047
-0.125132
0.111114
-0.124798
0.110166
-0.124200
0.108955
-0.123699
0.107650
-0.122738
0.106305
-0.121608
0.104684
-0.120463
-0.119129
0.103043
-0.117538
0.101192
-0.115943
0.099358
-0.114049
0.097381
-0.112097
0.095361
-0.110027
0.093183
-0.107823
0.091012
-0.105533
0.088682
-0.103025
0.086348
-0.100519
0.083991
-0.097968
0.081524
-0.095195
0.079001
-0.092477
0.076481
-0.089706
0.074063
-0.086843
0.071475
-0.083935
0.068903
0.066257
-0.080992
0.063770
-0.078002
0.061170
-0.075037
0.058640
-0.072134
0.056314
-0.069108
0.053697
-0.066029
0.051211
-0.063120
0.048801
-0.060172
0.046445
-0.057298
0.044143
-0.054303
0.041894
-0.051559
0.039653
-0.048814
0.037352
-0.046085
0.035329
-0.043479
0.033324
-0.040929
0.031304
-0.038349
0.029358
-0.035899
0.027579
-0.033546
0.025679
-0.031270
0.023920
-0.028995
0.022334
-0.026880
0.020700
-0.024854
0.019184
-0.022931
0.017714
-0.020961
0.016365
-0.019308
0.014998
-0.017551
0.013760
-0.015993
0.012541
-0.014508
0.011522
-0.013038
0.010456
-0.011648
0.009365
-0.010562
0.008456
-0.009282
0.007545
-0.008237
0.006789
-0.007320
0.006014
-0.006307
0.005311
-0.005428
0.004649
-0.004765
0.004004
-0.004034
0.003498
-0.003389
0.002917
-0.002801
0.002576
-0.002315
0.002144
-0.001850
0.001835
-0.001469
0.001568
-0.001140
0.001146
-0.000853
0.000942
-0.000584
0.000789
-0.000310
0.000476
-0.000131
0.000490
-0.000137
0.000273
0.000055
0.000218
0.000206
0.000164
0.000226
-0.000003
0.000198
0.000046
0.000210
-0.000004
0.000196
0.000020
0.000151
0.000072
0.000141
0.000135
0.000209
0.000059
0.000104
0.000238
0.000289
0.000204
0.000273
0.000268
0.000373
0.000283
0.000426
0.000430
0.000420
0.000642
0.000467
0.000849
0.000629
0.001132
0.000438
0.001520
0.000367
0.001972
0.000238
0.002356
0.000124
0.002936
-0.000050
0.003737
-0.000401
0.004257
-0.000705
0.005107
-0.001125
0.006170
-0.001560
0.007054
-0.002083
0.008134
-0.002840
0.009397
-0.003562
0.010632
-0.004430
0.012057
-0.005490
0.013484
-0.006593
0.015151
-0.007737
0.016716
-0.008956
0.018501
-0.010338
0.020440
-0.011812
0.022355
-0.013439
0.024366
-0.015158
0.026307
-0.016935
0.028667
-0.018909
0.030877
-0.020984
0.033236
-0.023096
0.035569
-0.025369
0.037951
-0.027730
0.040490
-0.030191
0.043007
-0.032697
0.045536
-0.035308
0.048213
-0.038021
0.050759
-0.040672
0.053423
-0.043471
0.056086
-0.046370
0.058715
-0.049270
0.061385
-0.052169
0.064033
-0.055109
0.066595
-0.058024
0.069209
-0.061140
0.071699
-0.064068
0.074146
-0.066982
0.076629
-0.069944
0.079000
-0.072860
0.081315
-0.075649
0.083528
-0.078598
0.085704
-0.081223
0.087704
-0.083929
0.089608
-0.086511
0.091485
-0.089012
0.093155
-0.091394
0.094783
-0.093703
0.096220
-0.095924
0.097529
-0.097897
0.098752
-0.099850
0.099864
-0.101574
0.100801
-0.103179
0.101597
-0.104735
0.102327
-0.105958
0.102667
-0.107119
0.103080
-0.108066
0.103288
-0.108860
0.103330
-0.109511
0.103243
-0.109901
0.102981
-0.110183
0.102562
-0.110407
0.102023
-0.110245
0.101340
-0.110029
0.100504
-0.109568
0.099572
-0.109047
0.098498
-0.108193
0.097237
-0.107342
0.095965
-0.106270
0.094605
-0.105001
0.092911
-0.103568
0.091224
-0.102106
0.089590
-0.100483
0.087667
-0.098613
0.085673
-0.096759
0.083799
-0.094651
0.081660
-0.092549
0.079486
-0.090377
0.077283
-0.088039
0.074935
-0.085651
0.072745
-0.083124
0.070455
-0.080549
0.068077
-0.078002
0.065682
-0.075381
0.063404
-0.072710
0.060961
-0.069987
0.058605
-0.067290
0.056201
-0.064530
0.053844
-0.061814
0.051500
-0.059047
0.049151
-0.056345
0.046854
-0.053623
0.044570
-0.051002
0.042307
-0.048296
0.040208
-0.045774
0.038081
-0.043229
0.035923
-0.040633
0.033836
-0.038257
0.031904
-0.035940
0.029951
-0.033562
0.028139
-0.031359
0.026396
-0.029163
0.024569
-0.027120
0.022940
-0.025091
0.021296
-0.023016
0.019709
-0.021287
0.018150
-0.019523
0.016796
-0.017791
0.015545
-0.016213
0.014247
-0.014674
0.013045
-0.013299
0.011802
-0.011945
0.010748
-0.010716
0.009734
-0.009491
0.008776
-0.008369
0.007916
-0.007347
0.007054
-0.006396
0.006233
-0.005617
0.005490
-0.004890
0.004884
-0.004059
0.004208
-0.003499
0.003731
-0.002839
0.003107
-0.002322
0.002741
-0.001917
0.002293
-0.001479
0.001918
-0.001100
0.001573
-0.000685
0.001316
-0.000525
0.000976
-0.000308
0.000833
-0.000189
0.000592
-0.000011
0.000503
0.000191
0.000352
0.000139
0.000186
0.000162
0.000142
0.000263
0.000175
0.000300
-0.000015
0.000240
0.000072
0.000271
0.000073
0.000185
0.000076
0.000163
0.000116
0.000179
0.000091
0.000230
0.000238
0.000170
0.000265
0.000218
0.000151
0.000201
0.000213
0.000255
0.000162
0.000179
0.000336
0.000335
0.000310
0.000265
0.000261
0.000409
0.000459
0.000418
0.000460
0.000483
0.000450
0.000532
0.000658
0.000476
0.000506
0.000750
0.000837
0.000381
0.000423
0.000983
0.001172
0.000379
0.000460
0.001336
0.001510
0.000372
0.000349
0.001719
0.001881
0.000286
0.000189
0.002169
0.002462
0.000220
0.000073
0.002701
0.003051
0.000065
-0.000161
0.003322
0.003692
-0.000163
-0.000435
0.003972
0.004536
-0.000559
-0.000841
0.004816
0.005348
-0.000994
-0.001245
0.005623
0.006322
-0.001469
-0.001752
0.006690
0.007355
-0.001925
-0.002395
0.007826
0.008432
-0.002592
-0.003060
0.008903
0.009668
-0.003384
-0.003936
0.010242
0.011076
0.012199
-0.004141
-0.004798
0.011829
0.013362
-0.005160
-0.005850
0.013267
0.014999
-0.006097
-0.006877
0.014998
0.016608
-0.007215
-0.008168
0.016623
0.018373
-0.008510
-0.009473
0.018410
0.020207
-0.009891
-0.010939
0.020232
0.022204
-0.011391
-0.012570
0.022337
0.024236
-0.013054
-0.014276
0.024366
0.026399
-0.014748
-0.015977
0.026423
0.028574
-0.016506
-0.017896
0.028677
0.030912
-0.020148
-0.018619
-0.021822
0.030825
0.033218
-0.021004
-0.023478
0.033163
0.035695
-0.023115
-0.025700
0.035564
0.038140
-0.025491
-0.028240
0.038051
0.040624
-0.027960
-0.030764
0.040506
0.043258
-0.030493
-0.033403
0.043225
0.046058
-0.032966
-0.036048
0.045760
0.048514
-0.035636
-0.038772
0.048453
0.051239
-0.038362
-0.041702
0.051135
0.053944
-0.041198
-0.044550
0.053756
0.056978
-0.044014
-0.047623
0.056502
0.059570
-0.046961
-0.050505
0.059219
0.062424
-0.049934
-0.053606
0.061927
0.065223
-0.052884
-0.056767
0.064686
0.067985
-0.055924
-0.059893
0.067378
0.070829
0.073332
-0.059066
-0.062992
0.070799
0.074855
-0.062102
-0.066247
0.073044
0.077572
-0.065051
-0.069340
0.075774
0.080255
-0.068154
-0.072518
0.078459
0.082786
-0.071181
-0.075660
0.080802
0.085253
-0.074358
-0.078708
0.083300
0.087583
-0.077265
-0.081766
0.085691
0.089912
-0.080156
-0.084704
0.087819
0.092127
-0.083039
-0.087786
0.089896
0.094266
-0.085770
-0.090661
0.091947
0.096285
-0.088505
-0.093275
-0.096311
0.093925
0.098178
-0.092157
-0.097764
0.095626
0.099999
-0.094115
-0.100428
0.097366
0.101646
-0.096883
-0.102654
0.098898
0.103201
-0.099164
-0.104861
0.100359
0.104621
-0.101324
-0.106953
0.101680
0.105892
-0.103419
-0.109081
0.102799
0.107033
-0.105286
-0.110811
0.103822
0.107914
-0.107022
-0.112656
0.104719
0.108799
-0.108546
-0.114094
0.105461
0.109406
-0.110053
-0.115484
0.106111
0.109944
-0.111264
-0.116783
0.106547
0.110372
-0.112312
-0.117697
0.106698
0.110488
-0.113226
-0.118585
0.106875
0.110605
-0.113978
-0.119229
0.106794
0.110729
-0.114565
-0.119726
0.106706
0.110401
0.110701
-0.114926
-0.119933
0.106600
0.109745
-0.115107
-0.120065
0.105825
0.109079
-0.115057
-0.120096
0.105184
0.108179
-0.115011
-0.119822
0.104346
0.107219
-0.114594
-0.119311
0.103388
0.106220
-0.114103
-0.118850
0.102249
0.104977
-0.113502
-0.118009
0.101156
0.103664
-0.112563
-0.117046
0.099775
0.102194
-0.111521
-0.115987
0.098307
0.100702
-0.110100
-0.114612
-0.114290
0.096743
0.098951
-0.109492
-0.112252
0.095032
0.097196
-0.106899
-0.110671
0.093316
0.095304
-0.105559
-0.108795
0.091440
0.093308
-0.103614
-0.106867
0.089491
0.091424
-0.101697
-0.104680
0.087439
0.089209
-0.099568
-0.102478
0.085387
0.087015
-0.097474
-0.100185
0.083195
0.084729
-0.095207
-0.097882
0.080944
0.082412
-0.092802
-0.095476
0.078709
0.080035
-0.090375
-0.092650
0.076367
0.077764
-0.087817
-0.090170
0.074008
0.075258
-0.085207
-0.087432
0.071636
0.072760
-0.082620
-0.084719
0.069214
0.070238
-0.079956
-0.081876
0.066633
0.067665
-0.077162
-0.079118
0.064029
0.065306
0.063592
-0.074485
-0.076127
0.061779
0.061312
-0.071620
-0.073317
0.058810
0.058780
-0.068886
-0.070410
0.056330
0.056260
-0.065983
-0.067486
0.053775
0.053828
-0.063137
-0.064608
0.051403
0.051353
-0.060276
-0.061727
0.049110
0.048996
-0.057593
-0.058852
0.046762
0.046671
-0.054791
-0.055992
0.044529
0.044300
-0.052099
-0.053161
0.042143
0.042013
-0.049256
-0.050413
0.040031
0.039879
-0.046382
-0.047688
-0.045814
0.037879
0.037644
-0.043968
-0.043376
0.035740
0.035570
-0.040851
-0.040883
0.033680
0.033515
-0.038373
-0.038379
0.031794
0.031483
-0.035949
-0.035912
0.029792
0.029632
-0.033605
-0.033536
0.027864
0.027644
-0.031408
-0.031333
0.026121
0.025918
-0.029115
-0.029079
0.024371
0.024186
-0.027031
-0.026993
0.022739
0.022581
-0.024996
-0.024851
0.021088
0.020864
-0.023023
-0.022971
0.019604
0.019417
-0.021122
-0.021059
0.018027
0.017849
-0.019397
-0.019286
0.016748
0.016525
-0.017766
-0.017692
0.015287
0.015158
-0.016123
-0.016093
0.013912
0.013856
0.012994
-0.014647
-0.014543
0.012638
0.011948
-0.013233
-0.013126
0.011479
0.010859
-0.011879
-0.011776
0.010243
0.009931
-0.010676
-0.010594
0.009298
0.008842
-0.009415
-0.009386
0.008407
0.007971
-0.008368
-0.008305
0.007433
0.007056
-0.007308
-0.007225
0.006682
0.006362
-0.006376
-0.006380
0.005905
0.005610
-0.005494
-0.005554
0.005258
0.004935
-0.004731
-0.004623
0.004570
0.004302
-0.004003
-0.004018
0.004011
0.003763
-0.003258
-0.003502
0.003499
0.003232
-0.002731
-0.003012
0.002924
0.002790
-0.002125
-0.002458
0.002414
0.002333
-0.001775
-0.001938
0.002107
0.001923
-0.001346
-0.001568
0.001770
0.001569
-0.001048
-0.001224
0.001482
0.001296
-0.000651
-0.000884
0.001127
0.001070
-0.000439
-0.000617
0.000903
0.000802
-0.000307
-0.000442
0.000695
0.000621
-0.000118
-0.000249
0.000481
0.000421
-0.000019
-0.000010
0.000447
0.000342
0.000114
0.000070
0.000217
0.000213
0.000190
0.000130
0.000070
0.000225
0.000253
0.000232
0.000103
-0.000012
0.000197
0.000237
0.000036
0.000049
0.000317
0.000240
0.000093
0.000070
0.000183
0.000216
0.000046
0.000124
0.000209
0.000280
-0.000039
0.000100
0.000167
0.000204
0.000138
0.000056
0.000189
0.000125
0.000143
0.000144
0.000136
0.000115
0.000100
SCALARS strain_3 float
LOOKUP_TABLE default
-0.000158
-0.000171
-0.000287
-0.000181
-0.000295
-0.000155
-0.000315
-0.000285
-0.000501
-0.000564
-0.000406
-0.000521
-0.000619
-0.000657
-0.000893
-0.000699
-0.001408
-0.000545
-0.001894
-0.000605
-0.002495
-0.000386
-0.003125
-0.000157
-0.003932
0.000321
-0.004896
0.000514
-0.005995
0.001131
-0.007159
0.001804
-0.008478
0.002617
-0.009838
0.003461
-0.011494
0.004485
-0.013246
0.005791
-0.015127
-0.017230
0.006986
-0.019311
0.008477
-0.021711
0.010230
-0.024068
0.012036
-0.026508
0.013856
-0.029381
0.016109
-0.032141
0.018472
-0.035112
0.020888
-0.038193
0.023678
-0.041320
0.026531
-0.044716
0.029468
0.032598
-0.048084
0.035936
-0.051564
0.039443
-0.055059
0.043043
-0.058939
0.046862
-0.062587
0.050936
-0.066202
0.054767
-0.070204
0.059135
-0.074055
0.063365
-0.077860
0.067761
-0.081917
0.072253
-0.085801
0.076750
-0.089666
0.081478
-0.093589
0.086165
-0.097421
0.090755
-0.101366
-0.105015
0.095592
-0.108818
0.100249
-0.112375
0.105083
-0.116040
0.109768
-0.119468
0.114466
-0.122843
0.119015
-0.126073
0.123629
-0.129131
0.128160
-0.132053
0.132516
-0.134874
0.136703
-0.137571
0.140835
0.144813
-0.140015
0.148553
-0.142348
0.152424
-0.144493
0.155842
-0.146344
0.159107
-0.148099
0.162149
-0.149783
0.165028
-0.150951
0.167635
-0.152090
0.170131
-0.152973
0.172357
-0.153713
0.174178
-0.154112
0.175773
-0.154414
0.177231
-0.154512
0.178307
-0.154310
0.178991
-0.153920
0.179589
-0.153174
-0.152261
0.179937
-0.151442
0.180058
-0.150065
0.179668
-0.148644
0.179288
-0.147113
0.178384
-0.145299
0.177479
-0.143318
0.176165
-0.141298
0.174548
-0.138992
0.172706
-0.136361
0.170582
0.168429
-0.133788
0.165997
-0.131144
0.163256
-0.128453
0.160445
-0.125545
0.157199
-0.122347
0.154021
-0.119212
0.150716
-0.115996
0.147114
-0.112834
0.143560
-0.109482
0.139640
-0.106052
0.135695
-0.102614
0.131634
-0.099208
0.127702
-0.095761
0.123485
-0.092326
0.119132
-0.088779
0.114938
-0.085299
-0.081836
0.110706
-0.078493
0.106219
-0.075014
0.101974
-0.071730
0.097803
-0.068479
0.093502
-0.065165
0.089227
-0.061975
0.084828
-0.058880
0.080734
-0.056004
0.076856
-0.052809
0.072835
-0.049900
0.068559
-0.047279
0.064771
-0.044548
0.061065
-0.041894
0.057310
-0.039202
0.053809
-0.036719
0.050223
-0.034410
0.046778
-0.032183
0.043545
-0.029940
0.040559
-0.027910
0.037638
-0.025881
0.034727
-0.023838
0.031873
-0.022008
0.029312
-0.020476
0.026801
-0.018628
0.024626
-0.017182
0.022287
-0.015734
0.020231
-0.014415
0.018151
-0.012969
0.016193
-0.011841
0.014583
-0.010685
0.012871
-0.009608
0.011459
-0.008541
0.009965
-0.007648
0.008891
-0.006813
0.007682
-0.005972
0.006561
-0.005197
0.005596
-0.004488
0.004846
-0.003845
0.004027
-0.003270
0.003381
-0.002800
0.002509
-0.002423
0.002165
-0.002028
0.001541
-0.001510
0.001279
-0.001144
0.000939
-0.000885
0.000679
-0.000608
0.000361
-0.000630
0.000085
-0.000280
0.000090
-0.000209
-0.000099
-0.000128
-0.000197
0.000016
-0.000201
-0.000030
-0.000212
-0.000018
-0.000212
0.000144
-0.000244
0.000054
-0.000183
0.000056
-0.000153
0.000093
-0.000119
0.000007
-0.000176
-0.000171
-0.000243
-0.000151
-0.000373
-0.000199
-0.000272
-0.000336
-0.000502
-0.000418
-0.000600
-0.000778
-0.000637
-0.000979
-0.000703
-0.001520
-0.000652
-0.001976
-0.000503
-0.002596
-0.000321
-0.003262
-0.000164
-0.004076
0.000317
-0.005196
0.000662
-0.006172
0.001276
-0.007375
0.001848
-0.008706
0.002512
-0.010326
0.003347
-0.011822
0.004508
-0.013480
0.005607
-0.015389
0.006816
-0.017472
0.008385
-0.019568
0.009884
-0.021904
0.011774
-0.024265
0.013774
-0.026864
0.015762
-0.029424
0.018092
-0.032247
0.020562
-0.035127
0.023023
-0.038064
0.025715
-0.041341
0.028678
-0.044453
0.031778
-0.047890
0.035055
-0.051194
0.038285
-0.054708
0.041760
-0.058161
0.045356
-0.061734
0.049272
-0.065253
0.053044
-0.069021
0.056955
-0.072701
0.060964
-0.076276
0.065108
-0.079996
0.069298
-0.083556
0.073450
-0.087244
0.077831
-0.090848
0.082143
-0.094274
0.086482
-0.097780
0.090809
-0.101265
0.095066
-0.104655
0.099415
-0.107968
0.103639
-0.110970
0.107878
-0.113978
0.111922
-0.116872
0.115933
-0.119646
0.119886
-0.122212
0.123723
-0.124547
0.127337
-0.127002
0.130701
-0.129036
0.134076
-0.131035
0.137285
-0.132772
0.140135
-0.134263
0.142910
-0.135617
0.145558
-0.136846
0.147925
-0.137812
0.150008
-0.138507
0.151930
-0.138966
0.153565
-0.139369
0.154961
-0.139532
0.156243
-0.139441
0.157034
-0.139142
0.157732
-0.138664
0.158163
-0.138052
0.158307
-0.137115
0.158164
-0.136044
0.157800
-0.134791
0.157232
-0.133333
0.156299
-0.131752
0.155186
-0.129777
0.153736
-0.127875
0.152224
-0.125602
0.150455
-0.123471
0.148447
-0.121080
0.146174
-0.118565
0.143686
-0.115953
0.141110
-0.113284
0.138281
-0.110357
0.135296
-0.107475
0.132241
-0.104404
0.128922
-0.101344
0.125475
-0.098190
0.122069
-0.095039
0.118426
-0.091876
0.114771
-0.088645
0.110911
-0.085467
0.107306
-0.082238
0.103424
-0.079102
0.099499
-0.075626
0.095490
-0.072536
0.091628
-0.069435
0.087631
-0.066192
0.083506
-0.063183
0.079714
-0.060088
0.075839
-0.057205
0.072031
-0.054155
0.068238
-0.051434
0.064611
-0.048550
0.060983
-0.045919
0.057404
-0.043211
0.053952
-0.040626
0.050497
-0.038210
0.047218
-0.035650
0.044109
-0.033430
0.040949
-0.031307
0.038053
-0.029086
0.035173
-0.027047
0.032510
-0.024970
0.029877
-0.023002
0.027246
-0.021527
0.024867
-0.019685
0.022649
-0.018054
0.020512
-0.016462
0.018559
-0.015145
0.016737
-0.013633
0.014898
-0.012403
0.013334
-0.011299
0.011851
-0.009988
0.010312
-0.009052
0.009062
-0.007953
0.007768
-0.007152
0.006677
-0.006302
0.005633
-0.005461
0.004873
-0.004796
0.004018
-0.004247
0.003466
-0.003399
0.002652
-0.002935
0.002224
-0.002549
0.001575
-0.002040
0.001221
-0.001740
0.000855
-0.001400
0.000455
-0.001034
0.000305
-0.000783
0.000074
-0.000354
-0.000057
-0.000333
-0.000250
-0.000364
-0.000175
-0.000213
-0.000251
-0.000092
-0.000281
-0.000048
-0.000322
-0.000019
-0.000218
0.000072
-0.000315
0.000124
-0.000270
-0.000030
-0.000235
0.000041
-0.000104
-0.000175
-0.000192
-0.000153
-0.000285
-0.000302
-0.000236
-0.000178
-0.000229
-0.000258
-0.000295
-0.000297
-0.000284
-0.000405
-0.000387
-0.000349
-0.000346
-0.000458
-0.000511
-0.000538
-0.000390
-0.000466
-0.000581
-0.000626
-0.000622
-0.000808
-0.000544
-0.000691
-0.000985
-0.001166
-0.000666
-0.000745
-0.001299
-0.001505
-0.000631
-0.000590
-0.001918
-0.002097
-0.000478
-0.000497
-0.002327
-0.002802
-0.000439
-0.000303
-0.003002
-0.003384
-0.000130
-0.000061
-0.003759
-0.004329
0.000115
0.000334
-0.004700
-0.005310
0.000479
0.000824
-0.005763
-0.006364
0.000897
0.001304
-0.006890
-0.007626
0.001579
0.002030
-0.008121
-0.009125
0.002339
0.002900
-0.009560
-0.010641
0.003132
0.003834
-0.011103
-0.012195
0.004076
0.004755
-0.012865
-0.013960
0.005249
0.006002
-0.014814
-0.015952
-0.017716
0.006430
0.007459
-0.017032
-0.019205
0.007930
0.008851
-0.019137
-0.021589
0.009493
0.010724
-0.021666
-0.024057
0.011211
0.012547
-0.024049
-0.026673
0.013193
0.014654
-0.026728
-0.029182
0.015136
0.016746
-0.029405
-0.032068
0.017488
0.019141
-0.032251
-0.035209
0.019829
0.021678
-0.035153
-0.038076
0.022318
0.024342
-0.038152
-0.041390
0.025196
0.027168
-0.041278
-0.044609
0.030546
0.028089
0.033221
-0.044549
-0.047926
0.031644
0.035545
-0.048025
-0.051361
0.034899
0.038816
-0.051332
-0.054932
0.038570
0.042596
-0.054829
-0.058533
0.042204
0.046409
-0.058354
-0.062227
0.045989
0.050291
-0.061973
-0.066049
0.049700
0.054304
-0.065653
-0.069807
0.053601
0.058254
-0.069444
-0.073599
0.057676
0.062639
-0.073126
-0.077413
0.061660
0.066908
-0.076819
-0.081203
0.066027
0.071265
-0.080730
-0.085086
0.070244
0.075686
-0.084427
-0.088999
0.074582
0.080309
-0.088221
-0.092724
0.079101
0.084753
-0.091837
-0.096698
0.083416
0.089386
-0.095662
-0.100500
-0.103881
0.087838
0.093969
-0.100133
-0.106123
0.092321
0.098648
-0.103169
-0.109574
0.096825
0.103214
-0.107039
-0.113140
0.101267
0.107737
-0.110464
-0.116624
0.105641
0.112263
-0.113688
-0.119858
0.110111
0.116707
-0.116851
-0.122918
0.114268
0.120999
-0.119853
-0.125860
0.118577
0.125324
-0.122896
-0.128785
0.122664
0.129654
-0.125492
-0.131465
0.126507
0.133804
-0.128061
-0.134057
0.130268
0.137391
0.141731
-0.130287
-0.136318
0.135562
0.143629
-0.132684
-0.138605
0.138171
0.147347
-0.134663
-0.140465
0.142018
0.150449
-0.136645
-0.142341
0.145106
0.153519
-0.138189
-0.143942
0.148235
0.156412
-0.139733
-0.145262
0.150888
0.159231
-0.140947
-0.146497
0.153604
0.161645
-0.142095
-0.147543
0.156020
0.163948
-0.143027
-0.148255
0.157895
0.165865
-0.143584
-0.148918
0.159610
0.167570
-0.144131
-0.149252
0.161262
0.169186
-0.144264
-0.149318
0.162549
0.170411
-0.144376
-0.149114
0.163453
0.171363
-0.144152
-0.149063
0.164455
0.171943
-0.143773
-0.148628
0.165089
0.172303
-0.143056
-0.147986
-0.147895
0.165213
0.172431
-0.142658
-0.146359
0.165162
0.172336
-0.141000
-0.145031
0.165129
0.171979
-0.139598
-0.143388
0.164447
0.171388
-0.138280
-0.141807
0.163718
0.170331
-0.136681
-0.140017
0.162668
0.169361
-0.134968
-0.138089
0.161524
0.167738
-0.132896
-0.135996
0.159818
0.166149
-0.130805
-0.133787
0.158111
0.164491
-0.128565
-0.131293
0.155729
0.162188
0.161568
-0.126068
-0.128572
0.154688
0.158511
-0.123606
-0.125956
0.150657
0.155808
-0.120804
-0.123080
0.148418
0.152755
-0.118010
-0.120191
0.145386
0.149781
-0.115073
-0.117163
0.142459
0.146615
-0.112276
-0.114223
0.139097
0.143064
-0.109199
-0.111039
0.135863
0.139656
-0.106188
-0.107873
0.132389
0.135909
-0.102997
-0.104519
0.128846
0.132151
-0.099754
-0.101201
0.125294
0.128386
-0.096432
-0.097910
0.121438
0.124565
-0.093230
-0.094396
0.117524
0.120547
-0.089831
-0.091054
0.113688
0.116374
-0.086495
-0.087575
0.109812
0.112298
-0.083160
-0.084180
0.105766
0.108064
-0.079505
-0.080816
-0.078630
0.101725
0.104066
-0.076442
-0.075433
0.097628
0.099907
-0.072627
-0.072137
0.093572
0.095575
-0.069230
-0.068789
0.089511
0.091409
-0.066043
-0.065648
0.085393
0.087192
-0.062764
-0.062520
0.081496
0.083189
-0.059712
-0.059467
0.077545
0.079209
-0.056797
-0.056300
0.073513
0.074957
-0.053876
-0.053423
0.069702
0.071059
-0.050900
-0.050469
0.065734
0.067297
-0.048038
-0.047607
0.061700
0.063401
0.060867
-0.045274
-0.044840
0.058208
0.057471
-0.042666
-0.042216
0.054039
0.053809
-0.040206
-0.039732
0.050574
0.050442
-0.037738
-0.037292
0.047173
0.047067
-0.035190
-0.034783
0.043925
0.043672
-0.032801
-0.032541
0.040859
0.040690
-0.030772
-0.030328
0.037927
0.037744
-0.028539
-0.028294
0.034985
0.034873
-0.026730
-0.026309
0.032305
0.032081
-0.024627
-0.024300
0.029691
0.029476
-0.022783
-0.022494
0.027036
0.026853
-0.021067
-0.020730
0.024788
0.024569
-0.019364
-0.019078
0.022546
0.022408
-0.017635
-0.017383
0.020322
0.020243
-0.016076
-0.016024
-0.014785
0.018323
0.018295
-0.014626
-0.013663
0.016597
0.016390
-0.013278
-0.012496
0.014814
0.014736
-0.011882
-0.011132
0.013258
0.013053
-0.010617
-0.010175
0.011856
0.011398
-0.009550
-0.009292
0.010352
0.010338
-0.008567
-0.008023
0.008856
0.008915
-0.007534
-0.007207
0.007758
0.007540
-0.006806
-0.006329
0.006752
0.006588
-0.005967
-0.005463
0.005686
0.005610
-0.005141
-0.004875
0.004714
0.004769
-0.004489
-0.004263
0.003985
0.004087
-0.003954
-0.003643
0.003076
0.003552
-0.003266
-0.003072
0.002495
0.002916
-0.002664
-0.002522
0.001853
0.002307
-0.002254
-0.002067
0.001502
0.001742
-0.002007
-0.001692
0.001127
0.001298
-0.001517
-0.001361
0.000565
0.001036
-0.001255
-0.001158
0.000594
0.000636
-0.001080
-0.000793
0.000310
0.000310
-0.000703
-0.000703
0.000006
0.000139
-0.000482
-0.000376
0.000025
0.000017
-0.000294
-0.000169
-0.000146
0.000002
-0.000137
-0.000119
-0.000298
-0.000137
-0.000018
-0.000073
-0.000352
-0.000209
0.000077
-0.000051
-0.000299
-0.000237
0.000010
0.000056
-0.000341
-0.000294
0.000115
0.000046
-0.000186
-0.000328
-0.000050
0.000082
-0.000151
-0.000213
0.000061
0.000087
-0.000074
-0.000152
0.000015
-0.000016
-0.000195
-0.000018
-0.000081
-0.000243
-0.000000
-0.000272
-0.000152
SCALARS stress_1 float
LOOKUP_TABLE default
-656.524865
-366.992736
-786.098034
-439.905520
-400.655647
-514.752330
-361.685371
-768.311839
-936.380383
-135.861244
-552.584048
-536.965399
304.316440
-601.933973
-514.417203
-594.839577
-149.664412
-584.405049
-183.822913
-629.750954
-570.651581
-190.070464
-563.710696
-471.761304
75.240868
-100.341763
-500.959447
-243.811841
-777.191078
-63.689825
-323.966354
498.391393
693.070455
446.473805
201.919350
836.557411
-946.371718
935.165919
-588.609576
1596.624440
-197.704277
157.537353
1866.577244
402.602984
2195.464050
-491.386822
2358.531401
-322.829790
3012.544130
250.515208
3479.941955
1079.015276
3806.296533
1142.628422
4443.722469
1404.475209
5136.911985
1430.043307
6083.581960
2138.495271
6834.822339
1300.114222
7693.952279
8126.501442
2442.900160
9425.349267
2569.136204
9504.790247
3078.749742
9880.938990
3856.463614
11306.487714
4438.277817
11539.153301
4519.198312
12426.025695
4694.429646
12918.351441
4903.857216
13720.895370
6625.041303
14540.097201
6941.029858
14965.528592
7260.587713
15853.954374
7477.275149
17049.343929
8773.344668
17457.372144
8983.152001
17475.538066
9341.829087
9514.894214
18183.841693
10034.316764
19272.650133
10588.777581
18882.005380
10803.806328
19399.039373
10786.523570
19823.752111
11171.223800
19671.275533
11272.262751
20655.211915
11876.772360
20772.368082
11418.270917
20136.273698
10860.727802
20202.856151
11447.190967
20207.392603
20448.942381
10474.425245
19992.342930
10587.990916
20615.123911
10042.140482
19834.092152
9389.638775
19790.735322
7957.575741
19090.697689
8334.746828
19611.466924
7065.771645
20038.614684
6094.650193
19108.140969
4965.309860
18483.135724
3898.473483
18472.405775
2822.833284
19093.480786
1338.389262
18368.758480
-490.166362
18533.298186
-1975.671032
17802.335072
-4104.637078
17538.928464
-4891.534837
-7141.997201
17903.915807
-9116.066164
17906.826763
-11570.682399
17513.149004
-13267.448181
17198.851910
-15364.833847
17459.935482
-17881.351726
17198.652222
-20492.194992
17187.808955
-21745.478253
16879.291076
-24052.394680
17293.905411
-26190.691774
17893.139629
18094.523394
-28472.369534
18872.454431
-30461.458577
18573.992067
-32128.471235
19115.094308
-34119.877842
19634.128262
-36250.840957
20148.623591
-37894.301251
20576.067967
-40003.023556
20419.623945
-41557.948546
21815.983746
-43168.678495
21517.147370
-44033.683740
22691.807037
-45724.157454
23088.685585
-46689.009694
23443.710402
-48136.240459
24652.881489
-48900.278092
24892.818454
-49439.634922
26000.316748
-50428.666682
-50845.885700
25982.466314
-51230.485152
26256.031985
-51200.935373
27323.266262
-50828.398921
26901.729428
-50653.816468
27784.186313
-50493.910852
28361.684869
-49820.754685
28578.194479
-49628.818303
28751.233430
-49141.294881
28947.933660
-47700.582143
29234.650901
-46719.548150
28789.679649
-45670.192904
29584.140466
-44525.384463
29055.563015
-43633.080836
29768.628142
-41486.914915
29463.305229
-40586.886699
28845.112562
-38967.497144
28149.182081
-37435.071362
27813.869517
-35041.639972
27717.427372
-33606.438140
27777.415927
-31899.894211
26634.600013
-30671.568465
26348.027583
-29184.696071
25547.258918
-27008.030485
24052.179412
-25158.481760
23785.993616
-23462.333018
22659.707487
-21718.892037
22121.321026
-20520.044213
21415.557069
-18459.495049
20514.343007
-17048.365110
19663.961958
-15949.124730
18224.413923
-14134.454755
18169.982020
-13065.265240
16595.828807
-11251.839303
15319.441953
-10865.484725
13699.942022
-8986.086900
13137.287019
-7984.074172
12181.844052
-6873.006820
11623.854246
-6400.120015
10320.919876
-5418.167211
8952.161506
-5172.708689
8615.066805
-4226.100182
7692.828948
-3828.016575
7296.537880
-3367.934163
5881.386774
-2769.852946
5122.423584
-2153.730930
4307.648308
-1713.201007
3451.416677
-1593.781466
3135.216362
-1983.472307
2482.167925
-2103.791817
2041.108810
-101.137721
1146.280143
-1030.703194
1280.121642
-675.608798
828.874432
-744.577371
882.140790
-1277.681526
611.041277
-1253.162387
138.769069
-1015.857399
-426.790440
-140.887124
-485.637250
-1251.444736
-457.017906
-461.760105
-1182.666862
-343.010962
-217.505320
-743.624745
-906.701286
-138.041172
-742.140154
-371.067069
-543.852541
-206.817040
-559.001005
-361.333081
-1298.664114
-203.452633
-1001.239594
1.902871
281.314550
-146.868842
-79.797132
-882.605217
-487.695203
370.537147
-170.337670
210.955976
13.082294
443.374106
17.004407
-33.852729
300.633218
1192.763138
708.848166
248.781990
638.456077
281.324390
747.059224
807.113176
1593.904152
542.106353
2155.828305
1267.791592
1423.240783
1458.524624
2999.346137
593.395394
3144.186360
1550.801627
3148.966003
1666.586723
3913.727060
1771.913240
4487.999194
2367.504015
4951.101561
2235.684162
5222.124106
2579.574244
6436.385984
3187.897098
6675.416860
2930.140394
7752.096170
3955.864414
7812.718410
4399.394272
8813.398185
4975.850530
9524.429991
5754.720858
10638.693264
6031.167812
11206.555112
6272.239344
11615.220086
7988.333179
12707.055291
7392.099544
12725.265279
7625.863550
13748.259150
9150.348038
14295.199461
9051.878119
15195.657869
9759.176632
15299.236650
10177.773241
15226.742628
11068.348790
16875.705469
11474.872660
17313.329721
11094.025697
17516.380217
11463.337564
17449.663783
12057.928824
17827.547524
12416.093973
17859.561106
12164.188741
18596.909079
12056.507624
19121.958549
12808.171184
18580.311791
12235.106811
18575.865577
12119.639617
18251.782462
11765.696991
19213.706716
11883.604047
19084.728285
10950.011010
18501.653992
10862.520156
19168.411228
10435.383986
18911.367099
9659.765058
18748.051268
8597.151041
19215.228567
8449.071598
18205.705822
7101.851844
18478.572979
5324.256609
18172.197143
4489.773565
18357.740872
2726.330098
17975.100937
1459.455873
17801.879611
343.476003
18165.239453
-693.682123
17738.637514
-2748.855949
17923.676070
-4500.588423
17736.282508
-6611.277270
18004.426211
-8237.037094
17693.594849
-10301.898514
17500.553254
-11968.373860
17770.831090
-13466.096025
18752.355744
-16323.137620
18135.494324
-18409.968982
18877.734499
-19573.825278
18839.045653
-20977.218840
19487.313179
-23240.180285
20144.139353
-25098.782224
19554.981226
-27383.422382
20311.001356
-28908.643707
21356.127132
-30155.283643
21288.683665
-31897.739914
21742.200620
-32676.115749
22052.605386
-34235.248593
22497.385631
-36028.771338
23205.306189
-36513.594038
24070.692172
-37540.909869
24023.073243
-38197.953998
24595.937074
-39459.196763
25492.446220
-40226.271055
25774.853183
-40419.249487
26180.760238
-40541.325233
26370.817612
-40529.408347
26799.350419
-41377.854561
27394.286045
-40839.501319
27473.949606
-40546.451849
27850.268489
-40197.103877
28394.363257
-39321.090295
28032.528405
-39399.206553
28263.119665
-38681.922987
27988.431532
-37446.872491
27851.584569
-36425.248239
28002.108440
-35752.285399
27944.683989
-34764.779420
27467.280597
-33221.200640
27902.579111
-31792.742231
26608.109192
-31177.801920
26468.593679
-29634.808049
26346.357686
-28792.598061
25926.124050
-26784.762856
25230.217885
-24724.097883
23639.289418
-23968.236035
23647.736372
-21789.972761
23290.606700
-20278.940956
21379.062957
-19270.261180
21086.592815
-18485.638940
20468.316836
-15928.959630
18574.560132
-15157.928755
18222.882986
-12971.666876
17634.773067
-12448.644331
16266.953214
-11993.541965
15586.543989
-10311.269831
14371.870506
-9258.508774
13215.655603
-8069.729131
12345.061835
-7428.888907
11727.932605
-6740.783553
10482.665637
-5821.371075
9932.350877
-4735.446922
8431.344054
-4024.601994
8325.132839
-4147.998847
6769.675239
-3050.390937
6337.694091
-2562.175989
5588.309959
-2782.547177
5031.083123
-2966.625064
4351.501254
-1459.205101
3703.920083
-1901.847567
3357.062447
-1813.745638
2497.326072
-1270.857321
2448.554358
-1252.303177
1325.909863
-938.878656
643.790310
-1166.541765
489.274270
-1349.690229
1021.524298
-1159.402616
348.498402
-346.841484
-193.918025
-688.037450
41.468192
-1334.875909
-190.550034
-467.782666
138.569021
-680.325823
-595.320222
-565.115152
-216.500382
-487.985316
-591.423715
-439.751549
-838.790765
-526.415699
-670.596643
-968.681787
-86.139323
-605.577483
-122.156924
-1047.140124
-833.323839
-1155.542014
-401.260700
-738.216119
-419.044284
-962.221909
129.934282
-12.352672
-1072.342738
59.274990
107.717019
-276.880395
-287.553769
-926.671090
135.414532
-433.607873
-367.604739
-765.705223
609.749658
-270.943817
-634.601467
-636.279202
-14.857125
-345.418836
-678.243642
-30.652853
99.052312
-141.855298
-607.770864
-484.637883
44.600425
390.301969
-63.596324
-229.916462
-301.872098
-248.212549
-547.807635
-329.555825
-57.897270
187.065471
252.395091
80.187708
-0.501061
129.383724
750.229167
338.373043
-12.963530
-458.647664
609.255836
162.821790
-170.937965
16.941227
873.025705
1110.991890
198.238084
180.906012
285.327263
1117.017961
355.171537
75.089826
952.575276
1008.401788
506.886326
795.334612
-250.753157
1821.227627
1999.014884
547.605792
83.431548
1592.091142
2317.352610
1068.551552
866.897715
1741.207814
2297.878980
521.057202
592.197484
2751.017361
3090.589944
788.997438
950.191396
3198.502451
3764.866434
585.835698
1060.116355
3703.357983
3447.280937
1379.822971
681.618713
4522.210121
4532.218490
2389.768632
1463.376691
4626.370156
5523.484201
1667.508214
1687.693963
5705.170235
6257.902869
2421.593304
2457.503874
6715.893770
6829.922036
2811.969221
3014.744648
6962.392097
7038.610856
7904.979880
3534.445471
2791.355052
7453.804781
9001.529611
2715.598896
3376.230253
8401.691983
9764.283425
3989.510980
3802.911291
9000.945853
10618.819743
3804.953107
4371.424429
9780.837960
10964.663037
5274.996522
4805.602304
10172.373225
11476.597687
5134.853639
5533.310688
11459.506759
11896.351485
6222.983653
5974.768030
12055.669118
13211.283613
6326.942795
5980.001131
12899.027739
13890.686427
7329.656545
6709.629598
12947.197583
14403.829761
7236.478494
7135.843082
14482.602173
14510.452475
7760.430024
7920.285576
14309.758119
15702.328871
8373.690255
8359.994469
15454.099723
16314.546692
9525.686930
8688.033983
15940.854826
16412.197545
9243.901281
9123.570228
16324.737628
17001.263805
9299.786269
9801.518577
10502.056731
16547.637573
18143.557716
10585.700404
10420.073169
17155.994379
18453.633602
11095.686349
10676.816831
18655.337711
17835.346240
11693.649373
11264.733304
18200.034675
18122.906138
11657.736211
11112.337848
19104.586226
18775.181896
11941.865847
11725.665321
18418.347264
19987.432554
12204.922421
12466.837886
19184.660818
19434.399612
11906.176542
12353.902665
18561.218817
20209.579958
12478.637984
11582.617994
19395.918878
20107.222817
11565.193743
11493.454747
18987.065180
19947.715034
11593.416015
11634.082917
19098.429508
20198.969978
19991.941846
12005.862170
11777.624451
20078.353182
20169.602823
12012.681944
10631.218308
19755.417981
20430.805973
11517.706898
9589.299619
18930.230723
19921.772099
10388.768676
9953.800899
19550.939716
19864.299046
10104.449937
8627.977404
19077.014797
19971.548640
9537.514284
8461.157436
18785.902760
19245.647635
7742.822221
7825.831956
18896.447954
19100.192871
7137.031840
5834.670435
19160.724725
19467.623254
6638.563617
5601.445785
18817.294415
18749.448168
5305.845895
3884.997682
18674.763059
18943.153042
4774.988691
2827.236397
18154.143940
19096.891854
2428.223680
1819.312878
17546.691470
18342.874804
1686.147336
210.224635
19212.600963
18812.281493
224.860268
-1537.818860
17759.397801
17468.952085
-1660.259565
-3807.968322
18394.101750
17400.228215
-3501.221847
-5644.852474
-6813.993601
17549.244074
17591.648530
-6115.600140
-8219.287095
17808.847251
17778.389355
-7532.447646
-10466.137171
18318.359155
17394.751971
-9423.870601
-12019.736548
17949.460077
17919.056904
-10801.467314
-14646.547569
18047.965495
17693.059751
-13454.729662
-16984.128825
17908.050711
18251.182911
-15006.801849
-18667.038190
18510.701669
18077.945472
-17121.511543
-20193.708090
18458.994168
17972.319220
-18725.217711
-22459.637263
18678.265516
18328.806801
-21101.896798
-24127.351001
18515.932708
18301.921328
18585.980726
-22856.248615
-26264.652170
19197.159875
18084.137124
-24636.940472
-28467.571620
19562.511244
19503.518700
-26262.970463
-30521.863639
20100.708580
20266.467355
-28816.219933
-32156.109582
20907.902833
19703.874125
-30786.708662
-34092.880585
20288.740086
20488.617601
-31484.578056
-35700.705289
21436.989977
21273.756147
-34012.806734
-36992.247456
21635.639177
21116.985394
-34619.154109
-38755.431196
21368.852153
21820.027932
-36619.673550
-40631.845251
22154.559264
22732.253314
-38137.848678
-41913.647066
23078.611237
23284.204490
-39077.974528
-42945.168193
23722.434507
22921.602927
-40164.835406
-44298.534655
24108.465282
23809.761576
-41267.288271
-45230.366062
24342.370583
25363.902029
-42155.270610
-45946.526440
24896.319464
24986.613817
-42447.696526
-47244.898912
25417.389414
25632.213954
-42849.051294
-47205.509423
-47406.342148
26028.357182
26247.627922
-44603.464407
-47326.961941
26493.108162
26609.620550
-43726.093322
-48388.293492
26359.569741
27244.486335
-43999.486616
-47142.160093
26992.506753
27879.345841
-44038.661071
-47259.466544
27230.202317
28563.843335
-43966.761587
-46986.886026
27583.359489
28576.395784
-43446.789069
-46586.314261
28003.853134
28155.481391
-42822.413740
-45642.055504
28304.821905
29337.244533
-42643.214892
-45070.896493
28694.142864
28544.710641
-41306.242325
-43924.553061
28568.808089
28704.605674
-40675.147637
-43624.328093
28984.321414
29642.554235
29059.685294
-39386.202030
-41974.252207
28762.548136
29259.162545
-39157.007780
-41348.723128
28193.517084
28566.868182
-37637.775395
-39471.309774
29514.321071
28507.275343
-36434.397596
-38067.405341
27651.329212
28292.198883
-35179.363424
-36856.957770
27396.678399
27661.287628
-33128.088474
-36180.599123
27025.412185
27587.014611
-32223.922520
-33819.238145
26828.365084
26631.787852
-30840.529074
-32378.917368
26456.396479
26767.690728
-29747.395805
-29950.738347
25869.904061
25010.395767
-27772.829124
-28601.940838
25496.956658
25587.635274
-26391.104517
-27499.545218
24353.415834
24791.255928
-25016.639606
-25643.181686
23748.753295
24003.912470
-23142.201612
-24523.178590
22648.713029
23129.486320
-21705.587893
-23075.301475
21962.985505
22414.223699
-19673.283841
-20384.782391
-19325.794103
21246.048230
21172.704453
-18558.061752
-18257.632168
20564.854023
20316.091603
-16932.278297
-16593.389689
19326.492829
19351.814091
-15552.778448
-15923.655608
18358.241811
18067.134423
-14108.827917
-13977.462641
17595.263525
17165.215157
-12362.897210
-12595.843588
16708.938361
16508.973675
-11633.645613
-11949.587228
15301.449489
15077.278809
-9785.867455
-10308.369949
14476.025753
14353.486887
-9388.190444
-9429.942760
14225.513351
13585.730024
-8037.562040
-8306.440162
12682.823607
12026.218611
-7015.018278
-7010.564019
11620.655042
11620.690271
-6650.624445
-5801.809094
10874.777748
10926.125305
-5595.875535
-5789.826444
9337.141715
9861.333675
-4416.175233
-4909.608451
8618.392722
9398.586607
-3940.927220
-3963.517634
7451.120563
7975.473478
-4018.968939
-3791.090983
6719.065493
6520.890726
-3189.149749
-3064.823437
5748.254693
5791.097567
-2536.375117
-3303.752226
4807.073129
5361.831550
-2184.072015
-2534.660230
3931.708862
4650.015417
-1967.475613
-2341.520109
3695.641696
4696.571444
-1975.144284
-2240.098295
3382.810396
3640.856425
-1537.020840
-1850.496242
2883.685299
2410.828367
-1213.150088
-1718.059018
2297.302979
2207.118021
-1457.495628
-771.187320
1903.239144
1953.110600
-871.451964
-824.451204
1193.730869
1966.236894
-482.482396
-1013.102265
937.347904
793.413207
-1084.378088
-608.505969
1085.425136
515.333068
-750.921469
-1188.544783
-82.037434
-81.728733
-251.336574
-646.179063
494.092132
-267.993847
-451.426683
-1001.383666
391.404733
-384.341711
-834.759234
-662.534170
71.689862
-591.326837
-721.531224
-313.647947
-874.095467
-243.626231
-109.809197
SCALARS stress_2 float
LOOKUP_TABLE default
13419.483031
10902.732436
14039.319688
8210.995857
14116.302503
12358.383564
17433.906078
17956.548117
23603.085290
25852.126456
24093.489517
32871.871377
37168.748202
32414.892688
51955.369297
31471.858950
70553.066483
32062.071519
97114.824720
26869.816717
122768.071370
18882.049418
153150.949592
4491.754581
198862.886751
-10871.796515
245613.041046
-28920.603871
297725.126160
-50913.396210
358631.667490
-84349.361814
424132.551962
-116077.372565
486147.779574
-159857.428463
567095.732566
-207621.130113
650357.456063
-265218.793915
746350.460421
844887.790765
-325602.306792
953993.972494
-396301.525586
1066440.719290
-476419.352259
1180413.016111
-564951.960054
1315038.290321
-657893.205812
1450849.353637
-759028.307896
1584711.077942
-870580.806748
1732803.176917
-990252.207049
1886254.175962
-1118689.064282
2048634.916876
-1256241.868089
2208415.955141
-1395500.188991
-1544376.373471
2382621.290757
-1706698.135212
2560489.479205
-1873037.993937
2733571.189044
-2048307.490086
2921655.118915
-2228224.128342
3110693.268817
-2422890.464187
3304960.892873
-2613120.987263
3501339.961000
-2811810.599533
3692966.013640
-3021171.474239
3893608.907632
-3236429.468222
4100519.025218
-3456905.799845
4298940.193155
-3681692.642351
4503090.268285
-3909832.199064
4707517.602765
-4131474.153581
4906630.083520
-4364885.055710
5114188.349024
5309659.128002
-4597568.905451
5507824.217129
-4825248.891085
5697897.186928
-5062213.884495
5893741.690916
-5299615.247204
6077921.442776
-5528300.979213
6264967.922783
-5754270.442045
6438921.017860
-5988170.650741
6613045.366484
-6207558.650425
6777943.697378
-6428474.787578
6934653.807217
-6642504.393643
7080570.078243
-6852860.167259
-7059046.801393
7229256.337214
-7254315.137844
7354578.440971
-7440257.523095
7486956.741672
-7623183.002268
7601251.066076
-7793803.049965
7710054.924541
-7954861.553108
7808246.347148
-8101261.986298
7895226.497775
-8246741.567900
7971619.376420
-8372404.297913
8034207.651643
-8496104.665980
8087356.022084
-8602695.717223
8132034.983060
-8694297.798125
8166500.534571
-8777031.893645
8188747.171935
-8841106.696748
8197849.736951
-8902198.034193
8201160.755018
-8943986.598945
8188911.879655
8165411.922578
-8971931.232804
8131093.755670
-8991736.282252
8093108.685965
-8989345.221890
8036295.728505
-8983352.255042
7963798.536806
-8952845.381707
7898649.636269
-8918156.249727
7808059.981771
-8869289.904226
7715501.113750
-8807382.804763
7615303.987085
-8731287.996461
7504160.953934
-8647700.953922
-8548246.023626
7376584.014296
-8435700.190535
7251338.964847
-8308768.147611
7119282.330989
-8185321.022975
6975429.766237
-8049402.004907
6829330.428791
-7894683.439891
6677895.625688
-7733604.802528
6518969.530168
-7561203.251017
6344391.449266
-7396604.290041
6181080.398023
-7208159.919600
6010932.029956
-7026675.644377
5838405.299943
-6828362.765732
5659677.718341
-6639126.615105
5480125.285151
-6435127.192497
5302106.782008
-6230323.334033
5113454.734311
-6019469.009629
4938225.255138
4745786.869888
-5807602.708928
4566086.533437
-5599656.605171
4386763.899303
-5385594.346200
4204904.125686
-5167134.075174
4020058.519621
-4960519.965334
3839958.382468
-4745605.634441
3667594.382784
-4528345.285817
3493886.174088
-4320472.190739
3322860.711257
-4109409.710732
3160382.979248
-3905805.958873
2994549.616538
-3705561.454884
2836928.623128
-3511008.485085
2685904.637494
-3305835.395958
2526196.787753
-3117612.616981
2377841.885624
-2936614.351477
2241655.931107
-2755885.870722
2100540.374395
-2577618.536241
1969689.531889
-2400844.461112
1840157.200265
-2240999.293174
1711155.206282
-2083161.175589
1596530.331576
-1931334.281597
1479824.719306
-1785756.228957
1367482.196231
-1648545.160830
1262911.860386
-1513749.536774
1170675.222129
-1384471.386872
1071453.725980
-1262387.457001
982153.867255
-1148809.747162
897144.105515
-1039773.558714
813307.921034
-943056.223098
738593.600132
-842571.184833
670752.796325
-753854.443919
603995.939092
-670083.444874
532324.538791
-594567.345899
479300.039939
-525025.621594
423764.937855
-457918.558277
373879.692098
-396045.284068
331875.084303
-338504.987247
291197.257629
-293226.240451
243682.038836
-248088.058722
212978.525958
-205102.728378
179876.862156
-169605.724019
153057.160506
-135128.000523
122669.104608
-107620.047530
104813.093857
-77588.819919
78625.128253
-58903.935447
64760.335914
-49757.394116
48967.528558
-31837.309003
29731.977462
-18655.154708
27293.682626
-8063.217549
9081.915327
4111.660674
9169.660524
9204.907324
2799.873094
11174.665560
-1439.160645
12492.362746
4199.860667
17102.983841
-3724.394413
11554.242527
-1555.353247
11323.183926
389.825965
9961.348479
-916.570460
8236.736187
2632.412356
6740.249012
12442.132875
15406.156080
8889.229278
18723.705166
16215.735329
19938.334572
14255.507867
31850.503856
30501.592016
26650.009695
36057.528216
32782.010290
53932.188350
33697.920077
77760.414216
29662.724015
101450.791379
29379.550221
128498.334879
18514.368615
170841.886517
7959.465513
206113.858615
-6638.030966
254945.266214
-33027.165945
304964.807954
-53457.796265
369972.370759
-87655.952009
429576.480027
-121689.346857
510890.992601
-163531.025933
583887.622161
-208564.004279
667475.067348
-261235.183858
761718.200044
-328235.406470
862801.545649
-394008.732279
963052.991085
-465897.191368
1080602.046711
-556333.655618
1202895.727568
-643236.155112
1325598.445977
-741277.561732
1458201.043740
-855250.221960
1595532.219497
-971871.706318
1741933.656847
-1094612.504449
1890817.069472
-1220350.186875
2051187.156012
-1365941.100078
2211564.441867
-1507036.957741
2383270.783878
-1666658.279587
2545399.865645
-1825924.606056
2723075.400849
-1993312.456873
2899457.914889
-2164201.545719
3078566.249565
-2347787.060877
3267394.787118
-2537955.032428
3454926.542589
-2726524.648655
3645060.883176
-2921029.939641
3826411.492479
-3118202.965549
4018287.069140
-3325400.884579
4211989.296757
-3536776.915097
4401002.873971
-3741378.072143
4590471.454300
-3955753.400841
4775032.608266
-4168839.247672
4958748.132546
-4383049.642720
5137183.597662
-4598868.759225
5319850.657132
-4802941.642311
5484769.024637
-5018815.480260
5662630.180454
-5229314.619555
5829458.011506
-5427765.090278
5986167.998069
-5631954.080710
6135371.853824
-5826016.605894
6287484.247330
-6024212.200594
6428398.862187
-6214410.023010
6556802.366953
-6387577.960066
6681020.445227
-6556738.501403
6796200.464210
-6722984.692144
6903903.408859
-6880589.863731
6994597.631333
-7029837.204446
7082717.973431
-7159583.060771
7159696.960554
-7289543.605949
7227478.246218
-7400955.885102
7283667.514023
-7507610.387872
7332084.590728
-7599918.302541
7369026.001732
-7679140.787310
7392426.415594
-7750785.376943
7402837.485830
-7811963.086481
7406264.896041
-7860367.074125
7400579.314786
-7890759.017799
7380471.583863
-7911497.932544
7357404.025349
-7918953.149802
7311689.624202
-7914662.872895
7263631.920864
-7893626.576424
7201180.712011
-7862376.433631
7140440.523042
-7822136.790999
7056664.165674
-7772172.979968
6969658.308467
-7697744.188821
6875510.604938
-7626249.892159
6771768.881845
-7534716.293305
6657433.664588
-7436951.851819
6540870.749843
-7324403.582742
6414270.806169
-7208985.163998
6282218.818524
-7076261.753787
6148817.108986
-6937402.683550
5999140.519353
-6787090.269689
5846382.034584
-6644132.858685
5694362.119915
-6482787.781980
5532587.617145
-6317046.514175
5371735.337992
-6145153.228511
5215038.792815
-5965006.241388
5046908.936489
-5781925.899289
4880973.595774
-5600815.676815
4708376.424187
-5410328.732166
4530306.233446
-5218172.713184
4366393.692109
-5021714.634909
4192121.755054
-4826751.130143
4024243.932637
-4628364.515287
3854464.337937
-4433980.121781
3686561.812754
-4238616.266025
3522132.822321
-4043922.279463
3354850.351598
-3847446.448411
3193119.212304
-3657281.292594
3027389.374355
-3466906.925089
2876788.491269
-3278207.865619
2721865.374763
-3100940.400502
2569942.979716
-2928424.876223
2426617.132884
-2749543.722257
2275345.804186
-2574699.141928
2140440.647140
-2405605.564714
2009192.616623
-2246015.337097
1876042.697592
-2093051.760436
1755701.671684
-1946053.151132
1633356.380699
-1798382.810545
1515026.764471
-1655011.055075
1401514.792920
-1525878.517522
1303801.277762
-1400322.182845
1195312.188916
-1279123.668805
1105300.338099
-1163176.133602
1012386.011630
-1053767.051835
926876.689784
-956988.709824
840356.832122
-860899.423969
762541.918918
-771265.337428
693908.236492
-687837.924804
625615.438361
-603388.487454
554817.954003
-530009.311697
494333.293775
-463950.713934
437379.887156
-406431.995524
391069.387662
-347754.314668
337928.923411
-300189.259042
297992.464322
-251697.813605
257035.138513
-202374.468001
215346.915901
-173139.335305
183507.736322
-139727.890117
157178.757976
-107979.260557
125417.078900
-85064.747984
109655.684052
-58404.638715
82481.528308
-39109.075911
58242.897988
-24593.534170
53949.763009
-14546.126572
43400.266530
-1050.154474
29773.363429
-370.602836
21932.181822
8100.940664
12769.008028
12783.317827
3757.811966
9443.543694
1953.721753
16118.203827
3221.722348
10410.140027
1589.228187
13744.224176
413.397472
16071.996714
-51.973123
6614.502765
2049.575964
712.999608
10517.599169
14606.364498
6910.802118
13382.929069
12519.788776
16397.456162
11569.869258
8897.743255
18825.509642
14718.004582
11207.967086
11853.953340
18922.121636
15828.085744
10253.146681
18190.579158
23305.778731
23697.312822
29211.384519
22861.048632
25839.821636
29793.451548
31501.990758
32147.787594
38213.712303
30394.895583
29242.550230
44956.037799
56965.819478
31274.252796
25931.250290
71328.582461
81107.434427
27475.552666
26130.260704
92046.120219
107712.855008
22833.953238
26128.647658
116453.515703
134073.327660
17671.185401
10371.288710
151760.257890
172206.030247
10137.620363
6911.141761
190937.881172
213604.777100
-2559.951297
-15501.764797
231670.494208
262786.262018
-27939.524210
-30354.206811
284205.648851
320039.183384
-45790.676087
-59724.735662
347337.273715
381593.479011
-73017.717153
-95550.839812
405436.752706
447405.208691
-105282.791001
-129415.577581
473922.779237
523561.752551
-139599.605704
-172266.300205
549922.856914
603060.346354
-196966.879324
-228915.730859
640802.102634
694942.889333
-248745.767166
-286135.387024
732601.041938
790543.325873
871662.544688
-304240.014442
-357109.730093
846774.543761
946518.806931
-369230.666275
-419709.442242
947835.524501
1069880.708903
-448518.594546
-500131.453251
1067208.755927
1190721.354296
-531185.656096
-586213.917630
1184588.594074
1317446.873520
-617392.029843
-684212.415804
1321581.246286
1450034.978117
-716388.582121
-787942.233427
1457616.924430
1591250.442087
-824148.917507
-903688.402437
1592828.775496
1738644.591580
-943302.960255
-1024344.227359
1737576.858074
1893772.382792
-1061166.605747
-1155845.481898
1892132.742556
2045339.738405
-1191964.949236
-1291864.784235
2047917.253846
2214964.668321
-1439554.416103
-1333618.672975
-1573499.130104
2205551.985167
2385618.765894
-1509997.732275
-1685482.565907
2380345.433541
2553699.024910
-1659813.026780
-1844603.650796
2551556.778167
2729002.023682
-1833710.445827
-2024224.544045
2729343.077350
2916342.182859
-2004135.058176
-2204520.029148
2906510.146372
3106326.246295
-2184165.282148
-2391515.372654
3095004.308883
3289629.174863
-2369585.560596
-2586476.115822
3276712.941857
3479866.219213
-2556455.947378
-2786594.194646
3467791.747626
3676245.383444
-2753925.513473
-2997715.183748
3661002.295136
3870695.831433
-2952701.226942
-3197354.552053
3854439.416411
4081476.758341
-3158929.562665
-3415618.544189
4045877.444879
4278233.206883
-3363080.936246
-3633287.508214
4243225.862521
4472159.288317
-3580630.875198
-3851637.382646
4438175.910274
4675123.675802
-3796965.976565
-4070198.791700
4635527.669943
4872804.897273
-4010815.434175
-4297012.263557
4829023.814638
5078991.603991
5255153.821969
-4234117.553079
-4522729.172667
5065648.630844
5375719.261885
-4447874.190117
-4746222.916311
5238557.315769
5567481.337424
-4675949.691771
-4976488.157373
5438398.804825
5757248.897582
-4894387.246325
-5200815.671812
5619069.166540
5936793.289494
-5112568.303971
-5429228.514655
5796082.752911
6113981.331825
-5333526.910500
-5644166.381097
5964188.376168
6282176.209705
-5541976.504869
-5872331.992493
6133516.106122
6445602.372661
-5752826.941025
-6083502.232448
6292575.396121
6611554.809880
-5956850.542118
-6297017.364578
6446789.258052
6758483.451295
-6152765.326304
-6514736.830264
6591694.057000
6902753.247182
-6349564.034715
-6691135.130639
-6912227.353903
6727917.056174
7044456.706287
-6613543.784320
-7012408.502675
6861322.983537
7168947.609206
-6759698.886367
-7208959.600069
6979075.416046
7286576.361140
-6956897.165172
-7362716.297965
7099666.540188
7398014.952055
-7115377.068262
-7525989.555570
7197619.103597
7492648.045335
-7269594.932557
-7674110.954745
7290634.420380
7586658.988576
-7414715.078800
-7827485.572399
7371925.126488
7669142.201853
-7551475.994623
-7959983.373146
7443638.942855
7738354.330893
-7683054.810283
-8085186.867640
7506448.734111
7800386.232574
-7790155.780940
-8184929.732714
7567787.718622
7845531.071774
-7894444.116387
-8285208.006922
7611616.617986
7885154.014519
-7981853.792219
-8372500.346955
7633340.313285
7916233.022529
-8061111.356664
-8450407.156938
7658662.817765
7926954.297665
-8121882.709702
-8510405.765417
7665685.421819
7933119.012144
-8185730.307611
-8555449.260768
7663709.557411
7936313.159534
-8222092.567313
-8590800.434286
7649390.343593
7913557.215642
7932084.980503
-8246674.363844
-8609168.996744
7642316.493526
7868870.101730
-8256052.917975
-8619152.892463
7582017.464928
7819637.259870
-8261661.383550
-8616055.454333
7527247.291646
7750271.901235
-8252725.052398
-8596246.736712
7476623.292458
7687997.757683
-8223245.798270
-8563286.782739
7412982.125667
7610739.395601
-8193180.338410
-8529012.349272
7337519.901312
7520798.526134
-8143040.235961
-8466349.332675
7238860.914539
7431917.218604
-8070358.495485
-8397212.368287
7154107.777727
7330367.650982
-7996375.133149
-8327240.483075
7043598.437003
7209951.231325
-7899342.398588
-8219984.106428
-8202921.639656
6936653.113677
7090096.207487
-7858990.928752
-8060791.012931
6817405.495820
6967004.420861
-7665400.499893
-7943944.974236
6685284.683045
6837539.036768
-7574162.922342
-7804015.334590
6549585.289420
6692337.493104
-7433701.284705
-7664841.484869
6413268.452967
6543725.312783
-7308285.161722
-7517386.350369
6264773.710028
6391933.615211
-7149538.691667
-7357213.003000
6112819.394030
6233619.774594
-6992943.014023
-7188317.885437
5957099.348885
6076497.738149
-6825082.187379
-7017201.533228
5800321.521682
5898593.779509
-6659770.555564
-6840484.451591
5635403.541532
5737557.099385
-6490336.935973
-6658332.962603
5468796.344707
5568989.570581
-6302105.209852
-6471257.883787
5305806.870635
5390646.693668
-6118177.805103
-6275597.273972
5126117.612225
5211559.304768
-5929864.759060
-6075917.333589
4942049.540507
5034400.917969
-5740462.392351
-5872825.518634
4774358.011330
4851011.114582
-5535873.286312
-5669960.454528
4585827.130626
4670372.038775
4556033.437604
-5338751.105940
-5467632.572325
4427983.677624
4390546.552094
-5139384.310794
-5263446.045267
4210626.863603
4208723.810930
-4938926.232316
-5053781.393076
4027150.310765
4029694.303378
-4734485.043747
-4845434.902072
3851857.625653
3854012.585812
-4534230.189605
-4631534.459177
3679338.673068
3679568.043960
-4332963.833229
-4429683.770822
3514821.847421
3507172.821684
-4128796.147360
-4228250.136789
3346274.243148
3338871.264263
-3931962.979563
-4023614.105809
3180068.680166
3163760.906962
-3733025.053704
-3818339.189945
3017194.070600
3007776.914361
-3538427.117496
-3619726.357191
2866811.531088
2854527.147899
-3330196.964677
-3416571.189116
-3294458.390118
2706553.014392
2689641.404255
-3155647.975006
-3119293.114448
2555561.535554
2541672.668386
-2934469.916848
-2934348.027641
2412599.870535
2397245.190983
-2751107.761878
-2751593.244989
2266693.708608
2255427.300986
-2582401.837552
-2574672.833227
2123231.008213
2115055.929123
-2409456.124674
-2404621.499118
1995282.991941
1983529.819825
-2242823.138752
-2247318.978932
1863453.026992
1849481.605634
-2090621.594122
-2090940.499732
1742959.721761
1727718.574985
-1940561.136805
-1934379.061609
1619618.550847
1614318.337436
-1795877.309562
-1783688.079447
1508619.525730
1494356.981788
-1655944.422374
-1641711.029421
1401448.489377
1383853.668634
-1516471.951290
-1513278.883437
1288010.776815
1279789.126942
-1394352.033664
-1390374.209211
1189724.272200
1176820.172414
-1272393.592716
-1262529.947936
1091321.845838
1076077.833532
-1161372.950330
-1153123.908641
990874.815707
987510.649798
926009.580723
-1049413.272149
-1041146.048892
905238.658148
844270.168121
-945655.401677
-940985.616316
812412.142849
774364.924758
-853457.828556
-851179.415122
733616.402213
703337.573351
-767793.251427
-758873.684521
663176.250067
627167.970754
-675490.828490
-672417.582712
594202.120866
562877.743670
-597199.723619
-602565.849769
532566.338825
505169.260897
-529268.300326
-530873.585433
476169.155836
449340.243641
-459145.661630
-457846.925355
419165.099003
393038.472998
-403987.968908
-397005.669747
371436.288528
354751.839478
-345268.725409
-338739.761904
325674.850412
309790.461270
-286754.160080
-290534.516382
283366.223500
270342.997977
-241275.310058
-250397.514681
240999.112108
228508.149687
-195633.739872
-218836.229065
197955.247073
190005.035948
-155425.915502
-187631.646803
173776.359231
161124.583001
-125402.527699
-147063.267161
144273.290382
135940.367046
-97840.468753
-119134.089243
125218.374081
110289.486375
-76180.433523
-91100.246933
99820.858647
89684.112138
-54101.126826
-66835.107044
73315.041878
75447.093903
-35665.546047
-45824.132955
62880.750532
58380.019216
-20505.519522
-31784.698616
46289.227380
40023.589873
-11025.453897
-24111.029106
40170.724559
33637.303864
-2993.002690
-10658.252542
20821.408750
16497.054303
5437.291545
-272.235541
20407.176087
14648.838539
4718.364954
6857.551269
5765.233328
5893.346383
8987.490389
8547.009313
5757.655012
4661.831269
12646.349875
7958.231617
4373.242478
-3153.552619
18530.080357
14180.835686
490.338827
-552.497299
17518.681835
10389.112693
-2844.667894
-1934.228658
14716.792786
17400.869090
2434.082894
170.508277
10888.473373
9043.818560
-508.058113
-762.278215
11180.499557
572.794971
9870.587671
7651.874007
4270.572231
1950.533811
8321.156842
SCALARS stress_3 float
LOOKUP_TABLE default
-14498.179855
-19504.819891
-17016.369420
-8937.663415
-24470.734941
-10452.001803
-22264.094713
-22113.888127
-29797.224332
-41195.186394
-29843.322387
-42795.708132
-44661.227755
-40928.914735
-67806.828635
-42662.519206
-92675.062431
-37425.325606
-124026.187678
-38126.396531
-167370.079184
-28230.507576
-208201.268248
-7281.917274
-266973.629681
8810.053250
-330405.436247
35181.403995
-403539.625353
82482.813834
-482445.378702
119496.038469
-566635.647933
163966.288071
-659982.433046
232437.562639
-771364.384449
300185.751217
-889060.726544
374055.399337
-1012236.899569
-1144276.127927
466647.458637
-1284383.593323
571507.397819
-1438690.233162
675995.909990
-1595284.305975
800791.009384
-1768059.686575
936078.164703
-1952554.619260
1074462.614585
-2149330.314200
1229333.282201
-2341637.708801
1391804.468783
-2548617.984767
1571624.838972
-2759488.869334
1758620.952531
-2978271.027140
1954293.215569
2173437.656551
-3201924.458187
2393737.212884
-3438053.827114
2630057.927267
-3677438.846923
2869228.722872
-3916858.713552
3122587.900932
-4161753.427000
3389964.126085
-4419866.847845
3657407.958096
-4672143.493151
3934680.090072
-4928580.286091
4221850.536246
-5191522.695367
4518224.765320
-5455161.371386
4812184.015932
-5709634.299915
5109558.302315
-5976070.949657
5424769.121639
-6235014.488083
5735163.928371
-6491033.866831
6051912.248149
-6744877.315966
-6993307.514364
6367878.080973
-7240462.964853
6681731.182543
-7488228.073543
6994704.763030
-7727886.811967
7314242.592369
-7953794.117531
7629016.670559
-8184715.947534
7930822.767536
-8398981.253615
8233140.624766
-8608890.265841
8527833.466655
-8797925.663084
8824769.321668
-8986001.948176
9101840.476803
-9163085.771523
9387570.128000
9649790.332189
-9325651.118891
9900438.816607
-9482763.458985
10152871.609719
-9621333.959275
10381223.935930
-9738700.605527
10603442.613535
-9870668.837978
10803072.594173
-9969350.139564
10987820.696139
-10050633.922054
11171508.158072
-10132472.185449
11327510.979970
-10190092.642751
11468247.721597
-10235794.489896
11598445.607358
-10268959.425653
11702244.665719
-10289875.450022
11807829.155212
-10287556.261771
11865367.132770
-10265171.588136
11926308.584159
-10240198.610820
11970357.566313
-10200785.301356
-10147429.904045
11991499.806466
-10082837.629055
11993203.333085
-9995048.419456
11976838.964466
-9905094.016713
11931452.197777
-9802818.392362
11882291.033018
-9681762.728106
11815180.302719
-9535791.799541
11725183.231284
-9402550.529840
11624510.895540
-9254623.694598
11501858.519892
-9089962.461287
11366948.922634
11219314.132234
-8921238.829907
11048130.407223
-8733615.303288
10878413.804535
-8541977.063135
10681283.113998
-8355848.080981
10476592.091315
-8147130.629591
10260320.764950
-7935768.652034
10039215.953201
-7731304.162541
9794075.928832
-7513105.104180
9556590.993074
-7286747.218419
9298409.145929
-7061562.476791
9037140.688628
-6832119.654893
8764294.425233
-6608304.192961
8502306.642742
-6365572.090994
8213193.341156
-6141750.110356
7938857.108705
-5913355.432752
7656370.462453
-5672939.106541
-5446234.313429
7367911.962164
-5221249.829011
7077519.622070
-5003989.624821
6805610.274701
-4782803.973625
6515438.451354
-4566500.818489
6228514.166263
-4334364.963476
5939702.769020
-4126488.121587
5671489.756794
-3928010.264357
5382184.450712
-3721372.167380
5102942.620709
-3517094.089190
4836715.315146
-3318196.259851
4574656.576722
-3149766.679364
4309995.468032
-2959689.577794
4066168.017542
-2789995.744971
3817641.819145
-2614367.425193
3577558.370009
-2456228.618460
3343650.991261
-2283417.799137
3122659.452836
-2128635.512754
2909854.803094
-1991092.262142
2691125.874565
-1863678.033067
2508031.198546
-1723515.586894
2315232.789270
-1600323.454918
2129419.996330
-1472687.622906
1944375.351024
-1363455.397753
1786229.930178
-1250512.219694
1634007.216730
-1148973.424089
1479323.350102
-1051916.709706
1346018.330293
-958881.153373
1198016.961365
-873112.712390
1080443.530319
-789088.449353
971549.372512
-706188.335794
865382.487946
-636031.965605
753058.211980
-568824.779022
667054.817379
-515522.111406
583239.122438
-450193.661525
511768.189754
-397050.506206
435184.809154
-341311.406812
386558.736340
-302070.894640
319868.096501
-257498.955458
262544.631106
-215658.896159
215497.402747
-180509.248039
181633.229723
-158553.059460
132608.887627
-131969.784892
106090.936225
-114923.535291
73128.151111
-81974.310655
59049.881880
-68272.900816
41296.128531
-55597.550071
27041.939426
-38705.579548
4314.132860
-22108.989245
677.771427
-21877.100290
-3353.417637
-10674.171215
-8361.309144
259.022384
-16896.434390
3325.417914
-10884.668187
712.211310
-17518.269066
6151.689572
-17552.174434
1217.727511
-18561.608694
8020.597892
-9295.495018
10291.238120
-13945.833407
-6347.127401
-6017.316966
-9377.073889
-24313.057312
-15259.029479
-27854.590217
-16241.624066
-35578.194201
-27886.326352
-30414.946091
-25256.360741
-42967.348719
-47180.650406
-50001.674850
-77068.405517
-43449.776908
-96457.353309
-47335.913424
-132743.641359
-29610.874229
-169231.011133
-22227.176385
-220193.189868
-8749.882488
-272988.310906
17846.217633
-337544.115714
40240.348382
-413295.800231
72841.978463
-487820.316095
124338.590810
-580610.845010
167453.122829
-676156.855679
229344.798924
-786733.285508
292677.360564
-898879.330434
373195.500854
-1028132.200627
447956.947031
-1167105.077793
560800.664964
-1302222.913569
669342.137591
-1456011.148192
780990.575083
-1618749.523130
913329.460374
-1782116.171726
1049032.003637
-1967136.821215
1208366.233336
-2157534.667534
1362752.555582
-2345409.165153
1546017.530136
-2540187.251477
1713325.563108
-2753496.122443
1909072.682964
-2966940.959756
2105213.827109
-3181651.232119
2326823.038244
-3409086.394001
2549689.239540
-3635057.382808
2784966.473696
-3871601.380243
3020929.678119
-4106624.113542
3275896.608510
-4347020.233112
3532378.747805
-4595549.480420
3791893.851704
-4831994.764406
4058745.403144
-5083303.539539
4341380.367997
-5331439.001756
4613397.019027
-5564564.605528
4896520.594873
-5809699.546791
5183494.837002
-6049359.797080
5468262.969818
-6282357.762502
5760661.021787
-6515391.945888
6047136.475846
-6741418.753346
6332591.346228
-6969290.156410
6625080.857336
-7190577.092486
6897482.764872
-7392045.518873
7184081.097302
-7590168.387210
7448315.337563
-7779807.654799
7713975.241355
-7964214.259043
7980748.550146
-8141527.912946
8232405.048105
-8303304.070975
8475791.007996
-8455106.446133
8701267.381458
-8596810.492890
8930020.728254
-8725319.120183
9138842.272790
-8843728.586546
9339832.302062
-8943878.059450
9522796.571773
-9038441.266128
9700099.110389
-9123679.388286
9848801.932142
-9182332.397457
9989824.261438
-9217923.748110
10125792.658039
-9261711.426012
10230608.877648
-9286468.612867
10324079.193028
-9299135.021678
10398709.388348
-9287090.623977
10453195.205077
-9261794.874234
10513326.915978
-9234059.485451
10532784.836517
-9192430.184862
10537944.708162
-9130010.657002
10530762.817911
-9061481.160404
10516284.662934
-8972070.618239
10468233.061527
-8871549.533339
10416694.027922
-8768691.087407
10335791.590586
-8651065.524743
10237786.036517
-8507404.558348
10139107.121418
-8368800.159756
10022341.663582
-8221134.314733
9884951.160181
-8053884.204983
9730250.688040
-7896052.333338
9560551.988629
-7710226.412799
9397375.377413
-7543086.701898
9207567.127156
-7348056.885170
9011451.524857
-7152658.689850
8801121.116046
-6947508.374469
8592043.929190
-6747716.154861
8361888.251288
-6537059.758259
8127448.900635
-6332197.428964
7882555.891465
-6111110.607210
7646629.769307
-5902928.068594
7386722.562628
-5691995.798883
7138413.089725
-5476317.769611
6879939.623362
-5253960.225076
6617062.996068
-5034678.878279
6353886.949312
-4831986.504817
6093540.574154
-4616504.544926
5838228.416124
-4411952.046968
5573298.762222
-4210714.738176
5310908.157977
-4005150.834384
5060148.890389
-3796148.594124
4794474.022051
-3608622.261693
4549613.595664
-3411740.354157
4296294.659589
-3224274.843049
4064487.256524
-3051619.972668
3817948.449066
-2873272.518609
3588786.265680
-2700106.466639
3366572.300258
-2540554.333823
3142368.049970
-2381772.091694
2935377.108707
-2235320.515849
2727819.504935
-2074439.864818
2528420.042718
-1928796.899965
2344311.267585
-1803673.348525
2153625.983599
-1660798.244626
1979368.736290
-1550556.105332
1817980.616721
-1421189.174941
1653485.883422
-1313033.970518
1511277.885986
-1202908.736361
1366074.897180
-1099370.535065
1240911.735298
-1002721.323931
1111225.462935
-909204.179786
1005204.625622
-832977.059930
884407.754655
-748837.026958
778717.668331
-674660.052403
688507.170713
-601713.730158
602237.324394
-549195.500458
518752.674905
-475348.957196
447290.026309
-416706.071904
390919.651371
-365697.634413
319723.416748
-316164.161786
265053.580971
-275512.443852
224192.703806
-238286.997676
170139.833612
-201128.857385
141321.788686
-160324.295746
117209.358858
-144064.619650
81247.348188
-118710.087631
51784.819273
-95085.475284
37068.303409
-72051.845204
22500.618892
-49497.714455
7896.814084
-35253.614333
-17730.306953
-32016.320436
-11860.485688
-26168.622593
-16347.855463
-14523.583397
-24442.143512
-1161.719913
-20439.091304
-1169.821971
-30710.846415
10867.851898
-25723.136080
-7924.550730
-4117.170470
-297.302621
-7601.872756
-3508.906604
-14632.467342
-11690.439509
-14770.676931
-8770.422932
-19745.751920
-9646.380232
-14171.504759
-21668.053309
-16779.727641
-17908.715221
-14839.792381
-28071.520436
-27067.242307
-19196.571092
-18218.834277
-29397.576800
-28040.685865
-22002.198884
-21723.585342
-29886.182181
-38246.597477
-33769.074068
-21663.547744
-34751.936032
-40995.307108
-52624.833545
-41135.410412
-59871.070125
-46524.805922
-44031.020974
-65584.638894
-79765.810844
-45654.191594
-45220.488327
-95241.738930
-109258.361258
-40021.486217
-42031.610769
-115781.906459
-138096.085799
-37356.160686
-26732.444050
-161759.468267
-188472.229930
-35178.297029
-18463.337346
-210354.965881
-232305.798048
-14532.335005
-6892.511475
-254102.432032
-296220.548502
1820.671893
23019.959373
-310997.453091
-357196.779732
31505.272858
55150.033190
-386903.210531
-430229.600602
63320.777086
93598.979988
-459842.504009
-508988.189966
100428.796131
137259.167153
-546379.592111
-602203.762258
149371.593021
191148.307715
-640834.642671
-706021.248804
205789.029398
245155.463837
-745822.007515
-812723.056693
274357.324928
321636.218922
-862866.241996
-931756.700610
345971.350690
408726.853054
-991120.950523
-1070202.720209
-1183490.434320
426769.227867
497002.274509
-1136764.470779
-1285025.537548
536614.180865
603060.037476
-1279836.809928
-1438983.004931
630947.419854
707248.754819
-1445511.763589
-1608217.024729
741042.413536
835357.235846
-1603354.685153
-1770499.750514
867756.315149
968356.463830
-1780043.856604
-1956370.600046
1004571.239395
1117421.483127
-1955922.557465
-2143469.320701
1154286.426409
1279021.408685
-2142579.205196
-2344681.191078
1322437.194148
1446496.912491
-2332233.021290
-2547674.644080
1489583.370575
1624653.475117
-2544804.368322
-2753565.253288
1676328.525264
1816146.756494
-2752473.600046
-2979231.595867
2031615.008785
1874138.571866
2207842.525292
-2973137.678590
-3193782.677479
2116014.594809
2360570.831896
-3187058.090634
-3426645.384417
2328995.136093
2587155.064395
-3418005.877050
-3661192.980873
2568706.287442
2830184.524267
-3658134.371699
-3897082.432980
2806085.736654
3085200.730058
-3886427.238802
-4150926.024884
3051694.906387
3346085.769762
-4131223.907274
-4393803.738547
3308611.523819
3614256.428886
-4374901.819684
-4644735.878430
3569491.577310
3888506.434002
-4626753.635428
-4900697.839157
3830282.336039
4164687.585845
-4865492.016238
-5156523.032500
4109618.685058
4455767.563706
-5122956.155716
-5411700.346104
4395913.330297
4744209.582164
-5372896.016407
-5674221.018492
4680287.937389
5041805.414063
-5616717.343523
-5924640.645746
4971257.407119
5345888.436225
-5869361.888186
-6180266.130465
5265676.208608
5639392.819850
-6121477.602049
-6442010.683771
5559469.193026
5945943.483964
-6370671.786585
-6690844.135413
-6912108.093381
5853106.627895
6255586.220886
-6675742.815753
-7061626.168382
6149701.981918
6562039.422492
-6885318.349420
-7302305.661195
6445267.283560
6872191.662779
-7123714.547123
-7541726.213837
6739880.288524
7172778.564105
-7351370.679827
-7758433.493843
7039779.471173
7476189.928041
-7574462.649512
-7972744.940702
7332642.074150
7765915.194967
-7788928.874617
-8188666.821356
7607943.958176
8065018.496007
-7984390.811109
-8383311.591934
7890447.190269
8354839.070778
-8165014.422110
-8572410.949128
8162683.404369
8624337.425856
-8353935.960332
-8755983.349900
8431473.650969
8911789.787014
-8533340.615631
-8915766.380248
8677154.374242
9153719.582127
9443251.056093
-8682606.963418
-9070079.556300
9026577.940932
9566362.902059
-8835289.800522
-9228867.869742
9205313.361146
9810469.067929
-8969172.554100
-9355062.614071
9457890.446992
10025158.005046
-9103227.328134
-9477437.168585
9665918.892457
10224119.044964
-9204853.734035
-9581039.902253
9872188.891592
10422618.492634
-9302686.870642
-9677528.972679
10053152.092457
10603910.843308
-9387223.317773
-9757885.191559
10224527.578707
10767805.226482
-9461672.896215
-9818847.672343
10384609.659814
10918525.349194
-9508781.932757
-9871764.063462
10512191.966031
11055139.198335
-9568195.666037
-9917771.366633
10634277.195306
11165973.512332
-9602297.935079
-9938686.892435
10733045.003707
11253977.552037
-9597376.329253
-9950240.368681
10827693.172491
11340014.661540
-9613164.938308
-9940973.212527
10892764.719219
11412521.726154
-9596658.418904
-9926114.047700
10950211.188429
11448755.183508
-9572597.835450
-9903107.853154
10987645.903061
11478308.664229
-9517783.725062
-9847226.565300
-9845833.005263
11004005.562043
11491265.324868
-9491401.642882
-9749048.668046
11004215.389894
11484061.724785
-9398345.830644
-9654376.963914
10997098.177682
11453973.851822
-9303162.301629
-9556078.302841
10964647.903739
11415657.489311
-9208223.871141
-9448445.348114
10907399.789417
11351358.186110
-9114696.385693
-9328184.931485
10837266.192043
11276918.608214
-8985727.069258
-9192615.960941
10750592.590809
11179489.794360
-8844619.612191
-9056912.476646
10638631.995583
11067556.865027
-8708238.491881
-8908579.725968
10526766.656137
10945233.994125
-8554391.340800
-8737146.224358
10369353.950043
10793272.036917
10747290.830144
-8390589.358170
-8563343.034611
10293897.629313
10548213.421544
-8231575.144524
-8379189.952796
10029188.122386
10379900.257017
-8047015.751133
-8201976.091523
9886270.075285
10176234.377746
-7860191.064131
-8002213.741279
9677383.672122
9977467.912896
-7662074.450515
-7810434.613249
9492002.210600
9756409.950098
-7477815.438829
-7601422.533869
9270188.187009
9530871.285234
-7261291.991618
-7389039.587559
9048187.048356
9300922.000820
-7063383.555197
-7171177.735364
8821994.016136
9064365.563630
-6854194.047078
-6950007.725393
8580429.425030
8805910.249597
-6634579.094862
-6739905.540764
8339370.658343
8552515.743257
-6425382.312754
-6519542.496954
8090311.528709
8297831.471449
-6209374.803713
-6292433.121401
7826691.885641
8029940.363568
-5986802.280627
-6049696.002335
7573030.095457
7756112.515097
-5757423.389696
-5841964.223181
7306982.141851
7488345.582941
-5540406.761850
-5618676.692792
7041548.734236
7206437.731244
-5303431.930215
-5374539.828628
-5238309.925414
6773792.165690
6930460.298274
-5092089.335470
-5029882.012178
6498323.513042
6641091.298265
-4827365.564184
-4805373.650068
6230795.063288
6372204.773917
-4603301.220456
-4583571.796235
5956812.830664
6089829.787825
-4396472.050423
-4371233.337116
5685892.150528
5805671.291626
-4187698.687090
-4152501.983580
5421480.459948
5543501.339344
-3981829.921208
-3954552.464892
5161071.978184
5270536.990664
-3780113.460015
-3743700.816579
4894193.435280
4998599.821815
-3586278.337065
-3552084.617781
4638864.233441
4740695.060947
-3392011.909699
-3352217.478235
4385032.343538
4475465.529870
-3195838.646203
-3174316.056243
4116723.729209
4221462.224509
4053991.587412
-3018313.603093
-2988918.854637
3874657.616216
3829817.754922
-2840436.521836
-2817202.131948
3600308.866815
3591345.551684
-2670543.024790
-2647476.372366
3367384.353675
3362319.394171
-2510959.705429
-2477504.013201
3133281.545438
3131573.609056
-2350100.759274
-2319033.573191
2920394.664162
2915545.822067
-2198678.863123
-2170569.490913
2707114.693553
2709775.862263
-2054204.925916
-2033232.770359
2520378.210087
2514115.552505
-1907587.694781
-1881690.193204
2336990.594011
2317718.756598
-1770949.988014
-1751576.319789
2153520.015752
2131357.437864
-1648534.127161
-1625825.898076
1980176.378960
1955862.158977
-1510635.652665
-1505364.807547
1805234.202774
1796579.112547
-1395210.072011
-1388003.434976
1646188.835952
1638707.166801
-1283462.978688
-1266467.754921
1503221.826775
1490077.192904
-1186703.838489
-1161943.705379
1364188.835951
1346577.561642
-1079858.066495
-1063469.725044
-998554.415919
1231543.043456
1220506.922126
-970278.942801
-912099.008379
1098165.964437
1096042.133591
-874229.262954
-831517.079102
989372.158659
990530.469886
-783093.842874
-753383.022792
877428.822058
870088.093654
-715312.068838
-675690.687321
772446.227400
768473.277660
-639918.558722
-605087.714409
675593.786455
673718.978788
-571048.516704
-534778.557936
596604.944703
591632.291843
-500020.419916
-477149.504928
518170.329241
506412.777671
-450887.237973
-434545.342045
440369.502154
434434.558463
-394770.859086
-366158.241412
382389.442997
373541.845298
-348936.354001
-317962.615130
317742.532382
318029.930865
-301567.919075
-282459.504903
257898.117946
270857.330094
-248759.889250
-239299.807514
220480.842566
236615.226068
-210824.662479
-203727.772100
165614.814410
195903.720017
-181898.636718
-169424.392164
127383.998038
149917.513167
-141247.539200
-136725.212820
95621.838121
116963.258545
-130441.376006
-122933.628031
68800.203336
80756.748790
-96008.825172
-92323.733512
52437.223596
68468.762236
-75517.270839
-62536.314020
31479.384847
36483.882705
-69952.698773
-62873.192678
14660.417236
28016.107545
-44140.691541
-33513.054179
1287.315099
10547.584073
-39471.434178
-37583.091637
-8171.950028
285.102119
-25927.876332
-23655.569836
-14570.735894
-9223.335983
-14029.728010
-5658.794992
-4468.613168
285.736971
-4383.862768
-12697.335283
-17234.647353
-12538.397423
-5598.969710
-2547.232485
-20356.548542
-25345.925291
2186.153269
12298.854407
-29107.734324
-23666.109157
-3715.324137
4002.749703
-15648.204699
-11375.288284
6581.790510
-2833.887085
-3190.189733
-13574.499133
-6155.019236
-4893.443961
-18836.655298
-13834.679111
2161.903669
1834.884491
-971.223753
3728.252086
-12548.526285
-12980.868166
1056.547523
-8416.390017
-7593.320814
