# vtk DataFile Version 2.0
Generated volume Mesh
ASCII
DATASET UNSTRUCTURED_GRID
POINTS 1240 float
-0.212153 -0.150304 0.000000
-0.206421 -0.141033 0.000000
-0.215099 -0.146056 0.000000
-0.209122 -0.154492 0.000000
-0.217961 -0.141751 0.000000
-0.206009 -0.158620 0.000000
-0.220736 -0.137389 0.000000
-0.202815 -0.162684 0.000000
-0.223424 -0.132973 0.000000
-0.226023 -0.128505 0.000000
-0.199540 -0.166684 0.000000
-0.228534 -0.123985 0.000000
-0.196187 -0.170619 0.000000
-0.230953 -0.119417 0.000000
-0.192756 -0.174486 0.000000
-0.233282 -0.114802 0.000000
-0.189249 -0.178283 0.000000
-0.235519 -0.110141 0.000000
-0.185666 -0.182011 0.000000
-0.237662 -0.105436 0.000000
-0.182011 -0.185666 0.000000
-0.239711 -0.100690 0.000000
-0.178283 -0.189249 0.000000
-0.241666 -0.095904 0.000000
-0.174486 -0.192756 0.000000
-0.243525 -0.091081 0.000000
-0.170619 -0.196187 0.000000
-0.245288 -0.086221 0.000000
-0.166684 -0.199540 0.000000
-0.246953 -0.081327 0.000000
-0.162684 -0.202815 0.000000
-0.248521 -0.076401 0.000000
-0.158620 -0.206009 0.000000
-0.249991 -0.071445 0.000000
-0.154492 -0.209122 0.000000
-0.251363 -0.066459 0.000000
-0.150304 -0.212153 0.000000
-0.252634 -0.061448 0.000000
-0.146056 -0.215099 0.000000
-0.253806 -0.056412 0.000000
-0.141751 -0.217961 0.000000
-0.137389 -0.220736 0.000000
-0.254878 -0.051354 0.000000
-0.132973 -0.223424 0.000000
-0.255849 -0.046275 0.000000
-0.128505 -0.226023 0.000000
-0.256718 -0.041179 0.000000
-0.123985 -0.228534 0.000000
-0.257486 -0.036067 0.000000
-0.119417 -0.230953 0.000000
-0.258152 -0.030940 0.000000
-0.114802 -0.233282 0.000000
-0.258717 -0.025802 0.000000
-0.110141 -0.235519 0.000000
-0.259178 -0.020654 0.000000
-0.105436 -0.237662 0.000000
-0.259538 -0.015498 0.000000
-0.100690 -0.239711 0.000000
-0.259794 -0.010336 0.000000
-0.095904 -0.241666 0.000000
-0.259949 -0.005169 0.000000
-0.091081 -0.243525 0.000000
-0.260000 0.000000 0.000000
-0.259949 0.005169 0.000000
-0.086221 -0.245288 0.000000
-0.259794 0.010336 0.000000
-0.081327 -0.246953 0.000000
-0.259538 0.015498 0.000000
-0.076401 -0.248521 0.000000
-0.259178 0.020654 0.000000
-0.071445 -0.249991 0.000000
-0.258717 0.025802 0.000000
-0.066459 -0.251363 0.000000
-0.258152 0.030940 0.000000
-0.061448 -0.252634 0.000000
-0.257486 0.036067 0.000000
-0.056412 -0.253806 0.000000
-0.256718 0.041179 0.000000
-0.051354 -0.254878 0.000000
-0.255849 0.046275 0.000000
-0.046275 -0.255849 0.000000
-0.254878 0.051354 0.000000
-0.041179 -0.256718 0.000000
-0.253806 0.056412 0.000000
-0.036067 -0.257486 0.000000
-0.252634 0.061448 0.000000
-0.030940 -0.258152 0.000000
-0.251363 0.066459 0.000000
-0.025802 -0.258717 0.000000
-0.249991 0.071445 0.000000
-0.020654 -0.259178 0.000000
-0.248521 0.076401 0.000000
-0.015498 -0.259538 0.000000
-0.010336 -0.259794 0.000000
-0.246953 0.081327 0.000000
-0.005169 -0.259949 0.000000
-0.245288 0.086221 0.000000
0.000000 -0.260000 0.000000
-0.243525 0.091081 0.000000
0.005169 -0.259949 0.000000
-0.241666 0.095904 0.000000
0.010336 -0.259794 0.000000
-0.239711 0.100690 0.000000
0.015498 -0.259538 0.000000
-0.237662 0.105436 0.000000
0.020654 -0.259178 0.000000
-0.235519 0.110141 0.000000
0.025802 -0.258717 0.000000
-0.233282 0.114802 0.000000
0.030940 -0.258152 0.000000
-0.230953 0.119417 0.000000
0.036067 -0.257486 0.000000
-0.228534 0.123985 0.000000
0.041179 -0.256718 0.000000
-0.226023 0.128505 0.000000
-0.223424 0.132973 0.000000
0.046275 -0.255849 0.000000
-0.220736 0.137389 0.000000
0.051354 -0.254878 0.000000
-0.217961 0.141751 0.000000
0.056412 -0.253806 0.000000
-0.215099 0.146056 0.000000
0.061448 -0.252634 0.000000
-0.212153 0.150304 0.000000
0.066459 -0.251363 0.000000
-0.209122 0.154492 0.000000
0.071445 -0.249991 0.000000
-0.206009 0.158620 0.000000
0.076401 -0.248521 0.000000
-0.202815 0.162684 0.000000
0.081327 -0.246953 0.000000
-0.199540 0.166684 0.000000
0.086221 -0.245288 0.000000
-0.196187 0.170619 0.000000
0.091081 -0.243525 0.000000
-0.192756 0.174486 0.000000
0.095904 -0.241666 0.000000
-0.189249 0.178283 0.000000
0.100690 -0.239711 0.000000
-0.185666 0.182011 0.000000
0.105436 -0.237662 0.000000
-0.182011 0.185666 0.000000
0.110141 -0.235519 0.000000
-0.178283 0.189249 0.000000
0.114802 -0.233282 0.000000
-0.174486 0.192756 0.000000
0.119417 -0.230953 0.000000
0.123985 -0.228534 0.000000
-0.170619 0.196187 0.000000
0.128505 -0.226023 0.000000
-0.166684 0.199540 0.000000
0.132973 -0.223424 0.000000
-0.162684 0.202815 0.000000
0.137389 -0.220736 0.000000
-0.158620 0.206009 0.000000
0.141751 -0.217961 0.000000
-0.154492 0.209122 0.000000
0.146056 -0.215099 0.000000
-0.150304 0.212153 0.000000
0.150304 -0.212153 0.000000
-0.146056 0.215099 0.000000
0.154492 -0.209122 0.000000
-0.141751 0.217961 0.000000
0.158620 -0.206009 0.000000
-0.137389 0.220736 0.000000
0.162684 -0.202815 0.000000
-0.132973 0.223424 0.000000
-0.128505 0.226023 0.000000
0.166684 -0.199540 0.000000
-0.123985 0.228534 0.000000
0.170619 -0.196187 0.000000
-0.119417 0.230953 0.000000
0.174486 -0.192756 0.000000
-0.114802 0.233282 0.000000
0.178283 -0.189249 0.000000
-0.110141 0.235519 0.000000
0.182011 -0.185666 0.000000
-0.105436 0.237662 0.000000
0.185666 -0.182011 0.000000
-0.100690 0.239711 0.000000
0.189249 -0.178283 0.000000
-0.095904 0.241666 0.000000
0.192756 -0.174486 0.000000
-0.091081 0.243525 0.000000
0.196187 -0.170619 0.000000
-0.086221 0.245288 0.000000
0.199540 -0.166684 0.000000
-0.081327 0.246953 0.000000
0.202815 -0.162684 0.000000
-0.076401 0.248521 0.000000
0.206009 -0.158620 0.000000
-0.071445 0.249991 0.000000
0.209122 -0.154492 0.000000
-0.066459 0.251363 0.000000
0.212153 -0.150304 0.000000
-0.061448 0.252634 0.000000
0.215099 -0.146056 0.000000
-0.056412 0.253806 0.000000
0.217961 -0.141751 0.000000
0.220736 -0.137389 0.000000
-0.051354 0.254878 0.000000
0.223424 -0.132973 0.000000
-0.046275 0.255849 0.000000
0.226023 -0.128505 0.000000
-0.041179 0.256718 0.000000
0.228534 -0.123985 0.000000
-0.036067 0.257486 0.000000
0.230953 -0.119417 0.000000
-0.030940 0.258152 0.000000
0.233282 -0.114802 0.000000
-0.025802 0.258717 0.000000
0.235519 -0.110141 0.000000
-0.020654 0.259178 0.000000
0.237662 -0.105436 0.000000
-0.015498 0.259538 0.000000
0.239711 -0.100690 0.000000
-0.010336 0.259794 0.000000
0.241666 -0.095904 0.000000
-0.005169 0.259949 0.000000
0.243525 -0.091081 0.000000
0.000000 0.260000 0.000000
0.245288 -0.086221 0.000000
0.005169 0.259949 0.000000
0.246953 -0.081327 0.000000
0.010336 0.259794 0.000000
0.248521 -0.076401 0.000000
0.015498 0.259538 0.000000
0.249991 -0.071445 0.000000
0.020654 0.259178 0.000000
0.251363 -0.066459 0.000000
0.025802 0.258717 0.000000
0.252634 -0.061448 0.000000
0.030940 0.258152 0.000000
0.253806 -0.056412 0.000000
0.036067 0.257486 0.000000
0.254878 -0.051354 0.000000
0.041179 0.256718 0.000000
0.255849 -0.046275 0.000000
0.046275 0.255849 0.000000
0.256718 -0.041179 0.000000
0.051354 0.254878 0.000000
0.257486 -0.036067 0.000000
0.056412 0.253806 0.000000
0.258152 -0.030940 0.000000
0.061448 0.252634 0.000000
0.258717 -0.025802 0.000000
0.066459 0.251363 0.000000
0.259178 -0.020654 0.000000
0.071445 0.249991 0.000000
0.259538 -0.015498 0.000000
0.076401 0.248521 0.000000
0.259794 -0.010336 0.000000
0.081327 0.246953 0.000000
0.259949 -0.005169 0.000000
0.086221 0.245288 0.000000
0.260000 0.000000 0.000000
0.091081 0.243525 0.000000
0.259949 0.005169 0.000000
0.095904 0.241666 0.000000
0.259794 0.010336 0.000000
0.100690 0.239711 0.000000
0.259538 0.015498 0.000000
0.105436 0.237662 0.000000
0.259178 0.020654 0.000000
0.110141 0.235519 0.000000
0.258717 0.025802 0.000000
0.114802 0.233282 0.000000
0.258152 0.030940 0.000000
0.119417 0.230953 0.000000
0.257486 0.036067 0.000000
0.123985 0.228534 0.000000
0.256718 0.041179 0.000000
0.128505 0.226023 0.000000
0.255849 0.046275 0.000000
0.132973 0.223424 0.000000
0.254878 0.051354 0.000000
0.137389 0.220736 0.000000
0.253806 0.056412 0.000000
0.141751 0.217961 0.000000
0.252634 0.061448 0.000000
0.146056 0.215099 0.000000
0.251363 0.066459 0.000000
0.150304 0.212153 0.000000
0.249991 0.071445 0.000000
0.154492 0.209122 0.000000
0.248521 0.076401 0.000000
0.158620 0.206009 0.000000
0.246953 0.081327 0.000000
0.162684 0.202815 0.000000
0.245288 0.086221 0.000000
0.166684 0.199540 0.000000
0.243525 0.091081 0.000000
0.170619 0.196187 0.000000
0.241666 0.095904 0.000000
0.174486 0.192756 0.000000
0.239711 0.100690 0.000000
0.178283 0.189249 0.000000
0.237662 0.105436 0.000000
0.182011 0.185666 0.000000
0.235519 0.110141 0.000000
0.185666 0.182011 0.000000
0.233282 0.114802 0.000000
0.189249 0.178283 0.000000
0.230953 0.119417 0.000000
0.192756 0.174486 0.000000
0.228534 0.123985 0.000000
0.196187 0.170619 0.000000
0.226023 0.128505 0.000000
0.199540 0.166684 0.000000
0.223424 0.132973 0.000000
0.202815 0.162684 0.000000
0.220736 0.137389 0.000000
0.206009 0.158620 0.000000
0.217961 0.141751 0.000000
0.209122 0.154492 0.000000
0.215099 0.146056 0.000000
0.212153 0.150304 0.000000
-0.203462 -0.145269 0.000000
-0.209292 -0.136737 0.000000
-0.200416 -0.149443 0.000000
-0.212073 -0.132382 0.000000
-0.197285 -0.153553 0.000000
-0.214764 -0.127971 0.000000
-0.194070 -0.157598 0.000000
-0.217362 -0.123505 0.000000
-0.190771 -0.161575 0.000000
-0.219868 -0.118987 0.000000
-0.187391 -0.165483 0.000000
-0.222281 -0.114417 0.000000
-0.183931 -0.169320 0.000000
-0.224598 -0.109799 0.000000
-0.180392 -0.173086 0.000000
-0.226819 -0.105134 0.000000
-0.176777 -0.176777 0.000000
-0.228943 -0.100424 0.000000
-0.173086 -0.180392 0.000000
-0.230970 -0.095671 0.000000
-0.169320 -0.183931 0.000000
-0.232898 -0.090877 0.000000
-0.165483 -0.187391 0.000000
-0.234726 -0.086044 0.000000
-0.161575 -0.190771 0.000000
-0.236454 -0.081175 0.000000
-0.157598 -0.194070 0.000000
-0.238081 -0.076271 0.000000
-0.153553 -0.197285 0.000000
-0.239607 -0.071334 0.000000
-0.149443 -0.200416 0.000000
-0.241030 -0.066366 0.000000
-0.145269 -0.203462 0.000000
-0.242350 -0.061370 0.000000
-0.141033 -0.206421 0.000000
-0.243567 -0.056347 0.000000
-0.136737 -0.209292 0.000000
-0.244680 -0.051301 0.000000
-0.132382 -0.212073 0.000000
-0.245688 -0.046232 0.000000
-0.127971 -0.214764 0.000000
-0.246591 -0.041144 0.000000
-0.123505 -0.217362 0.000000
-0.247389 -0.036039 0.000000
-0.118987 -0.219868 0.000000
-0.248081 -0.030919 0.000000
-0.114417 -0.222281 0.000000
-0.248667 -0.025786 0.000000
-0.109799 -0.224598 0.000000
-0.249146 -0.020642 0.000000
-0.105134 -0.226819 0.000000
-0.249520 -0.015489 0.000000
-0.100424 -0.228943 0.000000
-0.249786 -0.010330 0.000000
-0.095671 -0.230970 0.000000
-0.249947 -0.005166 0.000000
-0.090877 -0.232898 0.000000
-0.250000 0.000000 0.000000
-0.086044 -0.234726 0.000000
-0.249947 0.005166 0.000000
-0.081175 -0.236454 0.000000
-0.249786 0.010330 0.000000
-0.076271 -0.238081 0.000000
-0.249520 0.015489 0.000000
-0.071334 -0.239607 0.000000
-0.249146 0.020642 0.000000
-0.066366 -0.241030 0.000000
-0.248667 0.025786 0.000000
-0.061370 -0.242350 0.000000
-0.248081 0.030919 0.000000
-0.056347 -0.243567 0.000000
-0.247389 0.036039 0.000000
-0.051301 -0.244680 0.000000
-0.246591 0.041144 0.000000
-0.046232 -0.245688 0.000000
-0.245688 0.046232 0.000000
-0.041144 -0.246591 0.000000
-0.244680 0.051301 0.000000
-0.036039 -0.247389 0.000000
-0.243567 0.056347 0.000000
-0.030919 -0.248081 0.000000
-0.242350 0.061370 0.000000
-0.025786 -0.248667 0.000000
-0.241030 0.066366 0.000000
-0.020642 -0.249146 0.000000
-0.239607 0.071334 0.000000
-0.015489 -0.249520 0.000000
-0.238081 0.076271 0.000000
-0.010330 -0.249786 0.000000
-0.236454 0.081175 0.000000
-0.005166 -0.249947 0.000000
-0.234726 0.086044 0.000000
-0.000000 -0.250000 0.000000
-0.232898 0.090877 0.000000
0.005166 -0.249947 0.000000
-0.230970 0.095671 0.000000
0.010330 -0.249786 0.000000
-0.228943 0.100424 0.000000
0.015489 -0.249520 0.000000
-0.226819 0.105134 0.000000
0.020642 -0.249146 0.000000
-0.224598 0.109799 0.000000
0.025786 -0.248667 0.000000
-0.222281 0.114417 0.000000
0.030919 -0.248081 0.000000
-0.219868 0.118987 0.000000
0.036039 -0.247389 0.000000
-0.217362 0.123505 0.000000
0.041144 -0.246591 0.000000
-0.214764 0.127971 0.000000
0.046232 -0.245688 0.000000
-0.212073 0.132382 0.000000
0.051301 -0.244680 0.000000
-0.209292 0.136737 0.000000
0.056347 -0.243567 0.000000
-0.206421 0.141033 0.000000
0.061370 -0.242350 0.000000
-0.203462 0.145269 0.000000
0.066366 -0.241030 0.000000
-0.200416 0.149443 0.000000
0.071334 -0.239607 0.000000
-0.197285 0.153553 0.000000
0.076271 -0.238081 0.000000
-0.194070 0.157598 0.000000
0.081175 -0.236454 0.000000
-0.190771 0.161575 0.000000
0.086044 -0.234726 0.000000
-0.187391 0.165483 0.000000
0.090877 -0.232898 0.000000
-0.183931 0.169320 0.000000
0.095671 -0.230970 0.000000
-0.180392 0.173086 0.000000
0.100424 -0.228943 0.000000
-0.176777 0.176777 0.000000
0.105134 -0.226819 0.000000
-0.173086 0.180392 0.000000
0.109799 -0.224598 0.000000
-0.169320 0.183931 0.000000
0.114417 -0.222281 0.000000
-0.165483 0.187391 0.000000
0.118987 -0.219868 0.000000
-0.161575 0.190771 0.000000
0.123505 -0.217362 0.000000
-0.157598 0.194070 0.000000
0.127971 -0.214764 0.000000
-0.153553 0.197285 0.000000
0.132382 -0.212073 0.000000
-0.149443 0.200416 0.000000
0.136737 -0.209292 0.000000
-0.145269 0.203462 0.000000
0.141033 -0.206421 0.000000
-0.141033 0.206421 0.000000
0.145269 -0.203462 0.000000
-0.136737 0.209292 0.000000
0.149443 -0.200416 0.000000
-0.132382 0.212073 0.000000
0.153553 -0.197285 0.000000
-0.127971 0.214764 0.000000
0.157598 -0.194070 0.000000
-0.123505 0.217362 0.000000
0.161575 -0.190771 0.000000
-0.118987 0.219868 0.000000
0.165483 -0.187391 0.000000
-0.114417 0.222281 0.000000
0.169320 -0.183931 0.000000
-0.109799 0.224598 0.000000
0.173086 -0.180392 0.000000
-0.105134 0.226819 0.000000
0.176777 -0.176777 0.000000
-0.100424 0.228943 0.000000
0.180392 -0.173086 0.000000
-0.095671 0.230970 0.000000
0.183931 -0.169320 0.000000
-0.090877 0.232898 0.000000
0.187391 -0.165483 0.000000
-0.086044 0.234726 0.000000
0.190771 -0.161575 0.000000
-0.081175 0.236454 0.000000
0.194070 -0.157598 0.000000
-0.076271 0.238081 0.000000
0.197285 -0.153553 0.000000
-0.071334 0.239607 0.000000
0.200416 -0.149443 0.000000
-0.066366 0.241030 0.000000
0.203462 -0.145269 0.000000
-0.061370 0.242350 0.000000
0.206421 -0.141033 0.000000
-0.056347 0.243567 0.000000
0.209292 -0.136737 0.000000
-0.051301 0.244680 0.000000
0.212073 -0.132382 0.000000
-0.046232 0.245688 0.000000
0.214764 -0.127971 0.000000
-0.041144 0.246591 0.000000
0.217362 -0.123505 0.000000
-0.036039 0.247389 0.000000
0.219868 -0.118987 0.000000
-0.030919 0.248081 0.000000
0.222281 -0.114417 0.000000
-0.025786 0.248667 0.000000
0.224598 -0.109799 0.000000
-0.020642 0.249146 0.000000
0.226819 -0.105134 0.000000
-0.015489 0.249520 0.000000
0.228943 -0.100424 0.000000
-0.010330 0.249786 0.000000
0.230970 -0.095671 0.000000
-0.005166 0.249947 0.000000
0.232898 -0.090877 0.000000
0.000000 0.250000 0.000000
0.234726 -0.086044 0.000000
0.005166 0.249947 0.000000
0.236454 -0.081175 0.000000
0.010330 0.249786 0.000000
0.238081 -0.076271 0.000000
0.015489 0.249520 0.000000
0.239607 -0.071334 0.000000
0.020642 0.249146 0.000000
0.241030 -0.066366 0.000000
0.025786 0.248667 0.000000
0.242350 -0.061370 0.000000
0.030919 0.248081 0.000000
0.243567 -0.056347 0.000000
0.036039 0.247389 0.000000
0.244680 -0.051301 0.000000
0.041144 0.246591 0.000000
0.245688 -0.046232 0.000000
0.046232 0.245688 0.000000
0.246591 -0.041144 0.000000
0.051301 0.244680 0.000000
0.247389 -0.036039 0.000000
0.056347 0.243567 0.000000
0.248081 -0.030919 0.000000
0.061370 0.242350 0.000000
0.248667 -0.025786 0.000000
0.066366 0.241030 0.000000
0.249146 -0.020642 0.000000
0.071334 0.239607 0.000000
0.249520 -0.015489 0.000000
0.076271 0.238081 0.000000
0.249786 -0.010330 0.000000
0.081175 0.236454 0.000000
0.249947 -0.005166 0.000000
0.086044 0.234726 0.000000
0.250000 -0.000000 0.000000
0.090877 0.232898 0.000000
0.249947 0.005166 0.000000
0.095671 0.230970 0.000000
0.249786 0.010330 0.000000
0.100424 0.228943 0.000000
0.249520 0.015489 0.000000
0.105134 0.226819 0.000000
0.249146 0.020642 0.000000
0.109799 0.224598 0.000000
0.248667 0.025786 0.000000
0.114417 0.222281 0.000000
0.248081 0.030919 0.000000
0.118987 0.219868 0.000000
0.247389 0.036039 0.000000
0.123505 0.217362 0.000000
0.246591 0.041144 0.000000
0.127971 0.214764 0.000000
0.245688 0.046232 0.000000
0.132382 0.212073 0.000000
0.244680 0.051301 0.000000
0.136737 0.209292 0.000000
0.243567 0.056347 0.000000
0.141033 0.206421 0.000000
0.242350 0.061370 0.000000
0.145269 0.203462 0.000000
0.241030 0.066366 0.000000
0.149443 0.200416 0.000000
0.239607 0.071334 0.000000
0.153553 0.197285 0.000000
0.238081 0.076271 0.000000
0.157598 0.194070 0.000000
0.236454 0.081175 0.000000
0.161575 0.190771 0.000000
0.234726 0.086044 0.000000
0.165483 0.187391 0.000000
0.232898 0.090877 0.000000
0.169320 0.183931 0.000000
0.230970 0.095671 0.000000
0.173086 0.180392 0.000000
0.228943 0.100424 0.000000
0.176777 0.176777 0.000000
0.226819 0.105134 0.000000
0.180392 0.173086 0.000000
0.224598 0.109799 0.000000
0.183931 0.169320 0.000000
0.222281 0.114417 0.000000
0.187391 0.165483 0.000000
0.219868 0.118987 0.000000
0.190771 0.161575 0.000000
0.217362 0.123505 0.000000
0.194070 0.157598 0.000000
0.214764 0.127971 0.000000
0.197285 0.153553 0.000000
0.212073 0.132382 0.000000
0.200416 0.149443 0.000000
0.209292 0.136737 0.000000
0.206421 0.141033 0.000000
0.203462 0.145269 0.000000
-0.211239 -0.145764 0.000000
-0.207348 -0.145506 0.000000
-0.208235 -0.149997 0.000000
-0.210271 -0.141224 0.000000
-0.214114 -0.141448 0.000000
-0.204348 -0.149730 0.000000
-0.205202 -0.154186 0.000000
-0.213130 -0.136835 0.000000
-0.216922 -0.137075 0.000000
-0.201224 -0.153860 0.000000
-0.202031 -0.158271 0.000000
-0.215878 -0.132424 0.000000
-0.219710 -0.132611 0.000000
-0.198030 -0.157923 0.000000
-0.198804 -0.162319 0.000000
-0.218605 -0.127699 0.000000
-0.222365 -0.128140 0.000000
-0.224875 -0.124872 0.000000
-0.194761 -0.161929 0.000000
-0.195479 -0.166293 0.000000
-0.221918 -0.123192 0.000000
-0.226380 -0.121036 0.000000
-0.191411 -0.165867 0.000000
-0.192076 -0.170180 0.000000
-0.223993 -0.118092 0.000000
-0.228835 -0.116386 0.000000
-0.187988 -0.169741 0.000000
-0.188629 -0.174050 0.000000
-0.226621 -0.113165 0.000000
-0.231077 -0.111640 0.000000
-0.184488 -0.173541 0.000000
-0.185072 -0.177780 0.000000
-0.228918 -0.108399 0.000000
-0.233287 -0.106944 0.000000
-0.180913 -0.177266 0.000000
-0.181487 -0.181485 0.000000
-0.231106 -0.103709 0.000000
-0.235397 -0.102211 0.000000
-0.177263 -0.180925 0.000000
-0.177757 -0.185116 0.000000
-0.233157 -0.098942 0.000000
-0.237414 -0.097442 0.000000
-0.173562 -0.184499 0.000000
-0.173989 -0.188666 0.000000
-0.235110 -0.094195 0.000000
-0.239353 -0.092615 0.000000
-0.169783 -0.188037 0.000000
-0.170176 -0.192088 0.000000
-0.237036 -0.089400 0.000000
-0.241145 -0.087789 0.000000
-0.165867 -0.191421 0.000000
-0.166261 -0.195470 0.000000
-0.238795 -0.084500 0.000000
-0.242869 -0.082916 0.000000
-0.161926 -0.194766 0.000000
-0.162296 -0.198817 0.000000
-0.240480 -0.079619 0.000000
-0.244533 -0.078015 0.000000
-0.157923 -0.198067 0.000000
-0.158264 -0.202046 0.000000
-0.242098 -0.074704 0.000000
-0.246013 -0.073093 0.000000
-0.153833 -0.201229 0.000000
-0.154141 -0.205206 0.000000
-0.243529 -0.069697 0.000000
-0.247451 -0.068123 0.000000
-0.149674 -0.204349 0.000000
-0.149938 -0.208289 0.000000
-0.244899 -0.064716 0.000000
-0.248766 -0.063116 0.000000
-0.145447 -0.207383 0.000000
-0.145696 -0.211247 0.000000
-0.246147 -0.059719 0.000000
-0.249987 -0.058081 0.000000
-0.141114 -0.210324 0.000000
-0.141350 -0.214172 0.000000
-0.247314 -0.054684 0.000000
-0.251085 -0.053025 0.000000
-0.136554 -0.213213 0.000000
-0.136933 -0.217186 0.000000
-0.133850 -0.219680 0.000000
-0.248378 -0.049626 0.000000
-0.252118 -0.047967 0.000000
-0.132090 -0.216717 0.000000
-0.130020 -0.221252 0.000000
-0.249339 -0.044548 0.000000
-0.253006 -0.042863 0.000000
-0.126984 -0.218897 0.000000
-0.125536 -0.223876 0.000000
-0.250196 -0.039452 0.000000
-0.253814 -0.037756 0.000000
-0.122403 -0.221788 0.000000
-0.120909 -0.226359 0.000000
-0.250948 -0.034339 0.000000
-0.254531 -0.032639 0.000000
-0.117810 -0.224233 0.000000
-0.116302 -0.228773 0.000000
-0.251590 -0.029207 0.000000
-0.255162 -0.027498 0.000000
-0.113063 -0.226648 0.000000
-0.111626 -0.231076 0.000000
-0.252152 -0.024064 0.000000
-0.255682 -0.022349 0.000000
-0.108405 -0.228923 0.000000
-0.106956 -0.233292 0.000000
-0.252595 -0.018895 0.000000
-0.256048 -0.017181 0.000000
-0.103699 -0.231093 0.000000
-0.102209 -0.235408 0.000000
-0.252917 -0.013716 0.000000
-0.256371 -0.011977 0.000000
-0.098950 -0.233168 0.000000
-0.097430 -0.237419 0.000000
-0.253145 -0.008502 0.000000
-0.256525 -0.006784 0.000000
-0.094186 -0.235148 0.000000
-0.092626 -0.239323 0.000000
-0.253246 -0.003274 0.000000
-0.256590 -0.001533 0.000000
-0.089365 -0.237021 0.000000
-0.087789 -0.241137 0.000000
-0.256677 0.003861 0.000000
-0.253142 0.002166 0.000000
-0.257115 0.007822 0.000000
-0.084514 -0.238796 0.000000
-0.082921 -0.242867 0.000000
-0.253720 0.007776 0.000000
-0.256519 0.011763 0.000000
-0.079606 -0.240458 0.000000
-0.078018 -0.244489 0.000000
-0.252852 0.013320 0.000000
-0.256068 0.016920 0.000000
-0.074694 -0.242036 0.000000
-0.073082 -0.246010 0.000000
-0.252611 0.018669 0.000000
-0.255656 0.022234 0.000000
-0.069735 -0.243513 0.000000
-0.068114 -0.247458 0.000000
-0.252141 0.023990 0.000000
-0.255162 0.027444 0.000000
-0.064743 -0.244887 0.000000
-0.063092 -0.248749 0.000000
-0.251604 0.029164 0.000000
-0.254573 0.032595 0.000000
-0.059717 -0.246147 0.000000
-0.058069 -0.249993 0.000000
-0.250974 0.034287 0.000000
-0.253840 0.037734 0.000000
-0.054678 -0.247313 0.000000
-0.053013 -0.251111 0.000000
-0.250231 0.039411 0.000000
-0.253024 0.042842 0.000000
-0.049616 -0.248377 0.000000
-0.047935 -0.252120 0.000000
-0.249361 0.044517 0.000000
-0.252111 0.047933 0.000000
-0.044539 -0.249350 0.000000
-0.042840 -0.253023 0.000000
-0.248407 0.049594 0.000000
-0.251110 0.053004 0.000000
-0.039431 -0.250212 0.000000
-0.037704 -0.253860 0.000000
-0.247324 0.054669 0.000000
-0.249985 0.058059 0.000000
-0.034308 -0.250972 0.000000
-0.032585 -0.254550 0.000000
-0.246143 0.059708 0.000000
-0.248743 0.063082 0.000000
-0.029143 -0.251616 0.000000
-0.027438 -0.255160 0.000000
-0.244868 0.064718 0.000000
-0.247429 0.068085 0.000000
-0.023984 -0.252155 0.000000
-0.022275 -0.255652 0.000000
-0.243509 0.069698 0.000000
-0.245994 0.073043 0.000000
-0.018760 -0.252599 0.000000
-0.017016 -0.256101 0.000000
-0.242036 0.074652 0.000000
-0.244469 0.077981 0.000000
-0.013287 -0.252844 0.000000
-0.011794 -0.256461 0.000000
-0.007824 -0.257115 0.000000
-0.240463 0.079574 0.000000
-0.242849 0.082888 0.000000
-0.007799 -0.253734 0.000000
-0.003878 -0.256704 0.000000
-0.238789 0.084463 0.000000
-0.241130 0.087762 0.000000
-0.002313 -0.253282 0.000000
0.001488 -0.256626 0.000000
-0.237016 0.089317 0.000000
-0.239316 0.092601 0.000000
0.003275 -0.253251 0.000000
0.006791 -0.256518 0.000000
-0.235145 0.094134 0.000000
-0.237412 0.097406 0.000000
0.008519 -0.253134 0.000000
0.011961 -0.256352 0.000000
-0.233173 0.098919 0.000000
-0.235426 0.102191 0.000000
0.013685 -0.252913 0.000000
0.017142 -0.256059 0.000000
-0.231127 0.103687 0.000000
-0.233295 0.106912 0.000000
0.018872 -0.252578 0.000000
0.022325 -0.255665 0.000000
-0.228942 0.108390 0.000000
-0.231092 0.111624 0.000000
0.024038 -0.252148 0.000000
0.027480 -0.255157 0.000000
-0.226657 0.113049 0.000000
-0.228780 0.116278 0.000000
0.029190 -0.251600 0.000000
0.032621 -0.254550 0.000000
-0.224272 0.117709 0.000000
-0.226385 0.120864 0.000000
0.034318 -0.250961 0.000000
0.037740 -0.253831 0.000000
-0.221796 0.122264 0.000000
-0.223999 0.125456 0.000000
0.039411 -0.250224 0.000000
0.042847 -0.253042 0.000000
-0.218901 0.126938 0.000000
-0.221364 0.129767 0.000000
-0.219680 0.133847 0.000000
0.044518 -0.249355 0.000000
0.047933 -0.252121 0.000000
-0.216712 0.132054 0.000000
-0.217004 0.137072 0.000000
0.049586 -0.248413 0.000000
0.052994 -0.251107 0.000000
-0.213232 0.136466 0.000000
-0.214223 0.141523 0.000000
0.054657 -0.247336 0.000000
0.058052 -0.250005 0.000000
-0.210309 0.141140 0.000000
-0.211239 0.145727 0.000000
0.059678 -0.246219 0.000000
0.063074 -0.248801 0.000000
-0.207382 0.145398 0.000000
-0.208266 0.149943 0.000000
0.064707 -0.244891 0.000000
0.068065 -0.247437 0.000000
-0.204377 0.149636 0.000000
-0.205190 0.154130 0.000000
0.069691 -0.243505 0.000000
0.073032 -0.246030 0.000000
-0.201236 0.153821 0.000000
-0.202041 0.158266 0.000000
0.074644 -0.242033 0.000000
0.077971 -0.244510 0.000000
-0.198078 0.157909 0.000000
-0.198801 0.162297 0.000000
0.079563 -0.240462 0.000000
0.082879 -0.242869 0.000000
-0.194813 0.161942 0.000000
-0.195518 0.166295 0.000000
0.084448 -0.238801 0.000000
0.087756 -0.241183 0.000000
-0.191439 0.165882 0.000000
-0.192093 0.170171 0.000000
0.089300 -0.237046 0.000000
0.092599 -0.239343 0.000000
-0.188003 0.169744 0.000000
-0.188653 0.173995 0.000000
0.094143 -0.235202 0.000000
0.097411 -0.237436 0.000000
-0.184499 0.173533 0.000000
-0.185108 0.177774 0.000000
0.098956 -0.233189 0.000000
0.102214 -0.235430 0.000000
-0.180925 0.177258 0.000000
-0.181476 0.181471 0.000000
0.103685 -0.231103 0.000000
0.106930 -0.233289 0.000000
-0.177298 0.180905 0.000000
-0.177799 0.185107 0.000000
0.108419 -0.228930 0.000000
0.111656 -0.231091 0.000000
-0.173586 0.184506 0.000000
-0.174021 0.188619 0.000000
0.113144 -0.226627 0.000000
0.116347 -0.228895 0.000000
-0.169775 0.188019 0.000000
-0.170198 0.192078 0.000000
0.118125 -0.224048 0.000000
0.120958 -0.226462 0.000000
0.124847 -0.224898 0.000000
-0.165874 0.191414 0.000000
-0.166269 0.195460 0.000000
0.123118 -0.221704 0.000000
0.128317 -0.222427 0.000000
-0.161942 0.194765 0.000000
-0.162298 0.198777 0.000000
0.127741 -0.218738 0.000000
0.132718 -0.219773 0.000000
-0.157941 0.198061 0.000000
-0.158267 0.202017 0.000000
0.132458 -0.215906 0.000000
0.137099 -0.216943 0.000000
-0.153841 0.201233 0.000000
-0.154157 0.205176 0.000000
0.136835 -0.213143 0.000000
0.141446 -0.214140 0.000000
-0.149697 0.204336 0.000000
-0.149986 0.208241 0.000000
0.141204 -0.210307 0.000000
0.145766 -0.211267 0.000000
-0.145494 0.207364 0.000000
-0.145771 0.211274 0.000000
0.145482 -0.207382 0.000000
0.149974 -0.208247 0.000000
-0.141205 0.210328 0.000000
-0.141442 0.214144 0.000000
0.149675 -0.204345 0.000000
0.154126 -0.205199 0.000000
-0.136819 0.213112 0.000000
-0.137086 0.216926 0.000000
0.153844 -0.201265 0.000000
0.158238 -0.202080 0.000000
-0.132440 0.215878 0.000000
-0.132694 0.219723 0.000000
0.157910 -0.198046 0.000000
0.162291 -0.198796 0.000000
-0.127703 0.218560 0.000000
-0.128168 0.222340 0.000000
-0.124872 0.224869 0.000000
0.161934 -0.194783 0.000000
0.166261 -0.195477 0.000000
-0.123151 0.221907 0.000000
-0.120918 0.226405 0.000000
0.165879 -0.191440 0.000000
0.170170 -0.192099 0.000000
-0.117906 0.223946 0.000000
-0.116364 0.228838 0.000000
0.169751 -0.188007 0.000000
0.173993 -0.188654 0.000000
-0.113240 0.226633 0.000000
-0.111662 0.231084 0.000000
0.173542 -0.184492 0.000000
0.177760 -0.185096 0.000000
-0.108422 0.228922 0.000000
-0.106961 0.233288 0.000000
0.177261 -0.180914 0.000000
0.181485 -0.181471 0.000000
-0.103737 0.231113 0.000000
-0.102262 0.235399 0.000000
0.180916 -0.177255 0.000000
0.185091 -0.177759 0.000000
-0.098948 0.233164 0.000000
-0.097431 0.237399 0.000000
0.184491 -0.173524 0.000000
0.188622 -0.173999 0.000000
-0.094143 0.235127 0.000000
-0.092613 0.239321 0.000000
0.187992 -0.169728 0.000000
0.192102 -0.170181 0.000000
-0.089317 0.237012 0.000000
-0.087764 0.241132 0.000000
0.191418 -0.165860 0.000000
0.195491 -0.166265 0.000000
-0.084463 0.238789 0.000000
-0.082889 0.242851 0.000000
0.194761 -0.161927 0.000000
0.198782 -0.162297 0.000000
-0.079574 0.240463 0.000000
-0.077984 0.244481 0.000000
0.198034 -0.157937 0.000000
0.202051 -0.158287 0.000000
-0.074655 0.242028 0.000000
-0.073067 0.246024 0.000000
0.201260 -0.153870 0.000000
0.205213 -0.154172 0.000000
-0.069704 0.243501 0.000000
-0.068084 0.247440 0.000000
0.204378 -0.149650 0.000000
0.208273 -0.149949 0.000000
-0.064720 0.244869 0.000000
-0.063076 0.248748 0.000000
0.207393 -0.145398 0.000000
0.211241 -0.145689 0.000000
-0.059719 0.246146 0.000000
-0.058059 0.249953 0.000000
0.210313 -0.141108 0.000000
0.214198 -0.141341 0.000000
-0.054684 0.247314 0.000000
-0.053013 0.251069 0.000000
0.213186 -0.136480 0.000000
0.217027 -0.137061 0.000000
0.219675 -0.133904 0.000000
-0.049626 0.248378 0.000000
-0.047946 0.252085 0.000000
0.216699 -0.132106 0.000000
0.221261 -0.130034 0.000000
-0.044548 0.249339 0.000000
-0.042859 0.253000 0.000000
0.218972 -0.126947 0.000000
0.223829 -0.125513 0.000000
-0.039452 0.250196 0.000000
-0.037755 0.253811 0.000000
0.221761 -0.122278 0.000000
0.226348 -0.120860 0.000000
-0.034339 0.250948 0.000000
-0.032636 0.254520 0.000000
0.224241 -0.117692 0.000000
0.228771 -0.116275 0.000000
-0.029212 0.251597 0.000000
-0.027501 0.255124 0.000000
0.226657 -0.113049 0.000000
0.231079 -0.111599 0.000000
-0.024064 0.252125 0.000000
-0.022349 0.255632 0.000000
0.228947 -0.108402 0.000000
0.233301 -0.106928 0.000000
-0.018895 0.252587 0.000000
-0.017177 0.256059 0.000000
0.231124 -0.103682 0.000000
0.235410 -0.102221 0.000000
-0.013722 0.252906 0.000000
-0.011984 0.256358 0.000000
0.233165 -0.098925 0.000000
0.237410 -0.097418 0.000000
-0.008503 0.253124 0.000000
-0.006797 0.256513 0.000000
0.235127 -0.094138 0.000000
0.239324 -0.092617 0.000000
-0.003298 0.253224 0.000000
-0.001537 0.256626 0.000000
0.236998 -0.089320 0.000000
0.241141 -0.087778 0.000000
0.002151 0.253099 0.000000
0.003665 0.256640 0.000000
0.007850 0.257154 0.000000
0.238771 -0.084467 0.000000
0.242860 -0.082904 0.000000
0.007797 0.253617 0.000000
0.011936 0.256414 0.000000
0.240446 -0.079578 0.000000
0.244481 -0.077996 0.000000
0.013338 0.252784 0.000000
0.017146 0.256139 0.000000
0.242028 -0.074654 0.000000
0.246037 -0.073052 0.000000
0.018795 0.252575 0.000000
0.022298 0.255656 0.000000
0.243509 -0.069698 0.000000
0.247448 -0.068073 0.000000
0.023967 0.252157 0.000000
0.027442 0.255166 0.000000
0.244876 -0.064709 0.000000
0.248758 -0.063061 0.000000
0.029162 0.251616 0.000000
0.032604 0.254548 0.000000
0.246144 -0.059697 0.000000
0.249992 -0.058030 0.000000
0.034292 0.250979 0.000000
0.037736 0.253859 0.000000
0.247309 -0.054662 0.000000
0.251104 -0.052986 0.000000
0.039431 0.250218 0.000000
0.042858 0.253073 0.000000
0.248369 -0.049609 0.000000
0.252103 -0.047938 0.000000
0.044531 0.249396 0.000000
0.047946 0.252110 0.000000
0.249327 -0.044538 0.000000
0.253015 -0.042853 0.000000
0.049638 0.248392 0.000000
0.053019 0.251075 0.000000
0.250196 -0.039452 0.000000
0.253860 -0.037736 0.000000
0.054696 0.247309 0.000000
0.058069 0.249954 0.000000
0.251003 -0.034313 0.000000
0.254598 -0.032621 0.000000
0.059722 0.246136 0.000000
0.063114 0.248759 0.000000
0.251639 -0.029149 0.000000
0.255178 -0.027455 0.000000
0.064734 0.244874 0.000000
0.068093 0.247429 0.000000
0.252168 -0.023976 0.000000
0.255662 -0.022304 0.000000
0.069737 0.243542 0.000000
0.073050 0.246037 0.000000
0.252584 -0.018806 0.000000
0.256143 -0.017147 0.000000
0.074663 0.242036 0.000000
0.077996 0.244480 0.000000
0.252817 -0.013347 0.000000
0.256442 -0.011927 0.000000
0.257154 -0.007852 0.000000
0.079584 0.240452 0.000000
0.082921 0.242866 0.000000
0.253690 -0.007780 0.000000
0.256642 -0.003691 0.000000
0.084471 0.238773 0.000000
0.087778 0.241141 0.000000
0.253096 -0.002165 0.000000
0.256647 0.001559 0.000000
0.089321 0.236998 0.000000
0.092617 0.239324 0.000000
0.253243 0.003287 0.000000
0.256520 0.006794 0.000000
0.094136 0.235126 0.000000
0.097418 0.237410 0.000000
0.253129 0.008465 0.000000
0.256359 0.011971 0.000000
0.098915 0.233157 0.000000
0.102180 0.235399 0.000000
0.252942 0.013681 0.000000
0.256098 0.017161 0.000000
0.103663 0.231094 0.000000
0.106917 0.233294 0.000000
0.252587 0.018892 0.000000
0.255640 0.022345 0.000000
0.108396 0.228944 0.000000
0.111598 0.231082 0.000000
0.252126 0.024061 0.000000
0.255131 0.027498 0.000000
0.113048 0.226663 0.000000
0.116271 0.228781 0.000000
0.251586 0.029205 0.000000
0.254568 0.032637 0.000000
0.117706 0.224256 0.000000
0.120852 0.226357 0.000000
0.250942 0.034329 0.000000
0.253839 0.037736 0.000000
0.122248 0.221776 0.000000
0.125477 0.223846 0.000000
0.250188 0.039438 0.000000
0.253035 0.042843 0.000000
0.126912 0.218965 0.000000
0.130002 0.221279 0.000000
0.249333 0.044533 0.000000
0.252125 0.047929 0.000000
0.132108 0.216694 0.000000
0.133891 0.219601 0.000000
0.248369 0.049612 0.000000
0.251087 0.053006 0.000000
0.136550 0.213160 0.000000
0.137046 0.217019 0.000000
0.247301 0.054671 0.000000
0.249968 0.058053 0.000000
0.141152 0.210287 0.000000
0.141372 0.214174 0.000000
0.246134 0.059706 0.000000
0.248748 0.063076 0.000000
0.145482 0.207387 0.000000
0.145725 0.211231 0.000000
0.244867 0.064717 0.000000
0.247418 0.068075 0.000000
0.149697 0.204345 0.000000
0.149984 0.208266 0.000000
0.243509 0.069698 0.000000
0.246029 0.073052 0.000000
0.153835 0.201247 0.000000
0.154130 0.205204 0.000000
0.242036 0.074652 0.000000
0.244477 0.077982 0.000000
0.157903 0.198039 0.000000
0.158242 0.202054 0.000000
0.240463 0.079574 0.000000
0.242860 0.082888 0.000000
0.161909 0.194770 0.000000
0.162280 0.198807 0.000000
0.238789 0.084463 0.000000
0.241157 0.087764 0.000000
0.165849 0.191427 0.000000
0.166250 0.195508 0.000000
0.237021 0.089328 0.000000
0.239376 0.092639 0.000000
0.169721 0.188004 0.000000
0.170154 0.192121 0.000000
0.235172 0.094182 0.000000
0.237425 0.097450 0.000000
0.173527 0.184503 0.000000
0.173991 0.188648 0.000000
0.233173 0.098964 0.000000
0.235397 0.102209 0.000000
0.177263 0.180930 0.000000
0.177779 0.185108 0.000000
0.231102 0.103711 0.000000
0.233283 0.106944 0.000000
0.180917 0.177274 0.000000
0.181479 0.181481 0.000000
0.228922 0.108427 0.000000
0.231077 0.111631 0.000000
0.184496 0.173546 0.000000
0.185088 0.177792 0.000000
0.226606 0.113135 0.000000
0.228845 0.116324 0.000000
0.187993 0.169732 0.000000
0.188640 0.174022 0.000000
0.223969 0.118039 0.000000
0.226404 0.120897 0.000000
0.191413 0.165855 0.000000
0.192089 0.170164 0.000000
0.221863 0.123176 0.000000
0.224891 0.124847 0.000000
0.194756 0.161915 0.000000
0.195477 0.166261 0.000000
0.218540 0.127743 0.000000
0.222360 0.128216 0.000000
0.198020 0.157909 0.000000
0.198786 0.162290 0.000000
0.215874 0.132431 0.000000
0.219701 0.132630 0.000000
0.201205 0.153841 0.000000
0.202014 0.158253 0.000000
0.213147 0.136837 0.000000
0.216928 0.137078 0.000000
0.204316 0.149710 0.000000
0.210278 0.141207 0.000000
0.207360 0.145490 0.000000
0.205171 0.154172 0.000000
0.214149 0.141432 0.000000
0.208240 0.149993 0.000000
0.211214 0.145747 0.000000
CELLS 1860 7440
3 620 2 0
3 0 622 620
3 621 620 622
3 622 625 621
3 317 621 625
3 625 319 317
3 319 625 629
3 629 321 319
3 321 629 633
3 633 323 321
3 323 633 638
3 638 325 323
3 325 638 642
3 642 327 325
3 327 642 646
3 646 329 327
3 329 646 650
3 650 331 329
3 331 650 654
3 654 333 331
3 333 654 658
3 658 335 333
3 335 658 662
3 662 337 335
3 337 662 666
3 666 339 337
3 339 666 670
3 670 341 339
3 341 670 674
3 674 343 341
3 343 674 678
3 678 345 343
3 345 678 682
3 682 347 345
3 347 682 686
3 686 349 347
3 349 686 690
3 690 351 349
3 351 690 694
3 694 353 351
3 353 694 698
3 698 355 353
3 355 698 703
3 703 357 355
3 357 703 707
3 707 359 357
3 359 707 711
3 711 361 359
3 361 711 715
3 715 363 361
3 363 715 719
3 719 365 363
3 365 719 723
3 723 367 365
3 367 723 727
3 727 369 367
3 369 727 731
3 731 371 369
3 371 731 735
3 735 373 371
3 373 735 739
3 739 375 373
3 375 739 744
3 744 377 375
3 377 744 748
3 748 379 377
3 379 748 752
3 752 381 379
3 381 752 756
3 756 383 381
3 383 756 760
3 760 385 383
3 385 760 764
3 764 387 385
3 387 764 768
3 768 389 387
3 389 768 772
3 772 391 389
3 391 772 776
3 776 393 391
3 393 776 780
3 780 395 393
3 395 780 784
3 784 397 395
3 397 784 788
3 788 399 397
3 399 788 792
3 792 401 399
3 401 792 796
3 796 403 401
3 403 796 800
3 800 405 403
3 405 800 805
3 805 407 405
3 407 805 809
3 809 409 407
3 409 809 813
3 813 411 409
3 411 813 817
3 817 413 411
3 413 817 821
3 821 415 413
3 415 821 825
3 825 417 415
3 417 825 829
3 829 419 417
3 419 829 833
3 833 421 419
3 421 833 837
3 837 423 421
3 423 837 841
3 841 425 423
3 425 841 846
3 846 427 425
3 427 846 850
3 850 429 427
3 429 850 854
3 854 431 429
3 431 854 858
3 858 433 431
3 433 858 862
3 862 435 433
3 435 862 866
3 866 437 435
3 437 866 870
3 870 439 437
3 439 870 874
3 874 441 439
3 441 874 878
3 878 443 441
3 443 878 882
3 882 445 443
3 445 882 886
3 886 447 445
3 447 886 890
3 890 449 447
3 449 890 894
3 894 451 449
3 451 894 898
3 898 453 451
3 453 898 902
3 902 455 453
3 455 902 906
3 906 457 455
3 457 906 911
3 911 459 457
3 459 911 915
3 915 461 459
3 461 915 919
3 919 463 461
3 463 919 923
3 923 465 463
3 465 923 927
3 927 467 465
3 467 927 931
3 931 469 467
3 469 931 935
3 935 471 469
3 471 935 939
3 939 473 471
3 473 939 943
3 943 475 473
3 475 943 948
3 948 477 475
3 477 948 952
3 952 479 477
3 479 952 956
3 956 481 479
3 481 956 960
3 960 483 481
3 483 960 964
3 964 485 483
3 485 964 968
3 968 487 485
3 487 968 972
3 972 489 487
3 489 972 976
3 976 491 489
3 491 976 980
3 980 493 491
3 493 980 984
3 984 495 493
3 495 984 988
3 988 497 495
3 497 988 992
3 992 499 497
3 499 992 996
3 996 501 499
3 501 996 1000
3 1000 503 501
3 503 1000 1004
3 1004 505 503
3 505 1004 1008
3 1008 507 505
3 507 1008 1013
3 1013 509 507
3 509 1013 1017
3 1017 511 509
3 511 1017 1021
3 1021 513 511
3 513 1021 1025
3 1025 515 513
3 515 1025 1029
3 1029 517 515
3 517 1029 1033
3 1033 519 517
3 519 1033 1037
3 1037 521 519
3 521 1037 1041
3 1041 523 521
3 523 1041 1045
3 1045 525 523
3 525 1045 1049
3 1049 527 525
3 527 1049 1054
3 1054 529 527
3 529 1054 1058
3 1058 531 529
3 531 1058 1062
3 1062 533 531
3 533 1062 1066
3 1066 535 533
3 535 1066 1070
3 1070 537 535
3 537 1070 1074
3 1074 539 537
3 539 1074 1078
3 1078 541 539
3 541 1078 1082
3 1082 543 541
3 543 1082 1086
3 1086 545 543
3 545 1086 1090
3 1090 547 545
3 547 1090 1094
3 1094 549 547
3 549 1094 1098
3 1098 551 549
3 551 1098 1102
3 1102 553 551
3 553 1102 1106
3 1106 555 553
3 555 1106 1110
3 1110 557 555
3 557 1110 1115
3 1115 559 557
3 559 1115 1119
3 1119 561 559
3 561 1119 1123
3 1123 563 561
3 563 1123 1127
3 1127 565 563
3 565 1127 1131
3 1131 567 565
3 567 1131 1135
3 1135 569 567
3 569 1135 1139
3 1139 571 569
3 571 1139 1143
3 1143 573 571
3 573 1143 1147
3 1147 575 573
3 575 1147 1151
3 1151 577 575
3 577 1151 1155
3 1155 579 577
3 579 1155 1159
3 1159 581 579
3 581 1159 1163
3 1163 583 581
3 583 1163 1167
3 1167 585 583
3 585 1167 1171
3 1171 587 585
3 587 1171 1175
3 1175 589 587
3 589 1175 1179
3 1179 591 589
3 591 1179 1183
3 1183 593 591
3 593 1183 1187
3 1187 595 593
3 595 1187 1191
3 1191 597 595
3 597 1191 1195
3 1195 599 597
3 599 1195 1199
3 1199 601 599
3 601 1199 1203
3 1203 603 601
3 603 1203 1207
3 1207 605 603
3 605 1207 1211
3 1211 607 605
3 607 1211 1215
3 1215 609 607
3 609 1215 1219
3 1219 611 609
3 611 1219 1223
3 1223 613 611
3 613 1223 1227
3 1227 615 613
3 615 1227 1231
3 1231 617 615
3 617 1231 1234
3 1234 618 617
3 618 1234 1235
3 1235 619 618
3 619 1235 1233
3 1233 616 619
3 616 1233 1229
3 1229 614 616
3 614 1229 1225
3 1225 612 614
3 612 1225 1221
3 1221 610 612
3 610 1221 1217
3 1217 608 610
3 608 1217 1213
3 1213 606 608
3 606 1213 1209
3 1209 604 606
3 604 1209 1205
3 1205 602 604
3 602 1205 1201
3 1201 600 602
3 600 1201 1197
3 1197 598 600
3 598 1197 1193
3 1193 596 598
3 596 1193 1189
3 1189 594 596
3 594 1189 1185
3 1185 592 594
3 592 1185 1181
3 1181 590 592
3 590 1181 1177
3 1177 588 590
3 588 1177 1173
3 1173 586 588
3 586 1173 1169
3 1169 584 586
3 584 1169 1165
3 1165 582 584
3 582 1165 1161
3 1161 580 582
3 580 1161 1157
3 1157 578 580
3 578 1157 1153
3 1153 576 578
3 576 1153 1149
3 1149 574 576
3 574 1149 1145
3 1145 572 574
3 572 1145 1141
3 1141 570 572
3 570 1141 1137
3 1137 568 570
3 568 1137 1133
3 1133 566 568
3 566 1133 1129
3 1129 564 566
3 564 1129 1125
3 1125 562 564
3 562 1125 1121
3 1121 560 562
3 560 1121 1117
3 1117 558 560
3 558 1117 1113
3 1113 556 558
3 556 1113 1108
3 1108 554 556
3 554 1108 1104
3 1104 552 554
3 552 1104 1100
3 1100 550 552
3 550 1100 1096
3 1096 548 550
3 548 1096 1092
3 1092 546 548
3 546 1092 1088
3 1088 544 546
3 544 1088 1084
3 1084 542 544
3 542 1084 1080
3 1080 540 542
3 540 1080 1076
3 1076 538 540
3 538 1076 1072
3 1072 536 538
3 536 1072 1068
3 1068 534 536
3 534 1068 1064
3 1064 532 534
3 532 1064 1060
3 1060 530 532
3 530 1060 1056
3 1056 528 530
3 528 1056 1051
3 1051 526 528
3 526 1051 1047
3 1047 524 526
3 524 1047 1043
3 1043 522 524
3 522 1043 1039
3 1039 520 522
3 520 1039 1035
3 1035 518 520
3 518 1035 1031
3 1031 516 518
3 516 1031 1027
3 1027 514 516
3 514 1027 1023
3 1023 512 514
3 512 1023 1019
3 1019 510 512
3 510 1019 1015
3 1015 508 510
3 508 1015 1011
3 1011 506 508
3 506 1011 1006
3 1006 504 506
3 504 1006 1002
3 1002 502 504
3 502 1002 998
3 998 500 502
3 500 998 994
3 994 498 500
3 498 994 990
3 990 496 498
3 496 990 986
3 986 494 496
3 494 986 982
3 982 492 494
3 492 982 978
3 978 490 492
3 490 978 974
3 974 488 490
3 488 974 970
3 970 486 488
3 486 970 966
3 966 484 486
3 484 966 962
3 962 482 484
3 482 962 958
3 958 480 482
3 480 958 954
3 954 478 480
3 478 954 950
3 950 476 478
3 476 950 945
3 945 474 476
3 474 945 941
3 941 472 474
3 472 941 937
3 937 470 472
3 470 937 933
3 933 468 470
3 468 933 929
3 929 466 468
3 466 929 925
3 925 464 466
3 464 925 921
3 921 462 464
3 462 921 917
3 917 460 462
3 460 917 913
3 913 458 460
3 458 913 909
3 909 456 458
3 456 909 904
3 904 454 456
3 454 904 900
3 900 452 454
3 452 900 896
3 896 450 452
3 450 896 892
3 892 448 450
3 448 892 888
3 888 446 448
3 446 888 884
3 884 444 446
3 444 884 880
3 880 442 444
3 442 880 876
3 876 440 442
3 440 876 872
3 872 438 440
3 438 872 868
3 868 436 438
3 436 868 864
3 864 434 436
3 434 864 860
3 860 432 434
3 432 860 856
3 856 430 432
3 430 856 852
3 852 428 430
3 428 852 848
3 848 426 428
3 426 848 843
3 843 424 426
3 424 843 839
3 839 422 424
3 422 839 835
3 835 420 422
3 420 835 831
3 831 418 420
3 418 831 827
3 827 416 418
3 416 827 823
3 823 414 416
3 414 823 819
3 819 412 414
3 412 819 815
3 815 410 412
3 410 815 811
3 811 408 410
3 408 811 807
3 807 406 408
3 406 807 803
3 803 404 406
3 404 803 798
3 798 402 404
3 402 798 794
3 794 400 402
3 400 794 790
3 790 398 400
3 398 790 786
3 786 396 398
3 396 786 782
3 782 394 396
3 394 782 778
3 778 392 394
3 392 778 774
3 774 390 392
3 390 774 770
3 770 388 390
3 388 770 766
3 766 386 388
3 386 766 762
3 762 384 386
3 384 762 758
3 758 382 384
3 382 758 754
3 754 380 382
3 380 754 750
3 750 378 380
3 378 750 746
3 746 376 378
3 376 746 742
3 742 374 376
3 374 742 737
3 737 372 374
3 372 737 733
3 733 370 372
3 370 733 729
3 729 368 370
3 368 729 725
3 725 366 368
3 366 725 721
3 721 364 366
3 364 721 717
3 717 362 364
3 362 717 713
3 713 360 362
3 360 713 709
3 709 358 360
3 358 709 705
3 705 356 358
3 356 705 701
3 701 354 356
3 354 701 696
3 696 352 354
3 352 696 692
3 692 350 352
3 350 692 688
3 688 348 350
3 348 688 684
3 684 346 348
3 346 684 680
3 680 344 346
3 344 680 676
3 676 342 344
3 342 676 672
3 672 340 342
3 340 672 668
3 668 338 340
3 338 668 664
3 664 336 338
3 336 664 660
3 660 334 336
3 334 660 656
3 656 332 334
3 332 656 652
3 652 330 332
3 330 652 648
3 648 328 330
3 328 648 644
3 644 326 328
3 326 644 640
3 640 324 326
3 324 640 635
3 635 322 324
3 322 635 631
3 631 320 322
3 320 631 627
3 627 318 320
3 318 627 623
3 623 1 318
3 1 623 621
3 624 623 627
3 627 628 624
3 4 624 628
3 628 6 4
3 6 628 632
3 632 8 6
3 8 632 636
3 636 9 8
3 9 636 637
3 637 11 9
3 11 637 641
3 641 13 11
3 13 641 645
3 645 15 13
3 15 645 649
3 649 17 15
3 17 649 653
3 653 19 17
3 19 653 657
3 657 21 19
3 21 657 661
3 661 23 21
3 23 661 665
3 665 25 23
3 25 665 669
3 669 27 25
3 27 669 673
3 673 29 27
3 29 673 677
3 677 31 29
3 31 677 681
3 681 33 31
3 33 681 685
3 685 35 33
3 35 685 689
3 689 37 35
3 37 689 693
3 693 39 37
3 39 693 697
3 697 42 39
3 42 697 702
3 702 44 42
3 44 702 706
3 706 46 44
3 46 706 710
3 710 48 46
3 48 710 714
3 714 50 48
3 50 714 718
3 718 52 50
3 52 718 722
3 722 54 52
3 54 722 726
3 726 56 54
3 56 726 730
3 730 58 56
3 58 730 734
3 734 60 58
3 60 734 738
3 738 62 60
3 62 738 741
3 741 63 62
3 63 741 743
3 743 65 63
3 65 743 747
3 747 67 65
3 67 747 751
3 751 69 67
3 69 751 755
3 755 71 69
3 71 755 759
3 759 73 71
3 73 759 763
3 763 75 73
3 75 763 767
3 767 77 75
3 77 767 771
3 771 79 77
3 79 771 775
3 775 81 79
3 81 775 779
3 779 83 81
3 83 779 783
3 783 85 83
3 85 783 787
3 787 87 85
3 87 787 791
3 791 89 87
3 89 791 795
3 795 91 89
3 91 795 799
3 799 94 91
3 94 799 804
3 804 96 94
3 96 804 808
3 808 98 96
3 98 808 812
3 812 100 98
3 100 812 816
3 816 102 100
3 102 816 820
3 820 104 102
3 104 820 824
3 824 106 104
3 106 824 828
3 828 108 106
3 108 828 832
3 832 110 108
3 110 832 836
3 836 112 110
3 112 836 840
3 840 114 112
3 114 840 844
3 844 115 114
3 115 844 845
3 845 117 115
3 117 845 849
3 849 119 117
3 119 849 853
3 853 121 119
3 121 853 857
3 857 123 121
3 123 857 861
3 861 125 123
3 125 861 865
3 865 127 125
3 127 865 869
3 869 129 127
3 129 869 873
3 873 131 129
3 131 873 877
3 877 133 131
3 133 877 881
3 881 135 133
3 135 881 885
3 885 137 135
3 137 885 889
3 889 139 137
3 139 889 893
3 893 141 139
3 141 893 897
3 897 143 141
3 143 897 901
3 901 145 143
3 145 901 905
3 905 148 145
3 148 905 910
3 910 150 148
3 150 910 914
3 914 152 150
3 152 914 918
3 918 154 152
3 154 918 922
3 922 156 154
3 156 922 926
3 926 158 156
3 158 926 930
3 930 160 158
3 160 930 934
3 934 162 160
3 162 934 938
3 938 164 162
3 164 938 942
3 942 166 164
3 166 942 946
3 946 167 166
3 167 946 947
3 947 169 167
3 169 947 951
3 951 171 169
3 171 951 955
3 955 173 171
3 173 955 959
3 959 175 173
3 175 959 963
3 963 177 175
3 177 963 967
3 967 179 177
3 179 967 971
3 971 181 179
3 181 971 975
3 975 183 181
3 183 975 979
3 979 185 183
3 185 979 983
3 983 187 185
3 187 983 987
3 987 189 187
3 189 987 991
3 991 191 189
3 191 991 995
3 995 193 191
3 193 995 999
3 999 195 193
3 195 999 1003
3 1003 197 195
3 197 1003 1007
3 1007 200 197
3 200 1007 1012
3 1012 202 200
3 202 1012 1016
3 1016 204 202
3 204 1016 1020
3 1020 206 204
3 206 1020 1024
3 1024 208 206
3 208 1024 1028
3 1028 210 208
3 210 1028 1032
3 1032 212 210
3 212 1032 1036
3 1036 214 212
3 214 1036 1040
3 1040 216 214
3 216 1040 1044
3 1044 218 216
3 218 1044 1048
3 1048 220 218
3 220 1048 1052
3 1052 222 220
3 222 1052 1053
3 1053 224 222
3 224 1053 1057
3 1057 226 224
3 226 1057 1061
3 1061 228 226
3 228 1061 1065
3 1065 230 228
3 230 1065 1069
3 1069 232 230
3 232 1069 1073
3 1073 234 232
3 234 1073 1077
3 1077 236 234
3 236 1077 1081
3 1081 238 236
3 238 1081 1085
3 1085 240 238
3 240 1085 1089
3 1089 242 240
3 242 1089 1093
3 1093 244 242
3 244 1093 1097
3 1097 246 244
3 246 1097 1101
3 1101 248 246
3 248 1101 1105
3 1105 250 248
3 250 1105 1109
3 1109 252 250
3 252 1109 1114
3 1114 254 252
3 254 1114 1118
3 1118 256 254
3 256 1118 1122
3 1122 258 256
3 258 1122 1126
3 1126 260 258
3 260 1126 1130
3 1130 262 260
3 262 1130 1134
3 1134 264 262
3 264 1134 1138
3 1138 266 264
3 266 1138 1142
3 1142 268 266
3 268 1142 1146
3 1146 270 268
3 270 1146 1150
3 1150 272 270
3 272 1150 1154
3 1154 274 272
3 274 1154 1158
3 1158 276 274
3 276 1158 1162
3 1162 278 276
3 278 1162 1166
3 1166 280 278
3 280 1166 1170
3 1170 282 280
3 282 1170 1174
3 1174 284 282
3 284 1174 1178
3 1178 286 284
3 286 1178 1182
3 1182 288 286
3 288 1182 1186
3 1186 290 288
3 290 1186 1190
3 1190 292 290
3 292 1190 1194
3 1194 294 292
3 294 1194 1198
3 1198 296 294
3 296 1198 1202
3 1202 298 296
3 298 1202 1206
3 1206 300 298
3 300 1206 1210
3 1210 302 300
3 302 1210 1214
3 1214 304 302
3 304 1214 1218
3 1218 306 304
3 306 1218 1222
3 1222 308 306
3 308 1222 1226
3 1226 310 308
3 310 1226 1230
3 1230 312 310
3 312 1230 1236
3 1236 314 312
3 314 1236 1238
3 1238 316 314
3 316 1238 1239
3 1239 315 316
3 315 1239 1237
3 1237 313 315
3 313 1237 1232
3 1232 311 313
3 311 1232 1228
3 1228 309 311
3 309 1228 1224
3 1224 307 309
3 307 1224 1220
3 1220 305 307
3 305 1220 1216
3 1216 303 305
3 303 1216 1212
3 1212 301 303
3 301 1212 1208
3 1208 299 301
3 299 1208 1204
3 1204 297 299
3 297 1204 1200
3 1200 295 297
3 295 1200 1196
3 1196 293 295
3 293 1196 1192
3 1192 291 293
3 291 1192 1188
3 1188 289 291
3 289 1188 1184
3 1184 287 289
3 287 1184 1180
3 1180 285 287
3 285 1180 1176
3 1176 283 285
3 283 1176 1172
3 1172 281 283
3 281 1172 1168
3 1168 279 281
3 279 1168 1164
3 1164 277 279
3 277 1164 1160
3 1160 275 277
3 275 1160 1156
3 1156 273 275
3 273 1156 1152
3 1152 271 273
3 271 1152 1148
3 1148 269 271
3 269 1148 1144
3 1144 267 269
3 267 1144 1140
3 1140 265 267
3 265 1140 1136
3 1136 263 265
3 263 1136 1132
3 1132 261 263
3 261 1132 1128
3 1128 259 261
3 259 1128 1124
3 1124 257 259
3 257 1124 1120
3 1120 255 257
3 255 1120 1116
3 1116 253 255
3 253 1116 1112
3 1112 251 253
3 251 1112 1111
3 1111 249 251
3 249 1111 1107
3 1107 247 249
3 247 1107 1103
3 1103 245 247
3 245 1103 1099
3 1099 243 245
3 243 1099 1095
3 1095 241 243
3 241 1095 1091
3 1091 239 241
3 239 1091 1087
3 1087 237 239
3 237 1087 1083
3 1083 235 237
3 235 1083 1079
3 1079 233 235
3 233 1079 1075
3 1075 231 233
3 231 1075 1071
3 1071 229 231
3 229 1071 1067
3 1067 227 229
3 227 1067 1063
3 1063 225 227
3 225 1063 1059
3 1059 223 225
3 223 1059 1055
3 1055 221 223
3 221 1055 1050
3 1050 219 221
3 219 1050 1046
3 1046 217 219
3 217 1046 1042
3 1042 215 217
3 215 1042 1038
3 1038 213 215
3 213 1038 1034
3 1034 211 213
3 211 1034 1030
3 1030 209 211
3 209 1030 1026
3 1026 207 209
3 207 1026 1022
3 1022 205 207
3 205 1022 1018
3 1018 203 205
3 203 1018 1014
3 1014 201 203
3 201 1014 1010
3 1010 199 201
3 199 1010 1009
3 1009 198 199
3 198 1009 1005
3 1005 196 198
3 196 1005 1001
3 1001 194 196
3 194 1001 997
3 997 192 194
3 192 997 993
3 993 190 192
3 190 993 989
3 989 188 190
3 188 989 985
3 985 186 188
3 186 985 981
3 981 184 186
3 184 981 977
3 977 182 184
3 182 977 973
3 973 180 182
3 180 973 969
3 969 178 180
3 178 969 965
3 965 176 178
3 176 965 961
3 961 174 176
3 174 961 957
3 957 172 174
3 172 957 953
3 953 170 172
3 170 953 949
3 949 168 170
3 168 949 944
3 944 165 168
3 165 944 940
3 940 163 165
3 163 940 936
3 936 161 163
3 161 936 932
3 932 159 161
3 159 932 928
3 928 157 159
3 157 928 924
3 924 155 157
3 155 924 920
3 920 153 155
3 153 920 916
3 916 151 153
3 151 916 912
3 912 149 151
3 149 912 908
3 908 147 149
3 147 908 907
3 907 146 147
3 146 907 903
3 903 144 146
3 144 903 899
3 899 142 144
3 142 899 895
3 895 140 142
3 140 895 891
3 891 138 140
3 138 891 887
3 887 136 138
3 136 887 883
3 883 134 136
3 134 883 879
3 879 132 134
3 132 879 875
3 875 130 132
3 130 875 871
3 871 128 130
3 128 871 867
3 867 126 128
3 126 867 863
3 863 124 126
3 124 863 859
3 859 122 124
3 122 859 855
3 855 120 122
3 120 855 851
3 851 118 120
3 118 851 847
3 847 116 118
3 116 847 842
3 842 113 116
3 113 842 838
3 838 111 113
3 111 838 834
3 834 109 111
3 109 834 830
3 830 107 109
3 107 830 826
3 826 105 107
3 105 826 822
3 822 103 105
3 103 822 818
3 818 101 103
3 101 818 814
3 814 99 101
3 99 814 810
3 810 97 99
3 97 810 806
3 806 95 97
3 95 806 802
3 802 93 95
3 93 802 801
3 801 92 93
3 92 801 797
3 797 90 92
3 90 797 793
3 793 88 90
3 88 793 789
3 789 86 88
3 86 789 785
3 785 84 86
3 84 785 781
3 781 82 84
3 82 781 777
3 777 80 82
3 80 777 773
3 773 78 80
3 78 773 769
3 769 76 78
3 76 769 765
3 765 74 76
3 74 765 761
3 761 72 74
3 72 761 757
3 757 70 72
3 70 757 753
3 753 68 70
3 68 753 749
3 749 66 68
3 66 749 745
3 745 64 66
3 64 745 740
3 740 61 64
3 61 740 736
3 736 59 61
3 59 736 732
3 732 57 59
3 57 732 728
3 728 55 57
3 55 728 724
3 724 53 55
3 53 724 720
3 720 51 53
3 51 720 716
3 716 49 51
3 49 716 712
3 712 47 49
3 47 712 708
3 708 45 47
3 45 708 704
3 704 43 45
3 43 704 700
3 700 41 43
3 41 700 699
3 699 40 41
3 40 699 695
3 695 38 40
3 38 695 691
3 691 36 38
3 36 691 687
3 687 34 36
3 34 687 683
3 683 32 34
3 32 683 679
3 679 30 32
3 30 679 675
3 675 28 30
3 28 675 671
3 671 26 28
3 26 671 667
3 667 24 26
3 24 667 663
3 663 22 24
3 22 663 659
3 659 20 22
3 20 659 655
3 655 18 20
3 18 655 651
3 651 16 18
3 16 651 647
3 647 14 16
3 14 647 643
3 643 12 14
3 12 643 639
3 639 10 12
3 10 639 634
3 634 7 10
3 7 634 630
3 630 5 7
3 5 630 626
3 626 3 5
3 3 626 622
3 629 626 630
3 633 630 634
3 638 634 639
3 642 639 643
3 646 643 647
3 650 647 651
3 654 651 655
3 658 655 659
3 662 659 663
3 666 663 667
3 670 667 671
3 674 671 675
3 678 675 679
3 682 679 683
3 686 683 687
3 690 687 691
3 694 691 695
3 698 695 699
3 700 703 699
3 700 704 703
3 707 704 708
3 711 708 712
3 715 712 716
3 719 716 720
3 723 720 724
3 727 724 728
3 731 728 732
3 735 732 736
3 739 736 740
3 744 740 745
3 748 745 749
3 752 749 753
3 756 753 757
3 760 757 761
3 764 761 765
3 768 765 769
3 772 769 773
3 776 773 777
3 780 777 781
3 784 781 785
3 788 785 789
3 792 789 793
3 796 793 797
3 800 797 801
3 802 805 801
3 802 806 805
3 809 806 810
3 813 810 814
3 817 814 818
3 821 818 822
3 825 822 826
3 829 826 830
3 833 830 834
3 837 834 838
3 841 838 842
3 846 842 847
3 850 847 851
3 854 851 855
3 858 855 859
3 862 859 863
3 866 863 867
3 870 867 871
3 874 871 875
3 878 875 879
3 882 879 883
3 886 883 887
3 890 887 891
3 894 891 895
3 898 895 899
3 902 899 903
3 906 903 907
3 908 911 907
3 908 912 911
3 915 912 916
3 919 916 920
3 923 920 924
3 927 924 928
3 931 928 932
3 935 932 936
3 939 936 940
3 943 940 944
3 948 944 949
3 952 949 953
3 956 953 957
3 960 957 961
3 964 961 965
3 968 965 969
3 972 969 973
3 976 973 977
3 980 977 981
3 984 981 985
3 988 985 989
3 992 989 993
3 996 993 997
3 1000 997 1001
3 1004 1001 1005
3 1008 1005 1009
3 1010 1013 1009
3 1010 1014 1013
3 1017 1014 1018
3 1021 1018 1022
3 1025 1022 1026
3 1029 1026 1030
3 1033 1030 1034
3 1037 1034 1038
3 1041 1038 1042
3 1045 1042 1046
3 1049 1046 1050
3 1054 1050 1055
3 1058 1055 1059
3 1062 1059 1063
3 1066 1063 1067
3 1070 1067 1071
3 1074 1071 1075
3 1078 1075 1079
3 1082 1079 1083
3 1086 1083 1087
3 1090 1087 1091
3 1094 1091 1095
3 1098 1095 1099
3 1102 1099 1103
3 1106 1103 1107
3 1110 1107 1111
3 1112 1115 1111
3 1112 1116 1115
3 1119 1116 1120
3 1123 1120 1124
3 1127 1124 1128
3 1131 1128 1132
3 1135 1132 1136
3 1139 1136 1140
3 1143 1140 1144
3 1147 1144 1148
3 1151 1148 1152
3 1155 1152 1156
3 1159 1156 1160
3 1163 1160 1164
3 1167 1164 1168
3 1171 1168 1172
3 1175 1172 1176
3 1179 1176 1180
3 1183 1180 1184
3 1187 1184 1188
3 1191 1188 1192
3 1195 1192 1196
3 1199 1196 1200
3 1203 1200 1204
3 1207 1204 1208
3 1211 1208 1212
3 1215 1212 1216
3 1220 1219 1216
3 1220 1224 1219
3 1223 1224 1228
3 1227 1228 1232
3 1231 1232 1237
3 1234 1237 1239
3 1235 1239 1238
3 1233 1238 1236
3 1229 1236 1230
3 1225 1230 1226
3 1221 1226 1222
3 1217 1222 1218
3 1213 1218 1214
3 1209 1214 1210
3 1205 1210 1206
3 1201 1206 1202
3 1197 1202 1198
3 1193 1198 1194
3 1189 1194 1190
3 1185 1190 1186
3 1181 1186 1182
3 1177 1182 1178
3 1173 1178 1174
3 1169 1174 1170
3 1165 1170 1166
3 1161 1166 1162
3 1158 1157 1162
3 1158 1154 1157
3 1153 1154 1150
3 1149 1150 1146
3 1145 1146 1142
3 1141 1142 1138
3 1137 1138 1134
3 1133 1134 1130
3 1129 1130 1126
3 1125 1126 1122
3 1121 1122 1118
3 1117 1118 1114
3 1113 1114 1109
3 1108 1109 1105
3 1104 1105 1101
3 1100 1101 1097
3 1096 1097 1093
3 1092 1093 1089
3 1088 1089 1085
3 1084 1085 1081
3 1080 1081 1077
3 1076 1077 1073
3 1072 1073 1069
3 1068 1069 1065
3 1064 1065 1061
3 1060 1061 1057
3 1053 1056 1057
3 1053 1052 1056
3 1051 1052 1048
3 1047 1048 1044
3 1043 1044 1040
3 1039 1040 1036
3 1035 1036 1032
3 1031 1032 1028
3 1027 1028 1024
3 1023 1024 1020
3 1019 1020 1016
3 1015 1016 1012
3 1011 1012 1007
3 1006 1007 1003
3 1002 1003 999
3 998 999 995
3 994 995 991
3 990 991 987
3 986 987 983
3 982 983 979
3 978 979 975
3 974 975 971
3 970 971 967
3 966 967 963
3 962 963 959
3 958 959 955
3 954 955 951
3 947 950 951
3 947 946 950
3 945 946 942
3 941 942 938
3 937 938 934
3 933 934 930
3 929 930 926
3 925 926 922
3 921 922 918
3 917 918 914
3 913 914 910
3 909 910 905
3 904 905 901
3 900 901 897
3 896 897 893
3 892 893 889
3 888 889 885
3 884 885 881
3 880 881 877
3 876 877 873
3 872 873 869
3 868 869 865
3 864 865 861
3 860 861 857
3 856 857 853
3 852 853 849
3 845 848 849
3 845 844 848
3 844 840 843
3 839 840 836
3 835 836 832
3 831 832 828
3 827 828 824
3 823 824 820
3 819 820 816
3 815 816 812
3 811 812 808
3 807 808 804
3 803 804 799
3 798 799 795
3 794 795 791
3 790 791 787
3 786 787 783
3 782 783 779
3 778 779 775
3 774 775 771
3 770 771 767
3 766 767 763
3 762 763 759
3 758 759 755
3 754 755 751
3 750 751 747
3 743 746 747
3 743 741 746
3 742 741 738
3 737 738 734
3 733 734 730
3 729 730 726
3 725 726 722
3 721 722 718
3 717 718 714
3 713 714 710
3 709 710 706
3 705 706 702
3 701 702 697
3 696 697 693
3 692 693 689
3 688 689 685
3 684 685 681
3 680 681 677
3 676 677 673
3 672 673 669
3 668 669 665
3 664 665 661
3 660 661 657
3 656 657 653
3 652 653 649
3 648 649 645
3 644 645 641
3 637 640 641
3 637 636 640
3 635 636 632
3 631 632 628
3 624 4 2
3 623 624 620
3 628 627 631
3 632 631 635
3 636 635 640
3 641 640 644
3 645 644 648
3 649 648 652
3 653 652 656
3 657 656 660
3 661 660 664
3 665 664 668
3 669 668 672
3 673 672 676
3 677 676 680
3 681 680 684
3 685 684 688
3 689 688 692
3 693 692 696
3 697 696 701
3 702 701 705
3 706 705 709
3 710 709 713
3 714 713 717
3 718 717 721
3 722 721 725
3 726 725 729
3 730 729 733
3 734 733 737
3 738 737 742
3 741 742 746
3 747 746 750
3 751 750 754
3 755 754 758
3 759 758 762
3 763 762 766
3 767 766 770
3 771 770 774
3 775 774 778
3 779 778 782
3 783 782 786
3 787 786 790
3 791 790 794
3 795 794 798
3 799 798 803
3 804 803 807
3 808 807 811
3 812 811 815
3 816 815 819
3 820 819 823
3 824 823 827
3 828 827 831
3 832 831 835
3 836 835 839
3 840 839 843
3 844 843 848
3 849 848 852
3 853 852 856
3 857 856 860
3 861 860 864
3 865 864 868
3 869 868 872
3 873 872 876
3 877 876 880
3 881 880 884
3 885 884 888
3 889 888 892
3 893 892 896
3 897 896 900
3 901 900 904
3 905 904 909
3 910 909 913
3 914 913 917
3 918 917 921
3 922 921 925
3 926 925 929
3 930 929 933
3 934 933 937
3 938 937 941
3 942 941 945
3 946 945 950
3 951 950 954
3 955 954 958
3 959 958 962
3 963 962 966
3 967 966 970
3 971 970 974
3 975 974 978
3 979 978 982
3 983 982 986
3 987 986 990
3 991 990 994
3 995 994 998
3 999 998 1002
3 1003 1002 1006
3 1007 1006 1011
3 1012 1011 1015
3 1016 1015 1019
3 1020 1019 1023
3 1024 1023 1027
3 1028 1027 1031
3 1032 1031 1035
3 1036 1035 1039
3 1040 1039 1043
3 1044 1043 1047
3 1048 1047 1051
3 1052 1051 1056
3 1057 1056 1060
3 1061 1060 1064
3 1065 1064 1068
3 1069 1068 1072
3 1073 1072 1076
3 1077 1076 1080
3 1081 1080 1084
3 1085 1084 1088
3 1089 1088 1092
3 1093 1092 1096
3 1097 1096 1100
3 1101 1100 1104
3 1105 1104 1108
3 1109 1108 1113
3 1114 1113 1117
3 1118 1117 1121
3 1122 1121 1125
3 1126 1125 1129
3 1130 1129 1133
3 1134 1133 1137
3 1138 1137 1141
3 1142 1141 1145
3 1146 1145 1149
3 1150 1149 1153
3 1154 1153 1157
3 1162 1157 1161
3 1166 1161 1165
3 1170 1165 1169
3 1174 1169 1173
3 1178 1173 1177
3 1182 1177 1181
3 1186 1181 1185
3 1190 1185 1189
3 1194 1189 1193
3 1198 1193 1197
3 1202 1197 1201
3 1206 1201 1205
3 1210 1205 1209
3 1214 1209 1213
3 1218 1213 1217
3 1222 1217 1221
3 1226 1221 1225
3 1230 1225 1229
3 1236 1229 1233
3 1238 1233 1235
3 1239 1235 1234
3 1237 1234 1231
3 1232 1231 1227
3 1228 1227 1223
3 1224 1223 1219
3 1216 1219 1215
3 1212 1215 1211
3 1208 1211 1207
3 1204 1207 1203
3 1200 1203 1199
3 1196 1199 1195
3 1192 1195 1191
3 1188 1191 1187
3 1184 1187 1183
3 1180 1183 1179
3 1176 1179 1175
3 1172 1175 1171
3 1168 1171 1167
3 1164 1167 1163
3 1160 1163 1159
3 1156 1159 1155
3 1152 1155 1151
3 1148 1151 1147
3 1144 1147 1143
3 1140 1143 1139
3 1136 1139 1135
3 1132 1135 1131
3 1128 1131 1127
3 1124 1127 1123
3 1120 1123 1119
3 1116 1119 1115
3 1111 1115 1110
3 1107 1110 1106
3 1103 1106 1102
3 1099 1102 1098
3 1095 1098 1094
3 1091 1094 1090
3 1087 1090 1086
3 1083 1086 1082
3 1079 1082 1078
3 1075 1078 1074
3 1071 1074 1070
3 1067 1070 1066
3 1063 1066 1062
3 1059 1062 1058
3 1055 1058 1054
3 1050 1054 1049
3 1046 1049 1045
3 1042 1045 1041
3 1038 1041 1037
3 1034 1037 1033
3 1030 1033 1029
3 1026 1029 1025
3 1022 1025 1021
3 1018 1021 1017
3 1014 1017 1013
3 1009 1013 1008
3 1005 1008 1004
3 1001 1004 1000
3 997 1000 996
3 993 996 992
3 989 992 988
3 985 988 984
3 981 984 980
3 977 980 976
3 973 976 972
3 969 972 968
3 965 968 964
3 961 964 960
3 957 960 956
3 953 956 952
3 949 952 948
3 944 948 943
3 940 943 939
3 936 939 935
3 932 935 931
3 928 931 927
3 924 927 923
3 920 923 919
3 916 919 915
3 912 915 911
3 907 911 906
3 903 906 902
3 899 902 898
3 895 898 894
3 891 894 890
3 887 890 886
3 883 886 882
3 879 882 878
3 875 878 874
3 871 874 870
3 867 870 866
3 863 866 862
3 859 862 858
3 855 858 854
3 851 854 850
3 847 850 846
3 842 846 841
3 838 841 837
3 834 837 833
3 830 833 829
3 826 829 825
3 822 825 821
3 818 821 817
3 814 817 813
3 810 813 809
3 806 809 805
3 801 805 800
3 797 800 796
3 793 796 792
3 789 792 788
3 785 788 784
3 781 784 780
3 777 780 776
3 773 776 772
3 769 772 768
3 765 768 764
3 761 764 760
3 757 760 756
3 753 756 752
3 749 752 748
3 745 748 744
3 740 744 739
3 736 739 735
3 732 735 731
3 728 731 727
3 724 727 723
3 720 723 719
3 716 719 715
3 712 715 711
3 708 711 707
3 704 707 703
3 699 703 698
3 695 698 694
3 691 694 690
3 687 690 686
3 683 686 682
3 679 682 678
3 675 678 674
3 671 674 670
3 667 670 666
3 663 666 662
3 659 662 658
3 655 658 654
3 651 654 650
3 647 650 646
3 643 646 642
3 639 642 638
3 634 638 633
3 630 633 629
3 626 629 625
3 621 317 1
3 625 622 626
3 620 621 623
3 622 0 3
3 2 620 624
CELL_TYPES 1860
9
9
9
9
9
9
9
9
9
9
9
9
9
9
9
9
9
9
9
9
9
9
9
9
9
9
9
9
9
9
9
9
9
9
9
9
9
9
9
9
9
9
9
9
9
9
9
9
9
9
9
9
9
9
9
9
9
9
9
9
9
9
9
9
9
9
9
9
9
9
9
9
9
9
9
9
9
9
9
9
9
9
9
9
9
9
9
9
9
9
9
9
9
9
9
9
9
9
9
9
9
9
9
9
9
9
9
9
9
9
9
9
9
9
9
9
9
9
9
9
9
9
9
9
9
9
9
9
9
9
9
9
9
9
9
9
9
9
9
9
9
9
9
9
9
9
9
9
9
9
9
9
9
9
9
9
9
9
9
9
9
9
9
9
9
9
9
9
9
9
9
9
9
9
9
9
9
9
9
9
9
9
9
9
9
9
9
9
9
9
9
9
9
9
9
9
9
9
9
9
9
9
9
9
9
9
9
9
9
9
9
9
9
9
9
9
9
9
9
9
9
9
9
9
9
9
9
9
9
9
9
9
9
9
9
9
9
9
9
9
9
9
9
9
9
9
9
9
9
9
9
9
9
9
9
9
9
9
9
9
9
9
9
9
9
9
9
9
9
9
9
9
9
9
9
9
9
9
9
9
9
9
9
9
9
9
9
9
9
9
9
9
9
9
9
9
9
9
9
9
9
9
9
9
9
9
9
9
9
9
9
9
9
9
9
9
9
9
9
9
9
9
9
9
9
9
9
9
9
9
9
9
9
9
9
9
9
9
9
9
9
9
9
9
9
9
9
9
9
9
9
9
9
9
9
9
9
9
9
9
9
9
9
9
9
9
9
9
9
9
9
9
9
9
9
9
9
9
9
9
9
9
9
9
9
9
9
9
9
9
9
9
9
9
9
9
9
9
9
9
9
9
9
9
9
9
9
9
9
9
9
9
9
9
9
9
9
9
9
9
9
9
9
9
9
9
9
9
9
9
9
9
9
9
9
9
9
9
9
9
9
9
9
9
9
9
9
9
9
9
9
9
9
9
9
9
9
9
9
9
9
9
9
9
9
9
9
9
9
9
9
9
9
9
9
9
9
9
9
9
9
9
9
9
9
9
9
9
9
9
9
9
9
9
9
9
9
9
9
9
9
9
9
9
9
9
9
9
9
9
9
9
9
9
9
9
9
9
9
9
9
9
9
9
9
9
9
9
9
9
9
9
9
9
9
9
9
9
9
9
9
9
9
9
9
9
9
9
9
9
9
9
9
9
9
9
9
9
9
9
9
9
9
9
9
9
9
9
9
9
9
9
9
9
9
9
9
9
9
9
9
9
9
9
9
9
9
9
9
9
9
9
9
9
9
9
9
9
9
9
9
9
9
9
9
9
9
9
9
9
9
9
9
9
9
9
9
9
9
9
9
9
9
9
9
9
9
9
9
9
9
9
9
9
9
9
9
9
9
9
9
9
9
9
9
9
9
9
9
9
9
9
9
9
9
9
9
9
9
9
9
9
9
9
9
9
9
9
9
9
9
9
9
9
9
9
9
9
9
9
9
9
9
9
9
9
9
9
9
9
9
9
9
9
9
9
9
9
9
9
9
9
9
9
9
9
9
9
9
9
9
9
9
9
9
9
9
9
9
9
9
9
9
9
9
9
9
9
9
9
9
9
9
9
9
9
9
9
9
9
9
9
9
9
9
9
9
9
9
9
9
9
9
9
9
9
9
9
9
9
9
9
9
9
9
9
9
9
9
9
9
9
9
9
9
9
9
9
9
9
9
9
9
9
9
9
9
9
9
9
9
9
9
9
9
9
9
9
9
9
9
9
9
9
9
9
9
9
9
9
9
9
9
9
9
9
9
9
9
9
9
9
9
9
9
9
9
9
9
9
9
9
9
9
9
9
9
9
9
9
9
9
9
9
9
9
9
9
9
9
9
9
9
9
9
9
9
9
9
9
9
9
9
9
9
9
9
9
9
9
9
9
9
9
9
9
9
9
9
9
9
9
9
9
9
9
9
9
9
9
9
9
9
9
9
9
9
9
9
9
9
9
9
9
9
9
9
9
9
9
9
9
9
9
9
9
9
9
9
9
9
9
9
9
9
9
9
9
9
9
9
9
9
9
9
9
9
9
9
9
9
9
9
9
9
9
9
9
9
9
9
9
9
9
9
9
9
9
9
9
9
9
9
9
9
9
9
9
9
9
9
9
9
9
9
9
9
9
9
9
9
9
9
9
9
9
9
9
9
9
9
9
9
9
9
9
9
9
9
9
9
9
9
9
9
9
9
9
9
9
9
9
9
9
9
9
9
9
9
9
9
9
9
9
9
9
9
9
9
9
9
9
9
9
9
9
9
9
9
9
9
9
9
9
9
9
9
9
9
9
9
9
9
9
9
9
9
9
9
9
9
9
9
9
9
9
9
9
9
9
9
9
9
9
9
9
9
9
9
9
9
9
9
9
9
9
9
9
9
9
9
9
9
9
9
9
9
9
9
9
9
9
9
9
9
9
9
9
9
9
9
9
9
9
9
9
9
9
9
9
9
9
9
9
9
9
9
9
9
9
9
9
9
9
9
9
9
9
9
9
9
9
9
9
9
9
9
9
9
9
9
9
9
9
9
9
9
9
9
9
9
9
9
9
9
9
9
9
9
9
9
9
9
9
9
9
9
9
9
9
9
9
9
9
9
9
9
9
9
9
9
9
9
9
9
9
9
9
9
9
9
9
9
9
9
9
9
9
9
9
9
9
9
9
9
9
9
9
9
9
9
9
9
9
9
9
9
9
9
9
9
9
9
9
9
9
9
9
9
9
9
9
9
9
9
9
9
9
9
9
9
9
9
9
9
9
9
9
9
9
9
9
9
9
9
9
9
9
9
9
9
9
9
9
9
9
9
9
9
9
9
9
9
9
9
9
9
9
9
9
9
9
9
9
9
9
9
9
9
9
9
9
9
9
9
9
9
9
9
9
9
9
9
9
9
9
9
9
9
9
9
9
9
9
9
9
9
9
9
9
9
9
9
9
9
9
9
9
9
9
9
9
9
9
9
9
9
9
9
9
9
9
9
9
9
9
9
9
9
9
9
9
9
9
9
9
9
9
9
9
9
9
9
9
9
9
9
9
9
9
9
9
9
9
9
9
9
9
9
9
9
9
9
9
9
9
9
9
9
9
9
9
9
9
9
9
9
9
9
9
9
9
9
9
9
9
9
9
9
9
9
9
9
9
9
9
9
9
9
9
9
9
9
9
9
9
9
9
9
9
9
9
9
9
9
9
9
9
9
9
9
9
9
9
9
9
9
9
9
9
9
9
9
9
9
9
9
9
9
9
9
9
9
9
9
9
9
9
9
9
9
9
9
9
9
9
9
9
9
9
9
9
9
9
9
9
9
9
9
9
9
9
9
9
9
9
9
9
9
9
9
9
9
9
9
9
9
9
9
9
9
9
9
9
9
9
9
9
9
9
9
9
9
9
9
9
9
9
9
9
9
9
9
9
9
9
9
9
9
9
9
9
9
9
9
9
9
9
9
9
9
9
9
9
9
9
9
9
9
9
9
9
9
9
9
9
9
9
9
9
9
9
9
9
9
9
9
9
9
9
9
9
9
9
9
9
9
9
9
9
9
9
9
9
9
9
9
9
9
9
9
9
9
9
9
9
9
9
9
9
9
9
9
9
9
9
9
9
9
9
9
9
9
9
9
9
9
9
9
9
9
9
9
9
9
9
9
9
9
9
9
9
9
9
9
9
9
9
9
9
9
9
9
9
9
9
9
9
9
9
9
9
9
9
9
9
9
9
9
9
9
9
9
9
9
9
9
9
9
9
9
9
9
9
9
9
9
9
9
9
9
9
9
9
9
9
9
9
9
9
9
9
9
9
9
9
9
9
9
9
9
9
9
9
9
9
9
9
9
9
9
9
9
9
9
9
9
9
9
9
9
9
9
9
9
9
9
9
9
9
9
9
9
9
9
9
9
9
9
9
9
9
9
9
9
9
9
9
9
9
9
9
9
9
9
9
9
9
9
9
9
9
9
9
9
9
9
9
9
9
9
9
9
9
9
9
9
9
9
9
9
9
9
9
9
9
9
9
9
9
9
9
9
9
9
9
9
9
9
9
9
9
9
9
9
9
9
9
9
9
9
9
9
9
9
9
9
9
9
9
9
9
9
9
9
9
9
9
9
9
9
9
9
9
9
9
9
9
9
9
POINT_DATA 1240
SCALARS u1 float
LOOKUP_TABLE default
-6e-06
-6e-06
-6e-06
-7e-06
-6e-06
-8e-06
-5e-06
-8e-06
-5e-06
-5e-06
-8e-06
-5e-06
-9e-06
-5e-06
-9e-06
-6e-06
-9e-06
-6e-06
-9e-06
-6e-06
-8e-06
-6e-06
-8e-06
-7e-06
-8e-06
-7e-06
-7e-06
-8e-06
-6e-06
-9e-06
-6e-06
-1e-05
-5e-06
-1e-05
-4e-06
-1e-05
-4e-06
-1e-05
-3e-06
-1e-05
-3e-06
-3e-06
-2e-05
-3e-06
-2e-05
-2e-06
-2e-05
-2e-06
-2e-05
-2e-06
-2e-05
-2e-06
-2e-05
-2e-06
-2e-05
-2e-06
-2e-05
-2e-06
-2e-05
-2e-06
-2e-05
-2e-06
-2e-05
-2e-05
-3e-06
-2e-05
-3e-06
-2e-05
-3e-06
-2e-05
-3e-06
-2e-05
-3e-06
-2e-05
-4e-06
-2e-05
-4e-06
-2e-05
-4e-06
-2e-05
-4e-06
-2e-05
-4e-06
-1e-05
-4e-06
-1e-05
-4e-06
-1e-05
-3e-06
-1e-05
-3e-06
-1e-05
-3e-06
-2e-06
-9e-06
-2e-06
-9e-06
-2e-06
-8e-06
-1e-06
-8e-06
-1e-06
-7e-06
-8e-07
-7e-06
-5e-07
-7e-06
-3e-07
-6e-06
-7e-08
-6e-06
1e-07
-6e-06
2e-07
-6e-06
-6e-06
3e-07
-6e-06
2e-07
-7e-06
1e-07
-7e-06
-3e-08
-8e-06
-2e-07
-8e-06
-5e-07
-9e-06
-7e-07
-9e-06
-9e-07
-1e-05
-1e-06
-1e-05
-1e-06
-1e-05
-1e-06
-1e-05
-1e-06
-1e-05
-1e-06
-1e-05
-1e-06
-1e-05
-1e-06
-9e-06
-1e-06
-1e-06
-9e-06
-1e-06
-8e-06
-1e-06
-7e-06
-1e-06
-7e-06
-9e-07
-6e-06
-5e-07
-6e-06
-1e-07
-5e-06
4e-07
-5e-06
1e-06
-4e-06
2e-06
-4e-06
-4e-06
2e-06
-4e-06
3e-06
-4e-06
3e-06
-4e-06
4e-06
-4e-06
4e-06
-4e-06
5e-06
-4e-06
5e-06
-4e-06
5e-06
-4e-06
4e-06
-5e-06
4e-06
-5e-06
4e-06
-5e-06
3e-06
-5e-06
3e-06
-5e-06
2e-06
-6e-06
2e-06
-6e-06
1e-06
8e-07
-6e-06
6e-07
-6e-06
5e-07
-6e-06
5e-07
-6e-06
6e-07
-6e-06
8e-07
-5e-06
1e-06
-5e-06
1e-06
-5e-06
2e-06
-5e-06
2e-06
-4e-06
3e-06
-4e-06
3e-06
-3e-06
4e-06
-3e-06
5e-06
-3e-06
6e-06
-3e-06
7e-06
-2e-06
8e-06
-2e-06
9e-06
-2e-06
1e-05
-2e-06
1e-05
-2e-06
1e-05
-2e-06
1e-05
-2e-06
2e-05
-2e-06
2e-05
-2e-06
2e-05
-2e-06
2e-05
-3e-06
2e-05
-3e-06
2e-05
-3e-06
2e-05
-3e-06
2e-05
-3e-06
2e-05
-3e-06
2e-05
-3e-06
2e-05
-3e-06
2e-05
-3e-06
1e-05
-3e-06
1e-05
-3e-06
1e-05
-3e-06
1e-05
-3e-06
1e-05
-3e-06
9e-06
-3e-06
7e-06
-2e-06
6e-06
-2e-06
5e-06
-1e-06
4e-06
-6e-07
3e-06
5e-08
2e-06
7e-07
2e-06
1e-06
1e-06
2e-06
9e-07
2e-06
5e-07
3e-06
2e-07
3e-06
-9e-08
3e-06
-3e-07
3e-06
-5e-07
3e-06
-5e-07
3e-06
-5e-07
2e-06
-3e-07
2e-06
-2e-08
1e-06
4e-07
8e-07
-6e-06
-5e-06
-6e-06
-5e-06
-7e-06
-5e-06
-7e-06
-5e-06
-8e-06
-5e-06
-8e-06
-6e-06
-9e-06
-6e-06
-9e-06
-6e-06
-9e-06
-7e-06
-9e-06
-7e-06
-8e-06
-8e-06
-8e-06
-8e-06
-8e-06
-9e-06
-7e-06
-1e-05
-6e-06
-1e-05
-6e-06
-1e-05
-5e-06
-1e-05
-5e-06
-1e-05
-4e-06
-2e-05
-3e-06
-2e-05
-3e-06
-2e-05
-3e-06
-2e-05
-2e-06
-2e-05
-2e-06
-2e-05
-2e-06
-2e-05
-2e-06
-2e-05
-2e-06
-2e-05
-2e-06
-2e-05
-2e-06
-2e-05
-2e-06
-2e-05
-1e-06
-2e-05
-1e-06
-2e-05
-1e-06
-2e-05
-1e-06
-2e-05
-1e-06
-2e-05
-1e-06
-2e-05
-1e-06
-2e-05
-2e-06
-2e-05
-2e-06
-2e-05
-2e-06
-1e-05
-2e-06
-1e-05
-2e-06
-1e-05
-2e-06
-1e-05
-2e-06
-1e-05
-2e-06
-1e-05
-2e-06
-9e-06
-2e-06
-8e-06
-2e-06
-8e-06
-2e-06
-7e-06
-2e-06
-7e-06
-2e-06
-7e-06
-2e-06
-6e-06
-2e-06
-6e-06
-2e-06
-6e-06
-2e-06
-6e-06
-2e-06
-6e-06
-2e-06
-6e-06
-2e-06
-7e-06
-2e-06
-7e-06
-2e-06
-8e-06
-2e-06
-8e-06
-2e-06
-9e-06
-2e-06
-9e-06
-2e-06
-1e-05
-2e-06
-1e-05
-2e-06
-1e-05
-2e-06
-1e-05
-2e-06
-1e-05
-2e-06
-1e-05
-2e-06
-1e-05
-1e-06
-9e-06
-1e-06
-9e-06
-9e-07
-8e-06
-5e-07
-7e-06
-3e-08
-7e-06
5e-07
-6e-06
1e-06
-6e-06
2e-06
-5e-06
2e-06
-5e-06
3e-06
-4e-06
4e-06
-4e-06
4e-06
-4e-06
4e-06
-4e-06
4e-06
-4e-06
5e-06
-4e-06
4e-06
-4e-06
4e-06
-3e-06
4e-06
-3e-06
4e-06
-3e-06
3e-06
-3e-06
2e-06
-3e-06
2e-06
-3e-06
1e-06
-3e-06
1e-06
-3e-06
7e-07
-3e-06
5e-07
-4e-06
5e-07
-4e-06
5e-07
-4e-06
6e-07
-4e-06
9e-07
-4e-06
1e-06
-4e-06
1e-06
-4e-06
2e-06
-4e-06
2e-06
-4e-06
3e-06
-4e-06
3e-06
-4e-06
4e-06
-4e-06
5e-06
-4e-06
6e-06
-4e-06
7e-06
-4e-06
8e-06
-4e-06
9e-06
-4e-06
1e-05
-4e-06
1e-05
-4e-06
1e-05
-4e-06
1e-05
-4e-06
2e-05
-4e-06
2e-05
-4e-06
2e-05
-4e-06
2e-05
-4e-06
2e-05
-4e-06
2e-05
-4e-06
2e-05
-4e-06
2e-05
-4e-06
2e-05
-4e-06
2e-05
-4e-06
2e-05
-4e-06
2e-05
-3e-06
1e-05
-3e-06
1e-05
-3e-06
1e-05
-3e-06
1e-05
-2e-06
1e-05
-2e-06
9e-06
-1e-06
8e-06
-5e-07
6e-06
2e-07
5e-06
8e-07
4e-06
1e-06
3e-06
2e-06
3e-06
2e-06
2e-06
3e-06
1e-06
3e-06
1e-06
3e-06
6e-07
3e-06
3e-07
3e-06
-2e-08
3e-06
-3e-07
2e-06
-5e-07
2e-06
-5e-07
1e-06
-5e-07
8e-07
-3e-07
-6e-08
3e-07
-6e-06
-6e-06
-6e-06
-6e-06
-6e-06
-6e-06
-7e-06
-5e-06
-5e-06
-7e-06
-7e-06
-5e-06
-5e-06
-7e-06
-8e-06
-5e-06
-5e-06
-5e-06
-8e-06
-8e-06
-5e-06
-5e-06
-8e-06
-9e-06
-5e-06
-5e-06
-9e-06
-9e-06
-6e-06
-6e-06
-9e-06
-9e-06
-6e-06
-6e-06
-9e-06
-9e-06
-6e-06
-6e-06
-9e-06
-8e-06
-7e-06
-7e-06
-8e-06
-8e-06
-7e-06
-7e-06
-8e-06
-8e-06
-8e-06
-8e-06
-8e-06
-7e-06
-8e-06
-9e-06
-7e-06
-6e-06
-9e-06
-9e-06
-6e-06
-6e-06
-1e-05
-1e-05
-6e-06
-5e-06
-1e-05
-1e-05
-5e-06
-4e-06
-1e-05
-1e-05
-4e-06
-4e-06
-1e-05
-1e-05
-4e-06
-3e-06
-1e-05
-2e-05
-3e-06
-3e-06
-3e-06
-2e-05
-2e-05
-3e-06
-3e-06
-2e-05
-2e-05
-3e-06
-2e-06
-2e-05
-2e-05
-2e-06
-2e-06
-2e-05
-2e-05
-2e-06
-2e-06
-2e-05
-2e-05
-2e-06
-2e-06
-2e-05
-2e-05
-2e-06
-2e-06
-2e-05
-2e-05
-2e-06
-2e-06
-2e-05
-2e-05
-2e-06
-2e-06
-2e-05
-2e-05
-2e-06
-2e-06
-2e-05
-2e-05
-2e-06
-2e-06
-2e-05
-2e-05
-2e-05
-2e-06
-2e-06
-2e-05
-2e-05
-2e-06
-2e-06
-2e-05
-2e-05
-2e-06
-2e-06
-2e-05
-2e-05
-2e-06
-3e-06
-2e-05
-2e-05
-2e-06
-3e-06
-2e-05
-2e-05
-2e-06
-3e-06
-2e-05
-2e-05
-2e-06
-3e-06
-2e-05
-2e-05
-2e-06
-3e-06
-2e-05
-2e-05
-2e-06
-3e-06
-2e-05
-2e-05
-2e-06
-3e-06
-2e-05
-1e-05
-2e-06
-3e-06
-1e-05
-1e-05
-2e-06
-3e-06
-1e-05
-1e-05
-2e-06
-3e-06
-1e-05
-1e-05
-2e-06
-3e-06
-1e-05
-1e-05
-2e-06
-2e-06
-2e-06
-1e-05
-9e-06
-2e-06
-2e-06
-9e-06
-9e-06
-2e-06
-2e-06
-8e-06
-8e-06
-2e-06
-1e-06
-8e-06
-8e-06
-2e-06
-1e-06
-7e-06
-7e-06
-1e-06
-1e-06
-7e-06
-7e-06
-1e-06
-9e-07
-7e-06
-7e-06
-1e-06
-7e-07
-7e-06
-6e-06
-1e-06
-6e-07
-6e-06
-6e-06
-1e-06
-5e-07
-6e-06
-6e-06
-1e-06
-5e-07
-6e-06
-6e-06
-6e-06
-1e-06
-6e-07
-6e-06
-6e-06
-1e-06
-6e-07
-6e-06
-7e-06
-1e-06
-7e-07
-7e-06
-7e-06
-2e-06
-9e-07
-7e-06
-8e-06
-2e-06
-1e-06
-8e-06
-8e-06
-2e-06
-1e-06
-8e-06
-9e-06
-2e-06
-1e-06
-9e-06
-9e-06
-2e-06
-1e-06
-9e-06
-1e-05
-2e-06
-2e-06
-1e-05
-1e-05
-2e-06
-2e-06
-1e-05
-1e-05
-2e-06
-2e-06
-1e-05
-1e-05
-2e-06
-2e-06
-1e-05
-1e-05
-2e-06
-2e-06
-1e-05
-1e-05
-2e-06
-2e-06
-1e-05
-1e-05
-2e-06
-2e-06
-1e-05
-9e-06
-2e-06
-1e-06
-1e-06
-9e-06
-9e-06
-1e-06
-1e-06
-9e-06
-8e-06
-1e-06
-1e-06
-8e-06
-7e-06
-8e-07
-8e-07
-7e-06
-7e-06
-5e-07
-5e-07
-7e-06
-6e-06
-2e-08
-5e-08
-6e-06
-6e-06
5e-07
5e-07
-6e-06
-5e-06
1e-06
1e-06
-5e-06
-5e-06
2e-06
2e-06
-5e-06
-5e-06
2e-06
2e-06
-4e-06
-4e-06
-4e-06
3e-06
3e-06
-4e-06
-4e-06
3e-06
3e-06
-4e-06
-4e-06
4e-06
4e-06
-4e-06
-4e-06
4e-06
4e-06
-4e-06
-4e-06
4e-06
5e-06
-4e-06
-4e-06
5e-06
5e-06
-4e-06
-4e-06
4e-06
5e-06
-4e-06
-4e-06
4e-06
4e-06
-4e-06
-4e-06
4e-06
4e-06
-4e-06
-4e-06
4e-06
4e-06
-4e-06
-4e-06
3e-06
3e-06
-4e-06
-4e-06
3e-06
3e-06
-4e-06
-5e-06
2e-06
2e-06
-4e-06
-5e-06
1e-06
1e-06
-4e-06
-5e-06
1e-06
1e-06
-4e-06
-5e-06
7e-07
7e-07
6e-07
-4e-06
-5e-06
5e-07
5e-07
-4e-06
-5e-06
5e-07
5e-07
-4e-06
-5e-06
5e-07
6e-07
-4e-06
-5e-06
7e-07
7e-07
-4e-06
-5e-06
9e-07
1e-06
-4e-06
-5e-06
1e-06
1e-06
-4e-06
-5e-06
2e-06
2e-06
-4e-06
-4e-06
2e-06
2e-06
-4e-06
-4e-06
2e-06
2e-06
-4e-06
-4e-06
3e-06
3e-06
-4e-06
-4e-06
-3e-06
3e-06
4e-06
-4e-06
-3e-06
4e-06
4e-06
-3e-06
-3e-06
5e-06
5e-06
-3e-06
-3e-06
6e-06
6e-06
-3e-06
-3e-06
7e-06
7e-06
-3e-06
-3e-06
8e-06
9e-06
-3e-06
-3e-06
1e-05
1e-05
-3e-06
-2e-06
1e-05
1e-05
-3e-06
-3e-06
1e-05
1e-05
-3e-06
-3e-06
1e-05
1e-05
-3e-06
-3e-06
1e-05
1e-05
-3e-06
-3e-06
2e-05
2e-05
-4e-06
-3e-06
2e-05
2e-05
-4e-06
-3e-06
2e-05
2e-05
-4e-06
-3e-06
2e-05
2e-05
2e-05
-4e-06
-3e-06
2e-05
2e-05
-4e-06
-3e-06
2e-05
2e-05
-4e-06
-3e-06
2e-05
2e-05
-4e-06
-3e-06
2e-05
2e-05
-4e-06
-3e-06
2e-05
2e-05
-4e-06
-3e-06
2e-05
2e-05
-4e-06
-3e-06
2e-05
2e-05
-3e-06
-3e-06
2e-05
1e-05
-3e-06
-3e-06
1e-05
1e-05
-3e-06
-3e-06
1e-05
1e-05
-3e-06
-3e-06
1e-05
1e-05
-3e-06
-3e-06
1e-05
1e-05
-2e-06
-3e-06
9e-06
8e-06
-2e-06
-2e-06
8e-06
7e-06
-1e-06
-2e-06
7e-06
6e-06
-5e-07
-1e-06
5e-06
5e-06
1e-07
-6e-07
4e-06
4e-06
8e-07
9e-08
4e-06
3e-06
1e-06
8e-07
3e-06
2e-06
2e-06
1e-06
2e-06
2e-06
2e-06
2e-06
2e-06
1e-06
3e-06
2e-06
1e-06
8e-07
3e-06
3e-06
7e-07
4e-07
3e-06
3e-06
4e-07
1e-07
3e-06
3e-06
4e-08
-2e-07
3e-06
3e-06
-2e-07
-4e-07
3e-06
3e-06
-5e-07
-5e-07
2e-06
3e-06
-5e-07
-5e-07
2e-06
2e-06
-5e-07
-5e-07
1e-06
2e-06
-3e-07
-3e-07
8e-07
-5e-08
3e-07
1e-06
-4e-08
8e-07
3e-07
SCALARS u2 float
LOOKUP_TABLE default
-2e-06
-2e-06
-1e-06
-2e-06
-8e-07
-3e-06
-5e-07
-3e-06
-3e-07
-2e-07
-4e-06
-2e-07
-5e-06
-2e-07
-5e-06
-2e-07
-6e-06
-2e-07
-6e-06
-2e-07
-6e-06
-2e-07
-6e-06
-3e-07
-6e-06
-4e-07
-6e-06
-5e-07
-6e-06
-7e-07
-5e-06
-9e-07
-5e-06
-1e-06
-4e-06
-1e-06
-4e-06
-2e-06
-3e-06
-2e-06
-3e-06
-2e-06
-2e-06
-2e-06
-2e-06
-2e-06
-2e-06
-2e-06
-2e-06
-2e-06
-2e-06
-2e-06
-1e-06
-3e-06
-1e-06
-3e-06
-8e-07
-3e-06
-5e-07
-4e-06
-2e-07
-4e-06
2e-07
5e-07
-5e-06
8e-07
-5e-06
1e-06
-6e-06
1e-06
-7e-06
2e-06
-8e-06
2e-06
-9e-06
2e-06
-1e-05
2e-06
-1e-05
2e-06
-1e-05
2e-06
-1e-05
2e-06
-2e-05
2e-06
-2e-05
2e-06
-2e-05
2e-06
-2e-05
1e-06
-2e-05
-2e-05
1e-06
-2e-05
1e-06
-2e-05
8e-07
-2e-05
7e-07
-2e-05
7e-07
-2e-05
7e-07
-2e-05
7e-07
-2e-05
7e-07
-2e-05
7e-07
-2e-05
8e-07
-1e-05
8e-07
1e-06
-1e-05
1e-06
-1e-05
1e-06
-1e-05
2e-06
-9e-06
2e-06
-8e-06
3e-06
-7e-06
3e-06
-6e-06
4e-06
-5e-06
5e-06
-4e-06
5e-06
-3e-06
6e-06
-3e-06
6e-06
-3e-06
7e-06
-2e-06
7e-06
-2e-06
7e-06
-2e-06
7e-06
-1e-06
-1e-06
7e-06
-1e-06
7e-06
-1e-06
6e-06
-1e-06
6e-06
-2e-06
5e-06
-2e-06
5e-06
-2e-06
4e-06
-3e-06
4e-06
-4e-06
4e-06
-4e-06
3e-06
3e-06
-4e-06
3e-06
-5e-06
4e-06
-5e-06
4e-06
-5e-06
4e-06
-5e-06
4e-06
-5e-06
5e-06
-4e-06
5e-06
-4e-06
6e-06
-3e-06
6e-06
-2e-06
7e-06
-2e-06
8e-06
-1e-06
9e-06
-4e-07
1e-05
1e-07
1e-05
6e-07
1e-05
9e-07
1e-06
1e-05
1e-06
2e-05
2e-06
2e-05
2e-06
2e-05
2e-06
2e-05
2e-06
2e-05
2e-06
2e-05
2e-06
2e-05
2e-06
2e-05
2e-06
2e-05
2e-06
2e-05
1e-06
2e-05
1e-06
2e-05
1e-06
2e-05
8e-07
2e-05
6e-07
2e-05
4e-07
2e-05
2e-07
2e-05
1e-07
2e-05
1e-07
2e-05
2e-07
1e-05
3e-07
1e-05
4e-07
1e-05
7e-07
1e-05
9e-07
1e-05
1e-06
9e-06
1e-06
8e-06
2e-06
7e-06
2e-06
7e-06
3e-06
6e-06
3e-06
6e-06
3e-06
5e-06
3e-06
5e-06
4e-06
5e-06
4e-06
5e-06
4e-06
4e-06
4e-06
4e-06
4e-06
5e-06
4e-06
5e-06
4e-06
5e-06
4e-06
5e-06
4e-06
6e-06
4e-06
7e-06
3e-06
7e-06
3e-06
8e-06
3e-06
8e-06
3e-06
8e-06
3e-06
9e-06
3e-06
9e-06
3e-06
9e-06
3e-06
8e-06
3e-06
8e-06
3e-06
7e-06
3e-06
7e-06
3e-06
6e-06
3e-06
6e-06
3e-06
5e-06
3e-06
4e-06
3e-06
4e-06
-3e-06
-2e-06
-3e-06
-1e-06
-4e-06
-7e-07
-5e-06
-4e-07
-5e-06
-2e-07
-6e-06
2e-08
-6e-06
1e-07
-6e-06
3e-07
-6e-06
4e-07
-6e-06
5e-07
-6e-06
6e-07
-6e-06
6e-07
-5e-06
7e-07
-5e-06
7e-07
-4e-06
8e-07
-4e-06
8e-07
-3e-06
7e-07
-3e-06
7e-07
-2e-06
6e-07
-2e-06
5e-07
-2e-06
4e-07
-2e-06
3e-07
-2e-06
2e-07
-3e-06
2e-07
-3e-06
2e-07
-3e-06
2e-07
-3e-06
2e-07
-4e-06
2e-07
-4e-06
2e-07
-5e-06
2e-07
-6e-06
2e-07
-6e-06
2e-07
-7e-06
3e-07
-8e-06
2e-07
-1e-05
2e-07
-1e-05
1e-07
-1e-05
3e-08
-1e-05
-5e-08
-1e-05
-1e-07
-2e-05
-2e-07
-2e-05
-3e-07
-2e-05
-3e-07
-2e-05
-3e-07
-2e-05
-3e-07
-2e-05
-2e-07
-2e-05
-1e-07
-2e-05
-2e-08
-2e-05
8e-08
-2e-05
2e-07
-2e-05
3e-07
-2e-05
4e-07
-2e-05
6e-07
-2e-05
8e-07
-2e-05
1e-06
-1e-05
1e-06
-1e-05
2e-06
-1e-05
2e-06
-1e-05
3e-06
-9e-06
4e-06
-8e-06
4e-06
-7e-06
5e-06
-6e-06
5e-06
-5e-06
6e-06
-4e-06
6e-06
-4e-06
7e-06
-3e-06
7e-06
-3e-06
7e-06
-2e-06
7e-06
-2e-06
7e-06
-2e-06
7e-06
-1e-06
6e-06
-1e-06
6e-06
-1e-06
5e-06
-1e-06
5e-06
-1e-06
4e-06
-2e-06
4e-06
-2e-06
4e-06
-2e-06
3e-06
-3e-06
3e-06
-3e-06
4e-06
-4e-06
4e-06
-4e-06
4e-06
-5e-06
4e-06
-5e-06
5e-06
-5e-06
5e-06
-5e-06
5e-06
-4e-06
6e-06
-4e-06
7e-06
-4e-06
7e-06
-3e-06
8e-06
-2e-06
9e-06
-2e-06
1e-05
-1e-06
1e-05
-5e-07
1e-05
2e-08
1e-05
5e-07
2e-05
9e-07
2e-05
1e-06
2e-05
2e-06
2e-05
2e-06
2e-05
2e-06
2e-05
2e-06
2e-05
2e-06
2e-05
2e-06
2e-05
2e-06
2e-05
2e-06
2e-05
3e-06
2e-05
3e-06
2e-05
3e-06
2e-05
3e-06
2e-05
3e-06
2e-05
3e-06
2e-05
2e-06
2e-05
2e-06
2e-05
2e-06
1e-05
2e-06
1e-05
2e-06
1e-05
2e-06
1e-05
2e-06
1e-05
2e-06
9e-06
2e-06
8e-06
2e-06
7e-06
2e-06
7e-06
2e-06
6e-06
2e-06
6e-06
2e-06
5e-06
2e-06
5e-06
2e-06
5e-06
2e-06
5e-06
2e-06
4e-06
2e-06
4e-06
2e-06
5e-06
2e-06
5e-06
2e-06
5e-06
2e-06
5e-06
2e-06
6e-06
2e-06
6e-06
2e-06
7e-06
2e-06
8e-06
2e-06
8e-06
2e-06
8e-06
2e-06
8e-06
2e-06
9e-06
2e-06
8e-06
2e-06
8e-06
2e-06
8e-06
2e-06
8e-06
3e-06
7e-06
3e-06
6e-06
3e-06
6e-06
4e-06
4e-06
5e-06
-2e-06
-2e-06
-2e-06
-2e-06
-1e-06
-3e-06
-3e-06
-1e-06
-8e-07
-3e-06
-3e-06
-8e-07
-5e-07
-4e-06
-4e-06
-5e-07
-3e-07
-2e-07
-5e-06
-5e-06
-2e-07
-2e-07
-5e-06
-5e-06
-9e-08
-9e-08
-6e-06
-6e-06
1e-08
-4e-08
-6e-06
-6e-06
1e-07
-3e-09
-6e-06
-6e-06
2e-07
1e-08
-6e-06
-6e-06
2e-07
7e-09
-6e-06
-6e-06
3e-07
-2e-08
-6e-06
-6e-06
3e-07
-8e-08
-6e-06
-6e-06
3e-07
-2e-07
-5e-06
-5e-06
3e-07
-3e-07
-5e-06
-5e-06
2e-07
-4e-07
-4e-06
-4e-06
1e-07
-6e-07
-4e-06
-4e-06
4e-08
-7e-07
-3e-06
-3e-06
-6e-08
-9e-07
-3e-06
-3e-06
-2e-07
-1e-06
-2e-06
-2e-06
-2e-06
-3e-07
-1e-06
-2e-06
-2e-06
-3e-07
-1e-06
-2e-06
-2e-06
-4e-07
-1e-06
-2e-06
-2e-06
-4e-07
-1e-06
-2e-06
-2e-06
-4e-07
-9e-07
-3e-06
-3e-06
-3e-07
-7e-07
-3e-06
-3e-06
-2e-07
-6e-07
-3e-06
-3e-06
-1e-07
-4e-07
-3e-06
-4e-06
-2e-08
-1e-07
-4e-06
-4e-06
1e-07
1e-07
-4e-06
-5e-06
4e-07
2e-07
6e-07
-5e-06
-5e-06
4e-07
7e-07
-6e-06
-6e-06
5e-07
9e-07
-7e-06
-7e-06
6e-07
1e-06
-8e-06
-8e-06
7e-07
1e-06
-9e-06
-9e-06
8e-07
1e-06
-1e-05
-1e-05
8e-07
1e-06
-1e-05
-1e-05
8e-07
1e-06
-1e-05
-1e-05
7e-07
1e-06
-1e-05
-1e-05
7e-07
1e-06
-2e-05
-2e-05
6e-07
1e-06
-2e-05
-2e-05
5e-07
1e-06
-2e-05
-2e-05
4e-07
1e-06
-2e-05
-2e-05
3e-07
9e-07
-2e-05
-2e-05
2e-07
7e-07
-2e-05
-2e-05
-2e-05
2e-07
6e-07
-2e-05
-2e-05
2e-07
5e-07
-2e-05
-2e-05
2e-07
5e-07
-2e-05
-2e-05
2e-07
5e-07
-2e-05
-2e-05
3e-07
5e-07
-2e-05
-2e-05
4e-07
5e-07
-2e-05
-2e-05
5e-07
6e-07
-2e-05
-2e-05
6e-07
7e-07
-2e-05
-2e-05
7e-07
7e-07
-2e-05
-2e-05
8e-07
8e-07
-1e-05
-1e-05
1e-06
1e-06
1e-06
-1e-05
-1e-05
1e-06
1e-06
-1e-05
-1e-05
2e-06
2e-06
-1e-05
-1e-05
2e-06
2e-06
-1e-05
-9e-06
3e-06
3e-06
-8e-06
-7e-06
3e-06
3e-06
-7e-06
-6e-06
4e-06
4e-06
-6e-06
-5e-06
5e-06
5e-06
-5e-06
-5e-06
5e-06
5e-06
-4e-06
-4e-06
6e-06
6e-06
-4e-06
-3e-06
6e-06
6e-06
-3e-06
-3e-06
7e-06
7e-06
-3e-06
-2e-06
7e-06
7e-06
-2e-06
-2e-06
7e-06
7e-06
-2e-06
-2e-06
7e-06
7e-06
-2e-06
-1e-06
7e-06
7e-06
-1e-06
-1e-06
-1e-06
7e-06
7e-06
-1e-06
-1e-06
6e-06
6e-06
-1e-06
-1e-06
6e-06
6e-06
-1e-06
-1e-06
5e-06
5e-06
-1e-06
-2e-06
5e-06
5e-06
-2e-06
-2e-06
4e-06
4e-06
-2e-06
-2e-06
4e-06
4e-06
-2e-06
-3e-06
4e-06
4e-06
-3e-06
-3e-06
3e-06
3e-06
-3e-06
-4e-06
3e-06
3e-06
3e-06
-4e-06
-4e-06
4e-06
4e-06
-4e-06
-5e-06
4e-06
4e-06
-5e-06
-5e-06
4e-06
4e-06
-5e-06
-5e-06
4e-06
4e-06
-5e-06
-5e-06
5e-06
5e-06
-5e-06
-4e-06
5e-06
5e-06
-4e-06
-4e-06
6e-06
6e-06
-4e-06
-4e-06
6e-06
6e-06
-4e-06
-3e-06
7e-06
7e-06
-3e-06
-2e-06
8e-06
8e-06
-2e-06
-2e-06
8e-06
9e-06
-2e-06
-1e-06
9e-06
1e-05
-1e-06
-5e-07
1e-05
1e-05
-5e-07
6e-08
1e-05
1e-05
3e-08
5e-07
1e-05
1e-05
5e-07
9e-07
1e-06
1e-05
1e-05
1e-06
1e-06
2e-05
2e-05
1e-06
1e-06
2e-05
2e-05
2e-06
2e-06
2e-05
2e-05
2e-06
2e-06
2e-05
2e-05
2e-06
2e-06
2e-05
2e-05
2e-06
2e-06
2e-05
2e-05
2e-06
2e-06
2e-05
2e-05
2e-06
2e-06
2e-05
2e-05
2e-06
2e-06
2e-05
2e-05
2e-06
2e-06
2e-05
2e-05
2e-05
2e-06
2e-06
2e-05
2e-05
2e-06
2e-06
2e-05
2e-05
2e-06
1e-06
2e-05
2e-05
2e-06
1e-06
2e-05
2e-05
2e-06
1e-06
2e-05
2e-05
2e-06
1e-06
2e-05
2e-05
2e-06
9e-07
2e-05
2e-05
2e-06
9e-07
2e-05
2e-05
2e-06
9e-07
1e-05
1e-05
2e-06
9e-07
1e-05
1e-05
2e-06
1e-06
1e-05
1e-05
2e-06
1e-06
1e-05
1e-05
2e-06
1e-06
1e-05
9e-06
2e-06
1e-06
9e-06
8e-06
2e-06
2e-06
2e-06
8e-06
8e-06
2e-06
2e-06
7e-06
7e-06
2e-06
2e-06
7e-06
6e-06
2e-06
2e-06
6e-06
6e-06
2e-06
3e-06
6e-06
6e-06
2e-06
3e-06
5e-06
5e-06
3e-06
3e-06
5e-06
5e-06
3e-06
3e-06
5e-06
5e-06
3e-06
3e-06
5e-06
5e-06
3e-06
3e-06
4e-06
4e-06
3e-06
3e-06
4e-06
4e-06
3e-06
3e-06
4e-06
5e-06
3e-06
3e-06
5e-06
5e-06
3e-06
3e-06
5e-06
5e-06
2e-06
3e-06
5e-06
5e-06
2e-06
3e-06
6e-06
6e-06
2e-06
3e-06
6e-06
6e-06
2e-06
3e-06
7e-06
7e-06
2e-06
3e-06
8e-06
8e-06
2e-06
2e-06
8e-06
8e-06
2e-06
2e-06
8e-06
8e-06
2e-06
2e-06
8e-06
9e-06
2e-06
2e-06
9e-06
9e-06
2e-06
2e-06
8e-06
8e-06
2e-06
2e-06
8e-06
8e-06
2e-06
2e-06
8e-06
8e-06
2e-06
2e-06
7e-06
7e-06
3e-06
3e-06
7e-06
7e-06
3e-06
3e-06
6e-06
6e-06
3e-06
3e-06
6e-06
6e-06
3e-06
3e-06
5e-06
4e-06
4e-06
5e-06
3e-06
4e-06
4e-06
SCALARS strain_1 float
LOOKUP_TABLE default
-0.000010
-0.000008
-0.000010
-0.000004
-0.000009
-0.000007
-0.000008
-0.000009
-0.000015
-0.000014
-0.000013
-0.000017
-0.000021
-0.000021
-0.000024
-0.000018
-0.000038
-0.000018
-0.000053
-0.000013
-0.000062
-0.000010
-0.000082
-0.000006
-0.000102
0.000003
-0.000122
0.000012
-0.000150
0.000024
-0.000181
0.000046
-0.000212
0.000064
-0.000248
0.000084
-0.000287
0.000112
-0.000329
0.000144
-0.000380
-0.000422
0.000179
-0.000478
0.000215
-0.000534
0.000257
-0.000593
0.000302
-0.000656
0.000355
-0.000728
0.000403
-0.000793
0.000468
-0.000866
0.000531
-0.000937
0.000601
-0.001016
0.000673
-0.001095
0.000748
0.000830
-0.001180
0.000919
-0.001271
0.001005
-0.001360
0.001095
-0.001445
0.001192
-0.001538
0.001292
-0.001631
0.001395
-0.001725
0.001501
-0.001819
0.001613
-0.001920
0.001723
-0.002019
0.001839
-0.002112
0.001954
-0.002217
0.002068
-0.002313
0.002183
-0.002410
0.002305
-0.002506
-0.002609
0.002430
-0.002701
0.002550
-0.002797
0.002663
-0.002895
0.002786
-0.002987
0.002906
-0.003078
0.003023
-0.003162
0.003137
-0.003249
0.003252
-0.003331
0.003364
-0.003413
0.003473
-0.003489
0.003576
0.003683
-0.003563
0.003779
-0.003629
0.003870
-0.003700
0.003961
-0.003760
0.004047
-0.003820
0.004122
-0.003873
0.004203
-0.003921
0.004272
-0.003966
0.004335
-0.004011
0.004393
-0.004045
0.004446
-0.004073
0.004494
-0.004102
0.004530
-0.004120
0.004564
-0.004133
0.004586
-0.004147
0.004609
-0.004158
-0.004158
0.004618
-0.004155
0.004631
-0.004144
0.004627
-0.004127
0.004624
-0.004109
0.004612
-0.004084
0.004593
-0.004053
0.004571
-0.004026
0.004538
-0.003989
0.004500
-0.003948
0.004461
0.004412
-0.003899
0.004358
-0.003846
0.004303
-0.003790
0.004237
-0.003728
0.004170
-0.003674
0.004101
-0.003607
0.004022
-0.003539
0.003940
-0.003467
0.003855
-0.003390
0.003769
-0.003317
0.003681
-0.003233
0.003585
-0.003153
0.003489
-0.003069
0.003389
-0.002981
0.003295
-0.002898
0.003196
-0.002813
-0.002714
0.003085
-0.002632
0.002984
-0.002535
0.002883
-0.002446
0.002778
-0.002349
0.002674
-0.002264
0.002570
-0.002173
0.002462
-0.002078
0.002355
-0.001989
0.002255
-0.001900
0.002153
-0.001810
0.002050
-0.001725
0.001952
-0.001643
0.001855
-0.001557
0.001759
-0.001468
0.001664
-0.001387
0.001572
-0.001310
0.001484
-0.001228
0.001392
-0.001155
0.001307
-0.001082
0.001223
-0.001014
0.001145
-0.000946
0.001071
-0.000878
0.000991
-0.000808
0.000919
-0.000748
0.000851
-0.000689
0.000788
-0.000636
0.000720
-0.000582
0.000666
-0.000533
0.000605
-0.000480
0.000551
-0.000437
0.000499
-0.000390
0.000448
-0.000353
0.000405
-0.000319
0.000366
-0.000279
0.000324
-0.000250
0.000284
-0.000219
0.000249
-0.000188
0.000221
-0.000161
0.000193
-0.000141
0.000165
-0.000124
0.000138
-0.000104
0.000118
-0.000086
0.000101
-0.000070
0.000078
-0.000057
0.000066
-0.000049
0.000054
-0.000034
0.000039
-0.000022
0.000029
-0.000021
0.000028
-0.000017
0.000018
-0.000013
0.000008
-0.000011
0.000007
-0.000005
0.000000
-0.000005
-0.000005
-0.000002
0.000000
-0.000006
-0.000001
-0.000004
-0.000008
-0.000005
-0.000004
-0.000005
-0.000003
-0.000010
-0.000009
-0.000009
-0.000014
-0.000009
-0.000014
-0.000011
-0.000018
-0.000017
-0.000022
-0.000024
-0.000021
-0.000024
-0.000022
-0.000036
-0.000015
-0.000053
-0.000016
-0.000068
-0.000011
-0.000084
-0.000005
-0.000105
0.000004
-0.000128
0.000016
-0.000151
0.000027
-0.000182
0.000042
-0.000214
0.000063
-0.000252
0.000085
-0.000290
0.000111
-0.000324
0.000140
-0.000376
0.000173
-0.000427
0.000211
-0.000477
0.000246
-0.000535
0.000296
-0.000593
0.000349
-0.000654
0.000402
-0.000719
0.000457
-0.000787
0.000521
-0.000858
0.000588
-0.000934
0.000655
-0.001010
0.000730
-0.001086
0.000807
-0.001169
0.000892
-0.001251
0.000975
-0.001336
0.001065
-0.001420
0.001156
-0.001510
0.001251
-0.001599
0.001352
-0.001692
0.001453
-0.001778
0.001549
-0.001869
0.001658
-0.001966
0.001763
-0.002058
0.001873
-0.002149
0.001979
-0.002247
0.002092
-0.002333
0.002200
-0.002425
0.002309
-0.002509
0.002425
-0.002597
0.002532
-0.002685
0.002640
-0.002768
0.002745
-0.002852
0.002848
-0.002930
0.002956
-0.003010
0.003052
-0.003081
0.003150
-0.003150
0.003246
-0.003221
0.003337
-0.003283
0.003422
-0.003343
0.003503
-0.003399
0.003580
-0.003448
0.003658
-0.003500
0.003720
-0.003548
0.003785
-0.003586
0.003841
-0.003618
0.003892
-0.003651
0.003941
-0.003674
0.003988
-0.003698
0.004016
-0.003714
0.004043
-0.003724
0.004066
-0.003729
0.004082
-0.003733
0.004094
-0.003730
0.004099
-0.003726
0.004099
-0.003708
0.004085
-0.003691
0.004069
-0.003668
0.004048
-0.003638
0.004023
-0.003607
0.003993
-0.003571
0.003956
-0.003535
0.003913
-0.003489
0.003866
-0.003441
0.003810
-0.003390
0.003754
-0.003333
0.003691
-0.003276
0.003628
-0.003213
0.003553
-0.003146
0.003479
-0.003082
0.003404
-0.003010
0.003323
-0.002938
0.003242
-0.002862
0.003151
-0.002785
0.003065
-0.002708
0.002974
-0.002620
0.002886
-0.002542
0.002790
-0.002457
0.002694
-0.002374
0.002601
-0.002286
0.002504
-0.002202
0.002408
-0.002119
0.002312
-0.002032
0.002209
-0.001945
0.002120
-0.001863
0.002021
-0.001779
0.001928
-0.001694
0.001833
-0.001614
0.001741
-0.001529
0.001650
-0.001450
0.001563
-0.001372
0.001476
-0.001294
0.001391
-0.001218
0.001311
-0.001150
0.001222
-0.001074
0.001148
-0.001005
0.001071
-0.000934
0.001001
-0.000870
0.000929
-0.000809
0.000857
-0.000749
0.000791
-0.000688
0.000728
-0.000637
0.000674
-0.000581
0.000615
-0.000533
0.000559
-0.000488
0.000508
-0.000435
0.000457
-0.000389
0.000412
-0.000353
0.000368
-0.000319
0.000327
-0.000283
0.000293
-0.000250
0.000259
-0.000218
0.000226
-0.000193
0.000196
-0.000167
0.000168
-0.000145
0.000144
-0.000123
0.000118
-0.000105
0.000100
-0.000083
0.000087
-0.000071
0.000067
-0.000058
0.000052
-0.000049
0.000041
-0.000038
0.000032
-0.000029
0.000024
-0.000021
0.000013
-0.000015
0.000009
-0.000013
0.000001
-0.000010
-0.000001
-0.000007
0.000002
-0.000005
-0.000004
-0.000005
-0.000007
-0.000003
0.000001
-0.000005
-0.000005
-0.000002
-0.000003
-0.000008
-0.000012
-0.000012
-0.000007
-0.000012
-0.000010
-0.000010
-0.000008
-0.000011
-0.000011
-0.000008
-0.000005
-0.000014
-0.000013
-0.000009
-0.000010
-0.000010
-0.000017
-0.000019
-0.000012
-0.000015
-0.000015
-0.000015
-0.000017
-0.000020
-0.000019
-0.000017
-0.000025
-0.000034
-0.000019
-0.000019
-0.000036
-0.000038
-0.000019
-0.000018
-0.000043
-0.000053
-0.000019
-0.000010
-0.000059
-0.000072
-0.000011
-0.000009
-0.000076
-0.000088
-0.000006
-0.000005
-0.000096
-0.000110
0.000002
0.000004
-0.000117
-0.000134
0.000010
0.000015
-0.000143
-0.000161
0.000024
0.000035
-0.000172
-0.000193
0.000039
0.000048
-0.000203
-0.000224
0.000058
0.000067
-0.000239
-0.000263
0.000076
0.000098
-0.000276
-0.000303
0.000100
0.000119
-0.000315
-0.000347
0.000133
0.000151
-0.000364
-0.000393
-0.000439
0.000164
0.000188
-0.000419
-0.000478
0.000203
0.000228
-0.000468
-0.000527
0.000238
0.000270
-0.000530
-0.000595
0.000285
0.000318
-0.000591
-0.000651
0.000328
0.000368
-0.000658
-0.000720
0.000385
0.000422
-0.000717
-0.000790
0.000442
0.000489
-0.000787
-0.000863
0.000506
0.000554
-0.000860
-0.000934
0.000570
0.000619
-0.000937
-0.001014
0.000643
0.000695
-0.001011
-0.001094
0.000773
0.000719
0.000845
-0.001087
-0.001179
0.000803
0.000905
-0.001173
-0.001259
0.000892
0.000991
-0.001254
-0.001344
0.000979
0.001084
-0.001342
-0.001436
0.001073
0.001182
-0.001428
-0.001528
0.001168
0.001280
-0.001521
-0.001620
0.001267
0.001381
-0.001609
-0.001713
0.001362
0.001485
-0.001703
-0.001811
0.001468
0.001590
-0.001791
-0.001902
0.001571
0.001700
-0.001890
-0.002001
0.001679
0.001814
-0.001982
-0.002095
0.001788
0.001924
-0.002076
-0.002193
0.001899
0.002038
-0.002172
-0.002288
0.002011
0.002158
-0.002270
-0.002393
0.002125
0.002270
-0.002365
-0.002488
-0.002571
0.002236
0.002384
-0.002478
-0.002634
0.002350
0.002501
-0.002563
-0.002722
0.002462
0.002617
-0.002659
-0.002819
0.002576
0.002738
-0.002751
-0.002909
0.002691
0.002851
-0.002835
-0.002998
0.002799
0.002965
-0.002928
-0.003082
0.002912
0.003077
-0.003004
-0.003164
0.003013
0.003189
-0.003084
-0.003249
0.003122
0.003294
-0.003160
-0.003325
0.003221
0.003403
-0.003235
-0.003394
0.003312
0.003492
0.003605
-0.003304
-0.003465
0.003448
0.003653
-0.003373
-0.003535
0.003520
0.003752
-0.003438
-0.003597
0.003623
0.003828
-0.003498
-0.003656
0.003699
0.003910
-0.003553
-0.003707
0.003776
0.003985
-0.003601
-0.003760
0.003856
0.004056
-0.003649
-0.003812
0.003920
0.004123
-0.003696
-0.003847
0.003980
0.004184
-0.003731
-0.003887
0.004039
0.004236
-0.003764
-0.003920
0.004089
0.004288
-0.003798
-0.003947
0.004134
0.004329
-0.003823
-0.003971
0.004170
0.004363
-0.003837
-0.003988
0.004202
0.004396
-0.003854
-0.003998
0.004229
0.004414
-0.003862
-0.004014
0.004247
0.004433
-0.003868
-0.004014
-0.004035
0.004259
0.004442
-0.003882
-0.004013
0.004265
0.004448
-0.003864
-0.003997
0.004270
0.004446
-0.003850
-0.003980
0.004259
0.004435
-0.003834
-0.003961
0.004251
0.004425
-0.003812
-0.003932
0.004234
0.004398
-0.003786
-0.003905
0.004209
0.004367
-0.003755
-0.003871
0.004175
0.004336
-0.003723
-0.003830
0.004141
0.004303
-0.003683
-0.003790
0.004094
0.004256
0.004245
-0.003636
-0.003742
0.004069
0.004175
-0.003591
-0.003686
0.003980
0.004120
-0.003536
-0.003634
0.003935
0.004049
-0.003483
-0.003578
0.003864
0.003985
-0.003426
-0.003513
0.003800
0.003915
-0.003362
-0.003452
0.003732
0.003833
-0.003293
-0.003380
0.003654
0.003757
-0.003226
-0.003311
0.003574
0.003671
-0.003155
-0.003233
0.003497
0.003587
-0.003084
-0.003161
0.003412
0.003498
-0.003010
-0.003081
0.003319
0.003412
-0.002932
-0.003000
0.003230
0.003313
-0.002848
-0.002913
0.003140
0.003217
-0.002765
-0.002826
0.003048
0.003119
-0.002678
-0.002740
0.002950
0.003018
-0.002586
-0.002659
-0.002605
0.002850
0.002917
-0.002513
-0.002515
0.002759
0.002819
-0.002404
-0.002427
0.002657
0.002717
-0.002312
-0.002336
0.002562
0.002613
-0.002230
-0.002245
0.002459
0.002513
-0.002138
-0.002154
0.002362
0.002416
-0.002051
-0.002068
0.002266
0.002313
-0.001964
-0.001977
0.002159
0.002208
-0.001872
-0.001885
0.002062
0.002105
-0.001787
-0.001798
0.001961
0.002006
-0.001708
-0.001714
0.001861
0.001908
0.001845
-0.001621
-0.001629
0.001771
0.001756
-0.001537
-0.001543
0.001660
0.001664
-0.001457
-0.001466
0.001569
0.001572
-0.001375
-0.001385
0.001480
0.001482
-0.001296
-0.001302
0.001390
0.001389
-0.001224
-0.001229
0.001313
0.001308
-0.001147
-0.001150
0.001227
0.001228
-0.001074
-0.001078
0.001148
0.001144
-0.001005
-0.001005
0.001068
0.001071
-0.000940
-0.000939
0.000996
0.000995
-0.000874
-0.000877
0.000923
0.000924
-0.000809
-0.000808
0.000857
0.000851
-0.000746
-0.000748
0.000790
0.000792
-0.000688
-0.000692
0.000724
0.000725
-0.000628
-0.000636
-0.000595
0.000671
0.000664
-0.000576
-0.000552
0.000608
0.000610
-0.000516
-0.000499
0.000554
0.000556
-0.000467
-0.000455
0.000502
0.000502
-0.000423
-0.000412
0.000456
0.000456
-0.000383
-0.000370
0.000411
0.000406
-0.000338
-0.000331
0.000368
0.000367
-0.000306
-0.000290
0.000328
0.000326
-0.000272
-0.000260
0.000289
0.000289
-0.000240
-0.000231
0.000256
0.000254
-0.000208
-0.000206
0.000224
0.000219
-0.000179
-0.000178
0.000191
0.000197
-0.000159
-0.000150
0.000159
0.000175
-0.000134
-0.000130
0.000136
0.000150
-0.000114
-0.000107
0.000113
0.000128
-0.000096
-0.000094
0.000093
0.000108
-0.000082
-0.000076
0.000077
0.000085
-0.000069
-0.000065
0.000060
0.000070
-0.000056
-0.000052
0.000050
0.000059
-0.000041
-0.000039
0.000036
0.000048
-0.000034
-0.000030
0.000026
0.000036
-0.000027
-0.000024
0.000022
0.000026
-0.000022
-0.000013
0.000012
0.000022
-0.000014
-0.000013
0.000007
0.000013
-0.000011
-0.000007
0.000004
0.000008
-0.000007
-0.000009
-0.000000
0.000005
-0.000010
-0.000006
-0.000005
0.000001
-0.000006
-0.000004
-0.000007
-0.000003
-0.000006
-0.000001
-0.000005
-0.000003
-0.000005
-0.000006
-0.000004
-0.000004
-0.000002
-0.000004
-0.000007
-0.000006
-0.000008
-0.000012
-0.000006
-0.000006
-0.000004
SCALARS strain_2 float
LOOKUP_TABLE default
0.000035
0.000059
0.000091
0.000064
0.000107
0.000063
0.000092
0.000112
0.000147
0.000169
0.000159
0.000211
0.000204
0.000206
0.000306
0.000194
0.000421
0.000169
0.000633
0.000167
0.000805
0.000155
0.001025
-0.000002
0.001281
-0.000064
0.001587
-0.000161
0.001913
-0.000341
0.002304
-0.000525
0.002700
-0.000796
0.003209
-0.001059
0.003680
-0.001361
0.004253
-0.001711
0.004854
0.005515
-0.002129
0.006184
-0.002584
0.006905
-0.003097
0.007707
-0.003664
0.008505
-0.004299
0.009393
-0.004965
0.010349
-0.005632
0.011297
-0.006424
0.012271
-0.007270
0.013238
-0.008127
0.014348
-0.009065
-0.009978
0.015461
-0.011055
0.016595
-0.012152
0.017769
-0.013299
0.019000
-0.014457
0.020208
-0.015704
0.021453
-0.017004
0.022741
-0.018311
0.023986
-0.019660
0.025296
-0.021045
0.026624
-0.022409
0.027908
-0.023914
0.029231
-0.025365
0.030573
-0.026861
0.031865
-0.028352
0.033156
0.034459
-0.029859
0.035770
-0.031321
0.037002
-0.032863
0.038276
-0.034390
0.039471
-0.035896
0.040641
-0.037377
0.041833
-0.038877
0.042885
-0.040352
0.043978
-0.041741
0.045044
-0.043164
0.046019
-0.044467
-0.045790
0.046909
-0.047111
0.047783
-0.048331
0.048592
-0.049525
0.049364
-0.050606
0.050077
-0.051678
0.050642
-0.052627
0.051249
-0.053510
0.051760
-0.054389
0.052177
-0.055135
0.052525
-0.055852
0.052828
-0.056428
0.053026
-0.056976
0.053195
-0.057411
0.053282
-0.057783
0.053275
-0.058075
0.053169
0.053032
-0.058256
0.052801
-0.058380
0.052515
-0.058379
0.052198
-0.058313
0.051727
-0.058210
0.051239
-0.057914
0.050730
-0.057572
0.050118
-0.057180
0.049494
-0.056687
0.048703
-0.056158
-0.055476
0.047950
-0.054792
0.047106
-0.053972
0.046238
-0.053113
0.045368
-0.052237
0.044373
-0.051231
0.043370
-0.050257
0.042327
-0.049165
0.041264
-0.048025
0.040198
-0.046886
0.039088
-0.045669
0.037939
-0.044385
0.036788
-0.043106
0.035578
-0.041808
0.034400
-0.040458
0.033258
-0.039075
0.032054
0.030860
-0.037736
0.029649
-0.036360
0.028491
-0.034967
0.027304
-0.033619
0.026148
-0.032187
0.024981
-0.030799
0.023829
-0.029401
0.022726
-0.028073
0.021632
-0.026705
0.020543
-0.025374
0.019433
-0.024072
0.018435
-0.022786
0.017461
-0.021538
0.016429
-0.020237
0.015514
-0.019064
0.014575
-0.017867
0.013625
-0.016746
0.012803
-0.015607
0.011983
-0.014527
0.011151
-0.013508
0.010397
-0.012571
0.009583
-0.011566
0.008908
-0.010691
0.008228
-0.009835
0.007592
-0.008997
0.006958
-0.008237
0.006365
-0.007458
0.005852
-0.006777
0.005333
-0.006137
0.004821
-0.005507
0.004366
-0.004901
0.003904
-0.004371
0.003489
-0.003865
0.003098
-0.003390
0.002765
-0.002950
0.002459
-0.002630
0.002142
-0.002200
0.001872
-0.001891
0.001585
-0.001605
0.001381
-0.001328
0.001150
-0.001088
0.001002
-0.000837
0.000814
-0.000712
0.000680
-0.000527
0.000532
-0.000428
0.000430
-0.000297
0.000280
-0.000211
0.000192
-0.000069
0.000150
-0.000065
0.000081
-0.000028
0.000040
0.000026
0.000039
0.000067
-0.000012
0.000078
0.000013
0.000059
-0.000020
0.000112
-0.000022
0.000059
-0.000051
0.000037
-0.000022
0.000029
0.000019
-0.000031
0.000093
0.000101
0.000062
0.000124
0.000087
0.000144
0.000100
0.000191
0.000160
0.000188
0.000249
0.000243
0.000325
0.000248
0.000501
0.000168
0.000618
0.000159
0.000830
0.000095
0.001061
0.000010
0.001332
-0.000065
0.001658
-0.000140
0.002008
-0.000309
0.002370
-0.000550
0.002800
-0.000751
0.003263
-0.001051
0.003809
-0.001379
0.004349
-0.001672
0.004905
-0.002120
0.005569
-0.002547
0.006288
-0.003058
0.007019
-0.003620
0.007787
-0.004178
0.008617
-0.004842
0.009420
-0.005549
0.010419
-0.006298
0.011304
-0.007081
0.012274
-0.007951
0.013321
-0.008863
0.014350
-0.009843
0.015444
-0.010785
0.016543
-0.011847
0.017646
-0.012922
0.018824
-0.014054
0.019976
-0.015275
0.021232
-0.016453
0.022418
-0.017703
0.023650
-0.018961
0.024849
-0.020302
0.026097
-0.021609
0.027356
-0.022942
0.028586
-0.024304
0.029798
-0.025691
0.031016
-0.027097
0.032175
-0.028413
0.033383
-0.029877
0.034540
-0.031243
0.035666
-0.032570
0.036738
-0.033994
0.037828
-0.035309
0.038840
-0.036591
0.039873
-0.037871
0.040819
-0.039119
0.041700
-0.040304
0.042600
-0.041461
0.043402
-0.042579
0.044138
-0.043668
0.044780
-0.044684
0.045426
-0.045642
0.045986
-0.046508
0.046526
-0.047372
0.046918
-0.048066
0.047300
-0.048746
0.047636
-0.049385
0.047860
-0.049910
0.047995
-0.050347
0.048066
-0.050750
0.048088
-0.051019
0.048038
-0.051248
0.047938
-0.051373
0.047769
-0.051430
0.047488
-0.051399
0.047209
-0.051236
0.046809
-0.051053
0.046361
-0.050778
0.045846
-0.050437
0.045258
-0.050040
0.044665
-0.049500
0.043989
-0.048920
0.043235
-0.048263
0.042486
-0.047530
0.041642
-0.046793
0.040808
-0.046007
0.039909
-0.045106
0.038936
-0.044107
0.038005
-0.043169
0.037009
-0.042116
0.035964
-0.041009
0.034890
-0.039959
0.033823
-0.038754
0.032733
-0.037598
0.031687
-0.036351
0.030576
-0.035139
0.029522
-0.033904
0.028388
-0.032566
0.027235
-0.031385
0.026147
-0.030083
0.025021
-0.028804
0.023953
-0.027537
0.022858
-0.026278
0.021788
-0.025016
0.020717
-0.023756
0.019707
-0.022531
0.018651
-0.021358
0.017683
-0.020133
0.016730
-0.018992
0.015752
-0.017886
0.014864
-0.016750
0.013960
-0.015633
0.013061
-0.014627
0.012241
-0.013612
0.011443
-0.012639
0.010641
-0.011694
0.009889
-0.010774
0.009171
-0.009921
0.008473
-0.009127
0.007795
-0.008299
0.007173
-0.007566
0.006587
-0.006896
0.006028
-0.006224
0.005484
-0.005603
0.004964
-0.004993
0.004519
-0.004456
0.004055
-0.003929
0.003653
-0.003428
0.003223
-0.003047
0.002862
-0.002638
0.002562
-0.002266
0.002229
-0.001894
0.001923
-0.001653
0.001666
-0.001359
0.001410
-0.001120
0.001202
-0.000870
0.001026
-0.000693
0.000828
-0.000527
0.000697
-0.000396
0.000553
-0.000278
0.000453
-0.000191
0.000362
-0.000080
0.000256
-0.000047
0.000156
0.000004
0.000100
0.000079
0.000081
0.000105
0.000041
0.000117
0.000032
0.000109
-0.000023
0.000067
-0.000023
0.000042
0.000017
0.000070
-0.000003
0.000043
-0.000012
0.000033
0.000056
0.000087
0.000085
0.000049
0.000076
0.000091
0.000082
0.000054
0.000081
0.000114
0.000067
0.000062
0.000156
0.000148
0.000096
0.000142
0.000125
0.000186
0.000210
0.000187
0.000164
0.000200
0.000176
0.000234
0.000255
0.000191
0.000190
0.000320
0.000395
0.000180
0.000194
0.000455
0.000466
0.000217
0.000155
0.000556
0.000705
0.000145
0.000171
0.000801
0.000878
0.000118
0.000108
0.001014
0.001109
0.000105
0.000007
0.001280
0.001381
-0.000025
-0.000090
0.001517
0.001678
-0.000148
-0.000278
0.001859
0.002054
-0.000299
-0.000416
0.002268
0.002445
-0.000472
-0.000622
0.002658
0.002875
-0.000683
-0.000881
0.003055
0.003339
-0.000912
-0.001108
0.003578
0.003910
-0.001244
-0.001452
0.004160
0.004474
-0.001590
-0.001857
0.004747
0.005163
0.005667
-0.001927
-0.002258
0.005450
0.006157
-0.002398
-0.002751
0.006141
0.006932
-0.002895
-0.003289
0.006927
0.007710
-0.003406
-0.003811
0.007745
0.008542
-0.004010
-0.004445
0.008568
0.009365
-0.004614
-0.005158
0.009422
0.010323
-0.005295
-0.005871
0.010356
0.011251
-0.006073
-0.006661
0.011294
0.012265
-0.006872
-0.007484
0.012225
0.013283
-0.007713
-0.008381
0.013276
0.014353
-0.009416
-0.008701
-0.010200
0.014338
0.015437
-0.009798
-0.010933
0.015425
0.016569
-0.010780
-0.012001
0.016575
0.017745
-0.011888
-0.013126
0.017704
0.018926
-0.013057
-0.014341
0.018869
0.020106
-0.014219
-0.015565
0.020090
0.021371
-0.015377
-0.016807
0.021243
0.022609
-0.016644
-0.018108
0.022540
0.023882
-0.017857
-0.019425
0.023765
0.025165
-0.019218
-0.020820
0.025056
0.026444
-0.020531
-0.022174
0.026241
0.027731
-0.021884
-0.023558
0.027562
0.029057
-0.023224
-0.025015
0.028800
0.030317
-0.024643
-0.026438
0.030071
0.031633
-0.026040
-0.027914
0.031344
0.032968
0.034096
-0.027477
-0.029371
0.032925
0.034872
-0.028951
-0.030829
0.033994
0.036148
-0.030394
-0.032347
0.035298
0.037357
-0.031789
-0.033780
0.036499
0.038524
-0.033155
-0.035256
0.037634
0.039681
-0.034642
-0.036657
0.038745
0.040805
-0.035990
-0.038108
0.039817
0.041870
-0.037355
-0.039536
0.040845
0.042921
-0.038711
-0.040886
0.041845
0.043909
-0.039965
-0.042270
0.042796
0.044814
-0.041232
-0.043474
-0.044879
0.043655
0.045714
-0.042920
-0.045586
0.044555
0.046556
-0.043855
-0.046786
0.045329
0.047297
-0.045100
-0.047799
0.046071
0.048041
-0.046164
-0.048858
0.046733
0.048668
-0.047204
-0.049874
0.047317
0.049279
-0.048165
-0.050795
0.047841
0.049784
-0.049032
-0.051715
0.048336
0.050238
-0.049882
-0.052510
0.048781
0.050646
-0.050635
-0.053155
0.049104
0.050931
-0.051274
-0.053800
0.049329
0.051193
-0.051829
-0.054372
0.049610
0.051345
-0.052325
-0.054857
0.049714
0.051453
-0.052737
-0.055215
0.049773
0.051510
-0.053135
-0.055572
0.049745
0.051517
-0.053391
-0.055729
0.049663
0.051402
0.051475
-0.053505
-0.055888
0.049655
0.051101
-0.053631
-0.055963
0.049302
0.050757
-0.053652
-0.055928
0.048968
0.050337
-0.053649
-0.055794
0.048562
0.049910
-0.053456
-0.055620
0.048101
0.049422
-0.053203
-0.055360
0.047610
0.048892
-0.052875
-0.054983
0.047031
0.048247
-0.052426
-0.054518
0.046433
0.047616
-0.051923
-0.054004
0.045763
0.046822
-0.051284
-0.053388
-0.053276
0.044999
0.046056
-0.051050
-0.052305
0.044259
0.045244
-0.049786
-0.051567
0.043436
0.044375
-0.049175
-0.050669
0.042558
0.043462
-0.048305
-0.049764
0.041628
0.042519
-0.047405
-0.048855
0.040689
0.041477
-0.046416
-0.047748
0.039715
0.040488
-0.045389
-0.046674
0.038704
0.039391
-0.044404
-0.045584
0.037660
0.038324
-0.043224
-0.044445
0.036618
0.037277
-0.042104
-0.043237
0.035551
0.036180
-0.040968
-0.042029
0.034459
0.035039
-0.039727
-0.040787
0.033297
0.033897
-0.038511
-0.039476
0.032206
0.032682
-0.037253
-0.038147
0.031048
0.031550
-0.035989
-0.036851
0.029793
0.030369
0.029654
-0.034692
-0.035533
0.028728
0.028508
-0.033392
-0.034174
0.027330
0.027355
-0.032086
-0.032817
0.026185
0.026169
-0.030783
-0.031440
0.025016
0.025067
-0.029454
-0.030107
0.023930
0.023904
-0.028147
-0.028763
0.022841
0.022802
-0.026849
-0.027428
0.021757
0.021680
-0.025546
-0.026145
0.020664
0.020617
-0.024291
-0.024756
0.019626
0.019564
-0.022971
-0.023485
0.018578
0.018538
-0.021651
-0.022231
-0.021383
0.017621
0.017471
-0.020477
-0.020251
0.016622
0.016564
-0.019084
-0.019096
0.015702
0.015599
-0.017866
-0.017867
0.014739
0.014631
-0.016761
-0.016767
0.013839
0.013762
-0.015677
-0.015649
0.012963
0.012868
-0.014629
-0.014604
0.012150
0.012026
-0.013573
-0.013590
0.011310
0.011244
-0.012619
-0.012599
0.010555
0.010454
-0.011709
-0.011595
0.009753
0.009689
-0.010730
-0.010686
0.009034
0.008986
-0.009904
-0.009822
0.008386
0.008272
-0.009076
-0.009070
0.007749
0.007664
-0.008224
-0.008249
0.007076
0.007000
-0.007537
-0.007506
0.006499
0.006433
0.006032
-0.006839
-0.006779
0.005857
0.005565
-0.006220
-0.006148
0.005283
0.005049
-0.005527
-0.005513
0.004785
0.004590
-0.005002
-0.004983
0.004333
0.004145
-0.004453
-0.004368
0.003875
0.003668
-0.003894
-0.003896
0.003460
0.003286
-0.003438
-0.003466
0.003121
0.002924
-0.002982
-0.002976
0.002751
0.002571
-0.002562
-0.002615
0.002415
0.002275
-0.002208
-0.002192
0.002090
0.001985
-0.001830
-0.001876
0.001833
0.001698
-0.001568
-0.001692
0.001572
0.001438
-0.001288
-0.001443
0.001344
0.001225
-0.001020
-0.001183
0.001080
0.001066
-0.000873
-0.001005
0.000944
0.000878
-0.000661
-0.000764
0.000804
0.000685
-0.000488
-0.000604
0.000624
0.000582
-0.000348
-0.000436
0.000565
0.000499
-0.000285
-0.000321
0.000371
0.000293
-0.000131
-0.000196
0.000272
0.000273
-0.000085
-0.000127
0.000198
0.000217
-0.000017
-0.000081
0.000164
0.000125
0.000039
-0.000006
0.000132
0.000081
0.000059
0.000051
0.000080
0.000012
0.000087
0.000061
0.000024
0.000018
0.000083
0.000053
0.000013
-0.000004
0.000075
0.000072
0.000000
-0.000038
0.000092
0.000091
-0.000034
-0.000056
0.000067
0.000103
0.000030
-0.000013
0.000079
0.000059
0.000004
-0.000017
0.000038
0.000021
0.000068
0.000071
0.000041
0.000038
0.000019
SCALARS strain_3 float
LOOKUP_TABLE default
-0.000053
-0.000031
-0.000086
-0.000035
-0.000101
-0.000061
-0.000179
-0.000145
-0.000237
-0.000260
-0.000207
-0.000274
-0.000294
-0.000327
-0.000416
-0.000295
-0.000622
-0.000298
-0.000867
-0.000170
-0.001117
-0.000191
-0.001441
-0.000049
-0.001869
0.000080
-0.002270
0.000292
-0.002727
0.000512
-0.003271
0.000855
-0.003949
0.001199
-0.004619
0.001629
-0.005367
0.002070
-0.006170
0.002670
-0.007098
-0.007956
0.003287
-0.008991
0.004002
-0.010017
0.004749
-0.011152
0.005584
-0.012365
0.006484
-0.013651
0.007510
-0.015008
0.008615
-0.016395
0.009773
-0.017777
0.010981
-0.019235
0.012326
-0.020781
0.013702
0.015200
-0.022388
0.016789
-0.023992
0.018439
-0.025665
0.020123
-0.027380
0.021869
-0.029114
0.023706
-0.030843
0.025591
-0.032674
0.027514
-0.034471
0.029544
-0.036243
0.031544
-0.038118
0.033669
-0.039962
0.035797
-0.041748
0.037921
-0.043523
0.040171
-0.045364
0.042336
-0.047095
-0.048900
0.044556
-0.050658
0.046756
-0.052345
0.048927
-0.054035
0.051135
-0.055634
0.053360
-0.057181
0.055493
-0.058728
0.057547
-0.060156
0.059748
-0.061515
0.061676
-0.062807
0.063688
-0.064030
0.065644
0.067494
-0.065203
0.069317
-0.066247
0.070975
-0.067327
0.072607
-0.068190
0.074108
-0.069015
0.075552
-0.069686
0.076911
-0.070303
0.078083
-0.070769
0.079205
-0.071225
0.080230
-0.071541
0.081075
-0.071782
0.081896
-0.071877
0.082530
-0.071945
0.083043
-0.071831
0.083413
-0.071658
0.083679
-0.071310
-0.070977
0.083871
-0.070483
0.083828
-0.069932
0.083712
-0.069233
0.083502
-0.068511
0.083124
-0.067658
0.082586
-0.066752
0.082061
-0.065757
0.081273
-0.064707
0.080442
-0.063536
0.079551
0.078442
-0.062329
0.077307
-0.061096
0.076034
-0.059773
0.074738
-0.058436
0.073294
-0.057012
0.071798
-0.055523
0.070194
-0.054008
0.068543
-0.052495
0.066795
-0.051000
0.065009
-0.049397
0.063233
-0.047782
0.061364
-0.046205
0.059487
-0.044548
0.057496
-0.042989
0.055545
-0.041351
0.053547
-0.039697
-0.038084
0.051600
-0.036517
0.049557
-0.034957
0.047546
-0.033405
0.045559
-0.031822
0.043537
-0.030410
0.041554
-0.028851
0.039575
-0.027435
0.037640
-0.026053
0.035767
-0.024614
0.033874
-0.023298
0.032038
-0.021961
0.030216
-0.020683
0.028483
-0.019436
0.026718
-0.018312
0.025072
-0.017129
0.023431
-0.016016
0.021868
-0.014985
0.020402
-0.013965
0.018932
-0.012984
0.017530
-0.012077
0.016129
-0.011103
0.014925
-0.010328
0.013734
-0.009516
0.012530
-0.008734
0.011410
-0.008002
0.010376
-0.007297
0.009398
-0.006628
0.008412
-0.006037
0.007600
-0.005474
0.006792
-0.004955
0.006064
-0.004403
0.005315
-0.004029
0.004755
-0.003537
0.004074
-0.003122
0.003603
-0.002748
0.003059
-0.002406
0.002613
-0.002160
0.002266
-0.001771
0.001878
-0.001537
0.001523
-0.001310
0.001194
-0.001101
0.000958
-0.000912
0.000766
-0.000692
0.000580
-0.000591
0.000383
-0.000459
0.000357
-0.000357
0.000198
-0.000249
0.000084
-0.000176
0.000008
-0.000092
-0.000016
-0.000026
-0.000047
0.000038
-0.000151
0.000077
-0.000077
0.000043
-0.000141
0.000112
-0.000082
0.000040
-0.000101
0.000066
-0.000041
0.000074
-0.000057
0.000035
0.000020
-0.000090
-0.000103
-0.000075
-0.000172
-0.000115
-0.000240
-0.000146
-0.000262
-0.000209
-0.000315
-0.000365
-0.000333
-0.000464
-0.000272
-0.000722
-0.000203
-0.000903
-0.000248
-0.001194
-0.000158
-0.001535
-0.000073
-0.001905
0.000149
-0.002373
0.000322
-0.002873
0.000556
-0.003431
0.000865
-0.004007
0.001174
-0.004741
0.001604
-0.005443
0.002124
-0.006299
0.002662
-0.007186
0.003249
-0.008123
0.003905
-0.009143
0.004611
-0.010223
0.005506
-0.011332
0.006361
-0.012459
0.007375
-0.013730
0.008399
-0.015047
0.009493
-0.016370
0.010755
-0.017785
0.011971
-0.019216
0.013330
-0.020678
0.014821
-0.022302
0.016312
-0.023845
0.017885
-0.025460
0.019464
-0.027050
0.021175
-0.028751
0.022883
-0.030342
0.024701
-0.032089
0.026516
-0.033825
0.028345
-0.035540
0.030362
-0.037176
0.032339
-0.038910
0.034307
-0.040624
0.036267
-0.042318
0.038270
-0.043977
0.040357
-0.045567
0.042320
-0.047168
0.044309
-0.048683
0.046237
-0.050189
0.048278
-0.051658
0.050210
-0.053099
0.052169
-0.054403
0.053994
-0.055719
0.055818
-0.056853
0.057578
-0.058043
0.059291
-0.059094
0.060902
-0.060102
0.062469
-0.060947
0.063934
-0.061764
0.065280
-0.062570
0.066614
-0.063179
0.067848
-0.063702
0.068868
-0.064110
0.069930
-0.064516
0.070790
-0.064779
0.071551
-0.064947
0.072187
-0.064971
0.072791
-0.064958
0.073194
-0.064806
0.073540
-0.064579
0.073668
-0.064251
0.073747
-0.063805
0.073690
-0.063360
0.073518
-0.062716
0.073227
-0.062042
0.072819
-0.061298
0.072254
-0.060435
0.071669
-0.059484
0.070904
-0.058524
0.070066
-0.057482
0.069084
-0.056344
0.068092
-0.055178
0.066916
-0.053990
0.065749
-0.052684
0.064403
-0.051355
0.063048
-0.049990
0.061618
-0.048601
0.060058
-0.047175
0.058448
-0.045747
0.056844
-0.044247
0.055193
-0.042756
0.053510
-0.041293
0.051706
-0.039793
0.049960
-0.038293
0.048127
-0.036766
0.046334
-0.035285
0.044482
-0.033793
0.042652
-0.032291
0.040816
-0.030855
0.038959
-0.029414
0.037163
-0.027992
0.035348
-0.026598
0.033584
-0.025272
0.031848
-0.023890
0.030124
-0.022591
0.028424
-0.021348
0.026713
-0.020063
0.025164
-0.018889
0.023553
-0.017702
0.021980
-0.016637
0.020508
-0.015581
0.019067
-0.014497
0.017623
-0.013506
0.016341
-0.012564
0.015089
-0.011622
0.013832
-0.010769
0.012762
-0.009931
0.011615
-0.009134
0.010612
-0.008352
0.009567
-0.007655
0.008653
-0.006968
0.007806
-0.006389
0.006996
-0.005784
0.006208
-0.005207
0.005484
-0.004727
0.004803
-0.004170
0.004220
-0.003760
0.003623
-0.003266
0.003141
-0.002903
0.002717
-0.002490
0.002249
-0.002217
0.001882
-0.001903
0.001554
-0.001667
0.001253
-0.001346
0.000945
-0.001154
0.000785
-0.000881
0.000581
-0.000789
0.000406
-0.000606
0.000235
-0.000469
0.000133
-0.000360
0.000086
-0.000315
-0.000036
-0.000124
-0.000051
-0.000125
-0.000095
-0.000036
-0.000092
-0.000025
-0.000087
0.000012
-0.000172
0.000009
-0.000126
0.000037
-0.000100
-0.000006
-0.000053
0.000054
-0.000064
-0.000032
-0.000072
-0.000100
-0.000089
-0.000084
-0.000075
-0.000121
-0.000114
-0.000079
-0.000091
-0.000145
-0.000170
-0.000108
-0.000118
-0.000201
-0.000190
-0.000132
-0.000176
-0.000229
-0.000254
-0.000247
-0.000208
-0.000241
-0.000257
-0.000305
-0.000258
-0.000348
-0.000316
-0.000293
-0.000420
-0.000517
-0.000307
-0.000299
-0.000618
-0.000680
-0.000261
-0.000294
-0.000784
-0.000930
-0.000265
-0.000177
-0.001062
-0.001274
-0.000212
-0.000081
-0.001386
-0.001616
-0.000043
0.000009
-0.001698
-0.001984
0.000047
0.000188
-0.002154
-0.002444
0.000219
0.000387
-0.002651
-0.003010
0.000481
0.000663
-0.003221
-0.003582
0.000733
0.000961
-0.003825
-0.004242
0.001067
0.001354
-0.004445
-0.004925
0.001448
0.001757
-0.005187
-0.005683
0.001932
0.002283
-0.006012
-0.006496
0.002383
0.002859
-0.006874
-0.007507
-0.008265
0.003028
0.003494
-0.007979
-0.008968
0.003716
0.004197
-0.008917
-0.010074
0.004430
0.004975
-0.010067
-0.011241
0.005223
0.005840
-0.011256
-0.012342
0.006145
0.006746
-0.012431
-0.013691
0.007110
0.007835
-0.013658
-0.014973
0.008136
0.008899
-0.014959
-0.016312
0.009226
0.010113
-0.016334
-0.017755
0.010430
0.011346
-0.017781
-0.019219
0.011697
0.012713
-0.019222
-0.020763
0.014227
0.013085
0.015438
-0.020708
-0.022290
0.014846
0.016575
-0.022268
-0.023898
0.016335
0.018115
-0.023887
-0.025537
0.017968
0.019822
-0.025514
-0.027306
0.019652
0.021609
-0.027169
-0.028951
0.021313
0.023430
-0.028854
-0.030733
0.023167
0.025254
-0.030571
-0.032432
0.025043
0.027190
-0.032284
-0.034216
0.026801
0.029116
-0.033982
-0.035966
0.028758
0.031192
-0.035748
-0.037821
0.030788
0.033235
-0.037517
-0.039615
0.032729
0.035267
-0.039268
-0.041432
0.034752
0.037341
-0.040988
-0.043202
0.036857
0.039445
-0.042809
-0.045009
0.038875
0.041657
-0.044471
-0.046822
-0.048405
0.040944
0.043779
-0.046673
-0.049401
0.043037
0.045918
-0.048107
-0.051082
0.045101
0.048026
-0.049816
-0.052700
0.047185
0.050199
-0.051415
-0.054255
0.049197
0.052279
-0.052953
-0.055757
0.051279
0.054338
-0.054354
-0.057234
0.053275
0.056413
-0.055816
-0.058617
0.055215
0.058392
-0.057143
-0.059900
0.057148
0.060357
-0.058372
-0.061160
0.058948
0.062270
-0.059546
-0.062380
0.060698
0.064013
0.066018
-0.060682
-0.063445
0.063176
0.066917
-0.061750
-0.064510
0.064394
0.068649
-0.062708
-0.065420
0.066180
0.070050
-0.063608
-0.066296
0.067589
0.071514
-0.064362
-0.066973
0.068988
0.072865
-0.065001
-0.067644
0.070321
0.074172
-0.065646
-0.068224
0.071572
0.075270
-0.066144
-0.068634
0.072584
0.076346
-0.066557
-0.069070
0.073484
0.077240
-0.066887
-0.069326
0.074371
0.078089
-0.067145
-0.069465
0.075148
0.078743
-0.067239
-0.069592
0.075678
0.079349
-0.067234
-0.069484
0.076175
0.079772
-0.067117
-0.069368
0.076605
0.080009
-0.066919
-0.069225
0.076876
0.080277
-0.066612
-0.068865
-0.068889
0.076932
0.080349
-0.066341
-0.068154
0.076953
0.080223
-0.065690
-0.067565
0.076915
0.080084
-0.065048
-0.066808
0.076630
0.079800
-0.064382
-0.066039
0.076278
0.079360
-0.063656
-0.065204
0.075817
0.078930
-0.062777
-0.064272
0.075219
0.078156
-0.061868
-0.063311
0.074401
0.077382
-0.060864
-0.062272
0.073652
0.076585
-0.059813
-0.061075
0.072549
0.075573
0.075250
-0.058652
-0.059879
0.072027
0.073785
-0.057507
-0.058672
0.070201
0.072589
-0.056263
-0.057329
0.069110
0.071184
-0.054994
-0.055968
0.067736
0.069769
-0.053639
-0.054585
0.066378
0.068293
-0.052291
-0.053135
0.064836
0.066646
-0.050813
-0.051689
0.063341
0.065078
-0.049450
-0.050181
0.061685
0.063348
-0.047932
-0.048661
0.060035
0.061631
-0.046382
-0.047088
0.058305
0.059819
-0.044882
-0.045551
0.056602
0.058063
-0.043440
-0.043997
0.054801
0.056160
-0.041794
-0.042396
0.052953
0.054259
-0.040250
-0.040824
0.051122
0.052289
-0.038724
-0.039228
0.049219
0.050372
-0.037096
-0.037627
-0.036588
0.047360
0.048403
-0.035569
-0.035151
0.045469
0.046536
-0.033722
-0.033608
0.043642
0.044535
-0.032210
-0.032118
0.041733
0.042646
-0.030722
-0.030531
0.039856
0.040674
-0.029260
-0.029059
0.037923
0.038806
-0.027798
-0.027646
0.036106
0.036868
-0.026406
-0.026275
0.034242
0.034971
-0.025046
-0.024806
0.032447
0.033116
-0.023713
-0.023508
0.030663
0.031327
-0.022413
-0.022155
0.028749
0.029499
0.028390
-0.021124
-0.020915
0.027134
0.026793
-0.019862
-0.019664
0.025201
0.025111
-0.018733
-0.018474
0.023564
0.023469
-0.017539
-0.017319
0.022012
0.021972
-0.016381
-0.016247
0.020501
0.020440
-0.015317
-0.015149
0.019013
0.018973
-0.014301
-0.014106
0.017614
0.017558
-0.013301
-0.013093
0.016285
0.016281
-0.012399
-0.012239
0.014994
0.014905
-0.011437
-0.011287
0.013842
0.013718
-0.010643
-0.010483
0.012637
0.012537
-0.009744
-0.009625
0.011535
0.011468
-0.009009
-0.008904
0.010475
0.010439
-0.008194
-0.008147
0.009547
0.009418
-0.007566
-0.007437
-0.006882
0.008554
0.008537
-0.006800
-0.006392
0.007707
0.007673
-0.006103
-0.005753
0.006880
0.006880
-0.005488
-0.005307
0.006224
0.006116
-0.004971
-0.004719
0.005468
0.005397
-0.004389
-0.004219
0.004779
0.004749
-0.003953
-0.003713
0.004194
0.004131
-0.003569
-0.003348
0.003605
0.003589
-0.003113
-0.002971
0.003103
0.003131
-0.002699
-0.002546
0.002679
0.002579
-0.002426
-0.002241
0.002219
0.002252
-0.002079
-0.001917
0.001848
0.001932
-0.001810
-0.001656
0.001365
0.001682
-0.001490
-0.001421
0.001164
0.001318
-0.001267
-0.001146
0.000946
0.001106
-0.001074
-0.000954
0.000711
0.000808
-0.000884
-0.000828
0.000496
0.000618
-0.000734
-0.000663
0.000341
0.000415
-0.000571
-0.000519
0.000210
0.000322
-0.000381
-0.000353
0.000067
0.000215
-0.000337
-0.000274
-0.000021
0.000086
-0.000212
-0.000204
-0.000049
0.000001
-0.000152
-0.000111
-0.000075
-0.000027
-0.000043
-0.000040
-0.000112
-0.000026
-0.000039
0.000002
-0.000111
-0.000122
-0.000010
0.000021
-0.000111
-0.000150
0.000039
0.000058
-0.000136
-0.000100
-0.000032
0.000046
-0.000086
-0.000110
0.000042
0.000038
-0.000081
-0.000106
0.000013
0.000027
-0.000046
-0.000072
0.000041
-0.000001
-0.000086
0.000009
-0.000029
-0.000075
0.000009
-0.000014
-0.000008
SCALARS stress_1 float
LOOKUP_TABLE default
106.015453
-127.350226
49.165322
-207.969713
-184.691351
-13.978163
-78.366578
184.627774
194.364391
-92.223286
-84.151902
-14.525605
145.753236
-307.992248
208.118439
-144.673625
148.668549
-39.036161
332.145148
163.195305
257.997920
316.245520
99.364443
124.856068
383.694399
-51.956309
35.383786
5.808389
204.157444
549.166904
-71.172616
443.206405
282.772860
525.806056
73.993873
600.965855
100.164854
849.581708
-4.938945
646.861622
126.236068
327.465145
995.426342
193.560296
1624.413448
94.246364
1393.185269
166.264930
1970.087391
469.065678
1692.257393
475.735777
2538.265612
224.396065
2726.041620
636.771382
2991.880593
791.673740
3154.453688
984.707143
3613.314497
869.200434
3907.875760
4282.828649
1109.153615
4478.448325
1095.895530
5157.771546
1373.375770
5194.727884
1654.060758
5633.612518
1769.950495
5939.096603
2072.840250
6032.733731
2314.213188
6801.886232
2530.139739
7176.899693
2569.482322
7548.911693
3029.915369
7762.492568
2859.784466
8307.987905
3327.952035
8543.226457
3537.575673
8621.000216
3650.034634
9095.829108
3842.761675
3940.740054
9555.713135
4501.798524
9657.739465
4444.524347
9899.787260
4483.608696
9847.289279
4462.776413
10160.245520
4759.064257
10096.088740
4719.851483
10483.560522
4912.570847
10734.885616
4686.205608
10544.755195
5012.584519
10895.118848
4579.382010
10533.510153
10693.311456
4372.943670
10942.918753
4034.131917
10479.023219
4016.104351
10885.849601
3745.206558
10866.209911
3546.992131
10580.724894
3139.977906
10242.206563
2844.408648
10377.225251
2096.284359
10533.780961
1729.554628
10173.427284
1092.685881
10168.388972
251.973293
9981.357197
-154.583135
9893.590376
-1130.688225
9692.470857
-1776.737975
9723.653051
-2633.920373
9776.519307
-3173.544246
-4514.522423
9523.465621
-5290.734068
9633.183166
-6104.796834
9540.483953
-6909.452303
9471.196735
-8164.009302
9715.321512
-8961.655820
9626.015882
-9832.167108
9739.504594
-10845.472738
9675.858076
-11773.347961
9899.301077
-13038.635179
9726.645608
9996.582842
-13767.334392
9954.371197
-14723.616847
10189.393019
-16072.670533
10343.769147
-16689.804277
10634.586749
-17564.622083
10332.536999
-18663.741602
10974.431909
-19085.508423
11125.875481
-20062.540198
11209.162893
-20499.578511
11394.294146
-21473.932187
11685.564415
-22003.376478
12121.440126
-22024.357789
11969.870868
-22896.876121
12552.856643
-22690.361137
12706.642216
-23378.000827
12895.744423
-23897.174445
-23831.069980
13073.716857
-24117.462682
13424.905104
-24055.661379
13608.466764
-23961.270075
13777.264255
-24110.906421
14077.643166
-23771.036842
14081.277927
-23349.711748
14259.997291
-23286.239966
14420.784517
-22878.396746
14355.072361
-22557.440505
14328.240077
-22129.938487
14719.324427
-21355.890691
14468.050249
-21013.864361
14293.108720
-19933.980335
14001.087099
-19481.151442
14283.814140
-18605.377683
14236.273101
-17998.139132
13677.896739
-17380.643795
13530.064308
-16593.062920
13557.933405
-15789.050919
13434.366452
-15024.037458
12849.709035
-14154.884957
12767.635585
-13147.247829
12563.008524
-12549.763745
11947.898279
-11478.879111
11651.788016
-11017.922772
11218.473004
-10214.599551
10929.953243
-9336.979876
10456.695158
-8520.026986
9946.648339
-7847.465723
9295.141631
-7148.604914
8918.175034
-6542.031819
8453.077392
-5568.192846
8167.452709
-4988.416838
7800.112997
-4416.408619
7292.783096
-3942.238617
6619.583843
-3503.336495
6227.602410
-3142.564675
5612.288477
-2597.577568
5226.383629
-2469.012848
4775.612706
-1767.732934
4398.787719
-1767.117081
4009.683919
-1291.957282
3749.854901
-1109.357631
3043.075914
-1043.318130
2727.021390
-743.959615
2493.691330
-654.194917
2062.464988
-621.007294
2006.154375
-310.396746
1216.484331
-205.346531
1187.850854
-503.115066
851.703625
-215.477601
583.180225
-194.158978
735.730335
-27.625621
724.095538
-77.927940
504.000676
-236.515617
293.221000
228.215351
317.826937
-117.459875
115.818487
-145.316548
303.833321
-50.251140
21.903381
-100.678524
291.043258
251.092465
-213.705847
111.924247
65.585639
283.592071
114.746468
92.166368
-161.827364
151.767973
80.018466
218.000890
-114.974460
286.710799
119.073020
365.156115
347.644073
244.940844
9.013858
226.256249
5.061537
380.360749
254.011859
53.720767
345.002404
331.715558
547.516338
321.157132
659.828819
452.907911
640.164598
560.692735
757.265256
382.978028
970.493123
585.884629
1078.244196
820.224549
1263.484805
439.377040
1265.698118
762.895699
1876.763297
666.038941
2214.163509
864.998032
2337.777914
959.376976
2638.297688
1253.642196
2785.135569
1381.001701
3203.845149
1523.180331
3491.839169
1458.644511
3849.808800
1804.206251
4166.029203
1832.727973
4567.537136
1979.417683
4622.262173
2526.000223
5073.241073
2409.287603
5406.748996
2678.883828
5807.873111
2866.463328
6094.096584
3121.284521
6206.506585
3343.763422
6762.586281
3411.108037
7161.302003
3861.784792
7564.257755
4007.001692
7668.023873
4113.225164
8099.341941
4309.146379
8266.436707
4393.352600
8613.999345
4873.672580
8763.513021
4850.693580
9051.323323
5031.106773
9451.654998
5188.637002
9165.595217
5244.321027
9645.835153
5303.538100
9609.857973
5297.324984
9450.750846
5411.406519
9971.255356
5307.732295
9747.149845
5379.510320
9758.038318
5044.690184
9856.541520
4952.479894
9930.213044
4705.295466
9697.277641
4473.878482
9805.684901
4239.386539
9994.521993
3701.423643
9866.480090
3422.801802
10087.904781
2938.212192
9725.020813
2526.862819
9773.381781
2055.099270
9736.074855
1171.733556
9838.704038
654.715268
9485.047674
62.735578
9671.847346
-310.997505
9828.707057
-1072.534392
9522.267571
-2248.271078
9935.270472
-2763.566801
9507.665349
-3745.679976
9897.280956
-4460.540176
9726.929304
-5204.318648
9882.955979
-5998.203381
9540.052154
-7175.107205
10132.167421
-8195.080530
10130.388949
-8895.432182
9969.528749
-9633.816575
10233.415574
-10533.421698
10106.119852
-11058.418797
10406.383166
-12398.858283
10284.846279
-13147.998572
11013.113196
-13705.198900
10691.133506
-14812.855264
11312.115218
-15168.226081
11394.749504
-15903.533007
11808.985955
-16597.172039
11881.636582
-17188.056007
11783.046972
-17284.631317
12198.425131
-17804.673219
12274.462234
-18349.836127
12371.970292
-18775.428867
13030.553308
-19012.364271
13057.368880
-19228.692746
12933.158590
-19174.189544
13186.338454
-19191.301072
13360.116479
-19197.406582
13428.442255
-19158.902073
13788.523790
-19174.009199
13666.310674
-19063.986379
14105.527747
-18675.746443
13883.211771
-18237.806224
13946.742000
-18111.474549
13779.155194
-17441.664248
14076.176194
-17148.150571
13712.496174
-16484.587933
13584.702395
-16261.493167
13336.623610
-15382.175099
13574.847081
-14776.408981
13170.063982
-14151.453229
12982.740736
-13896.737507
12730.085352
-12964.657811
12148.564253
-12388.247810
12067.385446
-11746.024337
11870.964946
-10770.900222
11718.561171
-10251.392300
11031.848551
-9772.413399
10866.431091
-8833.688362
10277.120801
-8090.180429
9825.642523
-7649.960026
9371.204263
-6817.990395
9218.668443
-6553.996375
8268.847073
-5715.286795
8182.206578
-4848.448914
7268.471798
-4875.929141
7140.850742
-4034.314735
6671.809833
-4004.914524
6098.953075
-3145.849345
5530.471733
-2679.636031
5241.624225
-2556.395422
4775.964144
-2042.644350
4216.870745
-1729.416482
4165.156039
-1434.315824
3636.940863
-1175.980045
2934.691642
-1119.667564
2774.133216
-771.153630
2470.128007
-1016.163085
2573.488025
-483.212763
2007.592525
-479.165084
1852.907930
-197.795299
1344.692658
-121.224246
1259.137975
18.823234
1083.847884
-146.169692
810.080801
-196.323862
977.682406
-254.897694
716.256702
52.263135
481.924527
59.554621
418.756309
-77.194484
40.527298
-196.054607
39.199000
596.099914
-110.831060
466.662268
17.863112
45.706229
434.006900
-48.901793
213.411522
42.744567
67.106380
-141.071117
62.482788
155.423670
8.641727
164.793237
-69.708726
103.561611
-46.346494
108.209196
234.087080
42.030255
53.310807
207.522020
-42.971021
52.139222
9.544708
-5.010304
117.417293
183.065116
-48.913495
-108.387382
273.420178
45.728977
103.097966
297.986576
227.504057
28.941159
38.633342
68.521594
374.343179
318.695662
-60.681680
13.187282
10.343553
-124.570203
69.642601
121.728865
302.534651
315.061133
-64.937205
89.223494
318.773454
217.420773
200.748155
488.791469
199.990425
245.624823
61.827323
419.354898
433.129514
140.853824
392.224421
199.208410
509.640237
48.949260
524.447192
560.097780
58.328218
379.622507
684.106900
634.256127
422.167806
37.041726
784.212832
672.873803
251.015780
219.172323
1108.214310
1036.625785
207.192603
387.419554
229.784466
963.947001
1164.634362
409.427369
328.219048
1277.635654
1515.949588
468.035793
417.780634
1449.159431
1880.719771
726.011706
311.406483
1801.655911
1866.109791
653.993522
505.943173
2273.621910
1919.757502
636.711283
601.487888
2037.110202
2297.428143
672.363738
426.138898
2558.440900
2497.992141
793.157795
679.123319
2552.271323
2910.886991
1088.529302
994.913399
3115.369995
3406.862637
1035.390362
943.253999
3232.378039
3639.070139
1729.473824
1117.920001
4164.519341
3791.349721
4195.662377
1666.762035
1490.568911
4280.182776
4549.097290
1526.823149
1576.986721
4384.571022
4521.347713
1718.175271
1603.572520
4581.278262
5141.725736
1979.239330
1910.694636
5273.432991
5633.700098
2208.988211
2254.772012
5589.132187
5811.047514
2397.660497
2326.390980
6075.479779
6288.317401
2549.771926
2377.638359
6061.833375
6723.444059
2705.349797
2514.765103
6647.827002
6909.589274
2915.383554
2860.015978
6862.590230
7295.413829
3117.377475
3186.558220
7041.920153
7894.207259
3573.669868
3513.355812
7580.754708
7869.062920
3640.570470
3639.914655
7814.318828
7983.261979
3843.228871
3845.302637
8183.394132
8378.747834
4197.176641
4332.818195
8630.894180
8494.705020
4222.152469
3971.680994
4292.781800
8705.724521
9165.270935
4647.389326
4358.592716
8815.022733
9241.512729
4768.629701
4645.665601
9431.479991
9593.329582
4914.468179
4785.543225
9370.183464
9771.999932
4716.307770
4911.741516
9278.613225
9679.973642
5160.135007
4804.114717
9784.953629
9826.828139
5089.737696
4912.380019
9698.540424
10028.868620
5042.574070
4997.016954
9948.356508
10349.084521
5088.359693
5030.693215
9885.030643
10428.595768
5153.157342
4738.600251
9803.606668
10556.093548
4979.419979
4409.844517
10119.856774
10486.579263
10515.778147
5101.337598
4488.883892
10116.753744
10355.858933
4889.675795
4315.056134
10084.956475
10424.338482
4415.088266
4198.781075
10132.294479
10362.376309
4411.037597
3866.608675
10401.715028
10323.159178
4277.680869
3411.507095
10270.854953
10370.235580
3499.492488
3111.013531
10301.154283
10148.040452
3377.252075
3019.633182
10258.119110
10217.747214
3068.131062
2266.245394
10120.242614
10068.954060
2354.803697
1745.210481
10198.496946
10042.865522
1646.699643
1468.507899
9881.146530
9925.279249
1095.030728
507.843364
9856.859431
9918.643831
646.154383
-105.801863
10013.753392
9771.269906
21.878781
-702.012487
9829.478640
9902.952384
-630.934567
-1542.533383
9814.976397
9822.586794
-1597.717682
-2371.430984
9732.937104
9503.344943
-2169.802663
-3181.763482
-3813.569645
9672.044284
9607.180601
-3238.863665
-4679.914124
9628.057006
9499.851005
-3879.707987
-5521.295714
9818.180545
9461.383086
-5043.956520
-6141.115852
9703.464023
9602.267107
-5861.674578
-7436.377122
9727.340572
9441.015715
-6620.696170
-8562.241109
9772.199636
9576.918820
-7559.754323
-9209.469399
9670.575703
9442.843549
-8543.529470
-10243.637809
9820.848368
9724.719490
-9544.696602
-11014.298472
9587.697555
9903.727554
-10427.731404
-12130.684127
10046.606409
9987.284081
10163.024419
-11002.027707
-13095.892885
10009.103195
10279.722345
-12260.934368
-13841.010822
10304.016109
10358.818056
-12909.491239
-15141.870510
10313.101309
10473.197260
-13848.933626
-15680.704882
10667.528016
10368.326957
-14599.607483
-16603.857165
10741.962352
10707.631888
-15609.693335
-17582.650741
10933.401938
10959.524057
-16224.852875
-17910.740030
11210.436776
11336.111754
-16867.519046
-18646.036951
11397.631018
11217.291059
-17717.278923
-19384.044680
11428.004129
11548.991911
-18472.109396
-20075.422371
11406.620169
11666.573548
-18836.929849
-20698.658471
11911.948654
11971.424869
-19291.464026
-21046.132402
12192.174666
12392.592999
-19778.228019
-21468.088932
12435.334780
12481.752009
-19997.510294
-21703.915699
12984.710892
12738.858044
-20086.592378
-22079.357737
12568.383434
13013.448866
-20548.941370
-22345.059657
-22853.639120
12950.288533
13322.513920
-21013.490602
-22567.515430
13316.496615
13462.398790
-20985.218013
-22551.293917
13550.957271
13606.140239
-20529.235603
-22334.365191
13342.016088
13695.463107
-20824.064668
-22327.024464
13711.001911
13896.988139
-20550.507734
-22168.707376
14090.035209
13976.437084
-20357.812671
-21734.738058
13902.328914
13647.874185
-20348.000759
-21466.213318
14034.252984
14188.549843
-19891.482924
-21056.044154
13899.292776
13941.637486
-19428.496292
-20438.447509
13978.295423
14308.779352
-19136.534402
-20165.442666
14116.777369
14294.370154
14142.441139
-18417.335561
-19429.200872
13878.432675
14283.253665
-17893.641352
-19102.980544
13908.387103
14298.329947
-17616.730211
-18545.196969
13974.329998
13884.687721
-16905.545359
-18182.788272
13700.404799
13931.068606
-16345.976331
-17058.847446
13296.802235
13745.500059
-15770.667351
-16363.092420
13338.651883
13464.704020
-15271.202406
-15627.289529
12770.021800
13159.881576
-14312.665571
-15427.200556
12577.184428
12810.855462
-13621.868859
-14325.001838
12532.087150
12885.283383
-12863.439567
-13379.065534
12266.171114
12192.379534
-12124.865952
-12730.017672
11966.325673
11860.372850
-11358.547287
-12011.357969
11710.937176
11462.344124
-10555.274479
-11193.590168
11327.895528
11419.581628
-10204.524508
-10435.459855
10327.397616
10982.824381
-9104.559377
-9370.120610
-9202.122253
10370.763203
10270.021445
-8659.247560
-8366.599562
9887.115307
10080.606481
-7594.458362
-7761.930734
9526.007522
9438.289225
-6935.357835
-7110.409676
9042.973423
8944.857666
-6314.418589
-6443.340675
8377.617014
8181.915809
-5858.567233
-5395.511889
7977.693528
7978.782852
-5051.535347
-5187.244883
7354.347824
7382.823489
-4527.332584
-4658.184615
7080.073800
7123.697050
-4167.873955
-4162.125986
6833.615221
6757.353666
-3378.767284
-3472.139427
6287.356632
6294.951848
-3222.096464
-3129.785258
5470.873595
5678.479048
-2659.039112
-2821.833457
5352.605749
5342.885221
-2655.280031
-2237.894940
4752.376089
4725.021181
-1795.872909
-2095.784633
4125.319429
4409.905205
-1537.871430
-1481.871964
4014.574508
4088.156271
-1747.671592
-1399.720898
3367.594804
3671.498510
-1295.259928
-1136.618789
3163.652034
3006.026720
-1184.365101
-655.209678
2597.563659
2548.350366
-845.339249
-871.742336
2384.160079
2665.303840
-829.836786
-566.083187
2235.497887
2311.891884
-471.759985
-690.570169
1607.234591
1761.603480
-701.601474
-518.915213
1790.679016
1774.559465
-233.448432
-237.189654
1235.797679
1525.797696
-83.851720
-233.721787
1229.996037
1142.705977
-80.429533
-31.089596
751.888651
1539.556741
-92.930184
-427.202808
733.085710
787.903943
-3.895943
-9.089286
810.510785
730.722833
42.623498
-291.484903
284.163875
596.757185
-136.082255
-354.145028
503.477737
573.935475
9.650037
-66.446999
229.486039
431.982544
-191.647021
200.893622
582.910345
-16.478568
-14.196209
394.543528
177.567075
188.931976
39.386838
SCALARS stress_2 float
LOOKUP_TABLE default
3523.363911
7035.595277
4277.996906
4809.507031
7026.381048
4519.490418
7457.452184
5312.619482
7492.497294
8066.331599
10420.894223
12314.643147
13400.283134
13371.062377
21241.499232
14606.061051
32225.727301
14231.358727
45268.062999
13301.770623
56498.875889
8562.583722
73537.573580
4168.893681
90970.525633
-6613.388620
110614.043999
-15728.263180
136925.313458
-25533.819121
165759.398162
-39880.177073
194922.699181
-57232.833765
228223.216515
-74943.789198
263096.606706
-98828.629224
303621.582773
-125151.977740
347256.304529
389199.484993
-155176.235819
441890.188317
-187641.995850
494369.599281
-223304.563244
550536.813545
-263129.154291
610714.200672
-302544.361380
670691.640031
-355610.113823
738414.628353
-403074.380109
808172.350419
-460899.904768
879883.870381
-519287.560631
952540.876288
-584515.187887
1028248.240972
-652116.563707
-722870.120670
1107701.964433
-795849.043558
1190030.919502
-871164.981239
1275525.577941
-956205.902205
1362246.220190
-1039078.550983
1450232.846248
-1129711.800406
1536618.609389
-1220239.490663
1628809.700933
-1313152.927163
1721810.089369
-1410617.326197
1813544.367090
-1509981.280154
1907960.190636
-1611008.718346
2002004.343719
-1711640.857060
2097793.418727
-1819196.721267
2195657.263525
-1927043.687068
2286330.279181
-2033759.212012
2381085.128776
2471599.901432
-2141815.296098
2564843.572178
-2250062.059956
2657245.918187
-2358917.000317
2745564.506879
-2469355.454100
2832072.523034
-2577465.421305
2917514.317784
-2681318.238851
3000864.292201
-2786182.811078
3080395.109363
-2892065.851006
3152672.858392
-2994561.791215
3228570.514320
-3097252.159944
3299387.733686
-3194333.237633
-3286249.889441
3365607.300202
-3375817.803418
3429489.806258
-3467791.412144
3488957.099717
-3550425.428638
3541427.964287
-3631624.788750
3591216.559781
-3707291.893550
3637844.694878
-3775851.678887
3675896.096811
-3842548.074070
3709586.765580
-3903085.079099
3745079.172945
-3958188.534163
3769673.599347
-4005657.152282
3789951.300257
-4051253.366036
3807328.275677
-4091244.271084
3813593.781076
-4120954.732585
3819587.504505
-4147443.534248
3820004.510115
-4168051.541234
3816922.365328
3805058.949513
-4182562.441591
3789535.759402
-4187402.667900
3766835.929835
-4190861.156008
3742636.365152
-4185824.930886
3712278.632775
-4172061.992534
3675393.796855
-4154618.493089
3640311.144372
-4134285.145573
3594842.643816
-4103873.981493
3547341.582169
-4066439.713869
3493321.807291
-4024935.278552
-3982203.108119
3437447.319182
-3931574.298230
3379767.092874
-3874725.714045
3315936.192517
-3811671.858832
3246104.185531
-3749454.853222
3181383.383867
-3678509.129793
3107048.922367
-3606451.624394
3035850.017319
-3527314.648975
2959821.803565
-3447740.948064
2881657.185446
-3361578.521662
2799721.730381
-3275054.114297
2716432.725352
-3184043.445528
2635568.330170
-3095192.043595
2551688.544833
-2999243.908498
2470661.440033
-2902527.313004
2382494.079921
-2805136.448434
2298404.063427
2210062.454701
-2708325.154976
2128494.540723
-2608002.648919
2043793.888915
-2510551.082403
1957048.811226
-2408989.863037
1873334.442498
-2312372.207110
1789990.502289
-2208550.458080
1705547.462361
-2111667.640918
1626506.890133
-2011917.666502
1548582.072587
-1914283.871751
1471568.105383
-1818887.855596
1397617.651600
-1726697.266904
1321034.711239
-1636198.920895
1248987.947381
-1541579.250149
1176043.863294
-1453960.477493
1106928.338351
-1366165.627898
1042017.372550
-1283748.612242
976565.508343
-1200076.767445
915061.369628
-1124151.692436
855817.931437
-1046491.539353
795629.977480
-972955.715807
741709.578446
-901669.438086
689804.141946
-830341.049650
635956.451689
-765853.958107
587323.202266
-704812.194966
539610.553487
-646297.568907
496193.632522
-589272.926658
457845.694841
-536970.268220
414034.771953
-486609.313150
377921.214990
-439771.589689
343391.839170
-393192.225005
309308.211914
-350711.219098
279376.556051
-311863.699136
249623.031392
-276017.977070
219694.765106
-245974.988748
197717.012663
-212837.549389
174821.805574
-188764.162262
152197.214527
-163052.947998
133438.647133
-135901.537034
113252.887102
-117090.833710
98684.629023
-96803.653246
81785.280506
-77576.931491
67388.440481
-63755.955423
58613.485048
-51994.565232
46972.828355
-40038.047898
34010.470404
-33202.746879
27516.914463
-22080.662176
21202.039903
-14897.392716
14691.757602
-8397.874350
10122.067561
-5060.922297
5958.880659
-3254.224606
2685.292556
-127.411717
502.590232
5618.923982
105.588905
3003.152050
-3685.991864
5388.368149
386.319684
4087.757059
-3375.846012
3060.031801
107.199099
3581.160865
-2877.729765
1347.144252
310.654376
-958.712628
1271.869706
6481.032812
4543.352830
7339.901871
2843.229430
8173.489432
5936.091896
11033.827006
9908.653248
8641.889622
15116.881977
14493.989230
22882.274815
15579.444319
34428.519811
12757.350547
45606.298476
9922.211186
61836.515152
7760.217555
77654.857888
1582.184873
96242.791906
-2325.383590
119797.221545
-13305.200855
143658.427248
-25961.859312
170152.810085
-40177.167641
200687.434206
-53480.310623
235922.892002
-74654.001278
271300.368254
-98751.143946
310632.143404
-124415.044038
354503.714181
-150597.389603
400674.144736
-187189.798003
446765.836141
-218778.077917
505292.948206
-259779.726076
555964.385272
-299876.551159
617881.612561
-348230.049898
677820.318122
-396778.654871
746400.782396
-452592.143250
811262.381485
-508740.355223
881502.300170
-569789.067963
954132.818890
-635508.714047
1028121.001799
-706676.478258
1107543.441285
-774844.009463
1184303.513450
-851287.276154
1267842.403075
-928613.927201
1351567.174311
-1009225.147383
1434157.515208
-1096259.057331
1520713.082309
-1181653.465724
1610462.779953
-1271818.493192
1696749.360342
-1360067.948416
1781276.199576
-1454573.448755
1867831.578097
-1549999.306159
1960966.872006
-1646317.449937
2049670.361743
-1745020.784431
2136267.614729
-1842756.022659
2226516.408136
-1943957.597200
2307929.716994
-2041179.316736
2393265.318474
-2144930.397556
2477584.779997
-2239305.552679
2557161.286344
-2339490.902735
2637483.188646
-2436936.880304
2714412.887973
-2534181.294065
2789718.735458
-2626842.264649
2858985.915880
-2716332.696395
2927672.901001
-2808625.142512
2992483.066921
-2892687.914950
3052474.885402
-2978775.414778
3111935.732543
-3053037.482187
3164184.360548
-3131440.830196
3213911.865075
-3206390.987044
3262800.093987
-3273866.073360
3299136.735333
-3336204.521725
3336040.853266
-3395755.548427
3364302.015205
-3451429.866487
3392583.597253
-3501761.316094
3414392.383118
-3541672.017876
3429847.436953
-3582002.283784
3441063.230519
-3613732.667027
3450405.331235
-3644004.071944
3452497.115203
-3661192.810485
3446605.054184
-3676202.843469
3440144.836229
-3685095.075235
3426892.500518
-3691251.034023
3409707.142712
-3686837.744803
3384960.731301
-3677776.143422
3357542.241318
-3666847.446171
3326418.736912
-3642174.085629
3288500.097454
-3621057.590035
3246124.794705
-3586700.080019
3202594.396085
-3552878.491429
3156359.685306
-3509823.849235
3103027.726518
-3465300.184946
3046607.494752
-3413336.402902
2985837.461768
-3358852.463921
2928592.723227
-3297472.679952
2862353.318310
-3237938.579236
2793854.935067
-3167466.785670
2723836.669159
-3096859.731835
2651733.967376
-3021802.945970
2576594.517770
-2944177.363923
2503560.199710
-2863964.201983
2428177.173008
-2781140.084050
2348286.724643
-2694011.442704
2270451.638326
-2609123.213792
2188965.481478
-2517763.709265
2112098.133470
-2431051.081261
2032756.066061
-2337854.234119
1951340.566232
-2251934.415638
1872925.793795
-2157724.249718
1792297.347678
-2066669.264597
1715798.915932
-1976578.084175
1637321.945348
-1885472.236690
1560957.531587
-1796718.537363
1485935.554018
-1705692.635061
1411318.203961
-1614916.128714
1334631.048838
-1533332.667191
1266415.968019
-1445421.065711
1194498.248483
-1363151.756853
1131208.673941
-1282574.963446
1060969.435713
-1200977.710460
998202.101220
-1125594.220723
935331.957442
-1046474.926814
876914.100038
-976815.548293
818904.599699
-907168.709059
762071.144475
-838058.128670
704954.117007
-775020.431026
655127.708613
-713336.863926
604837.798666
-655458.523028
559730.578484
-593125.751792
513099.927437
-545866.862167
472512.660746
-493562.790002
431825.129540
-445588.350516
392369.365330
-401192.167608
353129.719246
-356841.648887
320577.006506
-322649.730202
290356.794533
-282220.131113
258559.306154
-247663.666839
231714.701181
-216140.961278
202585.202442
-187591.733990
180696.377359
-165344.296924
156206.729200
-139025.184858
139690.449286
-119285.493453
118538.040886
-97859.062898
98483.695321
-81739.492121
85595.795229
-65119.716972
70818.652561
-50078.240719
60932.961906
-41066.782923
49029.818924
-27812.158802
41166.510595
-20629.775966
30525.852138
-14136.570263
22042.034873
-8462.140623
20270.466409
-3538.206605
9708.433727
144.136131
7994.440096
4174.352806
5703.300735
4464.131472
3817.206964
4386.376468
366.662053
5743.769305
-757.238339
4431.998035
-2781.175723
4108.559387
39.161850
4777.421853
-1735.250588
3405.298452
-1676.381529
2441.056006
1812.781576
4938.189552
4697.305073
4859.214732
6441.860470
4480.466089
2429.221516
2493.077411
7123.145023
6915.190630
1236.827668
6080.040495
7994.951459
7938.449104
8178.861072
11961.933335
10285.271605
10989.527252
13105.917034
8519.838076
15637.318396
10995.643174
11905.481275
16723.578117
17691.713107
15904.481953
12768.826203
23167.968239
27259.207379
12656.361793
11977.433033
29607.299641
35739.623708
13561.898197
11638.805248
41813.852763
48351.383126
10160.707263
9400.833002
51879.488544
61563.296394
9363.887602
6408.428307
70369.902657
79952.315289
2115.552200
1756.807401
87469.205077
102999.127438
271.047757
-9053.861258
107998.512953
121753.932045
-9030.405404
-16292.813365
134118.888830
147575.986032
-21273.956757
-27263.726976
156994.396542
175245.652763
-34769.859928
-44410.250725
188186.747131
206890.106368
-51140.229245
-60140.264271
221062.604521
240969.150121
-69867.082479
-83162.447438
258109.447725
278201.402411
-91701.408425
-105553.985824
296069.461207
323899.940677
-111668.101534
-134140.163271
340307.312923
366288.141101
403682.457607
-142985.864016
-164752.255317
391083.048363
441567.601952
-174853.408891
-197837.515032
440288.401628
493913.395609
-208528.232890
-232971.105762
497794.995605
551979.309998
-246438.928404
-275963.265680
554148.668630
609585.384858
-286198.127003
-322746.893774
616313.512091
672597.365982
-337950.421897
-368920.660745
675369.199643
735634.152991
-384426.081950
-420177.205021
741394.816478
809857.394120
-435990.952705
-477187.779225
808275.759448
876909.573339
-497770.848298
-535935.581690
880691.293963
953998.315680
-556738.465535
-601835.168922
955817.373988
1027322.742959
-672448.298420
-621778.413023
-734670.841480
1028337.437823
1109316.805238
-700613.372317
-786908.915481
1106669.473206
1190011.454475
-774120.938967
-861076.544695
1189470.720951
1272419.736391
-856092.444306
-943622.358558
1266933.968668
1356908.017515
-937169.834714
-1030316.643919
1355272.657744
1443671.125300
-1018267.262484
-1114750.650132
1441309.047869
1533009.049017
-1103641.800285
-1204558.587687
1529466.501301
1622983.213913
-1192640.183445
-1298508.667967
1616379.372256
1714682.814763
-1281295.227128
-1393775.862920
1704895.217397
1805891.578799
-1375882.292909
-1491977.693111
1794085.114719
1898252.819209
-1472942.925874
-1593123.310995
1886747.933967
1987713.694461
-1570525.544022
-1690165.369659
1977168.758540
2084183.651503
-1669917.064771
-1793419.054755
2067198.667119
2177013.311861
-1771621.511957
-1898023.689253
2157522.764723
2268939.806000
-1871113.909732
-2002418.335091
2250380.501437
2366907.244268
2449162.245699
-1970572.051430
-2106999.380260
2360231.618076
2503656.882472
-2077600.529442
-2213455.385641
2439735.735134
2592329.342410
-2178121.776348
-2317909.407715
2531278.943897
2678145.279727
-2281633.912776
-2424526.101887
2617776.615248
2762356.179471
-2382479.481178
-2530423.302995
2699776.005896
2846985.361845
-2484217.339092
-2631805.149177
2778237.042248
2927414.506460
-2580022.618117
-2734432.674049
2856405.439962
3003866.011251
-2683004.493146
-2835254.648140
2932020.182505
3077374.678410
-2778574.268877
-2929488.225538
2999193.733201
3151745.768762
-2872334.612900
-3034663.184441
3070460.990985
3217984.419521
-2959708.633589
-3117818.587449
-3221779.557049
3133899.988946
3278807.892223
-3082431.172383
-3265448.283395
3197540.837696
3337503.669809
-3148955.639658
-3360575.534161
3252460.708199
3398254.093468
-3239920.925758
-3431170.831151
3305681.154824
3445869.529625
-3315661.169512
-3507214.707505
3352186.912792
3494299.989750
-3388099.167999
-3579888.678914
3392611.084751
3536405.849706
-3459250.671366
-3646645.999346
3432559.359515
3573265.165498
-3521984.592572
-3709513.888069
3469990.557656
3603340.235996
-3579546.873876
-3768938.206182
3497692.540115
3632122.331359
-3634067.256299
-3818804.556938
3523037.236200
3653945.088801
-3678998.836371
-3862745.254132
3543239.611002
3671222.766587
-3717139.220694
-3901545.891923
3556941.460782
3685751.166491
-3756307.646308
-3933929.545982
3567183.123619
3690642.512685
-3785338.077117
-3964622.327053
3574349.023786
3694664.525757
-3811719.591853
-3985195.739380
3572493.680612
3696057.811913
-3835365.805504
-4003607.043998
3558775.794376
3685860.470691
3694776.030391
-3842250.655817
-4011378.916143
3558277.131628
3662273.119625
-3850341.626655
-4017808.468508
3532681.547036
3641678.128138
-3852288.811673
-4015340.938081
3507770.104139
3612788.061504
-3844981.251847
-4008206.015179
3480350.198926
3579410.971405
-3833238.365702
-3993369.071317
3452485.814938
3546632.762469
-3817444.900033
-3973851.340553
3413397.529801
3502612.553164
-3794322.484464
-3947473.454964
3375592.015033
3463504.196205
-3761876.590991
-3914854.728658
3331077.900097
3414939.569404
-3727105.159285
-3878991.207067
3281901.357619
3363381.753683
-3681914.014194
-3835672.665438
-3824065.403708
3229735.504220
3301505.698049
-3661111.193655
-3752490.888807
3174905.354007
3246403.969552
-3576371.068819
-3701314.011155
3117125.822078
3182140.004174
-3529721.550448
-3637048.076552
3052331.178115
3118604.760043
-3464192.543073
-3573508.436179
2985671.047205
3048001.004811
-3403025.650314
-3503417.523328
2915140.203064
2976714.805163
-3330776.922403
-3430277.814877
2849681.515440
2903416.617618
-3256994.785222
-3352092.700292
2776446.525649
2829786.972367
-3182540.635621
-3273194.297014
2701957.252122
2748537.565027
-3102767.420156
-3188138.982330
2625424.868882
2671032.612310
-3022496.433479
-3101726.795420
2550038.196553
2595406.778984
-2937750.661377
-3017737.542699
2470878.496777
2508926.522756
-2851446.106172
-2921846.552489
2387603.470471
2427240.116395
-2763126.212334
-2834341.432263
2308077.252240
2344282.471254
-2672119.310296
-2738162.651513
2223515.763720
2259704.976590
-2582572.375035
-2644019.310489
2137741.280500
2179458.057259
2124247.101202
-2488952.316297
-2548639.852526
2058776.742640
2045201.649138
-2396183.165591
-2452037.493915
1961395.294231
1959319.256915
-2304342.451155
-2355187.883524
1876875.685188
1873156.952046
-2208419.389280
-2256321.836572
1797540.623504
1793663.204897
-2114349.107133
-2158749.754130
1717665.144429
1711107.878488
-2020329.699189
-2064675.185188
1635713.977067
1630957.202717
-1925275.426745
-1970975.628797
1557893.576226
1554203.832884
-1833097.227128
-1872873.276988
1483084.210824
1475263.277191
-1741360.016173
-1777103.021841
1405133.331606
1400598.085154
-1651437.884635
-1687427.976657
1330642.099518
1325712.998929
-1550839.113907
-1596192.554210
-1534550.214467
1259395.948273
1250184.993547
-1469489.398475
-1453544.800127
1189591.782210
1182705.164668
-1369278.201127
-1369692.236352
1121114.256738
1112981.615308
-1283512.899366
-1285613.868378
1055842.163240
1048680.485160
-1201765.510299
-1203428.326382
993168.350711
986485.691326
-1123726.180215
-1124568.924816
928536.454995
922336.371785
-1049961.943497
-1049915.089880
866849.228294
864428.750817
-976595.037396
-977452.095422
809673.525007
803841.496906
-907059.462070
-901907.775435
755546.280985
747984.563964
-838526.292982
-832585.247174
700984.838551
696119.669281
-769859.852286
-768043.666995
646471.985265
644515.587313
-710796.784578
-704506.567727
599692.397102
593024.338655
-650750.570428
-648732.143034
552507.569395
546741.577736
-596346.467625
-591404.650313
507640.778367
502863.307010
-543179.740105
-537449.805143
461150.254834
459933.234882
430212.528596
-491557.110854
-489485.058295
421885.047752
399171.769273
-444755.000192
-442021.905762
378165.618966
360777.114171
-397203.248307
-395911.567603
338885.937390
325147.716626
-357338.135640
-355624.804511
307429.047807
292287.261072
-318127.974140
-313841.928436
276503.750826
259851.366982
-279292.491040
-280007.859062
244229.524616
233964.592786
-246736.364766
-244324.023248
217420.249471
208269.874620
-216599.974951
-214071.169292
191975.721808
183161.650417
-187695.660283
-184658.248521
169256.664589
161341.468984
-161761.548587
-160914.279552
148301.727816
141929.126052
-135540.715592
-136212.148581
129078.623376
120476.725325
-114745.581809
-118916.459254
111687.046992
105004.255993
-92411.839461
-101627.264301
95780.941052
90351.388544
-76938.416421
-86534.617824
80014.247943
75901.310027
-58946.260847
-70154.174031
67010.655716
62179.212896
-46742.395758
-55886.948978
56519.545876
48354.815260
-34629.193828
-44538.695210
43868.144655
42009.065862
-26901.305772
-30504.629651
34508.609596
32053.335581
-15691.923330
-23745.369342
26643.724408
23739.647435
-11682.050723
-16742.347286
19263.811800
15452.722883
-5453.737889
-11359.495825
12612.683536
12238.889141
-2164.552249
-5091.318228
9697.650354
7946.009601
237.684439
-1375.016941
3516.504902
4924.598236
4327.281039
-376.844800
3197.322405
559.079189
6664.368939
2320.870848
652.480045
-969.124506
8018.103731
4283.553829
-4199.247482
-1511.046466
6462.844984
5910.524080
-1302.618558
-4762.883059
2598.592699
5113.770106
714.893917
-1485.705875
3690.009955
6334.876994
2.782406
-243.422907
3156.714113
-784.970475
1224.618083
-1869.954629
4403.360580
2497.600679
2392.620164
2377.242674
-79.366012
3871.378938
-840.710789
SCALARS stress_3 float
LOOKUP_TABLE default
-2259.295730
-5472.625025
-4006.369704
-3664.334129
-5398.820118
-2809.359036
-6344.772836
-7364.142689
-12330.867214
-17812.280065
-13328.685089
-15043.636100
-15296.647253
-21783.288947
-27621.389825
-16790.701148
-37847.735992
-17950.836396
-52321.898873
-14982.871506
-76309.524840
-10477.445832
-96590.202302
-892.772494
-121293.577632
7673.758577
-150293.026117
22454.147382
-183517.370945
37383.003988
-218130.486251
60217.277446
-258100.357392
83335.166232
-306114.984368
111328.670345
-355342.652909
142526.598329
-409176.723657
177603.700759
-466295.283869
-532011.694189
219215.962993
-597681.828752
264439.796623
-667890.510745
316320.973888
-745271.953287
372162.656957
-822835.802751
436497.257423
-907225.110087
504965.298101
-997586.073770
573232.440007
-1087671.516986
651026.382770
-1184533.313871
739666.574287
-1285658.089137
823386.927305
-1386301.290683
915512.676603
1014906.146521
-1489630.918510
1117688.160246
-1598630.420515
1227912.204286
-1712459.259241
1342555.939658
-1821568.470995
1459667.065990
-1936662.055775
1579237.031181
-2056166.497785
1705067.747976
-2174246.223264
1837820.988612
-2292870.893228
1969471.915260
-2416332.919271
2107336.939514
-2535704.587122
2245984.584186
-2658338.734612
2386846.011446
-2780703.773334
2531523.957228
-2903604.415254
2675055.670954
-3023744.645728
2824114.212897
-3138608.353537
-3257986.148749
2970795.583057
-3375651.295431
3116936.730484
-3488641.028363
3265043.853653
-3599517.023207
3405617.063785
-3704592.103148
3556672.360880
-3808788.781680
3698261.856158
-3912075.044158
3842135.336502
-4008670.779361
3974870.162554
-4095454.597358
4114496.658655
-4182679.762216
4243231.362263
-4266666.559666
4376197.309681
4499487.149589
-4344495.827536
4618283.506699
-4414795.977422
4731208.705349
-4482355.721288
4840184.106184
-4544479.896966
4941469.835068
-4595894.591709
5037737.877357
-4642003.379282
5125904.358917
-4681806.022599
5211881.802559
-4714678.521660
5282182.208286
-4746052.339007
5347471.488842
-4764346.510947
5407927.004871
-4779993.337851
5458091.080713
-4788048.819721
5499429.929486
-4789473.256928
5534340.199869
-4782585.274185
5558526.729691
-4769140.745628
5575906.167632
-4751669.346918
-4726286.129003
5587101.138402
-4692249.290358
5590685.966341
-4656842.182306
5581800.777313
-4611990.591728
5562816.307251
-4562528.194285
5539028.556154
-4503266.864113
5507888.812057
-4448653.240566
5470726.435603
-4378752.984664
5419155.765775
-4311004.735761
5361866.163218
-4236501.205823
5298861.753796
5231164.861848
-4151722.394851
5153505.700493
-4069081.566911
5067720.918408
-3981134.596141
4978424.317118
-3888923.158201
4883868.845676
-3794800.628378
4785284.828418
-3695298.357996
4676340.391211
-3598119.509223
4567516.909342
-3498035.433381
4453726.082437
-3395243.917351
4333831.910498
-3287490.636796
4212314.093150
-3183846.231069
4090209.594089
-3075948.787426
3962198.950772
-2963798.305867
3832154.163200
-2858314.263578
3700963.468456
-2751076.534693
3572887.292778
-2642613.133858
-2541703.935208
3436207.548912
-2433867.578099
3302995.399027
-2326929.738191
3173342.131156
-2222619.790772
3035163.333707
-2121805.087165
2907042.168848
-2018386.591064
2768690.350851
-1924387.765011
2637742.615648
-1824722.284668
2511352.353170
-1732444.789389
2381011.674639
-1638701.492295
2256400.594697
-1548464.282162
2131604.599853
-1464277.158993
2011878.866921
-1374424.011566
1897509.720239
-1295134.641407
1786419.925028
-1213164.099464
1672532.217219
-1143520.385738
1560471.986744
-1066106.439956
1459923.344824
-995773.012696
1355158.306102
-928661.368023
1261276.158613
-864860.343770
1166256.490762
-802681.417122
1079242.464719
-741928.176485
991289.794755
-683393.459691
910794.069276
-631855.494500
831785.627265
-579608.368168
762644.042485
-528964.632795
693102.830732
-485700.588756
626249.992005
-443462.575031
562722.490000
-404805.105113
507392.862174
-367015.355815
454493.660627
-330735.002797
403928.885361
-292718.811280
358123.088476
-263772.868517
313845.645260
-233265.726611
277340.681578
-207965.685933
240823.374242
-179967.085466
207691.524777
-159341.402398
175526.082235
-138420.225133
146645.400242
-116380.391503
123647.265679
-98560.129269
100618.855360
-82603.026838
84156.295148
-69661.098855
67714.224399
-58739.594741
55302.555859
-44613.705956
38343.928882
-37155.432497
29558.057741
-26338.575892
20224.942435
-21334.187087
16872.597607
-14975.656016
5697.149122
-9838.982678
1761.773792
-1685.557004
1417.096331
2098.407886
-3594.529637
842.272638
-6788.692518
1658.860438
-5783.038685
4279.207591
-7099.781257
7607.851555
-6283.743420
6958.438704
-3992.285820
2636.344326
-1411.069474
-997.608392
-812.094381
25.941194
998.867220
-3764.872374
-6048.615914
-3687.556434
-10945.808733
-2049.500393
-10338.842839
-5927.115843
-16770.057215
-13145.763430
-16044.715928
-19035.104171
-17940.194266
-32117.336541
-19669.470568
-43607.085251
-15834.757951
-60147.371964
-11001.857941
-76927.983561
-7991.196774
-100811.544753
-441.951265
-124785.915034
8296.077062
-157752.881285
22672.248852
-189155.479811
38194.975697
-222817.695968
58859.831361
-270687.403893
81891.639031
-313121.015178
106571.759351
-361567.353011
141993.979203
-421501.453697
174036.070824
-474485.515712
214920.658927
-537235.413190
259614.891037
-602439.131489
311714.340918
-674966.757862
364717.207043
-748984.079191
423707.063177
-833702.954969
489654.107795
-913954.009908
562764.665234
-997756.280312
636923.970276
-1085539.015606
715405.935667
-1180063.038977
800287.796186
-1279459.386729
892079.876172
-1378859.933000
986518.998813
-1482493.089382
1087018.650617
-1584612.105299
1189708.492601
-1692809.803939
1299570.011274
-1803274.059436
1412260.029823
-1910947.496504
1529679.497299
-2022262.400870
1643519.987465
-2139000.559418
1772562.449372
-2250100.470994
1893826.456782
-2368807.385023
2024183.157223
-2478484.337810
2154177.925981
-2593032.578779
2284347.285871
-2705335.144234
2416729.023774
-2821041.709839
2548956.500334
-2923957.510371
2687140.039892
-3035007.809900
2820875.216209
-3140941.843205
2955225.191456
-3241665.285947
3089599.326276
-3344498.961314
3215962.569721
-3441261.382796
3347305.246130
-3536224.535750
3473030.929265
-3623702.933668
3598064.568178
-3710537.399736
3719787.949751
-3791903.396497
3838164.347372
-3865702.173375
3951499.136331
-3939397.192912
4059856.301984
-4001801.704531
4163069.757076
-4062126.207082
4260372.862252
-4119692.913682
4357966.154970
-4165178.536298
4438294.584280
-4209685.699641
4518780.474521
-4241770.277848
4597094.987863
-4274873.946580
4658711.484950
-4298449.955260
4719719.878529
-4312699.141719
4769941.117650
-4323233.380093
4813488.577600
-4327756.132924
4853253.531771
-4325597.075873
4877417.767044
-4316961.458364
4899310.658706
-4299728.742940
4909723.068554
-4276569.554312
4916084.783471
-4250069.030684
4914564.340912
-4218573.385174
4900652.476811
-4180820.278801
4879745.317033
-4133254.975630
4852474.023746
-4079745.349799
4817108.921289
-4022454.452255
4778138.547120
-3963293.745542
4725879.850291
-3900616.905321
4669872.956665
-3825232.769422
4608264.602174
-3753905.211980
4536477.125802
-3675223.497064
4460676.314430
-3597147.087216
4381125.029854
-3507462.195553
4293648.647363
-3421489.960281
4200319.704414
-3330621.006110
4101716.951583
-3234801.546159
4001134.713209
-3140580.307039
3901845.526750
-3046899.913460
3791613.518070
-2948339.416373
3678173.849339
-2850024.903030
3564329.271132
-2749395.012789
3446974.107788
-2652266.583480
3329440.485172
-2548465.290762
3207665.778572
-2446746.185586
3091277.276022
-2348332.730494
2966344.764402
-2247447.564841
2843737.744865
-2149840.775882
2720850.967988
-2052840.378260
2598220.971227
-1956780.996688
2479706.505159
-1861603.357775
2360100.107241
-1767429.674639
2238144.954286
-1678822.998231
2123462.532804
-1590603.754786
2006228.857438
-1502437.619965
1896529.414695
-1422055.644719
1781987.381390
-1335200.468402
1677193.081861
-1256920.928844
1567557.281329
-1180245.452283
1465450.715725
-1107607.714380
1368492.150269
-1031966.354490
1274951.909300
-969235.585732
1181514.956513
-900222.885292
1092088.042485
-836302.877882
1005580.130908
-772316.415975
927129.972361
-716347.925809
850247.067994
-659264.458333
775021.630926
-605774.439784
706637.375429
-560232.921111
640071.676790
-507975.079126
580384.660872
-462419.427323
519631.504490
-419996.304682
467318.958220
-383612.224695
414546.610467
-346762.364176
366406.587096
-310872.398786
323311.851802
-277545.093744
286325.581398
-246290.536304
245418.526460
-216119.491687
208683.650682
-190441.635553
180282.329352
-167758.769427
152986.702979
-144987.319547
128598.984680
-124709.087437
104137.087202
-106960.499334
85905.025188
-91174.407713
67698.924501
-72264.187861
51396.586668
-64512.067541
39954.975383
-50248.259871
30853.267458
-38175.404207
23607.051301
-29452.677361
14700.452775
-23588.505572
7701.486525
-12834.477245
335.116244
-9861.231735
-2812.444949
-7602.570569
-7385.056546
-657.670559
-6309.343258
-710.957942
-7975.091969
487.765757
-7601.324338
2448.287419
-6514.665079
3973.628706
-5637.312666
1222.414330
-5738.928117
965.380223
-1556.872076
2484.187404
-1387.803484
-711.556136
-4188.750938
-2137.012132
-4800.246893
-5728.471701
-3930.978304
-763.088868
-4202.248987
-7243.146024
-9183.202213
-1847.668180
-8187.876504
-8621.788712
-12253.538098
-7816.238716
-12576.634767
-13798.393235
-15003.295463
-14574.851169
-8601.808098
-18040.400487
-17915.538802
-17071.520039
-16724.283754
-24914.897364
-14718.911684
-17932.186798
-23797.515851
-34348.283900
-17408.619783
-16297.330533
-36268.874357
-46263.115529
-17093.860305
-17265.139410
-54493.395578
-62201.127260
-18329.204231
-11896.591707
-70354.997579
-82494.784986
-12422.552492
-9504.273525
-93258.624197
-105901.441059
-2006.941352
-1762.866936
-115133.851016
-131374.705923
4829.766700
10598.159192
-141000.672045
-161347.725427
16589.179092
27457.682304
-179095.563653
-195384.050185
30020.770918
45544.655451
-213850.345905
-230419.371257
52827.464475
67817.051088
-252809.154743
-278315.138363
73468.586072
88793.914315
-298217.907478
-324846.518387
101888.274016
119083.502499
-342953.851607
-375418.894830
128927.586716
152233.780925
-398261.756247
-433589.268318
163891.599587
187957.374411
-457510.769110
-497422.254805
-545661.785416
199988.859517
231612.000411
-525548.822207
-599816.160923
249236.727148
279937.013096
-597155.641313
-664494.175488
298109.400956
333942.642094
-670837.961461
-745928.806532
349619.292535
391845.251066
-745085.734208
-824343.226637
408803.951681
454050.700110
-828326.907758
-910342.885462
476294.932087
522361.197129
-911103.844080
-996997.751248
540399.794298
594605.949042
-997242.416784
-1089665.202362
615800.377841
677175.235836
-1086165.880615
-1182104.285249
697909.143456
754151.754647
-1182283.727507
-1280812.946656
780274.231148
848190.233696
-1277787.162136
-1382631.811901
946391.445030
877930.565918
1029735.983633
-1379674.969792
-1484403.409121
987173.077280
1103806.212031
-1486167.086475
-1594240.124622
1087240.856311
1210831.009310
-1591982.802354
-1703522.699659
1201795.382834
1322344.902430
-1697135.631801
-1816871.726261
1307989.001077
1442267.857605
-1807665.894546
-1935379.558811
1424493.146599
1562241.586423
-1921398.621574
-2047136.750078
1546652.521289
1688422.716341
-2034061.194206
-2163508.472918
1667162.701549
1811405.090678
-2151409.660374
-2286029.222177
1789970.384095
1940496.439060
-2266457.362078
-2400018.760769
1917342.362008
2077646.499723
-2385918.041556
-2519166.620349
2049428.501526
2215294.614774
-2502053.612266
-2639237.771611
2185236.190550
2349767.001331
-2617174.223325
-2759282.381457
2319546.422061
2495952.104778
-2732750.205213
-2872175.847926
2452058.735821
2631767.208040
-2851653.334564
-2997258.177951
2592340.725662
2775606.273007
-2965506.500053
-3116212.654771
-3218703.927806
2731966.366908
2919430.078937
-3105871.756305
-3288589.222709
2866316.071149
3056796.698439
-3205200.256933
-3401572.395097
3007676.162727
3201979.206429
-3318824.759837
-3511698.530783
3146059.590691
3343410.692466
-3423993.835461
-3613673.392285
3282953.294771
3485389.142513
-3522761.474293
-3714734.315904
3418643.604521
3623970.536209
-3621177.698663
-3811054.465129
3551046.896530
3758424.991100
-3715842.795725
-3905483.810779
3680831.282519
3895897.178720
-3802835.490769
-3992994.803662
3806888.352823
4024032.725373
-3890961.785116
-4075395.670935
3927475.894471
4157713.928330
-3972663.058766
-4155193.116455
4047038.551533
4271702.798261
4401360.336744
-4044427.454805
-4228861.549283
4207702.360337
4461353.373157
-4115152.656959
-4296697.779887
4290696.636843
4575499.287627
-4178183.213977
-4360479.130198
4409452.785840
4671275.378351
-4240864.481853
-4415457.232051
4505586.776382
4768421.154665
-4290393.784026
-4464630.601011
4599569.232087
4858537.095874
-4334500.837363
-4501379.798963
4687079.353336
4945983.772012
-4369206.928579
-4544040.406457
4766679.422193
5021560.919494
-4406279.161268
-4574638.592682
4841810.613711
5094069.896679
-4435553.453497
-4601022.554644
4899186.078810
5151057.582503
-4458094.328081
-4616330.936561
4956031.652806
5202725.556844
-4471249.857524
-4627376.405608
5004262.149564
5249709.535607
-4475870.111296
-4634534.398330
5047006.736575
5289512.388593
-4476429.283222
-4628801.969993
5081281.810074
5319718.353387
-4471498.790277
-4620277.146781
5109434.180639
5339142.987392
-4459260.214332
-4611244.614724
5123703.643257
5352668.438155
-4436282.891416
-4586481.550535
-4585248.728371
5128612.181968
5353581.698259
-4420602.154807
-4536912.362023
5130148.709534
5349389.343562
-4373372.001907
-4500595.388154
5124580.620707
5339160.061457
-4333783.683963
-4448885.399666
5105081.951668
5318650.868997
-4286640.473263
-4398444.405583
5084770.064777
5290441.750826
-4240452.702606
-4345555.360428
5052763.052004
5254645.300188
-4180430.813190
-4279762.954590
5014512.124873
5211667.328396
-4125420.155017
-4214919.565303
4961297.433470
5161417.469397
-4054993.325834
-4142080.033080
4909428.532950
5102055.296806
-3984525.218510
-4066658.194307
4837329.377356
5033118.474285
5014366.501625
-3906973.971873
-3983772.747479
4800436.373862
4919239.962749
-3830481.027999
-3905256.834088
4677071.536737
4838561.418355
-3749576.507432
-3820658.366985
4608385.092186
4740745.478170
-3659771.112815
-3726636.801359
4515712.782683
4647061.962294
-3571687.270993
-3631809.194695
4424654.500876
4552351.376973
-3480256.148136
-3537737.387443
4319447.352519
4446517.597474
-3385835.657703
-3438400.203899
4220487.445125
4338849.073477
-3290345.543251
-3343072.519791
4112030.033438
4223652.259394
-3193216.937663
-3239386.798856
4002799.096886
4106552.080919
-3090542.330464
-3134539.217531
3889108.074045
3989061.676255
-2991173.305347
-3033072.428891
3772630.562645
3866490.226824
-2889705.231566
-2929634.106987
3651761.435124
3744258.942330
-2787150.019544
-2823352.488902
3529534.545653
3617114.258836
-2678414.333060
-2715318.458933
3410530.882501
3488537.246542
-2577031.895709
-2607570.546366
3286111.229637
3361075.383347
-2464948.785762
-2506453.088988
-2435708.036569
3156693.780823
3224099.327251
-2370483.992265
-2341740.474747
3033108.875041
3096816.240424
-2247656.543561
-2235018.705628
2905333.049748
2967455.609376
-2141695.171559
-2133313.415751
2779965.467114
2842808.610918
-2042812.524389
-2037354.590281
2654022.679241
2713355.230407
-1948155.711029
-1938884.212902
2528959.222978
2582322.010622
-1853332.758902
-1840074.626343
2404952.819845
2456594.022476
-1757928.841574
-1747205.959970
2284344.439611
2333801.874111
-1664871.999688
-1655542.927822
2165521.271158
2208731.288408
-1577352.116491
-1563750.047139
2042712.208752
2084459.355701
-1488942.475408
-1475403.665013
1921749.624398
1967592.090967
1891662.053429
-1404200.596948
-1391157.045511
1808971.143505
1783028.918789
-1324140.267995
-1311484.401751
1677019.144742
1677327.060500
-1242810.578105
-1230026.692002
1571939.656129
1564172.640265
-1167383.164330
-1151292.106339
1469517.582837
1459773.730506
-1091285.934808
-1079505.583672
1365791.664343
1362202.786392
-1020897.650044
-1006204.489863
1272102.680194
1264539.969504
-950852.808886
-938634.840372
1177454.891757
1174268.233000
-886527.726349
-873732.930857
1092413.739324
1083291.534313
-824214.528300
-809597.485899
1001792.172305
996976.120414
-762393.732837
-755699.076849
923695.158037
912310.009946
-707834.374234
-697545.938215
842754.972320
840351.005149
-648288.513413
-641614.635027
772813.073088
766575.998363
-596487.578705
-590072.500964
697656.633152
699990.034566
-546817.875803
-535232.962326
635837.007773
634934.034383
-499784.903939
-494843.694798
-464172.441932
572667.635591
571484.767493
-453457.099622
-421691.508310
517742.776943
512003.364034
-406285.518059
-384543.512543
458848.344575
458391.108857
-368229.763253
-346887.175531
408691.374792
405680.442129
-325893.452742
-311008.439600
363273.242883
360400.739139
-293484.647699
-281291.404324
315209.711762
317267.385209
-261279.859859
-246388.716015
282374.268652
275310.243729
-234254.242463
-217796.494690
242984.305347
240151.137005
-205135.305276
-191928.991470
207083.237381
204870.343203
-179485.600502
-167105.715175
179732.145176
174384.495417
-159229.810821
-150241.587330
151856.725601
149832.241798
-138562.100707
-126646.154440
123676.736787
130130.133734
-116547.894093
-109734.602748
100818.546471
113020.827954
-97554.919893
-93370.046280
78939.181407
91183.009708
-83934.907021
-77639.700564
64774.140490
71571.173070
-69206.480190
-62995.188008
48612.994869
62071.924901
-54371.295702
-48990.222065
33665.811790
43689.411785
-47301.707289
-38905.100741
27067.455837
31526.904032
-37893.409865
-31887.700539
12027.367514
25451.495099
-25451.241259
-23074.419121
8418.277431
16410.523589
-18004.910422
-15620.078354
5941.657454
6737.566661
-14447.525557
-14233.578205
-760.816757
4870.425840
-8459.192019
-6808.263040
-4902.365338
-797.604808
-2921.296890
-1573.787947
-7778.829136
-4913.151420
-1150.102038
736.983956
-5335.490865
-3824.760167
-1081.572961
776.792060
-6313.707166
-7037.240096
3990.194806
3718.461143
-12357.452754
-5326.819786
1735.341238
4397.090087
-6602.727630
-6280.097239
1860.735662
5837.940401
-4549.420573
-2603.218995
5118.353184
7199.536433
-5612.679108
-3953.008242
5899.763854
1801.161331
-2177.592795
2732.793160
-1703.329731
665.470747
1675.004817
-1851.910531
1317.081615
