# vtk DataFile Version 2.0
Generated volume Mesh
ASCII
DATASET UNSTRUCTURED_GRID
POINTS 1240 float
-0.212153 -0.150304 0.000000
-0.206421 -0.141033 0.000000
-0.215099 -0.146056 0.000000
-0.209122 -0.154492 0.000000
-0.217961 -0.141751 0.000000
-0.206009 -0.158620 0.000000
-0.220736 -0.137389 0.000000
-0.202815 -0.162684 0.000000
-0.223424 -0.132973 0.000000
-0.226023 -0.128505 0.000000
-0.199540 -0.166684 0.000000
-0.228534 -0.123985 0.000000
-0.196187 -0.170619 0.000000
-0.230953 -0.119417 0.000000
-0.192756 -0.174486 0.000000
-0.233282 -0.114802 0.000000
-0.189249 -0.178283 0.000000
-0.235519 -0.110141 0.000000
-0.185666 -0.182011 0.000000
-0.237662 -0.105436 0.000000
-0.182011 -0.185666 0.000000
-0.239711 -0.100690 0.000000
-0.178283 -0.189249 0.000000
-0.241666 -0.095904 0.000000
-0.174486 -0.192756 0.000000
-0.243525 -0.091081 0.000000
-0.170619 -0.196187 0.000000
-0.245288 -0.086221 0.000000
-0.166684 -0.199540 0.000000
-0.246953 -0.081327 0.000000
-0.162684 -0.202815 0.000000
-0.248521 -0.076401 0.000000
-0.158620 -0.206009 0.000000
-0.249991 -0.071445 0.000000
-0.154492 -0.209122 0.000000
-0.251363 -0.066459 0.000000
-0.150304 -0.212153 0.000000
-0.252634 -0.061448 0.000000
-0.146056 -0.215099 0.000000
-0.253806 -0.056412 0.000000
-0.141751 -0.217961 0.000000
-0.137389 -0.220736 0.000000
-0.254878 -0.051354 0.000000
-0.132973 -0.223424 0.000000
-0.255849 -0.046275 0.000000
-0.128505 -0.226023 0.000000
-0.256718 -0.041179 0.000000
-0.123985 -0.228534 0.000000
-0.257486 -0.036067 0.000000
-0.119417 -0.230953 0.000000
-0.258152 -0.030940 0.000000
-0.114802 -0.233282 0.000000
-0.258717 -0.025802 0.000000
-0.110141 -0.235519 0.000000
-0.259178 -0.020654 0.000000
-0.105436 -0.237662 0.000000
-0.259538 -0.015498 0.000000
-0.100690 -0.239711 0.000000
-0.259794 -0.010336 0.000000
-0.095904 -0.241666 0.000000
-0.259949 -0.005169 0.000000
-0.091081 -0.243525 0.000000
-0.260000 0.000000 0.000000
-0.259949 0.005169 0.000000
-0.086221 -0.245288 0.000000
-0.259794 0.010336 0.000000
-0.081327 -0.246953 0.000000
-0.259538 0.015498 0.000000
-0.076401 -0.248521 0.000000
-0.259178 0.020654 0.000000
-0.071445 -0.249991 0.000000
-0.258717 0.025802 0.000000
-0.066459 -0.251363 0.000000
-0.258152 0.030940 0.000000
-0.061448 -0.252634 0.000000
-0.257486 0.036067 0.000000
-0.056412 -0.253806 0.000000
-0.256718 0.041179 0.000000
-0.051354 -0.254878 0.000000
-0.255849 0.046275 0.000000
-0.046275 -0.255849 0.000000
-0.254878 0.051354 0.000000
-0.041179 -0.256718 0.000000
-0.253806 0.056412 0.000000
-0.036067 -0.257486 0.000000
-0.252634 0.061448 0.000000
-0.030940 -0.258152 0.000000
-0.251363 0.066459 0.000000
-0.025802 -0.258717 0.000000
-0.249991 0.071445 0.000000
-0.020654 -0.259178 0.000000
-0.248521 0.076401 0.000000
-0.015498 -0.259538 0.000000
-0.010336 -0.259794 0.000000
-0.246953 0.081327 0.000000
-0.005169 -0.259949 0.000000
-0.245288 0.086221 0.000000
0.000000 -0.260000 0.000000
-0.243525 0.091081 0.000000
0.005169 -0.259949 0.000000
-0.241666 0.095904 0.000000
0.010336 -0.259794 0.000000
-0.239711 0.100690 0.000000
0.015498 -0.259538 0.000000
-0.237662 0.105436 0.000000
0.020654 -0.259178 0.000000
-0.235519 0.110141 0.000000
0.025802 -0.258717 0.000000
-0.233282 0.114802 0.000000
0.030940 -0.258152 0.000000
-0.230953 0.119417 0.000000
0.036067 -0.257486 0.000000
-0.228534 0.123985 0.000000
0.041179 -0.256718 0.000000
-0.226023 0.128505 0.000000
-0.223424 0.132973 0.000000
0.046275 -0.255849 0.000000
-0.220736 0.137389 0.000000
0.051354 -0.254878 0.000000
-0.217961 0.141751 0.000000
0.056412 -0.253806 0.000000
-0.215099 0.146056 0.000000
0.061448 -0.252634 0.000000
-0.212153 0.150304 0.000000
0.066459 -0.251363 0.000000
-0.209122 0.154492 0.000000
0.071445 -0.249991 0.000000
-0.206009 0.158620 0.000000
0.076401 -0.248521 0.000000
-0.202815 0.162684 0.000000
0.081327 -0.246953 0.000000
-0.199540 0.166684 0.000000
0.086221 -0.245288 0.000000
-0.196187 0.170619 0.000000
0.091081 -0.243525 0.000000
-0.192756 0.174486 0.000000
0.095904 -0.241666 0.000000
-0.189249 0.178283 0.000000
0.100690 -0.239711 0.000000
-0.185666 0.182011 0.000000
0.105436 -0.237662 0.000000
-0.182011 0.185666 0.000000
0.110141 -0.235519 0.000000
-0.178283 0.189249 0.000000
0.114802 -0.233282 0.000000
-0.174486 0.192756 0.000000
0.119417 -0.230953 0.000000
0.123985 -0.228534 0.000000
-0.170619 0.196187 0.000000
0.128505 -0.226023 0.000000
-0.166684 0.199540 0.000000
0.132973 -0.223424 0.000000
-0.162684 0.202815 0.000000
0.137389 -0.220736 0.000000
-0.158620 0.206009 0.000000
0.141751 -0.217961 0.000000
-0.154492 0.209122 0.000000
0.146056 -0.215099 0.000000
-0.150304 0.212153 0.000000
0.150304 -0.212153 0.000000
-0.146056 0.215099 0.000000
0.154492 -0.209122 0.000000
-0.141751 0.217961 0.000000
0.158620 -0.206009 0.000000
-0.137389 0.220736 0.000000
0.162684 -0.202815 0.000000
-0.132973 0.223424 0.000000
-0.128505 0.226023 0.000000
0.166684 -0.199540 0.000000
-0.123985 0.228534 0.000000
0.170619 -0.196187 0.000000
-0.119417 0.230953 0.000000
0.174486 -0.192756 0.000000
-0.114802 0.233282 0.000000
0.178283 -0.189249 0.000000
-0.110141 0.235519 0.000000
0.182011 -0.185666 0.000000
-0.105436 0.237662 0.000000
0.185666 -0.182011 0.000000
-0.100690 0.239711 0.000000
0.189249 -0.178283 0.000000
-0.095904 0.241666 0.000000
0.192756 -0.174486 0.000000
-0.091081 0.243525 0.000000
0.196187 -0.170619 0.000000
-0.086221 0.245288 0.000000
0.199540 -0.166684 0.000000
-0.081327 0.246953 0.000000
0.202815 -0.162684 0.000000
-0.076401 0.248521 0.000000
0.206009 -0.158620 0.000000
-0.071445 0.249991 0.000000
0.209122 -0.154492 0.000000
-0.066459 0.251363 0.000000
0.212153 -0.150304 0.000000
-0.061448 0.252634 0.000000
0.215099 -0.146056 0.000000
-0.056412 0.253806 0.000000
0.217961 -0.141751 0.000000
0.220736 -0.137389 0.000000
-0.051354 0.254878 0.000000
0.223424 -0.132973 0.000000
-0.046275 0.255849 0.000000
0.226023 -0.128505 0.000000
-0.041179 0.256718 0.000000
0.228534 -0.123985 0.000000
-0.036067 0.257486 0.000000
0.230953 -0.119417 0.000000
-0.030940 0.258152 0.000000
0.233282 -0.114802 0.000000
-0.025802 0.258717 0.000000
0.235519 -0.110141 0.000000
-0.020654 0.259178 0.000000
0.237662 -0.105436 0.000000
-0.015498 0.259538 0.000000
0.239711 -0.100690 0.000000
-0.010336 0.259794 0.000000
0.241666 -0.095904 0.000000
-0.005169 0.259949 0.000000
0.243525 -0.091081 0.000000
0.000000 0.260000 0.000000
0.245288 -0.086221 0.000000
0.005169 0.259949 0.000000
0.246953 -0.081327 0.000000
0.010336 0.259794 0.000000
0.248521 -0.076401 0.000000
0.015498 0.259538 0.000000
0.249991 -0.071445 0.000000
0.020654 0.259178 0.000000
0.251363 -0.066459 0.000000
0.025802 0.258717 0.000000
0.252634 -0.061448 0.000000
0.030940 0.258152 0.000000
0.253806 -0.056412 0.000000
0.036067 0.257486 0.000000
0.254878 -0.051354 0.000000
0.041179 0.256718 0.000000
0.255849 -0.046275 0.000000
0.046275 0.255849 0.000000
0.256718 -0.041179 0.000000
0.051354 0.254878 0.000000
0.257486 -0.036067 0.000000
0.056412 0.253806 0.000000
0.258152 -0.030940 0.000000
0.061448 0.252634 0.000000
0.258717 -0.025802 0.000000
0.066459 0.251363 0.000000
0.259178 -0.020654 0.000000
0.071445 0.249991 0.000000
0.259538 -0.015498 0.000000
0.076401 0.248521 0.000000
0.259794 -0.010336 0.000000
0.081327 0.246953 0.000000
0.259949 -0.005169 0.000000
0.086221 0.245288 0.000000
0.260000 0.000000 0.000000
0.091081 0.243525 0.000000
0.259949 0.005169 0.000000
0.095904 0.241666 0.000000
0.259794 0.010336 0.000000
0.100690 0.239711 0.000000
0.259538 0.015498 0.000000
0.105436 0.237662 0.000000
0.259178 0.020654 0.000000
0.110141 0.235519 0.000000
0.258717 0.025802 0.000000
0.114802 0.233282 0.000000
0.258152 0.030940 0.000000
0.119417 0.230953 0.000000
0.257486 0.036067 0.000000
0.123985 0.228534 0.000000
0.256718 0.041179 0.000000
0.128505 0.226023 0.000000
0.255849 0.046275 0.000000
0.132973 0.223424 0.000000
0.254878 0.051354 0.000000
0.137389 0.220736 0.000000
0.253806 0.056412 0.000000
0.141751 0.217961 0.000000
0.252634 0.061448 0.000000
0.146056 0.215099 0.000000
0.251363 0.066459 0.000000
0.150304 0.212153 0.000000
0.249991 0.071445 0.000000
0.154492 0.209122 0.000000
0.248521 0.076401 0.000000
0.158620 0.206009 0.000000
0.246953 0.081327 0.000000
0.162684 0.202815 0.000000
0.245288 0.086221 0.000000
0.166684 0.199540 0.000000
0.243525 0.091081 0.000000
0.170619 0.196187 0.000000
0.241666 0.095904 0.000000
0.174486 0.192756 0.000000
0.239711 0.100690 0.000000
0.178283 0.189249 0.000000
0.237662 0.105436 0.000000
0.182011 0.185666 0.000000
0.235519 0.110141 0.000000
0.185666 0.182011 0.000000
0.233282 0.114802 0.000000
0.189249 0.178283 0.000000
0.230953 0.119417 0.000000
0.192756 0.174486 0.000000
0.228534 0.123985 0.000000
0.196187 0.170619 0.000000
0.226023 0.128505 0.000000
0.199540 0.166684 0.000000
0.223424 0.132973 0.000000
0.202815 0.162684 0.000000
0.220736 0.137389 0.000000
0.206009 0.158620 0.000000
0.217961 0.141751 0.000000
0.209122 0.154492 0.000000
0.215099 0.146056 0.000000
0.212153 0.150304 0.000000
-0.203462 -0.145269 0.000000
-0.209292 -0.136737 0.000000
-0.200416 -0.149443 0.000000
-0.212073 -0.132382 0.000000
-0.197285 -0.153553 0.000000
-0.214764 -0.127971 0.000000
-0.194070 -0.157598 0.000000
-0.217362 -0.123505 0.000000
-0.190771 -0.161575 0.000000
-0.219868 -0.118987 0.000000
-0.187391 -0.165483 0.000000
-0.222281 -0.114417 0.000000
-0.183931 -0.169320 0.000000
-0.224598 -0.109799 0.000000
-0.180392 -0.173086 0.000000
-0.226819 -0.105134 0.000000
-0.176777 -0.176777 0.000000
-0.228943 -0.100424 0.000000
-0.173086 -0.180392 0.000000
-0.230970 -0.095671 0.000000
-0.169320 -0.183931 0.000000
-0.232898 -0.090877 0.000000
-0.165483 -0.187391 0.000000
-0.234726 -0.086044 0.000000
-0.161575 -0.190771 0.000000
-0.236454 -0.081175 0.000000
-0.157598 -0.194070 0.000000
-0.238081 -0.076271 0.000000
-0.153553 -0.197285 0.000000
-0.239607 -0.071334 0.000000
-0.149443 -0.200416 0.000000
-0.241030 -0.066366 0.000000
-0.145269 -0.203462 0.000000
-0.242350 -0.061370 0.000000
-0.141033 -0.206421 0.000000
-0.243567 -0.056347 0.000000
-0.136737 -0.209292 0.000000
-0.244680 -0.051301 0.000000
-0.132382 -0.212073 0.000000
-0.245688 -0.046232 0.000000
-0.127971 -0.214764 0.000000
-0.246591 -0.041144 0.000000
-0.123505 -0.217362 0.000000
-0.247389 -0.036039 0.000000
-0.118987 -0.219868 0.000000
-0.248081 -0.030919 0.000000
-0.114417 -0.222281 0.000000
-0.248667 -0.025786 0.000000
-0.109799 -0.224598 0.000000
-0.249146 -0.020642 0.000000
-0.105134 -0.226819 0.000000
-0.249520 -0.015489 0.000000
-0.100424 -0.228943 0.000000
-0.249786 -0.010330 0.000000
-0.095671 -0.230970 0.000000
-0.249947 -0.005166 0.000000
-0.090877 -0.232898 0.000000
-0.250000 0.000000 0.000000
-0.086044 -0.234726 0.000000
-0.249947 0.005166 0.000000
-0.081175 -0.236454 0.000000
-0.249786 0.010330 0.000000
-0.076271 -0.238081 0.000000
-0.249520 0.015489 0.000000
-0.071334 -0.239607 0.000000
-0.249146 0.020642 0.000000
-0.066366 -0.241030 0.000000
-0.248667 0.025786 0.000000
-0.061370 -0.242350 0.000000
-0.248081 0.030919 0.000000
-0.056347 -0.243567 0.000000
-0.247389 0.036039 0.000000
-0.051301 -0.244680 0.000000
-0.246591 0.041144 0.000000
-0.046232 -0.245688 0.000000
-0.245688 0.046232 0.000000
-0.041144 -0.246591 0.000000
-0.244680 0.051301 0.000000
-0.036039 -0.247389 0.000000
-0.243567 0.056347 0.000000
-0.030919 -0.248081 0.000000
-0.242350 0.061370 0.000000
-0.025786 -0.248667 0.000000
-0.241030 0.066366 0.000000
-0.020642 -0.249146 0.000000
-0.239607 0.071334 0.000000
-0.015489 -0.249520 0.000000
-0.238081 0.076271 0.000000
-0.010330 -0.249786 0.000000
-0.236454 0.081175 0.000000
-0.005166 -0.249947 0.000000
-0.234726 0.086044 0.000000
-0.000000 -0.250000 0.000000
-0.232898 0.090877 0.000000
0.005166 -0.249947 0.000000
-0.230970 0.095671 0.000000
0.010330 -0.249786 0.000000
-0.228943 0.100424 0.000000
0.015489 -0.249520 0.000000
-0.226819 0.105134 0.000000
0.020642 -0.249146 0.000000
-0.224598 0.109799 0.000000
0.025786 -0.248667 0.000000
-0.222281 0.114417 0.000000
0.030919 -0.248081 0.000000
-0.219868 0.118987 0.000000
0.036039 -0.247389 0.000000
-0.217362 0.123505 0.000000
0.041144 -0.246591 0.000000
-0.214764 0.127971 0.000000
0.046232 -0.245688 0.000000
-0.212073 0.132382 0.000000
0.051301 -0.244680 0.000000
-0.209292 0.136737 0.000000
0.056347 -0.243567 0.000000
-0.206421 0.141033 0.000000
0.061370 -0.242350 0.000000
-0.203462 0.145269 0.000000
0.066366 -0.241030 0.000000
-0.200416 0.149443 0.000000
0.071334 -0.239607 0.000000
-0.197285 0.153553 0.000000
0.076271 -0.238081 0.000000
-0.194070 0.157598 0.000000
0.081175 -0.236454 0.000000
-0.190771 0.161575 0.000000
0.086044 -0.234726 0.000000
-0.187391 0.165483 0.000000
0.090877 -0.232898 0.000000
-0.183931 0.169320 0.000000
0.095671 -0.230970 0.000000
-0.180392 0.173086 0.000000
0.100424 -0.228943 0.000000
-0.176777 0.176777 0.000000
0.105134 -0.226819 0.000000
-0.173086 0.180392 0.000000
0.109799 -0.224598 0.000000
-0.169320 0.183931 0.000000
0.114417 -0.222281 0.000000
-0.165483 0.187391 0.000000
0.118987 -0.219868 0.000000
-0.161575 0.190771 0.000000
0.123505 -0.217362 0.000000
-0.157598 0.194070 0.000000
0.127971 -0.214764 0.000000
-0.153553 0.197285 0.000000
0.132382 -0.212073 0.000000
-0.149443 0.200416 0.000000
0.136737 -0.209292 0.000000
-0.145269 0.203462 0.000000
0.141033 -0.206421 0.000000
-0.141033 0.206421 0.000000
0.145269 -0.203462 0.000000
-0.136737 0.209292 0.000000
0.149443 -0.200416 0.000000
-0.132382 0.212073 0.000000
0.153553 -0.197285 0.000000
-0.127971 0.214764 0.000000
0.157598 -0.194070 0.000000
-0.123505 0.217362 0.000000
0.161575 -0.190771 0.000000
-0.118987 0.219868 0.000000
0.165483 -0.187391 0.000000
-0.114417 0.222281 0.000000
0.169320 -0.183931 0.000000
-0.109799 0.224598 0.000000
0.173086 -0.180392 0.000000
-0.105134 0.226819 0.000000
0.176777 -0.176777 0.000000
-0.100424 0.228943 0.000000
0.180392 -0.173086 0.000000
-0.095671 0.230970 0.000000
0.183931 -0.169320 0.000000
-0.090877 0.232898 0.000000
0.187391 -0.165483 0.000000
-0.086044 0.234726 0.000000
0.190771 -0.161575 0.000000
-0.081175 0.236454 0.000000
0.194070 -0.157598 0.000000
-0.076271 0.238081 0.000000
0.197285 -0.153553 0.000000
-0.071334 0.239607 0.000000
0.200416 -0.149443 0.000000
-0.066366 0.241030 0.000000
0.203462 -0.145269 0.000000
-0.061370 0.242350 0.000000
0.206421 -0.141033 0.000000
-0.056347 0.243567 0.000000
0.209292 -0.136737 0.000000
-0.051301 0.244680 0.000000
0.212073 -0.132382 0.000000
-0.046232 0.245688 0.000000
0.214764 -0.127971 0.000000
-0.041144 0.246591 0.000000
0.217362 -0.123505 0.000000
-0.036039 0.247389 0.000000
0.219868 -0.118987 0.000000
-0.030919 0.248081 0.000000
0.222281 -0.114417 0.000000
-0.025786 0.248667 0.000000
0.224598 -0.109799 0.000000
-0.020642 0.249146 0.000000
0.226819 -0.105134 0.000000
-0.015489 0.249520 0.000000
0.228943 -0.100424 0.000000
-0.010330 0.249786 0.000000
0.230970 -0.095671 0.000000
-0.005166 0.249947 0.000000
0.232898 -0.090877 0.000000
0.000000 0.250000 0.000000
0.234726 -0.086044 0.000000
0.005166 0.249947 0.000000
0.236454 -0.081175 0.000000
0.010330 0.249786 0.000000
0.238081 -0.076271 0.000000
0.015489 0.249520 0.000000
0.239607 -0.071334 0.000000
0.020642 0.249146 0.000000
0.241030 -0.066366 0.000000
0.025786 0.248667 0.000000
0.242350 -0.061370 0.000000
0.030919 0.248081 0.000000
0.243567 -0.056347 0.000000
0.036039 0.247389 0.000000
0.244680 -0.051301 0.000000
0.041144 0.246591 0.000000
0.245688 -0.046232 0.000000
0.046232 0.245688 0.000000
0.246591 -0.041144 0.000000
0.051301 0.244680 0.000000
0.247389 -0.036039 0.000000
0.056347 0.243567 0.000000
0.248081 -0.030919 0.000000
0.061370 0.242350 0.000000
0.248667 -0.025786 0.000000
0.066366 0.241030 0.000000
0.249146 -0.020642 0.000000
0.071334 0.239607 0.000000
0.249520 -0.015489 0.000000
0.076271 0.238081 0.000000
0.249786 -0.010330 0.000000
0.081175 0.236454 0.000000
0.249947 -0.005166 0.000000
0.086044 0.234726 0.000000
0.250000 -0.000000 0.000000
0.090877 0.232898 0.000000
0.249947 0.005166 0.000000
0.095671 0.230970 0.000000
0.249786 0.010330 0.000000
0.100424 0.228943 0.000000
0.249520 0.015489 0.000000
0.105134 0.226819 0.000000
0.249146 0.020642 0.000000
0.109799 0.224598 0.000000
0.248667 0.025786 0.000000
0.114417 0.222281 0.000000
0.248081 0.030919 0.000000
0.118987 0.219868 0.000000
0.247389 0.036039 0.000000
0.123505 0.217362 0.000000
0.246591 0.041144 0.000000
0.127971 0.214764 0.000000
0.245688 0.046232 0.000000
0.132382 0.212073 0.000000
0.244680 0.051301 0.000000
0.136737 0.209292 0.000000
0.243567 0.056347 0.000000
0.141033 0.206421 0.000000
0.242350 0.061370 0.000000
0.145269 0.203462 0.000000
0.241030 0.066366 0.000000
0.149443 0.200416 0.000000
0.239607 0.071334 0.000000
0.153553 0.197285 0.000000
0.238081 0.076271 0.000000
0.157598 0.194070 0.000000
0.236454 0.081175 0.000000
0.161575 0.190771 0.000000
0.234726 0.086044 0.000000
0.165483 0.187391 0.000000
0.232898 0.090877 0.000000
0.169320 0.183931 0.000000
0.230970 0.095671 0.000000
0.173086 0.180392 0.000000
0.228943 0.100424 0.000000
0.176777 0.176777 0.000000
0.226819 0.105134 0.000000
0.180392 0.173086 0.000000
0.224598 0.109799 0.000000
0.183931 0.169320 0.000000
0.222281 0.114417 0.000000
0.187391 0.165483 0.000000
0.219868 0.118987 0.000000
0.190771 0.161575 0.000000
0.217362 0.123505 0.000000
0.194070 0.157598 0.000000
0.214764 0.127971 0.000000
0.197285 0.153553 0.000000
0.212073 0.132382 0.000000
0.200416 0.149443 0.000000
0.209292 0.136737 0.000000
0.206421 0.141033 0.000000
0.203462 0.145269 0.000000
-0.211239 -0.145764 0.000000
-0.207348 -0.145506 0.000000
-0.208235 -0.149997 0.000000
-0.210271 -0.141224 0.000000
-0.214114 -0.141448 0.000000
-0.204348 -0.149730 0.000000
-0.205202 -0.154186 0.000000
-0.213130 -0.136835 0.000000
-0.216922 -0.137075 0.000000
-0.201224 -0.153860 0.000000
-0.202031 -0.158271 0.000000
-0.215878 -0.132424 0.000000
-0.219710 -0.132611 0.000000
-0.198030 -0.157923 0.000000
-0.198804 -0.162319 0.000000
-0.218605 -0.127699 0.000000
-0.222365 -0.128140 0.000000
-0.224875 -0.124872 0.000000
-0.194761 -0.161929 0.000000
-0.195479 -0.166293 0.000000
-0.221918 -0.123192 0.000000
-0.226380 -0.121036 0.000000
-0.191411 -0.165867 0.000000
-0.192076 -0.170180 0.000000
-0.223993 -0.118092 0.000000
-0.228835 -0.116386 0.000000
-0.187988 -0.169741 0.000000
-0.188629 -0.174050 0.000000
-0.226621 -0.113165 0.000000
-0.231077 -0.111640 0.000000
-0.184488 -0.173541 0.000000
-0.185072 -0.177780 0.000000
-0.228918 -0.108399 0.000000
-0.233287 -0.106944 0.000000
-0.180913 -0.177266 0.000000
-0.181487 -0.181485 0.000000
-0.231106 -0.103709 0.000000
-0.235397 -0.102211 0.000000
-0.177263 -0.180925 0.000000
-0.177757 -0.185116 0.000000
-0.233157 -0.098942 0.000000
-0.237414 -0.097442 0.000000
-0.173562 -0.184499 0.000000
-0.173989 -0.188666 0.000000
-0.235110 -0.094195 0.000000
-0.239353 -0.092615 0.000000
-0.169783 -0.188037 0.000000
-0.170176 -0.192088 0.000000
-0.237036 -0.089400 0.000000
-0.241145 -0.087789 0.000000
-0.165867 -0.191421 0.000000
-0.166261 -0.195470 0.000000
-0.238795 -0.084500 0.000000
-0.242869 -0.082916 0.000000
-0.161926 -0.194766 0.000000
-0.162296 -0.198817 0.000000
-0.240480 -0.079619 0.000000
-0.244533 -0.078015 0.000000
-0.157923 -0.198067 0.000000
-0.158264 -0.202046 0.000000
-0.242098 -0.074704 0.000000
-0.246013 -0.073093 0.000000
-0.153833 -0.201229 0.000000
-0.154141 -0.205206 0.000000
-0.243529 -0.069697 0.000000
-0.247451 -0.068123 0.000000
-0.149674 -0.204349 0.000000
-0.149938 -0.208289 0.000000
-0.244899 -0.064716 0.000000
-0.248766 -0.063116 0.000000
-0.145447 -0.207383 0.000000
-0.145696 -0.211247 0.000000
-0.246147 -0.059719 0.000000
-0.249987 -0.058081 0.000000
-0.141114 -0.210324 0.000000
-0.141350 -0.214172 0.000000
-0.247314 -0.054684 0.000000
-0.251085 -0.053025 0.000000
-0.136554 -0.213213 0.000000
-0.136933 -0.217186 0.000000
-0.133850 -0.219680 0.000000
-0.248378 -0.049626 0.000000
-0.252118 -0.047967 0.000000
-0.132090 -0.216717 0.000000
-0.130020 -0.221252 0.000000
-0.249339 -0.044548 0.000000
-0.253006 -0.042863 0.000000
-0.126984 -0.218897 0.000000
-0.125536 -0.223876 0.000000
-0.250196 -0.039452 0.000000
-0.253814 -0.037756 0.000000
-0.122403 -0.221788 0.000000
-0.120909 -0.226359 0.000000
-0.250948 -0.034339 0.000000
-0.254531 -0.032639 0.000000
-0.117810 -0.224233 0.000000
-0.116302 -0.228773 0.000000
-0.251590 -0.029207 0.000000
-0.255162 -0.027498 0.000000
-0.113063 -0.226648 0.000000
-0.111626 -0.231076 0.000000
-0.252152 -0.024064 0.000000
-0.255682 -0.022349 0.000000
-0.108405 -0.228923 0.000000
-0.106956 -0.233292 0.000000
-0.252595 -0.018895 0.000000
-0.256048 -0.017181 0.000000
-0.103699 -0.231093 0.000000
-0.102209 -0.235408 0.000000
-0.252917 -0.013716 0.000000
-0.256371 -0.011977 0.000000
-0.098950 -0.233168 0.000000
-0.097430 -0.237419 0.000000
-0.253145 -0.008502 0.000000
-0.256525 -0.006784 0.000000
-0.094186 -0.235148 0.000000
-0.092626 -0.239323 0.000000
-0.253246 -0.003274 0.000000
-0.256590 -0.001533 0.000000
-0.089365 -0.237021 0.000000
-0.087789 -0.241137 0.000000
-0.256677 0.003861 0.000000
-0.253142 0.002166 0.000000
-0.257115 0.007822 0.000000
-0.084514 -0.238796 0.000000
-0.082921 -0.242867 0.000000
-0.253720 0.007776 0.000000
-0.256519 0.011763 0.000000
-0.079606 -0.240458 0.000000
-0.078018 -0.244489 0.000000
-0.252852 0.013320 0.000000
-0.256068 0.016920 0.000000
-0.074694 -0.242036 0.000000
-0.073082 -0.246010 0.000000
-0.252611 0.018669 0.000000
-0.255656 0.022234 0.000000
-0.069735 -0.243513 0.000000
-0.068114 -0.247458 0.000000
-0.252141 0.023990 0.000000
-0.255162 0.027444 0.000000
-0.064743 -0.244887 0.000000
-0.063092 -0.248749 0.000000
-0.251604 0.029164 0.000000
-0.254573 0.032595 0.000000
-0.059717 -0.246147 0.000000
-0.058069 -0.249993 0.000000
-0.250974 0.034287 0.000000
-0.253840 0.037734 0.000000
-0.054678 -0.247313 0.000000
-0.053013 -0.251111 0.000000
-0.250231 0.039411 0.000000
-0.253024 0.042842 0.000000
-0.049616 -0.248377 0.000000
-0.047935 -0.252120 0.000000
-0.249361 0.044517 0.000000
-0.252111 0.047933 0.000000
-0.044539 -0.249350 0.000000
-0.042840 -0.253023 0.000000
-0.248407 0.049594 0.000000
-0.251110 0.053004 0.000000
-0.039431 -0.250212 0.000000
-0.037704 -0.253860 0.000000
-0.247324 0.054669 0.000000
-0.249985 0.058059 0.000000
-0.034308 -0.250972 0.000000
-0.032585 -0.254550 0.000000
-0.246143 0.059708 0.000000
-0.248743 0.063082 0.000000
-0.029143 -0.251616 0.000000
-0.027438 -0.255160 0.000000
-0.244868 0.064718 0.000000
-0.247429 0.068085 0.000000
-0.023984 -0.252155 0.000000
-0.022275 -0.255652 0.000000
-0.243509 0.069698 0.000000
-0.245994 0.073043 0.000000
-0.018760 -0.252599 0.000000
-0.017016 -0.256101 0.000000
-0.242036 0.074652 0.000000
-0.244469 0.077981 0.000000
-0.013287 -0.252844 0.000000
-0.011794 -0.256461 0.000000
-0.007824 -0.257115 0.000000
-0.240463 0.079574 0.000000
-0.242849 0.082888 0.000000
-0.007799 -0.253734 0.000000
-0.003878 -0.256704 0.000000
-0.238789 0.084463 0.000000
-0.241130 0.087762 0.000000
-0.002313 -0.253282 0.000000
0.001488 -0.256626 0.000000
-0.237016 0.089317 0.000000
-0.239316 0.092601 0.000000
0.003275 -0.253251 0.000000
0.006791 -0.256518 0.000000
-0.235145 0.094134 0.000000
-0.237412 0.097406 0.000000
0.008519 -0.253134 0.000000
0.011961 -0.256352 0.000000
-0.233173 0.098919 0.000000
-0.235426 0.102191 0.000000
0.013685 -0.252913 0.000000
0.017142 -0.256059 0.000000
-0.231127 0.103687 0.000000
-0.233295 0.106912 0.000000
0.018872 -0.252578 0.000000
0.022325 -0.255665 0.000000
-0.228942 0.108390 0.000000
-0.231092 0.111624 0.000000
0.024038 -0.252148 0.000000
0.027480 -0.255157 0.000000
-0.226657 0.113049 0.000000
-0.228780 0.116278 0.000000
0.029190 -0.251600 0.000000
0.032621 -0.254550 0.000000
-0.224272 0.117709 0.000000
-0.226385 0.120864 0.000000
0.034318 -0.250961 0.000000
0.037740 -0.253831 0.000000
-0.221796 0.122264 0.000000
-0.223999 0.125456 0.000000
0.039411 -0.250224 0.000000
0.042847 -0.253042 0.000000
-0.218901 0.126938 0.000000
-0.221364 0.129767 0.000000
-0.219680 0.133847 0.000000
0.044518 -0.249355 0.000000
0.047933 -0.252121 0.000000
-0.216712 0.132054 0.000000
-0.217004 0.137072 0.000000
0.049586 -0.248413 0.000000
0.052994 -0.251107 0.000000
-0.213232 0.136466 0.000000
-0.214223 0.141523 0.000000
0.054657 -0.247336 0.000000
0.058052 -0.250005 0.000000
-0.210309 0.141140 0.000000
-0.211239 0.145727 0.000000
0.059678 -0.246219 0.000000
0.063074 -0.248801 0.000000
-0.207382 0.145398 0.000000
-0.208266 0.149943 0.000000
0.064707 -0.244891 0.000000
0.068065 -0.247437 0.000000
-0.204377 0.149636 0.000000
-0.205190 0.154130 0.000000
0.069691 -0.243505 0.000000
0.073032 -0.246030 0.000000
-0.201236 0.153821 0.000000
-0.202041 0.158266 0.000000
0.074644 -0.242033 0.000000
0.077971 -0.244510 0.000000
-0.198078 0.157909 0.000000
-0.198801 0.162297 0.000000
0.079563 -0.240462 0.000000
0.082879 -0.242869 0.000000
-0.194813 0.161942 0.000000
-0.195518 0.166295 0.000000
0.084448 -0.238801 0.000000
0.087756 -0.241183 0.000000
-0.191439 0.165882 0.000000
-0.192093 0.170171 0.000000
0.089300 -0.237046 0.000000
0.092599 -0.239343 0.000000
-0.188003 0.169744 0.000000
-0.188653 0.173995 0.000000
0.094143 -0.235202 0.000000
0.097411 -0.237436 0.000000
-0.184499 0.173533 0.000000
-0.185108 0.177774 0.000000
0.098956 -0.233189 0.000000
0.102214 -0.235430 0.000000
-0.180925 0.177258 0.000000
-0.181476 0.181471 0.000000
0.103685 -0.231103 0.000000
0.106930 -0.233289 0.000000
-0.177298 0.180905 0.000000
-0.177799 0.185107 0.000000
0.108419 -0.228930 0.000000
0.111656 -0.231091 0.000000
-0.173586 0.184506 0.000000
-0.174021 0.188619 0.000000
0.113144 -0.226627 0.000000
0.116347 -0.228895 0.000000
-0.169775 0.188019 0.000000
-0.170198 0.192078 0.000000
0.118125 -0.224048 0.000000
0.120958 -0.226462 0.000000
0.124847 -0.224898 0.000000
-0.165874 0.191414 0.000000
-0.166269 0.195460 0.000000
0.123118 -0.221704 0.000000
0.128317 -0.222427 0.000000
-0.161942 0.194765 0.000000
-0.162298 0.198777 0.000000
0.127741 -0.218738 0.000000
0.132718 -0.219773 0.000000
-0.157941 0.198061 0.000000
-0.158267 0.202017 0.000000
0.132458 -0.215906 0.000000
0.137099 -0.216943 0.000000
-0.153841 0.201233 0.000000
-0.154157 0.205176 0.000000
0.136835 -0.213143 0.000000
0.141446 -0.214140 0.000000
-0.149697 0.204336 0.000000
-0.149986 0.208241 0.000000
0.141204 -0.210307 0.000000
0.145766 -0.211267 0.000000
-0.145494 0.207364 0.000000
-0.145771 0.211274 0.000000
0.145482 -0.207382 0.000000
0.149974 -0.208247 0.000000
-0.141205 0.210328 0.000000
-0.141442 0.214144 0.000000
0.149675 -0.204345 0.000000
0.154126 -0.205199 0.000000
-0.136819 0.213112 0.000000
-0.137086 0.216926 0.000000
0.153844 -0.201265 0.000000
0.158238 -0.202080 0.000000
-0.132440 0.215878 0.000000
-0.132694 0.219723 0.000000
0.157910 -0.198046 0.000000
0.162291 -0.198796 0.000000
-0.127703 0.218560 0.000000
-0.128168 0.222340 0.000000
-0.124872 0.224869 0.000000
0.161934 -0.194783 0.000000
0.166261 -0.195477 0.000000
-0.123151 0.221907 0.000000
-0.120918 0.226405 0.000000
0.165879 -0.191440 0.000000
0.170170 -0.192099 0.000000
-0.117906 0.223946 0.000000
-0.116364 0.228838 0.000000
0.169751 -0.188007 0.000000
0.173993 -0.188654 0.000000
-0.113240 0.226633 0.000000
-0.111662 0.231084 0.000000
0.173542 -0.184492 0.000000
0.177760 -0.185096 0.000000
-0.108422 0.228922 0.000000
-0.106961 0.233288 0.000000
0.177261 -0.180914 0.000000
0.181485 -0.181471 0.000000
-0.103737 0.231113 0.000000
-0.102262 0.235399 0.000000
0.180916 -0.177255 0.000000
0.185091 -0.177759 0.000000
-0.098948 0.233164 0.000000
-0.097431 0.237399 0.000000
0.184491 -0.173524 0.000000
0.188622 -0.173999 0.000000
-0.094143 0.235127 0.000000
-0.092613 0.239321 0.000000
0.187992 -0.169728 0.000000
0.192102 -0.170181 0.000000
-0.089317 0.237012 0.000000
-0.087764 0.241132 0.000000
0.191418 -0.165860 0.000000
0.195491 -0.166265 0.000000
-0.084463 0.238789 0.000000
-0.082889 0.242851 0.000000
0.194761 -0.161927 0.000000
0.198782 -0.162297 0.000000
-0.079574 0.240463 0.000000
-0.077984 0.244481 0.000000
0.198034 -0.157937 0.000000
0.202051 -0.158287 0.000000
-0.074655 0.242028 0.000000
-0.073067 0.246024 0.000000
0.201260 -0.153870 0.000000
0.205213 -0.154172 0.000000
-0.069704 0.243501 0.000000
-0.068084 0.247440 0.000000
0.204378 -0.149650 0.000000
0.208273 -0.149949 0.000000
-0.064720 0.244869 0.000000
-0.063076 0.248748 0.000000
0.207393 -0.145398 0.000000
0.211241 -0.145689 0.000000
-0.059719 0.246146 0.000000
-0.058059 0.249953 0.000000
0.210313 -0.141108 0.000000
0.214198 -0.141341 0.000000
-0.054684 0.247314 0.000000
-0.053013 0.251069 0.000000
0.213186 -0.136480 0.000000
0.217027 -0.137061 0.000000
0.219675 -0.133904 0.000000
-0.049626 0.248378 0.000000
-0.047946 0.252085 0.000000
0.216699 -0.132106 0.000000
0.221261 -0.130034 0.000000
-0.044548 0.249339 0.000000
-0.042859 0.253000 0.000000
0.218972 -0.126947 0.000000
0.223829 -0.125513 0.000000
-0.039452 0.250196 0.000000
-0.037755 0.253811 0.000000
0.221761 -0.122278 0.000000
0.226348 -0.120860 0.000000
-0.034339 0.250948 0.000000
-0.032636 0.254520 0.000000
0.224241 -0.117692 0.000000
0.228771 -0.116275 0.000000
-0.029212 0.251597 0.000000
-0.027501 0.255124 0.000000
0.226657 -0.113049 0.000000
0.231079 -0.111599 0.000000
-0.024064 0.252125 0.000000
-0.022349 0.255632 0.000000
0.228947 -0.108402 0.000000
0.233301 -0.106928 0.000000
-0.018895 0.252587 0.000000
-0.017177 0.256059 0.000000
0.231124 -0.103682 0.000000
0.235410 -0.102221 0.000000
-0.013722 0.252906 0.000000
-0.011984 0.256358 0.000000
0.233165 -0.098925 0.000000
0.237410 -0.097418 0.000000
-0.008503 0.253124 0.000000
-0.006797 0.256513 0.000000
0.235127 -0.094138 0.000000
0.239324 -0.092617 0.000000
-0.003298 0.253224 0.000000
-0.001537 0.256626 0.000000
0.236998 -0.089320 0.000000
0.241141 -0.087778 0.000000
0.002151 0.253099 0.000000
0.003665 0.256640 0.000000
0.007850 0.257154 0.000000
0.238771 -0.084467 0.000000
0.242860 -0.082904 0.000000
0.007797 0.253617 0.000000
0.011936 0.256414 0.000000
0.240446 -0.079578 0.000000
0.244481 -0.077996 0.000000
0.013338 0.252784 0.000000
0.017146 0.256139 0.000000
0.242028 -0.074654 0.000000
0.246037 -0.073052 0.000000
0.018795 0.252575 0.000000
0.022298 0.255656 0.000000
0.243509 -0.069698 0.000000
0.247448 -0.068073 0.000000
0.023967 0.252157 0.000000
0.027442 0.255166 0.000000
0.244876 -0.064709 0.000000
0.248758 -0.063061 0.000000
0.029162 0.251616 0.000000
0.032604 0.254548 0.000000
0.246144 -0.059697 0.000000
0.249992 -0.058030 0.000000
0.034292 0.250979 0.000000
0.037736 0.253859 0.000000
0.247309 -0.054662 0.000000
0.251104 -0.052986 0.000000
0.039431 0.250218 0.000000
0.042858 0.253073 0.000000
0.248369 -0.049609 0.000000
0.252103 -0.047938 0.000000
0.044531 0.249396 0.000000
0.047946 0.252110 0.000000
0.249327 -0.044538 0.000000
0.253015 -0.042853 0.000000
0.049638 0.248392 0.000000
0.053019 0.251075 0.000000
0.250196 -0.039452 0.000000
0.253860 -0.037736 0.000000
0.054696 0.247309 0.000000
0.058069 0.249954 0.000000
0.251003 -0.034313 0.000000
0.254598 -0.032621 0.000000
0.059722 0.246136 0.000000
0.063114 0.248759 0.000000
0.251639 -0.029149 0.000000
0.255178 -0.027455 0.000000
0.064734 0.244874 0.000000
0.068093 0.247429 0.000000
0.252168 -0.023976 0.000000
0.255662 -0.022304 0.000000
0.069737 0.243542 0.000000
0.073050 0.246037 0.000000
0.252584 -0.018806 0.000000
0.256143 -0.017147 0.000000
0.074663 0.242036 0.000000
0.077996 0.244480 0.000000
0.252817 -0.013347 0.000000
0.256442 -0.011927 0.000000
0.257154 -0.007852 0.000000
0.079584 0.240452 0.000000
0.082921 0.242866 0.000000
0.253690 -0.007780 0.000000
0.256642 -0.003691 0.000000
0.084471 0.238773 0.000000
0.087778 0.241141 0.000000
0.253096 -0.002165 0.000000
0.256647 0.001559 0.000000
0.089321 0.236998 0.000000
0.092617 0.239324 0.000000
0.253243 0.003287 0.000000
0.256520 0.006794 0.000000
0.094136 0.235126 0.000000
0.097418 0.237410 0.000000
0.253129 0.008465 0.000000
0.256359 0.011971 0.000000
0.098915 0.233157 0.000000
0.102180 0.235399 0.000000
0.252942 0.013681 0.000000
0.256098 0.017161 0.000000
0.103663 0.231094 0.000000
0.106917 0.233294 0.000000
0.252587 0.018892 0.000000
0.255640 0.022345 0.000000
0.108396 0.228944 0.000000
0.111598 0.231082 0.000000
0.252126 0.024061 0.000000
0.255131 0.027498 0.000000
0.113048 0.226663 0.000000
0.116271 0.228781 0.000000
0.251586 0.029205 0.000000
0.254568 0.032637 0.000000
0.117706 0.224256 0.000000
0.120852 0.226357 0.000000
0.250942 0.034329 0.000000
0.253839 0.037736 0.000000
0.122248 0.221776 0.000000
0.125477 0.223846 0.000000
0.250188 0.039438 0.000000
0.253035 0.042843 0.000000
0.126912 0.218965 0.000000
0.130002 0.221279 0.000000
0.249333 0.044533 0.000000
0.252125 0.047929 0.000000
0.132108 0.216694 0.000000
0.133891 0.219601 0.000000
0.248369 0.049612 0.000000
0.251087 0.053006 0.000000
0.136550 0.213160 0.000000
0.137046 0.217019 0.000000
0.247301 0.054671 0.000000
0.249968 0.058053 0.000000
0.141152 0.210287 0.000000
0.141372 0.214174 0.000000
0.246134 0.059706 0.000000
0.248748 0.063076 0.000000
0.145482 0.207387 0.000000
0.145725 0.211231 0.000000
0.244867 0.064717 0.000000
0.247418 0.068075 0.000000
0.149697 0.204345 0.000000
0.149984 0.208266 0.000000
0.243509 0.069698 0.000000
0.246029 0.073052 0.000000
0.153835 0.201247 0.000000
0.154130 0.205204 0.000000
0.242036 0.074652 0.000000
0.244477 0.077982 0.000000
0.157903 0.198039 0.000000
0.158242 0.202054 0.000000
0.240463 0.079574 0.000000
0.242860 0.082888 0.000000
0.161909 0.194770 0.000000
0.162280 0.198807 0.000000
0.238789 0.084463 0.000000
0.241157 0.087764 0.000000
0.165849 0.191427 0.000000
0.166250 0.195508 0.000000
0.237021 0.089328 0.000000
0.239376 0.092639 0.000000
0.169721 0.188004 0.000000
0.170154 0.192121 0.000000
0.235172 0.094182 0.000000
0.237425 0.097450 0.000000
0.173527 0.184503 0.000000
0.173991 0.188648 0.000000
0.233173 0.098964 0.000000
0.235397 0.102209 0.000000
0.177263 0.180930 0.000000
0.177779 0.185108 0.000000
0.231102 0.103711 0.000000
0.233283 0.106944 0.000000
0.180917 0.177274 0.000000
0.181479 0.181481 0.000000
0.228922 0.108427 0.000000
0.231077 0.111631 0.000000
0.184496 0.173546 0.000000
0.185088 0.177792 0.000000
0.226606 0.113135 0.000000
0.228845 0.116324 0.000000
0.187993 0.169732 0.000000
0.188640 0.174022 0.000000
0.223969 0.118039 0.000000
0.226404 0.120897 0.000000
0.191413 0.165855 0.000000
0.192089 0.170164 0.000000
0.221863 0.123176 0.000000
0.224891 0.124847 0.000000
0.194756 0.161915 0.000000
0.195477 0.166261 0.000000
0.218540 0.127743 0.000000
0.222360 0.128216 0.000000
0.198020 0.157909 0.000000
0.198786 0.162290 0.000000
0.215874 0.132431 0.000000
0.219701 0.132630 0.000000
0.201205 0.153841 0.000000
0.202014 0.158253 0.000000
0.213147 0.136837 0.000000
0.216928 0.137078 0.000000
0.204316 0.149710 0.000000
0.210278 0.141207 0.000000
0.207360 0.145490 0.000000
0.205171 0.154172 0.000000
0.214149 0.141432 0.000000
0.208240 0.149993 0.000000
0.211214 0.145747 0.000000
CELLS 1860 7440
3 620 2 0
3 0 622 620
3 621 620 622
3 622 625 621
3 317 621 625
3 625 319 317
3 319 625 629
3 629 321 319
3 321 629 633
3 633 323 321
3 323 633 638
3 638 325 323
3 325 638 642
3 642 327 325
3 327 642 646
3 646 329 327
3 329 646 650
3 650 331 329
3 331 650 654
3 654 333 331
3 333 654 658
3 658 335 333
3 335 658 662
3 662 337 335
3 337 662 666
3 666 339 337
3 339 666 670
3 670 341 339
3 341 670 674
3 674 343 341
3 343 674 678
3 678 345 343
3 345 678 682
3 682 347 345
3 347 682 686
3 686 349 347
3 349 686 690
3 690 351 349
3 351 690 694
3 694 353 351
3 353 694 698
3 698 355 353
3 355 698 703
3 703 357 355
3 357 703 707
3 707 359 357
3 359 707 711
3 711 361 359
3 361 711 715
3 715 363 361
3 363 715 719
3 719 365 363
3 365 719 723
3 723 367 365
3 367 723 727
3 727 369 367
3 369 727 731
3 731 371 369
3 371 731 735
3 735 373 371
3 373 735 739
3 739 375 373
3 375 739 744
3 744 377 375
3 377 744 748
3 748 379 377
3 379 748 752
3 752 381 379
3 381 752 756
3 756 383 381
3 383 756 760
3 760 385 383
3 385 760 764
3 764 387 385
3 387 764 768
3 768 389 387
3 389 768 772
3 772 391 389
3 391 772 776
3 776 393 391
3 393 776 780
3 780 395 393
3 395 780 784
3 784 397 395
3 397 784 788
3 788 399 397
3 399 788 792
3 792 401 399
3 401 792 796
3 796 403 401
3 403 796 800
3 800 405 403
3 405 800 805
3 805 407 405
3 407 805 809
3 809 409 407
3 409 809 813
3 813 411 409
3 411 813 817
3 817 413 411
3 413 817 821
3 821 415 413
3 415 821 825
3 825 417 415
3 417 825 829
3 829 419 417
3 419 829 833
3 833 421 419
3 421 833 837
3 837 423 421
3 423 837 841
3 841 425 423
3 425 841 846
3 846 427 425
3 427 846 850
3 850 429 427
3 429 850 854
3 854 431 429
3 431 854 858
3 858 433 431
3 433 858 862
3 862 435 433
3 435 862 866
3 866 437 435
3 437 866 870
3 870 439 437
3 439 870 874
3 874 441 439
3 441 874 878
3 878 443 441
3 443 878 882
3 882 445 443
3 445 882 886
3 886 447 445
3 447 886 890
3 890 449 447
3 449 890 894
3 894 451 449
3 451 894 898
3 898 453 451
3 453 898 902
3 902 455 453
3 455 902 906
3 906 457 455
3 457 906 911
3 911 459 457
3 459 911 915
3 915 461 459
3 461 915 919
3 919 463 461
3 463 919 923
3 923 465 463
3 465 923 927
3 927 467 465
3 467 927 931
3 931 469 467
3 469 931 935
3 935 471 469
3 471 935 939
3 939 473 471
3 473 939 943
3 943 475 473
3 475 943 948
3 948 477 475
3 477 948 952
3 952 479 477
3 479 952 956
3 956 481 479
3 481 956 960
3 960 483 481
3 483 960 964
3 964 485 483
3 485 964 968
3 968 487 485
3 487 968 972
3 972 489 487
3 489 972 976
3 976 491 489
3 491 976 980
3 980 493 491
3 493 980 984
3 984 495 493
3 495 984 988
3 988 497 495
3 497 988 992
3 992 499 497
3 499 992 996
3 996 501 499
3 501 996 1000
3 1000 503 501
3 503 1000 1004
3 1004 505 503
3 505 1004 1008
3 1008 507 505
3 507 1008 1013
3 1013 509 507
3 509 1013 1017
3 1017 511 509
3 511 1017 1021
3 1021 513 511
3 513 1021 1025
3 1025 515 513
3 515 1025 1029
3 1029 517 515
3 517 1029 1033
3 1033 519 517
3 519 1033 1037
3 1037 521 519
3 521 1037 1041
3 1041 523 521
3 523 1041 1045
3 1045 525 523
3 525 1045 1049
3 1049 527 525
3 527 1049 1054
3 1054 529 527
3 529 1054 1058
3 1058 531 529
3 531 1058 1062
3 1062 533 531
3 533 1062 1066
3 1066 535 533
3 535 1066 1070
3 1070 537 535
3 537 1070 1074
3 1074 539 537
3 539 1074 1078
3 1078 541 539
3 541 1078 1082
3 1082 543 541
3 543 1082 1086
3 1086 545 543
3 545 1086 1090
3 1090 547 545
3 547 1090 1094
3 1094 549 547
3 549 1094 1098
3 1098 551 549
3 551 1098 1102
3 1102 553 551
3 553 1102 1106
3 1106 555 553
3 555 1106 1110
3 1110 557 555
3 557 1110 1115
3 1115 559 557
3 559 1115 1119
3 1119 561 559
3 561 1119 1123
3 1123 563 561
3 563 1123 1127
3 1127 565 563
3 565 1127 1131
3 1131 567 565
3 567 1131 1135
3 1135 569 567
3 569 1135 1139
3 1139 571 569
3 571 1139 1143
3 1143 573 571
3 573 1143 1147
3 1147 575 573
3 575 1147 1151
3 1151 577 575
3 577 1151 1155
3 1155 579 577
3 579 1155 1159
3 1159 581 579
3 581 1159 1163
3 1163 583 581
3 583 1163 1167
3 1167 585 583
3 585 1167 1171
3 1171 587 585
3 587 1171 1175
3 1175 589 587
3 589 1175 1179
3 1179 591 589
3 591 1179 1183
3 1183 593 591
3 593 1183 1187
3 1187 595 593
3 595 1187 1191
3 1191 597 595
3 597 1191 1195
3 1195 599 597
3 599 1195 1199
3 1199 601 599
3 601 1199 1203
3 1203 603 601
3 603 1203 1207
3 1207 605 603
3 605 1207 1211
3 1211 607 605
3 607 1211 1215
3 1215 609 607
3 609 1215 1219
3 1219 611 609
3 611 1219 1223
3 1223 613 611
3 613 1223 1227
3 1227 615 613
3 615 1227 1231
3 1231 617 615
3 617 1231 1234
3 1234 618 617
3 618 1234 1235
3 1235 619 618
3 619 1235 1233
3 1233 616 619
3 616 1233 1229
3 1229 614 616
3 614 1229 1225
3 1225 612 614
3 612 1225 1221
3 1221 610 612
3 610 1221 1217
3 1217 608 610
3 608 1217 1213
3 1213 606 608
3 606 1213 1209
3 1209 604 606
3 604 1209 1205
3 1205 602 604
3 602 1205 1201
3 1201 600 602
3 600 1201 1197
3 1197 598 600
3 598 1197 1193
3 1193 596 598
3 596 1193 1189
3 1189 594 596
3 594 1189 1185
3 1185 592 594
3 592 1185 1181
3 1181 590 592
3 590 1181 1177
3 1177 588 590
3 588 1177 1173
3 1173 586 588
3 586 1173 1169
3 1169 584 586
3 584 1169 1165
3 1165 582 584
3 582 1165 1161
3 1161 580 582
3 580 1161 1157
3 1157 578 580
3 578 1157 1153
3 1153 576 578
3 576 1153 1149
3 1149 574 576
3 574 1149 1145
3 1145 572 574
3 572 1145 1141
3 1141 570 572
3 570 1141 1137
3 1137 568 570
3 568 1137 1133
3 1133 566 568
3 566 1133 1129
3 1129 564 566
3 564 1129 1125
3 1125 562 564
3 562 1125 1121
3 1121 560 562
3 560 1121 1117
3 1117 558 560
3 558 1117 1113
3 1113 556 558
3 556 1113 1108
3 1108 554 556
3 554 1108 1104
3 1104 552 554
3 552 1104 1100
3 1100 550 552
3 550 1100 1096
3 1096 548 550
3 548 1096 1092
3 1092 546 548
3 546 1092 1088
3 1088 544 546
3 544 1088 1084
3 1084 542 544
3 542 1084 1080
3 1080 540 542
3 540 1080 1076
3 1076 538 540
3 538 1076 1072
3 1072 536 538
3 536 1072 1068
3 1068 534 536
3 534 1068 1064
3 1064 532 534
3 532 1064 1060
3 1060 530 532
3 530 1060 1056
3 1056 528 530
3 528 1056 1051
3 1051 526 528
3 526 1051 1047
3 1047 524 526
3 524 1047 1043
3 1043 522 524
3 522 1043 1039
3 1039 520 522
3 520 1039 1035
3 1035 518 520
3 518 1035 1031
3 1031 516 518
3 516 1031 1027
3 1027 514 516
3 514 1027 1023
3 1023 512 514
3 512 1023 1019
3 1019 510 512
3 510 1019 1015
3 1015 508 510
3 508 1015 1011
3 1011 506 508
3 506 1011 1006
3 1006 504 506
3 504 1006 1002
3 1002 502 504
3 502 1002 998
3 998 500 502
3 500 998 994
3 994 498 500
3 498 994 990
3 990 496 498
3 496 990 986
3 986 494 496
3 494 986 982
3 982 492 494
3 492 982 978
3 978 490 492
3 490 978 974
3 974 488 490
3 488 974 970
3 970 486 488
3 486 970 966
3 966 484 486
3 484 966 962
3 962 482 484
3 482 962 958
3 958 480 482
3 480 958 954
3 954 478 480
3 478 954 950
3 950 476 478
3 476 950 945
3 945 474 476
3 474 945 941
3 941 472 474
3 472 941 937
3 937 470 472
3 470 937 933
3 933 468 470
3 468 933 929
3 929 466 468
3 466 929 925
3 925 464 466
3 464 925 921
3 921 462 464
3 462 921 917
3 917 460 462
3 460 917 913
3 913 458 460
3 458 913 909
3 909 456 458
3 456 909 904
3 904 454 456
3 454 904 900
3 900 452 454
3 452 900 896
3 896 450 452
3 450 896 892
3 892 448 450
3 448 892 888
3 888 446 448
3 446 888 884
3 884 444 446
3 444 884 880
3 880 442 444
3 442 880 876
3 876 440 442
3 440 876 872
3 872 438 440
3 438 872 868
3 868 436 438
3 436 868 864
3 864 434 436
3 434 864 860
3 860 432 434
3 432 860 856
3 856 430 432
3 430 856 852
3 852 428 430
3 428 852 848
3 848 426 428
3 426 848 843
3 843 424 426
3 424 843 839
3 839 422 424
3 422 839 835
3 835 420 422
3 420 835 831
3 831 418 420
3 418 831 827
3 827 416 418
3 416 827 823
3 823 414 416
3 414 823 819
3 819 412 414
3 412 819 815
3 815 410 412
3 410 815 811
3 811 408 410
3 408 811 807
3 807 406 408
3 406 807 803
3 803 404 406
3 404 803 798
3 798 402 404
3 402 798 794
3 794 400 402
3 400 794 790
3 790 398 400
3 398 790 786
3 786 396 398
3 396 786 782
3 782 394 396
3 394 782 778
3 778 392 394
3 392 778 774
3 774 390 392
3 390 774 770
3 770 388 390
3 388 770 766
3 766 386 388
3 386 766 762
3 762 384 386
3 384 762 758
3 758 382 384
3 382 758 754
3 754 380 382
3 380 754 750
3 750 378 380
3 378 750 746
3 746 376 378
3 376 746 742
3 742 374 376
3 374 742 737
3 737 372 374
3 372 737 733
3 733 370 372
3 370 733 729
3 729 368 370
3 368 729 725
3 725 366 368
3 366 725 721
3 721 364 366
3 364 721 717
3 717 362 364
3 362 717 713
3 713 360 362
3 360 713 709
3 709 358 360
3 358 709 705
3 705 356 358
3 356 705 701
3 701 354 356
3 354 701 696
3 696 352 354
3 352 696 692
3 692 350 352
3 350 692 688
3 688 348 350
3 348 688 684
3 684 346 348
3 346 684 680
3 680 344 346
3 344 680 676
3 676 342 344
3 342 676 672
3 672 340 342
3 340 672 668
3 668 338 340
3 338 668 664
3 664 336 338
3 336 664 660
3 660 334 336
3 334 660 656
3 656 332 334
3 332 656 652
3 652 330 332
3 330 652 648
3 648 328 330
3 328 648 644
3 644 326 328
3 326 644 640
3 640 324 326
3 324 640 635
3 635 322 324
3 322 635 631
3 631 320 322
3 320 631 627
3 627 318 320
3 318 627 623
3 623 1 318
3 1 623 621
3 624 623 627
3 627 628 624
3 4 624 628
3 628 6 4
3 6 628 632
3 632 8 6
3 8 632 636
3 636 9 8
3 9 636 637
3 637 11 9
3 11 637 641
3 641 13 11
3 13 641 645
3 645 15 13
3 15 645 649
3 649 17 15
3 17 649 653
3 653 19 17
3 19 653 657
3 657 21 19
3 21 657 661
3 661 23 21
3 23 661 665
3 665 25 23
3 25 665 669
3 669 27 25
3 27 669 673
3 673 29 27
3 29 673 677
3 677 31 29
3 31 677 681
3 681 33 31
3 33 681 685
3 685 35 33
3 35 685 689
3 689 37 35
3 37 689 693
3 693 39 37
3 39 693 697
3 697 42 39
3 42 697 702
3 702 44 42
3 44 702 706
3 706 46 44
3 46 706 710
3 710 48 46
3 48 710 714
3 714 50 48
3 50 714 718
3 718 52 50
3 52 718 722
3 722 54 52
3 54 722 726
3 726 56 54
3 56 726 730
3 730 58 56
3 58 730 734
3 734 60 58
3 60 734 738
3 738 62 60
3 62 738 741
3 741 63 62
3 63 741 743
3 743 65 63
3 65 743 747
3 747 67 65
3 67 747 751
3 751 69 67
3 69 751 755
3 755 71 69
3 71 755 759
3 759 73 71
3 73 759 763
3 763 75 73
3 75 763 767
3 767 77 75
3 77 767 771
3 771 79 77
3 79 771 775
3 775 81 79
3 81 775 779
3 779 83 81
3 83 779 783
3 783 85 83
3 85 783 787
3 787 87 85
3 87 787 791
3 791 89 87
3 89 791 795
3 795 91 89
3 91 795 799
3 799 94 91
3 94 799 804
3 804 96 94
3 96 804 808
3 808 98 96
3 98 808 812
3 812 100 98
3 100 812 816
3 816 102 100
3 102 816 820
3 820 104 102
3 104 820 824
3 824 106 104
3 106 824 828
3 828 108 106
3 108 828 832
3 832 110 108
3 110 832 836
3 836 112 110
3 112 836 840
3 840 114 112
3 114 840 844
3 844 115 114
3 115 844 845
3 845 117 115
3 117 845 849
3 849 119 117
3 119 849 853
3 853 121 119
3 121 853 857
3 857 123 121
3 123 857 861
3 861 125 123
3 125 861 865
3 865 127 125
3 127 865 869
3 869 129 127
3 129 869 873
3 873 131 129
3 131 873 877
3 877 133 131
3 133 877 881
3 881 135 133
3 135 881 885
3 885 137 135
3 137 885 889
3 889 139 137
3 139 889 893
3 893 141 139
3 141 893 897
3 897 143 141
3 143 897 901
3 901 145 143
3 145 901 905
3 905 148 145
3 148 905 910
3 910 150 148
3 150 910 914
3 914 152 150
3 152 914 918
3 918 154 152
3 154 918 922
3 922 156 154
3 156 922 926
3 926 158 156
3 158 926 930
3 930 160 158
3 160 930 934
3 934 162 160
3 162 934 938
3 938 164 162
3 164 938 942
3 942 166 164
3 166 942 946
3 946 167 166
3 167 946 947
3 947 169 167
3 169 947 951
3 951 171 169
3 171 951 955
3 955 173 171
3 173 955 959
3 959 175 173
3 175 959 963
3 963 177 175
3 177 963 967
3 967 179 177
3 179 967 971
3 971 181 179
3 181 971 975
3 975 183 181
3 183 975 979
3 979 185 183
3 185 979 983
3 983 187 185
3 187 983 987
3 987 189 187
3 189 987 991
3 991 191 189
3 191 991 995
3 995 193 191
3 193 995 999
3 999 195 193
3 195 999 1003
3 1003 197 195
3 197 1003 1007
3 1007 200 197
3 200 1007 1012
3 1012 202 200
3 202 1012 1016
3 1016 204 202
3 204 1016 1020
3 1020 206 204
3 206 1020 1024
3 1024 208 206
3 208 1024 1028
3 1028 210 208
3 210 1028 1032
3 1032 212 210
3 212 1032 1036
3 1036 214 212
3 214 1036 1040
3 1040 216 214
3 216 1040 1044
3 1044 218 216
3 218 1044 1048
3 1048 220 218
3 220 1048 1052
3 1052 222 220
3 222 1052 1053
3 1053 224 222
3 224 1053 1057
3 1057 226 224
3 226 1057 1061
3 1061 228 226
3 228 1061 1065
3 1065 230 228
3 230 1065 1069
3 1069 232 230
3 232 1069 1073
3 1073 234 232
3 234 1073 1077
3 1077 236 234
3 236 1077 1081
3 1081 238 236
3 238 1081 1085
3 1085 240 238
3 240 1085 1089
3 1089 242 240
3 242 1089 1093
3 1093 244 242
3 244 1093 1097
3 1097 246 244
3 246 1097 1101
3 1101 248 246
3 248 1101 1105
3 1105 250 248
3 250 1105 1109
3 1109 252 250
3 252 1109 1114
3 1114 254 252
3 254 1114 1118
3 1118 256 254
3 256 1118 1122
3 1122 258 256
3 258 1122 1126
3 1126 260 258
3 260 1126 1130
3 1130 262 260
3 262 1130 1134
3 1134 264 262
3 264 1134 1138
3 1138 266 264
3 266 1138 1142
3 1142 268 266
3 268 1142 1146
3 1146 270 268
3 270 1146 1150
3 1150 272 270
3 272 1150 1154
3 1154 274 272
3 274 1154 1158
3 1158 276 274
3 276 1158 1162
3 1162 278 276
3 278 1162 1166
3 1166 280 278
3 280 1166 1170
3 1170 282 280
3 282 1170 1174
3 1174 284 282
3 284 1174 1178
3 1178 286 284
3 286 1178 1182
3 1182 288 286
3 288 1182 1186
3 1186 290 288
3 290 1186 1190
3 1190 292 290
3 292 1190 1194
3 1194 294 292
3 294 1194 1198
3 1198 296 294
3 296 1198 1202
3 1202 298 296
3 298 1202 1206
3 1206 300 298
3 300 1206 1210
3 1210 302 300
3 302 1210 1214
3 1214 304 302
3 304 1214 1218
3 1218 306 304
3 306 1218 1222
3 1222 308 306
3 308 1222 1226
3 1226 310 308
3 310 1226 1230
3 1230 312 310
3 312 1230 1236
3 1236 314 312
3 314 1236 1238
3 1238 316 314
3 316 1238 1239
3 1239 315 316
3 315 1239 1237
3 1237 313 315
3 313 1237 1232
3 1232 311 313
3 311 1232 1228
3 1228 309 311
3 309 1228 1224
3 1224 307 309
3 307 1224 1220
3 1220 305 307
3 305 1220 1216
3 1216 303 305
3 303 1216 1212
3 1212 301 303
3 301 1212 1208
3 1208 299 301
3 299 1208 1204
3 1204 297 299
3 297 1204 1200
3 1200 295 297
3 295 1200 1196
3 1196 293 295
3 293 1196 1192
3 1192 291 293
3 291 1192 1188
3 1188 289 291
3 289 1188 1184
3 1184 287 289
3 287 1184 1180
3 1180 285 287
3 285 1180 1176
3 1176 283 285
3 283 1176 1172
3 1172 281 283
3 281 1172 1168
3 1168 279 281
3 279 1168 1164
3 1164 277 279
3 277 1164 1160
3 1160 275 277
3 275 1160 1156
3 1156 273 275
3 273 1156 1152
3 1152 271 273
3 271 1152 1148
3 1148 269 271
3 269 1148 1144
3 1144 267 269
3 267 1144 1140
3 1140 265 267
3 265 1140 1136
3 1136 263 265
3 263 1136 1132
3 1132 261 263
3 261 1132 1128
3 1128 259 261
3 259 1128 1124
3 1124 257 259
3 257 1124 1120
3 1120 255 257
3 255 1120 1116
3 1116 253 255
3 253 1116 1112
3 1112 251 253
3 251 1112 1111
3 1111 249 251
3 249 1111 1107
3 1107 247 249
3 247 1107 1103
3 1103 245 247
3 245 1103 1099
3 1099 243 245
3 243 1099 1095
3 1095 241 243
3 241 1095 1091
3 1091 239 241
3 239 1091 1087
3 1087 237 239
3 237 1087 1083
3 1083 235 237
3 235 1083 1079
3 1079 233 235
3 233 1079 1075
3 1075 231 233
3 231 1075 1071
3 1071 229 231
3 229 1071 1067
3 1067 227 229
3 227 1067 1063
3 1063 225 227
3 225 1063 1059
3 1059 223 225
3 223 1059 1055
3 1055 221 223
3 221 1055 1050
3 1050 219 221
3 219 1050 1046
3 1046 217 219
3 217 1046 1042
3 1042 215 217
3 215 1042 1038
3 1038 213 215
3 213 1038 1034
3 1034 211 213
3 211 1034 1030
3 1030 209 211
3 209 1030 1026
3 1026 207 209
3 207 1026 1022
3 1022 205 207
3 205 1022 1018
3 1018 203 205
3 203 1018 1014
3 1014 201 203
3 201 1014 1010
3 1010 199 201
3 199 1010 1009
3 1009 198 199
3 198 1009 1005
3 1005 196 198
3 196 1005 1001
3 1001 194 196
3 194 1001 997
3 997 192 194
3 192 997 993
3 993 190 192
3 190 993 989
3 989 188 190
3 188 989 985
3 985 186 188
3 186 985 981
3 981 184 186
3 184 981 977
3 977 182 184
3 182 977 973
3 973 180 182
3 180 973 969
3 969 178 180
3 178 969 965
3 965 176 178
3 176 965 961
3 961 174 176
3 174 961 957
3 957 172 174
3 172 957 953
3 953 170 172
3 170 953 949
3 949 168 170
3 168 949 944
3 944 165 168
3 165 944 940
3 940 163 165
3 163 940 936
3 936 161 163
3 161 936 932
3 932 159 161
3 159 932 928
3 928 157 159
3 157 928 924
3 924 155 157
3 155 924 920
3 920 153 155
3 153 920 916
3 916 151 153
3 151 916 912
3 912 149 151
3 149 912 908
3 908 147 149
3 147 908 907
3 907 146 147
3 146 907 903
3 903 144 146
3 144 903 899
3 899 142 144
3 142 899 895
3 895 140 142
3 140 895 891
3 891 138 140
3 138 891 887
3 887 136 138
3 136 887 883
3 883 134 136
3 134 883 879
3 879 132 134
3 132 879 875
3 875 130 132
3 130 875 871
3 871 128 130
3 128 871 867
3 867 126 128
3 126 867 863
3 863 124 126
3 124 863 859
3 859 122 124
3 122 859 855
3 855 120 122
3 120 855 851
3 851 118 120
3 118 851 847
3 847 116 118
3 116 847 842
3 842 113 116
3 113 842 838
3 838 111 113
3 111 838 834
3 834 109 111
3 109 834 830
3 830 107 109
3 107 830 826
3 826 105 107
3 105 826 822
3 822 103 105
3 103 822 818
3 818 101 103
3 101 818 814
3 814 99 101
3 99 814 810
3 810 97 99
3 97 810 806
3 806 95 97
3 95 806 802
3 802 93 95
3 93 802 801
3 801 92 93
3 92 801 797
3 797 90 92
3 90 797 793
3 793 88 90
3 88 793 789
3 789 86 88
3 86 789 785
3 785 84 86
3 84 785 781
3 781 82 84
3 82 781 777
3 777 80 82
3 80 777 773
3 773 78 80
3 78 773 769
3 769 76 78
3 76 769 765
3 765 74 76
3 74 765 761
3 761 72 74
3 72 761 757
3 757 70 72
3 70 757 753
3 753 68 70
3 68 753 749
3 749 66 68
3 66 749 745
3 745 64 66
3 64 745 740
3 740 61 64
3 61 740 736
3 736 59 61
3 59 736 732
3 732 57 59
3 57 732 728
3 728 55 57
3 55 728 724
3 724 53 55
3 53 724 720
3 720 51 53
3 51 720 716
3 716 49 51
3 49 716 712
3 712 47 49
3 47 712 708
3 708 45 47
3 45 708 704
3 704 43 45
3 43 704 700
3 700 41 43
3 41 700 699
3 699 40 41
3 40 699 695
3 695 38 40
3 38 695 691
3 691 36 38
3 36 691 687
3 687 34 36
3 34 687 683
3 683 32 34
3 32 683 679
3 679 30 32
3 30 679 675
3 675 28 30
3 28 675 671
3 671 26 28
3 26 671 667
3 667 24 26
3 24 667 663
3 663 22 24
3 22 663 659
3 659 20 22
3 20 659 655
3 655 18 20
3 18 655 651
3 651 16 18
3 16 651 647
3 647 14 16
3 14 647 643
3 643 12 14
3 12 643 639
3 639 10 12
3 10 639 634
3 634 7 10
3 7 634 630
3 630 5 7
3 5 630 626
3 626 3 5
3 3 626 622
3 629 626 630
3 633 630 634
3 638 634 639
3 642 639 643
3 646 643 647
3 650 647 651
3 654 651 655
3 658 655 659
3 662 659 663
3 666 663 667
3 670 667 671
3 674 671 675
3 678 675 679
3 682 679 683
3 686 683 687
3 690 687 691
3 694 691 695
3 698 695 699
3 700 703 699
3 700 704 703
3 707 704 708
3 711 708 712
3 715 712 716
3 719 716 720
3 723 720 724
3 727 724 728
3 731 728 732
3 735 732 736
3 739 736 740
3 744 740 745
3 748 745 749
3 752 749 753
3 756 753 757
3 760 757 761
3 764 761 765
3 768 765 769
3 772 769 773
3 776 773 777
3 780 777 781
3 784 781 785
3 788 785 789
3 792 789 793
3 796 793 797
3 800 797 801
3 802 805 801
3 802 806 805
3 809 806 810
3 813 810 814
3 817 814 818
3 821 818 822
3 825 822 826
3 829 826 830
3 833 830 834
3 837 834 838
3 841 838 842
3 846 842 847
3 850 847 851
3 854 851 855
3 858 855 859
3 862 859 863
3 866 863 867
3 870 867 871
3 874 871 875
3 878 875 879
3 882 879 883
3 886 883 887
3 890 887 891
3 894 891 895
3 898 895 899
3 902 899 903
3 906 903 907
3 908 911 907
3 908 912 911
3 915 912 916
3 919 916 920
3 923 920 924
3 927 924 928
3 931 928 932
3 935 932 936
3 939 936 940
3 943 940 944
3 948 944 949
3 952 949 953
3 956 953 957
3 960 957 961
3 964 961 965
3 968 965 969
3 972 969 973
3 976 973 977
3 980 977 981
3 984 981 985
3 988 985 989
3 992 989 993
3 996 993 997
3 1000 997 1001
3 1004 1001 1005
3 1008 1005 1009
3 1010 1013 1009
3 1010 1014 1013
3 1017 1014 1018
3 1021 1018 1022
3 1025 1022 1026
3 1029 1026 1030
3 1033 1030 1034
3 1037 1034 1038
3 1041 1038 1042
3 1045 1042 1046
3 1049 1046 1050
3 1054 1050 1055
3 1058 1055 1059
3 1062 1059 1063
3 1066 1063 1067
3 1070 1067 1071
3 1074 1071 1075
3 1078 1075 1079
3 1082 1079 1083
3 1086 1083 1087
3 1090 1087 1091
3 1094 1091 1095
3 1098 1095 1099
3 1102 1099 1103
3 1106 1103 1107
3 1110 1107 1111
3 1112 1115 1111
3 1112 1116 1115
3 1119 1116 1120
3 1123 1120 1124
3 1127 1124 1128
3 1131 1128 1132
3 1135 1132 1136
3 1139 1136 1140
3 1143 1140 1144
3 1147 1144 1148
3 1151 1148 1152
3 1155 1152 1156
3 1159 1156 1160
3 1163 1160 1164
3 1167 1164 1168
3 1171 1168 1172
3 1175 1172 1176
3 1179 1176 1180
3 1183 1180 1184
3 1187 1184 1188
3 1191 1188 1192
3 1195 1192 1196
3 1199 1196 1200
3 1203 1200 1204
3 1207 1204 1208
3 1211 1208 1212
3 1215 1212 1216
3 1220 1219 1216
3 1220 1224 1219
3 1223 1224 1228
3 1227 1228 1232
3 1231 1232 1237
3 1234 1237 1239
3 1235 1239 1238
3 1233 1238 1236
3 1229 1236 1230
3 1225 1230 1226
3 1221 1226 1222
3 1217 1222 1218
3 1213 1218 1214
3 1209 1214 1210
3 1205 1210 1206
3 1201 1206 1202
3 1197 1202 1198
3 1193 1198 1194
3 1189 1194 1190
3 1185 1190 1186
3 1181 1186 1182
3 1177 1182 1178
3 1173 1178 1174
3 1169 1174 1170
3 1165 1170 1166
3 1161 1166 1162
3 1158 1157 1162
3 1158 1154 1157
3 1153 1154 1150
3 1149 1150 1146
3 1145 1146 1142
3 1141 1142 1138
3 1137 1138 1134
3 1133 1134 1130
3 1129 1130 1126
3 1125 1126 1122
3 1121 1122 1118
3 1117 1118 1114
3 1113 1114 1109
3 1108 1109 1105
3 1104 1105 1101
3 1100 1101 1097
3 1096 1097 1093
3 1092 1093 1089
3 1088 1089 1085
3 1084 1085 1081
3 1080 1081 1077
3 1076 1077 1073
3 1072 1073 1069
3 1068 1069 1065
3 1064 1065 1061
3 1060 1061 1057
3 1053 1056 1057
3 1053 1052 1056
3 1051 1052 1048
3 1047 1048 1044
3 1043 1044 1040
3 1039 1040 1036
3 1035 1036 1032
3 1031 1032 1028
3 1027 1028 1024
3 1023 1024 1020
3 1019 1020 1016
3 1015 1016 1012
3 1011 1012 1007
3 1006 1007 1003
3 1002 1003 999
3 998 999 995
3 994 995 991
3 990 991 987
3 986 987 983
3 982 983 979
3 978 979 975
3 974 975 971
3 970 971 967
3 966 967 963
3 962 963 959
3 958 959 955
3 954 955 951
3 947 950 951
3 947 946 950
3 945 946 942
3 941 942 938
3 937 938 934
3 933 934 930
3 929 930 926
3 925 926 922
3 921 922 918
3 917 918 914
3 913 914 910
3 909 910 905
3 904 905 901
3 900 901 897
3 896 897 893
3 892 893 889
3 888 889 885
3 884 885 881
3 880 881 877
3 876 877 873
3 872 873 869
3 868 869 865
3 864 865 861
3 860 861 857
3 856 857 853
3 852 853 849
3 845 848 849
3 845 844 848
3 844 840 843
3 839 840 836
3 835 836 832
3 831 832 828
3 827 828 824
3 823 824 820
3 819 820 816
3 815 816 812
3 811 812 808
3 807 808 804
3 803 804 799
3 798 799 795
3 794 795 791
3 790 791 787
3 786 787 783
3 782 783 779
3 778 779 775
3 774 775 771
3 770 771 767
3 766 767 763
3 762 763 759
3 758 759 755
3 754 755 751
3 750 751 747
3 743 746 747
3 743 741 746
3 742 741 738
3 737 738 734
3 733 734 730
3 729 730 726
3 725 726 722
3 721 722 718
3 717 718 714
3 713 714 710
3 709 710 706
3 705 706 702
3 701 702 697
3 696 697 693
3 692 693 689
3 688 689 685
3 684 685 681
3 680 681 677
3 676 677 673
3 672 673 669
3 668 669 665
3 664 665 661
3 660 661 657
3 656 657 653
3 652 653 649
3 648 649 645
3 644 645 641
3 637 640 641
3 637 636 640
3 635 636 632
3 631 632 628
3 624 4 2
3 623 624 620
3 628 627 631
3 632 631 635
3 636 635 640
3 641 640 644
3 645 644 648
3 649 648 652
3 653 652 656
3 657 656 660
3 661 660 664
3 665 664 668
3 669 668 672
3 673 672 676
3 677 676 680
3 681 680 684
3 685 684 688
3 689 688 692
3 693 692 696
3 697 696 701
3 702 701 705
3 706 705 709
3 710 709 713
3 714 713 717
3 718 717 721
3 722 721 725
3 726 725 729
3 730 729 733
3 734 733 737
3 738 737 742
3 741 742 746
3 747 746 750
3 751 750 754
3 755 754 758
3 759 758 762
3 763 762 766
3 767 766 770
3 771 770 774
3 775 774 778
3 779 778 782
3 783 782 786
3 787 786 790
3 791 790 794
3 795 794 798
3 799 798 803
3 804 803 807
3 808 807 811
3 812 811 815
3 816 815 819
3 820 819 823
3 824 823 827
3 828 827 831
3 832 831 835
3 836 835 839
3 840 839 843
3 844 843 848
3 849 848 852
3 853 852 856
3 857 856 860
3 861 860 864
3 865 864 868
3 869 868 872
3 873 872 876
3 877 876 880
3 881 880 884
3 885 884 888
3 889 888 892
3 893 892 896
3 897 896 900
3 901 900 904
3 905 904 909
3 910 909 913
3 914 913 917
3 918 917 921
3 922 921 925
3 926 925 929
3 930 929 933
3 934 933 937
3 938 937 941
3 942 941 945
3 946 945 950
3 951 950 954
3 955 954 958
3 959 958 962
3 963 962 966
3 967 966 970
3 971 970 974
3 975 974 978
3 979 978 982
3 983 982 986
3 987 986 990
3 991 990 994
3 995 994 998
3 999 998 1002
3 1003 1002 1006
3 1007 1006 1011
3 1012 1011 1015
3 1016 1015 1019
3 1020 1019 1023
3 1024 1023 1027
3 1028 1027 1031
3 1032 1031 1035
3 1036 1035 1039
3 1040 1039 1043
3 1044 1043 1047
3 1048 1047 1051
3 1052 1051 1056
3 1057 1056 1060
3 1061 1060 1064
3 1065 1064 1068
3 1069 1068 1072
3 1073 1072 1076
3 1077 1076 1080
3 1081 1080 1084
3 1085 1084 1088
3 1089 1088 1092
3 1093 1092 1096
3 1097 1096 1100
3 1101 1100 1104
3 1105 1104 1108
3 1109 1108 1113
3 1114 1113 1117
3 1118 1117 1121
3 1122 1121 1125
3 1126 1125 1129
3 1130 1129 1133
3 1134 1133 1137
3 1138 1137 1141
3 1142 1141 1145
3 1146 1145 1149
3 1150 1149 1153
3 1154 1153 1157
3 1162 1157 1161
3 1166 1161 1165
3 1170 1165 1169
3 1174 1169 1173
3 1178 1173 1177
3 1182 1177 1181
3 1186 1181 1185
3 1190 1185 1189
3 1194 1189 1193
3 1198 1193 1197
3 1202 1197 1201
3 1206 1201 1205
3 1210 1205 1209
3 1214 1209 1213
3 1218 1213 1217
3 1222 1217 1221
3 1226 1221 1225
3 1230 1225 1229
3 1236 1229 1233
3 1238 1233 1235
3 1239 1235 1234
3 1237 1234 1231
3 1232 1231 1227
3 1228 1227 1223
3 1224 1223 1219
3 1216 1219 1215
3 1212 1215 1211
3 1208 1211 1207
3 1204 1207 1203
3 1200 1203 1199
3 1196 1199 1195
3 1192 1195 1191
3 1188 1191 1187
3 1184 1187 1183
3 1180 1183 1179
3 1176 1179 1175
3 1172 1175 1171
3 1168 1171 1167
3 1164 1167 1163
3 1160 1163 1159
3 1156 1159 1155
3 1152 1155 1151
3 1148 1151 1147
3 1144 1147 1143
3 1140 1143 1139
3 1136 1139 1135
3 1132 1135 1131
3 1128 1131 1127
3 1124 1127 1123
3 1120 1123 1119
3 1116 1119 1115
3 1111 1115 1110
3 1107 1110 1106
3 1103 1106 1102
3 1099 1102 1098
3 1095 1098 1094
3 1091 1094 1090
3 1087 1090 1086
3 1083 1086 1082
3 1079 1082 1078
3 1075 1078 1074
3 1071 1074 1070
3 1067 1070 1066
3 1063 1066 1062
3 1059 1062 1058
3 1055 1058 1054
3 1050 1054 1049
3 1046 1049 1045
3 1042 1045 1041
3 1038 1041 1037
3 1034 1037 1033
3 1030 1033 1029
3 1026 1029 1025
3 1022 1025 1021
3 1018 1021 1017
3 1014 1017 1013
3 1009 1013 1008
3 1005 1008 1004
3 1001 1004 1000
3 997 1000 996
3 993 996 992
3 989 992 988
3 985 988 984
3 981 984 980
3 977 980 976
3 973 976 972
3 969 972 968
3 965 968 964
3 961 964 960
3 957 960 956
3 953 956 952
3 949 952 948
3 944 948 943
3 940 943 939
3 936 939 935
3 932 935 931
3 928 931 927
3 924 927 923
3 920 923 919
3 916 919 915
3 912 915 911
3 907 911 906
3 903 906 902
3 899 902 898
3 895 898 894
3 891 894 890
3 887 890 886
3 883 886 882
3 879 882 878
3 875 878 874
3 871 874 870
3 867 870 866
3 863 866 862
3 859 862 858
3 855 858 854
3 851 854 850
3 847 850 846
3 842 846 841
3 838 841 837
3 834 837 833
3 830 833 829
3 826 829 825
3 822 825 821
3 818 821 817
3 814 817 813
3 810 813 809
3 806 809 805
3 801 805 800
3 797 800 796
3 793 796 792
3 789 792 788
3 785 788 784
3 781 784 780
3 777 780 776
3 773 776 772
3 769 772 768
3 765 768 764
3 761 764 760
3 757 760 756
3 753 756 752
3 749 752 748
3 745 748 744
3 740 744 739
3 736 739 735
3 732 735 731
3 728 731 727
3 724 727 723
3 720 723 719
3 716 719 715
3 712 715 711
3 708 711 707
3 704 707 703
3 699 703 698
3 695 698 694
3 691 694 690
3 687 690 686
3 683 686 682
3 679 682 678
3 675 678 674
3 671 674 670
3 667 670 666
3 663 666 662
3 659 662 658
3 655 658 654
3 651 654 650
3 647 650 646
3 643 646 642
3 639 642 638
3 634 638 633
3 630 633 629
3 626 629 625
3 621 317 1
3 625 622 626
3 620 621 623
3 622 0 3
3 2 620 624
CELL_TYPES 1860
9
9
9
9
9
9
9
9
9
9
9
9
9
9
9
9
9
9
9
9
9
9
9
9
9
9
9
9
9
9
9
9
9
9
9
9
9
9
9
9
9
9
9
9
9
9
9
9
9
9
9
9
9
9
9
9
9
9
9
9
9
9
9
9
9
9
9
9
9
9
9
9
9
9
9
9
9
9
9
9
9
9
9
9
9
9
9
9
9
9
9
9
9
9
9
9
9
9
9
9
9
9
9
9
9
9
9
9
9
9
9
9
9
9
9
9
9
9
9
9
9
9
9
9
9
9
9
9
9
9
9
9
9
9
9
9
9
9
9
9
9
9
9
9
9
9
9
9
9
9
9
9
9
9
9
9
9
9
9
9
9
9
9
9
9
9
9
9
9
9
9
9
9
9
9
9
9
9
9
9
9
9
9
9
9
9
9
9
9
9
9
9
9
9
9
9
9
9
9
9
9
9
9
9
9
9
9
9
9
9
9
9
9
9
9
9
9
9
9
9
9
9
9
9
9
9
9
9
9
9
9
9
9
9
9
9
9
9
9
9
9
9
9
9
9
9
9
9
9
9
9
9
9
9
9
9
9
9
9
9
9
9
9
9
9
9
9
9
9
9
9
9
9
9
9
9
9
9
9
9
9
9
9
9
9
9
9
9
9
9
9
9
9
9
9
9
9
9
9
9
9
9
9
9
9
9
9
9
9
9
9
9
9
9
9
9
9
9
9
9
9
9
9
9
9
9
9
9
9
9
9
9
9
9
9
9
9
9
9
9
9
9
9
9
9
9
9
9
9
9
9
9
9
9
9
9
9
9
9
9
9
9
9
9
9
9
9
9
9
9
9
9
9
9
9
9
9
9
9
9
9
9
9
9
9
9
9
9
9
9
9
9
9
9
9
9
9
9
9
9
9
9
9
9
9
9
9
9
9
9
9
9
9
9
9
9
9
9
9
9
9
9
9
9
9
9
9
9
9
9
9
9
9
9
9
9
9
9
9
9
9
9
9
9
9
9
9
9
9
9
9
9
9
9
9
9
9
9
9
9
9
9
9
9
9
9
9
9
9
9
9
9
9
9
9
9
9
9
9
9
9
9
9
9
9
9
9
9
9
9
9
9
9
9
9
9
9
9
9
9
9
9
9
9
9
9
9
9
9
9
9
9
9
9
9
9
9
9
9
9
9
9
9
9
9
9
9
9
9
9
9
9
9
9
9
9
9
9
9
9
9
9
9
9
9
9
9
9
9
9
9
9
9
9
9
9
9
9
9
9
9
9
9
9
9
9
9
9
9
9
9
9
9
9
9
9
9
9
9
9
9
9
9
9
9
9
9
9
9
9
9
9
9
9
9
9
9
9
9
9
9
9
9
9
9
9
9
9
9
9
9
9
9
9
9
9
9
9
9
9
9
9
9
9
9
9
9
9
9
9
9
9
9
9
9
9
9
9
9
9
9
9
9
9
9
9
9
9
9
9
9
9
9
9
9
9
9
9
9
9
9
9
9
9
9
9
9
9
9
9
9
9
9
9
9
9
9
9
9
9
9
9
9
9
9
9
9
9
9
9
9
9
9
9
9
9
9
9
9
9
9
9
9
9
9
9
9
9
9
9
9
9
9
9
9
9
9
9
9
9
9
9
9
9
9
9
9
9
9
9
9
9
9
9
9
9
9
9
9
9
9
9
9
9
9
9
9
9
9
9
9
9
9
9
9
9
9
9
9
9
9
9
9
9
9
9
9
9
9
9
9
9
9
9
9
9
9
9
9
9
9
9
9
9
9
9
9
9
9
9
9
9
9
9
9
9
9
9
9
9
9
9
9
9
9
9
9
9
9
9
9
9
9
9
9
9
9
9
9
9
9
9
9
9
9
9
9
9
9
9
9
9
9
9
9
9
9
9
9
9
9
9
9
9
9
9
9
9
9
9
9
9
9
9
9
9
9
9
9
9
9
9
9
9
9
9
9
9
9
9
9
9
9
9
9
9
9
9
9
9
9
9
9
9
9
9
9
9
9
9
9
9
9
9
9
9
9
9
9
9
9
9
9
9
9
9
9
9
9
9
9
9
9
9
9
9
9
9
9
9
9
9
9
9
9
9
9
9
9
9
9
9
9
9
9
9
9
9
9
9
9
9
9
9
9
9
9
9
9
9
9
9
9
9
9
9
9
9
9
9
9
9
9
9
9
9
9
9
9
9
9
9
9
9
9
9
9
9
9
9
9
9
9
9
9
9
9
9
9
9
9
9
9
9
9
9
9
9
9
9
9
9
9
9
9
9
9
9
9
9
9
9
9
9
9
9
9
9
9
9
9
9
9
9
9
9
9
9
9
9
9
9
9
9
9
9
9
9
9
9
9
9
9
9
9
9
9
9
9
9
9
9
9
9
9
9
9
9
9
9
9
9
9
9
9
9
9
9
9
9
9
9
9
9
9
9
9
9
9
9
9
9
9
9
9
9
9
9
9
9
9
9
9
9
9
9
9
9
9
9
9
9
9
9
9
9
9
9
9
9
9
9
9
9
9
9
9
9
9
9
9
9
9
9
9
9
9
9
9
9
9
9
9
9
9
9
9
9
9
9
9
9
9
9
9
9
9
9
9
9
9
9
9
9
9
9
9
9
9
9
9
9
9
9
9
9
9
9
9
9
9
9
9
9
9
9
9
9
9
9
9
9
9
9
9
9
9
9
9
9
9
9
9
9
9
9
9
9
9
9
9
9
9
9
9
9
9
9
9
9
9
9
9
9
9
9
9
9
9
9
9
9
9
9
9
9
9
9
9
9
9
9
9
9
9
9
9
9
9
9
9
9
9
9
9
9
9
9
9
9
9
9
9
9
9
9
9
9
9
9
9
9
9
9
9
9
9
9
9
9
9
9
9
9
9
9
9
9
9
9
9
9
9
9
9
9
9
9
9
9
9
9
9
9
9
9
9
9
9
9
9
9
9
9
9
9
9
9
9
9
9
9
9
9
9
9
9
9
9
9
9
9
9
9
9
9
9
9
9
9
9
9
9
9
9
9
9
9
9
9
9
9
9
9
9
9
9
9
9
9
9
9
9
9
9
9
9
9
9
9
9
9
9
9
9
9
9
9
9
9
9
9
9
9
9
9
9
9
9
9
9
9
9
9
9
9
9
9
9
9
9
9
9
9
9
9
9
9
9
9
9
9
9
9
9
9
9
9
9
9
9
9
9
9
9
9
9
9
9
9
9
9
9
9
9
9
9
9
9
9
9
9
9
9
9
9
9
9
9
9
9
9
9
9
9
9
9
9
9
9
9
9
9
9
9
9
9
9
9
9
9
9
9
9
9
9
9
9
9
9
9
9
9
9
9
9
9
9
9
9
9
9
9
9
9
9
9
9
9
9
9
9
9
9
9
9
9
9
9
9
9
9
9
9
9
9
9
9
9
9
9
9
9
9
9
9
9
9
9
9
9
9
9
9
9
9
9
9
9
9
9
9
9
9
9
9
9
9
9
9
9
9
9
9
9
9
9
9
9
9
9
9
9
9
9
9
9
9
9
9
9
9
9
9
9
9
9
9
9
9
9
9
9
9
9
9
9
9
9
9
9
9
9
9
9
9
9
9
9
9
9
9
9
9
9
9
9
9
9
9
9
9
9
9
9
9
9
9
9
9
9
9
9
9
9
9
9
9
9
9
9
9
9
9
9
9
9
9
9
9
9
9
9
9
9
9
9
9
9
9
9
9
9
9
9
9
9
9
9
9
9
9
9
9
9
9
9
9
9
9
9
9
9
9
9
9
9
9
9
9
9
9
9
9
9
9
9
9
9
9
9
9
9
9
9
9
9
9
9
9
9
9
9
9
9
9
9
9
9
9
9
9
9
9
9
9
9
9
9
9
9
9
9
9
9
9
9
9
9
9
9
9
9
9
9
9
9
9
9
9
9
9
9
9
9
9
9
9
9
9
9
9
9
9
9
9
9
9
9
9
9
9
9
9
9
9
9
9
9
9
9
9
9
9
9
9
9
9
9
9
9
9
9
9
9
9
9
9
9
9
9
9
9
9
9
9
9
9
9
9
9
9
9
9
9
9
9
9
9
9
9
9
9
9
9
9
9
9
9
9
9
9
9
9
9
9
9
9
9
9
9
9
9
9
9
9
9
9
9
9
9
9
9
9
9
9
9
9
9
9
9
9
9
9
9
9
9
9
9
9
9
9
9
9
9
9
9
9
9
9
POINT_DATA 1240
SCALARS u1 float
LOOKUP_TABLE default
-9e-05
-8e-05
-9e-05
-0.0001
-8e-05
-0.0001
-8e-05
-0.0001
-7e-05
-7e-05
-0.0001
-7e-05
-0.0001
-8e-05
-0.0001
-8e-05
-0.0001
-8e-05
-0.0001
-9e-05
-0.0001
-9e-05
-0.0001
-0.0001
-0.0001
-0.0001
-0.0001
-0.0001
-9e-05
-0.0001
-8e-05
-0.0001
-7e-05
-0.0002
-6e-05
-0.0002
-6e-05
-0.0002
-5e-05
-0.0002
-4e-05
-4e-05
-0.0002
-4e-05
-0.0002
-4e-05
-0.0003
-3e-05
-0.0003
-3e-05
-0.0003
-3e-05
-0.0003
-3e-05
-0.0003
-3e-05
-0.0003
-3e-05
-0.0003
-3e-05
-0.0003
-4e-05
-0.0003
-0.0003
-4e-05
-0.0003
-4e-05
-0.0003
-4e-05
-0.0003
-5e-05
-0.0003
-5e-05
-0.0003
-5e-05
-0.0003
-5e-05
-0.0003
-6e-05
-0.0002
-6e-05
-0.0002
-5e-05
-0.0002
-5e-05
-0.0002
-5e-05
-0.0002
-5e-05
-0.0002
-4e-05
-0.0001
-4e-05
-4e-05
-0.0001
-3e-05
-0.0001
-3e-05
-0.0001
-2e-05
-0.0001
-2e-05
-0.0001
-1e-05
-0.0001
-8e-06
-0.0001
-4e-06
-9e-05
-1e-06
-9e-05
2e-06
-9e-05
3e-06
-9e-05
-9e-05
4e-06
-9e-05
3e-06
-0.0001
2e-06
-0.0001
-5e-07
-0.0001
-3e-06
-0.0001
-7e-06
-0.0001
-1e-05
-0.0001
-1e-05
-0.0001
-2e-05
-0.0001
-2e-05
-0.0001
-2e-05
-0.0001
-2e-05
-0.0001
-2e-05
-0.0001
-2e-05
-0.0001
-2e-05
-0.0001
-2e-05
-2e-05
-0.0001
-2e-05
-0.0001
-2e-05
-0.0001
-2e-05
-0.0001
-1e-05
-9e-05
-8e-06
-8e-05
-2e-06
-7e-05
6e-06
-7e-05
1e-05
-6e-05
2e-05
-6e-05
-6e-05
3e-05
-6e-05
4e-05
-6e-05
5e-05
-6e-05
6e-05
-6e-05
6e-05
-6e-05
7e-05
-6e-05
7e-05
-6e-05
7e-05
-6e-05
6e-05
-7e-05
6e-05
-7e-05
5e-05
-7e-05
4e-05
-7e-05
4e-05
-8e-05
3e-05
-8e-05
2e-05
-8e-05
2e-05
1e-05
-8e-05
8e-06
-8e-05
7e-06
-8e-05
7e-06
-8e-05
9e-06
-8e-05
1e-05
-8e-05
2e-05
-7e-05
2e-05
-7e-05
2e-05
-6e-05
3e-05
-6e-05
4e-05
-5e-05
4e-05
-5e-05
5e-05
-5e-05
7e-05
-4e-05
8e-05
-4e-05
0.0001
-3e-05
0.0001
-3e-05
0.0001
-3e-05
0.0001
-3e-05
0.0002
-3e-05
0.0002
-3e-05
0.0002
-3e-05
0.0002
-3e-05
0.0002
-3e-05
0.0002
-3e-05
0.0002
-4e-05
0.0003
-4e-05
0.0003
-4e-05
0.0003
-5e-05
0.0003
-5e-05
0.0003
-5e-05
0.0002
-5e-05
0.0002
-5e-05
0.0002
-5e-05
0.0002
-5e-05
0.0002
-5e-05
0.0002
-5e-05
0.0002
-4e-05
0.0001
-4e-05
0.0001
-4e-05
0.0001
-3e-05
9e-05
-3e-05
7e-05
-2e-05
6e-05
-9e-06
5e-05
7e-07
4e-05
1e-05
3e-05
2e-05
2e-05
3e-05
1e-05
4e-05
7e-06
4e-05
3e-06
5e-05
-1e-06
5e-05
-5e-06
5e-05
-7e-06
4e-05
-8e-06
4e-05
-7e-06
3e-05
-5e-06
3e-05
-3e-07
2e-05
5e-06
1e-05
-9e-05
-8e-05
-9e-05
-7e-05
-0.0001
-7e-05
-0.0001
-7e-05
-0.0001
-8e-05
-0.0001
-8e-05
-0.0001
-8e-05
-0.0001
-9e-05
-0.0001
-0.0001
-0.0001
-0.0001
-0.0001
-0.0001
-0.0001
-0.0001
-0.0001
-0.0001
-0.0001
-0.0001
-9e-05
-0.0002
-8e-05
-0.0002
-7e-05
-0.0002
-6e-05
-0.0002
-6e-05
-0.0002
-5e-05
-0.0002
-4e-05
-0.0003
-4e-05
-0.0003
-3e-05
-0.0003
-3e-05
-0.0003
-3e-05
-0.0003
-3e-05
-0.0003
-3e-05
-0.0003
-2e-05
-0.0003
-2e-05
-0.0003
-2e-05
-0.0003
-2e-05
-0.0003
-2e-05
-0.0003
-2e-05
-0.0003
-2e-05
-0.0003
-2e-05
-0.0003
-2e-05
-0.0003
-2e-05
-0.0003
-2e-05
-0.0003
-2e-05
-0.0002
-3e-05
-0.0002
-3e-05
-0.0002
-3e-05
-0.0002
-3e-05
-0.0002
-3e-05
-0.0001
-3e-05
-0.0001
-3e-05
-0.0001
-3e-05
-0.0001
-3e-05
-0.0001
-3e-05
-0.0001
-3e-05
-0.0001
-3e-05
-0.0001
-3e-05
-9e-05
-3e-05
-9e-05
-3e-05
-9e-05
-3e-05
-9e-05
-3e-05
-9e-05
-3e-05
-9e-05
-3e-05
-0.0001
-3e-05
-0.0001
-3e-05
-0.0001
-3e-05
-0.0001
-3e-05
-0.0001
-3e-05
-0.0001
-3e-05
-0.0001
-3e-05
-0.0001
-3e-05
-0.0001
-3e-05
-0.0001
-3e-05
-0.0001
-3e-05
-0.0001
-2e-05
-0.0001
-2e-05
-0.0001
-2e-05
-0.0001
-1e-05
-0.0001
-7e-06
-0.0001
-4e-07
-0.0001
7e-06
-9e-05
2e-05
-8e-05
3e-05
-7e-05
3e-05
-7e-05
4e-05
-6e-05
5e-05
-6e-05
6e-05
-6e-05
6e-05
-6e-05
6e-05
-5e-05
7e-05
-5e-05
6e-05
-5e-05
6e-05
-5e-05
6e-05
-5e-05
5e-05
-5e-05
4e-05
-5e-05
4e-05
-5e-05
3e-05
-5e-05
2e-05
-5e-05
1e-05
-5e-05
1e-05
-5e-05
8e-06
-5e-05
7e-06
-5e-05
7e-06
-5e-05
9e-06
-5e-05
1e-05
-5e-05
2e-05
-6e-05
2e-05
-6e-05
3e-05
-5e-05
3e-05
-5e-05
4e-05
-5e-05
5e-05
-5e-05
6e-05
-5e-05
7e-05
-5e-05
8e-05
-5e-05
0.0001
-5e-05
0.0001
-5e-05
0.0001
-6e-05
0.0002
-6e-05
0.0002
-6e-05
0.0002
-6e-05
0.0002
-6e-05
0.0002
-6e-05
0.0002
-6e-05
0.0002
-6e-05
0.0002
-6e-05
0.0003
-6e-05
0.0003
-6e-05
0.0003
-6e-05
0.0003
-6e-05
0.0003
-5e-05
0.0002
-5e-05
0.0002
-5e-05
0.0002
-5e-05
0.0002
-5e-05
0.0002
-4e-05
0.0002
-4e-05
0.0002
-3e-05
0.0001
-2e-05
0.0001
-2e-05
0.0001
-7e-06
9e-05
3e-06
7e-05
1e-05
6e-05
2e-05
5e-05
3e-05
4e-05
4e-05
3e-05
4e-05
2e-05
4e-05
1e-05
5e-05
9e-06
4e-05
4e-06
4e-05
-3e-07
4e-05
-4e-06
3e-05
-7e-06
3e-05
-8e-06
2e-05
-7e-06
1e-05
-5e-06
-9e-07
4e-06
-9e-05
-9e-05
-9e-05
-8e-05
-8e-05
-9e-05
-0.0001
-8e-05
-8e-05
-0.0001
-0.0001
-7e-05
-7e-05
-0.0001
-0.0001
-7e-05
-7e-05
-7e-05
-0.0001
-0.0001
-7e-05
-8e-05
-0.0001
-0.0001
-8e-05
-8e-05
-0.0001
-0.0001
-8e-05
-8e-05
-0.0001
-0.0001
-9e-05
-9e-05
-0.0001
-0.0001
-9e-05
-9e-05
-0.0001
-0.0001
-0.0001
-0.0001
-0.0001
-0.0001
-0.0001
-0.0001
-0.0001
-0.0001
-0.0001
-0.0001
-0.0001
-0.0001
-0.0001
-0.0001
-0.0001
-9e-05
-0.0001
-0.0001
-9e-05
-8e-05
-0.0001
-0.0001
-8e-05
-7e-05
-0.0002
-0.0002
-7e-05
-6e-05
-0.0002
-0.0002
-6e-05
-6e-05
-0.0002
-0.0002
-6e-05
-5e-05
-0.0002
-0.0002
-5e-05
-4e-05
-4e-05
-0.0002
-0.0002
-4e-05
-4e-05
-0.0003
-0.0003
-4e-05
-4e-05
-0.0003
-0.0003
-4e-05
-3e-05
-0.0003
-0.0003
-3e-05
-3e-05
-0.0003
-0.0003
-3e-05
-3e-05
-0.0003
-0.0003
-3e-05
-3e-05
-0.0003
-0.0003
-3e-05
-3e-05
-0.0003
-0.0003
-3e-05
-3e-05
-0.0003
-0.0003
-3e-05
-3e-05
-0.0003
-0.0003
-3e-05
-3e-05
-0.0003
-0.0003
-0.0003
-3e-05
-3e-05
-0.0003
-0.0003
-3e-05
-3e-05
-0.0003
-0.0003
-3e-05
-4e-05
-0.0003
-0.0003
-3e-05
-4e-05
-0.0003
-0.0003
-3e-05
-4e-05
-0.0003
-0.0003
-3e-05
-4e-05
-0.0003
-0.0003
-3e-05
-4e-05
-0.0003
-0.0003
-3e-05
-4e-05
-0.0003
-0.0002
-3e-05
-4e-05
-0.0002
-0.0002
-3e-05
-4e-05
-0.0002
-0.0002
-3e-05
-4e-05
-0.0002
-0.0002
-3e-05
-4e-05
-0.0002
-0.0002
-3e-05
-4e-05
-0.0002
-0.0002
-3e-05
-4e-05
-0.0002
-0.0001
-3e-05
-3e-05
-3e-05
-0.0001
-0.0001
-3e-05
-3e-05
-0.0001
-0.0001
-3e-05
-2e-05
-0.0001
-0.0001
-2e-05
-2e-05
-0.0001
-0.0001
-2e-05
-2e-05
-0.0001
-0.0001
-2e-05
-2e-05
-0.0001
-0.0001
-2e-05
-1e-05
-0.0001
-0.0001
-2e-05
-1e-05
-9e-05
-9e-05
-2e-05
-9e-06
-9e-05
-9e-05
-2e-05
-8e-06
-9e-05
-9e-05
-2e-05
-8e-06
-9e-05
-9e-05
-9e-05
-2e-05
-8e-06
-9e-05
-9e-05
-2e-05
-9e-06
-9e-05
-0.0001
-2e-05
-1e-05
-0.0001
-0.0001
-2e-05
-1e-05
-0.0001
-0.0001
-2e-05
-1e-05
-0.0001
-0.0001
-3e-05
-2e-05
-0.0001
-0.0001
-3e-05
-2e-05
-0.0001
-0.0001
-3e-05
-2e-05
-0.0001
-0.0001
-3e-05
-2e-05
-0.0001
-0.0001
-3e-05
-2e-05
-0.0001
-0.0001
-3e-05
-2e-05
-0.0001
-0.0001
-3e-05
-2e-05
-0.0001
-0.0001
-3e-05
-2e-05
-0.0001
-0.0001
-2e-05
-2e-05
-0.0001
-0.0001
-2e-05
-2e-05
-0.0001
-0.0001
-2e-05
-2e-05
-2e-05
-0.0001
-0.0001
-2e-05
-2e-05
-0.0001
-0.0001
-2e-05
-2e-05
-0.0001
-0.0001
-1e-05
-1e-05
-0.0001
-0.0001
-7e-06
-7e-06
-0.0001
-9e-05
-4e-07
-7e-07
-9e-05
-8e-05
7e-06
7e-06
-8e-05
-7e-05
2e-05
2e-05
-7e-05
-7e-05
2e-05
2e-05
-7e-05
-6e-05
3e-05
3e-05
-6e-05
-6e-05
-6e-05
4e-05
4e-05
-6e-05
-6e-05
5e-05
5e-05
-6e-05
-6e-05
6e-05
6e-05
-6e-05
-6e-05
6e-05
6e-05
-6e-05
-6e-05
6e-05
6e-05
-5e-05
-6e-05
7e-05
7e-05
-5e-05
-6e-05
6e-05
7e-05
-5e-05
-6e-05
6e-05
6e-05
-5e-05
-6e-05
6e-05
6e-05
-5e-05
-6e-05
5e-05
5e-05
-5e-05
-6e-05
4e-05
4e-05
-5e-05
-6e-05
4e-05
4e-05
-6e-05
-7e-05
3e-05
3e-05
-6e-05
-7e-05
2e-05
2e-05
-6e-05
-7e-05
2e-05
2e-05
-6e-05
-7e-05
1e-05
1e-05
8e-06
-6e-05
-7e-05
8e-06
7e-06
-6e-05
-7e-05
7e-06
7e-06
-6e-05
-7e-05
8e-06
8e-06
-6e-05
-7e-05
1e-05
1e-05
-6e-05
-7e-05
1e-05
1e-05
-6e-05
-7e-05
2e-05
2e-05
-6e-05
-7e-05
2e-05
2e-05
-6e-05
-6e-05
3e-05
3e-05
-6e-05
-6e-05
3e-05
3e-05
-6e-05
-6e-05
4e-05
4e-05
-5e-05
-5e-05
-5e-05
5e-05
5e-05
-5e-05
-5e-05
6e-05
6e-05
-5e-05
-4e-05
7e-05
8e-05
-5e-05
-4e-05
9e-05
9e-05
-5e-05
-4e-05
0.0001
0.0001
-5e-05
-4e-05
0.0001
0.0001
-5e-05
-4e-05
0.0001
0.0001
-5e-05
-4e-05
0.0002
0.0002
-5e-05
-4e-05
0.0002
0.0002
-5e-05
-4e-05
0.0002
0.0002
-5e-05
-4e-05
0.0002
0.0002
-5e-05
-4e-05
0.0002
0.0002
-5e-05
-4e-05
0.0002
0.0002
-5e-05
-4e-05
0.0002
0.0002
-5e-05
-5e-05
0.0003
0.0003
0.0003
-5e-05
-5e-05
0.0003
0.0003
-5e-05
-5e-05
0.0003
0.0003
-5e-05
-5e-05
0.0003
0.0003
-5e-05
-5e-05
0.0003
0.0003
-5e-05
-5e-05
0.0002
0.0002
-5e-05
-5e-05
0.0002
0.0002
-5e-05
-5e-05
0.0002
0.0002
-5e-05
-5e-05
0.0002
0.0002
-5e-05
-5e-05
0.0002
0.0002
-5e-05
-5e-05
0.0002
0.0002
-4e-05
-4e-05
0.0002
0.0002
-4e-05
-4e-05
0.0002
0.0001
-3e-05
-4e-05
0.0001
0.0001
-2e-05
-3e-05
0.0001
0.0001
-2e-05
-2e-05
0.0001
8e-05
-7e-06
-2e-05
8e-05
7e-05
2e-06
-8e-06
6e-05
5e-05
1e-05
1e-06
5e-05
4e-05
2e-05
1e-05
4e-05
3e-05
3e-05
2e-05
3e-05
2e-05
4e-05
3e-05
2e-05
2e-05
4e-05
4e-05
2e-05
1e-05
4e-05
4e-05
1e-05
6e-06
5e-05
4e-05
5e-06
2e-06
5e-05
5e-05
6e-07
-2e-06
4e-05
5e-05
-4e-06
-6e-06
4e-05
4e-05
-7e-06
-7e-06
3e-05
4e-05
-8e-06
-8e-06
3e-05
3e-05
-7e-06
-7e-06
2e-05
3e-05
-5e-06
-5e-06
1e-05
-7e-07
5e-06
2e-05
-6e-07
1e-05
5e-06
SCALARS u2 float
LOOKUP_TABLE default
-2e-05
-3e-05
-2e-05
-3e-05
-1e-05
-4e-05
-7e-06
-5e-05
-5e-06
-4e-06
-6e-05
-3e-06
-7e-05
-3e-06
-7e-05
-2e-06
-8e-05
-2e-06
-9e-05
-2e-06
-9e-05
-3e-06
-9e-05
-4e-06
-9e-05
-6e-06
-9e-05
-8e-06
-8e-05
-1e-05
-8e-05
-1e-05
-7e-05
-2e-05
-6e-05
-2e-05
-5e-05
-2e-05
-5e-05
-3e-05
-4e-05
-3e-05
-3e-05
-3e-05
-3e-05
-3e-05
-3e-05
-3e-05
-2e-05
-3e-05
-2e-05
-4e-05
-2e-05
-4e-05
-2e-05
-4e-05
-1e-05
-5e-05
-7e-06
-5e-05
-3e-06
-6e-05
2e-06
7e-06
-7e-05
1e-05
-8e-05
2e-05
-9e-05
2e-05
-0.0001
2e-05
-0.0001
3e-05
-0.0001
3e-05
-0.0002
3e-05
-0.0002
3e-05
-0.0002
3e-05
-0.0002
3e-05
-0.0002
3e-05
-0.0002
3e-05
-0.0003
2e-05
-0.0003
2e-05
-0.0003
-0.0003
2e-05
-0.0003
1e-05
-0.0003
1e-05
-0.0003
1e-05
-0.0003
1e-05
-0.0003
1e-05
-0.0003
1e-05
-0.0002
1e-05
-0.0002
1e-05
-0.0002
1e-05
-0.0002
1e-05
1e-05
-0.0002
2e-05
-0.0002
2e-05
-0.0001
3e-05
-0.0001
3e-05
-0.0001
4e-05
-0.0001
5e-05
-8e-05
6e-05
-7e-05
7e-05
-6e-05
8e-05
-5e-05
9e-05
-4e-05
9e-05
-4e-05
0.0001
-3e-05
0.0001
-3e-05
0.0001
-2e-05
0.0001
-2e-05
-2e-05
0.0001
-2e-05
0.0001
-2e-05
9e-05
-2e-05
8e-05
-2e-05
8e-05
-3e-05
7e-05
-4e-05
6e-05
-4e-05
6e-05
-5e-05
5e-05
-6e-05
5e-05
5e-05
-6e-05
5e-05
-7e-05
5e-05
-7e-05
6e-05
-7e-05
6e-05
-7e-05
6e-05
-6e-05
7e-05
-6e-05
8e-05
-5e-05
8e-05
-4e-05
9e-05
-3e-05
0.0001
-2e-05
0.0001
-1e-05
0.0001
-6e-06
0.0001
2e-06
0.0002
8e-06
0.0002
1e-05
2e-05
0.0002
2e-05
0.0002
2e-05
0.0002
2e-05
0.0003
2e-05
0.0003
2e-05
0.0003
2e-05
0.0003
2e-05
0.0003
2e-05
0.0003
2e-05
0.0003
2e-05
0.0003
2e-05
0.0003
2e-05
0.0003
1e-05
0.0003
1e-05
0.0003
8e-06
0.0003
5e-06
0.0003
3e-06
0.0003
2e-06
0.0002
2e-06
0.0002
2e-06
0.0002
4e-06
0.0002
6e-06
0.0002
1e-05
0.0002
1e-05
0.0001
2e-05
0.0001
2e-05
0.0001
3e-05
0.0001
3e-05
9e-05
4e-05
9e-05
4e-05
8e-05
5e-05
8e-05
5e-05
7e-05
5e-05
7e-05
6e-05
7e-05
6e-05
6e-05
6e-05
6e-05
6e-05
7e-05
6e-05
7e-05
6e-05
7e-05
6e-05
8e-05
5e-05
9e-05
5e-05
9e-05
5e-05
0.0001
4e-05
0.0001
4e-05
0.0001
4e-05
0.0001
4e-05
0.0001
4e-05
0.0001
4e-05
0.0001
4e-05
0.0001
4e-05
0.0001
4e-05
0.0001
4e-05
0.0001
4e-05
9e-05
4e-05
8e-05
4e-05
7e-05
4e-05
6e-05
5e-05
6e-05
-4e-05
-2e-05
-5e-05
-2e-05
-6e-05
-1e-05
-7e-05
-6e-06
-7e-05
-2e-06
-8e-05
4e-07
-8e-05
2e-06
-9e-05
4e-06
-9e-05
5e-06
-9e-05
7e-06
-8e-05
8e-06
-8e-05
9e-06
-7e-05
1e-05
-7e-05
1e-05
-6e-05
1e-05
-5e-05
1e-05
-4e-05
1e-05
-4e-05
1e-05
-3e-05
8e-06
-3e-05
7e-06
-3e-05
6e-06
-3e-05
4e-06
-3e-05
3e-06
-4e-05
2e-06
-4e-05
2e-06
-4e-05
2e-06
-5e-05
3e-06
-6e-05
3e-06
-6e-05
3e-06
-7e-05
3e-06
-8e-05
3e-06
-9e-05
4e-06
-0.0001
4e-06
-0.0001
3e-06
-0.0001
3e-06
-0.0002
2e-06
-0.0002
5e-07
-0.0002
-7e-07
-0.0002
-2e-06
-0.0002
-3e-06
-0.0002
-4e-06
-0.0003
-4e-06
-0.0003
-4e-06
-0.0003
-4e-06
-0.0003
-3e-06
-0.0003
-2e-06
-0.0003
-3e-07
-0.0003
1e-06
-0.0003
3e-06
-0.0003
5e-06
-0.0003
6e-06
-0.0003
9e-06
-0.0002
1e-05
-0.0002
2e-05
-0.0002
2e-05
-0.0002
3e-05
-0.0002
3e-05
-0.0002
4e-05
-0.0001
5e-05
-0.0001
6e-05
-0.0001
7e-05
-8e-05
8e-05
-7e-05
9e-05
-6e-05
9e-05
-5e-05
0.0001
-4e-05
0.0001
-4e-05
0.0001
-3e-05
0.0001
-3e-05
0.0001
-2e-05
0.0001
-2e-05
9e-05
-2e-05
8e-05
-2e-05
8e-05
-2e-05
7e-05
-2e-05
6e-05
-2e-05
6e-05
-3e-05
5e-05
-3e-05
5e-05
-4e-05
5e-05
-5e-05
5e-05
-6e-05
5e-05
-6e-05
6e-05
-7e-05
6e-05
-7e-05
7e-05
-7e-05
7e-05
-7e-05
8e-05
-6e-05
9e-05
-6e-05
9e-05
-5e-05
0.0001
-4e-05
0.0001
-4e-05
0.0001
-3e-05
0.0001
-2e-05
0.0002
-8e-06
0.0002
4e-07
0.0002
8e-06
0.0002
1e-05
0.0002
2e-05
0.0003
2e-05
0.0003
3e-05
0.0003
3e-05
0.0003
3e-05
0.0003
3e-05
0.0003
3e-05
0.0003
3e-05
0.0003
4e-05
0.0003
4e-05
0.0003
4e-05
0.0003
4e-05
0.0003
4e-05
0.0003
4e-05
0.0003
4e-05
0.0003
4e-05
0.0002
3e-05
0.0002
3e-05
0.0002
3e-05
0.0002
3e-05
0.0002
3e-05
0.0002
3e-05
0.0001
3e-05
0.0001
3e-05
0.0001
3e-05
0.0001
3e-05
0.0001
3e-05
9e-05
3e-05
8e-05
3e-05
8e-05
3e-05
7e-05
3e-05
7e-05
3e-05
7e-05
3e-05
6e-05
3e-05
6e-05
3e-05
6e-05
3e-05
7e-05
2e-05
7e-05
2e-05
8e-05
2e-05
8e-05
2e-05
9e-05
2e-05
0.0001
2e-05
0.0001
2e-05
0.0001
3e-05
0.0001
3e-05
0.0001
3e-05
0.0001
3e-05
0.0001
3e-05
0.0001
3e-05
0.0001
4e-05
0.0001
4e-05
0.0001
4e-05
9e-05
5e-05
8e-05
6e-05
6e-05
7e-05
-2e-05
-3e-05
-3e-05
-2e-05
-2e-05
-4e-05
-4e-05
-2e-05
-1e-05
-5e-05
-5e-05
-1e-05
-7e-06
-6e-05
-6e-05
-7e-06
-5e-06
-3e-06
-7e-05
-7e-05
-3e-06
-2e-06
-7e-05
-7e-05
-1e-06
-1e-06
-8e-05
-8e-05
2e-07
-6e-07
-8e-05
-8e-05
2e-06
-3e-09
-9e-05
-9e-05
3e-06
2e-07
-9e-05
-9e-05
3e-06
1e-07
-9e-05
-9e-05
4e-06
-3e-07
-9e-05
-9e-05
4e-06
-1e-06
-8e-05
-8e-05
4e-06
-2e-06
-7e-05
-8e-05
4e-06
-4e-06
-7e-05
-7e-05
3e-06
-6e-06
-6e-05
-6e-05
2e-06
-8e-06
-5e-05
-5e-05
6e-07
-1e-05
-4e-05
-4e-05
-8e-07
-1e-05
-4e-05
-4e-05
-2e-06
-1e-05
-3e-05
-3e-05
-3e-05
-4e-06
-2e-05
-3e-05
-3e-05
-5e-06
-2e-05
-3e-05
-3e-05
-5e-06
-2e-05
-3e-05
-3e-05
-6e-06
-1e-05
-3e-05
-3e-05
-5e-06
-1e-05
-4e-05
-4e-05
-5e-06
-1e-05
-4e-05
-4e-05
-3e-06
-8e-06
-5e-05
-5e-05
-2e-06
-5e-06
-5e-05
-5e-05
-3e-07
-2e-06
-6e-05
-6e-05
2e-06
2e-06
-6e-05
-7e-05
5e-06
4e-06
8e-06
-7e-05
-8e-05
6e-06
1e-05
-8e-05
-9e-05
7e-06
1e-05
-0.0001
-0.0001
9e-06
2e-05
-0.0001
-0.0001
1e-05
2e-05
-0.0001
-0.0001
1e-05
2e-05
-0.0001
-0.0001
1e-05
2e-05
-0.0002
-0.0002
1e-05
2e-05
-0.0002
-0.0002
1e-05
2e-05
-0.0002
-0.0002
1e-05
2e-05
-0.0002
-0.0002
8e-06
2e-05
-0.0002
-0.0002
7e-06
2e-05
-0.0002
-0.0002
6e-06
1e-05
-0.0003
-0.0003
5e-06
1e-05
-0.0003
-0.0003
4e-06
1e-05
-0.0003
-0.0003
-0.0003
3e-06
9e-06
-0.0003
-0.0003
3e-06
8e-06
-0.0003
-0.0003
3e-06
7e-06
-0.0003
-0.0003
4e-06
7e-06
-0.0003
-0.0003
4e-06
7e-06
-0.0003
-0.0003
5e-06
8e-06
-0.0003
-0.0003
7e-06
8e-06
-0.0003
-0.0002
8e-06
9e-06
-0.0002
-0.0002
1e-05
1e-05
-0.0002
-0.0002
1e-05
1e-05
-0.0002
-0.0002
2e-05
1e-05
2e-05
-0.0002
-0.0002
2e-05
2e-05
-0.0002
-0.0002
3e-05
3e-05
-0.0002
-0.0001
3e-05
3e-05
-0.0001
-0.0001
4e-05
4e-05
-0.0001
-0.0001
5e-05
5e-05
-0.0001
-9e-05
6e-05
6e-05
-9e-05
-8e-05
7e-05
7e-05
-7e-05
-7e-05
8e-05
8e-05
-6e-05
-6e-05
9e-05
9e-05
-5e-05
-5e-05
9e-05
9e-05
-5e-05
-4e-05
0.0001
0.0001
-4e-05
-3e-05
0.0001
0.0001
-3e-05
-3e-05
0.0001
0.0001
-3e-05
-3e-05
0.0001
0.0001
-2e-05
-2e-05
0.0001
0.0001
-2e-05
-2e-05
-2e-05
0.0001
0.0001
-2e-05
-2e-05
9e-05
9e-05
-2e-05
-2e-05
8e-05
8e-05
-2e-05
-2e-05
8e-05
8e-05
-2e-05
-2e-05
7e-05
7e-05
-2e-05
-3e-05
6e-05
6e-05
-3e-05
-4e-05
6e-05
6e-05
-3e-05
-4e-05
5e-05
5e-05
-4e-05
-5e-05
5e-05
5e-05
-5e-05
-6e-05
5e-05
5e-05
5e-05
-6e-05
-6e-05
5e-05
5e-05
-6e-05
-7e-05
5e-05
5e-05
-7e-05
-7e-05
6e-05
6e-05
-7e-05
-7e-05
6e-05
6e-05
-7e-05
-7e-05
7e-05
7e-05
-7e-05
-6e-05
7e-05
7e-05
-6e-05
-6e-05
8e-05
8e-05
-6e-05
-5e-05
9e-05
9e-05
-5e-05
-4e-05
0.0001
0.0001
-4e-05
-3e-05
0.0001
0.0001
-4e-05
-2e-05
0.0001
0.0001
-3e-05
-2e-05
0.0001
0.0001
-2e-05
-7e-06
0.0002
0.0002
-7e-06
9e-07
0.0002
0.0002
5e-07
8e-06
0.0002
0.0002
7e-06
1e-05
2e-05
0.0002
0.0002
1e-05
2e-05
0.0002
0.0002
2e-05
2e-05
0.0002
0.0003
2e-05
2e-05
0.0003
0.0003
2e-05
2e-05
0.0003
0.0003
3e-05
3e-05
0.0003
0.0003
3e-05
3e-05
0.0003
0.0003
3e-05
3e-05
0.0003
0.0003
3e-05
3e-05
0.0003
0.0003
3e-05
3e-05
0.0003
0.0003
3e-05
3e-05
0.0003
0.0003
0.0003
3e-05
2e-05
0.0003
0.0003
3e-05
2e-05
0.0003
0.0003
3e-05
2e-05
0.0003
0.0003
3e-05
2e-05
0.0003
0.0003
3e-05
2e-05
0.0003
0.0003
3e-05
2e-05
0.0003
0.0003
3e-05
1e-05
0.0002
0.0002
2e-05
1e-05
0.0002
0.0002
2e-05
1e-05
0.0002
0.0002
2e-05
1e-05
0.0002
0.0002
2e-05
1e-05
0.0002
0.0002
2e-05
2e-05
0.0002
0.0001
2e-05
2e-05
0.0001
0.0001
2e-05
2e-05
0.0001
0.0001
3e-05
2e-05
3e-05
0.0001
0.0001
3e-05
3e-05
0.0001
0.0001
3e-05
3e-05
0.0001
9e-05
3e-05
4e-05
9e-05
9e-05
3e-05
4e-05
8e-05
8e-05
4e-05
4e-05
8e-05
8e-05
4e-05
4e-05
7e-05
7e-05
4e-05
5e-05
7e-05
7e-05
4e-05
5e-05
7e-05
7e-05
4e-05
5e-05
6e-05
6e-05
4e-05
5e-05
6e-05
6e-05
4e-05
5e-05
6e-05
7e-05
4e-05
5e-05
7e-05
7e-05
4e-05
5e-05
7e-05
7e-05
3e-05
4e-05
8e-05
8e-05
3e-05
4e-05
9e-05
9e-05
3e-05
4e-05
9e-05
9e-05
3e-05
4e-05
0.0001
0.0001
3e-05
4e-05
0.0001
0.0001
3e-05
3e-05
0.0001
0.0001
3e-05
3e-05
0.0001
0.0001
3e-05
3e-05
0.0001
0.0001
3e-05
3e-05
0.0001
0.0001
3e-05
3e-05
0.0001
0.0001
3e-05
3e-05
0.0001
0.0001
3e-05
4e-05
0.0001
0.0001
3e-05
4e-05
0.0001
0.0001
4e-05
4e-05
0.0001
0.0001
4e-05
4e-05
9e-05
9e-05
4e-05
4e-05
8e-05
8e-05
5e-05
5e-05
7e-05
6e-05
6e-05
7e-05
5e-05
6e-05
6e-05
SCALARS strain_1 float
LOOKUP_TABLE default
-0.000083
-0.000083
-0.000120
-0.000084
-0.000108
-0.000096
-0.000113
-0.000119
-0.000225
-0.000283
-0.000189
-0.000251
-0.000291
-0.000247
-0.000383
-0.000253
-0.000487
-0.000272
-0.000706
-0.000213
-0.000843
-0.000157
-0.001186
-0.000051
-0.001428
0.000031
-0.001741
0.000218
-0.002121
0.000419
-0.002561
0.000666
-0.002977
0.000933
-0.003545
0.001224
-0.004084
0.001620
-0.004722
0.002090
-0.005365
-0.006086
0.002549
-0.006853
0.003081
-0.007637
0.003693
-0.008566
0.004348
-0.009406
0.005083
-0.010386
0.005888
-0.011389
0.006704
-0.012442
0.007645
-0.013513
0.008654
-0.014645
0.009696
-0.015754
0.010775
0.011887
-0.016974
0.013166
-0.018213
0.014475
-0.019507
0.015797
-0.020784
0.017223
-0.022074
0.018558
-0.023435
0.020071
-0.024803
0.021582
-0.026203
0.023169
-0.027561
0.024787
-0.029044
0.026448
-0.030369
0.028067
-0.031825
0.029758
-0.033187
0.031503
-0.034651
0.033204
-0.036048
-0.037429
0.034911
-0.038871
0.036636
-0.040254
0.038326
-0.041589
0.040111
-0.042847
0.041779
-0.044163
0.043416
-0.045514
0.045117
-0.046692
0.046707
-0.047930
0.048377
-0.049035
0.049942
-0.050122
0.051461
0.052941
-0.051239
0.054304
-0.052221
0.055673
-0.053126
0.056892
-0.054065
0.058231
-0.054833
0.059340
-0.055646
0.060429
-0.056411
0.061387
-0.057005
0.062333
-0.057581
0.063085
-0.058098
0.063890
-0.058582
0.064557
-0.058929
0.065110
-0.059211
0.065611
-0.059478
0.065966
-0.059645
0.066259
-0.059759
-0.059757
0.066443
-0.059675
0.066627
-0.059563
0.066576
-0.059349
0.066553
-0.059039
0.066338
-0.058748
0.066119
-0.058321
0.065765
-0.057884
0.065218
-0.057292
0.064745
-0.056664
0.064166
0.063459
-0.056009
0.062674
-0.055308
0.061818
-0.054521
0.060935
-0.053658
0.060023
-0.052801
0.058925
-0.051879
0.057880
-0.050813
0.056674
-0.049844
0.055540
-0.048717
0.054165
-0.047630
0.052897
-0.046462
0.051559
-0.045361
0.050160
-0.044097
0.048871
-0.042872
0.047357
-0.041619
0.045876
-0.040333
-0.039070
0.044467
-0.037753
0.042923
-0.036450
0.041492
-0.035142
0.039939
-0.033835
0.038447
-0.032521
0.036948
-0.031183
0.035431
-0.029891
0.033893
-0.028601
0.032447
-0.027306
0.031003
-0.026014
0.029555
-0.024741
0.028097
-0.023550
0.026695
-0.022317
0.025264
-0.021095
0.023960
-0.019904
0.022606
-0.018794
0.021323
-0.017679
0.020021
-0.016554
0.018811
-0.015580
0.017585
-0.014474
0.016491
-0.013548
0.015303
-0.012563
0.014267
-0.011668
0.013253
-0.010786
0.012231
-0.009894
0.011316
-0.009053
0.010391
-0.008356
0.009569
-0.007682
0.008769
-0.006925
0.007960
-0.006279
0.007216
-0.005689
0.006482
-0.005071
0.005874
-0.004556
0.005260
-0.004014
0.004681
-0.003556
0.004125
-0.003165
0.003653
-0.002749
0.003164
-0.002318
0.002746
-0.002051
0.002389
-0.001759
0.002095
-0.001495
0.001711
-0.001210
0.001470
-0.000979
0.001237
-0.000779
0.000919
-0.000639
0.000815
-0.000492
0.000523
-0.000348
0.000466
-0.000295
0.000351
-0.000158
0.000241
-0.000200
0.000178
-0.000067
0.000102
-0.000048
0.000067
-0.000040
0.000064
-0.000013
-0.000030
-0.000050
-0.000037
-0.000044
-0.000070
-0.000025
-0.000074
-0.000079
-0.000080
-0.000106
-0.000140
-0.000141
-0.000154
-0.000085
-0.000223
-0.000156
-0.000214
-0.000192
-0.000231
-0.000242
-0.000252
-0.000438
-0.000281
-0.000473
-0.000254
-0.000680
-0.000190
-0.000941
-0.000126
-0.001183
-0.000079
-0.001451
0.000074
-0.001841
0.000230
-0.002202
0.000391
-0.002597
0.000638
-0.003106
0.000916
-0.003551
0.001214
-0.004194
0.001669
-0.004753
0.002010
-0.005396
0.002579
-0.006120
0.003015
-0.006827
0.003612
-0.007636
0.004228
-0.008465
0.004975
-0.009407
0.005785
-0.010342
0.006641
-0.011291
0.007496
-0.012364
0.008443
-0.013353
0.009475
-0.014454
0.010513
-0.015589
0.011686
-0.016763
0.012798
-0.018005
0.014063
-0.019191
0.015329
-0.020442
0.016680
-0.021691
0.018043
-0.022991
0.019448
-0.024289
0.020879
-0.025577
0.022357
-0.026851
0.023863
-0.028226
0.025364
-0.029555
0.026949
-0.030892
0.028508
-0.032237
0.030112
-0.033467
0.031641
-0.034806
0.033240
-0.036080
0.034802
-0.037347
0.036406
-0.038620
0.037972
-0.039844
0.039503
-0.041005
0.040980
-0.042113
0.042461
-0.043202
0.043950
-0.044244
0.045306
-0.045268
0.046633
-0.046236
0.047995
-0.047139
0.049238
-0.048055
0.050377
-0.048810
0.051503
-0.049611
0.052600
-0.050334
0.053553
-0.050889
0.054356
-0.051576
0.055291
-0.051976
0.056053
-0.052449
0.056651
-0.052838
0.057263
-0.053154
0.057740
-0.053360
0.058197
-0.053506
0.058459
-0.053611
0.058708
-0.053633
0.058813
-0.053631
0.058875
-0.053433
0.058885
-0.053335
0.058723
-0.053027
0.058516
-0.052727
0.058252
-0.052301
0.057831
-0.051896
0.057463
-0.051354
0.056932
-0.050814
0.056242
-0.050141
0.055608
-0.049506
0.054847
-0.048746
0.053975
-0.047885
0.053091
-0.047093
0.052145
-0.046114
0.051166
-0.045283
0.050072
-0.044179
0.048974
-0.043208
0.047815
-0.042212
0.046631
-0.041137
0.045332
-0.039985
0.044051
-0.038810
0.042721
-0.037688
0.041472
-0.036551
0.040128
-0.035300
0.038771
-0.034073
0.037372
-0.032844
0.035988
-0.031693
0.034553
-0.030468
0.033225
-0.029181
0.031823
-0.027939
0.030424
-0.026751
0.029067
-0.025582
0.027772
-0.024346
0.026390
-0.023109
0.025054
-0.022015
0.023806
-0.020829
0.022469
-0.019714
0.021240
-0.018605
0.019953
-0.017491
0.018793
-0.016477
0.017712
-0.015459
0.016490
-0.014396
0.015373
-0.013446
0.014348
-0.012562
0.013296
-0.011605
0.012393
-0.010724
0.011457
-0.009889
0.010476
-0.009090
0.009639
-0.008348
0.008833
-0.007678
0.008040
-0.006964
0.007328
-0.006307
0.006611
-0.005650
0.005987
-0.005088
0.005362
-0.004548
0.004774
-0.004037
0.004240
-0.003574
0.003727
-0.003168
0.003241
-0.002749
0.002818
-0.002318
0.002415
-0.001959
0.002120
-0.001804
0.001743
-0.001474
0.001407
-0.001220
0.001206
-0.001004
0.000964
-0.000859
0.000756
-0.000676
0.000645
-0.000546
0.000435
-0.000411
0.000416
-0.000297
0.000219
-0.000259
0.000152
-0.000128
0.000090
-0.000145
-0.000002
-0.000100
0.000026
-0.000099
-0.000057
-0.000053
-0.000000
-0.000021
-0.000066
-0.000062
-0.000089
-0.000044
-0.000099
-0.000069
-0.000135
-0.000105
-0.000152
-0.000102
-0.000142
-0.000020
-0.000078
-0.000154
-0.000200
-0.000020
-0.000094
-0.000148
-0.000128
-0.000133
-0.000121
-0.000201
-0.000168
-0.000245
-0.000141
-0.000227
-0.000244
-0.000246
-0.000269
-0.000268
-0.000200
-0.000246
-0.000366
-0.000441
-0.000281
-0.000213
-0.000468
-0.000559
-0.000288
-0.000225
-0.000646
-0.000704
-0.000196
-0.000200
-0.000859
-0.000942
-0.000172
-0.000133
-0.001075
-0.001234
-0.000077
-0.000004
-0.001326
-0.001543
0.000039
0.000122
-0.001658
-0.001902
0.000101
0.000278
-0.002026
-0.002298
0.000367
0.000473
-0.002461
-0.002722
0.000541
0.000794
-0.002918
-0.003205
0.000808
0.001030
-0.003423
-0.003844
0.001120
0.001357
-0.003988
-0.004336
0.001487
0.001798
-0.004572
-0.004964
0.001859
0.002223
-0.005211
-0.005642
-0.006254
0.002328
0.002732
-0.006031
-0.006809
0.002914
0.003287
-0.006764
-0.007627
0.003490
0.003931
-0.007609
-0.008481
0.004033
0.004607
-0.008502
-0.009360
0.004778
0.005288
-0.009440
-0.010360
0.005629
0.006099
-0.010364
-0.011355
0.006366
0.007032
-0.011273
-0.012331
0.007248
0.007875
-0.012356
-0.013444
0.008169
0.008911
-0.013393
-0.014537
0.009196
0.010011
-0.014561
-0.015674
0.011135
0.010247
0.012172
-0.015632
-0.016914
0.011617
0.013011
-0.016772
-0.018090
0.012795
0.014245
-0.018020
-0.019344
0.014166
0.015618
-0.019276
-0.020608
0.015466
0.016979
-0.020505
-0.021954
0.016811
0.018375
-0.021851
-0.023277
0.018194
0.019840
-0.023087
-0.024593
0.019613
0.021351
-0.024418
-0.025965
0.021101
0.022934
-0.025814
-0.027419
0.022623
0.024454
-0.027144
-0.028778
0.024149
0.026086
-0.028529
-0.030133
0.025731
0.027705
-0.029937
-0.031583
0.027288
0.029361
-0.031210
-0.032899
0.028895
0.030999
-0.032603
-0.034355
0.030507
0.032679
-0.033928
-0.035725
-0.037002
0.032224
0.034346
-0.035622
-0.037880
0.033817
0.035997
-0.036867
-0.039180
0.035373
0.037683
-0.038203
-0.040481
0.037061
0.039368
-0.039579
-0.041836
0.038692
0.041014
-0.040794
-0.043071
0.040303
0.042640
-0.041971
-0.044374
0.041824
0.044249
-0.043206
-0.045492
0.043358
0.045800
-0.044278
-0.046665
0.044894
0.047414
-0.045397
-0.047777
0.046334
0.048981
-0.046461
-0.048867
0.047751
0.050235
0.051789
-0.047502
-0.049827
0.049640
0.052603
-0.048461
-0.050804
0.050662
0.053946
-0.049363
-0.051697
0.052053
0.055072
-0.050302
-0.052563
0.053208
0.056224
-0.051077
-0.053302
0.054349
0.057312
-0.051759
-0.054025
0.055400
0.058380
-0.052469
-0.054683
0.056399
0.059320
-0.053103
-0.055336
0.057329
0.060170
-0.053612
-0.055860
0.058084
0.060972
-0.054114
-0.056322
0.058805
0.061642
-0.054577
-0.056752
0.059369
0.062223
-0.054948
-0.057072
0.060021
0.062778
-0.055119
-0.057294
0.060438
0.063187
-0.055365
-0.057560
0.060793
0.063498
-0.055522
-0.057675
0.061136
0.063736
-0.055602
-0.057699
-0.057971
0.061239
0.063930
-0.055775
-0.057617
0.061297
0.063991
-0.055599
-0.057428
0.061415
0.063936
-0.055321
-0.057109
0.061381
0.063764
-0.055077
-0.056942
0.061162
0.063514
-0.054772
-0.056474
0.060839
0.063306
-0.054392
-0.056067
0.060602
0.062903
-0.053982
-0.055584
0.060054
0.062371
-0.053465
-0.055076
0.059549
0.061899
-0.052918
-0.054455
0.058821
0.061154
0.061012
-0.052256
-0.053755
0.058557
0.060005
-0.051600
-0.052985
0.057270
0.059254
-0.050842
-0.052275
0.056532
0.058294
-0.050038
-0.051346
0.055625
0.057282
-0.049168
-0.050500
0.054702
0.056280
-0.048322
-0.049548
0.053656
0.055110
-0.047367
-0.048640
0.052500
0.053973
-0.046385
-0.047515
0.051489
0.052776
-0.045386
-0.046532
0.050230
0.051630
-0.044303
-0.045322
0.048971
0.050267
-0.043250
-0.044276
0.047797
0.048973
-0.042022
-0.043080
0.046442
0.047587
-0.040913
-0.041866
0.045160
0.046250
-0.039713
-0.040706
0.043811
0.044788
-0.038516
-0.039396
0.042481
0.043446
-0.037203
-0.038190
-0.037397
0.041045
0.042010
-0.036113
-0.036191
0.039631
0.040504
-0.034575
-0.034869
0.038249
0.039116
-0.033240
-0.033542
0.036797
0.037637
-0.031974
-0.032300
0.035321
0.036151
-0.030696
-0.030984
0.033925
0.034660
-0.029500
-0.029695
0.032549
0.033223
-0.028149
-0.028394
0.031091
0.031736
-0.027012
-0.027107
0.029686
0.030312
-0.025695
-0.025847
0.028232
0.028902
-0.024479
-0.024659
0.026756
0.027524
0.026518
-0.023280
-0.023469
0.025514
0.025304
-0.022141
-0.022212
0.023831
0.023947
-0.020917
-0.020995
0.022455
0.022575
-0.019796
-0.019860
0.021274
0.021245
-0.018650
-0.018707
0.020060
0.020016
-0.017571
-0.017594
0.018819
0.018854
-0.016502
-0.016533
0.017639
0.017700
-0.015406
-0.015509
0.016509
0.016489
-0.014453
-0.014450
0.015398
0.015378
-0.013481
-0.013466
0.014376
0.014308
-0.012509
-0.012587
0.013268
0.013311
-0.011610
-0.011607
0.012342
0.012306
-0.010783
-0.010753
0.011379
0.011287
-0.009968
-0.009900
0.010429
0.010434
-0.008989
-0.009105
-0.008530
0.009615
0.009612
-0.008258
-0.007857
0.008800
0.008790
-0.007416
-0.007204
0.007973
0.007974
-0.006750
-0.006497
0.007275
0.007243
-0.006092
-0.005815
0.006486
0.006502
-0.005459
-0.005334
0.005901
0.005911
-0.004920
-0.004765
0.005339
0.005329
-0.004333
-0.004205
0.004669
0.004697
-0.003900
-0.003662
0.004181
0.004123
-0.003484
-0.003321
0.003687
0.003639
-0.002956
-0.002903
0.003173
0.003180
-0.002551
-0.002545
0.002779
0.002915
-0.002244
-0.002196
0.002316
0.002558
-0.001932
-0.001791
0.001964
0.002178
-0.001650
-0.001559
0.001700
0.001900
-0.001381
-0.001349
0.001372
0.001503
-0.001166
-0.001080
0.001085
0.001265
-0.000908
-0.000895
0.000892
0.001103
-0.000808
-0.000745
0.000712
0.000894
-0.000623
-0.000547
0.000592
0.000620
-0.000452
-0.000444
0.000392
0.000410
-0.000354
-0.000367
0.000292
0.000382
-0.000274
-0.000229
0.000189
0.000294
-0.000220
-0.000122
0.000152
0.000196
-0.000138
-0.000146
0.000031
0.000090
-0.000074
-0.000087
0.000021
0.000072
-0.000057
-0.000035
0.000033
-0.000030
0.000001
-0.000039
-0.000070
-0.000058
-0.000101
-0.000060
-0.000004
-0.000032
-0.000079
-0.000099
0.000011
0.000014
-0.000065
-0.000022
-0.000124
-0.000031
-0.000009
-0.000035
0.000004
-0.000081
-0.000077
SCALARS strain_2 float
LOOKUP_TABLE default
0.000853
0.001183
0.001065
0.000675
0.001291
0.001692
0.001598
0.001265
0.002471
0.002794
0.001707
0.001642
0.003011
0.003332
0.004958
0.002747
0.006539
0.002588
0.008832
0.002148
0.011539
0.001611
0.014993
0.000871
0.018731
-0.000805
0.023426
-0.002802
0.027199
-0.005069
0.032958
-0.007815
0.039035
-0.010745
0.045685
-0.015263
0.052895
-0.019546
0.060856
-0.024968
0.069652
0.078912
-0.030694
0.088661
-0.037503
0.099412
-0.044589
0.109983
-0.053093
0.122546
-0.061469
0.134805
-0.070932
0.148511
-0.081172
0.161435
-0.092396
0.176427
-0.103897
0.190040
-0.116657
0.206151
-0.130586
-0.144324
0.222737
-0.159328
0.238583
-0.174895
0.255391
-0.191854
0.272475
-0.207945
0.290623
-0.226015
0.308285
-0.244562
0.326854
-0.262998
0.344866
-0.282683
0.363811
-0.302511
0.383245
-0.323154
0.401353
-0.343794
0.420161
-0.364458
0.439137
-0.385125
0.458328
-0.407269
0.476883
0.495668
-0.429811
0.514264
-0.451037
0.532088
-0.472794
0.549784
-0.494287
0.567387
-0.516296
0.584197
-0.538066
0.600701
-0.558817
0.616859
-0.579989
0.632688
-0.600567
0.646522
-0.620180
0.661132
-0.640155
-0.658379
0.674243
-0.677210
0.686340
-0.694799
0.698946
-0.711729
0.709281
-0.727804
0.719328
-0.742621
0.728680
-0.756697
0.736834
-0.769766
0.743967
-0.782298
0.750213
-0.792652
0.755630
-0.803093
0.758542
-0.812240
0.762024
-0.819213
0.764529
-0.825765
0.765284
-0.830840
0.765467
-0.835506
0.764660
0.762533
-0.837744
0.759551
-0.838966
0.754428
-0.838746
0.749497
-0.838256
0.744075
-0.835776
0.736601
-0.832683
0.729243
-0.827305
0.720280
-0.821545
0.710477
-0.815465
0.700415
-0.807322
-0.797701
0.689274
-0.787606
0.677577
-0.776618
0.665133
-0.764102
0.651677
-0.750686
0.637915
-0.737184
0.623114
-0.722200
0.608561
-0.706669
0.593296
-0.690339
0.577363
-0.673159
0.561672
-0.656713
0.545138
-0.638151
0.528045
-0.619926
0.511644
-0.600776
0.495481
-0.582368
0.477792
-0.562895
0.460799
0.443397
-0.542533
0.426065
-0.522923
0.409327
-0.502592
0.392350
-0.483200
0.375482
-0.462954
0.359117
-0.443072
0.342852
-0.422857
0.326691
-0.403514
0.310776
-0.383977
0.294589
-0.364720
0.280086
-0.346250
0.264427
-0.327036
0.250737
-0.309281
0.236278
-0.291344
0.222334
-0.274547
0.208770
-0.257648
0.196111
-0.240295
0.183104
-0.225370
0.171773
-0.209538
0.159942
-0.194483
0.148800
-0.180479
0.138207
-0.166700
0.128467
-0.153699
0.118472
-0.141786
0.108491
-0.129583
0.099976
-0.117996
0.090829
-0.107070
0.084222
-0.097366
0.075949
-0.088230
0.069134
-0.079178
0.062534
-0.070917
0.056072
-0.063293
0.049965
-0.055471
0.044322
-0.048746
0.039895
-0.042994
0.035403
-0.037163
0.030489
-0.031589
0.026581
-0.027153
0.022900
-0.023376
0.019737
-0.019251
0.016381
-0.015845
0.013630
-0.012872
0.011726
-0.010368
0.010059
-0.007973
0.007217
-0.006439
0.006109
-0.004259
0.004478
-0.003162
0.003196
-0.001625
0.001789
-0.000418
0.001032
-0.000056
0.001556
0.000372
-0.000433
0.000220
-0.000126
0.001105
0.000347
0.001056
-0.000382
0.000939
-0.000309
0.000649
-0.000002
0.000424
0.000251
0.000936
0.000561
0.000436
0.000754
0.001351
0.000751
0.001451
0.001174
0.001892
0.000700
0.002165
0.002328
0.002828
0.003656
0.002959
0.005043
0.003094
0.006331
0.002613
0.009300
0.002218
0.012750
0.002113
0.014747
0.000716
0.019426
-0.001024
0.023349
-0.002722
0.028519
-0.005233
0.033639
-0.008103
0.039937
-0.011279
0.047185
-0.014913
0.054427
-0.019596
0.062232
-0.024508
0.070859
-0.030106
0.080323
-0.037015
0.090172
-0.043854
0.100078
-0.051937
0.111931
-0.060520
0.124038
-0.069238
0.136175
-0.079543
0.149376
-0.090341
0.162815
-0.101189
0.176516
-0.114346
0.191166
-0.126943
0.206267
-0.140984
0.221499
-0.155563
0.237487
-0.170203
0.254012
-0.185982
0.270430
-0.202273
0.287112
-0.219267
0.304857
-0.237188
0.322113
-0.254600
0.339806
-0.272691
0.357085
-0.291246
0.375119
-0.310978
0.392854
-0.329850
0.410251
-0.349964
0.428307
-0.369159
0.445706
-0.389543
0.462453
-0.409014
0.479841
-0.429297
0.496390
-0.448624
0.512578
-0.468426
0.528174
-0.488091
0.543819
-0.507324
0.558508
-0.526076
0.572990
-0.544377
0.586288
-0.562057
0.600407
-0.579696
0.611956
-0.596487
0.623302
-0.612221
0.634316
-0.628011
0.644503
-0.641716
0.653445
-0.656036
0.660815
-0.669482
0.669231
-0.680810
0.674674
-0.691047
0.679639
-0.701364
0.684189
-0.710001
0.688133
-0.717619
0.689332
-0.723926
0.691596
-0.729819
0.692058
-0.733780
0.690956
-0.737114
0.689499
-0.738753
0.686813
-0.739204
0.682487
-0.738630
0.678346
-0.737006
0.672246
-0.733881
0.665986
-0.729667
0.658660
-0.725845
0.650610
-0.719247
0.641944
-0.711848
0.631980
-0.704025
0.621277
-0.694345
0.610963
-0.683829
0.598917
-0.672974
0.587307
-0.660799
0.573721
-0.647829
0.560199
-0.634665
0.545671
-0.619811
0.531537
-0.604921
0.517237
-0.590422
0.501970
-0.573525
0.486248
-0.557295
0.471293
-0.540666
0.455236
-0.522651
0.439252
-0.505168
0.423245
-0.487713
0.407112
-0.468629
0.391682
-0.451141
0.375831
-0.432551
0.360453
-0.413962
0.344057
-0.396443
0.329028
-0.377484
0.313045
-0.359284
0.297626
-0.342348
0.282861
-0.324170
0.268517
-0.307187
0.254367
-0.290014
0.240090
-0.273233
0.226401
-0.256936
0.213282
-0.240370
0.200122
-0.225331
0.187805
-0.210392
0.175559
-0.195825
0.164465
-0.181974
0.153002
-0.167939
0.142121
-0.155524
0.131599
-0.142720
0.122069
-0.130655
0.112178
-0.119560
0.102947
-0.108560
0.094468
-0.099239
0.086700
-0.089708
0.078661
-0.080243
0.071376
-0.071744
0.064506
-0.064126
0.058190
-0.056624
0.052790
-0.049790
0.046377
-0.043774
0.041181
-0.038020
0.036578
-0.032526
0.031871
-0.028226
0.028311
-0.023838
0.023864
-0.019674
0.020204
-0.016105
0.017734
-0.012500
0.013932
-0.010004
0.012197
-0.008114
0.010132
-0.005699
0.007565
-0.004563
0.006484
-0.002762
0.004504
-0.001561
0.003796
-0.000841
0.002909
-0.000004
0.001702
0.000606
0.000566
0.001177
0.000561
0.001267
0.000769
0.001464
0.000546
0.001483
-0.000245
0.001130
-0.000848
0.001089
-0.000365
0.000839
0.000256
0.000431
0.000662
0.000645
0.001109
0.000412
0.001457
0.001186
0.000913
0.000351
0.001409
0.001625
0.000875
0.001289
0.001595
0.001920
0.001563
0.001640
0.001355
0.002378
0.002017
0.002055
0.002512
0.002680
0.003146
0.003154
0.004019
0.002746
0.002821
0.004521
0.005205
0.003010
0.002935
0.006591
0.007154
0.002646
0.002276
0.008821
0.009625
0.002149
0.002143
0.010551
0.012404
0.002258
0.001278
0.013883
0.016438
0.000641
0.000592
0.017434
0.020129
-0.000499
-0.001292
0.021616
0.024335
-0.002020
-0.003431
0.025833
0.029608
-0.003972
-0.006024
0.031973
0.035285
-0.007297
-0.008490
0.037735
0.041474
-0.010227
-0.011923
0.043923
0.048727
-0.013984
-0.016520
0.051863
0.055742
-0.018501
-0.020802
0.059662
0.064601
-0.023415
-0.027132
0.068260
0.073906
0.081219
-0.028136
-0.032845
0.078406
0.088979
-0.034825
-0.039301
0.088710
0.099317
-0.041594
-0.046429
0.099495
0.110863
-0.049247
-0.055741
0.110833
0.122314
-0.057499
-0.064416
0.122941
0.135133
-0.067003
-0.073959
0.135847
0.148471
-0.076542
-0.084131
0.148758
0.162028
-0.088003
-0.096181
0.162529
0.176504
-0.098872
-0.107618
0.176130
0.190785
-0.111417
-0.120479
0.190689
0.205959
-0.135085
-0.124996
-0.147424
0.206230
0.222137
-0.140363
-0.157054
0.221594
0.238162
-0.155522
-0.173448
0.237755
0.254968
-0.171279
-0.188773
0.254552
0.271911
-0.187363
-0.205616
0.271104
0.288918
-0.204394
-0.223757
0.288746
0.307674
-0.221215
-0.241338
0.305662
0.324727
-0.238975
-0.260572
0.324113
0.343612
-0.256733
-0.279905
0.341584
0.361802
-0.275681
-0.299174
0.359920
0.379959
-0.294803
-0.318948
0.377877
0.398765
-0.314685
-0.338789
0.396236
0.417328
-0.334444
-0.359259
0.414248
0.436071
-0.354285
-0.380119
0.432911
0.454021
-0.374705
-0.400805
0.450825
0.473973
0.490320
-0.395229
-0.422183
0.473682
0.501030
-0.416083
-0.443786
0.488509
0.519663
-0.436167
-0.464710
0.507029
0.537114
-0.457145
-0.485489
0.525023
0.553588
-0.477728
-0.506832
0.541066
0.570720
-0.498156
-0.527316
0.556262
0.586871
-0.517123
-0.548422
0.572092
0.601968
-0.536593
-0.568232
0.587203
0.616984
-0.556706
-0.587962
0.601424
0.630746
-0.574734
-0.608122
0.615036
0.644780
-0.593166
-0.625498
-0.645182
0.627850
0.657164
-0.616933
-0.654972
0.639916
0.669196
-0.630358
-0.672621
0.651050
0.680538
-0.649417
-0.687795
0.662022
0.690423
-0.664532
-0.702432
0.672080
0.699549
-0.678316
-0.717059
0.680490
0.707910
-0.692376
-0.731054
0.687969
0.715949
-0.705746
-0.743635
0.695414
0.721845
-0.717016
-0.755118
0.700564
0.727745
-0.727645
-0.764571
0.705706
0.732127
-0.736674
-0.774041
0.709549
0.735606
-0.745446
-0.782111
0.712533
0.738426
-0.752538
-0.789412
0.714272
0.740001
-0.758720
-0.794300
0.715213
0.740009
-0.763466
-0.799041
0.715466
0.740487
-0.767927
-0.801934
0.713952
0.739583
0.740346
-0.769430
-0.803674
0.713811
0.733945
-0.770888
-0.804849
0.708282
0.729863
-0.771547
-0.804689
0.703361
0.723159
-0.770110
-0.802438
0.697691
0.717194
-0.768072
-0.800025
0.691758
0.710396
-0.764583
-0.796436
0.684664
0.702366
-0.760440
-0.790893
0.676335
0.694007
-0.753515
-0.783864
0.667488
0.684322
-0.747317
-0.776760
0.658172
0.674257
-0.737522
-0.768204
-0.765504
0.647564
0.662103
-0.733438
-0.752482
0.635911
0.650205
-0.716313
-0.741971
0.623643
0.638031
-0.706743
-0.728753
0.611285
0.624624
-0.693900
-0.715927
0.598051
0.610644
-0.682160
-0.701154
0.585006
0.596346
-0.667831
-0.686903
0.570659
0.581991
-0.652907
-0.671879
0.556061
0.567596
-0.637847
-0.655009
0.541204
0.551892
-0.621565
-0.638760
0.526151
0.535843
-0.605698
-0.622052
0.510882
0.520507
-0.588875
-0.604298
0.495312
0.503829
-0.571412
-0.585269
0.479337
0.486498
-0.552804
-0.567690
0.462164
0.469821
-0.534889
-0.548550
0.445998
0.452731
-0.517062
-0.529044
0.428351
0.436350
0.425358
-0.498340
-0.510668
0.413172
0.409966
-0.479908
-0.491394
0.392869
0.392700
-0.461395
-0.471691
0.375885
0.375933
-0.442580
-0.452538
0.360201
0.359547
-0.423921
-0.433526
0.343818
0.344027
-0.404920
-0.413775
0.327988
0.327341
-0.386131
-0.394344
0.312180
0.311894
-0.367742
-0.375568
0.296500
0.296025
-0.349013
-0.356984
0.281750
0.280754
-0.330613
-0.338126
0.267449
0.265787
-0.311495
-0.319618
-0.307605
0.253239
0.251605
-0.295241
-0.290700
0.238881
0.237444
-0.274314
-0.274285
0.225237
0.224169
-0.257545
-0.256541
0.212139
0.210196
-0.241156
-0.241426
0.198633
0.197253
-0.225379
-0.225164
0.186261
0.185180
-0.210333
-0.209961
0.174831
0.173370
-0.195253
-0.195550
0.162774
0.161687
-0.181690
-0.180880
0.151448
0.150345
-0.168022
-0.167748
0.140571
0.139561
-0.154784
-0.154414
0.130187
0.129166
-0.142475
-0.141593
0.120927
0.119794
-0.130128
-0.129543
0.111037
0.110404
-0.119419
-0.118583
0.102080
0.100880
-0.108554
-0.108164
0.092484
0.092029
0.086624
-0.098382
-0.098484
0.084637
0.079867
-0.089098
-0.088205
0.075699
0.072281
-0.080230
-0.079500
0.068307
0.065836
-0.072029
-0.071185
0.061935
0.059012
-0.063239
-0.063396
0.055288
0.053016
-0.056951
-0.056663
0.049449
0.046932
-0.049404
-0.049453
0.044249
0.041991
-0.043435
-0.043122
0.039247
0.037268
-0.037704
-0.037286
0.034436
0.032263
-0.031895
-0.031925
0.030325
0.028054
-0.027330
-0.027188
0.026350
0.025094
-0.022696
-0.023946
0.022565
0.021651
-0.018157
-0.020279
0.018975
0.017943
-0.015139
-0.017280
0.015718
0.014985
-0.011612
-0.013833
0.013857
0.012325
-0.009297
-0.011313
0.010883
0.010727
-0.006841
-0.008853
0.009002
0.007903
-0.005668
-0.006844
0.006640
0.006200
-0.003988
-0.004617
0.005593
0.005392
-0.002173
-0.003314
0.004425
0.003408
-0.000973
-0.002535
0.002849
0.002621
-0.000543
-0.000907
0.002010
0.002081
0.000517
-0.000621
0.000928
0.001278
0.000750
0.000212
0.000392
0.000594
0.001154
0.000494
0.000596
0.000186
0.001135
0.000268
0.000137
-0.000440
0.000681
0.000791
-0.000181
-0.000143
0.000409
0.000632
0.000103
-0.001105
0.001511
0.000976
-0.000165
-0.000364
0.000834
0.000995
0.000342
-0.000090
0.000345
0.000351
0.000481
0.000881
-0.000013
0.000713
0.000487
SCALARS strain_3 float
LOOKUP_TABLE default
-0.002811
-0.002051
-0.002400
-0.001848
-0.003531
-0.002804
-0.003303
-0.003500
-0.004355
-0.005353
-0.003605
-0.005036
-0.005169
-0.005748
-0.007751
-0.006187
-0.010034
-0.004625
-0.013647
-0.005127
-0.017239
-0.003025
-0.021545
-0.002094
-0.028173
0.000180
-0.034430
0.002632
-0.041444
0.006481
-0.049122
0.010860
-0.058511
0.016289
-0.068218
0.022714
-0.078205
0.029167
-0.090488
0.037765
-0.102111
-0.115760
0.046041
-0.130665
0.055796
-0.146431
0.065778
-0.161305
0.079153
-0.179526
0.092594
-0.198238
0.107062
-0.217246
0.122334
-0.236804
0.138579
-0.256465
0.156666
-0.278381
0.175730
-0.300867
0.196605
0.217066
-0.323782
0.239591
-0.346501
0.262864
-0.370999
0.287406
-0.395387
0.312530
-0.418941
0.339185
-0.445802
0.366235
-0.471763
0.395241
-0.496631
0.422992
-0.522529
0.452926
-0.549088
0.482947
-0.575649
0.513251
-0.601466
0.544752
-0.628386
0.575271
-0.652783
0.607072
-0.679599
-0.705636
0.638535
-0.729153
0.670299
-0.753545
0.702579
-0.777585
0.733969
-0.801123
0.765236
-0.823306
0.796539
-0.846215
0.826520
-0.865932
0.856563
-0.885653
0.885985
-0.905337
0.914524
-0.922163
0.941914
0.968838
-0.938215
0.994638
-0.954366
1.018887
-0.968426
1.041976
-0.981272
1.064360
-0.992308
1.085016
-1.003221
1.104639
-1.012065
1.121975
-1.020137
1.138241
-1.025197
1.152270
-1.031004
1.165011
-1.033636
1.175965
-1.033815
1.184496
-1.034599
1.191727
-1.034364
1.197396
-1.031523
1.201700
-1.027111
-1.022101
1.204212
-1.014461
1.204090
-1.005625
1.202670
-0.996653
1.198560
-0.985512
1.193758
-0.974366
1.186520
-0.960978
1.178584
-0.946243
1.167231
-0.930884
1.155861
-0.915372
1.141552
1.126611
-0.897398
1.110203
-0.879980
1.092573
-0.860481
1.072693
-0.841281
1.052745
-0.820013
1.031374
-0.799392
1.007613
-0.777961
0.984043
-0.755985
0.959560
-0.733281
0.934116
-0.710798
0.907780
-0.688376
0.880986
-0.665688
0.853187
-0.641556
0.825658
-0.619034
0.796624
-0.595250
0.768095
-0.572294
-0.550018
0.740005
-0.526585
0.710529
-0.504319
0.682686
-0.481188
0.653241
-0.459218
0.625130
-0.437568
0.595613
-0.416297
0.567760
-0.394941
0.539464
-0.374561
0.512432
-0.354874
0.485396
-0.335321
0.458606
-0.316957
0.432466
-0.299078
0.407713
-0.281278
0.382730
-0.264993
0.359087
-0.247263
0.335713
-0.231387
0.312989
-0.216561
0.291155
-0.201868
0.270438
-0.187745
0.250402
-0.174292
0.231343
-0.161748
0.212430
-0.150204
0.195224
-0.139133
0.177766
-0.126449
0.162475
-0.116858
0.147652
-0.106861
0.133618
-0.096903
0.120151
-0.088453
0.108298
-0.081001
0.095878
-0.073157
0.085093
-0.064913
0.075900
-0.057631
0.065932
-0.052919
0.057636
-0.046253
0.049729
-0.040702
0.043284
-0.036200
0.036192
-0.031235
0.030693
-0.026991
0.025380
-0.023243
0.021081
-0.019604
0.016172
-0.016975
0.013078
-0.013689
0.009519
-0.011472
0.006347
-0.009424
0.005014
-0.007221
0.003022
-0.005446
0.000960
-0.004610
-0.000207
-0.004015
-0.001019
-0.002287
-0.002548
-0.001755
-0.002534
-0.001578
-0.002240
-0.000198
-0.003243
-0.001032
-0.003161
-0.000659
-0.002079
-0.000577
-0.002520
-0.000589
-0.001875
-0.001659
-0.001715
-0.001185
-0.001471
-0.002398
-0.003837
-0.002029
-0.003501
-0.002846
-0.003862
-0.003303
-0.004503
-0.004087
-0.005351
-0.005012
-0.005784
-0.008057
-0.005310
-0.011525
-0.005274
-0.014332
-0.005023
-0.018601
-0.003312
-0.024122
-0.002070
-0.028236
0.000891
-0.034920
0.003328
-0.042829
0.006603
-0.050607
0.011295
-0.058649
0.016551
-0.069529
0.021700
-0.080214
0.029018
-0.092037
0.035844
-0.104723
0.045159
-0.117250
0.054298
-0.132827
0.065602
-0.147802
0.077913
-0.164132
0.090030
-0.180817
0.103987
-0.199044
0.120214
-0.217205
0.135487
-0.236404
0.153472
-0.256574
0.171710
-0.277528
0.190990
-0.299763
0.211758
-0.321282
0.232803
-0.344110
0.254935
-0.366728
0.278486
-0.390445
0.302434
-0.414667
0.328753
-0.438515
0.354420
-0.462677
0.380297
-0.487071
0.407437
-0.512170
0.435137
-0.535719
0.463191
-0.561337
0.492003
-0.584985
0.520072
-0.609577
0.548874
-0.632737
0.578311
-0.655809
0.606913
-0.678969
0.635472
-0.701446
0.664380
-0.722758
0.692888
-0.743676
0.720856
-0.764088
0.748798
-0.783333
0.774817
-0.801484
0.801306
-0.819541
0.827061
-0.836171
0.850749
-0.851496
0.875219
-0.865826
0.897492
-0.877990
0.918263
-0.889001
0.938437
-0.900446
0.956294
-0.909816
0.974245
-0.917915
0.989674
-0.923434
1.004534
-0.928384
1.016624
-0.932746
1.027681
-0.934169
1.036662
-0.935447
1.044630
-0.935100
1.049820
-0.932945
1.055320
-0.928932
1.057196
-0.924586
1.057998
-0.918457
1.057656
-0.911669
1.055237
-0.903045
1.051833
-0.893187
1.045404
-0.881767
1.038336
-0.869976
1.028256
-0.857217
1.018029
-0.842939
1.006119
-0.827662
0.991723
-0.812341
0.977212
-0.794308
0.961103
-0.777414
0.944490
-0.759039
0.924680
-0.740127
0.904276
-0.720304
0.884393
-0.700024
0.862149
-0.679254
0.839511
-0.658771
0.817067
-0.637564
0.791777
-0.615596
0.767518
-0.595018
0.741909
-0.573670
0.716853
-0.550994
0.690877
-0.530448
0.665076
-0.508450
0.638169
-0.486947
0.611568
-0.466069
0.585649
-0.444268
0.558852
-0.424378
0.533048
-0.403592
0.507212
-0.383591
0.481719
-0.364670
0.456192
-0.345220
0.431158
-0.326860
0.406918
-0.308016
0.383010
-0.290046
0.359698
-0.272564
0.337484
-0.255589
0.314444
-0.239955
0.294444
-0.224309
0.273491
-0.209809
0.252997
-0.195404
0.234437
-0.181525
0.215441
-0.168377
0.198217
-0.156292
0.181014
-0.144315
0.166135
-0.132866
0.150563
-0.121775
0.136321
-0.112129
0.122311
-0.102399
0.110792
-0.093277
0.099398
-0.084110
0.088765
-0.076432
0.077377
-0.068221
0.068836
-0.061495
0.059347
-0.054779
0.051374
-0.049053
0.044257
-0.043314
0.037722
-0.037833
0.030252
-0.033054
0.025912
-0.028656
0.020718
-0.024549
0.017154
-0.021105
0.013142
-0.016826
0.009991
-0.014876
0.007239
-0.013197
0.004445
-0.010130
0.002475
-0.007700
0.001267
-0.006241
-0.000733
-0.005128
-0.001339
-0.004225
-0.002403
-0.002717
-0.003454
-0.002306
-0.003751
-0.001448
-0.003528
-0.001581
-0.003092
-0.000548
-0.003922
-0.000710
-0.003460
-0.000680
-0.001669
-0.000914
-0.001765
-0.001709
-0.002040
-0.002521
-0.002551
-0.001969
-0.002259
-0.003240
-0.003623
-0.002536
-0.002368
-0.003662
-0.004012
-0.002173
-0.002010
-0.004191
-0.003611
-0.002286
-0.003914
-0.003979
-0.004928
-0.004957
-0.004471
-0.004624
-0.004955
-0.005576
-0.004790
-0.006823
-0.005362
-0.005172
-0.006728
-0.008878
-0.005793
-0.004993
-0.010631
-0.011003
-0.005457
-0.004516
-0.013522
-0.015252
-0.005287
-0.004978
-0.016888
-0.018210
-0.003470
-0.002801
-0.021349
-0.023593
-0.003416
-0.001044
-0.026662
-0.030412
-0.000409
0.001512
-0.032447
-0.035978
0.001781
0.004095
-0.039394
-0.044314
0.005040
0.007418
-0.046812
-0.052349
0.009011
0.012392
-0.056547
-0.061858
0.014229
0.018422
-0.065240
-0.072072
0.019291
0.024034
-0.075501
-0.082453
0.026919
0.030195
-0.088016
-0.095467
0.033191
0.040102
-0.100695
-0.108581
-0.119232
0.042455
0.049052
-0.114536
-0.130000
0.051755
0.058905
-0.129779
-0.145564
0.061913
0.070376
-0.146239
-0.163154
0.073532
0.082594
-0.162843
-0.179394
0.086981
0.096638
-0.179886
-0.197560
0.100072
0.111342
-0.197681
-0.216599
0.115455
0.126526
-0.215976
-0.236227
0.131252
0.144502
-0.235975
-0.256770
0.149611
0.161388
-0.257174
-0.277886
0.167041
0.181148
-0.277818
-0.299387
0.202909
0.186720
0.221032
-0.299888
-0.322220
0.212120
0.236063
-0.321724
-0.345600
0.233433
0.259949
-0.344366
-0.369422
0.257124
0.284519
-0.367983
-0.393111
0.281198
0.309460
-0.391359
-0.418039
0.306448
0.335223
-0.416404
-0.442539
0.331016
0.362503
-0.440342
-0.468051
0.357882
0.390279
-0.464841
-0.493796
0.385267
0.417914
-0.490321
-0.519254
0.412409
0.446821
-0.515315
-0.545539
0.440276
0.476359
-0.541595
-0.571125
0.469739
0.506010
-0.567215
-0.596771
0.498341
0.536432
-0.591557
-0.622434
0.528087
0.566880
-0.616629
-0.648402
0.557305
0.597558
-0.641304
-0.673532
-0.695808
0.587362
0.627563
-0.671679
-0.711229
0.616680
0.658412
-0.692971
-0.735578
0.647091
0.689804
-0.718029
-0.758029
0.677328
0.719949
-0.740518
-0.781161
0.706218
0.750463
-0.761500
-0.803360
0.736836
0.779970
-0.782945
-0.823846
0.764015
0.809649
-0.803191
-0.843777
0.791646
0.837548
-0.822626
-0.863195
0.820567
0.866332
-0.840835
-0.881187
0.846680
0.894501
-0.858271
-0.898892
0.870838
0.919542
0.948446
-0.873815
-0.914120
0.906925
0.960976
-0.889230
-0.928511
0.925051
0.985458
-0.903359
-0.941539
0.949490
1.006215
-0.916085
-0.954408
0.969981
1.027055
-0.925997
-0.964482
0.990699
1.046378
-0.936207
-0.974502
1.008827
1.064667
-0.945669
-0.982439
1.026331
1.081144
-0.952782
-0.989000
1.042641
1.096898
-0.958536
-0.994722
1.056108
1.109802
-0.963479
-0.997630
1.068331
1.120990
-0.966198
-1.000705
1.077939
1.131133
-0.967479
-1.000551
1.086885
1.138907
-0.967641
-0.999766
1.094176
1.145600
-0.965915
-0.998761
1.099746
1.149833
-0.964304
-0.996892
1.103921
1.152507
-0.959325
-0.990907
-0.990339
1.104108
1.152719
-0.955486
-0.981298
1.104977
1.153237
-0.945821
-0.972339
1.103098
1.151141
-0.937410
-0.961562
1.099830
1.146084
-0.926421
-0.950629
1.094937
1.139738
-0.916682
-0.938098
1.088239
1.132599
-0.904267
-0.924949
1.080378
1.123311
-0.890667
-0.911317
1.068882
1.111628
-0.877055
-0.895381
1.057364
1.100219
-0.861254
-0.879898
1.041968
1.084545
1.080931
-0.845864
-0.862186
1.034413
1.059378
-0.828200
-0.844822
1.007419
1.042338
-0.810480
-0.825824
0.992571
1.021759
-0.792213
-0.806671
0.972726
1.001751
-0.772478
-0.786120
0.952726
0.979461
-0.752548
-0.765951
0.930417
0.957545
-0.732355
-0.744407
0.908940
0.934465
-0.711244
-0.722785
0.885097
0.909314
-0.690223
-0.700146
0.861729
0.883705
-0.668481
-0.678088
0.837380
0.858900
-0.646709
-0.656637
0.812079
0.833041
-0.625757
-0.633475
0.786499
0.806042
-0.601907
-0.610343
0.759949
0.778846
-0.579285
-0.587738
0.733843
0.751103
-0.557335
-0.564999
0.706895
0.723377
-0.534098
-0.542326
-0.527520
0.680098
0.694423
-0.512508
-0.506448
0.651982
0.668284
-0.486371
-0.484648
0.625898
0.638793
-0.464437
-0.462615
0.597384
0.611368
-0.443064
-0.440500
0.570203
0.583112
-0.422570
-0.419148
0.544274
0.555112
-0.401810
-0.399293
0.517324
0.528885
-0.381281
-0.377905
0.490450
0.501091
-0.361880
-0.358263
0.464812
0.474352
-0.340992
-0.339124
0.439204
0.448818
-0.323827
-0.320773
0.412539
0.422955
0.406114
-0.304791
-0.301953
0.389252
0.383430
-0.287332
-0.283824
0.360816
0.359534
-0.270382
-0.267031
0.336617
0.336321
-0.254074
-0.249992
0.314740
0.313561
-0.237810
-0.234581
0.292566
0.291204
-0.221802
-0.218626
0.273094
0.270661
-0.206384
-0.204972
0.252068
0.250671
-0.192729
-0.190698
0.233282
0.231928
-0.179435
-0.177020
0.214615
0.214028
-0.165799
-0.164373
0.196712
0.196627
-0.153576
-0.151949
0.179945
0.179137
-0.142339
-0.140189
0.164380
0.163980
-0.130773
-0.128072
0.149572
0.148727
-0.119440
-0.117985
0.136087
0.134964
-0.109284
-0.108761
-0.101291
0.122131
0.122028
-0.099081
-0.093243
0.109546
0.107963
-0.088784
-0.085112
0.097475
0.097294
-0.080537
-0.076125
0.085791
0.086546
-0.072054
-0.068531
0.076910
0.076251
-0.064987
-0.062016
0.068403
0.066465
-0.057731
-0.055730
0.059018
0.058496
-0.052240
-0.049438
0.050845
0.049632
-0.046436
-0.042536
0.043510
0.043576
-0.040765
-0.038605
0.037475
0.037021
-0.036217
-0.034365
0.030222
0.030458
-0.031166
-0.029220
0.024791
0.026750
-0.027043
-0.025075
0.020062
0.021931
-0.022728
-0.020727
0.014993
0.017554
-0.019902
-0.018566
0.011130
0.014244
-0.017154
-0.015460
0.008221
0.010738
-0.013438
-0.012871
0.005520
0.007832
-0.011249
-0.010298
0.004284
0.005017
-0.009115
-0.009267
0.001407
0.002930
-0.007107
-0.006867
0.000373
0.001584
-0.005878
-0.004547
-0.000639
0.000335
-0.004965
-0.003909
-0.001334
-0.000711
-0.003672
-0.002751
-0.001763
-0.001826
-0.001931
-0.002586
-0.002882
-0.002394
-0.001947
-0.001482
-0.003294
-0.002711
-0.001496
-0.001850
-0.002613
-0.002833
-0.000807
-0.000463
-0.002553
-0.002383
-0.001677
-0.000473
-0.002801
-0.002834
-0.000940
-0.001130
-0.002662
-0.002345
-0.001545
-0.000724
-0.002504
-0.002581
-0.001492
-0.001528
-0.002652
-0.001605
-0.001886
-0.002158
-0.001461
-0.002391
-0.001672
SCALARS stress_1 float
LOOKUP_TABLE default
1854.518162
53.392439
-1547.815774
1386.071577
3560.674901
840.752680
4010.081979
2632.127675
1498.707859
-1637.184668
2472.196563
1221.707134
-2288.566579
-3652.091149
1435.535851
-4448.539912
780.241060
-218.810496
-307.016820
-754.640107
5213.236628
2874.273651
3629.132798
-1800.635089
5020.146106
1776.330598
5966.973815
2469.170712
6725.353134
6465.582179
10289.192270
3383.735999
10059.491562
6083.197700
8820.251010
1827.967284
8813.247427
5185.307203
12788.178415
6545.822931
15174.386315
15489.568730
11772.514128
24663.633868
8337.512190
22376.318936
9923.250912
23423.058068
12824.467162
30651.325677
13505.292335
36367.292765
18022.765699
36671.393804
17634.413178
40843.366000
18429.011243
47301.117562
22491.519953
52039.951227
29275.281648
53646.906937
23564.690516
33181.220295
64313.984694
29229.133779
71428.224440
29712.641571
79439.665780
33857.269597
83271.480054
38247.794330
90475.667262
33225.175827
96546.438688
36770.756427
101986.662596
41766.969926
110866.813063
41628.553191
115810.758692
42323.637618
127412.276296
41141.262475
134318.102743
41928.164629
142240.106636
41193.949214
152354.933053
42788.010758
156015.582333
38113.428132
163006.962346
173317.376166
41858.201334
180960.428926
40344.501368
187839.726439
39263.893760
193616.742441
34257.286382
200499.214140
31340.679233
202651.352141
29834.980182
209570.156784
29207.623363
210432.535937
22836.911172
218218.792677
19280.317346
217950.532136
19403.881492
222813.531127
12508.432268
9756.917149
225742.526518
3250.033400
222273.386914
-310.745244
218286.757391
-2715.116383
223069.374817
-2985.171811
218570.581534
-9209.911865
215999.509278
-15995.428337
212454.974125
-19588.681962
209696.976076
-21941.672738
203247.554736
-25937.058326
197469.881445
-29748.536327
186836.732677
-37554.633005
182772.108430
-36918.782493
169412.785179
-39782.037314
161698.065659
-41607.134339
151549.858080
-43007.126092
139877.636179
125995.570956
-47529.315310
113172.096883
-46264.228256
101530.161434
-47641.956721
83378.330477
-49584.895571
69962.077749
-50717.044807
55699.311458
-48165.759352
43216.334003
-49000.736807
22151.619459
-41343.503097
9595.470223
-41191.755825
-9595.468627
-37359.586782
-34665.522231
-27421.197092
-33664.996304
-42156.110038
-29723.061527
-62166.299256
-23859.283429
-72238.291010
-16855.491008
-86287.388034
-10554.210527
-104638.642856
-7497.533778
-119330.792343
-10.158025
-136672.889021
8012.693206
-148644.367023
8379.019915
-156223.752610
21929.598575
-170640.743387
24227.600527
-181177.997011
33387.065374
-191771.513484
43679.993117
-203020.253538
49421.199834
-214202.308965
56699.817261
-217886.680105
-227399.458748
64905.187738
-228722.342498
73020.048133
-240945.857617
77325.043524
-243009.306840
89612.042515
-242597.742695
93887.781975
-244298.336520
101322.038714
-250029.048711
106792.417868
-244928.405531
113839.222510
-244354.104581
122039.360512
-245830.711731
119993.832210
-241493.319109
126250.848212
-237901.926716
130698.145725
-232439.626683
131013.198486
-223894.853480
136843.612306
-223545.436107
142650.992318
-215775.374563
139335.641598
-207069.589978
143146.468015
-196522.687824
146908.471909
-192393.062967
145782.298355
-187025.978539
144839.815959
-174876.395274
144023.761588
-161016.181776
144359.912055
-157502.601175
138632.135963
-146013.219679
141790.907389
-135798.694946
138083.094598
-124550.066920
130842.908872
-119202.559127
129574.350212
-111026.645644
125712.589958
-103906.115865
118139.667714
-90000.706996
116930.623424
-82896.945302
112805.457089
-75026.436592
105375.208651
-69335.838526
99019.180848
-58972.191048
98587.281886
-56630.717684
90767.248975
-50317.892510
86507.516584
-45656.676261
76930.255715
-39366.937539
75378.940784
-35249.939476
65129.005922
-32455.248280
58468.188336
-26646.732552
60086.396236
-22489.392633
49277.327224
-18648.623049
44278.323641
-14413.161347
45343.083090
-13463.007527
34937.382382
-12186.596061
31077.221518
-11717.755947
25691.600836
-8556.790259
24558.428546
-2927.698999
18461.441854
-4706.785241
15917.338024
-2554.614853
13437.591471
-5588.885436
8126.333592
-1265.334200
7727.038801
-4795.132483
8219.141230
-7696.240680
1474.378088
-1520.133207
4546.446977
-3103.507328
129.821972
-4862.100249
480.503074
-265.609574
268.056489
-6476.418784
-1497.485068
773.515734
859.777354
4106.933201
-168.517895
1555.702220
755.155106
1821.520394
-1715.598507
1870.861799
-3672.081472
588.160906
-190.465467
848.720451
196.683641
1312.712114
-2419.068620
3696.701761
-302.853985
6683.992129
817.590339
3821.491764
5833.829881
7321.766536
1756.167037
12811.987782
2744.733205
8029.155843
2838.396649
10687.178927
1173.420161
14689.925637
5848.106139
13893.133181
4905.888716
18995.972899
6205.201686
21362.879261
4694.742311
25779.760477
8068.247122
26479.616886
7868.584384
25379.790827
10811.319625
34788.848170
14007.321111
37117.697460
16524.154370
45097.641434
19943.293139
46195.851433
17465.131608
50258.932928
19519.012117
62054.623127
22217.328855
63418.093370
22117.555559
67551.251865
25523.955023
76997.967215
26120.737851
80132.844894
29309.429968
88667.622109
32646.241980
95484.207068
35043.436679
100577.902507
30983.185067
108558.485239
35112.355407
118774.521130
34265.118702
120839.221127
40176.343217
131351.190700
38555.765480
141553.601191
34486.688229
144557.058071
34890.150729
155092.732680
38625.587112
162070.098755
35071.299777
166752.762108
39024.762460
174898.327872
34828.843426
181050.401858
32986.279545
184582.457803
33851.373212
190710.232916
31010.295430
197693.937801
28764.519935
204694.572798
28096.914993
205556.348512
21601.651605
209815.002151
23018.163902
215680.573319
21658.096624
214791.667489
15852.752506
219758.324266
12585.131211
219467.149123
7308.575077
217867.353003
4857.386504
217274.370039
-1550.394904
214832.845308
-2648.598146
210634.081547
-855.749485
209047.986964
-7621.112052
206024.035296
-8766.383450
198192.832015
-9862.221338
196377.113991
-15242.454715
186162.789431
-19503.780844
179327.897941
-20694.554987
172909.913257
-22419.343013
161747.440853
-17994.842183
151762.520332
-25165.539158
137126.454432
-21871.999804
130206.756493
-24400.184516
118726.860649
-23984.488160
102789.240976
-23807.002530
91447.502606
-20500.990754
75663.553749
-21988.979098
60159.565406
-18284.927955
49257.577181
-15226.666324
34971.062812
-15452.285998
17146.759167
-11284.181842
4282.574455
-11035.879780
-11815.886191
696.054319
-27434.583165
439.133798
-37602.082336
7260.661394
-53790.870361
9194.676711
-68357.644505
17527.785220
-81322.970634
21137.460661
-90383.204011
27513.742636
-101847.041898
37026.539356
-112400.313296
40658.587688
-122365.675864
51616.493105
-134908.827203
59673.729344
-146535.030445
65104.204613
-155758.811853
65151.221649
-161730.000426
73951.425529
-171518.556559
84092.250385
-176738.177855
88834.907162
-177391.521972
95178.001332
-181087.589251
98163.572501
-185015.076953
103798.226140
-191254.340342
109460.001854
-190513.945284
117388.636851
-192407.720778
114868.341736
-189584.798561
125380.116848
-188783.704893
128560.172794
-185634.268775
130136.246780
-182982.187809
131529.812544
-177972.725125
136532.475897
-177239.012461
139221.841972
-168191.576077
142077.516581
-162668.113577
138936.973461
-158097.190829
139091.383951
-149797.768565
144451.353525
-144462.544051
141748.053521
-140413.780756
136636.089413
-129596.610415
133032.672145
-122936.862028
130446.367584
-117243.667329
126126.952543
-111666.855317
131525.729757
-96734.163200
126884.607436
-95689.380371
121675.322787
-88506.980908
118064.481282
-83134.754203
112995.951524
-73908.437465
105047.641723
-68046.556956
100918.723218
-60956.718488
96256.933217
-57889.579718
90924.877192
-49324.746459
80965.726482
-44272.744973
77798.783824
-37874.009732
75994.957766
-32953.672470
68662.814174
-29196.167659
61847.695390
-27442.627034
59094.601753
-20223.314065
52581.441471
-17677.531488
47592.649014
-16010.845509
42315.395725
-12299.821997
37805.418808
-13870.158553
33534.586869
-11345.592386
28656.808116
-6719.255229
25213.082887
-10311.015688
22446.582523
-3878.571364
22553.872891
-4162.356729
13417.862538
-2298.108989
12473.854200
-7414.959882
7742.413746
-6237.343876
4219.712853
-4417.826841
4749.054257
-904.580455
3990.872431
-2700.907453
191.641450
-4273.202703
4069.058917
-1115.940280
341.182213
-137.006564
-1443.144053
91.903350
1196.119199
-1735.154022
-3049.493265
1649.470355
-2739.498726
-2757.038682
-640.871350
-1285.310376
1583.955983
-1557.077970
725.189788
-1265.369513
403.394565
119.207690
-212.051911
167.070993
4471.120587
4053.039202
2079.537620
2484.356813
-2157.431949
4930.300893
-1469.360372
-2952.141829
-118.868703
3899.861941
-805.740349
2810.200009
3099.258056
89.343467
-2826.430671
-1713.439087
5908.119669
1532.495069
-202.125168
3505.585299
4890.623327
5306.624125
617.277281
269.826453
4388.786181
2541.084477
1549.694235
2433.274504
4801.706847
3803.352748
3212.098954
-2413.345530
6401.296258
4671.376631
1866.362825
906.044152
8888.386100
10334.069069
-98.527263
3067.113956
12091.604471
11154.250555
1350.538822
2588.363522
13538.140385
6044.927910
4898.053058
6302.059812
14540.553939
10926.958172
6021.387832
3642.456653
16735.046043
14594.915166
2190.842674
4272.240585
16636.073794
14982.061229
4930.278853
6487.671187
18768.805549
21232.350812
13574.741562
3538.548160
7929.555674
20570.591436
25507.718270
10401.952994
4566.573323
26473.229331
21245.412871
11180.058881
14505.069681
27383.471890
28106.603524
10560.997220
14804.675724
32882.458539
34244.893761
17569.386064
11809.827278
40617.799845
36654.106499
15451.780557
15164.902057
38878.306126
40216.366131
19227.862002
16914.106951
43555.697162
46004.901831
19361.971047
21205.665420
45012.827960
49175.166067
19793.428256
20976.836935
55886.175132
56199.409725
23605.360118
24086.885248
61515.814169
63725.591169
30002.512815
23844.194984
29822.512589
66133.826140
64356.920665
27831.693398
28744.165817
73983.525182
74893.768089
32230.088058
30456.810719
76731.546153
80558.777842
27656.954124
32911.103536
83057.491146
85059.408368
34207.649316
34155.721763
93480.730202
96050.532345
30849.878656
38569.193870
99976.185129
98956.949361
33216.094289
38164.281558
104369.896034
104545.675393
35621.666602
37319.700250
112121.362496
117695.420792
37709.605806
38565.133786
120342.781863
120433.001635
36939.705014
37604.609189
125456.627705
131344.517553
40446.619521
40897.491426
133154.650994
139823.362515
41305.494652
42993.845770
143083.599999
145919.000268
35289.502425
38745.085760
150599.781513
154836.566611
39323.104334
41691.230634
157271.042593
161313.402588
41181.481764
36104.811903
164148.530008
167206.802013
173300.862061
41603.477815
36791.091342
170631.491816
179584.836709
34365.223886
37935.726271
176800.453338
183994.492110
35768.193711
33494.795901
187814.305535
189557.195916
35654.558294
32105.379779
189092.963582
195271.983949
33501.238762
35905.821941
197680.085275
202466.307062
30801.897006
28991.151836
205446.358408
210179.177325
23706.693532
27349.591920
204507.746417
209929.033100
23984.318270
25155.213444
215178.145102
219393.148067
21488.235259
22400.228873
218647.303401
218545.300396
20204.187165
15534.364133
220351.512486
219272.696286
18151.630855
13563.109308
8006.041175
216932.177779
222712.144151
12688.919731
10548.842017
220110.958114
222026.786102
10652.005468
5166.609168
217184.222358
221985.132605
3994.972545
-2645.848406
218237.258112
221504.096099
1025.327780
-5687.185471
217203.270028
215847.983221
-4805.247756
-11689.114520
215102.725389
217171.468315
-6670.986391
-11805.002554
217057.230180
209391.373054
-8371.760693
-12116.855671
209688.048887
205074.132587
-12269.050479
-16265.400072
204842.088703
198368.740981
-17246.964188
-24303.968849
196910.310361
192238.786005
-17649.785208
-24765.503780
186382.618856
183565.128976
-21282.500618
-28411.290048
182133.641050
180949.217459
-25006.623083
-30582.815501
174703.401413
167485.036107
-24581.928232
-32645.482002
163261.878571
156808.081843
-27391.995862
-34159.892430
153555.643135
147717.591610
-26650.830717
-38920.916966
142600.086682
133461.430877
125558.106763
-31433.684196
-38687.603336
127923.918523
114627.870962
-30255.820668
-41673.786015
114061.732356
101946.341551
-30172.968651
-42377.704665
104477.262739
89366.459551
-32943.255089
-40152.374743
87396.678558
69607.592157
-31837.906779
-39573.703276
75203.824597
55289.509367
-29885.859969
-37878.459962
58685.881838
44108.515556
-30254.063991
-34359.964980
46248.048819
28120.319262
-23340.489579
-35500.440218
29621.813771
9436.409010
-22205.981630
-30435.325945
17450.416137
-2899.271663
-21853.386101
-27418.634476
-29141.373866
-1757.368407
-15865.019871
-20661.482467
-19907.220122
-17162.967389
-34687.914988
-11242.529740
-14207.124893
-28756.538553
-53048.861670
-6480.610606
-14889.651848
-45732.186949
-63428.912093
-6501.922651
-8280.642502
-58070.388686
-80308.334473
-107.425805
-3849.653366
-71219.380038
-95541.500772
4536.365024
2758.563299
-90367.410033
-108379.800218
12949.515730
6901.577867
-99758.256162
-123688.839801
17233.171309
19275.396315
-110260.654615
-135265.875374
27555.236580
19575.283810
-122504.144576
-148921.817690
31347.421729
32233.727008
-133808.188556
-161433.333374
38606.845231
37911.306897
-150405.432135
-172576.040197
46300.521362
47719.041020
-159435.402474
-181784.754236
51317.791107
53471.093045
-167683.083227
-188008.679449
60623.420392
61179.136088
-173291.501077
-195194.478220
67367.077084
66329.037570
-183881.427099
-204988.005754
-211815.207293
74255.920620
73072.994839
-192048.834622
-216263.439465
85872.425077
81353.744763
-196680.643279
-219382.578783
92746.630057
87255.497947
-200037.938893
-223633.189513
91813.272432
91609.991600
-202553.656038
-226309.216564
101243.392143
101944.225383
-201733.743619
-228357.935010
111579.684422
110127.989366
-202863.422972
-228417.447483
111537.271983
115267.863355
-208494.584808
-224427.379537
114620.729542
116849.948840
-206067.637426
-227550.990066
121443.108615
120146.365815
-209282.797861
-219183.697019
125260.953624
127753.916613
-204863.867411
-218394.535598
126877.610813
128413.005223
131377.910284
-196793.463453
-216865.900669
134387.481805
133688.188328
-195003.020119
-208954.358098
138835.653047
137657.319329
-192737.616958
-206335.766446
139690.355472
139796.308578
-183344.529682
-203998.472685
141820.071388
146297.758644
-182704.256855
-192144.928943
138424.222665
143243.328414
-172071.998194
-189441.625769
137612.728509
145307.803673
-169066.542754
-178532.032504
142901.342152
142194.417142
-160328.114401
-175014.966583
143424.244585
141393.165086
-158034.621343
-161289.625516
143725.039973
145408.711610
-153002.696754
-155796.893365
141018.965897
136347.556457
-141060.011542
-147263.900179
138711.651299
139661.040786
-132286.411758
-142808.215434
132972.212797
133648.113584
-123926.326395
-133927.956030
132726.888192
132752.762790
-116574.729449
-123722.393212
133053.413319
128636.373950
-107051.196065
-110900.082757
-109829.720675
124872.314460
122385.088119
-101420.300132
-101188.144916
123057.751213
120251.577051
-87357.128602
-91849.854002
114327.065921
113709.455419
-83277.520980
-85424.089927
111181.087242
112513.948611
-75466.946925
-77214.853140
103119.117915
105236.359361
-67505.770164
-68567.986458
102514.341859
101636.146966
-61364.563064
-66697.875957
97553.876370
93780.339970
-52073.032368
-55464.867805
94606.803862
89208.592652
-50002.732202
-52677.434046
84488.615627
84715.095354
-42304.264827
-48036.380785
80900.236456
77807.047188
-40966.984486
-39743.095371
74533.621318
71901.584056
-34440.049938
-36795.603142
69707.519011
73291.717371
-29778.171029
-31242.453491
59684.989068
58850.514774
-25696.124909
-28254.758238
53352.059784
59636.984962
-23148.688730
-26459.067452
48162.196313
54342.826256
-20092.559755
-17833.656510
49111.794310
47642.675662
-15840.857816
-13905.833219
44708.014410
42448.845104
-14924.619641
-16766.259708
32369.180612
38997.511232
-12064.215610
-13257.589167
32692.598536
34931.690685
-11732.908856
-7857.859342
22928.122849
31461.031085
-8272.725723
-8349.081963
23134.963818
28430.555728
-3499.245504
-8363.054959
20915.647706
23348.699086
-5391.097322
-8080.142382
16886.780662
21874.763391
-5204.957501
-1718.775316
18317.770978
13846.238002
-2584.361331
-3848.718165
10619.724044
13907.177816
-3295.119984
-8153.394668
7327.836866
9858.538321
-6474.790288
-5155.703418
8074.610718
3900.284308
-1888.366360
-4275.486808
5564.045600
4570.033161
-2869.057016
-3101.853823
4045.049381
3630.219178
-2691.175361
-1806.139028
1295.885531
440.579568
-2263.401446
-4474.672813
-1464.525497
-843.010228
573.984587
-1107.463947
719.418270
515.678302
-2181.332639
SCALARS stress_2 float
LOOKUP_TABLE default
7129.627631
70916.095334
76447.208888
-3710.211778
62425.106107
6416.495700
55054.514248
105747.832943
110963.072414
158851.336645
154891.799951
144914.241954
182239.988730
182040.900425
341084.760179
163918.395116
455429.558256
219294.069036
604139.595995
126724.478226
789525.761314
108725.261787
1015362.332233
4161.632753
1292024.196669
-97352.639801
1600484.419611
-178025.555875
1948938.445016
-341523.346393
2346211.077924
-579024.650276
2782605.614246
-792145.976468
3230090.053984
-1073175.324970
3786898.924155
-1419587.435652
4320372.585659
-1795376.438488
4948537.056569
5602732.697783
-2220925.629389
6315208.314341
-2672876.730335
7055503.350202
-3180555.824204
7864083.018399
-3778934.762948
8695002.206851
-4387183.268548
9643866.276637
-5070557.553854
10625859.736705
-5841705.210873
11542554.031011
-6591287.008497
12567637.964597
-7463773.325698
13629514.472475
-8339602.144403
14699853.933618
-9325594.630549
-10331822.488044
15842400.348024
-11415377.160845
17018072.094667
-12509654.204811
18169580.256607
-13712549.211949
19445937.490835
-14913314.951151
20710439.797353
-16141733.801389
21966138.212124
-17492515.744590
23260299.161217
-18799402.863631
24617218.236637
-20176215.010466
25953377.160364
-21624041.907073
27293922.459416
-23095883.766305
28618858.281841
-24603288.440114
29973050.349618
-26042697.354386
31327407.615833
-27578628.379147
32688617.376399
-29101690.644188
34017601.140444
35360681.138892
-30642732.149510
36681895.945857
-32212387.534031
37980162.727279
-33778833.306697
39273601.779252
-35318811.958380
40478632.545733
-36876355.489081
41689507.470864
-38393262.389670
42848273.850558
-39935307.447115
44014285.193941
-41445991.022315
45089863.731939
-42850360.819174
46133256.038666
-44279305.754632
47159112.641142
-45709934.485683
-47084886.420138
48093805.687413
-48343700.493011
48977848.899460
-49612768.408207
49812487.230368
-50839942.526624
50589756.828184
-51974670.043224
51342691.710982
-53016470.253918
51971801.452695
-54059046.353666
52538096.367490
-54996774.555320
53053352.455367
-55861142.858879
53503288.799386
-56643437.246271
53824054.056540
-57372278.078394
54139067.457936
-57967081.059153
54368201.003574
-58547031.401583
54539257.924562
-58984880.513496
54573857.155912
-59389784.542938
54619191.502664
-59622974.897722
54499845.260913
54348415.791738
-59777206.512860
54124631.604087
-59950583.092258
53826461.290146
-59958535.830878
53466431.636883
-59874018.154603
53059078.940390
-59691270.063435
52537196.005709
-59467414.604286
51997090.471939
-59141856.138056
51350545.931088
-58715131.072737
50637678.022256
-58219955.769230
49909267.698530
-57666833.422493
-56984267.736434
49121282.959911
-56254707.924085
48267074.380512
-55445881.393260
47372746.765374
-54580395.635011
46409828.410591
-53644949.288259
45425596.381149
-52648302.056909
44414435.269236
-51585981.135921
43369588.926806
-50454319.590283
42261761.946047
-49319850.188887
41141625.113924
-48066604.931733
39971362.726532
-46884764.587714
38826162.422972
-45606116.499837
37659954.221319
-44245453.585042
36454306.121571
-42897751.843330
35263897.910877
-41544496.960531
34020626.394277
-40133115.362715
32788332.275860
31565600.360664
-38748333.031807
30340962.287791
-37365857.819761
29122298.353336
-35900348.773489
27944597.622285
-34527740.171013
26706244.686827
-33058619.864286
25552114.889967
-31637953.326288
24360791.314768
-30186885.982905
23251258.257323
-28793239.603212
22127823.356733
-27425820.678080
20996007.826033
-26039669.911599
19887645.174350
-24707702.859627
18841647.401684
-23408028.078204
17819064.017163
-22091037.271239
16823558.511841
-20818357.272791
15842192.246800
-19576797.508746
14843093.222039
-18361251.748180
13940900.307767
-17221806.481965
13011031.633958
-16048862.414188
12184437.774726
-14951766.591763
11364962.878119
-13884501.292711
10580790.731284
-12904438.368984
9832495.612243
-11893887.293564
9112753.669042
-10954798.344471
8386606.818804
-10084763.929700
7692209.079602
-9209893.623182
7095778.072464
-8425952.388954
6499293.028498
-7693900.227014
5961402.355697
-6911444.480371
5408422.498202
-6282690.065965
4893726.012055
-5667518.604822
4470377.193351
-5084362.096944
3982146.876150
-4487950.163359
3507509.078526
-3985207.869052
3125993.421507
-3506510.408984
2820219.136201
-3069774.339198
2487298.630601
-2668679.150746
2157591.691856
-2334723.482549
1900024.597988
-1959356.446688
1600137.497042
-1656736.830130
1355196.306141
-1394349.188916
1160015.303305
-1158248.718006
995747.192623
-938887.056502
794717.844121
-750590.186331
654812.517929
-601217.746593
535711.214046
-436439.210271
363125.423527
-343934.577363
263124.507454
-221400.551958
218314.234900
-133484.329016
127574.605866
-126006.464580
110727.389427
-76169.893661
19181.798617
-14175.728342
21181.472537
1414.309397
11634.967228
27183.107474
-36742.374301
69931.878923
-19319.468992
67584.067702
-61031.204761
37240.034710
-18434.646595
13563.371953
1202.761546
8714.079431
-3091.341235
-3149.759978
57.802500
64707.324977
57620.955419
57698.834434
77592.998050
112406.262809
112135.652373
114934.018094
182957.279287
126472.674405
221553.470796
178171.296728
331524.735847
149145.932160
467770.009452
185717.793733
639557.244517
104030.372503
853525.228007
94966.094536
1089148.894936
32441.515875
1351828.346255
-111367.872427
1648330.368930
-265370.431267
2005555.619953
-382783.882626
2409199.395237
-550357.800436
2853750.499821
-824543.628655
3325578.655685
-1092777.728182
3851055.306787
-1362466.885984
4416889.110120
-1738201.184937
5075096.574629
-2231583.560056
5767046.505355
-2663217.159205
6406498.198208
-3164011.556316
7157557.671263
-3732607.260335
7993071.711485
-4292169.845195
8777128.419827
-4952059.819841
9711538.731300
-5724492.888178
10632995.302898
-6480258.216146
11618592.004647
-7304849.785670
12582060.280507
-8187072.762689
13651804.787468
-9106374.851108
14704170.330572
-10104615.494887
15781846.631798
-11108918.249884
16973703.561171
-12164442.708106
18152896.562652
-13311336.425410
19320698.441279
-14454626.845757
20494216.132065
-15687508.608064
21755428.162030
-16914075.286265
22977597.318140
-18206913.519278
24212895.340448
-19521956.881036
25485808.098980
-20861952.519404
26743364.250729
-22204289.499368
28011329.665721
-23585680.033780
29288061.000949
-25008154.909606
30546238.552506
-26386286.487745
31803211.486332
-27847362.472102
33027370.376540
-29230196.436610
34207648.389070
-30708128.233222
35398389.820014
-32067346.222836
36604078.113332
-33443669.044372
37684085.713165
-34865184.401735
38814187.915424
-36235473.868858
39824061.164252
-37568628.084660
40862700.903605
-38873717.836107
41860402.216546
-40162585.466024
42781106.973100
-41427084.039399
43660326.256327
-42609004.852142
44482481.936254
-43738545.886180
45237537.752933
-44833319.502412
45939974.919400
-45884822.617778
46575038.388739
-46837257.871196
47194651.095965
-47770040.966573
47685909.846117
-48581311.755862
48085366.935289
-49362538.599961
48534884.233508
-50077487.480796
48779457.888820
-50700569.037288
49071112.706266
-51269460.334421
49183983.768905
-51729443.715023
49289791.372831
-52112117.966059
49282845.388072
-52430712.152515
49270080.897687
-52576554.895237
49122684.836689
-52731644.981192
48932432.584233
-52781239.327319
48670925.353353
-52774995.359504
48329690.736054
-52630104.272707
48007423.306451
-52412385.918881
47510579.869584
-52167336.001931
46971373.786533
-51812851.438798
46399076.140360
-51352014.868401
45763167.227157
-50850497.485700
45051075.194972
-50238916.716580
44307592.848845
-49582832.969036
43512630.762890
-48834485.030034
42642308.020168
-48095505.520419
41790337.833711
-47224371.505178
40813359.582676
-46288099.901252
39925344.202074
-45305468.838613
38900132.904940
-44300598.021167
37873723.348449
-43247448.365855
36862198.467614
-42113259.067636
35757131.623515
-40967049.978464
34700740.834226
-39776143.228312
33512725.738849
-38540594.521086
32435746.485431
-37319803.051747
31329075.370065
-36012181.885281
30144957.753833
-34792102.068601
28982264.719795
-33507866.388674
27861271.907052
-32195239.105447
26741157.333677
-30866342.348893
25587329.703760
-29578721.035953
24454911.952313
-28259505.296599
23401309.736511
-27018080.047772
22246828.269388
-25682665.845512
21177952.912025
-24438818.245679
20155166.090489
-23122665.952361
19077932.100875
-21911828.521417
18085120.304263
-20660638.508887
17053518.339755
-19499839.618679
16090234.355398
-18355378.684853
15140390.777259
-17206257.133296
14213275.901433
-16108853.798068
13360269.367021
-15020856.383076
12494988.387057
-13953380.231327
11637680.748689
-12994451.472795
10841933.386931
-12021809.450488
10095143.153918
-11106328.294378
9359584.475717
-10223868.264412
8652014.713410
-9321710.573626
7968884.293063
-8566196.694999
7295334.575759
-7775483.693519
6714562.117537
-7012170.764145
6147507.362540
-6386974.462919
5608146.718761
-5726928.919815
5086156.630342
-5159584.412854
4542237.653323
-4560276.136994
4101262.083799
-4053783.435245
3674712.755831
-3610150.863647
3258119.687494
-3134236.552174
2912725.712848
-2728803.843833
2578699.127988
-2355625.803610
2238455.423969
-1992150.330555
1976381.026858
-1690234.637702
1684651.427709
-1440652.706977
1400421.052590
-1146605.242467
1217198.753636
-966435.439134
987317.595835
-773374.788032
805355.496308
-533994.632168
706657.668089
-444899.527584
569419.750279
-330279.752300
419878.298920
-170942.501277
327187.740079
-123400.478602
256210.351778
-115313.027283
138901.773116
-14089.360354
81325.495150
5190.623136
63510.073920
75089.858201
28785.935493
61191.131806
-11503.429076
92698.396857
-10236.806752
51166.588366
-39530.150441
61700.215279
-6538.395156
67442.869602
-22102.966781
37366.912234
6856.542676
1927.772319
51410.065153
52219.852006
21654.752865
24681.844476
52511.585668
-721.438975
14389.568083
74877.348074
109114.783006
65367.481231
44246.416483
35805.664331
80613.507134
141671.315094
76616.540692
112796.737597
124197.703364
137448.300964
170194.989604
113177.395983
156066.415065
184934.258711
164982.986753
206874.028903
220041.627560
175541.938643
199331.836926
294054.771694
362123.077899
185934.535733
182491.078037
388295.753965
500095.852049
159998.941895
174993.050417
574097.632709
678196.119984
159867.622186
155236.639224
757407.325229
898805.046500
102376.802064
110891.602584
999664.224200
1132532.186774
49902.611322
-69816.721048
1270416.522923
1422275.983125
17018.949601
-94123.278589
1512307.917627
1755991.886775
-155810.227879
-270670.429617
1881630.628682
2090974.583580
-340977.548693
-441539.646386
2200125.995430
2518977.496510
-513342.758543
-626750.379296
2668245.404327
2972293.623903
-757840.414976
-906254.608385
3144511.349892
3447729.546635
-977125.568335
-1204276.726350
3652697.393649
3951443.374624
-1300500.201847
-1529904.700504
4262235.513861
4569995.931122
-1640718.666715
-1938287.154994
4802772.308314
5231936.061693
5792424.722304
-2096115.337722
-2358238.811411
5619392.879836
6345874.510861
-2502798.575766
-2849503.844299
6270379.116095
7060568.912356
-2987408.889794
-3378687.317346
7101688.701338
7898832.569192
-3538748.001783
-3938374.006934
7908070.053339
8692895.226959
-4132049.012869
-4607494.220469
8803051.022290
9610908.722061
-4844046.168384
-5249733.924742
9652443.382682
10543666.293299
-5539864.129351
-6020528.668693
10598191.493889
11533980.565138
-6241281.357255
-6836085.287429
11514674.161314
12577049.548002
-7072952.932585
-7734972.580026
12570357.565329
13635147.360918
-8009094.237066
-8613951.444761
13595023.878971
14724031.145353
-9654463.203042
-8936958.382427
-10516142.494219
14639323.264902
15864834.049538
-10085107.064525
-11242432.328383
15806486.282259
17009195.220607
-11078891.715498
-12320283.634757
16967647.664721
18189529.019825
-12223399.571591
-13535202.921926
18138276.585147
19384768.347151
-13392945.580763
-14744892.724661
19329355.707653
20676122.737454
-14579341.919848
-16000613.784656
20570692.753854
21892217.180153
-15821213.350438
-17279462.930148
21799093.619705
23178925.925155
-17101273.650555
-18628022.077688
23097047.250801
24445805.879180
-18408452.862741
-19969613.299935
24361598.470622
25815051.356396
-19711987.438056
-21357326.542668
25628452.058279
27112304.437837
-21107082.204008
-22773352.318499
26996497.891287
28469493.098531
-22469236.932037
-24219778.673793
28238871.741818
29772422.536150
-23867360.373328
-25691160.089363
29558015.833877
31106169.875566
-25330685.964714
-27174234.055009
30826869.911864
32479087.293260
-26753226.608728
-28703083.911168
32173919.777830
33799909.346432
34991674.668092
-28263637.936980
-30145326.989534
33743948.025413
35771450.549049
-29692769.671451
-31641292.604092
34855202.251634
37012502.651505
-31163173.516046
-33190358.588722
36214459.793746
38272599.268779
-32622636.109685
-34710975.481391
37412606.659495
39533511.886849
-34081732.322576
-36180704.784468
38595720.300757
40720798.164478
-35572785.104871
-37681582.030295
39766938.020887
41815044.055664
-36945223.006803
-39181747.679770
40874646.138080
42964305.841365
-38381901.036569
-40582306.889723
41883564.207468
44012160.626903
-39745097.780690
-42018787.219474
42899690.331096
44987720.122944
-41035186.242462
-43427872.412308
43890664.302871
45956029.926775
-42365144.825796
-44622243.560929
-46101511.301171
44824189.063997
46863393.245420
-44106623.450749
-46783053.430604
45668939.739169
47711837.127250
-45056653.201952
-48052230.915889
46466445.849736
48538535.067143
-46336837.965655
-49098472.589503
47247954.189611
49235646.938062
-47434321.847342
-50178952.534377
47881679.099244
49888671.708980
-48466762.399383
-51241875.607632
48481145.728510
50564322.759760
-49465665.822429
-52235863.072126
49038823.022277
51023518.918088
-50406453.476419
-53102854.254272
49579056.016145
51465411.284734
-51216544.459962
-53919723.611869
49970415.627418
51909228.050268
-51927706.547801
-54603293.751217
50384654.068948
52259773.799042
-52622187.989820
-55245228.838004
50608026.965587
52498201.259960
-53225052.461270
-55842233.514657
50858498.909907
52673463.045648
-53736492.749480
-56305138.068686
50955448.843867
52740848.417921
-54196201.976752
-56763684.703247
50989174.568820
52816791.297133
-54533528.880591
-57050681.357949
50990049.014494
52801719.327876
-54813807.603762
-57249489.797452
50869837.299451
52665554.670660
52798019.219375
-54935039.340132
-57400723.944752
50868003.427198
52321397.316951
-55068708.688423
-57461266.515409
50451077.002797
52043452.932035
-55108593.835766
-57427155.783254
50138229.233685
51601705.753432
-55031931.133224
-57330618.661404
49756079.068401
51146603.117191
-54870561.871929
-57082898.550181
49334295.831753
50682294.813939
-54616026.798877
-56867716.762457
48787071.721297
50097512.916195
-54283170.502797
-56488687.841726
48195945.227177
49447517.414245
-53820988.556911
-56002863.419376
47562677.012919
48741377.187421
-53329372.231323
-55517722.853009
46867590.493322
48017449.975797
-52653136.745626
-54843477.232324
-54674090.798411
46145149.870791
47175643.914086
-52406028.949974
-53773287.060608
45302444.071598
46394969.319185
-51174232.470242
-52958548.422070
44502003.355327
45448625.862155
-50487714.663776
-52081569.328164
43567476.906352
44485269.693043
-49544808.191857
-51085384.351824
42686989.357198
43523987.521220
-48661760.485866
-50121992.693313
41689327.393150
42516933.082027
-47669216.196514
-49076245.809791
40705892.891724
41448712.543202
-46600196.120398
-47940142.154460
39635828.734078
40386539.334089
-45540023.062921
-46828762.837784
38590073.363987
39303986.333864
-44414649.178161
-45588292.232340
37502850.752795
38166329.887176
-43240997.076380
-44405353.717283
36400996.449600
37014543.063357
-42027508.804309
-43173784.888442
35259858.688422
35866878.917401
-40793970.853550
-41871263.715177
34078068.314496
34716599.135141
-39511570.389675
-40508412.909590
32894413.429850
33464512.491844
-38278549.434947
-39207127.576639
31738207.276173
32223343.386717
-36963784.049983
-37808539.399061
30473713.062686
31096360.449581
30300678.986818
-35612144.014804
-36433779.553378
29444032.551332
29184513.614973
-34305317.737407
-35072507.891543
27975039.224815
27962004.375135
-32934578.134729
-33671687.969416
26756357.818051
26778790.830480
-31578289.058726
-32308372.343037
25627196.012177
25605733.533394
-30247500.130423
-30901568.308319
24506456.904222
24456647.376749
-28898066.060306
-29586169.717578
23329410.755796
23336923.696410
-27591221.565234
-28202043.571362
22235871.712394
22194336.003347
-26260231.346379
-26809007.792095
21158478.948538
21070783.775477
-24937845.621715
-25418755.725878
20051793.659711
19986654.384811
-23607659.668876
-24114858.968205
19019705.853038
18912091.595141
-22236492.926651
-22836447.889417
-21925050.419101
17987719.221477
17896893.980583
-21034428.362776
-20829233.238066
16999976.551993
16901654.754170
-19607120.813822
-19596431.072610
15969936.382554
15890066.634398
-18400291.656862
-18360998.365353
15045897.832367
14936877.635359
-17228564.497067
-17211821.686753
14106553.843571
14061641.042538
-16085043.639416
-16072174.570062
13265520.521305
13109308.463078
-15011023.554660
-15023921.277573
12381305.605622
12307798.185791
-13924863.468829
-13941680.970672
11559633.031718
11473734.712862
-12965618.922419
-12917190.166335
10769405.994553
10645353.703832
-11990894.148946
-11963431.998364
9963005.978057
9893914.523604
-11048889.730154
-10986958.004181
9260675.641587
9174423.815858
-10214682.217895
-10112987.570430
8554560.866531
8489174.975475
-9290869.655442
-9281779.666240
7905037.220585
7829682.091867
-8485297.765501
-8485311.983663
7233320.870234
7172510.735096
-7738696.811659
-7716451.865359
6593183.060526
6576837.129600
6092444.287371
-7035906.566112
-7026916.968851
6016635.834709
5649075.580408
-6356949.291903
-6355175.844690
5399904.047654
5154836.477782
-5721398.970959
-5703270.291180
4853163.140319
4622394.992407
-5091772.260271
-5062031.542886
4397808.642701
4168267.653443
-4570898.224827
-4542864.664797
3942862.305761
3803362.046361
-4043659.178794
-3997478.386198
3496303.116211
3339185.915085
-3528654.573621
-3525989.952241
3149881.985482
2962461.073532
-3092101.324946
-3082898.078168
2743883.046643
2599927.705165
-2685620.844090
-2678442.979719
2414437.609854
2257738.070345
-2322407.350231
-2300331.487909
2100133.220026
1994206.857245
-1954910.413790
-1983618.564883
1825934.249006
1751476.229256
-1625085.942643
-1708565.360521
1568218.602967
1480092.200263
-1360364.409816
-1484437.273885
1348784.458980
1277894.298355
-1080098.294459
-1258179.059828
1150773.994112
1051973.945594
-902633.103594
-967193.213813
927166.143377
865797.557097
-669794.135407
-803968.789812
746181.769859
704221.021124
-528677.241309
-644423.045037
629471.674774
560811.904895
-398549.462566
-503838.762837
442885.898093
470694.677336
-245973.717940
-341623.625378
370972.587862
343682.251929
-205306.497940
-260297.829262
279364.281685
228019.970585
-136630.654335
-200143.575297
242279.054951
175686.275653
-46290.483220
-95960.354539
144889.418634
108745.654497
-32617.522745
-10624.044867
72633.559452
64838.557289
30372.790621
27700.079910
3679.220758
44107.706920
79702.568413
33294.498986
3997.748133
-27050.111308
100065.338197
74706.469555
-35283.339880
-4440.947717
82970.525129
84063.493462
-20213.556790
-42311.756317
108802.129210
49206.139696
3199.566660
-59865.948815
73201.659566
56631.138275
17017.609335
-39224.079965
45860.264063
7781.933155
-9171.236646
-23152.862758
33292.480669
-39731.641533
36773.303171
7562.487462
11289.989707
26184.200246
-4401.987448
SCALARS stress_3 float
LOOKUP_TABLE default
-49159.874134
-64467.439315
-32784.584530
27718.623907
-101485.999603
-11334.995384
-102270.214374
-44811.335006
-145701.752839
-206182.361011
-175238.394960
-227318.007214
-195555.238890
-239704.183474
-397373.342802
-191471.667773
-515858.960684
-263751.364792
-787162.933867
-199137.020543
-1014673.770328
-131489.159022
-1324792.343074
-28798.621560
-1720715.160080
60430.004499
-2110996.253020
346372.719154
-2613009.875883
519532.935062
-3108517.933647
900515.001232
-3706145.870642
1250671.203328
-4290181.686868
1598673.541347
-5078194.414298
2071705.713610
-5837763.528935
2582619.783463
-6633553.777091
-7574904.634769
3206249.195238
-8501210.006947
3806465.075927
-9537140.147615
4548862.028529
-10648381.898103
5414707.243385
-11760691.766388
6237919.847491
-12977657.403461
7226226.507191
-14214231.094984
8253334.286132
-15560395.094945
9376187.596671
-16894071.308322
10542742.661123
-18284689.703442
11798798.733178
-19805902.502618
13155809.193817
14576692.423725
-21285549.705852
16003334.676889
-22791139.535457
17601361.524335
-24387410.769418
19262656.029710
-26065904.503055
20893890.605371
-27646268.736368
22583565.473632
-29336288.786991
24439687.888183
-31040842.337590
26320524.452021
-32790308.451810
28203246.355490
-34477230.256645
30174828.725582
-36274504.784068
32156406.228644
-37999136.843738
34130398.055017
-39761909.562648
36276489.712379
-41428501.655434
38331237.137382
-43151058.566428
40364156.218389
-44826364.756277
-46541723.637639
42492750.955398
-48193225.702834
44629305.697419
-49767236.332845
46733316.730115
-51379813.146989
48851039.592838
-52859690.399254
50867914.285586
-54381722.518615
52955508.347712
-55812230.949401
55006950.937884
-57209664.152261
56934205.532106
-58471245.539852
58892446.511061
-59728969.604495
60756391.096765
-60950677.378163
62586316.384538
64372571.135747
-61988317.670515
66050185.318720
-63018209.608544
67742845.314138
-63984751.906887
69187922.598006
-64865077.375203
70685287.265346
-65553610.759801
72023308.760488
-66233026.378018
73320481.178453
-66794638.595481
74467603.185587
-67287599.412189
75530722.781890
-67707271.606128
76492791.221051
-68030092.272617
77321963.979075
-68184652.999298
78053479.436644
-68313801.786173
78665952.435092
-68330258.220883
79197347.735785
-68273884.271754
79561694.148381
-68051529.843766
79802076.434247
-67781812.556233
-67403200.060148
79916116.561711
-66997812.641171
79909100.911455
-66375365.537936
79796227.578501
-65772539.909110
79617790.070526
-65057329.374011
79258716.387531
-64236679.837615
78773071.814879
-63418979.823920
78223987.828574
-62434160.396572
77495837.364970
-61404178.079567
76640231.900070
-60393367.587541
75817777.528895
74769824.632131
-59161088.920496
73695660.051107
-58030184.570752
72473248.547193
-56727024.443288
71214389.834725
-55470834.157422
69867720.262713
-54068663.744825
68412798.211842
-52758772.444133
66916789.777132
-51279995.445685
65355064.990257
-49773567.988116
63682168.263576
-48387339.230092
62037107.597087
-46857206.790931
60278299.403148
-45358375.194628
58467450.586440
-43750197.187494
56678318.368977
-42230048.769529
54849718.750760
-40704635.274387
52957857.366162
-39207782.607047
51072347.897846
-37670801.323179
-36143133.327760
49124685.599503
-34681711.144788
47210057.661474
-33123808.393579
45358849.369122
-31679931.105806
43438389.595454
-30164402.520102
41506233.530811
-28728273.541147
39621676.143220
-27325690.946925
37734002.940360
-25974920.356753
35897222.509574
-24633310.294627
34059158.390213
-23365491.601878
32241489.137948
-22009368.739156
30518064.323804
-20818125.706460
28787637.693793
-19601762.964438
27117959.628598
-18426640.227429
25477096.747237
-17305465.146423
23903934.557387
-16175005.721420
22380033.646393
-15137778.064058
20885473.553607
-14196746.237685
19401996.834697
-13212672.734623
18030900.775027
-12219394.364531
16720922.247604
-11364512.461062
15438736.442769
-10540443.897224
14220598.328549
-9732641.482673
13031372.777951
-8913494.614412
11942056.727327
-8221396.038751
10936540.494014
-7545189.533376
9921598.760377
-6904602.685930
9020111.526416
-6295368.432766
8069529.696811
-5725813.202858
7280570.493577
-5135138.742219
6520573.694401
-4653738.670164
5767011.299281
-4137551.605712
5171383.085904
-3691690.295172
4496963.085943
-3307910.516231
4009957.394421
-2892019.856531
3441951.757347
-2553159.252426
2997289.889062
-2257938.037569
2569568.138574
-1993749.084968
2129861.997907
-1617789.204278
1831140.625728
-1405295.792504
1524541.768050
-1142701.722651
1196975.519894
-929253.550388
967582.405257
-810115.212368
824945.677827
-649399.010273
606605.861601
-483968.944103
501905.924606
-336920.728195
295549.866842
-168482.013540
266240.243979
-147093.387481
140535.151039
-77938.850019
103652.334033
-6834.988498
-18306.238712
11315.355752
6854.924826
53211.658732
-18689.048357
86724.174433
-50390.666239
73185.998174
-26672.770151
118866.351970
-29581.614081
104209.743799
-19080.674035
144490.205333
562.986343
63193.990562
53413.367052
67324.575489
73715.865093
-38907.044694
-71236.141311
-113923.243112
-55896.055364
-33514.288556
-106355.705468
-131567.308020
-186860.027977
-113581.777509
-182235.515214
-313680.760668
-225676.198852
-393760.543161
-200631.539242
-617427.093312
-208340.377714
-813486.950773
-154394.428608
-1077693.274211
-86007.374586
-1407540.031953
10259.038338
-1764870.573307
193101.095828
-2236606.056941
352210.273887
-2654159.578176
589025.699509
-3207436.581340
876301.690031
-3837718.971414
1152724.499440
-4482861.875391
1584593.603740
-5163087.547259
2033806.161600
-5962737.082338
2558948.776017
-6765658.766291
3137675.415318
-7680174.504097
3789734.714174
-8626877.740084
4456008.989922
-9618081.220564
5278266.528223
-10718050.104205
6144525.646414
-11845491.740316
7024138.630155
-13033868.097221
8051671.860133
-14267808.270242
9147698.717327
-15521308.196032
10339842.455429
-16880766.128577
11502084.455420
-18249403.163199
12813023.097983
-19678453.204876
14145936.637109
-21118059.380603
15595922.643820
-22631433.627031
17060624.181765
-24163534.198148
18665986.821969
-25715290.998934
20237800.818419
-27330789.997714
21900958.520126
-28951248.226461
23580470.244425
-30538402.843843
25375116.340327
-32170037.723164
27105075.125166
-33830644.801078
28954831.233616
-35348437.172904
30778154.697350
-37016898.775294
32692532.182714
-38615346.703569
34583796.848375
-40223486.577045
36579336.170337
-41759843.776705
38436756.529285
-43331964.794871
40375852.242554
-44802311.012525
42267426.500486
-46313820.048983
44192146.779084
-47749626.158235
46058457.427359
-49142887.769253
47914396.825994
-50487286.326370
49753839.292325
-51696044.258558
51511981.175363
-52948615.819807
53245535.633773
-54128107.788100
54949385.397252
-55209668.100091
56569844.497471
-56172531.533762
58106482.378761
-57085158.025768
59579370.294813
-57978611.449412
60989943.721628
-58737042.646026
62318007.881224
-59409170.330247
63531655.122610
-60055336.470401
64697611.826469
-60587382.971467
65706265.183144
-60979543.452761
66627146.668638
-61268277.850936
67519495.536640
-61553214.975649
68230060.136162
-61674644.731879
68832386.498875
-61736729.897611
69345549.354475
-61715240.092160
69731157.861628
-61582379.252179
70091558.052009
-61307654.155653
70239297.528316
-61010286.770907
70316849.449219
-60655521.495243
70261011.036732
-60159765.169992
70093643.798533
-59580276.858801
69835193.829644
-58919387.053993
69444528.320406
-58197609.660544
68953941.651503
-57380804.329447
68304071.044952
-56534477.838684
67610208.849761
-55578591.807574
66819713.160952
-54554663.045772
65908877.486202
-53512389.458260
64891226.761867
-52383957.537357
63797490.146612
-51237178.061049
62637207.243138
-49999465.870669
61369364.083119
-48746657.363516
60091653.888570
-47466902.507916
58730624.722838
-46124480.145202
57247786.966608
-44783131.545681
55749921.841895
-43403358.677678
54182211.443721
-41994797.192184
52624738.962427
-40560415.835510
50994452.461361
-39173531.131650
49331710.321206
-37722571.890265
47603454.636985
-36263435.730669
45892959.440371
-34867454.303853
44167634.016727
-33456006.387802
42434783.524722
-31961608.506512
40698544.091050
-30612765.406293
38920919.779059
-29198707.642814
37165171.810766
-27826369.184403
35431192.249517
-26498307.301366
33696482.317329
-25196208.835035
32008787.760213
-23905389.436400
30377446.149194
-22584614.788125
28723784.039942
-21418806.509526
27127283.003484
-20152128.251595
25512552.785830
-19023272.538326
23967055.767664
-17872028.179378
22468586.568004
-16814856.857416
20996894.694528
-15695176.191755
19552558.766253
-14689726.706391
18213057.163863
-13756131.242657
16954592.792037
-12783431.134207
15685153.714124
-11883680.349368
14433934.834802
-11004106.253466
13287868.217420
-10127026.529167
12147153.988673
-9345020.827460
11128902.989893
-8604822.831010
10122682.189107
-7863332.190806
9158517.617990
-7242534.652861
8344151.371562
-6617380.646149
7481825.195836
-5972851.107024
6693543.154159
-5406360.464460
5950058.119536
-4859414.464469
5242888.186991
-4398150.726368
4631692.261202
-3954283.869173
4041848.088180
-3473694.639196
3545951.731275
-3037345.655454
3043150.095165
-2717774.537264
2612365.211524
-2338908.998963
2281385.731043
-2065338.723215
1889050.495056
-1773471.424359
1529670.757250
-1465336.785058
1240029.073297
-1242530.170641
961979.538218
-1043685.612781
804889.866350
-853224.508481
611586.962373
-666401.699072
454648.572299
-549877.708550
312763.569135
-387558.282928
234538.047900
-295905.104869
97522.564266
-191655.047379
14624.022912
-70044.634455
8489.265171
-15865.580433
-39269.058268
27328.368673
-17472.915729
51363.530201
-102387.465880
38008.189811
-43715.248373
83655.506173
-60262.231532
40664.018936
-44708.701021
71775.696427
-16169.720485
120132.046323
-21392.765929
30512.132271
-2112.569726
-20760.964347
-43717.176598
-41017.355845
-7819.683305
-15648.189450
-26564.925259
-16554.163867
-10824.089943
-94685.027653
-101166.840141
31404.185765
-55717.369039
-131836.872349
-113442.827285
-28577.312525
-104711.292586
-124651.203936
-114381.137725
-241884.163306
-125225.230427
-172646.061598
-199446.385037
-235999.144503
-201356.503333
-276976.105283
-215419.868456
-247751.191277
-336214.243178
-440655.239973
-197701.386683
-190647.216705
-497290.163339
-626688.072300
-195716.843409
-184094.322296
-712349.359136
-864814.758195
-150929.693817
-182979.465987
-956861.402556
-1152113.778225
-164222.100975
-101655.267392
-1278247.548119
-1473815.853967
-21258.438810
80755.257902
-1588201.876289
-1836117.664532
57058.752099
251396.285810
-2010316.978642
-2295681.052547
282434.993340
361788.702501
-2427728.060891
-2797282.577632
514154.905408
663066.776060
-2991060.088310
-3313372.947686
740603.300618
997378.689604
-3563001.926199
-3943712.148148
1066541.175367
1248269.656785
-4219156.613639
-4657095.099951
1395497.243379
1740083.857368
-4920813.100345
-5376174.120530
1919050.908495
2239018.637908
-5673664.700599
-6189142.671232
2377507.978647
2744527.190538
-6485141.741548
-7055064.349326
-7784494.281862
2960609.137031
3388949.367032
-7538855.161009
-8456198.166623
3608093.859649
4008263.652093
-8487486.991465
-9533659.847372
4245410.432165
4818235.927244
-9511444.380229
-10654359.429664
5059245.981572
5591555.733394
-10587222.914994
-11763074.326569
5856444.032166
6544145.007564
-11802165.087568
-12961498.021114
6801730.803504
7477563.496593
-12980312.654687
-14232466.329728
7811441.680289
8567471.093160
-14200351.402286
-15566498.944026
8846791.137859
9725673.615705
-15504955.585318
-16920246.232022
9995053.064709
10902057.530719
-16839956.316914
-18266712.289337
11225688.747631
12196761.424018
-18255164.831391
-19751741.672006
13643464.324623
12567462.299805
14786876.713944
-19720595.845545
-21201307.364674
14127128.479984
15817315.525874
-21176689.594587
-22800373.302066
15537597.331877
17300983.990261
-22728440.798435
-24334967.310160
17170221.983521
18939957.779057
-24231348.516417
-25955414.914578
18783333.824559
20650869.472067
-25782954.622437
-27603698.140255
20421631.867640
22393176.517472
-27426953.893516
-29235077.854999
22130696.057121
24141060.905860
-29056648.491144
-30869414.607145
23883225.508790
25967436.584027
-30697940.001403
-32570378.350924
25617301.793905
27855010.887186
-32348087.425555
-34295971.451962
27474321.019789
29750845.576407
-34032394.443740
-35984500.323714
29334992.477083
31701006.876759
-35665626.121165
-37697820.981202
31255042.542387
33724079.548647
-37308021.534376
-39371835.218995
33192719.231722
35651509.113377
-39036182.417681
-41005106.686389
35147236.020493
37739096.985632
-40680553.433242
-42700663.017195
37066927.323814
39674029.180601
-42375260.910515
-44500151.297517
-45968227.273810
39062452.537125
41761316.285261
-44376339.522056
-46971576.471317
41072434.787422
43768360.490255
-45764153.002662
-48564808.809242
43036880.455388
45890932.239612
-47338829.914786
-50075827.911755
44993641.890032
47897328.533035
-48887675.576554
-51601852.004389
46988787.202993
49940589.402563
-50345939.269231
-53031165.596268
48963889.869445
51842757.834133
-51716049.715207
-54417008.276959
50793105.446652
53815582.413199
-53049251.569490
-55740766.158930
52646936.837866
55686660.742559
-54335777.703159
-57046218.305597
54506667.903027
57611865.232411
-55516272.515440
-58229595.526252
56276527.746005
59408657.055321
-56629025.768599
-59294581.473578
57884614.436157
61061460.577143
63016287.873087
-57770648.409362
-60356661.699926
60221495.356798
63856418.409695
-58710884.397608
-61314062.890548
61412225.088760
65504171.093622
-59635298.901051
-62244655.948931
63149310.892045
66768981.538746
-60504282.167521
-62987150.051187
64528438.574508
68187072.428268
-61187758.166322
-63747502.558430
65801622.959771
69570539.656755
-61839505.942543
-64348392.128223
67041288.446794
70746957.665118
-62419602.382321
-64855827.740629
68188807.786155
71813664.451298
-62845000.453316
-65296924.569970
69191565.463154
72811826.111546
-63269729.727518
-65609418.557480
70128609.443824
73682192.631601
-63598284.871272
-65890853.902947
70922257.836819
74432372.927283
-63753292.851411
-65979503.897279
71602228.658753
75083160.037270
-63864747.696222
-66069802.314675
72170339.418269
75582081.402406
-63858908.463191
-66052368.396623
72705416.875173
76070678.020966
-63748636.192643
-65896292.839383
73086270.938527
76387045.115295
-63611240.263866
-65752199.856223
73282169.828953
76526998.193705
-63250588.235951
-65413762.943465
-65398044.279729
73327462.591552
76681953.132121
-63036000.301150
-64742269.256502
73353199.353654
76561370.053653
-62392933.338505
-64104741.757858
73284347.656998
76378042.292189
-61786062.091692
-63479633.551300
73040854.499461
76080295.880597
-61191916.127684
-62760496.983795
72724975.896364
75665742.451689
-60472022.493047
-61983938.667855
72239144.324609
75226720.706508
-59647775.097540
-61057971.128636
71693388.183653
74508496.213387
-58739156.780569
-60175474.258385
70897363.530569
73787030.827854
-57824675.526148
-59073450.386606
70199685.955225
73016682.922044
-56782626.064170
-57986873.826286
69189682.368756
72010223.332173
71682252.663906
-55742478.253280
-56834697.190415
68642708.127749
70340327.711544
-54593790.633595
-55666384.983851
66917081.474472
69203432.429712
-53442826.981837
-54416415.684090
65934688.343506
67830733.131061
-52159129.775271
-53152967.540074
64535855.547967
66493564.528139
-50926359.284270
-51832879.696511
63323766.514510
65085203.744686
-49624952.618250
-50450122.887875
61821612.400489
63518967.392430
-48240970.842415
-49086573.319763
60307303.742468
62000103.828036
-46861706.036135
-47609955.339027
58804954.795398
60354393.893897
-45434284.278410
-46123402.025432
57256722.097601
58693521.733691
-44072097.205174
-44692021.858536
55573593.634020
57020107.744719
-42634977.958844
-43243781.658870
53919834.515032
55341354.179774
-41178060.441277
-41745189.730239
52188516.979934
53501053.675188
-39691636.779134
-40159395.707018
50472742.059737
51731827.514896
-38188664.931961
-38663513.640518
48744126.039869
49852670.412341
-36745824.105156
-37139463.188387
46977767.237899
48033749.512693
-35119047.419453
-35688257.892582
-34723447.679685
45132066.208900
46216493.814692
-33719852.703344
-33352081.959431
43313859.889224
44360154.508678
-32040592.266029
-31851377.635735
41537769.500888
42529877.165678
-30533796.425110
-30363358.704192
39776358.234234
40598559.531703
-29098724.627534
-28936217.942539
37963269.866946
38776459.051083
-27744812.846906
-27531476.977179
36188519.033332
36946811.264133
-26339369.710047
-26217731.494530
34458642.006653
35154184.695811
-25065365.576805
-24798158.144783
32687922.542798
33319959.771839
-23727232.006635
-23489410.574713
30915106.647411
31607817.886097
-22449060.694272
-22270021.963356
29240407.918279
29832800.352220
-21197588.418296
-20993880.309020
27412362.161022
28132999.363554
27055845.253199
-19979501.591662
-19792340.104027
25892419.140515
25542849.248186
-18801081.373039
-18635056.189708
24003374.806186
23987310.861172
-17678176.762128
-17514761.928636
22482194.123648
22425683.314178
-16603128.029534
-16412597.628237
21008218.629759
20948040.131251
-15565893.922165
-15331034.364822
19550946.923533
19480220.687694
-14501957.328450
-14312754.708888
18128294.508230
18100904.459778
-13553870.121692
-13370170.251428
16864063.482691
16790160.939394
-12558750.445204
-12446648.849496
15614926.371178
15487011.580150
-11685268.394008
-11550689.562655
14342873.915518
14274976.120108
-10792150.903860
-10695119.231042
13171300.546646
13110999.034009
-10001040.859336
-9901497.192992
12136808.471454
11978789.847710
-9217596.365285
-9091909.242542
11066919.961145
10985183.172059
-8488648.910145
-8335364.871383
10088450.842658
10032685.030647
-7778316.399856
-7610909.357211
9120091.771283
9083920.417861
-7027258.948298
-6943317.074482
-6502021.198225
8179953.234379
8139408.514301
-6409306.904138
-6036178.198634
7445569.847842
7372595.376706
-5731318.010518
-5437975.363835
6639540.865362
6571605.406693
-5193349.724333
-4927782.968070
5889343.382260
5849453.031079
-4639949.696254
-4416334.292652
5248043.430209
5125572.281538
-4141397.385367
-3938689.512534
4642155.374836
4527283.238631
-3754137.959935
-3524485.540661
4051870.598683
4004135.946933
-3284406.513021
-3119662.034716
3505774.173616
3485340.030074
-2919573.597175
-2712504.597031
3060483.550669
3024017.543368
-2559914.213890
-2405587.554771
2558273.184649
2524778.467127
-2219749.966464
-2061191.406316
2138510.473519
2161967.443676
-1912684.298627
-1821779.568407
1816753.231203
1881490.508963
-1635290.639655
-1555017.248235
1438863.268605
1666192.258692
-1395582.513244
-1293503.602443
1179138.358667
1335763.648030
-1109413.443092
-1098788.949561
984981.348048
1074889.731636
-944133.397525
-884703.004527
778366.510772
859832.283277
-779265.709599
-664511.700040
546220.997788
674124.804855
-596549.095146
-542286.775323
384009.155449
515804.366126
-499320.235935
-451381.983775
282113.955634
376522.662053
-333255.941623
-255787.708237
145078.587722
259391.362535
-291340.861938
-199433.803473
118770.067069
140528.116272
-119296.471325
-164468.359405
-54769.987009
93972.637602
-71679.905542
-52926.225718
-8196.399825
-15029.658296
-28780.505864
27826.439951
-79592.045944
-12912.362784
27976.264970
26229.635676
-61063.892432
-35234.347537
65178.612789
56454.702912
-43101.496220
-26866.674777
99006.028990
108115.430137
-36141.665040
-42323.776830
107900.656745
96396.614183
-51448.398893
-20212.806720
55952.272304
86643.228288
-20622.158426
-9806.544955
54736.879327
84603.088617
-16147.578312
-9183.245523
44748.162821
71491.165053
-18545.658251
76577.656048
4671.505405
11179.284142
59684.346321
-14293.849434
9223.656759
