# vtk DataFile Version 2.0
Generated volume Mesh
ASCII
DATASET UNSTRUCTURED_GRID
POINTS 1240 float
-0.212153 -0.150304 0.000000
-0.206421 -0.141033 0.000000
-0.215099 -0.146056 0.000000
-0.209122 -0.154492 0.000000
-0.217961 -0.141751 0.000000
-0.206009 -0.158620 0.000000
-0.220736 -0.137389 0.000000
-0.202815 -0.162684 0.000000
-0.223424 -0.132973 0.000000
-0.226023 -0.128505 0.000000
-0.199540 -0.166684 0.000000
-0.228534 -0.123985 0.000000
-0.196187 -0.170619 0.000000
-0.230953 -0.119417 0.000000
-0.192756 -0.174486 0.000000
-0.233282 -0.114802 0.000000
-0.189249 -0.178283 0.000000
-0.235519 -0.110141 0.000000
-0.185666 -0.182011 0.000000
-0.237662 -0.105436 0.000000
-0.182011 -0.185666 0.000000
-0.239711 -0.100690 0.000000
-0.178283 -0.189249 0.000000
-0.241666 -0.095904 0.000000
-0.174486 -0.192756 0.000000
-0.243525 -0.091081 0.000000
-0.170619 -0.196187 0.000000
-0.245288 -0.086221 0.000000
-0.166684 -0.199540 0.000000
-0.246953 -0.081327 0.000000
-0.162684 -0.202815 0.000000
-0.248521 -0.076401 0.000000
-0.158620 -0.206009 0.000000
-0.249991 -0.071445 0.000000
-0.154492 -0.209122 0.000000
-0.251363 -0.066459 0.000000
-0.150304 -0.212153 0.000000
-0.252634 -0.061448 0.000000
-0.146056 -0.215099 0.000000
-0.253806 -0.056412 0.000000
-0.141751 -0.217961 0.000000
-0.137389 -0.220736 0.000000
-0.254878 -0.051354 0.000000
-0.132973 -0.223424 0.000000
-0.255849 -0.046275 0.000000
-0.128505 -0.226023 0.000000
-0.256718 -0.041179 0.000000
-0.123985 -0.228534 0.000000
-0.257486 -0.036067 0.000000
-0.119417 -0.230953 0.000000
-0.258152 -0.030940 0.000000
-0.114802 -0.233282 0.000000
-0.258717 -0.025802 0.000000
-0.110141 -0.235519 0.000000
-0.259178 -0.020654 0.000000
-0.105436 -0.237662 0.000000
-0.259538 -0.015498 0.000000
-0.100690 -0.239711 0.000000
-0.259794 -0.010336 0.000000
-0.095904 -0.241666 0.000000
-0.259949 -0.005169 0.000000
-0.091081 -0.243525 0.000000
-0.260000 0.000000 0.000000
-0.259949 0.005169 0.000000
-0.086221 -0.245288 0.000000
-0.259794 0.010336 0.000000
-0.081327 -0.246953 0.000000
-0.259538 0.015498 0.000000
-0.076401 -0.248521 0.000000
-0.259178 0.020654 0.000000
-0.071445 -0.249991 0.000000
-0.258717 0.025802 0.000000
-0.066459 -0.251363 0.000000
-0.258152 0.030940 0.000000
-0.061448 -0.252634 0.000000
-0.257486 0.036067 0.000000
-0.056412 -0.253806 0.000000
-0.256718 0.041179 0.000000
-0.051354 -0.254878 0.000000
-0.255849 0.046275 0.000000
-0.046275 -0.255849 0.000000
-0.254878 0.051354 0.000000
-0.041179 -0.256718 0.000000
-0.253806 0.056412 0.000000
-0.036067 -0.257486 0.000000
-0.252634 0.061448 0.000000
-0.030940 -0.258152 0.000000
-0.251363 0.066459 0.000000
-0.025802 -0.258717 0.000000
-0.249991 0.071445 0.000000
-0.020654 -0.259178 0.000000
-0.248521 0.076401 0.000000
-0.015498 -0.259538 0.000000
-0.010336 -0.259794 0.000000
-0.246953 0.081327 0.000000
-0.005169 -0.259949 0.000000
-0.245288 0.086221 0.000000
0.000000 -0.260000 0.000000
-0.243525 0.091081 0.000000
0.005169 -0.259949 0.000000
-0.241666 0.095904 0.000000
0.010336 -0.259794 0.000000
-0.239711 0.100690 0.000000
0.015498 -0.259538 0.000000
-0.237662 0.105436 0.000000
0.020654 -0.259178 0.000000
-0.235519 0.110141 0.000000
0.025802 -0.258717 0.000000
-0.233282 0.114802 0.000000
0.030940 -0.258152 0.000000
-0.230953 0.119417 0.000000
0.036067 -0.257486 0.000000
-0.228534 0.123985 0.000000
0.041179 -0.256718 0.000000
-0.226023 0.128505 0.000000
-0.223424 0.132973 0.000000
0.046275 -0.255849 0.000000
-0.220736 0.137389 0.000000
0.051354 -0.254878 0.000000
-0.217961 0.141751 0.000000
0.056412 -0.253806 0.000000
-0.215099 0.146056 0.000000
0.061448 -0.252634 0.000000
-0.212153 0.150304 0.000000
0.066459 -0.251363 0.000000
-0.209122 0.154492 0.000000
0.071445 -0.249991 0.000000
-0.206009 0.158620 0.000000
0.076401 -0.248521 0.000000
-0.202815 0.162684 0.000000
0.081327 -0.246953 0.000000
-0.199540 0.166684 0.000000
0.086221 -0.245288 0.000000
-0.196187 0.170619 0.000000
0.091081 -0.243525 0.000000
-0.192756 0.174486 0.000000
0.095904 -0.241666 0.000000
-0.189249 0.178283 0.000000
0.100690 -0.239711 0.000000
-0.185666 0.182011 0.000000
0.105436 -0.237662 0.000000
-0.182011 0.185666 0.000000
0.110141 -0.235519 0.000000
-0.178283 0.189249 0.000000
0.114802 -0.233282 0.000000
-0.174486 0.192756 0.000000
0.119417 -0.230953 0.000000
0.123985 -0.228534 0.000000
-0.170619 0.196187 0.000000
0.128505 -0.226023 0.000000
-0.166684 0.199540 0.000000
0.132973 -0.223424 0.000000
-0.162684 0.202815 0.000000
0.137389 -0.220736 0.000000
-0.158620 0.206009 0.000000
0.141751 -0.217961 0.000000
-0.154492 0.209122 0.000000
0.146056 -0.215099 0.000000
-0.150304 0.212153 0.000000
0.150304 -0.212153 0.000000
-0.146056 0.215099 0.000000
0.154492 -0.209122 0.000000
-0.141751 0.217961 0.000000
0.158620 -0.206009 0.000000
-0.137389 0.220736 0.000000
0.162684 -0.202815 0.000000
-0.132973 0.223424 0.000000
-0.128505 0.226023 0.000000
0.166684 -0.199540 0.000000
-0.123985 0.228534 0.000000
0.170619 -0.196187 0.000000
-0.119417 0.230953 0.000000
0.174486 -0.192756 0.000000
-0.114802 0.233282 0.000000
0.178283 -0.189249 0.000000
-0.110141 0.235519 0.000000
0.182011 -0.185666 0.000000
-0.105436 0.237662 0.000000
0.185666 -0.182011 0.000000
-0.100690 0.239711 0.000000
0.189249 -0.178283 0.000000
-0.095904 0.241666 0.000000
0.192756 -0.174486 0.000000
-0.091081 0.243525 0.000000
0.196187 -0.170619 0.000000
-0.086221 0.245288 0.000000
0.199540 -0.166684 0.000000
-0.081327 0.246953 0.000000
0.202815 -0.162684 0.000000
-0.076401 0.248521 0.000000
0.206009 -0.158620 0.000000
-0.071445 0.249991 0.000000
0.209122 -0.154492 0.000000
-0.066459 0.251363 0.000000
0.212153 -0.150304 0.000000
-0.061448 0.252634 0.000000
0.215099 -0.146056 0.000000
-0.056412 0.253806 0.000000
0.217961 -0.141751 0.000000
0.220736 -0.137389 0.000000
-0.051354 0.254878 0.000000
0.223424 -0.132973 0.000000
-0.046275 0.255849 0.000000
0.226023 -0.128505 0.000000
-0.041179 0.256718 0.000000
0.228534 -0.123985 0.000000
-0.036067 0.257486 0.000000
0.230953 -0.119417 0.000000
-0.030940 0.258152 0.000000
0.233282 -0.114802 0.000000
-0.025802 0.258717 0.000000
0.235519 -0.110141 0.000000
-0.020654 0.259178 0.000000
0.237662 -0.105436 0.000000
-0.015498 0.259538 0.000000
0.239711 -0.100690 0.000000
-0.010336 0.259794 0.000000
0.241666 -0.095904 0.000000
-0.005169 0.259949 0.000000
0.243525 -0.091081 0.000000
0.000000 0.260000 0.000000
0.245288 -0.086221 0.000000
0.005169 0.259949 0.000000
0.246953 -0.081327 0.000000
0.010336 0.259794 0.000000
0.248521 -0.076401 0.000000
0.015498 0.259538 0.000000
0.249991 -0.071445 0.000000
0.020654 0.259178 0.000000
0.251363 -0.066459 0.000000
0.025802 0.258717 0.000000
0.252634 -0.061448 0.000000
0.030940 0.258152 0.000000
0.253806 -0.056412 0.000000
0.036067 0.257486 0.000000
0.254878 -0.051354 0.000000
0.041179 0.256718 0.000000
0.255849 -0.046275 0.000000
0.046275 0.255849 0.000000
0.256718 -0.041179 0.000000
0.051354 0.254878 0.000000
0.257486 -0.036067 0.000000
0.056412 0.253806 0.000000
0.258152 -0.030940 0.000000
0.061448 0.252634 0.000000
0.258717 -0.025802 0.000000
0.066459 0.251363 0.000000
0.259178 -0.020654 0.000000
0.071445 0.249991 0.000000
0.259538 -0.015498 0.000000
0.076401 0.248521 0.000000
0.259794 -0.010336 0.000000
0.081327 0.246953 0.000000
0.259949 -0.005169 0.000000
0.086221 0.245288 0.000000
0.260000 0.000000 0.000000
0.091081 0.243525 0.000000
0.259949 0.005169 0.000000
0.095904 0.241666 0.000000
0.259794 0.010336 0.000000
0.100690 0.239711 0.000000
0.259538 0.015498 0.000000
0.105436 0.237662 0.000000
0.259178 0.020654 0.000000
0.110141 0.235519 0.000000
0.258717 0.025802 0.000000
0.114802 0.233282 0.000000
0.258152 0.030940 0.000000
0.119417 0.230953 0.000000
0.257486 0.036067 0.000000
0.123985 0.228534 0.000000
0.256718 0.041179 0.000000
0.128505 0.226023 0.000000
0.255849 0.046275 0.000000
0.132973 0.223424 0.000000
0.254878 0.051354 0.000000
0.137389 0.220736 0.000000
0.253806 0.056412 0.000000
0.141751 0.217961 0.000000
0.252634 0.061448 0.000000
0.146056 0.215099 0.000000
0.251363 0.066459 0.000000
0.150304 0.212153 0.000000
0.249991 0.071445 0.000000
0.154492 0.209122 0.000000
0.248521 0.076401 0.000000
0.158620 0.206009 0.000000
0.246953 0.081327 0.000000
0.162684 0.202815 0.000000
0.245288 0.086221 0.000000
0.166684 0.199540 0.000000
0.243525 0.091081 0.000000
0.170619 0.196187 0.000000
0.241666 0.095904 0.000000
0.174486 0.192756 0.000000
0.239711 0.100690 0.000000
0.178283 0.189249 0.000000
0.237662 0.105436 0.000000
0.182011 0.185666 0.000000
0.235519 0.110141 0.000000
0.185666 0.182011 0.000000
0.233282 0.114802 0.000000
0.189249 0.178283 0.000000
0.230953 0.119417 0.000000
0.192756 0.174486 0.000000
0.228534 0.123985 0.000000
0.196187 0.170619 0.000000
0.226023 0.128505 0.000000
0.199540 0.166684 0.000000
0.223424 0.132973 0.000000
0.202815 0.162684 0.000000
0.220736 0.137389 0.000000
0.206009 0.158620 0.000000
0.217961 0.141751 0.000000
0.209122 0.154492 0.000000
0.215099 0.146056 0.000000
0.212153 0.150304 0.000000
-0.203462 -0.145269 0.000000
-0.209292 -0.136737 0.000000
-0.200416 -0.149443 0.000000
-0.212073 -0.132382 0.000000
-0.197285 -0.153553 0.000000
-0.214764 -0.127971 0.000000
-0.194070 -0.157598 0.000000
-0.217362 -0.123505 0.000000
-0.190771 -0.161575 0.000000
-0.219868 -0.118987 0.000000
-0.187391 -0.165483 0.000000
-0.222281 -0.114417 0.000000
-0.183931 -0.169320 0.000000
-0.224598 -0.109799 0.000000
-0.180392 -0.173086 0.000000
-0.226819 -0.105134 0.000000
-0.176777 -0.176777 0.000000
-0.228943 -0.100424 0.000000
-0.173086 -0.180392 0.000000
-0.230970 -0.095671 0.000000
-0.169320 -0.183931 0.000000
-0.232898 -0.090877 0.000000
-0.165483 -0.187391 0.000000
-0.234726 -0.086044 0.000000
-0.161575 -0.190771 0.000000
-0.236454 -0.081175 0.000000
-0.157598 -0.194070 0.000000
-0.238081 -0.076271 0.000000
-0.153553 -0.197285 0.000000
-0.239607 -0.071334 0.000000
-0.149443 -0.200416 0.000000
-0.241030 -0.066366 0.000000
-0.145269 -0.203462 0.000000
-0.242350 -0.061370 0.000000
-0.141033 -0.206421 0.000000
-0.243567 -0.056347 0.000000
-0.136737 -0.209292 0.000000
-0.244680 -0.051301 0.000000
-0.132382 -0.212073 0.000000
-0.245688 -0.046232 0.000000
-0.127971 -0.214764 0.000000
-0.246591 -0.041144 0.000000
-0.123505 -0.217362 0.000000
-0.247389 -0.036039 0.000000
-0.118987 -0.219868 0.000000
-0.248081 -0.030919 0.000000
-0.114417 -0.222281 0.000000
-0.248667 -0.025786 0.000000
-0.109799 -0.224598 0.000000
-0.249146 -0.020642 0.000000
-0.105134 -0.226819 0.000000
-0.249520 -0.015489 0.000000
-0.100424 -0.228943 0.000000
-0.249786 -0.010330 0.000000
-0.095671 -0.230970 0.000000
-0.249947 -0.005166 0.000000
-0.090877 -0.232898 0.000000
-0.250000 0.000000 0.000000
-0.086044 -0.234726 0.000000
-0.249947 0.005166 0.000000
-0.081175 -0.236454 0.000000
-0.249786 0.010330 0.000000
-0.076271 -0.238081 0.000000
-0.249520 0.015489 0.000000
-0.071334 -0.239607 0.000000
-0.249146 0.020642 0.000000
-0.066366 -0.241030 0.000000
-0.248667 0.025786 0.000000
-0.061370 -0.242350 0.000000
-0.248081 0.030919 0.000000
-0.056347 -0.243567 0.000000
-0.247389 0.036039 0.000000
-0.051301 -0.244680 0.000000
-0.246591 0.041144 0.000000
-0.046232 -0.245688 0.000000
-0.245688 0.046232 0.000000
-0.041144 -0.246591 0.000000
-0.244680 0.051301 0.000000
-0.036039 -0.247389 0.000000
-0.243567 0.056347 0.000000
-0.030919 -0.248081 0.000000
-0.242350 0.061370 0.000000
-0.025786 -0.248667 0.000000
-0.241030 0.066366 0.000000
-0.020642 -0.249146 0.000000
-0.239607 0.071334 0.000000
-0.015489 -0.249520 0.000000
-0.238081 0.076271 0.000000
-0.010330 -0.249786 0.000000
-0.236454 0.081175 0.000000
-0.005166 -0.249947 0.000000
-0.234726 0.086044 0.000000
-0.000000 -0.250000 0.000000
-0.232898 0.090877 0.000000
0.005166 -0.249947 0.000000
-0.230970 0.095671 0.000000
0.010330 -0.249786 0.000000
-0.228943 0.100424 0.000000
0.015489 -0.249520 0.000000
-0.226819 0.105134 0.000000
0.020642 -0.249146 0.000000
-0.224598 0.109799 0.000000
0.025786 -0.248667 0.000000
-0.222281 0.114417 0.000000
0.030919 -0.248081 0.000000
-0.219868 0.118987 0.000000
0.036039 -0.247389 0.000000
-0.217362 0.123505 0.000000
0.041144 -0.246591 0.000000
-0.214764 0.127971 0.000000
0.046232 -0.245688 0.000000
-0.212073 0.132382 0.000000
0.051301 -0.244680 0.000000
-0.209292 0.136737 0.000000
0.056347 -0.243567 0.000000
-0.206421 0.141033 0.000000
0.061370 -0.242350 0.000000
-0.203462 0.145269 0.000000
0.066366 -0.241030 0.000000
-0.200416 0.149443 0.000000
0.071334 -0.239607 0.000000
-0.197285 0.153553 0.000000
0.076271 -0.238081 0.000000
-0.194070 0.157598 0.000000
0.081175 -0.236454 0.000000
-0.190771 0.161575 0.000000
0.086044 -0.234726 0.000000
-0.187391 0.165483 0.000000
0.090877 -0.232898 0.000000
-0.183931 0.169320 0.000000
0.095671 -0.230970 0.000000
-0.180392 0.173086 0.000000
0.100424 -0.228943 0.000000
-0.176777 0.176777 0.000000
0.105134 -0.226819 0.000000
-0.173086 0.180392 0.000000
0.109799 -0.224598 0.000000
-0.169320 0.183931 0.000000
0.114417 -0.222281 0.000000
-0.165483 0.187391 0.000000
0.118987 -0.219868 0.000000
-0.161575 0.190771 0.000000
0.123505 -0.217362 0.000000
-0.157598 0.194070 0.000000
0.127971 -0.214764 0.000000
-0.153553 0.197285 0.000000
0.132382 -0.212073 0.000000
-0.149443 0.200416 0.000000
0.136737 -0.209292 0.000000
-0.145269 0.203462 0.000000
0.141033 -0.206421 0.000000
-0.141033 0.206421 0.000000
0.145269 -0.203462 0.000000
-0.136737 0.209292 0.000000
0.149443 -0.200416 0.000000
-0.132382 0.212073 0.000000
0.153553 -0.197285 0.000000
-0.127971 0.214764 0.000000
0.157598 -0.194070 0.000000
-0.123505 0.217362 0.000000
0.161575 -0.190771 0.000000
-0.118987 0.219868 0.000000
0.165483 -0.187391 0.000000
-0.114417 0.222281 0.000000
0.169320 -0.183931 0.000000
-0.109799 0.224598 0.000000
0.173086 -0.180392 0.000000
-0.105134 0.226819 0.000000
0.176777 -0.176777 0.000000
-0.100424 0.228943 0.000000
0.180392 -0.173086 0.000000
-0.095671 0.230970 0.000000
0.183931 -0.169320 0.000000
-0.090877 0.232898 0.000000
0.187391 -0.165483 0.000000
-0.086044 0.234726 0.000000
0.190771 -0.161575 0.000000
-0.081175 0.236454 0.000000
0.194070 -0.157598 0.000000
-0.076271 0.238081 0.000000
0.197285 -0.153553 0.000000
-0.071334 0.239607 0.000000
0.200416 -0.149443 0.000000
-0.066366 0.241030 0.000000
0.203462 -0.145269 0.000000
-0.061370 0.242350 0.000000
0.206421 -0.141033 0.000000
-0.056347 0.243567 0.000000
0.209292 -0.136737 0.000000
-0.051301 0.244680 0.000000
0.212073 -0.132382 0.000000
-0.046232 0.245688 0.000000
0.214764 -0.127971 0.000000
-0.041144 0.246591 0.000000
0.217362 -0.123505 0.000000
-0.036039 0.247389 0.000000
0.219868 -0.118987 0.000000
-0.030919 0.248081 0.000000
0.222281 -0.114417 0.000000
-0.025786 0.248667 0.000000
0.224598 -0.109799 0.000000
-0.020642 0.249146 0.000000
0.226819 -0.105134 0.000000
-0.015489 0.249520 0.000000
0.228943 -0.100424 0.000000
-0.010330 0.249786 0.000000
0.230970 -0.095671 0.000000
-0.005166 0.249947 0.000000
0.232898 -0.090877 0.000000
0.000000 0.250000 0.000000
0.234726 -0.086044 0.000000
0.005166 0.249947 0.000000
0.236454 -0.081175 0.000000
0.010330 0.249786 0.000000
0.238081 -0.076271 0.000000
0.015489 0.249520 0.000000
0.239607 -0.071334 0.000000
0.020642 0.249146 0.000000
0.241030 -0.066366 0.000000
0.025786 0.248667 0.000000
0.242350 -0.061370 0.000000
0.030919 0.248081 0.000000
0.243567 -0.056347 0.000000
0.036039 0.247389 0.000000
0.244680 -0.051301 0.000000
0.041144 0.246591 0.000000
0.245688 -0.046232 0.000000
0.046232 0.245688 0.000000
0.246591 -0.041144 0.000000
0.051301 0.244680 0.000000
0.247389 -0.036039 0.000000
0.056347 0.243567 0.000000
0.248081 -0.030919 0.000000
0.061370 0.242350 0.000000
0.248667 -0.025786 0.000000
0.066366 0.241030 0.000000
0.249146 -0.020642 0.000000
0.071334 0.239607 0.000000
0.249520 -0.015489 0.000000
0.076271 0.238081 0.000000
0.249786 -0.010330 0.000000
0.081175 0.236454 0.000000
0.249947 -0.005166 0.000000
0.086044 0.234726 0.000000
0.250000 -0.000000 0.000000
0.090877 0.232898 0.000000
0.249947 0.005166 0.000000
0.095671 0.230970 0.000000
0.249786 0.010330 0.000000
0.100424 0.228943 0.000000
0.249520 0.015489 0.000000
0.105134 0.226819 0.000000
0.249146 0.020642 0.000000
0.109799 0.224598 0.000000
0.248667 0.025786 0.000000
0.114417 0.222281 0.000000
0.248081 0.030919 0.000000
0.118987 0.219868 0.000000
0.247389 0.036039 0.000000
0.123505 0.217362 0.000000
0.246591 0.041144 0.000000
0.127971 0.214764 0.000000
0.245688 0.046232 0.000000
0.132382 0.212073 0.000000
0.244680 0.051301 0.000000
0.136737 0.209292 0.000000
0.243567 0.056347 0.000000
0.141033 0.206421 0.000000
0.242350 0.061370 0.000000
0.145269 0.203462 0.000000
0.241030 0.066366 0.000000
0.149443 0.200416 0.000000
0.239607 0.071334 0.000000
0.153553 0.197285 0.000000
0.238081 0.076271 0.000000
0.157598 0.194070 0.000000
0.236454 0.081175 0.000000
0.161575 0.190771 0.000000
0.234726 0.086044 0.000000
0.165483 0.187391 0.000000
0.232898 0.090877 0.000000
0.169320 0.183931 0.000000
0.230970 0.095671 0.000000
0.173086 0.180392 0.000000
0.228943 0.100424 0.000000
0.176777 0.176777 0.000000
0.226819 0.105134 0.000000
0.180392 0.173086 0.000000
0.224598 0.109799 0.000000
0.183931 0.169320 0.000000
0.222281 0.114417 0.000000
0.187391 0.165483 0.000000
0.219868 0.118987 0.000000
0.190771 0.161575 0.000000
0.217362 0.123505 0.000000
0.194070 0.157598 0.000000
0.214764 0.127971 0.000000
0.197285 0.153553 0.000000
0.212073 0.132382 0.000000
0.200416 0.149443 0.000000
0.209292 0.136737 0.000000
0.206421 0.141033 0.000000
0.203462 0.145269 0.000000
-0.211239 -0.145764 0.000000
-0.207348 -0.145506 0.000000
-0.208235 -0.149997 0.000000
-0.210271 -0.141224 0.000000
-0.214114 -0.141448 0.000000
-0.204348 -0.149730 0.000000
-0.205202 -0.154186 0.000000
-0.213130 -0.136835 0.000000
-0.216922 -0.137075 0.000000
-0.201224 -0.153860 0.000000
-0.202031 -0.158271 0.000000
-0.215878 -0.132424 0.000000
-0.219710 -0.132611 0.000000
-0.198030 -0.157923 0.000000
-0.198804 -0.162319 0.000000
-0.218605 -0.127699 0.000000
-0.222365 -0.128140 0.000000
-0.224875 -0.124872 0.000000
-0.194761 -0.161929 0.000000
-0.195479 -0.166293 0.000000
-0.221918 -0.123192 0.000000
-0.226380 -0.121036 0.000000
-0.191411 -0.165867 0.000000
-0.192076 -0.170180 0.000000
-0.223993 -0.118092 0.000000
-0.228835 -0.116386 0.000000
-0.187988 -0.169741 0.000000
-0.188629 -0.174050 0.000000
-0.226621 -0.113165 0.000000
-0.231077 -0.111640 0.000000
-0.184488 -0.173541 0.000000
-0.185072 -0.177780 0.000000
-0.228918 -0.108399 0.000000
-0.233287 -0.106944 0.000000
-0.180913 -0.177266 0.000000
-0.181487 -0.181485 0.000000
-0.231106 -0.103709 0.000000
-0.235397 -0.102211 0.000000
-0.177263 -0.180925 0.000000
-0.177757 -0.185116 0.000000
-0.233157 -0.098942 0.000000
-0.237414 -0.097442 0.000000
-0.173562 -0.184499 0.000000
-0.173989 -0.188666 0.000000
-0.235110 -0.094195 0.000000
-0.239353 -0.092615 0.000000
-0.169783 -0.188037 0.000000
-0.170176 -0.192088 0.000000
-0.237036 -0.089400 0.000000
-0.241145 -0.087789 0.000000
-0.165867 -0.191421 0.000000
-0.166261 -0.195470 0.000000
-0.238795 -0.084500 0.000000
-0.242869 -0.082916 0.000000
-0.161926 -0.194766 0.000000
-0.162296 -0.198817 0.000000
-0.240480 -0.079619 0.000000
-0.244533 -0.078015 0.000000
-0.157923 -0.198067 0.000000
-0.158264 -0.202046 0.000000
-0.242098 -0.074704 0.000000
-0.246013 -0.073093 0.000000
-0.153833 -0.201229 0.000000
-0.154141 -0.205206 0.000000
-0.243529 -0.069697 0.000000
-0.247451 -0.068123 0.000000
-0.149674 -0.204349 0.000000
-0.149938 -0.208289 0.000000
-0.244899 -0.064716 0.000000
-0.248766 -0.063116 0.000000
-0.145447 -0.207383 0.000000
-0.145696 -0.211247 0.000000
-0.246147 -0.059719 0.000000
-0.249987 -0.058081 0.000000
-0.141114 -0.210324 0.000000
-0.141350 -0.214172 0.000000
-0.247314 -0.054684 0.000000
-0.251085 -0.053025 0.000000
-0.136554 -0.213213 0.000000
-0.136933 -0.217186 0.000000
-0.133850 -0.219680 0.000000
-0.248378 -0.049626 0.000000
-0.252118 -0.047967 0.000000
-0.132090 -0.216717 0.000000
-0.130020 -0.221252 0.000000
-0.249339 -0.044548 0.000000
-0.253006 -0.042863 0.000000
-0.126984 -0.218897 0.000000
-0.125536 -0.223876 0.000000
-0.250196 -0.039452 0.000000
-0.253814 -0.037756 0.000000
-0.122403 -0.221788 0.000000
-0.120909 -0.226359 0.000000
-0.250948 -0.034339 0.000000
-0.254531 -0.032639 0.000000
-0.117810 -0.224233 0.000000
-0.116302 -0.228773 0.000000
-0.251590 -0.029207 0.000000
-0.255162 -0.027498 0.000000
-0.113063 -0.226648 0.000000
-0.111626 -0.231076 0.000000
-0.252152 -0.024064 0.000000
-0.255682 -0.022349 0.000000
-0.108405 -0.228923 0.000000
-0.106956 -0.233292 0.000000
-0.252595 -0.018895 0.000000
-0.256048 -0.017181 0.000000
-0.103699 -0.231093 0.000000
-0.102209 -0.235408 0.000000
-0.252917 -0.013716 0.000000
-0.256371 -0.011977 0.000000
-0.098950 -0.233168 0.000000
-0.097430 -0.237419 0.000000
-0.253145 -0.008502 0.000000
-0.256525 -0.006784 0.000000
-0.094186 -0.235148 0.000000
-0.092626 -0.239323 0.000000
-0.253246 -0.003274 0.000000
-0.256590 -0.001533 0.000000
-0.089365 -0.237021 0.000000
-0.087789 -0.241137 0.000000
-0.256677 0.003861 0.000000
-0.253142 0.002166 0.000000
-0.257115 0.007822 0.000000
-0.084514 -0.238796 0.000000
-0.082921 -0.242867 0.000000
-0.253720 0.007776 0.000000
-0.256519 0.011763 0.000000
-0.079606 -0.240458 0.000000
-0.078018 -0.244489 0.000000
-0.252852 0.013320 0.000000
-0.256068 0.016920 0.000000
-0.074694 -0.242036 0.000000
-0.073082 -0.246010 0.000000
-0.252611 0.018669 0.000000
-0.255656 0.022234 0.000000
-0.069735 -0.243513 0.000000
-0.068114 -0.247458 0.000000
-0.252141 0.023990 0.000000
-0.255162 0.027444 0.000000
-0.064743 -0.244887 0.000000
-0.063092 -0.248749 0.000000
-0.251604 0.029164 0.000000
-0.254573 0.032595 0.000000
-0.059717 -0.246147 0.000000
-0.058069 -0.249993 0.000000
-0.250974 0.034287 0.000000
-0.253840 0.037734 0.000000
-0.054678 -0.247313 0.000000
-0.053013 -0.251111 0.000000
-0.250231 0.039411 0.000000
-0.253024 0.042842 0.000000
-0.049616 -0.248377 0.000000
-0.047935 -0.252120 0.000000
-0.249361 0.044517 0.000000
-0.252111 0.047933 0.000000
-0.044539 -0.249350 0.000000
-0.042840 -0.253023 0.000000
-0.248407 0.049594 0.000000
-0.251110 0.053004 0.000000
-0.039431 -0.250212 0.000000
-0.037704 -0.253860 0.000000
-0.247324 0.054669 0.000000
-0.249985 0.058059 0.000000
-0.034308 -0.250972 0.000000
-0.032585 -0.254550 0.000000
-0.246143 0.059708 0.000000
-0.248743 0.063082 0.000000
-0.029143 -0.251616 0.000000
-0.027438 -0.255160 0.000000
-0.244868 0.064718 0.000000
-0.247429 0.068085 0.000000
-0.023984 -0.252155 0.000000
-0.022275 -0.255652 0.000000
-0.243509 0.069698 0.000000
-0.245994 0.073043 0.000000
-0.018760 -0.252599 0.000000
-0.017016 -0.256101 0.000000
-0.242036 0.074652 0.000000
-0.244469 0.077981 0.000000
-0.013287 -0.252844 0.000000
-0.011794 -0.256461 0.000000
-0.007824 -0.257115 0.000000
-0.240463 0.079574 0.000000
-0.242849 0.082888 0.000000
-0.007799 -0.253734 0.000000
-0.003878 -0.256704 0.000000
-0.238789 0.084463 0.000000
-0.241130 0.087762 0.000000
-0.002313 -0.253282 0.000000
0.001488 -0.256626 0.000000
-0.237016 0.089317 0.000000
-0.239316 0.092601 0.000000
0.003275 -0.253251 0.000000
0.006791 -0.256518 0.000000
-0.235145 0.094134 0.000000
-0.237412 0.097406 0.000000
0.008519 -0.253134 0.000000
0.011961 -0.256352 0.000000
-0.233173 0.098919 0.000000
-0.235426 0.102191 0.000000
0.013685 -0.252913 0.000000
0.017142 -0.256059 0.000000
-0.231127 0.103687 0.000000
-0.233295 0.106912 0.000000
0.018872 -0.252578 0.000000
0.022325 -0.255665 0.000000
-0.228942 0.108390 0.000000
-0.231092 0.111624 0.000000
0.024038 -0.252148 0.000000
0.027480 -0.255157 0.000000
-0.226657 0.113049 0.000000
-0.228780 0.116278 0.000000
0.029190 -0.251600 0.000000
0.032621 -0.254550 0.000000
-0.224272 0.117709 0.000000
-0.226385 0.120864 0.000000
0.034318 -0.250961 0.000000
0.037740 -0.253831 0.000000
-0.221796 0.122264 0.000000
-0.223999 0.125456 0.000000
0.039411 -0.250224 0.000000
0.042847 -0.253042 0.000000
-0.218901 0.126938 0.000000
-0.221364 0.129767 0.000000
-0.219680 0.133847 0.000000
0.044518 -0.249355 0.000000
0.047933 -0.252121 0.000000
-0.216712 0.132054 0.000000
-0.217004 0.137072 0.000000
0.049586 -0.248413 0.000000
0.052994 -0.251107 0.000000
-0.213232 0.136466 0.000000
-0.214223 0.141523 0.000000
0.054657 -0.247336 0.000000
0.058052 -0.250005 0.000000
-0.210309 0.141140 0.000000
-0.211239 0.145727 0.000000
0.059678 -0.246219 0.000000
0.063074 -0.248801 0.000000
-0.207382 0.145398 0.000000
-0.208266 0.149943 0.000000
0.064707 -0.244891 0.000000
0.068065 -0.247437 0.000000
-0.204377 0.149636 0.000000
-0.205190 0.154130 0.000000
0.069691 -0.243505 0.000000
0.073032 -0.246030 0.000000
-0.201236 0.153821 0.000000
-0.202041 0.158266 0.000000
0.074644 -0.242033 0.000000
0.077971 -0.244510 0.000000
-0.198078 0.157909 0.000000
-0.198801 0.162297 0.000000
0.079563 -0.240462 0.000000
0.082879 -0.242869 0.000000
-0.194813 0.161942 0.000000
-0.195518 0.166295 0.000000
0.084448 -0.238801 0.000000
0.087756 -0.241183 0.000000
-0.191439 0.165882 0.000000
-0.192093 0.170171 0.000000
0.089300 -0.237046 0.000000
0.092599 -0.239343 0.000000
-0.188003 0.169744 0.000000
-0.188653 0.173995 0.000000
0.094143 -0.235202 0.000000
0.097411 -0.237436 0.000000
-0.184499 0.173533 0.000000
-0.185108 0.177774 0.000000
0.098956 -0.233189 0.000000
0.102214 -0.235430 0.000000
-0.180925 0.177258 0.000000
-0.181476 0.181471 0.000000
0.103685 -0.231103 0.000000
0.106930 -0.233289 0.000000
-0.177298 0.180905 0.000000
-0.177799 0.185107 0.000000
0.108419 -0.228930 0.000000
0.111656 -0.231091 0.000000
-0.173586 0.184506 0.000000
-0.174021 0.188619 0.000000
0.113144 -0.226627 0.000000
0.116347 -0.228895 0.000000
-0.169775 0.188019 0.000000
-0.170198 0.192078 0.000000
0.118125 -0.224048 0.000000
0.120958 -0.226462 0.000000
0.124847 -0.224898 0.000000
-0.165874 0.191414 0.000000
-0.166269 0.195460 0.000000
0.123118 -0.221704 0.000000
0.128317 -0.222427 0.000000
-0.161942 0.194765 0.000000
-0.162298 0.198777 0.000000
0.127741 -0.218738 0.000000
0.132718 -0.219773 0.000000
-0.157941 0.198061 0.000000
-0.158267 0.202017 0.000000
0.132458 -0.215906 0.000000
0.137099 -0.216943 0.000000
-0.153841 0.201233 0.000000
-0.154157 0.205176 0.000000
0.136835 -0.213143 0.000000
0.141446 -0.214140 0.000000
-0.149697 0.204336 0.000000
-0.149986 0.208241 0.000000
0.141204 -0.210307 0.000000
0.145766 -0.211267 0.000000
-0.145494 0.207364 0.000000
-0.145771 0.211274 0.000000
0.145482 -0.207382 0.000000
0.149974 -0.208247 0.000000
-0.141205 0.210328 0.000000
-0.141442 0.214144 0.000000
0.149675 -0.204345 0.000000
0.154126 -0.205199 0.000000
-0.136819 0.213112 0.000000
-0.137086 0.216926 0.000000
0.153844 -0.201265 0.000000
0.158238 -0.202080 0.000000
-0.132440 0.215878 0.000000
-0.132694 0.219723 0.000000
0.157910 -0.198046 0.000000
0.162291 -0.198796 0.000000
-0.127703 0.218560 0.000000
-0.128168 0.222340 0.000000
-0.124872 0.224869 0.000000
0.161934 -0.194783 0.000000
0.166261 -0.195477 0.000000
-0.123151 0.221907 0.000000
-0.120918 0.226405 0.000000
0.165879 -0.191440 0.000000
0.170170 -0.192099 0.000000
-0.117906 0.223946 0.000000
-0.116364 0.228838 0.000000
0.169751 -0.188007 0.000000
0.173993 -0.188654 0.000000
-0.113240 0.226633 0.000000
-0.111662 0.231084 0.000000
0.173542 -0.184492 0.000000
0.177760 -0.185096 0.000000
-0.108422 0.228922 0.000000
-0.106961 0.233288 0.000000
0.177261 -0.180914 0.000000
0.181485 -0.181471 0.000000
-0.103737 0.231113 0.000000
-0.102262 0.235399 0.000000
0.180916 -0.177255 0.000000
0.185091 -0.177759 0.000000
-0.098948 0.233164 0.000000
-0.097431 0.237399 0.000000
0.184491 -0.173524 0.000000
0.188622 -0.173999 0.000000
-0.094143 0.235127 0.000000
-0.092613 0.239321 0.000000
0.187992 -0.169728 0.000000
0.192102 -0.170181 0.000000
-0.089317 0.237012 0.000000
-0.087764 0.241132 0.000000
0.191418 -0.165860 0.000000
0.195491 -0.166265 0.000000
-0.084463 0.238789 0.000000
-0.082889 0.242851 0.000000
0.194761 -0.161927 0.000000
0.198782 -0.162297 0.000000
-0.079574 0.240463 0.000000
-0.077984 0.244481 0.000000
0.198034 -0.157937 0.000000
0.202051 -0.158287 0.000000
-0.074655 0.242028 0.000000
-0.073067 0.246024 0.000000
0.201260 -0.153870 0.000000
0.205213 -0.154172 0.000000
-0.069704 0.243501 0.000000
-0.068084 0.247440 0.000000
0.204378 -0.149650 0.000000
0.208273 -0.149949 0.000000
-0.064720 0.244869 0.000000
-0.063076 0.248748 0.000000
0.207393 -0.145398 0.000000
0.211241 -0.145689 0.000000
-0.059719 0.246146 0.000000
-0.058059 0.249953 0.000000
0.210313 -0.141108 0.000000
0.214198 -0.141341 0.000000
-0.054684 0.247314 0.000000
-0.053013 0.251069 0.000000
0.213186 -0.136480 0.000000
0.217027 -0.137061 0.000000
0.219675 -0.133904 0.000000
-0.049626 0.248378 0.000000
-0.047946 0.252085 0.000000
0.216699 -0.132106 0.000000
0.221261 -0.130034 0.000000
-0.044548 0.249339 0.000000
-0.042859 0.253000 0.000000
0.218972 -0.126947 0.000000
0.223829 -0.125513 0.000000
-0.039452 0.250196 0.000000
-0.037755 0.253811 0.000000
0.221761 -0.122278 0.000000
0.226348 -0.120860 0.000000
-0.034339 0.250948 0.000000
-0.032636 0.254520 0.000000
0.224241 -0.117692 0.000000
0.228771 -0.116275 0.000000
-0.029212 0.251597 0.000000
-0.027501 0.255124 0.000000
0.226657 -0.113049 0.000000
0.231079 -0.111599 0.000000
-0.024064 0.252125 0.000000
-0.022349 0.255632 0.000000
0.228947 -0.108402 0.000000
0.233301 -0.106928 0.000000
-0.018895 0.252587 0.000000
-0.017177 0.256059 0.000000
0.231124 -0.103682 0.000000
0.235410 -0.102221 0.000000
-0.013722 0.252906 0.000000
-0.011984 0.256358 0.000000
0.233165 -0.098925 0.000000
0.237410 -0.097418 0.000000
-0.008503 0.253124 0.000000
-0.006797 0.256513 0.000000
0.235127 -0.094138 0.000000
0.239324 -0.092617 0.000000
-0.003298 0.253224 0.000000
-0.001537 0.256626 0.000000
0.236998 -0.089320 0.000000
0.241141 -0.087778 0.000000
0.002151 0.253099 0.000000
0.003665 0.256640 0.000000
0.007850 0.257154 0.000000
0.238771 -0.084467 0.000000
0.242860 -0.082904 0.000000
0.007797 0.253617 0.000000
0.011936 0.256414 0.000000
0.240446 -0.079578 0.000000
0.244481 -0.077996 0.000000
0.013338 0.252784 0.000000
0.017146 0.256139 0.000000
0.242028 -0.074654 0.000000
0.246037 -0.073052 0.000000
0.018795 0.252575 0.000000
0.022298 0.255656 0.000000
0.243509 -0.069698 0.000000
0.247448 -0.068073 0.000000
0.023967 0.252157 0.000000
0.027442 0.255166 0.000000
0.244876 -0.064709 0.000000
0.248758 -0.063061 0.000000
0.029162 0.251616 0.000000
0.032604 0.254548 0.000000
0.246144 -0.059697 0.000000
0.249992 -0.058030 0.000000
0.034292 0.250979 0.000000
0.037736 0.253859 0.000000
0.247309 -0.054662 0.000000
0.251104 -0.052986 0.000000
0.039431 0.250218 0.000000
0.042858 0.253073 0.000000
0.248369 -0.049609 0.000000
0.252103 -0.047938 0.000000
0.044531 0.249396 0.000000
0.047946 0.252110 0.000000
0.249327 -0.044538 0.000000
0.253015 -0.042853 0.000000
0.049638 0.248392 0.000000
0.053019 0.251075 0.000000
0.250196 -0.039452 0.000000
0.253860 -0.037736 0.000000
0.054696 0.247309 0.000000
0.058069 0.249954 0.000000
0.251003 -0.034313 0.000000
0.254598 -0.032621 0.000000
0.059722 0.246136 0.000000
0.063114 0.248759 0.000000
0.251639 -0.029149 0.000000
0.255178 -0.027455 0.000000
0.064734 0.244874 0.000000
0.068093 0.247429 0.000000
0.252168 -0.023976 0.000000
0.255662 -0.022304 0.000000
0.069737 0.243542 0.000000
0.073050 0.246037 0.000000
0.252584 -0.018806 0.000000
0.256143 -0.017147 0.000000
0.074663 0.242036 0.000000
0.077996 0.244480 0.000000
0.252817 -0.013347 0.000000
0.256442 -0.011927 0.000000
0.257154 -0.007852 0.000000
0.079584 0.240452 0.000000
0.082921 0.242866 0.000000
0.253690 -0.007780 0.000000
0.256642 -0.003691 0.000000
0.084471 0.238773 0.000000
0.087778 0.241141 0.000000
0.253096 -0.002165 0.000000
0.256647 0.001559 0.000000
0.089321 0.236998 0.000000
0.092617 0.239324 0.000000
0.253243 0.003287 0.000000
0.256520 0.006794 0.000000
0.094136 0.235126 0.000000
0.097418 0.237410 0.000000
0.253129 0.008465 0.000000
0.256359 0.011971 0.000000
0.098915 0.233157 0.000000
0.102180 0.235399 0.000000
0.252942 0.013681 0.000000
0.256098 0.017161 0.000000
0.103663 0.231094 0.000000
0.106917 0.233294 0.000000
0.252587 0.018892 0.000000
0.255640 0.022345 0.000000
0.108396 0.228944 0.000000
0.111598 0.231082 0.000000
0.252126 0.024061 0.000000
0.255131 0.027498 0.000000
0.113048 0.226663 0.000000
0.116271 0.228781 0.000000
0.251586 0.029205 0.000000
0.254568 0.032637 0.000000
0.117706 0.224256 0.000000
0.120852 0.226357 0.000000
0.250942 0.034329 0.000000
0.253839 0.037736 0.000000
0.122248 0.221776 0.000000
0.125477 0.223846 0.000000
0.250188 0.039438 0.000000
0.253035 0.042843 0.000000
0.126912 0.218965 0.000000
0.130002 0.221279 0.000000
0.249333 0.044533 0.000000
0.252125 0.047929 0.000000
0.132108 0.216694 0.000000
0.133891 0.219601 0.000000
0.248369 0.049612 0.000000
0.251087 0.053006 0.000000
0.136550 0.213160 0.000000
0.137046 0.217019 0.000000
0.247301 0.054671 0.000000
0.249968 0.058053 0.000000
0.141152 0.210287 0.000000
0.141372 0.214174 0.000000
0.246134 0.059706 0.000000
0.248748 0.063076 0.000000
0.145482 0.207387 0.000000
0.145725 0.211231 0.000000
0.244867 0.064717 0.000000
0.247418 0.068075 0.000000
0.149697 0.204345 0.000000
0.149984 0.208266 0.000000
0.243509 0.069698 0.000000
0.246029 0.073052 0.000000
0.153835 0.201247 0.000000
0.154130 0.205204 0.000000
0.242036 0.074652 0.000000
0.244477 0.077982 0.000000
0.157903 0.198039 0.000000
0.158242 0.202054 0.000000
0.240463 0.079574 0.000000
0.242860 0.082888 0.000000
0.161909 0.194770 0.000000
0.162280 0.198807 0.000000
0.238789 0.084463 0.000000
0.241157 0.087764 0.000000
0.165849 0.191427 0.000000
0.166250 0.195508 0.000000
0.237021 0.089328 0.000000
0.239376 0.092639 0.000000
0.169721 0.188004 0.000000
0.170154 0.192121 0.000000
0.235172 0.094182 0.000000
0.237425 0.097450 0.000000
0.173527 0.184503 0.000000
0.173991 0.188648 0.000000
0.233173 0.098964 0.000000
0.235397 0.102209 0.000000
0.177263 0.180930 0.000000
0.177779 0.185108 0.000000
0.231102 0.103711 0.000000
0.233283 0.106944 0.000000
0.180917 0.177274 0.000000
0.181479 0.181481 0.000000
0.228922 0.108427 0.000000
0.231077 0.111631 0.000000
0.184496 0.173546 0.000000
0.185088 0.177792 0.000000
0.226606 0.113135 0.000000
0.228845 0.116324 0.000000
0.187993 0.169732 0.000000
0.188640 0.174022 0.000000
0.223969 0.118039 0.000000
0.226404 0.120897 0.000000
0.191413 0.165855 0.000000
0.192089 0.170164 0.000000
0.221863 0.123176 0.000000
0.224891 0.124847 0.000000
0.194756 0.161915 0.000000
0.195477 0.166261 0.000000
0.218540 0.127743 0.000000
0.222360 0.128216 0.000000
0.198020 0.157909 0.000000
0.198786 0.162290 0.000000
0.215874 0.132431 0.000000
0.219701 0.132630 0.000000
0.201205 0.153841 0.000000
0.202014 0.158253 0.000000
0.213147 0.136837 0.000000
0.216928 0.137078 0.000000
0.204316 0.149710 0.000000
0.210278 0.141207 0.000000
0.207360 0.145490 0.000000
0.205171 0.154172 0.000000
0.214149 0.141432 0.000000
0.208240 0.149993 0.000000
0.211214 0.145747 0.000000
CELLS 1860 7440
3 620 2 0
3 0 622 620
3 621 620 622
3 622 625 621
3 317 621 625
3 625 319 317
3 319 625 629
3 629 321 319
3 321 629 633
3 633 323 321
3 323 633 638
3 638 325 323
3 325 638 642
3 642 327 325
3 327 642 646
3 646 329 327
3 329 646 650
3 650 331 329
3 331 650 654
3 654 333 331
3 333 654 658
3 658 335 333
3 335 658 662
3 662 337 335
3 337 662 666
3 666 339 337
3 339 666 670
3 670 341 339
3 341 670 674
3 674 343 341
3 343 674 678
3 678 345 343
3 345 678 682
3 682 347 345
3 347 682 686
3 686 349 347
3 349 686 690
3 690 351 349
3 351 690 694
3 694 353 351
3 353 694 698
3 698 355 353
3 355 698 703
3 703 357 355
3 357 703 707
3 707 359 357
3 359 707 711
3 711 361 359
3 361 711 715
3 715 363 361
3 363 715 719
3 719 365 363
3 365 719 723
3 723 367 365
3 367 723 727
3 727 369 367
3 369 727 731
3 731 371 369
3 371 731 735
3 735 373 371
3 373 735 739
3 739 375 373
3 375 739 744
3 744 377 375
3 377 744 748
3 748 379 377
3 379 748 752
3 752 381 379
3 381 752 756
3 756 383 381
3 383 756 760
3 760 385 383
3 385 760 764
3 764 387 385
3 387 764 768
3 768 389 387
3 389 768 772
3 772 391 389
3 391 772 776
3 776 393 391
3 393 776 780
3 780 395 393
3 395 780 784
3 784 397 395
3 397 784 788
3 788 399 397
3 399 788 792
3 792 401 399
3 401 792 796
3 796 403 401
3 403 796 800
3 800 405 403
3 405 800 805
3 805 407 405
3 407 805 809
3 809 409 407
3 409 809 813
3 813 411 409
3 411 813 817
3 817 413 411
3 413 817 821
3 821 415 413
3 415 821 825
3 825 417 415
3 417 825 829
3 829 419 417
3 419 829 833
3 833 421 419
3 421 833 837
3 837 423 421
3 423 837 841
3 841 425 423
3 425 841 846
3 846 427 425
3 427 846 850
3 850 429 427
3 429 850 854
3 854 431 429
3 431 854 858
3 858 433 431
3 433 858 862
3 862 435 433
3 435 862 866
3 866 437 435
3 437 866 870
3 870 439 437
3 439 870 874
3 874 441 439
3 441 874 878
3 878 443 441
3 443 878 882
3 882 445 443
3 445 882 886
3 886 447 445
3 447 886 890
3 890 449 447
3 449 890 894
3 894 451 449
3 451 894 898
3 898 453 451
3 453 898 902
3 902 455 453
3 455 902 906
3 906 457 455
3 457 906 911
3 911 459 457
3 459 911 915
3 915 461 459
3 461 915 919
3 919 463 461
3 463 919 923
3 923 465 463
3 465 923 927
3 927 467 465
3 467 927 931
3 931 469 467
3 469 931 935
3 935 471 469
3 471 935 939
3 939 473 471
3 473 939 943
3 943 475 473
3 475 943 948
3 948 477 475
3 477 948 952
3 952 479 477
3 479 952 956
3 956 481 479
3 481 956 960
3 960 483 481
3 483 960 964
3 964 485 483
3 485 964 968
3 968 487 485
3 487 968 972
3 972 489 487
3 489 972 976
3 976 491 489
3 491 976 980
3 980 493 491
3 493 980 984
3 984 495 493
3 495 984 988
3 988 497 495
3 497 988 992
3 992 499 497
3 499 992 996
3 996 501 499
3 501 996 1000
3 1000 503 501
3 503 1000 1004
3 1004 505 503
3 505 1004 1008
3 1008 507 505
3 507 1008 1013
3 1013 509 507
3 509 1013 1017
3 1017 511 509
3 511 1017 1021
3 1021 513 511
3 513 1021 1025
3 1025 515 513
3 515 1025 1029
3 1029 517 515
3 517 1029 1033
3 1033 519 517
3 519 1033 1037
3 1037 521 519
3 521 1037 1041
3 1041 523 521
3 523 1041 1045
3 1045 525 523
3 525 1045 1049
3 1049 527 525
3 527 1049 1054
3 1054 529 527
3 529 1054 1058
3 1058 531 529
3 531 1058 1062
3 1062 533 531
3 533 1062 1066
3 1066 535 533
3 535 1066 1070
3 1070 537 535
3 537 1070 1074
3 1074 539 537
3 539 1074 1078
3 1078 541 539
3 541 1078 1082
3 1082 543 541
3 543 1082 1086
3 1086 545 543
3 545 1086 1090
3 1090 547 545
3 547 1090 1094
3 1094 549 547
3 549 1094 1098
3 1098 551 549
3 551 1098 1102
3 1102 553 551
3 553 1102 1106
3 1106 555 553
3 555 1106 1110
3 1110 557 555
3 557 1110 1115
3 1115 559 557
3 559 1115 1119
3 1119 561 559
3 561 1119 1123
3 1123 563 561
3 563 1123 1127
3 1127 565 563
3 565 1127 1131
3 1131 567 565
3 567 1131 1135
3 1135 569 567
3 569 1135 1139
3 1139 571 569
3 571 1139 1143
3 1143 573 571
3 573 1143 1147
3 1147 575 573
3 575 1147 1151
3 1151 577 575
3 577 1151 1155
3 1155 579 577
3 579 1155 1159
3 1159 581 579
3 581 1159 1163
3 1163 583 581
3 583 1163 1167
3 1167 585 583
3 585 1167 1171
3 1171 587 585
3 587 1171 1175
3 1175 589 587
3 589 1175 1179
3 1179 591 589
3 591 1179 1183
3 1183 593 591
3 593 1183 1187
3 1187 595 593
3 595 1187 1191
3 1191 597 595
3 597 1191 1195
3 1195 599 597
3 599 1195 1199
3 1199 601 599
3 601 1199 1203
3 1203 603 601
3 603 1203 1207
3 1207 605 603
3 605 1207 1211
3 1211 607 605
3 607 1211 1215
3 1215 609 607
3 609 1215 1219
3 1219 611 609
3 611 1219 1223
3 1223 613 611
3 613 1223 1227
3 1227 615 613
3 615 1227 1231
3 1231 617 615
3 617 1231 1234
3 1234 618 617
3 618 1234 1235
3 1235 619 618
3 619 1235 1233
3 1233 616 619
3 616 1233 1229
3 1229 614 616
3 614 1229 1225
3 1225 612 614
3 612 1225 1221
3 1221 610 612
3 610 1221 1217
3 1217 608 610
3 608 1217 1213
3 1213 606 608
3 606 1213 1209
3 1209 604 606
3 604 1209 1205
3 1205 602 604
3 602 1205 1201
3 1201 600 602
3 600 1201 1197
3 1197 598 600
3 598 1197 1193
3 1193 596 598
3 596 1193 1189
3 1189 594 596
3 594 1189 1185
3 1185 592 594
3 592 1185 1181
3 1181 590 592
3 590 1181 1177
3 1177 588 590
3 588 1177 1173
3 1173 586 588
3 586 1173 1169
3 1169 584 586
3 584 1169 1165
3 1165 582 584
3 582 1165 1161
3 1161 580 582
3 580 1161 1157
3 1157 578 580
3 578 1157 1153
3 1153 576 578
3 576 1153 1149
3 1149 574 576
3 574 1149 1145
3 1145 572 574
3 572 1145 1141
3 1141 570 572
3 570 1141 1137
3 1137 568 570
3 568 1137 1133
3 1133 566 568
3 566 1133 1129
3 1129 564 566
3 564 1129 1125
3 1125 562 564
3 562 1125 1121
3 1121 560 562
3 560 1121 1117
3 1117 558 560
3 558 1117 1113
3 1113 556 558
3 556 1113 1108
3 1108 554 556
3 554 1108 1104
3 1104 552 554
3 552 1104 1100
3 1100 550 552
3 550 1100 1096
3 1096 548 550
3 548 1096 1092
3 1092 546 548
3 546 1092 1088
3 1088 544 546
3 544 1088 1084
3 1084 542 544
3 542 1084 1080
3 1080 540 542
3 540 1080 1076
3 1076 538 540
3 538 1076 1072
3 1072 536 538
3 536 1072 1068
3 1068 534 536
3 534 1068 1064
3 1064 532 534
3 532 1064 1060
3 1060 530 532
3 530 1060 1056
3 1056 528 530
3 528 1056 1051
3 1051 526 528
3 526 1051 1047
3 1047 524 526
3 524 1047 1043
3 1043 522 524
3 522 1043 1039
3 1039 520 522
3 520 1039 1035
3 1035 518 520
3 518 1035 1031
3 1031 516 518
3 516 1031 1027
3 1027 514 516
3 514 1027 1023
3 1023 512 514
3 512 1023 1019
3 1019 510 512
3 510 1019 1015
3 1015 508 510
3 508 1015 1011
3 1011 506 508
3 506 1011 1006
3 1006 504 506
3 504 1006 1002
3 1002 502 504
3 502 1002 998
3 998 500 502
3 500 998 994
3 994 498 500
3 498 994 990
3 990 496 498
3 496 990 986
3 986 494 496
3 494 986 982
3 982 492 494
3 492 982 978
3 978 490 492
3 490 978 974
3 974 488 490
3 488 974 970
3 970 486 488
3 486 970 966
3 966 484 486
3 484 966 962
3 962 482 484
3 482 962 958
3 958 480 482
3 480 958 954
3 954 478 480
3 478 954 950
3 950 476 478
3 476 950 945
3 945 474 476
3 474 945 941
3 941 472 474
3 472 941 937
3 937 470 472
3 470 937 933
3 933 468 470
3 468 933 929
3 929 466 468
3 466 929 925
3 925 464 466
3 464 925 921
3 921 462 464
3 462 921 917
3 917 460 462
3 460 917 913
3 913 458 460
3 458 913 909
3 909 456 458
3 456 909 904
3 904 454 456
3 454 904 900
3 900 452 454
3 452 900 896
3 896 450 452
3 450 896 892
3 892 448 450
3 448 892 888
3 888 446 448
3 446 888 884
3 884 444 446
3 444 884 880
3 880 442 444
3 442 880 876
3 876 440 442
3 440 876 872
3 872 438 440
3 438 872 868
3 868 436 438
3 436 868 864
3 864 434 436
3 434 864 860
3 860 432 434
3 432 860 856
3 856 430 432
3 430 856 852
3 852 428 430
3 428 852 848
3 848 426 428
3 426 848 843
3 843 424 426
3 424 843 839
3 839 422 424
3 422 839 835
3 835 420 422
3 420 835 831
3 831 418 420
3 418 831 827
3 827 416 418
3 416 827 823
3 823 414 416
3 414 823 819
3 819 412 414
3 412 819 815
3 815 410 412
3 410 815 811
3 811 408 410
3 408 811 807
3 807 406 408
3 406 807 803
3 803 404 406
3 404 803 798
3 798 402 404
3 402 798 794
3 794 400 402
3 400 794 790
3 790 398 400
3 398 790 786
3 786 396 398
3 396 786 782
3 782 394 396
3 394 782 778
3 778 392 394
3 392 778 774
3 774 390 392
3 390 774 770
3 770 388 390
3 388 770 766
3 766 386 388
3 386 766 762
3 762 384 386
3 384 762 758
3 758 382 384
3 382 758 754
3 754 380 382
3 380 754 750
3 750 378 380
3 378 750 746
3 746 376 378
3 376 746 742
3 742 374 376
3 374 742 737
3 737 372 374
3 372 737 733
3 733 370 372
3 370 733 729
3 729 368 370
3 368 729 725
3 725 366 368
3 366 725 721
3 721 364 366
3 364 721 717
3 717 362 364
3 362 717 713
3 713 360 362
3 360 713 709
3 709 358 360
3 358 709 705
3 705 356 358
3 356 705 701
3 701 354 356
3 354 701 696
3 696 352 354
3 352 696 692
3 692 350 352
3 350 692 688
3 688 348 350
3 348 688 684
3 684 346 348
3 346 684 680
3 680 344 346
3 344 680 676
3 676 342 344
3 342 676 672
3 672 340 342
3 340 672 668
3 668 338 340
3 338 668 664
3 664 336 338
3 336 664 660
3 660 334 336
3 334 660 656
3 656 332 334
3 332 656 652
3 652 330 332
3 330 652 648
3 648 328 330
3 328 648 644
3 644 326 328
3 326 644 640
3 640 324 326
3 324 640 635
3 635 322 324
3 322 635 631
3 631 320 322
3 320 631 627
3 627 318 320
3 318 627 623
3 623 1 318
3 1 623 621
3 624 623 627
3 627 628 624
3 4 624 628
3 628 6 4
3 6 628 632
3 632 8 6
3 8 632 636
3 636 9 8
3 9 636 637
3 637 11 9
3 11 637 641
3 641 13 11
3 13 641 645
3 645 15 13
3 15 645 649
3 649 17 15
3 17 649 653
3 653 19 17
3 19 653 657
3 657 21 19
3 21 657 661
3 661 23 21
3 23 661 665
3 665 25 23
3 25 665 669
3 669 27 25
3 27 669 673
3 673 29 27
3 29 673 677
3 677 31 29
3 31 677 681
3 681 33 31
3 33 681 685
3 685 35 33
3 35 685 689
3 689 37 35
3 37 689 693
3 693 39 37
3 39 693 697
3 697 42 39
3 42 697 702
3 702 44 42
3 44 702 706
3 706 46 44
3 46 706 710
3 710 48 46
3 48 710 714
3 714 50 48
3 50 714 718
3 718 52 50
3 52 718 722
3 722 54 52
3 54 722 726
3 726 56 54
3 56 726 730
3 730 58 56
3 58 730 734
3 734 60 58
3 60 734 738
3 738 62 60
3 62 738 741
3 741 63 62
3 63 741 743
3 743 65 63
3 65 743 747
3 747 67 65
3 67 747 751
3 751 69 67
3 69 751 755
3 755 71 69
3 71 755 759
3 759 73 71
3 73 759 763
3 763 75 73
3 75 763 767
3 767 77 75
3 77 767 771
3 771 79 77
3 79 771 775
3 775 81 79
3 81 775 779
3 779 83 81
3 83 779 783
3 783 85 83
3 85 783 787
3 787 87 85
3 87 787 791
3 791 89 87
3 89 791 795
3 795 91 89
3 91 795 799
3 799 94 91
3 94 799 804
3 804 96 94
3 96 804 808
3 808 98 96
3 98 808 812
3 812 100 98
3 100 812 816
3 816 102 100
3 102 816 820
3 820 104 102
3 104 820 824
3 824 106 104
3 106 824 828
3 828 108 106
3 108 828 832
3 832 110 108
3 110 832 836
3 836 112 110
3 112 836 840
3 840 114 112
3 114 840 844
3 844 115 114
3 115 844 845
3 845 117 115
3 117 845 849
3 849 119 117
3 119 849 853
3 853 121 119
3 121 853 857
3 857 123 121
3 123 857 861
3 861 125 123
3 125 861 865
3 865 127 125
3 127 865 869
3 869 129 127
3 129 869 873
3 873 131 129
3 131 873 877
3 877 133 131
3 133 877 881
3 881 135 133
3 135 881 885
3 885 137 135
3 137 885 889
3 889 139 137
3 139 889 893
3 893 141 139
3 141 893 897
3 897 143 141
3 143 897 901
3 901 145 143
3 145 901 905
3 905 148 145
3 148 905 910
3 910 150 148
3 150 910 914
3 914 152 150
3 152 914 918
3 918 154 152
3 154 918 922
3 922 156 154
3 156 922 926
3 926 158 156
3 158 926 930
3 930 160 158
3 160 930 934
3 934 162 160
3 162 934 938
3 938 164 162
3 164 938 942
3 942 166 164
3 166 942 946
3 946 167 166
3 167 946 947
3 947 169 167
3 169 947 951
3 951 171 169
3 171 951 955
3 955 173 171
3 173 955 959
3 959 175 173
3 175 959 963
3 963 177 175
3 177 963 967
3 967 179 177
3 179 967 971
3 971 181 179
3 181 971 975
3 975 183 181
3 183 975 979
3 979 185 183
3 185 979 983
3 983 187 185
3 187 983 987
3 987 189 187
3 189 987 991
3 991 191 189
3 191 991 995
3 995 193 191
3 193 995 999
3 999 195 193
3 195 999 1003
3 1003 197 195
3 197 1003 1007
3 1007 200 197
3 200 1007 1012
3 1012 202 200
3 202 1012 1016
3 1016 204 202
3 204 1016 1020
3 1020 206 204
3 206 1020 1024
3 1024 208 206
3 208 1024 1028
3 1028 210 208
3 210 1028 1032
3 1032 212 210
3 212 1032 1036
3 1036 214 212
3 214 1036 1040
3 1040 216 214
3 216 1040 1044
3 1044 218 216
3 218 1044 1048
3 1048 220 218
3 220 1048 1052
3 1052 222 220
3 222 1052 1053
3 1053 224 222
3 224 1053 1057
3 1057 226 224
3 226 1057 1061
3 1061 228 226
3 228 1061 1065
3 1065 230 228
3 230 1065 1069
3 1069 232 230
3 232 1069 1073
3 1073 234 232
3 234 1073 1077
3 1077 236 234
3 236 1077 1081
3 1081 238 236
3 238 1081 1085
3 1085 240 238
3 240 1085 1089
3 1089 242 240
3 242 1089 1093
3 1093 244 242
3 244 1093 1097
3 1097 246 244
3 246 1097 1101
3 1101 248 246
3 248 1101 1105
3 1105 250 248
3 250 1105 1109
3 1109 252 250
3 252 1109 1114
3 1114 254 252
3 254 1114 1118
3 1118 256 254
3 256 1118 1122
3 1122 258 256
3 258 1122 1126
3 1126 260 258
3 260 1126 1130
3 1130 262 260
3 262 1130 1134
3 1134 264 262
3 264 1134 1138
3 1138 266 264
3 266 1138 1142
3 1142 268 266
3 268 1142 1146
3 1146 270 268
3 270 1146 1150
3 1150 272 270
3 272 1150 1154
3 1154 274 272
3 274 1154 1158
3 1158 276 274
3 276 1158 1162
3 1162 278 276
3 278 1162 1166
3 1166 280 278
3 280 1166 1170
3 1170 282 280
3 282 1170 1174
3 1174 284 282
3 284 1174 1178
3 1178 286 284
3 286 1178 1182
3 1182 288 286
3 288 1182 1186
3 1186 290 288
3 290 1186 1190
3 1190 292 290
3 292 1190 1194
3 1194 294 292
3 294 1194 1198
3 1198 296 294
3 296 1198 1202
3 1202 298 296
3 298 1202 1206
3 1206 300 298
3 300 1206 1210
3 1210 302 300
3 302 1210 1214
3 1214 304 302
3 304 1214 1218
3 1218 306 304
3 306 1218 1222
3 1222 308 306
3 308 1222 1226
3 1226 310 308
3 310 1226 1230
3 1230 312 310
3 312 1230 1236
3 1236 314 312
3 314 1236 1238
3 1238 316 314
3 316 1238 1239
3 1239 315 316
3 315 1239 1237
3 1237 313 315
3 313 1237 1232
3 1232 311 313
3 311 1232 1228
3 1228 309 311
3 309 1228 1224
3 1224 307 309
3 307 1224 1220
3 1220 305 307
3 305 1220 1216
3 1216 303 305
3 303 1216 1212
3 1212 301 303
3 301 1212 1208
3 1208 299 301
3 299 1208 1204
3 1204 297 299
3 297 1204 1200
3 1200 295 297
3 295 1200 1196
3 1196 293 295
3 293 1196 1192
3 1192 291 293
3 291 1192 1188
3 1188 289 291
3 289 1188 1184
3 1184 287 289
3 287 1184 1180
3 1180 285 287
3 285 1180 1176
3 1176 283 285
3 283 1176 1172
3 1172 281 283
3 281 1172 1168
3 1168 279 281
3 279 1168 1164
3 1164 277 279
3 277 1164 1160
3 1160 275 277
3 275 1160 1156
3 1156 273 275
3 273 1156 1152
3 1152 271 273
3 271 1152 1148
3 1148 269 271
3 269 1148 1144
3 1144 267 269
3 267 1144 1140
3 1140 265 267
3 265 1140 1136
3 1136 263 265
3 263 1136 1132
3 1132 261 263
3 261 1132 1128
3 1128 259 261
3 259 1128 1124
3 1124 257 259
3 257 1124 1120
3 1120 255 257
3 255 1120 1116
3 1116 253 255
3 253 1116 1112
3 1112 251 253
3 251 1112 1111
3 1111 249 251
3 249 1111 1107
3 1107 247 249
3 247 1107 1103
3 1103 245 247
3 245 1103 1099
3 1099 243 245
3 243 1099 1095
3 1095 241 243
3 241 1095 1091
3 1091 239 241
3 239 1091 1087
3 1087 237 239
3 237 1087 1083
3 1083 235 237
3 235 1083 1079
3 1079 233 235
3 233 1079 1075
3 1075 231 233
3 231 1075 1071
3 1071 229 231
3 229 1071 1067
3 1067 227 229
3 227 1067 1063
3 1063 225 227
3 225 1063 1059
3 1059 223 225
3 223 1059 1055
3 1055 221 223
3 221 1055 1050
3 1050 219 221
3 219 1050 1046
3 1046 217 219
3 217 1046 1042
3 1042 215 217
3 215 1042 1038
3 1038 213 215
3 213 1038 1034
3 1034 211 213
3 211 1034 1030
3 1030 209 211
3 209 1030 1026
3 1026 207 209
3 207 1026 1022
3 1022 205 207
3 205 1022 1018
3 1018 203 205
3 203 1018 1014
3 1014 201 203
3 201 1014 1010
3 1010 199 201
3 199 1010 1009
3 1009 198 199
3 198 1009 1005
3 1005 196 198
3 196 1005 1001
3 1001 194 196
3 194 1001 997
3 997 192 194
3 192 997 993
3 993 190 192
3 190 993 989
3 989 188 190
3 188 989 985
3 985 186 188
3 186 985 981
3 981 184 186
3 184 981 977
3 977 182 184
3 182 977 973
3 973 180 182
3 180 973 969
3 969 178 180
3 178 969 965
3 965 176 178
3 176 965 961
3 961 174 176
3 174 961 957
3 957 172 174
3 172 957 953
3 953 170 172
3 170 953 949
3 949 168 170
3 168 949 944
3 944 165 168
3 165 944 940
3 940 163 165
3 163 940 936
3 936 161 163
3 161 936 932
3 932 159 161
3 159 932 928
3 928 157 159
3 157 928 924
3 924 155 157
3 155 924 920
3 920 153 155
3 153 920 916
3 916 151 153
3 151 916 912
3 912 149 151
3 149 912 908
3 908 147 149
3 147 908 907
3 907 146 147
3 146 907 903
3 903 144 146
3 144 903 899
3 899 142 144
3 142 899 895
3 895 140 142
3 140 895 891
3 891 138 140
3 138 891 887
3 887 136 138
3 136 887 883
3 883 134 136
3 134 883 879
3 879 132 134
3 132 879 875
3 875 130 132
3 130 875 871
3 871 128 130
3 128 871 867
3 867 126 128
3 126 867 863
3 863 124 126
3 124 863 859
3 859 122 124
3 122 859 855
3 855 120 122
3 120 855 851
3 851 118 120
3 118 851 847
3 847 116 118
3 116 847 842
3 842 113 116
3 113 842 838
3 838 111 113
3 111 838 834
3 834 109 111
3 109 834 830
3 830 107 109
3 107 830 826
3 826 105 107
3 105 826 822
3 822 103 105
3 103 822 818
3 818 101 103
3 101 818 814
3 814 99 101
3 99 814 810
3 810 97 99
3 97 810 806
3 806 95 97
3 95 806 802
3 802 93 95
3 93 802 801
3 801 92 93
3 92 801 797
3 797 90 92
3 90 797 793
3 793 88 90
3 88 793 789
3 789 86 88
3 86 789 785
3 785 84 86
3 84 785 781
3 781 82 84
3 82 781 777
3 777 80 82
3 80 777 773
3 773 78 80
3 78 773 769
3 769 76 78
3 76 769 765
3 765 74 76
3 74 765 761
3 761 72 74
3 72 761 757
3 757 70 72
3 70 757 753
3 753 68 70
3 68 753 749
3 749 66 68
3 66 749 745
3 745 64 66
3 64 745 740
3 740 61 64
3 61 740 736
3 736 59 61
3 59 736 732
3 732 57 59
3 57 732 728
3 728 55 57
3 55 728 724
3 724 53 55
3 53 724 720
3 720 51 53
3 51 720 716
3 716 49 51
3 49 716 712
3 712 47 49
3 47 712 708
3 708 45 47
3 45 708 704
3 704 43 45
3 43 704 700
3 700 41 43
3 41 700 699
3 699 40 41
3 40 699 695
3 695 38 40
3 38 695 691
3 691 36 38
3 36 691 687
3 687 34 36
3 34 687 683
3 683 32 34
3 32 683 679
3 679 30 32
3 30 679 675
3 675 28 30
3 28 675 671
3 671 26 28
3 26 671 667
3 667 24 26
3 24 667 663
3 663 22 24
3 22 663 659
3 659 20 22
3 20 659 655
3 655 18 20
3 18 655 651
3 651 16 18
3 16 651 647
3 647 14 16
3 14 647 643
3 643 12 14
3 12 643 639
3 639 10 12
3 10 639 634
3 634 7 10
3 7 634 630
3 630 5 7
3 5 630 626
3 626 3 5
3 3 626 622
3 629 626 630
3 633 630 634
3 638 634 639
3 642 639 643
3 646 643 647
3 650 647 651
3 654 651 655
3 658 655 659
3 662 659 663
3 666 663 667
3 670 667 671
3 674 671 675
3 678 675 679
3 682 679 683
3 686 683 687
3 690 687 691
3 694 691 695
3 698 695 699
3 700 703 699
3 700 704 703
3 707 704 708
3 711 708 712
3 715 712 716
3 719 716 720
3 723 720 724
3 727 724 728
3 731 728 732
3 735 732 736
3 739 736 740
3 744 740 745
3 748 745 749
3 752 749 753
3 756 753 757
3 760 757 761
3 764 761 765
3 768 765 769
3 772 769 773
3 776 773 777
3 780 777 781
3 784 781 785
3 788 785 789
3 792 789 793
3 796 793 797
3 800 797 801
3 802 805 801
3 802 806 805
3 809 806 810
3 813 810 814
3 817 814 818
3 821 818 822
3 825 822 826
3 829 826 830
3 833 830 834
3 837 834 838
3 841 838 842
3 846 842 847
3 850 847 851
3 854 851 855
3 858 855 859
3 862 859 863
3 866 863 867
3 870 867 871
3 874 871 875
3 878 875 879
3 882 879 883
3 886 883 887
3 890 887 891
3 894 891 895
3 898 895 899
3 902 899 903
3 906 903 907
3 908 911 907
3 908 912 911
3 915 912 916
3 919 916 920
3 923 920 924
3 927 924 928
3 931 928 932
3 935 932 936
3 939 936 940
3 943 940 944
3 948 944 949
3 952 949 953
3 956 953 957
3 960 957 961
3 964 961 965
3 968 965 969
3 972 969 973
3 976 973 977
3 980 977 981
3 984 981 985
3 988 985 989
3 992 989 993
3 996 993 997
3 1000 997 1001
3 1004 1001 1005
3 1008 1005 1009
3 1010 1013 1009
3 1010 1014 1013
3 1017 1014 1018
3 1021 1018 1022
3 1025 1022 1026
3 1029 1026 1030
3 1033 1030 1034
3 1037 1034 1038
3 1041 1038 1042
3 1045 1042 1046
3 1049 1046 1050
3 1054 1050 1055
3 1058 1055 1059
3 1062 1059 1063
3 1066 1063 1067
3 1070 1067 1071
3 1074 1071 1075
3 1078 1075 1079
3 1082 1079 1083
3 1086 1083 1087
3 1090 1087 1091
3 1094 1091 1095
3 1098 1095 1099
3 1102 1099 1103
3 1106 1103 1107
3 1110 1107 1111
3 1112 1115 1111
3 1112 1116 1115
3 1119 1116 1120
3 1123 1120 1124
3 1127 1124 1128
3 1131 1128 1132
3 1135 1132 1136
3 1139 1136 1140
3 1143 1140 1144
3 1147 1144 1148
3 1151 1148 1152
3 1155 1152 1156
3 1159 1156 1160
3 1163 1160 1164
3 1167 1164 1168
3 1171 1168 1172
3 1175 1172 1176
3 1179 1176 1180
3 1183 1180 1184
3 1187 1184 1188
3 1191 1188 1192
3 1195 1192 1196
3 1199 1196 1200
3 1203 1200 1204
3 1207 1204 1208
3 1211 1208 1212
3 1215 1212 1216
3 1220 1219 1216
3 1220 1224 1219
3 1223 1224 1228
3 1227 1228 1232
3 1231 1232 1237
3 1234 1237 1239
3 1235 1239 1238
3 1233 1238 1236
3 1229 1236 1230
3 1225 1230 1226
3 1221 1226 1222
3 1217 1222 1218
3 1213 1218 1214
3 1209 1214 1210
3 1205 1210 1206
3 1201 1206 1202
3 1197 1202 1198
3 1193 1198 1194
3 1189 1194 1190
3 1185 1190 1186
3 1181 1186 1182
3 1177 1182 1178
3 1173 1178 1174
3 1169 1174 1170
3 1165 1170 1166
3 1161 1166 1162
3 1158 1157 1162
3 1158 1154 1157
3 1153 1154 1150
3 1149 1150 1146
3 1145 1146 1142
3 1141 1142 1138
3 1137 1138 1134
3 1133 1134 1130
3 1129 1130 1126
3 1125 1126 1122
3 1121 1122 1118
3 1117 1118 1114
3 1113 1114 1109
3 1108 1109 1105
3 1104 1105 1101
3 1100 1101 1097
3 1096 1097 1093
3 1092 1093 1089
3 1088 1089 1085
3 1084 1085 1081
3 1080 1081 1077
3 1076 1077 1073
3 1072 1073 1069
3 1068 1069 1065
3 1064 1065 1061
3 1060 1061 1057
3 1053 1056 1057
3 1053 1052 1056
3 1051 1052 1048
3 1047 1048 1044
3 1043 1044 1040
3 1039 1040 1036
3 1035 1036 1032
3 1031 1032 1028
3 1027 1028 1024
3 1023 1024 1020
3 1019 1020 1016
3 1015 1016 1012
3 1011 1012 1007
3 1006 1007 1003
3 1002 1003 999
3 998 999 995
3 994 995 991
3 990 991 987
3 986 987 983
3 982 983 979
3 978 979 975
3 974 975 971
3 970 971 967
3 966 967 963
3 962 963 959
3 958 959 955
3 954 955 951
3 947 950 951
3 947 946 950
3 945 946 942
3 941 942 938
3 937 938 934
3 933 934 930
3 929 930 926
3 925 926 922
3 921 922 918
3 917 918 914
3 913 914 910
3 909 910 905
3 904 905 901
3 900 901 897
3 896 897 893
3 892 893 889
3 888 889 885
3 884 885 881
3 880 881 877
3 876 877 873
3 872 873 869
3 868 869 865
3 864 865 861
3 860 861 857
3 856 857 853
3 852 853 849
3 845 848 849
3 845 844 848
3 844 840 843
3 839 840 836
3 835 836 832
3 831 832 828
3 827 828 824
3 823 824 820
3 819 820 816
3 815 816 812
3 811 812 808
3 807 808 804
3 803 804 799
3 798 799 795
3 794 795 791
3 790 791 787
3 786 787 783
3 782 783 779
3 778 779 775
3 774 775 771
3 770 771 767
3 766 767 763
3 762 763 759
3 758 759 755
3 754 755 751
3 750 751 747
3 743 746 747
3 743 741 746
3 742 741 738
3 737 738 734
3 733 734 730
3 729 730 726
3 725 726 722
3 721 722 718
3 717 718 714
3 713 714 710
3 709 710 706
3 705 706 702
3 701 702 697
3 696 697 693
3 692 693 689
3 688 689 685
3 684 685 681
3 680 681 677
3 676 677 673
3 672 673 669
3 668 669 665
3 664 665 661
3 660 661 657
3 656 657 653
3 652 653 649
3 648 649 645
3 644 645 641
3 637 640 641
3 637 636 640
3 635 636 632
3 631 632 628
3 624 4 2
3 623 624 620
3 628 627 631
3 632 631 635
3 636 635 640
3 641 640 644
3 645 644 648
3 649 648 652
3 653 652 656
3 657 656 660
3 661 660 664
3 665 664 668
3 669 668 672
3 673 672 676
3 677 676 680
3 681 680 684
3 685 684 688
3 689 688 692
3 693 692 696
3 697 696 701
3 702 701 705
3 706 705 709
3 710 709 713
3 714 713 717
3 718 717 721
3 722 721 725
3 726 725 729
3 730 729 733
3 734 733 737
3 738 737 742
3 741 742 746
3 747 746 750
3 751 750 754
3 755 754 758
3 759 758 762
3 763 762 766
3 767 766 770
3 771 770 774
3 775 774 778
3 779 778 782
3 783 782 786
3 787 786 790
3 791 790 794
3 795 794 798
3 799 798 803
3 804 803 807
3 808 807 811
3 812 811 815
3 816 815 819
3 820 819 823
3 824 823 827
3 828 827 831
3 832 831 835
3 836 835 839
3 840 839 843
3 844 843 848
3 849 848 852
3 853 852 856
3 857 856 860
3 861 860 864
3 865 864 868
3 869 868 872
3 873 872 876
3 877 876 880
3 881 880 884
3 885 884 888
3 889 888 892
3 893 892 896
3 897 896 900
3 901 900 904
3 905 904 909
3 910 909 913
3 914 913 917
3 918 917 921
3 922 921 925
3 926 925 929
3 930 929 933
3 934 933 937
3 938 937 941
3 942 941 945
3 946 945 950
3 951 950 954
3 955 954 958
3 959 958 962
3 963 962 966
3 967 966 970
3 971 970 974
3 975 974 978
3 979 978 982
3 983 982 986
3 987 986 990
3 991 990 994
3 995 994 998
3 999 998 1002
3 1003 1002 1006
3 1007 1006 1011
3 1012 1011 1015
3 1016 1015 1019
3 1020 1019 1023
3 1024 1023 1027
3 1028 1027 1031
3 1032 1031 1035
3 1036 1035 1039
3 1040 1039 1043
3 1044 1043 1047
3 1048 1047 1051
3 1052 1051 1056
3 1057 1056 1060
3 1061 1060 1064
3 1065 1064 1068
3 1069 1068 1072
3 1073 1072 1076
3 1077 1076 1080
3 1081 1080 1084
3 1085 1084 1088
3 1089 1088 1092
3 1093 1092 1096
3 1097 1096 1100
3 1101 1100 1104
3 1105 1104 1108
3 1109 1108 1113
3 1114 1113 1117
3 1118 1117 1121
3 1122 1121 1125
3 1126 1125 1129
3 1130 1129 1133
3 1134 1133 1137
3 1138 1137 1141
3 1142 1141 1145
3 1146 1145 1149
3 1150 1149 1153
3 1154 1153 1157
3 1162 1157 1161
3 1166 1161 1165
3 1170 1165 1169
3 1174 1169 1173
3 1178 1173 1177
3 1182 1177 1181
3 1186 1181 1185
3 1190 1185 1189
3 1194 1189 1193
3 1198 1193 1197
3 1202 1197 1201
3 1206 1201 1205
3 1210 1205 1209
3 1214 1209 1213
3 1218 1213 1217
3 1222 1217 1221
3 1226 1221 1225
3 1230 1225 1229
3 1236 1229 1233
3 1238 1233 1235
3 1239 1235 1234
3 1237 1234 1231
3 1232 1231 1227
3 1228 1227 1223
3 1224 1223 1219
3 1216 1219 1215
3 1212 1215 1211
3 1208 1211 1207
3 1204 1207 1203
3 1200 1203 1199
3 1196 1199 1195
3 1192 1195 1191
3 1188 1191 1187
3 1184 1187 1183
3 1180 1183 1179
3 1176 1179 1175
3 1172 1175 1171
3 1168 1171 1167
3 1164 1167 1163
3 1160 1163 1159
3 1156 1159 1155
3 1152 1155 1151
3 1148 1151 1147
3 1144 1147 1143
3 1140 1143 1139
3 1136 1139 1135
3 1132 1135 1131
3 1128 1131 1127
3 1124 1127 1123
3 1120 1123 1119
3 1116 1119 1115
3 1111 1115 1110
3 1107 1110 1106
3 1103 1106 1102
3 1099 1102 1098
3 1095 1098 1094
3 1091 1094 1090
3 1087 1090 1086
3 1083 1086 1082
3 1079 1082 1078
3 1075 1078 1074
3 1071 1074 1070
3 1067 1070 1066
3 1063 1066 1062
3 1059 1062 1058
3 1055 1058 1054
3 1050 1054 1049
3 1046 1049 1045
3 1042 1045 1041
3 1038 1041 1037
3 1034 1037 1033
3 1030 1033 1029
3 1026 1029 1025
3 1022 1025 1021
3 1018 1021 1017
3 1014 1017 1013
3 1009 1013 1008
3 1005 1008 1004
3 1001 1004 1000
3 997 1000 996
3 993 996 992
3 989 992 988
3 985 988 984
3 981 984 980
3 977 980 976
3 973 976 972
3 969 972 968
3 965 968 964
3 961 964 960
3 957 960 956
3 953 956 952
3 949 952 948
3 944 948 943
3 940 943 939
3 936 939 935
3 932 935 931
3 928 931 927
3 924 927 923
3 920 923 919
3 916 919 915
3 912 915 911
3 907 911 906
3 903 906 902
3 899 902 898
3 895 898 894
3 891 894 890
3 887 890 886
3 883 886 882
3 879 882 878
3 875 878 874
3 871 874 870
3 867 870 866
3 863 866 862
3 859 862 858
3 855 858 854
3 851 854 850
3 847 850 846
3 842 846 841
3 838 841 837
3 834 837 833
3 830 833 829
3 826 829 825
3 822 825 821
3 818 821 817
3 814 817 813
3 810 813 809
3 806 809 805
3 801 805 800
3 797 800 796
3 793 796 792
3 789 792 788
3 785 788 784
3 781 784 780
3 777 780 776
3 773 776 772
3 769 772 768
3 765 768 764
3 761 764 760
3 757 760 756
3 753 756 752
3 749 752 748
3 745 748 744
3 740 744 739
3 736 739 735
3 732 735 731
3 728 731 727
3 724 727 723
3 720 723 719
3 716 719 715
3 712 715 711
3 708 711 707
3 704 707 703
3 699 703 698
3 695 698 694
3 691 694 690
3 687 690 686
3 683 686 682
3 679 682 678
3 675 678 674
3 671 674 670
3 667 670 666
3 663 666 662
3 659 662 658
3 655 658 654
3 651 654 650
3 647 650 646
3 643 646 642
3 639 642 638
3 634 638 633
3 630 633 629
3 626 629 625
3 621 317 1
3 625 622 626
3 620 621 623
3 622 0 3
3 2 620 624
CELL_TYPES 1860
9
9
9
9
9
9
9
9
9
9
9
9
9
9
9
9
9
9
9
9
9
9
9
9
9
9
9
9
9
9
9
9
9
9
9
9
9
9
9
9
9
9
9
9
9
9
9
9
9
9
9
9
9
9
9
9
9
9
9
9
9
9
9
9
9
9
9
9
9
9
9
9
9
9
9
9
9
9
9
9
9
9
9
9
9
9
9
9
9
9
9
9
9
9
9
9
9
9
9
9
9
9
9
9
9
9
9
9
9
9
9
9
9
9
9
9
9
9
9
9
9
9
9
9
9
9
9
9
9
9
9
9
9
9
9
9
9
9
9
9
9
9
9
9
9
9
9
9
9
9
9
9
9
9
9
9
9
9
9
9
9
9
9
9
9
9
9
9
9
9
9
9
9
9
9
9
9
9
9
9
9
9
9
9
9
9
9
9
9
9
9
9
9
9
9
9
9
9
9
9
9
9
9
9
9
9
9
9
9
9
9
9
9
9
9
9
9
9
9
9
9
9
9
9
9
9
9
9
9
9
9
9
9
9
9
9
9
9
9
9
9
9
9
9
9
9
9
9
9
9
9
9
9
9
9
9
9
9
9
9
9
9
9
9
9
9
9
9
9
9
9
9
9
9
9
9
9
9
9
9
9
9
9
9
9
9
9
9
9
9
9
9
9
9
9
9
9
9
9
9
9
9
9
9
9
9
9
9
9
9
9
9
9
9
9
9
9
9
9
9
9
9
9
9
9
9
9
9
9
9
9
9
9
9
9
9
9
9
9
9
9
9
9
9
9
9
9
9
9
9
9
9
9
9
9
9
9
9
9
9
9
9
9
9
9
9
9
9
9
9
9
9
9
9
9
9
9
9
9
9
9
9
9
9
9
9
9
9
9
9
9
9
9
9
9
9
9
9
9
9
9
9
9
9
9
9
9
9
9
9
9
9
9
9
9
9
9
9
9
9
9
9
9
9
9
9
9
9
9
9
9
9
9
9
9
9
9
9
9
9
9
9
9
9
9
9
9
9
9
9
9
9
9
9
9
9
9
9
9
9
9
9
9
9
9
9
9
9
9
9
9
9
9
9
9
9
9
9
9
9
9
9
9
9
9
9
9
9
9
9
9
9
9
9
9
9
9
9
9
9
9
9
9
9
9
9
9
9
9
9
9
9
9
9
9
9
9
9
9
9
9
9
9
9
9
9
9
9
9
9
9
9
9
9
9
9
9
9
9
9
9
9
9
9
9
9
9
9
9
9
9
9
9
9
9
9
9
9
9
9
9
9
9
9
9
9
9
9
9
9
9
9
9
9
9
9
9
9
9
9
9
9
9
9
9
9
9
9
9
9
9
9
9
9
9
9
9
9
9
9
9
9
9
9
9
9
9
9
9
9
9
9
9
9
9
9
9
9
9
9
9
9
9
9
9
9
9
9
9
9
9
9
9
9
9
9
9
9
9
9
9
9
9
9
9
9
9
9
9
9
9
9
9
9
9
9
9
9
9
9
9
9
9
9
9
9
9
9
9
9
9
9
9
9
9
9
9
9
9
9
9
9
9
9
9
9
9
9
9
9
9
9
9
9
9
9
9
9
9
9
9
9
9
9
9
9
9
9
9
9
9
9
9
9
9
9
9
9
9
9
9
9
9
9
9
9
9
9
9
9
9
9
9
9
9
9
9
9
9
9
9
9
9
9
9
9
9
9
9
9
9
9
9
9
9
9
9
9
9
9
9
9
9
9
9
9
9
9
9
9
9
9
9
9
9
9
9
9
9
9
9
9
9
9
9
9
9
9
9
9
9
9
9
9
9
9
9
9
9
9
9
9
9
9
9
9
9
9
9
9
9
9
9
9
9
9
9
9
9
9
9
9
9
9
9
9
9
9
9
9
9
9
9
9
9
9
9
9
9
9
9
9
9
9
9
9
9
9
9
9
9
9
9
9
9
9
9
9
9
9
9
9
9
9
9
9
9
9
9
9
9
9
9
9
9
9
9
9
9
9
9
9
9
9
9
9
9
9
9
9
9
9
9
9
9
9
9
9
9
9
9
9
9
9
9
9
9
9
9
9
9
9
9
9
9
9
9
9
9
9
9
9
9
9
9
9
9
9
9
9
9
9
9
9
9
9
9
9
9
9
9
9
9
9
9
9
9
9
9
9
9
9
9
9
9
9
9
9
9
9
9
9
9
9
9
9
9
9
9
9
9
9
9
9
9
9
9
9
9
9
9
9
9
9
9
9
9
9
9
9
9
9
9
9
9
9
9
9
9
9
9
9
9
9
9
9
9
9
9
9
9
9
9
9
9
9
9
9
9
9
9
9
9
9
9
9
9
9
9
9
9
9
9
9
9
9
9
9
9
9
9
9
9
9
9
9
9
9
9
9
9
9
9
9
9
9
9
9
9
9
9
9
9
9
9
9
9
9
9
9
9
9
9
9
9
9
9
9
9
9
9
9
9
9
9
9
9
9
9
9
9
9
9
9
9
9
9
9
9
9
9
9
9
9
9
9
9
9
9
9
9
9
9
9
9
9
9
9
9
9
9
9
9
9
9
9
9
9
9
9
9
9
9
9
9
9
9
9
9
9
9
9
9
9
9
9
9
9
9
9
9
9
9
9
9
9
9
9
9
9
9
9
9
9
9
9
9
9
9
9
9
9
9
9
9
9
9
9
9
9
9
9
9
9
9
9
9
9
9
9
9
9
9
9
9
9
9
9
9
9
9
9
9
9
9
9
9
9
9
9
9
9
9
9
9
9
9
9
9
9
9
9
9
9
9
9
9
9
9
9
9
9
9
9
9
9
9
9
9
9
9
9
9
9
9
9
9
9
9
9
9
9
9
9
9
9
9
9
9
9
9
9
9
9
9
9
9
9
9
9
9
9
9
9
9
9
9
9
9
9
9
9
9
9
9
9
9
9
9
9
9
9
9
9
9
9
9
9
9
9
9
9
9
9
9
9
9
9
9
9
9
9
9
9
9
9
9
9
9
9
9
9
9
9
9
9
9
9
9
9
9
9
9
9
9
9
9
9
9
9
9
9
9
9
9
9
9
9
9
9
9
9
9
9
9
9
9
9
9
9
9
9
9
9
9
9
9
9
9
9
9
9
9
9
9
9
9
9
9
9
9
9
9
9
9
9
9
9
9
9
9
9
9
9
9
9
9
9
9
9
9
9
9
9
9
9
9
9
9
9
9
9
9
9
9
9
9
9
9
9
9
9
9
9
9
9
9
9
9
9
9
9
9
9
9
9
9
9
9
9
9
9
9
9
9
9
9
9
9
9
9
9
9
9
9
9
9
9
9
9
9
9
9
9
9
9
9
9
9
9
9
9
9
9
9
9
9
9
9
9
9
9
9
9
9
9
9
9
9
9
9
9
9
9
9
9
9
9
9
9
9
9
9
9
9
9
9
9
9
9
9
9
9
9
9
9
9
9
9
9
9
9
9
9
9
9
9
9
9
9
9
9
9
9
9
9
9
9
9
9
9
9
9
9
9
9
9
9
9
9
9
9
9
9
9
9
9
9
9
9
9
9
9
9
9
9
9
9
9
9
9
9
9
9
9
9
9
9
9
9
9
9
9
9
9
9
9
9
9
9
9
9
9
9
9
9
9
9
9
9
9
9
9
9
9
9
9
9
9
9
9
9
9
9
9
9
9
9
9
9
9
9
9
9
9
9
9
9
9
9
9
9
9
9
9
9
9
9
9
9
9
9
9
9
9
9
9
9
9
9
9
9
9
9
9
9
9
9
9
9
9
9
9
9
9
9
9
9
9
9
9
9
9
9
9
9
9
9
9
9
9
9
9
9
9
9
9
9
9
9
9
9
9
9
9
9
9
9
9
9
9
9
9
9
9
9
9
9
9
9
9
9
9
9
9
9
9
9
9
9
9
9
9
9
9
9
9
9
9
9
9
9
9
9
9
9
9
9
9
9
9
9
9
9
9
9
9
9
9
9
9
9
9
9
9
9
9
9
9
9
9
9
9
9
9
9
9
9
9
9
9
9
9
9
9
9
9
9
9
9
9
9
9
9
9
9
9
9
9
9
9
9
9
9
9
9
9
9
9
9
9
9
9
9
9
9
9
9
9
9
9
9
9
9
9
9
9
9
9
9
9
9
9
9
9
9
9
9
9
9
9
9
9
9
9
9
9
9
9
9
9
9
9
9
9
9
9
9
9
9
9
9
9
9
9
9
9
9
9
9
POINT_DATA 1240
SCALARS u1 float
LOOKUP_TABLE default
-6e-06
-5e-06
-5e-06
-6e-06
-5e-06
-7e-06
-5e-06
-7e-06
-4e-06
-4e-06
-7e-06
-4e-06
-8e-06
-5e-06
-8e-06
-5e-06
-8e-06
-5e-06
-8e-06
-5e-06
-7e-06
-6e-06
-7e-06
-6e-06
-7e-06
-7e-06
-6e-06
-7e-06
-6e-06
-8e-06
-5e-06
-8e-06
-4e-06
-9e-06
-4e-06
-1e-05
-3e-06
-1e-05
-3e-06
-1e-05
-3e-06
-2e-06
-1e-05
-2e-06
-1e-05
-2e-06
-2e-05
-2e-06
-2e-05
-2e-06
-2e-05
-2e-06
-2e-05
-2e-06
-2e-05
-2e-06
-2e-05
-2e-06
-2e-05
-2e-06
-2e-05
-2e-06
-2e-05
-2e-05
-2e-06
-2e-05
-2e-06
-2e-05
-3e-06
-2e-05
-3e-06
-2e-05
-3e-06
-2e-05
-3e-06
-2e-05
-3e-06
-2e-05
-3e-06
-2e-05
-3e-06
-1e-05
-3e-06
-1e-05
-3e-06
-1e-05
-3e-06
-1e-05
-3e-06
-1e-05
-3e-06
-9e-06
-2e-06
-2e-06
-8e-06
-2e-06
-8e-06
-2e-06
-7e-06
-1e-06
-7e-06
-1e-06
-6e-06
-7e-07
-6e-06
-5e-07
-6e-06
-2e-07
-6e-06
-4e-08
-5e-06
1e-07
-5e-06
2e-07
-5e-06
-5e-06
2e-07
-6e-06
2e-07
-6e-06
1e-07
-6e-06
-1e-08
-7e-06
-2e-07
-7e-06
-4e-07
-8e-06
-6e-07
-8e-06
-8e-07
-9e-06
-9e-07
-9e-06
-1e-06
-9e-06
-1e-06
-9e-06
-1e-06
-9e-06
-1e-06
-9e-06
-1e-06
-8e-06
-1e-06
-8e-06
-1e-06
-1e-06
-7e-06
-1e-06
-7e-06
-1e-06
-6e-06
-1e-06
-6e-06
-7e-07
-5e-06
-5e-07
-5e-06
-8e-08
-4e-06
4e-07
-4e-06
9e-07
-4e-06
1e-06
-4e-06
-4e-06
2e-06
-4e-06
3e-06
-4e-06
3e-06
-4e-06
3e-06
-4e-06
4e-06
-4e-06
4e-06
-4e-06
4e-06
-4e-06
4e-06
-4e-06
4e-06
-4e-06
4e-06
-4e-06
3e-06
-4e-06
3e-06
-5e-06
2e-06
-5e-06
2e-06
-5e-06
1e-06
-5e-06
1e-06
7e-07
-5e-06
5e-07
-5e-06
4e-07
-5e-06
4e-07
-5e-06
5e-07
-5e-06
7e-07
-5e-06
9e-07
-4e-06
1e-06
-4e-06
1e-06
-4e-06
2e-06
-4e-06
2e-06
-3e-06
3e-06
-3e-06
3e-06
-3e-06
4e-06
-3e-06
5e-06
-2e-06
6e-06
-2e-06
7e-06
-2e-06
8e-06
-2e-06
9e-06
-2e-06
1e-05
-2e-06
1e-05
-2e-06
1e-05
-2e-06
1e-05
-2e-06
1e-05
-2e-06
1e-05
-2e-06
2e-05
-2e-06
2e-05
-3e-06
2e-05
-3e-06
2e-05
-3e-06
2e-05
-3e-06
2e-05
-3e-06
1e-05
-3e-06
1e-05
-3e-06
1e-05
-3e-06
1e-05
-3e-06
1e-05
-3e-06
1e-05
-3e-06
1e-05
-3e-06
9e-06
-3e-06
8e-06
-2e-06
6e-06
-2e-06
5e-06
-2e-06
4e-06
-1e-06
4e-06
-6e-07
3e-06
3e-08
2e-06
6e-07
2e-06
1e-06
1e-06
2e-06
8e-07
2e-06
4e-07
2e-06
2e-07
3e-06
-9e-08
3e-06
-3e-07
3e-06
-4e-07
3e-06
-5e-07
2e-06
-4e-07
2e-06
-3e-07
2e-06
-3e-08
1e-06
3e-07
7e-07
-5e-06
-5e-06
-6e-06
-4e-06
-6e-06
-4e-06
-6e-06
-5e-06
-7e-06
-5e-06
-7e-06
-5e-06
-7e-06
-5e-06
-8e-06
-5e-06
-8e-06
-6e-06
-8e-06
-6e-06
-7e-06
-7e-06
-7e-06
-7e-06
-7e-06
-8e-06
-6e-06
-9e-06
-6e-06
-9e-06
-5e-06
-1e-05
-4e-06
-1e-05
-4e-06
-1e-05
-3e-06
-1e-05
-3e-06
-1e-05
-3e-06
-2e-05
-2e-06
-2e-05
-2e-06
-2e-05
-2e-06
-2e-05
-2e-06
-2e-05
-2e-06
-2e-05
-2e-06
-2e-05
-1e-06
-2e-05
-1e-06
-2e-05
-1e-06
-2e-05
-1e-06
-2e-05
-1e-06
-2e-05
-1e-06
-2e-05
-1e-06
-2e-05
-1e-06
-2e-05
-1e-06
-2e-05
-1e-06
-2e-05
-1e-06
-2e-05
-1e-06
-1e-05
-2e-06
-1e-05
-2e-06
-1e-05
-2e-06
-1e-05
-2e-06
-1e-05
-2e-06
-9e-06
-2e-06
-8e-06
-2e-06
-8e-06
-2e-06
-7e-06
-2e-06
-7e-06
-2e-06
-6e-06
-2e-06
-6e-06
-2e-06
-6e-06
-2e-06
-6e-06
-2e-06
-5e-06
-2e-06
-5e-06
-2e-06
-5e-06
-2e-06
-5e-06
-2e-06
-6e-06
-2e-06
-6e-06
-2e-06
-6e-06
-2e-06
-7e-06
-2e-06
-7e-06
-2e-06
-8e-06
-2e-06
-8e-06
-2e-06
-8e-06
-2e-06
-9e-06
-2e-06
-9e-06
-2e-06
-9e-06
-2e-06
-9e-06
-2e-06
-9e-06
-1e-06
-8e-06
-1e-06
-8e-06
-1e-06
-8e-06
-8e-07
-7e-06
-4e-07
-6e-06
-1e-08
-6e-06
5e-07
-5e-06
1e-06
-5e-06
2e-06
-4e-06
2e-06
-4e-06
3e-06
-4e-06
3e-06
-4e-06
3e-06
-3e-06
4e-06
-3e-06
4e-06
-3e-06
4e-06
-3e-06
4e-06
-3e-06
4e-06
-3e-06
3e-06
-3e-06
3e-06
-3e-06
3e-06
-3e-06
2e-06
-3e-06
2e-06
-3e-06
1e-06
-3e-06
9e-07
-3e-06
7e-07
-3e-06
5e-07
-3e-06
4e-07
-3e-06
4e-07
-3e-06
6e-07
-3e-06
8e-07
-3e-06
1e-06
-3e-06
1e-06
-3e-06
2e-06
-3e-06
2e-06
-3e-06
2e-06
-3e-06
3e-06
-3e-06
3e-06
-3e-06
4e-06
-3e-06
5e-06
-3e-06
6e-06
-3e-06
7e-06
-3e-06
8e-06
-3e-06
9e-06
-3e-06
1e-05
-4e-06
1e-05
-4e-06
1e-05
-4e-06
1e-05
-4e-06
1e-05
-4e-06
1e-05
-4e-06
2e-05
-4e-06
2e-05
-4e-06
2e-05
-4e-06
2e-05
-4e-06
2e-05
-3e-06
2e-05
-3e-06
2e-05
-3e-06
1e-05
-3e-06
1e-05
-3e-06
1e-05
-3e-06
1e-05
-3e-06
1e-05
-2e-06
1e-05
-2e-06
9e-06
-1e-06
8e-06
-1e-06
7e-06
-4e-07
5e-06
1e-07
5e-06
7e-07
4e-06
1e-06
3e-06
2e-06
2e-06
2e-06
2e-06
2e-06
1e-06
3e-06
9e-07
3e-06
5e-07
3e-06
2e-07
3e-06
-3e-08
2e-06
-3e-07
2e-06
-4e-07
2e-06
-5e-07
1e-06
-4e-07
6e-07
-3e-07
-7e-08
3e-07
-5e-06
-5e-06
-6e-06
-5e-06
-5e-06
-6e-06
-6e-06
-5e-06
-5e-06
-6e-06
-7e-06
-4e-06
-4e-06
-6e-06
-7e-06
-4e-06
-4e-06
-4e-06
-7e-06
-7e-06
-4e-06
-5e-06
-7e-06
-8e-06
-5e-06
-5e-06
-7e-06
-8e-06
-5e-06
-5e-06
-8e-06
-8e-06
-5e-06
-5e-06
-8e-06
-8e-06
-6e-06
-6e-06
-8e-06
-7e-06
-6e-06
-6e-06
-7e-06
-7e-06
-6e-06
-6e-06
-7e-06
-7e-06
-7e-06
-7e-06
-7e-06
-6e-06
-7e-06
-7e-06
-6e-06
-6e-06
-8e-06
-8e-06
-6e-06
-5e-06
-9e-06
-9e-06
-5e-06
-4e-06
-1e-05
-1e-05
-4e-06
-4e-06
-1e-05
-1e-05
-4e-06
-3e-06
-1e-05
-1e-05
-3e-06
-3e-06
-1e-05
-1e-05
-3e-06
-3e-06
-2e-06
-1e-05
-1e-05
-3e-06
-2e-06
-2e-05
-2e-05
-2e-06
-2e-06
-2e-05
-2e-05
-2e-06
-2e-06
-2e-05
-2e-05
-2e-06
-2e-06
-2e-05
-2e-05
-2e-06
-2e-06
-2e-05
-2e-05
-2e-06
-2e-06
-2e-05
-2e-05
-2e-06
-2e-06
-2e-05
-2e-05
-2e-06
-2e-06
-2e-05
-2e-05
-2e-06
-2e-06
-2e-05
-2e-05
-2e-06
-2e-06
-2e-05
-2e-05
-2e-05
-2e-06
-2e-06
-2e-05
-2e-05
-2e-06
-2e-06
-2e-05
-2e-05
-2e-06
-2e-06
-2e-05
-2e-05
-2e-06
-2e-06
-2e-05
-2e-05
-2e-06
-2e-06
-2e-05
-2e-05
-2e-06
-3e-06
-2e-05
-2e-05
-2e-06
-3e-06
-2e-05
-2e-05
-2e-06
-3e-06
-2e-05
-1e-05
-2e-06
-3e-06
-1e-05
-1e-05
-2e-06
-3e-06
-1e-05
-1e-05
-2e-06
-3e-06
-1e-05
-1e-05
-2e-06
-3e-06
-1e-05
-1e-05
-2e-06
-2e-06
-1e-05
-1e-05
-2e-06
-2e-06
-9e-06
-9e-06
-2e-06
-2e-06
-2e-06
-9e-06
-8e-06
-2e-06
-2e-06
-8e-06
-8e-06
-2e-06
-2e-06
-7e-06
-7e-06
-2e-06
-1e-06
-7e-06
-7e-06
-1e-06
-1e-06
-7e-06
-6e-06
-1e-06
-9e-07
-6e-06
-6e-06
-1e-06
-8e-07
-6e-06
-6e-06
-1e-06
-6e-07
-6e-06
-6e-06
-1e-06
-5e-07
-6e-06
-5e-06
-1e-06
-5e-07
-5e-06
-5e-06
-1e-06
-4e-07
-5e-06
-5e-06
-5e-06
-1e-06
-5e-07
-5e-06
-6e-06
-1e-06
-5e-07
-6e-06
-6e-06
-1e-06
-6e-07
-6e-06
-6e-06
-1e-06
-8e-07
-6e-06
-7e-06
-1e-06
-9e-07
-7e-06
-7e-06
-2e-06
-1e-06
-7e-06
-8e-06
-2e-06
-1e-06
-8e-06
-8e-06
-2e-06
-1e-06
-8e-06
-8e-06
-2e-06
-1e-06
-8e-06
-9e-06
-2e-06
-1e-06
-9e-06
-9e-06
-2e-06
-1e-06
-9e-06
-9e-06
-2e-06
-1e-06
-9e-06
-9e-06
-2e-06
-1e-06
-9e-06
-9e-06
-2e-06
-1e-06
-9e-06
-8e-06
-1e-06
-1e-06
-8e-06
-8e-06
-1e-06
-1e-06
-1e-06
-8e-06
-7e-06
-1e-06
-1e-06
-8e-06
-7e-06
-1e-06
-1e-06
-7e-06
-6e-06
-7e-07
-7e-07
-6e-06
-6e-06
-4e-07
-4e-07
-6e-06
-5e-06
-9e-09
-3e-08
-5e-06
-5e-06
4e-07
4e-07
-5e-06
-5e-06
1e-06
9e-07
-5e-06
-4e-06
2e-06
1e-06
-4e-06
-4e-06
2e-06
2e-06
-4e-06
-4e-06
-4e-06
3e-06
3e-06
-4e-06
-4e-06
3e-06
3e-06
-4e-06
-4e-06
3e-06
3e-06
-3e-06
-4e-06
4e-06
4e-06
-3e-06
-4e-06
4e-06
4e-06
-3e-06
-3e-06
4e-06
4e-06
-3e-06
-3e-06
4e-06
4e-06
-3e-06
-4e-06
4e-06
4e-06
-3e-06
-4e-06
3e-06
4e-06
-3e-06
-4e-06
3e-06
3e-06
-3e-06
-4e-06
3e-06
3e-06
-3e-06
-4e-06
2e-06
2e-06
-3e-06
-4e-06
2e-06
2e-06
-3e-06
-4e-06
1e-06
1e-06
-4e-06
-4e-06
9e-07
9e-07
-4e-06
-4e-06
6e-07
7e-07
5e-07
-4e-06
-4e-06
5e-07
4e-07
-4e-06
-4e-06
4e-07
4e-07
-4e-06
-4e-06
5e-07
5e-07
-4e-06
-4e-06
6e-07
7e-07
-4e-06
-4e-06
8e-07
9e-07
-4e-06
-4e-06
1e-06
1e-06
-4e-06
-4e-06
1e-06
1e-06
-4e-06
-4e-06
2e-06
2e-06
-4e-06
-4e-06
2e-06
2e-06
-3e-06
-3e-06
2e-06
3e-06
-3e-06
-3e-06
-3e-06
3e-06
3e-06
-3e-06
-3e-06
4e-06
4e-06
-3e-06
-3e-06
4e-06
5e-06
-3e-06
-3e-06
5e-06
6e-06
-3e-06
-2e-06
6e-06
7e-06
-3e-06
-2e-06
7e-06
8e-06
-3e-06
-2e-06
8e-06
9e-06
-3e-06
-2e-06
1e-05
1e-05
-3e-06
-2e-06
1e-05
1e-05
-3e-06
-2e-06
1e-05
1e-05
-3e-06
-2e-06
1e-05
1e-05
-3e-06
-2e-06
1e-05
1e-05
-3e-06
-3e-06
1e-05
1e-05
-3e-06
-3e-06
1e-05
1e-05
-3e-06
-3e-06
2e-05
2e-05
2e-05
-3e-06
-3e-06
2e-05
2e-05
-3e-06
-3e-06
2e-05
2e-05
-3e-06
-3e-06
2e-05
2e-05
-3e-06
-3e-06
2e-05
2e-05
-3e-06
-3e-06
2e-05
1e-05
-3e-06
-3e-06
1e-05
1e-05
-3e-06
-3e-06
1e-05
1e-05
-3e-06
-3e-06
1e-05
1e-05
-3e-06
-3e-06
1e-05
1e-05
-3e-06
-3e-06
1e-05
1e-05
-3e-06
-3e-06
1e-05
1e-05
-2e-06
-2e-06
9e-06
8e-06
-2e-06
-2e-06
8e-06
7e-06
-1e-06
-2e-06
7e-06
6e-06
-1e-06
-2e-06
6e-06
5e-06
-5e-07
-1e-06
5e-06
4e-06
1e-07
-5e-07
4e-06
3e-06
7e-07
6e-08
3e-06
3e-06
1e-06
6e-07
2e-06
2e-06
2e-06
1e-06
2e-06
1e-06
2e-06
2e-06
1e-06
1e-06
2e-06
2e-06
9e-07
7e-07
3e-06
2e-06
6e-07
4e-07
3e-06
3e-06
3e-07
9e-08
3e-06
3e-06
2e-08
-2e-07
3e-06
3e-06
-2e-07
-3e-07
2e-06
3e-06
-4e-07
-5e-07
2e-06
2e-06
-5e-07
-5e-07
2e-06
2e-06
-4e-07
-4e-07
1e-06
2e-06
-3e-07
-3e-07
7e-07
-6e-08
3e-07
1e-06
-5e-08
7e-07
3e-07
SCALARS u2 float
LOOKUP_TABLE default
-1e-06
-2e-06
-9e-07
-2e-06
-7e-07
-2e-06
-4e-07
-3e-06
-3e-07
-2e-07
-3e-06
-2e-07
-4e-06
-2e-07
-4e-06
-1e-07
-5e-06
-1e-07
-5e-06
-1e-07
-5e-06
-2e-07
-5e-06
-2e-07
-5e-06
-3e-07
-5e-06
-5e-07
-5e-06
-6e-07
-5e-06
-8e-07
-4e-06
-1e-06
-4e-06
-1e-06
-3e-06
-1e-06
-3e-06
-2e-06
-2e-06
-2e-06
-2e-06
-2e-06
-2e-06
-2e-06
-2e-06
-2e-06
-2e-06
-2e-06
-1e-06
-2e-06
-1e-06
-2e-06
-1e-06
-3e-06
-7e-07
-3e-06
-5e-07
-3e-06
-2e-07
-4e-06
1e-07
5e-07
-4e-06
7e-07
-5e-06
1e-06
-5e-06
1e-06
-6e-06
1e-06
-7e-06
2e-06
-8e-06
2e-06
-9e-06
2e-06
-1e-05
2e-06
-1e-05
2e-06
-1e-05
2e-06
-1e-05
2e-06
-1e-05
2e-06
-2e-05
1e-06
-2e-05
1e-06
-2e-05
-2e-05
1e-06
-2e-05
9e-07
-2e-05
7e-07
-2e-05
7e-07
-2e-05
6e-07
-2e-05
6e-07
-2e-05
6e-07
-2e-05
6e-07
-1e-05
6e-07
-1e-05
7e-07
-1e-05
7e-07
8e-07
-1e-05
1e-06
-1e-05
1e-06
-9e-06
2e-06
-8e-06
2e-06
-7e-06
2e-06
-6e-06
3e-06
-5e-06
4e-06
-4e-06
4e-06
-4e-06
5e-06
-3e-06
5e-06
-3e-06
6e-06
-2e-06
6e-06
-2e-06
6e-06
-2e-06
6e-06
-1e-06
6e-06
-1e-06
-1e-06
6e-06
-9e-07
6e-06
-1e-06
6e-06
-1e-06
5e-06
-1e-06
5e-06
-2e-06
4e-06
-2e-06
4e-06
-3e-06
3e-06
-3e-06
3e-06
-3e-06
3e-06
3e-06
-4e-06
3e-06
-4e-06
3e-06
-4e-06
3e-06
-4e-06
4e-06
-4e-06
4e-06
-4e-06
4e-06
-4e-06
5e-06
-3e-06
5e-06
-3e-06
6e-06
-2e-06
6e-06
-1e-06
7e-06
-9e-07
8e-06
-3e-07
9e-06
1e-07
1e-05
5e-07
1e-05
9e-07
1e-06
1e-05
1e-06
1e-05
1e-06
1e-05
1e-06
2e-05
1e-06
2e-05
1e-06
2e-05
2e-06
2e-05
2e-06
2e-05
1e-06
2e-05
1e-06
2e-05
1e-06
2e-05
1e-06
2e-05
1e-06
2e-05
9e-07
2e-05
7e-07
2e-05
5e-07
2e-05
4e-07
2e-05
2e-07
2e-05
2e-07
1e-05
1e-07
1e-05
2e-07
1e-05
3e-07
1e-05
4e-07
1e-05
6e-07
9e-06
9e-07
8e-06
1e-06
8e-06
1e-06
7e-06
2e-06
6e-06
2e-06
6e-06
2e-06
5e-06
3e-06
5e-06
3e-06
5e-06
3e-06
4e-06
3e-06
4e-06
3e-06
4e-06
4e-06
4e-06
4e-06
4e-06
4e-06
4e-06
4e-06
4e-06
4e-06
4e-06
3e-06
5e-06
3e-06
5e-06
3e-06
6e-06
3e-06
6e-06
3e-06
7e-06
3e-06
7e-06
2e-06
7e-06
2e-06
8e-06
2e-06
8e-06
2e-06
7e-06
2e-06
7e-06
2e-06
7e-06
2e-06
7e-06
2e-06
6e-06
2e-06
6e-06
2e-06
5e-06
3e-06
4e-06
3e-06
4e-06
3e-06
3e-06
-2e-06
-1e-06
-3e-06
-1e-06
-4e-06
-6e-07
-4e-06
-3e-07
-5e-06
-1e-07
-5e-06
3e-08
-5e-06
1e-07
-5e-06
2e-07
-5e-06
3e-07
-5e-06
4e-07
-5e-06
5e-07
-5e-06
6e-07
-5e-06
6e-07
-4e-06
7e-07
-4e-06
7e-07
-3e-06
7e-07
-3e-06
6e-07
-2e-06
6e-07
-2e-06
5e-07
-2e-06
4e-07
-2e-06
3e-07
-2e-06
3e-07
-2e-06
2e-07
-2e-06
2e-07
-2e-06
1e-07
-3e-06
1e-07
-3e-06
2e-07
-3e-06
2e-07
-4e-06
2e-07
-4e-06
2e-07
-5e-06
2e-07
-6e-06
2e-07
-6e-06
2e-07
-7e-06
2e-07
-8e-06
2e-07
-9e-06
1e-07
-1e-05
3e-08
-1e-05
-4e-08
-1e-05
-1e-07
-1e-05
-2e-07
-1e-05
-2e-07
-2e-05
-2e-07
-2e-05
-2e-07
-2e-05
-2e-07
-2e-05
-2e-07
-2e-05
-1e-07
-2e-05
-1e-08
-2e-05
8e-08
-2e-05
2e-07
-2e-05
3e-07
-2e-05
4e-07
-2e-05
5e-07
-1e-05
7e-07
-1e-05
9e-07
-1e-05
1e-06
-1e-05
2e-06
-1e-05
2e-06
-9e-06
3e-06
-8e-06
3e-06
-7e-06
4e-06
-6e-06
4e-06
-5e-06
5e-06
-4e-06
5e-06
-4e-06
6e-06
-3e-06
6e-06
-3e-06
6e-06
-2e-06
6e-06
-2e-06
6e-06
-2e-06
6e-06
-1e-06
6e-06
-1e-06
5e-06
-1e-06
5e-06
-9e-07
5e-06
-1e-06
4e-06
-1e-06
4e-06
-1e-06
3e-06
-2e-06
3e-06
-2e-06
3e-06
-3e-06
3e-06
-3e-06
3e-06
-3e-06
3e-06
-4e-06
3e-06
-4e-06
4e-06
-4e-06
4e-06
-4e-06
4e-06
-4e-06
5e-06
-4e-06
5e-06
-4e-06
6e-06
-3e-06
6e-06
-3e-06
7e-06
-2e-06
8e-06
-2e-06
9e-06
-1e-06
1e-05
-4e-07
1e-05
6e-08
1e-05
5e-07
1e-05
9e-07
1e-05
1e-06
2e-05
1e-06
2e-05
2e-06
2e-05
2e-06
2e-05
2e-06
2e-05
2e-06
2e-05
2e-06
2e-05
2e-06
2e-05
2e-06
2e-05
2e-06
2e-05
2e-06
2e-05
2e-06
2e-05
2e-06
2e-05
2e-06
2e-05
2e-06
2e-05
2e-06
1e-05
2e-06
1e-05
2e-06
1e-05
2e-06
1e-05
2e-06
1e-05
2e-06
9e-06
2e-06
9e-06
2e-06
8e-06
2e-06
7e-06
2e-06
6e-06
2e-06
6e-06
2e-06
5e-06
2e-06
5e-06
2e-06
5e-06
2e-06
5e-06
2e-06
4e-06
2e-06
4e-06
2e-06
4e-06
2e-06
4e-06
2e-06
4e-06
2e-06
4e-06
2e-06
4e-06
1e-06
5e-06
1e-06
5e-06
1e-06
6e-06
1e-06
6e-06
1e-06
7e-06
2e-06
7e-06
2e-06
7e-06
2e-06
7e-06
2e-06
7e-06
2e-06
7e-06
2e-06
7e-06
2e-06
7e-06
2e-06
7e-06
2e-06
6e-06
3e-06
6e-06
3e-06
5e-06
3e-06
4e-06
4e-06
-1e-06
-2e-06
-2e-06
-1e-06
-1e-06
-2e-06
-2e-06
-1e-06
-7e-07
-3e-06
-3e-06
-7e-07
-4e-07
-3e-06
-3e-06
-4e-07
-3e-07
-2e-07
-4e-06
-4e-06
-2e-07
-1e-07
-4e-06
-4e-06
-7e-08
-7e-08
-5e-06
-5e-06
2e-08
-3e-08
-5e-06
-5e-06
1e-07
6e-09
-5e-06
-5e-06
2e-07
2e-08
-5e-06
-5e-06
2e-07
1e-08
-5e-06
-5e-06
2e-07
-1e-08
-5e-06
-5e-06
3e-07
-6e-08
-5e-06
-5e-06
3e-07
-1e-07
-5e-06
-5e-06
2e-07
-3e-07
-4e-06
-4e-06
2e-07
-4e-07
-4e-06
-4e-06
1e-07
-5e-07
-3e-06
-3e-06
4e-08
-6e-07
-3e-06
-3e-06
-5e-08
-8e-07
-2e-06
-2e-06
-1e-07
-9e-07
-2e-06
-2e-06
-2e-06
-2e-07
-9e-07
-2e-06
-2e-06
-3e-07
-1e-06
-2e-06
-2e-06
-3e-07
-9e-07
-2e-06
-2e-06
-3e-07
-9e-07
-2e-06
-2e-06
-3e-07
-8e-07
-2e-06
-2e-06
-3e-07
-6e-07
-2e-06
-3e-06
-2e-07
-5e-07
-3e-06
-3e-06
-1e-07
-3e-07
-3e-06
-3e-06
-1e-08
-1e-07
-3e-06
-4e-06
1e-07
1e-07
-4e-06
-4e-06
3e-07
2e-07
5e-07
-4e-06
-5e-06
4e-07
6e-07
-5e-06
-5e-06
4e-07
8e-07
-6e-06
-6e-06
5e-07
1e-06
-7e-06
-7e-06
6e-07
1e-06
-8e-06
-8e-06
7e-07
1e-06
-9e-06
-9e-06
7e-07
1e-06
-1e-05
-1e-05
7e-07
1e-06
-1e-05
-1e-05
6e-07
1e-06
-1e-05
-1e-05
6e-07
1e-06
-1e-05
-1e-05
5e-07
1e-06
-1e-05
-1e-05
4e-07
1e-06
-1e-05
-2e-05
4e-07
9e-07
-2e-05
-2e-05
3e-07
8e-07
-2e-05
-2e-05
2e-07
6e-07
-2e-05
-2e-05
-2e-05
2e-07
5e-07
-2e-05
-2e-05
2e-07
5e-07
-2e-05
-2e-05
2e-07
4e-07
-2e-05
-2e-05
2e-07
4e-07
-2e-05
-2e-05
3e-07
4e-07
-2e-05
-2e-05
3e-07
5e-07
-2e-05
-2e-05
4e-07
5e-07
-2e-05
-1e-05
5e-07
6e-07
-1e-05
-1e-05
6e-07
7e-07
-1e-05
-1e-05
7e-07
7e-07
-1e-05
-1e-05
1e-06
9e-07
1e-06
-1e-05
-1e-05
1e-06
1e-06
-1e-05
-1e-05
2e-06
2e-06
-9e-06
-9e-06
2e-06
2e-06
-8e-06
-8e-06
3e-06
2e-06
-7e-06
-6e-06
3e-06
3e-06
-6e-06
-6e-06
4e-06
4e-06
-5e-06
-5e-06
4e-06
4e-06
-4e-06
-4e-06
5e-06
5e-06
-4e-06
-3e-06
5e-06
5e-06
-3e-06
-3e-06
6e-06
6e-06
-3e-06
-2e-06
6e-06
6e-06
-2e-06
-2e-06
6e-06
6e-06
-2e-06
-2e-06
6e-06
6e-06
-2e-06
-2e-06
6e-06
6e-06
-1e-06
-1e-06
6e-06
6e-06
-1e-06
-1e-06
-1e-06
6e-06
6e-06
-1e-06
-9e-07
6e-06
6e-06
-9e-07
-1e-06
5e-06
5e-06
-1e-06
-1e-06
5e-06
5e-06
-1e-06
-1e-06
4e-06
4e-06
-1e-06
-2e-06
4e-06
4e-06
-2e-06
-2e-06
3e-06
3e-06
-2e-06
-3e-06
3e-06
3e-06
-3e-06
-3e-06
3e-06
3e-06
-3e-06
-3e-06
3e-06
3e-06
3e-06
-3e-06
-4e-06
3e-06
3e-06
-4e-06
-4e-06
3e-06
3e-06
-4e-06
-4e-06
4e-06
4e-06
-4e-06
-4e-06
4e-06
4e-06
-4e-06
-4e-06
4e-06
4e-06
-4e-06
-4e-06
4e-06
5e-06
-4e-06
-4e-06
5e-06
5e-06
-4e-06
-3e-06
5e-06
5e-06
-3e-06
-3e-06
6e-06
6e-06
-3e-06
-2e-06
7e-06
7e-06
-2e-06
-1e-06
7e-06
8e-06
-2e-06
-9e-07
8e-06
9e-06
-9e-07
-4e-07
9e-06
1e-05
-4e-07
9e-08
1e-05
1e-05
7e-08
5e-07
1e-05
1e-05
5e-07
8e-07
1e-06
1e-05
1e-05
9e-07
1e-06
1e-05
1e-05
1e-06
1e-06
1e-05
2e-05
1e-06
1e-06
2e-05
2e-05
1e-06
2e-06
2e-05
2e-05
2e-06
2e-06
2e-05
2e-05
2e-06
2e-06
2e-05
2e-05
2e-06
2e-06
2e-05
2e-05
2e-06
2e-06
2e-05
2e-05
2e-06
2e-06
2e-05
2e-05
2e-06
2e-06
2e-05
2e-05
2e-05
2e-06
2e-06
2e-05
2e-05
2e-06
1e-06
2e-05
2e-05
2e-06
1e-06
2e-05
2e-05
2e-06
1e-06
2e-05
2e-05
2e-06
1e-06
2e-05
2e-05
2e-06
1e-06
2e-05
2e-05
2e-06
9e-07
2e-05
1e-05
2e-06
8e-07
1e-05
1e-05
1e-06
8e-07
1e-05
1e-05
1e-06
8e-07
1e-05
1e-05
1e-06
9e-07
1e-05
1e-05
1e-06
1e-06
1e-05
9e-06
1e-06
1e-06
9e-06
8e-06
2e-06
1e-06
8e-06
7e-06
2e-06
1e-06
2e-06
7e-06
7e-06
2e-06
2e-06
6e-06
6e-06
2e-06
2e-06
6e-06
6e-06
2e-06
2e-06
6e-06
5e-06
2e-06
2e-06
5e-06
5e-06
2e-06
3e-06
5e-06
5e-06
2e-06
3e-06
5e-06
4e-06
2e-06
3e-06
4e-06
4e-06
2e-06
3e-06
4e-06
4e-06
2e-06
3e-06
4e-06
4e-06
2e-06
3e-06
4e-06
4e-06
2e-06
3e-06
4e-06
4e-06
2e-06
3e-06
4e-06
4e-06
2e-06
3e-06
4e-06
4e-06
2e-06
3e-06
5e-06
5e-06
2e-06
3e-06
5e-06
5e-06
2e-06
2e-06
6e-06
6e-06
2e-06
2e-06
6e-06
6e-06
2e-06
2e-06
7e-06
7e-06
2e-06
2e-06
7e-06
7e-06
2e-06
2e-06
7e-06
7e-06
2e-06
2e-06
7e-06
7e-06
2e-06
2e-06
8e-06
8e-06
2e-06
2e-06
7e-06
7e-06
2e-06
2e-06
7e-06
7e-06
2e-06
2e-06
7e-06
7e-06
2e-06
2e-06
7e-06
7e-06
2e-06
2e-06
6e-06
6e-06
3e-06
2e-06
6e-06
6e-06
3e-06
3e-06
5e-06
5e-06
3e-06
3e-06
4e-06
3e-06
4e-06
4e-06
3e-06
4e-06
3e-06
SCALARS strain_1 float
LOOKUP_TABLE default
-0.000009
-0.000007
-0.000006
-0.000007
-0.000007
-0.000011
-0.000007
-0.000008
-0.000013
-0.000012
-0.000012
-0.000015
-0.000017
-0.000018
-0.000024
-0.000015
-0.000036
-0.000016
-0.000044
-0.000015
-0.000056
-0.000009
-0.000073
-0.000005
-0.000088
0.000000
-0.000106
0.000014
-0.000128
0.000026
-0.000157
0.000038
-0.000182
0.000056
-0.000217
0.000075
-0.000253
0.000096
-0.000289
0.000124
-0.000328
-0.000372
0.000154
-0.000418
0.000186
-0.000467
0.000225
-0.000519
0.000262
-0.000573
0.000306
-0.000633
0.000356
-0.000693
0.000407
-0.000758
0.000466
-0.000821
0.000523
-0.000892
0.000584
-0.000962
0.000653
0.000725
-0.001036
0.000798
-0.001107
0.000876
-0.001190
0.000960
-0.001266
0.001041
-0.001345
0.001131
-0.001428
0.001220
-0.001510
0.001314
-0.001592
0.001409
-0.001678
0.001508
-0.001767
0.001608
-0.001852
0.001703
-0.001934
0.001810
-0.002023
0.001913
-0.002109
0.002019
-0.002197
-0.002277
0.002120
-0.002360
0.002227
-0.002451
0.002333
-0.002528
0.002433
-0.002612
0.002543
-0.002690
0.002645
-0.002765
0.002745
-0.002842
0.002844
-0.002915
0.002939
-0.002984
0.003037
-0.003053
0.003127
0.003217
-0.003114
0.003302
-0.003178
0.003386
-0.003234
0.003466
-0.003290
0.003540
-0.003342
0.003609
-0.003386
0.003671
-0.003430
0.003736
-0.003472
0.003791
-0.003505
0.003839
-0.003536
0.003889
-0.003563
0.003925
-0.003589
0.003960
-0.003607
0.003990
-0.003618
0.004012
-0.003628
0.004034
-0.003635
-0.003633
0.004040
-0.003634
0.004050
-0.003620
0.004048
-0.003611
0.004047
-0.003592
0.004034
-0.003572
0.004012
-0.003546
0.003995
-0.003519
0.003969
-0.003485
0.003941
-0.003451
0.003902
0.003859
-0.003410
0.003811
-0.003362
0.003759
-0.003318
0.003705
-0.003269
0.003646
-0.003213
0.003583
-0.003151
0.003515
-0.003095
0.003449
-0.003032
0.003371
-0.002965
0.003292
-0.002897
0.003217
-0.002829
0.003131
-0.002760
0.003050
-0.002688
0.002967
-0.002607
0.002879
-0.002537
0.002788
-0.002461
-0.002377
0.002701
-0.002296
0.002611
-0.002223
0.002525
-0.002143
0.002428
-0.002054
0.002338
-0.001978
0.002244
-0.001902
0.002151
-0.001816
0.002063
-0.001741
0.001973
-0.001658
0.001883
-0.001584
0.001798
-0.001508
0.001709
-0.001433
0.001620
-0.001360
0.001537
-0.001284
0.001455
-0.001213
0.001371
-0.001144
0.001293
-0.001080
0.001219
-0.001012
0.001145
-0.000944
0.001070
-0.000885
0.001003
-0.000826
0.000932
-0.000765
0.000863
-0.000712
0.000800
-0.000654
0.000746
-0.000605
0.000688
-0.000556
0.000631
-0.000511
0.000578
-0.000465
0.000529
-0.000421
0.000480
-0.000381
0.000434
-0.000347
0.000394
-0.000311
0.000356
-0.000276
0.000316
-0.000245
0.000285
-0.000214
0.000251
-0.000193
0.000220
-0.000170
0.000193
-0.000140
0.000168
-0.000126
0.000142
-0.000106
0.000123
-0.000091
0.000101
-0.000076
0.000090
-0.000057
0.000070
-0.000048
0.000060
-0.000041
0.000045
-0.000033
0.000033
-0.000025
0.000024
-0.000021
0.000019
-0.000015
0.000012
-0.000009
0.000005
-0.000006
0.000002
-0.000005
0.000001
-0.000003
0.000001
-0.000004
-0.000004
-0.000003
-0.000001
-0.000004
-0.000007
-0.000006
-0.000006
-0.000003
-0.000006
-0.000007
-0.000006
-0.000007
-0.000012
-0.000008
-0.000014
-0.000011
-0.000014
-0.000011
-0.000014
-0.000019
-0.000018
-0.000025
-0.000017
-0.000034
-0.000013
-0.000045
-0.000016
-0.000057
-0.000009
-0.000071
-0.000005
-0.000094
-0.000001
-0.000111
0.000011
-0.000133
0.000023
-0.000159
0.000037
-0.000189
0.000055
-0.000218
0.000075
-0.000252
0.000098
-0.000290
0.000123
-0.000332
0.000149
-0.000372
0.000186
-0.000418
0.000219
-0.000467
0.000258
-0.000521
0.000302
-0.000573
0.000348
-0.000631
0.000403
-0.000690
0.000455
-0.000749
0.000511
-0.000813
0.000574
-0.000884
0.000636
-0.000948
0.000705
-0.001021
0.000777
-0.001094
0.000855
-0.001166
0.000931
-0.001243
0.001009
-0.001322
0.001097
-0.001401
0.001182
-0.001483
0.001267
-0.001558
0.001357
-0.001638
0.001449
-0.001719
0.001542
-0.001800
0.001635
-0.001882
0.001733
-0.001959
0.001827
-0.002037
0.001926
-0.002119
0.002022
-0.002194
0.002117
-0.002272
0.002212
-0.002345
0.002307
-0.002419
0.002399
-0.002491
0.002492
-0.002563
0.002579
-0.002627
0.002670
-0.002693
0.002752
-0.002756
0.002837
-0.002809
0.002918
-0.002870
0.002988
-0.002922
0.003065
-0.002971
0.003130
-0.003018
0.003198
-0.003064
0.003253
-0.003098
0.003307
-0.003135
0.003361
-0.003164
0.003406
-0.003193
0.003447
-0.003215
0.003481
-0.003234
0.003513
-0.003248
0.003534
-0.003257
0.003558
-0.003259
0.003571
-0.003264
0.003578
-0.003262
0.003581
-0.003253
0.003582
-0.003240
0.003571
-0.003229
0.003560
-0.003208
0.003540
-0.003186
0.003517
-0.003155
0.003488
-0.003125
0.003457
-0.003089
0.003422
-0.003053
0.003377
-0.003006
0.003333
-0.002967
0.003278
-0.002918
0.003229
-0.002865
0.003170
-0.002809
0.003108
-0.002751
0.003045
-0.002691
0.002975
-0.002630
0.002906
-0.002565
0.002834
-0.002501
0.002758
-0.002434
0.002681
-0.002364
0.002598
-0.002296
0.002525
-0.002224
0.002435
-0.002149
0.002359
-0.002078
0.002271
-0.002004
0.002189
-0.001925
0.002103
-0.001852
0.002020
-0.001776
0.001934
-0.001704
0.001852
-0.001631
0.001771
-0.001558
0.001685
-0.001482
0.001605
-0.001409
0.001524
-0.001339
0.001445
-0.001267
0.001368
-0.001202
0.001293
-0.001136
0.001217
-0.001067
0.001143
-0.001003
0.001070
-0.000940
0.001004
-0.000880
0.000938
-0.000823
0.000874
-0.000764
0.000811
-0.000709
0.000745
-0.000654
0.000688
-0.000607
0.000635
-0.000556
0.000588
-0.000511
0.000536
-0.000462
0.000488
-0.000426
0.000441
-0.000380
0.000400
-0.000345
0.000360
-0.000307
0.000322
-0.000276
0.000288
-0.000250
0.000254
-0.000217
0.000225
-0.000191
0.000197
-0.000168
0.000170
-0.000147
0.000148
-0.000124
0.000124
-0.000107
0.000107
-0.000091
0.000090
-0.000075
0.000076
-0.000063
0.000055
-0.000052
0.000046
-0.000043
0.000036
-0.000032
0.000023
-0.000026
0.000018
-0.000018
0.000010
-0.000013
0.000007
-0.000008
0.000002
-0.000012
-0.000003
-0.000007
-0.000002
-0.000003
-0.000004
-0.000002
-0.000002
-0.000008
-0.000006
-0.000001
-0.000005
-0.000007
-0.000004
-0.000005
-0.000007
-0.000005
-0.000006
-0.000007
-0.000010
-0.000006
-0.000008
-0.000011
-0.000010
-0.000008
-0.000011
-0.000010
-0.000010
-0.000008
-0.000011
-0.000013
-0.000016
-0.000015
-0.000008
-0.000013
-0.000013
-0.000017
-0.000016
-0.000018
-0.000021
-0.000020
-0.000023
-0.000027
-0.000013
-0.000015
-0.000030
-0.000037
-0.000017
-0.000015
-0.000041
-0.000049
-0.000015
-0.000014
-0.000052
-0.000062
-0.000013
-0.000011
-0.000064
-0.000079
-0.000007
-0.000002
-0.000085
-0.000098
-0.000002
0.000004
-0.000107
-0.000115
0.000010
0.000017
-0.000128
-0.000144
0.000018
0.000029
-0.000147
-0.000169
0.000032
0.000042
-0.000180
-0.000196
0.000044
0.000063
-0.000207
-0.000225
0.000068
0.000084
-0.000242
-0.000264
0.000090
0.000107
-0.000277
-0.000305
0.000112
0.000135
-0.000319
-0.000346
-0.000384
0.000140
0.000168
-0.000366
-0.000416
0.000174
0.000201
-0.000412
-0.000464
0.000207
0.000234
-0.000466
-0.000517
0.000249
0.000279
-0.000513
-0.000574
0.000288
0.000322
-0.000574
-0.000629
0.000337
0.000373
-0.000630
-0.000692
0.000387
0.000425
-0.000692
-0.000752
0.000440
0.000485
-0.000751
-0.000819
0.000497
0.000543
-0.000819
-0.000886
0.000557
0.000605
-0.000887
-0.000959
0.000682
0.000629
0.000737
-0.000953
-0.001027
0.000706
0.000791
-0.001027
-0.001107
0.000781
0.000866
-0.001098
-0.001179
0.000860
0.000947
-0.001174
-0.001255
0.000937
0.001033
-0.001249
-0.001336
0.001021
0.001119
-0.001329
-0.001419
0.001106
0.001204
-0.001406
-0.001498
0.001192
0.001300
-0.001488
-0.001583
0.001287
0.001393
-0.001570
-0.001668
0.001373
0.001486
-0.001653
-0.001753
0.001469
0.001586
-0.001734
-0.001836
0.001561
0.001684
-0.001816
-0.001918
0.001663
0.001784
-0.001899
-0.002005
0.001759
0.001879
-0.001985
-0.002092
0.001856
0.001983
-0.002070
-0.002173
-0.002250
0.001954
0.002089
-0.002172
-0.002304
0.002053
0.002191
-0.002242
-0.002388
0.002152
0.002292
-0.002326
-0.002466
0.002253
0.002393
-0.002407
-0.002544
0.002347
0.002497
-0.002482
-0.002621
0.002447
0.002592
-0.002559
-0.002700
0.002542
0.002686
-0.002628
-0.002771
0.002637
0.002789
-0.002697
-0.002839
0.002730
0.002880
-0.002766
-0.002904
0.002817
0.002978
-0.002828
-0.002972
0.002902
0.003053
0.003150
-0.002893
-0.003034
0.003016
0.003196
-0.002950
-0.003090
0.003078
0.003279
-0.003006
-0.003143
0.003164
0.003346
-0.003056
-0.003199
0.003238
0.003422
-0.003108
-0.003244
0.003302
0.003487
-0.003153
-0.003289
0.003368
0.003549
-0.003194
-0.003330
0.003432
0.003609
-0.003232
-0.003365
0.003483
0.003661
-0.003265
-0.003398
0.003531
0.003704
-0.003298
-0.003428
0.003575
0.003746
-0.003326
-0.003450
0.003609
0.003785
-0.003342
-0.003473
0.003644
0.003817
-0.003363
-0.003486
0.003675
0.003843
-0.003372
-0.003496
0.003696
0.003865
-0.003378
-0.003511
0.003714
0.003875
-0.003384
-0.003512
-0.003528
0.003724
0.003885
-0.003392
-0.003509
0.003728
0.003888
-0.003374
-0.003497
0.003734
0.003886
-0.003367
-0.003479
0.003726
0.003881
-0.003354
-0.003466
0.003717
0.003864
-0.003332
-0.003443
0.003698
0.003847
-0.003314
-0.003414
0.003678
0.003825
-0.003290
-0.003386
0.003655
0.003792
-0.003256
-0.003352
0.003622
0.003760
-0.003217
-0.003312
0.003578
0.003721
0.003714
-0.003180
-0.003270
0.003559
0.003652
-0.003143
-0.003225
0.003480
0.003600
-0.003095
-0.003178
0.003442
0.003542
-0.003047
-0.003128
0.003382
0.003482
-0.002989
-0.003072
0.003326
0.003423
-0.002938
-0.003016
0.003263
0.003352
-0.002881
-0.002954
0.003195
0.003285
-0.002821
-0.002896
0.003129
0.003211
-0.002760
-0.002831
0.003053
0.003136
-0.002698
-0.002764
0.002980
0.003058
-0.002632
-0.002696
0.002900
0.002976
-0.002561
-0.002624
0.002827
0.002897
-0.002493
-0.002552
0.002747
0.002808
-0.002421
-0.002472
0.002667
0.002724
-0.002344
-0.002396
0.002577
0.002639
-0.002264
-0.002326
-0.002279
0.002495
0.002547
-0.002196
-0.002201
0.002411
0.002463
-0.002096
-0.002118
0.002324
0.002375
-0.002026
-0.002043
0.002238
0.002286
-0.001947
-0.001963
0.002152
0.002197
-0.001870
-0.001883
0.002059
0.002106
-0.001794
-0.001809
0.001975
0.002020
-0.001718
-0.001728
0.001889
0.001930
-0.001644
-0.001652
0.001800
0.001840
-0.001566
-0.001575
0.001716
0.001757
-0.001491
-0.001495
0.001629
0.001670
0.001614
-0.001419
-0.001428
0.001549
0.001539
-0.001343
-0.001352
0.001453
0.001453
-0.001276
-0.001281
0.001366
0.001374
-0.001204
-0.001210
0.001294
0.001294
-0.001137
-0.001141
0.001217
0.001215
-0.001069
-0.001074
0.001140
0.001145
-0.001003
-0.001008
0.001071
0.001075
-0.000945
-0.000942
0.001003
0.001005
-0.000879
-0.000879
0.000938
0.000935
-0.000824
-0.000821
0.000871
0.000868
-0.000763
-0.000764
0.000810
0.000807
-0.000710
-0.000712
0.000746
0.000744
-0.000653
-0.000653
0.000693
0.000691
-0.000604
-0.000604
0.000634
0.000631
-0.000553
-0.000557
-0.000519
0.000585
0.000582
-0.000506
-0.000480
0.000535
0.000532
-0.000452
-0.000439
0.000489
0.000480
-0.000413
-0.000397
0.000441
0.000441
-0.000369
-0.000355
0.000399
0.000396
-0.000334
-0.000319
0.000359
0.000353
-0.000302
-0.000288
0.000319
0.000315
-0.000269
-0.000256
0.000283
0.000285
-0.000237
-0.000227
0.000253
0.000250
-0.000209
-0.000203
0.000220
0.000220
-0.000183
-0.000177
0.000194
0.000192
-0.000164
-0.000150
0.000172
0.000173
-0.000139
-0.000136
0.000139
0.000150
-0.000118
-0.000116
0.000118
0.000131
-0.000101
-0.000097
0.000100
0.000110
-0.000086
-0.000082
0.000083
0.000094
-0.000070
-0.000068
0.000067
0.000077
-0.000056
-0.000054
0.000053
0.000061
-0.000049
-0.000047
0.000041
0.000048
-0.000036
-0.000034
0.000035
0.000040
-0.000028
-0.000030
0.000023
0.000029
-0.000024
-0.000022
0.000013
0.000021
-0.000018
-0.000017
0.000009
0.000013
-0.000014
-0.000011
0.000003
0.000012
-0.000006
-0.000009
0.000002
0.000009
-0.000006
-0.000004
0.000003
-0.000001
-0.000005
-0.000004
-0.000007
0.000002
-0.000004
-0.000004
-0.000004
-0.000003
-0.000002
-0.000004
-0.000004
-0.000004
-0.000007
0.000000
-0.000005
0.000001
-0.000005
-0.000004
-0.000006
-0.000006
-0.000010
-0.000002
-0.000004
-0.000006
-0.000005
SCALARS strain_2 float
LOOKUP_TABLE default
0.000021
0.000043
0.000010
-0.000002
0.000033
0.000062
0.000068
0.000039
0.000105
0.000111
0.000097
0.000160
0.000147
0.000186
0.000257
0.000143
0.000379
0.000132
0.000507
0.000130
0.000663
0.000103
0.000812
0.000015
0.001106
-0.000092
0.001333
-0.000235
0.001657
-0.000339
0.001958
-0.000542
0.002356
-0.000753
0.002754
-0.000969
0.003188
-0.001275
0.003660
-0.001566
0.004156
0.004745
-0.001923
0.005348
-0.002347
0.005994
-0.002762
0.006700
-0.003239
0.007430
-0.003755
0.008134
-0.004357
0.008978
-0.004955
0.009808
-0.005639
0.010661
-0.006384
0.011542
-0.007183
0.012502
-0.007945
-0.008801
0.013460
-0.009765
0.014501
-0.010677
0.015476
-0.011682
0.016562
-0.012675
0.017638
-0.013823
0.018670
-0.014893
0.019829
-0.016058
0.020971
-0.017237
0.022091
-0.018449
0.023222
-0.019679
0.024380
-0.020915
0.025535
-0.022197
0.026706
-0.023496
0.027844
-0.024817
0.028986
0.030091
-0.026143
0.031242
-0.027459
0.032319
-0.028800
0.033393
-0.030114
0.034476
-0.031413
0.035488
-0.032737
0.036515
-0.034033
0.037500
-0.035317
0.038424
-0.036569
0.039315
-0.037759
0.040161
-0.038926
-0.040125
0.040969
-0.041184
0.041740
-0.042270
0.042430
-0.043289
0.043103
-0.044279
0.043712
-0.045200
0.044238
-0.046079
0.044808
-0.046838
0.045200
-0.047623
0.045566
-0.048273
0.045908
-0.048865
0.046138
-0.049375
0.046323
-0.049867
0.046471
-0.050253
0.046565
-0.050582
0.046529
-0.050818
0.046499
0.046328
-0.050990
0.046152
-0.051077
0.045873
-0.051108
0.045578
-0.051062
0.045215
-0.050913
0.044748
-0.050684
0.044333
-0.050377
0.043802
-0.050057
0.043225
-0.049607
0.042553
-0.049125
-0.048559
0.041900
-0.047964
0.041166
-0.047276
0.040414
-0.046536
0.039598
-0.045736
0.038735
-0.044856
0.037898
-0.043985
0.036975
-0.043021
0.036051
-0.042033
0.035077
-0.041010
0.034126
-0.039961
0.033154
-0.038855
0.032157
-0.037763
0.031108
-0.036570
0.030070
-0.035406
0.029050
-0.034251
0.027973
0.026959
-0.033030
0.025918
-0.031839
0.024864
-0.030627
0.023853
-0.029424
0.022791
-0.028182
0.021806
-0.026970
0.020809
-0.025765
0.019802
-0.024559
0.018870
-0.023376
0.017904
-0.022232
0.016994
-0.021097
0.016092
-0.019932
0.015202
-0.018882
0.014323
-0.017769
0.013512
-0.016710
0.012648
-0.015715
0.011895
-0.014660
0.011125
-0.013693
0.010467
-0.012799
0.009673
-0.011871
0.009039
-0.011029
0.008337
-0.010151
0.007750
-0.009383
0.007170
-0.008618
0.006605
-0.007904
0.006046
-0.007225
0.005566
-0.006566
0.005015
-0.005986
0.004591
-0.005368
0.004142
-0.004842
0.003750
-0.004348
0.003377
-0.003847
0.003004
-0.003439
0.002696
-0.002992
0.002365
-0.002662
0.002070
-0.002302
0.001851
-0.002008
0.001563
-0.001677
0.001371
-0.001455
0.001171
-0.001202
0.000990
-0.001007
0.000823
-0.000819
0.000658
-0.000667
0.000529
-0.000522
0.000427
-0.000419
0.000334
-0.000292
0.000223
-0.000197
0.000170
-0.000131
0.000093
-0.000097
0.000033
-0.000052
0.000014
-0.000027
-0.000005
0.000012
-0.000048
0.000025
-0.000020
0.000008
-0.000070
0.000037
-0.000036
0.000001
-0.000045
0.000039
-0.000015
0.000005
-0.000069
-0.000032
0.000026
0.000063
0.000038
0.000069
0.000019
0.000107
0.000047
0.000116
0.000100
0.000154
0.000173
0.000125
0.000269
0.000138
0.000391
0.000134
0.000551
0.000095
0.000700
0.000086
0.000910
-0.000022
0.001150
-0.000065
0.001402
-0.000174
0.001715
-0.000342
0.002065
-0.000511
0.002418
-0.000686
0.002825
-0.000920
0.003244
-0.001239
0.003757
-0.001541
0.004288
-0.001903
0.004837
-0.002321
0.005460
-0.002709
0.006099
-0.003199
0.006807
-0.003677
0.007484
-0.004278
0.008240
-0.004910
0.009010
-0.005553
0.009833
-0.006235
0.010702
-0.006996
0.011625
-0.007762
0.012493
-0.008577
0.013466
-0.009501
0.014427
-0.010432
0.015414
-0.011398
0.016419
-0.012351
0.017455
-0.013384
0.018489
-0.014432
0.019537
-0.015513
0.020655
-0.016644
0.021688
-0.017776
0.022792
-0.018906
0.023880
-0.020112
0.024930
-0.021350
0.025987
-0.022478
0.027049
-0.023717
0.028150
-0.024955
0.029134
-0.026134
0.030153
-0.027343
0.031134
-0.028544
0.032072
-0.029707
0.033044
-0.030878
0.033931
-0.032044
0.034780
-0.033129
0.035645
-0.034279
0.036436
-0.035273
0.037203
-0.036321
0.037891
-0.037287
0.038567
-0.038246
0.039147
-0.039131
0.039693
-0.039931
0.040186
-0.040733
0.040627
-0.041419
0.041013
-0.042065
0.041351
-0.042717
0.041606
-0.043191
0.041770
-0.043694
0.041921
-0.044064
0.041986
-0.044397
0.042014
-0.044658
0.041978
-0.044848
0.041890
-0.044936
0.041660
-0.045029
0.041463
-0.044981
0.041214
-0.044886
0.040883
-0.044675
0.040477
-0.044421
0.040057
-0.044153
0.039517
-0.043803
0.038994
-0.043335
0.038416
-0.042798
0.037760
-0.042249
0.037092
-0.041633
0.036357
-0.040937
0.035614
-0.040249
0.034849
-0.039450
0.034038
-0.038630
0.033185
-0.037707
0.032262
-0.036878
0.031405
-0.035912
0.030524
-0.034933
0.029568
-0.033940
0.028617
-0.032862
0.027681
-0.031824
0.026708
-0.030759
0.025746
-0.029666
0.024760
-0.028575
0.023756
-0.027455
0.022811
-0.026374
0.021851
-0.025229
0.020922
-0.024125
0.019963
-0.023009
0.019021
-0.021886
0.018104
-0.020827
0.017176
-0.019775
0.016287
-0.018699
0.015402
-0.017661
0.014548
-0.016652
0.013751
-0.015634
0.012963
-0.014664
0.012189
-0.013733
0.011421
-0.012825
0.010689
-0.011953
0.009953
-0.011111
0.009281
-0.010224
0.008611
-0.009472
0.007963
-0.008729
0.007380
-0.007975
0.006802
-0.007331
0.006248
-0.006691
0.005734
-0.006024
0.005255
-0.005478
0.004717
-0.004878
0.004310
-0.004412
0.003906
-0.003937
0.003477
-0.003454
0.003156
-0.003043
0.002753
-0.002673
0.002477
-0.002346
0.002214
-0.002042
0.001864
-0.001696
0.001660
-0.001463
0.001402
-0.001212
0.001213
-0.001030
0.001031
-0.000807
0.000828
-0.000639
0.000713
-0.000505
0.000569
-0.000422
0.000457
-0.000311
0.000341
-0.000193
0.000269
-0.000116
0.000200
-0.000084
0.000130
-0.000044
0.000083
0.000035
-0.000007
0.000055
-0.000019
0.000069
-0.000038
0.000059
-0.000034
0.000029
-0.000029
0.000069
-0.000052
0.000034
-0.000035
0.000021
-0.000030
-0.000018
-0.000000
-0.000006
-0.000019
0.000029
-0.000003
0.000003
0.000011
0.000031
0.000045
0.000039
0.000038
0.000011
0.000060
0.000070
0.000008
0.000095
0.000072
0.000118
0.000134
0.000034
0.000076
0.000106
0.000143
0.000130
0.000203
0.000163
0.000176
0.000225
0.000280
0.000125
0.000122
0.000342
0.000400
0.000110
0.000114
0.000492
0.000555
0.000111
0.000083
0.000619
0.000710
0.000084
0.000016
0.000862
0.000951
0.000022
-0.000023
0.001040
0.001168
-0.000040
-0.000138
0.001253
0.001473
-0.000155
-0.000276
0.001581
0.001773
-0.000287
-0.000392
0.001881
0.002132
-0.000446
-0.000581
0.002255
0.002483
-0.000637
-0.000809
0.002645
0.002918
-0.000861
-0.001048
0.003091
0.003385
-0.001172
-0.001346
0.003565
0.003888
-0.001415
-0.001708
0.004135
0.004447
0.004899
-0.001754
-0.002013
0.004764
0.005415
-0.002156
-0.002437
0.005327
0.006002
-0.002542
-0.002884
0.005971
0.006704
-0.003008
-0.003395
0.006709
0.007471
-0.003577
-0.003954
0.007492
0.008201
-0.004099
-0.004537
0.008183
0.008977
-0.004719
-0.005163
0.008984
0.009814
-0.005351
-0.005899
0.009813
0.010710
-0.006072
-0.006561
0.010721
0.011585
-0.006799
-0.007341
0.011595
0.012521
-0.008206
-0.007597
-0.009000
0.012492
0.013454
-0.008620
-0.009629
0.013506
0.014435
-0.009478
-0.010544
0.014413
0.015474
-0.010428
-0.011470
0.015419
0.016524
-0.011387
-0.012585
0.016447
0.017555
-0.012433
-0.013657
0.017532
0.018634
-0.013517
-0.014746
0.018575
0.019708
-0.014591
-0.015878
0.019660
0.020865
-0.015697
-0.017000
0.020743
0.021980
-0.016812
-0.018208
0.021798
0.023130
-0.017974
-0.019414
0.022938
0.024241
-0.019180
-0.020675
0.024005
0.025332
-0.020386
-0.021942
0.025196
0.026497
-0.021577
-0.023164
0.026251
0.027642
-0.022821
-0.024413
0.027405
0.028782
0.029766
-0.024103
-0.025698
0.028759
0.030424
-0.025344
-0.027006
0.029702
0.031539
-0.026574
-0.028291
0.030827
0.032598
-0.027798
-0.029599
0.031848
0.033676
-0.029059
-0.030855
0.032869
0.034661
-0.030334
-0.032105
0.033842
0.035646
-0.031517
-0.033397
0.034809
0.036556
-0.032674
-0.034558
0.035702
0.037476
-0.033884
-0.035834
0.036553
0.038319
-0.034998
-0.037039
0.037413
0.039152
-0.036091
-0.038029
-0.039324
0.038143
0.039922
-0.037601
-0.039869
0.038901
0.040648
-0.038390
-0.040944
0.039584
0.041309
-0.039489
-0.041832
0.040232
0.041975
-0.040447
-0.042750
0.040798
0.042531
-0.041301
-0.043645
0.041344
0.043047
-0.042127
-0.044491
0.041807
0.043505
-0.042921
-0.045240
0.042244
0.043907
-0.043634
-0.045946
0.042600
0.044207
-0.044301
-0.046516
0.042914
0.044478
-0.044839
-0.047101
0.043153
0.044694
-0.045368
-0.047562
0.043294
0.044896
-0.045828
-0.048011
0.043428
0.044947
-0.046169
-0.048323
0.043471
0.044983
-0.046496
-0.048612
0.043457
0.044960
-0.046759
-0.048818
0.043373
0.044894
0.045000
-0.046888
-0.048909
0.043364
0.044614
-0.046944
-0.048974
0.042979
0.044339
-0.046965
-0.048937
0.042735
0.044012
-0.046845
-0.048875
0.042388
0.043652
-0.046759
-0.048678
0.042027
0.043177
-0.046525
-0.048453
0.041593
0.042674
-0.046312
-0.048137
0.041114
0.042167
-0.045859
-0.047714
0.040541
0.041566
-0.045465
-0.047322
0.040010
0.040952
-0.044878
-0.046730
-0.046635
0.039328
0.040235
-0.044702
-0.045810
0.038627
0.039551
-0.043606
-0.045154
0.037924
0.038746
-0.043068
-0.044347
0.037163
0.037970
-0.042286
-0.043543
0.036366
0.037174
-0.041496
-0.042731
0.035552
0.036278
-0.040648
-0.041803
0.034674
0.035383
-0.039727
-0.040879
0.033820
0.034466
-0.038819
-0.039888
0.032935
0.033510
-0.037825
-0.038873
0.032006
0.032586
-0.036851
-0.037857
0.031037
0.031611
-0.035849
-0.036831
0.030067
0.030583
-0.034754
-0.035696
0.029088
0.029586
-0.033699
-0.034565
0.028065
0.028537
-0.032641
-0.033430
0.027085
0.027480
-0.031497
-0.032243
0.026033
0.026541
0.025881
-0.030368
-0.031056
0.025098
0.024881
-0.029245
-0.029945
0.023838
0.023902
-0.028096
-0.028696
0.022825
0.022839
-0.026926
-0.027548
0.021891
0.021823
-0.025796
-0.026363
0.020923
0.020873
-0.024664
-0.025231
0.019908
0.019869
-0.023530
-0.024031
0.018951
0.018922
-0.022327
-0.022860
0.018031
0.017949
-0.021242
-0.021714
0.017100
0.017026
-0.020107
-0.020573
0.016210
0.016180
-0.018988
-0.019479
-0.018747
0.015379
0.015234
-0.017941
-0.017792
0.014513
0.014413
-0.016729
-0.016729
0.013642
0.013577
-0.015691
-0.015683
0.012855
0.012766
-0.014709
-0.014691
0.012075
0.011974
-0.013752
-0.013794
0.011318
0.011220
-0.012835
-0.012783
0.010560
0.010457
-0.011924
-0.011947
0.009885
0.009793
-0.011061
-0.011051
0.009135
0.009102
-0.010214
-0.010186
0.008543
0.008462
-0.009426
-0.009415
0.007874
0.007844
-0.008639
-0.008682
0.007303
0.007182
-0.007939
-0.007920
0.006722
0.006647
-0.007266
-0.007284
0.006156
0.006135
-0.006629
-0.006612
0.005609
0.005592
0.005221
-0.006060
-0.005979
0.005110
0.004809
-0.005397
-0.005367
0.004591
0.004396
-0.004892
-0.004871
0.004119
0.003950
-0.004396
-0.004374
0.003714
0.003568
-0.003887
-0.003839
0.003349
0.003216
-0.003478
-0.003449
0.002955
0.002847
-0.003031
-0.003021
0.002653
0.002515
-0.002668
-0.002621
0.002342
0.002198
-0.002301
-0.002259
0.002046
0.001931
-0.002011
-0.001982
0.001802
0.001692
-0.001714
-0.001693
0.001550
0.001460
-0.001383
-0.001529
0.001325
0.001231
-0.001154
-0.001274
0.001127
0.001035
-0.000950
-0.001066
0.000958
0.000893
-0.000760
-0.000856
0.000794
0.000739
-0.000610
-0.000709
0.000659
0.000558
-0.000493
-0.000536
0.000509
0.000462
-0.000350
-0.000426
0.000460
0.000382
-0.000260
-0.000346
0.000275
0.000268
-0.000171
-0.000239
0.000219
0.000170
-0.000143
-0.000103
0.000125
0.000064
-0.000084
-0.000063
0.000078
0.000062
-0.000052
-0.000018
0.000066
0.000007
0.000056
-0.000008
-0.000015
-0.000004
0.000057
0.000061
0.000012
-0.000045
0.000039
0.000011
-0.000028
-0.000067
0.000018
0.000033
-0.000051
-0.000091
0.000042
0.000053
-0.000008
-0.000034
0.000032
0.000013
0.000002
-0.000060
0.000016
0.000004
-0.000044
-0.000015
-0.000043
0.000002
-0.000019
-0.000001
-0.000033
-0.000023
-0.000033
SCALARS strain_3 float
LOOKUP_TABLE default
0.000014
0.000024
0.000002
0.000024
-0.000016
0.000007
-0.000063
0.000012
-0.000093
-0.000126
-0.000070
-0.000163
-0.000172
-0.000229
-0.000251
-0.000181
-0.000434
-0.000161
-0.000699
-0.000130
-0.000923
-0.000053
-0.001153
0.000075
-0.001518
0.000147
-0.001910
0.000325
-0.002292
0.000556
-0.002792
0.000823
-0.003349
0.001092
-0.003895
0.001492
-0.004594
0.001936
-0.005309
0.002394
-0.006087
-0.006882
0.002945
-0.007775
0.003548
-0.008711
0.004282
-0.009678
0.004981
-0.010684
0.005827
-0.011899
0.006666
-0.013007
0.007628
-0.014246
0.008650
-0.015479
0.009716
-0.016704
0.010836
-0.018066
0.012152
0.013375
-0.019466
0.014760
-0.020897
0.016165
-0.022316
0.017663
-0.023878
0.019176
-0.025360
0.020819
-0.026884
0.022415
-0.028479
0.024155
-0.030055
0.025924
-0.031641
0.027659
-0.033221
0.029524
-0.034844
0.031367
-0.036410
0.033234
-0.038046
0.035165
-0.039563
0.037083
-0.041185
-0.042695
0.039041
-0.044213
0.040963
-0.045682
0.042922
-0.047173
0.044831
-0.048570
0.046739
-0.049900
0.048589
-0.051236
0.050443
-0.052501
0.052224
-0.053665
0.054080
-0.054847
0.055783
-0.055900
0.057506
0.059085
-0.056895
0.060686
-0.057854
0.062164
-0.058753
0.063572
-0.059475
0.064936
-0.060250
0.066162
-0.060844
0.067345
-0.061398
0.068411
-0.061864
0.069380
-0.062201
0.070264
-0.062502
0.071004
-0.062698
0.071658
-0.062793
0.072234
-0.062793
0.072736
-0.062698
0.073024
-0.062555
0.073217
-0.062299
-0.061952
0.073369
-0.061525
0.073406
-0.061046
0.073290
-0.060455
0.073103
-0.059807
0.072735
-0.059054
0.072318
-0.058313
0.071820
-0.057409
0.071167
-0.056478
0.070434
-0.055467
0.069633
0.068677
-0.054400
0.067708
-0.053335
0.066588
-0.052179
0.065438
-0.050968
0.064153
-0.049739
0.062835
-0.048500
0.061474
-0.047137
0.060008
-0.045823
0.058528
-0.044475
0.056973
-0.043086
0.055436
-0.041735
0.053720
-0.040291
0.052106
-0.038867
0.050388
-0.037471
0.048619
-0.036010
0.046896
-0.034648
-0.033276
0.045192
-0.031832
0.043423
-0.030488
0.041672
-0.029108
0.039920
-0.027768
0.038157
-0.026487
0.036436
-0.025174
0.034698
-0.023897
0.033016
-0.022635
0.031324
-0.021483
0.029716
-0.020296
0.028046
-0.019128
0.026478
-0.017986
0.024947
-0.016957
0.023482
-0.015898
0.022021
-0.014906
0.020572
-0.013962
0.019231
-0.013036
0.017860
-0.012093
0.016609
-0.011275
0.015423
-0.010471
0.014213
-0.009688
0.013139
-0.008911
0.012085
-0.008218
0.011016
-0.007549
0.010067
-0.006943
0.009163
-0.006338
0.008283
-0.005753
0.007427
-0.005230
0.006741
-0.004680
0.006013
-0.004231
0.005362
-0.003795
0.004787
-0.003385
0.004222
-0.002953
0.003679
-0.002649
0.003243
-0.002305
0.002774
-0.002013
0.002402
-0.001717
0.002030
-0.001518
0.001771
-0.001230
0.001449
-0.000989
0.001174
-0.000920
0.000919
-0.000702
0.000793
-0.000522
0.000540
-0.000404
0.000504
-0.000317
0.000366
-0.000200
0.000259
-0.000142
0.000156
-0.000061
0.000101
0.000002
0.000050
0.000023
-0.000007
0.000079
0.000057
0.000149
0.000005
0.000087
0.000022
0.000148
0.000009
0.000112
-0.000007
0.000112
0.000034
0.000158
0.000068
0.000070
0.000039
0.000041
-0.000005
-0.000022
-0.000048
0.000021
-0.000064
-0.000005
-0.000105
-0.000129
-0.000102
-0.000209
-0.000140
-0.000358
-0.000169
-0.000477
-0.000133
-0.000740
-0.000081
-0.000955
-0.000007
-0.001229
0.000070
-0.001607
0.000251
-0.002006
0.000333
-0.002414
0.000591
-0.002879
0.000797
-0.003462
0.001136
-0.004062
0.001488
-0.004678
0.001908
-0.005404
0.002409
-0.006173
0.002900
-0.006963
0.003531
-0.007864
0.004135
-0.008791
0.004922
-0.009744
0.005651
-0.010842
0.006510
-0.011887
0.007430
-0.013034
0.008417
-0.014206
0.009483
-0.015447
0.010567
-0.016675
0.011821
-0.018021
0.013014
-0.019434
0.014318
-0.020735
0.015698
-0.022133
0.017073
-0.023564
0.018602
-0.025037
0.020112
-0.026489
0.021694
-0.028003
0.023239
-0.029492
0.024982
-0.031015
0.026660
-0.032506
0.028300
-0.033972
0.030071
-0.035447
0.031807
-0.036896
0.033598
-0.038353
0.035319
-0.039756
0.037070
-0.041162
0.038839
-0.042484
0.040572
-0.043859
0.042302
-0.045073
0.043995
-0.046314
0.045645
-0.047511
0.047326
-0.048621
0.048889
-0.049686
0.050416
-0.050663
0.051934
-0.051619
0.053351
-0.052433
0.054678
-0.053298
0.055930
-0.053966
0.057193
-0.054594
0.058295
-0.055176
0.059405
-0.055651
0.060358
-0.056004
0.061228
-0.056262
0.062007
-0.056546
0.062683
-0.056679
0.063233
-0.056691
0.063713
-0.056669
0.064080
-0.056582
0.064328
-0.056344
0.064521
-0.056100
0.064597
-0.055732
0.064522
-0.055265
0.064359
-0.054741
0.064094
-0.054188
0.063765
-0.053485
0.063307
-0.052764
0.062763
-0.051956
0.062083
-0.051137
0.061378
-0.050178
0.060495
-0.049214
0.059619
-0.048173
0.058578
-0.047132
0.057550
-0.046043
0.056421
-0.044873
0.055196
-0.043639
0.053965
-0.042423
0.052575
-0.041190
0.051244
-0.039909
0.049854
-0.038641
0.048374
-0.037276
0.046874
-0.036060
0.045328
-0.034738
0.043785
-0.033396
0.042187
-0.032031
0.040591
-0.030751
0.038988
-0.029447
0.037383
-0.028197
0.035797
-0.026868
0.034169
-0.025604
0.032581
-0.024360
0.031004
-0.023160
0.029438
-0.021964
0.027884
-0.020791
0.026395
-0.019634
0.024894
-0.018562
0.023455
-0.017512
0.022056
-0.016401
0.020638
-0.015392
0.019349
-0.014464
0.018013
-0.013493
0.016783
-0.012606
0.015607
-0.011780
0.014426
-0.010885
0.013320
-0.010092
0.012227
-0.009286
0.011175
-0.008626
0.010218
-0.007931
0.009389
-0.007234
0.008498
-0.006591
0.007655
-0.006042
0.006916
-0.005464
0.006206
-0.004965
0.005487
-0.004499
0.004866
-0.004020
0.004341
-0.003591
0.003776
-0.003131
0.003294
-0.002804
0.002880
-0.002493
0.002436
-0.002179
0.002071
-0.001817
0.001725
-0.001585
0.001490
-0.001338
0.001182
-0.001086
0.000927
-0.000916
0.000791
-0.000704
0.000661
-0.000569
0.000468
-0.000427
0.000311
-0.000312
0.000239
-0.000231
0.000133
-0.000116
0.000082
-0.000053
0.000052
-0.000003
0.000003
0.000031
-0.000042
0.000058
0.000019
0.000111
-0.000028
0.000138
-0.000058
0.000109
-0.000007
0.000095
0.000010
0.000085
0.000014
0.000102
0.000072
0.000078
-0.000022
-0.000049
0.000032
0.000024
-0.000046
0.000025
0.000041
-0.000060
-0.000021
0.000054
-0.000027
-0.000039
-0.000099
-0.000009
-0.000038
-0.000069
-0.000113
-0.000210
-0.000093
-0.000108
-0.000126
-0.000177
-0.000173
-0.000228
-0.000164
-0.000159
-0.000307
-0.000362
-0.000183
-0.000179
-0.000425
-0.000559
-0.000183
-0.000128
-0.000639
-0.000717
-0.000138
-0.000097
-0.000830
-0.001020
-0.000009
-0.000007
-0.001137
-0.001294
-0.000006
0.000095
-0.001454
-0.001632
0.000148
0.000217
-0.001835
-0.002083
0.000243
0.000413
-0.002199
-0.002495
0.000430
0.000640
-0.002673
-0.003027
0.000733
0.000953
-0.003245
-0.003583
0.001033
0.001261
-0.003820
-0.004196
0.001373
0.001641
-0.004467
-0.004888
0.001770
0.002068
-0.005177
-0.005573
0.002219
0.002553
-0.005975
-0.006442
-0.007158
0.002717
0.003139
-0.006827
-0.007756
0.003301
0.003783
-0.007652
-0.008682
0.003932
0.004450
-0.008709
-0.009757
0.004574
0.005155
-0.009768
-0.010738
0.005399
0.006032
-0.010755
-0.011870
0.006296
0.006882
-0.011865
-0.012982
0.007211
0.007881
-0.013002
-0.014206
0.008162
0.008914
-0.014229
-0.015418
0.009207
0.010025
-0.015492
-0.016707
0.010354
0.011202
-0.016703
-0.018056
0.012506
0.011534
0.013585
-0.018054
-0.019447
0.013006
0.014551
-0.019399
-0.020856
0.014353
0.015922
-0.020822
-0.022268
0.015803
0.017444
-0.022231
-0.023793
0.017326
0.019013
-0.023705
-0.025241
0.018789
0.020558
-0.025128
-0.026789
0.020270
0.022226
-0.026700
-0.028286
0.021941
0.023858
-0.028183
-0.029865
0.023565
0.025628
-0.029649
-0.031414
0.025262
0.027308
-0.031205
-0.032965
0.026955
0.029105
-0.032694
-0.034571
0.028735
0.030919
-0.034280
-0.036082
0.030484
0.032797
-0.035820
-0.037684
0.032266
0.034612
-0.037308
-0.039259
0.034110
0.036476
-0.038848
-0.040824
-0.042199
0.035923
0.038379
-0.040735
-0.043084
0.037696
0.040243
-0.041984
-0.044571
0.039519
0.042083
-0.043494
-0.045999
0.041391
0.043974
-0.044871
-0.047346
0.043126
0.045865
-0.046191
-0.048682
0.044949
0.047636
-0.047499
-0.049947
0.046654
0.049472
-0.048679
-0.051120
0.048344
0.051164
-0.049895
-0.052318
0.050041
0.052824
-0.050982
-0.053461
0.051665
0.054601
-0.051975
-0.054382
0.053187
0.056066
0.057820
-0.052926
-0.055427
0.055281
0.058585
-0.053928
-0.056287
0.056423
0.060145
-0.054749
-0.057095
0.057911
0.061355
-0.055558
-0.057883
0.059223
0.062672
-0.056210
-0.058512
0.060406
0.063801
-0.056824
-0.059094
0.061579
0.064915
-0.057336
-0.059572
0.062588
0.065934
-0.057719
-0.059964
0.063564
0.066854
-0.058132
-0.060306
0.064379
0.067645
-0.058408
-0.060491
0.065092
0.068362
-0.058580
-0.060677
0.065713
0.068987
-0.058681
-0.060707
0.066308
0.069423
-0.058706
-0.060664
0.066720
0.069842
-0.058624
-0.060610
0.067089
0.070137
-0.058458
-0.060440
0.067316
0.070288
-0.058123
-0.060097
-0.060130
0.067359
0.070333
-0.057949
-0.059507
0.067383
0.070257
-0.057336
-0.058974
0.067286
0.070152
-0.056836
-0.058316
0.067090
0.069880
-0.056203
-0.057634
0.066767
0.069522
-0.055617
-0.056929
0.066353
0.069074
-0.054870
-0.056126
0.065869
0.068450
-0.054032
-0.055255
0.065151
0.067761
-0.053153
-0.054339
0.064458
0.067072
-0.052253
-0.053357
0.063505
0.066166
0.065872
-0.051238
-0.052260
0.063099
0.064612
-0.050175
-0.051207
0.061456
0.063544
-0.049106
-0.050030
0.060507
0.062361
-0.048036
-0.048892
0.059307
0.061084
-0.046836
-0.047675
0.058134
0.059781
-0.045599
-0.046415
0.056819
0.058417
-0.044349
-0.045106
0.055417
0.057003
-0.043141
-0.043827
0.053991
0.055519
-0.041815
-0.042447
0.052585
0.053967
-0.040488
-0.041085
0.051112
0.052424
-0.039184
-0.039710
0.049535
0.050795
-0.037862
-0.038399
0.048027
0.049177
-0.036482
-0.036976
0.046409
0.047534
-0.035162
-0.035565
0.044797
0.045843
-0.033779
-0.034180
0.043206
0.044096
-0.032331
-0.032814
-0.031933
0.041547
0.042452
-0.031017
-0.030652
0.039884
0.040725
-0.029440
-0.029341
0.038200
0.039030
-0.028117
-0.027938
0.036564
0.037322
-0.026782
-0.026571
0.034904
0.035625
-0.025493
-0.025334
0.033251
0.033972
-0.024271
-0.024088
0.031638
0.032335
-0.023035
-0.022868
0.030004
0.030706
-0.021820
-0.021642
0.028469
0.029026
-0.020605
-0.020460
0.026894
0.027460
-0.019515
-0.019335
0.025249
0.025909
0.024907
-0.018371
-0.018211
0.023780
0.023503
-0.017277
-0.017099
0.022113
0.022097
-0.016245
-0.016080
0.020695
0.020685
-0.015264
-0.015088
0.019309
0.019251
-0.014296
-0.014118
0.017991
0.017959
-0.013340
-0.013173
0.016721
0.016694
-0.012404
-0.012300
0.015516
0.015459
-0.011561
-0.011420
0.014388
0.014276
-0.010716
-0.010618
0.013189
0.013163
-0.009925
-0.009803
0.012183
0.012086
-0.009216
-0.009034
0.011129
0.011083
-0.008470
-0.008355
0.010191
0.010133
-0.007812
-0.007657
0.009292
0.009267
-0.007144
-0.007062
0.008375
0.008389
-0.006475
-0.006353
-0.005990
0.007586
0.007578
-0.005866
-0.005514
0.006817
0.006764
-0.005291
-0.004982
0.006130
0.006076
-0.004733
-0.004525
0.005461
0.005422
-0.004235
-0.004010
0.004828
0.004797
-0.003788
-0.003600
0.004268
0.004279
-0.003389
-0.003181
0.003739
0.003697
-0.002983
-0.002795
0.003212
0.003237
-0.002628
-0.002479
0.002842
0.002802
-0.002306
-0.002156
0.002431
0.002364
-0.002001
-0.001875
0.001996
0.002025
-0.001725
-0.001592
0.001672
0.001795
-0.001400
-0.001352
0.001371
0.001546
-0.001254
-0.001103
0.001120
0.001259
-0.001042
-0.000965
0.000878
0.001014
-0.000866
-0.000792
0.000680
0.000850
-0.000654
-0.000601
0.000515
0.000664
-0.000489
-0.000455
0.000407
0.000503
-0.000388
-0.000361
0.000310
0.000386
-0.000252
-0.000262
0.000243
0.000268
-0.000124
-0.000143
0.000139
0.000213
-0.000071
-0.000090
0.000055
0.000086
-0.000062
-0.000009
0.000021
0.000089
-0.000005
0.000056
0.000013
0.000034
0.000034
0.000045
-0.000021
-0.000002
0.000091
0.000105
-0.000010
0.000017
0.000093
0.000135
-0.000031
0.000006
0.000087
0.000096
0.000014
0.000014
0.000119
0.000129
0.000020
0.000031
0.000112
0.000089
0.000015
0.000026
0.000123
0.000105
0.000066
0.000082
0.000062
0.000023
0.000096
0.000042
0.000068
SCALARS stress_1 float
LOOKUP_TABLE default
-70.934401
193.260860
270.358034
26.373442
87.848011
-224.759002
210.576095
144.729253
24.486406
135.568732
266.838206
-36.523781
-102.120745
0.188445
57.908278
9.659741
-23.064513
-112.768144
99.608922
-61.105420
47.949004
70.592031
6.950627
-25.027750
232.634213
98.673066
69.346616
151.694479
147.098048
362.674318
104.847943
302.561808
-103.694672
544.999883
153.470201
547.988543
-147.692895
559.808552
-23.128080
971.766200
100.772120
48.063586
998.152462
197.705754
1057.962231
7.708834
1250.134523
6.720866
1614.970522
414.762272
1753.465122
400.782276
1931.863629
191.137943
2361.854646
451.839484
2727.693689
433.846335
2845.717401
622.811640
3163.533258
842.398755
3322.125944
3800.097829
842.607681
4103.438702
1109.101773
4331.052117
823.835362
4678.626680
1223.466696
4816.417905
1429.995777
5316.762437
1703.744211
5577.267750
1658.008077
5884.872859
2119.098771
6069.878949
2242.021398
7075.280914
2416.740498
6877.324058
2615.557258
7156.309567
2961.476781
7525.834705
3105.759688
7890.593181
3178.115006
8008.784631
3395.793143
3444.156270
8104.409054
3762.801652
8194.415675
3860.744605
8768.447428
3674.587499
8399.754722
3962.340544
8996.337559
4046.907295
9045.446347
3991.996777
8991.729127
3994.859401
9319.130017
4060.857337
9438.251388
3967.587850
9287.047569
3943.015480
9542.860311
9196.894352
3997.441412
9341.496548
3437.870751
9437.269268
3369.564119
9444.156632
3260.822699
9391.118075
2805.253967
9242.444572
2619.561843
9375.095558
2031.956172
9001.316336
1704.436954
8929.106908
1378.958520
8942.074748
652.179119
8820.163976
186.354266
8763.976961
-540.516038
8810.865664
-1322.176278
8598.034824
-1488.973310
8493.183256
-2241.947698
8477.515700
-3312.497072
-3815.672208
8539.379011
-4521.116040
8405.375559
-5593.623829
8532.464779
-6319.843614
8316.243936
-7181.173025
8382.713029
-8046.652627
8343.132679
-8826.338301
8353.447005
-9629.918651
8341.967402
-10641.449558
8612.637991
-11491.670402
8604.418206
8675.910418
-12242.581182
8504.466586
-12964.584634
8881.291450
-13904.721323
8960.742075
-14710.388878
9327.767687
-15469.240446
9404.970655
-16290.071286
9451.310415
-16799.182583
9770.440111
-17675.369598
9826.615259
-18179.280371
9917.835858
-18550.312531
10264.357423
-19132.521959
10564.838205
-19486.301180
10683.232535
-20103.650195
10947.540411
-20578.323698
10989.971678
-20745.362255
11469.230259
-21126.474891
-21170.702170
11592.923626
-20972.099974
11689.352966
-21162.065933
11885.778898
-21120.253192
12105.206528
-21063.457011
12411.937040
-20832.335640
12309.934976
-20620.934749
12094.797600
-20348.651970
12425.887083
-20071.543182
12670.453834
-19410.960345
12504.206879
-19475.653050
12522.049772
-18913.621297
12723.992725
-18199.614677
12782.638107
-17723.990254
12613.001235
-16901.798804
12540.679372
-16505.040327
12547.034689
-15823.515189
12407.317597
-15078.529681
12225.237120
-14202.486536
11936.053879
-13533.084571
11650.772980
-13382.078482
11427.695607
-12564.473373
11100.786300
-11733.968060
10807.050166
-11143.623528
10386.798600
-10055.832303
10069.327681
-9472.257740
9744.959016
-8706.644324
9305.692604
-8217.303451
9144.186696
-7551.331567
8546.395622
-6876.738881
8427.982738
-6116.923023
7852.948043
-5634.899311
7500.954894
-5143.060269
7029.656435
-4379.069251
6552.012102
-4006.670745
6270.032105
-3616.176144
5898.073511
-3145.340145
5257.085543
-2889.167854
4975.088623
-2645.358084
4532.730791
-1958.971823
4152.022258
-1881.014174
3939.922458
-1593.194165
3602.487272
-1316.205505
3107.324176
-1121.767430
2728.489050
-783.879941
2131.946434
-756.900102
2241.696330
-561.878689
1855.447761
-630.177873
1572.160165
-683.797654
1437.843751
-572.100202
1080.845374
-346.437479
985.185455
-108.865364
611.858890
-71.394068
528.886099
-188.681841
560.915123
-406.774354
281.956171
-43.692028
358.065125
4.218282
11.553380
-81.053634
178.420935
62.436343
-100.271222
-121.298939
225.461502
86.139170
-41.355265
47.585398
90.754680
64.044849
-98.520060
249.573405
162.417781
10.482461
51.915057
177.129082
-236.395508
273.166414
-121.865873
166.961733
15.146894
365.866998
93.938874
325.535356
140.499857
190.635267
152.472777
282.518691
237.801753
25.843879
123.481679
220.319857
82.808637
94.906059
343.772414
292.607591
558.317130
173.434664
693.090826
282.045528
665.032514
490.797249
946.489051
522.649262
1150.052595
617.310593
1323.019226
488.388716
1717.031878
465.235593
1625.386631
662.519684
1905.726419
953.894133
2016.653612
1162.017193
2359.152895
1070.195152
2540.831742
1150.438222
2914.674838
1411.404653
3277.284552
1520.053880
3532.650674
1447.391009
3817.676758
1704.722329
4050.051408
2062.058052
4292.678181
2026.357612
4791.546864
2329.274156
5025.606683
2514.772222
5318.153717
2736.203773
5794.137191
2702.181388
5958.853185
3082.011357
6126.893857
3342.351930
6421.912354
3426.509399
6982.153978
3601.142013
6748.266771
3862.852143
7160.194850
4034.655103
7176.540587
4114.148160
7668.600061
4346.346628
7808.674456
4143.852877
7776.707892
4234.677118
8407.649594
4525.722907
8110.101932
4488.699267
8327.360985
4770.509755
8456.375978
4447.164581
8481.794950
4630.618075
8851.169497
4632.176527
8626.152762
4287.794267
8621.035722
4020.777585
8815.425850
3837.739062
8723.267266
3835.326737
8808.514301
3720.801232
8680.116178
2987.815690
8754.675268
2609.329548
8748.492756
2627.945174
8641.512760
2028.968860
8511.342757
1644.701791
8662.931970
1104.103400
8637.933545
593.128020
8495.899077
214.378018
8693.476605
-582.840313
8592.319274
-1206.572646
8456.983784
-1859.165833
8558.118176
-2742.063176
8191.676778
-3184.616634
8515.256856
-4002.514813
8671.817845
-4822.160447
8445.660929
-5372.594102
8587.388479
-6116.866552
8780.954825
-7287.023467
8583.309190
-8002.462479
8825.411012
-8644.882401
8718.857553
-9195.323798
9001.960210
-9908.189407
8887.367023
-11003.524897
9147.634691
-11586.682227
9250.416359
-12113.104700
9821.666358
-12919.139168
9902.690977
-13592.137593
9926.092587
-14292.548379
9871.825517
-14552.718383
10304.849203
-15063.698378
10347.464830
-15491.880891
10766.978687
-15799.321801
10659.993146
-16139.719924
10865.467640
-16236.472889
11295.055316
-16762.631473
11294.016793
-16800.241345
11561.000111
-16797.358385
11464.617851
-17038.375119
11910.176303
-17105.000573
11985.629796
-16757.581600
11834.284622
-16748.566607
12100.095110
-16615.307555
12185.071471
-16730.855217
11964.117259
-15923.913515
12196.941500
-15677.880079
12140.447750
-15397.805683
12116.646218
-15265.746210
11996.139274
-14537.400473
11841.942235
-14307.472393
11787.652364
-13617.359601
11762.284978
-12827.117976
11540.442447
-12678.099480
11316.783021
-12030.058808
11182.612990
-11373.342814
10894.590605
-10991.359340
10622.022155
-10106.812306
10331.520222
-9574.752487
9798.436765
-8977.883803
9726.736326
-8377.257031
9572.072048
-7546.882380
9035.403369
-7233.856296
8716.740497
-6572.490175
8325.389724
-6081.880461
7866.356155
-5532.037365
7602.599225
-5030.358518
7072.777184
-4505.859235
6522.900244
-4088.932041
6082.274694
-3522.592253
5623.558785
-3256.237500
5524.405661
-3070.224848
5203.483785
-2501.258217
4728.145115
-2045.694674
4369.997128
-1912.238137
3672.748849
-1836.296448
3465.359713
-1425.522753
3236.186786
-1036.978036
2973.888319
-1198.014259
2472.474521
-746.687302
1918.950498
-837.007375
1910.275686
-639.678399
1838.159110
-229.705480
1559.259021
-283.144497
1092.927379
-388.352517
1083.832645
-389.339749
713.627963
-226.810115
583.665295
-353.120680
578.311917
-345.623404
187.220973
119.314437
248.749528
-133.960302
-66.791020
-159.850358
210.655207
-50.667124
-18.466483
244.093316
-28.009714
26.408393
1.094838
-34.354863
9.842712
246.293167
-276.255570
345.740336
-24.003853
34.272206
130.863858
76.079552
-181.884942
151.112421
99.429688
-9.781776
-0.170609
-152.570440
215.028485
44.032351
96.372607
31.532287
-111.026912
209.310234
-200.354257
-59.381526
62.763551
-227.166945
35.219010
301.372932
199.306895
191.784342
-102.064347
-68.371264
309.261371
280.246571
95.710504
54.592556
30.459338
-32.952185
391.105410
-113.515551
162.263520
138.538320
-76.547109
225.844715
391.792952
40.688201
86.059544
96.840689
213.043374
122.295689
156.546784
-3.035075
155.691617
-47.435471
319.014043
375.755340
211.331112
139.603950
238.687226
320.758219
463.069450
177.492420
335.602612
687.223094
167.523104
247.230216
602.525180
548.373647
303.831468
37.490379
511.395409
705.983445
298.638749
308.438137
947.735371
836.647559
370.484020
327.688134
-242.746987
1038.896472
896.561161
173.575698
92.425802
960.822830
1192.958892
509.343522
32.179555
1329.157381
1295.160894
505.768826
408.159946
1506.895018
1610.446293
581.330638
556.488493
1642.473937
1802.008258
688.866910
604.817610
1816.672809
1872.886797
502.807525
482.686136
2237.298379
2582.868232
769.352995
822.458508
2377.412992
2556.434995
1119.249445
731.286058
2805.450571
2803.748673
1160.784938
727.444721
3190.466165
3158.346127
1054.750901
1204.726014
3204.643082
3177.202574
3529.835002
1423.614611
1150.324466
3685.217182
3710.635673
1195.020552
1302.074541
3703.554587
3995.125991
1621.378569
1227.818807
4150.781738
4454.346720
1724.586747
1597.355525
4471.583772
4867.405689
1860.493037
1707.880158
4784.886934
5001.650221
2120.315856
1956.293776
5213.497630
5445.618334
2637.732048
2058.500591
5538.654889
5776.464637
2193.025843
2201.701875
5707.527436
6153.972541
2598.550840
2444.107474
6084.328947
6590.964471
2926.895921
2703.963497
6261.170819
6679.335044
3018.343765
3020.661136
6579.333902
6971.024912
3161.186899
2975.227529
6842.894499
7100.649129
3323.904724
3242.874903
7015.032101
7543.404578
3323.604337
3637.954636
7383.560195
7662.337763
3796.710897
3542.525195
3627.357134
7771.511052
7944.311396
3761.005950
3909.702171
7623.879565
8034.008976
3920.937885
3882.378403
7941.268106
8463.339164
4245.073773
4137.761583
8020.625898
8617.919646
4272.160157
4105.426755
8389.753308
8961.903024
4272.795720
4250.606276
8175.564656
8745.654908
4354.838699
4421.027488
8701.711420
8780.212702
4476.033945
4291.860225
8609.057425
9242.163988
4417.904526
4041.681055
8868.440879
8998.970935
4340.478968
3995.290619
8701.432306
9148.767950
4625.405589
3859.375139
9022.639196
9105.031016
9213.132275
3985.646925
3910.634452
8904.532944
8983.387611
4065.054015
3972.954693
9060.436371
9007.565918
3634.016296
3465.206866
8861.355198
9454.221599
3375.714242
3182.872204
9089.246001
9001.285398
3295.450629
2946.098673
8973.152280
9190.868404
2985.992239
2657.134913
8938.576934
9202.821847
2558.049923
2373.230720
8748.757982
8944.383264
2276.158602
1860.161209
8867.694691
8814.244755
1932.150633
1583.177405
8868.706285
8814.420495
1399.780711
606.602407
8787.769986
8731.497128
1110.613553
139.856240
8817.726725
8704.155315
351.522023
-310.167560
8787.437853
8718.129141
-72.012223
-1021.853109
8396.079394
8645.241865
-928.191657
-1447.008377
8310.013432
8383.743867
-1707.737959
-2327.007487
8605.313606
8416.200449
-2439.348393
-2848.340420
-3556.955998
8610.299416
8447.322713
-2980.507216
-4202.675872
8506.551479
8601.135470
-3733.083103
-4912.065127
8426.378718
8505.658584
-4544.217297
-5870.446485
8324.901526
8550.074459
-5424.567407
-6743.123833
8181.400696
8454.564222
-6070.999261
-7518.529050
8432.967288
8409.052875
-6932.670453
-8204.043865
8577.837948
8188.713471
-7644.404768
-9259.127668
8583.000696
8574.766652
-8422.329311
-9902.096492
8613.400176
8629.586012
-9304.057439
-10748.456321
8862.409050
8759.531091
8641.872158
-9924.867225
-11562.286498
8764.303303
8881.947261
-10982.921730
-12467.509173
8844.204051
8786.843599
-11644.620224
-13169.980034
8927.346028
9274.257904
-11999.553227
-13913.103266
9351.129788
9298.543024
-13062.286290
-14474.213070
9448.289748
9728.402137
-13895.709289
-15436.978068
9572.248188
9413.978512
-14141.539545
-15992.863093
9810.783809
9985.592878
-14959.159649
-16374.024025
10019.150486
10107.892163
-15313.452736
-17154.256653
10111.217399
10340.829336
-16092.657365
-17516.179130
10384.172332
10191.847698
-16485.080105
-18052.950085
10606.169249
10927.407782
-16729.704089
-18620.878693
10960.885184
10852.161342
-17242.938491
-18900.174797
10943.091510
10995.574573
-17710.636219
-19285.359024
10970.165990
11250.857596
-17671.910675
-19221.386156
11513.669874
11379.874954
-17870.524761
-19651.744009
-20007.133903
11412.547560
11488.980244
-18754.549610
-19882.936066
11575.110443
11888.474652
-18153.385763
-19758.000636
11687.312853
11593.261731
-18099.705293
-19243.602348
12001.455974
11897.351693
-18073.415679
-19734.435424
12271.203164
12133.035513
-18140.263048
-19420.128433
12198.647121
12224.827686
-17859.406291
-19256.410764
12206.145658
12506.048180
-17851.051042
-18947.217131
12159.701305
12577.501721
-17483.845531
-18638.042500
12428.664297
12520.191864
-17247.482750
-18141.401311
12261.240017
12411.420085
-16934.772997
-17783.030558
12592.257284
12498.686662
12265.181918
-16418.736417
-17339.332978
12186.915374
12277.980447
-16006.021048
-16945.660530
12214.655468
12419.305365
-15496.244577
-16361.863082
11918.882917
12435.304978
-15146.237724
-15801.040986
11647.697040
12069.066030
-14277.157641
-15298.636547
11598.197721
12116.019564
-13885.321108
-14678.905836
11512.364655
11706.578277
-13220.115543
-13809.915939
11582.010218
11280.528301
-12802.994458
-13082.712803
11383.658868
11201.388304
-11884.917289
-12611.663516
10893.678745
10993.704348
-11389.430801
-11742.590779
10649.897876
10793.774153
-10569.795426
-11463.335437
10201.341233
10678.064629
-10049.673232
-10545.933196
10117.604164
10138.948054
-9334.496869
-9938.108428
9906.108186
9760.379139
-8762.570990
-9305.212463
9716.663307
9288.921387
-7905.403057
-8468.270595
-7956.072090
9038.031257
9067.117951
-7662.236292
-7362.155392
8577.169922
8703.660800
-6465.011561
-6748.630056
8061.686777
8297.579922
-6161.136870
-6183.168968
7776.923570
8059.178419
-5700.228400
-5615.914638
7410.533449
7322.109436
-4927.265849
-4995.770314
7054.306566
7365.284821
-4463.334721
-4728.068165
6873.256323
6596.376591
-3996.952540
-4029.966382
6365.004047
6354.369064
-3603.770900
-3559.522205
5806.485915
5522.159782
-3307.701372
-3090.734348
5675.039521
5493.591578
-3206.065285
-2589.144927
5002.410597
5042.628113
-2558.388985
-2602.713287
4490.366983
4582.957559
-2138.151232
-1862.846716
4139.269047
4310.523493
-1783.025590
-1379.634196
3737.313587
3816.690969
-1814.685628
-1459.901065
3416.510672
3387.731427
-1257.478199
-1296.769017
3029.841095
3428.424401
-1198.393372
-775.844532
2702.753921
2636.782634
-653.699782
-980.999523
2288.671282
2616.375302
-964.954408
-599.147127
1990.614068
2495.160569
-645.856064
-405.683058
1753.619376
1820.057772
-683.809124
-630.625630
1746.881736
1699.090055
-438.728993
-491.058986
1359.798777
1404.614484
-483.018230
-454.502099
967.094841
1010.561689
-269.599626
-200.221778
939.736107
766.365126
-389.898971
33.253804
1029.022123
1006.783236
-10.186262
-386.177080
649.597459
697.921841
101.170226
-292.335860
596.291477
466.361894
-84.286612
23.115491
261.104176
270.805590
67.516834
-90.020313
391.285964
419.914456
-103.208873
15.244869
-85.755316
353.698702
-52.345505
-135.064760
174.362650
-123.406099
122.916880
107.370003
-46.539777
64.025973
159.149395
SCALARS stress_2 float
LOOKUP_TABLE default
965.923057
5489.048600
982.883179
818.227101
4771.920003
4433.940779
6926.888061
3014.982742
8689.884733
10716.877958
7769.352988
12220.582895
13582.497860
9952.935423
18596.319979
9692.064982
28906.851402
9245.240387
36826.791257
8780.429578
47044.203660
9403.729935
61427.072584
-1324.159415
77271.462145
-3746.571407
95892.657188
-13991.506038
118922.689771
-20994.296242
145583.705363
-36220.828610
168830.321739
-51594.420045
196990.538900
-68219.070547
229338.518342
-85465.429952
265440.162687
-110444.067947
301622.316528
341906.882487
-135757.602310
386356.006030
-162570.049069
430185.719217
-195507.326876
481428.721174
-233100.021447
533269.076019
-266528.148812
588520.897161
-309992.197310
644699.501502
-355673.613281
706708.921101
-401876.853006
767803.301426
-456398.663699
831603.357633
-511216.200766
902073.836937
-567045.512295
-631723.769722
970470.739338
-694683.005106
1040942.812049
-766802.975599
1112732.184510
-836505.127544
1189047.587906
-910613.917219
1266745.022237
-986358.091839
1342749.965903
-1068506.806811
1423879.817156
-1151533.980784
1505268.022338
-1233306.199476
1585102.597478
-1322867.478917
1669049.704074
-1409234.307445
1749682.756407
-1499169.270777
1834293.770507
-1591513.556379
1917198.306124
-1685180.594563
1997318.981034
-1779968.744228
2083003.322929
2162858.664740
-1872502.005375
2241467.819004
-1970062.264595
2320442.833808
-2064492.838791
2400450.537717
-2160830.200272
2474178.962790
-2253866.349038
2550396.351873
-2347373.757397
2621361.322744
-2438903.726225
2692413.403092
-2531382.158140
2758199.925852
-2620174.224580
2821919.703557
-2708349.796105
2885766.897705
-2791917.603901
-2878367.990839
2943586.922578
-2954433.672074
2999143.794206
-3031471.819042
3049193.072338
-3108224.334364
3098076.171257
-3177733.072573
3140871.935556
-3243176.651444
3179146.966983
-3302660.925510
3213206.938697
-3359570.383110
3245939.850697
-3414537.024244
3271619.832422
-3461026.004317
3296263.615056
-3507843.225951
3313342.742321
-3544753.860581
3326545.214216
-3576182.607333
3334926.574462
-3607131.809078
3340571.538214
-3628454.880098
3339534.250940
-3642450.163264
3335249.541205
3325955.522418
-3658290.373733
3314047.511481
-3662084.682940
3296235.165524
-3664162.945416
3272205.785419
-3662278.348627
3245410.199733
-3650334.892573
3216958.553932
-3634057.017504
3183020.945395
-3613114.626041
3143274.820464
-3589470.271842
3098650.276518
-3562497.857529
3054686.873307
-3523655.237633
-3485515.583590
3005432.610830
-3442159.594527
2954590.301624
-3391117.613315
2898694.091155
-3335442.323050
2841130.807989
-3281199.610323
2782319.736968
-3215994.646571
2721130.535223
-3151509.286325
2653149.788471
-3085338.814430
2587639.153842
-3015715.687165
2517957.932208
-2938783.904531
2447804.952135
-2861495.922806
2378526.311001
-2788275.010806
2305528.853401
-2707719.039093
2230788.579335
-2624964.007665
2157521.000463
-2539544.243366
2082268.262255
-2451853.144447
2010219.746933
1932653.599965
-2371235.866315
1860827.918729
-2281102.994687
1784305.531792
-2196938.969814
1711537.723996
-2107219.775666
1637498.152471
-2021747.997961
1566314.086031
-1933985.475202
1491667.654116
-1847885.394853
1422153.685288
-1761072.423982
1351566.276928
-1678103.034899
1285386.128163
-1594118.609826
1217568.766682
-1509446.905917
1155338.192486
-1430087.891113
1091721.933266
-1349790.736850
1026980.672119
-1271815.395038
966576.522454
-1196387.053143
909189.484270
-1122538.378233
852565.198668
-1053073.842616
800446.235335
-983302.828516
747831.406808
-914597.776183
695694.127367
-851266.669587
649185.908675
-788808.094447
602686.734702
-729667.889265
556530.019730
-672706.038012
514193.845110
-617429.094346
473149.055435
-567371.660016
434278.903490
-518208.256620
398030.932997
-470186.884158
363519.697613
-423786.811447
329289.440186
-385421.909046
300172.128657
-344199.429743
271898.591590
-310479.373535
246448.780897
-274016.993210
217485.541172
-246295.573611
195620.125200
-214860.969270
172508.076703
-187905.148128
150463.949337
-164672.793284
135111.254766
-140709.791327
114813.976960
-120464.078140
95049.530200
-103990.954596
84615.995838
-84090.388638
69717.357842
-70244.234796
56574.998438
-58366.590451
47702.347936
-46530.611009
39416.756501
-36162.393848
33062.224133
-27331.777472
23579.433929
-18070.761881
18158.499297
-15472.729297
10640.087306
-10611.534254
6808.197955
-4863.144693
4079.498312
-2768.275770
1174.687504
-550.863366
1655.862908
1569.076489
-2485.007532
4799.607912
-928.655004
5509.430030
-1552.950068
4858.574902
-1597.956842
2156.945149
-3210.960171
1025.987112
-1703.992113
89.700790
-1362.955289
-241.995166
3074.401935
3358.813965
1646.190871
6258.966843
3684.447468
5863.604614
5225.187756
9303.280937
9450.314354
8480.808347
11941.273604
12319.471687
20085.382410
9271.921997
25743.355926
8578.858402
40062.543116
8764.964000
50586.244852
3639.637043
66199.176290
1530.845473
84174.100675
-5916.727614
100118.318880
-15052.984839
126792.562090
-25225.942230
147951.448083
-36130.201535
173801.122325
-47605.794812
202961.600846
-68098.624683
235792.915704
-87791.992021
269079.798086
-110391.815477
309761.564894
-132222.810205
350372.361596
-165314.179701
391018.805969
-193296.525711
437203.742605
-228109.165139
487830.472380
-264382.699732
537755.758537
-305192.446392
591224.316231
-350407.576555
649500.876649
-395216.138311
709730.870102
-447859.287063
767874.328649
-499637.070901
835147.983475
-555034.661261
898229.980048
-615932.090200
966420.334397
-677969.114873
1037272.476834
-747751.181620
1106170.439418
-812822.047595
1182128.367616
-881773.744857
1252790.976584
-958976.159996
1329480.427820
-1034771.894759
1408188.022197
-1109938.835740
1483724.620337
-1189243.584683
1558683.652554
-1271795.345084
1633873.850032
-1354837.401787
1710968.643083
-1445322.243130
1792480.762893
-1526577.169987
1866269.038025
-1613712.084978
1943337.516568
-1703716.159540
2021645.011058
-1786851.995418
2093307.569583
-1873186.178331
2166264.020706
-1959308.610900
2237378.396488
-2047021.179716
2304186.939775
-2131881.056214
2372796.268343
-2214470.842142
2436342.625040
-2298864.424090
2497986.041923
-2377669.102933
2559856.648433
-2456259.936697
2619227.874879
-2531592.210226
2672197.850701
-2604156.541297
2720768.006209
-2674778.085315
2769077.202028
-2741558.744902
2809270.137284
-2801640.390620
2849950.371727
-2864824.909059
2883482.620512
-2920461.471655
2917553.029107
-2972728.664126
2943772.426078
-3019008.389093
2965462.241734
-3062053.801961
2985459.890359
-3099394.789322
3000627.517421
-3132826.636020
3010279.252357
-3159124.400082
3016537.923732
-3183407.382381
3019940.961858
-3203670.867761
3013946.496172
-3212917.898221
3006255.241832
-3223643.774632
2995008.156838
-3226358.367558
2977565.940319
-3224294.864462
2957750.038615
-3218047.119879
2933199.264261
-3208417.719524
2905767.762725
-3189171.834834
2876285.647415
-3167323.336370
2840315.047769
-3139698.110724
2799858.792353
-3108514.012428
2756314.295449
-3074428.228948
2712679.702523
-3030099.313941
2663209.826111
-2983950.568281
2610514.795652
-2937233.033967
2557227.310272
-2885957.995841
2498712.327973
-2831387.324466
2441822.563911
-2771087.589530
2382694.717213
-2709391.962468
2319441.729852
-2640834.313843
2254884.316984
-2574512.498187
2188716.592017
-2503237.101217
2120673.399546
-2433686.692621
2053668.836950
-2358002.443836
1987428.318511
-2284146.209394
1916058.672793
-2205409.274138
1848126.013206
-2125132.078319
1778776.469187
-2048857.922810
1705148.138117
-1968167.946988
1636343.864588
-1889524.720542
1565449.030824
-1807334.114033
1502756.351981
-1730522.697149
1430066.770033
-1651880.340452
1366148.984105
-1573303.011884
1301729.107607
-1493286.468597
1234080.538791
-1415116.092816
1169246.106222
-1340823.641692
1106647.923309
-1264161.083167
1047560.087430
-1192205.588678
985852.012869
-1120321.110134
928309.097878
-1052476.835002
872414.171021
-982308.715192
816913.329678
-918061.922141
764503.272975
-854599.724663
713135.512574
-793952.692446
664086.763630
-735488.094306
616087.822650
-678764.499929
573268.087886
-623459.048694
528049.672747
-570788.439725
486505.975486
-524686.511527
450291.109511
-475276.548943
412133.042764
-430632.406506
375648.018091
-390170.052157
341982.589152
-350296.055584
308728.998792
-316790.400758
279335.214954
-279894.942212
252236.066201
-247920.948759
225947.504446
-217596.388340
202092.374283
-190447.830646
178338.627622
-164954.544489
157289.093030
-144319.814714
138004.453602
-121486.878078
120494.107592
-104312.433705
103546.738096
-87349.637004
86667.743367
-69739.870195
76235.919912
-57532.987814
60910.552574
-46901.672955
52465.722703
-34701.194434
41030.129425
-26507.520192
30813.870120
-19172.634200
24640.912729
-12914.390989
18488.655505
-7530.172784
10361.082418
-5603.248400
9180.290848
-806.316961
3894.963891
1277.384775
4393.069489
2260.571964
1716.005894
4462.545481
-1531.543796
3822.654286
-2588.880456
4817.613537
-2763.353046
5418.740135
-1891.676723
2479.480423
-1247.038952
2221.737020
-2018.886074
498.879290
825.525956
2954.236642
99.190571
1045.310583
3231.931810
5172.880101
2274.832998
3672.883442
5404.096547
5771.757912
2904.078215
2793.055644
5501.498203
6324.712101
3748.421051
4863.311441
10304.355888
8141.656676
8491.952737
6951.276991
6859.746607
12462.704468
10762.413351
11508.664710
15067.575618
10641.108123
10031.183124
19445.101960
21928.052622
12155.941841
10732.508562
24038.736854
32291.984782
10030.618323
9725.905333
33834.300576
41346.414417
7740.476424
10493.918841
46774.085265
53905.411097
6534.525438
6182.254303
61157.971259
68756.602614
3856.471706
-1105.741725
75732.906545
83802.123936
-3534.449302
-8606.166538
95178.200009
104874.734302
-9754.209614
-16524.080891
112814.348645
128487.117451
-19037.608057
-26664.480136
138519.396056
152237.088240
-32684.692242
-40223.149714
163669.046334
179013.740122
-43677.830203
-56221.413907
192647.987548
211447.346800
-62932.415385
-71545.509948
222566.173292
243081.671598
-81885.435604
-95180.406179
257015.533756
280642.549013
-103750.950252
-119177.948237
296046.199267
321362.872615
351369.668394
-123942.205862
-143931.373678
340151.482489
386921.648184
-153129.105053
-174112.656535
386871.992266
432469.397038
-182898.964730
-206881.249239
434221.037756
482244.301778
-217383.800921
-239589.912391
483273.690992
531945.269912
-253064.587659
-283664.857982
535235.236432
590003.289259
-292666.277257
-322964.778884
589390.553044
646204.775542
-336839.247689
-369300.117190
649646.133901
703677.282182
-384509.743244
-419255.375750
704872.546046
766621.495560
-431959.932875
-472855.805260
768345.813843
829605.023514
-486418.735070
-527876.432974
833907.511228
898490.029947
-588005.302337
-545976.359018
-640325.303830
897219.239548
966666.139929
-616141.098162
-686874.793954
966999.202699
1038217.713801
-677301.810335
-753782.724209
1037701.578606
1110319.075762
-750737.790132
-827320.526233
1109943.730419
1185882.516506
-820777.965081
-901100.261889
1183094.272068
1263969.575986
-892455.283888
-978518.688894
1258588.798005
1341923.061368
-966359.456743
-1054167.708825
1333100.309032
1415664.856677
-1043389.141337
-1137922.413774
1411056.060579
1497466.713777
-1124069.066449
-1219770.603692
1488677.464284
1576386.305827
-1204292.789987
-1304323.744797
1566435.095124
1659258.434142
-1287619.370379
-1392314.379206
1649498.687731
1741243.948523
-1376126.867493
-1481514.314805
1725915.145127
1821689.508427
-1459249.314592
-1570895.759098
1806478.485184
1903665.128918
-1549314.860991
-1660344.276561
1886116.923100
1983838.032011
-1636587.757871
-1753035.175523
1967386.161048
2066843.173619
2140933.233533
-1728021.798292
-1843816.341373
2063987.608201
2186631.887547
-1816556.998282
-1938081.236481
2131988.258007
2265051.829338
-1904286.529278
-2031145.601971
2213322.294139
2343691.852155
-1991588.277871
-2119642.561189
2288506.219014
2415934.441370
-2085495.885160
-2213368.180661
2357841.216899
2488988.374814
-2171380.528833
-2302516.753640
2431525.496098
2560418.266178
-2257139.135954
-2392366.525704
2499002.376561
2627148.481494
-2346146.497098
-2479905.700425
2562566.772287
2691731.495476
-2431130.072955
-2568092.692485
2623740.711250
2756083.940728
-2508805.319721
-2655873.442900
2682995.166279
2812468.029000
-2588723.412836
-2727783.812601
-2820552.570874
2740475.324437
2866082.850858
-2697293.619793
-2859097.010670
2794360.337446
2921718.532855
-2753074.907964
-2938505.670825
2842800.822919
2967066.837194
-2834021.025443
-2998818.823393
2890057.101129
3013537.576250
-2902911.166955
-3065536.498764
2930136.142417
3051442.624909
-2963675.108095
-3130599.560523
2966658.816386
3088982.774873
-3023739.256731
-3188899.173212
3000155.535315
3123103.947915
-3080791.747754
-3243938.456809
3031167.356026
3151494.696492
-3130854.308501
-3295109.420937
3059692.570659
3179376.154211
-3175877.802480
-3338424.643773
3079051.667552
3194526.261761
-3217579.104261
-3377870.239374
3097550.978596
3210743.697672
-3255054.000412
-3412155.465650
3104985.591950
3222342.356469
-3285126.213381
-3444913.582120
3115989.242168
3227288.851760
-3312153.797751
-3471489.233892
3121852.492608
3231108.345286
-3336814.010553
-3488734.424730
3120387.293015
3229086.267520
-3352647.500660
-3500986.743880
3114002.054630
3222155.709261
3228261.034394
-3359462.857877
-3511213.036818
3112420.529083
3203523.902167
-3366721.623363
-3513847.923084
3086764.754570
3184725.019699
-3368579.282650
-3510583.885967
3068607.438347
3158457.394098
-3362657.050691
-3503763.716923
3044829.514840
3130120.960210
-3353166.045866
-3491541.454503
3018590.276350
3102886.896680
-3338660.800756
-3475336.286895
2987853.894793
3063902.159022
-3317380.314959
-3450986.689448
2953055.999324
3025105.894553
-3288807.356524
-3422910.878084
2910909.205160
2986088.598342
-3262244.807722
-3396039.299228
2868854.893476
2938842.140468
-3219783.558099
-3354489.708501
-3341998.952940
2823367.856776
2889314.571105
-3202338.923713
-3287236.537398
2774541.387275
2836137.377790
-3126159.434977
-3237114.331773
2720724.202775
2779734.846409
-3088782.904920
-3182831.232575
2667879.617532
2725565.362471
-3030276.826238
-3123034.054911
2612506.478546
2665011.073608
-2976211.117437
-3065298.428178
2548522.480296
2602821.064294
-2913777.907146
-2998547.598986
2491281.357411
2538159.133602
-2850518.616224
-2929976.940906
2427423.712843
2475825.126526
-2782775.811713
-2859866.849626
2363021.367862
2403771.684243
-2714441.525914
-2791271.032767
2295196.937601
2333959.972661
-2643824.260548
-2716402.448332
2227334.718043
2265174.631199
-2571952.245077
-2638961.621768
2158352.278076
2194628.403139
-2495494.794964
-2559943.206436
2086844.108599
2123447.615323
-2416807.536719
-2475919.164347
2015351.228131
2048202.754168
-2337336.815619
-2396633.548639
1943207.720665
1975236.236603
-2257478.205039
-2313086.450199
1865761.520794
1903592.799585
1855267.924750
-2178031.333896
-2228256.457390
1801051.199284
1785284.068300
-2094326.755848
-2144074.155929
1716030.856798
1713830.797494
-2014682.341458
-2056787.302971
1639864.065836
1642404.284637
-1928620.676443
-1974827.866455
1567756.285528
1565477.967339
-1849113.013588
-1888966.464158
1498454.424989
1494534.272461
-1766595.774710
-1808166.103375
1429335.877583
1426135.576619
-1686899.411761
-1723875.416468
1360539.106560
1357956.524838
-1603297.934356
-1638266.259653
1291173.729056
1289376.308909
-1522930.742353
-1556176.137697
1228167.875073
1224058.994637
-1443703.041250
-1475504.858810
1165257.427354
1159548.483680
-1359796.534732
-1394938.887367
-1342767.165625
1102072.595484
1095067.588572
-1287252.452207
-1272315.938918
1043276.680338
1035561.008440
-1199836.758521
-1196057.641186
979470.805262
974959.744888
-1123173.246630
-1122780.446118
920606.788882
914857.709511
-1052155.797897
-1054468.635918
863777.229099
857632.833703
-985808.805198
-984920.210341
811878.389837
805369.026339
-917760.211232
-917708.692113
758169.131722
752303.379347
-854203.361992
-853310.207063
706638.380697
701647.748461
-791179.974962
-788787.661336
659007.991294
653744.468458
-731742.353014
-734472.051170
611354.763866
607918.731851
-676506.457441
-673179.867546
565068.822401
562446.915175
-622488.755503
-616124.372788
525539.694427
517996.437677
-568374.819131
-568535.295676
482468.795993
476825.102038
-523273.507507
-517471.139297
439508.807551
438519.717108
-474991.480884
-473255.760344
403769.645094
401316.445580
375742.314435
-429935.346620
-429773.512911
368577.277234
344631.409191
-389508.480048
-388989.031847
329788.484952
314633.419694
-350528.036572
-348463.358347
296987.719785
286004.317666
-312770.747378
-312626.693661
266945.170937
255616.080270
-277855.897309
-278082.322634
239380.261663
230130.269817
-244737.159526
-245442.354826
215482.994206
200257.539826
-216870.870406
-216591.531763
193666.896579
184222.955704
-193035.068099
-189944.765201
169032.774427
158588.777768
-164235.466799
-162034.211750
148527.011012
140237.280762
-141221.871190
-142686.301159
130566.401638
122489.827434
-117752.113750
-117483.723901
111715.810776
109088.862282
-99720.347496
-106335.830906
95646.357925
91873.729218
-82058.357052
-89455.003223
82481.263813
74493.497571
-65732.914110
-76095.752804
68551.749164
65150.275701
-53394.072362
-61995.297204
57046.529136
52294.500009
-41813.711737
-51612.236171
46927.362084
43164.299294
-30423.133031
-42620.547264
39225.314370
34259.527927
-23417.589508
-29535.019932
30809.154287
26406.020725
-15941.059611
-20144.755803
22356.296118
19114.990719
-9349.594071
-12709.506501
17771.441633
12672.441997
-7877.567819
-10077.533788
10240.205165
8652.213862
-5415.809419
-3965.520760
6866.579177
4391.407302
-661.653006
-1583.623624
2360.913837
4600.883181
4273.173680
-2245.968773
2614.873404
-34.288533
4499.974158
2972.111098
491.687180
-2575.060953
2621.542289
2379.584094
3305.037208
-2518.470628
6630.222386
3750.241269
-4292.256982
-2657.989180
4134.014449
3695.983641
-2576.704429
-4815.286614
3704.446168
605.763922
-1491.603573
-2691.631210
114.721039
3751.614172
-385.724559
-870.218336
-234.037592
-4593.124862
2267.341472
2535.002050
-1386.796643
-70.161966
1627.455295
SCALARS stress_3 float
LOOKUP_TABLE default
-5811.093218
-8864.943851
-8586.214505
-4456.147973
-8805.063559
-6233.722898
-8203.296251
-9710.905573
-15489.682929
-16896.507739
-13255.695997
-16146.552058
-19109.514850
-19728.384178
-24891.591783
-19982.490301
-36137.642650
-18526.231125
-49854.590901
-14503.890796
-63937.868243
-8456.239661
-85095.616749
-3110.201171
-106935.268127
3391.017079
-135678.041000
12855.415088
-161771.651221
27811.785262
-193192.442921
46915.499324
-232698.427127
65283.491752
-270913.603838
95139.762546
-313994.175111
121154.038587
-360367.370598
151976.757124
-409120.457876
-466392.666597
190373.929183
-525736.340891
228213.412692
-585903.196611
279294.295229
-652484.157206
325342.871969
-722726.654385
376915.000837
-798871.316421
435308.206660
-874683.077794
503827.910118
-954585.654355
567683.920182
-1035611.390235
639814.734082
-1126499.066810
715037.084240
-1212331.181310
801890.544437
884339.705020
-1304995.733734
976704.281844
-1402575.221313
1070211.160431
-1496762.130249
1168981.761461
-1596739.099846
1272297.893905
-1696242.130102
1380706.054994
-1801232.357552
1490118.977149
-1905187.629094
1600543.747948
-2008053.365409
1721234.662567
-2113641.424422
1841227.578930
-2222692.008190
1958580.021865
-2329998.821538
2084746.286546
-2433621.722394
2209694.821247
-2537994.759712
2336095.188721
-2644499.944520
2466008.427593
-2749987.609919
-2851602.548314
2593474.537861
-2953264.311429
2724380.891250
-3053800.473045
2847572.422239
-3151910.442813
2979454.797726
-3243161.936588
3107084.017710
-3335064.068846
3231905.749091
-3420422.850616
3352721.068419
-3505160.614998
3478077.205346
-3585710.154398
3594818.750220
-3661583.020539
3714029.216839
-3733695.415477
3820723.244505
3931182.013917
-3799921.044040
4030888.306450
-3863943.764152
4135502.712452
-3919885.624770
4226908.461576
-3971836.330718
4321001.209691
-4020739.149576
4402586.967826
-4063460.234445
4479745.391852
-4096730.262554
4553430.006595
-4128325.233904
4616824.812054
-4152825.634697
4671938.540651
-4168062.104236
4727742.422038
-4182624.833548
4771281.046563
-4192161.822635
4806849.337675
-4190487.262524
4837416.476072
-4184499.934591
4860608.166578
-4174440.182966
4874409.589891
-4157951.417300
-4136314.265868
4884327.527387
-4109229.663147
4883342.569414
-4073640.428442
4879942.371844
-4033491.638302
4867119.382951
-3993842.702380
4840601.602736
-3944021.964803
4813490.982243
-3892322.195922
4779910.751125
-3831096.816414
4736675.488701
-3768182.596630
4686420.424624
-3703909.585523
4632641.214764
4569502.449469
-3632661.783093
4504467.052189
-3560262.741065
4432456.203621
-3484424.803569
4351232.969288
-3402335.380256
4268948.720913
-3321527.689750
4179808.048846
-3233584.551354
4087274.608957
-3148040.260241
3991369.619870
-3057157.635717
3891998.890557
-2970793.754330
3787498.421018
-2879328.025732
3679422.020226
-2786037.220273
3574355.048876
-2691160.605531
3463197.020767
-2599098.181504
3351467.935898
-2505680.423369
3233845.117040
-2407451.675254
3119806.411091
-2313885.926131
-2221607.520128
3003008.550474
-2126357.227596
2885001.830361
-2035170.458184
2768952.201799
-1945924.430517
2650671.806860
-1855417.963898
2534422.940719
-1769540.419024
2419713.401320
-1682912.282097
2307959.636937
-1595968.962769
2191600.855167
-1516059.231388
2077466.722909
-1434774.011404
1972695.229135
-1358555.635918
1861113.259366
-1279684.104929
1759001.097750
-1205361.751539
1655027.334635
-1135359.641271
1557124.396241
-1067854.402400
1457780.730841
-1001158.034925
1365547.546033
-934729.500224
1271982.508715
-872499.235544
1184655.607860
-814674.792609
1099028.794511
-759841.876245
1019042.210744
-703542.961627
941574.151730
-650334.190827
863340.415416
-600537.268672
794705.143874
-555257.107583
729442.916424
-510484.975139
664091.886167
-466898.374110
603946.916571
-428311.495523
546304.007635
-392434.918699
490964.520056
-358329.758115
439827.967631
-321548.297919
392587.853132
-289541.947760
351772.176557
-260715.133860
308810.440677
-233451.123796
271955.864115
-206955.420339
239688.102743
-187090.214515
206719.440706
-163174.085647
176604.943528
-142053.508908
151391.982933
-123836.626371
126737.127213
-103997.142862
108337.452919
-91447.970802
87737.244197
-77225.252266
71488.156919
-62770.976224
56970.961433
-52306.705430
43226.390160
-43442.713002
33379.213448
-35426.998940
25009.229243
-24726.628766
16324.437543
-19542.230757
8814.827321
-15073.012507
2112.054448
-10854.974017
-1215.596929
-8151.322883
-3725.345435
-1992.982553
-1648.622777
-2384.723377
-4365.571028
441.170499
-5067.621895
131.338379
-10369.698829
673.294060
-6215.517682
-397.530750
-7840.308106
-123.917427
-6389.490780
-1482.150119
-3591.065706
1355.000827
-4996.120460
-1602.583277
-5851.136337
-5788.989094
-6066.521433
-6119.877154
-9499.869487
-9887.105386
-16037.759820
-15317.903439
-16847.744156
-20421.691995
-17279.041119
-29315.405530
-19479.000378
-40209.825420
-16022.545383
-53861.601997
-14576.741655
-69415.811811
-5883.436095
-87275.236239
-4774.912848
-111214.230437
3537.762563
-137713.870956
16297.819790
-164684.797100
33405.116759
-204101.019895
48061.806572
-236594.883471
69011.605082
-276986.245755
91537.741941
-320914.822601
119625.293698
-371251.253312
151993.347934
-421696.472364
188644.686023
-475410.823888
228423.614169
-530896.318912
273052.285472
-592224.225012
316495.634409
-661579.618741
372875.814082
-731032.855255
429661.758967
-801226.715930
490002.059414
-877511.840070
553564.289202
-954877.790427
623605.180754
-1038084.282855
699696.307849
-1119401.956657
779002.260837
-1206799.155962
860210.755571
-1294439.738697
945916.677573
-1391409.267615
1040401.447522
-1486003.458570
1134923.950943
-1580662.655690
1231123.903687
-1672701.640351
1331840.677481
-1773412.614611
1436236.425424
-1873468.655018
1546910.519242
-1971504.887079
1653785.112036
-2072062.873546
1764456.510007
-2172301.253723
1881009.931779
-2265825.590362
1996134.902179
-2366834.522766
2112280.497756
-2467243.460587
2229681.948162
-2561767.977606
2346591.843746
-2656407.625547
2465292.337608
-2750925.978191
2581517.724923
-2838910.445189
2696487.235342
-2925952.742396
2810096.240589
-3014361.984288
2927829.331014
-3095448.181894
3038888.659718
-3170024.449691
3145673.598424
-3247714.503533
3251721.223684
-3318202.829622
3354499.497570
-3380174.990711
3454173.638706
-3443763.473001
3548173.658121
-3502517.839246
3639780.288235
-3554457.214951
3726628.758700
-3603380.523565
3803346.583314
-3647641.814043
3882861.133801
-3683235.867762
3951545.000511
-3715403.028851
4014556.478616
-3738362.706961
4072666.797769
-3761952.464844
4125020.690392
-3777182.007328
4169601.528208
-3783539.678540
4208230.529842
-3787053.964683
4240863.657366
-3785520.275409
4262109.987331
-3773600.173470
4279950.738361
-3762970.145068
4291850.014602
-3745896.971581
4295416.892604
-3718820.548860
4289254.886166
-3686427.800357
4281780.443562
-3657608.146751
4264505.220663
-3615577.139766
4242123.512644
-3572727.123531
4210967.909853
-3522594.726322
4174193.926087
-3471880.434341
4134328.933072
-3412971.657240
4079924.586679
-3351270.099844
4027061.335182
-3283920.106283
3963569.757902
-3217505.228280
3900826.931390
-3146405.952040
3826672.959792
-3073133.201010
3752601.061731
-2995910.871044
3673430.751005
-2915061.743520
3588284.464862
-2833528.741886
3498814.793649
-2751123.904070
3408617.251166
-2663266.011448
3314099.493282
-2579779.692295
3212747.815173
-2495224.214189
3113820.654084
-2406884.347480
3011394.600365
-2320441.796992
2908469.309887
-2231883.972378
2804426.001272
-2143251.501913
2697086.625568
-2055356.871799
2591676.259323
-1968892.852385
2482799.777032
-1887066.711248
2376659.615944
-1797056.437362
2270923.289855
-1715832.812102
2162409.236013
-1631111.873396
2059880.968216
-1549884.544693
1955402.770610
-1470071.454268
1851569.528717
-1390862.449020
1751447.231511
-1319500.938601
1652510.764512
-1243763.551286
1555056.411868
-1173415.057424
1461496.763927
-1102137.161840
1371628.246909
-1034535.711434
1282371.309088
-968550.115857
1195154.376684
-907937.145458
1112470.040045
-847679.723685
1030751.659868
-788400.325714
954385.673401
-732069.732920
877509.441340
-678075.639103
809533.400932
-631119.891159
743318.426673
-580571.117366
676543.442011
-532411.164621
613324.244891
-490400.661201
557530.053937
-450051.891251
501088.525019
-411865.969249
456103.942284
-372025.474515
406722.742978
-337527.521528
362765.069176
-304964.394432
315638.576748
-271083.502880
281936.626391
-245633.273092
246523.502252
-219796.972645
212465.641576
-191195.027760
183060.405063
-172806.848087
157457.011334
-150563.499150
132601.105233
-129742.827847
110171.610210
-114403.899702
89113.258686
-94056.561612
71660.039633
-82224.507377
55363.608923
-69656.955619
44131.032077
-57714.818760
33915.669793
-46797.020250
23333.806216
-38420.330438
16397.583421
-29241.033468
7786.657278
-22512.976242
-1408.983241
-15384.300830
-3899.977439
-10915.777583
-3127.401867
-9542.472023
-7585.611681
-5792.668295
-8509.388258
-776.213300
-9931.808149
-3360.172559
-9337.521683
-687.469522
-7057.310239
1414.546142
-7488.108293
-1819.344191
-5311.336524
-3204.692245
-5042.224585
-1596.077341
-3014.269828
-3780.630401
-7012.454578
-4251.869267
-5932.161721
-7095.621616
-6879.303580
-4392.390870
-7282.577172
-7668.556784
-8965.163747
-4729.217555
-4113.123942
-12732.443290
-10965.362483
-8863.476780
-10011.746006
-14715.957754
-18027.174020
-17670.595718
-12058.496159
-12157.457926
-16478.670742
-16026.214886
-21093.429489
-21307.882387
-18188.434274
-17332.453697
-23818.221580
-35218.227647
-19074.055685
-16701.608196
-36120.512430
-41269.338582
-16849.716893
-14087.931127
-47510.941343
-54837.484742
-16168.390241
-13283.948792
-62099.819365
-75177.996070
-9036.909420
-7860.054277
-81446.353986
-93060.015690
-5339.322707
-1905.652336
-104782.697072
-115658.671840
333.686742
6026.688477
-128895.780379
-142840.689623
9366.148236
20361.565007
-154357.314746
-173617.317858
24768.886039
35049.180703
-189629.772004
-210134.626838
41433.373340
53601.962085
-222841.890041
-246393.112557
62998.935369
72979.886849
-260403.308232
-287343.982559
82146.151668
103860.088534
-302220.176176
-332416.947697
112583.471073
131771.596180
-354066.337426
-377140.175863
139765.173042
164010.605555
-402321.106874
-434146.113312
-480078.213069
174456.596112
204404.251292
-463860.809883
-524589.204273
214924.969935
244447.675275
-520456.222163
-587348.644209
255719.228988
285398.379713
-587914.429606
-655086.140950
302059.231198
340567.423893
-655571.402062
-723737.547204
356420.730346
395109.829226
-725440.339078
-799124.535597
414336.897546
454064.354929
-798187.535660
-872109.872143
471260.058217
517938.758129
-873570.263981
-953276.697762
535980.999920
588814.004693
-955279.665419
-1036707.557142
606421.711731
660707.145914
-1033353.618510
-1122192.073019
683208.586630
736209.389699
-1119312.224055
-1214281.693023
825584.496482
764265.414971
901958.037056
-1209180.890260
-1303159.520604
860874.331058
964909.051778
-1302564.668222
-1397944.267468
946808.169670
1057507.681504
-1391619.750922
-1492369.960515
1045904.012665
1154108.819122
-1488100.840536
-1589817.237706
1143474.934258
1260657.990853
-1587425.029433
-1688435.339006
1247846.460990
1363214.909818
-1682657.378294
-1790821.256804
1350555.559799
1471841.265581
-1781490.765010
-1893067.034547
1456929.877584
1580243.848647
-1881697.988223
-1996800.966017
1563076.808073
1699358.526577
-1986705.456888
-2100553.728444
1675816.594140
1818315.496635
-2083282.199993
-2205247.506775
1789997.330856
1936010.582168
-2188319.030606
-2310178.821429
1909001.398272
2052025.538349
-2288587.923272
-2414182.381586
2022754.135029
2176870.284637
-2391986.542000
-2515068.472683
2143244.803914
2299908.022235
-2494042.643565
-2623925.843324
2265752.540016
2424289.614714
-2598068.415973
-2730173.937885
-2821107.809773
2384396.863367
2547664.811012
-2720230.092655
-2877694.960992
2507413.631897
2674278.889734
-2807130.062879
-2975702.066485
2628039.435952
2796858.878477
-2904333.104950
-3068684.695203
2751617.647258
2924125.793808
-2999097.523827
-3162731.686904
2865567.227190
3046034.313010
-3084470.851312
-3248100.805381
2988628.930331
3167279.031014
-3167852.496652
-3334901.092707
3101995.220566
3285149.697069
-3251410.823194
-3416141.985329
3214495.016659
3403721.973075
-3326831.121966
-3494656.395721
3327119.873835
3516686.308752
-3404496.139867
-3566456.570051
3438286.874061
3631299.152739
-3475348.007891
-3637509.479432
3536083.161464
3730595.070130
3843710.581789
-3538423.041313
-3701778.902384
3677159.961843
3894721.669469
-3602749.136600
-3760673.978943
3749433.410640
4000264.950733
-3656604.222078
-3814536.136076
3855003.576580
4085734.759372
-3711041.438393
-3863792.230910
3938752.713040
4166137.054265
-3753947.555857
-3906098.796493
4021132.327864
4246601.050886
-3792153.275185
-3943406.406780
4097187.267048
4320650.992056
-3827417.800524
-3976289.545812
4165201.915030
4385131.076278
-3855987.471160
-4001677.170124
4230693.380559
4448734.285849
-3879236.598138
-4024375.461875
4284892.135307
4501263.790023
-3897942.706283
-4037086.109202
4332851.306328
4547882.995469
-3910305.659812
-4048923.108079
4378270.199128
4587090.690204
-3914637.991667
-4052763.717844
4411448.687505
4620564.641823
-3917618.547323
-4051263.641671
4439418.559768
4647469.424959
-3914694.855992
-4046349.115113
4461778.370344
4666068.619369
-3904688.148614
-4032289.783626
4479660.273622
4675778.032891
-3882418.536836
-4012068.104719
-4012071.057132
4485239.533732
4678961.166696
-3868046.559170
-3972087.837550
4485064.384732
4677563.094090
-3829597.305171
-3934816.165338
4480252.360977
4667454.798454
-3789206.344026
-3891093.593543
4462593.185744
4649549.432141
-3751806.768853
-3847748.521680
4441546.673055
4626322.925533
-3709516.032877
-3798369.905514
4412281.002859
4595485.249101
-3660174.215144
-3745877.056424
4380675.430262
4556108.127305
-3606653.388058
-3688122.107824
4336493.430262
4510380.839116
-3548461.605677
-3626330.849364
4289711.338537
4461889.532217
-3488993.945580
-3560153.322943
4225911.409785
4400124.708841
4383609.529010
-3422554.471512
-3490628.330026
4197145.020318
4298801.509473
-3352004.850216
-3414992.517546
4087042.252729
4229256.649929
-3281227.158939
-3342148.032317
4028959.463504
4146740.749030
-3204835.036288
-3262948.954370
3945103.910588
4062035.281876
-3126158.995416
-3179722.823114
3865255.936570
3972608.371167
-3044668.163222
-3098705.335538
3777919.942762
3882836.099243
-2962765.352772
-3011620.125612
3684475.187422
3787375.640366
-2880170.339955
-2925939.205809
3595780.811925
3689976.901263
-2792581.442000
-2837480.893204
3495408.582421
3586789.520592
-2706733.374065
-2744391.136107
3398444.585792
3485653.394207
-2619293.365853
-2659063.784411
3294569.374459
3379420.304232
-2527506.976719
-2563747.077787
3192218.209816
3270883.507012
-2437273.688459
-2469422.339006
3086327.868397
3159868.511656
-2346881.331578
-2380217.319217
2978142.776473
3046045.433390
-2254858.114369
-2283993.631014
2869009.595350
2933022.828034
-2159881.495923
-2194724.753547
-2132958.338970
2759812.347136
2823478.286632
-2074675.352787
-2049785.326584
2651397.611153
2709290.104359
-1968899.208468
-1961725.837016
2538560.901197
2593989.166737
-1879304.364205
-1870432.739557
2426740.512442
2483623.757913
-1791615.611538
-1781893.448792
2319045.947660
2369559.888915
-1706006.230337
-1693083.982402
2209020.054393
2256918.652164
-1622575.608757
-1613068.331626
2101939.622363
2149668.243531
-1540825.870891
-1528525.732194
1997264.262562
2035142.042267
-1459486.232576
-1448693.651633
1888697.577675
1927594.176019
-1380662.619508
-1368418.616337
1787274.986480
1821326.565366
-1307237.484753
-1295630.283465
1675213.274978
1722172.213386
1644946.926410
-1231218.604147
-1219928.204742
1579607.272634
1557644.277521
-1159263.054242
-1149927.303619
1467707.645519
1460711.299650
-1091779.851604
-1077161.947776
1369558.615271
1369240.924459
-1024396.017593
-1010357.570771
1280457.891823
1276347.834110
-956364.786651
-947629.638943
1190497.555744
1187858.607002
-895337.672630
-884773.546177
1107411.779053
1103378.373690
-836965.801033
-821814.776481
1028124.527012
1025278.752014
-776289.351862
-766494.608513
949322.470875
944291.112984
-720115.980986
-712104.252657
873655.816567
866699.264946
-671150.300863
-659046.698632
802625.922308
798640.028596
-620326.123250
-609212.598774
734923.913553
729182.550102
-571892.474754
-562936.860455
670742.778524
666462.835090
-527686.122482
-516455.986006
611619.969645
607268.675930
-479806.836084
-473957.914990
553814.314577
549917.552465
-438459.664656
-432809.877150
-403344.480542
499718.723567
496793.383476
-398104.679825
-373584.071920
448830.838061
444135.578003
-356209.648511
-339214.055240
399183.390479
399262.750403
-322142.139594
-307379.031979
359223.020126
351764.655903
-288353.595062
-274920.135584
312666.945624
313326.513124
-257968.999922
-244153.371980
280053.844204
274960.031686
-231670.293255
-218768.080212
242628.682033
239888.984078
-206677.197358
-194811.265571
205343.256497
208355.498454
-181364.916429
-174453.573546
181962.164583
180394.541921
-161120.367630
-150554.527972
152705.021201
154833.625842
-142581.621970
-131376.698029
127263.543953
127358.858957
-120220.723614
-113983.086417
103768.421641
112110.083311
-103929.770470
-97527.802021
81751.824867
97352.979097
-91122.549456
-81353.512594
66788.648418
74919.999363
-75372.847487
-71922.304965
53250.004468
59147.618741
-62915.445940
-61235.211522
37880.372412
49929.472854
-50694.853125
-46648.535171
27668.861206
36229.456840
-41837.051725
-38064.625289
17997.074213
27097.610476
-32510.938342
-28779.667658
12066.511468
18080.367663
-26342.217804
-23085.611876
5360.042623
9985.971886
-16617.109428
-14695.426899
2990.564228
8970.741715
-14465.450481
-11421.176666
-3014.514066
773.742673
-8893.486348
-7865.111785
-4592.777066
-3119.414924
-3740.102044
-4746.408057
-11789.759234
-3115.673745
-1752.514694
-815.916528
-10109.832990
-6290.291681
-3262.582123
-84.200086
-6685.396262
-7632.247477
-1604.475259
763.394761
-10615.302830
-6933.948591
2359.706173
726.797824
-6315.552694
-5188.868888
-191.413609
268.235621
-9988.478955
-6054.312482
-893.431747
-871.338042
-5694.387814
-3001.995225
1090.473403
-2332.591325
-4210.295841
-2769.821069
-3440.743087
-2787.787465
-1669.337118
-3648.838874
-157.992150
