# vtk DataFile Version 2.0
Generated volume Mesh
ASCII
DATASET UNSTRUCTURED_GRID
POINTS 994 float
-0.416146 -0.294827 0.000000
-0.409251 -0.287252 0.000000
-0.421925 -0.286495 0.000000
-0.410201 -0.303043 0.000000
-0.427538 -0.278049 0.000000
-0.404095 -0.311138 0.000000
-0.432982 -0.269494 0.000000
-0.397829 -0.319111 0.000000
-0.438254 -0.260832 0.000000
-0.391406 -0.326958 0.000000
-0.443353 -0.252067 0.000000
-0.384828 -0.334675 0.000000
-0.448277 -0.243202 0.000000
-0.378098 -0.342260 0.000000
-0.453024 -0.234242 0.000000
-0.371218 -0.349710 0.000000
-0.457592 -0.225188 0.000000
-0.364192 -0.357021 0.000000
-0.461979 -0.216046 0.000000
-0.357021 -0.364192 0.000000
-0.466183 -0.206818 0.000000
-0.349710 -0.371218 0.000000
-0.470203 -0.197508 0.000000
-0.342260 -0.378098 0.000000
-0.474037 -0.188120 0.000000
-0.334675 -0.384828 0.000000
-0.477683 -0.178658 0.000000
-0.326958 -0.391406 0.000000
-0.481141 -0.169126 0.000000
-0.319111 -0.397829 0.000000
-0.484408 -0.159526 0.000000
-0.311138 -0.404095 0.000000
-0.487484 -0.149864 0.000000
-0.303043 -0.410201 0.000000
-0.490368 -0.140141 0.000000
-0.294827 -0.416146 0.000000
-0.493057 -0.130363 0.000000
-0.286495 -0.421925 0.000000
-0.495552 -0.120532 0.000000
-0.278049 -0.427538 0.000000
-0.497851 -0.110654 0.000000
-0.269494 -0.432982 0.000000
-0.499953 -0.100732 0.000000
-0.260832 -0.438254 0.000000
-0.501857 -0.090771 0.000000
-0.252067 -0.443353 0.000000
-0.503563 -0.080774 0.000000
-0.243202 -0.448277 0.000000
-0.505069 -0.070746 0.000000
-0.234242 -0.453024 0.000000
-0.506376 -0.060691 0.000000
-0.225188 -0.457592 0.000000
-0.507482 -0.050612 0.000000
-0.216046 -0.461979 0.000000
-0.508388 -0.040514 0.000000
-0.206818 -0.466183 0.000000
-0.509093 -0.030400 0.000000
-0.197508 -0.470203 0.000000
-0.509597 -0.020274 0.000000
-0.188120 -0.474037 0.000000
-0.509899 -0.010139 0.000000
-0.178658 -0.477683 0.000000
-0.510000 0.000000 0.000000
-0.169126 -0.481141 0.000000
-0.509899 0.010139 0.000000
-0.509597 0.020274 0.000000
-0.159526 -0.484408 0.000000
-0.509093 0.030400 0.000000
-0.149864 -0.487484 0.000000
-0.508388 0.040514 0.000000
-0.140141 -0.490368 0.000000
-0.507482 0.050612 0.000000
-0.130363 -0.493057 0.000000
-0.506376 0.060691 0.000000
-0.120532 -0.495552 0.000000
-0.505069 0.070746 0.000000
-0.110654 -0.497851 0.000000
-0.503563 0.080774 0.000000
-0.100732 -0.499953 0.000000
-0.501857 0.090771 0.000000
-0.090771 -0.501857 0.000000
-0.499953 0.100732 0.000000
-0.080774 -0.503563 0.000000
-0.497851 0.110654 0.000000
-0.070746 -0.505069 0.000000
-0.495552 0.120532 0.000000
-0.060691 -0.506376 0.000000
-0.493057 0.130363 0.000000
-0.050612 -0.507482 0.000000
-0.490368 0.140141 0.000000
-0.040514 -0.508388 0.000000
-0.487484 0.149864 0.000000
-0.484408 0.159526 0.000000
-0.030400 -0.509093 0.000000
-0.020274 -0.509597 0.000000
-0.481141 0.169126 0.000000
-0.010139 -0.509899 0.000000
-0.477683 0.178658 0.000000
0.000000 -0.510000 0.000000
-0.474037 0.188120 0.000000
0.010139 -0.509899 0.000000
-0.470203 0.197508 0.000000
0.020274 -0.509597 0.000000
-0.466183 0.206818 0.000000
0.030400 -0.509093 0.000000
-0.461979 0.216046 0.000000
0.040514 -0.508388 0.000000
-0.457592 0.225188 0.000000
0.050612 -0.507482 0.000000
-0.453024 0.234242 0.000000
0.060691 -0.506376 0.000000
-0.448277 0.243202 0.000000
0.070746 -0.505069 0.000000
-0.443353 0.252067 0.000000
0.080774 -0.503563 0.000000
-0.438254 0.260832 0.000000
0.090771 -0.501857 0.000000
-0.432982 0.269494 0.000000
0.100732 -0.499953 0.000000
-0.427538 0.278049 0.000000
0.110654 -0.497851 0.000000
-0.421925 0.286495 0.000000
0.120532 -0.495552 0.000000
-0.416146 0.294827 0.000000
0.130363 -0.493057 0.000000
-0.410201 0.303043 0.000000
0.140141 -0.490368 0.000000
-0.404095 0.311138 0.000000
0.149864 -0.487484 0.000000
0.159526 -0.484408 0.000000
-0.397829 0.319111 0.000000
0.169126 -0.481141 0.000000
-0.391406 0.326958 0.000000
0.178658 -0.477683 0.000000
-0.384828 0.334675 0.000000
0.188120 -0.474037 0.000000
-0.378098 0.342260 0.000000
0.197508 -0.470203 0.000000
-0.371218 0.349710 0.000000
0.206818 -0.466183 0.000000
-0.364192 0.357021 0.000000
0.216046 -0.461979 0.000000
-0.357021 0.364192 0.000000
0.225188 -0.457592 0.000000
-0.349710 0.371218 0.000000
0.234242 -0.453024 0.000000
-0.342260 0.378098 0.000000
0.243202 -0.448277 0.000000
-0.334675 0.384828 0.000000
0.252067 -0.443353 0.000000
-0.326958 0.391406 0.000000
0.260832 -0.438254 0.000000
-0.319111 0.397829 0.000000
0.269494 -0.432982 0.000000
-0.311138 0.404095 0.000000
0.278049 -0.427538 0.000000
-0.303043 0.410201 0.000000
0.286495 -0.421925 0.000000
-0.294827 0.416146 0.000000
0.294827 -0.416146 0.000000
-0.286495 0.421925 0.000000
0.303043 -0.410201 0.000000
-0.278049 0.427538 0.000000
0.311138 -0.404095 0.000000
-0.269494 0.432982 0.000000
0.319111 -0.397829 0.000000
-0.260832 0.438254 0.000000
0.326958 -0.391406 0.000000
-0.252067 0.443353 0.000000
0.334675 -0.384828 0.000000
-0.243202 0.448277 0.000000
0.342260 -0.378098 0.000000
-0.234242 0.453024 0.000000
0.349710 -0.371218 0.000000
-0.225188 0.457592 0.000000
0.357021 -0.364192 0.000000
-0.216046 0.461979 0.000000
0.364192 -0.357021 0.000000
-0.206818 0.466183 0.000000
0.371218 -0.349710 0.000000
-0.197508 0.470203 0.000000
0.378098 -0.342260 0.000000
-0.188120 0.474037 0.000000
0.384828 -0.334675 0.000000
-0.178658 0.477683 0.000000
0.391406 -0.326958 0.000000
-0.169126 0.481141 0.000000
0.397829 -0.319111 0.000000
-0.159526 0.484408 0.000000
0.404095 -0.311138 0.000000
-0.149864 0.487484 0.000000
0.410201 -0.303043 0.000000
-0.140141 0.490368 0.000000
0.416146 -0.294827 0.000000
-0.130363 0.493057 0.000000
0.421925 -0.286495 0.000000
-0.120532 0.495552 0.000000
0.427538 -0.278049 0.000000
-0.110654 0.497851 0.000000
0.432982 -0.269494 0.000000
-0.100732 0.499953 0.000000
0.438254 -0.260832 0.000000
-0.090771 0.501857 0.000000
0.443353 -0.252067 0.000000
-0.080774 0.503563 0.000000
0.448277 -0.243202 0.000000
-0.070746 0.505069 0.000000
0.453024 -0.234242 0.000000
-0.060691 0.506376 0.000000
0.457592 -0.225188 0.000000
-0.050612 0.507482 0.000000
0.461979 -0.216046 0.000000
-0.040514 0.508388 0.000000
0.466183 -0.206818 0.000000
-0.030400 0.509093 0.000000
0.470203 -0.197508 0.000000
-0.020274 0.509597 0.000000
0.474037 -0.188120 0.000000
-0.010139 0.509899 0.000000
0.477683 -0.178658 0.000000
0.000000 0.510000 0.000000
0.481141 -0.169126 0.000000
0.010139 0.509899 0.000000
0.484408 -0.159526 0.000000
0.020274 0.509597 0.000000
0.487484 -0.149864 0.000000
0.030400 0.509093 0.000000
0.490368 -0.140141 0.000000
0.040514 0.508388 0.000000
0.493057 -0.130363 0.000000
0.050612 0.507482 0.000000
0.495552 -0.120532 0.000000
0.060691 0.506376 0.000000
0.497851 -0.110654 0.000000
0.070746 0.505069 0.000000
0.499953 -0.100732 0.000000
0.080774 0.503563 0.000000
0.501857 -0.090771 0.000000
0.090771 0.501857 0.000000
0.503563 -0.080774 0.000000
0.100732 0.499953 0.000000
0.505069 -0.070746 0.000000
0.110654 0.497851 0.000000
0.506376 -0.060691 0.000000
0.120532 0.495552 0.000000
0.507482 -0.050612 0.000000
0.130363 0.493057 0.000000
0.508388 -0.040514 0.000000
0.140141 0.490368 0.000000
0.509093 -0.030400 0.000000
0.149864 0.487484 0.000000
0.509597 -0.020274 0.000000
0.159526 0.484408 0.000000
0.509899 -0.010139 0.000000
0.169126 0.481141 0.000000
0.510000 0.000000 0.000000
0.178658 0.477683 0.000000
0.509899 0.010139 0.000000
0.188120 0.474037 0.000000
0.509597 0.020274 0.000000
0.197508 0.470203 0.000000
0.509093 0.030400 0.000000
0.206818 0.466183 0.000000
0.508388 0.040514 0.000000
0.216046 0.461979 0.000000
0.507482 0.050612 0.000000
0.225188 0.457592 0.000000
0.506376 0.060691 0.000000
0.234242 0.453024 0.000000
0.505069 0.070746 0.000000
0.243202 0.448277 0.000000
0.503563 0.080774 0.000000
0.252067 0.443353 0.000000
0.501857 0.090771 0.000000
0.260832 0.438254 0.000000
0.499953 0.100732 0.000000
0.269494 0.432982 0.000000
0.497851 0.110654 0.000000
0.278049 0.427538 0.000000
0.495552 0.120532 0.000000
0.286495 0.421925 0.000000
0.493057 0.130363 0.000000
0.294827 0.416146 0.000000
0.490368 0.140141 0.000000
0.303043 0.410201 0.000000
0.487484 0.149864 0.000000
0.311138 0.404095 0.000000
0.484408 0.159526 0.000000
0.319111 0.397829 0.000000
0.481141 0.169126 0.000000
0.326958 0.391406 0.000000
0.477683 0.178658 0.000000
0.334675 0.384828 0.000000
0.474037 0.188120 0.000000
0.342260 0.378098 0.000000
0.470203 0.197508 0.000000
0.349710 0.371218 0.000000
0.466183 0.206818 0.000000
0.357021 0.364192 0.000000
0.461979 0.216046 0.000000
0.364192 0.357021 0.000000
0.457592 0.225188 0.000000
0.371218 0.349710 0.000000
0.453024 0.234242 0.000000
0.378098 0.342260 0.000000
0.448277 0.243202 0.000000
0.384828 0.334675 0.000000
0.443353 0.252067 0.000000
0.391406 0.326958 0.000000
0.438254 0.260832 0.000000
0.397829 0.319111 0.000000
0.432982 0.269494 0.000000
0.404095 0.311138 0.000000
0.427538 0.278049 0.000000
0.410201 0.303043 0.000000
0.421925 0.286495 0.000000
0.416146 0.294827 0.000000
-0.415025 -0.278844 0.000000
-0.403306 -0.295541 0.000000
-0.420627 -0.270320 0.000000
-0.397194 -0.303706 0.000000
-0.426054 -0.261684 0.000000
-0.390916 -0.311745 0.000000
-0.431303 -0.252938 0.000000
-0.384475 -0.319654 0.000000
-0.436373 -0.244088 0.000000
-0.377875 -0.327430 0.000000
-0.441261 -0.235136 0.000000
-0.371117 -0.335070 0.000000
-0.445965 -0.226086 0.000000
-0.364205 -0.342571 0.000000
-0.450484 -0.216942 0.000000
-0.357141 -0.349929 0.000000
-0.454816 -0.207707 0.000000
-0.349929 -0.357141 0.000000
-0.458958 -0.198386 0.000000
-0.342571 -0.364205 0.000000
-0.462910 -0.188983 0.000000
-0.335070 -0.371117 0.000000
-0.466668 -0.179501 0.000000
-0.327430 -0.377875 0.000000
-0.470233 -0.169944 0.000000
-0.319654 -0.384475 0.000000
-0.473602 -0.160317 0.000000
-0.311745 -0.390916 0.000000
-0.476773 -0.150623 0.000000
-0.303706 -0.397194 0.000000
-0.479747 -0.140866 0.000000
-0.295541 -0.403306 0.000000
-0.482520 -0.131050 0.000000
-0.287252 -0.409251 0.000000
-0.485094 -0.121178 0.000000
-0.278844 -0.415025 0.000000
-0.487465 -0.111256 0.000000
-0.270320 -0.420627 0.000000
-0.489633 -0.101287 0.000000
-0.261684 -0.426054 0.000000
-0.491598 -0.091277 0.000000
-0.252938 -0.431303 0.000000
-0.493358 -0.081229 0.000000
-0.244088 -0.436373 0.000000
-0.494912 -0.071148 0.000000
-0.235136 -0.441261 0.000000
-0.496260 -0.061039 0.000000
-0.226086 -0.445965 0.000000
-0.497402 -0.050904 0.000000
-0.216942 -0.450484 0.000000
-0.498337 -0.040749 0.000000
-0.207707 -0.454816 0.000000
-0.499064 -0.030577 0.000000
-0.198386 -0.458958 0.000000
-0.499584 -0.020392 0.000000
-0.188983 -0.462910 0.000000
-0.499896 -0.010199 0.000000
-0.179501 -0.466668 0.000000
-0.500000 0.000000 0.000000
-0.169944 -0.470233 0.000000
-0.499896 0.010199 0.000000
-0.160317 -0.473602 0.000000
-0.499584 0.020392 0.000000
-0.150623 -0.476773 0.000000
-0.499064 0.030577 0.000000
-0.140866 -0.479747 0.000000
-0.498337 0.040749 0.000000
-0.131050 -0.482520 0.000000
-0.497402 0.050904 0.000000
-0.121178 -0.485094 0.000000
-0.496260 0.061039 0.000000
-0.111256 -0.487465 0.000000
-0.494912 0.071148 0.000000
-0.101287 -0.489633 0.000000
-0.493358 0.081229 0.000000
-0.091277 -0.491598 0.000000
-0.491598 0.091277 0.000000
-0.081229 -0.493358 0.000000
-0.489633 0.101287 0.000000
-0.071148 -0.494912 0.000000
-0.487465 0.111256 0.000000
-0.061039 -0.496260 0.000000
-0.485094 0.121178 0.000000
-0.050904 -0.497402 0.000000
-0.482520 0.131050 0.000000
-0.040749 -0.498337 0.000000
-0.479747 0.140866 0.000000
-0.030577 -0.499064 0.000000
-0.476773 0.150623 0.000000
-0.020392 -0.499584 0.000000
-0.473602 0.160317 0.000000
-0.010199 -0.499896 0.000000
-0.470233 0.169944 0.000000
0.000000 -0.500000 0.000000
-0.466668 0.179501 0.000000
0.010199 -0.499896 0.000000
-0.462910 0.188983 0.000000
0.020392 -0.499584 0.000000
-0.458958 0.198386 0.000000
0.030577 -0.499064 0.000000
-0.454816 0.207707 0.000000
0.040749 -0.498337 0.000000
-0.450484 0.216942 0.000000
0.050904 -0.497402 0.000000
-0.445965 0.226086 0.000000
0.061039 -0.496260 0.000000
-0.441261 0.235136 0.000000
0.071148 -0.494912 0.000000
-0.436373 0.244088 0.000000
0.081229 -0.493358 0.000000
-0.431303 0.252938 0.000000
0.091277 -0.491598 0.000000
-0.426054 0.261684 0.000000
0.101287 -0.489633 0.000000
-0.420627 0.270320 0.000000
0.111256 -0.487465 0.000000
-0.415025 0.278844 0.000000
0.121178 -0.485094 0.000000
-0.409251 0.287252 0.000000
0.131050 -0.482520 0.000000
-0.403306 0.295541 0.000000
0.140866 -0.479747 0.000000
-0.397194 0.303706 0.000000
0.150623 -0.476773 0.000000
-0.390916 0.311745 0.000000
0.160317 -0.473602 0.000000
-0.384475 0.319654 0.000000
0.169944 -0.470233 0.000000
-0.377875 0.327430 0.000000
0.179501 -0.466668 0.000000
-0.371117 0.335070 0.000000
0.188983 -0.462910 0.000000
-0.364205 0.342571 0.000000
0.198386 -0.458958 0.000000
-0.357141 0.349929 0.000000
0.207707 -0.454816 0.000000
-0.349929 0.357141 0.000000
0.216942 -0.450484 0.000000
-0.342571 0.364205 0.000000
0.226086 -0.445965 0.000000
-0.335070 0.371117 0.000000
0.235136 -0.441261 0.000000
-0.327430 0.377875 0.000000
0.244088 -0.436373 0.000000
-0.319654 0.384475 0.000000
0.252938 -0.431303 0.000000
-0.311745 0.390916 0.000000
0.261684 -0.426054 0.000000
-0.303706 0.397194 0.000000
0.270320 -0.420627 0.000000
-0.295541 0.403306 0.000000
0.278844 -0.415025 0.000000
-0.287252 0.409251 0.000000
0.287252 -0.409251 0.000000
-0.278844 0.415025 0.000000
0.295541 -0.403306 0.000000
-0.270320 0.420627 0.000000
0.303706 -0.397194 0.000000
-0.261684 0.426054 0.000000
0.311745 -0.390916 0.000000
-0.252938 0.431303 0.000000
0.319654 -0.384475 0.000000
-0.244088 0.436373 0.000000
0.327430 -0.377875 0.000000
-0.235136 0.441261 0.000000
0.335070 -0.371117 0.000000
-0.226086 0.445965 0.000000
0.342571 -0.364205 0.000000
-0.216942 0.450484 0.000000
0.349929 -0.357141 0.000000
-0.207707 0.454816 0.000000
0.357141 -0.349929 0.000000
-0.198386 0.458958 0.000000
0.364205 -0.342571 0.000000
-0.188983 0.462910 0.000000
0.371117 -0.335070 0.000000
-0.179501 0.466668 0.000000
0.377875 -0.327430 0.000000
-0.169944 0.470233 0.000000
0.384475 -0.319654 0.000000
-0.160317 0.473602 0.000000
0.390916 -0.311745 0.000000
-0.150623 0.476773 0.000000
0.397194 -0.303706 0.000000
-0.140866 0.479747 0.000000
0.403306 -0.295541 0.000000
-0.131050 0.482520 0.000000
0.409251 -0.287252 0.000000
-0.121178 0.485094 0.000000
0.415025 -0.278844 0.000000
-0.111256 0.487465 0.000000
0.420627 -0.270320 0.000000
-0.101287 0.489633 0.000000
0.426054 -0.261684 0.000000
-0.091277 0.491598 0.000000
0.431303 -0.252938 0.000000
-0.081229 0.493358 0.000000
0.436373 -0.244088 0.000000
-0.071148 0.494912 0.000000
0.441261 -0.235136 0.000000
-0.061039 0.496260 0.000000
0.445965 -0.226086 0.000000
-0.050904 0.497402 0.000000
0.450484 -0.216942 0.000000
-0.040749 0.498337 0.000000
0.454816 -0.207707 0.000000
-0.030577 0.499064 0.000000
0.458958 -0.198386 0.000000
-0.020392 0.499584 0.000000
0.462910 -0.188983 0.000000
-0.010199 0.499896 0.000000
0.466668 -0.179501 0.000000
0.000000 0.500000 0.000000
0.470233 -0.169944 0.000000
0.010199 0.499896 0.000000
0.473602 -0.160317 0.000000
0.020392 0.499584 0.000000
0.476773 -0.150623 0.000000
0.030577 0.499064 0.000000
0.479747 -0.140866 0.000000
0.040749 0.498337 0.000000
0.482520 -0.131050 0.000000
0.050904 0.497402 0.000000
0.485094 -0.121178 0.000000
0.061039 0.496260 0.000000
0.487465 -0.111256 0.000000
0.071148 0.494912 0.000000
0.489633 -0.101287 0.000000
0.081229 0.493358 0.000000
0.491598 -0.091277 0.000000
0.091277 0.491598 0.000000
0.493358 -0.081229 0.000000
0.101287 0.489633 0.000000
0.494912 -0.071148 0.000000
0.111256 0.487465 0.000000
0.496260 -0.061039 0.000000
0.121178 0.485094 0.000000
0.497402 -0.050904 0.000000
0.131050 0.482520 0.000000
0.498337 -0.040749 0.000000
0.140866 0.479747 0.000000
0.499064 -0.030577 0.000000
0.150623 0.476773 0.000000
0.499584 -0.020392 0.000000
0.160317 0.473602 0.000000
0.499896 -0.010199 0.000000
0.169944 0.470233 0.000000
0.500000 0.000000 0.000000
0.179501 0.466668 0.000000
0.499896 0.010199 0.000000
0.188983 0.462910 0.000000
0.499584 0.020392 0.000000
0.198386 0.458958 0.000000
0.499064 0.030577 0.000000
0.207707 0.454816 0.000000
0.498337 0.040749 0.000000
0.216942 0.450484 0.000000
0.497402 0.050904 0.000000
0.226086 0.445965 0.000000
0.496260 0.061039 0.000000
0.235136 0.441261 0.000000
0.494912 0.071148 0.000000
0.244088 0.436373 0.000000
0.493358 0.081229 0.000000
0.252938 0.431303 0.000000
0.491598 0.091277 0.000000
0.261684 0.426054 0.000000
0.489633 0.101287 0.000000
0.270320 0.420627 0.000000
0.487465 0.111256 0.000000
0.278844 0.415025 0.000000
0.485094 0.121178 0.000000
0.287252 0.409251 0.000000
0.482520 0.131050 0.000000
0.295541 0.403306 0.000000
0.479747 0.140866 0.000000
0.303706 0.397194 0.000000
0.476773 0.150623 0.000000
0.311745 0.390916 0.000000
0.473602 0.160317 0.000000
0.319654 0.384475 0.000000
0.470233 0.169944 0.000000
0.327430 0.377875 0.000000
0.466668 0.179501 0.000000
0.335070 0.371117 0.000000
0.462910 0.188983 0.000000
0.342571 0.364205 0.000000
0.458958 0.198386 0.000000
0.349929 0.357141 0.000000
0.454816 0.207707 0.000000
0.357141 0.349929 0.000000
0.450484 0.216942 0.000000
0.364205 0.342571 0.000000
0.445965 0.226086 0.000000
0.371117 0.335070 0.000000
0.441261 0.235136 0.000000
0.377875 0.327430 0.000000
0.436373 0.244088 0.000000
0.384475 0.319654 0.000000
0.431303 0.252938 0.000000
0.390916 0.311745 0.000000
0.426054 0.261684 0.000000
0.397194 0.303706 0.000000
0.420627 0.270320 0.000000
0.415025 0.278844 0.000000
0.403306 0.295541 0.000000
0.409251 0.287252 0.000000
-0.416651 -0.285100 0.000000
-0.409726 -0.295166 0.000000
-0.421429 -0.278105 0.000000
-0.403699 -0.303357 0.000000
-0.426806 -0.269823 0.000000
-0.397508 -0.311425 0.000000
-0.432197 -0.261278 0.000000
-0.391157 -0.319367 0.000000
-0.437327 -0.252500 0.000000
-0.384646 -0.327179 0.000000
-0.442314 -0.243721 0.000000
-0.377979 -0.334859 0.000000
-0.446941 -0.235122 0.000000
-0.450784 -0.228337 0.000000
-0.370462 -0.343155 0.000000
-0.455028 -0.219045 0.000000
-0.452668 -0.223420 0.000000
-0.364060 -0.349914 0.000000
-0.459296 -0.209724 0.000000
-0.457282 -0.214033 0.000000
-0.357103 -0.357057 0.000000
-0.461352 -0.204833 0.000000
-0.463724 -0.200363 0.000000
-0.350055 -0.363925 0.000000
-0.465669 -0.195543 0.000000
-0.467695 -0.190817 0.000000
-0.343998 -0.369738 0.000000
-0.471431 -0.181492 0.000000
-0.469405 -0.186286 0.000000
-0.334859 -0.377979 0.000000
-0.472952 -0.176626 0.000000
-0.474903 -0.171777 0.000000
-0.327179 -0.384646 0.000000
-0.478846 -0.161727 0.000000
-0.476435 -0.167155 0.000000
-0.319367 -0.391157 0.000000
-0.480787 -0.154555 0.000000
-0.311425 -0.397508 0.000000
-0.483607 -0.145275 0.000000
-0.303357 -0.403699 0.000000
-0.486452 -0.135600 0.000000
-0.293440 -0.410921 0.000000
-0.489031 -0.125774 0.000000
-0.286535 -0.415757 0.000000
-0.491508 -0.115921 0.000000
-0.278352 -0.421319 0.000000
-0.493686 -0.106038 0.000000
-0.269886 -0.426828 0.000000
-0.495651 -0.096362 0.000000
-0.261233 -0.432144 0.000000
-0.497198 -0.088074 0.000000
-0.252462 -0.437285 0.000000
-0.499250 -0.075953 0.000000
-0.243613 -0.442280 0.000000
-0.500654 -0.065906 0.000000
-0.234715 -0.447127 0.000000
-0.228640 -0.450519 0.000000
-0.501880 -0.055811 0.000000
-0.218895 -0.455215 0.000000
-0.223224 -0.452881 0.000000
-0.502902 -0.045695 0.000000
-0.209733 -0.459391 0.000000
-0.214212 -0.457190 0.000000
-0.503721 -0.035560 0.000000
-0.200365 -0.463733 0.000000
-0.204804 -0.461613 0.000000
-0.195531 -0.465664 0.000000
-0.190784 -0.467722 0.000000
-0.504503 -0.023225 0.000000
-0.186244 -0.469425 0.000000
-0.181531 -0.471460 0.000000
-0.504773 -0.013853 0.000000
-0.176954 -0.472745 0.000000
-0.171678 -0.474859 0.000000
-0.505074 -0.003656 0.000000
-0.167137 -0.476450 0.000000
-0.161673 -0.478820 0.000000
-0.504932 0.006910 0.000000
-0.154529 -0.480797 0.000000
-0.504834 0.020042 0.000000
-0.145171 -0.483695 0.000000
-0.503551 0.037586 0.000000
-0.135593 -0.486453 0.000000
-0.502892 0.045680 0.000000
-0.125775 -0.489083 0.000000
-0.502191 0.053713 0.000000
-0.115940 -0.491464 0.000000
-0.500654 0.065906 0.000000
-0.106312 -0.493603 0.000000
-0.499225 0.075974 0.000000
-0.098005 -0.495252 0.000000
-0.497594 0.086013 0.000000
-0.086013 -0.497594 0.000000
-0.495252 0.098004 0.000000
-0.075974 -0.499225 0.000000
-0.493597 0.106314 0.000000
-0.065906 -0.500654 0.000000
-0.491428 0.115952 0.000000
-0.053714 -0.502191 0.000000
-0.489011 0.125775 0.000000
-0.045680 -0.502892 0.000000
-0.486412 0.135576 0.000000
-0.037586 -0.503551 0.000000
-0.483678 0.145285 0.000000
-0.480787 0.154548 0.000000
-0.478775 0.161676 0.000000
-0.019993 -0.505013 0.000000
-0.474875 0.171814 0.000000
-0.476450 0.167142 0.000000
-0.006399 -0.504863 0.000000
-0.471460 0.181500 0.000000
-0.472984 0.176743 0.000000
0.004056 -0.505080 0.000000
-0.469459 0.186171 0.000000
-0.467574 0.190927 0.000000
0.014245 -0.504767 0.000000
-0.465619 0.195494 0.000000
-0.463733 0.200332 0.000000
0.023224 -0.504502 0.000000
-0.461448 0.204867 0.000000
-0.459421 0.209641 0.000000
0.035560 -0.503721 0.000000
-0.457230 0.214138 0.000000
-0.455198 0.218914 0.000000
0.045695 -0.502902 0.000000
-0.452908 0.223198 0.000000
-0.450716 0.228508 0.000000
0.055811 -0.501880 0.000000
-0.446914 0.235146 0.000000
0.065906 -0.500654 0.000000
-0.442240 0.243700 0.000000
0.075974 -0.499225 0.000000
-0.437272 0.252473 0.000000
0.088074 -0.497198 0.000000
-0.432109 0.261213 0.000000
0.096362 -0.495651 0.000000
-0.426787 0.269860 0.000000
0.106034 -0.493683 0.000000
-0.421297 0.278338 0.000000
0.115913 -0.491500 0.000000
-0.415757 0.286535 0.000000
0.125776 -0.489039 0.000000
-0.410932 0.293439 0.000000
0.135601 -0.486450 0.000000
-0.403699 0.303357 0.000000
0.145277 -0.483606 0.000000
-0.397508 0.311425 0.000000
0.154557 -0.480774 0.000000
0.161733 -0.478769 0.000000
-0.391157 0.319367 0.000000
0.167091 -0.476488 0.000000
0.171718 -0.474954 0.000000
-0.384646 0.327179 0.000000
0.176707 -0.473000 0.000000
0.181505 -0.471475 0.000000
-0.377979 0.334859 0.000000
0.186295 -0.469391 0.000000
0.190925 -0.467576 0.000000
-0.369765 0.344010 0.000000
0.195633 -0.465648 0.000000
0.200345 -0.463770 0.000000
-0.363926 0.350050 0.000000
0.209734 -0.459450 0.000000
0.204910 -0.461509 0.000000
-0.357034 0.357061 0.000000
0.214072 -0.457247 0.000000
0.218980 -0.455067 0.000000
-0.349993 0.364032 0.000000
0.228256 -0.450815 0.000000
0.223408 -0.452712 0.000000
-0.343912 0.369752 0.000000
0.235109 -0.446946 0.000000
-0.334859 0.377979 0.000000
0.243720 -0.442311 0.000000
-0.327179 0.384646 0.000000
0.252483 -0.437299 0.000000
-0.319367 0.391157 0.000000
0.261251 -0.432197 0.000000
-0.311425 0.397508 0.000000
0.269819 -0.426806 0.000000
-0.303357 0.403699 0.000000
0.278114 -0.421436 0.000000
-0.295166 0.409726 0.000000
0.285106 -0.416757 0.000000
-0.285453 0.416477 0.000000
0.295191 -0.409722 0.000000
-0.278168 0.421408 0.000000
0.303357 -0.403699 0.000000
-0.269849 0.426857 0.000000
0.311425 -0.397508 0.000000
-0.261220 0.432122 0.000000
0.319367 -0.391157 0.000000
-0.252526 0.437285 0.000000
0.327179 -0.384646 0.000000
-0.243742 0.442304 0.000000
0.334859 -0.377979 0.000000
-0.235192 0.446897 0.000000
-0.228742 0.450552 0.000000
0.343167 -0.370539 0.000000
-0.223460 0.452663 0.000000
-0.218979 0.455026 0.000000
0.349916 -0.364073 0.000000
-0.214046 0.457197 0.000000
-0.209660 0.459391 0.000000
0.357057 -0.357104 0.000000
-0.200375 0.463730 0.000000
-0.204910 0.461372 0.000000
0.363930 -0.350058 0.000000
-0.195557 0.465613 0.000000
-0.190944 0.467564 0.000000
0.369764 -0.344011 0.000000
-0.181545 0.471428 0.000000
-0.186254 0.469430 0.000000
0.377979 -0.334859 0.000000
-0.176635 0.472984 0.000000
-0.171918 0.474870 0.000000
0.384646 -0.327179 0.000000
-0.161683 0.478683 0.000000
-0.167009 0.476454 0.000000
0.391157 -0.319367 0.000000
-0.154877 0.480582 0.000000
0.397508 -0.311425 0.000000
-0.145423 0.483611 0.000000
0.403699 -0.303357 0.000000
-0.135605 0.486389 0.000000
0.410921 -0.293440 0.000000
-0.125786 0.489034 0.000000
0.415757 -0.286535 0.000000
-0.115924 0.491501 0.000000
0.421276 -0.278351 0.000000
-0.106038 0.493682 0.000000
0.426786 -0.269861 0.000000
-0.096362 0.495651 0.000000
0.432129 -0.261224 0.000000
-0.088074 0.497198 0.000000
0.437364 -0.252518 0.000000
-0.075974 0.499225 0.000000
0.442255 -0.243696 0.000000
-0.065906 0.500654 0.000000
0.446901 -0.235165 0.000000
0.450626 -0.228629 0.000000
-0.055811 0.501880 0.000000
0.452863 -0.223239 0.000000
0.455037 -0.219014 0.000000
-0.045695 0.502902 0.000000
0.457157 -0.214077 0.000000
0.459396 -0.209621 0.000000
-0.035560 0.503721 0.000000
0.461359 -0.204897 0.000000
0.463695 -0.200361 0.000000
-0.023304 0.504424 0.000000
0.465641 -0.195495 0.000000
0.467606 -0.190951 0.000000
-0.014879 0.504782 0.000000
0.469414 -0.186248 0.000000
0.471411 -0.181540 0.000000
-0.005033 0.504925 0.000000
0.472918 -0.176630 0.000000
0.474886 -0.171779 0.000000
0.005043 0.504929 0.000000
0.476453 -0.167022 0.000000
0.478685 -0.161862 0.000000
0.014951 0.504764 0.000000
0.480771 -0.154583 0.000000
0.023215 0.504525 0.000000
0.483673 -0.145303 0.000000
0.037586 0.503551 0.000000
0.486450 -0.135593 0.000000
0.045750 0.502896 0.000000
0.489087 -0.125805 0.000000
0.053799 0.502083 0.000000
0.491453 -0.115970 0.000000
0.065906 0.500654 0.000000
0.493600 -0.106336 0.000000
0.075974 0.499225 0.000000
0.495243 -0.098118 0.000000
0.086013 0.497594 0.000000
0.497594 -0.086013 0.000000
0.098116 0.495243 0.000000
0.499225 -0.075974 0.000000
0.106336 0.493600 0.000000
0.500654 -0.065906 0.000000
0.115972 0.491452 0.000000
0.502084 -0.053799 0.000000
0.125820 0.489079 0.000000
0.502897 -0.045748 0.000000
0.135587 0.486408 0.000000
0.503551 -0.037586 0.000000
0.145284 0.483678 0.000000
0.504412 -0.023728 0.000000
0.154553 0.480792 0.000000
0.504678 -0.016946 0.000000
0.161702 0.478804 0.000000
0.166954 0.476453 0.000000
0.504949 -0.002996 0.000000
0.171459 0.474989 0.000000
0.176706 0.472959 0.000000
0.504952 0.005359 0.000000
0.181613 0.471429 0.000000
0.186155 0.469450 0.000000
0.504776 0.014970 0.000000
0.190941 0.467614 0.000000
0.195461 0.465640 0.000000
0.504507 0.023301 0.000000
0.200321 0.463696 0.000000
0.204665 0.461639 0.000000
0.503721 0.035560 0.000000
0.209779 0.459311 0.000000
0.214128 0.457065 0.000000
0.502902 0.045695 0.000000
0.218898 0.455083 0.000000
0.223160 0.452917 0.000000
0.501880 0.055811 0.000000
0.228588 0.450696 0.000000
0.500654 0.065906 0.000000
0.235160 0.446911 0.000000
0.499225 0.075974 0.000000
0.243704 0.442242 0.000000
0.497198 0.088074 0.000000
0.252477 0.437275 0.000000
0.495651 0.096362 0.000000
0.261232 0.432125 0.000000
0.493684 0.106044 0.000000
0.269859 0.426787 0.000000
0.491464 0.115912 0.000000
0.278336 0.421300 0.000000
0.489031 0.125776 0.000000
0.286532 0.415761 0.000000
0.486389 0.135603 0.000000
0.293440 0.410921 0.000000
0.483609 0.145424 0.000000
0.303357 0.403699 0.000000
0.480578 0.154802 0.000000
0.311425 0.397508 0.000000
0.478655 0.161751 0.000000
0.476452 0.166982 0.000000
0.319367 0.391157 0.000000
0.474971 0.171610 0.000000
0.472982 0.176607 0.000000
0.327179 0.384646 0.000000
0.471433 0.181509 0.000000
0.469353 0.186363 0.000000
0.334859 0.377979 0.000000
0.467613 0.190886 0.000000
0.465645 0.195476 0.000000
0.344010 0.369764 0.000000
0.461373 0.204887 0.000000
0.463686 0.200316 0.000000
0.350057 0.363930 0.000000
0.459353 0.209725 0.000000
0.457070 0.214141 0.000000
0.357100 0.357062 0.000000
0.452708 0.223419 0.000000
0.455125 0.218877 0.000000
0.364020 0.349971 0.000000
0.450552 0.228739 0.000000
0.370222 0.343498 0.000000
0.446889 0.235184 0.000000
0.377979 0.334859 0.000000
0.442252 0.243700 0.000000
0.384646 0.327179 0.000000
0.437360 0.252522 0.000000
0.391146 0.319394 0.000000
0.432139 0.261225 0.000000
0.397501 0.311463 0.000000
0.426837 0.269829 0.000000
0.403699 0.303357 0.000000
0.421434 0.278106 0.000000
0.416650 0.285100 0.000000
0.409726 0.295166 0.000000
CELLS 1364 5456
3 624 2 0
3 624 0 1
3 624 1 317
3 317 626 624
3 626 317 319
3 319 628 626
3 4 626 628
3 628 6 4
3 6 628 630
3 630 8 6
3 8 630 632
3 632 10 8
3 10 632 634
3 634 12 10
3 12 634 636
3 636 14 12
3 14 636 637
3 637 16 14
3 640 16 637
3 637 329 640
3 640 329 331
3 639 640 331
3 639 331 643
3 643 18 639
3 639 18 16
3 643 642 18
3 642 20 18
3 645 20 642
3 642 333 645
3 645 333 335
3 646 645 335
3 646 335 648
3 648 22 646
3 646 22 20
3 648 649 22
3 649 24 22
3 652 24 649
3 649 337 652
3 652 337 339
3 651 652 339
3 651 339 654
3 654 26 651
3 651 26 24
3 654 655 26
3 655 28 26
3 658 28 655
3 655 341 658
3 658 341 343
3 657 658 343
3 657 343 660
3 30 657 660
3 660 32 30
3 32 660 662
3 662 34 32
3 34 662 664
3 664 36 34
3 36 664 666
3 666 38 36
3 38 666 668
3 668 40 38
3 40 668 670
3 670 42 40
3 42 670 672
3 672 44 42
3 44 672 674
3 674 46 44
3 674 359 46
3 676 46 359
3 676 359 361
3 676 361 48
3 678 48 361
3 678 361 363
3 678 363 50
3 681 50 363
3 681 363 365
3 681 365 52
3 684 52 365
3 684 365 367
3 684 367 54
3 687 54 367
3 687 367 369
3 687 369 56
3 692 56 369
3 692 369 371
3 371 695 692
3 58 692 695
3 695 60 58
3 60 695 698
3 698 62 60
3 62 698 701
3 701 64 62
3 64 701 703
3 65 64 703
3 65 703 67
3 67 703 381
3 705 67 381
3 705 381 383
3 383 707 705
3 69 705 707
3 707 71 69
3 71 707 709
3 709 73 71
3 709 387 73
3 711 73 387
3 711 387 389
3 711 389 75
3 713 75 389
3 713 389 391
3 713 391 77
3 715 77 391
3 715 391 393
3 715 393 79
3 717 79 393
3 717 393 395
3 395 719 717
3 81 717 719
3 719 83 81
3 83 719 721
3 721 85 83
3 85 721 723
3 723 87 85
3 87 723 725
3 725 89 87
3 89 725 727
3 727 91 89
3 91 727 728
3 728 92 91
3 92 728 729
3 729 95 92
3 732 95 729
3 729 407 732
3 732 407 409
3 731 732 409
3 731 409 735
3 735 97 731
3 731 97 95
3 735 734 97
3 734 99 97
3 737 99 734
3 734 411 737
3 737 411 413
3 738 737 413
3 738 413 740
3 740 101 738
3 738 101 99
3 740 741 101
3 741 103 101
3 743 103 741
3 741 415 743
3 743 415 417
3 744 743 417
3 744 417 746
3 746 105 744
3 744 105 103
3 746 747 105
3 747 107 105
3 749 107 747
3 747 419 749
3 749 419 421
3 750 749 421
3 750 421 752
3 109 750 752
3 752 111 109
3 111 752 754
3 754 113 111
3 113 754 756
3 756 115 113
3 115 756 758
3 758 117 115
3 117 758 760
3 760 119 117
3 119 760 762
3 762 121 119
3 121 762 764
3 764 123 121
3 123 764 766
3 766 125 123
3 766 437 125
3 768 125 437
3 768 437 439
3 768 439 127
3 770 127 439
3 770 439 441
3 770 441 130
3 773 130 441
3 773 441 443
3 773 443 132
3 776 132 443
3 776 443 445
3 776 445 134
3 779 134 445
3 779 445 447
3 779 447 136
3 782 136 447
3 782 447 449
3 449 785 782
3 138 782 785
3 785 140 138
3 140 785 788
3 788 142 140
3 142 788 791
3 791 144 142
3 144 791 794
3 794 146 144
3 794 457 146
3 796 146 457
3 796 457 459
3 796 459 148
3 798 148 459
3 798 459 461
3 798 461 150
3 800 150 461
3 800 461 463
3 800 463 152
3 802 152 463
3 802 463 465
3 802 465 154
3 804 154 465
3 804 465 467
3 804 467 156
3 806 156 467
3 806 467 469
3 806 469 158
3 808 158 469
3 808 469 471
3 471 810 808
3 160 808 810
3 810 162 160
3 162 810 812
3 812 164 162
3 164 812 814
3 814 166 164
3 166 814 816
3 816 168 166
3 168 816 818
3 818 170 168
3 170 818 820
3 820 172 170
3 172 820 821
3 821 174 172
3 823 174 821
3 821 483 823
3 823 483 485
3 824 823 485
3 824 485 826
3 826 176 824
3 824 176 174
3 826 827 176
3 827 178 176
3 830 178 827
3 827 487 830
3 830 487 489
3 829 830 489
3 829 489 832
3 832 180 829
3 829 180 178
3 832 833 180
3 833 182 180
3 836 182 833
3 833 491 836
3 836 491 493
3 835 836 493
3 835 493 838
3 838 184 835
3 835 184 182
3 838 839 184
3 839 186 184
3 842 186 839
3 839 495 842
3 842 495 497
3 841 842 497
3 841 497 844
3 188 841 844
3 844 190 188
3 190 844 846
3 846 192 190
3 192 846 848
3 848 194 192
3 194 848 850
3 850 196 194
3 196 850 852
3 852 198 196
3 198 852 854
3 854 200 198
3 200 854 856
3 856 202 200
3 202 856 858
3 858 204 202
3 858 513 204
3 860 204 513
3 860 513 515
3 860 515 206
3 862 206 515
3 862 515 517
3 862 517 208
3 865 208 517
3 865 517 519
3 865 519 210
3 868 210 519
3 868 519 521
3 868 521 212
3 871 212 521
3 871 521 523
3 871 523 214
3 874 214 523
3 874 523 525
3 525 877 874
3 216 874 877
3 877 218 216
3 218 877 880
3 880 220 218
3 220 880 883
3 883 222 220
3 222 883 886
3 886 224 222
3 224 886 888
3 888 226 224
3 888 535 226
3 890 226 535
3 890 535 537
3 537 892 890
3 228 890 892
3 892 230 228
3 230 892 894
3 894 232 230
3 894 541 232
3 896 232 541
3 896 541 543
3 896 543 234
3 898 234 543
3 898 543 545
3 898 545 236
3 900 236 545
3 900 545 547
3 900 547 238
3 902 238 547
3 902 547 549
3 549 904 902
3 902 904 240
3 904 242 240
3 242 904 906
3 906 244 242
3 244 906 908
3 908 246 244
3 246 908 910
3 910 248 246
3 248 910 912
3 912 250 248
3 250 912 914
3 914 252 250
3 252 914 916
3 916 254 252
3 917 254 916
3 916 561 917
3 917 561 563
3 919 917 563
3 919 563 920
3 920 256 919
3 919 256 254
3 920 922 256
3 922 258 256
3 923 258 922
3 922 565 923
3 923 565 567
3 925 923 567
3 925 567 926
3 926 260 925
3 925 260 258
3 926 928 260
3 928 262 260
3 929 262 928
3 928 569 929
3 929 569 571
3 931 929 571
3 931 571 932
3 932 264 931
3 931 264 262
3 932 934 264
3 934 266 264
3 935 266 934
3 934 573 935
3 935 573 575
3 937 935 575
3 937 575 939
3 268 937 939
3 939 270 268
3 270 939 941
3 941 272 270
3 272 941 943
3 943 274 272
3 274 943 945
3 945 276 274
3 276 945 947
3 947 278 276
3 278 947 949
3 949 280 278
3 280 949 951
3 951 282 280
3 282 951 953
3 953 284 282
3 953 591 284
3 955 284 591
3 955 591 593
3 955 593 286
3 957 286 593
3 957 593 595
3 957 595 288
3 960 288 595
3 960 595 597
3 960 597 290
3 963 290 597
3 963 597 599
3 963 599 292
3 966 292 599
3 966 599 601
3 966 601 294
3 969 294 601
3 969 601 603
3 603 972 969
3 296 969 972
3 972 298 296
3 298 972 975
3 975 300 298
3 300 975 978
3 978 302 300
3 302 978 980
3 980 304 302
3 980 611 304
3 982 304 611
3 982 611 613
3 982 613 306
3 984 306 613
3 984 613 615
3 984 615 308
3 986 308 615
3 986 615 617
3 986 617 310
3 988 310 617
3 988 617 619
3 988 619 312
3 990 312 619
3 990 619 622
3 990 622 314
3 993 314 622
3 993 622 623
3 993 623 316
3 992 316 623
3 992 623 621
3 621 991 992
3 315 992 991
3 991 313 315
3 313 991 989
3 989 311 313
3 311 989 987
3 987 309 311
3 309 987 985
3 985 307 309
3 307 985 983
3 983 305 307
3 305 983 981
3 981 303 305
3 303 981 979
3 979 301 303
3 976 301 979
3 979 610 976
3 976 610 608
3 977 976 608
3 977 608 974
3 974 299 977
3 977 299 301
3 974 973 299
3 973 297 299
3 970 297 973
3 973 606 970
3 970 606 604
3 971 970 604
3 971 604 968
3 968 295 971
3 971 295 297
3 968 967 295
3 967 293 295
3 965 293 967
3 967 602 965
3 965 602 600
3 964 965 600
3 964 600 962
3 962 291 964
3 964 291 293
3 962 961 291
3 961 289 291
3 959 289 961
3 961 598 959
3 959 598 596
3 958 959 596
3 958 596 956
3 287 958 956
3 956 285 287
3 285 956 954
3 954 283 285
3 283 954 952
3 952 281 283
3 281 952 950
3 950 279 281
3 279 950 948
3 948 277 279
3 277 948 946
3 946 275 277
3 275 946 944
3 944 273 275
3 273 944 942
3 942 271 273
3 942 580 271
3 940 271 580
3 940 580 578
3 940 578 269
3 938 269 578
3 938 578 576
3 938 576 267
3 936 267 576
3 936 576 574
3 936 574 265
3 933 265 574
3 933 574 572
3 933 572 263
3 930 263 572
3 930 572 570
3 930 570 261
3 927 261 570
3 927 570 568
3 568 924 927
3 259 927 924
3 924 257 259
3 257 924 921
3 921 255 257
3 255 921 918
3 918 253 255
3 918 562 253
3 915 253 562
3 915 562 560
3 560 913 915
3 251 915 913
3 913 249 251
3 913 558 249
3 911 249 558
3 911 558 556
3 556 909 911
3 247 911 909
3 909 245 247
3 245 909 907
3 907 243 245
3 907 552 243
3 905 243 552
3 905 552 550
3 905 550 241
3 903 241 550
3 903 550 548
3 903 548 239
3 901 239 548
3 901 548 546
3 901 546 237
3 899 237 546
3 899 546 544
3 544 897 899
3 899 897 235
3 897 233 235
3 233 897 895
3 895 231 233
3 231 895 893
3 893 229 231
3 229 893 891
3 891 227 229
3 227 891 889
3 889 225 227
3 225 889 887
3 887 223 225
3 223 887 885
3 885 221 223
3 884 221 885
3 885 532 884
3 884 532 530
3 882 884 530
3 882 530 881
3 881 219 882
3 882 219 221
3 881 879 219
3 879 217 219
3 878 217 879
3 879 528 878
3 878 528 526
3 876 878 526
3 876 526 875
3 875 215 876
3 876 215 217
3 875 873 215
3 873 213 215
3 872 213 873
3 873 524 872
3 872 524 522
3 870 872 522
3 870 522 869
3 869 211 870
3 870 211 213
3 869 867 211
3 867 209 211
3 866 209 867
3 867 520 866
3 866 520 518
3 864 866 518
3 864 518 863
3 207 864 863
3 863 205 207
3 205 863 861
3 861 203 205
3 203 861 859
3 859 201 203
3 201 859 857
3 857 199 201
3 199 857 855
3 855 197 199
3 197 855 853
3 853 195 197
3 195 853 851
3 851 193 195
3 193 851 849
3 849 191 193
3 849 502 191
3 847 191 502
3 847 502 500
3 847 500 189
3 845 189 500
3 845 500 498
3 845 498 187
3 843 187 498
3 843 498 496
3 843 496 185
3 840 185 496
3 840 496 494
3 840 494 183
3 837 183 494
3 837 494 492
3 837 492 181
3 834 181 492
3 834 492 490
3 490 831 834
3 179 834 831
3 831 177 179
3 177 831 828
3 828 175 177
3 175 828 825
3 825 173 175
3 173 825 822
3 822 171 173
3 822 482 171
3 819 171 482
3 819 482 480
3 819 480 169
3 817 169 480
3 817 480 478
3 817 478 167
3 815 167 478
3 815 478 476
3 815 476 165
3 813 165 476
3 813 476 474
3 813 474 163
3 811 163 474
3 811 474 472
3 811 472 161
3 809 161 472
3 809 472 470
3 809 470 159
3 807 159 470
3 807 470 468
3 468 805 807
3 157 807 805
3 805 155 157
3 155 805 803
3 803 153 155
3 153 803 801
3 801 151 153
3 151 801 799
3 799 149 151
3 149 799 797
3 797 147 149
3 147 797 795
3 795 145 147
3 145 795 792
3 792 143 145
3 793 143 792
3 792 456 793
3 793 456 454
3 790 793 454
3 790 454 789
3 789 141 790
3 790 141 143
3 789 786 141
3 786 139 141
3 787 139 786
3 786 452 787
3 787 452 450
3 784 787 450
3 784 450 783
3 783 137 784
3 784 137 139
3 783 781 137
3 781 135 137
3 780 135 781
3 781 448 780
3 780 448 446
3 778 780 446
3 778 446 777
3 777 133 778
3 778 133 135
3 777 775 133
3 775 131 133
3 774 131 775
3 775 444 774
3 774 444 442
3 772 774 442
3 772 442 771
3 129 772 771
3 771 128 129
3 128 771 769
3 769 126 128
3 126 769 767
3 767 124 126
3 124 767 765
3 765 122 124
3 122 765 763
3 763 120 122
3 120 763 761
3 761 118 120
3 118 761 759
3 759 116 118
3 116 759 757
3 757 114 116
3 757 426 114
3 755 114 426
3 755 426 424
3 755 424 112
3 753 112 424
3 753 424 422
3 753 422 110
3 751 110 422
3 751 422 420
3 751 420 108
3 748 108 420
3 748 420 418
3 748 418 106
3 745 106 418
3 745 418 416
3 745 416 104
3 742 104 416
3 742 416 414
3 414 739 742
3 102 742 739
3 739 100 102
3 100 739 736
3 736 98 100
3 98 736 733
3 733 96 98
3 96 733 730
3 94 96 730
3 94 730 93
3 93 730 404
3 726 93 404
3 726 404 402
3 402 724 726
3 90 726 724
3 724 88 90
3 88 724 722
3 722 86 88
3 722 398 86
3 720 86 398
3 720 398 396
3 720 396 84
3 718 84 396
3 718 396 394
3 718 394 82
3 716 82 394
3 716 394 392
3 716 392 80
3 714 80 392
3 714 392 390
3 390 712 714
3 78 714 712
3 712 76 78
3 76 712 710
3 710 74 76
3 74 710 708
3 708 72 74
3 72 708 706
3 706 70 72
3 70 706 704
3 704 68 70
3 68 704 702
3 702 66 68
3 66 702 700
3 700 63 66
3 699 63 700
3 700 378 699
3 699 378 376
3 697 699 376
3 697 376 696
3 696 61 697
3 697 61 63
3 696 694 61
3 694 59 61
3 693 59 694
3 694 374 693
3 693 374 372
3 691 693 372
3 691 372 690
3 690 57 691
3 691 57 59
3 690 688 57
3 688 55 57
3 689 55 688
3 688 370 689
3 689 370 368
3 685 689 368
3 685 368 686
3 686 53 685
3 685 53 55
3 686 682 53
3 682 51 53
3 683 51 682
3 682 366 683
3 683 366 364
3 680 683 364
3 680 364 679
3 49 680 679
3 679 47 49
3 47 679 677
3 677 45 47
3 45 677 675
3 675 43 45
3 43 675 673
3 673 41 43
3 41 673 671
3 671 39 41
3 39 671 669
3 669 37 39
3 37 669 667
3 667 35 37
3 35 667 665
3 665 33 35
3 665 348 33
3 663 33 348
3 663 348 346
3 663 346 31
3 661 31 346
3 661 346 344
3 661 344 29
3 659 29 344
3 659 344 342
3 659 342 27
3 656 27 342
3 656 342 340
3 656 340 25
3 653 25 340
3 653 340 338
3 653 338 23
3 650 23 338
3 650 338 336
3 336 647 650
3 21 650 647
3 647 19 21
3 19 647 644
3 644 17 19
3 17 644 641
3 641 15 17
3 15 641 638
3 638 13 15
3 638 328 13
3 635 13 328
3 635 328 326
3 635 326 11
3 633 11 326
3 633 326 324
3 633 324 9
3 631 9 324
3 631 324 322
3 631 322 7
3 629 7 322
3 629 322 320
3 629 320 5
3 627 5 320
3 627 320 318
3 627 318 3
3 625 3 318
3 625 318 1
3 625 0 3
3 627 3 5
3 629 5 7
3 631 7 9
3 633 9 11
3 635 11 13
3 638 330 328
3 330 638 641
3 641 332 330
3 332 641 644
3 644 334 332
3 334 644 647
3 647 336 334
3 650 21 23
3 653 23 25
3 656 25 27
3 659 27 29
3 661 29 31
3 663 31 33
3 665 350 348
3 350 665 667
3 667 352 350
3 352 667 669
3 669 354 352
3 354 669 671
3 671 356 354
3 356 671 673
3 673 358 356
3 358 673 675
3 675 360 358
3 360 675 677
3 677 362 360
3 362 677 679
3 680 49 51
3 679 364 362
3 683 680 51
3 682 686 366
3 686 368 366
3 689 685 55
3 688 690 370
3 690 372 370
3 693 691 59
3 694 696 374
3 696 376 374
3 699 697 63
3 700 702 378
3 702 380 378
3 380 702 704
3 704 382 380
3 382 704 706
3 706 384 382
3 384 706 708
3 708 386 384
3 386 708 710
3 710 388 386
3 388 710 712
3 712 390 388
3 714 78 80
3 716 80 82
3 718 82 84
3 720 84 86
3 722 400 398
3 400 722 724
3 724 402 400
3 726 90 93
3 406 404 730
3 406 730 408
3 408 730 733
3 733 410 408
3 410 733 736
3 736 412 410
3 412 736 739
3 739 414 412
3 742 102 104
3 745 104 106
3 748 106 108
3 751 108 110
3 753 110 112
3 755 112 114
3 757 428 426
3 428 757 759
3 759 430 428
3 430 759 761
3 761 432 430
3 432 761 763
3 763 434 432
3 434 763 765
3 765 436 434
3 436 765 767
3 767 438 436
3 438 767 769
3 769 440 438
3 440 769 771
3 772 129 131
3 771 442 440
3 774 772 131
3 775 777 444
3 777 446 444
3 780 778 135
3 781 783 448
3 783 450 448
3 787 784 139
3 786 789 452
3 789 454 452
3 793 790 143
3 792 795 456
3 795 458 456
3 458 795 797
3 797 460 458
3 460 797 799
3 799 462 460
3 462 799 801
3 801 464 462
3 464 801 803
3 803 466 464
3 466 803 805
3 805 468 466
3 807 157 159
3 809 159 161
3 811 161 163
3 813 163 165
3 815 165 167
3 817 167 169
3 819 169 171
3 822 484 482
3 484 822 825
3 825 486 484
3 486 825 828
3 828 488 486
3 488 828 831
3 831 490 488
3 834 179 181
3 837 181 183
3 840 183 185
3 843 185 187
3 845 187 189
3 847 189 191
3 849 504 502
3 504 849 851
3 851 506 504
3 506 851 853
3 853 508 506
3 508 853 855
3 855 510 508
3 510 855 857
3 857 512 510
3 512 857 859
3 859 514 512
3 514 859 861
3 861 516 514
3 516 861 863
3 864 207 209
3 863 518 516
3 866 864 209
3 867 869 520
3 869 522 520
3 872 870 213
3 873 875 524
3 875 526 524
3 878 876 217
3 879 881 528
3 881 530 528
3 884 882 221
3 885 887 532
3 887 534 532
3 534 887 889
3 889 536 534
3 536 889 891
3 891 538 536
3 538 891 893
3 893 540 538
3 540 893 895
3 895 542 540
3 542 895 897
3 897 544 542
3 899 235 237
3 901 237 239
3 903 239 241
3 905 241 243
3 907 554 552
3 554 907 909
3 909 556 554
3 911 247 249
3 913 560 558
3 915 251 253
3 918 564 562
3 564 918 921
3 921 566 564
3 566 921 924
3 924 568 566
3 927 259 261
3 930 261 263
3 933 263 265
3 936 265 267
3 938 267 269
3 940 269 271
3 942 582 580
3 582 942 944
3 944 584 582
3 584 944 946
3 946 586 584
3 586 946 948
3 948 588 586
3 588 948 950
3 950 590 588
3 590 950 952
3 952 592 590
3 592 952 954
3 954 594 592
3 594 954 956
3 958 287 289
3 956 596 594
3 959 958 289
3 961 962 598
3 962 600 598
3 965 964 293
3 967 968 602
3 968 604 602
3 970 971 297
3 973 974 606
3 974 608 606
3 976 977 301
3 979 981 610
3 981 612 610
3 612 981 983
3 983 614 612
3 614 983 985
3 985 616 614
3 616 985 987
3 987 618 616
3 618 987 989
3 989 620 618
3 620 989 991
3 991 621 620
3 992 315 316
3 993 316 314
3 990 314 312
3 988 312 310
3 986 310 308
3 984 308 306
3 982 306 304
3 980 609 611
3 609 980 978
3 978 607 609
3 607 978 975
3 975 605 607
3 605 975 972
3 972 603 605
3 969 296 294
3 966 294 292
3 963 292 290
3 960 290 288
3 957 288 286
3 955 286 284
3 953 589 591
3 589 953 951
3 951 587 589
3 587 951 949
3 949 585 587
3 585 949 947
3 947 583 585
3 583 947 945
3 945 581 583
3 581 945 943
3 943 579 581
3 579 943 941
3 941 577 579
3 577 941 939
3 937 268 266
3 939 575 577
3 935 937 266
3 934 932 573
3 932 571 573
3 929 931 262
3 928 926 569
3 926 567 569
3 923 925 258
3 922 920 565
3 920 563 565
3 917 919 254
3 916 914 561
3 914 559 561
3 559 914 912
3 912 557 559
3 557 912 910
3 910 555 557
3 555 910 908
3 908 553 555
3 553 908 906
3 906 551 553
3 551 906 904
3 904 549 551
3 902 240 238
3 900 238 236
3 898 236 234
3 896 234 232
3 894 539 541
3 539 894 892
3 892 537 539
3 890 228 226
3 888 533 535
3 533 888 886
3 886 531 533
3 531 886 883
3 883 529 531
3 529 883 880
3 880 527 529
3 527 880 877
3 877 525 527
3 874 216 214
3 871 214 212
3 868 212 210
3 865 210 208
3 862 208 206
3 860 206 204
3 858 511 513
3 511 858 856
3 856 509 511
3 509 856 854
3 854 507 509
3 507 854 852
3 852 505 507
3 505 852 850
3 850 503 505
3 503 850 848
3 848 501 503
3 501 848 846
3 846 499 501
3 499 846 844
3 841 188 186
3 844 497 499
3 842 841 186
3 839 838 495
3 838 493 495
3 836 835 182
3 833 832 491
3 832 489 491
3 830 829 178
3 827 826 487
3 826 485 487
3 823 824 174
3 821 820 483
3 820 481 483
3 481 820 818
3 818 479 481
3 479 818 816
3 816 477 479
3 477 816 814
3 814 475 477
3 475 814 812
3 812 473 475
3 473 812 810
3 810 471 473
3 808 160 158
3 806 158 156
3 804 156 154
3 802 154 152
3 800 152 150
3 798 150 148
3 796 148 146
3 794 455 457
3 455 794 791
3 791 453 455
3 453 791 788
3 788 451 453
3 451 788 785
3 785 449 451
3 782 138 136
3 779 136 134
3 776 134 132
3 773 132 130
3 770 130 127
3 768 127 125
3 766 435 437
3 435 766 764
3 764 433 435
3 433 764 762
3 762 431 433
3 431 762 760
3 760 429 431
3 429 760 758
3 758 427 429
3 427 758 756
3 756 425 427
3 425 756 754
3 754 423 425
3 423 754 752
3 750 109 107
3 752 421 423
3 749 750 107
3 747 746 419
3 746 417 419
3 743 744 103
3 741 740 415
3 740 413 415
3 737 738 99
3 734 735 411
3 735 409 411
3 732 731 95
3 729 728 407
3 728 405 407
3 405 728 727
3 727 403 405
3 403 727 725
3 725 401 403
3 401 725 723
3 723 399 401
3 399 723 721
3 721 397 399
3 397 721 719
3 719 395 397
3 717 81 79
3 715 79 77
3 713 77 75
3 711 75 73
3 709 385 387
3 385 709 707
3 707 383 385
3 705 69 67
3 379 381 703
3 379 703 377
3 377 703 701
3 701 375 377
3 375 701 698
3 698 373 375
3 373 698 695
3 695 371 373
3 692 58 56
3 687 56 54
3 684 54 52
3 681 52 50
3 678 50 48
3 676 48 46
3 674 357 359
3 357 674 672
3 672 355 357
3 355 672 670
3 670 353 355
3 353 670 668
3 668 351 353
3 351 668 666
3 666 349 351
3 349 666 664
3 664 347 349
3 347 664 662
3 662 345 347
3 345 662 660
3 657 30 28
3 660 343 345
3 658 657 28
3 655 654 341
3 654 339 341
3 652 651 24
3 649 648 337
3 648 335 337
3 645 646 20
3 642 643 333
3 643 331 333
3 640 639 16
3 637 636 329
3 636 327 329
3 327 636 634
3 634 325 327
3 325 634 632
3 632 323 325
3 323 632 630
3 630 321 323
3 321 630 628
3 626 4 2
3 628 319 321
3 625 1 0
3 2 624 626
CELL_TYPES 1364
9
9
9
9
9
9
9
9
9
9
9
9
9
9
9
9
9
9
9
9
9
9
9
9
9
9
9
9
9
9
9
9
9
9
9
9
9
9
9
9
9
9
9
9
9
9
9
9
9
9
9
9
9
9
9
9
9
9
9
9
9
9
9
9
9
9
9
9
9
9
9
9
9
9
9
9
9
9
9
9
9
9
9
9
9
9
9
9
9
9
9
9
9
9
9
9
9
9
9
9
9
9
9
9
9
9
9
9
9
9
9
9
9
9
9
9
9
9
9
9
9
9
9
9
9
9
9
9
9
9
9
9
9
9
9
9
9
9
9
9
9
9
9
9
9
9
9
9
9
9
9
9
9
9
9
9
9
9
9
9
9
9
9
9
9
9
9
9
9
9
9
9
9
9
9
9
9
9
9
9
9
9
9
9
9
9
9
9
9
9
9
9
9
9
9
9
9
9
9
9
9
9
9
9
9
9
9
9
9
9
9
9
9
9
9
9
9
9
9
9
9
9
9
9
9
9
9
9
9
9
9
9
9
9
9
9
9
9
9
9
9
9
9
9
9
9
9
9
9
9
9
9
9
9
9
9
9
9
9
9
9
9
9
9
9
9
9
9
9
9
9
9
9
9
9
9
9
9
9
9
9
9
9
9
9
9
9
9
9
9
9
9
9
9
9
9
9
9
9
9
9
9
9
9
9
9
9
9
9
9
9
9
9
9
9
9
9
9
9
9
9
9
9
9
9
9
9
9
9
9
9
9
9
9
9
9
9
9
9
9
9
9
9
9
9
9
9
9
9
9
9
9
9
9
9
9
9
9
9
9
9
9
9
9
9
9
9
9
9
9
9
9
9
9
9
9
9
9
9
9
9
9
9
9
9
9
9
9
9
9
9
9
9
9
9
9
9
9
9
9
9
9
9
9
9
9
9
9
9
9
9
9
9
9
9
9
9
9
9
9
9
9
9
9
9
9
9
9
9
9
9
9
9
9
9
9
9
9
9
9
9
9
9
9
9
9
9
9
9
9
9
9
9
9
9
9
9
9
9
9
9
9
9
9
9
9
9
9
9
9
9
9
9
9
9
9
9
9
9
9
9
9
9
9
9
9
9
9
9
9
9
9
9
9
9
9
9
9
9
9
9
9
9
9
9
9
9
9
9
9
9
9
9
9
9
9
9
9
9
9
9
9
9
9
9
9
9
9
9
9
9
9
9
9
9
9
9
9
9
9
9
9
9
9
9
9
9
9
9
9
9
9
9
9
9
9
9
9
9
9
9
9
9
9
9
9
9
9
9
9
9
9
9
9
9
9
9
9
9
9
9
9
9
9
9
9
9
9
9
9
9
9
9
9
9
9
9
9
9
9
9
9
9
9
9
9
9
9
9
9
9
9
9
9
9
9
9
9
9
9
9
9
9
9
9
9
9
9
9
9
9
9
9
9
9
9
9
9
9
9
9
9
9
9
9
9
9
9
9
9
9
9
9
9
9
9
9
9
9
9
9
9
9
9
9
9
9
9
9
9
9
9
9
9
9
9
9
9
9
9
9
9
9
9
9
9
9
9
9
9
9
9
9
9
9
9
9
9
9
9
9
9
9
9
9
9
9
9
9
9
9
9
9
9
9
9
9
9
9
9
9
9
9
9
9
9
9
9
9
9
9
9
9
9
9
9
9
9
9
9
9
9
9
9
9
9
9
9
9
9
9
9
9
9
9
9
9
9
9
9
9
9
9
9
9
9
9
9
9
9
9
9
9
9
9
9
9
9
9
9
9
9
9
9
9
9
9
9
9
9
9
9
9
9
9
9
9
9
9
9
9
9
9
9
9
9
9
9
9
9
9
9
9
9
9
9
9
9
9
9
9
9
9
9
9
9
9
9
9
9
9
9
9
9
9
9
9
9
9
9
9
9
9
9
9
9
9
9
9
9
9
9
9
9
9
9
9
9
9
9
9
9
9
9
9
9
9
9
9
9
9
9
9
9
9
9
9
9
9
9
9
9
9
9
9
9
9
9
9
9
9
9
9
9
9
9
9
9
9
9
9
9
9
9
9
9
9
9
9
9
9
9
9
9
9
9
9
9
9
9
9
9
9
9
9
9
9
9
9
9
9
9
9
9
9
9
9
9
9
9
9
9
9
9
9
9
9
9
9
9
9
9
9
9
9
9
9
9
9
9
9
9
9
9
9
9
9
9
9
9
9
9
9
9
9
9
9
9
9
9
9
9
9
9
9
9
9
9
9
9
9
9
9
9
9
9
9
9
9
9
9
9
9
9
9
9
9
9
9
9
9
9
9
9
9
9
9
9
9
9
9
9
9
9
9
9
9
9
9
9
9
9
9
9
9
9
9
9
9
9
9
9
9
9
9
9
9
9
9
9
9
9
9
9
9
9
9
9
9
9
9
9
9
9
9
9
9
9
9
9
9
9
9
9
9
9
9
9
9
9
9
9
9
9
9
9
9
9
9
9
9
9
9
9
9
9
9
9
9
9
9
9
9
9
9
9
9
9
9
9
9
9
9
9
9
9
9
9
9
9
9
9
9
9
9
9
9
9
9
9
9
9
9
9
9
9
9
9
9
9
9
9
9
9
9
9
9
9
9
9
9
9
9
9
9
9
9
9
9
9
9
9
9
9
9
9
9
9
9
9
9
9
9
9
9
9
9
9
9
9
9
9
9
9
9
9
9
9
9
9
9
9
9
9
9
9
9
9
9
9
9
9
9
9
9
9
9
9
9
9
9
9
9
9
9
9
9
9
9
9
9
9
9
9
9
9
9
9
9
9
9
9
9
9
9
9
9
9
9
9
9
9
9
9
9
9
9
9
9
9
9
9
9
9
9
9
9
9
9
9
9
9
9
9
9
9
9
9
9
9
9
9
9
9
9
9
9
9
9
9
9
9
9
9
9
9
9
9
9
9
9
9
9
9
9
9
9
9
9
9
9
9
9
9
9
9
9
9
9
9
9
9
9
9
9
9
9
9
9
9
9
9
9
9
9
9
9
9
9
9
9
9
9
9
9
9
9
9
9
9
9
9
9
9
9
9
9
9
9
9
9
9
9
9
9
9
9
9
9
9
9
9
9
9
POINT_DATA 994
SCALARS u1 float
LOOKUP_TABLE default
-0.2
-0.2
-0.2
-0.2
-0.3
-0.2
-0.3
-0.1
-0.3
-0.1
-0.4
-0.1
-0.4
-0.1
-0.4
-0.09
-0.5
-0.08
-0.5
-0.08
-0.6
-0.08
-0.6
-0.08
-0.7
-0.08
-0.7
-0.09
-0.8
-0.1
-0.9
-0.1
-0.9
-0.1
-1
-0.1
-1
-0.1
-1
-0.1
-1
-0.2
-1
-0.2
-1
-0.2
-1
-0.2
-1
-0.2
-1
-0.2
-2
-0.2
-2
-0.3
-2
-0.3
-2
-0.3
-2
-0.3
-2
-0.3
-2
-2
-0.3
-2
-0.4
-2
-0.4
-2
-0.4
-2
-0.4
-2
-0.4
-1
-0.4
-1
-0.4
-1
-0.4
-1
-0.4
-1
-0.4
-1
-0.4
-1
-0.4
-1
-1
-0.4
-0.4
-1
-0.4
-0.9
-0.4
-0.9
-0.4
-0.8
-0.4
-0.8
-0.4
-0.8
-0.4
-0.7
-0.4
-0.7
-0.4
-0.7
-0.4
-0.6
-0.4
-0.6
-0.4
-0.6
-0.4
-0.6
-0.4
-0.6
-0.4
-0.6
-0.5
-0.5
-0.5
-0.5
-0.5
-0.5
-0.5
-0.5
-0.5
-0.6
-0.5
-0.6
-0.5
-0.6
-0.5
-0.6
-0.5
-0.7
-0.5
-0.7
-0.5
-0.7
-0.5
-0.7
-0.5
-0.7
-0.6
-0.8
-0.6
-0.8
-0.6
-0.8
-0.6
-0.8
-0.6
-0.8
-0.6
-0.8
-0.7
-0.9
-0.7
-0.9
-0.7
-0.9
-0.7
-0.9
-0.7
-0.9
-0.7
-0.9
-0.8
-0.9
-0.8
-0.9
-0.8
-0.9
-0.8
-0.9
-0.9
-0.9
-0.9
-0.9
-0.9
-0.9
-0.9
-0.9
-1
-0.9
-1
-0.9
-1
-0.9
-1
-0.8
-1
-0.8
-1
-0.8
-1
-0.8
-1
-0.8
-1
-0.7
-1
-0.7
-1
-0.7
-1
-0.6
-1
-0.6
-1
-0.5
-1
-0.5
-1
-0.4
-1
-0.4
-1
-0.3
-1
-0.3
-1
-0.2
-1
-0.1
-1
-0.09
-1
-0.04
-1
0.01
-1
0.06
-1
0.1
-1
0.1
-1
0.2
-1
0.2
-1
0.2
-1
0.3
-1
0.3
-1
0.3
-1
0.3
-1
0.2
-1
0.2
-1
0.2
-1
0.1
-1
0.07
-1
0.02
-1
-0.04
-1
-0.1
-1
-0.2
-1
-0.2
-1
-0.3
-1
-0.4
-1
-0.4
-1
-0.5
-1
-0.6
-1
-0.7
-1
-0.7
-1
-0.8
-1
-0.8
-1
-0.9
-1
-0.9
-1
-1
-1
-1
-1
-1
-1
-1
-1
-1
-1
-1
-1
-1
-1
-1
-1
-0.3
-0.2
-0.3
-0.2
-0.3
-0.2
-0.4
-0.1
-0.4
-0.1
-0.4
-0.1
-0.5
-0.1
-0.5
-0.09
-0.6
-0.08
-0.6
-0.08
-0.7
-0.08
-0.7
-0.08
-0.8
-0.08
-0.9
-0.09
-0.9
-0.1
-1
-0.1
-1
-0.1
-1
-0.1
-1
-0.1
-1
-0.1
-1
-0.1
-1
-0.2
-1
-0.2
-1
-0.2
-2
-0.2
-2
-0.2
-2
-0.2
-2
-0.2
-2
-0.3
-2
-0.3
-2
-0.3
-2
-0.3
-2
-0.3
-2
-0.3
-2
-0.3
-2
-0.4
-2
-0.4
-1
-0.4
-1
-0.4
-1
-0.4
-1
-0.4
-1
-0.4
-1
-0.4
-1
-0.4
-1
-0.4
-1
-0.4
-1
-0.4
-0.9
-0.4
-0.9
-0.4
-0.8
-0.4
-0.8
-0.4
-0.8
-0.4
-0.7
-0.4
-0.7
-0.5
-0.7
-0.5
-0.6
-0.5
-0.6
-0.5
-0.6
-0.5
-0.6
-0.5
-0.6
-0.5
-0.6
-0.6
-0.5
-0.6
-0.5
-0.6
-0.5
-0.6
-0.5
-0.6
-0.5
-0.7
-0.5
-0.7
-0.5
-0.7
-0.5
-0.7
-0.5
-0.7
-0.5
-0.8
-0.5
-0.8
-0.5
-0.8
-0.6
-0.8
-0.6
-0.8
-0.6
-0.8
-0.6
-0.8
-0.6
-0.9
-0.6
-0.9
-0.6
-0.9
-0.7
-0.9
-0.7
-0.9
-0.7
-0.9
-0.7
-0.9
-0.7
-0.9
-0.8
-0.9
-0.8
-0.9
-0.8
-0.9
-0.8
-0.9
-0.8
-0.9
-0.9
-0.9
-0.9
-0.9
-0.9
-0.9
-0.9
-0.9
-0.9
-0.8
-1
-0.8
-1
-0.8
-1
-0.8
-1
-0.8
-1
-0.7
-1
-0.7
-1
-0.7
-1
-0.6
-1
-0.6
-1
-0.5
-1
-0.5
-1
-0.4
-1
-0.4
-1
-0.3
-1
-0.3
-1
-0.2
-1
-0.2
-1
-0.1
-1
-0.04
-1
0.01
-1
0.06
-1
0.1
-1
0.1
-1
0.2
-1
0.2
-1
0.2
-1
0.3
-1
0.3
-1
0.3
-1
0.3
-1
0.2
-1
0.2
-1
0.2
-1
0.1
-1
0.07
-1
0.02
-1
-0.04
-1
-0.1
-1
-0.2
-1
-0.2
-1
-0.3
-1
-0.4
-1
-0.5
-1
-0.5
-1
-0.6
-1
-0.7
-1
-0.7
-1
-0.8
-1
-0.8
-1
-0.9
-1
-0.9
-1
-1
-1
-1
-1
-1
-1
-1
-1
-1
-1
-1
-1
-1
-1
-0.2
-0.2
-0.3
-0.2
-0.3
-0.2
-0.3
-0.1
-0.4
-0.1
-0.4
-0.1
-0.4
-0.5
-0.1
-0.5
-0.5
-0.09
-0.6
-0.5
-0.08
-0.6
-0.6
-0.08
-0.6
-0.7
-0.08
-0.7
-0.7
-0.08
-0.8
-0.8
-0.08
-0.9
-0.8
-0.09
-0.9
-0.1
-1
-0.1
-1
-0.1
-1
-0.1
-1
-0.1
-1
-0.1
-1
-0.1
-1
-0.2
-1
-0.2
-1
-0.2
-0.2
-2
-0.2
-0.2
-2
-0.2
-0.2
-2
-0.2
-0.2
-0.2
-0.3
-2
-0.3
-0.3
-2
-0.3
-0.3
-2
-0.3
-0.3
-2
-0.3
-2
-0.3
-2
-0.4
-2
-0.4
-2
-0.4
-2
-0.4
-1
-0.4
-1
-0.4
-1
-0.4
-1
-0.4
-1
-0.4
-1
-0.4
-1
-0.4
-1
-1
-1
-0.4
-1
-1
-0.4
-0.9
-0.9
-0.4
-0.9
-0.9
-0.4
-0.9
-0.8
-0.4
-0.8
-0.8
-0.4
-0.8
-0.8
-0.4
-0.7
-0.7
-0.4
-0.7
-0.4
-0.7
-0.4
-0.6
-0.4
-0.6
-0.4
-0.6
-0.5
-0.6
-0.5
-0.6
-0.5
-0.6
-0.5
-0.5
-0.5
-0.5
-0.5
-0.6
-0.5
-0.6
-0.6
-0.5
-0.6
-0.6
-0.5
-0.6
-0.6
-0.5
-0.6
-0.6
-0.5
-0.7
-0.7
-0.5
-0.7
-0.7
-0.5
-0.7
-0.7
-0.5
-0.7
-0.5
-0.7
-0.5
-0.8
-0.6
-0.8
-0.6
-0.8
-0.6
-0.8
-0.6
-0.8
-0.6
-0.8
-0.6
-0.9
-0.6
-0.9
-0.7
-0.9
-0.7
-0.9
-0.7
-0.9
-0.7
-0.7
-0.9
-0.7
-0.8
-0.9
-0.8
-0.8
-0.9
-0.8
-0.8
-0.9
-0.8
-0.8
-0.9
-0.8
-0.8
-0.9
-0.9
-0.9
-0.9
-0.9
-0.9
-0.9
-0.9
-0.9
-0.9
-0.9
-0.9
-0.9
-1
-0.9
-1
-0.8
-1
-0.8
-1
-0.8
-1
-0.8
-1
-0.8
-1
-0.7
-0.7
-1
-0.7
-0.7
-1
-0.7
-0.6
-1
-0.6
-0.6
-1
-0.6
-0.6
-1
-0.5
-0.5
-1
-0.5
-0.4
-1
-0.4
-0.4
-1
-0.3
-1
-0.3
-1
-0.2
-1
-0.2
-1
-0.1
-1
-0.07
-1
-0.02
-1
0.04
-1
0.09
-1
0.1
-1
0.2
-1
0.2
-1
0.2
-1
0.3
-1
0.3
-1
-1
0.3
-1
-1
0.3
-1
-1
0.2
-1
-1
0.2
-1
-1
0.2
-1
-1
0.1
-1
-1
0.1
-1
0.04
-1
-0.01
-1
-0.09
-1
-0.1
-1
-0.2
-1
-0.3
-1
-0.3
-1
-0.4
-1
-0.5
-1
-0.6
-1
-0.6
-0.6
-1
-0.7
-0.7
-1
-0.7
-0.8
-1
-0.8
-0.8
-1
-0.9
-0.9
-1
-0.9
-0.9
-1
-1
-1
-1
-1
-1
-1
-1
-1
-1
-1
-1
-1
-1
-1
-1
-1
-1
-1
SCALARS u2 float
LOOKUP_TABLE default
-0.6
-0.6
-0.6
-0.6
-0.6
-0.6
-0.7
-0.6
-0.7
-0.6
-0.7
-0.5
-0.7
-0.5
-0.7
-0.5
-0.8
-0.5
-0.8
-0.5
-0.8
-0.5
-0.8
-0.5
-0.9
-0.5
-0.9
-0.5
-0.9
-0.5
-0.9
-0.5
-0.9
-0.5
-1
-0.6
-1
-0.6
-1
-0.6
-1
-0.6
-1
-0.6
-1
-0.6
-1
-0.7
-1
-0.7
-1
-0.7
-1
-0.8
-1
-0.8
-1
-0.8
-1
-0.9
-1
-0.9
-1
-1
-1
-1
-1
-1
-1
-1
-1
-1
-1
-1
-1
-1
-1
-1
-1
-1
-1
-1
-1
-1
-1
-1
-2
-1
-2
-1
-2
-1
-1
-2
-2
-1
-2
-1
-2
-1
-2
-1
-2
-1
-2
-1
-2
-1
-2
-1
-1
-1
-1
-1
-1
-1
-1
-1
-1
-1
-1
-1
-1
-1
-1
-1
-1
-1
-0.9
-0.8
-1
-0.8
-1
-0.7
-1
-0.6
-1
-0.6
-1
-0.5
-1
-0.5
-1
-0.4
-1
-0.4
-1
-0.4
-1
-0.3
-1
-0.3
-1
-0.3
-1
-0.2
-1
-0.2
-1
-0.2
-1
-0.2
-1
-0.1
-1
-0.1
-1
-0.09
-1
-0.08
-1
-0.06
-1
-0.05
-1
-0.04
-0.9
-0.04
-0.9
-0.04
-0.8
-0.04
-0.8
-0.05
-0.7
-0.06
-0.6
-0.06
-0.6
-0.07
-0.5
-0.08
-0.4
-0.09
-0.4
-0.1
-0.3
-0.1
-0.2
-0.1
-0.2
-0.1
-0.09
-0.1
-0.03
-0.2
0.03
-0.2
0.08
-0.2
0.1
-0.2
0.2
-0.2
0.2
-0.2
0.2
-0.3
0.3
-0.3
0.3
-0.3
0.3
-0.3
0.3
-0.3
0.2
-0.4
0.2
-0.4
0.2
-0.4
0.1
-0.4
0.1
-0.4
0.06
-0.4
0.009
-0.4
-0.04
-0.4
-0.1
-0.4
-0.2
-0.4
-0.2
-0.4
-0.3
-0.4
-0.3
-0.4
-0.4
-0.4
-0.4
-0.4
-0.5
-0.4
-0.5
-0.4
-0.6
-0.4
-0.6
-0.4
-0.7
-0.4
-0.7
-0.4
-0.7
-0.4
-0.8
-0.4
-0.8
-0.4
-0.8
-0.4
-0.8
-0.4
-0.9
-0.4
-0.9
-0.5
-0.9
-0.5
-0.9
-0.5
-0.9
-0.5
-0.9
-0.5
-0.9
-0.6
-0.9
-0.6
-1
-0.6
-1
-0.6
-0.9
-0.7
-0.9
-0.7
-0.9
-0.7
-0.9
-0.7
-0.9
-0.7
-0.9
-0.8
-0.9
-0.8
-0.9
-0.8
-0.8
-0.8
-0.8
-0.6
-0.6
-0.6
-0.6
-0.6
-0.5
-0.7
-0.5
-0.7
-0.5
-0.7
-0.5
-0.7
-0.5
-0.7
-0.5
-0.7
-0.5
-0.8
-0.5
-0.8
-0.5
-0.8
-0.5
-0.8
-0.5
-0.9
-0.5
-0.9
-0.5
-0.9
-0.6
-0.9
-0.6
-0.9
-0.6
-0.9
-0.6
-1
-0.6
-1
-0.6
-1
-0.7
-1
-0.7
-1
-0.7
-1
-0.8
-1
-0.8
-1
-0.8
-1
-0.9
-1
-0.9
-1
-1
-1
-1
-1
-1
-1
-1
-1
-1
-1
-1
-1
-1
-1
-1
-1
-1
-1
-1
-1
-1
-1
-2
-1
-2
-1
-2
-1
-2
-1
-2
-1
-2
-1
-2
-1
-2
-1
-2
-1
-2
-1
-2
-1
-2
-1
-1
-1
-1
-1
-1
-1
-1
-1
-1
-1
-1
-1
-1
-1
-1
-1
-1
-1
-0.9
-1
-0.8
-1
-0.8
-1
-0.7
-1
-0.6
-1
-0.6
-1
-0.5
-1
-0.5
-1
-0.4
-1
-0.4
-1
-0.4
-1
-0.3
-1
-0.3
-1
-0.3
-1
-0.2
-1
-0.2
-1
-0.2
-1
-0.2
-1
-0.1
-1
-0.1
-1
-0.09
-1
-0.07
-1
-0.06
-0.9
-0.05
-0.9
-0.04
-0.8
-0.04
-0.8
-0.04
-0.7
-0.04
-0.6
-0.05
-0.6
-0.05
-0.5
-0.06
-0.4
-0.07
-0.4
-0.08
-0.3
-0.09
-0.2
-0.1
-0.2
-0.1
-0.09
-0.1
-0.03
-0.1
0.02
-0.1
0.08
-0.2
0.1
-0.2
0.2
-0.2
0.2
-0.2
0.2
-0.2
0.3
-0.2
0.3
-0.2
0.3
-0.3
0.3
-0.3
0.2
-0.3
0.2
-0.3
0.2
-0.3
0.1
-0.3
0.1
-0.4
0.06
-0.4
0.007
-0.4
-0.05
-0.4
-0.1
-0.4
-0.2
-0.4
-0.2
-0.4
-0.3
-0.4
-0.3
-0.4
-0.4
-0.4
-0.4
-0.4
-0.5
-0.4
-0.5
-0.4
-0.6
-0.4
-0.6
-0.4
-0.7
-0.4
-0.7
-0.4
-0.7
-0.4
-0.8
-0.5
-0.8
-0.5
-0.8
-0.5
-0.8
-0.5
-0.9
-0.5
-0.9
-0.5
-0.9
-0.5
-0.9
-0.6
-0.9
-0.6
-0.9
-0.6
-0.9
-0.6
-0.9
-0.7
-1
-0.7
-1
-0.7
-1
-0.7
-0.9
-0.7
-0.9
-0.8
-0.9
-0.8
-0.9
-0.8
-0.9
-0.8
-0.9
-0.8
-0.8
-0.9
-0.9
-0.6
-0.6
-0.6
-0.6
-0.6
-0.6
-0.7
-0.6
-0.7
-0.5
-0.7
-0.5
-0.7
-0.7
-0.5
-0.8
-0.7
-0.5
-0.8
-0.8
-0.5
-0.8
-0.8
-0.5
-0.8
-0.8
-0.5
-0.8
-0.8
-0.5
-0.8
-0.9
-0.5
-0.9
-0.9
-0.5
-0.9
-0.5
-0.9
-0.5
-0.9
-0.6
-1
-0.6
-1
-0.6
-1
-0.6
-1
-0.6
-1
-0.6
-1
-0.7
-1
-0.7
-0.7
-1
-0.7
-0.7
-1
-0.8
-0.8
-1
-0.8
-0.8
-0.8
-0.9
-1
-0.9
-0.9
-1
-0.9
-1
-1
-1
-1
-1
-1
-1
-1
-1
-1
-1
-1
-1
-1
-1
-1
-1
-1
-1
-1
-1
-1
-1
-2
-1
-2
-1
-2
-1
-2
-1
-1
-1
-2
-1
-1
-2
-1
-1
-2
-1
-1
-2
-1
-1
-2
-1
-1
-2
-1
-1
-2
-1
-1
-1
-1
-1
-1
-1
-1
-1
-1
-1
-1
-1
-1
-1
-1
-1
-1
-1
-1
-0.9
-1
-0.9
-0.8
-1
-0.8
-0.7
-1
-0.7
-0.7
-1
-0.7
-0.6
-1
-0.6
-0.6
-1
-0.5
-0.5
-1
-0.5
-0.5
-1
-0.4
-0.4
-1
-0.4
-1
-0.4
-1
-0.3
-1
-0.3
-1
-0.3
-1
-0.2
-1
-0.2
-1
-0.2
-1
-0.2
-1
-0.1
-1
-0.1
-1
-0.09
-1
-0.07
-1
-1
-0.06
-1
-0.9
-0.05
-0.9
-0.9
-0.04
-0.8
-0.9
-0.04
-0.8
-0.8
-0.04
-0.7
-0.7
-0.04
-0.7
-0.7
-0.05
-0.6
-0.6
-0.06
-0.5
-0.06
-0.5
-0.07
-0.4
-0.08
-0.3
-0.09
-0.3
-0.1
-0.2
-0.1
-0.1
-0.1
-0.08
-0.1
-0.003
-0.1
0.05
-0.2
-0.2
0.1
-0.2
-0.2
0.2
-0.2
-0.2
0.2
-0.2
-0.2
0.2
-0.2
-0.2
0.3
-0.2
-0.3
0.3
-0.3
-0.3
0.3
-0.3
-0.3
0.3
-0.3
0.3
-0.3
0.2
-0.3
0.2
-0.3
0.2
-0.4
0.1
-0.4
0.08
-0.4
0.03
-0.4
-0.03
-0.4
-0.07
-0.4
-0.1
-0.4
-0.2
-0.4
-0.2
-0.4
-0.3
-0.4
-0.4
-0.4
-0.4
-0.4
-0.4
-0.5
-0.5
-0.4
-0.5
-0.5
-0.4
-0.6
-0.6
-0.4
-0.6
-0.6
-0.4
-0.6
-0.7
-0.4
-0.7
-0.7
-0.4
-0.7
-0.4
-0.7
-0.4
-0.8
-0.4
-0.8
-0.4
-0.8
-0.5
-0.8
-0.5
-0.9
-0.5
-0.9
-0.5
-0.9
-0.5
-0.9
-0.5
-0.9
-0.6
-0.6
-0.9
-0.6
-0.6
-0.9
-0.6
-0.6
-0.9
-0.6
-0.6
-1
-0.7
-0.6
-1
-0.7
-0.7
-0.9
-0.7
-0.7
-0.9
-0.7
-0.9
-0.7
-0.9
-0.7
-0.9
-0.8
-0.9
-0.8
-0.9
-0.8
-0.9
-0.8
-0.8
-0.9
SCALARS strain_1 float
LOOKUP_TABLE default
-1.375377
-0.882013
0.879797
-3.499999
3.191758
-5.520023
5.587862
-7.472087
8.086239
-9.309345
10.701500
-11.068413
13.365788
-12.683438
16.126933
-14.298476
18.998654
-15.726089
21.953080
-17.129378
24.964853
-18.392697
28.066649
-19.607860
31.229168
-20.696803
34.498304
-21.717695
37.842249
-22.640765
41.293781
-23.512496
44.756604
-24.265097
48.280538
-24.968407
51.899268
-25.574651
55.584895
-26.110264
59.247535
-26.538736
63.042930
-26.897190
66.890460
-27.176464
70.728061
-27.448397
74.658249
-27.588610
78.576429
-27.726004
82.591502
-27.727932
86.571999
-27.719424
90.590167
-27.632723
94.607849
-27.481599
98.663600
-27.311069
102.723120
-27.068042
106.786372
110.804912
-26.759858
114.882691
-26.411127
118.911712
-26.032119
122.906065
-25.633722
126.923772
-25.190139
130.840264
-24.681027
134.796537
-24.154806
138.679273
-23.622365
142.510779
-23.019840
146.291490
-22.401070
150.017869
-21.804291
153.691295
-21.158279
157.323314
-20.485675
160.804063
164.252965
-19.807559
-19.127967
167.624072
-18.443075
170.914837
-17.744765
174.067510
-17.033151
177.154774
-16.357211
180.129129
-15.600881
183.023155
-14.864375
185.800127
-14.242552
188.463363
-13.535332
190.960445
-12.852239
193.373809
-12.163620
195.640802
-11.502794
197.814528
-10.852871
199.801622
-10.218832
201.670798
-9.614044
203.408686
-8.986864
204.988395
-8.421022
206.474126
-7.876527
-7.344353
207.712508
-6.800624
208.903079
-6.303155
209.879688
-5.872085
210.728626
-5.425513
211.427314
-5.035872
211.953089
-4.627158
212.340568
-4.300106
212.543112
-3.977180
212.624148
-3.651777
212.532204
-3.409903
212.260798
-3.188768
211.898190
-2.963118
211.329468
-2.790229
210.618900
-2.654107
209.757647
-2.496376
208.742038
-2.466516
207.584703
-2.419760
206.287865
-2.390825
204.822110
-2.406753
203.240509
-2.422788
201.503380
-2.481530
199.667650
-2.588482
197.678076
-2.692090
195.525636
-2.850509
193.272241
-3.000027
190.918229
-3.218820
188.425348
-3.451913
185.849094
-3.687219
183.119512
-3.906315
180.331210
-4.235316
177.377056
-4.536206
174.394695
-4.870560
171.323330
-5.198102
168.106271
-5.558906
164.874634
-5.961460
161.531622
-6.294570
158.133206
-6.747304
154.641200
-7.129350
151.116927
-7.570256
147.543673
-8.038368
143.929115
-8.475263
140.256505
-8.924499
136.523773
-9.383737
132.826978
-9.819423
129.064441
-10.344485
125.262872
-10.792000
121.454346
-11.263178
117.641191
-11.755682
113.816388
-12.241243
109.997434
-12.681977
106.184198
-13.115973
102.359996
-13.603462
98.605700
-14.064938
94.808943
-14.519565
91.051116
-14.974719
87.337463
-15.402235
83.655188
-15.779688
79.953363
-16.177021
76.280735
-16.564015
72.690851
-16.953451
69.189000
-17.282411
65.682750
-17.621292
62.246305
-17.935482
58.864820
-18.223618
55.512889
-18.495016
52.262158
-18.721474
49.059797
-18.945982
45.929633
-19.156891
42.857392
-19.300021
39.855251
-19.448247
36.922071
-19.519036
34.057852
-19.569131
31.287367
-19.586347
28.572956
-19.555112
25.955031
-19.525284
23.367172
-19.430478
20.878603
-19.334209
18.520997
-19.139864
16.207361
-18.946084
13.970884
-18.657150
11.804161
-18.367893
9.701726
-17.974733
7.728994
-17.563679
5.806312
-17.102508
3.998070
-16.576087
2.211969
-16.012285
0.556817
-15.362244
-1.054315
-14.670924
-2.626371
-13.927534
-4.032900
-13.064715
-5.429728
-12.171806
-6.728960
-11.204901
-7.956504
-10.215206
-9.115793
1.364891
-3.017190
3.704461
-5.113927
6.148443
-7.075540
8.723268
-8.934286
11.310701
-10.737608
14.014810
-12.419567
16.831683
-14.012471
19.711479
-15.486040
22.690833
-16.881371
25.734111
-18.190193
28.895443
-19.395934
32.121685
-20.503573
35.401015
-21.571245
38.798387
-22.500398
42.240572
-23.339401
45.713793
-24.133744
49.305517
-24.843923
52.924803
-25.425113
56.612207
-25.977493
60.354491
-26.437175
64.153016
-26.821265
67.979475
-27.111388
71.860181
-27.338806
75.749634
-27.528520
79.714696
-27.632791
83.677169
-27.644361
87.657053
-27.610704
91.676706
-27.529999
95.655018
-27.435966
99.728186
-27.231588
103.731552
-26.990706
107.772434
-26.687506
111.759977
-26.370965
115.781951
-25.992317
119.729431
-25.553649
123.654579
-25.132237
127.617314
-24.604645
131.476001
-24.143435
135.307700
-23.585096
139.115708
-22.980556
142.827643
-22.395410
146.509803
-21.779431
150.131376
-21.140123
153.679429
-20.502472
157.125655
-19.861254
160.504032
-19.183413
163.795968
-18.497826
166.973512
-17.803224
170.084818
-17.143262
173.092252
-16.441835
175.990257
-15.798246
178.765091
-15.102257
181.416568
-14.418928
183.996817
-13.767515
186.410029
-13.075332
188.671696
-12.442640
190.881291
-11.797356
192.920024
-11.184049
194.799481
-10.578013
196.562461
-10.003273
198.161515
-9.437148
199.623768
-8.909975
200.885674
-8.390219
202.067183
-7.904360
203.057758
-7.428606
203.895887
-6.974406
204.587734
-6.592167
205.136582
-6.164871
205.502694
-5.798606
205.746516
-5.493590
205.796103
-5.171343
205.704998
-4.901351
205.447153
-4.673039
205.027335
-4.438185
204.466859
-4.280013
203.755287
-4.097566
202.868121
-4.005288
201.851513
-3.896848
200.655053
-3.828635
199.343499
-3.784619
197.832259
-3.793793
196.239282
-3.800661
194.501950
-3.880535
192.603981
-3.978898
190.553529
-4.062224
188.429560
-4.191717
186.171309
-4.355272
183.777181
-4.510593
181.228939
-4.746682
178.645123
-4.961186
175.923950
-5.249404
173.045758
-5.510446
170.162774
-5.814795
167.105364
-6.158124
163.978932
-6.442507
160.766120
-6.789613
157.470736
-7.180567
154.152641
-7.550073
150.757989
-7.956376
147.306130
-8.331249
143.755882
-8.764184
140.174563
-9.205969
136.568794
-9.614728
132.912090
-10.089770
129.181876
-10.531067
125.449260
-10.990562
121.701479
-11.438017
117.940290
-11.924402
114.174770
-12.358037
110.361399
-12.818061
106.596218
-13.274890
102.808768
-13.726560
99.001895
-14.156215
95.257451
-14.618110
91.495780
-15.026898
87.762128
-15.458382
84.080272
-15.858973
80.431594
-16.306394
76.782205
-16.635152
73.196459
-17.004078
69.648837
-17.353199
66.127487
-17.674738
62.649926
-17.995672
59.287292
-18.294551
55.924288
-18.576365
52.630625
-18.761627
49.437404
-19.023224
46.255729
-19.237676
43.179219
-19.390926
40.126216
-19.558188
37.195292
-19.633089
34.298928
-19.693302
31.460466
-19.741355
28.783407
-19.719685
26.115716
-19.676131
23.491560
-19.579548
21.025604
-19.486141
18.585444
-19.282601
16.267664
-19.077934
14.009227
-18.806648
11.845699
-18.511815
9.722363
-18.161684
7.729959
-17.790422
5.760058
-17.256043
3.867251
-16.733273
2.130612
-16.181165
0.483702
-15.526955
-1.179025
-14.848754
-2.704246
-14.064079
-4.177490
-13.234947
-5.536236
-12.351039
-6.880174
-11.371413
-10.342390
-8.113140
-9.256618
0.445341
-2.203781
2.347802
-4.308659
4.643189
-6.316618
7.121432
-8.228715
9.660215
-10.026813
12.287716
-11.738353
14.939072
17.118200
-13.525914
19.991591
18.568467
-14.920978
23.004346
21.598801
-16.299096
24.588135
26.128738
-17.612754
27.695412
29.324663
-18.640809
32.484915
30.839337
-20.095598
34.127413
35.861389
-21.163214
39.449878
37.430402
-22.123648
41.911397
-23.039394
45.244624
-23.828554
48.794394
-24.709075
52.411245
-25.225743
56.063671
-25.753511
59.798748
-26.267599
63.448356
-26.678390
66.634311
-27.017772
71.283839
-27.283664
75.229930
-27.450134
-27.603645
79.140252
-27.669225
-27.649031
83.105520
-27.670704
-27.704173
87.107601
-27.652672
-27.690635
-27.616928
-27.542820
91.996117
-27.472249
-27.412532
95.689461
-27.330490
-27.203296
99.783929
-27.111688
-26.918327
103.957086
-26.701742
109.204501
-26.356988
116.098549
-26.011805
119.295748
-25.593477
122.517190
-25.164855
127.239459
-24.700735
131.186081
-24.269154
135.052431
-23.574870
139.615579
-23.016521
142.794232
-22.428775
146.401280
-21.657642
150.073458
-21.168165
153.676545
-20.634470
157.183352
160.495141
163.108222
-19.415359
166.482771
164.852415
-18.560142
169.855383
168.132445
-17.840259
171.337661
172.886939
-17.154045
174.363925
175.969360
-16.511992
177.254032
178.795612
-15.687207
180.143413
181.688612
-15.012953
182.901181
184.618724
-14.320145
186.362817
-13.611272
188.664834
-12.968094
190.995030
-12.198114
193.230980
-11.634518
195.294276
-11.012047
197.225386
-10.373124
199.008203
-9.835329
200.435223
-9.209142
202.285462
-8.688870
203.661706
-8.134505
-7.696236
204.871587
-7.499121
-7.245446
205.965326
-6.982731
-6.741154
206.885139
-6.539853
-6.316314
207.873434
-6.091641
-5.870642
208.257724
-5.501462
-5.713700
208.697653
-5.346674
-5.138823
209.056346
-4.760400
-4.987682
209.158831
-4.558922
209.140054
-4.296795
208.965666
-4.047954
208.645438
-3.792976
208.142613
-3.643048
207.505397
-3.474659
206.744365
-3.364760
205.578433
-3.235130
204.619400
-3.162583
203.463793
-3.099115
202.049561
-3.101453
200.547307
-3.089650
198.916592
-3.136108
197.169625
195.966858
-3.224976
194.568645
193.622065
-3.322258
192.379410
191.416971
-3.439307
189.246922
190.182043
-3.601930
187.920723
186.744716
-3.711823
184.291298
185.471616
-3.960783
182.829592
181.555779
-4.224563
178.760872
180.111621
-4.440394
176.589379
-4.733932
173.776469
-5.045675
170.700657
-5.407243
167.636221
-5.673691
164.465593
-6.014840
161.191137
-6.375829
157.950476
-6.737309
155.128819
-7.134834
150.973994
-7.557295
147.423813
-7.953871
-8.239494
143.852412
-8.510276
-8.710281
140.247857
-8.961606
-9.157374
136.535392
-9.416143
-9.581921
132.100801
-9.880755
-10.077182
129.006975
-10.308227
-10.521722
125.332710
-10.789341
-10.978826
121.573262
-11.278396
-11.446927
117.913712
-11.848780
114.844647
-12.264846
109.400135
-12.797132
106.330252
-13.213527
103.331445
-13.675145
98.775495
-14.098189
95.009725
-14.475255
91.290731
-14.994773
86.747795
-15.436529
83.685401
-15.830239
80.139862
-16.293181
76.547079
-16.638531
72.963496
-16.914426
69.451766
-17.384993
66.101900
-17.569438
63.638281
61.636508
-18.049548
60.067044
58.220631
-18.276637
56.554381
54.914617
-18.504229
53.271243
51.679181
-18.725571
50.063211
48.521019
-18.991838
46.771934
45.250034
-19.154308
43.723693
42.298958
-19.369704
40.606048
-19.467195
38.364874
-19.539626
35.561430
-19.650873
32.756901
-19.662183
29.980311
-19.653161
27.321695
-19.605766
24.742437
-19.512732
22.297044
-19.394523
20.243295
-19.203333
17.404278
-18.989606
15.099005
-18.832181
-18.658417
12.884919
-18.537324
-18.344001
10.767747
-18.151015
-17.950014
8.705501
-17.754340
-17.538157
6.340920
-17.055695
-17.322180
4.793124
-16.780241
-16.495462
3.074027
-15.926500
-16.183189
1.346968
-15.572870
-0.080933
-15.027551
-1.875865
-14.393115
-3.384768
-13.574229
-4.794572
-12.693569
-6.135544
-11.804131
-7.426653
-10.852950
-9.966330
-8.595007
SCALARS strain_2 float
LOOKUP_TABLE default
0.639649
0.466559
-0.302596
1.512820
-1.282132
2.351102
-2.315518
3.112991
-3.393990
3.808722
-4.580958
4.483174
-5.769956
5.110492
-7.068828
5.674544
-8.371153
6.231486
-9.754479
6.689521
-11.197813
7.143870
-12.732337
7.531546
-14.249121
7.893079
-15.914625
8.217754
-17.574950
8.464534
-19.304341
8.719895
-21.091431
8.927710
-22.955264
9.117766
-24.873313
9.253448
-26.834768
9.368981
-28.813172
9.435121
-30.918344
9.520693
-33.020312
9.532021
-35.196156
9.520398
-37.390146
9.543517
-39.658808
9.465124
-41.963546
9.406898
-44.288111
9.368354
-46.702282
9.260208
-49.115636
9.147939
-51.560844
9.010601
-54.065600
8.900534
-56.545853
-59.081078
8.740082
-61.635053
8.584074
-64.218428
8.367082
-66.806209
8.221991
-69.438344
8.018014
-72.013180
7.806028
-74.632165
7.631492
-77.244938
7.395381
-79.888936
7.162218
-82.534306
6.935008
-85.125734
6.713867
-87.712445
6.455853
-90.283025
6.269017
-92.808644
-95.350617
6.050381
5.809804
-97.837121
5.560519
-100.304640
5.365168
-102.707648
5.138373
-105.114902
4.902224
-107.422747
4.687091
-109.707705
4.489651
-111.958432
4.238708
-114.129913
4.059845
-116.227334
3.853060
-118.280412
3.653138
-120.270429
3.423530
-122.208991
3.236178
-124.018832
3.041835
-125.747689
2.849922
-127.429067
2.719125
-128.990168
2.504613
-130.467381
2.384633
2.196310
-131.888002
2.047601
-133.204995
1.937182
-134.413827
1.811460
-135.511940
1.695918
-136.494335
1.536010
-137.368151
1.429534
-138.214396
1.326800
-138.893189
1.238646
-139.461614
1.156469
-139.888233
1.105729
-140.270587
1.025555
-140.492838
0.977099
-140.643712
0.903838
-140.628319
0.842021
-140.538411
0.865564
-140.327856
0.822660
-139.962427
0.805338
-139.561567
0.811690
-138.986976
0.828209
-138.320079
0.848687
-137.523163
0.859568
-136.652703
0.940558
-135.671522
0.973678
-134.536950
0.991691
-133.342158
1.071977
-132.041616
1.182355
-130.594658
1.216078
-129.088056
1.354414
-127.489002
1.458320
-125.820817
1.552835
-124.016953
1.704040
-122.143768
1.837275
-120.179569
1.977674
-118.156558
2.166298
-116.015463
2.339855
-113.836759
2.509692
-111.592471
2.676413
-109.229793
2.937300
-106.878446
3.093297
-104.441187
3.330508
-101.936457
3.551949
-99.421775
3.792869
-96.822340
4.057778
-94.203977
4.280895
-91.561219
4.553668
-88.886159
4.836149
-86.182585
5.082555
-83.442612
5.370661
-80.670005
5.671214
-77.908173
5.962939
-75.135536
6.269782
-72.342769
6.589487
-69.570257
6.894312
-66.777448
7.266916
-64.012563
7.507170
-61.248674
7.861330
-58.522820
8.195185
-55.807072
8.482483
-53.066225
8.825854
-50.391979
9.161425
-47.760339
9.466337
-45.165370
9.748983
-42.538713
10.075370
-40.048194
10.360653
-37.535629
10.667887
-35.102976
10.945939
-32.683779
11.212432
-30.339510
11.458180
-28.064728
11.735473
-25.813043
11.966323
-23.636604
12.169794
-21.517855
12.371880
-19.439634
12.557509
-17.442928
12.745794
-15.505207
12.859187
-13.641138
12.955349
-11.863367
13.079780
-10.061006
13.125616
-8.399577
13.144678
-6.812674
13.168217
-5.245581
13.118243
-3.768562
13.047465
-2.352342
12.934978
-1.035955
12.814029
0.225523
12.617277
1.417445
12.367251
2.595480
12.064926
3.671739
11.735781
4.649155
11.413971
5.599486
10.980909
6.490529
10.512300
7.315895
9.975985
8.030642
9.392933
8.752445
-0.478996
1.378986
-1.488885
2.192348
-2.573342
2.978401
-3.670870
3.722964
-4.874617
4.381144
-6.104531
5.024184
-7.405491
5.628186
-8.744227
6.171133
-10.167592
6.653052
-11.652595
7.080782
-13.182544
7.501177
-14.786275
7.871319
-16.407031
8.217554
-18.132173
8.500869
-19.858653
8.738823
-21.696708
8.957320
-23.612162
9.143203
-25.547283
9.299428
-27.526443
9.385029
-29.560804
9.483039
-31.665855
9.520686
-33.813744
9.596720
-35.995592
9.578309
-38.185893
9.578295
-40.487632
9.562083
-42.816221
9.501378
-45.179917
9.415273
-47.569330
9.303864
-50.009758
9.217423
-52.439634
9.099428
-54.897884
8.969461
-57.462984
8.793367
-59.966921
8.624975
-62.518444
8.453059
-65.104790
8.307520
-67.672645
8.062922
-70.217454
7.892676
-72.824622
7.698779
-75.434464
7.454403
-77.989714
7.252904
-80.585960
7.057292
-83.150799
6.803650
-85.729086
6.572663
-88.235140
6.364868
-90.708002
6.124719
-93.216336
5.904071
-95.677553
5.697109
-98.070543
5.449779
-100.454202
5.271597
-102.783054
5.026381
-105.034962
4.775794
-107.253293
4.586805
-109.409053
4.371616
-111.519706
4.171407
-113.584647
3.972555
-115.560771
3.783479
-117.457237
3.611645
-119.249960
3.391250
-121.011577
3.213747
-122.658919
3.067488
-124.205076
2.882881
-125.734803
2.759073
-127.110333
2.600060
-128.396446
2.430814
-129.570519
2.312489
-130.664687
2.126619
-131.667066
2.039779
-132.535039
1.928598
-133.291391
1.823442
-133.944819
1.730846
-134.509810
1.653369
-134.971085
1.559390
-135.292351
1.502272
-135.534548
1.443556
-135.638433
1.377060
-135.622396
1.356610
-135.468791
1.327194
-135.259437
1.331386
-134.907329
1.260508
-134.414255
1.318733
-133.821115
1.310422
-133.142393
1.313864
-132.309614
1.351611
-131.406623
1.397461
-130.374706
1.434462
-129.242069
1.484262
-128.004618
1.554278
-126.649075
1.662738
-125.213852
1.739470
-123.656395
1.856901
-122.015094
1.964342
-120.311314
2.089300
-118.502016
2.216312
-116.566506
2.344470
-114.604367
2.516953
-112.544078
2.685023
-110.417792
2.856167
-108.193142
3.032455
-105.918351
3.224789
-103.592789
3.420101
-101.147001
3.634644
-98.720589
3.875856
-96.237215
4.104303
-93.704110
4.350930
-91.132921
4.605086
-88.523505
4.849356
-85.831382
5.145331
-83.164320
5.405794
-80.479695
5.690429
-77.735469
5.966102
-75.008693
6.285243
-72.261164
6.588792
-69.516271
6.888211
-66.779266
7.185520
-64.034964
7.482809
-61.269575
7.828533
-58.597749
8.103202
-55.836843
8.452923
-53.184468
8.732236
-50.504811
9.056535
-47.875946
9.351203
-45.274807
9.703712
-42.680393
9.997010
-40.152158
10.288760
-37.654918
10.592771
-35.231105
10.864745
-32.785385
11.157461
-30.456451
11.414859
-28.149969
11.690762
-25.921552
11.897324
-23.739437
12.120108
-21.580114
12.323515
-19.506032
12.524747
-17.471804
12.686785
-15.553481
12.824787
-13.667099
12.938889
-11.873667
13.050156
-10.099405
13.077084
-8.460497
13.132096
-6.808482
13.140967
-5.243428
13.114555
-3.794165
13.061182
-2.365918
12.956963
-1.008023
12.797131
0.274199
12.630976
1.459243
12.393646
2.614495
12.107156
3.713125
11.784712
4.699916
11.445422
5.636904
11.005347
6.510862
10.542585
7.399942
10.032347
9.419431
8.098070
8.806883
-0.131317
0.977415
-0.921930
1.842701
-1.927267
2.675422
-2.977308
3.407246
-4.108172
4.112789
-5.314717
4.763780
-6.506187
-7.502206
5.422263
-8.844482
-8.185880
5.881378
-10.258624
-9.620654
6.426375
-11.053837
-11.772417
6.889724
-12.581834
-13.386218
7.271574
-14.920986
-14.056953
7.699885
-15.771784
-16.596367
8.044549
-18.406850
-17.395951
8.340546
-19.689220
8.609803
-21.418044
8.840209
-23.269017
9.071150
-25.204927
9.219277
-27.163402
9.344288
-29.166276
9.452591
-31.190498
9.509591
-32.945555
9.560792
-35.586237
9.577529
-37.801634
9.553609
9.528967
-40.075080
9.511789
9.499985
-42.386558
9.432672
9.472859
-44.711098
9.377338
9.404255
9.325035
9.277682
-47.610902
9.213017
9.122491
-49.850573
9.086516
9.010791
-52.329439
8.951859
8.854537
-54.957083
8.755295
-58.219604
8.575603
-62.583117
8.434873
-64.640025
8.248919
-66.695080
8.011496
-69.820031
7.875539
-72.449816
7.700720
-75.028072
7.414151
-78.132870
7.246160
-80.314025
6.970353
-82.827581
6.712999
-85.424466
6.528009
-87.954370
6.373843
-90.462927
-92.889885
-94.800710
5.931924
-97.347171
-96.113342
5.679641
-99.845488
-98.580665
5.417902
-101.001025
-102.183084
5.206589
-103.321007
-104.540597
4.997738
-105.592851
-106.822634
4.749257
-107.876189
-109.101253
4.486229
-110.090796
-111.448974
4.321091
-112.947302
4.070275
-114.906816
3.882383
-116.897813
3.647335
-118.826769
3.506329
-120.673891
3.321940
-122.454755
3.117989
-124.105911
2.929100
-125.509558
2.771408
-127.356193
2.660288
-128.788911
2.484131
2.330304
-130.118072
2.305148
2.201026
-131.362140
2.142738
2.067965
-132.512185
2.031955
1.918450
-133.808038
1.868886
1.840871
-134.510069
1.705965
1.783719
-135.328969
1.676026
1.569605
-136.086043
1.484336
1.583882
-136.574146
1.427182
-137.180935
1.372921
-137.609842
1.322115
-137.896250
1.229107
-138.070779
1.186038
-138.084021
1.115746
-138.052510
1.092071
-137.830889
1.078198
-137.568901
1.085002
-137.212847
1.030745
-136.671982
1.037368
-136.027803
1.099105
-135.363446
1.122346
-134.561790
-133.979519
1.143887
-133.225084
-132.744962
1.153260
-132.071986
-131.579423
1.256651
-130.378796
-130.919762
1.289946
-129.658952
-128.994870
1.357406
-127.606959
-128.275508
1.461408
-126.680699
-125.991730
1.532066
-124.327579
-125.118328
1.649815
-122.989749
1.773291
-121.266307
1.871335
-119.308985
2.061604
-117.383334
2.168904
-115.318918
2.319323
-113.185099
2.508904
-111.050269
2.676647
-109.182486
2.861988
-106.409722
3.058229
-103.983356
3.241504
3.411871
-101.572063
3.516628
3.648366
-99.078997
3.760818
3.888208
-96.543198
4.014107
4.101245
-93.429121
4.237017
4.365492
-91.270004
4.493593
4.643951
-88.655839
4.770099
4.902761
-85.975615
5.021683
5.187447
-83.394012
5.396924
-81.205306
5.695882
-77.284971
5.962648
-75.043916
6.260751
-72.870273
6.569589
-69.528453
6.862798
-66.802307
7.134214
-64.003502
7.512940
-60.663594
7.846793
-58.415098
8.144255
-55.790787
8.514519
-53.073622
8.764991
-50.454700
9.050407
-47.823988
9.458367
-45.355844
9.692539
-43.507689
-42.039864
10.121688
-40.841061
-39.441443
10.358599
-38.223825
-37.033245
10.586854
-35.801410
-34.589914
10.858597
-33.351035
-32.268730
11.189131
-30.935359
-29.766849
11.497891
-28.656807
-27.610608
11.704479
-26.298838
11.908084
-24.653497
12.172784
-22.587122
12.393314
-20.478397
12.538160
-18.454443
12.702325
-16.523279
12.853132
-14.606168
12.970023
-12.798882
13.018984
-11.368020
13.129949
-9.242548
13.132422
-7.572200
13.154984
13.176826
-5.988490
13.111735
13.099634
-4.490345
13.076319
13.023240
-3.065603
12.985234
12.911079
-1.423811
12.771843
12.842262
-0.341052
12.674734
12.552925
0.842630
12.306052
12.454399
2.005489
12.138234
3.004845
11.915685
4.162006
11.579366
5.151864
11.225546
6.081664
10.746495
6.934237
10.281381
7.714433
9.715250
9.225584
8.443977
SCALARS strain_3 float
LOOKUP_TABLE default
5.062559
3.242898
-3.408981
13.218575
-12.228745
21.008137
-21.387837
28.463441
-30.859808
35.552163
-40.660720
42.299129
-50.776831
48.688634
-61.194388
54.726467
-71.906015
60.411533
-82.914061
65.742337
-94.199913
70.733866
-105.758634
75.378277
-117.573061
79.669591
-129.632375
83.622862
-141.939963
87.243882
-154.443499
90.531570
-167.177603
93.479465
-180.102207
96.120253
-193.211827
98.441088
-206.478638
100.444855
-219.906456
102.160716
-233.462033
103.573467
-247.123823
104.707913
-260.905965
105.550788
-274.773708
106.125891
-288.702140
106.459063
-302.669711
106.525252
-316.689588
106.348324
-330.711433
105.940877
-344.729356
105.321850
-358.724758
104.483324
-372.661978
103.448160
-386.554147
-400.368054
102.215801
-414.073853
100.807598
-427.663732
99.232310
-441.114711
97.496128
-454.407746
95.615127
-467.513968
93.599899
-480.448537
91.464043
-493.153782
89.212810
-505.633617
86.866151
-517.860674
84.411734
-529.814918
81.902697
-541.486585
79.304781
-552.858582
76.656941
-563.896693
-574.619494
73.962034
71.234619
-584.970847
68.462901
-594.958031
65.691699
-604.559613
62.902848
-613.780936
60.116774
-622.580507
57.339218
-630.957367
54.587698
-638.898810
51.859195
-646.397055
49.159019
-653.427199
46.511467
-660.009297
43.899883
-666.091599
41.352003
-671.708795
38.870660
-676.816932
36.456275
-681.436081
34.120462
-685.550158
31.859256
-689.147428
29.690115
-692.234315
27.590526
25.606277
-694.796183
23.704636
-696.833559
21.904026
-698.368917
20.222489
-699.361782
18.629175
-699.842450
17.142076
-699.799261
15.769907
-699.238577
14.500378
-698.151683
13.342249
-696.561543
12.281729
-694.457475
11.345422
-691.857841
10.501004
-688.763639
9.787487
-685.165423
9.154984
-681.101832
8.646929
-676.557746
8.229054
-671.558629
7.912300
-666.094516
7.695861
-660.202361
7.583628
-653.869980
7.549412
-647.117229
7.603148
-639.965646
7.749452
-632.425580
7.991936
-624.502654
8.300021
-616.218961
8.676623
-607.584294
9.133142
-598.608259
9.651254
-589.321445
10.243350
-579.731498
10.877913
-569.858769
11.584922
-559.722079
12.327497
-549.323028
13.125865
-538.683603
13.959990
-527.851523
14.843716
-516.799008
15.754109
-505.569636
16.704321
-494.185193
17.663297
-482.644075
18.668886
-470.966613
19.671504
-459.196116
20.701419
-447.306560
21.738819
-435.354880
22.784924
-423.346811
23.827742
-411.282901
24.866549
-399.200838
25.915735
-387.102390
26.950871
-375.015753
27.973209
-362.949309
28.983428
-350.900714
29.971076
-338.914995
30.963483
-326.988319
31.932794
-315.149098
32.852681
-303.394476
33.769042
-291.731881
34.637199
-280.203877
35.490129
-268.793700
36.305147
-257.528820
37.086155
-246.411014
37.826612
-235.454561
38.518196
-224.670524
39.175615
-214.065886
39.789106
-203.645324
40.350885
-193.425841
40.859732
-183.408444
41.320346
-173.597173
41.723214
-164.006011
42.067656
-154.626504
42.359547
-145.488052
42.583307
-136.565127
42.738235
-127.886633
42.838047
-119.440912
42.852486
-111.232020
42.802370
-103.280747
42.674769
-95.546447
42.474160
-88.070219
42.171025
-80.831653
41.791059
-73.861333
41.325517
-67.108125
40.762040
-60.604300
40.104525
-54.337801
39.339660
-48.310856
38.471134
-42.531877
37.496553
-36.981194
36.396224
-31.672790
35.184092
-26.575498
33.852665
-21.715805
32.388347
-17.068839
30.788015
-12.658919
29.053196
-8.438469
27.176410
-4.439590
25.145503
-0.642086
22.962512
2.949321
20.619935
6.356529
18.112699
9.573582
15.438199
12.600448
-5.315045
11.471735
-14.237206
19.354249
-23.476122
26.886006
-33.049780
34.051774
-42.942972
40.873900
-53.144388
47.338180
-63.664205
53.449383
-74.467703
59.192786
-85.548955
64.589762
-96.944477
69.627065
-108.582461
74.324619
-120.468653
78.654487
-132.600606
82.643915
-144.963076
86.300640
-157.536953
89.619682
-170.315881
92.609229
-183.272398
95.264835
-196.408965
97.607842
-209.706406
99.637198
-223.141259
101.356697
-236.685648
102.796545
-250.345851
103.930233
-264.093001
104.783572
-277.897762
105.377942
-291.773303
105.706409
-305.658520
105.773286
-319.560205
105.605782
-333.464677
105.204296
-347.336720
104.578006
-361.170948
103.744410
-374.938994
102.719486
-388.612004
101.496804
-402.199241
100.099231
-415.646001
98.528600
-428.953209
96.814645
-442.102309
94.953294
-455.060563
92.945457
-467.826979
90.834944
-480.359527
88.615327
-492.651845
86.302597
-504.698093
83.891273
-516.458189
81.403771
-527.919413
78.866315
-539.075951
76.263206
-549.893067
73.627077
-560.353729
70.952437
-570.461792
68.259750
-580.183587
65.555716
-589.510841
62.842643
-598.432759
60.147341
-606.927924
57.453593
-614.996795
54.797435
-622.612544
52.165135
-629.779100
49.572679
-636.452509
47.039066
-642.664036
44.550511
-648.379554
42.120583
-653.597085
39.772667
-658.309358
37.488074
-662.521292
35.285291
-666.210426
33.169097
-669.380230
31.135504
-672.021921
29.193241
-674.137002
27.363696
-675.715773
25.613125
-676.781182
23.964876
-677.311814
22.435455
-677.311100
20.992597
-676.785942
19.664045
-675.742718
18.434573
-674.169258
17.330253
-672.094200
16.318775
-669.506107
15.427165
-666.420175
14.633185
-662.832534
13.948669
-658.759854
13.365052
-654.208762
12.892032
-649.194233
12.515389
-643.716815
12.235531
-637.810754
12.049002
-631.443602
11.960617
-624.670661
11.963505
-617.503916
12.044422
-609.922934
12.213342
-601.966371
12.468968
-593.661378
12.799546
-585.001696
13.191129
-576.003286
13.650732
-566.694503
14.179316
-557.083258
14.774373
-547.202354
15.421256
-537.051599
16.109399
-526.642077
16.855122
-516.011445
17.631076
-505.173700
18.462843
-494.131389
19.323568
-482.924618
20.205158
-471.554985
21.126115
-460.052573
22.056922
-448.431157
23.014616
-436.703544
23.988197
-424.892729
24.965710
-413.023253
25.952015
-401.092489
26.945131
-389.130076
27.929706
-377.146860
28.908605
-365.176333
29.888715
-353.224001
30.848767
-341.292440
31.800946
-329.401713
32.740422
-317.590516
33.649314
-305.853801
34.541850
-294.202876
35.406022
-282.656681
36.245271
-271.222828
37.056958
-259.909731
37.829585
-248.752909
38.556089
-237.745366
39.256526
-226.895047
39.917973
-216.210320
40.527270
-205.712348
41.090275
-195.411434
41.602403
-185.304283
42.075877
-175.404890
42.485565
-165.718467
42.829316
-156.240508
43.131346
-146.999905
43.359442
-137.991627
43.528802
-129.200629
43.623565
-120.648041
43.648171
-112.343222
43.613185
-104.280898
43.485664
-96.445306
43.284201
-88.873866
42.985174
-81.539621
42.617948
-74.459728
42.156200
-67.622581
41.593363
-61.021174
40.936652
-54.673228
40.169198
-48.564391
39.297713
-42.692090
38.321962
-37.072291
37.227119
-31.684562
36.004745
-26.511178
34.662659
-21.587644
33.180712
-16.875727
31.573093
-12.394531
29.816470
-8.127810
27.916770
-4.069537
25.873801
-0.228367
23.672747
3.428856
21.311492
6.871014
18.769353
16.061059
10.117785
13.192569
-1.777062
8.285565
-9.061240
16.305044
-17.834922
23.966910
-27.148513
31.273003
-36.829123
38.239406
-46.760445
44.833787
-56.661341
-64.800427
51.697491
-75.616958
-70.256447
57.071419
-86.793133
-81.557572
62.515382
-92.670288
-98.460500
67.531071
-104.356114
-110.311422
71.572702
-122.088507
-115.920768
77.043111
-128.046264
-134.366550
81.195449
-147.689424
-140.237738
85.001412
-156.694619
88.463856
-168.841474
91.603199
-181.695504
94.943151
-194.775682
96.964121
-208.069112
99.086123
-221.392208
100.946969
-234.540992
102.507314
-245.859809
103.785280
-262.535468
104.771403
-276.318063
105.498709
105.856819
-290.213248
106.126360
106.010214
-304.146015
106.132799
106.150536
-318.105631
105.907321
106.040338
105.698216
105.430023
-335.149985
105.132524
104.770134
-347.923540
104.368724
103.859385
-362.014605
103.358909
102.699964
-376.286054
101.775850
-394.352401
100.411732
-417.525349
98.871302
-428.266923
97.150216
-438.955336
95.299199
-454.739647
93.357236
-467.683080
91.607552
-480.423038
88.920266
-495.224409
86.583744
-505.510261
84.163817
-517.169206
81.114052
-528.822051
79.091285
-540.252879
77.000695
-551.382621
-561.649990
-569.870038
72.257347
-580.092163
-575.057262
68.741784
-590.305113
-585.059440
65.878930
-594.727439
-599.437676
63.157947
-603.747449
-608.594029
60.704666
-612.352712
-616.886566
57.403207
-620.725190
-625.235998
54.689865
-628.561509
-633.679726
52.017524
-638.440437
49.374412
-644.874404
46.780422
-651.177962
43.729834
-657.073582
41.679559
-662.514740
39.324071
-667.385422
36.970607
-671.670329
34.717212
-674.993160
32.504473
-679.192197
30.435874
-682.063107
28.497659
26.931208
-684.411899
26.047534
25.128263
-686.231218
24.241252
23.263379
-687.521626
22.492506
21.681030
-688.539057
20.894857
20.086205
-688.472752
18.690392
19.462756
-688.161729
18.123824
17.371464
-687.500385
16.023443
16.858003
-686.415487
15.296434
-684.278201
14.314398
-681.939105
13.422746
-679.094891
12.582279
-675.752409
11.911651
-671.923468
11.331505
-667.614696
10.902479
-661.881590
10.391513
-657.365784
10.095508
-651.927927
9.902232
-645.716348
9.800378
-639.253760
9.785217
-632.423560
9.853806
-625.396388
-620.355649
10.008708
-615.022937
-611.293817
10.258415
-606.611222
-602.805797
10.570206
-594.373029
-598.162478
10.954268
-589.518213
-585.083055
11.291893
-575.940511
-580.433858
11.942689
-570.581394
-565.963970
12.532896
-555.641184
-560.686632
13.175003
-548.022976
13.875772
-538.007377
14.617654
-527.234159
15.594892
-516.409616
16.286948
-505.442132
17.129355
-494.203627
18.025144
-483.146436
18.956847
-473.625666
19.889757
-459.629134
20.872676
-447.884989
21.804713
22.456139
-436.031275
23.146183
23.588054
-424.116458
24.177358
24.640170
-412.152554
25.193641
25.611630
-397.639538
26.163641
26.647969
-387.694799
27.164437
27.634807
-375.991263
28.218889
28.692162
-364.076198
29.217227
29.662569
-352.405310
30.449867
-342.752121
31.384032
-325.794476
32.324825
-316.282455
33.245044
-306.915607
34.155175
-292.946611
35.005289
-281.409507
35.711566
-269.990170
36.676865
-256.262792
37.450579
-247.133366
38.195378
-236.488412
39.025047
-225.747646
39.550432
-215.119465
40.041383
-204.806125
40.808626
-194.998254
41.146591
-187.779595
-181.952953
41.791768
-177.410523
-171.981208
42.112133
-167.226637
-162.521994
42.441895
-157.793442
-153.249486
42.681888
-148.556054
-144.213894
42.979331
-139.272354
-134.955258
43.134705
-130.591677
-126.522987
43.230502
-121.729769
43.254996
-115.454223
43.209718
-107.658560
43.052112
-99.837194
42.872211
-92.196724
42.584909
-84.814285
42.199952
-77.695791
41.741896
-70.963321
41.178610
-65.405876
40.510229
-57.627693
39.781976
-51.443672
39.166330
38.663427
-45.497341
38.196411
37.653202
-39.801485
37.085901
36.502191
-34.321023
35.909323
35.287159
-28.017290
33.900249
34.598355
-23.905411
33.138317
32.389082
-19.275821
30.725289
31.578091
-14.829908
29.744978
-10.976791
28.404255
-6.238164
26.523297
-2.320296
24.427272
1.394923
22.161453
4.910739
19.744671
8.254203
17.210924
14.904402
11.388428
SCALARS stress_1 float
LOOKUP_TABLE default
-46408882.377839
-29677735.399829
30553709.542766
-119867619.169269
111101545.153809
-190234708.851620
194236233.828609
-257772817.028913
280369206.098594
-321516586.793837
369713178.409677
-382023585.915692
461875712.250527
-439688860.925905
557643485.671079
-494021669.313147
656624591.598737
-544516193.493494
757885122.364068
-592074075.070966
862081481.175109
-637058370.065659
968639952.477774
-678257184.081593
1077659352.041363
-717016091.534845
1190008543.635179
-752140890.956842
1303884224.381746
-784549863.836254
1421074080.812491
-813197052.027894
1539659590.611202
-839674055.667210
1660853691.381899
-862949204.358221
1783379198.778533
-883401938.121022
1909086186.038978
-901689191.602391
2035566185.493799
-916339544.261160
2164064371.308279
-929106861.586001
2293449706.208960
-939305899.151096
2424278449.037738
-947167863.487872
2556288701.844544
-951647583.774531
2689773526.428516
-955153763.895725
2823324676.278325
-956248804.353044
2957775619.473739
-954360308.354526
3093650634.180039
-950539735.474355
3229310257.519751
-945232071.567345
3364721711.658157
-938145022.488312
3500407168.675025
-929478345.530806
3636153361.016269
3771172006.481026
-918855986.183499
3905806627.795841
-906462892.386717
4040235864.479219
-892643649.744481
4172640029.653687
-877451337.039012
4304721474.837749
-861100786.636455
4435955370.757950
-843235743.038401
4565569297.609408
-824923262.495644
4693022307.838037
-805380583.905757
4818590026.200218
-784528149.238903
4942910631.537845
-762893651.673285
5064704055.930684
-741070330.221823
5184214474.897243
-718552111.415945
5301504255.474535
-694868061.591958
5415377621.547208
5526567896.828887
-671511221.000659
-647698306.935598
5635319788.276817
-622726903.647573
5740763349.574783
-597879165.472890
5842649927.313886
-573321815.985734
5940798234.616650
-548435678.199024
6035713537.958825
-524207463.010334
6126803375.816159
-499869750.109194
6213492457.987791
-476015512.789157
6296106358.388207
-451566034.739757
6375444724.054420
-428032314.858563
6449474098.620282
-404745502.554478
6519535066.842175
-382003393.401684
6584969896.915219
-359400855.455860
6646169954.638550
-338152666.687169
6702280378.603268
-316706549.431920
6753641542.242361
-296048171.379645
6800416754.117097
-276444931.909410
6841519405.013690
-257521307.948622
-239397508.595715
6878029785.889383
-222680794.893446
6909731479.896540
-205803026.782143
6935999257.510906
-190404976.066688
6957600273.323583
-175818048.040633
6973319739.529688
-162373603.436267
6984578851.958193
-149419962.985879
6990721197.566344
-137501213.702391
6991086151.140355
-126734149.671316
6986524627.637471
-117304250.271718
6976819422.886663
-108541090.265724
6962295323.479034
-100399985.709011
6942409285.609698
-93916022.010479
6917862140.546367
-88175110.183051
6887519445.837383
-83572838.031607
6853018548.439989
-79474963.331194
6813108999.140403
-76800564.728588
6768886951.291846
-74997851.437572
6719512087.119274
-74067876.500903
6665768466.817806
-73801594.370239
6607619907.374519
-74694205.777869
6545440347.380513
-76027186.528675
6477685222.780110
-78966694.031560
6407597246.811186
-82927116.457548
6332353116.094674
-86975618.849398
6253572740.545062
-91953050.420892
6170384353.149428
-97450864.214787
6084701201.175483
-103751800.402111
5994586291.890938
-111300598.787744
5901855100.002241
-118871352.780588
5805604133.704510
-127318667.904895
5706631485.057417
-136138065.008302
5604542885.018205
-145920421.133566
5499775180.488441
-156228633.494472
5392982422.540715
-166211265.529755
5283405691.795963
-176953351.806425
5171533880.564655
-188703545.733381
5057968994.510480
-199759761.511486
4942856127.663273
-211549778.945624
4825912283.967358
-224010965.279412
4707101811.848552
-236112968.878996
4587667001.897953
-248579854.707364
4467112663.217989
-261397344.850030
4345206792.119129
-274649209.507855
4223224191.307819
-287387814.205091
4100146425.094528
-300058164.465988
3976182814.581685
-313578827.168022
3853001112.756368
-326232375.720092
3729615396.044394
-339232820.438413
3605677398.109454
-351860318.365739
3482217214.700753
-364528425.788448
3359428304.524740
-377105814.821889
3236685979.330619
-389071366.429049
3115296756.782080
-401311401.091424
2994783670.347698
-412713922.729243
2874340489.014552
-424623216.500613
2755110687.604440
-435698697.649155
2638206016.147196
-446268321.728953
2521705875.745250
-456760444.544891
2406869738.147807
-466192567.370424
2293873634.853276
-476139138.687046
2182207821.495512
-484356613.372231
2072622035.292294
-492812655.907474
1964673386.639601
-500328159.566230
1858602911.597106
-507609486.549361
1755114344.676140
-514067088.410956
1653074040.583150
-519719465.071244
1553101973.463321
-524566626.364944
1456211333.461839
-528576867.169530
1361006597.004520
-532340021.319721
1268387840.883327
-534563868.735749
1178121496.596667
-536558351.928942
1089879628.259891
-536457545.100165
1004772942.694796
-536423890.199483
922111481.369956
-535114696.385004
840942088.711186
-532710728.930183
763672435.229817
-528949853.669738
687841781.467016
-523602714.273104
615136104.776005
-517915813.502407
544749981.136690
-510774271.703696
477207176.945049
-501980959.272951
412243196.065637
-492045374.526384
349626044.643641
-480572470.932568
289535169.190388
-468169519.368979
231542755.174454
-453230376.066314
175990780.179761
-437638689.255273
123648770.602289
-419608878.489942
73285318.421942
-400876604.562283
25129278.034700
-379377503.141732
-20182460.975513
-356928889.300881
-63584564.097368
-332350868.989799
-105046093.862291
-305659048.719814
-143256842.039584
-277558216.045013
-180102267.721936
-247194572.433971
-214419628.513366
47947963.809736
-104450205.705173
129196930.088803
-175830595.803004
213251262.530063
-243884697.577974
300620695.664941
-308990642.122772
391042278.500613
-370216893.572843
484173777.568507
-428513714.093470
581195352.637924
-483408319.820098
680746856.154776
-534950374.522029
783238665.607734
-583060310.334709
888049222.370118
-628476450.466176
995554295.564454
-670511966.009120
1106214989.326188
-708972866.818356
1219226637.454456
-744696035.986572
1334426433.322579
-777585265.764563
1451847922.419229
-806953727.245020
1571636710.543540
-833360828.563388
1693368900.111592
-857004486.647075
1816927431.318502
-877936727.235545
1942264707.141609
-896028574.579594
2069035866.422808
-911282380.814668
2197812754.845887
-923780843.429437
2327498421.899515
-934249316.644861
2458927910.310238
-941721921.949608
2590953011.481212
-947708605.198495
2723589577.973698
-950344473.965703
2857295554.794874
-951269758.782660
2991366420.110022
-949963311.108200
3125554563.718278
-946477432.235875
3260334580.346188
-940928109.258374
3394591826.555013
-933990501.188617
3529766500.028542
-924832163.485439
3663497710.450562
-914323278.680266
3797505246.382337
-902303421.786020
3929673455.903635
-888234007.218776
4061738767.460369
-873526952.387437
4192372492.571045
-857317566.354856
4321654169.596064
-839772051.091196
4449501347.096685
-821861786.536787
4576043768.476069
-801835515.223053
4699493461.813984
-781990668.047568
4821764983.305546
-760889389.627270
4942316066.634543
-738533254.608936
5059573050.642871
-716466817.213526
5174579767.720763
-693578061.691833
5287107619.356893
-670722371.056780
5395710601.380229
-646609080.205937
5501518934.236689
-623812051.786080
5604235334.121387
-599386889.737538
5703282670.467320
-574862030.000638
5799021115.720399
-550959943.222156
5890512835.428964
-527520991.738402
5978494046.715544
-504318683.123558
6062305699.013128
-480520061.067156
6141765196.516837
-457506371.228895
6217558817.025807
-434361684.255549
6287603155.015788
-412449808.764059
6354254613.077876
-391021283.090733
6416314777.572474
-369276184.644473
6472797715.090681
-349054245.365607
6524830496.784855
-329096259.224298
6572001938.173505
-310030605.038350
6614209257.366233
-291809961.339189
6650582783.600915
-273734028.297842
6683117940.029913
-257575161.488491
6709926620.201568
-241517630.320039
6731744519.634386
-226680280.567532
6747715723.876710
-212377867.805152
6759148315.404286
-199318328.880539
6764940619.765461
-187078829.087245
6765680354.874719
-176401382.200315
6761167487.884419
-165716017.628651
6751627714.062277
-156795622.385173
6736533320.560649
-148791909.202172
6716504271.690005
-141117425.884528
6691324150.602707
-134678282.091939
6661251154.847095
-130033905.629287
6625939380.057025
-125615378.948230
6585957266.738082
-122555825.738299
6541302187.200734
-120335957.493912
6491495058.993323
-118875694.581210
6437418246.310966
-118146215.451854
6378608007.493969
-118920992.953481
6315733714.737446
-119629790.775625
6247841415.309110
-121799745.765923
6176926542.196040
-125057706.656666
6100757977.989335
-129276026.295492
6021657516.913948
-133260778.767914
5938344057.676328
-138539622.525591
5851420383.428835
-144803899.092773
5761211290.597286
-151729874.921118
5667728429.406637
-159040606.492120
5570772298.447984
-166985800.257437
5471241134.147145
-175388657.064709
5368770276.333093
-184529023.676060
5263194054.474402
-194165617.981885
5156259769.753268
-203972344.463680
5046867332.199528
-214607987.969082
4935110321.872854
-225420081.906993
4821379061.364345
-236935295.917012
4706062564.337690
-248173483.408042
4589402654.175952
-259694337.904334
4471266684.232353
-272023997.606748
4351977344.847198
-284214562.320169
4231302632.330952
-296155034.611603
4110370159.109433
-308321613.358525
3988749738.846333
-320800165.012593
3866423412.894876
-333066677.127893
3744516953.314732
-345829352.271434
3621698532.165575
-358156674.248097
3498998766.800629
-370786198.611968
3376823586.322320
-382509721.534075
3254776359.717731
-394538881.525748
3133788878.736065
-406321366.196751
3013152173.156363
-417989044.705189
2893257884.331849
-429068375.367275
2774151227.645581
-439971329.987891
2656811572.199991
-451076856.487268
2540188511.463651
-461157483.462250
2425293129.496232
-470459502.351574
2311615160.327571
-480001102.794840
2200002910.894814
-489341501.273542
2089077231.789062
-497825613.341767
1980654660.594234
-505144258.919746
1873847046.297412
-512412081.446218
1769701134.367169
-519155539.237392
1667116057.344670
-524606178.609483
1566760144.216996
-529337971.001227
1468451871.891456
-533351457.686079
1372401083.074498
-537467688.864903
1278686558.307290
-539818898.372416
1187797987.058403
-541552773.201443
1098814981.753656
-542260244.790720
1012324748.538233
-542008177.737092
928457581.923464
-540584121.314013
847323711.688389
-537987298.032814
768692984.344340
-534858278.209706
691924071.755870
-529854371.002797
618309213.672183
-524055365.434745
547239328.353815
-516464209.310433
478647570.873358
-508111008.213784
412908421.095367
-498604396.345661
349873123.927151
-487042476.217392
289031679.117916
-474423638.455659
230759619.574972
-460258213.261323
174661111.443504
-444314472.498939
121570439.630824
-426413255.045981
70536288.928893
-406963127.529129
21916755.202265
-385897776.459712
-23518625.318362
-362857029.391818
-67738284.768433
-338872566.556146
-109021893.313231
-311976477.421267
-148256539.088201
-283988192.980008
-252956186.700941
-185164993.186032
-219878583.491376
16104059.610382
-75473913.092869
82079847.446447
-148238854.382266
161672185.400593
-217597959.153684
247205241.021271
-283619115.542568
335233924.659118
-346432332.671444
425816677.260819
-405876388.395126
516569500.795836
591040802.932257
-467272502.370116
690995602.847373
641228443.805071
-515342743.253062
794084940.862870
745488313.406653
-564011943.893243
847964109.409363
901646455.911034
-609259625.278728
956446119.278418
1011025959.830719
-644619754.207762
1120384304.766106
1063197723.296735
-694254839.082141
1175808544.340961
1234576117.629709
-731054434.493307
1359021029.166074
1289484493.121339
-764710378.995742
1443006125.782148
-795796624.358749
1556366885.569351
-823480735.875878
1677185721.422482
-853800515.117708
1799810588.921493
-871341481.990518
1924636473.829033
-890608681.835127
2051000076.010646
-906837322.034393
2175428374.164585
-920737528.921948
2283056123.010979
-932122650.760199
2442046023.886587
-941392334.346360
2573191360.346974
-947700528.619943
-950700139.136417
2706504826.900122
-953106466.875694
-952470344.815840
2840377703.531164
-953228574.078461
-954056611.202841
2974448223.477974
-951315674.078501
-952199277.536224
-949726792.921838
-947748635.259754
3139393705.001239
-944725011.163103
-941948310.950730
3262814745.609757
-938489573.192615
-933439209.742925
3399914629.672410
-929483917.753594
-923517977.665343
3539329124.442988
-915977450.573362
3715812444.884531
-903923861.038907
3944339529.395472
-890562131.647476
4050310228.078266
-875748632.563735
4156641849.461868
-859282720.859597
4313397545.771548
-842342041.009553
4442764869.496879
-826999340.864402
4570415750.684893
-803893225.556972
4719690639.009439
-783069714.355171
4824028923.170317
-762087775.462644
4942543262.874232
-735333491.385826
5061940992.861578
-717332388.564089
5179166025.879429
-699453110.125588
5294162757.372741
5400333611.799537
5486043050.116148
-657088835.477537
5593421042.289032
5540886447.062456
-626390391.435780
5700903285.464090
5645617361.583966
-600816778.517256
5747956694.734586
5798594992.638410
-576950162.354540
5844470438.218713
5896507568.434157
-555113922.020998
5937489751.712703
5986294936.486259
-526090229.879706
6027602614.030323
6076854634.859556
-501738459.179389
6113546987.193503
6169636857.907692
-478150522.591601
6222792442.598167
-454492145.043751
6295755915.593370
-431145148.195534
6367141278.206387
-403696498.040432
6435214376.140896
-385422365.937349
6499111722.592810
-364488534.411061
6557640560.800600
-343187141.279191
6610137554.035191
-322987739.337035
6652389155.903658
-303079155.604432
6706283174.667631
-284448924.617627
6745921861.629249
-266969246.324894
-252807638.358410
6780328239.692493
-244755405.765551
-236051790.937724
6809402941.979889
-228557194.908596
-219590267.255739
6833486351.759147
-212135885.062894
-204502121.122304
6857228928.010968
-197301207.668789
-190143198.890156
6866003342.260325
-177392423.927533
-184440948.131354
6873538293.544235
-172211987.301191
-165458391.889168
6878132503.238210
-152323133.386460
-160723762.813866
6876526659.549486
-145965073.971078
6868473331.427176
-136905247.003184
6856597958.078003
-128821602.678322
6839083427.194531
-120841178.993339
6816009021.252510
-114809203.088406
6789173830.958388
-109685874.575140
6756428127.464526
-105591816.520194
6711064790.990123
-100664756.393556
6674611184.078660
-98566053.849593
6629852352.183365
-97040540.143715
6577424378.174511
-96112386.085736
6522300732.810272
-96603940.969208
6462622162.961863
-97305426.318381
6401024146.989604
6356594483.134725
-99568063.507901
6307869450.857420
6274538749.827235
-102596052.524406
6231338436.849639
6196904993.524288
-105771577.930370
6120171447.522564
6154411233.686640
-109907693.612928
6074887137.177168
6034063398.454303
-114357243.944930
5949134158.618687
5990820097.485975
-121792366.650352
5897953535.791428
5854802342.941950
-128052124.871094
5757525241.770898
5805021012.933627
-135120526.583698
5684777933.830743
-143591076.520454
5588791145.108618
-151728133.558836
5485110774.538185
-163182433.071500
5380789642.615107
-171040560.926396
5273817243.550087
-180249315.834745
5164412064.506935
-190973094.526771
5056112319.046144
-201740143.477396
4962188819.149227
-212803264.717486
4823421789.304329
-223778721.756281
4707160722.152546
-235253773.361421
-243527611.947427
4588147227.700397
-251229502.131283
-256816572.753097
4469210748.288184
-263731526.647362
-269484568.074790
4348760726.988502
-276235665.966500
-281694471.475798
4201965923.147996
-288486757.714751
-294153614.446047
4101346282.225874
-300589959.569638
-307040011.976055
3981160842.173831
-313986017.530117
-321059880.445065
3859939903.508781
-326623045.659255
-332915427.914848
3740294875.941241
-343052308.042854
3641208465.490548
-355193523.829522
3466240343.234384
-367581039.711158
3367341493.187519
-379763142.756356
3269932133.290783
-392195273.629373
3124255744.571440
-403362293.917468
3003450547.463966
-413139695.819166
2883650186.665767
-427012069.576098
2738856151.394947
-438199204.388084
2642524140.721554
-449095304.662753
2530100663.684384
-460186095.821295
2415441400.347516
-468941031.269601
2302638027.444353
-476382632.286676
2191746328.461278
-488455559.838429
2087406634.846625
-494046199.058827
2009751375.642491
1946873723.840492
-504511201.227580
1897979634.547677
1839410414.046084
-510300529.932086
1787669563.276912
1736898287.474583
-516568789.995982
1686013052.448647
1636421816.128625
-520956631.926872
1584746945.341583
1538075277.397673
-527067070.369179
1483827758.513610
1436978734.225959
-531670726.422369
1389007610.997988
1344274035.125075
-534768089.791327
1292055255.757292
-536884767.238179
1223200309.252763
-538922685.755750
1137083612.547453
-539367769.902184
1051182716.526128
-539268213.055790
966464206.039350
-537998423.232414
884462162.917597
-535108930.423628
805513693.101710
-531667304.373960
730622776.006624
-526581436.529025
668076260.226503
-521015989.627846
581215296.984674
-513848946.577380
511653681.467544
-508126149.559538
-503031156.965729
444571788.104537
-498068617.665100
-492801780.198531
380769283.602102
-486836931.781267
-480745850.612727
318885784.190937
-474622488.603301
-467595873.128637
247689327.900799
-452811913.663511
-460479357.901311
201322081.631143
-444662612.601590
-435833087.164296
148435519.628718
-418370047.480125
-427619072.223881
98210909.430352
-407529153.663268
54564799.609249
-392693389.902358
901445.503921
-371569726.308822
-44550674.219761
-347796624.052408
-86262785.482951
-322331707.795519
-126849901.665227
-294712262.950558
-164674392.508938
-266669404.001343
-240315117.824975
-200542565.798336
SCALARS stress_2 float
LOOKUP_TABLE default
15028474.005380
11862051.658757
-4141782.337144
32732038.032682
-24326994.783313
48082395.867736
-47294392.395337
63323799.935139
-71036456.552789
75358019.402888
-97320539.362898
87296126.908596
-124572477.569067
97302635.831837
-153887523.703120
105941494.916013
-185265554.720036
113948561.859505
-218637971.045851
120831961.086909
-253676381.529755
126114778.721200
-291034026.278978
130746931.186974
-330168345.931132
134481236.182613
-371618125.123831
136473439.087690
-414086675.433921
138540864.645607
-459261070.240975
138971138.766323
-506728180.910261
139262563.254007
-556258275.866375
138349822.533255
-606668876.065737
136943842.727043
-660170412.766384
135643104.896139
-714449678.394353
133414815.375096
-771487605.162663
130396938.907317
-830544205.072752
127581049.508548
-890929585.807255
123123468.558364
-953526007.897997
120243638.497108
-1017773830.391439
115835847.643585
-1083589834.030983
111817242.968523
-1151151069.757301
106532329.321111
-1220308549.783411
101955720.717097
-1290322641.686159
97038595.066439
-1362715525.678562
92042850.279096
-1436484604.701293
86502472.476603
-1510890478.861581
-1587142979.205888
81620386.402362
-1664108901.735654
76464099.238677
-1741524105.603128
71770535.410143
-1821090174.385157
67064189.781698
-1900839031.233990
62264195.519899
-1981341408.151068
57698451.595470
-2062382083.758256
52818203.493777
-2143123354.162785
48475993.760950
-2224970837.774941
43877895.988140
-2306579282.277361
39990552.615690
-2388863018.610716
36020857.870925
-2470542097.927256
32312397.133419
-2552644718.531481
28997993.160880
-2633793680.742198
-2715131638.333522
25807419.438672
22422118.088330
-2795248746.669281
19587670.595217
-2874452773.114744
16765155.717042
-2953348051.867180
14413667.469553
-3030932806.503435
11920324.080072
-3107925115.539587
9449540.094733
-3182962289.491712
7895529.210474
-3256844559.406272
6497365.548832
-3328357868.010922
4052110.806748
-3399054701.610162
3058899.530351
-3467377527.037435
2487413.522373
-3533912762.703029
961738.798559
-3598510723.228812
442102.222407
-3660251319.661243
-569934.614932
-3720525318.197595
-1294380.955748
-3777723448.717771
-1557919.103102
-3832172215.010194
-1194137.663112
-3884359033.894001
-1931671.680799
-2399297.656494
-3933463884.733020
-2399586.954023
-3978664517.512944
-2299784.391084
-4022399330.749850
-2540028.589541
-4062356306.641009
-2062621.427860
-4099237727.808288
-1815728.572928
-4131926199.706994
-1936507.691630
-4162108453.700956
-1596048.556643
-4188830114.609311
-1382533.895621
-4211451385.795887
-1817680.314683
-4230476888.715991
-1122415.071868
-4246576493.566896
-990143.303679
-4258666626.970468
-886511.207387
-4267466078.593593
-875536.555667
-4271227257.997368
-160365.970384
-4272611744.545623
49511.517745
-4269764043.057493
418112.969491
-4263109672.472211
-115418.434285
-4252047689.820491
186441.942590
-4238173305.724198
56628.539019
-4220526537.956009
144415.688114
-4198876136.713195
812480.768009
-4173637555.132257
784745.581434
-4144883112.471235
744428.673079
-4112192445.336248
602238.679116
-4075932552.454950
1009446.780410
-4036839195.600017
1327897.613131
-3994918460.438336
1044777.721972
-3948325040.636794
1653260.485066
-3899048662.073854
2057491.705143
-3846751223.371384
2481472.866124
-3791193761.347079
3346045.982316
-3733227423.364766
3988479.689893
-3671538329.924776
4683213.169717
-3608412172.072130
5513342.633365
-3542265322.412946
6629962.200934
-3473497903.250285
7936641.675151
-3401919747.826437
9083710.009557
-3329004718.550251
11113780.582284
-3254103308.558229
13252018.983044
-3176625351.834625
15368406.378394
-3098018958.576710
17172024.463834
-3017620002.238352
20073538.511709
-2936057981.122611
22863117.475557
-2853225469.107950
26272666.839302
-2768547740.497430
29387500.086866
-2683261212.744920
32701489.641404
-2597364367.623095
37691069.305644
-2510398111.116207
41992279.714320
-2423630452.466549
46638133.503603
-2336414114.188758
51673816.899378
-2247797894.161297
57010161.582838
-2160362162.898803
62724889.249484
-2072442193.643568
68664348.747064
-1984726593.016018
75093857.134907
-1897574290.788828
82088906.730379
-1811263828.521655
88637095.123190
-1724877004.623348
96436286.206112
-1639797692.547776
103907653.357279
-1555485110.809576
112045136.575250
-1471889888.438021
119777580.707776
-1390108700.266555
128196874.178010
-1308929499.430240
136690613.833703
-1229442177.504480
145056707.673415
-1151383195.306973
154641228.650684
-1075196220.094316
163046040.658281
-999930049.744974
171429388.755533
-927436322.348989
180751268.729423
-856068691.996400
189752465.003105
-786777088.671463
199098061.363561
-720020975.524986
208340670.870119
-654522181.586242
216449400.779377
-591362994.536426
225040660.044874
-530551619.935195
233207612.134785
-471523288.402974
241222357.366476
-415350809.924017
248727155.738506
-360806683.754921
255813651.037859
-308907319.561133
262263722.838497
-259087004.281885
268627643.882383
-212076603.794201
274285653.213097
-166860665.673485
278107610.406043
-124529560.115567
282235156.095954
-84460941.210491
285628384.903254
-46017132.214852
287757169.251100
-10632211.749078
288271140.501877
22683629.885214
288679514.017973
54511669.112617
287329625.692158
83064272.056110
285049578.675242
110036827.140286
281391876.541189
134698824.063527
276708898.335020
157343875.569234
269684207.524911
178225455.036983
262211455.367459
196522475.104386
252343065.755435
213298240.939441
241250973.309266
228150988.966742
-8107727.375627
29674083.408633
-29340793.907538
46080021.466591
-52597349.104972
60890506.151441
-76787378.347504
74325066.631177
-104275073.530787
85989652.709970
-132028916.034394
97144300.600839
-162619306.495938
105740176.107952
-195028317.022650
114003615.868922
-228533752.357929
120836057.687920
-264837305.563986
126752886.414137
-302855280.217665
131604991.215568
-343078362.123137
135523198.002172
-384914142.326861
137506427.941947
-429638329.891047
139610982.520256
-475267161.559096
140590022.905096
-524091812.377471
140835930.900636
-573735180.044551
140373159.461856
-625685979.182203
139167750.817521
-679826923.277230
137580262.452993
-735615576.012267
135519748.172443
-793163096.752581
132599884.719273
-853008858.241575
129509607.169997
-914347336.480688
126059200.268017
-977929254.940977
122338529.923291
-1042737629.410865
117921954.151568
-1108949387.786004
113726498.332420
-1177562422.279411
109325576.800403
-1247083203.937549
104212215.677051
-1318492064.761856
99539832.130362
-1390362420.540757
94638200.387660
-1464230838.639518
89596830.783499
-1539700574.423408
84505356.697453
-1615672723.680850
79750320.356847
-1692570097.352515
75182843.460062
-1770406959.545633
69641535.809827
-1849017473.412455
64575424.165291
-1928447029.787864
60329270.117605
-2008530612.460282
55618324.849074
-2088544384.900767
51326845.739273
-2169107766.049990
46808239.334331
-2249645086.529819
42809140.286169
-2330480497.705520
39280861.655554
-2410891339.259727
34602194.519002
-2491381056.436174
31976320.361876
-2571292989.978261
28111573.411500
-2650787697.341299
25138448.214006
-2729584530.632515
22172673.830160
-2806730988.473777
19281181.442268
-2883796296.744989
16801238.232632
-2959680607.553380
14684157.262020
-3034004394.460049
12456553.288142
-3107240441.041840
10397296.326743
-3178680597.178658
8483096.074764
-3247814729.492370
7043615.820299
-3316409725.029437
5653336.624114
-3381808558.305936
4239693.138130
-3445860747.519137
3254996.120054
-3507202659.503925
2258751.372617
-3566864612.457571
1367042.078122
-3623188772.365767
1457109.827720
-3677598550.380765
66910.226870
-3728664667.852085
-305475.344854
-3777729204.037765
-443196.342760
-3822626420.923498
-821046.751102
-3865057560.070383
-1207776.767151
-3904627408.630671
-1403851.421621
-3940170008.165458
-1105824.698764
-3972714733.190823
-1023350.584275
-4001750985.267863
-1049002.956617
-4027457347.124234
-1245390.846504
-4049798000.745628
-955280.451208
-4068099095.798934
-504833.543404
-4083291470.269843
-899559.789978
-4094784014.461415
-425101.812798
-4101860974.359344
-128052.323769
-4106108903.524729
-309285.944759
-4105429596.791012
-163292.236866
-4102039571.083118
-49233.503149
-4094331908.704108
159285.331467
-4082549675.215080
348629.433538
-4067722833.237900
341269.241965
-4048587831.484474
467934.771056
-4026420392.576670
1073975.717751
-3999670122.181374
1122058.096356
-3969687182.071261
1433488.239986
-3936314050.443604
1601716.162945
-3899646104.329114
1849567.137580
-3859346541.606257
2450071.602793
-3815412312.260727
2750687.042506
-3768056066.276776
3089979.895620
-3717831932.685118
3658363.009887
-3664910069.683024
4655138.824207
-3608544663.254747
5706525.352888
-3549740046.855597
6592747.337890
-3487325243.105999
7547051.429693
-3423254392.400495
8858154.476048
-3356453645.147932
10553682.491259
-3287142790.166008
11914613.278058
-3215688593.651992
14255428.001559
-3141974616.848176
16005136.464493
-3067031889.102643
18395356.150781
-2989319849.354620
21133760.013962
-2910163618.316020
24189809.432171
-2830381110.289898
27034662.525503
-2748505615.260510
29875471.717111
-2665665878.470146
34001075.445899
-2582377530.858038
37472089.604638
-2497606985.241884
42389304.313421
-2412180238.439378
46813444.950384
-2326088633.389754
51664135.408296
-2239864075.546880
56707090.231850
-2153095446.683432
62189368.677642
-2067134317.314047
68533221.501941
-1980726504.362209
74585341.022112
-1894682550.767150
80914503.872889
-1808649037.876952
87801467.432404
-1723256175.145483
94807036.759986
-1639167993.193168
102736968.384577
-1555252600.837705
110355446.517756
-1472115508.487940
117428664.324637
-1390314729.384725
125949274.652972
-1309782853.725331
134682405.395530
-1230660567.811377
142984061.611640
-1152954545.415538
151125755.512879
-1076476849.158240
160872295.733978
-1001645872.704929
169761418.909671
-928976193.828281
178416893.251534
-857371739.360298
187677010.758126
-788601051.179446
196069796.382987
-720813338.951169
204923885.913099
-655311609.295895
213947663.452810
-592005408.197875
222118305.213697
-530952325.747151
230839583.724703
-471965245.200321
238426654.984389
-415682335.480871
246273458.249352
-361302079.845399
253515170.154325
-309013728.489734
260292819.016673
-259718291.928514
266699115.349593
-212409343.932974
272064544.531218
-166833055.548134
276570752.863169
-124350132.969825
280670885.298983
-83700663.030050
283661729.095259
-45802040.243445
285725751.189788
-10057903.442014
287201408.536109
23613421.284202
287237567.330052
54497575.103200
285902115.994772
83847222.864170
283950961.468061
110866906.371283
281082299.006516
135235250.262152
276053064.502909
158049148.340945
269217401.319627
178348604.820682
261771820.077094
196927409.505531
252318784.879660
241104534.347749
213497187.563490
228548515.313365
-175627.157297
22230100.802810
-16719772.974675
39154422.693910
-37838261.242111
54796816.590035
-62180165.906597
68230752.295353
-86719789.650057
80887477.386711
-113595205.344210
92062233.774066
-141447896.934620
-165024580.445364
102475916.500898
-197027520.484386
-181126081.364989
110549208.008617
-231892750.862066
-215556455.211876
117457709.776102
-250052501.805146
-268825068.609861
123364122.186758
-287394858.914563
-307479780.314028
127659912.600840
-346894749.279122
-325786796.686026
132642389.226533
-367392425.332896
-389811731.523166
136792689.171010
-436748367.395582
-410294423.930277
138092614.601769
-470038888.636814
139022454.156426
-515636934.673111
139746977.956515
-564164829.236342
139705810.144826
-615972724.855795
138953611.437772
-669130937.430705
137839683.702623
-724702847.764075
135359020.262016
-780464693.170967
132532953.222395
-829232373.443650
130174545.084447
-903139971.360482
126942088.131403
-965722133.560371
123291709.532820
120269462.285576
-1030258075.246460
115325710.477699
117843279.599004
-1096344747.352437
111293052.873544
113596039.622337
-1164111813.136340
106736679.571219
109045233.673538
103962979.973179
102046055.953706
-1249254019.279563
99632616.168725
96653303.749167
-1314193267.527483
94714520.120309
92093121.451894
-1387409278.609169
89892109.288197
86754957.989505
-1463632287.686969
82692926.070829
-1561735840.881649
78362805.313477
-1693331361.320998
73481401.061241
-1756129399.097661
68427951.975905
-1819097936.697339
63625519.532660
-1914575421.778940
59056579.278028
-1994605908.778112
54727823.824132
-2074977607.846970
49957943.216955
-2171735898.518332
45789299.233868
-2239906071.407763
41658954.500332
-2318725249.401919
36811510.656471
-2399398446.502201
34364391.709717
-2480527009.805011
30633436.496800
-2561370714.977094
-2638236696.237702
-2699273909.431972
25149540.115094
-2781394706.415083
-2741695368.815617
20786194.207424
-2862071942.345494
-2821007370.803570
17991187.999410
-2899150005.782733
-2938610380.687473
15421474.805521
-2975256136.725027
-3015829928.834824
13267848.454064
-3050174304.513842
-3090153420.637299
11095115.016736
-3125207254.440256
-3165303397.427210
8846584.934504
-3197125641.205187
-3243291053.544732
7367823.454464
-3291873412.289809
5626515.531593
-3357497604.220812
4976324.453986
-3423728555.252420
3182456.374564
-3488986018.217870
1983844.897316
-3552030303.676019
871178.831648
-3612212600.360383
837312.231936
-3669079153.837324
-478631.290889
-3715565459.304968
-525720.200076
-3780260344.784261
-1417217.058170
-3830140905.894410
-1562406.614757
-1452884.756276
-3878034874.536615
-1492539.857458
-1791252.223826
-3921908282.287722
-1282457.020431
-1976087.130355
-3963233582.814618
-1907072.133085
-1642651.817225
-4009306271.460639
-1724968.825436
-1328250.665747
-4036613103.336178
-1898751.447753
-1466659.056687
-4066177632.426829
-1647161.305792
-1457243.049541
-4094393412.313141
-1027588.704530
-1193092.722017
-4114293826.689216
-1316596.722149
-4139751190.578619
-1244274.188881
-4156795653.220512
-781844.156308
-4170223737.370050
-1045250.296637
-4180589681.543311
-637488.933108
-4186467147.618759
-727336.553198
-4188287261.582087
-197927.983023
-4185119907.380792
-405249.128544
-4181054896.871863
-439533.409119
-4173160433.578475
334904.515433
-4158930195.238991
86080.342172
-4143672044.584018
363212.192634
-4124114870.430029
145117.550742
-4101156175.100215
-4085914770.734325
317620.053075
-4062055399.542251
-4049208982.171384
696364.462164
-4028818112.222634
-4014949094.587004
507915.749034
-3980354714.219065
-3994739803.478141
1319541.033074
-3957932720.809018
-3937788617.863893
1428379.068933
-3895699667.710096
-3916522894.766294
2286837.786740
-3867675460.502471
-3846362241.841012
2167297.259844
-3794984125.692972
-3818427997.065087
2637185.508737
-3753012564.378829
2903984.866532
-3699943191.062595
3756479.756384
-3640011484.253156
4559780.217102
-3579002367.904206
5526584.809445
-3515744071.531379
6024751.845821
-3447858517.632201
7770459.284314
-3381421469.925194
9165443.745989
-3322646449.402442
10946370.189710
-3234557693.481863
12698106.814021
-3159751372.559471
14415808.166907
16103725.051841
-3082398920.482342
17345248.381923
18139684.370016
-3003727153.962382
20133577.677296
21514326.753246
-2922982532.044614
22785257.863796
24170131.029408
-2824591334.799708
25492576.134491
27032741.226238
-2756219633.156807
28917312.767862
30853299.537977
-2673814218.444926
33071148.826911
34626675.850378
-2589774907.016724
36961513.501944
38888327.815345
-2506621140.605731
42379983.398571
-2437172774.415167
46651398.505332
-2313481749.524678
51911410.420951
-2243396838.287625
56691160.338804
-2174658633.341806
62833389.018639
-2069875331.528209
68235439.116084
-1983123628.261746
73563442.323820
-1896393840.244833
81380622.819092
-1790854382.772530
88311067.750234
-1720701156.717754
95312388.751062
-1637898984.263359
104440281.518371
-1554923672.447906
111009770.611494
-1472049182.146324
117256040.293120
-1391106180.476333
128247173.612901
-1314305479.298978
134289331.071888
-1257815132.705898
-1211090417.573179
145953375.585638
-1175215796.078218
-1132004652.251747
153540046.129996
-1094890356.989079
-1057058488.637149
161248878.742489
-1019269152.826685
-984072933.335252
168658960.090209
-946630505.348022
-911999907.728553
179761036.108462
-872686773.835989
-838306634.874378
188564594.324559
-803786435.132622
-771563034.490703
197344610.218583
-733975090.458087
206405596.532493
-683822195.731198
214784193.370640
-622262045.404250
225055932.415772
-561202481.010197
232124924.143089
-500989571.709903
240159311.162233
-443585454.632191
247610660.691818
-388098638.234372
254769827.616340
-336874043.297653
261204729.305287
-294174219.172703
267306608.821951
-235265754.984393
272637848.329375
-189345967.184304
276264561.132109
278484572.187315
-145449087.629647
280489916.095891
282576598.403485
-104024746.198887
284223621.392068
284998347.092384
-64329358.254411
286437539.478214
287103913.703742
-20313698.743831
287682619.926616
287785008.708642
7982943.195652
288477379.496514
288098723.200217
39416790.258229
286687615.227542
287109213.781765
68962386.148908
285346371.939509
93306177.477851
283505516.927809
122846637.198057
278805403.421699
146522385.585412
273583216.792158
168209757.654698
266131837.247788
187542726.074805
257274763.137599
205147344.278212
247978125.189089
237424314.659803
221072242.169312
SCALARS stress_3 float
LOOKUP_TABLE default
91019418.833130
57977593.588464
-62475522.779581
238450370.594159
-222361759.211345
379600337.800216
-388357985.807558
514058919.910645
-560527524.462564
642118439.787157
-739000084.086759
763826073.315807
-923134900.082513
878933846.390938
-1112602128.819565
987767650.414919
-1308154020.732916
1090045755.225120
-1508821568.675989
1185898432.280882
-1714947235.567470
1275190606.878919
-1926185594.317756
1358478534.478571
-2142485516.812901
1435431332.917210
-2363386274.938962
1506014020.089177
-2588592206.630675
1570421415.396841
-2818248553.782384
1629338819.710203
-3052124815.296199
1681616338.382947
-3289581214.631463
1728400050.874415
-3530598403.617256
1769571266.481320
-3775029164.245292
1805030455.154976
-4022740073.368995
1835134437.224725
-4273025443.415077
1859881424.092937
-4525605195.777620
1879498152.145927
-4780347695.907681
1894113479.278036
-5037299932.174997
1903674813.334923
-5295167431.538651
1908852910.259614
-5554554613.401013
1909610948.873424
-5814461729.204849
1905586880.095038
-6075395507.376875
1897646416.310770
-6336388541.851826
1885819498.390620
-6597390505.056417
1870054147.204587
-6857696560.433414
1851052422.655303
-7117583872.893216
-7375626897.394903
1828140792.145135
-7632643283.332560
1802577145.528029
-7887600889.181581
1773705322.263327
-8140285972.876708
1741848761.656029
-8390403672.893338
1707710937.173765
-8637575606.625553
1671369715.637849
-8881573061.573093
1632380702.458938
-9121903154.646355
1591953060.999006
-9357943582.312449
1549265752.185023
-9589906774.022430
1505167303.862647
-9817169813.219063
1459770139.450823
-10039355918.377750
1413006508.843893
-10256219430.449282
1365365054.436460
-10466858241.376686
-10672223337.135103
1316876517.639180
1267866126.354684
-10871053575.232557
1218217165.993629
-11063265910.571159
1168352742.950616
-11248386671.191309
1118089993.611962
-11426513411.027740
1068295005.396610
-11597318926.063883
1018489389.666532
-11760230252.283161
969408774.865017
-11915312788.644655
920460884.894694
-12062256090.164421
872037284.198850
-12200601505.793257
824708160.139458
-12330530298.063528
778340976.676119
-12451633155.442343
732818406.195150
-12563779669.429449
688629278.607466
-12666838630.983921
645525994.840041
-12760418288.146162
603800589.287476
-12845011062.407619
563680786.393059
-12919617154.735668
525015827.043365
-12984861284.670443
487804297.673394
452223306.686035
-13040301509.719971
418616492.573261
-13085938918.892019
386701649.189017
-13122068900.170015
356723873.033563
-13148250549.594353
328254728.009528
-13164468146.664776
301800041.052173
-13170657857.413393
277456039.096757
-13167213323.348228
254974697.562225
-13153890912.009422
234551773.432522
-13130871272.905005
215839899.594224
-13098287180.067081
199019062.055616
-13055927105.536053
184315946.727618
-13003824480.811657
171401409.569831
-12942898886.958633
160387874.001200
-12872464085.525410
151127220.521986
-12792930102.020014
143797170.559420
-12704348215.982578
138134354.064818
-12606932645.461794
134513475.498041
-12501374021.030426
132262365.351064
-12387066798.188211
131755966.075459
-12264701369.516211
132598984.606489
-12134705183.054817
135265893.444411
-11996704096.893116
139214556.548830
-11851402861.022820
144770951.887635
-11698968618.557350
151164605.952798
-11539713516.512766
159491119.204182
-11373852811.470121
168603186.133760
-11201306660.494156
178875936.709421
-11023174868.649611
190259555.431426
-10839443504.033854
202441282.259377
-10649851086.146629
215912161.209849
-10455662861.133987
229819135.275075
-10256617110.503958
244620530.947028
-10052864405.853653
259986540.685569
-9845405584.748070
276163299.523329
-9634129262.300632
292904145.968855
-9419413922.068060
310027391.981751
-9201475433.655743
327647862.602933
-8980872692.136713
345486366.332663
-8758083523.600050
363477078.703829
-8532946727.659443
382110481.184062
-8306217432.355286
400501736.822567
-8078046346.325609
419288970.603289
-7848943025.127124
437882495.567147
-7619122912.857202
456543979.730714
-7388735117.072555
475272947.110567
-7158208874.411208
493840771.771965
-6928005201.454221
511869157.674510
-6698241425.815276
530014589.916094
-6469149801.099772
547883426.988689
-6241273025.897053
565376650.917157
-6014842928.304485
582560785.758471
-5789681310.911415
599124434.561837
-5566561099.323238
615427994.851856
-5345500891.645616
631340719.185762
-5126928936.459598
646535490.112501
-4910635681.919531
661077555.164961
-4697327479.098441
675132117.432746
-4487171420.634357
688501905.416116
-4280054845.116621
701008245.720989
-4076112877.723920
713142607.871967
-3876132988.988621
724250381.934311
-3679758971.605727
734757501.432624
-3487171850.115895
744141228.972822
-3298834054.665180
752287013.595824
-3114501613.851212
760015418.391233
-2934242515.771362
766376495.916282
-2758452803.555630
771797405.744257
-2587217224.334017
776131441.940421
-2420423729.720207
779232324.078059
-2258123072.795516
780936536.714404
-2100696138.738629
781442476.447089
-1947881771.606519
780733896.317029
-1799732563.553529
778665503.954485
-1656562024.685317
774664421.908403
-1517717434.615568
769551400.784700
-1384019781.941912
762295424.156664
-1254981174.335007
753554203.170870
-1130488149.843539
742934283.835607
-1011134535.170795
730618854.321792
-896396842.857433
716231883.170082
-786196167.549769
699627039.478369
-680650024.377802
681019529.352309
-579792969.939164
660213494.857164
-483152082.339511
636916000.106878
-391238467.741474
611014333.215397
-303397566.685712
582640929.272323
-220223205.875511
551944845.358973
-140765913.851530
518010928.621920
-65635100.776400
481610640.626167
5544276.752251
441943329.001972
72638932.628763
399371230.346966
136220330.739192
353289499.750752
195712441.945249
304372095.318988
251769825.706277
-97248854.142479
207109786.040492
-259010749.579050
349701965.534659
-426797599.582960
485835064.013992
-600836566.048552
615457340.340204
-780503318.853593
738434707.866979
-966451003.892425
854978983.021030
-1158087821.051103
964759471.156041
-1355297719.240024
1068380404.158066
-1557767613.861557
1165265327.380791
-1765642184.261100
1255887775.742900
-1978445544.373393
1339950248.106105
-2196174679.552120
1417531837.340405
-2418616460.756363
1488990402.307514
-2645374895.331521
1554291148.418088
-2876169666.679960
1613415102.533839
-3111148093.760766
1666588626.008452
-3349373086.411306
1713662849.276927
-3591402364.131321
1755272933.152291
-3836527837.725551
1791023635.045200
-4084044432.645050
1821436228.309340
-4334458927.791926
1846230396.347081
-4587081406.568553
1866270625.496051
-4841467950.369010
1880948919.158621
-5097224405.611722
1890770354.204790
-5354530621.264059
1896223811.020873
-5612631195.203789
1896553411.501212
-5871098967.857623
1892738567.975150
-6130032106.184644
1885055356.345315
-6388806467.578934
1872976899.473421
-6646897389.007863
1857369284.778411
-6903976065.373541
1838343572.589629
-7160106907.578076
1815832012.801415
-7414322884.588840
1790192788.832716
-7666951351.848598
1761455466.520900
-7916811298.267750
1730208405.825571
-8164410678.321691
1696463562.535411
-8408569331.936875
1659924185.577395
-8649368804.080669
1621733476.805466
-8886349405.171501
1581528774.113967
-9119314202.652138
1539634504.864869
-9347559348.022320
1496031219.936461
-9571050948.184153
1451274749.280056
-9789198616.588694
1405525067.233285
-10002069216.235422
1358730995.206805
-10208776222.526711
1311152412.619561
-10409354105.494665
1263326738.833524
-10603228062.049685
1214777611.800010
-10790251299.691511
1166189481.372964
-10970408335.911594
1117591437.406329
-11142993295.620331
1068965869.851422
-11307909764.366148
1020998029.102844
-11464960384.083782
973193755.546909
-11613834760.264692
926272293.626906
-11754336948.408611
879968008.713094
-11886008059.474623
834623738.756788
-12009012409.446156
790170882.636276
-12122925478.363604
746934242.746159
-12227369922.153421
704732131.046039
-12322920644.856003
664183461.389863
-12408710383.479118
624778490.704601
-12484870260.498167
586874738.909459
-12551582014.428940
550830439.898779
-12608403515.263151
516299827.640451
-12655352236.008568
483427718.520790
-12692053234.213615
452261800.499399
-12719227456.353689
423078099.003509
-12736090359.977219
395824822.419435
-12742986485.067625
370025745.739411
-12740163481.173334
346579536.866065
-12727147063.310402
324992173.226630
-12704446224.486595
305213038.780709
-12672030273.766655
287321788.947246
-12629670924.158344
271381882.661502
-12577615587.218380
257327120.423736
-12516389639.954531
245104859.604208
-12445732827.915220
234648900.703178
-12365695341.632814
226350570.172222
-12276820168.163773
219651160.454626
-12179289183.064800
214515588.493938
-12072629139.884329
211385183.757788
-11957938430.122095
209635464.697752
-11834827328.407839
209609406.306060
-11704066546.241302
211026829.026002
-11565559856.687223
214034099.849809
-11419424212.326658
218366997.712741
-11266168981.200003
224073585.607032
-11106255417.880030
231218548.516625
-10939685974.464104
239161020.893097
-10766789419.959991
248490350.753021
-10588109065.981382
259008040.547974
-10403631031.101046
270288055.802557
-10214077675.359371
282656186.968346
-10019222262.370052
295750897.037573
-9820000382.165194
309703020.018526
-9616102952.850456
324445505.395410
-9408728934.506632
339388478.692827
-9197634406.206751
355317282.903010
-8983199878.096869
371542325.985562
-8765918334.217382
388014968.014030
-8546038412.173686
405012272.948017
-8323890857.087498
422238852.804098
-8100296095.007502
440055292.623190
-7874766096.563436
457445120.905554
-7648220017.312015
475374092.159738
-7420775184.866921
492892684.451000
-7192975148.833556
510736288.230918
-6964558991.260602
528267290.589093
-6736841110.294116
545828854.034072
-6509137056.080153
563125403.066117
-6282300022.667397
580191068.774830
-6056644558.693877
596876693.128100
-5831943552.740648
613331520.723559
-5609198455.397053
629488688.561725
-5388085452.325461
644824471.191546
-5169211977.574558
659913433.710910
-4952663016.266058
674427232.620078
-4738523741.037987
688448112.476283
-4527566413.996004
701649330.861099
-4319450649.286163
714490014.807158
-4114620653.981493
726184244.388006
-3913113624.293308
737354561.128247
-3715193168.262008
747789336.117484
-3521124632.050221
757406973.912948
-3331139656.239004
765814633.547271
-3145076614.934013
773373888.118342
-2963021055.805907
779987558.724052
-2785712523.435742
785606868.397031
-2612645702.961804
790036759.743197
-2443970502.481465
793146297.803467
-2280132917.665382
795018578.151130
-2120512570.619213
795671722.908418
-1965964068.956643
795073339.107961
-1815785727.807673
792781996.331335
-1670667463.769933
789077773.184457
-1530350998.505793
783896922.264959
-1395067496.612883
776880120.670729
-1264312068.737520
768159002.950714
-1138283349.469045
757556922.300173
-1017001537.994432
745155135.219368
-900697423.878680
730563627.870928
-789144645.768106
714175753.295771
-682247488.800998
695403476.091528
-579778603.566697
674478948.912801
-481888035.203492
651058244.800508
-388676914.841383
625078842.400965
-299705463.618658
596508723.779431
-215270194.616633
565416201.590510
-134817066.481622
531475384.431833
-58774039.327571
494409107.393000
12954176.199204
454579794.587959
81152836.525416
411514524.122367
145343791.004749
365116730.118457
315437778.681887
205589986.498916
262349186.950944
-33060241.656454
149675627.143140
-164965076.589032
294416030.992381
-324299054.600283
432991602.327049
-493144499.743190
565251870.500828
-669328356.834100
690606261.448458
-849963106.960340
809772844.039939
-1030146807.386549
-1178773358.132674
933295175.372669
-1375940731.042022
-1278023817.715201
1030204811.987201
-1579960382.508727
-1484332335.681225
1127887131.376835
-1687224878.853982
-1793031282.522843
1217987876.995000
-1901066387.507705
-2009756112.930698
1290702677.777304
-2225476241.512424
-2112644996.980008
1388552253.196330
-2334439697.926536
-2450610383.030590
1462585971.419662
-2694839372.979644
-2557961964.731595
1530855036.311063
-2860132776.240158
1592423583.756585
-3083393016.289926
1648239433.658860
-3319571322.892707
1707774158.891347
-3560382623.983942
1743781376.876324
-3805166923.532744
1781379920.815820
-4051035122.292573
1813833596.279560
-4293866730.990220
1841270292.646552
-4503004222.867374
1863520014.530830
-4811342970.073149
1880612830.931828
-5066827216.667509
1892710813.110982
1898742159.332690
-5324652561.712019
1903171826.166415
1901407484.708142
-5583257907.633263
1902526303.324598
1903070627.884845
-5842627108.422956
1897729199.205648
1900443153.561117
1893468860.881941
1888556412.012445
-6159713779.205106
1882811522.812194
1876251902.239804
-6397599066.682343
1868698225.120532
1859074295.041891
-6660528970.874126
1849753689.038695
1837753491.713110
-6927172274.802414
1820762089.371199
-7265364742.666219
1795634065.449876
-7699832178.666144
1767550846.599806
-7901453344.678501
1736100959.503622
-8102431117.173252
1702419346.258811
-8399588405.188278
1666992594.026846
-8643591411.662798
1635251673.643986
-8884270269.246983
1586648496.769779
-9164315586.370613
1544398855.254555
-9359484827.661837
1500752857.149621
-9580573020.107389
1445944566.510302
-9802248385.034275
1409320157.015247
-10020252726.171883
1371856301.295513
-10232488193.522261
-10428946215.774340
-10586073683.090872
1286462779.406704
-10782667064.556992
-10686123669.672550
1223219176.872139
-10979210861.454840
-10878622567.442152
1171686061.413922
-11064515640.453037
-11155740173.161747
1122987073.833602
-11239349713.582935
-11332784465.605139
1079125887.581913
-11406207851.471201
-11493940838.016941
1019793289.629611
-11568774594.551231
-11656455739.007887
971539755.479373
-11722046593.157156
-11821362427.431246
923318428.054669
-11915254490.180225
876307541.790498
-12042214412.962151
829815478.057122
-12166610340.660364
775331057.031411
-12284064796.573380
738719347.043109
-12393277878.598633
696913342.376263
-12491313466.277088
654833469.740588
-12578632494.653883
614575819.179845
-12646634032.840235
575204759.605757
-12734515878.583303
538512590.744289
-12795492150.508455
503644298.438949
475931582.909428
-12846762071.483097
460077914.622185
443637672.227884
-12888161051.441975
427864875.793264
410646412.208376
-12919625631.449827
397135694.808628
382528759.402824
-12947419427.299196
368489122.552136
354051713.614572
-12952148768.705984
329391440.685761
343073235.349985
-12952924881.821983
319349641.841686
306089867.748115
-12947376233.658340
281930130.178018
296566258.614981
-12932449409.953409
269169141.374579
-12900737053.304262
251509507.868016
-12863118557.625948
235756520.410742
-12816051010.189266
221038297.606827
-12759616806.977642
208961325.719347
-12693490720.088448
198900008.028967
-12618345582.529451
191151381.393943
-12517057135.733185
182039002.612161
-12436674936.347235
176871580.627856
-12339503075.242285
173316515.517050
-12227574065.589172
171456446.728673
-12110621730.689655
171239770.165354
-11986705941.249941
172354713.843669
-11858380885.556166
-11766589498.678234
175004022.697566
-11667819031.041948
-11599536802.015448
179436171.492288
-11513082922.853621
-11443172456.882416
184735201.122817
-11287725199.152840
-11357434109.075415
191461133.473282
-11197650565.091667
-11115611440.130146
197655542.330577
-10945816683.375864
-11029232949.407465
209282075.989232
-10845843085.240152
-10760238225.186523
219482007.981382
-10567786632.749798
-10661564826.531977
230806740.022505
-10425165234.556667
243172275.047861
-10237895065.340471
256136995.122711
-10035838464.668503
273384721.628188
-9832642199.302290
285671339.193291
-9626404307.985266
300643571.017397
-9414937114.417912
316224649.630011
-9206442486.503702
332757132.279105
-9026506868.492004
349423461.673463
-8762175033.517715
366807430.801436
-8539740121.251090
383407648.213165
394853013.253946
-8315284511.515262
407239491.770065
415316590.259649
-8089254062.939964
425815745.818412
433807454.621483
-7861814029.090203
443545794.333572
451385357.192666
-7585964402.717336
461348792.174193
469827774.871679
-7396940019.472100
479130969.653288
487680736.454066
-7173793844.628356
498366227.031349
506576489.293138
-6946794209.418031
516164187.327179
524281737.474049
-6724207632.040009
538629878.995293
-6539921358.473834
555658932.233625
-6215733552.756105
572514341.413662
-6033953710.837121
589613364.913167
-5854868947.139750
606095077.549031
-5587558236.610213
622070628.633203
-5366504330.715147
635266610.550853
-5147576628.230372
653181241.786391
-4884453623.755720
667765104.202205
-4709188010.354272
681826481.727686
-4504975786.744660
697832654.511101
-4298756402.803538
707700325.449046
-4094972009.972276
717548015.205552
-3896953865.382403
732696812.070382
-3708589642.665995
739730988.896761
-3569796845.206728
-3458001990.502920
752502001.898498
-3370801183.954461
-3266393235.109501
759243830.159194
-3175116144.698540
-3084715893.347150
766574294.570857
-2993979886.889230
-2906707019.654951
771957848.601939
-2816675445.633655
-2733410682.829516
778614432.962363
-2638154274.360228
-2555195069.850830
783125936.172671
-2471355542.400392
-2393199648.314000
786287758.251426
-2301522750.446861
788034125.206917
-2181096781.215085
788628919.161375
-2031345059.557275
787656891.406783
-1881413459.463133
785334631.529628
-1734931986.321501
781805375.685405
-1593425311.228484
776627970.647914
-1457356601.855906
769469349.490720
-1328708513.475204
760911592.349589
-1222427730.351940
750271514.947075
-1073796813.119453
738233534.162152
-955820067.217178
728165845.478062
719739607.007331
-842510847.771655
711901812.449906
702552912.006206
-734232054.880255
692885348.323161
682802965.497343
-629871552.656922
672630630.848277
661945515.056001
-510490920.369977
637606247.023570
649859165.404042
-432535431.988482
624254077.919345
611098343.297984
-345108343.492030
581780874.744626
596729933.683587
-261040792.851454
564044263.465955
-188490174.771540
540028292.648610
-99490479.500531
506326985.833126
-25986104.909050
468201289.817881
43126591.830305
427258399.235428
109097585.421988
383024001.796419
170941917.547026
336528014.733837
294404009.171520
229436945.396268
