# vtk DataFile Version 2.0
Generated volume Mesh
ASCII
DATASET UNSTRUCTURED_GRID
POINTS 1240 float
-0.212153 -0.150304 0.000000
-0.206421 -0.141033 0.000000
-0.215099 -0.146056 0.000000
-0.209122 -0.154492 0.000000
-0.217961 -0.141751 0.000000
-0.206009 -0.158620 0.000000
-0.220736 -0.137389 0.000000
-0.202815 -0.162684 0.000000
-0.223424 -0.132973 0.000000
-0.226023 -0.128505 0.000000
-0.199540 -0.166684 0.000000
-0.228534 -0.123985 0.000000
-0.196187 -0.170619 0.000000
-0.230953 -0.119417 0.000000
-0.192756 -0.174486 0.000000
-0.233282 -0.114802 0.000000
-0.189249 -0.178283 0.000000
-0.235519 -0.110141 0.000000
-0.185666 -0.182011 0.000000
-0.237662 -0.105436 0.000000
-0.182011 -0.185666 0.000000
-0.239711 -0.100690 0.000000
-0.178283 -0.189249 0.000000
-0.241666 -0.095904 0.000000
-0.174486 -0.192756 0.000000
-0.243525 -0.091081 0.000000
-0.170619 -0.196187 0.000000
-0.245288 -0.086221 0.000000
-0.166684 -0.199540 0.000000
-0.246953 -0.081327 0.000000
-0.162684 -0.202815 0.000000
-0.248521 -0.076401 0.000000
-0.158620 -0.206009 0.000000
-0.249991 -0.071445 0.000000
-0.154492 -0.209122 0.000000
-0.251363 -0.066459 0.000000
-0.150304 -0.212153 0.000000
-0.252634 -0.061448 0.000000
-0.146056 -0.215099 0.000000
-0.253806 -0.056412 0.000000
-0.141751 -0.217961 0.000000
-0.137389 -0.220736 0.000000
-0.254878 -0.051354 0.000000
-0.132973 -0.223424 0.000000
-0.255849 -0.046275 0.000000
-0.128505 -0.226023 0.000000
-0.256718 -0.041179 0.000000
-0.123985 -0.228534 0.000000
-0.257486 -0.036067 0.000000
-0.119417 -0.230953 0.000000
-0.258152 -0.030940 0.000000
-0.114802 -0.233282 0.000000
-0.258717 -0.025802 0.000000
-0.110141 -0.235519 0.000000
-0.259178 -0.020654 0.000000
-0.105436 -0.237662 0.000000
-0.259538 -0.015498 0.000000
-0.100690 -0.239711 0.000000
-0.259794 -0.010336 0.000000
-0.095904 -0.241666 0.000000
-0.259949 -0.005169 0.000000
-0.091081 -0.243525 0.000000
-0.260000 0.000000 0.000000
-0.259949 0.005169 0.000000
-0.086221 -0.245288 0.000000
-0.259794 0.010336 0.000000
-0.081327 -0.246953 0.000000
-0.259538 0.015498 0.000000
-0.076401 -0.248521 0.000000
-0.259178 0.020654 0.000000
-0.071445 -0.249991 0.000000
-0.258717 0.025802 0.000000
-0.066459 -0.251363 0.000000
-0.258152 0.030940 0.000000
-0.061448 -0.252634 0.000000
-0.257486 0.036067 0.000000
-0.056412 -0.253806 0.000000
-0.256718 0.041179 0.000000
-0.051354 -0.254878 0.000000
-0.255849 0.046275 0.000000
-0.046275 -0.255849 0.000000
-0.254878 0.051354 0.000000
-0.041179 -0.256718 0.000000
-0.253806 0.056412 0.000000
-0.036067 -0.257486 0.000000
-0.252634 0.061448 0.000000
-0.030940 -0.258152 0.000000
-0.251363 0.066459 0.000000
-0.025802 -0.258717 0.000000
-0.249991 0.071445 0.000000
-0.020654 -0.259178 0.000000
-0.248521 0.076401 0.000000
-0.015498 -0.259538 0.000000
-0.010336 -0.259794 0.000000
-0.246953 0.081327 0.000000
-0.005169 -0.259949 0.000000
-0.245288 0.086221 0.000000
0.000000 -0.260000 0.000000
-0.243525 0.091081 0.000000
0.005169 -0.259949 0.000000
-0.241666 0.095904 0.000000
0.010336 -0.259794 0.000000
-0.239711 0.100690 0.000000
0.015498 -0.259538 0.000000
-0.237662 0.105436 0.000000
0.020654 -0.259178 0.000000
-0.235519 0.110141 0.000000
0.025802 -0.258717 0.000000
-0.233282 0.114802 0.000000
0.030940 -0.258152 0.000000
-0.230953 0.119417 0.000000
0.036067 -0.257486 0.000000
-0.228534 0.123985 0.000000
0.041179 -0.256718 0.000000
-0.226023 0.128505 0.000000
-0.223424 0.132973 0.000000
0.046275 -0.255849 0.000000
-0.220736 0.137389 0.000000
0.051354 -0.254878 0.000000
-0.217961 0.141751 0.000000
0.056412 -0.253806 0.000000
-0.215099 0.146056 0.000000
0.061448 -0.252634 0.000000
-0.212153 0.150304 0.000000
0.066459 -0.251363 0.000000
-0.209122 0.154492 0.000000
0.071445 -0.249991 0.000000
-0.206009 0.158620 0.000000
0.076401 -0.248521 0.000000
-0.202815 0.162684 0.000000
0.081327 -0.246953 0.000000
-0.199540 0.166684 0.000000
0.086221 -0.245288 0.000000
-0.196187 0.170619 0.000000
0.091081 -0.243525 0.000000
-0.192756 0.174486 0.000000
0.095904 -0.241666 0.000000
-0.189249 0.178283 0.000000
0.100690 -0.239711 0.000000
-0.185666 0.182011 0.000000
0.105436 -0.237662 0.000000
-0.182011 0.185666 0.000000
0.110141 -0.235519 0.000000
-0.178283 0.189249 0.000000
0.114802 -0.233282 0.000000
-0.174486 0.192756 0.000000
0.119417 -0.230953 0.000000
0.123985 -0.228534 0.000000
-0.170619 0.196187 0.000000
0.128505 -0.226023 0.000000
-0.166684 0.199540 0.000000
0.132973 -0.223424 0.000000
-0.162684 0.202815 0.000000
0.137389 -0.220736 0.000000
-0.158620 0.206009 0.000000
0.141751 -0.217961 0.000000
-0.154492 0.209122 0.000000
0.146056 -0.215099 0.000000
-0.150304 0.212153 0.000000
0.150304 -0.212153 0.000000
-0.146056 0.215099 0.000000
0.154492 -0.209122 0.000000
-0.141751 0.217961 0.000000
0.158620 -0.206009 0.000000
-0.137389 0.220736 0.000000
0.162684 -0.202815 0.000000
-0.132973 0.223424 0.000000
-0.128505 0.226023 0.000000
0.166684 -0.199540 0.000000
-0.123985 0.228534 0.000000
0.170619 -0.196187 0.000000
-0.119417 0.230953 0.000000
0.174486 -0.192756 0.000000
-0.114802 0.233282 0.000000
0.178283 -0.189249 0.000000
-0.110141 0.235519 0.000000
0.182011 -0.185666 0.000000
-0.105436 0.237662 0.000000
0.185666 -0.182011 0.000000
-0.100690 0.239711 0.000000
0.189249 -0.178283 0.000000
-0.095904 0.241666 0.000000
0.192756 -0.174486 0.000000
-0.091081 0.243525 0.000000
0.196187 -0.170619 0.000000
-0.086221 0.245288 0.000000
0.199540 -0.166684 0.000000
-0.081327 0.246953 0.000000
0.202815 -0.162684 0.000000
-0.076401 0.248521 0.000000
0.206009 -0.158620 0.000000
-0.071445 0.249991 0.000000
0.209122 -0.154492 0.000000
-0.066459 0.251363 0.000000
0.212153 -0.150304 0.000000
-0.061448 0.252634 0.000000
0.215099 -0.146056 0.000000
-0.056412 0.253806 0.000000
0.217961 -0.141751 0.000000
0.220736 -0.137389 0.000000
-0.051354 0.254878 0.000000
0.223424 -0.132973 0.000000
-0.046275 0.255849 0.000000
0.226023 -0.128505 0.000000
-0.041179 0.256718 0.000000
0.228534 -0.123985 0.000000
-0.036067 0.257486 0.000000
0.230953 -0.119417 0.000000
-0.030940 0.258152 0.000000
0.233282 -0.114802 0.000000
-0.025802 0.258717 0.000000
0.235519 -0.110141 0.000000
-0.020654 0.259178 0.000000
0.237662 -0.105436 0.000000
-0.015498 0.259538 0.000000
0.239711 -0.100690 0.000000
-0.010336 0.259794 0.000000
0.241666 -0.095904 0.000000
-0.005169 0.259949 0.000000
0.243525 -0.091081 0.000000
0.000000 0.260000 0.000000
0.245288 -0.086221 0.000000
0.005169 0.259949 0.000000
0.246953 -0.081327 0.000000
0.010336 0.259794 0.000000
0.248521 -0.076401 0.000000
0.015498 0.259538 0.000000
0.249991 -0.071445 0.000000
0.020654 0.259178 0.000000
0.251363 -0.066459 0.000000
0.025802 0.258717 0.000000
0.252634 -0.061448 0.000000
0.030940 0.258152 0.000000
0.253806 -0.056412 0.000000
0.036067 0.257486 0.000000
0.254878 -0.051354 0.000000
0.041179 0.256718 0.000000
0.255849 -0.046275 0.000000
0.046275 0.255849 0.000000
0.256718 -0.041179 0.000000
0.051354 0.254878 0.000000
0.257486 -0.036067 0.000000
0.056412 0.253806 0.000000
0.258152 -0.030940 0.000000
0.061448 0.252634 0.000000
0.258717 -0.025802 0.000000
0.066459 0.251363 0.000000
0.259178 -0.020654 0.000000
0.071445 0.249991 0.000000
0.259538 -0.015498 0.000000
0.076401 0.248521 0.000000
0.259794 -0.010336 0.000000
0.081327 0.246953 0.000000
0.259949 -0.005169 0.000000
0.086221 0.245288 0.000000
0.260000 0.000000 0.000000
0.091081 0.243525 0.000000
0.259949 0.005169 0.000000
0.095904 0.241666 0.000000
0.259794 0.010336 0.000000
0.100690 0.239711 0.000000
0.259538 0.015498 0.000000
0.105436 0.237662 0.000000
0.259178 0.020654 0.000000
0.110141 0.235519 0.000000
0.258717 0.025802 0.000000
0.114802 0.233282 0.000000
0.258152 0.030940 0.000000
0.119417 0.230953 0.000000
0.257486 0.036067 0.000000
0.123985 0.228534 0.000000
0.256718 0.041179 0.000000
0.128505 0.226023 0.000000
0.255849 0.046275 0.000000
0.132973 0.223424 0.000000
0.254878 0.051354 0.000000
0.137389 0.220736 0.000000
0.253806 0.056412 0.000000
0.141751 0.217961 0.000000
0.252634 0.061448 0.000000
0.146056 0.215099 0.000000
0.251363 0.066459 0.000000
0.150304 0.212153 0.000000
0.249991 0.071445 0.000000
0.154492 0.209122 0.000000
0.248521 0.076401 0.000000
0.158620 0.206009 0.000000
0.246953 0.081327 0.000000
0.162684 0.202815 0.000000
0.245288 0.086221 0.000000
0.166684 0.199540 0.000000
0.243525 0.091081 0.000000
0.170619 0.196187 0.000000
0.241666 0.095904 0.000000
0.174486 0.192756 0.000000
0.239711 0.100690 0.000000
0.178283 0.189249 0.000000
0.237662 0.105436 0.000000
0.182011 0.185666 0.000000
0.235519 0.110141 0.000000
0.185666 0.182011 0.000000
0.233282 0.114802 0.000000
0.189249 0.178283 0.000000
0.230953 0.119417 0.000000
0.192756 0.174486 0.000000
0.228534 0.123985 0.000000
0.196187 0.170619 0.000000
0.226023 0.128505 0.000000
0.199540 0.166684 0.000000
0.223424 0.132973 0.000000
0.202815 0.162684 0.000000
0.220736 0.137389 0.000000
0.206009 0.158620 0.000000
0.217961 0.141751 0.000000
0.209122 0.154492 0.000000
0.215099 0.146056 0.000000
0.212153 0.150304 0.000000
-0.203462 -0.145269 0.000000
-0.209292 -0.136737 0.000000
-0.200416 -0.149443 0.000000
-0.212073 -0.132382 0.000000
-0.197285 -0.153553 0.000000
-0.214764 -0.127971 0.000000
-0.194070 -0.157598 0.000000
-0.217362 -0.123505 0.000000
-0.190771 -0.161575 0.000000
-0.219868 -0.118987 0.000000
-0.187391 -0.165483 0.000000
-0.222281 -0.114417 0.000000
-0.183931 -0.169320 0.000000
-0.224598 -0.109799 0.000000
-0.180392 -0.173086 0.000000
-0.226819 -0.105134 0.000000
-0.176777 -0.176777 0.000000
-0.228943 -0.100424 0.000000
-0.173086 -0.180392 0.000000
-0.230970 -0.095671 0.000000
-0.169320 -0.183931 0.000000
-0.232898 -0.090877 0.000000
-0.165483 -0.187391 0.000000
-0.234726 -0.086044 0.000000
-0.161575 -0.190771 0.000000
-0.236454 -0.081175 0.000000
-0.157598 -0.194070 0.000000
-0.238081 -0.076271 0.000000
-0.153553 -0.197285 0.000000
-0.239607 -0.071334 0.000000
-0.149443 -0.200416 0.000000
-0.241030 -0.066366 0.000000
-0.145269 -0.203462 0.000000
-0.242350 -0.061370 0.000000
-0.141033 -0.206421 0.000000
-0.243567 -0.056347 0.000000
-0.136737 -0.209292 0.000000
-0.244680 -0.051301 0.000000
-0.132382 -0.212073 0.000000
-0.245688 -0.046232 0.000000
-0.127971 -0.214764 0.000000
-0.246591 -0.041144 0.000000
-0.123505 -0.217362 0.000000
-0.247389 -0.036039 0.000000
-0.118987 -0.219868 0.000000
-0.248081 -0.030919 0.000000
-0.114417 -0.222281 0.000000
-0.248667 -0.025786 0.000000
-0.109799 -0.224598 0.000000
-0.249146 -0.020642 0.000000
-0.105134 -0.226819 0.000000
-0.249520 -0.015489 0.000000
-0.100424 -0.228943 0.000000
-0.249786 -0.010330 0.000000
-0.095671 -0.230970 0.000000
-0.249947 -0.005166 0.000000
-0.090877 -0.232898 0.000000
-0.250000 0.000000 0.000000
-0.086044 -0.234726 0.000000
-0.249947 0.005166 0.000000
-0.081175 -0.236454 0.000000
-0.249786 0.010330 0.000000
-0.076271 -0.238081 0.000000
-0.249520 0.015489 0.000000
-0.071334 -0.239607 0.000000
-0.249146 0.020642 0.000000
-0.066366 -0.241030 0.000000
-0.248667 0.025786 0.000000
-0.061370 -0.242350 0.000000
-0.248081 0.030919 0.000000
-0.056347 -0.243567 0.000000
-0.247389 0.036039 0.000000
-0.051301 -0.244680 0.000000
-0.246591 0.041144 0.000000
-0.046232 -0.245688 0.000000
-0.245688 0.046232 0.000000
-0.041144 -0.246591 0.000000
-0.244680 0.051301 0.000000
-0.036039 -0.247389 0.000000
-0.243567 0.056347 0.000000
-0.030919 -0.248081 0.000000
-0.242350 0.061370 0.000000
-0.025786 -0.248667 0.000000
-0.241030 0.066366 0.000000
-0.020642 -0.249146 0.000000
-0.239607 0.071334 0.000000
-0.015489 -0.249520 0.000000
-0.238081 0.076271 0.000000
-0.010330 -0.249786 0.000000
-0.236454 0.081175 0.000000
-0.005166 -0.249947 0.000000
-0.234726 0.086044 0.000000
-0.000000 -0.250000 0.000000
-0.232898 0.090877 0.000000
0.005166 -0.249947 0.000000
-0.230970 0.095671 0.000000
0.010330 -0.249786 0.000000
-0.228943 0.100424 0.000000
0.015489 -0.249520 0.000000
-0.226819 0.105134 0.000000
0.020642 -0.249146 0.000000
-0.224598 0.109799 0.000000
0.025786 -0.248667 0.000000
-0.222281 0.114417 0.000000
0.030919 -0.248081 0.000000
-0.219868 0.118987 0.000000
0.036039 -0.247389 0.000000
-0.217362 0.123505 0.000000
0.041144 -0.246591 0.000000
-0.214764 0.127971 0.000000
0.046232 -0.245688 0.000000
-0.212073 0.132382 0.000000
0.051301 -0.244680 0.000000
-0.209292 0.136737 0.000000
0.056347 -0.243567 0.000000
-0.206421 0.141033 0.000000
0.061370 -0.242350 0.000000
-0.203462 0.145269 0.000000
0.066366 -0.241030 0.000000
-0.200416 0.149443 0.000000
0.071334 -0.239607 0.000000
-0.197285 0.153553 0.000000
0.076271 -0.238081 0.000000
-0.194070 0.157598 0.000000
0.081175 -0.236454 0.000000
-0.190771 0.161575 0.000000
0.086044 -0.234726 0.000000
-0.187391 0.165483 0.000000
0.090877 -0.232898 0.000000
-0.183931 0.169320 0.000000
0.095671 -0.230970 0.000000
-0.180392 0.173086 0.000000
0.100424 -0.228943 0.000000
-0.176777 0.176777 0.000000
0.105134 -0.226819 0.000000
-0.173086 0.180392 0.000000
0.109799 -0.224598 0.000000
-0.169320 0.183931 0.000000
0.114417 -0.222281 0.000000
-0.165483 0.187391 0.000000
0.118987 -0.219868 0.000000
-0.161575 0.190771 0.000000
0.123505 -0.217362 0.000000
-0.157598 0.194070 0.000000
0.127971 -0.214764 0.000000
-0.153553 0.197285 0.000000
0.132382 -0.212073 0.000000
-0.149443 0.200416 0.000000
0.136737 -0.209292 0.000000
-0.145269 0.203462 0.000000
0.141033 -0.206421 0.000000
-0.141033 0.206421 0.000000
0.145269 -0.203462 0.000000
-0.136737 0.209292 0.000000
0.149443 -0.200416 0.000000
-0.132382 0.212073 0.000000
0.153553 -0.197285 0.000000
-0.127971 0.214764 0.000000
0.157598 -0.194070 0.000000
-0.123505 0.217362 0.000000
0.161575 -0.190771 0.000000
-0.118987 0.219868 0.000000
0.165483 -0.187391 0.000000
-0.114417 0.222281 0.000000
0.169320 -0.183931 0.000000
-0.109799 0.224598 0.000000
0.173086 -0.180392 0.000000
-0.105134 0.226819 0.000000
0.176777 -0.176777 0.000000
-0.100424 0.228943 0.000000
0.180392 -0.173086 0.000000
-0.095671 0.230970 0.000000
0.183931 -0.169320 0.000000
-0.090877 0.232898 0.000000
0.187391 -0.165483 0.000000
-0.086044 0.234726 0.000000
0.190771 -0.161575 0.000000
-0.081175 0.236454 0.000000
0.194070 -0.157598 0.000000
-0.076271 0.238081 0.000000
0.197285 -0.153553 0.000000
-0.071334 0.239607 0.000000
0.200416 -0.149443 0.000000
-0.066366 0.241030 0.000000
0.203462 -0.145269 0.000000
-0.061370 0.242350 0.000000
0.206421 -0.141033 0.000000
-0.056347 0.243567 0.000000
0.209292 -0.136737 0.000000
-0.051301 0.244680 0.000000
0.212073 -0.132382 0.000000
-0.046232 0.245688 0.000000
0.214764 -0.127971 0.000000
-0.041144 0.246591 0.000000
0.217362 -0.123505 0.000000
-0.036039 0.247389 0.000000
0.219868 -0.118987 0.000000
-0.030919 0.248081 0.000000
0.222281 -0.114417 0.000000
-0.025786 0.248667 0.000000
0.224598 -0.109799 0.000000
-0.020642 0.249146 0.000000
0.226819 -0.105134 0.000000
-0.015489 0.249520 0.000000
0.228943 -0.100424 0.000000
-0.010330 0.249786 0.000000
0.230970 -0.095671 0.000000
-0.005166 0.249947 0.000000
0.232898 -0.090877 0.000000
0.000000 0.250000 0.000000
0.234726 -0.086044 0.000000
0.005166 0.249947 0.000000
0.236454 -0.081175 0.000000
0.010330 0.249786 0.000000
0.238081 -0.076271 0.000000
0.015489 0.249520 0.000000
0.239607 -0.071334 0.000000
0.020642 0.249146 0.000000
0.241030 -0.066366 0.000000
0.025786 0.248667 0.000000
0.242350 -0.061370 0.000000
0.030919 0.248081 0.000000
0.243567 -0.056347 0.000000
0.036039 0.247389 0.000000
0.244680 -0.051301 0.000000
0.041144 0.246591 0.000000
0.245688 -0.046232 0.000000
0.046232 0.245688 0.000000
0.246591 -0.041144 0.000000
0.051301 0.244680 0.000000
0.247389 -0.036039 0.000000
0.056347 0.243567 0.000000
0.248081 -0.030919 0.000000
0.061370 0.242350 0.000000
0.248667 -0.025786 0.000000
0.066366 0.241030 0.000000
0.249146 -0.020642 0.000000
0.071334 0.239607 0.000000
0.249520 -0.015489 0.000000
0.076271 0.238081 0.000000
0.249786 -0.010330 0.000000
0.081175 0.236454 0.000000
0.249947 -0.005166 0.000000
0.086044 0.234726 0.000000
0.250000 -0.000000 0.000000
0.090877 0.232898 0.000000
0.249947 0.005166 0.000000
0.095671 0.230970 0.000000
0.249786 0.010330 0.000000
0.100424 0.228943 0.000000
0.249520 0.015489 0.000000
0.105134 0.226819 0.000000
0.249146 0.020642 0.000000
0.109799 0.224598 0.000000
0.248667 0.025786 0.000000
0.114417 0.222281 0.000000
0.248081 0.030919 0.000000
0.118987 0.219868 0.000000
0.247389 0.036039 0.000000
0.123505 0.217362 0.000000
0.246591 0.041144 0.000000
0.127971 0.214764 0.000000
0.245688 0.046232 0.000000
0.132382 0.212073 0.000000
0.244680 0.051301 0.000000
0.136737 0.209292 0.000000
0.243567 0.056347 0.000000
0.141033 0.206421 0.000000
0.242350 0.061370 0.000000
0.145269 0.203462 0.000000
0.241030 0.066366 0.000000
0.149443 0.200416 0.000000
0.239607 0.071334 0.000000
0.153553 0.197285 0.000000
0.238081 0.076271 0.000000
0.157598 0.194070 0.000000
0.236454 0.081175 0.000000
0.161575 0.190771 0.000000
0.234726 0.086044 0.000000
0.165483 0.187391 0.000000
0.232898 0.090877 0.000000
0.169320 0.183931 0.000000
0.230970 0.095671 0.000000
0.173086 0.180392 0.000000
0.228943 0.100424 0.000000
0.176777 0.176777 0.000000
0.226819 0.105134 0.000000
0.180392 0.173086 0.000000
0.224598 0.109799 0.000000
0.183931 0.169320 0.000000
0.222281 0.114417 0.000000
0.187391 0.165483 0.000000
0.219868 0.118987 0.000000
0.190771 0.161575 0.000000
0.217362 0.123505 0.000000
0.194070 0.157598 0.000000
0.214764 0.127971 0.000000
0.197285 0.153553 0.000000
0.212073 0.132382 0.000000
0.200416 0.149443 0.000000
0.209292 0.136737 0.000000
0.206421 0.141033 0.000000
0.203462 0.145269 0.000000
-0.211239 -0.145764 0.000000
-0.207348 -0.145506 0.000000
-0.208235 -0.149997 0.000000
-0.210271 -0.141224 0.000000
-0.214114 -0.141448 0.000000
-0.204348 -0.149730 0.000000
-0.205202 -0.154186 0.000000
-0.213130 -0.136835 0.000000
-0.216922 -0.137075 0.000000
-0.201224 -0.153860 0.000000
-0.202031 -0.158271 0.000000
-0.215878 -0.132424 0.000000
-0.219710 -0.132611 0.000000
-0.198030 -0.157923 0.000000
-0.198804 -0.162319 0.000000
-0.218605 -0.127699 0.000000
-0.222365 -0.128140 0.000000
-0.224875 -0.124872 0.000000
-0.194761 -0.161929 0.000000
-0.195479 -0.166293 0.000000
-0.221918 -0.123192 0.000000
-0.226380 -0.121036 0.000000
-0.191411 -0.165867 0.000000
-0.192076 -0.170180 0.000000
-0.223993 -0.118092 0.000000
-0.228835 -0.116386 0.000000
-0.187988 -0.169741 0.000000
-0.188629 -0.174050 0.000000
-0.226621 -0.113165 0.000000
-0.231077 -0.111640 0.000000
-0.184488 -0.173541 0.000000
-0.185072 -0.177780 0.000000
-0.228918 -0.108399 0.000000
-0.233287 -0.106944 0.000000
-0.180913 -0.177266 0.000000
-0.181487 -0.181485 0.000000
-0.231106 -0.103709 0.000000
-0.235397 -0.102211 0.000000
-0.177263 -0.180925 0.000000
-0.177757 -0.185116 0.000000
-0.233157 -0.098942 0.000000
-0.237414 -0.097442 0.000000
-0.173562 -0.184499 0.000000
-0.173989 -0.188666 0.000000
-0.235110 -0.094195 0.000000
-0.239353 -0.092615 0.000000
-0.169783 -0.188037 0.000000
-0.170176 -0.192088 0.000000
-0.237036 -0.089400 0.000000
-0.241145 -0.087789 0.000000
-0.165867 -0.191421 0.000000
-0.166261 -0.195470 0.000000
-0.238795 -0.084500 0.000000
-0.242869 -0.082916 0.000000
-0.161926 -0.194766 0.000000
-0.162296 -0.198817 0.000000
-0.240480 -0.079619 0.000000
-0.244533 -0.078015 0.000000
-0.157923 -0.198067 0.000000
-0.158264 -0.202046 0.000000
-0.242098 -0.074704 0.000000
-0.246013 -0.073093 0.000000
-0.153833 -0.201229 0.000000
-0.154141 -0.205206 0.000000
-0.243529 -0.069697 0.000000
-0.247451 -0.068123 0.000000
-0.149674 -0.204349 0.000000
-0.149938 -0.208289 0.000000
-0.244899 -0.064716 0.000000
-0.248766 -0.063116 0.000000
-0.145447 -0.207383 0.000000
-0.145696 -0.211247 0.000000
-0.246147 -0.059719 0.000000
-0.249987 -0.058081 0.000000
-0.141114 -0.210324 0.000000
-0.141350 -0.214172 0.000000
-0.247314 -0.054684 0.000000
-0.251085 -0.053025 0.000000
-0.136554 -0.213213 0.000000
-0.136933 -0.217186 0.000000
-0.133850 -0.219680 0.000000
-0.248378 -0.049626 0.000000
-0.252118 -0.047967 0.000000
-0.132090 -0.216717 0.000000
-0.130020 -0.221252 0.000000
-0.249339 -0.044548 0.000000
-0.253006 -0.042863 0.000000
-0.126984 -0.218897 0.000000
-0.125536 -0.223876 0.000000
-0.250196 -0.039452 0.000000
-0.253814 -0.037756 0.000000
-0.122403 -0.221788 0.000000
-0.120909 -0.226359 0.000000
-0.250948 -0.034339 0.000000
-0.254531 -0.032639 0.000000
-0.117810 -0.224233 0.000000
-0.116302 -0.228773 0.000000
-0.251590 -0.029207 0.000000
-0.255162 -0.027498 0.000000
-0.113063 -0.226648 0.000000
-0.111626 -0.231076 0.000000
-0.252152 -0.024064 0.000000
-0.255682 -0.022349 0.000000
-0.108405 -0.228923 0.000000
-0.106956 -0.233292 0.000000
-0.252595 -0.018895 0.000000
-0.256048 -0.017181 0.000000
-0.103699 -0.231093 0.000000
-0.102209 -0.235408 0.000000
-0.252917 -0.013716 0.000000
-0.256371 -0.011977 0.000000
-0.098950 -0.233168 0.000000
-0.097430 -0.237419 0.000000
-0.253145 -0.008502 0.000000
-0.256525 -0.006784 0.000000
-0.094186 -0.235148 0.000000
-0.092626 -0.239323 0.000000
-0.253246 -0.003274 0.000000
-0.256590 -0.001533 0.000000
-0.089365 -0.237021 0.000000
-0.087789 -0.241137 0.000000
-0.256677 0.003861 0.000000
-0.253142 0.002166 0.000000
-0.257115 0.007822 0.000000
-0.084514 -0.238796 0.000000
-0.082921 -0.242867 0.000000
-0.253720 0.007776 0.000000
-0.256519 0.011763 0.000000
-0.079606 -0.240458 0.000000
-0.078018 -0.244489 0.000000
-0.252852 0.013320 0.000000
-0.256068 0.016920 0.000000
-0.074694 -0.242036 0.000000
-0.073082 -0.246010 0.000000
-0.252611 0.018669 0.000000
-0.255656 0.022234 0.000000
-0.069735 -0.243513 0.000000
-0.068114 -0.247458 0.000000
-0.252141 0.023990 0.000000
-0.255162 0.027444 0.000000
-0.064743 -0.244887 0.000000
-0.063092 -0.248749 0.000000
-0.251604 0.029164 0.000000
-0.254573 0.032595 0.000000
-0.059717 -0.246147 0.000000
-0.058069 -0.249993 0.000000
-0.250974 0.034287 0.000000
-0.253840 0.037734 0.000000
-0.054678 -0.247313 0.000000
-0.053013 -0.251111 0.000000
-0.250231 0.039411 0.000000
-0.253024 0.042842 0.000000
-0.049616 -0.248377 0.000000
-0.047935 -0.252120 0.000000
-0.249361 0.044517 0.000000
-0.252111 0.047933 0.000000
-0.044539 -0.249350 0.000000
-0.042840 -0.253023 0.000000
-0.248407 0.049594 0.000000
-0.251110 0.053004 0.000000
-0.039431 -0.250212 0.000000
-0.037704 -0.253860 0.000000
-0.247324 0.054669 0.000000
-0.249985 0.058059 0.000000
-0.034308 -0.250972 0.000000
-0.032585 -0.254550 0.000000
-0.246143 0.059708 0.000000
-0.248743 0.063082 0.000000
-0.029143 -0.251616 0.000000
-0.027438 -0.255160 0.000000
-0.244868 0.064718 0.000000
-0.247429 0.068085 0.000000
-0.023984 -0.252155 0.000000
-0.022275 -0.255652 0.000000
-0.243509 0.069698 0.000000
-0.245994 0.073043 0.000000
-0.018760 -0.252599 0.000000
-0.017016 -0.256101 0.000000
-0.242036 0.074652 0.000000
-0.244469 0.077981 0.000000
-0.013287 -0.252844 0.000000
-0.011794 -0.256461 0.000000
-0.007824 -0.257115 0.000000
-0.240463 0.079574 0.000000
-0.242849 0.082888 0.000000
-0.007799 -0.253734 0.000000
-0.003878 -0.256704 0.000000
-0.238789 0.084463 0.000000
-0.241130 0.087762 0.000000
-0.002313 -0.253282 0.000000
0.001488 -0.256626 0.000000
-0.237016 0.089317 0.000000
-0.239316 0.092601 0.000000
0.003275 -0.253251 0.000000
0.006791 -0.256518 0.000000
-0.235145 0.094134 0.000000
-0.237412 0.097406 0.000000
0.008519 -0.253134 0.000000
0.011961 -0.256352 0.000000
-0.233173 0.098919 0.000000
-0.235426 0.102191 0.000000
0.013685 -0.252913 0.000000
0.017142 -0.256059 0.000000
-0.231127 0.103687 0.000000
-0.233295 0.106912 0.000000
0.018872 -0.252578 0.000000
0.022325 -0.255665 0.000000
-0.228942 0.108390 0.000000
-0.231092 0.111624 0.000000
0.024038 -0.252148 0.000000
0.027480 -0.255157 0.000000
-0.226657 0.113049 0.000000
-0.228780 0.116278 0.000000
0.029190 -0.251600 0.000000
0.032621 -0.254550 0.000000
-0.224272 0.117709 0.000000
-0.226385 0.120864 0.000000
0.034318 -0.250961 0.000000
0.037740 -0.253831 0.000000
-0.221796 0.122264 0.000000
-0.223999 0.125456 0.000000
0.039411 -0.250224 0.000000
0.042847 -0.253042 0.000000
-0.218901 0.126938 0.000000
-0.221364 0.129767 0.000000
-0.219680 0.133847 0.000000
0.044518 -0.249355 0.000000
0.047933 -0.252121 0.000000
-0.216712 0.132054 0.000000
-0.217004 0.137072 0.000000
0.049586 -0.248413 0.000000
0.052994 -0.251107 0.000000
-0.213232 0.136466 0.000000
-0.214223 0.141523 0.000000
0.054657 -0.247336 0.000000
0.058052 -0.250005 0.000000
-0.210309 0.141140 0.000000
-0.211239 0.145727 0.000000
0.059678 -0.246219 0.000000
0.063074 -0.248801 0.000000
-0.207382 0.145398 0.000000
-0.208266 0.149943 0.000000
0.064707 -0.244891 0.000000
0.068065 -0.247437 0.000000
-0.204377 0.149636 0.000000
-0.205190 0.154130 0.000000
0.069691 -0.243505 0.000000
0.073032 -0.246030 0.000000
-0.201236 0.153821 0.000000
-0.202041 0.158266 0.000000
0.074644 -0.242033 0.000000
0.077971 -0.244510 0.000000
-0.198078 0.157909 0.000000
-0.198801 0.162297 0.000000
0.079563 -0.240462 0.000000
0.082879 -0.242869 0.000000
-0.194813 0.161942 0.000000
-0.195518 0.166295 0.000000
0.084448 -0.238801 0.000000
0.087756 -0.241183 0.000000
-0.191439 0.165882 0.000000
-0.192093 0.170171 0.000000
0.089300 -0.237046 0.000000
0.092599 -0.239343 0.000000
-0.188003 0.169744 0.000000
-0.188653 0.173995 0.000000
0.094143 -0.235202 0.000000
0.097411 -0.237436 0.000000
-0.184499 0.173533 0.000000
-0.185108 0.177774 0.000000
0.098956 -0.233189 0.000000
0.102214 -0.235430 0.000000
-0.180925 0.177258 0.000000
-0.181476 0.181471 0.000000
0.103685 -0.231103 0.000000
0.106930 -0.233289 0.000000
-0.177298 0.180905 0.000000
-0.177799 0.185107 0.000000
0.108419 -0.228930 0.000000
0.111656 -0.231091 0.000000
-0.173586 0.184506 0.000000
-0.174021 0.188619 0.000000
0.113144 -0.226627 0.000000
0.116347 -0.228895 0.000000
-0.169775 0.188019 0.000000
-0.170198 0.192078 0.000000
0.118125 -0.224048 0.000000
0.120958 -0.226462 0.000000
0.124847 -0.224898 0.000000
-0.165874 0.191414 0.000000
-0.166269 0.195460 0.000000
0.123118 -0.221704 0.000000
0.128317 -0.222427 0.000000
-0.161942 0.194765 0.000000
-0.162298 0.198777 0.000000
0.127741 -0.218738 0.000000
0.132718 -0.219773 0.000000
-0.157941 0.198061 0.000000
-0.158267 0.202017 0.000000
0.132458 -0.215906 0.000000
0.137099 -0.216943 0.000000
-0.153841 0.201233 0.000000
-0.154157 0.205176 0.000000
0.136835 -0.213143 0.000000
0.141446 -0.214140 0.000000
-0.149697 0.204336 0.000000
-0.149986 0.208241 0.000000
0.141204 -0.210307 0.000000
0.145766 -0.211267 0.000000
-0.145494 0.207364 0.000000
-0.145771 0.211274 0.000000
0.145482 -0.207382 0.000000
0.149974 -0.208247 0.000000
-0.141205 0.210328 0.000000
-0.141442 0.214144 0.000000
0.149675 -0.204345 0.000000
0.154126 -0.205199 0.000000
-0.136819 0.213112 0.000000
-0.137086 0.216926 0.000000
0.153844 -0.201265 0.000000
0.158238 -0.202080 0.000000
-0.132440 0.215878 0.000000
-0.132694 0.219723 0.000000
0.157910 -0.198046 0.000000
0.162291 -0.198796 0.000000
-0.127703 0.218560 0.000000
-0.128168 0.222340 0.000000
-0.124872 0.224869 0.000000
0.161934 -0.194783 0.000000
0.166261 -0.195477 0.000000
-0.123151 0.221907 0.000000
-0.120918 0.226405 0.000000
0.165879 -0.191440 0.000000
0.170170 -0.192099 0.000000
-0.117906 0.223946 0.000000
-0.116364 0.228838 0.000000
0.169751 -0.188007 0.000000
0.173993 -0.188654 0.000000
-0.113240 0.226633 0.000000
-0.111662 0.231084 0.000000
0.173542 -0.184492 0.000000
0.177760 -0.185096 0.000000
-0.108422 0.228922 0.000000
-0.106961 0.233288 0.000000
0.177261 -0.180914 0.000000
0.181485 -0.181471 0.000000
-0.103737 0.231113 0.000000
-0.102262 0.235399 0.000000
0.180916 -0.177255 0.000000
0.185091 -0.177759 0.000000
-0.098948 0.233164 0.000000
-0.097431 0.237399 0.000000
0.184491 -0.173524 0.000000
0.188622 -0.173999 0.000000
-0.094143 0.235127 0.000000
-0.092613 0.239321 0.000000
0.187992 -0.169728 0.000000
0.192102 -0.170181 0.000000
-0.089317 0.237012 0.000000
-0.087764 0.241132 0.000000
0.191418 -0.165860 0.000000
0.195491 -0.166265 0.000000
-0.084463 0.238789 0.000000
-0.082889 0.242851 0.000000
0.194761 -0.161927 0.000000
0.198782 -0.162297 0.000000
-0.079574 0.240463 0.000000
-0.077984 0.244481 0.000000
0.198034 -0.157937 0.000000
0.202051 -0.158287 0.000000
-0.074655 0.242028 0.000000
-0.073067 0.246024 0.000000
0.201260 -0.153870 0.000000
0.205213 -0.154172 0.000000
-0.069704 0.243501 0.000000
-0.068084 0.247440 0.000000
0.204378 -0.149650 0.000000
0.208273 -0.149949 0.000000
-0.064720 0.244869 0.000000
-0.063076 0.248748 0.000000
0.207393 -0.145398 0.000000
0.211241 -0.145689 0.000000
-0.059719 0.246146 0.000000
-0.058059 0.249953 0.000000
0.210313 -0.141108 0.000000
0.214198 -0.141341 0.000000
-0.054684 0.247314 0.000000
-0.053013 0.251069 0.000000
0.213186 -0.136480 0.000000
0.217027 -0.137061 0.000000
0.219675 -0.133904 0.000000
-0.049626 0.248378 0.000000
-0.047946 0.252085 0.000000
0.216699 -0.132106 0.000000
0.221261 -0.130034 0.000000
-0.044548 0.249339 0.000000
-0.042859 0.253000 0.000000
0.218972 -0.126947 0.000000
0.223829 -0.125513 0.000000
-0.039452 0.250196 0.000000
-0.037755 0.253811 0.000000
0.221761 -0.122278 0.000000
0.226348 -0.120860 0.000000
-0.034339 0.250948 0.000000
-0.032636 0.254520 0.000000
0.224241 -0.117692 0.000000
0.228771 -0.116275 0.000000
-0.029212 0.251597 0.000000
-0.027501 0.255124 0.000000
0.226657 -0.113049 0.000000
0.231079 -0.111599 0.000000
-0.024064 0.252125 0.000000
-0.022349 0.255632 0.000000
0.228947 -0.108402 0.000000
0.233301 -0.106928 0.000000
-0.018895 0.252587 0.000000
-0.017177 0.256059 0.000000
0.231124 -0.103682 0.000000
0.235410 -0.102221 0.000000
-0.013722 0.252906 0.000000
-0.011984 0.256358 0.000000
0.233165 -0.098925 0.000000
0.237410 -0.097418 0.000000
-0.008503 0.253124 0.000000
-0.006797 0.256513 0.000000
0.235127 -0.094138 0.000000
0.239324 -0.092617 0.000000
-0.003298 0.253224 0.000000
-0.001537 0.256626 0.000000
0.236998 -0.089320 0.000000
0.241141 -0.087778 0.000000
0.002151 0.253099 0.000000
0.003665 0.256640 0.000000
0.007850 0.257154 0.000000
0.238771 -0.084467 0.000000
0.242860 -0.082904 0.000000
0.007797 0.253617 0.000000
0.011936 0.256414 0.000000
0.240446 -0.079578 0.000000
0.244481 -0.077996 0.000000
0.013338 0.252784 0.000000
0.017146 0.256139 0.000000
0.242028 -0.074654 0.000000
0.246037 -0.073052 0.000000
0.018795 0.252575 0.000000
0.022298 0.255656 0.000000
0.243509 -0.069698 0.000000
0.247448 -0.068073 0.000000
0.023967 0.252157 0.000000
0.027442 0.255166 0.000000
0.244876 -0.064709 0.000000
0.248758 -0.063061 0.000000
0.029162 0.251616 0.000000
0.032604 0.254548 0.000000
0.246144 -0.059697 0.000000
0.249992 -0.058030 0.000000
0.034292 0.250979 0.000000
0.037736 0.253859 0.000000
0.247309 -0.054662 0.000000
0.251104 -0.052986 0.000000
0.039431 0.250218 0.000000
0.042858 0.253073 0.000000
0.248369 -0.049609 0.000000
0.252103 -0.047938 0.000000
0.044531 0.249396 0.000000
0.047946 0.252110 0.000000
0.249327 -0.044538 0.000000
0.253015 -0.042853 0.000000
0.049638 0.248392 0.000000
0.053019 0.251075 0.000000
0.250196 -0.039452 0.000000
0.253860 -0.037736 0.000000
0.054696 0.247309 0.000000
0.058069 0.249954 0.000000
0.251003 -0.034313 0.000000
0.254598 -0.032621 0.000000
0.059722 0.246136 0.000000
0.063114 0.248759 0.000000
0.251639 -0.029149 0.000000
0.255178 -0.027455 0.000000
0.064734 0.244874 0.000000
0.068093 0.247429 0.000000
0.252168 -0.023976 0.000000
0.255662 -0.022304 0.000000
0.069737 0.243542 0.000000
0.073050 0.246037 0.000000
0.252584 -0.018806 0.000000
0.256143 -0.017147 0.000000
0.074663 0.242036 0.000000
0.077996 0.244480 0.000000
0.252817 -0.013347 0.000000
0.256442 -0.011927 0.000000
0.257154 -0.007852 0.000000
0.079584 0.240452 0.000000
0.082921 0.242866 0.000000
0.253690 -0.007780 0.000000
0.256642 -0.003691 0.000000
0.084471 0.238773 0.000000
0.087778 0.241141 0.000000
0.253096 -0.002165 0.000000
0.256647 0.001559 0.000000
0.089321 0.236998 0.000000
0.092617 0.239324 0.000000
0.253243 0.003287 0.000000
0.256520 0.006794 0.000000
0.094136 0.235126 0.000000
0.097418 0.237410 0.000000
0.253129 0.008465 0.000000
0.256359 0.011971 0.000000
0.098915 0.233157 0.000000
0.102180 0.235399 0.000000
0.252942 0.013681 0.000000
0.256098 0.017161 0.000000
0.103663 0.231094 0.000000
0.106917 0.233294 0.000000
0.252587 0.018892 0.000000
0.255640 0.022345 0.000000
0.108396 0.228944 0.000000
0.111598 0.231082 0.000000
0.252126 0.024061 0.000000
0.255131 0.027498 0.000000
0.113048 0.226663 0.000000
0.116271 0.228781 0.000000
0.251586 0.029205 0.000000
0.254568 0.032637 0.000000
0.117706 0.224256 0.000000
0.120852 0.226357 0.000000
0.250942 0.034329 0.000000
0.253839 0.037736 0.000000
0.122248 0.221776 0.000000
0.125477 0.223846 0.000000
0.250188 0.039438 0.000000
0.253035 0.042843 0.000000
0.126912 0.218965 0.000000
0.130002 0.221279 0.000000
0.249333 0.044533 0.000000
0.252125 0.047929 0.000000
0.132108 0.216694 0.000000
0.133891 0.219601 0.000000
0.248369 0.049612 0.000000
0.251087 0.053006 0.000000
0.136550 0.213160 0.000000
0.137046 0.217019 0.000000
0.247301 0.054671 0.000000
0.249968 0.058053 0.000000
0.141152 0.210287 0.000000
0.141372 0.214174 0.000000
0.246134 0.059706 0.000000
0.248748 0.063076 0.000000
0.145482 0.207387 0.000000
0.145725 0.211231 0.000000
0.244867 0.064717 0.000000
0.247418 0.068075 0.000000
0.149697 0.204345 0.000000
0.149984 0.208266 0.000000
0.243509 0.069698 0.000000
0.246029 0.073052 0.000000
0.153835 0.201247 0.000000
0.154130 0.205204 0.000000
0.242036 0.074652 0.000000
0.244477 0.077982 0.000000
0.157903 0.198039 0.000000
0.158242 0.202054 0.000000
0.240463 0.079574 0.000000
0.242860 0.082888 0.000000
0.161909 0.194770 0.000000
0.162280 0.198807 0.000000
0.238789 0.084463 0.000000
0.241157 0.087764 0.000000
0.165849 0.191427 0.000000
0.166250 0.195508 0.000000
0.237021 0.089328 0.000000
0.239376 0.092639 0.000000
0.169721 0.188004 0.000000
0.170154 0.192121 0.000000
0.235172 0.094182 0.000000
0.237425 0.097450 0.000000
0.173527 0.184503 0.000000
0.173991 0.188648 0.000000
0.233173 0.098964 0.000000
0.235397 0.102209 0.000000
0.177263 0.180930 0.000000
0.177779 0.185108 0.000000
0.231102 0.103711 0.000000
0.233283 0.106944 0.000000
0.180917 0.177274 0.000000
0.181479 0.181481 0.000000
0.228922 0.108427 0.000000
0.231077 0.111631 0.000000
0.184496 0.173546 0.000000
0.185088 0.177792 0.000000
0.226606 0.113135 0.000000
0.228845 0.116324 0.000000
0.187993 0.169732 0.000000
0.188640 0.174022 0.000000
0.223969 0.118039 0.000000
0.226404 0.120897 0.000000
0.191413 0.165855 0.000000
0.192089 0.170164 0.000000
0.221863 0.123176 0.000000
0.224891 0.124847 0.000000
0.194756 0.161915 0.000000
0.195477 0.166261 0.000000
0.218540 0.127743 0.000000
0.222360 0.128216 0.000000
0.198020 0.157909 0.000000
0.198786 0.162290 0.000000
0.215874 0.132431 0.000000
0.219701 0.132630 0.000000
0.201205 0.153841 0.000000
0.202014 0.158253 0.000000
0.213147 0.136837 0.000000
0.216928 0.137078 0.000000
0.204316 0.149710 0.000000
0.210278 0.141207 0.000000
0.207360 0.145490 0.000000
0.205171 0.154172 0.000000
0.214149 0.141432 0.000000
0.208240 0.149993 0.000000
0.211214 0.145747 0.000000
CELLS 1860 7440
3 620 2 0
3 0 622 620
3 621 620 622
3 622 625 621
3 317 621 625
3 625 319 317
3 319 625 629
3 629 321 319
3 321 629 633
3 633 323 321
3 323 633 638
3 638 325 323
3 325 638 642
3 642 327 325
3 327 642 646
3 646 329 327
3 329 646 650
3 650 331 329
3 331 650 654
3 654 333 331
3 333 654 658
3 658 335 333
3 335 658 662
3 662 337 335
3 337 662 666
3 666 339 337
3 339 666 670
3 670 341 339
3 341 670 674
3 674 343 341
3 343 674 678
3 678 345 343
3 345 678 682
3 682 347 345
3 347 682 686
3 686 349 347
3 349 686 690
3 690 351 349
3 351 690 694
3 694 353 351
3 353 694 698
3 698 355 353
3 355 698 703
3 703 357 355
3 357 703 707
3 707 359 357
3 359 707 711
3 711 361 359
3 361 711 715
3 715 363 361
3 363 715 719
3 719 365 363
3 365 719 723
3 723 367 365
3 367 723 727
3 727 369 367
3 369 727 731
3 731 371 369
3 371 731 735
3 735 373 371
3 373 735 739
3 739 375 373
3 375 739 744
3 744 377 375
3 377 744 748
3 748 379 377
3 379 748 752
3 752 381 379
3 381 752 756
3 756 383 381
3 383 756 760
3 760 385 383
3 385 760 764
3 764 387 385
3 387 764 768
3 768 389 387
3 389 768 772
3 772 391 389
3 391 772 776
3 776 393 391
3 393 776 780
3 780 395 393
3 395 780 784
3 784 397 395
3 397 784 788
3 788 399 397
3 399 788 792
3 792 401 399
3 401 792 796
3 796 403 401
3 403 796 800
3 800 405 403
3 405 800 805
3 805 407 405
3 407 805 809
3 809 409 407
3 409 809 813
3 813 411 409
3 411 813 817
3 817 413 411
3 413 817 821
3 821 415 413
3 415 821 825
3 825 417 415
3 417 825 829
3 829 419 417
3 419 829 833
3 833 421 419
3 421 833 837
3 837 423 421
3 423 837 841
3 841 425 423
3 425 841 846
3 846 427 425
3 427 846 850
3 850 429 427
3 429 850 854
3 854 431 429
3 431 854 858
3 858 433 431
3 433 858 862
3 862 435 433
3 435 862 866
3 866 437 435
3 437 866 870
3 870 439 437
3 439 870 874
3 874 441 439
3 441 874 878
3 878 443 441
3 443 878 882
3 882 445 443
3 445 882 886
3 886 447 445
3 447 886 890
3 890 449 447
3 449 890 894
3 894 451 449
3 451 894 898
3 898 453 451
3 453 898 902
3 902 455 453
3 455 902 906
3 906 457 455
3 457 906 911
3 911 459 457
3 459 911 915
3 915 461 459
3 461 915 919
3 919 463 461
3 463 919 923
3 923 465 463
3 465 923 927
3 927 467 465
3 467 927 931
3 931 469 467
3 469 931 935
3 935 471 469
3 471 935 939
3 939 473 471
3 473 939 943
3 943 475 473
3 475 943 948
3 948 477 475
3 477 948 952
3 952 479 477
3 479 952 956
3 956 481 479
3 481 956 960
3 960 483 481
3 483 960 964
3 964 485 483
3 485 964 968
3 968 487 485
3 487 968 972
3 972 489 487
3 489 972 976
3 976 491 489
3 491 976 980
3 980 493 491
3 493 980 984
3 984 495 493
3 495 984 988
3 988 497 495
3 497 988 992
3 992 499 497
3 499 992 996
3 996 501 499
3 501 996 1000
3 1000 503 501
3 503 1000 1004
3 1004 505 503
3 505 1004 1008
3 1008 507 505
3 507 1008 1013
3 1013 509 507
3 509 1013 1017
3 1017 511 509
3 511 1017 1021
3 1021 513 511
3 513 1021 1025
3 1025 515 513
3 515 1025 1029
3 1029 517 515
3 517 1029 1033
3 1033 519 517
3 519 1033 1037
3 1037 521 519
3 521 1037 1041
3 1041 523 521
3 523 1041 1045
3 1045 525 523
3 525 1045 1049
3 1049 527 525
3 527 1049 1054
3 1054 529 527
3 529 1054 1058
3 1058 531 529
3 531 1058 1062
3 1062 533 531
3 533 1062 1066
3 1066 535 533
3 535 1066 1070
3 1070 537 535
3 537 1070 1074
3 1074 539 537
3 539 1074 1078
3 1078 541 539
3 541 1078 1082
3 1082 543 541
3 543 1082 1086
3 1086 545 543
3 545 1086 1090
3 1090 547 545
3 547 1090 1094
3 1094 549 547
3 549 1094 1098
3 1098 551 549
3 551 1098 1102
3 1102 553 551
3 553 1102 1106
3 1106 555 553
3 555 1106 1110
3 1110 557 555
3 557 1110 1115
3 1115 559 557
3 559 1115 1119
3 1119 561 559
3 561 1119 1123
3 1123 563 561
3 563 1123 1127
3 1127 565 563
3 565 1127 1131
3 1131 567 565
3 567 1131 1135
3 1135 569 567
3 569 1135 1139
3 1139 571 569
3 571 1139 1143
3 1143 573 571
3 573 1143 1147
3 1147 575 573
3 575 1147 1151
3 1151 577 575
3 577 1151 1155
3 1155 579 577
3 579 1155 1159
3 1159 581 579
3 581 1159 1163
3 1163 583 581
3 583 1163 1167
3 1167 585 583
3 585 1167 1171
3 1171 587 585
3 587 1171 1175
3 1175 589 587
3 589 1175 1179
3 1179 591 589
3 591 1179 1183
3 1183 593 591
3 593 1183 1187
3 1187 595 593
3 595 1187 1191
3 1191 597 595
3 597 1191 1195
3 1195 599 597
3 599 1195 1199
3 1199 601 599
3 601 1199 1203
3 1203 603 601
3 603 1203 1207
3 1207 605 603
3 605 1207 1211
3 1211 607 605
3 607 1211 1215
3 1215 609 607
3 609 1215 1219
3 1219 611 609
3 611 1219 1223
3 1223 613 611
3 613 1223 1227
3 1227 615 613
3 615 1227 1231
3 1231 617 615
3 617 1231 1234
3 1234 618 617
3 618 1234 1235
3 1235 619 618
3 619 1235 1233
3 1233 616 619
3 616 1233 1229
3 1229 614 616
3 614 1229 1225
3 1225 612 614
3 612 1225 1221
3 1221 610 612
3 610 1221 1217
3 1217 608 610
3 608 1217 1213
3 1213 606 608
3 606 1213 1209
3 1209 604 606
3 604 1209 1205
3 1205 602 604
3 602 1205 1201
3 1201 600 602
3 600 1201 1197
3 1197 598 600
3 598 1197 1193
3 1193 596 598
3 596 1193 1189
3 1189 594 596
3 594 1189 1185
3 1185 592 594
3 592 1185 1181
3 1181 590 592
3 590 1181 1177
3 1177 588 590
3 588 1177 1173
3 1173 586 588
3 586 1173 1169
3 1169 584 586
3 584 1169 1165
3 1165 582 584
3 582 1165 1161
3 1161 580 582
3 580 1161 1157
3 1157 578 580
3 578 1157 1153
3 1153 576 578
3 576 1153 1149
3 1149 574 576
3 574 1149 1145
3 1145 572 574
3 572 1145 1141
3 1141 570 572
3 570 1141 1137
3 1137 568 570
3 568 1137 1133
3 1133 566 568
3 566 1133 1129
3 1129 564 566
3 564 1129 1125
3 1125 562 564
3 562 1125 1121
3 1121 560 562
3 560 1121 1117
3 1117 558 560
3 558 1117 1113
3 1113 556 558
3 556 1113 1108
3 1108 554 556
3 554 1108 1104
3 1104 552 554
3 552 1104 1100
3 1100 550 552
3 550 1100 1096
3 1096 548 550
3 548 1096 1092
3 1092 546 548
3 546 1092 1088
3 1088 544 546
3 544 1088 1084
3 1084 542 544
3 542 1084 1080
3 1080 540 542
3 540 1080 1076
3 1076 538 540
3 538 1076 1072
3 1072 536 538
3 536 1072 1068
3 1068 534 536
3 534 1068 1064
3 1064 532 534
3 532 1064 1060
3 1060 530 532
3 530 1060 1056
3 1056 528 530
3 528 1056 1051
3 1051 526 528
3 526 1051 1047
3 1047 524 526
3 524 1047 1043
3 1043 522 524
3 522 1043 1039
3 1039 520 522
3 520 1039 1035
3 1035 518 520
3 518 1035 1031
3 1031 516 518
3 516 1031 1027
3 1027 514 516
3 514 1027 1023
3 1023 512 514
3 512 1023 1019
3 1019 510 512
3 510 1019 1015
3 1015 508 510
3 508 1015 1011
3 1011 506 508
3 506 1011 1006
3 1006 504 506
3 504 1006 1002
3 1002 502 504
3 502 1002 998
3 998 500 502
3 500 998 994
3 994 498 500
3 498 994 990
3 990 496 498
3 496 990 986
3 986 494 496
3 494 986 982
3 982 492 494
3 492 982 978
3 978 490 492
3 490 978 974
3 974 488 490
3 488 974 970
3 970 486 488
3 486 970 966
3 966 484 486
3 484 966 962
3 962 482 484
3 482 962 958
3 958 480 482
3 480 958 954
3 954 478 480
3 478 954 950
3 950 476 478
3 476 950 945
3 945 474 476
3 474 945 941
3 941 472 474
3 472 941 937
3 937 470 472
3 470 937 933
3 933 468 470
3 468 933 929
3 929 466 468
3 466 929 925
3 925 464 466
3 464 925 921
3 921 462 464
3 462 921 917
3 917 460 462
3 460 917 913
3 913 458 460
3 458 913 909
3 909 456 458
3 456 909 904
3 904 454 456
3 454 904 900
3 900 452 454
3 452 900 896
3 896 450 452
3 450 896 892
3 892 448 450
3 448 892 888
3 888 446 448
3 446 888 884
3 884 444 446
3 444 884 880
3 880 442 444
3 442 880 876
3 876 440 442
3 440 876 872
3 872 438 440
3 438 872 868
3 868 436 438
3 436 868 864
3 864 434 436
3 434 864 860
3 860 432 434
3 432 860 856
3 856 430 432
3 430 856 852
3 852 428 430
3 428 852 848
3 848 426 428
3 426 848 843
3 843 424 426
3 424 843 839
3 839 422 424
3 422 839 835
3 835 420 422
3 420 835 831
3 831 418 420
3 418 831 827
3 827 416 418
3 416 827 823
3 823 414 416
3 414 823 819
3 819 412 414
3 412 819 815
3 815 410 412
3 410 815 811
3 811 408 410
3 408 811 807
3 807 406 408
3 406 807 803
3 803 404 406
3 404 803 798
3 798 402 404
3 402 798 794
3 794 400 402
3 400 794 790
3 790 398 400
3 398 790 786
3 786 396 398
3 396 786 782
3 782 394 396
3 394 782 778
3 778 392 394
3 392 778 774
3 774 390 392
3 390 774 770
3 770 388 390
3 388 770 766
3 766 386 388
3 386 766 762
3 762 384 386
3 384 762 758
3 758 382 384
3 382 758 754
3 754 380 382
3 380 754 750
3 750 378 380
3 378 750 746
3 746 376 378
3 376 746 742
3 742 374 376
3 374 742 737
3 737 372 374
3 372 737 733
3 733 370 372
3 370 733 729
3 729 368 370
3 368 729 725
3 725 366 368
3 366 725 721
3 721 364 366
3 364 721 717
3 717 362 364
3 362 717 713
3 713 360 362
3 360 713 709
3 709 358 360
3 358 709 705
3 705 356 358
3 356 705 701
3 701 354 356
3 354 701 696
3 696 352 354
3 352 696 692
3 692 350 352
3 350 692 688
3 688 348 350
3 348 688 684
3 684 346 348
3 346 684 680
3 680 344 346
3 344 680 676
3 676 342 344
3 342 676 672
3 672 340 342
3 340 672 668
3 668 338 340
3 338 668 664
3 664 336 338
3 336 664 660
3 660 334 336
3 334 660 656
3 656 332 334
3 332 656 652
3 652 330 332
3 330 652 648
3 648 328 330
3 328 648 644
3 644 326 328
3 326 644 640
3 640 324 326
3 324 640 635
3 635 322 324
3 322 635 631
3 631 320 322
3 320 631 627
3 627 318 320
3 318 627 623
3 623 1 318
3 1 623 621
3 624 623 627
3 627 628 624
3 4 624 628
3 628 6 4
3 6 628 632
3 632 8 6
3 8 632 636
3 636 9 8
3 9 636 637
3 637 11 9
3 11 637 641
3 641 13 11
3 13 641 645
3 645 15 13
3 15 645 649
3 649 17 15
3 17 649 653
3 653 19 17
3 19 653 657
3 657 21 19
3 21 657 661
3 661 23 21
3 23 661 665
3 665 25 23
3 25 665 669
3 669 27 25
3 27 669 673
3 673 29 27
3 29 673 677
3 677 31 29
3 31 677 681
3 681 33 31
3 33 681 685
3 685 35 33
3 35 685 689
3 689 37 35
3 37 689 693
3 693 39 37
3 39 693 697
3 697 42 39
3 42 697 702
3 702 44 42
3 44 702 706
3 706 46 44
3 46 706 710
3 710 48 46
3 48 710 714
3 714 50 48
3 50 714 718
3 718 52 50
3 52 718 722
3 722 54 52
3 54 722 726
3 726 56 54
3 56 726 730
3 730 58 56
3 58 730 734
3 734 60 58
3 60 734 738
3 738 62 60
3 62 738 741
3 741 63 62
3 63 741 743
3 743 65 63
3 65 743 747
3 747 67 65
3 67 747 751
3 751 69 67
3 69 751 755
3 755 71 69
3 71 755 759
3 759 73 71
3 73 759 763
3 763 75 73
3 75 763 767
3 767 77 75
3 77 767 771
3 771 79 77
3 79 771 775
3 775 81 79
3 81 775 779
3 779 83 81
3 83 779 783
3 783 85 83
3 85 783 787
3 787 87 85
3 87 787 791
3 791 89 87
3 89 791 795
3 795 91 89
3 91 795 799
3 799 94 91
3 94 799 804
3 804 96 94
3 96 804 808
3 808 98 96
3 98 808 812
3 812 100 98
3 100 812 816
3 816 102 100
3 102 816 820
3 820 104 102
3 104 820 824
3 824 106 104
3 106 824 828
3 828 108 106
3 108 828 832
3 832 110 108
3 110 832 836
3 836 112 110
3 112 836 840
3 840 114 112
3 114 840 844
3 844 115 114
3 115 844 845
3 845 117 115
3 117 845 849
3 849 119 117
3 119 849 853
3 853 121 119
3 121 853 857
3 857 123 121
3 123 857 861
3 861 125 123
3 125 861 865
3 865 127 125
3 127 865 869
3 869 129 127
3 129 869 873
3 873 131 129
3 131 873 877
3 877 133 131
3 133 877 881
3 881 135 133
3 135 881 885
3 885 137 135
3 137 885 889
3 889 139 137
3 139 889 893
3 893 141 139
3 141 893 897
3 897 143 141
3 143 897 901
3 901 145 143
3 145 901 905
3 905 148 145
3 148 905 910
3 910 150 148
3 150 910 914
3 914 152 150
3 152 914 918
3 918 154 152
3 154 918 922
3 922 156 154
3 156 922 926
3 926 158 156
3 158 926 930
3 930 160 158
3 160 930 934
3 934 162 160
3 162 934 938
3 938 164 162
3 164 938 942
3 942 166 164
3 166 942 946
3 946 167 166
3 167 946 947
3 947 169 167
3 169 947 951
3 951 171 169
3 171 951 955
3 955 173 171
3 173 955 959
3 959 175 173
3 175 959 963
3 963 177 175
3 177 963 967
3 967 179 177
3 179 967 971
3 971 181 179
3 181 971 975
3 975 183 181
3 183 975 979
3 979 185 183
3 185 979 983
3 983 187 185
3 187 983 987
3 987 189 187
3 189 987 991
3 991 191 189
3 191 991 995
3 995 193 191
3 193 995 999
3 999 195 193
3 195 999 1003
3 1003 197 195
3 197 1003 1007
3 1007 200 197
3 200 1007 1012
3 1012 202 200
3 202 1012 1016
3 1016 204 202
3 204 1016 1020
3 1020 206 204
3 206 1020 1024
3 1024 208 206
3 208 1024 1028
3 1028 210 208
3 210 1028 1032
3 1032 212 210
3 212 1032 1036
3 1036 214 212
3 214 1036 1040
3 1040 216 214
3 216 1040 1044
3 1044 218 216
3 218 1044 1048
3 1048 220 218
3 220 1048 1052
3 1052 222 220
3 222 1052 1053
3 1053 224 222
3 224 1053 1057
3 1057 226 224
3 226 1057 1061
3 1061 228 226
3 228 1061 1065
3 1065 230 228
3 230 1065 1069
3 1069 232 230
3 232 1069 1073
3 1073 234 232
3 234 1073 1077
3 1077 236 234
3 236 1077 1081
3 1081 238 236
3 238 1081 1085
3 1085 240 238
3 240 1085 1089
3 1089 242 240
3 242 1089 1093
3 1093 244 242
3 244 1093 1097
3 1097 246 244
3 246 1097 1101
3 1101 248 246
3 248 1101 1105
3 1105 250 248
3 250 1105 1109
3 1109 252 250
3 252 1109 1114
3 1114 254 252
3 254 1114 1118
3 1118 256 254
3 256 1118 1122
3 1122 258 256
3 258 1122 1126
3 1126 260 258
3 260 1126 1130
3 1130 262 260
3 262 1130 1134
3 1134 264 262
3 264 1134 1138
3 1138 266 264
3 266 1138 1142
3 1142 268 266
3 268 1142 1146
3 1146 270 268
3 270 1146 1150
3 1150 272 270
3 272 1150 1154
3 1154 274 272
3 274 1154 1158
3 1158 276 274
3 276 1158 1162
3 1162 278 276
3 278 1162 1166
3 1166 280 278
3 280 1166 1170
3 1170 282 280
3 282 1170 1174
3 1174 284 282
3 284 1174 1178
3 1178 286 284
3 286 1178 1182
3 1182 288 286
3 288 1182 1186
3 1186 290 288
3 290 1186 1190
3 1190 292 290
3 292 1190 1194
3 1194 294 292
3 294 1194 1198
3 1198 296 294
3 296 1198 1202
3 1202 298 296
3 298 1202 1206
3 1206 300 298
3 300 1206 1210
3 1210 302 300
3 302 1210 1214
3 1214 304 302
3 304 1214 1218
3 1218 306 304
3 306 1218 1222
3 1222 308 306
3 308 1222 1226
3 1226 310 308
3 310 1226 1230
3 1230 312 310
3 312 1230 1236
3 1236 314 312
3 314 1236 1238
3 1238 316 314
3 316 1238 1239
3 1239 315 316
3 315 1239 1237
3 1237 313 315
3 313 1237 1232
3 1232 311 313
3 311 1232 1228
3 1228 309 311
3 309 1228 1224
3 1224 307 309
3 307 1224 1220
3 1220 305 307
3 305 1220 1216
3 1216 303 305
3 303 1216 1212
3 1212 301 303
3 301 1212 1208
3 1208 299 301
3 299 1208 1204
3 1204 297 299
3 297 1204 1200
3 1200 295 297
3 295 1200 1196
3 1196 293 295
3 293 1196 1192
3 1192 291 293
3 291 1192 1188
3 1188 289 291
3 289 1188 1184
3 1184 287 289
3 287 1184 1180
3 1180 285 287
3 285 1180 1176
3 1176 283 285
3 283 1176 1172
3 1172 281 283
3 281 1172 1168
3 1168 279 281
3 279 1168 1164
3 1164 277 279
3 277 1164 1160
3 1160 275 277
3 275 1160 1156
3 1156 273 275
3 273 1156 1152
3 1152 271 273
3 271 1152 1148
3 1148 269 271
3 269 1148 1144
3 1144 267 269
3 267 1144 1140
3 1140 265 267
3 265 1140 1136
3 1136 263 265
3 263 1136 1132
3 1132 261 263
3 261 1132 1128
3 1128 259 261
3 259 1128 1124
3 1124 257 259
3 257 1124 1120
3 1120 255 257
3 255 1120 1116
3 1116 253 255
3 253 1116 1112
3 1112 251 253
3 251 1112 1111
3 1111 249 251
3 249 1111 1107
3 1107 247 249
3 247 1107 1103
3 1103 245 247
3 245 1103 1099
3 1099 243 245
3 243 1099 1095
3 1095 241 243
3 241 1095 1091
3 1091 239 241
3 239 1091 1087
3 1087 237 239
3 237 1087 1083
3 1083 235 237
3 235 1083 1079
3 1079 233 235
3 233 1079 1075
3 1075 231 233
3 231 1075 1071
3 1071 229 231
3 229 1071 1067
3 1067 227 229
3 227 1067 1063
3 1063 225 227
3 225 1063 1059
3 1059 223 225
3 223 1059 1055
3 1055 221 223
3 221 1055 1050
3 1050 219 221
3 219 1050 1046
3 1046 217 219
3 217 1046 1042
3 1042 215 217
3 215 1042 1038
3 1038 213 215
3 213 1038 1034
3 1034 211 213
3 211 1034 1030
3 1030 209 211
3 209 1030 1026
3 1026 207 209
3 207 1026 1022
3 1022 205 207
3 205 1022 1018
3 1018 203 205
3 203 1018 1014
3 1014 201 203
3 201 1014 1010
3 1010 199 201
3 199 1010 1009
3 1009 198 199
3 198 1009 1005
3 1005 196 198
3 196 1005 1001
3 1001 194 196
3 194 1001 997
3 997 192 194
3 192 997 993
3 993 190 192
3 190 993 989
3 989 188 190
3 188 989 985
3 985 186 188
3 186 985 981
3 981 184 186
3 184 981 977
3 977 182 184
3 182 977 973
3 973 180 182
3 180 973 969
3 969 178 180
3 178 969 965
3 965 176 178
3 176 965 961
3 961 174 176
3 174 961 957
3 957 172 174
3 172 957 953
3 953 170 172
3 170 953 949
3 949 168 170
3 168 949 944
3 944 165 168
3 165 944 940
3 940 163 165
3 163 940 936
3 936 161 163
3 161 936 932
3 932 159 161
3 159 932 928
3 928 157 159
3 157 928 924
3 924 155 157
3 155 924 920
3 920 153 155
3 153 920 916
3 916 151 153
3 151 916 912
3 912 149 151
3 149 912 908
3 908 147 149
3 147 908 907
3 907 146 147
3 146 907 903
3 903 144 146
3 144 903 899
3 899 142 144
3 142 899 895
3 895 140 142
3 140 895 891
3 891 138 140
3 138 891 887
3 887 136 138
3 136 887 883
3 883 134 136
3 134 883 879
3 879 132 134
3 132 879 875
3 875 130 132
3 130 875 871
3 871 128 130
3 128 871 867
3 867 126 128
3 126 867 863
3 863 124 126
3 124 863 859
3 859 122 124
3 122 859 855
3 855 120 122
3 120 855 851
3 851 118 120
3 118 851 847
3 847 116 118
3 116 847 842
3 842 113 116
3 113 842 838
3 838 111 113
3 111 838 834
3 834 109 111
3 109 834 830
3 830 107 109
3 107 830 826
3 826 105 107
3 105 826 822
3 822 103 105
3 103 822 818
3 818 101 103
3 101 818 814
3 814 99 101
3 99 814 810
3 810 97 99
3 97 810 806
3 806 95 97
3 95 806 802
3 802 93 95
3 93 802 801
3 801 92 93
3 92 801 797
3 797 90 92
3 90 797 793
3 793 88 90
3 88 793 789
3 789 86 88
3 86 789 785
3 785 84 86
3 84 785 781
3 781 82 84
3 82 781 777
3 777 80 82
3 80 777 773
3 773 78 80
3 78 773 769
3 769 76 78
3 76 769 765
3 765 74 76
3 74 765 761
3 761 72 74
3 72 761 757
3 757 70 72
3 70 757 753
3 753 68 70
3 68 753 749
3 749 66 68
3 66 749 745
3 745 64 66
3 64 745 740
3 740 61 64
3 61 740 736
3 736 59 61
3 59 736 732
3 732 57 59
3 57 732 728
3 728 55 57
3 55 728 724
3 724 53 55
3 53 724 720
3 720 51 53
3 51 720 716
3 716 49 51
3 49 716 712
3 712 47 49
3 47 712 708
3 708 45 47
3 45 708 704
3 704 43 45
3 43 704 700
3 700 41 43
3 41 700 699
3 699 40 41
3 40 699 695
3 695 38 40
3 38 695 691
3 691 36 38
3 36 691 687
3 687 34 36
3 34 687 683
3 683 32 34
3 32 683 679
3 679 30 32
3 30 679 675
3 675 28 30
3 28 675 671
3 671 26 28
3 26 671 667
3 667 24 26
3 24 667 663
3 663 22 24
3 22 663 659
3 659 20 22
3 20 659 655
3 655 18 20
3 18 655 651
3 651 16 18
3 16 651 647
3 647 14 16
3 14 647 643
3 643 12 14
3 12 643 639
3 639 10 12
3 10 639 634
3 634 7 10
3 7 634 630
3 630 5 7
3 5 630 626
3 626 3 5
3 3 626 622
3 629 626 630
3 633 630 634
3 638 634 639
3 642 639 643
3 646 643 647
3 650 647 651
3 654 651 655
3 658 655 659
3 662 659 663
3 666 663 667
3 670 667 671
3 674 671 675
3 678 675 679
3 682 679 683
3 686 683 687
3 690 687 691
3 694 691 695
3 698 695 699
3 700 703 699
3 700 704 703
3 707 704 708
3 711 708 712
3 715 712 716
3 719 716 720
3 723 720 724
3 727 724 728
3 731 728 732
3 735 732 736
3 739 736 740
3 744 740 745
3 748 745 749
3 752 749 753
3 756 753 757
3 760 757 761
3 764 761 765
3 768 765 769
3 772 769 773
3 776 773 777
3 780 777 781
3 784 781 785
3 788 785 789
3 792 789 793
3 796 793 797
3 800 797 801
3 802 805 801
3 802 806 805
3 809 806 810
3 813 810 814
3 817 814 818
3 821 818 822
3 825 822 826
3 829 826 830
3 833 830 834
3 837 834 838
3 841 838 842
3 846 842 847
3 850 847 851
3 854 851 855
3 858 855 859
3 862 859 863
3 866 863 867
3 870 867 871
3 874 871 875
3 878 875 879
3 882 879 883
3 886 883 887
3 890 887 891
3 894 891 895
3 898 895 899
3 902 899 903
3 906 903 907
3 908 911 907
3 908 912 911
3 915 912 916
3 919 916 920
3 923 920 924
3 927 924 928
3 931 928 932
3 935 932 936
3 939 936 940
3 943 940 944
3 948 944 949
3 952 949 953
3 956 953 957
3 960 957 961
3 964 961 965
3 968 965 969
3 972 969 973
3 976 973 977
3 980 977 981
3 984 981 985
3 988 985 989
3 992 989 993
3 996 993 997
3 1000 997 1001
3 1004 1001 1005
3 1008 1005 1009
3 1010 1013 1009
3 1010 1014 1013
3 1017 1014 1018
3 1021 1018 1022
3 1025 1022 1026
3 1029 1026 1030
3 1033 1030 1034
3 1037 1034 1038
3 1041 1038 1042
3 1045 1042 1046
3 1049 1046 1050
3 1054 1050 1055
3 1058 1055 1059
3 1062 1059 1063
3 1066 1063 1067
3 1070 1067 1071
3 1074 1071 1075
3 1078 1075 1079
3 1082 1079 1083
3 1086 1083 1087
3 1090 1087 1091
3 1094 1091 1095
3 1098 1095 1099
3 1102 1099 1103
3 1106 1103 1107
3 1110 1107 1111
3 1112 1115 1111
3 1112 1116 1115
3 1119 1116 1120
3 1123 1120 1124
3 1127 1124 1128
3 1131 1128 1132
3 1135 1132 1136
3 1139 1136 1140
3 1143 1140 1144
3 1147 1144 1148
3 1151 1148 1152
3 1155 1152 1156
3 1159 1156 1160
3 1163 1160 1164
3 1167 1164 1168
3 1171 1168 1172
3 1175 1172 1176
3 1179 1176 1180
3 1183 1180 1184
3 1187 1184 1188
3 1191 1188 1192
3 1195 1192 1196
3 1199 1196 1200
3 1203 1200 1204
3 1207 1204 1208
3 1211 1208 1212
3 1215 1212 1216
3 1220 1219 1216
3 1220 1224 1219
3 1223 1224 1228
3 1227 1228 1232
3 1231 1232 1237
3 1234 1237 1239
3 1235 1239 1238
3 1233 1238 1236
3 1229 1236 1230
3 1225 1230 1226
3 1221 1226 1222
3 1217 1222 1218
3 1213 1218 1214
3 1209 1214 1210
3 1205 1210 1206
3 1201 1206 1202
3 1197 1202 1198
3 1193 1198 1194
3 1189 1194 1190
3 1185 1190 1186
3 1181 1186 1182
3 1177 1182 1178
3 1173 1178 1174
3 1169 1174 1170
3 1165 1170 1166
3 1161 1166 1162
3 1158 1157 1162
3 1158 1154 1157
3 1153 1154 1150
3 1149 1150 1146
3 1145 1146 1142
3 1141 1142 1138
3 1137 1138 1134
3 1133 1134 1130
3 1129 1130 1126
3 1125 1126 1122
3 1121 1122 1118
3 1117 1118 1114
3 1113 1114 1109
3 1108 1109 1105
3 1104 1105 1101
3 1100 1101 1097
3 1096 1097 1093
3 1092 1093 1089
3 1088 1089 1085
3 1084 1085 1081
3 1080 1081 1077
3 1076 1077 1073
3 1072 1073 1069
3 1068 1069 1065
3 1064 1065 1061
3 1060 1061 1057
3 1053 1056 1057
3 1053 1052 1056
3 1051 1052 1048
3 1047 1048 1044
3 1043 1044 1040
3 1039 1040 1036
3 1035 1036 1032
3 1031 1032 1028
3 1027 1028 1024
3 1023 1024 1020
3 1019 1020 1016
3 1015 1016 1012
3 1011 1012 1007
3 1006 1007 1003
3 1002 1003 999
3 998 999 995
3 994 995 991
3 990 991 987
3 986 987 983
3 982 983 979
3 978 979 975
3 974 975 971
3 970 971 967
3 966 967 963
3 962 963 959
3 958 959 955
3 954 955 951
3 947 950 951
3 947 946 950
3 945 946 942
3 941 942 938
3 937 938 934
3 933 934 930
3 929 930 926
3 925 926 922
3 921 922 918
3 917 918 914
3 913 914 910
3 909 910 905
3 904 905 901
3 900 901 897
3 896 897 893
3 892 893 889
3 888 889 885
3 884 885 881
3 880 881 877
3 876 877 873
3 872 873 869
3 868 869 865
3 864 865 861
3 860 861 857
3 856 857 853
3 852 853 849
3 845 848 849
3 845 844 848
3 844 840 843
3 839 840 836
3 835 836 832
3 831 832 828
3 827 828 824
3 823 824 820
3 819 820 816
3 815 816 812
3 811 812 808
3 807 808 804
3 803 804 799
3 798 799 795
3 794 795 791
3 790 791 787
3 786 787 783
3 782 783 779
3 778 779 775
3 774 775 771
3 770 771 767
3 766 767 763
3 762 763 759
3 758 759 755
3 754 755 751
3 750 751 747
3 743 746 747
3 743 741 746
3 742 741 738
3 737 738 734
3 733 734 730
3 729 730 726
3 725 726 722
3 721 722 718
3 717 718 714
3 713 714 710
3 709 710 706
3 705 706 702
3 701 702 697
3 696 697 693
3 692 693 689
3 688 689 685
3 684 685 681
3 680 681 677
3 676 677 673
3 672 673 669
3 668 669 665
3 664 665 661
3 660 661 657
3 656 657 653
3 652 653 649
3 648 649 645
3 644 645 641
3 637 640 641
3 637 636 640
3 635 636 632
3 631 632 628
3 624 4 2
3 623 624 620
3 628 627 631
3 632 631 635
3 636 635 640
3 641 640 644
3 645 644 648
3 649 648 652
3 653 652 656
3 657 656 660
3 661 660 664
3 665 664 668
3 669 668 672
3 673 672 676
3 677 676 680
3 681 680 684
3 685 684 688
3 689 688 692
3 693 692 696
3 697 696 701
3 702 701 705
3 706 705 709
3 710 709 713
3 714 713 717
3 718 717 721
3 722 721 725
3 726 725 729
3 730 729 733
3 734 733 737
3 738 737 742
3 741 742 746
3 747 746 750
3 751 750 754
3 755 754 758
3 759 758 762
3 763 762 766
3 767 766 770
3 771 770 774
3 775 774 778
3 779 778 782
3 783 782 786
3 787 786 790
3 791 790 794
3 795 794 798
3 799 798 803
3 804 803 807
3 808 807 811
3 812 811 815
3 816 815 819
3 820 819 823
3 824 823 827
3 828 827 831
3 832 831 835
3 836 835 839
3 840 839 843
3 844 843 848
3 849 848 852
3 853 852 856
3 857 856 860
3 861 860 864
3 865 864 868
3 869 868 872
3 873 872 876
3 877 876 880
3 881 880 884
3 885 884 888
3 889 888 892
3 893 892 896
3 897 896 900
3 901 900 904
3 905 904 909
3 910 909 913
3 914 913 917
3 918 917 921
3 922 921 925
3 926 925 929
3 930 929 933
3 934 933 937
3 938 937 941
3 942 941 945
3 946 945 950
3 951 950 954
3 955 954 958
3 959 958 962
3 963 962 966
3 967 966 970
3 971 970 974
3 975 974 978
3 979 978 982
3 983 982 986
3 987 986 990
3 991 990 994
3 995 994 998
3 999 998 1002
3 1003 1002 1006
3 1007 1006 1011
3 1012 1011 1015
3 1016 1015 1019
3 1020 1019 1023
3 1024 1023 1027
3 1028 1027 1031
3 1032 1031 1035
3 1036 1035 1039
3 1040 1039 1043
3 1044 1043 1047
3 1048 1047 1051
3 1052 1051 1056
3 1057 1056 1060
3 1061 1060 1064
3 1065 1064 1068
3 1069 1068 1072
3 1073 1072 1076
3 1077 1076 1080
3 1081 1080 1084
3 1085 1084 1088
3 1089 1088 1092
3 1093 1092 1096
3 1097 1096 1100
3 1101 1100 1104
3 1105 1104 1108
3 1109 1108 1113
3 1114 1113 1117
3 1118 1117 1121
3 1122 1121 1125
3 1126 1125 1129
3 1130 1129 1133
3 1134 1133 1137
3 1138 1137 1141
3 1142 1141 1145
3 1146 1145 1149
3 1150 1149 1153
3 1154 1153 1157
3 1162 1157 1161
3 1166 1161 1165
3 1170 1165 1169
3 1174 1169 1173
3 1178 1173 1177
3 1182 1177 1181
3 1186 1181 1185
3 1190 1185 1189
3 1194 1189 1193
3 1198 1193 1197
3 1202 1197 1201
3 1206 1201 1205
3 1210 1205 1209
3 1214 1209 1213
3 1218 1213 1217
3 1222 1217 1221
3 1226 1221 1225
3 1230 1225 1229
3 1236 1229 1233
3 1238 1233 1235
3 1239 1235 1234
3 1237 1234 1231
3 1232 1231 1227
3 1228 1227 1223
3 1224 1223 1219
3 1216 1219 1215
3 1212 1215 1211
3 1208 1211 1207
3 1204 1207 1203
3 1200 1203 1199
3 1196 1199 1195
3 1192 1195 1191
3 1188 1191 1187
3 1184 1187 1183
3 1180 1183 1179
3 1176 1179 1175
3 1172 1175 1171
3 1168 1171 1167
3 1164 1167 1163
3 1160 1163 1159
3 1156 1159 1155
3 1152 1155 1151
3 1148 1151 1147
3 1144 1147 1143
3 1140 1143 1139
3 1136 1139 1135
3 1132 1135 1131
3 1128 1131 1127
3 1124 1127 1123
3 1120 1123 1119
3 1116 1119 1115
3 1111 1115 1110
3 1107 1110 1106
3 1103 1106 1102
3 1099 1102 1098
3 1095 1098 1094
3 1091 1094 1090
3 1087 1090 1086
3 1083 1086 1082
3 1079 1082 1078
3 1075 1078 1074
3 1071 1074 1070
3 1067 1070 1066
3 1063 1066 1062
3 1059 1062 1058
3 1055 1058 1054
3 1050 1054 1049
3 1046 1049 1045
3 1042 1045 1041
3 1038 1041 1037
3 1034 1037 1033
3 1030 1033 1029
3 1026 1029 1025
3 1022 1025 1021
3 1018 1021 1017
3 1014 1017 1013
3 1009 1013 1008
3 1005 1008 1004
3 1001 1004 1000
3 997 1000 996
3 993 996 992
3 989 992 988
3 985 988 984
3 981 984 980
3 977 980 976
3 973 976 972
3 969 972 968
3 965 968 964
3 961 964 960
3 957 960 956
3 953 956 952
3 949 952 948
3 944 948 943
3 940 943 939
3 936 939 935
3 932 935 931
3 928 931 927
3 924 927 923
3 920 923 919
3 916 919 915
3 912 915 911
3 907 911 906
3 903 906 902
3 899 902 898
3 895 898 894
3 891 894 890
3 887 890 886
3 883 886 882
3 879 882 878
3 875 878 874
3 871 874 870
3 867 870 866
3 863 866 862
3 859 862 858
3 855 858 854
3 851 854 850
3 847 850 846
3 842 846 841
3 838 841 837
3 834 837 833
3 830 833 829
3 826 829 825
3 822 825 821
3 818 821 817
3 814 817 813
3 810 813 809
3 806 809 805
3 801 805 800
3 797 800 796
3 793 796 792
3 789 792 788
3 785 788 784
3 781 784 780
3 777 780 776
3 773 776 772
3 769 772 768
3 765 768 764
3 761 764 760
3 757 760 756
3 753 756 752
3 749 752 748
3 745 748 744
3 740 744 739
3 736 739 735
3 732 735 731
3 728 731 727
3 724 727 723
3 720 723 719
3 716 719 715
3 712 715 711
3 708 711 707
3 704 707 703
3 699 703 698
3 695 698 694
3 691 694 690
3 687 690 686
3 683 686 682
3 679 682 678
3 675 678 674
3 671 674 670
3 667 670 666
3 663 666 662
3 659 662 658
3 655 658 654
3 651 654 650
3 647 650 646
3 643 646 642
3 639 642 638
3 634 638 633
3 630 633 629
3 626 629 625
3 621 317 1
3 625 622 626
3 620 621 623
3 622 0 3
3 2 620 624
CELL_TYPES 1860
9
9
9
9
9
9
9
9
9
9
9
9
9
9
9
9
9
9
9
9
9
9
9
9
9
9
9
9
9
9
9
9
9
9
9
9
9
9
9
9
9
9
9
9
9
9
9
9
9
9
9
9
9
9
9
9
9
9
9
9
9
9
9
9
9
9
9
9
9
9
9
9
9
9
9
9
9
9
9
9
9
9
9
9
9
9
9
9
9
9
9
9
9
9
9
9
9
9
9
9
9
9
9
9
9
9
9
9
9
9
9
9
9
9
9
9
9
9
9
9
9
9
9
9
9
9
9
9
9
9
9
9
9
9
9
9
9
9
9
9
9
9
9
9
9
9
9
9
9
9
9
9
9
9
9
9
9
9
9
9
9
9
9
9
9
9
9
9
9
9
9
9
9
9
9
9
9
9
9
9
9
9
9
9
9
9
9
9
9
9
9
9
9
9
9
9
9
9
9
9
9
9
9
9
9
9
9
9
9
9
9
9
9
9
9
9
9
9
9
9
9
9
9
9
9
9
9
9
9
9
9
9
9
9
9
9
9
9
9
9
9
9
9
9
9
9
9
9
9
9
9
9
9
9
9
9
9
9
9
9
9
9
9
9
9
9
9
9
9
9
9
9
9
9
9
9
9
9
9
9
9
9
9
9
9
9
9
9
9
9
9
9
9
9
9
9
9
9
9
9
9
9
9
9
9
9
9
9
9
9
9
9
9
9
9
9
9
9
9
9
9
9
9
9
9
9
9
9
9
9
9
9
9
9
9
9
9
9
9
9
9
9
9
9
9
9
9
9
9
9
9
9
9
9
9
9
9
9
9
9
9
9
9
9
9
9
9
9
9
9
9
9
9
9
9
9
9
9
9
9
9
9
9
9
9
9
9
9
9
9
9
9
9
9
9
9
9
9
9
9
9
9
9
9
9
9
9
9
9
9
9
9
9
9
9
9
9
9
9
9
9
9
9
9
9
9
9
9
9
9
9
9
9
9
9
9
9
9
9
9
9
9
9
9
9
9
9
9
9
9
9
9
9
9
9
9
9
9
9
9
9
9
9
9
9
9
9
9
9
9
9
9
9
9
9
9
9
9
9
9
9
9
9
9
9
9
9
9
9
9
9
9
9
9
9
9
9
9
9
9
9
9
9
9
9
9
9
9
9
9
9
9
9
9
9
9
9
9
9
9
9
9
9
9
9
9
9
9
9
9
9
9
9
9
9
9
9
9
9
9
9
9
9
9
9
9
9
9
9
9
9
9
9
9
9
9
9
9
9
9
9
9
9
9
9
9
9
9
9
9
9
9
9
9
9
9
9
9
9
9
9
9
9
9
9
9
9
9
9
9
9
9
9
9
9
9
9
9
9
9
9
9
9
9
9
9
9
9
9
9
9
9
9
9
9
9
9
9
9
9
9
9
9
9
9
9
9
9
9
9
9
9
9
9
9
9
9
9
9
9
9
9
9
9
9
9
9
9
9
9
9
9
9
9
9
9
9
9
9
9
9
9
9
9
9
9
9
9
9
9
9
9
9
9
9
9
9
9
9
9
9
9
9
9
9
9
9
9
9
9
9
9
9
9
9
9
9
9
9
9
9
9
9
9
9
9
9
9
9
9
9
9
9
9
9
9
9
9
9
9
9
9
9
9
9
9
9
9
9
9
9
9
9
9
9
9
9
9
9
9
9
9
9
9
9
9
9
9
9
9
9
9
9
9
9
9
9
9
9
9
9
9
9
9
9
9
9
9
9
9
9
9
9
9
9
9
9
9
9
9
9
9
9
9
9
9
9
9
9
9
9
9
9
9
9
9
9
9
9
9
9
9
9
9
9
9
9
9
9
9
9
9
9
9
9
9
9
9
9
9
9
9
9
9
9
9
9
9
9
9
9
9
9
9
9
9
9
9
9
9
9
9
9
9
9
9
9
9
9
9
9
9
9
9
9
9
9
9
9
9
9
9
9
9
9
9
9
9
9
9
9
9
9
9
9
9
9
9
9
9
9
9
9
9
9
9
9
9
9
9
9
9
9
9
9
9
9
9
9
9
9
9
9
9
9
9
9
9
9
9
9
9
9
9
9
9
9
9
9
9
9
9
9
9
9
9
9
9
9
9
9
9
9
9
9
9
9
9
9
9
9
9
9
9
9
9
9
9
9
9
9
9
9
9
9
9
9
9
9
9
9
9
9
9
9
9
9
9
9
9
9
9
9
9
9
9
9
9
9
9
9
9
9
9
9
9
9
9
9
9
9
9
9
9
9
9
9
9
9
9
9
9
9
9
9
9
9
9
9
9
9
9
9
9
9
9
9
9
9
9
9
9
9
9
9
9
9
9
9
9
9
9
9
9
9
9
9
9
9
9
9
9
9
9
9
9
9
9
9
9
9
9
9
9
9
9
9
9
9
9
9
9
9
9
9
9
9
9
9
9
9
9
9
9
9
9
9
9
9
9
9
9
9
9
9
9
9
9
9
9
9
9
9
9
9
9
9
9
9
9
9
9
9
9
9
9
9
9
9
9
9
9
9
9
9
9
9
9
9
9
9
9
9
9
9
9
9
9
9
9
9
9
9
9
9
9
9
9
9
9
9
9
9
9
9
9
9
9
9
9
9
9
9
9
9
9
9
9
9
9
9
9
9
9
9
9
9
9
9
9
9
9
9
9
9
9
9
9
9
9
9
9
9
9
9
9
9
9
9
9
9
9
9
9
9
9
9
9
9
9
9
9
9
9
9
9
9
9
9
9
9
9
9
9
9
9
9
9
9
9
9
9
9
9
9
9
9
9
9
9
9
9
9
9
9
9
9
9
9
9
9
9
9
9
9
9
9
9
9
9
9
9
9
9
9
9
9
9
9
9
9
9
9
9
9
9
9
9
9
9
9
9
9
9
9
9
9
9
9
9
9
9
9
9
9
9
9
9
9
9
9
9
9
9
9
9
9
9
9
9
9
9
9
9
9
9
9
9
9
9
9
9
9
9
9
9
9
9
9
9
9
9
9
9
9
9
9
9
9
9
9
9
9
9
9
9
9
9
9
9
9
9
9
9
9
9
9
9
9
9
9
9
9
9
9
9
9
9
9
9
9
9
9
9
9
9
9
9
9
9
9
9
9
9
9
9
9
9
9
9
9
9
9
9
9
9
9
9
9
9
9
9
9
9
9
9
9
9
9
9
9
9
9
9
9
9
9
9
9
9
9
9
9
9
9
9
9
9
9
9
9
9
9
9
9
9
9
9
9
9
9
9
9
9
9
9
9
9
9
9
9
9
9
9
9
9
9
9
9
9
9
9
9
9
9
9
9
9
9
9
9
9
9
9
9
9
9
9
9
9
9
9
9
9
9
9
9
9
9
9
9
9
9
9
9
9
9
9
9
9
9
9
9
9
9
9
9
9
9
9
9
9
9
9
9
9
9
9
9
9
9
9
9
9
9
9
9
9
9
9
9
9
9
9
9
9
9
9
9
9
9
9
9
9
9
9
9
9
9
9
9
9
9
9
9
9
9
9
9
9
9
9
9
9
9
9
9
9
9
9
9
9
9
9
9
9
9
9
9
9
9
9
9
9
9
9
9
9
9
9
9
9
9
9
9
9
9
9
9
9
9
9
9
9
9
9
9
9
9
9
9
9
9
9
9
9
9
9
9
9
9
9
9
9
9
9
9
9
9
9
9
9
9
9
9
9
9
9
9
9
9
9
9
9
9
9
9
9
9
9
9
9
9
9
9
9
9
9
9
9
9
9
9
9
9
9
9
9
9
9
9
9
9
9
9
9
9
9
9
9
9
9
9
9
9
9
9
9
9
9
9
9
9
9
9
9
9
9
9
9
9
9
9
9
9
9
9
9
9
9
9
9
9
9
9
9
9
9
9
9
9
9
9
9
9
9
9
9
9
9
9
9
9
9
9
9
9
9
9
9
9
9
9
9
9
9
9
9
9
9
9
9
9
9
9
9
9
9
9
9
9
9
9
9
9
9
9
9
9
9
9
9
9
9
9
9
9
9
9
9
9
9
9
9
9
9
9
9
9
9
9
9
9
9
9
9
9
9
9
9
9
9
9
9
9
9
9
9
9
9
9
9
9
9
9
9
9
9
9
9
9
9
9
9
9
9
9
9
9
9
9
9
9
9
9
9
9
9
9
9
9
9
9
9
9
9
9
9
9
9
9
9
9
9
9
9
9
9
9
9
9
9
9
9
9
9
9
9
9
9
POINT_DATA 1240
SCALARS u1 float
LOOKUP_TABLE default
-2e-05
-2e-05
-2e-05
-3e-05
-2e-05
-3e-05
-2e-05
-3e-05
-2e-05
-2e-05
-3e-05
-2e-05
-3e-05
-2e-05
-3e-05
-2e-05
-3e-05
-2e-05
-3e-05
-2e-05
-3e-05
-2e-05
-3e-05
-3e-05
-3e-05
-3e-05
-3e-05
-3e-05
-2e-05
-3e-05
-2e-05
-4e-05
-2e-05
-4e-05
-2e-05
-4e-05
-1e-05
-5e-05
-1e-05
-5e-05
-1e-05
-1e-05
-6e-05
-1e-05
-6e-05
-9e-06
-7e-05
-9e-06
-7e-05
-9e-06
-8e-05
-9e-06
-8e-05
-9e-06
-8e-05
-9e-06
-8e-05
-9e-06
-9e-05
-9e-06
-9e-05
-9e-06
-9e-05
-9e-05
-1e-05
-9e-05
-1e-05
-8e-05
-1e-05
-8e-05
-1e-05
-8e-05
-1e-05
-8e-05
-1e-05
-7e-05
-1e-05
-7e-05
-1e-05
-6e-05
-1e-05
-6e-05
-1e-05
-5e-05
-1e-05
-5e-05
-1e-05
-5e-05
-1e-05
-4e-05
-1e-05
-4e-05
-1e-05
-9e-06
-4e-05
-8e-06
-3e-05
-7e-06
-3e-05
-5e-06
-3e-05
-4e-06
-3e-05
-3e-06
-3e-05
-2e-06
-2e-05
-1e-06
-2e-05
-3e-07
-2e-05
4e-07
-2e-05
8e-07
-2e-05
-2e-05
9e-07
-2e-05
8e-07
-3e-05
5e-07
-3e-05
-1e-07
-3e-05
-9e-07
-3e-05
-2e-06
-3e-05
-3e-06
-3e-05
-3e-06
-4e-05
-4e-06
-4e-05
-5e-06
-4e-05
-5e-06
-4e-05
-5e-06
-4e-05
-5e-06
-4e-05
-5e-06
-4e-05
-5e-06
-3e-05
-5e-06
-5e-06
-3e-05
-5e-06
-3e-05
-5e-06
-3e-05
-4e-06
-2e-05
-3e-06
-2e-05
-2e-06
-2e-05
-4e-07
-2e-05
2e-06
-2e-05
4e-06
-2e-05
6e-06
-2e-05
-2e-05
9e-06
-2e-05
1e-05
-2e-05
1e-05
-2e-05
1e-05
-2e-05
2e-05
-2e-05
2e-05
-2e-05
2e-05
-2e-05
2e-05
-2e-05
2e-05
-2e-05
2e-05
-2e-05
1e-05
-2e-05
1e-05
-2e-05
1e-05
-2e-05
8e-06
-2e-05
6e-06
-2e-05
4e-06
3e-06
-2e-05
2e-06
-2e-05
2e-06
-2e-05
2e-06
-2e-05
2e-06
-2e-05
3e-06
-2e-05
4e-06
-2e-05
5e-06
-2e-05
6e-06
-2e-05
8e-06
-2e-05
1e-05
-1e-05
1e-05
-1e-05
1e-05
-1e-05
2e-05
-1e-05
2e-05
-1e-05
2e-05
-9e-06
3e-05
-8e-06
3e-05
-7e-06
4e-05
-7e-06
4e-05
-7e-06
5e-05
-7e-06
5e-05
-7e-06
6e-05
-7e-06
6e-05
-8e-06
6e-05
-9e-06
6e-05
-1e-05
7e-05
-1e-05
7e-05
-1e-05
7e-05
-1e-05
7e-05
-1e-05
7e-05
-1e-05
6e-05
-1e-05
6e-05
-1e-05
6e-05
-1e-05
6e-05
-1e-05
5e-05
-1e-05
5e-05
-1e-05
4e-05
-1e-05
4e-05
-1e-05
3e-05
-1e-05
3e-05
-8e-06
2e-05
-7e-06
2e-05
-5e-06
2e-05
-2e-06
1e-05
2e-07
9e-06
3e-06
7e-06
5e-06
5e-06
7e-06
3e-06
9e-06
2e-06
1e-05
7e-07
1e-05
-3e-07
1e-05
-1e-06
1e-05
-2e-06
1e-05
-2e-06
1e-05
-2e-06
9e-06
-1e-06
7e-06
-8e-08
5e-06
1e-06
3e-06
-2e-05
-2e-05
-2e-05
-2e-05
-3e-05
-2e-05
-3e-05
-2e-05
-3e-05
-2e-05
-3e-05
-2e-05
-3e-05
-2e-05
-3e-05
-2e-05
-3e-05
-2e-05
-3e-05
-3e-05
-3e-05
-3e-05
-3e-05
-3e-05
-3e-05
-3e-05
-3e-05
-4e-05
-2e-05
-4e-05
-2e-05
-4e-05
-2e-05
-5e-05
-2e-05
-5e-05
-1e-05
-6e-05
-1e-05
-6e-05
-1e-05
-7e-05
-1e-05
-7e-05
-9e-06
-8e-05
-8e-06
-8e-05
-8e-06
-8e-05
-7e-06
-9e-05
-7e-06
-9e-05
-6e-06
-9e-05
-6e-06
-9e-05
-6e-06
-9e-05
-5e-06
-9e-05
-5e-06
-9e-05
-5e-06
-8e-05
-5e-06
-8e-05
-5e-06
-8e-05
-5e-06
-7e-05
-6e-06
-7e-05
-6e-06
-7e-05
-6e-06
-6e-05
-7e-06
-6e-05
-7e-06
-5e-05
-7e-06
-5e-05
-7e-06
-4e-05
-7e-06
-4e-05
-7e-06
-4e-05
-7e-06
-3e-05
-7e-06
-3e-05
-7e-06
-3e-05
-7e-06
-3e-05
-7e-06
-3e-05
-7e-06
-3e-05
-7e-06
-2e-05
-7e-06
-2e-05
-7e-06
-2e-05
-8e-06
-2e-05
-8e-06
-2e-05
-8e-06
-2e-05
-9e-06
-2e-05
-9e-06
-3e-05
-9e-06
-3e-05
-9e-06
-3e-05
-9e-06
-3e-05
-9e-06
-3e-05
-8e-06
-4e-05
-8e-06
-4e-05
-8e-06
-4e-05
-7e-06
-4e-05
-7e-06
-4e-05
-7e-06
-4e-05
-6e-06
-4e-05
-6e-06
-3e-05
-5e-06
-3e-05
-3e-06
-3e-05
-2e-06
-3e-05
-1e-07
-3e-05
2e-06
-2e-05
4e-06
-2e-05
7e-06
-2e-05
9e-06
-2e-05
1e-05
-2e-05
1e-05
-2e-05
1e-05
-1e-05
2e-05
-1e-05
2e-05
-1e-05
2e-05
-1e-05
2e-05
-1e-05
2e-05
-1e-05
1e-05
-1e-05
1e-05
-1e-05
1e-05
-1e-05
9e-06
-1e-05
7e-06
-1e-05
5e-06
-1e-05
4e-06
-1e-05
3e-06
-1e-05
2e-06
-1e-05
2e-06
-1e-05
2e-06
-1e-05
2e-06
-1e-05
3e-06
-1e-05
4e-06
-1e-05
5e-06
-1e-05
7e-06
-1e-05
8e-06
-1e-05
1e-05
-1e-05
1e-05
-1e-05
1e-05
-1e-05
2e-05
-1e-05
2e-05
-1e-05
3e-05
-1e-05
3e-05
-1e-05
3e-05
-1e-05
4e-05
-1e-05
4e-05
-2e-05
5e-05
-2e-05
5e-05
-2e-05
6e-05
-2e-05
6e-05
-2e-05
6e-05
-2e-05
6e-05
-2e-05
7e-05
-2e-05
7e-05
-2e-05
7e-05
-1e-05
7e-05
-1e-05
7e-05
-1e-05
6e-05
-1e-05
6e-05
-1e-05
6e-05
-1e-05
6e-05
-1e-05
5e-05
-1e-05
5e-05
-1e-05
4e-05
-8e-06
4e-05
-6e-06
3e-05
-4e-06
3e-05
-2e-06
2e-05
7e-07
2e-05
3e-06
2e-05
6e-06
1e-05
8e-06
1e-05
9e-06
7e-06
1e-05
5e-06
1e-05
4e-06
1e-05
2e-06
1e-05
1e-06
1e-05
-7e-08
1e-05
-1e-06
8e-06
-2e-06
7e-06
-2e-06
5e-06
-2e-06
3e-06
-1e-06
-2e-07
1e-06
-2e-05
-2e-05
-2e-05
-2e-05
-2e-05
-2e-05
-3e-05
-2e-05
-2e-05
-3e-05
-3e-05
-2e-05
-2e-05
-3e-05
-3e-05
-2e-05
-2e-05
-2e-05
-3e-05
-3e-05
-2e-05
-2e-05
-3e-05
-3e-05
-2e-05
-2e-05
-3e-05
-3e-05
-2e-05
-2e-05
-3e-05
-3e-05
-2e-05
-2e-05
-3e-05
-3e-05
-2e-05
-2e-05
-3e-05
-3e-05
-3e-05
-3e-05
-3e-05
-3e-05
-3e-05
-3e-05
-3e-05
-3e-05
-3e-05
-3e-05
-3e-05
-3e-05
-3e-05
-3e-05
-3e-05
-2e-05
-3e-05
-3e-05
-2e-05
-2e-05
-4e-05
-4e-05
-2e-05
-2e-05
-4e-05
-4e-05
-2e-05
-2e-05
-5e-05
-5e-05
-2e-05
-1e-05
-5e-05
-5e-05
-1e-05
-1e-05
-6e-05
-6e-05
-1e-05
-1e-05
-1e-05
-6e-05
-6e-05
-1e-05
-1e-05
-7e-05
-7e-05
-1e-05
-9e-06
-7e-05
-7e-05
-9e-06
-9e-06
-7e-05
-8e-05
-9e-06
-9e-06
-8e-05
-8e-05
-8e-06
-8e-06
-8e-05
-8e-05
-8e-06
-8e-06
-8e-05
-8e-05
-7e-06
-8e-06
-9e-05
-9e-05
-7e-06
-8e-06
-9e-05
-9e-05
-7e-06
-8e-06
-9e-05
-9e-05
-7e-06
-8e-06
-9e-05
-9e-05
-9e-05
-7e-06
-8e-06
-9e-05
-9e-05
-7e-06
-9e-06
-9e-05
-8e-05
-7e-06
-9e-06
-8e-05
-8e-05
-7e-06
-1e-05
-8e-05
-8e-05
-8e-06
-1e-05
-8e-05
-8e-05
-8e-06
-1e-05
-8e-05
-7e-05
-8e-06
-1e-05
-7e-05
-7e-05
-9e-06
-1e-05
-7e-05
-6e-05
-9e-06
-1e-05
-6e-05
-6e-05
-9e-06
-1e-05
-6e-05
-5e-05
-9e-06
-1e-05
-5e-05
-5e-05
-9e-06
-1e-05
-5e-05
-4e-05
-9e-06
-1e-05
-4e-05
-4e-05
-8e-06
-9e-06
-4e-05
-4e-05
-8e-06
-9e-06
-8e-06
-4e-05
-3e-05
-8e-06
-7e-06
-3e-05
-3e-05
-7e-06
-6e-06
-3e-05
-3e-05
-6e-06
-6e-06
-3e-05
-3e-05
-6e-06
-5e-06
-3e-05
-3e-05
-6e-06
-4e-06
-3e-05
-3e-05
-5e-06
-3e-06
-3e-05
-2e-05
-5e-06
-3e-06
-2e-05
-2e-05
-5e-06
-2e-06
-2e-05
-2e-05
-5e-06
-2e-06
-2e-05
-2e-05
-5e-06
-2e-06
-2e-05
-2e-05
-2e-05
-5e-06
-2e-06
-2e-05
-2e-05
-5e-06
-2e-06
-2e-05
-2e-05
-5e-06
-3e-06
-2e-05
-3e-05
-6e-06
-3e-06
-3e-05
-3e-05
-6e-06
-4e-06
-3e-05
-3e-05
-7e-06
-4e-06
-3e-05
-3e-05
-7e-06
-5e-06
-3e-05
-3e-05
-7e-06
-5e-06
-3e-05
-4e-05
-7e-06
-6e-06
-4e-05
-4e-05
-7e-06
-6e-06
-4e-05
-4e-05
-7e-06
-6e-06
-4e-05
-4e-05
-7e-06
-6e-06
-4e-05
-4e-05
-7e-06
-6e-06
-4e-05
-4e-05
-6e-06
-6e-06
-4e-05
-4e-05
-6e-06
-6e-06
-4e-05
-3e-05
-6e-06
-6e-06
-5e-06
-3e-05
-3e-05
-5e-06
-5e-06
-3e-05
-3e-05
-4e-06
-4e-06
-3e-05
-3e-05
-3e-06
-3e-06
-3e-05
-2e-05
-2e-06
-2e-06
-2e-05
-2e-05
-9e-08
-2e-07
-2e-05
-2e-05
2e-06
2e-06
-2e-05
-2e-05
4e-06
4e-06
-2e-05
-2e-05
6e-06
6e-06
-2e-05
-2e-05
9e-06
9e-06
-2e-05
-2e-05
-2e-05
1e-05
1e-05
-2e-05
-2e-05
1e-05
1e-05
-2e-05
-2e-05
1e-05
1e-05
-1e-05
-2e-05
2e-05
2e-05
-1e-05
-1e-05
2e-05
2e-05
-1e-05
-1e-05
2e-05
2e-05
-1e-05
-1e-05
2e-05
2e-05
-1e-05
-1e-05
2e-05
2e-05
-1e-05
-2e-05
1e-05
2e-05
-1e-05
-2e-05
1e-05
1e-05
-1e-05
-2e-05
1e-05
1e-05
-1e-05
-2e-05
9e-06
9e-06
-1e-05
-2e-05
7e-06
7e-06
-1e-05
-2e-05
5e-06
6e-06
-2e-05
-2e-05
4e-06
4e-06
-2e-05
-2e-05
3e-06
3e-06
2e-06
-2e-05
-2e-05
2e-06
2e-06
-2e-05
-2e-05
2e-06
2e-06
-2e-05
-2e-05
2e-06
2e-06
-2e-05
-2e-05
3e-06
3e-06
-2e-05
-2e-05
3e-06
4e-06
-2e-05
-2e-05
4e-06
5e-06
-2e-05
-2e-05
6e-06
6e-06
-2e-05
-2e-05
7e-06
7e-06
-1e-05
-2e-05
9e-06
9e-06
-1e-05
-1e-05
1e-05
1e-05
-1e-05
-1e-05
-1e-05
1e-05
1e-05
-1e-05
-1e-05
2e-05
2e-05
-1e-05
-1e-05
2e-05
2e-05
-1e-05
-1e-05
2e-05
2e-05
-1e-05
-1e-05
3e-05
3e-05
-1e-05
-1e-05
3e-05
3e-05
-1e-05
-9e-06
4e-05
4e-05
-1e-05
-9e-06
4e-05
4e-05
-1e-05
-9e-06
5e-05
5e-05
-1e-05
-1e-05
5e-05
5e-05
-1e-05
-1e-05
5e-05
6e-05
-1e-05
-1e-05
6e-05
6e-05
-1e-05
-1e-05
6e-05
6e-05
-1e-05
-1e-05
6e-05
6e-05
-1e-05
-1e-05
7e-05
7e-05
7e-05
-1e-05
-1e-05
7e-05
7e-05
-1e-05
-1e-05
7e-05
7e-05
-1e-05
-1e-05
7e-05
7e-05
-1e-05
-1e-05
7e-05
7e-05
-1e-05
-1e-05
6e-05
6e-05
-1e-05
-1e-05
6e-05
6e-05
-1e-05
-1e-05
6e-05
6e-05
-1e-05
-1e-05
6e-05
5e-05
-1e-05
-1e-05
5e-05
5e-05
-1e-05
-1e-05
5e-05
5e-05
-1e-05
-1e-05
4e-05
4e-05
-1e-05
-1e-05
4e-05
4e-05
-8e-06
-9e-06
3e-05
3e-05
-6e-06
-8e-06
3e-05
3e-05
-4e-06
-6e-06
2e-05
2e-05
-2e-06
-4e-06
2e-05
2e-05
5e-07
-2e-06
2e-05
1e-05
3e-06
3e-07
1e-05
1e-05
5e-06
3e-06
1e-05
8e-06
7e-06
5e-06
8e-06
6e-06
9e-06
7e-06
6e-06
4e-06
1e-05
9e-06
4e-06
3e-06
1e-05
1e-05
3e-06
2e-06
1e-05
1e-05
1e-06
4e-07
1e-05
1e-05
1e-07
-6e-07
1e-05
1e-05
-9e-07
-1e-06
1e-05
1e-05
-2e-06
-2e-06
9e-06
1e-05
-2e-06
-2e-06
7e-06
9e-06
-2e-06
-2e-06
5e-06
7e-06
-1e-06
-1e-06
3e-06
-2e-07
1e-06
5e-06
-2e-07
3e-06
1e-06
SCALARS u2 float
LOOKUP_TABLE default
-6e-06
-8e-06
-4e-06
-8e-06
-3e-06
-1e-05
-2e-06
-1e-05
-1e-06
-9e-07
-1e-05
-8e-07
-2e-05
-7e-07
-2e-05
-6e-07
-2e-05
-6e-07
-2e-05
-6e-07
-2e-05
-8e-07
-2e-05
-1e-06
-2e-05
-1e-06
-2e-05
-2e-06
-2e-05
-3e-06
-2e-05
-4e-06
-2e-05
-4e-06
-2e-05
-5e-06
-1e-05
-6e-06
-1e-05
-7e-06
-1e-05
-9e-06
-7e-06
-8e-06
-7e-06
-8e-06
-7e-06
-8e-06
-6e-06
-8e-06
-6e-06
-9e-06
-5e-06
-1e-05
-4e-06
-1e-05
-3e-06
-1e-05
-2e-06
-1e-05
-7e-07
-2e-05
6e-07
2e-06
-2e-05
3e-06
-2e-05
4e-06
-2e-05
5e-06
-3e-05
6e-06
-3e-05
7e-06
-4e-05
8e-06
-4e-05
8e-06
-4e-05
8e-06
-5e-05
8e-06
-5e-05
8e-06
-6e-05
7e-06
-6e-05
7e-06
-7e-05
6e-06
-7e-05
5e-06
-7e-05
-7e-05
4e-06
-7e-05
4e-06
-7e-05
3e-06
-7e-05
3e-06
-7e-05
3e-06
-7e-05
2e-06
-7e-05
3e-06
-6e-05
3e-06
-6e-05
3e-06
-6e-05
3e-06
-5e-05
3e-06
4e-06
-5e-05
4e-06
-4e-05
5e-06
-4e-05
7e-06
-3e-05
8e-06
-3e-05
1e-05
-2e-05
1e-05
-2e-05
2e-05
-2e-05
2e-05
-2e-05
2e-05
-1e-05
2e-05
-1e-05
2e-05
-9e-06
3e-05
-8e-06
3e-05
-7e-06
3e-05
-6e-06
3e-05
-5e-06
-4e-06
3e-05
-4e-06
3e-05
-4e-06
2e-05
-5e-06
2e-05
-6e-06
2e-05
-8e-06
2e-05
-9e-06
2e-05
-1e-05
1e-05
-1e-05
1e-05
-1e-05
1e-05
1e-05
-2e-05
1e-05
-2e-05
1e-05
-2e-05
1e-05
-2e-05
2e-05
-2e-05
2e-05
-2e-05
2e-05
-2e-05
2e-05
-1e-05
2e-05
-1e-05
2e-05
-9e-06
3e-05
-6e-06
3e-05
-4e-06
3e-05
-2e-06
4e-05
5e-07
4e-05
2e-06
5e-05
3e-06
4e-06
5e-05
5e-06
6e-05
6e-06
6e-05
6e-06
7e-05
6e-06
7e-05
6e-06
7e-05
6e-06
8e-05
6e-06
8e-05
6e-06
8e-05
6e-06
8e-05
6e-06
8e-05
5e-06
8e-05
4e-06
8e-05
4e-06
8e-05
3e-06
8e-05
2e-06
7e-05
1e-06
7e-05
8e-07
7e-05
5e-07
6e-05
4e-07
6e-05
6e-07
5e-05
1e-06
5e-05
2e-06
4e-05
2e-06
4e-05
3e-06
4e-05
4e-06
3e-05
6e-06
3e-05
7e-06
3e-05
8e-06
2e-05
9e-06
2e-05
1e-05
2e-05
1e-05
2e-05
1e-05
2e-05
1e-05
2e-05
1e-05
2e-05
2e-05
2e-05
2e-05
2e-05
2e-05
2e-05
2e-05
2e-05
2e-05
2e-05
1e-05
2e-05
1e-05
2e-05
1e-05
2e-05
1e-05
3e-05
1e-05
3e-05
1e-05
3e-05
1e-05
3e-05
1e-05
3e-05
1e-05
3e-05
9e-06
3e-05
9e-06
3e-05
9e-06
3e-05
9e-06
3e-05
9e-06
3e-05
1e-05
2e-05
1e-05
2e-05
1e-05
2e-05
1e-05
2e-05
1e-05
1e-05
-1e-05
-6e-06
-1e-05
-4e-06
-1e-05
-3e-06
-2e-05
-1e-06
-2e-05
-6e-07
-2e-05
9e-08
-2e-05
6e-07
-2e-05
1e-06
-2e-05
1e-06
-2e-05
2e-06
-2e-05
2e-06
-2e-05
2e-06
-2e-05
3e-06
-2e-05
3e-06
-2e-05
3e-06
-1e-05
3e-06
-1e-05
3e-06
-1e-05
2e-06
-9e-06
2e-06
-8e-06
2e-06
-8e-06
1e-06
-8e-06
1e-06
-8e-06
8e-07
-9e-06
6e-07
-1e-05
6e-07
-1e-05
6e-07
-1e-05
7e-07
-1e-05
7e-07
-2e-05
8e-07
-2e-05
8e-07
-2e-05
8e-07
-2e-05
9e-07
-3e-05
9e-07
-3e-05
9e-07
-4e-05
7e-07
-4e-05
4e-07
-5e-05
1e-07
-5e-05
-2e-07
-5e-05
-5e-07
-6e-05
-8e-07
-6e-05
-1e-06
-7e-05
-1e-06
-7e-05
-1e-06
-7e-05
-1e-06
-7e-05
-7e-07
-7e-05
-4e-07
-7e-05
-7e-08
-7e-05
3e-07
-7e-05
7e-07
-7e-05
1e-06
-7e-05
2e-06
-7e-05
2e-06
-6e-05
3e-06
-6e-05
4e-06
-5e-05
5e-06
-5e-05
7e-06
-4e-05
9e-06
-4e-05
1e-05
-3e-05
1e-05
-3e-05
2e-05
-3e-05
2e-05
-2e-05
2e-05
-2e-05
2e-05
-2e-05
2e-05
-1e-05
3e-05
-1e-05
3e-05
-1e-05
3e-05
-8e-06
3e-05
-7e-06
3e-05
-6e-06
2e-05
-5e-06
2e-05
-4e-06
2e-05
-4e-06
2e-05
-4e-06
2e-05
-5e-06
2e-05
-6e-06
1e-05
-7e-06
1e-05
-9e-06
1e-05
-1e-05
1e-05
-1e-05
1e-05
-1e-05
1e-05
-2e-05
1e-05
-2e-05
2e-05
-2e-05
2e-05
-2e-05
2e-05
-2e-05
2e-05
-2e-05
2e-05
-2e-05
2e-05
-1e-05
3e-05
-1e-05
3e-05
-9e-06
3e-05
-7e-06
4e-05
-4e-06
4e-05
-2e-06
5e-05
9e-08
5e-05
2e-06
6e-05
4e-06
6e-05
5e-06
7e-05
6e-06
7e-05
7e-06
7e-05
7e-06
8e-05
8e-06
8e-05
8e-06
8e-05
8e-06
8e-05
9e-06
8e-05
9e-06
8e-05
9e-06
8e-05
1e-05
8e-05
1e-05
8e-05
1e-05
7e-05
1e-05
7e-05
1e-05
7e-05
9e-06
6e-05
9e-06
6e-05
9e-06
5e-05
8e-06
5e-05
8e-06
4e-05
8e-06
4e-05
8e-06
4e-05
8e-06
3e-05
8e-06
3e-05
8e-06
3e-05
8e-06
2e-05
8e-06
2e-05
8e-06
2e-05
8e-06
2e-05
8e-06
2e-05
8e-06
2e-05
8e-06
2e-05
8e-06
2e-05
7e-06
2e-05
7e-06
2e-05
7e-06
2e-05
6e-06
2e-05
6e-06
2e-05
6e-06
2e-05
6e-06
2e-05
6e-06
3e-05
6e-06
3e-05
6e-06
3e-05
7e-06
3e-05
7e-06
3e-05
7e-06
3e-05
8e-06
3e-05
8e-06
3e-05
9e-06
3e-05
9e-06
3e-05
1e-05
3e-05
1e-05
2e-05
1e-05
2e-05
1e-05
2e-05
2e-05
-6e-06
-8e-06
-8e-06
-6e-06
-4e-06
-1e-05
-1e-05
-4e-06
-3e-06
-1e-05
-1e-05
-3e-06
-2e-06
-1e-05
-1e-05
-2e-06
-1e-06
-8e-07
-2e-05
-2e-05
-9e-07
-6e-07
-2e-05
-2e-05
-3e-07
-3e-07
-2e-05
-2e-05
5e-08
-2e-07
-2e-05
-2e-05
4e-07
-7e-09
-2e-05
-2e-05
7e-07
5e-08
-2e-05
-2e-05
9e-07
3e-08
-2e-05
-2e-05
1e-06
-7e-08
-2e-05
-2e-05
1e-06
-3e-07
-2e-05
-2e-05
1e-06
-6e-07
-2e-05
-2e-05
1e-06
-1e-06
-2e-05
-2e-05
7e-07
-2e-06
-2e-05
-2e-05
5e-07
-2e-06
-1e-05
-1e-05
1e-07
-3e-06
-1e-05
-1e-05
-2e-07
-3e-06
-1e-05
-1e-05
-6e-07
-4e-06
-9e-06
-9e-06
-8e-06
-1e-06
-4e-06
-8e-06
-8e-06
-1e-06
-4e-06
-8e-06
-8e-06
-1e-06
-4e-06
-8e-06
-8e-06
-1e-06
-4e-06
-9e-06
-9e-06
-1e-06
-3e-06
-1e-05
-1e-05
-1e-06
-3e-06
-1e-05
-1e-05
-9e-07
-2e-06
-1e-05
-1e-05
-5e-07
-1e-06
-1e-05
-1e-05
-9e-08
-5e-07
-1e-05
-2e-05
4e-07
4e-07
-2e-05
-2e-05
1e-06
9e-07
2e-06
-2e-05
-2e-05
2e-06
3e-06
-2e-05
-2e-05
2e-06
3e-06
-2e-05
-3e-05
2e-06
4e-06
-3e-05
-3e-05
3e-06
5e-06
-3e-05
-3e-05
3e-06
5e-06
-4e-05
-4e-05
3e-06
5e-06
-4e-05
-4e-05
3e-06
6e-06
-5e-05
-5e-05
3e-06
5e-06
-5e-05
-5e-05
3e-06
5e-06
-6e-05
-6e-05
2e-06
5e-06
-6e-05
-6e-05
2e-06
4e-06
-6e-05
-6e-05
1e-06
4e-06
-7e-05
-7e-05
1e-06
3e-06
-7e-05
-7e-05
9e-07
3e-06
-7e-05
-7e-05
-7e-05
8e-07
2e-06
-7e-05
-7e-05
7e-07
2e-06
-7e-05
-7e-05
8e-07
2e-06
-7e-05
-7e-05
9e-07
2e-06
-7e-05
-7e-05
1e-06
2e-06
-7e-05
-7e-05
1e-06
2e-06
-7e-05
-7e-05
2e-06
2e-06
-7e-05
-6e-05
2e-06
2e-06
-6e-05
-6e-05
3e-06
3e-06
-6e-05
-6e-05
3e-06
3e-06
-5e-05
-5e-05
4e-06
4e-06
4e-06
-5e-05
-5e-05
5e-06
5e-06
-5e-05
-4e-05
7e-06
7e-06
-4e-05
-4e-05
9e-06
9e-06
-4e-05
-3e-05
1e-05
1e-05
-3e-05
-3e-05
1e-05
1e-05
-3e-05
-2e-05
2e-05
2e-05
-2e-05
-2e-05
2e-05
2e-05
-2e-05
-2e-05
2e-05
2e-05
-2e-05
-1e-05
2e-05
2e-05
-1e-05
-1e-05
2e-05
2e-05
-1e-05
-1e-05
3e-05
3e-05
-1e-05
-9e-06
3e-05
3e-05
-9e-06
-8e-06
3e-05
3e-05
-7e-06
-7e-06
3e-05
3e-05
-6e-06
-6e-06
3e-05
3e-05
-5e-06
-5e-06
-4e-06
2e-05
3e-05
-4e-06
-4e-06
2e-05
2e-05
-4e-06
-4e-06
2e-05
2e-05
-4e-06
-5e-06
2e-05
2e-05
-5e-06
-6e-06
2e-05
2e-05
-6e-06
-7e-06
2e-05
2e-05
-7e-06
-9e-06
1e-05
1e-05
-9e-06
-1e-05
1e-05
1e-05
-1e-05
-1e-05
1e-05
1e-05
-1e-05
-1e-05
1e-05
1e-05
1e-05
-1e-05
-2e-05
1e-05
1e-05
-2e-05
-2e-05
1e-05
1e-05
-2e-05
-2e-05
1e-05
2e-05
-2e-05
-2e-05
2e-05
2e-05
-2e-05
-2e-05
2e-05
2e-05
-2e-05
-2e-05
2e-05
2e-05
-2e-05
-2e-05
2e-05
2e-05
-2e-05
-1e-05
2e-05
2e-05
-1e-05
-1e-05
3e-05
3e-05
-1e-05
-9e-06
3e-05
3e-05
-9e-06
-6e-06
3e-05
3e-05
-7e-06
-4e-06
4e-05
4e-05
-4e-06
-2e-06
4e-05
4e-05
-2e-06
2e-07
4e-05
5e-05
1e-07
2e-06
5e-05
5e-05
2e-06
3e-06
4e-06
5e-05
6e-05
4e-06
5e-06
6e-05
6e-05
5e-06
6e-06
6e-05
6e-05
6e-06
6e-06
7e-05
7e-05
6e-06
6e-06
7e-05
7e-05
7e-06
7e-06
7e-05
8e-05
7e-06
7e-06
8e-05
8e-05
7e-06
7e-06
8e-05
8e-05
8e-06
7e-06
8e-05
8e-05
8e-06
7e-06
8e-05
8e-05
8e-06
7e-06
8e-05
8e-05
8e-05
8e-06
6e-06
8e-05
8e-05
8e-06
6e-06
8e-05
8e-05
8e-06
6e-06
8e-05
8e-05
8e-06
5e-06
8e-05
7e-05
7e-06
4e-06
7e-05
7e-05
7e-06
4e-06
7e-05
7e-05
7e-06
4e-06
6e-05
6e-05
6e-06
3e-06
6e-05
6e-05
6e-06
3e-06
6e-05
5e-05
6e-06
3e-06
5e-05
5e-05
6e-06
4e-06
5e-05
4e-05
6e-06
4e-06
4e-05
4e-05
6e-06
5e-06
4e-05
3e-05
6e-06
5e-06
3e-05
3e-05
7e-06
6e-06
7e-06
3e-05
3e-05
7e-06
7e-06
3e-05
3e-05
8e-06
8e-06
3e-05
2e-05
8e-06
9e-06
2e-05
2e-05
9e-06
1e-05
2e-05
2e-05
9e-06
1e-05
2e-05
2e-05
1e-05
1e-05
2e-05
2e-05
1e-05
1e-05
2e-05
2e-05
1e-05
1e-05
2e-05
2e-05
1e-05
1e-05
2e-05
2e-05
1e-05
1e-05
2e-05
2e-05
1e-05
1e-05
2e-05
2e-05
1e-05
1e-05
2e-05
2e-05
9e-06
1e-05
2e-05
2e-05
9e-06
1e-05
2e-05
2e-05
9e-06
1e-05
2e-05
2e-05
8e-06
1e-05
2e-05
2e-05
8e-06
1e-05
3e-05
3e-05
8e-06
9e-06
3e-05
3e-05
8e-06
9e-06
3e-05
3e-05
8e-06
9e-06
3e-05
3e-05
8e-06
9e-06
3e-05
3e-05
8e-06
9e-06
3e-05
3e-05
8e-06
9e-06
3e-05
3e-05
8e-06
9e-06
3e-05
3e-05
9e-06
9e-06
3e-05
3e-05
9e-06
9e-06
3e-05
3e-05
1e-05
1e-05
3e-05
3e-05
1e-05
1e-05
2e-05
2e-05
1e-05
1e-05
2e-05
2e-05
1e-05
1e-05
2e-05
1e-05
2e-05
2e-05
1e-05
2e-05
1e-05
SCALARS strain_1 float
LOOKUP_TABLE default
-0.000018
-0.000003
-0.000029
-0.000012
-0.000030
-0.000028
-0.000025
-0.000029
-0.000046
-0.000062
-0.000037
-0.000049
-0.000061
-0.000065
-0.000093
-0.000068
-0.000138
-0.000058
-0.000175
-0.000059
-0.000211
-0.000031
-0.000291
-0.000023
-0.000359
0.000033
-0.000469
0.000056
-0.000547
0.000110
-0.000671
0.000177
-0.000768
0.000237
-0.000915
0.000336
-0.001049
0.000434
-0.001205
0.000538
-0.001387
-0.001574
0.000664
-0.001767
0.000819
-0.001986
0.000960
-0.002207
0.001144
-0.002411
0.001323
-0.002671
0.001521
-0.002945
0.001770
-0.003215
0.001985
-0.003508
0.002243
-0.003789
0.002509
-0.004084
0.002797
0.003080
-0.004385
0.003428
-0.004694
0.003741
-0.005031
0.004096
-0.005379
0.004460
-0.005722
0.004823
-0.006064
0.005205
-0.006446
0.005610
-0.006772
0.006017
-0.007129
0.006437
-0.007508
0.006859
-0.007880
0.007289
-0.008240
0.007725
-0.008610
0.008171
-0.008970
0.008623
-0.009344
-0.009717
0.009058
-0.010063
0.009510
-0.010425
0.009952
-0.010775
0.010397
-0.011113
0.010845
-0.011447
0.011273
-0.011792
0.011690
-0.012108
0.012132
-0.012402
0.012559
-0.012710
0.012947
-0.013000
0.013338
0.013732
-0.013272
0.014089
-0.013536
0.014438
-0.013779
0.014771
-0.014005
0.015098
-0.014240
0.015392
-0.014419
0.015665
-0.014625
0.015940
-0.014784
0.016162
-0.014930
0.016378
-0.015073
0.016588
-0.015173
0.016743
-0.015263
0.016885
-0.015349
0.017003
-0.015415
0.017111
-0.015460
0.017192
-0.015467
-0.015482
0.017246
-0.015453
0.017275
-0.015424
0.017273
-0.015379
0.017242
-0.015303
0.017207
-0.015208
0.017141
-0.015109
0.017037
-0.014987
0.016936
-0.014857
0.016801
-0.014700
0.016633
0.016466
-0.014506
0.016263
-0.014317
0.016044
-0.014105
0.015815
-0.013914
0.015550
-0.013676
0.015284
-0.013439
0.014993
-0.013178
0.014687
-0.012913
0.014393
-0.012632
0.014059
-0.012343
0.013712
-0.012059
0.013377
-0.011733
0.013022
-0.011419
0.012656
-0.011115
0.012289
-0.010788
0.011902
-0.010462
-0.010134
0.011527
-0.009787
0.011138
-0.009447
0.010752
-0.009108
0.010359
-0.008764
0.009960
-0.008406
0.009583
-0.008101
0.009183
-0.007739
0.008807
-0.007423
0.008423
-0.007072
0.008045
-0.006745
0.007648
-0.006423
0.007287
-0.006110
0.006920
-0.005783
0.006547
-0.005463
0.006211
-0.005175
0.005878
-0.004866
0.005531
-0.004577
0.005196
-0.004284
0.004901
-0.004021
0.004575
-0.003755
0.004268
-0.003509
0.003984
-0.003254
0.003708
-0.003021
0.003440
-0.002788
0.003198
-0.002573
0.002935
-0.002366
0.002702
-0.002163
0.002483
-0.001967
0.002251
-0.001794
0.002066
-0.001617
0.001868
-0.001455
0.001698
-0.001305
0.001533
-0.001170
0.001359
-0.001030
0.001220
-0.000911
0.001077
-0.000813
0.000941
-0.000705
0.000827
-0.000607
0.000722
-0.000534
0.000633
-0.000451
0.000527
-0.000374
0.000437
-0.000308
0.000379
-0.000264
0.000321
-0.000213
0.000271
-0.000163
0.000210
-0.000120
0.000172
-0.000098
0.000124
-0.000060
0.000094
-0.000073
0.000074
-0.000037
0.000042
-0.000029
0.000023
-0.000013
0.000012
-0.000012
0.000006
-0.000003
-0.000020
-0.000013
-0.000015
-0.000005
-0.000021
0.000003
-0.000012
-0.000003
-0.000005
-0.000010
-0.000033
-0.000024
-0.000041
-0.000012
-0.000038
-0.000019
-0.000054
-0.000053
-0.000063
-0.000071
-0.000046
-0.000090
-0.000054
-0.000120
-0.000062
-0.000188
-0.000061
-0.000227
-0.000035
-0.000304
-0.000005
-0.000370
0.000027
-0.000450
0.000058
-0.000563
0.000106
-0.000674
0.000166
-0.000787
0.000235
-0.000920
0.000316
-0.001068
0.000427
-0.001236
0.000526
-0.001392
0.000657
-0.001581
0.000788
-0.001780
0.000962
-0.002000
0.001105
-0.002202
0.001300
-0.002443
0.001503
-0.002673
0.001726
-0.002940
0.001938
-0.003190
0.002193
-0.003472
0.002463
-0.003760
0.002734
-0.004036
0.003013
-0.004353
0.003327
-0.004642
0.003646
-0.004974
0.003986
-0.005280
0.004328
-0.005602
0.004690
-0.005936
0.005035
-0.006289
0.005412
-0.006638
0.005800
-0.006978
0.006191
-0.007312
0.006577
-0.007658
0.006982
-0.007996
0.007397
-0.008354
0.007802
-0.008683
0.008225
-0.009018
0.008630
-0.009345
0.009047
-0.009678
0.009445
-0.009990
0.009843
-0.010293
0.010241
-0.010603
0.010623
-0.010902
0.011018
-0.011191
0.011396
-0.011462
0.011756
-0.011738
0.012097
-0.011992
0.012441
-0.012220
0.012762
-0.012448
0.013072
-0.012653
0.013348
-0.012861
0.013631
-0.013031
0.013888
-0.013189
0.014114
-0.013348
0.014341
-0.013483
0.014537
-0.013600
0.014685
-0.013690
0.014848
-0.013769
0.014979
-0.013832
0.015087
-0.013871
0.015162
-0.013905
0.015235
-0.013898
0.015258
-0.013874
0.015273
-0.013859
0.015274
-0.013815
0.015241
-0.013759
0.015184
-0.013656
0.015109
-0.013561
0.015015
-0.013429
0.014884
-0.013304
0.014749
-0.013163
0.014611
-0.013005
0.014408
-0.012816
0.014216
-0.012624
0.014006
-0.012414
0.013777
-0.012214
0.013519
-0.011970
0.013260
-0.011726
0.012981
-0.011462
0.012690
-0.011213
0.012393
-0.010929
0.012084
-0.010653
0.011759
-0.010365
0.011421
-0.010071
0.011093
-0.009766
0.010747
-0.009461
0.010408
-0.009156
0.010070
-0.008836
0.009686
-0.008533
0.009341
-0.008213
0.008968
-0.007894
0.008606
-0.007562
0.008263
-0.007254
0.007908
-0.006938
0.007536
-0.006618
0.007193
-0.006298
0.006845
-0.006011
0.006505
-0.005705
0.006155
-0.005421
0.005819
-0.005105
0.005511
-0.004821
0.005207
-0.004547
0.004886
-0.004262
0.004573
-0.003987
0.004291
-0.003724
0.004005
-0.003490
0.003726
-0.003242
0.003472
-0.003014
0.003199
-0.002788
0.002978
-0.002563
0.002720
-0.002361
0.002503
-0.002149
0.002305
-0.001971
0.002083
-0.001786
0.001894
-0.001622
0.001719
-0.001461
0.001542
-0.001322
0.001385
-0.001174
0.001255
-0.001051
0.001082
-0.000938
0.000959
-0.000809
0.000862
-0.000696
0.000741
-0.000615
0.000638
-0.000534
0.000539
-0.000442
0.000456
-0.000362
0.000378
-0.000314
0.000318
-0.000266
0.000250
-0.000223
0.000204
-0.000169
0.000177
-0.000129
0.000105
-0.000097
0.000100
-0.000081
0.000060
-0.000061
0.000048
-0.000040
0.000033
-0.000016
0.000020
-0.000022
0.000001
-0.000017
-0.000009
0.000008
-0.000008
-0.000018
-0.000024
-0.000014
-0.000017
0.000004
-0.000015
0.000006
-0.000035
-0.000019
-0.000014
-0.000032
-0.000025
-0.000006
-0.000028
-0.000031
-0.000034
-0.000009
-0.000036
-0.000039
-0.000040
-0.000024
-0.000028
-0.000041
-0.000036
-0.000077
-0.000027
-0.000040
-0.000059
-0.000072
-0.000067
-0.000077
-0.000069
-0.000073
-0.000076
-0.000090
-0.000061
-0.000062
-0.000114
-0.000153
-0.000069
-0.000053
-0.000157
-0.000198
-0.000040
-0.000047
-0.000211
-0.000247
-0.000047
-0.000038
-0.000276
-0.000323
-0.000005
-0.000006
-0.000346
-0.000405
0.000013
0.000033
-0.000434
-0.000486
0.000051
0.000068
-0.000525
-0.000585
0.000088
0.000129
-0.000641
-0.000704
0.000158
0.000193
-0.000735
-0.000831
0.000222
0.000266
-0.000871
-0.000965
0.000303
0.000356
-0.001019
-0.001125
0.000391
0.000474
-0.001180
-0.001281
0.000501
0.000582
-0.001358
-0.001464
-0.001631
0.000611
0.000706
-0.001551
-0.001772
0.000750
0.000853
-0.001746
-0.001970
0.000894
0.001017
-0.001962
-0.002192
0.001075
0.001183
-0.002179
-0.002431
0.001257
0.001379
-0.002432
-0.002681
0.001444
0.001577
-0.002666
-0.002926
0.001663
0.001812
-0.002922
-0.003207
0.001883
0.002070
-0.003205
-0.003487
0.002122
0.002315
-0.003479
-0.003773
0.002389
0.002596
-0.003762
-0.004062
0.002909
0.002677
0.003152
-0.004061
-0.004367
0.003024
0.003372
-0.004365
-0.004698
0.003335
0.003688
-0.004656
-0.005011
0.003665
0.004053
-0.004993
-0.005344
0.004024
0.004411
-0.005307
-0.005687
0.004353
0.004770
-0.005640
-0.006032
0.004725
0.005160
-0.005995
-0.006385
0.005104
0.005538
-0.006334
-0.006723
0.005481
0.005936
-0.006674
-0.007090
0.005878
0.006342
-0.007030
-0.007463
0.006263
0.006770
-0.007376
-0.007801
0.006663
0.007189
-0.007751
-0.008163
0.007098
0.007615
-0.008071
-0.008520
0.007498
0.008031
-0.008441
-0.008886
0.007924
0.008466
-0.008814
-0.009251
-0.009595
0.008358
0.008908
-0.009253
-0.009817
0.008768
0.009351
-0.009541
-0.010149
0.009183
0.009781
-0.009909
-0.010499
0.009610
0.010210
-0.010239
-0.010826
0.010023
0.010648
-0.010566
-0.011158
0.010448
0.011059
-0.010888
-0.011483
0.010848
0.011489
-0.011195
-0.011786
0.011245
0.011885
-0.011473
-0.012090
0.011646
0.012279
-0.011757
-0.012388
0.012022
0.012680
-0.012058
-0.012663
0.012363
0.013049
0.013446
-0.012302
-0.012911
0.012885
0.013630
-0.012576
-0.013167
0.013138
0.013992
-0.012793
-0.013396
0.013496
0.014292
-0.013025
-0.013618
0.013803
0.014585
-0.013248
-0.013826
0.014114
0.014870
-0.013421
-0.014007
0.014370
0.015129
-0.013605
-0.014178
0.014616
0.015384
-0.013759
-0.014331
0.014855
0.015615
-0.013903
-0.014483
0.015074
0.015808
-0.014048
-0.014622
0.015259
0.015975
-0.014138
-0.014699
0.015416
0.016141
-0.014249
-0.014794
0.015552
0.016277
-0.014292
-0.014854
0.015670
0.016379
-0.014362
-0.014902
0.015764
0.016467
-0.014394
-0.014960
0.015849
0.016543
-0.014414
-0.014935
-0.015016
0.015882
0.016554
-0.014442
-0.014941
0.015904
0.016584
-0.014392
-0.014893
0.015901
0.016574
-0.014334
-0.014829
0.015882
0.016551
-0.014288
-0.014737
0.015865
0.016483
-0.014195
-0.014663
0.015784
0.016414
-0.014107
-0.014536
0.015680
0.016307
-0.013982
-0.014421
0.015595
0.016185
-0.013875
-0.014276
0.015428
0.016036
-0.013706
-0.014108
0.015273
0.015842
0.015819
-0.013545
-0.013926
0.015189
0.015571
-0.013386
-0.013739
0.014852
0.015359
-0.013176
-0.013548
0.014668
0.015110
-0.012969
-0.013304
0.014421
0.014856
-0.012748
-0.013093
0.014189
0.014587
-0.012517
-0.012843
0.013901
0.014307
-0.012275
-0.012582
0.013622
0.014006
-0.012017
-0.012321
0.013339
0.013687
-0.011742
-0.012054
0.013064
0.013357
-0.011480
-0.011773
0.012710
0.013062
-0.011200
-0.011466
0.012378
0.012707
-0.010909
-0.011182
0.012059
0.012360
-0.010616
-0.010834
0.011703
0.011993
-0.010303
-0.010536
0.011363
0.011631
-0.009995
-0.010211
0.011006
0.011243
-0.009644
-0.009899
-0.009684
0.010640
0.010871
-0.009357
-0.009367
0.010287
0.010516
-0.008944
-0.009031
0.009910
0.010135
-0.008611
-0.008696
0.009553
0.009762
-0.008293
-0.008362
0.009175
0.009377
-0.007951
-0.008020
0.008803
0.008994
-0.007621
-0.007693
0.008434
0.008621
-0.007302
-0.007357
0.008074
0.008253
-0.006991
-0.007016
0.007690
0.007866
-0.006659
-0.006703
0.007331
0.007486
-0.006351
-0.006390
0.006948
0.007135
0.006881
-0.006017
-0.006064
0.006611
0.006557
-0.005728
-0.005750
0.006200
0.006209
-0.005438
-0.005431
0.005851
0.005872
-0.005116
-0.005131
0.005507
0.005528
-0.004834
-0.004859
0.005193
0.005199
-0.004557
-0.004559
0.004899
0.004890
-0.004275
-0.004289
0.004581
0.004581
-0.004000
-0.004003
0.004295
0.004275
-0.003741
-0.003738
0.003999
0.003997
-0.003494
-0.003483
0.003720
0.003713
-0.003240
-0.003255
0.003455
0.003451
-0.003004
-0.003019
0.003202
0.003190
-0.002772
-0.002782
0.002954
0.002959
-0.002550
-0.002567
0.002703
0.002721
-0.002334
-0.002358
-0.002193
0.002491
0.002487
-0.002140
-0.002040
0.002299
0.002278
-0.001912
-0.001850
0.002075
0.002088
-0.001733
-0.001685
0.001869
0.001893
-0.001568
-0.001500
0.001710
0.001695
-0.001407
-0.001359
0.001528
0.001521
-0.001265
-0.001211
0.001378
0.001356
-0.001115
-0.001081
0.001227
0.001221
-0.000977
-0.000943
0.001079
0.001073
-0.000893
-0.000841
0.000969
0.000954
-0.000777
-0.000727
0.000827
0.000827
-0.000689
-0.000637
0.000723
0.000743
-0.000586
-0.000549
0.000604
0.000661
-0.000488
-0.000479
0.000512
0.000556
-0.000415
-0.000385
0.000437
0.000478
-0.000352
-0.000342
0.000356
0.000404
-0.000288
-0.000262
0.000278
0.000331
-0.000232
-0.000218
0.000242
0.000268
-0.000202
-0.000171
0.000192
0.000228
-0.000138
-0.000139
0.000155
0.000174
-0.000126
-0.000099
0.000128
0.000140
-0.000093
-0.000085
0.000081
0.000096
-0.000073
-0.000076
0.000060
0.000069
-0.000038
-0.000054
0.000049
0.000059
-0.000034
-0.000033
0.000010
0.000024
-0.000026
-0.000026
0.000014
0.000010
-0.000017
-0.000011
-0.000001
0.000010
-0.000030
-0.000006
-0.000005
-0.000007
0.000011
-0.000004
-0.000007
-0.000007
-0.000015
-0.000001
-0.000012
-0.000023
-0.000008
-0.000008
-0.000012
-0.000010
-0.000026
-0.000015
-0.000005
-0.000012
-0.000011
SCALARS strain_2 float
LOOKUP_TABLE default
0.000180
0.000198
0.000410
0.000293
0.000250
0.000192
0.000443
0.000454
0.000578
0.000660
0.000538
0.000769
0.000746
0.000822
0.001264
0.000698
0.001711
0.000837
0.002148
0.000474
0.003006
0.000440
0.003706
0.000135
0.004775
-0.000176
0.005948
-0.000719
0.007119
-0.001262
0.008450
-0.001970
0.010124
-0.002966
0.011929
-0.003821
0.013649
-0.004996
0.015779
-0.006511
0.018017
0.020381
-0.008010
0.022921
-0.009581
0.025663
-0.011649
0.028788
-0.013483
0.031670
-0.015792
0.034972
-0.018291
0.038319
-0.021152
0.041969
-0.023917
0.045728
-0.026853
0.049537
-0.030362
0.053361
-0.033784
-0.037481
0.057691
-0.041339
0.061874
-0.045349
0.066280
-0.049647
0.070615
-0.054064
0.075440
-0.058631
0.079855
-0.063547
0.084736
-0.068378
0.089235
-0.073422
0.094371
-0.078398
0.099097
-0.083776
0.104077
-0.088954
0.108930
-0.094598
0.113911
-0.100059
0.118699
-0.105755
0.123677
0.128515
-0.111378
0.133268
-0.116783
0.137847
-0.122590
0.142507
-0.128187
0.146977
-0.133903
0.151424
-0.139420
0.155726
-0.144870
0.159939
-0.150357
0.163889
-0.155648
0.167594
-0.160731
0.171415
-0.166012
-0.170726
0.174699
-0.175499
0.178138
-0.180073
0.181232
-0.184490
0.183818
-0.188578
0.186567
-0.192491
0.188834
-0.196193
0.191022
-0.199666
0.192784
-0.202647
0.194433
-0.205821
0.195626
-0.208191
0.196885
-0.210407
0.197656
-0.212512
0.198283
-0.214202
0.198481
-0.215406
0.198482
-0.216498
0.198253
0.197656
-0.217251
0.196855
-0.217524
0.195783
-0.217471
0.194462
-0.217243
0.192915
-0.216828
0.191015
-0.215961
0.189065
-0.214738
0.186779
-0.213086
0.184335
-0.211321
0.181660
-0.209252
-0.206801
0.178544
-0.204157
0.175678
-0.201351
0.172257
-0.198000
0.168891
-0.194741
0.165313
-0.191086
0.161634
-0.187294
0.157831
-0.183362
0.153784
-0.178872
0.149801
-0.174677
0.145595
-0.170170
0.141389
-0.165318
0.137080
-0.160610
0.132676
-0.155831
0.128373
-0.150812
0.123875
-0.145623
0.119381
0.115016
-0.140652
0.110613
-0.135614
0.106280
-0.130417
0.101786
-0.125039
0.097389
-0.120094
0.093099
-0.114834
0.088872
-0.109631
0.084510
-0.104539
0.080489
-0.099417
0.076658
-0.094577
0.072668
-0.089729
0.068768
-0.084833
0.065010
-0.080239
0.061299
-0.075350
0.057657
-0.071037
0.054144
-0.066654
0.050773
-0.062562
0.047566
-0.058277
0.044469
-0.054292
0.041457
-0.050422
0.038600
-0.046981
0.035994
-0.043335
0.033183
-0.039858
0.030666
-0.036762
0.028204
-0.033632
0.025995
-0.030651
0.023712
-0.027900
0.021806
-0.025102
0.019728
-0.022734
0.017821
-0.020499
0.016027
-0.018291
0.014541
-0.016295
0.012924
-0.014379
0.011489
-0.012696
0.010174
-0.011072
0.009117
-0.009603
0.007818
-0.008223
0.006834
-0.006918
0.005966
-0.005935
0.005019
-0.004948
0.004268
-0.004237
0.003614
-0.003361
0.003052
-0.002731
0.002396
-0.002030
0.002038
-0.001435
0.001652
-0.001121
0.001064
-0.000846
0.000820
-0.000450
0.000599
-0.000295
0.000299
0.000041
0.000232
0.000085
0.000027
0.000190
-0.000107
0.000255
-0.000008
0.000228
-0.000059
0.000293
-0.000216
0.000275
-0.000026
0.000236
-0.000104
0.000207
-0.000062
0.000144
0.000174
0.000213
0.000252
0.000423
0.000322
0.000537
0.000219
0.000633
0.000636
0.000547
0.000845
0.000590
0.001319
0.000805
0.001695
0.000650
0.002455
0.000432
0.003117
0.000489
0.004031
0.000065
0.004958
-0.000377
0.006069
-0.000677
0.007461
-0.001425
0.008674
-0.002158
0.010416
-0.002947
0.012073
-0.003792
0.013980
-0.005091
0.016107
-0.006271
0.018378
-0.007882
0.020832
-0.009614
0.023424
-0.011380
0.026090
-0.013454
0.029153
-0.015615
0.031972
-0.017936
0.035244
-0.020606
0.038680
-0.023553
0.042144
-0.026519
0.045714
-0.029662
0.049628
-0.033145
0.053514
-0.036642
0.057354
-0.040287
0.061644
-0.044155
0.065849
-0.048273
0.070123
-0.052450
0.074384
-0.056968
0.078981
-0.061334
0.083564
-0.066027
0.087999
-0.070824
0.092627
-0.075606
0.097196
-0.080552
0.101900
-0.085537
0.106382
-0.090683
0.111254
-0.095771
0.115429
-0.100997
0.119899
-0.106054
0.124440
-0.111169
0.128740
-0.116340
0.132821
-0.121560
0.137036
-0.126632
0.140919
-0.131485
0.144784
-0.136359
0.148590
-0.141229
0.152049
-0.145850
0.155406
-0.150291
0.158545
-0.154706
0.161696
-0.158866
0.164526
-0.162780
0.166916
-0.166323
0.169327
-0.170030
0.171285
-0.173378
0.173123
-0.176394
0.175028
-0.179420
0.176240
-0.181723
0.177434
-0.184023
0.178308
-0.186009
0.178992
-0.187796
0.179166
-0.189060
0.179274
-0.190238
0.179164
-0.190948
0.178549
-0.191514
0.177927
-0.191728
0.177087
-0.191566
0.175909
-0.191014
0.174392
-0.190297
0.172697
-0.189293
0.170926
-0.188016
0.168611
-0.186467
0.166421
-0.184553
0.163868
-0.182490
0.161165
-0.179962
0.158247
-0.177333
0.155241
-0.174549
0.152106
-0.171246
0.148795
-0.167881
0.145257
-0.164566
0.141528
-0.160765
0.137898
-0.157086
0.134004
-0.152916
0.130012
-0.148931
0.126170
-0.144412
0.122225
-0.140115
0.118068
-0.135626
0.114027
-0.130858
0.109873
-0.126231
0.105676
-0.121518
0.101534
-0.116879
0.097310
-0.112001
0.093267
-0.107373
0.089211
-0.102691
0.085154
-0.097857
0.081192
-0.093261
0.077129
-0.088637
0.073339
-0.083978
0.069536
-0.079643
0.065934
-0.075085
0.062323
-0.070774
0.058736
-0.066642
0.055296
-0.062298
0.051770
-0.058483
0.048699
-0.054436
0.045503
-0.050677
0.042558
-0.047124
0.039591
-0.043524
0.036907
-0.040279
0.034122
-0.037055
0.031514
-0.033986
0.029216
-0.031185
0.026790
-0.028274
0.024471
-0.025607
0.022288
-0.023191
0.020266
-0.020913
0.018486
-0.018748
0.016744
-0.016698
0.015013
-0.014852
0.013584
-0.013067
0.012073
-0.011202
0.010582
-0.009967
0.009466
-0.008377
0.008204
-0.007177
0.007230
-0.006088
0.006287
-0.005189
0.005282
-0.004169
0.004536
-0.003492
0.003774
-0.002633
0.002979
-0.002038
0.002682
-0.001652
0.002073
-0.001058
0.001718
-0.000658
0.001203
-0.000434
0.001026
-0.000229
0.000580
0.000017
0.000399
0.000027
0.000202
0.000288
0.000221
0.000303
0.000146
0.000458
-0.000063
0.000359
0.000007
0.000255
0.000025
0.000243
-0.000187
0.000211
0.000123
0.000071
0.000083
0.000254
0.000291
0.000176
0.000277
0.000313
0.000270
0.000167
0.000390
0.000389
0.000208
0.000263
0.000421
0.000608
0.000309
0.000414
0.000561
0.000524
0.000528
0.000435
0.000591
0.000661
0.000605
0.000753
0.001045
0.000744
0.000872
0.001159
0.001585
0.000752
0.000542
0.001574
0.002000
0.000751
0.000676
0.002163
0.002559
0.000603
0.000589
0.002776
0.003229
0.000438
0.000246
0.003617
0.004116
0.000235
0.000022
0.004555
0.005255
-0.000015
-0.000344
0.005741
0.006458
-0.000483
-0.000861
0.006911
0.007707
-0.001156
-0.001638
0.008227
0.009104
-0.001813
-0.002322
0.009776
0.010800
-0.002513
-0.003300
0.011390
0.012466
-0.003454
-0.004253
0.013220
0.014580
-0.004679
-0.005442
0.015456
0.016897
-0.005809
-0.006930
0.017609
0.019057
0.021216
-0.007550
-0.008393
0.020293
0.022929
-0.008907
-0.010365
0.023019
0.025769
-0.010830
-0.012129
0.025831
0.028502
-0.012758
-0.014261
0.028597
0.031846
-0.015042
-0.016692
0.031917
0.035016
-0.017273
-0.019295
0.035098
0.038409
-0.019892
-0.021796
0.038602
0.041944
-0.022659
-0.024810
0.042181
0.045644
-0.025663
-0.027895
0.045700
0.049557
-0.028775
-0.031316
0.049516
0.053431
-0.034938
-0.032382
-0.038201
0.053481
0.057351
-0.036589
-0.040860
0.057394
0.061795
-0.040293
-0.044737
0.061704
0.066087
-0.044383
-0.049189
0.065901
0.070527
-0.048570
-0.053419
0.070351
0.075035
-0.052916
-0.058088
0.074764
0.079758
-0.057397
-0.062818
0.079267
0.084361
-0.061933
-0.067511
0.083769
0.088961
-0.066792
-0.072425
0.088634
0.093779
-0.071542
-0.077516
0.093300
0.098556
-0.076572
-0.082580
0.097942
0.103287
-0.081548
-0.087846
0.102760
0.108255
-0.086807
-0.093138
0.107270
0.112915
-0.091933
-0.098536
0.112216
0.117735
-0.096948
-0.103978
0.116743
0.122868
0.127098
-0.102426
-0.109654
0.122633
0.129939
-0.107578
-0.115009
0.126796
0.134536
-0.113160
-0.120432
0.131553
0.139154
-0.118472
-0.126011
0.135949
0.143579
-0.123807
-0.131460
0.140306
0.147975
-0.129074
-0.136926
0.144223
0.151965
-0.134134
-0.142002
0.148282
0.155975
-0.139301
-0.147349
0.152226
0.159926
-0.144267
-0.152391
0.155888
0.163479
-0.149013
-0.157524
0.159604
0.167057
-0.153686
-0.162016
-0.167447
0.162828
0.170365
-0.160049
-0.169825
0.165882
0.173554
-0.163534
-0.174526
0.168858
0.176274
-0.168269
-0.178295
0.171758
0.178982
-0.172109
-0.182158
0.174159
0.181311
-0.175992
-0.185997
0.176272
0.183536
-0.179537
-0.189486
0.178341
0.185621
-0.182879
-0.192631
0.180134
0.187138
-0.185889
-0.195651
0.181866
0.188711
-0.188549
-0.198213
0.183100
0.189915
-0.190954
-0.200526
0.184107
0.190858
-0.193306
-0.202748
0.184596
0.191506
-0.195023
-0.204419
0.185395
0.191765
-0.196570
-0.205915
0.185525
0.191797
-0.197982
-0.207077
0.185424
0.191992
-0.199053
-0.207850
0.185035
0.191636
0.192009
-0.199365
-0.208304
0.184946
0.190452
-0.199881
-0.208622
0.183431
0.189195
-0.199909
-0.208708
0.182296
0.187715
-0.199732
-0.208240
0.180985
0.185913
-0.199082
-0.207393
0.179326
0.184247
-0.198185
-0.206454
0.177658
0.182145
-0.197066
-0.205063
0.175297
0.179895
-0.195503
-0.203224
0.173334
0.177410
-0.193671
-0.201358
0.170630
0.174615
-0.191191
-0.199112
-0.198551
0.167870
0.171765
-0.190201
-0.195138
0.164737
0.168583
-0.185553
-0.192338
0.161906
0.165293
-0.183325
-0.188898
0.158659
0.161922
-0.179979
-0.185564
0.155217
0.158529
-0.176794
-0.182047
0.151592
0.154743
-0.173088
-0.178155
0.148038
0.150885
-0.169250
-0.174145
0.144288
0.146936
-0.165278
-0.169961
0.140208
0.143054
-0.161098
-0.165577
0.136462
0.138837
-0.156938
-0.161179
0.132403
0.134844
-0.152558
-0.156650
0.128456
0.130611
-0.148070
-0.151822
0.124159
0.125978
-0.143575
-0.147222
0.119889
0.121834
-0.138830
-0.142256
0.115543
0.117379
-0.134033
-0.137437
0.111253
0.113076
0.110321
-0.129270
-0.132274
0.107001
0.106306
-0.124484
-0.127373
0.101920
0.101979
-0.119512
-0.122304
0.097470
0.097552
-0.114781
-0.117161
0.093301
0.093286
-0.109849
-0.112288
0.089214
0.089045
-0.104901
-0.107392
0.085195
0.085030
-0.099987
-0.102298
0.080968
0.080910
-0.095225
-0.097333
0.077034
0.076677
-0.090346
-0.092305
0.073152
0.072890
-0.085694
-0.087590
0.069275
0.069082
-0.080717
-0.082877
-0.079776
0.065614
0.065302
-0.076463
-0.075525
0.061809
0.061594
-0.071049
-0.071108
0.058423
0.058018
-0.066768
-0.066820
0.054879
0.054637
-0.062466
-0.062477
0.051574
0.051078
-0.058431
-0.058429
0.048328
0.047894
-0.054530
-0.054314
0.045273
0.044934
-0.050771
-0.050664
0.042203
0.041970
-0.047101
-0.046961
0.039160
0.038914
-0.043557
-0.043424
0.036294
0.036271
-0.040071
-0.039897
0.033841
0.033566
-0.036938
-0.036841
0.031249
0.030966
-0.033741
-0.033705
0.028790
0.028542
-0.030994
-0.030718
0.026437
0.026216
-0.028128
-0.028015
0.024027
0.023975
0.022430
-0.025544
-0.025243
0.021866
0.020787
-0.022973
-0.023003
0.019752
0.018693
-0.020612
-0.020583
0.017664
0.017165
-0.018586
-0.018372
0.015991
0.015289
-0.016421
-0.016382
0.014380
0.013658
-0.014702
-0.014539
0.012932
0.012325
-0.012771
-0.012830
0.011555
0.010890
-0.011231
-0.010949
0.009974
0.009505
-0.009774
-0.009771
0.008988
0.008405
-0.008368
-0.008159
0.007800
0.007369
-0.007085
-0.006924
0.006772
0.006257
-0.005843
-0.006072
0.005796
0.005500
-0.004808
-0.005427
0.004736
0.004758
-0.003844
-0.004468
0.004197
0.003857
-0.003096
-0.003675
0.003448
0.003188
-0.002435
-0.002913
0.002929
0.002501
-0.001942
-0.002270
0.002366
0.002070
-0.001366
-0.001590
0.001994
0.001573
-0.000980
-0.001354
0.001352
0.001265
-0.000613
-0.000656
0.000943
0.000907
-0.000407
-0.000407
0.000845
0.000711
-0.000117
-0.000367
0.000595
0.000499
0.000158
-0.000100
0.000280
0.000352
0.000106
0.000173
0.000247
0.000093
0.000290
0.000143
0.000169
0.000015
0.000260
0.000277
0.000058
0.000058
0.000280
0.000341
0.000073
-0.000101
0.000197
0.000333
-0.000051
-0.000015
0.000233
0.000289
0.000035
-0.000093
0.000317
0.000249
0.000017
-0.000004
0.000303
-0.000012
0.000041
0.000248
0.000072
0.000260
0.000084
SCALARS strain_3 float
LOOKUP_TABLE default
-0.000425
-0.000452
-0.000337
-0.000362
-0.000595
-0.000327
-0.000624
-0.000756
-0.001000
-0.000937
-0.000629
-0.001089
-0.001273
-0.001184
-0.001920
-0.001164
-0.002378
-0.001187
-0.003340
-0.001191
-0.004213
-0.000932
-0.005548
-0.000356
-0.007142
0.000393
-0.008629
0.000808
-0.010415
0.001937
-0.012636
0.003038
-0.014984
0.004256
-0.017149
0.005946
-0.020040
0.007562
-0.023108
0.009816
-0.026328
-0.029770
0.011970
-0.033531
0.014694
-0.037568
0.017447
-0.041828
0.020736
-0.046111
0.024011
-0.051184
0.027978
-0.055944
0.031931
-0.061010
0.036210
-0.066362
0.040891
-0.071832
0.045722
-0.077677
0.051022
0.056462
-0.083610
0.062183
-0.089672
0.068492
-0.095767
0.074675
-0.102110
0.081293
-0.108646
0.088298
-0.115088
0.095081
-0.122137
0.102409
-0.128631
0.109894
-0.135322
0.117661
-0.142211
0.125385
-0.149160
0.133160
-0.155870
0.141587
-0.162486
0.149386
-0.169401
0.157509
-0.175796
-0.182319
0.165990
-0.188987
0.174029
-0.195359
0.182178
-0.201576
0.190545
-0.207586
0.198567
-0.213288
0.206523
-0.218948
0.214597
-0.224187
0.222268
-0.229309
0.230004
-0.234330
0.237255
-0.238950
0.244426
0.251331
-0.243165
0.257911
-0.247333
0.264363
-0.250726
0.270473
-0.253925
0.276096
-0.257307
0.281361
-0.259905
0.286222
-0.262113
0.290955
-0.264200
0.295100
-0.265740
0.298806
-0.266916
0.302149
-0.267750
0.304837
-0.268016
0.307435
-0.268037
0.309426
-0.267646
0.310714
-0.267262
0.311785
-0.266008
-0.264534
0.312250
-0.262860
0.312365
-0.260591
0.311886
-0.258235
0.311090
-0.255427
0.309694
-0.252426
0.307593
-0.249038
0.305636
-0.245233
0.302702
-0.241204
0.299576
-0.237046
0.296317
0.292400
-0.232475
0.287979
-0.227750
0.283406
-0.223056
0.278362
-0.217760
0.273047
-0.212493
0.267290
-0.207250
0.261505
-0.201581
0.255342
-0.195748
0.248789
-0.190139
0.242356
-0.184223
0.235366
-0.178309
0.228456
-0.172442
0.221378
-0.166119
0.214102
-0.160248
0.206951
-0.154264
0.199439
-0.148129
-0.142421
0.191972
-0.136477
0.184406
-0.130417
0.176976
-0.124518
0.169438
-0.118608
0.162086
-0.113319
0.154888
-0.107622
0.147319
-0.102304
0.140151
-0.097147
0.133097
-0.092060
0.126033
-0.086954
0.119136
-0.082056
0.112431
-0.077276
0.105763
-0.072667
0.099455
-0.068395
0.093160
-0.064008
0.087121
-0.059804
0.081303
-0.056028
0.075786
-0.052033
0.070229
-0.048588
0.064993
-0.045024
0.060079
-0.041829
0.055284
-0.038497
0.050805
-0.035359
0.046418
-0.032694
0.042655
-0.029939
0.038573
-0.027389
0.034841
-0.025239
0.031369
-0.022842
0.028210
-0.020767
0.025128
-0.018503
0.022262
-0.016583
0.019877
-0.015058
0.017407
-0.013440
0.015068
-0.011867
0.013273
-0.010310
0.011417
-0.009235
0.009634
-0.008078
0.008059
-0.006841
0.006552
-0.005885
0.005701
-0.005030
0.004517
-0.004186
0.003711
-0.003485
0.002836
-0.002917
0.001873
-0.002200
0.001542
-0.001820
0.000866
-0.001539
0.000434
-0.001087
0.000183
-0.000805
-0.000118
-0.000579
-0.000181
-0.000233
-0.000230
-0.000171
-0.000480
0.000008
-0.000471
-0.000137
-0.000626
-0.000064
-0.000272
0.000074
-0.000346
0.000095
-0.000424
-0.000039
-0.000226
-0.000164
-0.000162
-0.000382
-0.000566
-0.000622
-0.000841
-0.000428
-0.000962
-0.000642
-0.001088
-0.000972
-0.001255
-0.001479
-0.001124
-0.002005
-0.001330
-0.002586
-0.001091
-0.003465
-0.000946
-0.004627
-0.000673
-0.005848
-0.000251
-0.007273
0.000266
-0.008987
0.001033
-0.010740
0.001909
-0.012970
0.003127
-0.015363
0.004429
-0.017837
0.005533
-0.020575
0.007603
-0.023428
0.009624
-0.026814
0.011899
-0.030449
0.014462
-0.034125
0.017102
-0.038052
0.020219
-0.042350
0.023546
-0.046652
0.027078
-0.051308
0.031354
-0.056163
0.035405
-0.061153
0.039878
-0.066495
0.044582
-0.071808
0.049556
-0.077377
0.054946
-0.083232
0.060721
-0.088927
0.066305
-0.094788
0.072377
-0.101147
0.078667
-0.107096
0.085173
-0.113581
0.091949
-0.119762
0.098913
-0.126014
0.105647
-0.132506
0.113069
-0.138960
0.120199
-0.145268
0.127561
-0.151393
0.134972
-0.157818
0.142728
-0.163828
0.149983
-0.169896
0.157570
-0.175707
0.165088
-0.181818
0.172397
-0.187393
0.179803
-0.192670
0.187183
-0.197897
0.194120
-0.202911
0.200990
-0.207822
0.207720
-0.212173
0.214535
-0.216617
0.220726
-0.220334
0.226912
-0.224015
0.232743
-0.227530
0.238037
-0.230441
0.243390
-0.233274
0.248076
-0.235530
0.252797
-0.237854
0.256755
-0.239182
0.260380
-0.240632
0.263751
-0.241590
0.266595
-0.242090
0.269097
-0.242369
0.271171
-0.242279
0.272641
-0.241564
0.273733
-0.241024
0.274172
-0.239658
0.274673
-0.238011
0.274435
-0.236025
0.273928
-0.233753
0.272606
-0.231305
0.271129
-0.228461
0.269388
-0.225539
0.266823
-0.221815
0.264060
-0.218450
0.261079
-0.214513
0.257416
-0.210239
0.253565
-0.205811
0.249242
-0.201358
0.244861
-0.196399
0.239964
-0.191617
0.234771
-0.186550
0.229239
-0.181268
0.223800
-0.176077
0.217846
-0.170749
0.211891
-0.164966
0.205620
-0.159647
0.199221
-0.154048
0.192664
-0.148347
0.185830
-0.142843
0.179237
-0.137284
0.172611
-0.131577
0.165707
-0.126000
0.158820
-0.120778
0.151823
-0.115100
0.145036
-0.109784
0.138421
-0.104426
0.131601
-0.099062
0.125054
-0.094154
0.118394
-0.089306
0.111969
-0.084235
0.105588
-0.079542
0.099570
-0.075177
0.093588
-0.070451
0.087762
-0.066352
0.081950
-0.061971
0.076304
-0.058212
0.070936
-0.054023
0.065796
-0.050523
0.061104
-0.046999
0.056230
-0.043612
0.051595
-0.040482
0.047294
-0.037111
0.042976
-0.034167
0.039264
-0.031497
0.035426
-0.028750
0.032149
-0.026266
0.028922
-0.023755
0.025802
-0.021839
0.023069
-0.019510
0.020296
-0.017700
0.017963
-0.015853
0.015552
-0.013959
0.013190
-0.012347
0.011493
-0.011095
0.009871
-0.009642
0.008214
-0.008434
0.006986
-0.007153
0.005696
-0.006214
0.004468
-0.005426
0.003557
-0.004258
0.002733
-0.003795
0.002022
-0.002891
0.001370
-0.002168
0.000857
-0.002086
0.000582
-0.001647
0.000006
-0.001225
-0.000176
-0.000953
-0.000369
-0.000499
-0.000413
-0.000338
-0.000673
-0.000402
-0.000658
-0.000125
-0.000633
-0.000227
-0.000688
-0.000096
-0.000675
-0.000101
-0.000477
-0.000237
-0.000343
-0.000095
-0.000217
-0.000511
-0.000521
-0.000558
-0.000532
-0.000398
-0.000563
-0.000318
-0.000434
-0.000629
-0.000693
-0.000523
-0.000679
-0.000847
-0.001034
-0.000563
-0.000607
-0.001082
-0.001242
-0.001227
-0.000832
-0.000973
-0.001011
-0.001218
-0.001243
-0.001474
-0.001275
-0.001404
-0.001561
-0.002215
-0.001250
-0.001218
-0.002432
-0.002842
-0.001232
-0.001056
-0.003103
-0.003818
-0.001240
-0.001025
-0.004079
-0.004897
-0.000958
-0.000638
-0.005397
-0.005997
-0.000582
-0.000217
-0.006775
-0.007565
-0.000089
0.000501
-0.008077
-0.009186
0.000652
0.001356
-0.010228
-0.011204
0.001581
0.002201
-0.012154
-0.013304
0.002645
0.003514
-0.014286
-0.015813
0.003950
0.004963
-0.016844
-0.018320
0.005269
0.006225
-0.019557
-0.021216
0.007004
0.008287
-0.022536
-0.024578
0.009113
0.010624
-0.025994
-0.027912
-0.031031
0.011145
0.012898
-0.029579
-0.033741
0.013656
0.015511
-0.033490
-0.037484
0.016256
0.018305
-0.037831
-0.041813
0.019307
0.021595
-0.042077
-0.046244
0.022524
0.025139
-0.046352
-0.050846
0.026277
0.028913
-0.050870
-0.056067
0.030034
0.033140
-0.056045
-0.060967
0.034208
0.037704
-0.061220
-0.066468
0.038707
0.042313
-0.066460
-0.071807
0.043455
0.047324
-0.071920
-0.077565
0.052854
0.048627
0.057436
-0.077380
-0.083456
0.055053
0.061486
-0.082927
-0.089283
0.060447
0.067226
-0.089101
-0.095630
0.066812
0.073766
-0.095271
-0.101776
0.073072
0.080251
-0.101520
-0.108178
0.079526
0.087216
-0.107639
-0.114658
0.086120
0.094083
-0.114038
-0.121164
0.093010
0.101356
-0.120494
-0.127919
0.099930
0.108430
-0.127145
-0.134433
0.106971
0.115952
-0.133441
-0.141304
0.114379
0.123629
-0.140164
-0.147929
0.121851
0.131318
-0.146581
-0.154388
0.129516
0.139240
-0.153143
-0.161119
0.137099
0.147096
-0.159477
-0.167923
0.144847
0.155030
-0.166215
-0.174610
-0.180346
0.152425
0.162970
-0.173897
-0.184149
0.160070
0.170853
-0.179498
-0.190486
0.167898
0.179100
-0.185762
-0.196554
0.175549
0.187038
-0.191739
-0.202279
0.183203
0.194799
-0.197402
-0.207961
0.191020
0.202415
-0.202936
-0.213446
0.198284
0.210243
-0.208260
-0.218613
0.205512
0.217333
-0.213309
-0.223466
0.212693
0.224876
-0.217670
-0.228283
0.219582
0.232226
-0.222426
-0.232588
0.226045
0.238335
0.246067
-0.226345
-0.236785
0.235109
0.249199
-0.230278
-0.240560
0.239721
0.255678
-0.233981
-0.244083
0.246562
0.261122
-0.237309
-0.247208
0.251951
0.266485
-0.240130
-0.249807
0.257077
0.271674
-0.242554
-0.252288
0.261803
0.276220
-0.244726
-0.254396
0.266320
0.280325
-0.246776
-0.256102
0.270524
0.284516
-0.248275
-0.257571
0.273783
0.287900
-0.249547
-0.258326
0.277167
0.290812
-0.250271
-0.259101
0.279926
0.293380
-0.250637
-0.259476
0.282043
0.295441
-0.250780
-0.259212
0.283769
0.297402
-0.250379
-0.258630
0.285306
0.298353
-0.249613
-0.257948
0.286456
0.299096
-0.248409
-0.256869
-0.256620
0.286663
0.299221
-0.247592
-0.254079
0.286889
0.299096
-0.244983
-0.251883
0.286449
0.298493
-0.242577
-0.249236
0.285405
0.297433
-0.239989
-0.246180
0.283953
0.295853
-0.237406
-0.243300
0.282368
0.293946
-0.234258
-0.239635
0.280039
0.291286
-0.230836
-0.236170
0.277113
0.288370
-0.227066
-0.232037
0.274287
0.285313
-0.223047
-0.228001
0.270268
0.281508
0.280207
-0.218902
-0.223471
0.268410
0.274968
-0.214599
-0.218743
0.261371
0.270135
-0.209781
-0.213825
0.257507
0.265098
-0.205295
-0.208867
0.252082
0.259986
-0.200054
-0.203563
0.247317
0.254299
-0.195056
-0.198211
0.241522
0.248404
-0.189616
-0.192714
0.235816
0.242269
-0.184287
-0.187073
0.229648
0.236043
-0.178920
-0.181564
0.223545
0.229337
-0.173212
-0.175776
0.217082
0.222754
-0.167440
-0.170050
0.210880
0.216161
-0.161870
-0.164204
0.204018
0.208925
-0.156072
-0.157958
0.197089
0.202000
-0.150374
-0.152145
0.190380
0.194937
-0.144340
-0.146209
0.183604
0.187621
-0.138313
-0.140330
-0.136430
0.176458
0.180428
-0.132762
-0.131099
0.169475
0.173002
-0.126004
-0.125403
0.162393
0.165815
-0.120301
-0.119480
0.155155
0.158784
-0.114493
-0.113893
0.148316
0.151124
-0.109285
-0.108582
0.141283
0.144208
-0.104035
-0.102903
0.134372
0.137256
-0.098602
-0.098039
0.127446
0.130277
-0.093631
-0.092581
0.120821
0.123162
-0.088526
-0.087626
0.114146
0.116436
-0.083596
-0.082917
0.107070
0.109966
0.105289
-0.078952
-0.078140
0.101023
0.099584
-0.074372
-0.073570
0.093663
0.093411
-0.069913
-0.069006
0.087610
0.087576
-0.065567
-0.064608
0.081946
0.081629
-0.061299
-0.060774
0.076333
0.075997
-0.057307
-0.056664
0.070829
0.070603
-0.053648
-0.052963
0.065582
0.065293
-0.049728
-0.049371
0.060702
0.060410
-0.046257
-0.045727
0.055856
0.055420
-0.043012
-0.042209
0.051353
0.051084
-0.039720
-0.039044
0.046969
0.046644
-0.036514
-0.036205
0.042920
0.042724
-0.033628
-0.033346
0.039160
0.038735
-0.030856
-0.030321
0.035313
0.034978
-0.028093
-0.027558
-0.025823
0.031933
0.031636
-0.025538
-0.024114
0.028563
0.028525
-0.022856
-0.021987
0.025580
0.025351
-0.020719
-0.019759
0.022829
0.022503
-0.018602
-0.017561
0.020238
0.020043
-0.016696
-0.015818
0.017575
0.017528
-0.014963
-0.014070
0.015471
0.015288
-0.013445
-0.012690
0.013419
0.013051
-0.012013
-0.011151
0.011346
0.011354
-0.010218
-0.009676
0.009671
0.009752
-0.009089
-0.008478
0.007894
0.008105
-0.007983
-0.007364
0.006575
0.006965
-0.006744
-0.006324
0.005211
0.005992
-0.005839
-0.005482
0.004351
0.005077
-0.004981
-0.004673
0.003263
0.003972
-0.004102
-0.003679
0.002657
0.003247
-0.003321
-0.003097
0.001844
0.002165
-0.002698
-0.002520
0.001015
0.001450
-0.002084
-0.001898
0.000579
0.001008
-0.001737
-0.001665
0.000189
0.000532
-0.001154
-0.001002
-0.000029
0.000171
-0.000980
-0.000852
-0.000115
-0.000139
-0.000801
-0.000464
-0.000394
-0.000352
-0.000471
-0.000384
-0.000476
-0.000235
-0.000340
-0.000137
-0.000676
-0.000533
-0.000134
-0.000088
-0.000659
-0.000708
-0.000024
0.000001
-0.000563
-0.000773
0.000007
-0.000184
-0.000706
-0.000486
0.000006
0.000025
-0.000456
-0.000607
-0.000095
-0.000088
-0.000340
-0.000552
-0.000170
-0.000125
-0.000370
-0.000060
-0.000325
-0.000541
-0.000316
-0.000116
-0.000240
SCALARS stress_1 float
LOOKUP_TABLE default
89.226857
-1088.280767
-403.375658
-657.519004
-520.334176
-271.882430
-529.379508
33.492933
169.903785
-1118.027881
-429.392916
-1610.597569
-475.614310
-418.892444
-569.586688
-734.953487
320.233534
-993.129425
-587.348498
-536.963842
-77.245621
273.958700
-33.229624
-381.556654
39.786657
1363.751659
575.226285
661.883640
492.632843
1284.100852
1195.737142
802.590521
1458.700681
952.386004
1121.523461
1821.487300
-80.291916
1924.189327
1012.839112
2697.645957
991.452502
503.132818
3055.695692
1927.610869
3746.566740
1520.430239
4462.902746
1780.396073
5174.085794
1266.595536
6372.344091
2479.215857
7651.475158
3011.223680
8314.553329
3782.162590
9914.919706
4379.763395
9262.453770
5002.603034
10851.691478
5864.802026
12471.317454
12972.095866
4742.360370
14778.483129
6529.398587
15798.625491
8873.875696
16791.597289
8570.140424
19278.739622
11186.192772
18773.931973
10434.501988
20059.710297
11464.678363
22284.718240
12581.647561
21866.337885
14429.181375
23112.797440
14398.782406
24545.894425
16059.832737
25863.010922
16624.104159
27183.139305
17944.709566
27573.125701
18499.810457
28442.726648
19894.976143
20774.945061
29015.942146
21410.709585
29464.959424
21757.585089
29668.811836
22666.335738
29617.068692
23952.505114
31421.729993
24340.239465
32328.365049
25403.700291
31643.779006
25084.456903
31856.387302
24859.247738
31912.954100
25871.065170
33005.438420
24479.411800
31339.491535
31048.641775
24365.669711
31310.312202
23621.610695
31479.266982
23668.347644
31315.921551
21627.262642
29928.006721
20232.891644
31029.360991
21111.624360
30639.715172
19384.760911
28456.866784
17036.301297
28400.815826
16402.204537
28142.098256
12548.819359
28113.129509
10917.486867
27508.673752
8812.207059
27317.925837
6770.321037
26090.414097
3614.405739
25752.756447
-747.808024
24734.481219
-4057.556088
-6342.651225
24901.011475
-9130.126788
26455.111380
-13350.454448
24320.511746
-15518.439350
24552.204946
-20623.317329
25198.190979
-24541.357574
25055.582740
-27776.144648
25940.795666
-32390.752887
25206.755421
-34928.766854
25613.877442
-39161.073654
25525.892540
26785.564880
-43559.673288
27142.089317
-46085.573383
27720.994180
-49775.043127
28595.246116
-54361.318355
28985.032353
-56114.976005
29165.117055
-61166.487745
31219.231033
-63549.235660
31473.951225
-67001.691417
33370.618733
-69094.660164
33253.233555
-71289.377734
34715.136795
-75033.428692
35278.677181
-76328.277080
38119.813732
-78693.922899
38014.546448
-80752.568629
39972.175450
-80748.483459
41171.090448
-82127.828890
-83486.874110
41281.827397
-84449.203683
42737.768381
-84500.053443
43832.026292
-84150.000328
44752.372922
-84945.516008
45788.190354
-84752.949210
45794.981189
-84244.340914
47451.737801
-81928.926957
47731.198627
-81750.291901
48102.932978
-79513.630600
47997.102354
-78317.373744
47409.853003
-75937.521332
50388.728507
-74592.504054
48864.493031
-72675.288556
48352.461949
-69893.687609
49491.627635
-67399.701213
48126.728526
-64351.572830
47975.333933
-62602.456333
47515.605355
-59057.359348
47272.655686
-56898.899793
46946.256717
-53029.280148
45905.790531
-51380.272205
44534.759729
-47422.493881
43884.936104
-45207.301530
42133.245320
-42176.159196
41285.297668
-39719.187399
40629.562396
-37091.045037
38542.039505
-33876.657774
36937.077722
-31335.879362
35790.636066
-27852.253386
33740.835058
-25447.015678
32267.674697
-22675.481614
30761.275503
-21731.115237
28620.214412
-18556.037066
26408.222235
-16908.905999
24980.842556
-15070.647702
23531.042019
-12743.464654
22231.007853
-12147.128648
19879.827223
-9600.257600
18224.305274
-9730.207865
16311.985590
-7972.751234
14690.598980
-6742.049208
13735.730008
-6016.947912
11613.914631
-4795.152429
10324.737411
-4492.662760
9899.700950
-2766.445548
8890.805249
-3372.313567
8248.211807
-2555.005254
5503.651435
-3146.520608
5792.667716
-2543.598066
4084.683713
-1887.432482
3394.786590
-857.608421
3223.204558
-1261.669464
897.024780
-861.964339
611.052402
-346.534027
1204.831008
-970.465693
1693.945159
-23.182400
695.320522
-840.227732
1072.957096
-565.186250
446.211235
613.159821
295.199458
-151.512132
553.251768
9.246956
-1377.708400
131.208876
-234.606712
789.958192
-802.450793
50.420568
-215.817581
361.562651
-491.217304
809.961377
-417.844816
676.126974
-1612.666762
677.254297
-886.072852
883.920283
-53.606667
698.017243
547.765145
780.740030
30.458023
734.437373
-1041.299825
677.270772
826.101893
2476.971038
2657.119593
2417.309962
1884.168713
1225.831126
2414.054398
1776.883259
2291.420294
1967.433007
2917.689464
2817.211180
3960.082491
3460.379278
4864.209665
2655.473257
4925.104342
4007.687973
6580.376812
4414.915735
7069.060430
5467.733481
7665.919361
5568.489939
9551.638232
6274.338982
9876.752997
5592.824193
11789.948285
7638.294301
12349.988259
8862.480116
13277.329338
9973.153429
13696.117768
9727.468115
15901.427885
10444.967755
15369.405937
11625.383161
16908.508341
12819.291269
18922.922324
12994.194682
19218.258179
14451.288254
19726.703134
15944.879732
20893.867480
16040.122990
22178.971798
17755.366758
23300.593028
18951.764907
24372.528687
19071.666167
24797.583921
21645.834703
26336.174168
22453.585888
26535.063592
23125.912097
26719.862485
23562.128703
28035.952930
24236.999871
28147.750362
25214.069184
28739.442011
25881.482890
28885.792042
25693.402488
29504.410745
26237.974226
30663.485349
26994.741687
30205.821000
26523.663890
29546.369091
26341.894709
30075.706558
26585.393164
28299.671903
25595.313129
29536.801081
24645.962350
29051.509528
23996.145974
29683.756266
23482.976894
28365.728521
22097.032046
29116.190460
20746.042243
28912.524163
18520.771648
28091.145069
17994.374136
28106.589134
15840.231789
26579.043586
13366.075418
28195.085362
11939.864042
28305.665855
9588.361827
27297.590211
7132.722646
26425.435367
3396.905518
26539.924507
595.487382
26499.862777
-2476.808579
26473.209196
-5225.177220
26514.956139
-9368.692874
27124.834416
-10500.363168
27704.226109
-14704.457292
26583.895384
-17576.788017
28019.801260
-21245.396323
28288.130966
-25579.518047
28712.615312
-27873.771104
29188.246671
-32236.424685
30011.950710
-34452.486415
30058.532574
-38233.997275
30154.715446
-41018.152119
31715.076265
-43722.227763
32507.574050
-46347.647270
34033.362674
-50355.605494
34503.206303
-51931.151042
34829.063956
-54603.706977
35078.666444
-57401.086071
36989.395849
-59436.752367
37238.406046
-61390.290429
39140.461198
-62516.318174
39947.292118
-64676.071436
41681.475742
-65281.362988
42092.124963
-66004.233811
42230.044928
-66484.268466
43233.543383
-67098.930999
44923.774202
-66982.382908
45532.696405
-67696.047257
45593.463866
-66504.972653
45914.035604
-66030.353949
46853.955203
-66508.003919
46857.368908
-65332.312270
46378.438221
-64364.514838
47373.309389
-62784.424393
47641.525995
-60223.625500
46505.852204
-59720.736076
47913.603389
-56662.145829
46767.771925
-55245.090595
47383.673185
-53765.154936
46116.071334
-51195.533706
46319.315102
-48870.429387
44734.558360
-46631.265042
44332.149838
-44786.820087
41557.243410
-42043.484232
41516.146823
-39869.070249
41830.054931
-37377.967845
39410.470337
-34901.989793
38679.969977
-33192.679676
36674.284663
-29925.891246
36144.957976
-27478.550167
34001.143791
-25150.510193
31966.613899
-22589.314905
31189.099110
-20952.200140
28198.948153
-18994.481269
26899.704611
-17605.622338
25408.522357
-14972.938720
24111.750119
-13501.666250
22375.964835
-12304.771573
20795.058814
-10544.644399
19134.226912
-9366.251372
16848.005085
-7755.982202
16126.554833
-7350.616306
13749.606966
-6180.730621
13622.128130
-5257.681501
11618.467054
-3890.663801
10482.167320
-4487.262083
9449.000719
-2495.019931
8426.698062
-2052.327053
6357.420850
-2202.955241
6187.517809
-1954.489056
2866.183795
-2059.895146
4555.311118
-982.717092
3213.476715
-1533.344604
2733.875441
-1208.744327
821.017524
-118.111114
2913.479900
-485.955196
1148.229216
-1078.853508
1022.191136
-449.813676
494.950224
-399.761366
-424.281141
210.278271
430.545316
-540.043803
-460.391695
16.709181
208.230376
-461.919376
-889.486284
500.387618
-1174.632639
-223.018817
-309.933313
-663.687146
-648.302646
-888.448600
-202.479199
-486.693316
535.658719
-347.445567
760.958046
236.854320
-276.092703
-1665.694177
670.882900
191.139089
-783.191358
316.758735
681.162037
512.351157
-631.953701
-274.969898
889.436254
437.379776
217.946283
-240.903231
274.054280
732.125520
-547.848788
-256.320644
-19.737575
-446.365367
-110.680430
-112.378433
296.609408
282.003347
-309.948978
163.864252
1598.970068
75.351258
-805.441813
1148.102355
704.297942
1021.645778
-133.823406
705.266903
1199.801714
564.913355
-855.600563
733.271157
1724.108988
224.518973
1502.592555
1172.210961
1102.307507
68.068283
804.825071
1584.272424
972.881262
345.466425
1850.798221
2659.580257
2570.980782
271.720822
1081.502737
1550.111942
1675.046444
149.403974
2408.879829
2476.772328
1932.279853
1897.782566
465.119274
2842.314068
3178.321523
1714.063773
1757.139826
2814.220892
3461.178166
2375.441367
2074.856846
4907.633656
5897.464418
2636.169392
3552.546352
4934.780567
6691.197955
3550.879219
3040.219547
5897.166650
6315.991421
4872.586391
2794.712929
6534.541178
8812.303725
3778.920560
3736.620263
6748.326426
7938.469976
3659.021465
4811.588889
8594.250851
8776.842697
5949.825246
5589.555242
9003.763108
10214.569680
5419.486138
5358.947589
11522.732338
11320.250832
6078.111043
7050.837910
13521.488769
12890.738625
13779.005264
8200.523567
7351.210953
12875.341130
14964.071899
8711.069230
7318.435475
14782.832466
14843.737291
8751.674912
9937.301370
15609.066648
17163.495358
10015.844849
10060.929651
16495.726353
17571.679744
11182.045867
10844.995473
18194.087695
18016.558715
11924.844427
12194.642514
18111.856330
21508.020518
13478.459117
12149.802286
19467.625949
20940.556072
13170.679403
13982.508571
21518.617200
23094.816220
14980.977382
14486.061491
23114.494974
22886.408833
15876.019151
16238.820385
22739.558177
24211.343598
16946.282010
15699.030798
23893.066805
26000.541404
18430.916626
18222.675326
24493.692586
25932.302666
19476.472570
19286.081677
24922.010036
27530.486113
19556.038780
19773.480823
25937.490463
28336.848151
21815.723715
21446.568673
21218.694360
27457.041860
28797.360697
21898.073533
22017.186428
28292.892434
28331.326294
23749.071778
22618.541572
28359.806350
30610.662982
23038.188771
23398.089372
28421.970837
29921.450298
24028.529539
23657.671336
29517.629356
31173.031700
24664.136240
25216.653497
29030.282019
30810.486570
24633.840662
25663.162075
30475.074917
31511.648293
25699.171925
25806.038283
29905.600531
31058.622339
24917.573119
25355.282191
30235.627308
31370.460524
25590.552545
25847.042398
30885.693118
30988.660268
26034.820492
25005.365655
29934.210028
31909.448643
31220.892670
26272.732097
25475.525362
30170.170030
31462.414795
26186.368610
24009.229948
29962.127001
30974.249992
25101.579651
23099.812528
30498.489678
30355.837967
24457.431713
23109.039982
29199.485193
29432.110500
22928.782550
21169.329178
29395.582541
29936.307755
21717.397100
21010.843598
29141.889187
29343.451042
20876.654171
19343.530795
28624.487033
29446.633361
19517.817678
17228.680413
28101.635638
28711.577200
17458.133933
14255.483523
28290.776664
27528.823764
16063.805416
14105.910059
26946.948961
28721.283848
13295.011369
10812.276882
27656.665180
27237.397109
10921.455818
8596.126718
27837.525134
26491.338800
9119.587335
5877.475406
27024.608793
26276.432214
6568.786498
2709.161422
26373.689512
26025.093059
3152.509159
-775.349477
26726.506293
25586.464462
206.315774
-3518.524940
-7059.480389
25378.405937
26130.676765
-2815.591630
-7652.966364
26533.846944
25212.992185
-6828.832961
-11178.922260
27125.762315
25436.687603
-10492.416847
-14723.045051
26550.398990
26056.021802
-13502.287132
-18471.813054
25559.205489
25937.846539
-15768.317553
-22743.363955
26246.358633
25404.050712
-20381.504677
-25794.654330
26659.424524
26473.722816
-24069.828474
-28836.180316
27539.453748
27228.670439
-27264.927048
-33085.794165
27788.014152
27448.771148
-29964.516363
-36106.217767
28485.663374
27132.488526
27456.691128
-33903.300736
-40110.935702
28222.624075
27590.778857
-37578.918743
-42999.964078
28030.897989
29638.488799
-41194.883463
-46791.320636
29269.484003
28773.374311
-43980.138235
-50883.350185
29984.823570
30952.652876
-47860.577724
-54839.093140
31433.800020
31109.963861
-49179.310047
-57360.228273
32015.495420
32118.490337
-53869.857903
-59946.740128
33618.812646
32879.318354
-54888.046893
-62952.526648
35086.815555
33939.632492
-59718.936101
-65538.716180
35265.619961
34959.019669
-60690.274011
-66922.233468
35831.161575
36150.756701
-62649.119639
-70030.874260
36393.155956
38027.618160
-65802.845445
-71466.323095
38138.761754
38850.655278
-67259.449347
-74149.880093
39393.868926
40252.224703
-69496.393407
-75540.149283
40240.436424
40723.531696
-69951.123994
-77040.924983
40065.148941
41797.765480
-70988.877772
-77101.102854
-78180.676591
42342.327056
42454.398153
-74003.364185
-78627.612163
43064.896433
43670.811797
-72968.488147
-79767.249598
43672.816092
43563.152660
-71992.790195
-78930.896349
44087.468115
44610.964324
-71351.991648
-79120.407251
45306.973022
46072.085290
-73018.162439
-78096.838662
45999.784877
47082.692310
-71418.859762
-77885.627770
47435.620668
47084.977387
-71881.138844
-76456.208248
47830.284538
48628.205432
-69936.744895
-75307.196585
47877.729019
48566.836069
-69380.927298
-73570.958055
48116.257802
49023.166429
-68049.567956
-72111.352178
47741.171747
48426.668548
49180.342692
-66947.848894
-70265.386581
48322.720473
48046.786222
-64870.575258
-68670.256118
47952.599333
48456.359936
-63367.826585
-65844.609998
47584.530016
49430.866283
-60866.571944
-64115.488123
47493.163158
48173.624145
-59076.116300
-61598.665425
47107.559665
47573.055784
-56155.062252
-58979.293288
46066.751053
47384.960872
-54589.102051
-57050.001741
45482.588068
45286.734455
-52055.056095
-54356.736905
45918.039506
45204.634671
-48380.655195
-52771.068945
44393.988892
44319.159428
-46834.984093
-49730.510873
42965.814693
42730.196258
-44006.215622
-46004.610259
42424.565582
42477.698550
-41090.919579
-43702.616040
40289.051551
40453.973340
-39425.137597
-39719.158693
39593.090146
39452.859772
-36183.746306
-36396.801408
38755.648225
37874.941540
-34141.462649
-35406.165780
-32935.913342
36993.892348
35947.032284
-31107.374348
-30456.732643
35714.241162
34689.725905
-27735.566580
-28520.631930
34811.230623
32968.877790
-26172.030329
-25402.298360
32882.512004
32762.052404
-23379.303637
-23329.650488
30838.662240
31363.826684
-20117.056085
-21211.775817
29046.381211
28201.708078
-20135.857402
-18981.413700
26284.801906
26452.048522
-16595.687289
-16672.668285
24671.428570
24852.662424
-15601.810519
-15153.496237
23636.041963
23459.387435
-14787.829397
-13478.346836
21936.355670
22284.774893
-12576.308029
-11676.368332
20218.786279
20156.944198
-11165.243994
-10614.326455
18255.507804
19166.270910
-8920.411505
-9645.190343
15498.138706
17466.920976
-8303.474663
-8339.167971
14682.258434
16523.731215
-6904.097572
-6429.551475
14243.043936
14181.868430
-6075.703293
-5993.148423
12214.507863
12831.950919
-5004.653386
-4946.992889
9961.484089
11793.326407
-4909.516801
-4184.954792
9917.411920
9601.170566
-3162.921864
-4008.092300
8004.223723
9239.807184
-3131.486492
-3125.458865
7380.694140
7495.543085
-2286.495555
-2927.019204
5772.807919
6472.209640
-2341.916125
-1982.970946
4761.800894
5226.773492
-2392.825672
-1666.630973
4405.149939
4155.552012
-2176.015664
-2269.350929
3668.634899
3307.148650
-1539.360017
-1868.345699
2419.360614
2983.165578
-513.799784
-1745.170982
2158.637681
2101.284706
-598.851345
-518.798973
1213.063066
2199.681154
-565.855344
-1752.218691
686.636769
1377.502307
-681.794101
-940.527010
472.928101
633.651379
293.796966
-354.364597
-527.283522
1655.671955
-682.367745
-689.806327
751.922362
-1239.622171
49.440982
1532.081459
-850.102745
-273.834315
-618.996325
SCALARS stress_2 float
LOOKUP_TABLE default
7458.653866
10619.011404
4044.165654
6405.363794
10255.419142
13948.912914
19363.796855
13605.088172
30302.612951
28797.665221
28381.889568
51545.159488
52072.829857
51308.691331
80048.594882
38511.777120
121367.386852
39833.109923
154084.310487
34054.487531
202683.770210
19277.224101
262956.664913
3668.424353
342075.399020
-14399.009204
418895.766705
-50669.076570
501899.970180
-102768.875237
600824.626917
-144227.989941
715800.628586
-220304.417068
834859.975184
-294870.156617
985708.385292
-372474.302467
1126820.544753
-479372.442966
1282852.175759
1459829.964153
-582927.469783
1638018.527409
-709652.484021
1839660.067738
-837431.272629
2051545.689859
-986808.525062
2255119.798195
-1149353.342425
2501876.808009
-1327317.100015
2754834.715686
-1515997.310588
2995499.723438
-1725835.147230
3273736.448740
-1938105.017976
3544225.097416
-2172471.200634
3826832.077501
-2432696.998518
-2690143.790540
4126101.388997
-2969773.778911
4422827.439938
-3252229.031998
4736681.746694
-3570183.062556
5065145.616196
-3876093.043672
5391547.048442
-4202561.383381
5729233.758400
-4544228.359488
6056075.955508
-4896321.758942
6395883.152521
-5264186.271198
6749632.450545
-5632830.997360
7105317.568160
-6000859.312727
7450841.815910
-6395279.906754
7799630.294901
-6782063.259458
8155626.933151
-7185577.782488
8505650.622327
-7582675.334772
8861771.088237
9201967.428373
-7976779.916311
9554669.162717
-8381997.111840
9885783.594587
-8784864.917746
10217837.345071
-9198241.608221
10538544.616379
-9598159.183263
10854239.340145
-9999875.917066
11163900.408035
-10384056.704910
11463597.545857
-10768120.232635
11735117.851103
-11152931.879155
12006602.843757
-11535300.128098
12277150.242397
-11894594.286397
-12256385.111872
12512231.357568
-12586392.810350
12755319.290377
-12927210.760740
12977877.968841
-13224353.648886
13192258.703506
-13524724.857312
13361357.216564
-13808391.277685
13523111.298579
-14070768.292530
13689695.292831
-14323387.277144
13816437.199322
-14546312.231528
13928192.534420
-14750407.433487
14030506.605055
-14928995.568863
14098346.238142
-15099422.016566
14167295.433681
-15238557.881318
14189793.018584
-15353477.920939
14218887.198677
-15459861.445975
14212538.591435
-15514351.214248
14198585.817946
14160779.293474
-15577099.431583
14096057.014405
-15606059.476891
14018016.222916
-15602630.732697
13927801.814288
-15593583.679019
13814308.409609
-15546598.315857
13673288.626355
-15473570.715190
13536027.778684
-15394031.562862
13374303.379350
-15285707.346116
13194568.742513
-15159456.750794
12998879.796191
-15001671.159422
-14840543.950911
12790404.540384
-14659730.229980
12571236.495076
-14439712.754452
12335688.277741
-14209473.527941
12096238.509469
-13958606.135184
11833918.984433
-13713255.955091
11571222.944811
-13435302.370187
11295703.080060
-13137233.174649
11010108.632356
-12843729.541562
10720416.496981
-12515879.470926
10416065.295022
-12194012.135828
10116980.340638
-11861222.229337
9811913.356024
-11521390.235085
9489792.341179
-11173908.153071
9183213.920806
-10817897.640012
8857050.712380
-10441244.905347
8552099.824234
8228913.873843
-10090014.226883
7904026.175366
-9714158.294075
7611163.349890
-9351301.178903
7277245.191592
-8990033.780263
6966268.942648
-8609588.787610
6655793.296129
-8239060.482364
6340305.768403
-7864611.344541
6055932.980560
-7506630.276651
5755304.246757
-7141175.552885
5470362.671714
-6784916.281577
5189369.981240
-6434046.531093
4908486.175334
-6088308.099224
4635300.979805
-5752086.364879
4371692.398266
-5419634.024743
4116098.845982
-5096249.558833
3872584.322952
-4782225.869657
3633288.970248
-4471861.231407
3400372.376221
-4184512.752416
3176440.060854
-3901324.504666
2956115.334692
-3633991.387052
2749274.822436
-3362034.089028
2555069.422982
-3107986.892014
2361498.446874
-2859192.694907
2185014.107166
-2617281.984949
2014400.126050
-2413280.552702
1838110.095492
-2201968.683201
1695366.842405
-2009266.376444
1546968.854034
-1809916.325503
1420210.062012
-1648343.014007
1278864.264127
-1471080.033922
1162130.081470
-1323151.385246
1024324.210724
-1177394.659944
919766.374082
-1040281.652192
821518.163509
-915419.744515
722946.405918
-799702.734701
641713.588556
-697248.626366
553392.336123
-609363.004244
482637.547515
-511849.463915
415976.533277
-437980.900659
353285.506460
-364587.112265
309587.365960
-292811.481259
258831.220111
-247027.321799
207433.480561
-194578.911690
160989.053435
-150559.565092
124201.938731
-119359.563424
97766.140064
-95986.906686
74584.072697
-63094.703212
51524.639140
-42914.335526
18539.839393
-21043.601420
25170.575963
-11810.706716
11423.953570
-5259.246993
-3446.713626
-7998.323358
-11699.627838
12520.468612
-12448.095994
13552.233636
-18596.601727
14363.173926
-13573.549458
9491.975322
-10282.733361
16188.150580
-7286.355648
6099.699700
-1907.102160
-12201.590372
-3102.432741
6008.059791
7509.723741
29391.405490
11353.683062
30518.362658
14686.546328
37771.418542
25806.999379
36700.093124
52780.554971
54672.180579
82625.209489
56795.482310
117829.168759
34501.103037
161732.631378
34467.046375
218648.492626
19875.521761
268632.958327
-603.673014
348881.537623
-17572.534337
424507.125795
-63105.748050
513535.029773
-106436.415257
622208.141223
-152318.326520
741575.077619
-216689.684050
876388.940068
-282569.173688
992635.930780
-369789.690715
1160085.356686
-461515.022078
1315227.214171
-571721.373601
1486550.120710
-691964.326407
1663304.967969
-823765.671057
1865155.478143
-974175.403936
2074622.546512
-1124459.315607
2290469.682217
-1295427.402454
2527889.091083
-1493673.043389
2755082.080041
-1687919.541728
3025089.060740
-1907303.175278
3264696.235391
-2128771.247354
3549016.910924
-2372133.136867
3825355.704815
-2626287.046029
4111777.718167
-2897539.043207
4406571.362632
-3171682.641155
4715274.840419
-3461647.908241
5027048.769005
-3761837.046674
5339677.354212
-4082387.641193
5660418.314622
-4407829.482357
5970416.545516
-4744396.154903
6304680.870192
-5064361.449391
6631579.700300
-5423568.946945
6966930.342771
-5774346.441738
7289309.209254
-6148705.309069
7619589.606680
-6505390.444218
7947178.156138
-6867100.533026
8276958.160943
-7247020.954404
8595343.141079
-7603473.498914
8901552.399862
-7979178.856012
9225664.558382
-8359779.711539
9518561.818848
-8724661.650230
9822322.112894
-9075714.050998
10100692.332186
-9432666.704404
10369958.408357
-9780313.195183
10643050.543619
-10120406.418616
10898936.254340
-10463021.338351
11130975.952170
-10770437.748563
11366585.153479
-11083618.540918
11573492.269916
-11377267.993221
11781170.124780
-11672868.791316
11969849.822792
-11943965.418832
12124115.291970
-12202647.460505
12282678.738139
-12431700.295248
12411180.778773
-12656820.612515
12525492.034962
-12869955.098148
12625660.918356
-13034000.029952
12710054.739498
-13198356.992666
12762042.115863
-13337657.780462
12812206.563820
-13463769.356989
12832994.704459
-13562220.617527
12839078.949429
-13642203.356252
12822738.815099
-13698191.435705
12790206.507294
-13729601.751167
12741216.163472
-13747642.786269
12683614.888352
-13738669.021027
12591516.194690
-13718191.837967
12487525.602469
-13650915.926544
12368579.729164
-13576106.665670
12241660.990038
-13491276.538975
12082120.901460
-13372835.131196
11927494.084521
-13232357.824858
11746131.849762
-13083975.099978
11544922.814661
-12906405.443800
11343624.499199
-12718809.751605
11121012.419746
-12523533.885935
10892069.681021
-12283529.640965
10649714.420483
-12064341.500327
10396498.843956
-11790305.052369
10134734.056159
-11538157.676004
9870057.093446
-11257859.854862
9591196.161641
-10967706.971469
9307725.676008
-10661235.715280
9027789.358741
-10351869.674645
8747568.523999
-10035930.228476
8451094.482326
-9720640.759298
8161565.854810
-9387801.061286
7858477.056715
-9062747.206422
7568091.604411
-8720032.089985
7267230.812056
-8389446.888676
6971558.401845
-8054623.190846
6680623.482110
-7698065.480125
6383826.258677
-7359501.344864
6085299.767898
-7039163.268692
5806139.114492
-6695097.049400
5519726.713724
-6354280.755354
5233276.775032
-6029255.494888
4981795.919506
-5711575.336369
4711722.562408
-5384630.077585
4446214.017898
-5096773.097449
4195829.596519
-4782929.092644
3944487.507711
-4481004.543186
3708730.372563
-4195844.145760
3473187.505232
-3915769.279277
3262858.010439
-3641474.636806
3035490.512885
-3373327.806698
2829445.218396
-3131255.482022
2624846.545851
-2902633.251129
2434252.704687
-2655524.290718
2248070.110168
-2438991.705511
2072104.971734
-2216497.776926
1899259.704649
-2037778.299138
1741084.106701
-1844072.654673
1593768.109523
-1669522.641321
1446654.200361
-1499967.847431
1314748.310848
-1341567.171897
1196960.238772
-1194951.997246
1061960.605222
-1057553.016547
957122.106883
-936280.027590
855580.465948
-821516.618723
757156.379100
-710117.483018
668376.467430
-612714.414649
577262.734551
-524271.904475
510837.389901
-441469.057216
439746.437095
-360834.150677
365540.085571
-311708.293192
315414.754209
-244130.867287
259842.237182
-198699.876575
225610.747544
-155726.014126
178263.390014
-118343.077729
144669.478751
-75493.966279
107226.811544
-58434.062302
81277.597831
-28728.474130
55252.736508
-17791.894833
44949.541732
-14879.429132
21398.017119
4532.432116
8819.960456
11571.894734
5437.581184
7831.854005
-4343.117085
24172.508523
-5923.029630
13034.064115
-7986.355048
18682.517166
-7645.299165
7199.380431
-11318.341996
3619.339753
-8062.996297
-2209.947910
14871.496235
4887.103517
8677.221271
7399.083094
12016.438625
15206.880814
11126.081672
16992.486092
26518.278202
16235.898834
9841.576157
26026.594431
26336.967389
33350.270885
9138.646695
26050.301956
21720.452340
34779.535189
29853.932411
32551.311358
38632.089402
37605.379517
45589.994965
45648.183280
65955.711912
44814.396841
43562.349507
73547.327940
86557.497897
40526.351794
38032.810280
102576.874843
120781.982418
47578.038546
42611.920630
145418.130919
173927.085856
42419.249065
26651.573871
188919.038643
229404.595445
23349.198176
22392.315497
259573.548144
287034.801411
11809.070838
-3879.070947
321236.233402
364074.341164
-21621.640307
-35493.608930
393080.593853
437720.698001
-45664.719751
-71776.064820
473962.724622
542740.098412
-78820.040568
-116013.802348
575879.486591
658579.351658
-132270.712113
-174934.610764
693966.785789
762669.649196
-189717.507103
-230349.090360
808965.484853
894292.417343
-245096.134705
-313835.761036
945547.181949
1034835.068387
-343765.548454
-415284.711397
1098422.322697
1184657.857900
-426457.613359
-511028.177328
1249881.295784
1357458.353879
1494598.966127
-528958.286775
-623367.231315
1451073.430535
1655875.275833
-641070.254543
-732534.947006
1633430.777129
1839963.140951
-773075.513049
-875980.442845
1849355.637332
2048995.807665
-923103.163399
-1029027.715945
2050717.322752
2262182.365233
-1068440.444157
-1184199.203251
2291466.169556
2514222.097022
-1256336.342819
-1383106.374875
2515390.674048
2734684.953167
-1442369.457349
-1577524.233201
2760127.303401
3012189.488848
-1634154.523884
-1784662.711899
3002028.133934
3271277.442588
-1842223.603140
-2008645.823087
3273994.928744
3547528.045723
-2065562.288229
-2249819.326420
3542093.786552
3828324.431884
-2515892.276489
-2330953.367947
-2733015.919021
3820226.207105
4115997.641038
-2615827.877405
-2934834.290092
4111664.062340
4421992.336618
-2888899.098159
-3216630.155434
4407016.297839
4731494.663310
-3175743.846414
-3518693.434563
4723649.282902
5051927.759085
-3488732.796422
-3838194.700507
5035263.689639
5369490.299358
-3806299.142935
-4164536.341366
5359325.160309
5699686.711992
-4106138.290470
-4497926.364375
5677252.111625
6042109.137751
-4441903.800935
-4846033.224545
6006889.647583
6385272.620939
-4795367.566210
-5183919.269498
6331005.566696
6706631.504841
-5134978.583911
-5560049.332651
6677454.481376
7059937.038437
-5483937.943582
-5928347.242579
7017791.627296
7409025.677294
-5852229.704192
-6306449.882994
7341279.981113
7756932.175497
-6236382.775475
-6685225.248412
7683271.574334
8100733.023603
-6596851.994465
-7066353.806265
8027270.840588
8446960.609583
-6971799.954785
-7464334.793967
8369493.017271
8799979.491051
9105776.852798
-7349325.146570
-7855243.088730
8779102.650640
9313004.628104
-7725348.670926
-8245913.304414
9066138.162127
9643970.003660
-8117887.906764
-8646890.408280
9420063.766374
9969431.204599
-8498616.438820
-9033420.475923
9737449.168506
10289763.706519
-8876122.408167
-9429473.326818
10049647.734154
10589087.644992
-9265890.828323
-9814789.320274
10343312.039459
10884253.595148
-9620578.051373
-10196568.190647
10642537.718737
11172567.370381
-9987229.249254
-10568669.422203
10899759.922666
11457060.659934
-10343092.134343
-10932280.616300
11160244.536920
11717866.749055
-10695835.753952
-11314116.586289
11431664.092537
11963905.977710
-11028751.075804
-11620143.380504
-12001669.245055
11647758.943635
12208139.705718
-11484101.371296
-12182412.752742
11893047.177382
12432093.840437
-11725667.664203
-12510088.258116
12097751.656525
12630535.377317
-12066588.749152
-12786362.680230
12301366.238134
12822595.642507
-12351787.094100
-13064792.094905
12473112.077335
12993757.533153
-12628971.399000
-13338020.672678
12630943.104926
13144138.860658
-12877967.145951
-13589389.934975
12769553.507214
13281563.117960
-13117437.234137
-13805351.931791
12903963.540320
13411870.084777
-13324738.586014
-14038760.323335
13025021.146720
13524431.719789
-13523169.633893
-14211507.166237
13108897.701711
13591218.226048
-13701267.274796
-14394743.651099
13181191.789092
13680199.096674
-13856044.267269
-14540714.035198
13233331.353630
13714902.452497
-13981884.965438
-14663823.739065
13258857.562936
13733760.577955
-14109286.404207
-14776389.317164
13280156.632523
13751491.676155
-14209874.520995
-14853110.698361
13286029.941003
13751716.187664
-14276041.799133
-14912592.791546
13260801.655738
13710529.346649
13747073.112422
-14309181.244613
-14942957.638770
13248792.509651
13629683.138260
-14331110.463008
-14961589.323873
13141736.383259
13561001.377467
-14348527.123748
-14962534.295069
13067436.941737
13434625.302545
-14325347.175938
-14919184.044154
12957281.706319
13319344.053095
-14278294.058778
-14875874.504927
12847985.472979
13193979.030553
-14212584.231327
-14803738.670971
12702723.649670
13042888.666636
-14123989.402769
-14702068.231778
12546563.592895
12884154.896767
-14013263.689720
-14570858.134544
12395126.972980
12695548.924811
-13877664.650946
-14451058.017797
12211435.997021
12508222.817811
-13708118.501045
-14286630.632080
-14246012.866442
12012833.058051
12294977.129094
-13642466.911989
-13996859.547141
11810358.001689
12070564.817246
-13321480.986508
-13791994.656138
11589746.545791
11849678.190133
-13147787.746637
-13542343.644675
11361137.174711
11596352.255914
-12903650.113799
-13309138.029171
11111519.025697
11339278.950134
-12670028.843743
-13050263.263105
10862074.567197
11081172.026922
-12404106.318748
-12770403.042062
10595399.034887
10798779.514042
-12135609.871638
-12486825.977178
10330788.926852
10517881.424501
-11855035.578732
-12186794.669003
10051546.715881
10229433.802517
-11569763.739220
-11883091.078084
9755771.781610
9925580.905958
-11257087.317473
-11557305.341878
9488358.286071
9646090.139329
-10948778.656049
-11237975.964976
9187807.400902
9340571.400418
-10626254.946831
-10889645.873144
8883151.722741
9044946.345942
-10294120.034289
-10555521.617231
8576761.893520
8713877.352734
-9952790.091298
-10194291.427637
8271793.638323
8404817.408287
-9617140.731931
-9853354.886931
7942521.661714
8091338.930350
7888044.306683
-9276637.215711
-9495672.196600
7656298.555925
7604750.604059
-8918254.029883
-9130268.046100
7279345.468206
7286917.609023
-8584527.658078
-8778776.503798
6960295.487389
6964084.876436
-8235970.789751
-8405771.367483
6682402.798177
6665659.023962
-7873421.016867
-8050551.528822
6372598.312748
6366650.311877
-7521879.895249
-7694037.136114
6086615.342376
6067294.824330
-7192490.184468
-7332535.377627
5787104.985694
5769298.825094
-6834117.322103
-6988040.537370
5510335.746576
5489259.207700
-6482252.351016
-6635017.382559
5237761.626040
5204083.500686
-6154234.141482
-6284710.854747
4953377.989264
4945529.779345
-5790555.591339
-5941449.021864
-5709538.224811
4688205.858146
4668427.563661
-5478965.923318
-5410673.732876
4427198.127965
4405551.958354
-5097700.167678
-5098224.282664
4172192.874317
4150201.961764
-4786738.467698
-4783565.112959
3918957.057959
3900961.144599
-4486273.221256
-4484566.563619
3677270.249895
3653386.660006
-4192786.828292
-4188582.315034
3457656.409946
3433596.828434
-3913205.003641
-3908615.456620
3222900.361413
3202395.746144
-3638496.046199
-3638373.382169
2997150.039542
2985165.503188
-3377033.673699
-3363330.774325
2795820.826859
2789650.292377
-3113071.683029
-3116629.539305
2599291.361798
2576585.520810
-2873634.334102
-2861752.564439
2404590.107748
2388524.981944
-2647118.974025
-2642132.811207
2216826.431766
2206166.622717
-2426224.412368
-2427124.336404
2046532.836572
2029790.593470
-2231782.667923
-2213126.840846
1880211.813747
1865796.553382
-2014304.853774
-2017626.802502
1723531.192949
1708320.376095
1583126.096928
-1835287.842382
-1827965.472825
1566879.534523
1475876.741544
-1653748.884594
-1647933.523195
1407700.794666
1337495.935189
-1489832.258216
-1492828.234525
1264767.607844
1218256.868511
-1338779.270178
-1326449.966721
1131410.834452
1089212.873608
-1201749.714655
-1182662.513957
1023359.106937
974209.099840
-1056549.934931
-1045506.071941
913713.481600
858768.501892
-932512.957239
-918873.898748
805620.071918
766158.647316
-807568.589481
-803799.758923
716992.540389
685163.373356
-696338.262018
-700376.802714
635568.509037
592694.455107
-604053.414348
-604344.792205
547025.689214
516448.135967
-505938.015168
-521430.334918
470819.123778
445156.833374
-428536.663341
-447421.068615
394676.668765
391235.818842
-352230.858858
-395366.060445
345161.713929
331264.617709
-291726.205928
-323195.531992
287077.649025
271668.718157
-225533.741204
-259846.298303
242688.679876
221945.972609
-187356.736453
-212273.413246
196651.582375
173583.674558
-137670.018896
-168764.112189
168437.982162
132892.847778
-104547.374455
-130078.597772
129144.315461
110073.912883
-76530.580983
-100048.694525
96145.892815
82861.820512
-56758.453828
-68515.349773
73433.330976
56744.887201
-23635.953023
-45159.205266
44759.592866
36093.646167
-17769.699657
-33298.264616
28516.268291
44683.699062
-3777.498747
-18015.222343
14808.428289
12261.966164
565.271520
-6863.956885
10679.269503
776.195689
12195.018455
13746.531244
2378.940657
-17578.851655
9428.648905
19096.233668
-7607.843418
-262.315261
14797.725198
20556.351369
-9191.320143
-17590.544129
6734.247333
16228.736765
-12434.617885
-22021.401251
15547.941120
120.503250
-14744.813633
-6106.344637
8602.387680
7593.853036
-10982.923171
-15609.384448
10839.662607
-2760.035674
-4284.952164
4010.424046
-1195.345680
12053.370153
-10376.114170
SCALARS stress_3 float
LOOKUP_TABLE default
-8709.445773
-10497.861275
-17586.123316
-1180.930037
-2233.776399
-19598.648270
-37958.332860
-8582.238287
-39804.582379
-53435.669965
-30723.700088
-65205.619675
-60923.509277
-56424.721529
-96136.876172
-62298.620197
-145100.655764
-61256.864130
-209192.444612
-36370.598339
-278493.952694
-28508.612503
-354652.752515
8439.496818
-445094.554052
46632.988052
-557257.333252
78775.861200
-678949.945103
156131.374691
-810578.461767
224374.311350
-977244.117620
311391.502113
-1125762.912662
404318.946979
-1323437.346549
536482.735312
-1520502.629602
668422.819003
-1723862.430543
-1968871.959693
818392.432428
-2212161.289214
994856.003080
-2485635.274096
1200289.168775
-2760719.510897
1402672.308899
-3064935.709596
1631653.850945
-3383617.087366
1882953.384621
-3697226.475142
2146063.385530
-4047908.727912
2442974.588388
-4404325.917839
2744777.872240
-4772096.068978
3071769.568362
-5144262.060370
3426750.959238
3791442.803640
-5543095.892017
4164021.956557
-5946600.442961
4573613.556146
-6345373.357870
4995566.078011
-6791961.088292
5444382.256869
-7207515.634228
5897104.971763
-7656314.326270
6360590.553972
-8101944.357536
6832450.641308
-8539914.203630
7352473.613160
-8983040.292045
7858531.897021
-9442241.122440
8370793.082597
-9886816.315427
8891157.549276
-10340014.298501
9429970.483322
-10804628.764439
9975299.932845
-11245472.947615
10528683.842883
-11694235.685818
-12121988.237475
11066250.213436
-12556465.416321
11602345.827331
-12977876.504839
12155385.515501
-13391892.744257
12706672.440159
-13780178.989563
13249294.601305
-14171658.102600
13776715.161151
-14533255.317742
14304324.523138
-14911443.472777
14825493.897585
-15228205.826133
15327256.043266
-15564653.191545
15827525.315512
-15884536.068670
16299168.165871
16757850.111887
-16168610.078121
17197989.177615
-16421179.647392
17607962.121827
-16675246.469261
18023764.154843
-16882894.164341
18400829.204501
-17086098.401355
18759074.505176
-17258999.987183
19076973.984704
-17430173.831774
19400487.232793
-17554563.935130
19672526.249443
-17656367.941919
19926635.365931
-17741412.303688
20141401.792578
-17773178.285721
20321010.288155
-17816113.888016
20497302.449223
-17814500.375857
20606583.793327
-17792707.773297
20712937.941078
-17755366.152499
20766302.410023
-17675506.754691
-17573406.797047
20817799.224214
-17470937.110500
20812413.142425
-17317552.177508
20782890.092492
-17176962.401511
20725751.260682
-16980279.023735
20639332.646995
-16757284.116345
20517256.558654
-16542318.469019
20367486.205981
-16295498.557359
20171537.113371
-16031517.171046
19975580.491147
-15746256.002856
19736458.267144
19466227.200136
-15444259.052789
19191416.886682
-15133101.134579
18876172.844327
-14809668.320387
18542144.242135
-14461327.851442
18183069.862933
-14117533.703691
17821950.465493
-13759804.359588
17420107.977652
-13386648.198519
17024340.375357
-13006591.702942
16588990.393324
-12622865.276295
16144458.031555
-12233524.159807
15690398.024766
-11829709.143157
15236023.921410
-11432147.895068
14768466.076818
-11032328.415540
14282028.490991
-10627939.114866
13789160.253977
-10226746.065208
13307528.558897
-9834048.032191
-9448907.087980
12815189.737028
-9035648.022251
12314620.167757
-8669638.076235
11808146.158306
-8269291.225876
11314119.281181
-7884029.953630
10811079.915769
-7514171.807950
10321709.562412
-7153258.433502
9827553.407378
-6785969.071515
9356004.192236
-6427316.511669
8884845.079199
-6085398.350523
8407598.833893
-5749279.425865
7947054.594475
-5429007.737695
7513483.505957
-5108976.123801
7063646.327111
-4818385.753248
6655221.775454
-4534953.843209
6226363.037251
-4236408.393686
5817390.854075
-3959355.459640
5434888.388137
-3693454.992961
5067066.405063
-3443913.807385
4693083.212076
-3196927.523524
4349210.381681
-2961128.551672
4020964.293266
-2760052.464336
3712658.447172
-2538934.882128
3390548.415906
-2339012.167233
3113781.723864
-2152019.988375
2846771.177928
-1969555.466511
2595959.447505
-1805147.866921
2347714.532597
-1640184.714005
2108433.981653
-1486372.869602
1904608.150006
-1350527.478726
1696346.158614
-1216623.782604
1519168.007475
-1081604.498752
1330174.817548
-986293.295894
1183908.564778
-866415.294985
1053019.177002
-766539.761309
908033.799232
-664150.219263
781865.600533
-584839.079139
664669.363732
-502925.913444
559387.378850
-430078.342792
466882.049329
-366956.729367
390960.520179
-298120.645676
305680.719238
-249796.857343
256775.436185
-215621.412477
207837.002298
-178588.221714
159158.207256
-128905.285055
121324.551403
-100829.771564
83264.034739
-62798.898416
68195.422888
-37021.407182
30848.643688
-20681.297861
15990.842151
-5267.312026
-583.957670
-1181.046234
-12413.465752
18868.709833
-15129.254600
28162.811165
-14237.034192
32463.709311
-8426.401088
32149.759601
-8034.210276
20054.672015
-7455.672077
21408.422496
2600.737906
26515.866035
1591.019673
16012.212952
8799.535409
2568.287690
-11514.099884
-6154.483924
-22877.976589
-13531.031106
-29650.281069
-17145.781349
-48738.537721
-35905.944974
-47141.560279
-70439.997585
-64169.324689
-109146.770116
-64350.145028
-159180.286620
-52965.617854
-211916.233022
-35792.912235
-285177.012761
-30627.221288
-364868.649891
1604.309974
-451666.450951
40276.512485
-573248.819379
95912.596568
-700114.206725
150672.989715
-831699.847363
234634.498807
-993307.813457
308277.978834
-1158202.532499
408046.640115
-1348688.859480
534610.886091
-1544481.245947
668110.354577
-1765338.522835
815123.069627
-2004626.762306
986458.645002
-2244631.198736
1179809.887581
-2507423.500847
1369495.628300
-2791050.072079
1598136.674040
-3078458.218969
1842547.855734
-3397857.965571
2103905.932155
-3722435.763434
2369140.185785
-4052227.660666
2674994.947903
-4395074.512256
2997391.500991
-4748162.769753
3336482.603822
-5125658.505319
3684877.111385
-5515546.146448
4046804.161836
-5900069.741249
4451948.230780
-6297182.144711
4844762.456374
-6702745.428995
5271807.693607
-7113801.618157
5697830.725305
-7540245.211853
6140172.358348
-7960026.613523
6597947.375564
-8370529.919384
7051568.583831
-8802063.177545
7538533.596911
-9227236.839553
8022504.390750
-9630854.953518
8521216.555054
-10066295.970988
9014156.493263
-10478687.133190
9506215.415699
-10884717.722608
10024170.081132
-11280826.552976
10497105.296445
-11682230.906776
11009545.441021
-12070026.025236
11503021.725183
-12443732.763346
11980936.931756
-12793745.982947
12476147.819512
-13147214.918414
12942251.195333
-13474182.431589
13403705.842043
-13807577.377461
13862846.163083
-14102285.400697
14293467.700051
-14388166.549407
14713888.428894
-14651914.468258
15121881.583986
-14878077.205358
15505999.496604
-15121894.856925
15874269.377069
-15311593.019518
16212157.580714
-15497581.385914
16524474.890364
-15659301.980167
16836974.064791
-15790440.874439
17115971.483381
-15905117.309958
17365462.356455
-15999463.334833
17565615.015291
-16055642.569678
17767960.242715
-16079757.086655
17926048.014672
-16094468.530432
18061033.872761
-16091944.142237
18169364.220422
-16055067.970180
18250733.033601
-16006629.658927
18295751.426402
-15917047.232533
18301057.802265
-15818045.576894
18294934.516521
-15672922.288570
18245998.755438
-15544385.843164
18172212.446852
-15371275.054409
18079315.970150
-15181579.994468
17952486.084104
-14961465.880514
17776869.144045
-14752474.357216
17602011.932800
-14498452.665802
17388404.378206
-14242492.426885
17158039.666530
-13974183.712629
16897745.322169
-13676781.336766
16607807.748563
-13358546.943965
16316790.059815
-13051834.130786
15993858.231873
-12736143.783125
15655326.620068
-12383685.925036
15288807.176290
-12035134.153079
14916788.659314
-11691284.925655
14537665.424469
-11332220.266820
14113975.399594
-10959913.393745
13690818.964074
-10602835.975155
13269312.069803
-10227936.800728
12831559.475550
-9854755.491078
12391491.109154
-9476099.287434
11960000.946561
-9099765.406968
11497431.294994
-8735615.494350
11041764.557894
-8360774.339258
10595168.639043
-7995905.610415
10131303.490333
-7643620.073447
9681587.467097
-7278687.752407
9241568.521225
-6932305.105697
8780905.008050
-6579417.729877
8347244.072583
-6237806.842120
7905070.852982
-5918099.635547
7481252.114872
-5582255.351385
7063248.996411
-5275639.206809
6644820.642611
-4951887.991497
6258887.812244
-4681357.326063
5849529.222826
-4387186.403627
5472722.060623
-4103718.465418
5096737.043154
-3845134.301114
4751102.929189
-3587595.507275
4409833.267181
-3341462.494195
4066556.009020
-3093281.285928
3731828.703159
-2870834.268713
3454447.301489
-2657932.635669
3164259.707793
-2444389.603971
2898611.518631
-2246272.366738
2640248.234347
-2059282.141144
2382015.830885
-1882490.072201
2161588.236084
-1707955.021749
1930740.594955
-1565832.514187
1733468.859389
-1415093.411355
1541788.601892
-1278424.858267
1383389.750302
-1146330.096149
1210077.853070
-1015815.842519
1063100.055207
-902169.766098
915540.308604
-810462.584404
806308.161715
-710397.538665
677369.590483
-614791.797945
578289.288372
-529664.555366
487980.851942
-446648.979991
401076.612471
-396212.264941
319803.335582
-330872.796455
262058.949115
-274708.550479
185876.622135
-219099.889198
150517.903093
-191664.409172
113645.936999
-133814.900079
69740.296361
-106702.506932
49434.909015
-80570.422849
29100.540586
-62570.220338
11422.739527
-30530.689076
-6828.897604
-13652.998130
-15257.677343
-6976.292510
-15321.623744
2680.234663
-26699.140249
9219.414325
-24829.912779
-0.350085
-18915.965390
13820.627357
-4204.129015
10348.370705
-16970.879259
16760.066225
-2011.426440
21780.189520
12507.950911
2449.801946
-10651.078736
-9515.571510
-8289.057654
-19939.412773
-1659.482366
1204.722394
4681.909631
-13582.882670
-30921.270457
-5849.924363
-5357.761388
-32934.558238
-28797.290522
-16111.917820
-36825.012661
-46702.408889
-36488.935463
-63711.753996
-31587.103305
-45287.761198
-44116.405325
-58953.552112
-58517.774335
-85709.732807
-48189.862726
-71746.602013
-92894.509583
-126687.504515
-53738.826932
-56643.258633
-132389.247234
-155347.111892
-61066.875336
-51794.973510
-192940.438836
-224070.131756
-45847.640380
-38397.210256
-245282.453428
-298221.518339
-29764.174896
-26753.733811
-332537.533673
-398150.669519
-8362.283300
21652.219328
-417241.261539
-489928.378606
17730.892630
59522.111872
-523325.823774
-597339.771775
81625.724387
102564.678410
-642337.518821
-740562.082641
125224.001517
171501.391873
-778977.473878
-857908.387821
196484.173309
258540.059061
-924899.414409
-1031488.341445
281661.726735
348140.371395
-1093094.639690
-1207375.435629
371193.236910
439120.715105
-1267990.925143
-1394136.021725
495269.226652
580288.023582
-1475740.180792
-1598137.419712
618337.834054
708665.818478
-1689394.955033
-1841449.203676
-2038854.864811
761795.639913
872682.370016
-1942785.922756
-2208492.529335
934309.854547
1073273.851160
-2208027.602515
-2480406.043345
1107895.308892
1243344.046317
-2492827.064738
-2770637.002675
1319176.430442
1454782.396003
-2758650.172638
-3051486.280462
1525654.532588
1702689.131783
-3077649.679400
-3377378.680373
1788920.121226
1953025.310055
-3387949.808611
-3697576.323905
2026948.082865
2223415.527306
-3702945.144442
-4037058.459285
2304196.920658
2524878.255040
-4058293.772761
-4391444.186152
2602235.899136
2817465.485771
-4396900.367087
-4765624.479765
2925722.284332
3153765.457793
-4765476.758425
-5143770.289208
3551177.208675
3273434.071313
3844614.646340
-5130027.965277
-5519335.241947
3671012.868514
4132209.024825
-5521659.389783
-5921840.924332
4058069.075104
4503259.332179
-5903996.607048
-6336390.560388
4470248.870565
4948801.361311
-6308429.441227
-6765126.877845
4892367.470757
5361543.320665
-6736999.035957
-7178271.236486
5325762.988287
5827359.368136
-7162853.805028
-7616282.532763
5758513.318306
6280519.720692
-7561220.184773
-8047961.868716
6213781.963006
6765590.576390
-8003969.162172
-8476862.650458
6672942.924510
7238622.623826
-8429854.491815
-8927783.787940
7153763.606330
7741240.856834
-8862811.857641
-9380900.566254
7633994.198019
8244852.527602
-9305992.013554
-9808809.059197
8140509.670864
8760729.922795
-9738117.958254
-10264373.153839
8635841.104568
9288433.118693
-10173544.408499
-10694180.469556
9153054.662028
9815941.379955
-10605599.622041
-11151148.824001
9674713.451109
10337999.874896
-11038545.130692
-11601601.974628
-11978962.629666
10184939.555694
10860505.161630
-11561466.059606
-12239247.525809
10682981.403276
11407910.143253
-11910248.453368
-12649797.919440
11202207.752629
11931307.530430
-12348904.545282
-13048155.931689
11716069.386579
12456976.799450
-12735575.607689
-13441042.542675
12217268.360086
12986268.109715
-13113502.504103
-13824056.125969
12727421.972085
13499862.728009
-13470612.887560
-14181624.408615
13222825.151228
14017908.709165
-13828782.102974
-14535099.356960
13704856.487156
14496770.711757
-14157831.261089
-14863612.582642
14180723.825062
14981404.144779
-14470367.709561
-15171671.522818
14655375.713118
15472508.940672
-14767154.537069
-15452890.992457
15067433.670491
15895013.092749
16396327.563990
-15040246.281924
-15718950.221340
15685328.325050
16614732.838339
-15305092.416026
-15981599.571515
15985304.055446
17048348.020699
-15549636.942392
-16233378.496590
16424554.686335
17389547.735784
-15759754.809074
-16433995.438514
16790637.244562
17758184.344991
-15949903.609203
-16601347.676550
17146509.747818
18080695.131543
-16112258.891302
-16770695.839813
17457420.904772
18412440.249500
-16267323.614937
-16908592.265336
17765283.604346
18707961.917608
-16396507.096993
-17022534.252801
18016107.066928
18964333.933571
-16495567.706508
-17128387.140755
18244362.671352
19172190.584931
-16573601.033189
-17177198.976340
18454091.235471
19371434.575994
-16637574.482535
-17213982.588098
18632320.886408
19563091.247554
-16655514.834899
-17240850.356922
18799806.041309
19694265.093923
-16654404.658948
-17223886.682886
18923417.939417
19807080.632581
-16626505.462023
-17187931.764399
19017544.440378
19902478.627295
-16581440.928810
-17159682.880928
19090050.825440
19927819.086778
-16491129.587223
-17070641.537116
-17061696.970892
19101014.981320
19935395.160898
-16459185.148539
-16875112.403622
19102515.634249
19944616.468906
-16272020.549701
-16728543.271470
19068628.136126
19885452.285059
-16117359.628784
-16558373.625876
19018823.045951
19831486.680148
-15954953.048914
-16364891.905239
18942724.851532
19710598.465920
-15776478.112611
-16160425.074878
18828402.334325
19583796.220161
-15557517.271416
-15925582.244293
18666823.705949
19403524.477330
-15328613.660127
-15684088.057067
18484850.030063
19200590.886699
-15081033.974066
-15431137.476262
18299937.447721
19005146.110416
-14819280.843773
-15141162.882285
18005183.365750
18759413.176626
18666538.158939
-14546502.475123
-14825812.405212
17883772.546028
18325217.585010
-14248172.281969
-14540587.198415
17419836.095623
18014095.557734
-13936966.154387
-14211077.090770
17160482.288604
17673438.533791
-13628465.057289
-13878011.918900
16811136.707018
17310712.430282
-13287209.108823
-13523740.787799
16478853.463365
16940729.798603
-12959809.378481
-13161747.618442
16093501.202973
16548149.123937
-12588424.620167
-12806309.618277
15714824.830185
16143529.604902
-12239869.865474
-12433554.244406
15317490.430870
15728091.613407
-11867111.962539
-12046058.596604
14901864.276613
15286479.363819
-11491074.279712
-11653142.285001
14494000.518592
14863537.742033
-11123407.276769
-11286987.447079
14055943.457178
14405377.508194
-10735984.469267
-10893729.544173
13595532.281994
13936332.098836
-10347543.985965
-10499257.666335
13147132.261819
13480268.862372
-9967788.890330
-10089776.928767
12691021.363623
12995787.396736
-9580949.410569
-9699201.958533
12234677.258249
12519430.534849
-9165713.424139
-9316034.633299
-9064450.598534
11766325.663902
12017532.522119
-8813267.569228
-8697589.762162
11297434.104978
11547929.737931
-8362654.242047
-8316565.944155
10832604.936809
11056867.320445
-7974946.817216
-7926710.558908
10370666.538782
10579128.414671
-7602861.339589
-7559302.048929
9905392.031853
10087206.254984
-7230398.397520
-7193629.018238
9431086.846325
9620365.234477
-6884520.100039
-6849450.039005
8966558.792988
9155963.373709
-6537489.971813
-6491538.301741
8505938.527815
8696311.658424
-6202036.042242
-6142893.916640
8051842.116594
8236641.894201
-5857302.116157
-5806170.793318
7616312.974557
7774284.830421
-5532014.885648
-5476031.333978
7147158.475782
7334180.312078
7040607.610542
-5211414.132855
-5171186.352355
6743317.303636
6661872.441646
-4924458.261218
-4857045.445007
6252162.653503
6243498.709953
-4619666.747026
-4568946.625027
5855210.236138
5836355.498677
-4327620.572392
-4279117.413310
5469491.282333
5465440.919050
-4058856.453460
-4006543.944591
5084950.504919
5080438.412743
-3783839.995017
-3739949.969353
4742892.894242
4713437.829064
-3534323.293277
-3495086.173446
4385599.526636
4377302.138542
-3274350.379150
-3250748.709423
4063089.830769
4034735.039092
-3061179.180472
-3012464.265400
3742815.729397
3721638.626524
-2829428.174218
-2787528.343092
3429084.321145
3416790.356566
-2617046.041654
-2592780.187701
3147976.452777
3136405.820912
-2405594.108358
-2372350.408320
2863114.153828
2856888.162108
-2204888.379821
-2195242.886536
2617305.879205
2601322.987405
-2022672.159085
-2019043.857556
2371719.951004
2357264.115737
-1847644.934479
-1828200.623169
-1714749.515385
2124543.370868
2130975.735023
-1664941.886742
-1564662.545768
1929370.299708
1924564.500487
-1510939.491610
-1413310.486514
1718561.068802
1699057.949473
-1353505.511581
-1287817.550808
1537302.129698
1527079.618099
-1209949.267080
-1147286.033413
1357703.458343
1347779.482311
-1077088.109261
-1024568.166157
1204819.964687
1185126.668547
-971550.975342
-915682.616933
1063751.209515
1044109.675850
-859543.446678
-818517.787826
924533.356620
906870.396897
-758471.732288
-724908.609482
788294.481515
785600.528103
-670762.450729
-615283.286523
677976.267259
675512.816990
-576963.763527
-544916.995149
565904.526317
565133.293111
-502191.857633
-472302.781273
454747.724492
497669.812443
-435714.118602
-400186.015370
376528.330783
429933.385946
-352774.812400
-334985.094650
304456.111774
356643.231660
-308874.204998
-279674.920836
243662.242914
283267.263975
-230910.320448
-234769.710417
183800.896332
214049.910881
-205802.521623
-191955.043510
143486.290230
178480.973365
-162202.596142
-146457.335745
99366.378756
122766.720744
-121992.165993
-106681.508936
72879.585775
88059.821812
-92166.851789
-79703.647581
33117.059793
74444.266087
-57226.116113
-49109.259011
30849.173343
35818.625523
-40082.890983
-22513.139479
13891.167652
18408.069187
-24414.226285
-6571.893228
-7963.474137
3463.364688
4460.826918
7012.966929
-9444.602833
4169.642719
4953.764863
5294.979231
-17928.487898
-3231.254888
15910.658962
9837.945483
-17147.649548
-16972.844927
19634.757392
21590.297235
-18559.246638
-20455.409810
10517.627024
18642.314503
-15955.279167
-11221.287188
12059.183635
30562.243373
-8128.584923
-14047.630913
19427.727576
30483.498306
-640.777667
88.704026
16510.574347
16564.294097
-1595.333688
22240.529272
4036.404839
1323.082488
9234.868941
-15121.118679
17111.425501
