# vtk DataFile Version 2.0
Generated volume Mesh
ASCII
DATASET UNSTRUCTURED_GRID
POINTS 1240 float
-0.212153 -0.150304 0.000000
-0.206421 -0.141033 0.000000
-0.215099 -0.146056 0.000000
-0.209122 -0.154492 0.000000
-0.217961 -0.141751 0.000000
-0.206009 -0.158620 0.000000
-0.220736 -0.137389 0.000000
-0.202815 -0.162684 0.000000
-0.223424 -0.132973 0.000000
-0.226023 -0.128505 0.000000
-0.199540 -0.166684 0.000000
-0.228534 -0.123985 0.000000
-0.196187 -0.170619 0.000000
-0.230953 -0.119417 0.000000
-0.192756 -0.174486 0.000000
-0.233282 -0.114802 0.000000
-0.189249 -0.178283 0.000000
-0.235519 -0.110141 0.000000
-0.185666 -0.182011 0.000000
-0.237662 -0.105436 0.000000
-0.182011 -0.185666 0.000000
-0.239711 -0.100690 0.000000
-0.178283 -0.189249 0.000000
-0.241666 -0.095904 0.000000
-0.174486 -0.192756 0.000000
-0.243525 -0.091081 0.000000
-0.170619 -0.196187 0.000000
-0.245288 -0.086221 0.000000
-0.166684 -0.199540 0.000000
-0.246953 -0.081327 0.000000
-0.162684 -0.202815 0.000000
-0.248521 -0.076401 0.000000
-0.158620 -0.206009 0.000000
-0.249991 -0.071445 0.000000
-0.154492 -0.209122 0.000000
-0.251363 -0.066459 0.000000
-0.150304 -0.212153 0.000000
-0.252634 -0.061448 0.000000
-0.146056 -0.215099 0.000000
-0.253806 -0.056412 0.000000
-0.141751 -0.217961 0.000000
-0.137389 -0.220736 0.000000
-0.254878 -0.051354 0.000000
-0.132973 -0.223424 0.000000
-0.255849 -0.046275 0.000000
-0.128505 -0.226023 0.000000
-0.256718 -0.041179 0.000000
-0.123985 -0.228534 0.000000
-0.257486 -0.036067 0.000000
-0.119417 -0.230953 0.000000
-0.258152 -0.030940 0.000000
-0.114802 -0.233282 0.000000
-0.258717 -0.025802 0.000000
-0.110141 -0.235519 0.000000
-0.259178 -0.020654 0.000000
-0.105436 -0.237662 0.000000
-0.259538 -0.015498 0.000000
-0.100690 -0.239711 0.000000
-0.259794 -0.010336 0.000000
-0.095904 -0.241666 0.000000
-0.259949 -0.005169 0.000000
-0.091081 -0.243525 0.000000
-0.260000 0.000000 0.000000
-0.259949 0.005169 0.000000
-0.086221 -0.245288 0.000000
-0.259794 0.010336 0.000000
-0.081327 -0.246953 0.000000
-0.259538 0.015498 0.000000
-0.076401 -0.248521 0.000000
-0.259178 0.020654 0.000000
-0.071445 -0.249991 0.000000
-0.258717 0.025802 0.000000
-0.066459 -0.251363 0.000000
-0.258152 0.030940 0.000000
-0.061448 -0.252634 0.000000
-0.257486 0.036067 0.000000
-0.056412 -0.253806 0.000000
-0.256718 0.041179 0.000000
-0.051354 -0.254878 0.000000
-0.255849 0.046275 0.000000
-0.046275 -0.255849 0.000000
-0.254878 0.051354 0.000000
-0.041179 -0.256718 0.000000
-0.253806 0.056412 0.000000
-0.036067 -0.257486 0.000000
-0.252634 0.061448 0.000000
-0.030940 -0.258152 0.000000
-0.251363 0.066459 0.000000
-0.025802 -0.258717 0.000000
-0.249991 0.071445 0.000000
-0.020654 -0.259178 0.000000
-0.248521 0.076401 0.000000
-0.015498 -0.259538 0.000000
-0.010336 -0.259794 0.000000
-0.246953 0.081327 0.000000
-0.005169 -0.259949 0.000000
-0.245288 0.086221 0.000000
0.000000 -0.260000 0.000000
-0.243525 0.091081 0.000000
0.005169 -0.259949 0.000000
-0.241666 0.095904 0.000000
0.010336 -0.259794 0.000000
-0.239711 0.100690 0.000000
0.015498 -0.259538 0.000000
-0.237662 0.105436 0.000000
0.020654 -0.259178 0.000000
-0.235519 0.110141 0.000000
0.025802 -0.258717 0.000000
-0.233282 0.114802 0.000000
0.030940 -0.258152 0.000000
-0.230953 0.119417 0.000000
0.036067 -0.257486 0.000000
-0.228534 0.123985 0.000000
0.041179 -0.256718 0.000000
-0.226023 0.128505 0.000000
-0.223424 0.132973 0.000000
0.046275 -0.255849 0.000000
-0.220736 0.137389 0.000000
0.051354 -0.254878 0.000000
-0.217961 0.141751 0.000000
0.056412 -0.253806 0.000000
-0.215099 0.146056 0.000000
0.061448 -0.252634 0.000000
-0.212153 0.150304 0.000000
0.066459 -0.251363 0.000000
-0.209122 0.154492 0.000000
0.071445 -0.249991 0.000000
-0.206009 0.158620 0.000000
0.076401 -0.248521 0.000000
-0.202815 0.162684 0.000000
0.081327 -0.246953 0.000000
-0.199540 0.166684 0.000000
0.086221 -0.245288 0.000000
-0.196187 0.170619 0.000000
0.091081 -0.243525 0.000000
-0.192756 0.174486 0.000000
0.095904 -0.241666 0.000000
-0.189249 0.178283 0.000000
0.100690 -0.239711 0.000000
-0.185666 0.182011 0.000000
0.105436 -0.237662 0.000000
-0.182011 0.185666 0.000000
0.110141 -0.235519 0.000000
-0.178283 0.189249 0.000000
0.114802 -0.233282 0.000000
-0.174486 0.192756 0.000000
0.119417 -0.230953 0.000000
0.123985 -0.228534 0.000000
-0.170619 0.196187 0.000000
0.128505 -0.226023 0.000000
-0.166684 0.199540 0.000000
0.132973 -0.223424 0.000000
-0.162684 0.202815 0.000000
0.137389 -0.220736 0.000000
-0.158620 0.206009 0.000000
0.141751 -0.217961 0.000000
-0.154492 0.209122 0.000000
0.146056 -0.215099 0.000000
-0.150304 0.212153 0.000000
0.150304 -0.212153 0.000000
-0.146056 0.215099 0.000000
0.154492 -0.209122 0.000000
-0.141751 0.217961 0.000000
0.158620 -0.206009 0.000000
-0.137389 0.220736 0.000000
0.162684 -0.202815 0.000000
-0.132973 0.223424 0.000000
-0.128505 0.226023 0.000000
0.166684 -0.199540 0.000000
-0.123985 0.228534 0.000000
0.170619 -0.196187 0.000000
-0.119417 0.230953 0.000000
0.174486 -0.192756 0.000000
-0.114802 0.233282 0.000000
0.178283 -0.189249 0.000000
-0.110141 0.235519 0.000000
0.182011 -0.185666 0.000000
-0.105436 0.237662 0.000000
0.185666 -0.182011 0.000000
-0.100690 0.239711 0.000000
0.189249 -0.178283 0.000000
-0.095904 0.241666 0.000000
0.192756 -0.174486 0.000000
-0.091081 0.243525 0.000000
0.196187 -0.170619 0.000000
-0.086221 0.245288 0.000000
0.199540 -0.166684 0.000000
-0.081327 0.246953 0.000000
0.202815 -0.162684 0.000000
-0.076401 0.248521 0.000000
0.206009 -0.158620 0.000000
-0.071445 0.249991 0.000000
0.209122 -0.154492 0.000000
-0.066459 0.251363 0.000000
0.212153 -0.150304 0.000000
-0.061448 0.252634 0.000000
0.215099 -0.146056 0.000000
-0.056412 0.253806 0.000000
0.217961 -0.141751 0.000000
0.220736 -0.137389 0.000000
-0.051354 0.254878 0.000000
0.223424 -0.132973 0.000000
-0.046275 0.255849 0.000000
0.226023 -0.128505 0.000000
-0.041179 0.256718 0.000000
0.228534 -0.123985 0.000000
-0.036067 0.257486 0.000000
0.230953 -0.119417 0.000000
-0.030940 0.258152 0.000000
0.233282 -0.114802 0.000000
-0.025802 0.258717 0.000000
0.235519 -0.110141 0.000000
-0.020654 0.259178 0.000000
0.237662 -0.105436 0.000000
-0.015498 0.259538 0.000000
0.239711 -0.100690 0.000000
-0.010336 0.259794 0.000000
0.241666 -0.095904 0.000000
-0.005169 0.259949 0.000000
0.243525 -0.091081 0.000000
0.000000 0.260000 0.000000
0.245288 -0.086221 0.000000
0.005169 0.259949 0.000000
0.246953 -0.081327 0.000000
0.010336 0.259794 0.000000
0.248521 -0.076401 0.000000
0.015498 0.259538 0.000000
0.249991 -0.071445 0.000000
0.020654 0.259178 0.000000
0.251363 -0.066459 0.000000
0.025802 0.258717 0.000000
0.252634 -0.061448 0.000000
0.030940 0.258152 0.000000
0.253806 -0.056412 0.000000
0.036067 0.257486 0.000000
0.254878 -0.051354 0.000000
0.041179 0.256718 0.000000
0.255849 -0.046275 0.000000
0.046275 0.255849 0.000000
0.256718 -0.041179 0.000000
0.051354 0.254878 0.000000
0.257486 -0.036067 0.000000
0.056412 0.253806 0.000000
0.258152 -0.030940 0.000000
0.061448 0.252634 0.000000
0.258717 -0.025802 0.000000
0.066459 0.251363 0.000000
0.259178 -0.020654 0.000000
0.071445 0.249991 0.000000
0.259538 -0.015498 0.000000
0.076401 0.248521 0.000000
0.259794 -0.010336 0.000000
0.081327 0.246953 0.000000
0.259949 -0.005169 0.000000
0.086221 0.245288 0.000000
0.260000 0.000000 0.000000
0.091081 0.243525 0.000000
0.259949 0.005169 0.000000
0.095904 0.241666 0.000000
0.259794 0.010336 0.000000
0.100690 0.239711 0.000000
0.259538 0.015498 0.000000
0.105436 0.237662 0.000000
0.259178 0.020654 0.000000
0.110141 0.235519 0.000000
0.258717 0.025802 0.000000
0.114802 0.233282 0.000000
0.258152 0.030940 0.000000
0.119417 0.230953 0.000000
0.257486 0.036067 0.000000
0.123985 0.228534 0.000000
0.256718 0.041179 0.000000
0.128505 0.226023 0.000000
0.255849 0.046275 0.000000
0.132973 0.223424 0.000000
0.254878 0.051354 0.000000
0.137389 0.220736 0.000000
0.253806 0.056412 0.000000
0.141751 0.217961 0.000000
0.252634 0.061448 0.000000
0.146056 0.215099 0.000000
0.251363 0.066459 0.000000
0.150304 0.212153 0.000000
0.249991 0.071445 0.000000
0.154492 0.209122 0.000000
0.248521 0.076401 0.000000
0.158620 0.206009 0.000000
0.246953 0.081327 0.000000
0.162684 0.202815 0.000000
0.245288 0.086221 0.000000
0.166684 0.199540 0.000000
0.243525 0.091081 0.000000
0.170619 0.196187 0.000000
0.241666 0.095904 0.000000
0.174486 0.192756 0.000000
0.239711 0.100690 0.000000
0.178283 0.189249 0.000000
0.237662 0.105436 0.000000
0.182011 0.185666 0.000000
0.235519 0.110141 0.000000
0.185666 0.182011 0.000000
0.233282 0.114802 0.000000
0.189249 0.178283 0.000000
0.230953 0.119417 0.000000
0.192756 0.174486 0.000000
0.228534 0.123985 0.000000
0.196187 0.170619 0.000000
0.226023 0.128505 0.000000
0.199540 0.166684 0.000000
0.223424 0.132973 0.000000
0.202815 0.162684 0.000000
0.220736 0.137389 0.000000
0.206009 0.158620 0.000000
0.217961 0.141751 0.000000
0.209122 0.154492 0.000000
0.215099 0.146056 0.000000
0.212153 0.150304 0.000000
-0.203462 -0.145269 0.000000
-0.209292 -0.136737 0.000000
-0.200416 -0.149443 0.000000
-0.212073 -0.132382 0.000000
-0.197285 -0.153553 0.000000
-0.214764 -0.127971 0.000000
-0.194070 -0.157598 0.000000
-0.217362 -0.123505 0.000000
-0.190771 -0.161575 0.000000
-0.219868 -0.118987 0.000000
-0.187391 -0.165483 0.000000
-0.222281 -0.114417 0.000000
-0.183931 -0.169320 0.000000
-0.224598 -0.109799 0.000000
-0.180392 -0.173086 0.000000
-0.226819 -0.105134 0.000000
-0.176777 -0.176777 0.000000
-0.228943 -0.100424 0.000000
-0.173086 -0.180392 0.000000
-0.230970 -0.095671 0.000000
-0.169320 -0.183931 0.000000
-0.232898 -0.090877 0.000000
-0.165483 -0.187391 0.000000
-0.234726 -0.086044 0.000000
-0.161575 -0.190771 0.000000
-0.236454 -0.081175 0.000000
-0.157598 -0.194070 0.000000
-0.238081 -0.076271 0.000000
-0.153553 -0.197285 0.000000
-0.239607 -0.071334 0.000000
-0.149443 -0.200416 0.000000
-0.241030 -0.066366 0.000000
-0.145269 -0.203462 0.000000
-0.242350 -0.061370 0.000000
-0.141033 -0.206421 0.000000
-0.243567 -0.056347 0.000000
-0.136737 -0.209292 0.000000
-0.244680 -0.051301 0.000000
-0.132382 -0.212073 0.000000
-0.245688 -0.046232 0.000000
-0.127971 -0.214764 0.000000
-0.246591 -0.041144 0.000000
-0.123505 -0.217362 0.000000
-0.247389 -0.036039 0.000000
-0.118987 -0.219868 0.000000
-0.248081 -0.030919 0.000000
-0.114417 -0.222281 0.000000
-0.248667 -0.025786 0.000000
-0.109799 -0.224598 0.000000
-0.249146 -0.020642 0.000000
-0.105134 -0.226819 0.000000
-0.249520 -0.015489 0.000000
-0.100424 -0.228943 0.000000
-0.249786 -0.010330 0.000000
-0.095671 -0.230970 0.000000
-0.249947 -0.005166 0.000000
-0.090877 -0.232898 0.000000
-0.250000 0.000000 0.000000
-0.086044 -0.234726 0.000000
-0.249947 0.005166 0.000000
-0.081175 -0.236454 0.000000
-0.249786 0.010330 0.000000
-0.076271 -0.238081 0.000000
-0.249520 0.015489 0.000000
-0.071334 -0.239607 0.000000
-0.249146 0.020642 0.000000
-0.066366 -0.241030 0.000000
-0.248667 0.025786 0.000000
-0.061370 -0.242350 0.000000
-0.248081 0.030919 0.000000
-0.056347 -0.243567 0.000000
-0.247389 0.036039 0.000000
-0.051301 -0.244680 0.000000
-0.246591 0.041144 0.000000
-0.046232 -0.245688 0.000000
-0.245688 0.046232 0.000000
-0.041144 -0.246591 0.000000
-0.244680 0.051301 0.000000
-0.036039 -0.247389 0.000000
-0.243567 0.056347 0.000000
-0.030919 -0.248081 0.000000
-0.242350 0.061370 0.000000
-0.025786 -0.248667 0.000000
-0.241030 0.066366 0.000000
-0.020642 -0.249146 0.000000
-0.239607 0.071334 0.000000
-0.015489 -0.249520 0.000000
-0.238081 0.076271 0.000000
-0.010330 -0.249786 0.000000
-0.236454 0.081175 0.000000
-0.005166 -0.249947 0.000000
-0.234726 0.086044 0.000000
-0.000000 -0.250000 0.000000
-0.232898 0.090877 0.000000
0.005166 -0.249947 0.000000
-0.230970 0.095671 0.000000
0.010330 -0.249786 0.000000
-0.228943 0.100424 0.000000
0.015489 -0.249520 0.000000
-0.226819 0.105134 0.000000
0.020642 -0.249146 0.000000
-0.224598 0.109799 0.000000
0.025786 -0.248667 0.000000
-0.222281 0.114417 0.000000
0.030919 -0.248081 0.000000
-0.219868 0.118987 0.000000
0.036039 -0.247389 0.000000
-0.217362 0.123505 0.000000
0.041144 -0.246591 0.000000
-0.214764 0.127971 0.000000
0.046232 -0.245688 0.000000
-0.212073 0.132382 0.000000
0.051301 -0.244680 0.000000
-0.209292 0.136737 0.000000
0.056347 -0.243567 0.000000
-0.206421 0.141033 0.000000
0.061370 -0.242350 0.000000
-0.203462 0.145269 0.000000
0.066366 -0.241030 0.000000
-0.200416 0.149443 0.000000
0.071334 -0.239607 0.000000
-0.197285 0.153553 0.000000
0.076271 -0.238081 0.000000
-0.194070 0.157598 0.000000
0.081175 -0.236454 0.000000
-0.190771 0.161575 0.000000
0.086044 -0.234726 0.000000
-0.187391 0.165483 0.000000
0.090877 -0.232898 0.000000
-0.183931 0.169320 0.000000
0.095671 -0.230970 0.000000
-0.180392 0.173086 0.000000
0.100424 -0.228943 0.000000
-0.176777 0.176777 0.000000
0.105134 -0.226819 0.000000
-0.173086 0.180392 0.000000
0.109799 -0.224598 0.000000
-0.169320 0.183931 0.000000
0.114417 -0.222281 0.000000
-0.165483 0.187391 0.000000
0.118987 -0.219868 0.000000
-0.161575 0.190771 0.000000
0.123505 -0.217362 0.000000
-0.157598 0.194070 0.000000
0.127971 -0.214764 0.000000
-0.153553 0.197285 0.000000
0.132382 -0.212073 0.000000
-0.149443 0.200416 0.000000
0.136737 -0.209292 0.000000
-0.145269 0.203462 0.000000
0.141033 -0.206421 0.000000
-0.141033 0.206421 0.000000
0.145269 -0.203462 0.000000
-0.136737 0.209292 0.000000
0.149443 -0.200416 0.000000
-0.132382 0.212073 0.000000
0.153553 -0.197285 0.000000
-0.127971 0.214764 0.000000
0.157598 -0.194070 0.000000
-0.123505 0.217362 0.000000
0.161575 -0.190771 0.000000
-0.118987 0.219868 0.000000
0.165483 -0.187391 0.000000
-0.114417 0.222281 0.000000
0.169320 -0.183931 0.000000
-0.109799 0.224598 0.000000
0.173086 -0.180392 0.000000
-0.105134 0.226819 0.000000
0.176777 -0.176777 0.000000
-0.100424 0.228943 0.000000
0.180392 -0.173086 0.000000
-0.095671 0.230970 0.000000
0.183931 -0.169320 0.000000
-0.090877 0.232898 0.000000
0.187391 -0.165483 0.000000
-0.086044 0.234726 0.000000
0.190771 -0.161575 0.000000
-0.081175 0.236454 0.000000
0.194070 -0.157598 0.000000
-0.076271 0.238081 0.000000
0.197285 -0.153553 0.000000
-0.071334 0.239607 0.000000
0.200416 -0.149443 0.000000
-0.066366 0.241030 0.000000
0.203462 -0.145269 0.000000
-0.061370 0.242350 0.000000
0.206421 -0.141033 0.000000
-0.056347 0.243567 0.000000
0.209292 -0.136737 0.000000
-0.051301 0.244680 0.000000
0.212073 -0.132382 0.000000
-0.046232 0.245688 0.000000
0.214764 -0.127971 0.000000
-0.041144 0.246591 0.000000
0.217362 -0.123505 0.000000
-0.036039 0.247389 0.000000
0.219868 -0.118987 0.000000
-0.030919 0.248081 0.000000
0.222281 -0.114417 0.000000
-0.025786 0.248667 0.000000
0.224598 -0.109799 0.000000
-0.020642 0.249146 0.000000
0.226819 -0.105134 0.000000
-0.015489 0.249520 0.000000
0.228943 -0.100424 0.000000
-0.010330 0.249786 0.000000
0.230970 -0.095671 0.000000
-0.005166 0.249947 0.000000
0.232898 -0.090877 0.000000
0.000000 0.250000 0.000000
0.234726 -0.086044 0.000000
0.005166 0.249947 0.000000
0.236454 -0.081175 0.000000
0.010330 0.249786 0.000000
0.238081 -0.076271 0.000000
0.015489 0.249520 0.000000
0.239607 -0.071334 0.000000
0.020642 0.249146 0.000000
0.241030 -0.066366 0.000000
0.025786 0.248667 0.000000
0.242350 -0.061370 0.000000
0.030919 0.248081 0.000000
0.243567 -0.056347 0.000000
0.036039 0.247389 0.000000
0.244680 -0.051301 0.000000
0.041144 0.246591 0.000000
0.245688 -0.046232 0.000000
0.046232 0.245688 0.000000
0.246591 -0.041144 0.000000
0.051301 0.244680 0.000000
0.247389 -0.036039 0.000000
0.056347 0.243567 0.000000
0.248081 -0.030919 0.000000
0.061370 0.242350 0.000000
0.248667 -0.025786 0.000000
0.066366 0.241030 0.000000
0.249146 -0.020642 0.000000
0.071334 0.239607 0.000000
0.249520 -0.015489 0.000000
0.076271 0.238081 0.000000
0.249786 -0.010330 0.000000
0.081175 0.236454 0.000000
0.249947 -0.005166 0.000000
0.086044 0.234726 0.000000
0.250000 -0.000000 0.000000
0.090877 0.232898 0.000000
0.249947 0.005166 0.000000
0.095671 0.230970 0.000000
0.249786 0.010330 0.000000
0.100424 0.228943 0.000000
0.249520 0.015489 0.000000
0.105134 0.226819 0.000000
0.249146 0.020642 0.000000
0.109799 0.224598 0.000000
0.248667 0.025786 0.000000
0.114417 0.222281 0.000000
0.248081 0.030919 0.000000
0.118987 0.219868 0.000000
0.247389 0.036039 0.000000
0.123505 0.217362 0.000000
0.246591 0.041144 0.000000
0.127971 0.214764 0.000000
0.245688 0.046232 0.000000
0.132382 0.212073 0.000000
0.244680 0.051301 0.000000
0.136737 0.209292 0.000000
0.243567 0.056347 0.000000
0.141033 0.206421 0.000000
0.242350 0.061370 0.000000
0.145269 0.203462 0.000000
0.241030 0.066366 0.000000
0.149443 0.200416 0.000000
0.239607 0.071334 0.000000
0.153553 0.197285 0.000000
0.238081 0.076271 0.000000
0.157598 0.194070 0.000000
0.236454 0.081175 0.000000
0.161575 0.190771 0.000000
0.234726 0.086044 0.000000
0.165483 0.187391 0.000000
0.232898 0.090877 0.000000
0.169320 0.183931 0.000000
0.230970 0.095671 0.000000
0.173086 0.180392 0.000000
0.228943 0.100424 0.000000
0.176777 0.176777 0.000000
0.226819 0.105134 0.000000
0.180392 0.173086 0.000000
0.224598 0.109799 0.000000
0.183931 0.169320 0.000000
0.222281 0.114417 0.000000
0.187391 0.165483 0.000000
0.219868 0.118987 0.000000
0.190771 0.161575 0.000000
0.217362 0.123505 0.000000
0.194070 0.157598 0.000000
0.214764 0.127971 0.000000
0.197285 0.153553 0.000000
0.212073 0.132382 0.000000
0.200416 0.149443 0.000000
0.209292 0.136737 0.000000
0.206421 0.141033 0.000000
0.203462 0.145269 0.000000
-0.211239 -0.145764 0.000000
-0.207348 -0.145506 0.000000
-0.208235 -0.149997 0.000000
-0.210271 -0.141224 0.000000
-0.214114 -0.141448 0.000000
-0.204348 -0.149730 0.000000
-0.205202 -0.154186 0.000000
-0.213130 -0.136835 0.000000
-0.216922 -0.137075 0.000000
-0.201224 -0.153860 0.000000
-0.202031 -0.158271 0.000000
-0.215878 -0.132424 0.000000
-0.219710 -0.132611 0.000000
-0.198030 -0.157923 0.000000
-0.198804 -0.162319 0.000000
-0.218605 -0.127699 0.000000
-0.222365 -0.128140 0.000000
-0.224875 -0.124872 0.000000
-0.194761 -0.161929 0.000000
-0.195479 -0.166293 0.000000
-0.221918 -0.123192 0.000000
-0.226380 -0.121036 0.000000
-0.191411 -0.165867 0.000000
-0.192076 -0.170180 0.000000
-0.223993 -0.118092 0.000000
-0.228835 -0.116386 0.000000
-0.187988 -0.169741 0.000000
-0.188629 -0.174050 0.000000
-0.226621 -0.113165 0.000000
-0.231077 -0.111640 0.000000
-0.184488 -0.173541 0.000000
-0.185072 -0.177780 0.000000
-0.228918 -0.108399 0.000000
-0.233287 -0.106944 0.000000
-0.180913 -0.177266 0.000000
-0.181487 -0.181485 0.000000
-0.231106 -0.103709 0.000000
-0.235397 -0.102211 0.000000
-0.177263 -0.180925 0.000000
-0.177757 -0.185116 0.000000
-0.233157 -0.098942 0.000000
-0.237414 -0.097442 0.000000
-0.173562 -0.184499 0.000000
-0.173989 -0.188666 0.000000
-0.235110 -0.094195 0.000000
-0.239353 -0.092615 0.000000
-0.169783 -0.188037 0.000000
-0.170176 -0.192088 0.000000
-0.237036 -0.089400 0.000000
-0.241145 -0.087789 0.000000
-0.165867 -0.191421 0.000000
-0.166261 -0.195470 0.000000
-0.238795 -0.084500 0.000000
-0.242869 -0.082916 0.000000
-0.161926 -0.194766 0.000000
-0.162296 -0.198817 0.000000
-0.240480 -0.079619 0.000000
-0.244533 -0.078015 0.000000
-0.157923 -0.198067 0.000000
-0.158264 -0.202046 0.000000
-0.242098 -0.074704 0.000000
-0.246013 -0.073093 0.000000
-0.153833 -0.201229 0.000000
-0.154141 -0.205206 0.000000
-0.243529 -0.069697 0.000000
-0.247451 -0.068123 0.000000
-0.149674 -0.204349 0.000000
-0.149938 -0.208289 0.000000
-0.244899 -0.064716 0.000000
-0.248766 -0.063116 0.000000
-0.145447 -0.207383 0.000000
-0.145696 -0.211247 0.000000
-0.246147 -0.059719 0.000000
-0.249987 -0.058081 0.000000
-0.141114 -0.210324 0.000000
-0.141350 -0.214172 0.000000
-0.247314 -0.054684 0.000000
-0.251085 -0.053025 0.000000
-0.136554 -0.213213 0.000000
-0.136933 -0.217186 0.000000
-0.133850 -0.219680 0.000000
-0.248378 -0.049626 0.000000
-0.252118 -0.047967 0.000000
-0.132090 -0.216717 0.000000
-0.130020 -0.221252 0.000000
-0.249339 -0.044548 0.000000
-0.253006 -0.042863 0.000000
-0.126984 -0.218897 0.000000
-0.125536 -0.223876 0.000000
-0.250196 -0.039452 0.000000
-0.253814 -0.037756 0.000000
-0.122403 -0.221788 0.000000
-0.120909 -0.226359 0.000000
-0.250948 -0.034339 0.000000
-0.254531 -0.032639 0.000000
-0.117810 -0.224233 0.000000
-0.116302 -0.228773 0.000000
-0.251590 -0.029207 0.000000
-0.255162 -0.027498 0.000000
-0.113063 -0.226648 0.000000
-0.111626 -0.231076 0.000000
-0.252152 -0.024064 0.000000
-0.255682 -0.022349 0.000000
-0.108405 -0.228923 0.000000
-0.106956 -0.233292 0.000000
-0.252595 -0.018895 0.000000
-0.256048 -0.017181 0.000000
-0.103699 -0.231093 0.000000
-0.102209 -0.235408 0.000000
-0.252917 -0.013716 0.000000
-0.256371 -0.011977 0.000000
-0.098950 -0.233168 0.000000
-0.097430 -0.237419 0.000000
-0.253145 -0.008502 0.000000
-0.256525 -0.006784 0.000000
-0.094186 -0.235148 0.000000
-0.092626 -0.239323 0.000000
-0.253246 -0.003274 0.000000
-0.256590 -0.001533 0.000000
-0.089365 -0.237021 0.000000
-0.087789 -0.241137 0.000000
-0.256677 0.003861 0.000000
-0.253142 0.002166 0.000000
-0.257115 0.007822 0.000000
-0.084514 -0.238796 0.000000
-0.082921 -0.242867 0.000000
-0.253720 0.007776 0.000000
-0.256519 0.011763 0.000000
-0.079606 -0.240458 0.000000
-0.078018 -0.244489 0.000000
-0.252852 0.013320 0.000000
-0.256068 0.016920 0.000000
-0.074694 -0.242036 0.000000
-0.073082 -0.246010 0.000000
-0.252611 0.018669 0.000000
-0.255656 0.022234 0.000000
-0.069735 -0.243513 0.000000
-0.068114 -0.247458 0.000000
-0.252141 0.023990 0.000000
-0.255162 0.027444 0.000000
-0.064743 -0.244887 0.000000
-0.063092 -0.248749 0.000000
-0.251604 0.029164 0.000000
-0.254573 0.032595 0.000000
-0.059717 -0.246147 0.000000
-0.058069 -0.249993 0.000000
-0.250974 0.034287 0.000000
-0.253840 0.037734 0.000000
-0.054678 -0.247313 0.000000
-0.053013 -0.251111 0.000000
-0.250231 0.039411 0.000000
-0.253024 0.042842 0.000000
-0.049616 -0.248377 0.000000
-0.047935 -0.252120 0.000000
-0.249361 0.044517 0.000000
-0.252111 0.047933 0.000000
-0.044539 -0.249350 0.000000
-0.042840 -0.253023 0.000000
-0.248407 0.049594 0.000000
-0.251110 0.053004 0.000000
-0.039431 -0.250212 0.000000
-0.037704 -0.253860 0.000000
-0.247324 0.054669 0.000000
-0.249985 0.058059 0.000000
-0.034308 -0.250972 0.000000
-0.032585 -0.254550 0.000000
-0.246143 0.059708 0.000000
-0.248743 0.063082 0.000000
-0.029143 -0.251616 0.000000
-0.027438 -0.255160 0.000000
-0.244868 0.064718 0.000000
-0.247429 0.068085 0.000000
-0.023984 -0.252155 0.000000
-0.022275 -0.255652 0.000000
-0.243509 0.069698 0.000000
-0.245994 0.073043 0.000000
-0.018760 -0.252599 0.000000
-0.017016 -0.256101 0.000000
-0.242036 0.074652 0.000000
-0.244469 0.077981 0.000000
-0.013287 -0.252844 0.000000
-0.011794 -0.256461 0.000000
-0.007824 -0.257115 0.000000
-0.240463 0.079574 0.000000
-0.242849 0.082888 0.000000
-0.007799 -0.253734 0.000000
-0.003878 -0.256704 0.000000
-0.238789 0.084463 0.000000
-0.241130 0.087762 0.000000
-0.002313 -0.253282 0.000000
0.001488 -0.256626 0.000000
-0.237016 0.089317 0.000000
-0.239316 0.092601 0.000000
0.003275 -0.253251 0.000000
0.006791 -0.256518 0.000000
-0.235145 0.094134 0.000000
-0.237412 0.097406 0.000000
0.008519 -0.253134 0.000000
0.011961 -0.256352 0.000000
-0.233173 0.098919 0.000000
-0.235426 0.102191 0.000000
0.013685 -0.252913 0.000000
0.017142 -0.256059 0.000000
-0.231127 0.103687 0.000000
-0.233295 0.106912 0.000000
0.018872 -0.252578 0.000000
0.022325 -0.255665 0.000000
-0.228942 0.108390 0.000000
-0.231092 0.111624 0.000000
0.024038 -0.252148 0.000000
0.027480 -0.255157 0.000000
-0.226657 0.113049 0.000000
-0.228780 0.116278 0.000000
0.029190 -0.251600 0.000000
0.032621 -0.254550 0.000000
-0.224272 0.117709 0.000000
-0.226385 0.120864 0.000000
0.034318 -0.250961 0.000000
0.037740 -0.253831 0.000000
-0.221796 0.122264 0.000000
-0.223999 0.125456 0.000000
0.039411 -0.250224 0.000000
0.042847 -0.253042 0.000000
-0.218901 0.126938 0.000000
-0.221364 0.129767 0.000000
-0.219680 0.133847 0.000000
0.044518 -0.249355 0.000000
0.047933 -0.252121 0.000000
-0.216712 0.132054 0.000000
-0.217004 0.137072 0.000000
0.049586 -0.248413 0.000000
0.052994 -0.251107 0.000000
-0.213232 0.136466 0.000000
-0.214223 0.141523 0.000000
0.054657 -0.247336 0.000000
0.058052 -0.250005 0.000000
-0.210309 0.141140 0.000000
-0.211239 0.145727 0.000000
0.059678 -0.246219 0.000000
0.063074 -0.248801 0.000000
-0.207382 0.145398 0.000000
-0.208266 0.149943 0.000000
0.064707 -0.244891 0.000000
0.068065 -0.247437 0.000000
-0.204377 0.149636 0.000000
-0.205190 0.154130 0.000000
0.069691 -0.243505 0.000000
0.073032 -0.246030 0.000000
-0.201236 0.153821 0.000000
-0.202041 0.158266 0.000000
0.074644 -0.242033 0.000000
0.077971 -0.244510 0.000000
-0.198078 0.157909 0.000000
-0.198801 0.162297 0.000000
0.079563 -0.240462 0.000000
0.082879 -0.242869 0.000000
-0.194813 0.161942 0.000000
-0.195518 0.166295 0.000000
0.084448 -0.238801 0.000000
0.087756 -0.241183 0.000000
-0.191439 0.165882 0.000000
-0.192093 0.170171 0.000000
0.089300 -0.237046 0.000000
0.092599 -0.239343 0.000000
-0.188003 0.169744 0.000000
-0.188653 0.173995 0.000000
0.094143 -0.235202 0.000000
0.097411 -0.237436 0.000000
-0.184499 0.173533 0.000000
-0.185108 0.177774 0.000000
0.098956 -0.233189 0.000000
0.102214 -0.235430 0.000000
-0.180925 0.177258 0.000000
-0.181476 0.181471 0.000000
0.103685 -0.231103 0.000000
0.106930 -0.233289 0.000000
-0.177298 0.180905 0.000000
-0.177799 0.185107 0.000000
0.108419 -0.228930 0.000000
0.111656 -0.231091 0.000000
-0.173586 0.184506 0.000000
-0.174021 0.188619 0.000000
0.113144 -0.226627 0.000000
0.116347 -0.228895 0.000000
-0.169775 0.188019 0.000000
-0.170198 0.192078 0.000000
0.118125 -0.224048 0.000000
0.120958 -0.226462 0.000000
0.124847 -0.224898 0.000000
-0.165874 0.191414 0.000000
-0.166269 0.195460 0.000000
0.123118 -0.221704 0.000000
0.128317 -0.222427 0.000000
-0.161942 0.194765 0.000000
-0.162298 0.198777 0.000000
0.127741 -0.218738 0.000000
0.132718 -0.219773 0.000000
-0.157941 0.198061 0.000000
-0.158267 0.202017 0.000000
0.132458 -0.215906 0.000000
0.137099 -0.216943 0.000000
-0.153841 0.201233 0.000000
-0.154157 0.205176 0.000000
0.136835 -0.213143 0.000000
0.141446 -0.214140 0.000000
-0.149697 0.204336 0.000000
-0.149986 0.208241 0.000000
0.141204 -0.210307 0.000000
0.145766 -0.211267 0.000000
-0.145494 0.207364 0.000000
-0.145771 0.211274 0.000000
0.145482 -0.207382 0.000000
0.149974 -0.208247 0.000000
-0.141205 0.210328 0.000000
-0.141442 0.214144 0.000000
0.149675 -0.204345 0.000000
0.154126 -0.205199 0.000000
-0.136819 0.213112 0.000000
-0.137086 0.216926 0.000000
0.153844 -0.201265 0.000000
0.158238 -0.202080 0.000000
-0.132440 0.215878 0.000000
-0.132694 0.219723 0.000000
0.157910 -0.198046 0.000000
0.162291 -0.198796 0.000000
-0.127703 0.218560 0.000000
-0.128168 0.222340 0.000000
-0.124872 0.224869 0.000000
0.161934 -0.194783 0.000000
0.166261 -0.195477 0.000000
-0.123151 0.221907 0.000000
-0.120918 0.226405 0.000000
0.165879 -0.191440 0.000000
0.170170 -0.192099 0.000000
-0.117906 0.223946 0.000000
-0.116364 0.228838 0.000000
0.169751 -0.188007 0.000000
0.173993 -0.188654 0.000000
-0.113240 0.226633 0.000000
-0.111662 0.231084 0.000000
0.173542 -0.184492 0.000000
0.177760 -0.185096 0.000000
-0.108422 0.228922 0.000000
-0.106961 0.233288 0.000000
0.177261 -0.180914 0.000000
0.181485 -0.181471 0.000000
-0.103737 0.231113 0.000000
-0.102262 0.235399 0.000000
0.180916 -0.177255 0.000000
0.185091 -0.177759 0.000000
-0.098948 0.233164 0.000000
-0.097431 0.237399 0.000000
0.184491 -0.173524 0.000000
0.188622 -0.173999 0.000000
-0.094143 0.235127 0.000000
-0.092613 0.239321 0.000000
0.187992 -0.169728 0.000000
0.192102 -0.170181 0.000000
-0.089317 0.237012 0.000000
-0.087764 0.241132 0.000000
0.191418 -0.165860 0.000000
0.195491 -0.166265 0.000000
-0.084463 0.238789 0.000000
-0.082889 0.242851 0.000000
0.194761 -0.161927 0.000000
0.198782 -0.162297 0.000000
-0.079574 0.240463 0.000000
-0.077984 0.244481 0.000000
0.198034 -0.157937 0.000000
0.202051 -0.158287 0.000000
-0.074655 0.242028 0.000000
-0.073067 0.246024 0.000000
0.201260 -0.153870 0.000000
0.205213 -0.154172 0.000000
-0.069704 0.243501 0.000000
-0.068084 0.247440 0.000000
0.204378 -0.149650 0.000000
0.208273 -0.149949 0.000000
-0.064720 0.244869 0.000000
-0.063076 0.248748 0.000000
0.207393 -0.145398 0.000000
0.211241 -0.145689 0.000000
-0.059719 0.246146 0.000000
-0.058059 0.249953 0.000000
0.210313 -0.141108 0.000000
0.214198 -0.141341 0.000000
-0.054684 0.247314 0.000000
-0.053013 0.251069 0.000000
0.213186 -0.136480 0.000000
0.217027 -0.137061 0.000000
0.219675 -0.133904 0.000000
-0.049626 0.248378 0.000000
-0.047946 0.252085 0.000000
0.216699 -0.132106 0.000000
0.221261 -0.130034 0.000000
-0.044548 0.249339 0.000000
-0.042859 0.253000 0.000000
0.218972 -0.126947 0.000000
0.223829 -0.125513 0.000000
-0.039452 0.250196 0.000000
-0.037755 0.253811 0.000000
0.221761 -0.122278 0.000000
0.226348 -0.120860 0.000000
-0.034339 0.250948 0.000000
-0.032636 0.254520 0.000000
0.224241 -0.117692 0.000000
0.228771 -0.116275 0.000000
-0.029212 0.251597 0.000000
-0.027501 0.255124 0.000000
0.226657 -0.113049 0.000000
0.231079 -0.111599 0.000000
-0.024064 0.252125 0.000000
-0.022349 0.255632 0.000000
0.228947 -0.108402 0.000000
0.233301 -0.106928 0.000000
-0.018895 0.252587 0.000000
-0.017177 0.256059 0.000000
0.231124 -0.103682 0.000000
0.235410 -0.102221 0.000000
-0.013722 0.252906 0.000000
-0.011984 0.256358 0.000000
0.233165 -0.098925 0.000000
0.237410 -0.097418 0.000000
-0.008503 0.253124 0.000000
-0.006797 0.256513 0.000000
0.235127 -0.094138 0.000000
0.239324 -0.092617 0.000000
-0.003298 0.253224 0.000000
-0.001537 0.256626 0.000000
0.236998 -0.089320 0.000000
0.241141 -0.087778 0.000000
0.002151 0.253099 0.000000
0.003665 0.256640 0.000000
0.007850 0.257154 0.000000
0.238771 -0.084467 0.000000
0.242860 -0.082904 0.000000
0.007797 0.253617 0.000000
0.011936 0.256414 0.000000
0.240446 -0.079578 0.000000
0.244481 -0.077996 0.000000
0.013338 0.252784 0.000000
0.017146 0.256139 0.000000
0.242028 -0.074654 0.000000
0.246037 -0.073052 0.000000
0.018795 0.252575 0.000000
0.022298 0.255656 0.000000
0.243509 -0.069698 0.000000
0.247448 -0.068073 0.000000
0.023967 0.252157 0.000000
0.027442 0.255166 0.000000
0.244876 -0.064709 0.000000
0.248758 -0.063061 0.000000
0.029162 0.251616 0.000000
0.032604 0.254548 0.000000
0.246144 -0.059697 0.000000
0.249992 -0.058030 0.000000
0.034292 0.250979 0.000000
0.037736 0.253859 0.000000
0.247309 -0.054662 0.000000
0.251104 -0.052986 0.000000
0.039431 0.250218 0.000000
0.042858 0.253073 0.000000
0.248369 -0.049609 0.000000
0.252103 -0.047938 0.000000
0.044531 0.249396 0.000000
0.047946 0.252110 0.000000
0.249327 -0.044538 0.000000
0.253015 -0.042853 0.000000
0.049638 0.248392 0.000000
0.053019 0.251075 0.000000
0.250196 -0.039452 0.000000
0.253860 -0.037736 0.000000
0.054696 0.247309 0.000000
0.058069 0.249954 0.000000
0.251003 -0.034313 0.000000
0.254598 -0.032621 0.000000
0.059722 0.246136 0.000000
0.063114 0.248759 0.000000
0.251639 -0.029149 0.000000
0.255178 -0.027455 0.000000
0.064734 0.244874 0.000000
0.068093 0.247429 0.000000
0.252168 -0.023976 0.000000
0.255662 -0.022304 0.000000
0.069737 0.243542 0.000000
0.073050 0.246037 0.000000
0.252584 -0.018806 0.000000
0.256143 -0.017147 0.000000
0.074663 0.242036 0.000000
0.077996 0.244480 0.000000
0.252817 -0.013347 0.000000
0.256442 -0.011927 0.000000
0.257154 -0.007852 0.000000
0.079584 0.240452 0.000000
0.082921 0.242866 0.000000
0.253690 -0.007780 0.000000
0.256642 -0.003691 0.000000
0.084471 0.238773 0.000000
0.087778 0.241141 0.000000
0.253096 -0.002165 0.000000
0.256647 0.001559 0.000000
0.089321 0.236998 0.000000
0.092617 0.239324 0.000000
0.253243 0.003287 0.000000
0.256520 0.006794 0.000000
0.094136 0.235126 0.000000
0.097418 0.237410 0.000000
0.253129 0.008465 0.000000
0.256359 0.011971 0.000000
0.098915 0.233157 0.000000
0.102180 0.235399 0.000000
0.252942 0.013681 0.000000
0.256098 0.017161 0.000000
0.103663 0.231094 0.000000
0.106917 0.233294 0.000000
0.252587 0.018892 0.000000
0.255640 0.022345 0.000000
0.108396 0.228944 0.000000
0.111598 0.231082 0.000000
0.252126 0.024061 0.000000
0.255131 0.027498 0.000000
0.113048 0.226663 0.000000
0.116271 0.228781 0.000000
0.251586 0.029205 0.000000
0.254568 0.032637 0.000000
0.117706 0.224256 0.000000
0.120852 0.226357 0.000000
0.250942 0.034329 0.000000
0.253839 0.037736 0.000000
0.122248 0.221776 0.000000
0.125477 0.223846 0.000000
0.250188 0.039438 0.000000
0.253035 0.042843 0.000000
0.126912 0.218965 0.000000
0.130002 0.221279 0.000000
0.249333 0.044533 0.000000
0.252125 0.047929 0.000000
0.132108 0.216694 0.000000
0.133891 0.219601 0.000000
0.248369 0.049612 0.000000
0.251087 0.053006 0.000000
0.136550 0.213160 0.000000
0.137046 0.217019 0.000000
0.247301 0.054671 0.000000
0.249968 0.058053 0.000000
0.141152 0.210287 0.000000
0.141372 0.214174 0.000000
0.246134 0.059706 0.000000
0.248748 0.063076 0.000000
0.145482 0.207387 0.000000
0.145725 0.211231 0.000000
0.244867 0.064717 0.000000
0.247418 0.068075 0.000000
0.149697 0.204345 0.000000
0.149984 0.208266 0.000000
0.243509 0.069698 0.000000
0.246029 0.073052 0.000000
0.153835 0.201247 0.000000
0.154130 0.205204 0.000000
0.242036 0.074652 0.000000
0.244477 0.077982 0.000000
0.157903 0.198039 0.000000
0.158242 0.202054 0.000000
0.240463 0.079574 0.000000
0.242860 0.082888 0.000000
0.161909 0.194770 0.000000
0.162280 0.198807 0.000000
0.238789 0.084463 0.000000
0.241157 0.087764 0.000000
0.165849 0.191427 0.000000
0.166250 0.195508 0.000000
0.237021 0.089328 0.000000
0.239376 0.092639 0.000000
0.169721 0.188004 0.000000
0.170154 0.192121 0.000000
0.235172 0.094182 0.000000
0.237425 0.097450 0.000000
0.173527 0.184503 0.000000
0.173991 0.188648 0.000000
0.233173 0.098964 0.000000
0.235397 0.102209 0.000000
0.177263 0.180930 0.000000
0.177779 0.185108 0.000000
0.231102 0.103711 0.000000
0.233283 0.106944 0.000000
0.180917 0.177274 0.000000
0.181479 0.181481 0.000000
0.228922 0.108427 0.000000
0.231077 0.111631 0.000000
0.184496 0.173546 0.000000
0.185088 0.177792 0.000000
0.226606 0.113135 0.000000
0.228845 0.116324 0.000000
0.187993 0.169732 0.000000
0.188640 0.174022 0.000000
0.223969 0.118039 0.000000
0.226404 0.120897 0.000000
0.191413 0.165855 0.000000
0.192089 0.170164 0.000000
0.221863 0.123176 0.000000
0.224891 0.124847 0.000000
0.194756 0.161915 0.000000
0.195477 0.166261 0.000000
0.218540 0.127743 0.000000
0.222360 0.128216 0.000000
0.198020 0.157909 0.000000
0.198786 0.162290 0.000000
0.215874 0.132431 0.000000
0.219701 0.132630 0.000000
0.201205 0.153841 0.000000
0.202014 0.158253 0.000000
0.213147 0.136837 0.000000
0.216928 0.137078 0.000000
0.204316 0.149710 0.000000
0.210278 0.141207 0.000000
0.207360 0.145490 0.000000
0.205171 0.154172 0.000000
0.214149 0.141432 0.000000
0.208240 0.149993 0.000000
0.211214 0.145747 0.000000
CELLS 1860 7440
3 620 2 0
3 0 622 620
3 621 620 622
3 622 625 621
3 317 621 625
3 625 319 317
3 319 625 629
3 629 321 319
3 321 629 633
3 633 323 321
3 323 633 638
3 638 325 323
3 325 638 642
3 642 327 325
3 327 642 646
3 646 329 327
3 329 646 650
3 650 331 329
3 331 650 654
3 654 333 331
3 333 654 658
3 658 335 333
3 335 658 662
3 662 337 335
3 337 662 666
3 666 339 337
3 339 666 670
3 670 341 339
3 341 670 674
3 674 343 341
3 343 674 678
3 678 345 343
3 345 678 682
3 682 347 345
3 347 682 686
3 686 349 347
3 349 686 690
3 690 351 349
3 351 690 694
3 694 353 351
3 353 694 698
3 698 355 353
3 355 698 703
3 703 357 355
3 357 703 707
3 707 359 357
3 359 707 711
3 711 361 359
3 361 711 715
3 715 363 361
3 363 715 719
3 719 365 363
3 365 719 723
3 723 367 365
3 367 723 727
3 727 369 367
3 369 727 731
3 731 371 369
3 371 731 735
3 735 373 371
3 373 735 739
3 739 375 373
3 375 739 744
3 744 377 375
3 377 744 748
3 748 379 377
3 379 748 752
3 752 381 379
3 381 752 756
3 756 383 381
3 383 756 760
3 760 385 383
3 385 760 764
3 764 387 385
3 387 764 768
3 768 389 387
3 389 768 772
3 772 391 389
3 391 772 776
3 776 393 391
3 393 776 780
3 780 395 393
3 395 780 784
3 784 397 395
3 397 784 788
3 788 399 397
3 399 788 792
3 792 401 399
3 401 792 796
3 796 403 401
3 403 796 800
3 800 405 403
3 405 800 805
3 805 407 405
3 407 805 809
3 809 409 407
3 409 809 813
3 813 411 409
3 411 813 817
3 817 413 411
3 413 817 821
3 821 415 413
3 415 821 825
3 825 417 415
3 417 825 829
3 829 419 417
3 419 829 833
3 833 421 419
3 421 833 837
3 837 423 421
3 423 837 841
3 841 425 423
3 425 841 846
3 846 427 425
3 427 846 850
3 850 429 427
3 429 850 854
3 854 431 429
3 431 854 858
3 858 433 431
3 433 858 862
3 862 435 433
3 435 862 866
3 866 437 435
3 437 866 870
3 870 439 437
3 439 870 874
3 874 441 439
3 441 874 878
3 878 443 441
3 443 878 882
3 882 445 443
3 445 882 886
3 886 447 445
3 447 886 890
3 890 449 447
3 449 890 894
3 894 451 449
3 451 894 898
3 898 453 451
3 453 898 902
3 902 455 453
3 455 902 906
3 906 457 455
3 457 906 911
3 911 459 457
3 459 911 915
3 915 461 459
3 461 915 919
3 919 463 461
3 463 919 923
3 923 465 463
3 465 923 927
3 927 467 465
3 467 927 931
3 931 469 467
3 469 931 935
3 935 471 469
3 471 935 939
3 939 473 471
3 473 939 943
3 943 475 473
3 475 943 948
3 948 477 475
3 477 948 952
3 952 479 477
3 479 952 956
3 956 481 479
3 481 956 960
3 960 483 481
3 483 960 964
3 964 485 483
3 485 964 968
3 968 487 485
3 487 968 972
3 972 489 487
3 489 972 976
3 976 491 489
3 491 976 980
3 980 493 491
3 493 980 984
3 984 495 493
3 495 984 988
3 988 497 495
3 497 988 992
3 992 499 497
3 499 992 996
3 996 501 499
3 501 996 1000
3 1000 503 501
3 503 1000 1004
3 1004 505 503
3 505 1004 1008
3 1008 507 505
3 507 1008 1013
3 1013 509 507
3 509 1013 1017
3 1017 511 509
3 511 1017 1021
3 1021 513 511
3 513 1021 1025
3 1025 515 513
3 515 1025 1029
3 1029 517 515
3 517 1029 1033
3 1033 519 517
3 519 1033 1037
3 1037 521 519
3 521 1037 1041
3 1041 523 521
3 523 1041 1045
3 1045 525 523
3 525 1045 1049
3 1049 527 525
3 527 1049 1054
3 1054 529 527
3 529 1054 1058
3 1058 531 529
3 531 1058 1062
3 1062 533 531
3 533 1062 1066
3 1066 535 533
3 535 1066 1070
3 1070 537 535
3 537 1070 1074
3 1074 539 537
3 539 1074 1078
3 1078 541 539
3 541 1078 1082
3 1082 543 541
3 543 1082 1086
3 1086 545 543
3 545 1086 1090
3 1090 547 545
3 547 1090 1094
3 1094 549 547
3 549 1094 1098
3 1098 551 549
3 551 1098 1102
3 1102 553 551
3 553 1102 1106
3 1106 555 553
3 555 1106 1110
3 1110 557 555
3 557 1110 1115
3 1115 559 557
3 559 1115 1119
3 1119 561 559
3 561 1119 1123
3 1123 563 561
3 563 1123 1127
3 1127 565 563
3 565 1127 1131
3 1131 567 565
3 567 1131 1135
3 1135 569 567
3 569 1135 1139
3 1139 571 569
3 571 1139 1143
3 1143 573 571
3 573 1143 1147
3 1147 575 573
3 575 1147 1151
3 1151 577 575
3 577 1151 1155
3 1155 579 577
3 579 1155 1159
3 1159 581 579
3 581 1159 1163
3 1163 583 581
3 583 1163 1167
3 1167 585 583
3 585 1167 1171
3 1171 587 585
3 587 1171 1175
3 1175 589 587
3 589 1175 1179
3 1179 591 589
3 591 1179 1183
3 1183 593 591
3 593 1183 1187
3 1187 595 593
3 595 1187 1191
3 1191 597 595
3 597 1191 1195
3 1195 599 597
3 599 1195 1199
3 1199 601 599
3 601 1199 1203
3 1203 603 601
3 603 1203 1207
3 1207 605 603
3 605 1207 1211
3 1211 607 605
3 607 1211 1215
3 1215 609 607
3 609 1215 1219
3 1219 611 609
3 611 1219 1223
3 1223 613 611
3 613 1223 1227
3 1227 615 613
3 615 1227 1231
3 1231 617 615
3 617 1231 1234
3 1234 618 617
3 618 1234 1235
3 1235 619 618
3 619 1235 1233
3 1233 616 619
3 616 1233 1229
3 1229 614 616
3 614 1229 1225
3 1225 612 614
3 612 1225 1221
3 1221 610 612
3 610 1221 1217
3 1217 608 610
3 608 1217 1213
3 1213 606 608
3 606 1213 1209
3 1209 604 606
3 604 1209 1205
3 1205 602 604
3 602 1205 1201
3 1201 600 602
3 600 1201 1197
3 1197 598 600
3 598 1197 1193
3 1193 596 598
3 596 1193 1189
3 1189 594 596
3 594 1189 1185
3 1185 592 594
3 592 1185 1181
3 1181 590 592
3 590 1181 1177
3 1177 588 590
3 588 1177 1173
3 1173 586 588
3 586 1173 1169
3 1169 584 586
3 584 1169 1165
3 1165 582 584
3 582 1165 1161
3 1161 580 582
3 580 1161 1157
3 1157 578 580
3 578 1157 1153
3 1153 576 578
3 576 1153 1149
3 1149 574 576
3 574 1149 1145
3 1145 572 574
3 572 1145 1141
3 1141 570 572
3 570 1141 1137
3 1137 568 570
3 568 1137 1133
3 1133 566 568
3 566 1133 1129
3 1129 564 566
3 564 1129 1125
3 1125 562 564
3 562 1125 1121
3 1121 560 562
3 560 1121 1117
3 1117 558 560
3 558 1117 1113
3 1113 556 558
3 556 1113 1108
3 1108 554 556
3 554 1108 1104
3 1104 552 554
3 552 1104 1100
3 1100 550 552
3 550 1100 1096
3 1096 548 550
3 548 1096 1092
3 1092 546 548
3 546 1092 1088
3 1088 544 546
3 544 1088 1084
3 1084 542 544
3 542 1084 1080
3 1080 540 542
3 540 1080 1076
3 1076 538 540
3 538 1076 1072
3 1072 536 538
3 536 1072 1068
3 1068 534 536
3 534 1068 1064
3 1064 532 534
3 532 1064 1060
3 1060 530 532
3 530 1060 1056
3 1056 528 530
3 528 1056 1051
3 1051 526 528
3 526 1051 1047
3 1047 524 526
3 524 1047 1043
3 1043 522 524
3 522 1043 1039
3 1039 520 522
3 520 1039 1035
3 1035 518 520
3 518 1035 1031
3 1031 516 518
3 516 1031 1027
3 1027 514 516
3 514 1027 1023
3 1023 512 514
3 512 1023 1019
3 1019 510 512
3 510 1019 1015
3 1015 508 510
3 508 1015 1011
3 1011 506 508
3 506 1011 1006
3 1006 504 506
3 504 1006 1002
3 1002 502 504
3 502 1002 998
3 998 500 502
3 500 998 994
3 994 498 500
3 498 994 990
3 990 496 498
3 496 990 986
3 986 494 496
3 494 986 982
3 982 492 494
3 492 982 978
3 978 490 492
3 490 978 974
3 974 488 490
3 488 974 970
3 970 486 488
3 486 970 966
3 966 484 486
3 484 966 962
3 962 482 484
3 482 962 958
3 958 480 482
3 480 958 954
3 954 478 480
3 478 954 950
3 950 476 478
3 476 950 945
3 945 474 476
3 474 945 941
3 941 472 474
3 472 941 937
3 937 470 472
3 470 937 933
3 933 468 470
3 468 933 929
3 929 466 468
3 466 929 925
3 925 464 466
3 464 925 921
3 921 462 464
3 462 921 917
3 917 460 462
3 460 917 913
3 913 458 460
3 458 913 909
3 909 456 458
3 456 909 904
3 904 454 456
3 454 904 900
3 900 452 454
3 452 900 896
3 896 450 452
3 450 896 892
3 892 448 450
3 448 892 888
3 888 446 448
3 446 888 884
3 884 444 446
3 444 884 880
3 880 442 444
3 442 880 876
3 876 440 442
3 440 876 872
3 872 438 440
3 438 872 868
3 868 436 438
3 436 868 864
3 864 434 436
3 434 864 860
3 860 432 434
3 432 860 856
3 856 430 432
3 430 856 852
3 852 428 430
3 428 852 848
3 848 426 428
3 426 848 843
3 843 424 426
3 424 843 839
3 839 422 424
3 422 839 835
3 835 420 422
3 420 835 831
3 831 418 420
3 418 831 827
3 827 416 418
3 416 827 823
3 823 414 416
3 414 823 819
3 819 412 414
3 412 819 815
3 815 410 412
3 410 815 811
3 811 408 410
3 408 811 807
3 807 406 408
3 406 807 803
3 803 404 406
3 404 803 798
3 798 402 404
3 402 798 794
3 794 400 402
3 400 794 790
3 790 398 400
3 398 790 786
3 786 396 398
3 396 786 782
3 782 394 396
3 394 782 778
3 778 392 394
3 392 778 774
3 774 390 392
3 390 774 770
3 770 388 390
3 388 770 766
3 766 386 388
3 386 766 762
3 762 384 386
3 384 762 758
3 758 382 384
3 382 758 754
3 754 380 382
3 380 754 750
3 750 378 380
3 378 750 746
3 746 376 378
3 376 746 742
3 742 374 376
3 374 742 737
3 737 372 374
3 372 737 733
3 733 370 372
3 370 733 729
3 729 368 370
3 368 729 725
3 725 366 368
3 366 725 721
3 721 364 366
3 364 721 717
3 717 362 364
3 362 717 713
3 713 360 362
3 360 713 709
3 709 358 360
3 358 709 705
3 705 356 358
3 356 705 701
3 701 354 356
3 354 701 696
3 696 352 354
3 352 696 692
3 692 350 352
3 350 692 688
3 688 348 350
3 348 688 684
3 684 346 348
3 346 684 680
3 680 344 346
3 344 680 676
3 676 342 344
3 342 676 672
3 672 340 342
3 340 672 668
3 668 338 340
3 338 668 664
3 664 336 338
3 336 664 660
3 660 334 336
3 334 660 656
3 656 332 334
3 332 656 652
3 652 330 332
3 330 652 648
3 648 328 330
3 328 648 644
3 644 326 328
3 326 644 640
3 640 324 326
3 324 640 635
3 635 322 324
3 322 635 631
3 631 320 322
3 320 631 627
3 627 318 320
3 318 627 623
3 623 1 318
3 1 623 621
3 624 623 627
3 627 628 624
3 4 624 628
3 628 6 4
3 6 628 632
3 632 8 6
3 8 632 636
3 636 9 8
3 9 636 637
3 637 11 9
3 11 637 641
3 641 13 11
3 13 641 645
3 645 15 13
3 15 645 649
3 649 17 15
3 17 649 653
3 653 19 17
3 19 653 657
3 657 21 19
3 21 657 661
3 661 23 21
3 23 661 665
3 665 25 23
3 25 665 669
3 669 27 25
3 27 669 673
3 673 29 27
3 29 673 677
3 677 31 29
3 31 677 681
3 681 33 31
3 33 681 685
3 685 35 33
3 35 685 689
3 689 37 35
3 37 689 693
3 693 39 37
3 39 693 697
3 697 42 39
3 42 697 702
3 702 44 42
3 44 702 706
3 706 46 44
3 46 706 710
3 710 48 46
3 48 710 714
3 714 50 48
3 50 714 718
3 718 52 50
3 52 718 722
3 722 54 52
3 54 722 726
3 726 56 54
3 56 726 730
3 730 58 56
3 58 730 734
3 734 60 58
3 60 734 738
3 738 62 60
3 62 738 741
3 741 63 62
3 63 741 743
3 743 65 63
3 65 743 747
3 747 67 65
3 67 747 751
3 751 69 67
3 69 751 755
3 755 71 69
3 71 755 759
3 759 73 71
3 73 759 763
3 763 75 73
3 75 763 767
3 767 77 75
3 77 767 771
3 771 79 77
3 79 771 775
3 775 81 79
3 81 775 779
3 779 83 81
3 83 779 783
3 783 85 83
3 85 783 787
3 787 87 85
3 87 787 791
3 791 89 87
3 89 791 795
3 795 91 89
3 91 795 799
3 799 94 91
3 94 799 804
3 804 96 94
3 96 804 808
3 808 98 96
3 98 808 812
3 812 100 98
3 100 812 816
3 816 102 100
3 102 816 820
3 820 104 102
3 104 820 824
3 824 106 104
3 106 824 828
3 828 108 106
3 108 828 832
3 832 110 108
3 110 832 836
3 836 112 110
3 112 836 840
3 840 114 112
3 114 840 844
3 844 115 114
3 115 844 845
3 845 117 115
3 117 845 849
3 849 119 117
3 119 849 853
3 853 121 119
3 121 853 857
3 857 123 121
3 123 857 861
3 861 125 123
3 125 861 865
3 865 127 125
3 127 865 869
3 869 129 127
3 129 869 873
3 873 131 129
3 131 873 877
3 877 133 131
3 133 877 881
3 881 135 133
3 135 881 885
3 885 137 135
3 137 885 889
3 889 139 137
3 139 889 893
3 893 141 139
3 141 893 897
3 897 143 141
3 143 897 901
3 901 145 143
3 145 901 905
3 905 148 145
3 148 905 910
3 910 150 148
3 150 910 914
3 914 152 150
3 152 914 918
3 918 154 152
3 154 918 922
3 922 156 154
3 156 922 926
3 926 158 156
3 158 926 930
3 930 160 158
3 160 930 934
3 934 162 160
3 162 934 938
3 938 164 162
3 164 938 942
3 942 166 164
3 166 942 946
3 946 167 166
3 167 946 947
3 947 169 167
3 169 947 951
3 951 171 169
3 171 951 955
3 955 173 171
3 173 955 959
3 959 175 173
3 175 959 963
3 963 177 175
3 177 963 967
3 967 179 177
3 179 967 971
3 971 181 179
3 181 971 975
3 975 183 181
3 183 975 979
3 979 185 183
3 185 979 983
3 983 187 185
3 187 983 987
3 987 189 187
3 189 987 991
3 991 191 189
3 191 991 995
3 995 193 191
3 193 995 999
3 999 195 193
3 195 999 1003
3 1003 197 195
3 197 1003 1007
3 1007 200 197
3 200 1007 1012
3 1012 202 200
3 202 1012 1016
3 1016 204 202
3 204 1016 1020
3 1020 206 204
3 206 1020 1024
3 1024 208 206
3 208 1024 1028
3 1028 210 208
3 210 1028 1032
3 1032 212 210
3 212 1032 1036
3 1036 214 212
3 214 1036 1040
3 1040 216 214
3 216 1040 1044
3 1044 218 216
3 218 1044 1048
3 1048 220 218
3 220 1048 1052
3 1052 222 220
3 222 1052 1053
3 1053 224 222
3 224 1053 1057
3 1057 226 224
3 226 1057 1061
3 1061 228 226
3 228 1061 1065
3 1065 230 228
3 230 1065 1069
3 1069 232 230
3 232 1069 1073
3 1073 234 232
3 234 1073 1077
3 1077 236 234
3 236 1077 1081
3 1081 238 236
3 238 1081 1085
3 1085 240 238
3 240 1085 1089
3 1089 242 240
3 242 1089 1093
3 1093 244 242
3 244 1093 1097
3 1097 246 244
3 246 1097 1101
3 1101 248 246
3 248 1101 1105
3 1105 250 248
3 250 1105 1109
3 1109 252 250
3 252 1109 1114
3 1114 254 252
3 254 1114 1118
3 1118 256 254
3 256 1118 1122
3 1122 258 256
3 258 1122 1126
3 1126 260 258
3 260 1126 1130
3 1130 262 260
3 262 1130 1134
3 1134 264 262
3 264 1134 1138
3 1138 266 264
3 266 1138 1142
3 1142 268 266
3 268 1142 1146
3 1146 270 268
3 270 1146 1150
3 1150 272 270
3 272 1150 1154
3 1154 274 272
3 274 1154 1158
3 1158 276 274
3 276 1158 1162
3 1162 278 276
3 278 1162 1166
3 1166 280 278
3 280 1166 1170
3 1170 282 280
3 282 1170 1174
3 1174 284 282
3 284 1174 1178
3 1178 286 284
3 286 1178 1182
3 1182 288 286
3 288 1182 1186
3 1186 290 288
3 290 1186 1190
3 1190 292 290
3 292 1190 1194
3 1194 294 292
3 294 1194 1198
3 1198 296 294
3 296 1198 1202
3 1202 298 296
3 298 1202 1206
3 1206 300 298
3 300 1206 1210
3 1210 302 300
3 302 1210 1214
3 1214 304 302
3 304 1214 1218
3 1218 306 304
3 306 1218 1222
3 1222 308 306
3 308 1222 1226
3 1226 310 308
3 310 1226 1230
3 1230 312 310
3 312 1230 1236
3 1236 314 312
3 314 1236 1238
3 1238 316 314
3 316 1238 1239
3 1239 315 316
3 315 1239 1237
3 1237 313 315
3 313 1237 1232
3 1232 311 313
3 311 1232 1228
3 1228 309 311
3 309 1228 1224
3 1224 307 309
3 307 1224 1220
3 1220 305 307
3 305 1220 1216
3 1216 303 305
3 303 1216 1212
3 1212 301 303
3 301 1212 1208
3 1208 299 301
3 299 1208 1204
3 1204 297 299
3 297 1204 1200
3 1200 295 297
3 295 1200 1196
3 1196 293 295
3 293 1196 1192
3 1192 291 293
3 291 1192 1188
3 1188 289 291
3 289 1188 1184
3 1184 287 289
3 287 1184 1180
3 1180 285 287
3 285 1180 1176
3 1176 283 285
3 283 1176 1172
3 1172 281 283
3 281 1172 1168
3 1168 279 281
3 279 1168 1164
3 1164 277 279
3 277 1164 1160
3 1160 275 277
3 275 1160 1156
3 1156 273 275
3 273 1156 1152
3 1152 271 273
3 271 1152 1148
3 1148 269 271
3 269 1148 1144
3 1144 267 269
3 267 1144 1140
3 1140 265 267
3 265 1140 1136
3 1136 263 265
3 263 1136 1132
3 1132 261 263
3 261 1132 1128
3 1128 259 261
3 259 1128 1124
3 1124 257 259
3 257 1124 1120
3 1120 255 257
3 255 1120 1116
3 1116 253 255
3 253 1116 1112
3 1112 251 253
3 251 1112 1111
3 1111 249 251
3 249 1111 1107
3 1107 247 249
3 247 1107 1103
3 1103 245 247
3 245 1103 1099
3 1099 243 245
3 243 1099 1095
3 1095 241 243
3 241 1095 1091
3 1091 239 241
3 239 1091 1087
3 1087 237 239
3 237 1087 1083
3 1083 235 237
3 235 1083 1079
3 1079 233 235
3 233 1079 1075
3 1075 231 233
3 231 1075 1071
3 1071 229 231
3 229 1071 1067
3 1067 227 229
3 227 1067 1063
3 1063 225 227
3 225 1063 1059
3 1059 223 225
3 223 1059 1055
3 1055 221 223
3 221 1055 1050
3 1050 219 221
3 219 1050 1046
3 1046 217 219
3 217 1046 1042
3 1042 215 217
3 215 1042 1038
3 1038 213 215
3 213 1038 1034
3 1034 211 213
3 211 1034 1030
3 1030 209 211
3 209 1030 1026
3 1026 207 209
3 207 1026 1022
3 1022 205 207
3 205 1022 1018
3 1018 203 205
3 203 1018 1014
3 1014 201 203
3 201 1014 1010
3 1010 199 201
3 199 1010 1009
3 1009 198 199
3 198 1009 1005
3 1005 196 198
3 196 1005 1001
3 1001 194 196
3 194 1001 997
3 997 192 194
3 192 997 993
3 993 190 192
3 190 993 989
3 989 188 190
3 188 989 985
3 985 186 188
3 186 985 981
3 981 184 186
3 184 981 977
3 977 182 184
3 182 977 973
3 973 180 182
3 180 973 969
3 969 178 180
3 178 969 965
3 965 176 178
3 176 965 961
3 961 174 176
3 174 961 957
3 957 172 174
3 172 957 953
3 953 170 172
3 170 953 949
3 949 168 170
3 168 949 944
3 944 165 168
3 165 944 940
3 940 163 165
3 163 940 936
3 936 161 163
3 161 936 932
3 932 159 161
3 159 932 928
3 928 157 159
3 157 928 924
3 924 155 157
3 155 924 920
3 920 153 155
3 153 920 916
3 916 151 153
3 151 916 912
3 912 149 151
3 149 912 908
3 908 147 149
3 147 908 907
3 907 146 147
3 146 907 903
3 903 144 146
3 144 903 899
3 899 142 144
3 142 899 895
3 895 140 142
3 140 895 891
3 891 138 140
3 138 891 887
3 887 136 138
3 136 887 883
3 883 134 136
3 134 883 879
3 879 132 134
3 132 879 875
3 875 130 132
3 130 875 871
3 871 128 130
3 128 871 867
3 867 126 128
3 126 867 863
3 863 124 126
3 124 863 859
3 859 122 124
3 122 859 855
3 855 120 122
3 120 855 851
3 851 118 120
3 118 851 847
3 847 116 118
3 116 847 842
3 842 113 116
3 113 842 838
3 838 111 113
3 111 838 834
3 834 109 111
3 109 834 830
3 830 107 109
3 107 830 826
3 826 105 107
3 105 826 822
3 822 103 105
3 103 822 818
3 818 101 103
3 101 818 814
3 814 99 101
3 99 814 810
3 810 97 99
3 97 810 806
3 806 95 97
3 95 806 802
3 802 93 95
3 93 802 801
3 801 92 93
3 92 801 797
3 797 90 92
3 90 797 793
3 793 88 90
3 88 793 789
3 789 86 88
3 86 789 785
3 785 84 86
3 84 785 781
3 781 82 84
3 82 781 777
3 777 80 82
3 80 777 773
3 773 78 80
3 78 773 769
3 769 76 78
3 76 769 765
3 765 74 76
3 74 765 761
3 761 72 74
3 72 761 757
3 757 70 72
3 70 757 753
3 753 68 70
3 68 753 749
3 749 66 68
3 66 749 745
3 745 64 66
3 64 745 740
3 740 61 64
3 61 740 736
3 736 59 61
3 59 736 732
3 732 57 59
3 57 732 728
3 728 55 57
3 55 728 724
3 724 53 55
3 53 724 720
3 720 51 53
3 51 720 716
3 716 49 51
3 49 716 712
3 712 47 49
3 47 712 708
3 708 45 47
3 45 708 704
3 704 43 45
3 43 704 700
3 700 41 43
3 41 700 699
3 699 40 41
3 40 699 695
3 695 38 40
3 38 695 691
3 691 36 38
3 36 691 687
3 687 34 36
3 34 687 683
3 683 32 34
3 32 683 679
3 679 30 32
3 30 679 675
3 675 28 30
3 28 675 671
3 671 26 28
3 26 671 667
3 667 24 26
3 24 667 663
3 663 22 24
3 22 663 659
3 659 20 22
3 20 659 655
3 655 18 20
3 18 655 651
3 651 16 18
3 16 651 647
3 647 14 16
3 14 647 643
3 643 12 14
3 12 643 639
3 639 10 12
3 10 639 634
3 634 7 10
3 7 634 630
3 630 5 7
3 5 630 626
3 626 3 5
3 3 626 622
3 629 626 630
3 633 630 634
3 638 634 639
3 642 639 643
3 646 643 647
3 650 647 651
3 654 651 655
3 658 655 659
3 662 659 663
3 666 663 667
3 670 667 671
3 674 671 675
3 678 675 679
3 682 679 683
3 686 683 687
3 690 687 691
3 694 691 695
3 698 695 699
3 700 703 699
3 700 704 703
3 707 704 708
3 711 708 712
3 715 712 716
3 719 716 720
3 723 720 724
3 727 724 728
3 731 728 732
3 735 732 736
3 739 736 740
3 744 740 745
3 748 745 749
3 752 749 753
3 756 753 757
3 760 757 761
3 764 761 765
3 768 765 769
3 772 769 773
3 776 773 777
3 780 777 781
3 784 781 785
3 788 785 789
3 792 789 793
3 796 793 797
3 800 797 801
3 802 805 801
3 802 806 805
3 809 806 810
3 813 810 814
3 817 814 818
3 821 818 822
3 825 822 826
3 829 826 830
3 833 830 834
3 837 834 838
3 841 838 842
3 846 842 847
3 850 847 851
3 854 851 855
3 858 855 859
3 862 859 863
3 866 863 867
3 870 867 871
3 874 871 875
3 878 875 879
3 882 879 883
3 886 883 887
3 890 887 891
3 894 891 895
3 898 895 899
3 902 899 903
3 906 903 907
3 908 911 907
3 908 912 911
3 915 912 916
3 919 916 920
3 923 920 924
3 927 924 928
3 931 928 932
3 935 932 936
3 939 936 940
3 943 940 944
3 948 944 949
3 952 949 953
3 956 953 957
3 960 957 961
3 964 961 965
3 968 965 969
3 972 969 973
3 976 973 977
3 980 977 981
3 984 981 985
3 988 985 989
3 992 989 993
3 996 993 997
3 1000 997 1001
3 1004 1001 1005
3 1008 1005 1009
3 1010 1013 1009
3 1010 1014 1013
3 1017 1014 1018
3 1021 1018 1022
3 1025 1022 1026
3 1029 1026 1030
3 1033 1030 1034
3 1037 1034 1038
3 1041 1038 1042
3 1045 1042 1046
3 1049 1046 1050
3 1054 1050 1055
3 1058 1055 1059
3 1062 1059 1063
3 1066 1063 1067
3 1070 1067 1071
3 1074 1071 1075
3 1078 1075 1079
3 1082 1079 1083
3 1086 1083 1087
3 1090 1087 1091
3 1094 1091 1095
3 1098 1095 1099
3 1102 1099 1103
3 1106 1103 1107
3 1110 1107 1111
3 1112 1115 1111
3 1112 1116 1115
3 1119 1116 1120
3 1123 1120 1124
3 1127 1124 1128
3 1131 1128 1132
3 1135 1132 1136
3 1139 1136 1140
3 1143 1140 1144
3 1147 1144 1148
3 1151 1148 1152
3 1155 1152 1156
3 1159 1156 1160
3 1163 1160 1164
3 1167 1164 1168
3 1171 1168 1172
3 1175 1172 1176
3 1179 1176 1180
3 1183 1180 1184
3 1187 1184 1188
3 1191 1188 1192
3 1195 1192 1196
3 1199 1196 1200
3 1203 1200 1204
3 1207 1204 1208
3 1211 1208 1212
3 1215 1212 1216
3 1220 1219 1216
3 1220 1224 1219
3 1223 1224 1228
3 1227 1228 1232
3 1231 1232 1237
3 1234 1237 1239
3 1235 1239 1238
3 1233 1238 1236
3 1229 1236 1230
3 1225 1230 1226
3 1221 1226 1222
3 1217 1222 1218
3 1213 1218 1214
3 1209 1214 1210
3 1205 1210 1206
3 1201 1206 1202
3 1197 1202 1198
3 1193 1198 1194
3 1189 1194 1190
3 1185 1190 1186
3 1181 1186 1182
3 1177 1182 1178
3 1173 1178 1174
3 1169 1174 1170
3 1165 1170 1166
3 1161 1166 1162
3 1158 1157 1162
3 1158 1154 1157
3 1153 1154 1150
3 1149 1150 1146
3 1145 1146 1142
3 1141 1142 1138
3 1137 1138 1134
3 1133 1134 1130
3 1129 1130 1126
3 1125 1126 1122
3 1121 1122 1118
3 1117 1118 1114
3 1113 1114 1109
3 1108 1109 1105
3 1104 1105 1101
3 1100 1101 1097
3 1096 1097 1093
3 1092 1093 1089
3 1088 1089 1085
3 1084 1085 1081
3 1080 1081 1077
3 1076 1077 1073
3 1072 1073 1069
3 1068 1069 1065
3 1064 1065 1061
3 1060 1061 1057
3 1053 1056 1057
3 1053 1052 1056
3 1051 1052 1048
3 1047 1048 1044
3 1043 1044 1040
3 1039 1040 1036
3 1035 1036 1032
3 1031 1032 1028
3 1027 1028 1024
3 1023 1024 1020
3 1019 1020 1016
3 1015 1016 1012
3 1011 1012 1007
3 1006 1007 1003
3 1002 1003 999
3 998 999 995
3 994 995 991
3 990 991 987
3 986 987 983
3 982 983 979
3 978 979 975
3 974 975 971
3 970 971 967
3 966 967 963
3 962 963 959
3 958 959 955
3 954 955 951
3 947 950 951
3 947 946 950
3 945 946 942
3 941 942 938
3 937 938 934
3 933 934 930
3 929 930 926
3 925 926 922
3 921 922 918
3 917 918 914
3 913 914 910
3 909 910 905
3 904 905 901
3 900 901 897
3 896 897 893
3 892 893 889
3 888 889 885
3 884 885 881
3 880 881 877
3 876 877 873
3 872 873 869
3 868 869 865
3 864 865 861
3 860 861 857
3 856 857 853
3 852 853 849
3 845 848 849
3 845 844 848
3 844 840 843
3 839 840 836
3 835 836 832
3 831 832 828
3 827 828 824
3 823 824 820
3 819 820 816
3 815 816 812
3 811 812 808
3 807 808 804
3 803 804 799
3 798 799 795
3 794 795 791
3 790 791 787
3 786 787 783
3 782 783 779
3 778 779 775
3 774 775 771
3 770 771 767
3 766 767 763
3 762 763 759
3 758 759 755
3 754 755 751
3 750 751 747
3 743 746 747
3 743 741 746
3 742 741 738
3 737 738 734
3 733 734 730
3 729 730 726
3 725 726 722
3 721 722 718
3 717 718 714
3 713 714 710
3 709 710 706
3 705 706 702
3 701 702 697
3 696 697 693
3 692 693 689
3 688 689 685
3 684 685 681
3 680 681 677
3 676 677 673
3 672 673 669
3 668 669 665
3 664 665 661
3 660 661 657
3 656 657 653
3 652 653 649
3 648 649 645
3 644 645 641
3 637 640 641
3 637 636 640
3 635 636 632
3 631 632 628
3 624 4 2
3 623 624 620
3 628 627 631
3 632 631 635
3 636 635 640
3 641 640 644
3 645 644 648
3 649 648 652
3 653 652 656
3 657 656 660
3 661 660 664
3 665 664 668
3 669 668 672
3 673 672 676
3 677 676 680
3 681 680 684
3 685 684 688
3 689 688 692
3 693 692 696
3 697 696 701
3 702 701 705
3 706 705 709
3 710 709 713
3 714 713 717
3 718 717 721
3 722 721 725
3 726 725 729
3 730 729 733
3 734 733 737
3 738 737 742
3 741 742 746
3 747 746 750
3 751 750 754
3 755 754 758
3 759 758 762
3 763 762 766
3 767 766 770
3 771 770 774
3 775 774 778
3 779 778 782
3 783 782 786
3 787 786 790
3 791 790 794
3 795 794 798
3 799 798 803
3 804 803 807
3 808 807 811
3 812 811 815
3 816 815 819
3 820 819 823
3 824 823 827
3 828 827 831
3 832 831 835
3 836 835 839
3 840 839 843
3 844 843 848
3 849 848 852
3 853 852 856
3 857 856 860
3 861 860 864
3 865 864 868
3 869 868 872
3 873 872 876
3 877 876 880
3 881 880 884
3 885 884 888
3 889 888 892
3 893 892 896
3 897 896 900
3 901 900 904
3 905 904 909
3 910 909 913
3 914 913 917
3 918 917 921
3 922 921 925
3 926 925 929
3 930 929 933
3 934 933 937
3 938 937 941
3 942 941 945
3 946 945 950
3 951 950 954
3 955 954 958
3 959 958 962
3 963 962 966
3 967 966 970
3 971 970 974
3 975 974 978
3 979 978 982
3 983 982 986
3 987 986 990
3 991 990 994
3 995 994 998
3 999 998 1002
3 1003 1002 1006
3 1007 1006 1011
3 1012 1011 1015
3 1016 1015 1019
3 1020 1019 1023
3 1024 1023 1027
3 1028 1027 1031
3 1032 1031 1035
3 1036 1035 1039
3 1040 1039 1043
3 1044 1043 1047
3 1048 1047 1051
3 1052 1051 1056
3 1057 1056 1060
3 1061 1060 1064
3 1065 1064 1068
3 1069 1068 1072
3 1073 1072 1076
3 1077 1076 1080
3 1081 1080 1084
3 1085 1084 1088
3 1089 1088 1092
3 1093 1092 1096
3 1097 1096 1100
3 1101 1100 1104
3 1105 1104 1108
3 1109 1108 1113
3 1114 1113 1117
3 1118 1117 1121
3 1122 1121 1125
3 1126 1125 1129
3 1130 1129 1133
3 1134 1133 1137
3 1138 1137 1141
3 1142 1141 1145
3 1146 1145 1149
3 1150 1149 1153
3 1154 1153 1157
3 1162 1157 1161
3 1166 1161 1165
3 1170 1165 1169
3 1174 1169 1173
3 1178 1173 1177
3 1182 1177 1181
3 1186 1181 1185
3 1190 1185 1189
3 1194 1189 1193
3 1198 1193 1197
3 1202 1197 1201
3 1206 1201 1205
3 1210 1205 1209
3 1214 1209 1213
3 1218 1213 1217
3 1222 1217 1221
3 1226 1221 1225
3 1230 1225 1229
3 1236 1229 1233
3 1238 1233 1235
3 1239 1235 1234
3 1237 1234 1231
3 1232 1231 1227
3 1228 1227 1223
3 1224 1223 1219
3 1216 1219 1215
3 1212 1215 1211
3 1208 1211 1207
3 1204 1207 1203
3 1200 1203 1199
3 1196 1199 1195
3 1192 1195 1191
3 1188 1191 1187
3 1184 1187 1183
3 1180 1183 1179
3 1176 1179 1175
3 1172 1175 1171
3 1168 1171 1167
3 1164 1167 1163
3 1160 1163 1159
3 1156 1159 1155
3 1152 1155 1151
3 1148 1151 1147
3 1144 1147 1143
3 1140 1143 1139
3 1136 1139 1135
3 1132 1135 1131
3 1128 1131 1127
3 1124 1127 1123
3 1120 1123 1119
3 1116 1119 1115
3 1111 1115 1110
3 1107 1110 1106
3 1103 1106 1102
3 1099 1102 1098
3 1095 1098 1094
3 1091 1094 1090
3 1087 1090 1086
3 1083 1086 1082
3 1079 1082 1078
3 1075 1078 1074
3 1071 1074 1070
3 1067 1070 1066
3 1063 1066 1062
3 1059 1062 1058
3 1055 1058 1054
3 1050 1054 1049
3 1046 1049 1045
3 1042 1045 1041
3 1038 1041 1037
3 1034 1037 1033
3 1030 1033 1029
3 1026 1029 1025
3 1022 1025 1021
3 1018 1021 1017
3 1014 1017 1013
3 1009 1013 1008
3 1005 1008 1004
3 1001 1004 1000
3 997 1000 996
3 993 996 992
3 989 992 988
3 985 988 984
3 981 984 980
3 977 980 976
3 973 976 972
3 969 972 968
3 965 968 964
3 961 964 960
3 957 960 956
3 953 956 952
3 949 952 948
3 944 948 943
3 940 943 939
3 936 939 935
3 932 935 931
3 928 931 927
3 924 927 923
3 920 923 919
3 916 919 915
3 912 915 911
3 907 911 906
3 903 906 902
3 899 902 898
3 895 898 894
3 891 894 890
3 887 890 886
3 883 886 882
3 879 882 878
3 875 878 874
3 871 874 870
3 867 870 866
3 863 866 862
3 859 862 858
3 855 858 854
3 851 854 850
3 847 850 846
3 842 846 841
3 838 841 837
3 834 837 833
3 830 833 829
3 826 829 825
3 822 825 821
3 818 821 817
3 814 817 813
3 810 813 809
3 806 809 805
3 801 805 800
3 797 800 796
3 793 796 792
3 789 792 788
3 785 788 784
3 781 784 780
3 777 780 776
3 773 776 772
3 769 772 768
3 765 768 764
3 761 764 760
3 757 760 756
3 753 756 752
3 749 752 748
3 745 748 744
3 740 744 739
3 736 739 735
3 732 735 731
3 728 731 727
3 724 727 723
3 720 723 719
3 716 719 715
3 712 715 711
3 708 711 707
3 704 707 703
3 699 703 698
3 695 698 694
3 691 694 690
3 687 690 686
3 683 686 682
3 679 682 678
3 675 678 674
3 671 674 670
3 667 670 666
3 663 666 662
3 659 662 658
3 655 658 654
3 651 654 650
3 647 650 646
3 643 646 642
3 639 642 638
3 634 638 633
3 630 633 629
3 626 629 625
3 621 317 1
3 625 622 626
3 620 621 623
3 622 0 3
3 2 620 624
CELL_TYPES 1860
9
9
9
9
9
9
9
9
9
9
9
9
9
9
9
9
9
9
9
9
9
9
9
9
9
9
9
9
9
9
9
9
9
9
9
9
9
9
9
9
9
9
9
9
9
9
9
9
9
9
9
9
9
9
9
9
9
9
9
9
9
9
9
9
9
9
9
9
9
9
9
9
9
9
9
9
9
9
9
9
9
9
9
9
9
9
9
9
9
9
9
9
9
9
9
9
9
9
9
9
9
9
9
9
9
9
9
9
9
9
9
9
9
9
9
9
9
9
9
9
9
9
9
9
9
9
9
9
9
9
9
9
9
9
9
9
9
9
9
9
9
9
9
9
9
9
9
9
9
9
9
9
9
9
9
9
9
9
9
9
9
9
9
9
9
9
9
9
9
9
9
9
9
9
9
9
9
9
9
9
9
9
9
9
9
9
9
9
9
9
9
9
9
9
9
9
9
9
9
9
9
9
9
9
9
9
9
9
9
9
9
9
9
9
9
9
9
9
9
9
9
9
9
9
9
9
9
9
9
9
9
9
9
9
9
9
9
9
9
9
9
9
9
9
9
9
9
9
9
9
9
9
9
9
9
9
9
9
9
9
9
9
9
9
9
9
9
9
9
9
9
9
9
9
9
9
9
9
9
9
9
9
9
9
9
9
9
9
9
9
9
9
9
9
9
9
9
9
9
9
9
9
9
9
9
9
9
9
9
9
9
9
9
9
9
9
9
9
9
9
9
9
9
9
9
9
9
9
9
9
9
9
9
9
9
9
9
9
9
9
9
9
9
9
9
9
9
9
9
9
9
9
9
9
9
9
9
9
9
9
9
9
9
9
9
9
9
9
9
9
9
9
9
9
9
9
9
9
9
9
9
9
9
9
9
9
9
9
9
9
9
9
9
9
9
9
9
9
9
9
9
9
9
9
9
9
9
9
9
9
9
9
9
9
9
9
9
9
9
9
9
9
9
9
9
9
9
9
9
9
9
9
9
9
9
9
9
9
9
9
9
9
9
9
9
9
9
9
9
9
9
9
9
9
9
9
9
9
9
9
9
9
9
9
9
9
9
9
9
9
9
9
9
9
9
9
9
9
9
9
9
9
9
9
9
9
9
9
9
9
9
9
9
9
9
9
9
9
9
9
9
9
9
9
9
9
9
9
9
9
9
9
9
9
9
9
9
9
9
9
9
9
9
9
9
9
9
9
9
9
9
9
9
9
9
9
9
9
9
9
9
9
9
9
9
9
9
9
9
9
9
9
9
9
9
9
9
9
9
9
9
9
9
9
9
9
9
9
9
9
9
9
9
9
9
9
9
9
9
9
9
9
9
9
9
9
9
9
9
9
9
9
9
9
9
9
9
9
9
9
9
9
9
9
9
9
9
9
9
9
9
9
9
9
9
9
9
9
9
9
9
9
9
9
9
9
9
9
9
9
9
9
9
9
9
9
9
9
9
9
9
9
9
9
9
9
9
9
9
9
9
9
9
9
9
9
9
9
9
9
9
9
9
9
9
9
9
9
9
9
9
9
9
9
9
9
9
9
9
9
9
9
9
9
9
9
9
9
9
9
9
9
9
9
9
9
9
9
9
9
9
9
9
9
9
9
9
9
9
9
9
9
9
9
9
9
9
9
9
9
9
9
9
9
9
9
9
9
9
9
9
9
9
9
9
9
9
9
9
9
9
9
9
9
9
9
9
9
9
9
9
9
9
9
9
9
9
9
9
9
9
9
9
9
9
9
9
9
9
9
9
9
9
9
9
9
9
9
9
9
9
9
9
9
9
9
9
9
9
9
9
9
9
9
9
9
9
9
9
9
9
9
9
9
9
9
9
9
9
9
9
9
9
9
9
9
9
9
9
9
9
9
9
9
9
9
9
9
9
9
9
9
9
9
9
9
9
9
9
9
9
9
9
9
9
9
9
9
9
9
9
9
9
9
9
9
9
9
9
9
9
9
9
9
9
9
9
9
9
9
9
9
9
9
9
9
9
9
9
9
9
9
9
9
9
9
9
9
9
9
9
9
9
9
9
9
9
9
9
9
9
9
9
9
9
9
9
9
9
9
9
9
9
9
9
9
9
9
9
9
9
9
9
9
9
9
9
9
9
9
9
9
9
9
9
9
9
9
9
9
9
9
9
9
9
9
9
9
9
9
9
9
9
9
9
9
9
9
9
9
9
9
9
9
9
9
9
9
9
9
9
9
9
9
9
9
9
9
9
9
9
9
9
9
9
9
9
9
9
9
9
9
9
9
9
9
9
9
9
9
9
9
9
9
9
9
9
9
9
9
9
9
9
9
9
9
9
9
9
9
9
9
9
9
9
9
9
9
9
9
9
9
9
9
9
9
9
9
9
9
9
9
9
9
9
9
9
9
9
9
9
9
9
9
9
9
9
9
9
9
9
9
9
9
9
9
9
9
9
9
9
9
9
9
9
9
9
9
9
9
9
9
9
9
9
9
9
9
9
9
9
9
9
9
9
9
9
9
9
9
9
9
9
9
9
9
9
9
9
9
9
9
9
9
9
9
9
9
9
9
9
9
9
9
9
9
9
9
9
9
9
9
9
9
9
9
9
9
9
9
9
9
9
9
9
9
9
9
9
9
9
9
9
9
9
9
9
9
9
9
9
9
9
9
9
9
9
9
9
9
9
9
9
9
9
9
9
9
9
9
9
9
9
9
9
9
9
9
9
9
9
9
9
9
9
9
9
9
9
9
9
9
9
9
9
9
9
9
9
9
9
9
9
9
9
9
9
9
9
9
9
9
9
9
9
9
9
9
9
9
9
9
9
9
9
9
9
9
9
9
9
9
9
9
9
9
9
9
9
9
9
9
9
9
9
9
9
9
9
9
9
9
9
9
9
9
9
9
9
9
9
9
9
9
9
9
9
9
9
9
9
9
9
9
9
9
9
9
9
9
9
9
9
9
9
9
9
9
9
9
9
9
9
9
9
9
9
9
9
9
9
9
9
9
9
9
9
9
9
9
9
9
9
9
9
9
9
9
9
9
9
9
9
9
9
9
9
9
9
9
9
9
9
9
9
9
9
9
9
9
9
9
9
9
9
9
9
9
9
9
9
9
9
9
9
9
9
9
9
9
9
9
9
9
9
9
9
9
9
9
9
9
9
9
9
9
9
9
9
9
9
9
9
9
9
9
9
9
9
9
9
9
9
9
9
9
9
9
9
9
9
9
9
9
9
9
9
9
9
9
9
9
9
9
9
9
9
9
9
9
9
9
9
9
9
9
9
9
9
9
9
9
9
9
9
9
9
9
9
9
9
9
9
9
9
9
9
9
9
9
9
9
9
9
9
9
9
9
9
9
9
9
9
9
9
9
9
9
9
9
9
9
9
9
9
9
9
9
9
9
9
9
9
9
9
9
9
9
9
9
9
9
9
9
9
9
9
9
9
9
9
9
9
9
9
9
9
9
9
9
9
9
9
9
9
9
9
9
9
9
9
9
9
9
9
9
9
9
9
9
9
9
9
9
9
9
9
9
9
9
9
9
9
9
9
9
9
9
9
9
9
9
9
9
9
9
9
9
9
9
9
9
9
9
9
9
9
9
9
9
9
9
9
9
9
9
9
9
9
9
9
9
9
9
9
9
9
9
9
9
9
9
9
9
9
9
9
9
9
9
9
9
9
9
9
9
9
9
9
9
9
9
9
9
9
9
9
9
9
9
9
9
9
9
9
9
9
9
9
9
9
9
9
9
9
9
9
9
9
9
9
9
9
9
9
9
9
9
9
9
9
9
9
9
9
9
9
9
9
9
9
9
9
9
9
9
9
9
9
9
9
9
9
9
9
9
9
9
9
9
9
9
9
9
9
9
9
9
9
9
9
9
9
9
9
9
9
9
9
9
9
9
9
9
9
9
9
9
9
9
9
9
9
9
9
9
9
9
9
9
9
9
9
9
9
9
9
9
9
9
9
9
9
9
9
9
9
9
9
9
9
9
9
9
9
9
9
9
9
9
9
9
9
9
9
9
9
9
9
9
9
9
9
9
9
9
9
9
9
9
9
9
9
9
9
9
9
9
9
9
9
9
9
9
9
9
9
9
9
9
9
9
9
9
9
9
9
9
9
9
9
9
9
9
9
9
9
9
9
9
9
9
9
9
9
9
9
9
9
9
9
9
9
9
9
9
9
9
9
9
9
9
9
9
9
9
9
9
9
9
9
9
9
9
9
9
9
9
9
9
POINT_DATA 1240
SCALARS u1 float
LOOKUP_TABLE default
-4e-05
-3e-05
-3e-05
-4e-05
-3e-05
-4e-05
-3e-05
-5e-05
-3e-05
-3e-05
-5e-05
-3e-05
-5e-05
-3e-05
-5e-05
-3e-05
-5e-05
-3e-05
-5e-05
-4e-05
-5e-05
-4e-05
-5e-05
-4e-05
-4e-05
-4e-05
-4e-05
-5e-05
-4e-05
-5e-05
-3e-05
-6e-05
-3e-05
-6e-05
-3e-05
-7e-05
-2e-05
-7e-05
-2e-05
-8e-05
-2e-05
-2e-05
-9e-05
-1e-05
-0.0001
-1e-05
-0.0001
-1e-05
-0.0001
-1e-05
-0.0001
-1e-05
-0.0001
-1e-05
-0.0001
-1e-05
-0.0001
-1e-05
-0.0001
-1e-05
-0.0001
-1e-05
-0.0001
-0.0001
-1e-05
-0.0001
-2e-05
-0.0001
-2e-05
-0.0001
-2e-05
-0.0001
-2e-05
-0.0001
-2e-05
-0.0001
-2e-05
-0.0001
-2e-05
-0.0001
-2e-05
-9e-05
-2e-05
-8e-05
-2e-05
-8e-05
-2e-05
-7e-05
-2e-05
-6e-05
-2e-05
-6e-05
-2e-05
-1e-05
-5e-05
-1e-05
-5e-05
-1e-05
-5e-05
-8e-06
-4e-05
-6e-06
-4e-05
-5e-06
-4e-05
-3e-06
-4e-05
-2e-06
-4e-05
-4e-07
-4e-05
6e-07
-4e-05
1e-06
-3e-05
-4e-05
1e-06
-4e-05
1e-06
-4e-05
7e-07
-4e-05
-2e-07
-4e-05
-1e-06
-5e-05
-3e-06
-5e-05
-4e-06
-5e-05
-5e-06
-6e-05
-6e-06
-6e-05
-7e-06
-6e-05
-8e-06
-6e-05
-8e-06
-6e-05
-8e-06
-6e-05
-8e-06
-5e-05
-8e-06
-5e-05
-8e-06
-8e-06
-5e-05
-8e-06
-5e-05
-7e-06
-4e-05
-6e-06
-4e-05
-5e-06
-3e-05
-3e-06
-3e-05
-6e-07
-3e-05
2e-06
-3e-05
6e-06
-3e-05
9e-06
-2e-05
-2e-05
1e-05
-2e-05
2e-05
-2e-05
2e-05
-2e-05
2e-05
-2e-05
2e-05
-2e-05
3e-05
-2e-05
3e-05
-2e-05
3e-05
-3e-05
3e-05
-3e-05
2e-05
-3e-05
2e-05
-3e-05
2e-05
-3e-05
1e-05
-3e-05
1e-05
-3e-05
9e-06
-3e-05
6e-06
4e-06
-3e-05
3e-06
-3e-05
3e-06
-3e-05
3e-06
-3e-05
3e-06
-3e-05
5e-06
-3e-05
6e-06
-3e-05
8e-06
-3e-05
1e-05
-3e-05
1e-05
-2e-05
1e-05
-2e-05
2e-05
-2e-05
2e-05
-2e-05
3e-05
-2e-05
3e-05
-1e-05
4e-05
-1e-05
5e-05
-1e-05
5e-05
-1e-05
6e-05
-1e-05
7e-05
-1e-05
7e-05
-1e-05
8e-05
-1e-05
9e-05
-1e-05
9e-05
-1e-05
0.0001
-1e-05
0.0001
-2e-05
0.0001
-2e-05
0.0001
-2e-05
0.0001
-2e-05
0.0001
-2e-05
0.0001
-2e-05
0.0001
-2e-05
9e-05
-2e-05
9e-05
-2e-05
9e-05
-2e-05
8e-05
-2e-05
7e-05
-2e-05
6e-05
-2e-05
6e-05
-2e-05
5e-05
-1e-05
4e-05
-1e-05
4e-05
-1e-05
3e-05
-7e-06
2e-05
-4e-06
2e-05
3e-07
1e-05
4e-06
1e-05
8e-06
8e-06
1e-05
5e-06
1e-05
3e-06
2e-05
1e-06
2e-05
-5e-07
2e-05
-2e-06
2e-05
-3e-06
2e-05
-3e-06
2e-05
-3e-06
1e-05
-2e-06
1e-05
-1e-07
8e-06
2e-06
5e-06
-3e-05
-3e-05
-4e-05
-3e-05
-4e-05
-3e-05
-4e-05
-3e-05
-5e-05
-3e-05
-5e-05
-3e-05
-5e-05
-3e-05
-5e-05
-4e-05
-5e-05
-4e-05
-5e-05
-4e-05
-5e-05
-4e-05
-5e-05
-5e-05
-4e-05
-5e-05
-4e-05
-6e-05
-4e-05
-6e-05
-3e-05
-7e-05
-3e-05
-8e-05
-3e-05
-8e-05
-2e-05
-9e-05
-2e-05
-0.0001
-2e-05
-0.0001
-2e-05
-0.0001
-1e-05
-0.0001
-1e-05
-0.0001
-1e-05
-0.0001
-1e-05
-0.0001
-1e-05
-0.0001
-1e-05
-0.0001
-9e-06
-0.0001
-9e-06
-0.0001
-8e-06
-0.0001
-8e-06
-0.0001
-8e-06
-0.0001
-8e-06
-0.0001
-8e-06
-0.0001
-8e-06
-0.0001
-9e-06
-0.0001
-9e-06
-0.0001
-1e-05
-9e-05
-1e-05
-9e-05
-1e-05
-8e-05
-1e-05
-7e-05
-1e-05
-7e-05
-1e-05
-6e-05
-1e-05
-5e-05
-1e-05
-5e-05
-1e-05
-5e-05
-1e-05
-4e-05
-1e-05
-4e-05
-1e-05
-4e-05
-1e-05
-4e-05
-1e-05
-4e-05
-1e-05
-4e-05
-1e-05
-4e-05
-1e-05
-3e-05
-1e-05
-4e-05
-1e-05
-4e-05
-1e-05
-4e-05
-1e-05
-4e-05
-1e-05
-4e-05
-1e-05
-5e-05
-1e-05
-5e-05
-1e-05
-5e-05
-1e-05
-5e-05
-1e-05
-6e-05
-1e-05
-6e-05
-1e-05
-6e-05
-1e-05
-6e-05
-1e-05
-6e-05
-9e-06
-5e-05
-8e-06
-5e-05
-7e-06
-5e-05
-5e-06
-5e-05
-3e-06
-4e-05
-2e-07
-4e-05
3e-06
-4e-05
6e-06
-3e-05
1e-05
-3e-05
1e-05
-3e-05
2e-05
-3e-05
2e-05
-2e-05
2e-05
-2e-05
2e-05
-2e-05
3e-05
-2e-05
3e-05
-2e-05
3e-05
-2e-05
2e-05
-2e-05
2e-05
-2e-05
2e-05
-2e-05
2e-05
-2e-05
1e-05
-2e-05
1e-05
-2e-05
8e-06
-2e-05
6e-06
-2e-05
4e-06
-2e-05
3e-06
-2e-05
3e-06
-2e-05
3e-06
-2e-05
4e-06
-2e-05
5e-06
-2e-05
7e-06
-2e-05
8e-06
-2e-05
1e-05
-2e-05
1e-05
-2e-05
2e-05
-2e-05
2e-05
-2e-05
2e-05
-2e-05
3e-05
-2e-05
3e-05
-2e-05
4e-05
-2e-05
5e-05
-2e-05
5e-05
-2e-05
6e-05
-2e-05
7e-05
-2e-05
7e-05
-2e-05
8e-05
-2e-05
9e-05
-2e-05
9e-05
-2e-05
0.0001
-2e-05
0.0001
-2e-05
0.0001
-2e-05
0.0001
-2e-05
0.0001
-2e-05
0.0001
-2e-05
0.0001
-2e-05
0.0001
-2e-05
0.0001
-2e-05
9e-05
-2e-05
9e-05
-2e-05
8e-05
-2e-05
7e-05
-1e-05
7e-05
-1e-05
6e-05
-1e-05
5e-05
-6e-06
4e-05
-3e-06
4e-05
1e-06
3e-05
5e-06
2e-05
9e-06
2e-05
1e-05
1e-05
1e-05
1e-05
2e-05
8e-06
2e-05
6e-06
2e-05
4e-06
2e-05
2e-06
2e-05
-1e-07
2e-05
-2e-06
1e-05
-3e-06
1e-05
-3e-06
7e-06
-3e-06
4e-06
-2e-06
-4e-07
2e-06
-3e-05
-3e-05
-4e-05
-3e-05
-3e-05
-4e-05
-4e-05
-3e-05
-3e-05
-4e-05
-4e-05
-3e-05
-3e-05
-4e-05
-5e-05
-3e-05
-3e-05
-3e-05
-5e-05
-5e-05
-3e-05
-3e-05
-5e-05
-5e-05
-3e-05
-3e-05
-5e-05
-5e-05
-3e-05
-3e-05
-5e-05
-5e-05
-3e-05
-3e-05
-5e-05
-5e-05
-4e-05
-4e-05
-5e-05
-5e-05
-4e-05
-4e-05
-5e-05
-5e-05
-4e-05
-4e-05
-5e-05
-4e-05
-4e-05
-5e-05
-4e-05
-4e-05
-5e-05
-5e-05
-4e-05
-4e-05
-5e-05
-5e-05
-4e-05
-3e-05
-6e-05
-6e-05
-3e-05
-3e-05
-6e-05
-7e-05
-3e-05
-3e-05
-7e-05
-7e-05
-3e-05
-2e-05
-8e-05
-8e-05
-2e-05
-2e-05
-9e-05
-9e-05
-2e-05
-2e-05
-2e-05
-9e-05
-0.0001
-2e-05
-2e-05
-0.0001
-0.0001
-2e-05
-1e-05
-0.0001
-0.0001
-1e-05
-1e-05
-0.0001
-0.0001
-1e-05
-1e-05
-0.0001
-0.0001
-1e-05
-1e-05
-0.0001
-0.0001
-1e-05
-1e-05
-0.0001
-0.0001
-1e-05
-1e-05
-0.0001
-0.0001
-1e-05
-1e-05
-0.0001
-0.0001
-1e-05
-1e-05
-0.0001
-0.0001
-1e-05
-1e-05
-0.0001
-0.0001
-0.0001
-1e-05
-1e-05
-0.0001
-0.0001
-1e-05
-1e-05
-0.0001
-0.0001
-1e-05
-1e-05
-0.0001
-0.0001
-1e-05
-2e-05
-0.0001
-0.0001
-1e-05
-2e-05
-0.0001
-0.0001
-1e-05
-2e-05
-0.0001
-0.0001
-1e-05
-2e-05
-0.0001
-0.0001
-1e-05
-2e-05
-0.0001
-0.0001
-1e-05
-2e-05
-0.0001
-9e-05
-1e-05
-2e-05
-9e-05
-8e-05
-1e-05
-2e-05
-8e-05
-8e-05
-1e-05
-2e-05
-7e-05
-7e-05
-1e-05
-2e-05
-7e-05
-6e-05
-1e-05
-1e-05
-6e-05
-6e-05
-1e-05
-1e-05
-1e-05
-6e-05
-5e-05
-1e-05
-1e-05
-5e-05
-5e-05
-1e-05
-1e-05
-5e-05
-5e-05
-1e-05
-9e-06
-5e-05
-4e-05
-9e-06
-7e-06
-4e-05
-4e-05
-9e-06
-6e-06
-4e-05
-4e-05
-8e-06
-5e-06
-4e-05
-4e-05
-8e-06
-4e-06
-4e-05
-4e-05
-7e-06
-4e-06
-4e-05
-4e-05
-7e-06
-3e-06
-4e-05
-3e-05
-7e-06
-3e-06
-3e-05
-4e-05
-4e-05
-7e-06
-3e-06
-4e-05
-4e-05
-8e-06
-4e-06
-4e-05
-4e-05
-8e-06
-4e-06
-4e-05
-4e-05
-9e-06
-5e-06
-4e-05
-4e-05
-1e-05
-6e-06
-4e-05
-5e-05
-1e-05
-7e-06
-5e-05
-5e-05
-1e-05
-8e-06
-5e-05
-5e-05
-1e-05
-8e-06
-5e-05
-6e-05
-1e-05
-9e-06
-6e-05
-6e-05
-1e-05
-9e-06
-6e-05
-6e-05
-1e-05
-9e-06
-6e-05
-6e-05
-1e-05
-9e-06
-6e-05
-6e-05
-1e-05
-9e-06
-6e-05
-6e-05
-1e-05
-9e-06
-6e-05
-5e-05
-9e-06
-9e-06
-5e-05
-5e-05
-9e-06
-8e-06
-8e-06
-5e-05
-5e-05
-8e-06
-7e-06
-5e-05
-5e-05
-7e-06
-6e-06
-5e-05
-4e-05
-5e-06
-5e-06
-4e-05
-4e-05
-3e-06
-3e-06
-4e-05
-3e-05
-1e-07
-3e-07
-4e-05
-3e-05
3e-06
3e-06
-3e-05
-3e-05
6e-06
6e-06
-3e-05
-3e-05
1e-05
1e-05
-3e-05
-3e-05
1e-05
1e-05
-3e-05
-2e-05
-2e-05
2e-05
2e-05
-2e-05
-2e-05
2e-05
2e-05
-2e-05
-2e-05
2e-05
2e-05
-2e-05
-2e-05
2e-05
2e-05
-2e-05
-2e-05
3e-05
3e-05
-2e-05
-2e-05
3e-05
3e-05
-2e-05
-2e-05
3e-05
3e-05
-2e-05
-2e-05
2e-05
2e-05
-2e-05
-2e-05
2e-05
2e-05
-2e-05
-2e-05
2e-05
2e-05
-2e-05
-2e-05
2e-05
2e-05
-2e-05
-3e-05
1e-05
1e-05
-2e-05
-3e-05
1e-05
1e-05
-2e-05
-3e-05
8e-06
8e-06
-2e-05
-3e-05
6e-06
6e-06
-2e-05
-3e-05
4e-06
4e-06
3e-06
-2e-05
-3e-05
3e-06
3e-06
-2e-05
-3e-05
3e-06
3e-06
-3e-05
-3e-05
3e-06
3e-06
-3e-05
-3e-05
4e-06
4e-06
-3e-05
-3e-05
5e-06
6e-06
-2e-05
-3e-05
7e-06
7e-06
-2e-05
-3e-05
9e-06
9e-06
-2e-05
-2e-05
1e-05
1e-05
-2e-05
-2e-05
1e-05
1e-05
-2e-05
-2e-05
2e-05
2e-05
-2e-05
-2e-05
-2e-05
2e-05
2e-05
-2e-05
-2e-05
2e-05
3e-05
-2e-05
-2e-05
3e-05
3e-05
-2e-05
-2e-05
3e-05
4e-05
-2e-05
-2e-05
4e-05
4e-05
-2e-05
-2e-05
5e-05
5e-05
-2e-05
-1e-05
6e-05
6e-05
-2e-05
-1e-05
6e-05
6e-05
-2e-05
-1e-05
7e-05
7e-05
-2e-05
-1e-05
8e-05
8e-05
-2e-05
-2e-05
8e-05
9e-05
-2e-05
-2e-05
9e-05
9e-05
-2e-05
-2e-05
9e-05
9e-05
-2e-05
-2e-05
0.0001
0.0001
-2e-05
-2e-05
0.0001
0.0001
0.0001
-2e-05
-2e-05
0.0001
0.0001
-2e-05
-2e-05
0.0001
0.0001
-2e-05
-2e-05
0.0001
0.0001
-2e-05
-2e-05
0.0001
0.0001
-2e-05
-2e-05
0.0001
0.0001
-2e-05
-2e-05
0.0001
9e-05
-2e-05
-2e-05
9e-05
9e-05
-2e-05
-2e-05
9e-05
8e-05
-2e-05
-2e-05
8e-05
8e-05
-2e-05
-2e-05
8e-05
7e-05
-2e-05
-2e-05
7e-05
6e-05
-2e-05
-2e-05
6e-05
6e-05
-1e-05
-1e-05
5e-05
5e-05
-1e-05
-1e-05
5e-05
4e-05
-6e-06
-1e-05
4e-05
3e-05
-3e-06
-7e-06
3e-05
3e-05
8e-07
-3e-06
3e-05
2e-05
5e-06
5e-07
2e-05
2e-05
8e-06
4e-06
2e-05
1e-05
1e-05
8e-06
1e-05
1e-05
1e-05
1e-05
9e-06
7e-06
2e-05
1e-05
6e-06
4e-06
2e-05
2e-05
4e-06
2e-06
2e-05
2e-05
2e-06
6e-07
2e-05
2e-05
2e-07
-1e-06
2e-05
2e-05
-1e-06
-2e-06
2e-05
2e-05
-3e-06
-3e-06
1e-05
2e-05
-3e-06
-3e-06
1e-05
1e-05
-3e-06
-3e-06
7e-06
1e-05
-2e-06
-2e-06
5e-06
-3e-07
2e-06
8e-06
-2e-07
5e-06
2e-06
SCALARS u2 float
LOOKUP_TABLE default
-9e-06
-1e-05
-6e-06
-1e-05
-4e-06
-2e-05
-3e-06
-2e-05
-2e-06
-1e-06
-2e-05
-1e-06
-3e-05
-1e-06
-3e-05
-1e-06
-3e-05
-9e-07
-3e-05
-1e-06
-4e-05
-1e-06
-4e-05
-2e-06
-4e-05
-2e-06
-3e-05
-3e-06
-3e-05
-4e-06
-3e-05
-5e-06
-3e-05
-7e-06
-2e-05
-8e-06
-2e-05
-9e-06
-2e-05
-1e-05
-2e-05
-1e-05
-1e-05
-1e-05
-1e-05
-1e-05
-1e-05
-1e-05
-1e-05
-1e-05
-9e-06
-1e-05
-8e-06
-2e-05
-6e-06
-2e-05
-5e-06
-2e-05
-3e-06
-2e-05
-1e-06
-2e-05
9e-07
3e-06
-3e-05
5e-06
-3e-05
7e-06
-4e-05
8e-06
-4e-05
1e-05
-5e-05
1e-05
-5e-05
1e-05
-6e-05
1e-05
-7e-05
1e-05
-8e-05
1e-05
-8e-05
1e-05
-9e-05
1e-05
-0.0001
1e-05
-0.0001
9e-06
-0.0001
8e-06
-0.0001
-0.0001
7e-06
-0.0001
6e-06
-0.0001
5e-06
-0.0001
4e-06
-0.0001
4e-06
-0.0001
4e-06
-0.0001
4e-06
-0.0001
4e-06
-9e-05
4e-06
-9e-05
4e-06
-8e-05
5e-06
5e-06
-7e-05
7e-06
-7e-05
8e-06
-6e-05
1e-05
-5e-05
1e-05
-4e-05
2e-05
-4e-05
2e-05
-3e-05
2e-05
-3e-05
3e-05
-2e-05
3e-05
-2e-05
3e-05
-2e-05
4e-05
-1e-05
4e-05
-1e-05
4e-05
-1e-05
4e-05
-9e-06
4e-05
-8e-06
-7e-06
4e-05
-6e-06
4e-05
-7e-06
4e-05
-8e-06
3e-05
-9e-06
3e-05
-1e-05
3e-05
-1e-05
2e-05
-2e-05
2e-05
-2e-05
2e-05
-2e-05
2e-05
2e-05
-3e-05
2e-05
-3e-05
2e-05
-3e-05
2e-05
-3e-05
2e-05
-3e-05
3e-05
-3e-05
3e-05
-2e-05
3e-05
-2e-05
3e-05
-2e-05
4e-05
-1e-05
4e-05
-1e-05
5e-05
-6e-06
5e-05
-2e-06
6e-05
7e-07
7e-05
3e-06
7e-05
5e-06
7e-06
8e-05
8e-06
9e-05
9e-06
0.0001
9e-06
0.0001
9e-06
0.0001
9e-06
0.0001
1e-05
0.0001
1e-05
0.0001
9e-06
0.0001
9e-06
0.0001
9e-06
0.0001
8e-06
0.0001
7e-06
0.0001
6e-06
0.0001
4e-06
0.0001
3e-06
0.0001
2e-06
0.0001
1e-06
0.0001
7e-07
0.0001
6e-07
9e-05
9e-07
8e-05
2e-06
8e-05
3e-06
7e-05
4e-06
6e-05
5e-06
5e-05
7e-06
5e-05
9e-06
4e-05
1e-05
4e-05
1e-05
4e-05
1e-05
3e-05
2e-05
3e-05
2e-05
3e-05
2e-05
3e-05
2e-05
3e-05
2e-05
3e-05
2e-05
3e-05
2e-05
3e-05
2e-05
3e-05
2e-05
3e-05
2e-05
3e-05
2e-05
3e-05
2e-05
3e-05
2e-05
4e-05
2e-05
4e-05
2e-05
4e-05
2e-05
5e-05
2e-05
5e-05
2e-05
5e-05
1e-05
5e-05
1e-05
5e-05
1e-05
5e-05
1e-05
5e-05
1e-05
4e-05
1e-05
4e-05
1e-05
4e-05
2e-05
3e-05
2e-05
3e-05
2e-05
3e-05
2e-05
2e-05
-2e-05
-9e-06
-2e-05
-6e-06
-2e-05
-4e-06
-3e-05
-2e-06
-3e-05
-9e-07
-3e-05
1e-07
-3e-05
8e-07
-4e-05
2e-06
-4e-05
2e-06
-4e-05
3e-06
-3e-05
3e-06
-3e-05
4e-06
-3e-05
4e-06
-3e-05
4e-06
-2e-05
4e-06
-2e-05
4e-06
-2e-05
4e-06
-2e-05
4e-06
-1e-05
3e-06
-1e-05
3e-06
-1e-05
2e-06
-1e-05
2e-06
-1e-05
1e-06
-1e-05
1e-06
-2e-05
9e-07
-2e-05
9e-07
-2e-05
1e-06
-2e-05
1e-06
-2e-05
1e-06
-3e-05
1e-06
-3e-05
1e-06
-4e-05
1e-06
-4e-05
1e-06
-5e-05
1e-06
-6e-05
1e-06
-6e-05
6e-07
-7e-05
2e-07
-8e-05
-3e-07
-8e-05
-8e-07
-9e-05
-1e-06
-0.0001
-2e-06
-0.0001
-2e-06
-0.0001
-2e-06
-0.0001
-1e-06
-0.0001
-1e-06
-0.0001
-7e-07
-0.0001
-1e-07
-0.0001
4e-07
-0.0001
1e-06
-0.0001
2e-06
-0.0001
3e-06
-0.0001
3e-06
-0.0001
4e-06
-9e-05
6e-06
-8e-05
8e-06
-8e-05
1e-05
-7e-05
1e-05
-6e-05
2e-05
-5e-05
2e-05
-5e-05
2e-05
-4e-05
3e-05
-3e-05
3e-05
-3e-05
3e-05
-2e-05
4e-05
-2e-05
4e-05
-2e-05
4e-05
-2e-05
4e-05
-1e-05
4e-05
-1e-05
4e-05
-9e-06
4e-05
-8e-06
4e-05
-7e-06
3e-05
-6e-06
3e-05
-7e-06
3e-05
-8e-06
2e-05
-9e-06
2e-05
-1e-05
2e-05
-1e-05
2e-05
-2e-05
2e-05
-2e-05
2e-05
-2e-05
2e-05
-2e-05
2e-05
-3e-05
2e-05
-3e-05
3e-05
-3e-05
3e-05
-3e-05
3e-05
-3e-05
3e-05
-2e-05
4e-05
-2e-05
4e-05
-2e-05
5e-05
-1e-05
5e-05
-1e-05
6e-05
-7e-06
7e-05
-3e-06
7e-05
1e-07
8e-05
3e-06
9e-05
5e-06
0.0001
7e-06
0.0001
9e-06
0.0001
1e-05
0.0001
1e-05
0.0001
1e-05
0.0001
1e-05
0.0001
1e-05
0.0001
1e-05
0.0001
1e-05
0.0001
1e-05
0.0001
1e-05
0.0001
2e-05
0.0001
2e-05
0.0001
1e-05
0.0001
1e-05
0.0001
1e-05
0.0001
1e-05
9e-05
1e-05
8e-05
1e-05
8e-05
1e-05
7e-05
1e-05
6e-05
1e-05
6e-05
1e-05
5e-05
1e-05
5e-05
1e-05
4e-05
1e-05
4e-05
1e-05
4e-05
1e-05
3e-05
1e-05
3e-05
1e-05
3e-05
1e-05
3e-05
1e-05
3e-05
1e-05
3e-05
1e-05
3e-05
1e-05
3e-05
1e-05
3e-05
1e-05
3e-05
9e-06
3e-05
9e-06
3e-05
9e-06
4e-05
9e-06
4e-05
9e-06
4e-05
1e-05
5e-05
1e-05
5e-05
1e-05
5e-05
1e-05
5e-05
1e-05
5e-05
1e-05
5e-05
1e-05
5e-05
1e-05
4e-05
2e-05
4e-05
2e-05
4e-05
2e-05
3e-05
2e-05
3e-05
3e-05
-9e-06
-1e-05
-1e-05
-9e-06
-7e-06
-2e-05
-2e-05
-7e-06
-5e-06
-2e-05
-2e-05
-4e-06
-3e-06
-2e-05
-2e-05
-3e-06
-2e-06
-1e-06
-3e-05
-3e-05
-1e-06
-9e-07
-3e-05
-3e-05
-5e-07
-5e-07
-3e-05
-3e-05
7e-08
-2e-07
-3e-05
-3e-05
6e-07
-2e-08
-4e-05
-4e-05
1e-06
7e-08
-4e-05
-4e-05
1e-06
3e-08
-4e-05
-4e-05
2e-06
-1e-07
-3e-05
-3e-05
2e-06
-4e-07
-3e-05
-3e-05
2e-06
-1e-06
-3e-05
-3e-05
1e-06
-2e-06
-3e-05
-3e-05
1e-06
-2e-06
-2e-05
-2e-05
7e-07
-3e-06
-2e-05
-2e-05
2e-07
-4e-06
-2e-05
-2e-05
-4e-07
-5e-06
-2e-05
-2e-05
-1e-06
-6e-06
-1e-05
-1e-05
-1e-05
-1e-06
-6e-06
-1e-05
-1e-05
-2e-06
-6e-06
-1e-05
-1e-05
-2e-06
-6e-06
-1e-05
-1e-05
-2e-06
-6e-06
-1e-05
-1e-05
-2e-06
-5e-06
-1e-05
-2e-05
-2e-06
-4e-06
-2e-05
-2e-05
-1e-06
-3e-06
-2e-05
-2e-05
-8e-07
-2e-06
-2e-05
-2e-05
-1e-07
-8e-07
-2e-05
-2e-05
6e-07
6e-07
-3e-05
-3e-05
2e-06
1e-06
3e-06
-3e-05
-3e-05
2e-06
4e-06
-3e-05
-3e-05
3e-06
5e-06
-4e-05
-4e-05
4e-06
6e-06
-4e-05
-5e-05
4e-06
7e-06
-5e-05
-5e-05
4e-06
8e-06
-6e-05
-6e-05
5e-06
8e-06
-6e-05
-7e-05
4e-06
8e-06
-7e-05
-7e-05
4e-06
8e-06
-8e-05
-8e-05
4e-06
8e-06
-9e-05
-9e-05
3e-06
7e-06
-9e-05
-9e-05
3e-06
7e-06
-0.0001
-0.0001
2e-06
6e-06
-0.0001
-0.0001
2e-06
5e-06
-0.0001
-0.0001
1e-06
4e-06
-0.0001
-0.0001
-0.0001
1e-06
4e-06
-0.0001
-0.0001
1e-06
3e-06
-0.0001
-0.0001
1e-06
3e-06
-0.0001
-0.0001
1e-06
3e-06
-0.0001
-0.0001
2e-06
3e-06
-0.0001
-0.0001
2e-06
3e-06
-0.0001
-0.0001
3e-06
3e-06
-0.0001
-0.0001
3e-06
4e-06
-0.0001
-9e-05
4e-06
4e-06
-9e-05
-9e-05
5e-06
5e-06
-8e-05
-8e-05
6e-06
6e-06
7e-06
-8e-05
-7e-05
8e-06
8e-06
-7e-05
-6e-05
1e-05
1e-05
-6e-05
-6e-05
1e-05
1e-05
-5e-05
-5e-05
2e-05
2e-05
-5e-05
-4e-05
2e-05
2e-05
-4e-05
-4e-05
2e-05
2e-05
-3e-05
-3e-05
3e-05
3e-05
-3e-05
-3e-05
3e-05
3e-05
-3e-05
-2e-05
3e-05
3e-05
-2e-05
-2e-05
4e-05
4e-05
-2e-05
-2e-05
4e-05
4e-05
-2e-05
-1e-05
4e-05
4e-05
-1e-05
-1e-05
4e-05
4e-05
-1e-05
-1e-05
4e-05
4e-05
-1e-05
-8e-06
4e-05
4e-05
-8e-06
-7e-06
-7e-06
4e-05
4e-05
-7e-06
-6e-06
4e-05
4e-05
-6e-06
-7e-06
3e-05
3e-05
-7e-06
-8e-06
3e-05
3e-05
-8e-06
-9e-06
3e-05
3e-05
-9e-06
-1e-05
2e-05
2e-05
-1e-05
-1e-05
2e-05
2e-05
-1e-05
-2e-05
2e-05
2e-05
-2e-05
-2e-05
2e-05
2e-05
-2e-05
-2e-05
2e-05
2e-05
2e-05
-2e-05
-3e-05
2e-05
2e-05
-2e-05
-3e-05
2e-05
2e-05
-3e-05
-3e-05
2e-05
2e-05
-3e-05
-3e-05
2e-05
3e-05
-3e-05
-3e-05
3e-05
3e-05
-3e-05
-3e-05
3e-05
3e-05
-3e-05
-2e-05
3e-05
3e-05
-2e-05
-2e-05
3e-05
4e-05
-2e-05
-2e-05
4e-05
4e-05
-2e-05
-1e-05
4e-05
4e-05
-1e-05
-1e-05
5e-05
5e-05
-1e-05
-6e-06
5e-05
6e-05
-6e-06
-3e-06
6e-05
6e-05
-3e-06
3e-07
7e-05
7e-05
2e-07
3e-06
8e-05
8e-05
3e-06
5e-06
7e-06
8e-05
9e-05
6e-06
8e-06
9e-05
9e-05
7e-06
9e-06
0.0001
0.0001
9e-06
9e-06
0.0001
0.0001
1e-05
1e-05
0.0001
0.0001
1e-05
1e-05
0.0001
0.0001
1e-05
1e-05
0.0001
0.0001
1e-05
1e-05
0.0001
0.0001
1e-05
1e-05
0.0001
0.0001
1e-05
1e-05
0.0001
0.0001
1e-05
1e-05
0.0001
0.0001
0.0001
1e-05
1e-05
0.0001
0.0001
1e-05
9e-06
0.0001
0.0001
1e-05
8e-06
0.0001
0.0001
1e-05
8e-06
0.0001
0.0001
1e-05
7e-06
0.0001
0.0001
1e-05
6e-06
0.0001
0.0001
1e-05
5e-06
0.0001
9e-05
1e-05
5e-06
9e-05
9e-05
9e-06
5e-06
9e-05
8e-05
9e-06
5e-06
8e-05
7e-05
9e-06
6e-06
7e-05
7e-05
9e-06
6e-06
6e-05
6e-05
9e-06
7e-06
6e-05
5e-05
1e-05
8e-06
5e-05
5e-05
1e-05
9e-06
1e-05
5e-05
4e-05
1e-05
1e-05
4e-05
4e-05
1e-05
1e-05
4e-05
4e-05
1e-05
1e-05
4e-05
3e-05
1e-05
2e-05
3e-05
3e-05
1e-05
2e-05
3e-05
3e-05
1e-05
2e-05
3e-05
3e-05
2e-05
2e-05
3e-05
3e-05
2e-05
2e-05
3e-05
3e-05
2e-05
2e-05
3e-05
3e-05
2e-05
2e-05
3e-05
3e-05
2e-05
2e-05
3e-05
3e-05
1e-05
2e-05
3e-05
3e-05
1e-05
2e-05
3e-05
3e-05
1e-05
2e-05
3e-05
3e-05
1e-05
2e-05
3e-05
3e-05
1e-05
2e-05
4e-05
4e-05
1e-05
2e-05
4e-05
4e-05
1e-05
1e-05
4e-05
4e-05
1e-05
1e-05
5e-05
5e-05
1e-05
1e-05
5e-05
5e-05
1e-05
1e-05
5e-05
5e-05
1e-05
1e-05
5e-05
5e-05
1e-05
1e-05
5e-05
5e-05
1e-05
1e-05
5e-05
5e-05
1e-05
1e-05
5e-05
5e-05
1e-05
1e-05
4e-05
4e-05
1e-05
1e-05
4e-05
4e-05
2e-05
2e-05
4e-05
4e-05
2e-05
2e-05
3e-05
3e-05
2e-05
2e-05
3e-05
2e-05
3e-05
3e-05
2e-05
3e-05
2e-05
SCALARS strain_1 float
LOOKUP_TABLE default
0.000004
-0.000032
-0.000057
-0.000043
-0.000072
-0.000043
-0.000062
-0.000042
-0.000079
-0.000099
-0.000078
-0.000104
-0.000100
-0.000115
-0.000132
-0.000101
-0.000209
-0.000102
-0.000267
-0.000109
-0.000357
-0.000062
-0.000438
-0.000018
-0.000580
0.000019
-0.000698
0.000088
-0.000847
0.000166
-0.001027
0.000259
-0.001191
0.000403
-0.001406
0.000505
-0.001643
0.000643
-0.001885
0.000830
-0.002118
-0.002418
0.001046
-0.002723
0.001269
-0.003060
0.001472
-0.003383
0.001758
-0.003776
0.002052
-0.004132
0.002364
-0.004544
0.002663
-0.004963
0.003080
-0.005377
0.003448
-0.005825
0.003873
-0.006287
0.004287
0.004791
-0.006777
0.005260
-0.007270
0.005772
-0.007756
0.006277
-0.008292
0.006869
-0.008800
0.007409
-0.009339
0.008020
-0.009863
0.008635
-0.010464
0.009253
-0.011005
0.009912
-0.011579
0.010555
-0.012153
0.011230
-0.012694
0.011867
-0.013264
0.012545
-0.013843
0.013270
-0.014399
-0.014947
0.013938
-0.015498
0.014652
-0.016066
0.015335
-0.016603
0.016014
-0.017127
0.016709
-0.017638
0.017342
-0.018160
0.018032
-0.018620
0.018678
-0.019130
0.019322
-0.019553
0.019939
-0.019978
0.020537
0.021144
-0.020441
0.021707
-0.020844
0.022241
-0.021204
0.022747
-0.021574
0.023239
-0.021912
0.023692
-0.022223
0.024120
-0.022506
0.024529
-0.022764
0.024886
-0.023007
0.025239
-0.023194
0.025524
-0.023376
0.025766
-0.023519
0.026019
-0.023653
0.026200
-0.023753
0.026372
-0.023797
0.026473
-0.023861
-0.023851
0.026559
-0.023832
0.026592
-0.023764
0.026606
-0.023685
0.026544
-0.023576
0.026485
-0.023438
0.026388
-0.023291
0.026228
-0.023091
0.026065
-0.022885
0.025835
-0.022613
0.025624
0.025347
-0.022367
0.025043
-0.022055
0.024695
-0.021777
0.024342
-0.021421
0.023949
-0.021068
0.023548
-0.020687
0.023092
-0.020304
0.022625
-0.019901
0.022143
-0.019439
0.021655
-0.019051
0.021126
-0.018569
0.020603
-0.018089
0.020032
-0.017607
0.019489
-0.017127
0.018918
-0.016610
0.018338
-0.016106
-0.015606
0.017757
-0.015062
0.017159
-0.014560
0.016570
-0.014029
0.015946
-0.013493
0.015359
-0.012981
0.014756
-0.012473
0.014146
-0.011934
0.013550
-0.011392
0.012952
-0.010900
0.012355
-0.010379
0.011820
-0.009891
0.011218
-0.009384
0.010652
-0.008907
0.010120
-0.008424
0.009566
-0.007945
0.009041
-0.007491
0.008523
-0.007046
0.008018
-0.006623
0.007532
-0.006209
0.007031
-0.005797
0.006579
-0.005405
0.006151
-0.005008
0.005725
-0.004641
0.005286
-0.004289
0.004877
-0.003946
0.004556
-0.003643
0.004169
-0.003346
0.003812
-0.003028
0.003510
-0.002736
0.003188
-0.002504
0.002885
-0.002248
0.002620
-0.002002
0.002354
-0.001814
0.002097
-0.001599
0.001852
-0.001417
0.001674
-0.001247
0.001473
-0.001081
0.001290
-0.000937
0.001103
-0.000798
0.000948
-0.000689
0.000800
-0.000567
0.000674
-0.000491
0.000593
-0.000394
0.000478
-0.000338
0.000409
-0.000245
0.000320
-0.000214
0.000225
-0.000165
0.000204
-0.000115
0.000156
-0.000097
0.000096
-0.000047
0.000093
-0.000024
0.000028
-0.000016
0.000023
-0.000021
-0.000002
-0.000005
-0.000006
0.000002
-0.000011
-0.000014
-0.000005
-0.000021
-0.000025
-0.000038
-0.000014
-0.000043
-0.000051
-0.000030
-0.000066
-0.000047
-0.000093
-0.000044
-0.000089
-0.000086
-0.000100
-0.000108
-0.000099
-0.000145
-0.000094
-0.000197
-0.000105
-0.000275
-0.000095
-0.000360
-0.000050
-0.000457
-0.000029
-0.000572
0.000041
-0.000720
0.000127
-0.000890
0.000157
-0.001026
0.000257
-0.001232
0.000394
-0.001432
0.000499
-0.001655
0.000653
-0.001896
0.000820
-0.002154
0.001004
-0.002451
0.001219
-0.002713
0.001465
-0.003049
0.001713
-0.003389
0.001988
-0.003737
0.002313
-0.004118
0.002628
-0.004500
0.002996
-0.004947
0.003373
-0.005342
0.003779
-0.005794
0.004185
-0.006230
0.004643
-0.006692
0.005119
-0.007178
0.005625
-0.007647
0.006085
-0.008149
0.006628
-0.008653
0.007193
-0.009166
0.007754
-0.009679
0.008352
-0.010212
0.008921
-0.010759
0.009542
-0.011286
0.010111
-0.011784
0.010768
-0.012348
0.011394
-0.012849
0.012040
-0.013379
0.012630
-0.013898
0.013286
-0.014392
0.013935
-0.014880
0.014541
-0.015403
0.015146
-0.015881
0.015788
-0.016357
0.016374
-0.016815
0.016948
-0.017255
0.017538
-0.017656
0.018092
-0.018078
0.018645
-0.018441
0.019145
-0.018822
0.019654
-0.019181
0.020117
-0.019503
0.020538
-0.019804
0.020987
-0.020067
0.021402
-0.020338
0.021736
-0.020546
0.022058
-0.020761
0.022380
-0.020951
0.022631
-0.021082
0.022869
-0.021194
0.023059
-0.021294
0.023215
-0.021384
0.023370
-0.021414
0.023439
-0.021406
0.023508
-0.021392
0.023545
-0.021336
0.023496
-0.021267
0.023488
-0.021165
0.023382
-0.021048
0.023262
-0.020876
0.023112
-0.020702
0.022917
-0.020516
0.022717
-0.020272
0.022485
-0.020010
0.022192
-0.019728
0.021880
-0.019458
0.021564
-0.019137
0.021201
-0.018795
0.020814
-0.018455
0.020423
-0.018047
0.019989
-0.017664
0.019547
-0.017244
0.019100
-0.016833
0.018606
-0.016416
0.018113
-0.015976
0.017596
-0.015524
0.017088
-0.015041
0.016547
-0.014604
0.016023
-0.014101
0.015484
-0.013619
0.014947
-0.013134
0.014366
-0.012630
0.013819
-0.012127
0.013273
-0.011676
0.012721
-0.011175
0.012193
-0.010705
0.011628
-0.010192
0.011092
-0.009718
0.010566
-0.009256
0.009985
-0.008773
0.009479
-0.008332
0.008998
-0.007877
0.008469
-0.007425
0.007982
-0.006997
0.007515
-0.006582
0.007065
-0.006167
0.006610
-0.005771
0.006152
-0.005376
0.005752
-0.004987
0.005315
-0.004630
0.004944
-0.004285
0.004557
-0.003957
0.004201
-0.003622
0.003852
-0.003334
0.003536
-0.003045
0.003207
-0.002782
0.002935
-0.002489
0.002652
-0.002256
0.002388
-0.002045
0.002118
-0.001829
0.001874
-0.001612
0.001685
-0.001439
0.001500
-0.001259
0.001269
-0.001114
0.001131
-0.000961
0.000977
-0.000812
0.000831
-0.000696
0.000686
-0.000600
0.000583
-0.000488
0.000488
-0.000402
0.000382
-0.000322
0.000324
-0.000263
0.000230
-0.000176
0.000179
-0.000169
0.000098
-0.000126
0.000109
-0.000097
0.000075
-0.000078
0.000036
-0.000064
0.000025
-0.000016
-0.000017
-0.000026
-0.000021
0.000000
-0.000015
-0.000002
0.000002
0.000011
-0.000014
-0.000017
0.000002
-0.000023
-0.000033
-0.000042
-0.000041
-0.000064
-0.000066
-0.000046
-0.000018
-0.000074
-0.000029
-0.000056
-0.000035
-0.000039
-0.000070
-0.000044
-0.000046
-0.000065
-0.000077
-0.000091
-0.000077
-0.000092
-0.000088
-0.000114
-0.000063
-0.000108
-0.000098
-0.000106
-0.000139
-0.000167
-0.000094
-0.000128
-0.000170
-0.000221
-0.000099
-0.000085
-0.000256
-0.000309
-0.000115
-0.000098
-0.000331
-0.000365
-0.000070
-0.000054
-0.000439
-0.000502
-0.000015
-0.000013
-0.000564
-0.000615
0.000014
0.000028
-0.000663
-0.000755
0.000066
0.000121
-0.000795
-0.000923
0.000121
0.000169
-0.000976
-0.001083
0.000217
0.000293
-0.001160
-0.001284
0.000355
0.000424
-0.001375
-0.001513
0.000453
0.000553
-0.001580
-0.001715
0.000604
0.000729
-0.001807
-0.001975
0.000764
0.000865
-0.002060
-0.002245
-0.002488
0.000961
0.001082
-0.002407
-0.002728
0.001163
0.001320
-0.002688
-0.003057
0.001391
0.001564
-0.003036
-0.003394
0.001648
0.001823
-0.003383
-0.003740
0.001902
0.002130
-0.003745
-0.004130
0.002231
0.002436
-0.004121
-0.004506
0.002552
0.002806
-0.004519
-0.004949
0.002907
0.003177
-0.004913
-0.005362
0.003307
0.003570
-0.005359
-0.005801
0.003678
0.003984
-0.005808
-0.006254
0.004476
0.004121
0.004850
-0.006253
-0.006755
0.004672
0.005202
-0.006719
-0.007228
0.005134
0.005691
-0.007194
-0.007728
0.005650
0.006211
-0.007678
-0.008245
0.006175
0.006774
-0.008172
-0.008768
0.006719
0.007336
-0.008710
-0.009311
0.007236
0.007927
-0.009232
-0.009828
0.007836
0.008536
-0.009744
-0.010357
0.008431
0.009140
-0.010280
-0.010923
0.009028
0.009780
-0.010821
-0.011473
0.009669
0.010418
-0.011402
-0.012042
0.010278
0.011067
-0.011902
-0.012581
0.010922
0.011732
-0.012486
-0.013143
0.011533
0.012394
-0.013015
-0.013708
0.012194
0.013038
-0.013534
-0.014285
-0.014770
0.012840
0.013717
-0.014233
-0.015088
0.013498
0.014377
-0.014688
-0.015618
0.014185
0.015050
-0.015265
-0.016157
0.014805
0.015701
-0.015772
-0.016697
0.015434
0.016379
-0.016279
-0.017201
0.016089
0.017025
-0.016774
-0.017698
0.016698
0.017676
-0.017241
-0.018173
0.017309
0.018323
-0.017688
-0.018626
0.017921
0.018917
-0.018132
-0.019064
0.018522
0.019545
-0.018591
-0.019487
0.019069
0.020054
0.020693
-0.018962
-0.019912
0.019802
0.020994
-0.019353
-0.020264
0.020222
0.021539
-0.019719
-0.020630
0.020798
0.021989
-0.020068
-0.020999
0.021257
0.022478
-0.020391
-0.021313
0.021720
0.022885
-0.020678
-0.021597
0.022123
0.023314
-0.020949
-0.021837
0.022510
0.023680
-0.021210
-0.022089
0.022888
0.024049
-0.021438
-0.022314
0.023190
0.024357
-0.021633
-0.022489
0.023470
0.024614
-0.021788
-0.022622
0.023725
0.024863
-0.021915
-0.022796
0.023924
0.025064
-0.022031
-0.022876
0.024141
0.025221
-0.022134
-0.022960
0.024288
0.025367
-0.022156
-0.023026
0.024401
0.025472
-0.022190
-0.023044
-0.023121
0.024417
0.025517
-0.022262
-0.023037
0.024503
0.025546
-0.022151
-0.022926
0.024524
0.025516
-0.022064
-0.022831
0.024484
0.025470
-0.021984
-0.022694
0.024432
0.025382
-0.021876
-0.022580
0.024288
0.025286
-0.021720
-0.022396
0.024166
0.025117
-0.021550
-0.022202
0.023988
0.024902
-0.021366
-0.021984
0.023806
0.024722
-0.021112
-0.021748
0.023490
0.024431
0.024373
-0.020879
-0.021444
0.023387
0.023967
-0.020590
-0.021175
0.022861
0.023671
-0.020272
-0.020837
0.022607
0.023277
-0.019969
-0.020517
0.022224
0.022892
-0.019655
-0.020166
0.021815
0.022437
-0.019290
-0.019795
0.021411
0.021997
-0.018913
-0.019371
0.020992
0.021559
-0.018525
-0.018990
0.020515
0.021061
-0.018095
-0.018554
0.020075
0.020587
-0.017707
-0.018127
0.019580
0.020076
-0.017256
-0.017683
0.019057
0.019552
-0.016822
-0.017206
0.018561
0.018997
-0.016339
-0.016733
0.018026
0.018466
-0.015886
-0.016219
0.017468
0.017891
-0.015373
-0.015722
0.016960
0.017364
-0.014834
-0.015234
-0.014916
0.016389
0.016787
-0.014419
-0.014429
0.015842
0.016203
-0.013763
-0.013939
0.015281
0.015600
-0.013277
-0.013406
0.014682
0.015014
-0.012758
-0.012866
0.014122
0.014428
-0.012242
-0.012342
0.013570
0.013859
-0.011766
-0.011850
0.012982
0.013262
-0.011252
-0.011351
0.012417
0.012692
-0.010771
-0.010823
0.011848
0.012111
-0.010243
-0.010346
0.011285
0.011545
-0.009795
-0.009836
0.010705
0.010985
0.010611
-0.009303
-0.009338
0.010181
0.010093
-0.008804
-0.008843
0.009542
0.009541
-0.008334
-0.008388
0.009012
0.009024
-0.007897
-0.007934
0.008486
0.008523
-0.007471
-0.007459
0.008006
0.008013
-0.006995
-0.007037
0.007522
0.007539
-0.006577
-0.006615
0.007049
0.007052
-0.006148
-0.006198
0.006583
0.006566
-0.005755
-0.005771
0.006145
0.006123
-0.005367
-0.005361
0.005707
0.005731
-0.005009
-0.005002
0.005303
0.005301
-0.004626
-0.004654
0.004937
0.004910
-0.004289
-0.004289
0.004550
0.004542
-0.003937
-0.003972
0.004174
0.004187
-0.003576
-0.003626
-0.003408
0.003843
0.003819
-0.003305
-0.003149
0.003484
0.003485
-0.002943
-0.002862
0.003199
0.003164
-0.002658
-0.002618
0.002920
0.002879
-0.002430
-0.002356
0.002639
0.002625
-0.002194
-0.002084
0.002370
0.002369
-0.001929
-0.001900
0.002123
0.002099
-0.001733
-0.001654
0.001881
0.001859
-0.001545
-0.001475
0.001648
0.001651
-0.001362
-0.001307
0.001470
0.001460
-0.001199
-0.001124
0.001284
0.001296
-0.001050
-0.001000
0.001092
0.001148
-0.000891
-0.000858
0.000935
0.001007
-0.000777
-0.000715
0.000783
0.000882
-0.000657
-0.000621
0.000672
0.000742
-0.000560
-0.000493
0.000563
0.000619
-0.000453
-0.000415
0.000447
0.000512
-0.000369
-0.000356
0.000344
0.000433
-0.000296
-0.000286
0.000307
0.000358
-0.000249
-0.000229
0.000235
0.000279
-0.000198
-0.000128
0.000174
0.000203
-0.000131
-0.000125
0.000115
0.000134
-0.000123
-0.000080
0.000069
0.000112
-0.000061
-0.000069
0.000048
0.000061
-0.000033
-0.000063
0.000036
0.000031
-0.000036
-0.000032
-0.000004
0.000008
-0.000019
-0.000022
-0.000010
0.000006
-0.000019
-0.000032
-0.000008
0.000003
0.000019
-0.000005
-0.000010
-0.000026
0.000009
-0.000003
-0.000012
-0.000013
-0.000011
-0.000033
-0.000021
-0.000036
-0.000019
-0.000028
-0.000036
-0.000026
-0.000033
SCALARS strain_2 float
LOOKUP_TABLE default
0.000453
0.000589
0.000632
0.000558
0.000620
0.000401
0.000645
0.000717
0.000841
0.001174
0.000941
0.001394
0.001281
0.001373
0.002006
0.001240
0.002731
0.001155
0.003556
0.000958
0.004602
0.000713
0.005864
0.000264
0.007295
-0.000315
0.009000
-0.000982
0.011130
-0.001927
0.013399
-0.002996
0.015819
-0.004324
0.018245
-0.005797
0.021197
-0.007669
0.024414
-0.010016
0.027836
0.031654
-0.012162
0.035590
-0.014725
0.039733
-0.017591
0.044314
-0.020871
0.048956
-0.024245
0.054038
-0.028147
0.059244
-0.032358
0.064714
-0.036758
0.070505
-0.041532
0.076214
-0.046640
0.082458
-0.051935
-0.057626
0.088859
-0.063410
0.095283
-0.069767
0.102161
-0.076383
0.109049
-0.082954
0.115968
-0.090196
0.123140
-0.097562
0.130460
-0.104966
0.137700
-0.112637
0.145119
-0.120678
0.152866
-0.128879
0.160532
-0.137149
0.167978
-0.145412
0.175431
-0.154130
0.183094
-0.162460
0.190609
0.197896
-0.171185
0.205377
-0.179704
0.212502
-0.188637
0.219737
-0.197321
0.226564
-0.206052
0.233457
-0.214419
0.240110
-0.222916
0.246355
-0.231364
0.252683
-0.239388
0.258143
-0.247590
0.264076
-0.255238
-0.262932
0.269398
-0.270283
0.274163
-0.277294
0.279041
-0.284076
0.283318
-0.290570
0.287408
-0.296362
0.290994
-0.301871
0.294381
-0.307386
0.297148
-0.312194
0.299401
-0.316504
0.301641
-0.320625
0.303175
-0.324146
0.304440
-0.327235
0.305421
-0.329728
0.305719
-0.331605
0.305688
-0.333288
0.305628
0.304436
-0.334225
0.303208
-0.334912
0.301628
-0.334834
0.299660
-0.334431
0.297053
-0.333757
0.294249
-0.332228
0.291223
-0.330353
0.287742
-0.328185
0.283833
-0.325312
0.279740
-0.322290
-0.318503
0.275213
-0.314318
0.270413
-0.309788
0.265662
-0.304973
0.260356
-0.299699
0.254785
-0.294427
0.249105
-0.288276
0.243149
-0.282104
0.237021
-0.275564
0.230779
-0.268701
0.224364
-0.261798
0.217635
-0.254528
0.211174
-0.247498
0.204414
-0.239858
0.197736
-0.232140
0.190836
-0.224378
0.184298
0.177338
-0.216492
0.170398
-0.208576
0.163572
-0.200675
0.156996
-0.192702
0.149969
-0.184958
0.143446
-0.176632
0.136948
-0.168790
0.130406
-0.160850
0.124023
-0.153390
0.117814
-0.145573
0.111754
-0.138133
0.105882
-0.130457
0.100161
-0.123240
0.094329
-0.116244
0.089019
-0.109314
0.083507
-0.102506
0.078354
-0.096138
0.073575
-0.089783
0.068672
-0.083572
0.063941
-0.077702
0.059584
-0.072087
0.055354
-0.066624
0.051246
-0.061211
0.047237
-0.056374
0.043593
-0.051413
0.039955
-0.046953
0.036649
-0.042825
0.033305
-0.038776
0.030561
-0.035022
0.027640
-0.031413
0.024906
-0.028001
0.022556
-0.024903
0.020284
-0.021978
0.017918
-0.019632
0.015999
-0.016985
0.014189
-0.014724
0.012546
-0.012548
0.010833
-0.010763
0.009249
-0.009194
0.007947
-0.007578
0.006770
-0.006128
0.005446
-0.005013
0.004650
-0.004011
0.003950
-0.003102
0.003115
-0.002400
0.002390
-0.001654
0.001801
-0.000998
0.001233
-0.000524
0.000980
-0.000121
0.000713
0.000050
0.000447
0.000252
0.000150
0.000199
0.000253
0.000487
-0.000016
0.000441
-0.000164
0.000429
0.000072
0.000459
-0.000070
0.000250
0.000144
0.000214
0.000072
0.000188
0.000510
0.000453
0.000415
0.000748
0.000290
0.001008
0.000815
0.001007
0.000953
0.001130
0.001654
0.001179
0.001992
0.001311
0.002880
0.000998
0.003825
0.000878
0.005049
0.000730
0.006191
0.000572
0.007639
-0.000216
0.009483
-0.000910
0.011522
-0.001898
0.013695
-0.002922
0.016323
-0.004221
0.018781
-0.005927
0.021846
-0.007737
0.025096
-0.009534
0.028516
-0.011849
0.032242
-0.014544
0.036241
-0.017403
0.040361
-0.020730
0.044820
-0.023993
0.049476
-0.027905
0.054494
-0.031592
0.059492
-0.035948
0.065034
-0.040576
0.070604
-0.045248
0.076377
-0.050734
0.082447
-0.056136
0.088548
-0.061872
0.095132
-0.067920
0.101454
-0.074215
0.108031
-0.080656
0.114805
-0.087492
0.121628
-0.094486
0.128633
-0.101560
0.135698
-0.108751
0.142887
-0.116309
0.149715
-0.124001
0.156964
-0.131626
0.164068
-0.139364
0.171168
-0.147350
0.177866
-0.155433
0.184939
-0.163215
0.191654
-0.171360
0.198311
-0.179327
0.204892
-0.186995
0.210977
-0.194912
0.217289
-0.202351
0.223156
-0.210232
0.228874
-0.217345
0.234545
-0.224398
0.239549
-0.231437
0.244366
-0.238083
0.248858
-0.244396
0.253233
-0.250616
0.257109
-0.256256
0.260790
-0.262083
0.264080
-0.266859
0.266891
-0.271654
0.269252
-0.276040
0.271440
-0.279665
0.273346
-0.283294
0.274769
-0.286397
0.275387
-0.288960
0.275985
-0.291283
0.276048
-0.292887
0.276016
-0.293917
0.275196
-0.294560
0.274094
-0.294951
0.272816
-0.294899
0.270852
-0.294172
0.268671
-0.293169
0.266170
-0.291655
0.263303
-0.289527
0.259965
-0.287046
0.256552
-0.284197
0.252561
-0.280688
0.248473
-0.277000
0.243849
-0.272986
0.239385
-0.268642
0.234415
-0.263802
0.229217
-0.258684
0.223573
-0.253322
0.218120
-0.247731
0.212399
-0.241545
0.206375
-0.235410
0.200499
-0.228926
0.194591
-0.222244
0.188340
-0.215607
0.182003
-0.208539
0.175748
-0.201613
0.169309
-0.194393
0.162813
-0.187191
0.156609
-0.180054
0.149989
-0.172600
0.143887
-0.165302
0.137554
-0.158041
0.131142
-0.150760
0.125063
-0.143385
0.119071
-0.136448
0.113175
-0.129280
0.107495
-0.122471
0.101697
-0.115590
0.095935
-0.108895
0.090572
-0.102579
0.085313
-0.096059
0.080257
-0.089798
0.074969
-0.083970
0.070237
-0.078166
0.065525
-0.072442
0.061011
-0.066870
0.056716
-0.061833
0.052663
-0.056972
0.048693
-0.052376
0.044725
-0.047652
0.041326
-0.043307
0.037911
-0.039638
0.034723
-0.035674
0.031546
-0.032060
0.028644
-0.028622
0.026042
-0.025683
0.023342
-0.022604
0.020978
-0.019919
0.018550
-0.017256
0.016536
-0.015070
0.014621
-0.012926
0.012636
-0.011104
0.011195
-0.009136
0.009748
-0.007730
0.008070
-0.006306
0.007113
-0.004913
0.005953
-0.003949
0.004831
-0.003077
0.004139
-0.002279
0.003456
-0.001307
0.002750
-0.000949
0.001997
-0.000387
0.001369
0.000074
0.001017
0.000303
0.000694
0.000429
0.000488
0.000419
0.000422
0.000594
0.000387
0.000704
0.000098
0.000567
-0.000124
0.000502
0.000152
0.000722
0.000071
0.000486
0.000165
0.000258
0.000420
0.000292
0.000555
0.000472
0.000602
0.000544
0.000430
0.000547
0.000496
0.000698
0.000460
0.000671
0.000787
0.000931
0.000654
0.000744
0.001065
0.001021
0.001144
0.000879
0.001073
0.001166
0.001324
0.001210
0.001723
0.001292
0.001442
0.001834
0.002385
0.001167
0.001114
0.002677
0.002970
0.001191
0.001231
0.003573
0.004180
0.000846
0.000781
0.004617
0.005287
0.000726
0.000624
0.005773
0.006617
0.000455
0.000277
0.007103
0.008030
0.000035
-0.000611
0.008737
0.009867
-0.000665
-0.001199
0.010588
0.011878
-0.001720
-0.002236
0.012829
0.014193
-0.002555
-0.003435
0.015079
0.016773
-0.003967
-0.004766
0.017799
0.019423
-0.005225
-0.006381
0.020672
0.022620
-0.007048
-0.008349
0.023784
0.025681
-0.008971
-0.010568
0.027363
0.029744
0.032599
-0.011297
-0.012846
0.031551
0.035299
-0.013776
-0.015868
0.035400
0.039726
-0.016481
-0.018591
0.039823
0.044132
-0.019611
-0.021912
0.044520
0.049102
-0.022883
-0.025641
0.049391
0.053977
-0.026654
-0.029510
0.054257
0.059132
-0.030513
-0.033579
0.059458
0.064834
-0.034861
-0.038120
0.064960
0.070548
-0.039389
-0.042919
0.070384
0.076264
-0.044143
-0.048101
0.076391
0.082383
-0.053866
-0.049664
-0.058575
0.082390
0.088607
-0.056147
-0.062937
0.088809
0.095198
-0.061844
-0.068823
0.095117
0.102184
-0.068243
-0.075469
0.101592
0.108551
-0.074672
-0.082079
0.108319
0.115539
-0.081516
-0.089073
0.115211
0.122897
-0.088279
-0.096396
0.122021
0.129982
-0.095288
-0.103885
0.129355
0.137174
-0.102634
-0.111354
0.136360
0.144555
-0.110108
-0.119111
0.143757
0.152030
-0.117615
-0.127321
0.151117
0.159359
-0.125666
-0.135101
0.158152
0.166698
-0.133407
-0.143526
0.165577
0.174174
-0.141471
-0.151844
0.172560
0.181900
-0.149719
-0.160026
0.180235
0.189253
0.195990
-0.157872
-0.168494
0.189274
0.200257
-0.165806
-0.176938
0.195206
0.207462
-0.174238
-0.185379
0.202757
0.214510
-0.182207
-0.193913
0.209623
0.221088
-0.190406
-0.202319
0.216196
0.227763
-0.198681
-0.210588
0.222446
0.234240
-0.206345
-0.218691
0.228635
0.240468
-0.214215
-0.226855
0.234663
0.246465
-0.222196
-0.234835
0.240135
0.252081
-0.229689
-0.242633
0.245690
0.257450
-0.236475
-0.249527
-0.257523
0.250738
0.262504
-0.246462
-0.261438
0.255599
0.267304
-0.251641
-0.268559
0.260241
0.271683
-0.259095
-0.274469
0.264451
0.275650
-0.264969
-0.280557
0.268205
0.279473
-0.270961
-0.286245
0.271648
0.282863
-0.276388
-0.291689
0.274758
0.285885
-0.281532
-0.296427
0.277593
0.288422
-0.286316
-0.301241
0.279972
0.290792
-0.290209
-0.305309
0.281898
0.292363
-0.294354
-0.308847
0.283625
0.293937
-0.297560
-0.311921
0.284703
0.295134
-0.300346
-0.314790
0.285508
0.295309
-0.302790
-0.317066
0.285842
0.295579
-0.304773
-0.318918
0.285707
0.296001
-0.306250
-0.320052
0.285058
0.295055
0.295657
-0.307068
-0.320895
0.285091
0.293276
-0.307752
-0.321236
0.282724
0.291466
-0.308045
-0.321096
0.281164
0.288990
-0.307454
-0.320388
0.278742
0.286494
-0.306477
-0.319336
0.276310
0.283914
-0.305231
-0.317840
0.273563
0.280492
-0.303274
-0.315502
0.270206
0.277188
-0.300926
-0.312977
0.266650
0.273318
-0.298174
-0.309986
0.262764
0.268975
-0.294174
-0.306618
-0.305623
0.258496
0.264487
-0.292922
-0.300320
0.254190
0.259980
-0.285788
-0.296052
0.249437
0.254778
-0.282271
-0.290821
0.244644
0.249444
-0.277043
-0.285637
0.239037
0.244043
-0.271964
-0.280033
0.233789
0.238341
-0.266333
-0.274202
0.228270
0.232517
-0.260553
-0.267977
0.222364
0.226623
-0.254457
-0.261621
0.216346
0.220168
-0.248275
-0.255033
0.210044
0.213979
-0.241723
-0.248147
0.204126
0.207510
-0.234916
-0.241215
0.197704
0.201024
-0.228132
-0.233862
0.191155
0.194532
-0.220900
-0.226388
0.184808
0.187741
-0.213599
-0.218878
0.178373
0.180908
-0.206525
-0.211477
0.171298
0.174397
0.170049
-0.199138
-0.203875
0.164889
0.163853
-0.191648
-0.196204
0.157050
0.157097
-0.183842
-0.188206
0.150269
0.150229
-0.176441
-0.180557
0.143778
0.143641
-0.168989
-0.172794
0.137508
0.137333
-0.161586
-0.165162
0.131179
0.130890
-0.154062
-0.157473
0.124849
0.124782
-0.146447
-0.149950
0.118667
0.118096
-0.139270
-0.142232
0.112817
0.112321
-0.131928
-0.134851
0.106930
0.106396
-0.124005
-0.127728
-0.122669
0.101221
0.100720
-0.117423
-0.116154
0.095551
0.094848
-0.109428
-0.109314
0.089876
0.089448
-0.102569
-0.102547
0.084510
0.084238
-0.096056
-0.096152
0.079692
0.079017
-0.089910
-0.089813
0.074312
0.074016
-0.083969
-0.083677
0.069656
0.069328
-0.077799
-0.077643
0.065060
0.064401
-0.072494
-0.072108
0.060493
0.060162
-0.066948
-0.066515
0.056407
0.055815
-0.061569
-0.061494
0.052176
0.051801
-0.056685
-0.056436
0.048191
0.047607
-0.051970
-0.051828
0.044594
0.044005
-0.047418
-0.047193
0.040805
0.040508
-0.043093
-0.042792
0.037153
0.037100
0.034733
-0.039328
-0.038973
0.033881
0.032086
-0.035383
-0.035163
0.030468
0.029315
-0.031809
-0.031519
0.027430
0.026331
-0.028428
-0.028204
0.024764
0.023443
-0.025482
-0.024998
0.022269
0.021267
-0.022248
-0.022211
0.019970
0.019023
-0.019713
-0.019579
0.017747
0.016891
-0.017176
-0.017010
0.015543
0.014798
-0.014803
-0.014790
0.014028
0.013013
-0.012785
-0.012602
0.012260
0.011469
-0.010837
-0.010827
0.010700
0.009704
-0.008893
-0.009397
0.009051
0.008660
-0.007450
-0.008086
0.007700
0.007268
-0.006037
-0.006669
0.006558
0.006017
-0.004725
-0.005390
0.005515
0.005064
-0.003616
-0.004350
0.004621
0.004184
-0.002741
-0.003215
0.003641
0.003382
-0.001959
-0.002548
0.002983
0.002633
-0.001310
-0.001899
0.002389
0.001914
-0.000548
-0.001104
0.001730
0.001782
-0.000451
-0.000679
0.001253
0.000972
-0.000037
-0.000149
0.000986
0.000798
0.000222
0.000064
0.000749
0.000407
0.000301
0.000321
0.000411
0.000095
0.000606
0.000295
0.000133
-0.000178
0.000517
0.000583
-0.000005
0.000114
0.000565
0.000510
0.000150
-0.000025
0.000569
0.000460
0.000134
-0.000035
0.000413
0.000401
0.000077
-0.000079
0.000468
0.000319
0.000107
0.000073
0.000409
0.000147
0.000108
0.000392
0.000116
0.000375
0.000079
SCALARS strain_3 float
LOOKUP_TABLE default
-0.000028
-0.000165
-0.000376
-0.000173
-0.000157
-0.000229
-0.000921
-0.000428
-0.000947
-0.001165
-0.000806
-0.001210
-0.001463
-0.001182
-0.002099
-0.001539
-0.003554
-0.001158
-0.004504
-0.000808
-0.006313
-0.000918
-0.007972
-0.000228
-0.010015
0.000801
-0.013097
0.001833
-0.015752
0.003555
-0.018795
0.005081
-0.022415
0.007134
-0.026071
0.009674
-0.030323
0.012166
-0.034905
0.016062
-0.040187
-0.045501
0.019038
-0.051182
0.022862
-0.057282
0.027474
-0.063813
0.032420
-0.070800
0.037578
-0.078277
0.043561
-0.085576
0.049559
-0.093474
0.056420
-0.101702
0.063533
-0.110148
0.070740
-0.118808
0.079187
0.087798
-0.128147
0.096330
-0.137408
0.106002
-0.147225
0.115411
-0.156728
0.126049
-0.166861
0.136345
-0.177073
0.147090
-0.187246
0.158775
-0.197291
0.169720
-0.207776
0.181778
-0.218729
0.193558
-0.229012
0.206001
-0.239375
0.218263
-0.249741
0.230664
-0.260142
0.243484
-0.270380
-0.280281
0.256141
-0.290697
0.268758
-0.300443
0.280752
-0.310052
0.293872
-0.318839
0.306617
-0.328216
0.319088
-0.336640
0.330684
-0.344917
0.342833
-0.352874
0.354784
-0.360089
0.365797
-0.367626
0.377075
0.387853
-0.374076
0.397739
-0.379783
0.407681
-0.385829
0.417158
-0.390950
0.426101
-0.395810
0.434042
-0.399479
0.441767
-0.403259
0.448627
-0.406120
0.455053
-0.408629
0.460910
-0.410205
0.465725
-0.412163
0.470389
-0.412398
0.474054
-0.412751
0.477168
-0.411798
0.479122
-0.410622
0.480734
-0.409241
-0.406904
0.481219
-0.404204
0.481685
-0.401029
0.480955
-0.397346
0.479217
-0.392891
0.477364
-0.387912
0.474366
-0.382589
0.471337
-0.376917
0.466823
-0.370737
0.462084
-0.364370
0.456675
0.450486
-0.357714
0.444121
-0.350287
0.436805
-0.342745
0.429144
-0.334964
0.420605
-0.327059
0.412433
-0.318408
0.403008
-0.309843
0.393320
-0.301123
0.384002
-0.292304
0.373512
-0.282970
0.363179
-0.274123
0.352678
-0.264819
0.341467
-0.255784
0.330426
-0.246040
0.318923
-0.236851
0.307748
-0.227767
-0.218497
0.295884
-0.209637
0.285003
-0.200239
0.273519
-0.191430
0.262038
-0.182439
0.250450
-0.173789
0.239200
-0.165324
0.227623
-0.156912
0.216157
-0.148535
0.205209
-0.141054
0.194737
-0.133481
0.184112
-0.125583
0.173706
-0.118224
0.163462
-0.111687
0.153824
-0.104479
0.144146
-0.097915
0.134867
-0.091484
0.125867
-0.085481
0.117296
-0.079957
0.108859
-0.073852
0.100654
-0.069140
0.093141
-0.063791
0.085744
-0.058602
0.078773
-0.054080
0.072029
-0.049835
0.065921
-0.045614
0.059871
-0.041687
0.053937
-0.038015
0.049023
-0.034622
0.044155
-0.031346
0.039171
-0.027899
0.034647
-0.025174
0.031006
-0.022462
0.027403
-0.020132
0.024020
-0.017969
0.020758
-0.015790
0.017951
-0.013592
0.015513
-0.011877
0.013064
-0.009909
0.011030
-0.008313
0.008998
-0.007314
0.007659
-0.005676
0.005929
-0.004962
0.004613
-0.003920
0.003889
-0.003302
0.002880
-0.002282
0.001950
-0.001479
0.001424
-0.001176
0.000844
-0.000686
0.000837
-0.000260
0.000005
0.000308
-0.000183
0.000343
-0.000144
0.000446
-0.000391
0.000526
-0.000119
0.000514
-0.000246
0.000617
-0.000362
0.000434
-0.000091
0.000718
-0.000048
0.000673
0.000112
0.000235
-0.000495
0.000046
-0.000631
-0.000047
-0.000760
-0.000172
-0.000892
-0.000935
-0.001014
-0.001686
-0.001322
-0.002564
-0.001196
-0.003304
-0.001253
-0.004773
-0.001106
-0.006844
-0.000487
-0.008630
0.000285
-0.010906
0.000636
-0.012946
0.002159
-0.016045
0.003633
-0.019122
0.005186
-0.023042
0.007194
-0.027138
0.009499
-0.031099
0.012207
-0.036053
0.015204
-0.040819
0.018867
-0.046034
0.022884
-0.052165
0.027082
-0.058247
0.031761
-0.064570
0.036751
-0.071095
0.042515
-0.078637
0.048546
-0.086042
0.055261
-0.093853
0.062069
-0.101743
0.069600
-0.110103
0.077101
-0.118884
0.085261
-0.127086
0.093746
-0.136635
0.102718
-0.145517
0.112209
-0.155138
0.121775
-0.164590
0.132059
-0.174122
0.142336
-0.184074
0.152789
-0.193640
0.163563
-0.203704
0.174504
-0.213305
0.185901
-0.222871
0.196939
-0.232768
0.208818
-0.242584
0.219788
-0.252079
0.231412
-0.261213
0.243283
-0.270387
0.254612
-0.279151
0.266270
-0.288034
0.277561
-0.296357
0.288558
-0.304242
0.299327
-0.311804
0.310206
-0.319585
0.320882
-0.326437
0.330747
-0.333087
0.340586
-0.338917
0.350070
-0.344689
0.359088
-0.349750
0.367427
-0.354450
0.374901
-0.358575
0.382593
-0.362336
0.389568
-0.365295
0.395743
-0.368019
0.401772
-0.369754
0.406871
-0.371821
0.411227
-0.372640
0.414678
-0.372790
0.418139
-0.372323
0.420454
-0.371446
0.422297
-0.370412
0.423283
-0.368705
0.423429
-0.365663
0.423097
-0.363030
0.422210
-0.359439
0.420427
-0.355638
0.418093
-0.351361
0.415053
-0.346352
0.411580
-0.341371
0.407630
-0.335893
0.402572
-0.329750
0.397001
-0.323503
0.391012
-0.316337
0.384937
-0.309173
0.377315
-0.302218
0.370209
-0.294620
0.361926
-0.286418
0.353869
-0.278718
0.344980
-0.270685
0.336117
-0.262250
0.326477
-0.253782
0.317113
-0.245041
0.307295
-0.236840
0.297090
-0.227763
0.287245
-0.219319
0.276756
-0.210975
0.266026
-0.201887
0.255649
-0.193648
0.245002
-0.184883
0.234414
-0.176773
0.223883
-0.168588
0.213839
-0.160328
0.203192
-0.152423
0.193267
-0.144244
0.182541
-0.136775
0.172962
-0.129172
0.163360
-0.122275
0.153541
-0.114784
0.144512
-0.108126
0.135624
-0.101419
0.126590
-0.095184
0.118137
-0.088687
0.110010
-0.082738
0.101538
-0.077539
0.094475
-0.071813
0.087085
-0.066904
0.080094
-0.061603
0.073613
-0.056490
0.067085
-0.052457
0.060890
-0.047472
0.055323
-0.043598
0.049848
-0.039727
0.044973
-0.036203
0.040306
-0.032655
0.036201
-0.029738
0.031963
-0.026170
0.027904
-0.023782
0.024546
-0.021045
0.021334
-0.018635
0.018572
-0.016528
0.015772
-0.014401
0.013631
-0.012349
0.011412
-0.010609
0.009321
-0.009110
0.007705
-0.007672
0.005971
-0.006289
0.004473
-0.004891
0.003669
-0.004370
0.002406
-0.003292
0.002100
-0.002333
0.001059
-0.001848
0.000616
-0.001119
-0.000025
-0.000707
-0.000283
-0.000585
-0.000158
-0.000041
-0.000385
0.000098
-0.000571
0.000202
-0.000606
0.000332
-0.000401
0.000592
-0.000381
0.000471
-0.000337
0.000275
-0.000113
0.000174
0.000355
0.000229
-0.000063
-0.000093
0.000022
-0.000279
0.000067
0.000154
0.000003
-0.000078
-0.000373
-0.000105
-0.000465
-0.000566
-0.000576
-0.000219
-0.000825
-0.001044
-0.000809
-0.001306
-0.000883
-0.000797
-0.001061
-0.001434
-0.001097
-0.001712
-0.001099
-0.001268
-0.001874
-0.002782
-0.001555
-0.000950
-0.003303
-0.003975
-0.000924
-0.001099
-0.004054
-0.005161
-0.001025
-0.001078
-0.005907
-0.006984
-0.000639
-0.000589
-0.007447
-0.008872
-0.000032
0.000326
-0.009562
-0.011193
0.000678
0.001289
-0.012295
-0.013621
0.001536
0.002334
-0.014975
-0.016653
0.002983
0.004011
-0.017675
-0.020096
0.004572
0.005981
-0.021336
-0.023870
0.006592
0.007680
-0.025366
-0.027538
0.008562
0.010342
-0.028975
-0.032154
0.011543
0.013294
-0.033946
-0.037193
0.014453
0.016691
-0.039216
-0.042542
-0.046985
0.017671
0.020580
-0.045463
-0.051045
0.021265
0.024527
-0.050916
-0.057238
0.025818
0.029157
-0.057370
-0.063815
0.029947
0.033946
-0.064441
-0.070685
0.035440
0.039487
-0.071309
-0.077793
0.040957
0.045073
-0.077931
-0.085698
0.047318
0.051252
-0.085481
-0.093519
0.053094
0.058574
-0.093564
-0.101765
0.060042
0.065483
-0.101350
-0.109928
0.067671
0.073339
-0.110299
-0.119035
0.081983
0.075474
0.089365
-0.118633
-0.127947
0.084997
0.095233
-0.127612
-0.137303
0.093776
0.104467
-0.136931
-0.146392
0.103130
0.114630
-0.145910
-0.156237
0.112997
0.124315
-0.155517
-0.166214
0.123177
0.134974
-0.165528
-0.175916
0.133314
0.145360
-0.175302
-0.186105
0.143611
0.156377
-0.185277
-0.196276
0.154124
0.167394
-0.195301
-0.206635
0.165418
0.179167
-0.205010
-0.216704
0.176736
0.190961
-0.215044
-0.227062
0.188119
0.202911
-0.225175
-0.237456
0.199804
0.214957
-0.235403
-0.247833
0.211742
0.227315
-0.244971
-0.258018
0.223225
0.239366
-0.255622
-0.268263
-0.277339
0.235349
0.251835
-0.267282
-0.283065
0.247398
0.263888
-0.275961
-0.292686
0.259442
0.276334
-0.285917
-0.302125
0.270913
0.288274
-0.295032
-0.310897
0.282883
0.300400
-0.303483
-0.319918
0.294812
0.312487
-0.311716
-0.328275
0.306047
0.323797
-0.320091
-0.336133
0.317206
0.335279
-0.327570
-0.343778
0.328149
0.346854
-0.334841
-0.350994
0.338881
0.357936
-0.342172
-0.357789
0.348792
0.367802
0.379496
-0.348256
-0.363983
0.362822
0.384612
-0.354471
-0.369716
0.370137
0.394352
-0.359977
-0.375115
0.380120
0.402436
-0.365201
-0.380530
0.388407
0.410484
-0.369086
-0.384387
0.396427
0.418637
-0.373051
-0.388204
0.403660
0.425939
-0.376658
-0.391159
0.410513
0.432341
-0.379433
-0.393982
0.416973
0.438795
-0.381651
-0.396246
0.422465
0.443962
-0.383805
-0.397574
0.427254
0.448131
-0.385154
-0.398551
0.431603
0.452193
-0.385444
-0.398716
0.434797
0.456087
-0.385575
-0.398541
0.437831
0.458178
-0.384917
-0.397856
0.439977
0.459812
-0.383748
-0.397065
0.441784
0.461092
-0.381762
-0.394720
-0.394593
0.441783
0.461244
-0.380714
-0.390801
0.441874
0.461140
-0.376719
-0.387406
0.441760
0.460186
-0.373126
-0.382928
0.440242
0.458801
-0.369255
-0.378473
0.438019
0.455840
-0.365336
-0.373996
0.435397
0.453053
-0.360181
-0.368502
0.432140
0.449100
-0.354874
-0.363312
0.427753
0.444780
-0.349409
-0.356815
0.422727
0.439796
-0.343077
-0.350193
0.416905
0.434044
0.431983
-0.336439
-0.343761
0.413706
0.423856
-0.329678
-0.336381
0.403057
0.417171
-0.322391
-0.328792
0.397146
0.408646
-0.315408
-0.321347
0.388940
0.400834
-0.307441
-0.312836
0.381267
0.392167
-0.299978
-0.304852
0.372573
0.383078
-0.291318
-0.296367
0.363841
0.373864
-0.283350
-0.287613
0.354574
0.364086
-0.274848
-0.279083
0.345104
0.353765
-0.266263
-0.270024
0.335186
0.343903
-0.257713
-0.260940
0.325228
0.333271
-0.248736
-0.252117
0.314840
0.322555
-0.239782
-0.242964
0.304210
0.311252
-0.230714
-0.234027
0.293953
0.300587
-0.221806
-0.224714
0.282909
0.289265
-0.212259
-0.215770
-0.210114
0.272434
0.278071
-0.204117
-0.201711
0.261202
0.267088
-0.193278
-0.192650
0.250531
0.255922
-0.184661
-0.183680
0.239765
0.244802
-0.175840
-0.174892
0.228906
0.233510
-0.167496
-0.166505
0.218135
0.222637
-0.159383
-0.158573
0.207366
0.212070
-0.151417
-0.150073
0.197089
0.201082
-0.143579
-0.142133
0.186275
0.190553
-0.135701
-0.134649
0.176303
0.180192
-0.128372
-0.127031
0.165256
0.169431
0.162946
-0.120958
-0.120024
0.156242
0.154080
-0.113831
-0.112512
0.144908
0.144624
-0.106812
-0.105664
0.135497
0.135354
-0.100511
-0.099068
0.126425
0.126306
-0.094186
-0.092690
0.117764
0.117554
-0.087783
-0.086841
0.109357
0.108954
-0.081892
-0.080800
0.101473
0.101186
-0.076304
-0.075377
0.094078
0.093357
-0.070903
-0.070027
0.086579
0.086059
-0.065483
-0.064813
0.079366
0.079235
-0.060582
-0.060085
0.073086
0.072599
-0.056082
-0.054875
0.066775
0.066831
-0.051431
-0.050672
0.061014
0.060190
-0.046648
-0.046435
0.055363
0.054384
-0.042812
-0.042012
-0.039607
0.049767
0.049155
-0.038731
-0.036144
0.044432
0.044168
-0.034976
-0.032689
0.040046
0.039625
-0.031191
-0.029761
0.035509
0.035190
-0.028002
-0.026912
0.031605
0.031229
-0.025013
-0.023514
0.028066
0.027421
-0.022546
-0.021063
0.024302
0.024490
-0.020051
-0.018712
0.021088
0.020801
-0.017578
-0.016526
0.018482
0.018145
-0.015408
-0.014554
0.015537
0.015043
-0.013424
-0.012638
0.013198
0.012982
-0.011608
-0.010968
0.010813
0.011499
-0.009950
-0.009460
0.008721
0.009728
-0.008199
-0.007983
0.007038
0.008189
-0.007062
-0.006428
0.005507
0.006696
-0.005914
-0.005244
0.004417
0.005210
-0.004729
-0.004121
0.003147
0.003782
-0.003723
-0.003348
0.002372
0.003060
-0.002646
-0.002213
0.001378
0.002092
-0.002390
-0.001818
0.000822
0.001506
-0.001608
-0.001332
0.000296
0.000918
-0.000940
-0.000865
-0.000198
0.000141
-0.000589
-0.000100
-0.000482
-0.000040
-0.000359
-0.000293
-0.000318
-0.000178
0.000401
0.000497
-0.000308
-0.000037
0.000156
0.000070
-0.000129
-0.000117
0.000437
0.000189
-0.000518
-0.000493
0.000292
0.000423
-0.000238
-0.000591
0.000409
0.000802
-0.000356
-0.000273
0.000435
0.000213
-0.000019
-0.000203
0.000604
0.000206
0.000059
0.000481
0.000117
0.000067
0.000017
0.000264
0.000066
SCALARS stress_1 float
LOOKUP_TABLE default
1691.352379
-1645.843744
-1074.026057
-232.084129
-1013.250983
237.269615
-2135.927592
1031.815266
131.044171
984.660881
-1208.447175
630.790936
1073.720800
-760.572516
329.219136
-405.325992
417.051259
-3078.839605
-770.416148
-672.116779
1108.823769
-964.057458
1341.269294
-1358.294957
-755.072719
386.533982
-266.070670
-961.570638
363.278868
-9.245560
1062.581087
-365.889014
184.604331
1099.363973
785.348599
1890.513399
1315.920799
2499.787498
2611.220874
3738.923065
733.220703
1220.820231
4823.151758
3971.624652
5918.971865
3196.637392
7541.981728
3012.225135
8078.416431
4784.394732
9326.774260
5079.747952
11430.390355
8095.419823
10048.026208
6682.413770
14030.020381
9202.334987
13583.501053
10037.051872
15554.440102
11123.436248
16394.332390
19019.648083
12685.488116
20403.383756
12932.079298
21992.244659
15591.313277
24292.992283
16478.560162
26827.965192
18905.819954
27276.291563
19617.334588
27139.943275
22061.837432
29398.518672
23908.566997
30550.252835
26031.024995
31833.644053
27120.318333
34560.027464
30042.682094
37771.638152
31543.617990
36663.444571
34562.966299
36279.709924
33725.495363
38971.872831
35440.042034
38505.243052
38019.933293
40884.066871
40646.493079
41149.018629
42350.417159
43944.568492
41188.542387
46057.719886
42552.868763
45271.178061
40548.233137
45217.711359
41019.002195
47778.156631
42042.275994
45783.150618
41830.524698
48091.661774
41247.851791
47746.797005
38158.887160
41036.571138
45838.791394
41835.035329
46969.146654
39342.749898
44797.703063
38164.814901
44910.695704
37462.835531
42906.096455
36324.043448
41591.171947
35702.043844
39512.364224
36284.171858
36813.673288
33014.427491
33927.202619
33090.782622
32268.322328
30974.337306
26719.370979
31421.561710
23344.348572
30012.089149
19921.593673
27714.859955
16432.974678
29423.639046
10184.096782
28107.366754
6779.430151
1601.576553
28968.174681
-3104.328983
26506.532994
-9425.346125
25884.046887
-15029.841558
27815.684813
-20905.345116
25293.446773
-26002.251604
27401.173043
-32995.460968
28263.963679
-37975.734698
29279.057191
-43137.972738
27643.553633
-50838.334812
27863.058200
30422.041058
-55492.820919
31620.135522
-61266.462606
30778.281924
-65781.654679
34445.615293
-71465.926971
35652.737397
-80125.147880
37124.118402
-84102.377074
37829.363503
-89527.849635
39542.341096
-92328.625231
39545.389747
-95933.070547
44030.509456
-102256.715416
44328.038787
-105334.459783
47517.347851
-109232.331769
49854.540128
-113518.331373
51211.615620
-115217.123456
51943.016371
-118319.102826
55768.009012
-118697.037823
-122085.323254
56956.565421
-125014.859063
58518.920681
-122345.175085
60514.915070
-123338.139716
60986.050301
-123552.812623
64062.561457
-124180.563919
65075.555444
-122965.290120
67156.000716
-121374.521062
67742.534014
-119427.156688
70267.992189
-118990.830312
68541.143583
-116408.705084
69864.693446
-113840.781004
72529.645204
-110222.221218
71020.469023
-106694.160756
71621.670041
-103857.997849
73272.216712
-99553.732496
70050.745776
-96629.926077
71374.094085
-92218.315389
69595.029981
-89379.931978
68485.393742
-84512.540760
69078.687080
-81392.806597
67217.145078
-76878.231200
67943.874643
-72502.579488
64996.377487
-66550.253117
63403.892121
-63647.280208
60151.151913
-59842.532584
61470.398798
-55181.671681
56545.632777
-51333.936008
56344.223959
-46452.620315
53874.275827
-43644.728027
50800.660203
-38761.788978
46595.377088
-35752.308306
43963.298305
-32234.314133
41766.292252
-27792.678280
39837.964123
-27465.062185
37909.317343
-22520.704356
35473.486940
-20448.269653
34121.074683
-18809.259790
30962.087423
-16433.439683
26000.891844
-13541.210990
25992.491372
-12494.075423
22770.491201
-10252.801324
20225.791276
-8949.651898
17268.363476
-7164.398911
17885.107744
-5233.042365
13519.130988
-4312.717287
12730.433207
-5052.821907
9743.782745
-3163.992968
8504.784794
-3302.230467
7112.442781
-2474.171146
6416.888306
-3923.448320
3832.128223
-2772.961933
3988.660816
-2449.715409
2860.492939
-401.078861
1763.991275
-2674.948806
926.159250
-1741.332096
525.896809
-898.360333
-1351.557540
-165.036942
-1186.203796
-648.261868
90.359696
-1561.154704
803.047080
-1977.750775
50.147655
947.371470
-755.441961
-1368.286256
-914.960279
-1465.824009
-225.438844
-284.003281
-2876.746054
-553.689043
-3725.020362
458.987101
-1165.895083
1338.163605
59.494755
239.473784
-3224.117476
344.786036
276.264796
800.473897
-20.493454
1090.170681
-245.292171
2773.246500
1032.366932
2938.469696
1357.217225
251.445462
1702.255283
2449.675512
2656.581161
2544.163271
2528.561546
3966.278849
4089.794780
2385.157275
3454.412464
4226.403742
4287.881341
5634.786592
5670.934780
6784.277704
6814.437753
7382.510394
8335.123632
9023.858198
9747.857389
10554.189513
10977.109191
11244.874451
13594.373898
12451.649806
15517.623390
11841.519006
14126.352530
14317.852159
17633.031483
15826.254462
19042.656824
15784.227625
19321.933803
18043.508446
20577.623911
19903.100349
23664.432397
21068.608529
24323.355837
24369.901383
26032.995998
26066.085819
25474.086251
27304.795151
28173.228365
30045.502971
28987.155710
31259.946074
31725.335027
34555.494573
31889.634713
36023.885262
31959.389909
38168.488252
33186.967299
36593.773711
34145.466939
41376.246775
35367.358995
41022.875899
36589.376838
42314.166222
36773.755552
45910.587908
37997.595191
45079.144385
37787.497524
46578.540901
40179.932718
46665.545800
38159.634143
51122.864329
38053.203568
46817.499916
39081.007677
48869.556042
38358.118407
47802.769501
39082.404154
48929.243776
38917.096577
48676.715663
38228.167555
49132.658752
36740.717143
46845.439731
35462.848822
44322.898875
36529.164362
46250.904583
35064.133929
42351.062049
34333.992605
39283.841439
35311.840447
37188.979550
33643.649334
33780.711464
32792.021034
31628.642375
32162.823945
27708.875764
32327.130002
25481.881799
31721.305890
19727.397275
32743.220008
14669.525673
31525.446003
10706.135391
32808.350560
7377.800077
31408.037161
2816.886416
32007.474259
-3707.367083
30472.267047
-8999.991966
32724.650611
-12843.383040
30737.095115
-18446.938536
34493.704041
-21794.554972
34993.079158
-29985.762184
33716.825659
-33962.325086
34835.911998
-37634.638485
35859.576684
-45743.733928
38488.186402
-50385.507933
38550.314800
-54195.593815
40091.830276
-60561.417927
40920.836311
-63341.111870
43705.069700
-68994.308959
44721.000611
-73589.937259
46128.732525
-75434.128372
48337.870636
-80392.280530
49078.650026
-83682.421854
51466.807492
-86587.452287
53042.813200
-87457.136747
55720.272344
-91295.005068
56009.053322
-94526.455480
58416.996412
-94831.384502
59988.468299
-97956.692079
60202.942574
-96512.406332
61296.156033
-97571.295602
64468.212159
-97775.491493
65122.847746
-99081.922068
65660.166275
-97598.220643
66915.171174
-95157.785449
68046.567690
-95527.883116
66479.124167
-93648.043477
67707.545853
-92903.664763
68358.836176
-90625.646920
69573.465300
-87515.754864
69875.938364
-85789.255224
68621.223823
-82753.677834
68237.826813
-80427.922638
68442.217502
-75863.622952
67289.766001
-71669.443635
67352.209104
-70167.516290
65372.916924
-68092.374176
63059.626256
-64091.283923
63507.810692
-60365.643762
59705.103546
-55114.720322
57702.611726
-52683.911836
57434.203629
-47572.221728
52989.484450
-45548.944749
53331.457613
-41579.319408
50023.859916
-39368.640455
48916.193069
-33895.911315
46082.062269
-31188.661823
43480.837624
-27035.397116
40363.522562
-26510.145314
37509.853877
-23769.411557
34159.201681
-21816.725678
33781.434371
-18657.222705
31986.925483
-16106.169266
29315.308333
-13976.700389
26228.554800
-12388.082705
24503.433226
-10570.849471
22533.548804
-9994.869086
20436.036563
-7328.543208
16538.266613
-6887.505150
15563.242379
-4658.654857
14144.465575
-4244.995754
12547.541394
-4613.794471
9445.238178
-2830.552721
8220.926039
-1506.170449
7638.238291
-2645.782680
4683.548470
-2700.392842
4986.724974
-1421.267563
4911.401118
-973.541871
1793.715356
-1240.849081
2047.536084
-1223.327646
2621.998331
1561.154036
242.340605
-652.435580
1167.462850
610.664995
803.555819
-1345.133221
262.885627
-121.655729
-289.603299
-954.474617
-792.083663
-1233.971230
-1884.409917
-2422.106296
-513.136676
-1052.436494
-423.190722
-645.197228
-572.926006
-182.257528
19.830831
-1618.663683
-1259.779064
-752.427486
1046.890530
236.614675
470.688465
-583.093101
583.763755
-16.238141
1.519558
118.737585
-835.223928
-809.534117
-1674.988716
-2088.602283
-877.212964
-1323.689805
-1014.900400
-809.396624
305.166758
1088.672232
-2398.599385
-1286.598118
1151.215405
494.981854
-1618.503659
-218.761293
166.807509
-35.409153
-798.177230
-677.927256
1511.463902
971.186221
-2273.898438
668.618963
1659.680243
-715.462410
-1436.144060
-1101.120087
1178.885911
1135.635076
314.315886
-369.230203
734.116753
1414.281039
859.125869
231.174061
1371.827721
2945.601504
1416.810386
935.504719
2101.218449
2167.215366
2650.056443
2348.455070
936.023183
1374.126051
1545.490982
2463.508823
2966.676002
2594.622733
2943.651244
4109.049235
2454.134847
2835.098145
3929.340145
3676.932754
4060.410407
3766.471321
4157.805057
4462.435566
7607.986350
4505.805029
5014.090559
5839.024653
7344.990398
5038.760887
5607.492531
6629.198302
9072.303377
4961.754351
7120.961181
6962.881154
9678.133683
6698.013968
7144.808308
10459.058629
10965.638332
7521.225072
7111.964207
12111.362927
12290.442670
8580.251122
8886.584937
13049.924217
13645.705227
9572.100961
9246.914981
13684.022113
15105.242062
10485.089733
11529.299755
13663.699871
16309.223732
11868.344498
12561.025723
19209.874168
15330.618771
17395.792247
13719.612171
13500.029794
18113.448606
21153.120514
15022.945726
14522.037929
18794.776179
21899.477236
17392.004128
17893.353722
21535.092912
22293.131896
17372.212617
18070.112756
21461.813693
26451.713187
21388.995391
20652.408716
24509.254539
27614.431098
21924.450517
22791.602072
25193.635319
26864.499922
23341.148057
22882.935954
28642.520442
29546.858956
25241.470548
26481.196389
27992.719355
31022.217034
27096.398712
28212.825423
29776.606709
31060.489795
28548.704477
30399.648914
32164.204094
32072.948168
32259.582378
31732.332440
32053.899144
33586.537906
31457.452076
34103.366003
32686.598656
36252.936693
35784.030211
33401.236340
33901.353294
35389.760159
35786.327379
36619.973005
37184.644378
36261.761512
38170.423086
38539.205409
40897.477552
35268.829592
37407.632298
40779.004803
39930.071465
38416.407221
39164.632297
42611.231723
42899.646424
36407.847433
40828.968471
44099.256535
41603.929898
38097.751997
39633.616124
44830.475324
44571.442561
37806.682292
39820.388846
46893.293890
46575.833820
38163.584785
42739.711717
46343.073981
45871.453074
39580.614498
41227.810099
47349.255332
48849.585354
38954.938564
39625.520845
50066.325396
48421.573367
39194.056145
39377.089155
49358.868655
48945.597388
36773.651460
39643.272935
48244.870690
48850.374219
36918.752476
39891.264169
39808.806179
49576.312702
49317.984956
38316.867593
39046.413267
48185.854212
47006.203915
38021.027320
39858.282461
46724.288021
46623.759766
37505.813191
39269.438119
46277.474320
45591.176051
38943.666531
38684.745932
46686.342849
42417.843035
36363.118533
36958.242624
42954.021543
40509.584105
35455.902727
35690.047211
42220.085644
37456.204886
33104.492623
36802.329531
39861.373438
37200.377091
34901.331623
33078.371350
37165.185091
33497.968797
33880.616970
33597.836255
31988.185466
30746.616508
32852.663090
30936.342823
30243.366436
28804.616646
32288.426170
30695.168438
27056.629540
23595.130526
32248.869247
32341.511618
24012.070052
20186.692524
32022.888679
29934.144688
19174.266958
16614.669483
30178.961803
29227.538532
15541.610365
11600.773742
32018.331828
29648.288783
12129.438761
6069.445438
2985.749954
30820.814892
28631.223612
5289.017413
-2551.670287
27561.511769
28787.520267
623.825100
-7687.672452
31249.456874
27743.947805
-5607.860802
-12050.843260
30169.899548
28918.473407
-9750.990106
-17792.588035
30013.433992
28473.495145
-14245.940250
-23625.554031
32294.234348
29542.041299
-21787.501163
-28483.162183
31309.820333
28333.359777
-27519.316994
-34478.407234
29702.175056
29582.499810
-30402.058739
-39860.951018
31918.208900
32138.877238
-36767.324740
-47865.762386
33632.157824
32998.892678
33013.305942
-44982.252176
-51208.330704
32479.914692
33630.431776
-49714.910991
-57898.561175
34484.496049
34249.602157
-53220.178424
-61784.677330
34857.267805
35984.819777
-57464.173810
-69227.598629
38411.983792
36061.306574
-63720.745711
-74108.615125
38415.131866
37755.631895
-68707.441646
-77655.193876
39123.302482
41560.030743
-72371.067079
-83827.243669
42633.847032
41421.320214
-77868.265601
-87929.272910
44929.756673
43129.391409
-82367.735612
-93165.213087
45884.953176
44206.619298
-86463.963131
-95061.117894
47076.524330
47368.430235
-88510.303850
-99651.318725
48248.012235
48423.722011
-94321.064627
-102464.102923
49201.446447
52830.268546
-96534.141263
-104829.912531
52523.725476
52689.707138
-99458.506834
-107905.396879
54631.610095
55018.098727
-99279.308636
-111932.597150
55607.937875
53924.941761
-101092.235344
-111839.707883
-113708.851055
57487.427766
58497.216962
-105999.798712
-112763.202142
61379.318277
59249.159412
-104562.396491
-114375.032144
61859.712889
63083.474361
-105229.411863
-114411.713096
63010.846685
62739.165235
-106272.657382
-115236.093244
64401.591490
64407.463692
-106741.226489
-113902.975982
65821.468851
67251.201166
-105399.844190
-113083.343066
65158.311080
65995.272185
-105082.100942
-112981.781846
67624.115707
69455.042557
-104511.822921
-110571.767030
68453.009236
68362.825991
-102896.942017
-108160.336616
67623.329195
69881.617153
-99595.404139
-105449.605636
69400.264225
68061.077236
71777.355451
-98623.597241
-105100.605637
69285.346241
70710.428359
-95457.888010
-102036.969934
68590.001806
69000.913293
-94179.251749
-99285.089030
71582.791212
71932.035841
-89751.641219
-95779.124402
69104.711259
70812.672369
-85583.133932
-92712.552190
67308.760437
69954.613444
-83534.089005
-87906.948751
68993.457268
68574.641111
-81981.032846
-84938.167666
66358.807486
68684.921226
-75850.395232
-82323.724349
65651.393026
65399.630160
-74111.781359
-76088.297762
65961.636493
67004.766401
-69572.380343
-72871.422437
64304.399596
64120.410727
-67028.572970
-68609.895157
62811.953105
60844.531751
-61214.436672
-63483.861942
61998.299174
61537.469549
-56227.681957
-61376.962242
59967.128790
58710.246587
-55948.698214
-56694.657460
57331.628284
58116.079068
-49929.769673
-52659.405414
-50903.947136
56114.071216
54718.048966
-44234.217850
-44869.104654
53222.874778
53899.771989
-42595.327073
-42823.544158
49200.010849
48612.861217
-38233.149510
-38481.854849
49414.109317
49252.518037
-35374.848316
-34359.372265
46599.038581
44264.610847
-32710.088108
-31210.816790
43056.356595
42321.882019
-27965.603613
-29783.986800
39397.602195
41543.018799
-25855.668151
-27994.501271
38362.223798
38431.737750
-23180.962117
-23826.988657
34657.837354
36173.451600
-21168.608987
-18990.654568
33392.953099
32244.857554
-16605.231801
-17837.124111
31353.497104
30267.637680
-17940.012824
-18241.843079
26714.043351
26972.735747
-13069.271503
-13232.106936
24510.485138
26364.721393
-11084.883087
-12472.030000
21105.604303
25001.251215
-9494.722825
-11022.444421
20806.828222
21691.269446
-9980.922318
-9238.534618
18418.987213
20228.984162
-6114.097037
-7868.322259
17983.547223
19237.396320
-8566.505486
-6576.326822
13703.230469
15469.602310
-5492.340209
-6214.085069
13509.122189
13631.638219
-5577.366123
-4256.160533
8649.462884
12035.792824
-4221.962180
-4284.134269
8074.189461
11499.529997
-3407.184462
-2331.012491
9570.831754
8267.984766
-3349.745709
-3258.956436
7744.663244
6168.558947
-2108.948318
-2329.417709
4122.138243
5685.453767
-1445.128304
-2074.385475
4126.144429
3119.107289
-1148.272682
-2268.975005
2442.894180
4048.961001
-2807.531614
-2401.067127
358.611747
1639.528006
-2672.347537
-2410.587676
1649.297128
2480.568124
-2946.312524
-1045.034949
-204.212824
2154.146279
-972.183902
-2531.513357
1276.615150
2135.265897
-568.677765
-2409.461693
-101.194255
889.341555
-801.186008
973.175923
-993.731228
-1660.559875
1491.770047
SCALARS stress_2 float
LOOKUP_TABLE default
7444.449323
32710.891202
14441.803642
18311.113053
36183.202011
24921.031540
46149.407724
31260.243108
46012.701213
47624.444960
49616.747759
81200.384535
104032.355388
77323.244905
123266.785563
76949.944018
167468.675801
82670.417546
245451.452913
55264.027974
320136.391930
55027.055733
409033.174094
14292.927633
531703.074439
-19073.567032
648394.347395
-86928.428262
788343.630479
-133022.866762
945814.160396
-228426.283343
1120869.402284
-330047.569953
1308709.356143
-431934.726592
1509511.577437
-568571.855914
1742787.785734
-710439.466781
1975582.644550
2251535.873454
-881601.024331
2522414.709152
-1063650.847322
2845359.789160
-1277982.974081
3154240.540289
-1524544.232228
3496650.237570
-1758880.940523
3858159.480194
-2021955.646155
4236189.160108
-2319762.159018
4614727.914828
-2646490.388787
5027334.981060
-2992664.718547
5456994.104372
-3350344.484781
5890965.667850
-3734904.643764
-4146174.850738
6359969.671493
-4562383.743220
6824898.498386
-5004683.804071
7312117.066477
-5469660.843189
7810395.440092
-5953744.770245
8306549.619231
-6460835.968326
8824610.051306
-6991249.773914
9340923.589937
-7532588.225338
9869996.045020
-8088894.150217
10387277.735313
-8665185.867311
10939154.216280
-9229721.923808
11485102.660299
-9826353.147331
12025469.386129
-10435991.511878
12574154.802854
-11034844.508588
13107734.375611
-11656197.766703
13644215.875970
14164662.514635
-12273363.286223
14700066.317607
-12910498.467957
15205514.241160
-13516192.203855
15721624.630051
-14139188.722348
16223426.121798
-14758560.023435
16712806.233536
-15386314.335549
17185092.430404
-15988038.231880
17646324.483969
-16578251.431994
18058237.604938
-17183791.591136
18493103.819310
-17750453.791358
18898108.682548
-18301504.096986
-18851897.818504
19268377.367032
-19368234.701481
19633376.191521
-19864808.401159
19967901.565097
-20352938.637107
20291398.660142
-20807834.172619
20576736.140169
-21250614.472833
20830095.151560
-21645544.301042
21057218.702587
-22016754.204438
21259194.793250
-22357396.183019
21438644.341498
-22684169.573270
21573905.411656
-22969866.094760
21719492.094052
-23201643.402730
21795980.388684
-23433690.923992
21846812.385880
-23626883.969028
21884539.831209
-23763675.710219
21870209.961375
-23884301.458049
21847961.121136
21786659.909683
-23966240.958085
21713679.218962
-23997931.865571
21588719.738490
-24006230.943800
21432408.041456
-23989138.166773
21267250.472618
-23910813.534489
21066774.268681
-23826668.637865
20844491.710077
-23694327.196469
20585468.606702
-23521235.400406
20306993.238985
-23312888.969244
20024374.016012
-23089680.666278
-22830256.146750
19707594.937783
-22525572.837471
19350016.030297
-22196858.048924
19000044.530261
-21854434.889163
18620730.782431
-21471324.758997
18212643.041241
-21096509.313668
17814585.996204
-20651181.316472
17387914.474942
-20215973.021839
16943657.166972
-19747378.339444
16501992.645482
-19251669.269286
16029811.255231
-18760027.721038
15555345.276650
-18246243.630375
15082183.373255
-17709360.079348
14621845.545045
-17174913.067957
14132665.244831
-16648935.587929
13646025.709319
-16081598.492885
13158279.473371
12660553.773693
-15514497.119308
12176984.890716
-14944250.294820
11695647.169198
-14387613.610336
11213972.863570
-13811536.747097
10727822.663349
-13236126.532726
10248490.504207
-12672661.411757
9782437.304092
-12086245.358192
9326505.407762
-11536007.161324
8873599.095648
-10961379.049586
8408275.794560
-10440185.557839
7972415.276068
-9897387.168948
7560321.540170
-9360835.245395
7151474.358435
-8832599.442423
6741028.838915
-8329816.803758
6357691.580801
-7841975.303399
5957878.584091
-7370155.730642
5603920.219543
-6891038.313916
5237688.996020
-6437455.588087
4892992.939523
-5978931.144067
4560861.222429
-5571438.663101
4245387.297550
-5163020.972808
3950512.846127
-4758236.517725
3645763.040538
-4406146.979093
3381039.842458
-4040342.547019
3099963.915401
-3707900.367880
2842602.876284
-3383189.994265
2616558.815432
-3054947.426174
2401693.922951
-2791490.599281
2178903.715977
-2511286.595638
1948263.556994
-2249667.032160
1770679.790759
-2020711.908848
1600057.461000
-1770408.842616
1436145.231230
-1595070.087896
1274978.718367
-1405712.407982
1137664.012735
-1215915.165358
999583.304441
-1062753.468077
870078.046293
-908496.716948
754113.919534
-785551.636940
659552.096543
-658160.801242
546310.538994
-537855.572338
470362.928126
-448740.713522
393565.798805
-386152.505225
314270.642165
-297030.283931
255721.355555
-222598.330072
205437.938974
-188343.088184
169711.500474
-116056.558267
122208.639244
-92203.275183
82506.144580
-48536.002226
37420.016479
-38378.101882
42751.044238
-5289.319717
18800.654666
7315.619300
11401.128194
24882.396411
-19820.172693
24860.286649
686.687677
24702.716824
-8041.372748
25422.324453
738.370999
40322.829104
-1190.335512
20614.040673
-5816.129799
21463.959159
1013.268570
-6453.377111
8811.722766
27858.840981
27374.227623
50413.507778
28355.043288
61535.172024
40708.488520
65278.023824
80810.282887
71450.089177
94238.236284
85931.622515
136717.240660
79633.094374
196607.041582
81015.931564
257429.168515
62451.242138
338018.194648
30301.879716
432877.865551
11523.206782
546382.883065
-42889.668612
671191.820380
-82368.466034
811562.741824
-150139.504242
969863.112533
-230623.929617
1144772.169213
-319458.379673
1341500.230622
-421498.573980
1559523.934276
-562555.085728
1770589.344503
-707317.953243
2033813.353249
-870578.922094
2306147.197221
-1066940.285039
2579014.341556
-1252919.188458
2859971.449770
-1480976.524297
3197549.095052
-1726765.438938
3528281.979245
-1999098.824326
3886801.847918
-2295118.335704
4264118.765398
-2575734.929347
4656984.222821
-2925039.941739
5053162.857704
-3264776.329154
5463824.734374
-3656405.746834
5891425.089536
-4038412.832295
6351862.241948
-4437774.068401
6783711.682748
-4872643.265047
7261714.049452
-5327756.905095
7726564.578764
-5801439.626063
8229151.016255
-6269464.828761
8718450.917387
-6771037.659568
9212978.855350
-7283275.519294
9704573.812419
-7807815.554320
10221027.279730
-8337052.057402
10728901.321610
-8891777.282974
11229555.429196
-9440249.778224
11750159.666816
-10002584.116342
12234052.379225
-10559124.016897
12743328.522700
-11136259.135132
13216308.123240
-11725450.617424
13710606.137119
-12293301.291396
14196376.909096
-12841530.876617
14659977.076686
-13398072.773896
15111358.157026
-13979524.638475
15567479.615253
-14507459.616735
15973332.968505
-15037203.109486
16381898.854298
-15591557.689917
16775190.190579
-16099790.414081
17150470.468485
-16583269.536410
17480664.605964
-17054346.522041
17813596.094153
-17518392.707457
18123631.915325
-17950567.812228
18418113.496292
-18375066.918407
18680221.246138
-18776303.426803
18897546.910432
-19124986.992659
19115297.725879
-19464072.443596
19285836.037236
-19765391.499183
19441369.335642
-20047243.495904
19564734.793474
-20313241.834569
19662611.647439
-20515314.769610
19715156.815485
-20700617.357080
19752044.642368
-20870256.170168
19765738.619226
-20980895.463305
19746507.664007
-21070511.973787
19691543.522279
-21124404.274803
19609013.456748
-21157807.448406
19525842.894223
-21123921.468595
19374361.644600
-21089603.098665
19218137.733880
-21011663.166237
19050666.398766
-20884555.326554
18830126.238449
-20740730.661667
18595938.170877
-20572730.572388
18340720.540807
-20351411.822011
18057742.520618
-20123862.384536
17765203.347015
-19854008.450067
17439375.045999
-19567980.591795
17108990.535517
-19258443.547014
16764623.242380
-18897165.570156
16387880.429292
-18526453.743273
16000465.841822
-18151220.575227
15577912.906781
-17727711.721262
15184490.568116
-17312826.263429
14767342.571395
-16881260.965024
14339239.515808
-16419394.653666
13916378.064871
-15936363.838220
13454030.499015
-15431038.173926
13007481.990619
-14948450.424080
12563398.884440
-14457744.843113
12094487.779669
-13927037.021940
11629033.594253
-13420793.533752
11177348.608622
-12897959.396273
10736621.486293
-12369207.118367
10268452.762129
-11850731.782086
9817138.181698
-11312181.896293
9391074.688948
-10819800.543041
8946147.710688
-10295647.084813
8504983.846108
-9763498.004473
8075033.948829
-9275193.836884
7666644.363609
-8779183.064907
7253161.689637
-8287317.051028
6852322.207344
-7810945.450488
6456243.089110
-7335845.307013
6083703.188554
-6893360.594603
5703384.850436
-6445972.356984
5353568.355186
-6003430.249398
4999803.129615
-5588612.207518
4661734.626532
-5205086.740207
4361898.591506
-4807507.783138
4050172.731780
-4441811.845175
3760375.900973
-4088255.944043
3476926.698275
-3746693.506552
3178795.977308
-3413938.977239
2960802.337259
-3112128.610536
2708013.140613
-2830103.169736
2485803.904507
-2569154.017324
2249780.819046
-2296689.662162
2031847.401366
-2057739.785492
1835471.013951
-1816697.150609
1666390.001560
-1649879.693186
1484717.407917
-1432562.775706
1311769.896538
-1246842.907033
1169356.511150
-1086862.022839
1051567.596510
-943140.377557
895126.260670
-790503.269344
795931.357251
-688644.125009
679697.994306
-563958.281037
575957.025455
-465598.272291
485658.157940
-369220.862064
417497.646193
-301149.158409
344129.451885
-219557.097000
281215.001829
-179048.040320
222234.576455
-115083.669611
162783.538246
-93560.748168
131240.740824
-37423.810852
94619.865430
-23950.793338
60097.192496
-4419.122436
28843.830074
8265.903697
19559.140648
16288.030630
1037.977838
23825.831552
14643.449697
39808.835928
-9915.016965
35380.789325
-27934.951612
38746.583692
-1792.099812
16476.028924
1521.564434
22896.844589
-1395.768769
15896.181011
15731.349446
26703.280444
27981.156174
16975.280993
29927.850864
35693.676289
19731.297704
40927.880397
25430.160453
40935.790850
16490.868557
30031.203061
57473.322106
51425.154293
35456.653316
44283.981901
47441.808353
68246.369447
59808.930080
48244.192240
74000.111055
58636.242431
89848.766021
76963.317006
102615.953357
72663.564089
80157.468405
107905.699402
156998.734867
70993.023348
75527.390892
171946.089051
205001.750381
86040.415897
78680.795705
236862.550280
275140.219716
80783.979065
48338.851680
307735.924381
364345.997643
46840.534942
40089.204606
401296.995602
455209.872322
34678.561311
5368.648183
502538.547303
560134.564686
-12065.029571
-43693.080005
617995.227312
693556.136642
-51687.945491
-94072.566943
757726.622502
848360.491808
-117580.924085
-175628.738684
915075.012784
1011173.530253
-212353.367324
-254060.058055
1079451.211957
1183971.272044
-285041.498438
-357397.178204
1258025.040864
1384139.503950
-397661.012163
-477319.795269
1471525.465416
1614295.307383
-509776.314215
-611530.446467
1698348.166335
1853218.486945
-653301.226114
-773439.765614
1952410.429055
2108498.717266
2319897.594608
-819852.748213
-940807.400337
2251793.754752
2514603.013059
-1000206.600079
-1142491.775777
2518699.328473
2837791.834231
-1191335.673660
-1336100.077131
2862161.787875
3167739.858834
-1401650.287714
-1570931.493326
3174006.943013
3500212.344891
-1658480.023706
-1825439.271865
3517344.476284
3870180.010763
-1918541.100095
-2118162.222995
3872419.611699
4245842.017541
-2203808.996211
-2412813.101078
4249297.144732
4630124.934502
-2500836.374224
-2750136.403783
4633622.071328
5036718.178177
-2834165.774044
-3086733.012656
5035467.267409
5459761.113925
-3195610.836414
-3447517.732133
5460746.297369
5917244.032975
-3852132.082989
-3569490.224140
-4208835.119980
5902973.132854
6358510.987326
-4034321.691891
-4499678.538631
6333417.241356
6807656.751255
-4441307.082263
-4934685.851296
6788558.515511
7293110.803571
-4899921.773132
-5403467.096021
7275867.640093
7777816.840535
-5371710.248505
-5895999.089085
7756962.199441
8275644.607564
-5844251.935841
-6403546.729345
8252838.753074
8771713.568935
-6331069.193721
-6902960.609751
8738520.494137
9304299.148434
-6842679.127656
-7443209.141223
9259902.552463
9809938.803091
-7338519.066208
-7980684.737066
9772234.587514
10347559.541180
-7889436.255015
-8544493.406732
10286580.133985
10876104.541472
-8446381.768543
-9118135.697931
10810191.962267
11404119.475300
-9006418.982614
-9693150.562716
11317840.966663
11933147.388376
-9580138.902625
-10282150.572228
11843678.629379
12468723.008728
-10129466.646082
-10876635.589064
12361113.283150
13000641.701653
-10718688.287282
-11485757.170861
12905147.355086
13551651.994489
14019859.221393
-11312734.827402
-12081022.350547
13528093.536204
14338432.788862
-11904400.585202
-12688547.256775
13985900.428896
14844238.776871
-12476427.215923
-13293938.053650
14514841.960778
15358513.931385
-13059692.120375
-13892721.440140
15001069.262542
15840144.491511
-13641453.669318
-14508895.427041
15451304.330371
16305616.645463
-14243944.134555
-15081429.205515
15929990.084874
16773013.200426
-14792654.491143
-15683935.823631
16375210.949328
17230199.974923
-15364332.624927
-16258091.953713
16786059.888114
17643189.933148
-15917182.742375
-16829737.942877
17190912.880798
18020286.491117
-16458351.891468
-17391410.782786
17592673.140961
18427832.119180
-16968556.224217
-17878055.335538
-18474776.259407
17963240.624191
18782504.065208
-17657466.835776
-18727572.864370
18296810.027435
19140504.957083
-18032044.501794
-19234764.023585
18620959.574569
19453891.526348
-18549505.710462
-19666067.111044
18929087.327714
19737707.401419
-18991140.348276
-20099878.118974
19196400.059315
20008031.099450
-19409622.604228
-20499697.542962
19451826.586496
20254123.338278
-19803134.636550
-20902437.626122
19675682.520608
20466947.223450
-20171507.942928
-21251000.740927
19875784.549820
20643346.577188
-20509859.550567
-21577789.830436
20039357.515426
20814357.837082
-20802654.731809
-21882792.719808
20177987.964616
20931596.717504
-21084642.847090
-22137549.598567
20300741.137797
21041872.114254
-21321729.503871
-22364323.555554
20371377.547076
21109895.966891
-21530403.034584
-22569550.378552
20431220.426952
21139629.064586
-21700167.789219
-22715714.716699
20458080.446481
21159975.378403
-21839445.283900
-22847876.432778
20454400.690773
21161611.640740
-21949252.030552
-22927099.078490
20402600.269849
21111821.394493
21161691.346973
-22021243.514744
-22981500.890066
20404902.202547
20984164.575635
-22060884.331903
-23018363.272844
20229174.519533
20856713.573682
-22075585.118719
-23012320.525334
20103029.945670
20692110.364470
-22031467.792331
-22949642.106096
19940605.315029
20503205.028468
-21978092.821040
-22880734.046360
19781006.491776
20318752.946089
-21868647.827513
-22771609.133707
19552213.529135
20076714.626257
-21747745.637014
-22605658.645772
19331663.137054
19836846.107572
-21563481.940791
-22425871.728872
19085345.285770
19540238.108089
-21365418.343000
-22220037.054595
18806374.901400
19225071.673434
-21085287.806673
-21958807.460630
-21907541.258046
18494627.051251
18917982.182603
-20986317.169085
-21524358.816830
18170960.956184
18590124.989640
-20484879.942485
-21216587.565669
17848635.874684
18239154.319273
-20221002.604844
-20837467.845107
17471501.185783
17859484.171169
-19863422.723079
-20466544.452939
17104926.288760
17454055.740647
-19503944.853280
-20089652.876267
16731583.536482
17049500.900276
-19092640.769152
-19649413.338686
16317829.699338
16632082.490645
-18663575.054804
-19216729.817504
15895296.291589
16201864.350007
-18236824.706185
-18736748.032991
15481721.071132
15747163.228686
-17786633.137961
-18264052.366703
15030059.990187
15306666.978941
-17318273.703165
-17783130.081345
14598047.770847
14851889.205667
-16830859.113090
-17281004.610305
14151893.728827
14382610.393134
-16351801.114652
-16757429.141866
13677161.906217
13901791.533069
-15820228.904883
-16226965.217118
13195310.219234
13424164.473324
-15313582.530032
-15695348.041015
12731604.142467
12938657.055517
-14805511.982177
-15162728.500273
12219755.845505
12474446.093591
12150779.387655
-14265183.194117
-14587968.935431
11791608.794520
11718597.159688
-13721802.355957
-14043208.174108
11223038.202356
11231635.929843
-13189836.549747
-13503838.699169
10740570.033925
10747057.893884
-12656624.603111
-12918607.873096
10292105.671435
10263368.455611
-12116666.132962
-12378331.161028
9816715.697139
9803955.917974
-11560109.675694
-11846497.149826
9371303.957237
9361116.633283
-11032013.705879
-11270754.478352
8925819.309421
8930957.232662
-10499436.684450
-10741391.832085
8478811.266941
8453121.125214
-9988355.851323
-10200065.251709
8054028.320063
8027305.990280
-9462654.216608
-9663860.171800
7625277.988800
7593987.956700
-8886957.468277
-9135444.594685
-8801833.179569
7217392.784889
7185631.050472
-8421356.036037
-8343929.732920
6820215.281521
6759464.698407
-7849857.698245
-7840143.772147
6425944.177663
6395078.443123
-7366023.062387
-7351035.791834
6038809.718294
6001233.356913
-6892758.736122
-6882923.859301
5674547.168996
5628943.488382
-6447557.060253
-6434352.715269
5301750.614343
5277755.173662
-6009010.948631
-6002675.900643
4972803.036611
4936905.269768
-5580453.622635
-5573491.229722
4645259.060988
4606156.907878
-5189847.184032
-5171586.664029
4330807.450769
4285729.618466
-4802867.284914
-4801559.184459
4020779.793993
3978447.624213
-4398031.134917
-4390774.851117
3715736.741516
3675541.259415
-4055418.713790
-4034894.205964
3437826.510999
3399061.927115
-3728174.868577
-3721713.733882
3156560.215021
3134055.571551
-3415665.436519
-3404970.397047
2897873.448720
2862847.891830
-3103999.330674
-3080838.435242
2652115.773255
2637612.016527
2456646.919331
-2819919.205774
-2809122.488304
2409230.838401
2264743.692332
-2547324.184555
-2509885.466750
2151272.165694
2070566.209868
-2292353.603502
-2270201.758406
1940802.596796
1854348.544607
-2043649.526941
-2026969.317849
1758689.567338
1671492.983680
-1805940.209303
-1806100.399509
1576439.745587
1499125.431072
-1613384.658862
-1605023.721777
1411398.313403
1337452.316328
-1418360.792389
-1408188.623494
1258045.837520
1185582.456702
-1264502.622700
-1237712.574537
1124744.931813
1054286.833123
-1064519.148312
-1071240.435595
982982.101442
910478.046338
-913057.030814
-925092.969163
853888.685766
801766.762710
-770031.598434
-777675.044494
743557.547858
693102.472365
-646569.286135
-698803.372684
639085.505887
598446.456087
-525940.753617
-589052.616961
535239.539253
516148.635173
-441250.633742
-487752.670861
470818.627353
422923.360131
-344267.195344
-402562.027692
394502.515758
337016.341078
-251270.409487
-312379.911252
323966.055211
289877.700398
-202301.313469
-255124.144957
257402.858927
236088.647478
-158737.078510
-184775.470016
209579.877430
201877.299963
-97905.582866
-138567.222395
167302.283099
122974.875655
-63665.295728
-94910.081972
111483.015660
103666.032503
-33136.165098
-81688.174709
76182.834187
50565.251869
-5592.535733
-34600.608660
50563.218345
38951.074153
-1755.986221
-601.913455
34835.221801
32677.258781
31894.125175
-5297.475714
5935.723350
10544.522614
22355.884560
22008.271010
-8874.963296
4596.610367
30351.486261
24955.086783
1833.022720
-15081.260807
29773.385794
27321.255431
-16236.334983
-6542.116704
24205.583160
-115.889772
-14538.053843
-781.006983
21159.849928
31571.888047
5694.744708
-8987.481361
18982.478855
19269.226404
-10645.616527
-3071.472480
17104.168909
-14266.741854
-10932.201818
8683.279786
2361.129990
32350.770618
-7146.313241
SCALARS stress_3 float
LOOKUP_TABLE default
-56487.222699
-33783.334455
-46915.085119
-8341.712315
-50843.318012
-31900.951469
-77025.523874
-57555.669193
-85784.255309
-106956.949050
-93945.865486
-108911.070931
-119495.753651
-150297.494419
-181306.781084
-124097.335382
-265861.511052
-103645.846353
-333374.127757
-98364.464066
-425929.757732
-98015.741123
-565327.119343
-30557.861725
-701427.339124
41253.553194
-873158.951241
101930.503634
-1092156.518960
208909.368661
-1263522.439785
312370.314038
-1528101.626946
474972.437199
-1790726.080445
619275.738144
-2061355.479416
800543.693370
-2357203.271259
980025.371210
-2692898.037675
-3051797.226062
1266821.684894
-3435451.233924
1502813.916057
-3850310.624527
1808728.793729
-4270349.582072
2122352.667874
-4731125.233092
2471998.820128
-5204121.411824
2861883.047850
-5724733.215700
3291421.564344
-6246227.207987
3708523.603706
-6779689.786187
4218759.195035
-7379568.416134
4698315.756628
-7954441.126931
5231941.133386
5801128.025239
-8547123.918576
6396710.995452
-9154962.820172
7005681.093921
-9819034.947586
7653374.533947
-10470549.048287
8320916.549627
-11121793.122276
9048341.170061
-11797065.946119
9768667.813545
-12464091.888220
10506495.209110
-13169135.161881
11279673.706721
-13865693.048733
12059428.588012
-14544141.227915
12854455.650344
-15245637.349460
13658605.243683
-15962526.695003
14502739.349592
-16653421.312080
15300104.899739
-17331550.113925
16159440.575617
-18014098.584807
-18668711.103794
16990954.377226
-19342477.689320
17814202.470330
-19995666.186288
18680003.952362
-20629695.894767
19515877.339050
-21231433.378024
20359326.630394
-21841407.586164
21173582.342124
-22415951.432418
21982558.290039
-22966298.401059
22764363.921535
-23481532.871152
23545163.936543
-24009960.861134
24312233.219193
-24438150.050140
25034604.516953
25754111.229683
-24903386.088207
26425936.823215
-25288446.256967
27109781.997482
-25670982.603959
27707660.199879
-26006264.779217
28291749.032903
-26331065.364445
28850445.409788
-26600155.991242
29348278.933029
-26798928.541380
29819353.399990
-27022167.014862
30234292.810669
-27197860.527555
30649956.583364
-27307649.826927
30951462.165471
-27393641.678883
31247022.256922
-27417244.083423
31515475.041915
-27452371.806451
31665341.920312
-27391744.313802
31832692.542146
-27326064.002978
31955936.307279
-27228398.174051
-27081558.661254
31988144.681542
-26894316.562022
31997914.364868
-26659846.476495
31925582.959752
-26439374.220471
31857052.447758
-26142095.094021
31739074.828886
-25829399.494649
31546222.055598
-25475817.974955
31288923.575291
-25082430.748243
31033619.174664
-24685336.367115
30709330.301114
-24253898.879109
30372874.557137
29932464.642665
-23780438.284225
29512538.741897
-23309548.600900
29022962.254693
-22802460.226636
28519156.083621
-22296944.461504
27952132.394445
-21746297.839669
27397015.887094
-21190030.961273
26794656.164066
-20609258.176279
26140589.759526
-20009762.084829
25484229.907570
-19427360.502721
24796584.608197
-18821296.730026
24133019.095504
-18232277.319347
23405844.622023
-17623346.852386
22680992.071884
-17001225.329145
21935677.445088
-16370080.952261
21183228.859859
-15763144.119236
20428106.684601
-15142673.916839
-14530956.742573
19642498.337610
-13919867.149040
18896734.168850
-13336360.436311
18156810.130783
-12746469.138551
17385324.941777
-12169159.855900
16606400.951795
-11589767.840893
15855198.481702
-11000026.209396
15105555.513061
-10483274.261482
14369091.666806
-9926042.549752
13651021.458666
-9392609.258407
12921859.975410
-8891327.871719
12179478.266931
-8394614.389687
11525009.769963
-7886054.296583
10832491.184436
-7420748.494974
10172438.665450
-6979524.819096
9544930.194568
-6518863.268949
8934833.392723
-6128361.163041
8326946.775645
-5711155.569702
7766793.430103
-5321504.507369
7178897.308558
-4948597.626078
6667873.129376
-4614587.128467
6172275.242523
-4239319.732902
5651551.968863
-3949969.089418
5188622.026762
-3606544.468984
4776197.202918
-3336186.453305
4336665.128930
-3062893.013278
3958623.028229
-2794786.914809
3557526.900814
-2541091.944596
3225143.999219
-2307137.052744
2907277.207574
-2081671.675986
2587956.496777
-1903555.114392
2279469.866829
-1696231.523063
2006935.288629
-1514329.483702
1775297.296343
-1359926.967208
1573597.492467
-1184698.739485
1342969.313735
-1067756.587232
1161489.662715
-930132.713086
980042.705170
-798553.835414
827647.314567
-699457.604251
709657.306705
-585525.290567
567206.118317
-506011.612727
473111.351901
-440199.657501
375727.560059
-347544.356557
276362.161088
-282734.233396
210601.707589
-236105.288018
162406.520428
-192870.422991
83008.599603
-136865.472551
57291.031884
-91678.057632
2295.419767
-72348.178234
-13676.800014
-31295.455291
-37170.161626
-8286.073004
-14781.791600
-1466.583975
-33910.408305
28893.575061
-38849.138274
11123.151574
-48308.165707
12881.029693
-69762.053871
12380.335952
-43240.250164
-11802.395483
-19550.967888
3359.398654
-38758.207042
-16632.834238
-17876.696658
-53224.205779
-61698.417664
-57432.129069
-67520.707938
-46585.667591
-83572.757880
-55974.102979
-109094.354189
-76634.882630
-110663.515300
-129616.219846
-130728.775380
-190537.212059
-128660.473730
-257269.325105
-99168.794550
-395338.219681
-100106.640407
-475505.711587
-66238.379705
-595035.266658
-25993.449175
-737410.195628
48023.248615
-901776.314296
110945.161062
-1103630.370130
197741.569799
-1309097.276360
331664.106425
-1564079.430491
440187.334207
-1792250.114155
600876.700542
-2109819.890620
774606.021228
-2418749.507352
1012470.025298
-2742850.061785
1221524.178584
-3094935.951421
1479183.744284
-3474476.089491
1782524.353996
-3896483.057700
2076765.105153
-4334182.671847
2409605.629352
-4786930.242666
2790777.024026
-5238325.235990
3208747.989105
-5742264.399289
3639914.369489
-6273050.664230
4091471.583474
-6785230.594080
4569319.475961
-7360284.936307
5092838.746879
-7912852.088414
5646207.959495
-8495309.332033
6207522.163704
-9093671.598834
6824005.572808
-9714773.452084
7409049.236700
-10330277.289284
8069263.718649
-10980102.576270
8749837.184418
-11617248.992177
9437477.265604
-12254942.352804
10124476.127974
-12893244.521489
10863461.403123
-13578714.429901
11587464.354250
-14207616.825506
12318709.515519
-14873294.639973
13083108.684293
-15515596.620770
13828799.676371
-16134982.067968
14614211.939151
-16765254.826465
15382374.172562
-17395904.914700
16133050.008203
-18002560.177572
16895481.796038
-18599055.915152
17658402.983464
-19166690.690706
18423385.736247
-19713801.454340
19176274.754315
-20272177.119286
19874401.669266
-20780778.635648
20621674.646866
-21255464.566694
21294679.502912
-21719712.028293
21982593.103099
-22168623.952113
22632823.981592
-22549837.454024
23253929.051624
-22934039.465695
23839983.731489
-23290635.850461
24388617.468587
-23598528.792526
24924993.147046
-23880202.339425
25407034.932633
-24116119.956994
25887979.525275
-24318328.042735
26310989.274938
-24485493.896718
26687709.629020
-24633008.450613
27011448.005816
-24705325.354453
27317696.571091
-24774075.005743
27576903.859010
-24812302.520350
27756390.735268
-24773491.198346
27915975.015663
-24739527.971400
28036473.234361
-24621057.955379
28090940.975422
-24509328.616120
28101692.054646
-24350644.369561
28110209.356164
-24161027.399902
28052122.861537
-23946037.920447
27954362.173264
-23666173.949632
27799257.641309
-23380905.884960
27586669.965603
-23075797.560667
27338242.030275
-22710390.092621
27060474.001090
-22348566.780894
26734599.480545
-21919997.275521
26396472.450203
-21516343.974004
25958932.696763
-21045176.894780
25558086.036022
-20583029.153718
25062604.052042
-20123906.935020
24594807.278989
-19591586.654625
24045330.600993
-19058755.778368
23505919.086385
-18555068.490448
22902321.435096
-17997235.925173
22323380.531255
-17445593.548377
21700729.977361
-16886153.194295
21055036.123377
-16331623.444632
20404636.037636
-15745974.851990
19726286.420068
-15189821.066404
19041220.873168
-14593669.387944
18378127.931104
-14020331.650847
17655515.546337
-13468068.970981
16964433.534667
-12903027.900950
16251956.032756
-12332285.022456
15561380.108935
-11773523.422269
14868844.647337
-11200934.566223
14169710.716291
-10674845.588624
13492405.199929
-10147214.673672
12780941.534983
-9616405.655604
12128294.771349
-9107422.902822
11462291.995795
-8609077.715395
10801284.258215
-8120757.927560
10184324.995343
-7657442.091920
9561162.907108
-7216191.858508
8980682.148610
-6795643.595729
8378704.701413
-6345056.603650
7834770.720616
-5942193.434876
7293316.906148
-5529476.273607
6764382.510543
-5133921.322480
6228672.602132
-4786808.047331
5741282.433447
-4455201.184962
5308389.072819
-4108617.103775
4849418.656912
-3795211.638006
4416937.369927
-3496085.156058
4020825.532726
-3206401.492165
3632747.679477
-2908318.083061
3295569.412676
-2674363.878853
2954776.169057
-2438434.666236
2621473.016950
-2203875.395318
2350674.674723
-1982667.502831
2070558.744873
-1796966.288846
1850940.479932
-1618855.908462
1605753.316633
-1433972.943383
1369974.323308
-1261825.548709
1169514.752490
-1142489.024510
1022887.138343
-979832.273354
835952.170134
-856715.663642
707228.032063
-744336.097942
588486.142428
-631089.944655
475073.587995
-524617.940586
370623.971263
-456488.619899
274750.194798
-372727.253564
190707.511134
-308812.025783
153965.357003
-246761.489157
91666.450772
-201821.080419
48020.394939
-149267.167972
-1849.723729
-119218.470183
-15136.652699
-88637.539653
-47498.207770
-61361.278950
-50545.699676
-42843.124808
-50182.594253
-28903.445628
-57906.707298
-18771.143977
-66987.699511
-2420.404057
-60833.036727
6698.434831
-49173.816378
-13831.161477
-33666.251766
-15931.211419
-29731.790288
-21177.501694
-35268.584902
-39443.713578
-50627.178231
-43254.093310
-39577.534411
-59739.978713
-51600.440759
-38146.655019
-42303.276559
-53918.341229
-83200.992943
-33580.138399
-40779.576689
-89059.943724
-74649.466162
-50508.671922
-75072.974668
-92814.924626
-86509.694018
-103198.969556
-79444.768426
-83361.090026
-116677.040193
-113984.455570
-123379.606695
-123776.844836
-128397.221832
-130684.544620
-153213.650209
-209726.971523
-118619.876566
-119592.727688
-244055.193620
-287094.068321
-128190.996502
-108731.214104
-305608.984396
-369745.516737
-83970.339769
-85006.301662
-433306.680345
-487840.788321
-87218.680276
-58692.435403
-526361.961674
-620639.437933
-38899.053044
-24765.550421
-688324.276698
-784494.547292
9014.993355
50612.627996
-835631.405496
-962012.773522
77041.175167
127125.140583
-1011542.704602
-1153149.261008
153598.328898
228098.760850
-1245679.017147
-1359991.801897
278825.956353
363551.962839
-1450650.198190
-1612312.242007
397690.641295
476975.571509
-1693910.500233
-1875959.231910
566553.952903
657218.293224
-1976963.284271
-2185990.029169
711931.043505
857071.960984
-2289017.559196
-2478832.301035
929451.866315
1072573.794576
-2617559.511301
-2878630.892547
-3162405.122505
1144755.906674
1308165.275797
-3038221.467029
-3455868.541069
1405712.611978
1584555.776225
-3417022.475211
-3838331.083346
1671749.079661
1912746.095996
-3861604.013197
-4286206.039001
2005994.591356
2221925.648693
-4297513.807584
-4727803.601480
2303898.844635
2606951.683957
-4770376.337469
-5230095.575100
2691220.390865
2973743.900431
-5214981.538480
-5732534.318249
3075423.160594
3372843.355197
-5727747.038356
-6256747.772073
3511159.138277
3846974.472068
-6262924.008276
-6805912.978110
3982085.351411
4339571.288718
-6804625.491599
-7317341.828796
4467798.304308
4843055.248268
-7347007.712877
-7939639.728874
5422843.300189
4994312.803812
5901892.884437
-7929311.907441
-8529482.715217
5628162.918500
6299786.457289
-8522275.734754
-9139460.503666
6203872.472268
6911373.472434
-9124642.225857
-9771359.315297
6843031.028786
7593136.239579
-9724713.218461
-10408887.773568
7481558.103725
8232580.048243
-10354980.865846
-11089458.157253
8176836.312030
8932120.243310
-11032433.675966
-11749802.417662
8844933.448678
9664469.308100
-11668144.115359
-12417113.096230
9528656.408797
10381254.326906
-12323540.052075
-13102529.448551
10250008.214251
11134010.400221
-12996749.238998
-13768467.356396
10989487.807958
11892419.782932
-13655784.538762
-14443091.007779
11740294.125882
12688999.981877
-14341477.062524
-15143868.500817
12500841.464332
13453623.789003
-14999050.653945
-15811462.214425
13269815.249377
14252965.452178
-15671347.699281
-16493406.738983
14062526.638473
15063132.192259
-16336019.966307
-17193968.622814
14840744.343452
15887175.173405
-17023754.584630
-17855528.348636
-18456637.454004
15634134.737429
16695967.698579
-17831006.025001
-18851579.565466
16412643.102037
17513271.262715
-18397893.199470
-19486731.531172
17213122.137206
18331875.634076
-19027646.407413
-20114608.318411
18011032.008700
19157901.667690
-19635980.021065
-20714551.377955
18793122.035026
19970480.215696
-20205644.812898
-21299890.919812
19588715.401672
20756585.520813
-20776263.823313
-21846798.925712
20313240.546224
21527988.708189
-21332524.117164
-22370426.976073
21064320.169363
22286574.987849
-21802863.196992
-22890539.312226
21797384.560128
23060136.406092
-22286786.694563
-23378171.266235
22503127.000720
23801595.737033
-22747413.444648
-23784627.916195
23181733.545769
24433120.300259
25215468.304704
-23192671.358537
-24219553.034159
24086298.628617
25531662.924988
-23568272.993300
-24630177.667298
24580716.426079
26202215.288137
-23939073.363441
-24960016.488264
25239788.014487
26753275.718026
-24284351.657261
-25306453.290773
25820188.838670
27280528.234147
-24554553.358023
-25581692.062006
26337160.313907
27827066.389373
-24839556.337676
-25824732.092623
26829587.379957
28286082.156254
-25071322.916916
-26039650.351900
27299165.497705
28757455.972962
-25254379.098634
-26200363.763735
27676154.328671
29137338.741913
-25418940.540639
-26361422.327392
28066493.804889
29472743.186823
-25521351.040292
-26459238.362479
28376957.795164
29798042.040802
-25632198.338576
-26526319.496970
28674374.015505
30064158.518338
-25637872.481941
-26516111.588083
28889213.055387
30282089.418983
-25648858.308719
-26506014.339659
29086341.416818
30436803.045917
-25618380.780851
-26466401.933443
29227219.900920
30568343.881203
-25552038.499377
-26407759.199827
29336797.292937
30643244.916384
-25416094.124893
-26287240.077346
-26271405.357755
29365212.874334
30680765.146529
-25329145.447603
-26001897.752528
29373771.791755
30627124.968656
-25052680.556045
-25770667.746848
29323713.720692
30564896.557372
-24813958.558985
-25488994.638500
29216979.926312
30474157.026723
-24593033.655432
-25194750.341940
29099795.918779
30304483.597082
-24311349.031889
-24877514.728843
28913860.580402
30089148.769721
-23984649.405386
-24530846.211656
28698587.514916
29838873.022723
-23594155.744298
-24174886.623562
28396117.479195
29519446.643573
-23225287.342594
-23756466.590577
28084595.867020
29224205.797469
-22816624.317898
-23322018.648670
27679019.550635
28826884.216999
28691275.450716
-22404498.753402
-22846445.923975
27475510.548492
28161286.291909
-21943596.253743
-22358187.747318
26791078.434749
27696955.861838
-21451906.181906
-21873357.290950
26393186.965136
27131437.929674
-20970561.738172
-21346182.106601
25832720.990384
26624460.795239
-20457381.229850
-20814138.145832
25319704.007989
26060541.598455
-19953377.614650
-20274548.593865
24750789.684236
25444489.445496
-19387318.003728
-19726958.137825
24152330.604154
24822889.869023
-18850336.891484
-19144277.755681
23539825.938923
24179627.287116
-18280310.454347
-18553950.712769
22914542.423358
23498565.870419
-17699725.708396
-17983889.743170
22258107.239301
22834426.034872
-17125615.071394
-17388341.285487
21587237.952378
22122717.763861
-16555995.145135
-16764438.330979
20902598.625670
21414012.844400
-15939787.346242
-16151556.997870
20213996.330401
20696226.677101
-15361806.633850
-15565773.706081
19515542.192036
19965958.729621
-14755556.176079
-14942272.328792
18802203.814140
19227988.897457
-14129446.352624
-14361811.103948
-13949126.052682
18065121.993542
18471261.427725
-13592513.182265
-13424024.382177
17341936.516938
17744794.670390
-12852415.048702
-12842093.347664
16630994.268461
16996667.675347
-12299526.803088
-12228647.824514
15902529.598075
16222861.879329
-11723082.788933
-11644627.547112
15177500.476679
15520062.195567
-11131132.088720
-11097007.078370
14466527.849496
14770691.747704
-10604017.346820
-10557355.592379
13767375.847575
14051641.696256
-10079750.797528
-10000317.114427
13086041.368267
13329788.849615
-9554526.786263
-9468722.729126
12378025.713047
12617384.683044
-9026499.049877
-8959430.773973
11675623.800444
11923769.785936
-8538966.994182
-8459148.005110
10967908.106204
11242357.634556
10810612.830171
-8084622.143214
-7975540.440973
10330143.622473
10220717.920302
-7601042.312772
-7519510.265764
9587792.370767
9589786.261544
-7134348.357885
-7055910.738551
8967424.930328
8948031.270617
-6698938.557830
-6636497.310274
8393981.229143
8365133.263610
-6265263.784252
-6195929.852628
7790740.585439
7776602.063909
-5840577.891645
-5782740.298570
7248076.979225
7230255.810917
-5458734.743347
-5397965.181679
6719217.724610
6694595.032099
-5056516.192030
-5032864.967256
6211410.066207
6187825.811361
-4703283.840192
-4668641.464982
5733561.144084
5687067.340647
-4384471.184589
-4341832.279174
5277233.844215
5226317.314470
-4040417.648064
-3995058.306034
4817007.059570
4795304.328258
-3745270.164176
-3687164.540462
4374493.359369
4360211.729866
-3432857.866745
-3395040.257992
4000975.572598
3973003.462667
-3128243.761188
-3078861.267820
3618982.865637
3601324.678147
-2882352.669248
-2819843.454827
-2666911.162284
3239694.461838
3239160.611659
-2605799.549689
-2425849.209597
2917804.720590
2918538.422144
-2354293.967344
-2222808.825850
2626013.060192
2602828.901132
-2106176.226556
-1996862.695238
2338472.228110
2323355.810933
-1888429.539549
-1797113.086641
2054302.758510
2052039.685715
-1695896.858809
-1629469.666859
1810352.533166
1807147.599757
-1529945.359228
-1430798.121631
1583920.294833
1572839.717589
-1340196.974516
-1272611.044177
1374417.193610
1363377.714868
-1187840.995731
-1124529.700585
1181219.678084
1172804.198689
-1057313.147727
-982783.053514
1013280.679120
985013.153741
-901427.304505
-865218.870406
838221.541446
827841.210119
-810870.089354
-756671.933947
692137.696069
726506.750483
-675985.597351
-665984.282082
562565.965960
605477.850915
-590769.236129
-570910.888817
424724.526109
506804.998433
-522880.413319
-450187.965633
352669.405916
387655.671791
-399726.594756
-374258.705038
271237.558260
310532.504309
-358421.693136
-330161.981084
187340.526117
226405.830072
-287334.335880
-262460.845555
118736.623480
181593.107793
-207303.456477
-201961.410073
79244.602866
124012.046294
-185150.704962
-160033.562364
11938.206327
54113.729621
-128504.162689
-105574.233927
8877.396988
21434.458210
-76266.379201
-61499.886170
-27462.525079
9779.134629
-69737.733314
-35545.986097
-47282.318008
-24376.356289
-46923.074523
-41854.568590
-42243.598017
-25214.866098
16110.098106
-16986.849477
-58042.078059
-46852.187278
-22529.556331
-9092.136849
-64600.597785
-39711.981282
-1785.640194
2860.112314
-55091.591404
-61236.965890
-7500.447263
-784.101475
-65483.058915
-41855.655428
1237.830880
10394.444756
-25024.484590
-28308.671531
-954.549564
12439.854113
-33595.131626
-38886.577466
-9802.290544
-8347.578806
-42339.855052
-1484.811220
-13231.183250
-2098.662473
-9169.121613
-35277.792579
-2388.518398
