# vtk DataFile Version 2.0
Generated volume Mesh
ASCII
DATASET UNSTRUCTURED_GRID
POINTS 1240 float
-0.212153 -0.150304 0.000000
-0.206421 -0.141033 0.000000
-0.215099 -0.146056 0.000000
-0.209122 -0.154492 0.000000
-0.217961 -0.141751 0.000000
-0.206009 -0.158620 0.000000
-0.220736 -0.137389 0.000000
-0.202815 -0.162684 0.000000
-0.223424 -0.132973 0.000000
-0.226023 -0.128505 0.000000
-0.199540 -0.166684 0.000000
-0.228534 -0.123985 0.000000
-0.196187 -0.170619 0.000000
-0.230953 -0.119417 0.000000
-0.192756 -0.174486 0.000000
-0.233282 -0.114802 0.000000
-0.189249 -0.178283 0.000000
-0.235519 -0.110141 0.000000
-0.185666 -0.182011 0.000000
-0.237662 -0.105436 0.000000
-0.182011 -0.185666 0.000000
-0.239711 -0.100690 0.000000
-0.178283 -0.189249 0.000000
-0.241666 -0.095904 0.000000
-0.174486 -0.192756 0.000000
-0.243525 -0.091081 0.000000
-0.170619 -0.196187 0.000000
-0.245288 -0.086221 0.000000
-0.166684 -0.199540 0.000000
-0.246953 -0.081327 0.000000
-0.162684 -0.202815 0.000000
-0.248521 -0.076401 0.000000
-0.158620 -0.206009 0.000000
-0.249991 -0.071445 0.000000
-0.154492 -0.209122 0.000000
-0.251363 -0.066459 0.000000
-0.150304 -0.212153 0.000000
-0.252634 -0.061448 0.000000
-0.146056 -0.215099 0.000000
-0.253806 -0.056412 0.000000
-0.141751 -0.217961 0.000000
-0.137389 -0.220736 0.000000
-0.254878 -0.051354 0.000000
-0.132973 -0.223424 0.000000
-0.255849 -0.046275 0.000000
-0.128505 -0.226023 0.000000
-0.256718 -0.041179 0.000000
-0.123985 -0.228534 0.000000
-0.257486 -0.036067 0.000000
-0.119417 -0.230953 0.000000
-0.258152 -0.030940 0.000000
-0.114802 -0.233282 0.000000
-0.258717 -0.025802 0.000000
-0.110141 -0.235519 0.000000
-0.259178 -0.020654 0.000000
-0.105436 -0.237662 0.000000
-0.259538 -0.015498 0.000000
-0.100690 -0.239711 0.000000
-0.259794 -0.010336 0.000000
-0.095904 -0.241666 0.000000
-0.259949 -0.005169 0.000000
-0.091081 -0.243525 0.000000
-0.260000 0.000000 0.000000
-0.259949 0.005169 0.000000
-0.086221 -0.245288 0.000000
-0.259794 0.010336 0.000000
-0.081327 -0.246953 0.000000
-0.259538 0.015498 0.000000
-0.076401 -0.248521 0.000000
-0.259178 0.020654 0.000000
-0.071445 -0.249991 0.000000
-0.258717 0.025802 0.000000
-0.066459 -0.251363 0.000000
-0.258152 0.030940 0.000000
-0.061448 -0.252634 0.000000
-0.257486 0.036067 0.000000
-0.056412 -0.253806 0.000000
-0.256718 0.041179 0.000000
-0.051354 -0.254878 0.000000
-0.255849 0.046275 0.000000
-0.046275 -0.255849 0.000000
-0.254878 0.051354 0.000000
-0.041179 -0.256718 0.000000
-0.253806 0.056412 0.000000
-0.036067 -0.257486 0.000000
-0.252634 0.061448 0.000000
-0.030940 -0.258152 0.000000
-0.251363 0.066459 0.000000
-0.025802 -0.258717 0.000000
-0.249991 0.071445 0.000000
-0.020654 -0.259178 0.000000
-0.248521 0.076401 0.000000
-0.015498 -0.259538 0.000000
-0.010336 -0.259794 0.000000
-0.246953 0.081327 0.000000
-0.005169 -0.259949 0.000000
-0.245288 0.086221 0.000000
0.000000 -0.260000 0.000000
-0.243525 0.091081 0.000000
0.005169 -0.259949 0.000000
-0.241666 0.095904 0.000000
0.010336 -0.259794 0.000000
-0.239711 0.100690 0.000000
0.015498 -0.259538 0.000000
-0.237662 0.105436 0.000000
0.020654 -0.259178 0.000000
-0.235519 0.110141 0.000000
0.025802 -0.258717 0.000000
-0.233282 0.114802 0.000000
0.030940 -0.258152 0.000000
-0.230953 0.119417 0.000000
0.036067 -0.257486 0.000000
-0.228534 0.123985 0.000000
0.041179 -0.256718 0.000000
-0.226023 0.128505 0.000000
-0.223424 0.132973 0.000000
0.046275 -0.255849 0.000000
-0.220736 0.137389 0.000000
0.051354 -0.254878 0.000000
-0.217961 0.141751 0.000000
0.056412 -0.253806 0.000000
-0.215099 0.146056 0.000000
0.061448 -0.252634 0.000000
-0.212153 0.150304 0.000000
0.066459 -0.251363 0.000000
-0.209122 0.154492 0.000000
0.071445 -0.249991 0.000000
-0.206009 0.158620 0.000000
0.076401 -0.248521 0.000000
-0.202815 0.162684 0.000000
0.081327 -0.246953 0.000000
-0.199540 0.166684 0.000000
0.086221 -0.245288 0.000000
-0.196187 0.170619 0.000000
0.091081 -0.243525 0.000000
-0.192756 0.174486 0.000000
0.095904 -0.241666 0.000000
-0.189249 0.178283 0.000000
0.100690 -0.239711 0.000000
-0.185666 0.182011 0.000000
0.105436 -0.237662 0.000000
-0.182011 0.185666 0.000000
0.110141 -0.235519 0.000000
-0.178283 0.189249 0.000000
0.114802 -0.233282 0.000000
-0.174486 0.192756 0.000000
0.119417 -0.230953 0.000000
0.123985 -0.228534 0.000000
-0.170619 0.196187 0.000000
0.128505 -0.226023 0.000000
-0.166684 0.199540 0.000000
0.132973 -0.223424 0.000000
-0.162684 0.202815 0.000000
0.137389 -0.220736 0.000000
-0.158620 0.206009 0.000000
0.141751 -0.217961 0.000000
-0.154492 0.209122 0.000000
0.146056 -0.215099 0.000000
-0.150304 0.212153 0.000000
0.150304 -0.212153 0.000000
-0.146056 0.215099 0.000000
0.154492 -0.209122 0.000000
-0.141751 0.217961 0.000000
0.158620 -0.206009 0.000000
-0.137389 0.220736 0.000000
0.162684 -0.202815 0.000000
-0.132973 0.223424 0.000000
-0.128505 0.226023 0.000000
0.166684 -0.199540 0.000000
-0.123985 0.228534 0.000000
0.170619 -0.196187 0.000000
-0.119417 0.230953 0.000000
0.174486 -0.192756 0.000000
-0.114802 0.233282 0.000000
0.178283 -0.189249 0.000000
-0.110141 0.235519 0.000000
0.182011 -0.185666 0.000000
-0.105436 0.237662 0.000000
0.185666 -0.182011 0.000000
-0.100690 0.239711 0.000000
0.189249 -0.178283 0.000000
-0.095904 0.241666 0.000000
0.192756 -0.174486 0.000000
-0.091081 0.243525 0.000000
0.196187 -0.170619 0.000000
-0.086221 0.245288 0.000000
0.199540 -0.166684 0.000000
-0.081327 0.246953 0.000000
0.202815 -0.162684 0.000000
-0.076401 0.248521 0.000000
0.206009 -0.158620 0.000000
-0.071445 0.249991 0.000000
0.209122 -0.154492 0.000000
-0.066459 0.251363 0.000000
0.212153 -0.150304 0.000000
-0.061448 0.252634 0.000000
0.215099 -0.146056 0.000000
-0.056412 0.253806 0.000000
0.217961 -0.141751 0.000000
0.220736 -0.137389 0.000000
-0.051354 0.254878 0.000000
0.223424 -0.132973 0.000000
-0.046275 0.255849 0.000000
0.226023 -0.128505 0.000000
-0.041179 0.256718 0.000000
0.228534 -0.123985 0.000000
-0.036067 0.257486 0.000000
0.230953 -0.119417 0.000000
-0.030940 0.258152 0.000000
0.233282 -0.114802 0.000000
-0.025802 0.258717 0.000000
0.235519 -0.110141 0.000000
-0.020654 0.259178 0.000000
0.237662 -0.105436 0.000000
-0.015498 0.259538 0.000000
0.239711 -0.100690 0.000000
-0.010336 0.259794 0.000000
0.241666 -0.095904 0.000000
-0.005169 0.259949 0.000000
0.243525 -0.091081 0.000000
0.000000 0.260000 0.000000
0.245288 -0.086221 0.000000
0.005169 0.259949 0.000000
0.246953 -0.081327 0.000000
0.010336 0.259794 0.000000
0.248521 -0.076401 0.000000
0.015498 0.259538 0.000000
0.249991 -0.071445 0.000000
0.020654 0.259178 0.000000
0.251363 -0.066459 0.000000
0.025802 0.258717 0.000000
0.252634 -0.061448 0.000000
0.030940 0.258152 0.000000
0.253806 -0.056412 0.000000
0.036067 0.257486 0.000000
0.254878 -0.051354 0.000000
0.041179 0.256718 0.000000
0.255849 -0.046275 0.000000
0.046275 0.255849 0.000000
0.256718 -0.041179 0.000000
0.051354 0.254878 0.000000
0.257486 -0.036067 0.000000
0.056412 0.253806 0.000000
0.258152 -0.030940 0.000000
0.061448 0.252634 0.000000
0.258717 -0.025802 0.000000
0.066459 0.251363 0.000000
0.259178 -0.020654 0.000000
0.071445 0.249991 0.000000
0.259538 -0.015498 0.000000
0.076401 0.248521 0.000000
0.259794 -0.010336 0.000000
0.081327 0.246953 0.000000
0.259949 -0.005169 0.000000
0.086221 0.245288 0.000000
0.260000 0.000000 0.000000
0.091081 0.243525 0.000000
0.259949 0.005169 0.000000
0.095904 0.241666 0.000000
0.259794 0.010336 0.000000
0.100690 0.239711 0.000000
0.259538 0.015498 0.000000
0.105436 0.237662 0.000000
0.259178 0.020654 0.000000
0.110141 0.235519 0.000000
0.258717 0.025802 0.000000
0.114802 0.233282 0.000000
0.258152 0.030940 0.000000
0.119417 0.230953 0.000000
0.257486 0.036067 0.000000
0.123985 0.228534 0.000000
0.256718 0.041179 0.000000
0.128505 0.226023 0.000000
0.255849 0.046275 0.000000
0.132973 0.223424 0.000000
0.254878 0.051354 0.000000
0.137389 0.220736 0.000000
0.253806 0.056412 0.000000
0.141751 0.217961 0.000000
0.252634 0.061448 0.000000
0.146056 0.215099 0.000000
0.251363 0.066459 0.000000
0.150304 0.212153 0.000000
0.249991 0.071445 0.000000
0.154492 0.209122 0.000000
0.248521 0.076401 0.000000
0.158620 0.206009 0.000000
0.246953 0.081327 0.000000
0.162684 0.202815 0.000000
0.245288 0.086221 0.000000
0.166684 0.199540 0.000000
0.243525 0.091081 0.000000
0.170619 0.196187 0.000000
0.241666 0.095904 0.000000
0.174486 0.192756 0.000000
0.239711 0.100690 0.000000
0.178283 0.189249 0.000000
0.237662 0.105436 0.000000
0.182011 0.185666 0.000000
0.235519 0.110141 0.000000
0.185666 0.182011 0.000000
0.233282 0.114802 0.000000
0.189249 0.178283 0.000000
0.230953 0.119417 0.000000
0.192756 0.174486 0.000000
0.228534 0.123985 0.000000
0.196187 0.170619 0.000000
0.226023 0.128505 0.000000
0.199540 0.166684 0.000000
0.223424 0.132973 0.000000
0.202815 0.162684 0.000000
0.220736 0.137389 0.000000
0.206009 0.158620 0.000000
0.217961 0.141751 0.000000
0.209122 0.154492 0.000000
0.215099 0.146056 0.000000
0.212153 0.150304 0.000000
-0.203462 -0.145269 0.000000
-0.209292 -0.136737 0.000000
-0.200416 -0.149443 0.000000
-0.212073 -0.132382 0.000000
-0.197285 -0.153553 0.000000
-0.214764 -0.127971 0.000000
-0.194070 -0.157598 0.000000
-0.217362 -0.123505 0.000000
-0.190771 -0.161575 0.000000
-0.219868 -0.118987 0.000000
-0.187391 -0.165483 0.000000
-0.222281 -0.114417 0.000000
-0.183931 -0.169320 0.000000
-0.224598 -0.109799 0.000000
-0.180392 -0.173086 0.000000
-0.226819 -0.105134 0.000000
-0.176777 -0.176777 0.000000
-0.228943 -0.100424 0.000000
-0.173086 -0.180392 0.000000
-0.230970 -0.095671 0.000000
-0.169320 -0.183931 0.000000
-0.232898 -0.090877 0.000000
-0.165483 -0.187391 0.000000
-0.234726 -0.086044 0.000000
-0.161575 -0.190771 0.000000
-0.236454 -0.081175 0.000000
-0.157598 -0.194070 0.000000
-0.238081 -0.076271 0.000000
-0.153553 -0.197285 0.000000
-0.239607 -0.071334 0.000000
-0.149443 -0.200416 0.000000
-0.241030 -0.066366 0.000000
-0.145269 -0.203462 0.000000
-0.242350 -0.061370 0.000000
-0.141033 -0.206421 0.000000
-0.243567 -0.056347 0.000000
-0.136737 -0.209292 0.000000
-0.244680 -0.051301 0.000000
-0.132382 -0.212073 0.000000
-0.245688 -0.046232 0.000000
-0.127971 -0.214764 0.000000
-0.246591 -0.041144 0.000000
-0.123505 -0.217362 0.000000
-0.247389 -0.036039 0.000000
-0.118987 -0.219868 0.000000
-0.248081 -0.030919 0.000000
-0.114417 -0.222281 0.000000
-0.248667 -0.025786 0.000000
-0.109799 -0.224598 0.000000
-0.249146 -0.020642 0.000000
-0.105134 -0.226819 0.000000
-0.249520 -0.015489 0.000000
-0.100424 -0.228943 0.000000
-0.249786 -0.010330 0.000000
-0.095671 -0.230970 0.000000
-0.249947 -0.005166 0.000000
-0.090877 -0.232898 0.000000
-0.250000 0.000000 0.000000
-0.086044 -0.234726 0.000000
-0.249947 0.005166 0.000000
-0.081175 -0.236454 0.000000
-0.249786 0.010330 0.000000
-0.076271 -0.238081 0.000000
-0.249520 0.015489 0.000000
-0.071334 -0.239607 0.000000
-0.249146 0.020642 0.000000
-0.066366 -0.241030 0.000000
-0.248667 0.025786 0.000000
-0.061370 -0.242350 0.000000
-0.248081 0.030919 0.000000
-0.056347 -0.243567 0.000000
-0.247389 0.036039 0.000000
-0.051301 -0.244680 0.000000
-0.246591 0.041144 0.000000
-0.046232 -0.245688 0.000000
-0.245688 0.046232 0.000000
-0.041144 -0.246591 0.000000
-0.244680 0.051301 0.000000
-0.036039 -0.247389 0.000000
-0.243567 0.056347 0.000000
-0.030919 -0.248081 0.000000
-0.242350 0.061370 0.000000
-0.025786 -0.248667 0.000000
-0.241030 0.066366 0.000000
-0.020642 -0.249146 0.000000
-0.239607 0.071334 0.000000
-0.015489 -0.249520 0.000000
-0.238081 0.076271 0.000000
-0.010330 -0.249786 0.000000
-0.236454 0.081175 0.000000
-0.005166 -0.249947 0.000000
-0.234726 0.086044 0.000000
-0.000000 -0.250000 0.000000
-0.232898 0.090877 0.000000
0.005166 -0.249947 0.000000
-0.230970 0.095671 0.000000
0.010330 -0.249786 0.000000
-0.228943 0.100424 0.000000
0.015489 -0.249520 0.000000
-0.226819 0.105134 0.000000
0.020642 -0.249146 0.000000
-0.224598 0.109799 0.000000
0.025786 -0.248667 0.000000
-0.222281 0.114417 0.000000
0.030919 -0.248081 0.000000
-0.219868 0.118987 0.000000
0.036039 -0.247389 0.000000
-0.217362 0.123505 0.000000
0.041144 -0.246591 0.000000
-0.214764 0.127971 0.000000
0.046232 -0.245688 0.000000
-0.212073 0.132382 0.000000
0.051301 -0.244680 0.000000
-0.209292 0.136737 0.000000
0.056347 -0.243567 0.000000
-0.206421 0.141033 0.000000
0.061370 -0.242350 0.000000
-0.203462 0.145269 0.000000
0.066366 -0.241030 0.000000
-0.200416 0.149443 0.000000
0.071334 -0.239607 0.000000
-0.197285 0.153553 0.000000
0.076271 -0.238081 0.000000
-0.194070 0.157598 0.000000
0.081175 -0.236454 0.000000
-0.190771 0.161575 0.000000
0.086044 -0.234726 0.000000
-0.187391 0.165483 0.000000
0.090877 -0.232898 0.000000
-0.183931 0.169320 0.000000
0.095671 -0.230970 0.000000
-0.180392 0.173086 0.000000
0.100424 -0.228943 0.000000
-0.176777 0.176777 0.000000
0.105134 -0.226819 0.000000
-0.173086 0.180392 0.000000
0.109799 -0.224598 0.000000
-0.169320 0.183931 0.000000
0.114417 -0.222281 0.000000
-0.165483 0.187391 0.000000
0.118987 -0.219868 0.000000
-0.161575 0.190771 0.000000
0.123505 -0.217362 0.000000
-0.157598 0.194070 0.000000
0.127971 -0.214764 0.000000
-0.153553 0.197285 0.000000
0.132382 -0.212073 0.000000
-0.149443 0.200416 0.000000
0.136737 -0.209292 0.000000
-0.145269 0.203462 0.000000
0.141033 -0.206421 0.000000
-0.141033 0.206421 0.000000
0.145269 -0.203462 0.000000
-0.136737 0.209292 0.000000
0.149443 -0.200416 0.000000
-0.132382 0.212073 0.000000
0.153553 -0.197285 0.000000
-0.127971 0.214764 0.000000
0.157598 -0.194070 0.000000
-0.123505 0.217362 0.000000
0.161575 -0.190771 0.000000
-0.118987 0.219868 0.000000
0.165483 -0.187391 0.000000
-0.114417 0.222281 0.000000
0.169320 -0.183931 0.000000
-0.109799 0.224598 0.000000
0.173086 -0.180392 0.000000
-0.105134 0.226819 0.000000
0.176777 -0.176777 0.000000
-0.100424 0.228943 0.000000
0.180392 -0.173086 0.000000
-0.095671 0.230970 0.000000
0.183931 -0.169320 0.000000
-0.090877 0.232898 0.000000
0.187391 -0.165483 0.000000
-0.086044 0.234726 0.000000
0.190771 -0.161575 0.000000
-0.081175 0.236454 0.000000
0.194070 -0.157598 0.000000
-0.076271 0.238081 0.000000
0.197285 -0.153553 0.000000
-0.071334 0.239607 0.000000
0.200416 -0.149443 0.000000
-0.066366 0.241030 0.000000
0.203462 -0.145269 0.000000
-0.061370 0.242350 0.000000
0.206421 -0.141033 0.000000
-0.056347 0.243567 0.000000
0.209292 -0.136737 0.000000
-0.051301 0.244680 0.000000
0.212073 -0.132382 0.000000
-0.046232 0.245688 0.000000
0.214764 -0.127971 0.000000
-0.041144 0.246591 0.000000
0.217362 -0.123505 0.000000
-0.036039 0.247389 0.000000
0.219868 -0.118987 0.000000
-0.030919 0.248081 0.000000
0.222281 -0.114417 0.000000
-0.025786 0.248667 0.000000
0.224598 -0.109799 0.000000
-0.020642 0.249146 0.000000
0.226819 -0.105134 0.000000
-0.015489 0.249520 0.000000
0.228943 -0.100424 0.000000
-0.010330 0.249786 0.000000
0.230970 -0.095671 0.000000
-0.005166 0.249947 0.000000
0.232898 -0.090877 0.000000
0.000000 0.250000 0.000000
0.234726 -0.086044 0.000000
0.005166 0.249947 0.000000
0.236454 -0.081175 0.000000
0.010330 0.249786 0.000000
0.238081 -0.076271 0.000000
0.015489 0.249520 0.000000
0.239607 -0.071334 0.000000
0.020642 0.249146 0.000000
0.241030 -0.066366 0.000000
0.025786 0.248667 0.000000
0.242350 -0.061370 0.000000
0.030919 0.248081 0.000000
0.243567 -0.056347 0.000000
0.036039 0.247389 0.000000
0.244680 -0.051301 0.000000
0.041144 0.246591 0.000000
0.245688 -0.046232 0.000000
0.046232 0.245688 0.000000
0.246591 -0.041144 0.000000
0.051301 0.244680 0.000000
0.247389 -0.036039 0.000000
0.056347 0.243567 0.000000
0.248081 -0.030919 0.000000
0.061370 0.242350 0.000000
0.248667 -0.025786 0.000000
0.066366 0.241030 0.000000
0.249146 -0.020642 0.000000
0.071334 0.239607 0.000000
0.249520 -0.015489 0.000000
0.076271 0.238081 0.000000
0.249786 -0.010330 0.000000
0.081175 0.236454 0.000000
0.249947 -0.005166 0.000000
0.086044 0.234726 0.000000
0.250000 -0.000000 0.000000
0.090877 0.232898 0.000000
0.249947 0.005166 0.000000
0.095671 0.230970 0.000000
0.249786 0.010330 0.000000
0.100424 0.228943 0.000000
0.249520 0.015489 0.000000
0.105134 0.226819 0.000000
0.249146 0.020642 0.000000
0.109799 0.224598 0.000000
0.248667 0.025786 0.000000
0.114417 0.222281 0.000000
0.248081 0.030919 0.000000
0.118987 0.219868 0.000000
0.247389 0.036039 0.000000
0.123505 0.217362 0.000000
0.246591 0.041144 0.000000
0.127971 0.214764 0.000000
0.245688 0.046232 0.000000
0.132382 0.212073 0.000000
0.244680 0.051301 0.000000
0.136737 0.209292 0.000000
0.243567 0.056347 0.000000
0.141033 0.206421 0.000000
0.242350 0.061370 0.000000
0.145269 0.203462 0.000000
0.241030 0.066366 0.000000
0.149443 0.200416 0.000000
0.239607 0.071334 0.000000
0.153553 0.197285 0.000000
0.238081 0.076271 0.000000
0.157598 0.194070 0.000000
0.236454 0.081175 0.000000
0.161575 0.190771 0.000000
0.234726 0.086044 0.000000
0.165483 0.187391 0.000000
0.232898 0.090877 0.000000
0.169320 0.183931 0.000000
0.230970 0.095671 0.000000
0.173086 0.180392 0.000000
0.228943 0.100424 0.000000
0.176777 0.176777 0.000000
0.226819 0.105134 0.000000
0.180392 0.173086 0.000000
0.224598 0.109799 0.000000
0.183931 0.169320 0.000000
0.222281 0.114417 0.000000
0.187391 0.165483 0.000000
0.219868 0.118987 0.000000
0.190771 0.161575 0.000000
0.217362 0.123505 0.000000
0.194070 0.157598 0.000000
0.214764 0.127971 0.000000
0.197285 0.153553 0.000000
0.212073 0.132382 0.000000
0.200416 0.149443 0.000000
0.209292 0.136737 0.000000
0.206421 0.141033 0.000000
0.203462 0.145269 0.000000
-0.211239 -0.145764 0.000000
-0.207348 -0.145506 0.000000
-0.208235 -0.149997 0.000000
-0.210271 -0.141224 0.000000
-0.214114 -0.141448 0.000000
-0.204348 -0.149730 0.000000
-0.205202 -0.154186 0.000000
-0.213130 -0.136835 0.000000
-0.216922 -0.137075 0.000000
-0.201224 -0.153860 0.000000
-0.202031 -0.158271 0.000000
-0.215878 -0.132424 0.000000
-0.219710 -0.132611 0.000000
-0.198030 -0.157923 0.000000
-0.198804 -0.162319 0.000000
-0.218605 -0.127699 0.000000
-0.222365 -0.128140 0.000000
-0.224875 -0.124872 0.000000
-0.194761 -0.161929 0.000000
-0.195479 -0.166293 0.000000
-0.221918 -0.123192 0.000000
-0.226380 -0.121036 0.000000
-0.191411 -0.165867 0.000000
-0.192076 -0.170180 0.000000
-0.223993 -0.118092 0.000000
-0.228835 -0.116386 0.000000
-0.187988 -0.169741 0.000000
-0.188629 -0.174050 0.000000
-0.226621 -0.113165 0.000000
-0.231077 -0.111640 0.000000
-0.184488 -0.173541 0.000000
-0.185072 -0.177780 0.000000
-0.228918 -0.108399 0.000000
-0.233287 -0.106944 0.000000
-0.180913 -0.177266 0.000000
-0.181487 -0.181485 0.000000
-0.231106 -0.103709 0.000000
-0.235397 -0.102211 0.000000
-0.177263 -0.180925 0.000000
-0.177757 -0.185116 0.000000
-0.233157 -0.098942 0.000000
-0.237414 -0.097442 0.000000
-0.173562 -0.184499 0.000000
-0.173989 -0.188666 0.000000
-0.235110 -0.094195 0.000000
-0.239353 -0.092615 0.000000
-0.169783 -0.188037 0.000000
-0.170176 -0.192088 0.000000
-0.237036 -0.089400 0.000000
-0.241145 -0.087789 0.000000
-0.165867 -0.191421 0.000000
-0.166261 -0.195470 0.000000
-0.238795 -0.084500 0.000000
-0.242869 -0.082916 0.000000
-0.161926 -0.194766 0.000000
-0.162296 -0.198817 0.000000
-0.240480 -0.079619 0.000000
-0.244533 -0.078015 0.000000
-0.157923 -0.198067 0.000000
-0.158264 -0.202046 0.000000
-0.242098 -0.074704 0.000000
-0.246013 -0.073093 0.000000
-0.153833 -0.201229 0.000000
-0.154141 -0.205206 0.000000
-0.243529 -0.069697 0.000000
-0.247451 -0.068123 0.000000
-0.149674 -0.204349 0.000000
-0.149938 -0.208289 0.000000
-0.244899 -0.064716 0.000000
-0.248766 -0.063116 0.000000
-0.145447 -0.207383 0.000000
-0.145696 -0.211247 0.000000
-0.246147 -0.059719 0.000000
-0.249987 -0.058081 0.000000
-0.141114 -0.210324 0.000000
-0.141350 -0.214172 0.000000
-0.247314 -0.054684 0.000000
-0.251085 -0.053025 0.000000
-0.136554 -0.213213 0.000000
-0.136933 -0.217186 0.000000
-0.133850 -0.219680 0.000000
-0.248378 -0.049626 0.000000
-0.252118 -0.047967 0.000000
-0.132090 -0.216717 0.000000
-0.130020 -0.221252 0.000000
-0.249339 -0.044548 0.000000
-0.253006 -0.042863 0.000000
-0.126984 -0.218897 0.000000
-0.125536 -0.223876 0.000000
-0.250196 -0.039452 0.000000
-0.253814 -0.037756 0.000000
-0.122403 -0.221788 0.000000
-0.120909 -0.226359 0.000000
-0.250948 -0.034339 0.000000
-0.254531 -0.032639 0.000000
-0.117810 -0.224233 0.000000
-0.116302 -0.228773 0.000000
-0.251590 -0.029207 0.000000
-0.255162 -0.027498 0.000000
-0.113063 -0.226648 0.000000
-0.111626 -0.231076 0.000000
-0.252152 -0.024064 0.000000
-0.255682 -0.022349 0.000000
-0.108405 -0.228923 0.000000
-0.106956 -0.233292 0.000000
-0.252595 -0.018895 0.000000
-0.256048 -0.017181 0.000000
-0.103699 -0.231093 0.000000
-0.102209 -0.235408 0.000000
-0.252917 -0.013716 0.000000
-0.256371 -0.011977 0.000000
-0.098950 -0.233168 0.000000
-0.097430 -0.237419 0.000000
-0.253145 -0.008502 0.000000
-0.256525 -0.006784 0.000000
-0.094186 -0.235148 0.000000
-0.092626 -0.239323 0.000000
-0.253246 -0.003274 0.000000
-0.256590 -0.001533 0.000000
-0.089365 -0.237021 0.000000
-0.087789 -0.241137 0.000000
-0.256677 0.003861 0.000000
-0.253142 0.002166 0.000000
-0.257115 0.007822 0.000000
-0.084514 -0.238796 0.000000
-0.082921 -0.242867 0.000000
-0.253720 0.007776 0.000000
-0.256519 0.011763 0.000000
-0.079606 -0.240458 0.000000
-0.078018 -0.244489 0.000000
-0.252852 0.013320 0.000000
-0.256068 0.016920 0.000000
-0.074694 -0.242036 0.000000
-0.073082 -0.246010 0.000000
-0.252611 0.018669 0.000000
-0.255656 0.022234 0.000000
-0.069735 -0.243513 0.000000
-0.068114 -0.247458 0.000000
-0.252141 0.023990 0.000000
-0.255162 0.027444 0.000000
-0.064743 -0.244887 0.000000
-0.063092 -0.248749 0.000000
-0.251604 0.029164 0.000000
-0.254573 0.032595 0.000000
-0.059717 -0.246147 0.000000
-0.058069 -0.249993 0.000000
-0.250974 0.034287 0.000000
-0.253840 0.037734 0.000000
-0.054678 -0.247313 0.000000
-0.053013 -0.251111 0.000000
-0.250231 0.039411 0.000000
-0.253024 0.042842 0.000000
-0.049616 -0.248377 0.000000
-0.047935 -0.252120 0.000000
-0.249361 0.044517 0.000000
-0.252111 0.047933 0.000000
-0.044539 -0.249350 0.000000
-0.042840 -0.253023 0.000000
-0.248407 0.049594 0.000000
-0.251110 0.053004 0.000000
-0.039431 -0.250212 0.000000
-0.037704 -0.253860 0.000000
-0.247324 0.054669 0.000000
-0.249985 0.058059 0.000000
-0.034308 -0.250972 0.000000
-0.032585 -0.254550 0.000000
-0.246143 0.059708 0.000000
-0.248743 0.063082 0.000000
-0.029143 -0.251616 0.000000
-0.027438 -0.255160 0.000000
-0.244868 0.064718 0.000000
-0.247429 0.068085 0.000000
-0.023984 -0.252155 0.000000
-0.022275 -0.255652 0.000000
-0.243509 0.069698 0.000000
-0.245994 0.073043 0.000000
-0.018760 -0.252599 0.000000
-0.017016 -0.256101 0.000000
-0.242036 0.074652 0.000000
-0.244469 0.077981 0.000000
-0.013287 -0.252844 0.000000
-0.011794 -0.256461 0.000000
-0.007824 -0.257115 0.000000
-0.240463 0.079574 0.000000
-0.242849 0.082888 0.000000
-0.007799 -0.253734 0.000000
-0.003878 -0.256704 0.000000
-0.238789 0.084463 0.000000
-0.241130 0.087762 0.000000
-0.002313 -0.253282 0.000000
0.001488 -0.256626 0.000000
-0.237016 0.089317 0.000000
-0.239316 0.092601 0.000000
0.003275 -0.253251 0.000000
0.006791 -0.256518 0.000000
-0.235145 0.094134 0.000000
-0.237412 0.097406 0.000000
0.008519 -0.253134 0.000000
0.011961 -0.256352 0.000000
-0.233173 0.098919 0.000000
-0.235426 0.102191 0.000000
0.013685 -0.252913 0.000000
0.017142 -0.256059 0.000000
-0.231127 0.103687 0.000000
-0.233295 0.106912 0.000000
0.018872 -0.252578 0.000000
0.022325 -0.255665 0.000000
-0.228942 0.108390 0.000000
-0.231092 0.111624 0.000000
0.024038 -0.252148 0.000000
0.027480 -0.255157 0.000000
-0.226657 0.113049 0.000000
-0.228780 0.116278 0.000000
0.029190 -0.251600 0.000000
0.032621 -0.254550 0.000000
-0.224272 0.117709 0.000000
-0.226385 0.120864 0.000000
0.034318 -0.250961 0.000000
0.037740 -0.253831 0.000000
-0.221796 0.122264 0.000000
-0.223999 0.125456 0.000000
0.039411 -0.250224 0.000000
0.042847 -0.253042 0.000000
-0.218901 0.126938 0.000000
-0.221364 0.129767 0.000000
-0.219680 0.133847 0.000000
0.044518 -0.249355 0.000000
0.047933 -0.252121 0.000000
-0.216712 0.132054 0.000000
-0.217004 0.137072 0.000000
0.049586 -0.248413 0.000000
0.052994 -0.251107 0.000000
-0.213232 0.136466 0.000000
-0.214223 0.141523 0.000000
0.054657 -0.247336 0.000000
0.058052 -0.250005 0.000000
-0.210309 0.141140 0.000000
-0.211239 0.145727 0.000000
0.059678 -0.246219 0.000000
0.063074 -0.248801 0.000000
-0.207382 0.145398 0.000000
-0.208266 0.149943 0.000000
0.064707 -0.244891 0.000000
0.068065 -0.247437 0.000000
-0.204377 0.149636 0.000000
-0.205190 0.154130 0.000000
0.069691 -0.243505 0.000000
0.073032 -0.246030 0.000000
-0.201236 0.153821 0.000000
-0.202041 0.158266 0.000000
0.074644 -0.242033 0.000000
0.077971 -0.244510 0.000000
-0.198078 0.157909 0.000000
-0.198801 0.162297 0.000000
0.079563 -0.240462 0.000000
0.082879 -0.242869 0.000000
-0.194813 0.161942 0.000000
-0.195518 0.166295 0.000000
0.084448 -0.238801 0.000000
0.087756 -0.241183 0.000000
-0.191439 0.165882 0.000000
-0.192093 0.170171 0.000000
0.089300 -0.237046 0.000000
0.092599 -0.239343 0.000000
-0.188003 0.169744 0.000000
-0.188653 0.173995 0.000000
0.094143 -0.235202 0.000000
0.097411 -0.237436 0.000000
-0.184499 0.173533 0.000000
-0.185108 0.177774 0.000000
0.098956 -0.233189 0.000000
0.102214 -0.235430 0.000000
-0.180925 0.177258 0.000000
-0.181476 0.181471 0.000000
0.103685 -0.231103 0.000000
0.106930 -0.233289 0.000000
-0.177298 0.180905 0.000000
-0.177799 0.185107 0.000000
0.108419 -0.228930 0.000000
0.111656 -0.231091 0.000000
-0.173586 0.184506 0.000000
-0.174021 0.188619 0.000000
0.113144 -0.226627 0.000000
0.116347 -0.228895 0.000000
-0.169775 0.188019 0.000000
-0.170198 0.192078 0.000000
0.118125 -0.224048 0.000000
0.120958 -0.226462 0.000000
0.124847 -0.224898 0.000000
-0.165874 0.191414 0.000000
-0.166269 0.195460 0.000000
0.123118 -0.221704 0.000000
0.128317 -0.222427 0.000000
-0.161942 0.194765 0.000000
-0.162298 0.198777 0.000000
0.127741 -0.218738 0.000000
0.132718 -0.219773 0.000000
-0.157941 0.198061 0.000000
-0.158267 0.202017 0.000000
0.132458 -0.215906 0.000000
0.137099 -0.216943 0.000000
-0.153841 0.201233 0.000000
-0.154157 0.205176 0.000000
0.136835 -0.213143 0.000000
0.141446 -0.214140 0.000000
-0.149697 0.204336 0.000000
-0.149986 0.208241 0.000000
0.141204 -0.210307 0.000000
0.145766 -0.211267 0.000000
-0.145494 0.207364 0.000000
-0.145771 0.211274 0.000000
0.145482 -0.207382 0.000000
0.149974 -0.208247 0.000000
-0.141205 0.210328 0.000000
-0.141442 0.214144 0.000000
0.149675 -0.204345 0.000000
0.154126 -0.205199 0.000000
-0.136819 0.213112 0.000000
-0.137086 0.216926 0.000000
0.153844 -0.201265 0.000000
0.158238 -0.202080 0.000000
-0.132440 0.215878 0.000000
-0.132694 0.219723 0.000000
0.157910 -0.198046 0.000000
0.162291 -0.198796 0.000000
-0.127703 0.218560 0.000000
-0.128168 0.222340 0.000000
-0.124872 0.224869 0.000000
0.161934 -0.194783 0.000000
0.166261 -0.195477 0.000000
-0.123151 0.221907 0.000000
-0.120918 0.226405 0.000000
0.165879 -0.191440 0.000000
0.170170 -0.192099 0.000000
-0.117906 0.223946 0.000000
-0.116364 0.228838 0.000000
0.169751 -0.188007 0.000000
0.173993 -0.188654 0.000000
-0.113240 0.226633 0.000000
-0.111662 0.231084 0.000000
0.173542 -0.184492 0.000000
0.177760 -0.185096 0.000000
-0.108422 0.228922 0.000000
-0.106961 0.233288 0.000000
0.177261 -0.180914 0.000000
0.181485 -0.181471 0.000000
-0.103737 0.231113 0.000000
-0.102262 0.235399 0.000000
0.180916 -0.177255 0.000000
0.185091 -0.177759 0.000000
-0.098948 0.233164 0.000000
-0.097431 0.237399 0.000000
0.184491 -0.173524 0.000000
0.188622 -0.173999 0.000000
-0.094143 0.235127 0.000000
-0.092613 0.239321 0.000000
0.187992 -0.169728 0.000000
0.192102 -0.170181 0.000000
-0.089317 0.237012 0.000000
-0.087764 0.241132 0.000000
0.191418 -0.165860 0.000000
0.195491 -0.166265 0.000000
-0.084463 0.238789 0.000000
-0.082889 0.242851 0.000000
0.194761 -0.161927 0.000000
0.198782 -0.162297 0.000000
-0.079574 0.240463 0.000000
-0.077984 0.244481 0.000000
0.198034 -0.157937 0.000000
0.202051 -0.158287 0.000000
-0.074655 0.242028 0.000000
-0.073067 0.246024 0.000000
0.201260 -0.153870 0.000000
0.205213 -0.154172 0.000000
-0.069704 0.243501 0.000000
-0.068084 0.247440 0.000000
0.204378 -0.149650 0.000000
0.208273 -0.149949 0.000000
-0.064720 0.244869 0.000000
-0.063076 0.248748 0.000000
0.207393 -0.145398 0.000000
0.211241 -0.145689 0.000000
-0.059719 0.246146 0.000000
-0.058059 0.249953 0.000000
0.210313 -0.141108 0.000000
0.214198 -0.141341 0.000000
-0.054684 0.247314 0.000000
-0.053013 0.251069 0.000000
0.213186 -0.136480 0.000000
0.217027 -0.137061 0.000000
0.219675 -0.133904 0.000000
-0.049626 0.248378 0.000000
-0.047946 0.252085 0.000000
0.216699 -0.132106 0.000000
0.221261 -0.130034 0.000000
-0.044548 0.249339 0.000000
-0.042859 0.253000 0.000000
0.218972 -0.126947 0.000000
0.223829 -0.125513 0.000000
-0.039452 0.250196 0.000000
-0.037755 0.253811 0.000000
0.221761 -0.122278 0.000000
0.226348 -0.120860 0.000000
-0.034339 0.250948 0.000000
-0.032636 0.254520 0.000000
0.224241 -0.117692 0.000000
0.228771 -0.116275 0.000000
-0.029212 0.251597 0.000000
-0.027501 0.255124 0.000000
0.226657 -0.113049 0.000000
0.231079 -0.111599 0.000000
-0.024064 0.252125 0.000000
-0.022349 0.255632 0.000000
0.228947 -0.108402 0.000000
0.233301 -0.106928 0.000000
-0.018895 0.252587 0.000000
-0.017177 0.256059 0.000000
0.231124 -0.103682 0.000000
0.235410 -0.102221 0.000000
-0.013722 0.252906 0.000000
-0.011984 0.256358 0.000000
0.233165 -0.098925 0.000000
0.237410 -0.097418 0.000000
-0.008503 0.253124 0.000000
-0.006797 0.256513 0.000000
0.235127 -0.094138 0.000000
0.239324 -0.092617 0.000000
-0.003298 0.253224 0.000000
-0.001537 0.256626 0.000000
0.236998 -0.089320 0.000000
0.241141 -0.087778 0.000000
0.002151 0.253099 0.000000
0.003665 0.256640 0.000000
0.007850 0.257154 0.000000
0.238771 -0.084467 0.000000
0.242860 -0.082904 0.000000
0.007797 0.253617 0.000000
0.011936 0.256414 0.000000
0.240446 -0.079578 0.000000
0.244481 -0.077996 0.000000
0.013338 0.252784 0.000000
0.017146 0.256139 0.000000
0.242028 -0.074654 0.000000
0.246037 -0.073052 0.000000
0.018795 0.252575 0.000000
0.022298 0.255656 0.000000
0.243509 -0.069698 0.000000
0.247448 -0.068073 0.000000
0.023967 0.252157 0.000000
0.027442 0.255166 0.000000
0.244876 -0.064709 0.000000
0.248758 -0.063061 0.000000
0.029162 0.251616 0.000000
0.032604 0.254548 0.000000
0.246144 -0.059697 0.000000
0.249992 -0.058030 0.000000
0.034292 0.250979 0.000000
0.037736 0.253859 0.000000
0.247309 -0.054662 0.000000
0.251104 -0.052986 0.000000
0.039431 0.250218 0.000000
0.042858 0.253073 0.000000
0.248369 -0.049609 0.000000
0.252103 -0.047938 0.000000
0.044531 0.249396 0.000000
0.047946 0.252110 0.000000
0.249327 -0.044538 0.000000
0.253015 -0.042853 0.000000
0.049638 0.248392 0.000000
0.053019 0.251075 0.000000
0.250196 -0.039452 0.000000
0.253860 -0.037736 0.000000
0.054696 0.247309 0.000000
0.058069 0.249954 0.000000
0.251003 -0.034313 0.000000
0.254598 -0.032621 0.000000
0.059722 0.246136 0.000000
0.063114 0.248759 0.000000
0.251639 -0.029149 0.000000
0.255178 -0.027455 0.000000
0.064734 0.244874 0.000000
0.068093 0.247429 0.000000
0.252168 -0.023976 0.000000
0.255662 -0.022304 0.000000
0.069737 0.243542 0.000000
0.073050 0.246037 0.000000
0.252584 -0.018806 0.000000
0.256143 -0.017147 0.000000
0.074663 0.242036 0.000000
0.077996 0.244480 0.000000
0.252817 -0.013347 0.000000
0.256442 -0.011927 0.000000
0.257154 -0.007852 0.000000
0.079584 0.240452 0.000000
0.082921 0.242866 0.000000
0.253690 -0.007780 0.000000
0.256642 -0.003691 0.000000
0.084471 0.238773 0.000000
0.087778 0.241141 0.000000
0.253096 -0.002165 0.000000
0.256647 0.001559 0.000000
0.089321 0.236998 0.000000
0.092617 0.239324 0.000000
0.253243 0.003287 0.000000
0.256520 0.006794 0.000000
0.094136 0.235126 0.000000
0.097418 0.237410 0.000000
0.253129 0.008465 0.000000
0.256359 0.011971 0.000000
0.098915 0.233157 0.000000
0.102180 0.235399 0.000000
0.252942 0.013681 0.000000
0.256098 0.017161 0.000000
0.103663 0.231094 0.000000
0.106917 0.233294 0.000000
0.252587 0.018892 0.000000
0.255640 0.022345 0.000000
0.108396 0.228944 0.000000
0.111598 0.231082 0.000000
0.252126 0.024061 0.000000
0.255131 0.027498 0.000000
0.113048 0.226663 0.000000
0.116271 0.228781 0.000000
0.251586 0.029205 0.000000
0.254568 0.032637 0.000000
0.117706 0.224256 0.000000
0.120852 0.226357 0.000000
0.250942 0.034329 0.000000
0.253839 0.037736 0.000000
0.122248 0.221776 0.000000
0.125477 0.223846 0.000000
0.250188 0.039438 0.000000
0.253035 0.042843 0.000000
0.126912 0.218965 0.000000
0.130002 0.221279 0.000000
0.249333 0.044533 0.000000
0.252125 0.047929 0.000000
0.132108 0.216694 0.000000
0.133891 0.219601 0.000000
0.248369 0.049612 0.000000
0.251087 0.053006 0.000000
0.136550 0.213160 0.000000
0.137046 0.217019 0.000000
0.247301 0.054671 0.000000
0.249968 0.058053 0.000000
0.141152 0.210287 0.000000
0.141372 0.214174 0.000000
0.246134 0.059706 0.000000
0.248748 0.063076 0.000000
0.145482 0.207387 0.000000
0.145725 0.211231 0.000000
0.244867 0.064717 0.000000
0.247418 0.068075 0.000000
0.149697 0.204345 0.000000
0.149984 0.208266 0.000000
0.243509 0.069698 0.000000
0.246029 0.073052 0.000000
0.153835 0.201247 0.000000
0.154130 0.205204 0.000000
0.242036 0.074652 0.000000
0.244477 0.077982 0.000000
0.157903 0.198039 0.000000
0.158242 0.202054 0.000000
0.240463 0.079574 0.000000
0.242860 0.082888 0.000000
0.161909 0.194770 0.000000
0.162280 0.198807 0.000000
0.238789 0.084463 0.000000
0.241157 0.087764 0.000000
0.165849 0.191427 0.000000
0.166250 0.195508 0.000000
0.237021 0.089328 0.000000
0.239376 0.092639 0.000000
0.169721 0.188004 0.000000
0.170154 0.192121 0.000000
0.235172 0.094182 0.000000
0.237425 0.097450 0.000000
0.173527 0.184503 0.000000
0.173991 0.188648 0.000000
0.233173 0.098964 0.000000
0.235397 0.102209 0.000000
0.177263 0.180930 0.000000
0.177779 0.185108 0.000000
0.231102 0.103711 0.000000
0.233283 0.106944 0.000000
0.180917 0.177274 0.000000
0.181479 0.181481 0.000000
0.228922 0.108427 0.000000
0.231077 0.111631 0.000000
0.184496 0.173546 0.000000
0.185088 0.177792 0.000000
0.226606 0.113135 0.000000
0.228845 0.116324 0.000000
0.187993 0.169732 0.000000
0.188640 0.174022 0.000000
0.223969 0.118039 0.000000
0.226404 0.120897 0.000000
0.191413 0.165855 0.000000
0.192089 0.170164 0.000000
0.221863 0.123176 0.000000
0.224891 0.124847 0.000000
0.194756 0.161915 0.000000
0.195477 0.166261 0.000000
0.218540 0.127743 0.000000
0.222360 0.128216 0.000000
0.198020 0.157909 0.000000
0.198786 0.162290 0.000000
0.215874 0.132431 0.000000
0.219701 0.132630 0.000000
0.201205 0.153841 0.000000
0.202014 0.158253 0.000000
0.213147 0.136837 0.000000
0.216928 0.137078 0.000000
0.204316 0.149710 0.000000
0.210278 0.141207 0.000000
0.207360 0.145490 0.000000
0.205171 0.154172 0.000000
0.214149 0.141432 0.000000
0.208240 0.149993 0.000000
0.211214 0.145747 0.000000
CELLS 1860 7440
3 620 2 0
3 0 622 620
3 621 620 622
3 622 625 621
3 317 621 625
3 625 319 317
3 319 625 629
3 629 321 319
3 321 629 633
3 633 323 321
3 323 633 638
3 638 325 323
3 325 638 642
3 642 327 325
3 327 642 646
3 646 329 327
3 329 646 650
3 650 331 329
3 331 650 654
3 654 333 331
3 333 654 658
3 658 335 333
3 335 658 662
3 662 337 335
3 337 662 666
3 666 339 337
3 339 666 670
3 670 341 339
3 341 670 674
3 674 343 341
3 343 674 678
3 678 345 343
3 345 678 682
3 682 347 345
3 347 682 686
3 686 349 347
3 349 686 690
3 690 351 349
3 351 690 694
3 694 353 351
3 353 694 698
3 698 355 353
3 355 698 703
3 703 357 355
3 357 703 707
3 707 359 357
3 359 707 711
3 711 361 359
3 361 711 715
3 715 363 361
3 363 715 719
3 719 365 363
3 365 719 723
3 723 367 365
3 367 723 727
3 727 369 367
3 369 727 731
3 731 371 369
3 371 731 735
3 735 373 371
3 373 735 739
3 739 375 373
3 375 739 744
3 744 377 375
3 377 744 748
3 748 379 377
3 379 748 752
3 752 381 379
3 381 752 756
3 756 383 381
3 383 756 760
3 760 385 383
3 385 760 764
3 764 387 385
3 387 764 768
3 768 389 387
3 389 768 772
3 772 391 389
3 391 772 776
3 776 393 391
3 393 776 780
3 780 395 393
3 395 780 784
3 784 397 395
3 397 784 788
3 788 399 397
3 399 788 792
3 792 401 399
3 401 792 796
3 796 403 401
3 403 796 800
3 800 405 403
3 405 800 805
3 805 407 405
3 407 805 809
3 809 409 407
3 409 809 813
3 813 411 409
3 411 813 817
3 817 413 411
3 413 817 821
3 821 415 413
3 415 821 825
3 825 417 415
3 417 825 829
3 829 419 417
3 419 829 833
3 833 421 419
3 421 833 837
3 837 423 421
3 423 837 841
3 841 425 423
3 425 841 846
3 846 427 425
3 427 846 850
3 850 429 427
3 429 850 854
3 854 431 429
3 431 854 858
3 858 433 431
3 433 858 862
3 862 435 433
3 435 862 866
3 866 437 435
3 437 866 870
3 870 439 437
3 439 870 874
3 874 441 439
3 441 874 878
3 878 443 441
3 443 878 882
3 882 445 443
3 445 882 886
3 886 447 445
3 447 886 890
3 890 449 447
3 449 890 894
3 894 451 449
3 451 894 898
3 898 453 451
3 453 898 902
3 902 455 453
3 455 902 906
3 906 457 455
3 457 906 911
3 911 459 457
3 459 911 915
3 915 461 459
3 461 915 919
3 919 463 461
3 463 919 923
3 923 465 463
3 465 923 927
3 927 467 465
3 467 927 931
3 931 469 467
3 469 931 935
3 935 471 469
3 471 935 939
3 939 473 471
3 473 939 943
3 943 475 473
3 475 943 948
3 948 477 475
3 477 948 952
3 952 479 477
3 479 952 956
3 956 481 479
3 481 956 960
3 960 483 481
3 483 960 964
3 964 485 483
3 485 964 968
3 968 487 485
3 487 968 972
3 972 489 487
3 489 972 976
3 976 491 489
3 491 976 980
3 980 493 491
3 493 980 984
3 984 495 493
3 495 984 988
3 988 497 495
3 497 988 992
3 992 499 497
3 499 992 996
3 996 501 499
3 501 996 1000
3 1000 503 501
3 503 1000 1004
3 1004 505 503
3 505 1004 1008
3 1008 507 505
3 507 1008 1013
3 1013 509 507
3 509 1013 1017
3 1017 511 509
3 511 1017 1021
3 1021 513 511
3 513 1021 1025
3 1025 515 513
3 515 1025 1029
3 1029 517 515
3 517 1029 1033
3 1033 519 517
3 519 1033 1037
3 1037 521 519
3 521 1037 1041
3 1041 523 521
3 523 1041 1045
3 1045 525 523
3 525 1045 1049
3 1049 527 525
3 527 1049 1054
3 1054 529 527
3 529 1054 1058
3 1058 531 529
3 531 1058 1062
3 1062 533 531
3 533 1062 1066
3 1066 535 533
3 535 1066 1070
3 1070 537 535
3 537 1070 1074
3 1074 539 537
3 539 1074 1078
3 1078 541 539
3 541 1078 1082
3 1082 543 541
3 543 1082 1086
3 1086 545 543
3 545 1086 1090
3 1090 547 545
3 547 1090 1094
3 1094 549 547
3 549 1094 1098
3 1098 551 549
3 551 1098 1102
3 1102 553 551
3 553 1102 1106
3 1106 555 553
3 555 1106 1110
3 1110 557 555
3 557 1110 1115
3 1115 559 557
3 559 1115 1119
3 1119 561 559
3 561 1119 1123
3 1123 563 561
3 563 1123 1127
3 1127 565 563
3 565 1127 1131
3 1131 567 565
3 567 1131 1135
3 1135 569 567
3 569 1135 1139
3 1139 571 569
3 571 1139 1143
3 1143 573 571
3 573 1143 1147
3 1147 575 573
3 575 1147 1151
3 1151 577 575
3 577 1151 1155
3 1155 579 577
3 579 1155 1159
3 1159 581 579
3 581 1159 1163
3 1163 583 581
3 583 1163 1167
3 1167 585 583
3 585 1167 1171
3 1171 587 585
3 587 1171 1175
3 1175 589 587
3 589 1175 1179
3 1179 591 589
3 591 1179 1183
3 1183 593 591
3 593 1183 1187
3 1187 595 593
3 595 1187 1191
3 1191 597 595
3 597 1191 1195
3 1195 599 597
3 599 1195 1199
3 1199 601 599
3 601 1199 1203
3 1203 603 601
3 603 1203 1207
3 1207 605 603
3 605 1207 1211
3 1211 607 605
3 607 1211 1215
3 1215 609 607
3 609 1215 1219
3 1219 611 609
3 611 1219 1223
3 1223 613 611
3 613 1223 1227
3 1227 615 613
3 615 1227 1231
3 1231 617 615
3 617 1231 1234
3 1234 618 617
3 618 1234 1235
3 1235 619 618
3 619 1235 1233
3 1233 616 619
3 616 1233 1229
3 1229 614 616
3 614 1229 1225
3 1225 612 614
3 612 1225 1221
3 1221 610 612
3 610 1221 1217
3 1217 608 610
3 608 1217 1213
3 1213 606 608
3 606 1213 1209
3 1209 604 606
3 604 1209 1205
3 1205 602 604
3 602 1205 1201
3 1201 600 602
3 600 1201 1197
3 1197 598 600
3 598 1197 1193
3 1193 596 598
3 596 1193 1189
3 1189 594 596
3 594 1189 1185
3 1185 592 594
3 592 1185 1181
3 1181 590 592
3 590 1181 1177
3 1177 588 590
3 588 1177 1173
3 1173 586 588
3 586 1173 1169
3 1169 584 586
3 584 1169 1165
3 1165 582 584
3 582 1165 1161
3 1161 580 582
3 580 1161 1157
3 1157 578 580
3 578 1157 1153
3 1153 576 578
3 576 1153 1149
3 1149 574 576
3 574 1149 1145
3 1145 572 574
3 572 1145 1141
3 1141 570 572
3 570 1141 1137
3 1137 568 570
3 568 1137 1133
3 1133 566 568
3 566 1133 1129
3 1129 564 566
3 564 1129 1125
3 1125 562 564
3 562 1125 1121
3 1121 560 562
3 560 1121 1117
3 1117 558 560
3 558 1117 1113
3 1113 556 558
3 556 1113 1108
3 1108 554 556
3 554 1108 1104
3 1104 552 554
3 552 1104 1100
3 1100 550 552
3 550 1100 1096
3 1096 548 550
3 548 1096 1092
3 1092 546 548
3 546 1092 1088
3 1088 544 546
3 544 1088 1084
3 1084 542 544
3 542 1084 1080
3 1080 540 542
3 540 1080 1076
3 1076 538 540
3 538 1076 1072
3 1072 536 538
3 536 1072 1068
3 1068 534 536
3 534 1068 1064
3 1064 532 534
3 532 1064 1060
3 1060 530 532
3 530 1060 1056
3 1056 528 530
3 528 1056 1051
3 1051 526 528
3 526 1051 1047
3 1047 524 526
3 524 1047 1043
3 1043 522 524
3 522 1043 1039
3 1039 520 522
3 520 1039 1035
3 1035 518 520
3 518 1035 1031
3 1031 516 518
3 516 1031 1027
3 1027 514 516
3 514 1027 1023
3 1023 512 514
3 512 1023 1019
3 1019 510 512
3 510 1019 1015
3 1015 508 510
3 508 1015 1011
3 1011 506 508
3 506 1011 1006
3 1006 504 506
3 504 1006 1002
3 1002 502 504
3 502 1002 998
3 998 500 502
3 500 998 994
3 994 498 500
3 498 994 990
3 990 496 498
3 496 990 986
3 986 494 496
3 494 986 982
3 982 492 494
3 492 982 978
3 978 490 492
3 490 978 974
3 974 488 490
3 488 974 970
3 970 486 488
3 486 970 966
3 966 484 486
3 484 966 962
3 962 482 484
3 482 962 958
3 958 480 482
3 480 958 954
3 954 478 480
3 478 954 950
3 950 476 478
3 476 950 945
3 945 474 476
3 474 945 941
3 941 472 474
3 472 941 937
3 937 470 472
3 470 937 933
3 933 468 470
3 468 933 929
3 929 466 468
3 466 929 925
3 925 464 466
3 464 925 921
3 921 462 464
3 462 921 917
3 917 460 462
3 460 917 913
3 913 458 460
3 458 913 909
3 909 456 458
3 456 909 904
3 904 454 456
3 454 904 900
3 900 452 454
3 452 900 896
3 896 450 452
3 450 896 892
3 892 448 450
3 448 892 888
3 888 446 448
3 446 888 884
3 884 444 446
3 444 884 880
3 880 442 444
3 442 880 876
3 876 440 442
3 440 876 872
3 872 438 440
3 438 872 868
3 868 436 438
3 436 868 864
3 864 434 436
3 434 864 860
3 860 432 434
3 432 860 856
3 856 430 432
3 430 856 852
3 852 428 430
3 428 852 848
3 848 426 428
3 426 848 843
3 843 424 426
3 424 843 839
3 839 422 424
3 422 839 835
3 835 420 422
3 420 835 831
3 831 418 420
3 418 831 827
3 827 416 418
3 416 827 823
3 823 414 416
3 414 823 819
3 819 412 414
3 412 819 815
3 815 410 412
3 410 815 811
3 811 408 410
3 408 811 807
3 807 406 408
3 406 807 803
3 803 404 406
3 404 803 798
3 798 402 404
3 402 798 794
3 794 400 402
3 400 794 790
3 790 398 400
3 398 790 786
3 786 396 398
3 396 786 782
3 782 394 396
3 394 782 778
3 778 392 394
3 392 778 774
3 774 390 392
3 390 774 770
3 770 388 390
3 388 770 766
3 766 386 388
3 386 766 762
3 762 384 386
3 384 762 758
3 758 382 384
3 382 758 754
3 754 380 382
3 380 754 750
3 750 378 380
3 378 750 746
3 746 376 378
3 376 746 742
3 742 374 376
3 374 742 737
3 737 372 374
3 372 737 733
3 733 370 372
3 370 733 729
3 729 368 370
3 368 729 725
3 725 366 368
3 366 725 721
3 721 364 366
3 364 721 717
3 717 362 364
3 362 717 713
3 713 360 362
3 360 713 709
3 709 358 360
3 358 709 705
3 705 356 358
3 356 705 701
3 701 354 356
3 354 701 696
3 696 352 354
3 352 696 692
3 692 350 352
3 350 692 688
3 688 348 350
3 348 688 684
3 684 346 348
3 346 684 680
3 680 344 346
3 344 680 676
3 676 342 344
3 342 676 672
3 672 340 342
3 340 672 668
3 668 338 340
3 338 668 664
3 664 336 338
3 336 664 660
3 660 334 336
3 334 660 656
3 656 332 334
3 332 656 652
3 652 330 332
3 330 652 648
3 648 328 330
3 328 648 644
3 644 326 328
3 326 644 640
3 640 324 326
3 324 640 635
3 635 322 324
3 322 635 631
3 631 320 322
3 320 631 627
3 627 318 320
3 318 627 623
3 623 1 318
3 1 623 621
3 624 623 627
3 627 628 624
3 4 624 628
3 628 6 4
3 6 628 632
3 632 8 6
3 8 632 636
3 636 9 8
3 9 636 637
3 637 11 9
3 11 637 641
3 641 13 11
3 13 641 645
3 645 15 13
3 15 645 649
3 649 17 15
3 17 649 653
3 653 19 17
3 19 653 657
3 657 21 19
3 21 657 661
3 661 23 21
3 23 661 665
3 665 25 23
3 25 665 669
3 669 27 25
3 27 669 673
3 673 29 27
3 29 673 677
3 677 31 29
3 31 677 681
3 681 33 31
3 33 681 685
3 685 35 33
3 35 685 689
3 689 37 35
3 37 689 693
3 693 39 37
3 39 693 697
3 697 42 39
3 42 697 702
3 702 44 42
3 44 702 706
3 706 46 44
3 46 706 710
3 710 48 46
3 48 710 714
3 714 50 48
3 50 714 718
3 718 52 50
3 52 718 722
3 722 54 52
3 54 722 726
3 726 56 54
3 56 726 730
3 730 58 56
3 58 730 734
3 734 60 58
3 60 734 738
3 738 62 60
3 62 738 741
3 741 63 62
3 63 741 743
3 743 65 63
3 65 743 747
3 747 67 65
3 67 747 751
3 751 69 67
3 69 751 755
3 755 71 69
3 71 755 759
3 759 73 71
3 73 759 763
3 763 75 73
3 75 763 767
3 767 77 75
3 77 767 771
3 771 79 77
3 79 771 775
3 775 81 79
3 81 775 779
3 779 83 81
3 83 779 783
3 783 85 83
3 85 783 787
3 787 87 85
3 87 787 791
3 791 89 87
3 89 791 795
3 795 91 89
3 91 795 799
3 799 94 91
3 94 799 804
3 804 96 94
3 96 804 808
3 808 98 96
3 98 808 812
3 812 100 98
3 100 812 816
3 816 102 100
3 102 816 820
3 820 104 102
3 104 820 824
3 824 106 104
3 106 824 828
3 828 108 106
3 108 828 832
3 832 110 108
3 110 832 836
3 836 112 110
3 112 836 840
3 840 114 112
3 114 840 844
3 844 115 114
3 115 844 845
3 845 117 115
3 117 845 849
3 849 119 117
3 119 849 853
3 853 121 119
3 121 853 857
3 857 123 121
3 123 857 861
3 861 125 123
3 125 861 865
3 865 127 125
3 127 865 869
3 869 129 127
3 129 869 873
3 873 131 129
3 131 873 877
3 877 133 131
3 133 877 881
3 881 135 133
3 135 881 885
3 885 137 135
3 137 885 889
3 889 139 137
3 139 889 893
3 893 141 139
3 141 893 897
3 897 143 141
3 143 897 901
3 901 145 143
3 145 901 905
3 905 148 145
3 148 905 910
3 910 150 148
3 150 910 914
3 914 152 150
3 152 914 918
3 918 154 152
3 154 918 922
3 922 156 154
3 156 922 926
3 926 158 156
3 158 926 930
3 930 160 158
3 160 930 934
3 934 162 160
3 162 934 938
3 938 164 162
3 164 938 942
3 942 166 164
3 166 942 946
3 946 167 166
3 167 946 947
3 947 169 167
3 169 947 951
3 951 171 169
3 171 951 955
3 955 173 171
3 173 955 959
3 959 175 173
3 175 959 963
3 963 177 175
3 177 963 967
3 967 179 177
3 179 967 971
3 971 181 179
3 181 971 975
3 975 183 181
3 183 975 979
3 979 185 183
3 185 979 983
3 983 187 185
3 187 983 987
3 987 189 187
3 189 987 991
3 991 191 189
3 191 991 995
3 995 193 191
3 193 995 999
3 999 195 193
3 195 999 1003
3 1003 197 195
3 197 1003 1007
3 1007 200 197
3 200 1007 1012
3 1012 202 200
3 202 1012 1016
3 1016 204 202
3 204 1016 1020
3 1020 206 204
3 206 1020 1024
3 1024 208 206
3 208 1024 1028
3 1028 210 208
3 210 1028 1032
3 1032 212 210
3 212 1032 1036
3 1036 214 212
3 214 1036 1040
3 1040 216 214
3 216 1040 1044
3 1044 218 216
3 218 1044 1048
3 1048 220 218
3 220 1048 1052
3 1052 222 220
3 222 1052 1053
3 1053 224 222
3 224 1053 1057
3 1057 226 224
3 226 1057 1061
3 1061 228 226
3 228 1061 1065
3 1065 230 228
3 230 1065 1069
3 1069 232 230
3 232 1069 1073
3 1073 234 232
3 234 1073 1077
3 1077 236 234
3 236 1077 1081
3 1081 238 236
3 238 1081 1085
3 1085 240 238
3 240 1085 1089
3 1089 242 240
3 242 1089 1093
3 1093 244 242
3 244 1093 1097
3 1097 246 244
3 246 1097 1101
3 1101 248 246
3 248 1101 1105
3 1105 250 248
3 250 1105 1109
3 1109 252 250
3 252 1109 1114
3 1114 254 252
3 254 1114 1118
3 1118 256 254
3 256 1118 1122
3 1122 258 256
3 258 1122 1126
3 1126 260 258
3 260 1126 1130
3 1130 262 260
3 262 1130 1134
3 1134 264 262
3 264 1134 1138
3 1138 266 264
3 266 1138 1142
3 1142 268 266
3 268 1142 1146
3 1146 270 268
3 270 1146 1150
3 1150 272 270
3 272 1150 1154
3 1154 274 272
3 274 1154 1158
3 1158 276 274
3 276 1158 1162
3 1162 278 276
3 278 1162 1166
3 1166 280 278
3 280 1166 1170
3 1170 282 280
3 282 1170 1174
3 1174 284 282
3 284 1174 1178
3 1178 286 284
3 286 1178 1182
3 1182 288 286
3 288 1182 1186
3 1186 290 288
3 290 1186 1190
3 1190 292 290
3 292 1190 1194
3 1194 294 292
3 294 1194 1198
3 1198 296 294
3 296 1198 1202
3 1202 298 296
3 298 1202 1206
3 1206 300 298
3 300 1206 1210
3 1210 302 300
3 302 1210 1214
3 1214 304 302
3 304 1214 1218
3 1218 306 304
3 306 1218 1222
3 1222 308 306
3 308 1222 1226
3 1226 310 308
3 310 1226 1230
3 1230 312 310
3 312 1230 1236
3 1236 314 312
3 314 1236 1238
3 1238 316 314
3 316 1238 1239
3 1239 315 316
3 315 1239 1237
3 1237 313 315
3 313 1237 1232
3 1232 311 313
3 311 1232 1228
3 1228 309 311
3 309 1228 1224
3 1224 307 309
3 307 1224 1220
3 1220 305 307
3 305 1220 1216
3 1216 303 305
3 303 1216 1212
3 1212 301 303
3 301 1212 1208
3 1208 299 301
3 299 1208 1204
3 1204 297 299
3 297 1204 1200
3 1200 295 297
3 295 1200 1196
3 1196 293 295
3 293 1196 1192
3 1192 291 293
3 291 1192 1188
3 1188 289 291
3 289 1188 1184
3 1184 287 289
3 287 1184 1180
3 1180 285 287
3 285 1180 1176
3 1176 283 285
3 283 1176 1172
3 1172 281 283
3 281 1172 1168
3 1168 279 281
3 279 1168 1164
3 1164 277 279
3 277 1164 1160
3 1160 275 277
3 275 1160 1156
3 1156 273 275
3 273 1156 1152
3 1152 271 273
3 271 1152 1148
3 1148 269 271
3 269 1148 1144
3 1144 267 269
3 267 1144 1140
3 1140 265 267
3 265 1140 1136
3 1136 263 265
3 263 1136 1132
3 1132 261 263
3 261 1132 1128
3 1128 259 261
3 259 1128 1124
3 1124 257 259
3 257 1124 1120
3 1120 255 257
3 255 1120 1116
3 1116 253 255
3 253 1116 1112
3 1112 251 253
3 251 1112 1111
3 1111 249 251
3 249 1111 1107
3 1107 247 249
3 247 1107 1103
3 1103 245 247
3 245 1103 1099
3 1099 243 245
3 243 1099 1095
3 1095 241 243
3 241 1095 1091
3 1091 239 241
3 239 1091 1087
3 1087 237 239
3 237 1087 1083
3 1083 235 237
3 235 1083 1079
3 1079 233 235
3 233 1079 1075
3 1075 231 233
3 231 1075 1071
3 1071 229 231
3 229 1071 1067
3 1067 227 229
3 227 1067 1063
3 1063 225 227
3 225 1063 1059
3 1059 223 225
3 223 1059 1055
3 1055 221 223
3 221 1055 1050
3 1050 219 221
3 219 1050 1046
3 1046 217 219
3 217 1046 1042
3 1042 215 217
3 215 1042 1038
3 1038 213 215
3 213 1038 1034
3 1034 211 213
3 211 1034 1030
3 1030 209 211
3 209 1030 1026
3 1026 207 209
3 207 1026 1022
3 1022 205 207
3 205 1022 1018
3 1018 203 205
3 203 1018 1014
3 1014 201 203
3 201 1014 1010
3 1010 199 201
3 199 1010 1009
3 1009 198 199
3 198 1009 1005
3 1005 196 198
3 196 1005 1001
3 1001 194 196
3 194 1001 997
3 997 192 194
3 192 997 993
3 993 190 192
3 190 993 989
3 989 188 190
3 188 989 985
3 985 186 188
3 186 985 981
3 981 184 186
3 184 981 977
3 977 182 184
3 182 977 973
3 973 180 182
3 180 973 969
3 969 178 180
3 178 969 965
3 965 176 178
3 176 965 961
3 961 174 176
3 174 961 957
3 957 172 174
3 172 957 953
3 953 170 172
3 170 953 949
3 949 168 170
3 168 949 944
3 944 165 168
3 165 944 940
3 940 163 165
3 163 940 936
3 936 161 163
3 161 936 932
3 932 159 161
3 159 932 928
3 928 157 159
3 157 928 924
3 924 155 157
3 155 924 920
3 920 153 155
3 153 920 916
3 916 151 153
3 151 916 912
3 912 149 151
3 149 912 908
3 908 147 149
3 147 908 907
3 907 146 147
3 146 907 903
3 903 144 146
3 144 903 899
3 899 142 144
3 142 899 895
3 895 140 142
3 140 895 891
3 891 138 140
3 138 891 887
3 887 136 138
3 136 887 883
3 883 134 136
3 134 883 879
3 879 132 134
3 132 879 875
3 875 130 132
3 130 875 871
3 871 128 130
3 128 871 867
3 867 126 128
3 126 867 863
3 863 124 126
3 124 863 859
3 859 122 124
3 122 859 855
3 855 120 122
3 120 855 851
3 851 118 120
3 118 851 847
3 847 116 118
3 116 847 842
3 842 113 116
3 113 842 838
3 838 111 113
3 111 838 834
3 834 109 111
3 109 834 830
3 830 107 109
3 107 830 826
3 826 105 107
3 105 826 822
3 822 103 105
3 103 822 818
3 818 101 103
3 101 818 814
3 814 99 101
3 99 814 810
3 810 97 99
3 97 810 806
3 806 95 97
3 95 806 802
3 802 93 95
3 93 802 801
3 801 92 93
3 92 801 797
3 797 90 92
3 90 797 793
3 793 88 90
3 88 793 789
3 789 86 88
3 86 789 785
3 785 84 86
3 84 785 781
3 781 82 84
3 82 781 777
3 777 80 82
3 80 777 773
3 773 78 80
3 78 773 769
3 769 76 78
3 76 769 765
3 765 74 76
3 74 765 761
3 761 72 74
3 72 761 757
3 757 70 72
3 70 757 753
3 753 68 70
3 68 753 749
3 749 66 68
3 66 749 745
3 745 64 66
3 64 745 740
3 740 61 64
3 61 740 736
3 736 59 61
3 59 736 732
3 732 57 59
3 57 732 728
3 728 55 57
3 55 728 724
3 724 53 55
3 53 724 720
3 720 51 53
3 51 720 716
3 716 49 51
3 49 716 712
3 712 47 49
3 47 712 708
3 708 45 47
3 45 708 704
3 704 43 45
3 43 704 700
3 700 41 43
3 41 700 699
3 699 40 41
3 40 699 695
3 695 38 40
3 38 695 691
3 691 36 38
3 36 691 687
3 687 34 36
3 34 687 683
3 683 32 34
3 32 683 679
3 679 30 32
3 30 679 675
3 675 28 30
3 28 675 671
3 671 26 28
3 26 671 667
3 667 24 26
3 24 667 663
3 663 22 24
3 22 663 659
3 659 20 22
3 20 659 655
3 655 18 20
3 18 655 651
3 651 16 18
3 16 651 647
3 647 14 16
3 14 647 643
3 643 12 14
3 12 643 639
3 639 10 12
3 10 639 634
3 634 7 10
3 7 634 630
3 630 5 7
3 5 630 626
3 626 3 5
3 3 626 622
3 629 626 630
3 633 630 634
3 638 634 639
3 642 639 643
3 646 643 647
3 650 647 651
3 654 651 655
3 658 655 659
3 662 659 663
3 666 663 667
3 670 667 671
3 674 671 675
3 678 675 679
3 682 679 683
3 686 683 687
3 690 687 691
3 694 691 695
3 698 695 699
3 700 703 699
3 700 704 703
3 707 704 708
3 711 708 712
3 715 712 716
3 719 716 720
3 723 720 724
3 727 724 728
3 731 728 732
3 735 732 736
3 739 736 740
3 744 740 745
3 748 745 749
3 752 749 753
3 756 753 757
3 760 757 761
3 764 761 765
3 768 765 769
3 772 769 773
3 776 773 777
3 780 777 781
3 784 781 785
3 788 785 789
3 792 789 793
3 796 793 797
3 800 797 801
3 802 805 801
3 802 806 805
3 809 806 810
3 813 810 814
3 817 814 818
3 821 818 822
3 825 822 826
3 829 826 830
3 833 830 834
3 837 834 838
3 841 838 842
3 846 842 847
3 850 847 851
3 854 851 855
3 858 855 859
3 862 859 863
3 866 863 867
3 870 867 871
3 874 871 875
3 878 875 879
3 882 879 883
3 886 883 887
3 890 887 891
3 894 891 895
3 898 895 899
3 902 899 903
3 906 903 907
3 908 911 907
3 908 912 911
3 915 912 916
3 919 916 920
3 923 920 924
3 927 924 928
3 931 928 932
3 935 932 936
3 939 936 940
3 943 940 944
3 948 944 949
3 952 949 953
3 956 953 957
3 960 957 961
3 964 961 965
3 968 965 969
3 972 969 973
3 976 973 977
3 980 977 981
3 984 981 985
3 988 985 989
3 992 989 993
3 996 993 997
3 1000 997 1001
3 1004 1001 1005
3 1008 1005 1009
3 1010 1013 1009
3 1010 1014 1013
3 1017 1014 1018
3 1021 1018 1022
3 1025 1022 1026
3 1029 1026 1030
3 1033 1030 1034
3 1037 1034 1038
3 1041 1038 1042
3 1045 1042 1046
3 1049 1046 1050
3 1054 1050 1055
3 1058 1055 1059
3 1062 1059 1063
3 1066 1063 1067
3 1070 1067 1071
3 1074 1071 1075
3 1078 1075 1079
3 1082 1079 1083
3 1086 1083 1087
3 1090 1087 1091
3 1094 1091 1095
3 1098 1095 1099
3 1102 1099 1103
3 1106 1103 1107
3 1110 1107 1111
3 1112 1115 1111
3 1112 1116 1115
3 1119 1116 1120
3 1123 1120 1124
3 1127 1124 1128
3 1131 1128 1132
3 1135 1132 1136
3 1139 1136 1140
3 1143 1140 1144
3 1147 1144 1148
3 1151 1148 1152
3 1155 1152 1156
3 1159 1156 1160
3 1163 1160 1164
3 1167 1164 1168
3 1171 1168 1172
3 1175 1172 1176
3 1179 1176 1180
3 1183 1180 1184
3 1187 1184 1188
3 1191 1188 1192
3 1195 1192 1196
3 1199 1196 1200
3 1203 1200 1204
3 1207 1204 1208
3 1211 1208 1212
3 1215 1212 1216
3 1220 1219 1216
3 1220 1224 1219
3 1223 1224 1228
3 1227 1228 1232
3 1231 1232 1237
3 1234 1237 1239
3 1235 1239 1238
3 1233 1238 1236
3 1229 1236 1230
3 1225 1230 1226
3 1221 1226 1222
3 1217 1222 1218
3 1213 1218 1214
3 1209 1214 1210
3 1205 1210 1206
3 1201 1206 1202
3 1197 1202 1198
3 1193 1198 1194
3 1189 1194 1190
3 1185 1190 1186
3 1181 1186 1182
3 1177 1182 1178
3 1173 1178 1174
3 1169 1174 1170
3 1165 1170 1166
3 1161 1166 1162
3 1158 1157 1162
3 1158 1154 1157
3 1153 1154 1150
3 1149 1150 1146
3 1145 1146 1142
3 1141 1142 1138
3 1137 1138 1134
3 1133 1134 1130
3 1129 1130 1126
3 1125 1126 1122
3 1121 1122 1118
3 1117 1118 1114
3 1113 1114 1109
3 1108 1109 1105
3 1104 1105 1101
3 1100 1101 1097
3 1096 1097 1093
3 1092 1093 1089
3 1088 1089 1085
3 1084 1085 1081
3 1080 1081 1077
3 1076 1077 1073
3 1072 1073 1069
3 1068 1069 1065
3 1064 1065 1061
3 1060 1061 1057
3 1053 1056 1057
3 1053 1052 1056
3 1051 1052 1048
3 1047 1048 1044
3 1043 1044 1040
3 1039 1040 1036
3 1035 1036 1032
3 1031 1032 1028
3 1027 1028 1024
3 1023 1024 1020
3 1019 1020 1016
3 1015 1016 1012
3 1011 1012 1007
3 1006 1007 1003
3 1002 1003 999
3 998 999 995
3 994 995 991
3 990 991 987
3 986 987 983
3 982 983 979
3 978 979 975
3 974 975 971
3 970 971 967
3 966 967 963
3 962 963 959
3 958 959 955
3 954 955 951
3 947 950 951
3 947 946 950
3 945 946 942
3 941 942 938
3 937 938 934
3 933 934 930
3 929 930 926
3 925 926 922
3 921 922 918
3 917 918 914
3 913 914 910
3 909 910 905
3 904 905 901
3 900 901 897
3 896 897 893
3 892 893 889
3 888 889 885
3 884 885 881
3 880 881 877
3 876 877 873
3 872 873 869
3 868 869 865
3 864 865 861
3 860 861 857
3 856 857 853
3 852 853 849
3 845 848 849
3 845 844 848
3 844 840 843
3 839 840 836
3 835 836 832
3 831 832 828
3 827 828 824
3 823 824 820
3 819 820 816
3 815 816 812
3 811 812 808
3 807 808 804
3 803 804 799
3 798 799 795
3 794 795 791
3 790 791 787
3 786 787 783
3 782 783 779
3 778 779 775
3 774 775 771
3 770 771 767
3 766 767 763
3 762 763 759
3 758 759 755
3 754 755 751
3 750 751 747
3 743 746 747
3 743 741 746
3 742 741 738
3 737 738 734
3 733 734 730
3 729 730 726
3 725 726 722
3 721 722 718
3 717 718 714
3 713 714 710
3 709 710 706
3 705 706 702
3 701 702 697
3 696 697 693
3 692 693 689
3 688 689 685
3 684 685 681
3 680 681 677
3 676 677 673
3 672 673 669
3 668 669 665
3 664 665 661
3 660 661 657
3 656 657 653
3 652 653 649
3 648 649 645
3 644 645 641
3 637 640 641
3 637 636 640
3 635 636 632
3 631 632 628
3 624 4 2
3 623 624 620
3 628 627 631
3 632 631 635
3 636 635 640
3 641 640 644
3 645 644 648
3 649 648 652
3 653 652 656
3 657 656 660
3 661 660 664
3 665 664 668
3 669 668 672
3 673 672 676
3 677 676 680
3 681 680 684
3 685 684 688
3 689 688 692
3 693 692 696
3 697 696 701
3 702 701 705
3 706 705 709
3 710 709 713
3 714 713 717
3 718 717 721
3 722 721 725
3 726 725 729
3 730 729 733
3 734 733 737
3 738 737 742
3 741 742 746
3 747 746 750
3 751 750 754
3 755 754 758
3 759 758 762
3 763 762 766
3 767 766 770
3 771 770 774
3 775 774 778
3 779 778 782
3 783 782 786
3 787 786 790
3 791 790 794
3 795 794 798
3 799 798 803
3 804 803 807
3 808 807 811
3 812 811 815
3 816 815 819
3 820 819 823
3 824 823 827
3 828 827 831
3 832 831 835
3 836 835 839
3 840 839 843
3 844 843 848
3 849 848 852
3 853 852 856
3 857 856 860
3 861 860 864
3 865 864 868
3 869 868 872
3 873 872 876
3 877 876 880
3 881 880 884
3 885 884 888
3 889 888 892
3 893 892 896
3 897 896 900
3 901 900 904
3 905 904 909
3 910 909 913
3 914 913 917
3 918 917 921
3 922 921 925
3 926 925 929
3 930 929 933
3 934 933 937
3 938 937 941
3 942 941 945
3 946 945 950
3 951 950 954
3 955 954 958
3 959 958 962
3 963 962 966
3 967 966 970
3 971 970 974
3 975 974 978
3 979 978 982
3 983 982 986
3 987 986 990
3 991 990 994
3 995 994 998
3 999 998 1002
3 1003 1002 1006
3 1007 1006 1011
3 1012 1011 1015
3 1016 1015 1019
3 1020 1019 1023
3 1024 1023 1027
3 1028 1027 1031
3 1032 1031 1035
3 1036 1035 1039
3 1040 1039 1043
3 1044 1043 1047
3 1048 1047 1051
3 1052 1051 1056
3 1057 1056 1060
3 1061 1060 1064
3 1065 1064 1068
3 1069 1068 1072
3 1073 1072 1076
3 1077 1076 1080
3 1081 1080 1084
3 1085 1084 1088
3 1089 1088 1092
3 1093 1092 1096
3 1097 1096 1100
3 1101 1100 1104
3 1105 1104 1108
3 1109 1108 1113
3 1114 1113 1117
3 1118 1117 1121
3 1122 1121 1125
3 1126 1125 1129
3 1130 1129 1133
3 1134 1133 1137
3 1138 1137 1141
3 1142 1141 1145
3 1146 1145 1149
3 1150 1149 1153
3 1154 1153 1157
3 1162 1157 1161
3 1166 1161 1165
3 1170 1165 1169
3 1174 1169 1173
3 1178 1173 1177
3 1182 1177 1181
3 1186 1181 1185
3 1190 1185 1189
3 1194 1189 1193
3 1198 1193 1197
3 1202 1197 1201
3 1206 1201 1205
3 1210 1205 1209
3 1214 1209 1213
3 1218 1213 1217
3 1222 1217 1221
3 1226 1221 1225
3 1230 1225 1229
3 1236 1229 1233
3 1238 1233 1235
3 1239 1235 1234
3 1237 1234 1231
3 1232 1231 1227
3 1228 1227 1223
3 1224 1223 1219
3 1216 1219 1215
3 1212 1215 1211
3 1208 1211 1207
3 1204 1207 1203
3 1200 1203 1199
3 1196 1199 1195
3 1192 1195 1191
3 1188 1191 1187
3 1184 1187 1183
3 1180 1183 1179
3 1176 1179 1175
3 1172 1175 1171
3 1168 1171 1167
3 1164 1167 1163
3 1160 1163 1159
3 1156 1159 1155
3 1152 1155 1151
3 1148 1151 1147
3 1144 1147 1143
3 1140 1143 1139
3 1136 1139 1135
3 1132 1135 1131
3 1128 1131 1127
3 1124 1127 1123
3 1120 1123 1119
3 1116 1119 1115
3 1111 1115 1110
3 1107 1110 1106
3 1103 1106 1102
3 1099 1102 1098
3 1095 1098 1094
3 1091 1094 1090
3 1087 1090 1086
3 1083 1086 1082
3 1079 1082 1078
3 1075 1078 1074
3 1071 1074 1070
3 1067 1070 1066
3 1063 1066 1062
3 1059 1062 1058
3 1055 1058 1054
3 1050 1054 1049
3 1046 1049 1045
3 1042 1045 1041
3 1038 1041 1037
3 1034 1037 1033
3 1030 1033 1029
3 1026 1029 1025
3 1022 1025 1021
3 1018 1021 1017
3 1014 1017 1013
3 1009 1013 1008
3 1005 1008 1004
3 1001 1004 1000
3 997 1000 996
3 993 996 992
3 989 992 988
3 985 988 984
3 981 984 980
3 977 980 976
3 973 976 972
3 969 972 968
3 965 968 964
3 961 964 960
3 957 960 956
3 953 956 952
3 949 952 948
3 944 948 943
3 940 943 939
3 936 939 935
3 932 935 931
3 928 931 927
3 924 927 923
3 920 923 919
3 916 919 915
3 912 915 911
3 907 911 906
3 903 906 902
3 899 902 898
3 895 898 894
3 891 894 890
3 887 890 886
3 883 886 882
3 879 882 878
3 875 878 874
3 871 874 870
3 867 870 866
3 863 866 862
3 859 862 858
3 855 858 854
3 851 854 850
3 847 850 846
3 842 846 841
3 838 841 837
3 834 837 833
3 830 833 829
3 826 829 825
3 822 825 821
3 818 821 817
3 814 817 813
3 810 813 809
3 806 809 805
3 801 805 800
3 797 800 796
3 793 796 792
3 789 792 788
3 785 788 784
3 781 784 780
3 777 780 776
3 773 776 772
3 769 772 768
3 765 768 764
3 761 764 760
3 757 760 756
3 753 756 752
3 749 752 748
3 745 748 744
3 740 744 739
3 736 739 735
3 732 735 731
3 728 731 727
3 724 727 723
3 720 723 719
3 716 719 715
3 712 715 711
3 708 711 707
3 704 707 703
3 699 703 698
3 695 698 694
3 691 694 690
3 687 690 686
3 683 686 682
3 679 682 678
3 675 678 674
3 671 674 670
3 667 670 666
3 663 666 662
3 659 662 658
3 655 658 654
3 651 654 650
3 647 650 646
3 643 646 642
3 639 642 638
3 634 638 633
3 630 633 629
3 626 629 625
3 621 317 1
3 625 622 626
3 620 621 623
3 622 0 3
3 2 620 624
CELL_TYPES 1860
9
9
9
9
9
9
9
9
9
9
9
9
9
9
9
9
9
9
9
9
9
9
9
9
9
9
9
9
9
9
9
9
9
9
9
9
9
9
9
9
9
9
9
9
9
9
9
9
9
9
9
9
9
9
9
9
9
9
9
9
9
9
9
9
9
9
9
9
9
9
9
9
9
9
9
9
9
9
9
9
9
9
9
9
9
9
9
9
9
9
9
9
9
9
9
9
9
9
9
9
9
9
9
9
9
9
9
9
9
9
9
9
9
9
9
9
9
9
9
9
9
9
9
9
9
9
9
9
9
9
9
9
9
9
9
9
9
9
9
9
9
9
9
9
9
9
9
9
9
9
9
9
9
9
9
9
9
9
9
9
9
9
9
9
9
9
9
9
9
9
9
9
9
9
9
9
9
9
9
9
9
9
9
9
9
9
9
9
9
9
9
9
9
9
9
9
9
9
9
9
9
9
9
9
9
9
9
9
9
9
9
9
9
9
9
9
9
9
9
9
9
9
9
9
9
9
9
9
9
9
9
9
9
9
9
9
9
9
9
9
9
9
9
9
9
9
9
9
9
9
9
9
9
9
9
9
9
9
9
9
9
9
9
9
9
9
9
9
9
9
9
9
9
9
9
9
9
9
9
9
9
9
9
9
9
9
9
9
9
9
9
9
9
9
9
9
9
9
9
9
9
9
9
9
9
9
9
9
9
9
9
9
9
9
9
9
9
9
9
9
9
9
9
9
9
9
9
9
9
9
9
9
9
9
9
9
9
9
9
9
9
9
9
9
9
9
9
9
9
9
9
9
9
9
9
9
9
9
9
9
9
9
9
9
9
9
9
9
9
9
9
9
9
9
9
9
9
9
9
9
9
9
9
9
9
9
9
9
9
9
9
9
9
9
9
9
9
9
9
9
9
9
9
9
9
9
9
9
9
9
9
9
9
9
9
9
9
9
9
9
9
9
9
9
9
9
9
9
9
9
9
9
9
9
9
9
9
9
9
9
9
9
9
9
9
9
9
9
9
9
9
9
9
9
9
9
9
9
9
9
9
9
9
9
9
9
9
9
9
9
9
9
9
9
9
9
9
9
9
9
9
9
9
9
9
9
9
9
9
9
9
9
9
9
9
9
9
9
9
9
9
9
9
9
9
9
9
9
9
9
9
9
9
9
9
9
9
9
9
9
9
9
9
9
9
9
9
9
9
9
9
9
9
9
9
9
9
9
9
9
9
9
9
9
9
9
9
9
9
9
9
9
9
9
9
9
9
9
9
9
9
9
9
9
9
9
9
9
9
9
9
9
9
9
9
9
9
9
9
9
9
9
9
9
9
9
9
9
9
9
9
9
9
9
9
9
9
9
9
9
9
9
9
9
9
9
9
9
9
9
9
9
9
9
9
9
9
9
9
9
9
9
9
9
9
9
9
9
9
9
9
9
9
9
9
9
9
9
9
9
9
9
9
9
9
9
9
9
9
9
9
9
9
9
9
9
9
9
9
9
9
9
9
9
9
9
9
9
9
9
9
9
9
9
9
9
9
9
9
9
9
9
9
9
9
9
9
9
9
9
9
9
9
9
9
9
9
9
9
9
9
9
9
9
9
9
9
9
9
9
9
9
9
9
9
9
9
9
9
9
9
9
9
9
9
9
9
9
9
9
9
9
9
9
9
9
9
9
9
9
9
9
9
9
9
9
9
9
9
9
9
9
9
9
9
9
9
9
9
9
9
9
9
9
9
9
9
9
9
9
9
9
9
9
9
9
9
9
9
9
9
9
9
9
9
9
9
9
9
9
9
9
9
9
9
9
9
9
9
9
9
9
9
9
9
9
9
9
9
9
9
9
9
9
9
9
9
9
9
9
9
9
9
9
9
9
9
9
9
9
9
9
9
9
9
9
9
9
9
9
9
9
9
9
9
9
9
9
9
9
9
9
9
9
9
9
9
9
9
9
9
9
9
9
9
9
9
9
9
9
9
9
9
9
9
9
9
9
9
9
9
9
9
9
9
9
9
9
9
9
9
9
9
9
9
9
9
9
9
9
9
9
9
9
9
9
9
9
9
9
9
9
9
9
9
9
9
9
9
9
9
9
9
9
9
9
9
9
9
9
9
9
9
9
9
9
9
9
9
9
9
9
9
9
9
9
9
9
9
9
9
9
9
9
9
9
9
9
9
9
9
9
9
9
9
9
9
9
9
9
9
9
9
9
9
9
9
9
9
9
9
9
9
9
9
9
9
9
9
9
9
9
9
9
9
9
9
9
9
9
9
9
9
9
9
9
9
9
9
9
9
9
9
9
9
9
9
9
9
9
9
9
9
9
9
9
9
9
9
9
9
9
9
9
9
9
9
9
9
9
9
9
9
9
9
9
9
9
9
9
9
9
9
9
9
9
9
9
9
9
9
9
9
9
9
9
9
9
9
9
9
9
9
9
9
9
9
9
9
9
9
9
9
9
9
9
9
9
9
9
9
9
9
9
9
9
9
9
9
9
9
9
9
9
9
9
9
9
9
9
9
9
9
9
9
9
9
9
9
9
9
9
9
9
9
9
9
9
9
9
9
9
9
9
9
9
9
9
9
9
9
9
9
9
9
9
9
9
9
9
9
9
9
9
9
9
9
9
9
9
9
9
9
9
9
9
9
9
9
9
9
9
9
9
9
9
9
9
9
9
9
9
9
9
9
9
9
9
9
9
9
9
9
9
9
9
9
9
9
9
9
9
9
9
9
9
9
9
9
9
9
9
9
9
9
9
9
9
9
9
9
9
9
9
9
9
9
9
9
9
9
9
9
9
9
9
9
9
9
9
9
9
9
9
9
9
9
9
9
9
9
9
9
9
9
9
9
9
9
9
9
9
9
9
9
9
9
9
9
9
9
9
9
9
9
9
9
9
9
9
9
9
9
9
9
9
9
9
9
9
9
9
9
9
9
9
9
9
9
9
9
9
9
9
9
9
9
9
9
9
9
9
9
9
9
9
9
9
9
9
9
9
9
9
9
9
9
9
9
9
9
9
9
9
9
9
9
9
9
9
9
9
9
9
9
9
9
9
9
9
9
9
9
9
9
9
9
9
9
9
9
9
9
9
9
9
9
9
9
9
9
9
9
9
9
9
9
9
9
9
9
9
9
9
9
9
9
9
9
9
9
9
9
9
9
9
9
9
9
9
9
9
9
9
9
9
9
9
9
9
9
9
9
9
9
9
9
9
9
9
9
9
9
9
9
9
9
9
9
9
9
9
9
9
9
9
9
9
9
9
9
9
9
9
9
9
9
9
9
9
9
9
9
9
9
9
9
9
9
9
9
9
9
9
9
9
9
9
9
9
9
9
9
9
9
9
9
9
9
9
9
9
9
9
9
9
9
9
9
9
9
9
9
9
9
9
9
9
9
9
9
9
9
9
9
9
9
9
9
9
9
9
9
9
9
9
9
9
9
9
9
9
9
9
9
9
9
9
9
9
9
9
9
9
9
9
9
9
9
9
9
9
9
9
9
9
9
9
9
9
9
9
9
9
9
9
9
9
9
9
9
9
9
9
9
9
9
9
9
9
9
9
9
9
9
9
9
9
9
9
9
9
9
9
9
9
9
9
9
9
9
9
9
9
9
9
9
9
9
9
9
9
9
9
9
9
9
9
9
9
9
9
9
9
9
9
9
9
9
9
9
9
9
9
9
9
9
9
9
9
9
9
9
9
9
9
9
9
9
9
9
9
9
9
9
9
9
9
9
9
9
9
9
9
9
9
9
9
9
9
9
9
9
9
9
9
9
9
9
9
9
9
9
9
9
9
9
9
9
9
9
9
9
9
9
9
9
9
9
9
9
9
9
9
9
9
9
9
9
9
9
9
9
9
9
9
9
9
9
9
9
9
9
9
9
9
9
9
9
9
9
9
9
9
9
9
9
9
9
9
9
9
9
9
9
9
9
9
9
9
9
9
9
9
9
9
9
9
9
9
9
9
9
9
9
9
9
9
9
9
9
9
9
9
9
9
9
9
9
9
9
9
9
9
9
9
9
9
9
9
9
9
9
9
9
9
9
9
9
9
9
9
9
9
9
9
9
9
9
9
9
9
9
9
9
9
9
9
9
9
9
9
9
9
9
9
9
9
9
9
9
9
9
9
9
9
9
9
9
9
9
9
9
9
9
9
9
9
9
9
9
9
9
9
9
9
9
9
9
9
9
9
9
9
9
9
9
9
9
9
POINT_DATA 1240
SCALARS u1 float
LOOKUP_TABLE default
-7e-05
-6e-05
-7e-05
-8e-05
-6e-05
-8e-05
-6e-05
-9e-05
-6e-05
-6e-05
-9e-05
-6e-05
-0.0001
-6e-05
-0.0001
-6e-05
-0.0001
-6e-05
-0.0001
-7e-05
-9e-05
-7e-05
-9e-05
-8e-05
-8e-05
-8e-05
-8e-05
-9e-05
-7e-05
-0.0001
-6e-05
-0.0001
-6e-05
-0.0001
-5e-05
-0.0001
-4e-05
-0.0001
-4e-05
-0.0002
-3e-05
-3e-05
-0.0002
-3e-05
-0.0002
-3e-05
-0.0002
-3e-05
-0.0002
-3e-05
-0.0002
-3e-05
-0.0002
-3e-05
-0.0002
-3e-05
-0.0003
-3e-05
-0.0003
-3e-05
-0.0003
-3e-05
-0.0003
-0.0003
-3e-05
-0.0003
-3e-05
-0.0003
-3e-05
-0.0002
-4e-05
-0.0002
-4e-05
-0.0002
-4e-05
-0.0002
-4e-05
-0.0002
-4e-05
-0.0002
-4e-05
-0.0002
-4e-05
-0.0002
-4e-05
-0.0001
-4e-05
-0.0001
-4e-05
-0.0001
-3e-05
-0.0001
-3e-05
-3e-05
-0.0001
-2e-05
-0.0001
-2e-05
-9e-05
-2e-05
-9e-05
-1e-05
-8e-05
-9e-06
-8e-05
-6e-06
-7e-05
-3e-06
-7e-05
-7e-07
-7e-05
1e-06
-7e-05
2e-06
-7e-05
-7e-05
3e-06
-7e-05
2e-06
-7e-05
1e-06
-8e-05
-4e-07
-8e-05
-3e-06
-9e-05
-5e-06
-0.0001
-8e-06
-0.0001
-1e-05
-0.0001
-1e-05
-0.0001
-1e-05
-0.0001
-1e-05
-0.0001
-2e-05
-0.0001
-2e-05
-0.0001
-2e-05
-0.0001
-2e-05
-0.0001
-2e-05
-2e-05
-9e-05
-2e-05
-9e-05
-1e-05
-8e-05
-1e-05
-7e-05
-1e-05
-7e-05
-6e-06
-6e-05
-1e-06
-6e-05
5e-06
-5e-05
1e-05
-5e-05
2e-05
-5e-05
-5e-05
3e-05
-5e-05
3e-05
-5e-05
4e-05
-5e-05
4e-05
-5e-05
5e-05
-5e-05
5e-05
-5e-05
5e-05
-5e-05
5e-05
-5e-05
5e-05
-5e-05
5e-05
-5e-05
4e-05
-5e-05
3e-05
-6e-05
3e-05
-6e-05
2e-05
-6e-05
2e-05
-6e-05
1e-05
8e-06
-6e-05
6e-06
-6e-05
5e-06
-6e-05
5e-06
-6e-05
7e-06
-6e-05
9e-06
-6e-05
1e-05
-6e-05
1e-05
-5e-05
2e-05
-5e-05
2e-05
-5e-05
3e-05
-4e-05
3e-05
-4e-05
4e-05
-3e-05
5e-05
-3e-05
6e-05
-3e-05
7e-05
-3e-05
9e-05
-2e-05
0.0001
-2e-05
0.0001
-2e-05
0.0001
-2e-05
0.0001
-2e-05
0.0002
-2e-05
0.0002
-2e-05
0.0002
-2e-05
0.0002
-3e-05
0.0002
-3e-05
0.0002
-3e-05
0.0002
-3e-05
0.0002
-3e-05
0.0002
-4e-05
0.0002
-4e-05
0.0002
-4e-05
0.0002
-4e-05
0.0002
-4e-05
0.0002
-4e-05
0.0002
-4e-05
0.0001
-3e-05
0.0001
-3e-05
0.0001
-3e-05
0.0001
-3e-05
8e-05
-2e-05
7e-05
-2e-05
6e-05
-1e-05
4e-05
-7e-06
4e-05
5e-07
3e-05
8e-06
2e-05
2e-05
1e-05
2e-05
1e-05
3e-05
6e-06
3e-05
2e-06
3e-05
-1e-06
4e-05
-4e-06
4e-05
-5e-06
3e-05
-6e-06
3e-05
-5e-06
3e-05
-3e-06
2e-05
-3e-07
2e-05
4e-06
9e-06
-7e-05
-6e-05
-7e-05
-6e-05
-8e-05
-6e-05
-8e-05
-6e-05
-9e-05
-6e-05
-9e-05
-6e-05
-9e-05
-7e-05
-0.0001
-7e-05
-0.0001
-7e-05
-0.0001
-8e-05
-9e-05
-8e-05
-9e-05
-9e-05
-8e-05
-0.0001
-8e-05
-0.0001
-7e-05
-0.0001
-6e-05
-0.0001
-6e-05
-0.0001
-5e-05
-0.0002
-4e-05
-0.0002
-4e-05
-0.0002
-3e-05
-0.0002
-3e-05
-0.0002
-3e-05
-0.0002
-2e-05
-0.0002
-2e-05
-0.0002
-2e-05
-0.0003
-2e-05
-0.0003
-2e-05
-0.0003
-2e-05
-0.0003
-2e-05
-0.0003
-2e-05
-0.0003
-2e-05
-0.0003
-1e-05
-0.0002
-1e-05
-0.0002
-2e-05
-0.0002
-2e-05
-0.0002
-2e-05
-0.0002
-2e-05
-0.0002
-2e-05
-0.0002
-2e-05
-0.0002
-2e-05
-0.0002
-2e-05
-0.0001
-2e-05
-0.0001
-2e-05
-0.0001
-2e-05
-0.0001
-2e-05
-0.0001
-2e-05
-9e-05
-2e-05
-9e-05
-2e-05
-8e-05
-2e-05
-8e-05
-2e-05
-8e-05
-2e-05
-7e-05
-2e-05
-7e-05
-2e-05
-7e-05
-2e-05
-7e-05
-2e-05
-7e-05
-2e-05
-7e-05
-3e-05
-7e-05
-3e-05
-8e-05
-3e-05
-8e-05
-3e-05
-9e-05
-3e-05
-0.0001
-3e-05
-0.0001
-3e-05
-0.0001
-2e-05
-0.0001
-2e-05
-0.0001
-2e-05
-0.0001
-2e-05
-0.0001
-2e-05
-0.0001
-2e-05
-0.0001
-2e-05
-0.0001
-1e-05
-0.0001
-1e-05
-9e-05
-6e-06
-8e-05
-3e-07
-7e-05
6e-06
-7e-05
1e-05
-6e-05
2e-05
-6e-05
3e-05
-5e-05
3e-05
-5e-05
4e-05
-5e-05
4e-05
-4e-05
5e-05
-4e-05
5e-05
-4e-05
5e-05
-4e-05
5e-05
-4e-05
5e-05
-4e-05
4e-05
-4e-05
4e-05
-4e-05
3e-05
-4e-05
3e-05
-4e-05
2e-05
-4e-05
2e-05
-4e-05
1e-05
-4e-05
8e-06
-4e-05
6e-06
-4e-05
5e-06
-4e-05
6e-06
-4e-05
7e-06
-4e-05
1e-05
-4e-05
1e-05
-4e-05
2e-05
-4e-05
2e-05
-4e-05
2e-05
-4e-05
3e-05
-4e-05
4e-05
-4e-05
4e-05
-4e-05
5e-05
-4e-05
6e-05
-4e-05
8e-05
-4e-05
9e-05
-4e-05
0.0001
-4e-05
0.0001
-4e-05
0.0001
-4e-05
0.0001
-5e-05
0.0002
-5e-05
0.0002
-5e-05
0.0002
-5e-05
0.0002
-5e-05
0.0002
-5e-05
0.0002
-5e-05
0.0002
-5e-05
0.0002
-4e-05
0.0002
-4e-05
0.0002
-4e-05
0.0002
-4e-05
0.0002
-4e-05
0.0002
-4e-05
0.0002
-4e-05
0.0002
-3e-05
0.0001
-3e-05
0.0001
-2e-05
0.0001
-2e-05
0.0001
-1e-05
8e-05
-5e-06
7e-05
2e-06
6e-05
9e-06
5e-05
2e-05
4e-05
2e-05
3e-05
3e-05
2e-05
3e-05
2e-05
3e-05
1e-05
4e-05
7e-06
3e-05
3e-06
3e-05
-2e-07
3e-05
-3e-06
3e-05
-5e-06
2e-05
-6e-06
1e-05
-5e-06
8e-06
-4e-06
-7e-07
3e-06
-7e-05
-7e-05
-7e-05
-6e-05
-6e-05
-7e-05
-8e-05
-6e-05
-6e-05
-8e-05
-8e-05
-6e-05
-6e-05
-8e-05
-9e-05
-6e-05
-6e-05
-6e-05
-9e-05
-9e-05
-6e-05
-6e-05
-9e-05
-0.0001
-6e-05
-6e-05
-9e-05
-0.0001
-6e-05
-6e-05
-0.0001
-0.0001
-7e-05
-7e-05
-0.0001
-0.0001
-7e-05
-7e-05
-0.0001
-9e-05
-7e-05
-8e-05
-9e-05
-9e-05
-8e-05
-8e-05
-9e-05
-8e-05
-9e-05
-9e-05
-8e-05
-8e-05
-9e-05
-9e-05
-8e-05
-7e-05
-0.0001
-0.0001
-7e-05
-6e-05
-0.0001
-0.0001
-6e-05
-6e-05
-0.0001
-0.0001
-6e-05
-5e-05
-0.0001
-0.0001
-5e-05
-4e-05
-0.0001
-0.0002
-4e-05
-4e-05
-0.0002
-0.0002
-4e-05
-3e-05
-3e-05
-0.0002
-0.0002
-3e-05
-3e-05
-0.0002
-0.0002
-3e-05
-3e-05
-0.0002
-0.0002
-3e-05
-3e-05
-0.0002
-0.0002
-3e-05
-3e-05
-0.0002
-0.0002
-2e-05
-2e-05
-0.0002
-0.0002
-2e-05
-2e-05
-0.0002
-0.0002
-2e-05
-2e-05
-0.0003
-0.0003
-2e-05
-2e-05
-0.0003
-0.0003
-2e-05
-2e-05
-0.0003
-0.0003
-2e-05
-2e-05
-0.0003
-0.0003
-0.0003
-2e-05
-2e-05
-0.0003
-0.0003
-2e-05
-3e-05
-0.0003
-0.0003
-2e-05
-3e-05
-0.0003
-0.0002
-2e-05
-3e-05
-0.0002
-0.0002
-2e-05
-3e-05
-0.0002
-0.0002
-2e-05
-3e-05
-0.0002
-0.0002
-2e-05
-3e-05
-0.0002
-0.0002
-3e-05
-3e-05
-0.0002
-0.0002
-3e-05
-3e-05
-0.0002
-0.0002
-3e-05
-3e-05
-0.0002
-0.0002
-3e-05
-3e-05
-0.0002
-0.0001
-3e-05
-3e-05
-0.0001
-0.0001
-3e-05
-3e-05
-0.0001
-0.0001
-2e-05
-3e-05
-0.0001
-0.0001
-2e-05
-3e-05
-2e-05
-0.0001
-0.0001
-2e-05
-2e-05
-0.0001
-9e-05
-2e-05
-2e-05
-9e-05
-9e-05
-2e-05
-2e-05
-9e-05
-8e-05
-2e-05
-1e-05
-8e-05
-8e-05
-2e-05
-1e-05
-8e-05
-8e-05
-2e-05
-1e-05
-8e-05
-7e-05
-1e-05
-8e-06
-7e-05
-7e-05
-1e-05
-7e-06
-7e-05
-7e-05
-1e-05
-6e-06
-7e-05
-7e-05
-1e-05
-6e-06
-7e-05
-7e-05
-7e-05
-1e-05
-6e-06
-7e-05
-7e-05
-2e-05
-7e-06
-7e-05
-7e-05
-2e-05
-8e-06
-7e-05
-8e-05
-2e-05
-1e-05
-8e-05
-8e-05
-2e-05
-1e-05
-8e-05
-9e-05
-2e-05
-1e-05
-9e-05
-0.0001
-2e-05
-1e-05
-0.0001
-0.0001
-2e-05
-2e-05
-0.0001
-0.0001
-2e-05
-2e-05
-0.0001
-0.0001
-2e-05
-2e-05
-0.0001
-0.0001
-2e-05
-2e-05
-0.0001
-0.0001
-2e-05
-2e-05
-0.0001
-0.0001
-2e-05
-2e-05
-0.0001
-0.0001
-2e-05
-2e-05
-0.0001
-0.0001
-2e-05
-2e-05
-0.0001
-0.0001
-2e-05
-2e-05
-2e-05
-0.0001
-9e-05
-2e-05
-1e-05
-9e-05
-9e-05
-1e-05
-1e-05
-9e-05
-8e-05
-9e-06
-9e-06
-8e-05
-7e-05
-5e-06
-5e-06
-7e-05
-7e-05
-3e-07
-5e-07
-7e-05
-6e-05
6e-06
5e-06
-6e-05
-6e-05
1e-05
1e-05
-6e-05
-5e-05
2e-05
2e-05
-5e-05
-5e-05
3e-05
3e-05
-5e-05
-5e-05
-5e-05
3e-05
3e-05
-5e-05
-5e-05
4e-05
4e-05
-5e-05
-5e-05
4e-05
4e-05
-4e-05
-4e-05
5e-05
5e-05
-4e-05
-4e-05
5e-05
5e-05
-4e-05
-4e-05
5e-05
5e-05
-4e-05
-4e-05
5e-05
5e-05
-4e-05
-4e-05
5e-05
5e-05
-4e-05
-4e-05
4e-05
4e-05
-4e-05
-5e-05
4e-05
4e-05
-4e-05
-5e-05
3e-05
3e-05
-4e-05
-5e-05
3e-05
3e-05
-4e-05
-5e-05
2e-05
2e-05
-4e-05
-5e-05
2e-05
2e-05
-4e-05
-5e-05
1e-05
1e-05
-5e-05
-6e-05
8e-06
8e-06
7e-06
-5e-05
-6e-05
6e-06
5e-06
-5e-05
-6e-05
5e-06
5e-06
-5e-05
-6e-05
6e-06
6e-06
-5e-05
-6e-05
8e-06
8e-06
-5e-05
-5e-05
1e-05
1e-05
-5e-05
-5e-05
1e-05
1e-05
-5e-05
-5e-05
2e-05
2e-05
-5e-05
-5e-05
2e-05
2e-05
-4e-05
-5e-05
3e-05
3e-05
-4e-05
-4e-05
3e-05
3e-05
-4e-05
-4e-05
-4e-05
4e-05
4e-05
-4e-05
-4e-05
5e-05
5e-05
-4e-05
-3e-05
6e-05
6e-05
-4e-05
-3e-05
7e-05
7e-05
-4e-05
-3e-05
8e-05
8e-05
-4e-05
-3e-05
9e-05
0.0001
-4e-05
-3e-05
0.0001
0.0001
-4e-05
-3e-05
0.0001
0.0001
-4e-05
-3e-05
0.0001
0.0001
-4e-05
-3e-05
0.0001
0.0002
-4e-05
-3e-05
0.0002
0.0002
-4e-05
-3e-05
0.0002
0.0002
-4e-05
-3e-05
0.0002
0.0002
-4e-05
-3e-05
0.0002
0.0002
-4e-05
-4e-05
0.0002
0.0002
0.0002
-4e-05
-4e-05
0.0002
0.0002
-4e-05
-4e-05
0.0002
0.0002
-4e-05
-4e-05
0.0002
0.0002
-4e-05
-4e-05
0.0002
0.0002
-4e-05
-4e-05
0.0002
0.0002
-4e-05
-4e-05
0.0002
0.0002
-4e-05
-4e-05
0.0002
0.0002
-4e-05
-4e-05
0.0002
0.0002
-4e-05
-4e-05
0.0002
0.0001
-3e-05
-3e-05
0.0001
0.0001
-3e-05
-3e-05
0.0001
0.0001
-3e-05
-3e-05
0.0001
0.0001
-2e-05
-3e-05
0.0001
9e-05
-2e-05
-2e-05
9e-05
8e-05
-1e-05
-2e-05
7e-05
6e-05
-6e-06
-1e-05
6e-05
5e-05
1e-06
-6e-06
5e-05
4e-05
9e-06
1e-06
4e-05
3e-05
2e-05
8e-06
3e-05
3e-05
2e-05
2e-05
2e-05
2e-05
3e-05
2e-05
2e-05
1e-05
3e-05
3e-05
1e-05
9e-06
3e-05
3e-05
8e-06
5e-06
4e-05
3e-05
4e-06
1e-06
3e-05
4e-05
4e-07
-2e-06
3e-05
4e-05
-3e-06
-4e-06
3e-05
3e-05
-5e-06
-6e-06
3e-05
3e-05
-6e-06
-6e-06
2e-05
3e-05
-6e-06
-6e-06
1e-05
2e-05
-4e-06
-4e-06
9e-06
-6e-07
4e-06
1e-05
-5e-07
9e-06
4e-06
SCALARS u2 float
LOOKUP_TABLE default
-2e-05
-2e-05
-1e-05
-2e-05
-8e-06
-3e-05
-6e-06
-4e-05
-4e-06
-3e-06
-4e-05
-2e-06
-5e-05
-2e-06
-6e-05
-2e-06
-6e-05
-2e-06
-7e-05
-2e-06
-7e-05
-2e-06
-7e-05
-3e-06
-7e-05
-4e-06
-7e-05
-6e-06
-6e-05
-8e-06
-6e-05
-1e-05
-5e-05
-1e-05
-5e-05
-2e-05
-4e-05
-2e-05
-3e-05
-2e-05
-3e-05
-3e-05
-2e-05
-2e-05
-2e-05
-2e-05
-2e-05
-2e-05
-2e-05
-2e-05
-2e-05
-3e-05
-1e-05
-3e-05
-1e-05
-3e-05
-9e-06
-4e-05
-6e-06
-4e-05
-2e-06
-5e-05
2e-06
6e-06
-5e-05
9e-06
-6e-05
1e-05
-7e-05
2e-05
-8e-05
2e-05
-9e-05
2e-05
-0.0001
2e-05
-0.0001
2e-05
-0.0001
2e-05
-0.0001
2e-05
-0.0002
2e-05
-0.0002
2e-05
-0.0002
2e-05
-0.0002
2e-05
-0.0002
1e-05
-0.0002
-0.0002
1e-05
-0.0002
1e-05
-0.0002
9e-06
-0.0002
8e-06
-0.0002
8e-06
-0.0002
7e-06
-0.0002
7e-06
-0.0002
8e-06
-0.0002
8e-06
-0.0002
8e-06
-0.0002
9e-06
1e-05
-0.0001
1e-05
-0.0001
2e-05
-0.0001
2e-05
-0.0001
2e-05
-9e-05
3e-05
-7e-05
4e-05
-6e-05
4e-05
-5e-05
5e-05
-5e-05
6e-05
-4e-05
7e-05
-3e-05
7e-05
-3e-05
8e-05
-2e-05
8e-05
-2e-05
8e-05
-2e-05
8e-05
-1e-05
-1e-05
8e-05
-1e-05
7e-05
-1e-05
7e-05
-1e-05
6e-05
-2e-05
6e-05
-2e-05
5e-05
-3e-05
5e-05
-3e-05
4e-05
-4e-05
4e-05
-4e-05
4e-05
4e-05
-5e-05
4e-05
-5e-05
4e-05
-5e-05
4e-05
-5e-05
5e-05
-5e-05
5e-05
-5e-05
5e-05
-5e-05
6e-05
-4e-05
6e-05
-3e-05
7e-05
-3e-05
8e-05
-2e-05
9e-05
-1e-05
0.0001
-5e-06
0.0001
1e-06
0.0001
6e-06
0.0001
1e-05
1e-05
0.0002
2e-05
0.0002
2e-05
0.0002
2e-05
0.0002
2e-05
0.0002
2e-05
0.0002
2e-05
0.0002
2e-05
0.0002
2e-05
0.0002
2e-05
0.0002
2e-05
0.0002
2e-05
0.0002
1e-05
0.0002
1e-05
0.0002
9e-06
0.0002
6e-06
0.0002
4e-06
0.0002
2e-06
0.0002
1e-06
0.0002
1e-06
0.0002
2e-06
0.0002
3e-06
0.0001
5e-06
0.0001
7e-06
0.0001
1e-05
0.0001
1e-05
0.0001
2e-05
9e-05
2e-05
8e-05
2e-05
7e-05
3e-05
7e-05
3e-05
6e-05
4e-05
6e-05
4e-05
6e-05
4e-05
5e-05
4e-05
5e-05
5e-05
5e-05
5e-05
5e-05
5e-05
5e-05
5e-05
5e-05
5e-05
6e-05
4e-05
6e-05
4e-05
7e-05
4e-05
7e-05
4e-05
8e-05
3e-05
8e-05
3e-05
9e-05
3e-05
9e-05
3e-05
9e-05
3e-05
0.0001
3e-05
9e-05
3e-05
9e-05
3e-05
9e-05
3e-05
8e-05
3e-05
8e-05
3e-05
7e-05
3e-05
6e-05
3e-05
5e-05
3e-05
5e-05
4e-05
4e-05
-3e-05
-2e-05
-4e-05
-1e-05
-4e-05
-8e-06
-5e-05
-4e-06
-6e-05
-2e-06
-6e-05
3e-07
-7e-05
2e-06
-7e-05
3e-06
-7e-05
4e-06
-7e-05
5e-06
-7e-05
6e-06
-6e-05
7e-06
-6e-05
8e-06
-5e-05
8e-06
-5e-05
8e-06
-4e-05
8e-06
-3e-05
8e-06
-3e-05
7e-06
-3e-05
6e-06
-2e-05
5e-06
-2e-05
4e-06
-2e-05
3e-06
-3e-05
2e-06
-3e-05
2e-06
-3e-05
2e-06
-3e-05
2e-06
-4e-05
2e-06
-4e-05
2e-06
-5e-05
2e-06
-5e-05
2e-06
-6e-05
3e-06
-7e-05
3e-06
-8e-05
3e-06
-9e-05
3e-06
-0.0001
2e-06
-0.0001
1e-06
-0.0001
3e-07
-0.0001
-6e-07
-0.0002
-2e-06
-0.0002
-2e-06
-0.0002
-3e-06
-0.0002
-3e-06
-0.0002
-3e-06
-0.0002
-3e-06
-0.0002
-2e-06
-0.0002
-1e-06
-0.0002
-2e-07
-0.0002
9e-07
-0.0002
2e-06
-0.0002
3e-06
-0.0002
5e-06
-0.0002
7e-06
-0.0002
9e-06
-0.0002
1e-05
-0.0002
2e-05
-0.0001
2e-05
-0.0001
3e-05
-0.0001
3e-05
-0.0001
4e-05
-9e-05
5e-05
-8e-05
5e-05
-6e-05
6e-05
-5e-05
7e-05
-5e-05
7e-05
-4e-05
8e-05
-3e-05
8e-05
-3e-05
8e-05
-3e-05
8e-05
-2e-05
8e-05
-2e-05
7e-05
-2e-05
7e-05
-1e-05
6e-05
-1e-05
6e-05
-1e-05
5e-05
-1e-05
5e-05
-2e-05
4e-05
-2e-05
4e-05
-3e-05
4e-05
-3e-05
4e-05
-4e-05
4e-05
-4e-05
4e-05
-5e-05
4e-05
-5e-05
5e-05
-5e-05
5e-05
-5e-05
5e-05
-5e-05
6e-05
-5e-05
7e-05
-5e-05
7e-05
-4e-05
8e-05
-3e-05
9e-05
-3e-05
0.0001
-2e-05
0.0001
-1e-05
0.0001
-6e-06
0.0001
3e-07
0.0002
6e-06
0.0002
1e-05
0.0002
1e-05
0.0002
2e-05
0.0002
2e-05
0.0002
2e-05
0.0002
2e-05
0.0002
2e-05
0.0002
3e-05
0.0002
3e-05
0.0002
3e-05
0.0002
3e-05
0.0002
3e-05
0.0002
3e-05
0.0002
3e-05
0.0002
3e-05
0.0002
3e-05
0.0002
3e-05
0.0002
3e-05
0.0002
3e-05
0.0002
2e-05
0.0001
2e-05
0.0001
2e-05
0.0001
2e-05
0.0001
2e-05
0.0001
2e-05
9e-05
2e-05
8e-05
2e-05
7e-05
2e-05
7e-05
2e-05
6e-05
2e-05
6e-05
2e-05
6e-05
2e-05
5e-05
2e-05
5e-05
2e-05
5e-05
2e-05
5e-05
2e-05
5e-05
2e-05
5e-05
2e-05
6e-05
2e-05
6e-05
2e-05
7e-05
2e-05
7e-05
2e-05
8e-05
2e-05
8e-05
2e-05
9e-05
2e-05
9e-05
2e-05
9e-05
2e-05
9e-05
2e-05
9e-05
2e-05
9e-05
3e-05
9e-05
3e-05
8e-05
3e-05
8e-05
3e-05
7e-05
4e-05
6e-05
4e-05
5e-05
6e-05
-2e-05
-2e-05
-2e-05
-2e-05
-1e-05
-3e-05
-3e-05
-1e-05
-9e-06
-4e-05
-4e-05
-9e-06
-6e-06
-4e-05
-4e-05
-5e-06
-4e-06
-3e-06
-5e-05
-5e-05
-3e-06
-2e-06
-6e-05
-6e-05
-1e-06
-1e-06
-6e-05
-6e-05
1e-07
-5e-07
-7e-05
-7e-05
1e-06
-3e-08
-7e-05
-7e-05
2e-06
1e-07
-7e-05
-7e-05
3e-06
8e-08
-7e-05
-7e-05
3e-06
-2e-07
-7e-05
-7e-05
3e-06
-8e-07
-6e-05
-6e-05
3e-06
-2e-06
-6e-05
-6e-05
3e-06
-3e-06
-5e-05
-5e-05
2e-06
-5e-06
-5e-05
-5e-05
1e-06
-7e-06
-4e-05
-4e-05
4e-07
-8e-06
-3e-05
-3e-05
-7e-07
-1e-05
-3e-05
-3e-05
-2e-06
-1e-05
-3e-05
-3e-05
-2e-05
-3e-06
-1e-05
-2e-05
-2e-05
-4e-06
-1e-05
-2e-05
-2e-05
-4e-06
-1e-05
-2e-05
-2e-05
-4e-06
-1e-05
-3e-05
-3e-05
-4e-06
-1e-05
-3e-05
-3e-05
-4e-06
-8e-06
-3e-05
-3e-05
-3e-06
-6e-06
-3e-05
-4e-05
-2e-06
-4e-06
-4e-05
-4e-05
-3e-07
-2e-06
-4e-05
-4e-05
1e-06
1e-06
-5e-05
-5e-05
4e-06
3e-06
6e-06
-6e-05
-6e-05
4e-06
8e-06
-6e-05
-7e-05
5e-06
1e-05
-7e-05
-8e-05
7e-06
1e-05
-8e-05
-9e-05
8e-06
1e-05
-0.0001
-0.0001
8e-06
2e-05
-0.0001
-0.0001
9e-06
2e-05
-0.0001
-0.0001
9e-06
2e-05
-0.0001
-0.0001
8e-06
2e-05
-0.0002
-0.0002
7e-06
2e-05
-0.0002
-0.0002
6e-06
1e-05
-0.0002
-0.0002
5e-06
1e-05
-0.0002
-0.0002
4e-06
1e-05
-0.0002
-0.0002
3e-06
9e-06
-0.0002
-0.0002
3e-06
8e-06
-0.0002
-0.0002
-0.0002
2e-06
7e-06
-0.0002
-0.0002
2e-06
6e-06
-0.0002
-0.0002
2e-06
6e-06
-0.0002
-0.0002
3e-06
5e-06
-0.0002
-0.0002
3e-06
6e-06
-0.0002
-0.0002
4e-06
6e-06
-0.0002
-0.0002
5e-06
7e-06
-0.0002
-0.0002
6e-06
7e-06
-0.0002
-0.0002
8e-06
8e-06
-0.0002
-0.0002
9e-06
9e-06
-0.0002
-0.0002
1e-05
1e-05
1e-05
-0.0001
-0.0001
2e-05
2e-05
-0.0001
-0.0001
2e-05
2e-05
-0.0001
-0.0001
3e-05
3e-05
-0.0001
-0.0001
3e-05
3e-05
-9e-05
-8e-05
4e-05
4e-05
-8e-05
-7e-05
5e-05
5e-05
-7e-05
-6e-05
5e-05
5e-05
-6e-05
-5e-05
6e-05
6e-05
-5e-05
-4e-05
7e-05
7e-05
-4e-05
-4e-05
7e-05
7e-05
-4e-05
-3e-05
8e-05
8e-05
-3e-05
-3e-05
8e-05
8e-05
-3e-05
-2e-05
8e-05
8e-05
-2e-05
-2e-05
8e-05
8e-05
-2e-05
-2e-05
8e-05
8e-05
-2e-05
-1e-05
-1e-05
7e-05
7e-05
-1e-05
-1e-05
7e-05
7e-05
-1e-05
-1e-05
6e-05
6e-05
-1e-05
-1e-05
6e-05
6e-05
-1e-05
-2e-05
5e-05
5e-05
-2e-05
-2e-05
5e-05
5e-05
-2e-05
-3e-05
4e-05
4e-05
-3e-05
-3e-05
4e-05
4e-05
-3e-05
-4e-05
4e-05
4e-05
-4e-05
-4e-05
4e-05
4e-05
4e-05
-4e-05
-5e-05
4e-05
4e-05
-5e-05
-5e-05
4e-05
4e-05
-5e-05
-5e-05
4e-05
5e-05
-5e-05
-5e-05
5e-05
5e-05
-5e-05
-5e-05
5e-05
5e-05
-5e-05
-5e-05
6e-05
6e-05
-5e-05
-5e-05
6e-05
6e-05
-5e-05
-4e-05
7e-05
7e-05
-4e-05
-3e-05
7e-05
8e-05
-3e-05
-3e-05
8e-05
9e-05
-3e-05
-2e-05
9e-05
0.0001
-2e-05
-1e-05
0.0001
0.0001
-1e-05
-5e-06
0.0001
0.0001
-6e-06
7e-07
0.0001
0.0001
4e-07
6e-06
0.0001
0.0002
6e-06
1e-05
1e-05
0.0002
0.0002
1e-05
1e-05
0.0002
0.0002
1e-05
2e-05
0.0002
0.0002
2e-05
2e-05
0.0002
0.0002
2e-05
2e-05
0.0002
0.0002
2e-05
2e-05
0.0002
0.0002
2e-05
2e-05
0.0002
0.0002
2e-05
2e-05
0.0002
0.0002
2e-05
2e-05
0.0002
0.0002
2e-05
2e-05
0.0002
0.0002
2e-05
2e-05
0.0002
0.0002
0.0002
2e-05
2e-05
0.0002
0.0002
2e-05
2e-05
0.0002
0.0002
2e-05
2e-05
0.0002
0.0002
2e-05
1e-05
0.0002
0.0002
2e-05
1e-05
0.0002
0.0002
2e-05
1e-05
0.0002
0.0002
2e-05
1e-05
0.0002
0.0002
2e-05
1e-05
0.0002
0.0002
2e-05
1e-05
0.0002
0.0002
2e-05
1e-05
0.0002
0.0001
2e-05
1e-05
0.0001
0.0001
2e-05
1e-05
0.0001
0.0001
2e-05
1e-05
0.0001
0.0001
2e-05
2e-05
0.0001
9e-05
2e-05
2e-05
2e-05
9e-05
8e-05
2e-05
2e-05
8e-05
8e-05
2e-05
2e-05
8e-05
7e-05
2e-05
3e-05
7e-05
7e-05
3e-05
3e-05
6e-05
6e-05
3e-05
3e-05
6e-05
6e-05
3e-05
3e-05
6e-05
5e-05
3e-05
4e-05
5e-05
5e-05
3e-05
4e-05
5e-05
5e-05
3e-05
4e-05
5e-05
5e-05
3e-05
4e-05
5e-05
5e-05
3e-05
4e-05
5e-05
5e-05
3e-05
4e-05
5e-05
5e-05
3e-05
4e-05
6e-05
6e-05
3e-05
3e-05
6e-05
6e-05
3e-05
3e-05
7e-05
7e-05
2e-05
3e-05
7e-05
7e-05
2e-05
3e-05
8e-05
8e-05
2e-05
3e-05
8e-05
8e-05
2e-05
3e-05
9e-05
9e-05
2e-05
3e-05
9e-05
9e-05
2e-05
3e-05
9e-05
9e-05
2e-05
3e-05
9e-05
9e-05
2e-05
3e-05
9e-05
9e-05
2e-05
3e-05
9e-05
9e-05
3e-05
3e-05
9e-05
9e-05
3e-05
3e-05
8e-05
8e-05
3e-05
3e-05
8e-05
8e-05
3e-05
3e-05
7e-05
7e-05
3e-05
3e-05
6e-05
6e-05
4e-05
3e-05
6e-05
4e-05
5e-05
6e-05
4e-05
5e-05
4e-05
SCALARS strain_1 float
LOOKUP_TABLE default
-0.000055
0.000012
-0.000007
-0.000043
-0.000078
-0.000028
-0.000112
-0.000095
-0.000102
-0.000160
-0.000114
-0.000181
-0.000215
-0.000153
-0.000281
-0.000171
-0.000373
-0.000161
-0.000502
-0.000110
-0.000636
-0.000123
-0.000862
-0.000031
-0.001061
0.000118
-0.001370
0.000259
-0.001609
0.000356
-0.001908
0.000478
-0.002259
0.000760
-0.002707
0.000963
-0.003113
0.001244
-0.003585
0.001663
-0.004074
-0.004635
0.002021
-0.005210
0.002445
-0.005893
0.002870
-0.006547
0.003386
-0.007193
0.003902
-0.007955
0.004592
-0.008740
0.005206
-0.009573
0.005927
-0.010361
0.006698
-0.011201
0.007520
-0.012082
0.008325
0.009278
-0.013015
0.010181
-0.013984
0.011142
-0.014975
0.012198
-0.015978
0.013286
-0.016960
0.014332
-0.017961
0.015530
-0.019033
0.016630
-0.020087
0.017883
-0.021197
0.019147
-0.022234
0.020354
-0.023338
0.021652
-0.024507
0.022903
-0.025509
0.024276
-0.026679
0.025564
-0.027763
-0.028821
0.026879
-0.029886
0.028201
-0.030942
0.029537
-0.031947
0.030853
-0.032959
0.032171
-0.033997
0.033494
-0.034978
0.034742
-0.035910
0.035997
-0.036767
0.037267
-0.037740
0.038431
-0.038541
0.039610
0.040737
-0.039377
0.041796
-0.040145
0.042920
-0.040873
0.043889
-0.041563
0.044836
-0.042203
0.045697
-0.042832
0.046546
-0.043355
0.047280
-0.043906
0.048016
-0.044325
0.048655
-0.044712
0.049226
-0.045040
0.049735
-0.045341
0.050159
-0.045575
0.050566
-0.045758
0.050848
-0.045882
0.051024
-0.045939
-0.045904
0.051248
-0.045878
0.051255
-0.045744
0.051277
-0.045618
0.051229
-0.045444
0.051071
-0.045139
0.050859
-0.044837
0.050636
-0.044485
0.050284
-0.044085
0.049848
-0.043543
0.049406
0.048862
-0.043056
0.048269
-0.042528
0.047648
-0.041939
0.046914
-0.041277
0.046196
-0.040562
0.045398
-0.039851
0.044576
-0.039096
0.043614
-0.038294
0.042778
-0.037487
0.041763
-0.036643
0.040773
-0.035733
0.039721
-0.034831
0.038634
-0.033883
0.037577
-0.032967
0.036460
-0.031961
0.035368
-0.031032
-0.030061
0.034246
-0.029076
0.033125
-0.028044
0.031952
-0.026984
0.030748
-0.026061
0.029614
-0.025007
0.028467
-0.024005
0.027286
-0.022970
0.026158
-0.021994
0.025049
-0.020975
0.023890
-0.019967
0.022745
-0.019037
0.021626
-0.018062
0.020520
-0.017147
0.019508
-0.016254
0.018489
-0.015265
0.017479
-0.014459
0.016398
-0.013564
0.015429
-0.012748
0.014558
-0.011895
0.013580
-0.011149
0.012753
-0.010385
0.011851
-0.009596
0.011045
-0.008962
0.010225
-0.008219
0.009467
-0.007610
0.008739
-0.006955
0.008035
-0.006401
0.007414
-0.005838
0.006776
-0.005309
0.006151
-0.004744
0.005547
-0.004291
0.005018
-0.003865
0.004568
-0.003456
0.004074
-0.003051
0.003677
-0.002696
0.003203
-0.002384
0.002834
-0.002077
0.002483
-0.001823
0.002165
-0.001555
0.001882
-0.001261
0.001587
-0.001118
0.001356
-0.000947
0.001119
-0.000730
0.000960
-0.000611
0.000760
-0.000461
0.000594
-0.000343
0.000460
-0.000266
0.000409
-0.000171
0.000275
-0.000134
0.000240
-0.000102
0.000182
-0.000073
0.000078
-0.000078
0.000052
-0.000029
0.000069
-0.000007
0.000009
0.000002
-0.000003
0.000028
0.000034
0.000024
0.000044
0.000020
0.000032
-0.000042
-0.000048
-0.000074
-0.000119
-0.000001
-0.000098
-0.000062
-0.000158
-0.000115
-0.000166
-0.000181
-0.000161
-0.000212
-0.000128
-0.000377
-0.000152
-0.000556
-0.000116
-0.000686
-0.000064
-0.000881
-0.000041
-0.001074
0.000108
-0.001373
0.000183
-0.001627
0.000343
-0.001961
0.000546
-0.002335
0.000705
-0.002740
0.001012
-0.003141
0.001322
-0.003616
0.001636
-0.004166
0.001995
-0.004702
0.002412
-0.005259
0.002826
-0.005801
0.003351
-0.006507
0.003882
-0.007226
0.004478
-0.007882
0.005105
-0.008681
0.005805
-0.009466
0.006472
-0.010291
0.007283
-0.011105
0.008157
-0.011973
0.008983
-0.012883
0.009904
-0.013808
0.010863
-0.014679
0.011812
-0.015732
0.012835
-0.016669
0.013931
-0.017672
0.015000
-0.018665
0.016088
-0.019639
0.017211
-0.020703
0.018426
-0.021654
0.019515
-0.022691
0.020787
-0.023769
0.021984
-0.024749
0.023191
-0.025713
0.024471
-0.026774
0.025625
-0.027727
0.026879
-0.028711
0.028029
-0.029634
0.029255
-0.030594
0.030429
-0.031442
0.031560
-0.032376
0.032722
-0.033208
0.033860
-0.033988
0.034919
-0.034799
0.035969
-0.035573
0.036914
-0.036266
0.037911
-0.036942
0.038806
-0.037582
0.039673
-0.038130
0.040461
-0.038630
0.041281
-0.039176
0.041895
-0.039584
0.042544
-0.040006
0.043174
-0.040322
0.043660
-0.040602
0.044043
-0.040866
0.044489
-0.040954
0.044774
-0.041151
0.045040
-0.041222
0.045225
-0.041237
0.045308
-0.041163
0.045333
-0.041080
0.045373
-0.040988
0.045281
-0.040791
0.045094
-0.040543
0.044854
-0.040229
0.044558
-0.039878
0.044216
-0.039473
0.043750
-0.039040
0.043346
-0.038576
0.042749
-0.038064
0.042248
-0.037421
0.041620
-0.036838
0.040936
-0.036228
0.040152
-0.035533
0.039404
-0.034803
0.038542
-0.034035
0.037750
-0.033273
0.036800
-0.032398
0.035910
-0.031611
0.034921
-0.030764
0.033953
-0.029855
0.032941
-0.028984
0.031931
-0.028075
0.030952
-0.027115
0.029855
-0.026245
0.028822
-0.025270
0.027749
-0.024345
0.026699
-0.023369
0.025657
-0.022412
0.024541
-0.021539
0.023464
-0.020574
0.022438
-0.019627
0.021406
-0.018735
0.020344
-0.017805
0.019299
-0.016885
0.018325
-0.015991
0.017363
-0.015158
0.016415
-0.014319
0.015476
-0.013435
0.014497
-0.012649
0.013614
-0.011862
0.012712
-0.011070
0.011841
-0.010297
0.011039
-0.009623
0.010297
-0.008920
0.009526
-0.008253
0.008778
-0.007560
0.008164
-0.007011
0.007497
-0.006388
0.006859
-0.005826
0.006208
-0.005283
0.005665
-0.004836
0.005119
-0.004339
0.004613
-0.003881
0.004131
-0.003464
0.003692
-0.003077
0.003273
-0.002710
0.002859
-0.002359
0.002498
-0.002085
0.002192
-0.001787
0.001950
-0.001515
0.001617
-0.001336
0.001373
-0.001102
0.001164
-0.000888
0.000986
-0.000721
0.000809
-0.000597
0.000624
-0.000491
0.000472
-0.000435
0.000381
-0.000300
0.000318
-0.000207
0.000240
-0.000203
0.000151
-0.000146
0.000098
-0.000083
0.000100
-0.000069
0.000003
-0.000007
0.000036
0.000002
-0.000013
-0.000016
-0.000008
0.000022
-0.000014
0.000036
-0.000018
-0.000023
-0.000073
-0.000024
-0.000026
-0.000075
-0.000018
0.000016
-0.000061
-0.000094
-0.000097
-0.000047
-0.000048
-0.000079
-0.000090
-0.000020
-0.000081
-0.000131
-0.000085
-0.000117
-0.000060
-0.000082
-0.000153
-0.000148
-0.000096
-0.000192
-0.000187
-0.000182
-0.000244
-0.000278
-0.000164
-0.000149
-0.000305
-0.000429
-0.000195
-0.000164
-0.000435
-0.000533
-0.000111
-0.000126
-0.000599
-0.000681
-0.000125
-0.000039
-0.000794
-0.000903
-0.000046
-0.000002
-0.000967
-0.001184
0.000064
0.000116
-0.001226
-0.001415
0.000174
0.000260
-0.001514
-0.001708
0.000292
0.000409
-0.001839
-0.002048
0.000439
0.000593
-0.002203
-0.002435
0.000663
0.000791
-0.002573
-0.002851
0.000863
0.001078
-0.002988
-0.003312
0.001189
0.001417
-0.003440
-0.003802
0.001495
0.001750
-0.004019
-0.004319
-0.004788
0.001875
0.002124
-0.004600
-0.005174
0.002284
0.002574
-0.005123
-0.005859
0.002714
0.003053
-0.005831
-0.006514
0.003192
0.003593
-0.006479
-0.007213
0.003702
0.004151
-0.007207
-0.007954
0.004297
0.004730
-0.007884
-0.008685
0.004946
0.005432
-0.008701
-0.009530
0.005620
0.006117
-0.009456
-0.010321
0.006353
0.006920
-0.010293
-0.011191
0.007104
0.007714
-0.011107
-0.012088
0.008577
0.007966
0.009401
-0.012022
-0.012962
0.009002
0.010071
-0.012911
-0.013918
0.009856
0.011048
-0.013819
-0.014885
0.010880
0.012028
-0.014789
-0.015816
0.011904
0.013073
-0.015776
-0.016836
0.013023
0.014191
-0.016758
-0.017845
0.014013
0.015323
-0.017750
-0.018890
0.015136
0.016448
-0.018762
-0.019931
0.016294
0.017620
-0.019819
-0.021056
0.017426
0.018905
-0.020863
-0.022090
0.018615
0.020088
-0.021898
-0.023162
0.019836
0.021342
-0.022945
-0.024241
0.021075
0.022598
-0.023982
-0.025288
0.022307
0.023899
-0.025057
-0.026371
0.023552
0.025164
-0.026139
-0.027464
-0.028431
0.024824
0.026459
-0.027400
-0.029087
0.026002
0.027739
-0.028349
-0.030108
0.027348
0.029072
-0.029377
-0.031153
0.028548
0.030309
-0.030394
-0.032135
0.029802
0.031617
-0.031362
-0.033123
0.030962
0.032846
-0.032269
-0.034062
0.032260
0.034056
-0.033213
-0.034969
0.033425
0.035293
-0.034089
-0.035894
0.034605
0.036545
-0.034944
-0.036696
0.035663
0.037722
-0.035762
-0.037546
0.036757
0.038722
0.039922
-0.036522
-0.038271
0.038224
0.040478
-0.037309
-0.039088
0.039007
0.041519
-0.037994
-0.039763
0.040085
0.042458
-0.038687
-0.040441
0.041012
0.043325
-0.039246
-0.041060
0.041853
0.044174
-0.039817
-0.041545
0.042648
0.044947
-0.040373
-0.042075
0.043463
0.045657
-0.040773
-0.042564
0.044083
0.046369
-0.041330
-0.043050
0.044721
0.046936
-0.041661
-0.043350
0.045262
0.047506
-0.041996
-0.043628
0.045771
0.047960
-0.042236
-0.043896
0.046180
0.048345
-0.042462
-0.044042
0.046563
0.048681
-0.042614
-0.044246
0.046855
0.048895
-0.042715
-0.044382
0.047042
0.049101
-0.042740
-0.044397
-0.044602
0.047242
0.049225
-0.042866
-0.044308
0.047269
0.049259
-0.042646
-0.044186
0.047328
0.049236
-0.042546
-0.043967
0.047211
0.049132
-0.042346
-0.043779
0.047074
0.048935
-0.042119
-0.043526
0.046849
0.048733
-0.041800
-0.043129
0.046658
0.048421
-0.041522
-0.042747
0.046216
0.048027
-0.041122
-0.042358
0.045843
0.047663
-0.040688
-0.041891
0.045334
0.047124
0.046982
-0.040193
-0.041307
0.045088
0.046246
-0.039664
-0.040805
0.044100
0.045655
-0.039106
-0.040175
0.043578
0.044862
-0.038462
-0.039503
0.042859
0.044105
-0.037813
-0.038858
0.042147
0.043297
-0.037159
-0.038091
0.041321
0.042452
-0.036410
-0.037362
0.040484
0.041583
-0.035686
-0.036526
0.039642
0.040655
-0.034855
-0.035747
0.038681
0.039677
-0.033995
-0.034884
0.037747
0.038733
-0.033265
-0.034041
0.036810
0.037736
-0.032366
-0.033148
0.035795
0.036700
-0.031428
-0.032204
0.034791
0.035595
-0.030549
-0.031259
0.033785
0.034563
-0.029635
-0.030302
0.032687
0.033491
-0.028593
-0.029394
-0.028759
0.031644
0.032335
-0.027762
-0.027801
0.030530
0.031205
-0.026521
-0.026801
0.029422
0.030108
-0.025622
-0.025793
0.028361
0.028961
-0.024543
-0.024762
0.027268
0.027854
-0.023594
-0.023778
0.026167
0.026703
-0.022629
-0.022817
0.025063
0.025612
-0.021667
-0.021842
0.023966
0.024481
-0.020752
-0.020850
0.022861
0.023365
-0.019741
-0.019907
0.021764
0.022207
-0.018830
-0.018890
0.020648
0.021183
0.020450
-0.017892
-0.017950
0.019678
0.019467
-0.016939
-0.017055
0.018437
0.018462
-0.016038
-0.016133
0.017395
0.017442
-0.015176
-0.015288
0.016362
0.016445
-0.014320
-0.014353
0.015453
0.015470
-0.013516
-0.013511
0.014522
0.014594
-0.012659
-0.012737
0.013624
0.013625
-0.011866
-0.011874
0.012725
0.012675
-0.011062
-0.011112
0.011911
0.011874
-0.010343
-0.010340
0.011101
0.011035
-0.009652
-0.009641
0.010234
0.010236
-0.008888
-0.008961
0.009524
0.009521
-0.008227
-0.008215
0.008806
0.008765
-0.007566
-0.007602
0.008098
0.008086
-0.006901
-0.006927
-0.006525
0.007394
0.007375
-0.006308
-0.006026
0.006804
0.006746
-0.005689
-0.005457
0.006177
0.006183
-0.005142
-0.004985
0.005649
0.005621
-0.004638
-0.004436
0.005107
0.005093
-0.004207
-0.003987
0.004600
0.004541
-0.003740
-0.003601
0.004128
0.004048
-0.003338
-0.003187
0.003663
0.003643
-0.002970
-0.002824
0.003249
0.003261
-0.002625
-0.002460
0.002882
0.002863
-0.002262
-0.002163
0.002513
0.002486
-0.001976
-0.001878
0.002083
0.002263
-0.001710
-0.001571
0.001820
0.001994
-0.001440
-0.001370
0.001540
0.001682
-0.001212
-0.001167
0.001284
0.001450
-0.001010
-0.000969
0.001069
0.001180
-0.000819
-0.000790
0.000882
0.001038
-0.000719
-0.000626
0.000734
0.000841
-0.000548
-0.000498
0.000561
0.000697
-0.000439
-0.000343
0.000435
0.000554
-0.000377
-0.000295
0.000309
0.000383
-0.000252
-0.000238
0.000252
0.000324
-0.000175
-0.000160
0.000179
0.000213
-0.000116
-0.000116
0.000122
0.000189
-0.000085
-0.000076
0.000106
0.000124
0.000004
-0.000074
0.000016
0.000099
-0.000054
-0.000044
0.000015
0.000097
0.000001
0.000052
-0.000030
-0.000013
-0.000001
0.000005
0.000005
-0.000052
0.000012
-0.000003
0.000016
0.000006
-0.000022
0.000045
-0.000009
0.000018
-0.000048
-0.000039
0.000016
-0.000025
-0.000044
SCALARS strain_2 float
LOOKUP_TABLE default
0.000394
0.000976
0.000636
0.000665
0.000682
0.000937
0.001148
0.000948
0.001488
0.001967
0.001871
0.002036
0.002193
0.002154
0.003164
0.002396
0.005374
0.002060
0.006700
0.001552
0.008640
0.001259
0.011373
0.000412
0.013944
-0.000567
0.017624
-0.002112
0.021024
-0.003864
0.025343
-0.005963
0.030160
-0.008749
0.034754
-0.011373
0.041047
-0.015009
0.046422
-0.019161
0.053834
0.060692
-0.023817
0.068444
-0.028880
0.076400
-0.034172
0.085131
-0.040456
0.094164
-0.047485
0.103979
-0.054187
0.113792
-0.062587
0.124796
-0.071451
0.135294
-0.080563
0.147033
-0.089981
0.159250
-0.100220
-0.111190
0.171061
-0.122710
0.183786
-0.134358
0.196429
-0.147536
0.209957
-0.160244
0.223477
-0.174206
0.237196
-0.188014
0.251467
-0.203091
0.265571
-0.217608
0.279931
-0.232938
0.294486
-0.248319
0.308816
-0.264301
0.323436
-0.280682
0.338019
-0.297138
0.352368
-0.313666
0.366733
0.380962
-0.330514
0.395533
-0.347089
0.409627
-0.363803
0.423128
-0.380303
0.436956
-0.397060
0.449475
-0.413800
0.462587
-0.429963
0.474971
-0.446315
0.486098
-0.461968
0.497884
-0.477369
0.508541
-0.492567
-0.507511
0.518956
-0.520823
0.528910
-0.534854
0.537451
-0.547894
0.546239
-0.559930
0.553904
-0.571516
0.560864
-0.582836
0.566834
-0.592518
0.572231
-0.602167
0.576938
-0.610268
0.581306
-0.617913
0.584270
-0.624673
0.586650
-0.630411
0.588466
-0.635564
0.589240
-0.639309
0.589219
-0.642366
0.588253
0.586728
-0.644952
0.584565
-0.645939
0.581198
-0.646205
0.577175
-0.645201
0.572768
-0.643422
0.567025
-0.640673
0.561089
-0.637483
0.554686
-0.633008
0.546965
-0.627472
0.538632
-0.621224
-0.613917
0.530270
-0.606315
0.521474
-0.597375
0.511705
-0.587886
0.501491
-0.577811
0.490925
-0.567299
0.479633
-0.556058
0.468432
-0.543842
0.456436
-0.531786
0.444399
-0.518424
0.432178
-0.505049
0.419475
-0.491322
0.406691
-0.477322
0.393898
-0.462941
0.380801
-0.447873
0.367801
-0.432990
0.354436
0.341405
-0.417813
0.328098
-0.402287
0.315086
-0.387360
0.302419
-0.371723
0.289001
-0.355967
0.276519
-0.341220
0.263885
-0.325760
0.251204
-0.310511
0.238983
-0.295428
0.227478
-0.281240
0.215392
-0.266500
0.203824
-0.252022
0.192899
-0.238221
0.181906
-0.224445
0.171095
-0.210743
0.160737
-0.198192
0.151199
-0.185322
0.141383
-0.173158
0.132178
-0.161224
0.123126
-0.150046
0.114423
-0.139324
0.106352
-0.128592
0.098572
-0.117746
0.090801
-0.109005
0.083627
-0.099966
0.077145
-0.091144
0.070552
-0.082521
0.064988
-0.074740
0.058708
-0.067883
0.053154
-0.060657
0.047890
-0.054209
0.043165
-0.048037
0.038710
-0.042640
0.034284
-0.037642
0.030265
-0.032843
0.026723
-0.028847
0.023380
-0.024742
0.020243
-0.021054
0.017701
-0.017979
0.015152
-0.014579
0.012935
-0.012060
0.010658
-0.009990
0.008680
-0.008021
0.006966
-0.006384
0.005401
-0.004416
0.004483
-0.003387
0.003042
-0.002282
0.001978
-0.001285
0.001697
-0.001092
0.000878
-0.000183
0.000408
0.000386
-0.000021
0.000590
0.000108
0.000490
0.000062
0.000566
-0.000231
0.000334
-0.000520
0.000548
-0.000414
0.000429
-0.000215
0.000180
-0.000007
0.000021
0.000415
0.001123
0.000508
0.001259
0.001143
0.001355
0.001325
0.001620
0.002025
0.002096
0.002535
0.002258
0.003771
0.002223
0.005584
0.001780
0.006934
0.001650
0.009291
0.001228
0.012364
0.000317
0.014716
-0.000932
0.018195
-0.002153
0.022235
-0.003777
0.026330
-0.005956
0.030634
-0.008480
0.036243
-0.011718
0.041932
-0.014880
0.047806
-0.019139
0.054637
-0.023675
0.061777
-0.028205
0.069408
-0.033863
0.077855
-0.039564
0.086149
-0.046214
0.095129
-0.053697
0.104733
-0.061714
0.114393
-0.069939
0.125199
-0.078270
0.135983
-0.087968
0.147498
-0.097908
0.158951
-0.108463
0.170623
-0.119216
0.182702
-0.131244
0.195236
-0.142814
0.207979
-0.155454
0.221419
-0.169091
0.234417
-0.181967
0.248195
-0.196259
0.260882
-0.210033
0.274853
-0.224589
0.288717
-0.239366
0.302386
-0.254164
0.315604
-0.269451
0.329127
-0.284365
0.342912
-0.299394
0.356113
-0.314773
0.368971
-0.330535
0.382206
-0.345586
0.394624
-0.360617
0.406567
-0.375744
0.418559
-0.390498
0.430072
-0.404855
0.440961
-0.418998
0.451408
-0.432776
0.461536
-0.446788
0.471232
-0.458948
0.479978
-0.471464
0.488063
-0.483520
0.495661
-0.494390
0.502614
-0.505124
0.508640
-0.514864
0.514351
-0.523705
0.519170
-0.532401
0.522958
-0.540010
0.526475
-0.546331
0.529602
-0.552287
0.530710
-0.557006
0.532005
-0.561183
0.532173
-0.564499
0.531457
-0.566954
0.530236
-0.568377
0.528417
-0.569197
0.525540
-0.568321
0.522213
-0.567054
0.517609
-0.564923
0.512828
-0.562244
0.507390
-0.558328
0.500931
-0.553526
0.494104
-0.547516
0.486456
-0.541603
0.478306
-0.534350
0.469835
-0.526330
0.460828
-0.517895
0.451475
-0.508587
0.441126
-0.498627
0.431241
-0.488451
0.419894
-0.477111
0.409139
-0.465539
0.397654
-0.453905
0.386158
-0.441784
0.374390
-0.428857
0.362438
-0.415492
0.350532
-0.402594
0.337953
-0.388685
0.325952
-0.375332
0.313718
-0.361104
0.301564
-0.346875
0.289149
-0.332820
0.276760
-0.319059
0.264949
-0.304931
0.252909
-0.290537
0.240856
-0.276437
0.229134
-0.263128
0.217843
-0.249811
0.206709
-0.236231
0.195835
-0.222523
0.184879
-0.210443
0.174445
-0.197869
0.164005
-0.185262
0.154133
-0.173465
0.144166
-0.162048
0.135012
-0.150589
0.126174
-0.140109
0.117390
-0.129194
0.109417
-0.119621
0.101087
-0.109942
0.094012
-0.100927
0.085910
-0.092396
0.079465
-0.083608
0.072821
-0.076110
0.066589
-0.068867
0.060879
-0.061992
0.055136
-0.055486
0.049373
-0.049438
0.045021
-0.043827
0.040145
-0.038588
0.035743
-0.033249
0.031644
-0.029463
0.028022
-0.025315
0.023849
-0.021379
0.021241
-0.017899
0.018422
-0.015168
0.015520
-0.012257
0.013175
-0.010228
0.011073
-0.008068
0.009220
-0.006037
0.007649
-0.004655
0.006386
-0.003074
0.004575
-0.002201
0.003652
-0.001315
0.002562
-0.000680
0.001618
-0.000069
0.001026
0.000219
0.000564
0.000755
0.000295
0.000753
0.000057
0.000473
-0.000250
0.001358
-0.000300
0.000838
-0.000033
0.000566
0.000177
0.000497
0.000012
0.000516
0.000329
0.000732
0.000592
0.000363
0.001052
0.000956
0.000678
0.000302
0.001024
0.001551
0.000928
0.000865
0.001598
0.001573
0.000822
0.001888
0.001600
0.001698
0.001549
0.001695
0.001989
0.001994
0.001950
0.002331
0.002967
0.002001
0.002229
0.003463
0.004062
0.002182
0.001912
0.004517
0.005429
0.002333
0.001876
0.005958
0.007252
0.001943
0.001610
0.008348
0.009788
0.001214
0.001388
0.010710
0.012624
0.000701
0.000505
0.013330
0.015494
-0.000063
-0.001176
0.016504
0.018599
-0.001636
-0.002568
0.020120
0.022683
-0.003024
-0.004689
0.024550
0.026873
-0.005277
-0.006685
0.029178
0.032173
-0.007729
-0.009333
0.034141
0.037609
-0.010503
-0.012470
0.039702
0.043319
-0.013898
-0.016440
0.045464
0.049665
-0.017679
-0.020457
0.052562
0.056550
0.062710
-0.021622
-0.025342
0.060329
0.068417
-0.026799
-0.030336
0.067463
0.076678
-0.031835
-0.036135
0.076606
0.084933
-0.037927
-0.042838
0.085337
0.094400
-0.044508
-0.049626
0.094692
0.104162
-0.051644
-0.057069
0.104123
0.114067
-0.059263
-0.064503
0.114827
0.124217
-0.067515
-0.073592
0.124937
0.135581
-0.076282
-0.082831
0.135859
0.147195
-0.085340
-0.092862
0.146798
0.158854
-0.104078
-0.095970
-0.113512
0.158668
0.170778
-0.108019
-0.121522
0.170963
0.183423
-0.119463
-0.132942
0.183015
0.196159
-0.131701
-0.145995
0.195626
0.209354
-0.144236
-0.158658
0.208938
0.222492
-0.156985
-0.172113
0.221880
0.236489
-0.170393
-0.185808
0.235205
0.250313
-0.184210
-0.200345
0.249067
0.263947
-0.198176
-0.214675
0.262784
0.278262
-0.212361
-0.229673
0.276493
0.292684
-0.227386
-0.245238
0.290833
0.306946
-0.241918
-0.261312
0.304874
0.321276
-0.257527
-0.276984
0.319213
0.335263
-0.273108
-0.292520
0.333229
0.350177
-0.288775
-0.309198
0.347092
0.364624
0.377035
-0.304622
-0.324917
0.364193
0.385680
-0.320040
-0.341259
0.376439
0.399581
-0.335971
-0.357705
0.390353
0.413444
-0.351501
-0.374118
0.403309
0.426041
-0.366931
-0.390135
0.416286
0.438502
-0.383365
-0.406050
0.428427
0.451095
-0.397969
-0.421914
0.440722
0.462905
-0.413379
-0.437192
0.452044
0.474345
-0.427991
-0.452835
0.463133
0.485261
-0.442708
-0.467883
0.473216
0.496099
-0.456303
-0.480891
-0.496790
0.483198
0.505841
-0.475460
-0.504095
0.492395
0.514797
-0.485327
-0.517661
0.501459
0.523471
-0.499439
-0.529231
0.509307
0.531367
-0.511346
-0.540705
0.517056
0.538534
-0.522368
-0.552266
0.523568
0.544967
-0.532972
-0.562311
0.529438
0.550692
-0.542849
-0.571951
0.535010
0.555615
-0.551853
-0.580948
0.539726
0.560194
-0.559713
-0.588384
0.543545
0.563535
-0.567194
-0.595648
0.546267
0.566320
-0.573565
-0.602086
0.548626
0.568226
-0.579056
-0.606995
0.550028
0.569339
-0.584029
-0.611617
0.550298
0.570219
-0.587604
-0.614467
0.550130
0.570066
-0.590837
-0.617282
0.549480
0.568545
0.569621
-0.592689
-0.618679
0.549121
0.564960
-0.593487
-0.619305
0.544683
0.561746
-0.594161
-0.618917
0.541105
0.556757
-0.592945
-0.618187
0.537008
0.552397
-0.591053
-0.615459
0.532431
0.546965
-0.588713
-0.612775
0.526762
0.540695
-0.585071
-0.608591
0.520397
0.533609
-0.580078
-0.603521
0.513636
0.526512
-0.574862
-0.598487
0.506256
0.518142
-0.567909
-0.590530
-0.589456
0.498259
0.509612
-0.564423
-0.579390
0.489687
0.500603
-0.551380
-0.570363
0.480385
0.490883
-0.544262
-0.561123
0.470483
0.480853
-0.534170
-0.550729
0.460590
0.470632
-0.524293
-0.540651
0.450278
0.459508
-0.513982
-0.529100
0.439498
0.448106
-0.502752
-0.516832
0.428359
0.436630
-0.490651
-0.504333
0.416875
0.424486
-0.478843
-0.491738
0.404973
0.412406
-0.466175
-0.478470
0.392976
0.400032
-0.453082
-0.465053
0.381477
0.387794
-0.439508
-0.451268
0.368409
0.374304
-0.426055
-0.436949
0.355840
0.361650
-0.412301
-0.422302
0.343205
0.348511
-0.397822
-0.407549
0.329538
0.336188
0.327851
-0.383492
-0.393214
0.317955
0.315122
-0.369299
-0.378237
0.302415
0.302690
-0.355366
-0.363119
0.289572
0.289248
-0.340248
-0.348324
0.277215
0.276762
-0.326327
-0.333225
0.264624
0.263672
-0.311503
-0.318585
0.252812
0.252043
-0.297333
-0.303465
0.240249
0.239857
-0.283007
-0.289094
0.228405
0.227962
-0.268647
-0.274698
0.217165
0.216278
-0.254257
-0.260192
0.205533
0.204867
-0.239405
-0.245782
-0.236693
0.194297
0.193595
-0.226780
-0.224419
0.183762
0.182668
-0.211101
-0.211141
0.173215
0.172342
-0.197995
-0.197769
0.163116
0.161701
-0.185736
-0.185541
0.153203
0.151799
-0.173480
-0.173217
0.143276
0.142761
-0.161700
-0.161806
0.134178
0.133226
-0.150542
-0.150698
0.125033
0.123946
-0.139713
-0.139099
0.116277
0.115420
-0.129057
-0.128791
0.107840
0.107257
-0.118948
-0.118737
0.100039
0.099733
-0.109531
-0.109161
0.092508
0.091604
-0.100057
-0.100065
0.085605
0.084255
-0.091972
-0.091202
0.078288
0.077704
-0.083659
-0.082998
0.070980
0.070897
0.066349
-0.075726
-0.075282
0.065233
0.061345
-0.068474
-0.068210
0.058148
0.055651
-0.061304
-0.061363
0.052710
0.050324
-0.055490
-0.054769
0.047413
0.045230
-0.048908
-0.048828
0.042502
0.040512
-0.043608
-0.043284
0.038104
0.036227
-0.038289
-0.037931
0.034200
0.031896
-0.033371
-0.033342
0.029996
0.028339
-0.029053
-0.028824
0.026752
0.024800
-0.024769
-0.024296
0.023099
0.021466
-0.020950
-0.021319
0.019659
0.018987
-0.017522
-0.018373
0.017461
0.015863
-0.014220
-0.016141
0.014608
0.013721
-0.011422
-0.013744
0.012286
0.011466
-0.009609
-0.011100
0.010267
0.009412
-0.007302
-0.008703
0.008433
0.007794
-0.005605
-0.006482
0.007048
0.006635
-0.004350
-0.004958
0.005292
0.004560
-0.002963
-0.003602
0.004123
0.003490
-0.001910
-0.002834
0.003285
0.002861
-0.001002
-0.001431
0.002150
0.002023
-0.000136
-0.000610
0.001716
0.001608
0.000056
-0.000243
0.001148
0.000301
0.000725
0.000260
0.000358
0.000323
0.000785
0.000134
-0.000243
-0.000026
0.001157
0.000439
-0.000138
-0.000209
0.000741
0.001034
-0.000184
-0.000644
0.000764
0.000681
-0.000206
-0.000079
0.000663
0.000410
-0.000292
-0.000093
0.000511
0.000612
0.000314
-0.000155
0.000467
-0.000149
0.000277
0.000512
-0.000084
0.000328
0.000382
SCALARS strain_3 float
LOOKUP_TABLE default
-0.001223
-0.001558
-0.001418
-0.001174
-0.002238
-0.001518
-0.002388
-0.002281
-0.003149
-0.003079
-0.002864
-0.003769
-0.004085
-0.003475
-0.005137
-0.003729
-0.006955
-0.004022
-0.010514
-0.002859
-0.013213
-0.002208
-0.016378
-0.001256
-0.021103
0.000808
-0.025500
0.002929
-0.031151
0.005498
-0.037070
0.009013
-0.043630
0.012771
-0.051546
0.017489
-0.059985
0.022598
-0.068625
0.028240
-0.078070
-0.088758
0.035811
-0.100055
0.043527
-0.111715
0.051843
-0.124244
0.061143
-0.137815
0.071461
-0.151130
0.082433
-0.165725
0.094595
-0.181677
0.107450
-0.197158
0.120977
-0.213780
0.135846
-0.230950
0.151323
0.167255
-0.247740
0.185360
-0.265955
0.202770
-0.283788
0.221957
-0.302869
0.241208
-0.322189
0.261233
-0.341767
0.282174
-0.362169
0.303601
-0.381959
0.326053
-0.402037
0.349392
-0.421702
0.372391
-0.441825
0.395585
-0.462793
0.419500
-0.482760
0.443525
-0.502735
0.468360
-0.522484
-0.541329
0.492379
-0.561278
0.516571
-0.579680
0.541149
-0.598397
0.565679
-0.616266
0.589116
-0.633133
0.613252
-0.649667
0.636100
-0.665717
0.659768
-0.680533
0.682771
-0.695883
0.704577
-0.708779
0.725244
0.746217
-0.722244
0.766440
-0.733497
0.784831
-0.745035
0.802279
-0.754503
0.820214
-0.763972
0.835548
-0.771717
0.849578
-0.778416
0.863761
-0.784005
0.876130
-0.788681
0.886507
-0.792841
0.896927
-0.795500
0.905624
-0.795856
0.912031
-0.795890
0.917957
-0.795280
0.922215
-0.792685
0.924995
-0.789675
-0.785097
0.927358
-0.780336
0.926919
-0.773580
0.925658
-0.766594
0.922700
-0.758522
0.918925
-0.749185
0.913354
-0.738940
0.906457
-0.728986
0.898545
-0.716356
0.889321
-0.703873
0.879246
0.867410
-0.690294
0.855391
-0.676605
0.840963
-0.662057
0.826650
-0.646509
0.810935
-0.630312
0.793958
-0.615150
0.776049
-0.598733
0.757709
-0.580728
0.738944
-0.564708
0.719443
-0.547636
0.699356
-0.529042
0.678460
-0.511094
0.657157
-0.493318
0.635909
-0.475920
0.614607
-0.458110
0.591893
-0.440569
-0.422268
0.570074
-0.404060
0.546749
-0.387036
0.525390
-0.370865
0.503744
-0.352587
0.480686
-0.336523
0.458997
-0.319611
0.437634
-0.303716
0.415818
-0.287943
0.394177
-0.272884
0.373939
-0.257976
0.353139
-0.243728
0.333764
-0.229576
0.313827
-0.215400
0.295771
-0.202483
0.276980
-0.189957
0.258674
-0.177460
0.241927
-0.165784
0.224890
-0.155016
0.208684
-0.144192
0.193595
-0.134038
0.179051
-0.123634
0.164427
-0.115118
0.150138
-0.105988
0.137929
-0.097320
0.126316
-0.089591
0.114273
-0.081788
0.103208
-0.074332
0.093075
-0.067607
0.083738
-0.060974
0.074357
-0.055364
0.066463
-0.049869
0.058547
-0.044318
0.051508
-0.039591
0.044886
-0.035572
0.039104
-0.030598
0.032324
-0.027563
0.028374
-0.023949
0.023386
-0.020054
0.020266
-0.017551
0.016728
-0.014806
0.013379
-0.012432
0.010315
-0.010540
0.007602
-0.008510
0.005867
-0.006445
0.004015
-0.004658
0.002669
-0.004650
0.001248
-0.002824
0.000562
-0.002478
-0.000667
-0.001511
-0.000654
-0.001070
-0.001445
-0.000101
-0.001046
-0.000095
-0.001883
-0.000316
-0.001672
0.000319
-0.001944
-0.000034
-0.001436
-0.000105
-0.001161
-0.000170
-0.000409
-0.000434
-0.000484
-0.001197
-0.001873
-0.001760
-0.002363
-0.001613
-0.002906
-0.002287
-0.003263
-0.002757
-0.003272
-0.003983
-0.003634
-0.005630
-0.003495
-0.008214
-0.003264
-0.010141
-0.003028
-0.013986
-0.002116
-0.017492
-0.001043
-0.021993
0.000643
-0.026465
0.002873
-0.031965
0.005441
-0.038333
0.009026
-0.045275
0.013144
-0.053036
0.017434
-0.060828
0.022366
-0.070061
0.028396
-0.080513
0.034972
-0.090292
0.042770
-0.100798
0.050851
-0.113230
0.060473
-0.125156
0.070149
-0.137798
0.081092
-0.152582
0.092793
-0.166541
0.104668
-0.181684
0.118303
-0.196843
0.132329
-0.213429
0.147774
-0.229673
0.163256
-0.247123
0.179613
-0.264471
0.197505
-0.281650
0.214897
-0.299745
0.233418
-0.318579
0.253211
-0.336941
0.272668
-0.355653
0.293122
-0.374388
0.313821
-0.393650
0.335214
-0.412898
0.357004
-0.431229
0.378866
-0.449375
0.400740
-0.468787
0.422850
-0.486524
0.445098
-0.504344
0.467518
-0.522037
0.490183
-0.539071
0.511737
-0.555752
0.533635
-0.571950
0.555374
-0.587914
0.576666
-0.602756
0.596840
-0.616284
0.617369
-0.630812
0.636973
-0.643346
0.655093
-0.654767
0.673294
-0.665372
0.689827
-0.675641
0.706867
-0.684924
0.721975
-0.692688
0.736313
-0.699507
0.750183
-0.705420
0.761581
-0.710483
0.773021
-0.714001
0.782744
-0.716856
0.791013
-0.719135
0.799061
-0.719772
0.805001
-0.719159
0.808955
-0.718084
0.812390
-0.714871
0.814543
-0.711751
0.814961
-0.706472
0.814654
-0.700776
0.812701
-0.694279
0.809765
-0.686975
0.804900
-0.678779
0.799911
-0.669144
0.792162
-0.659370
0.784427
-0.647842
0.774848
-0.636100
0.764008
-0.624571
0.752506
-0.610894
0.739901
-0.598011
0.727335
-0.583117
0.712313
-0.568512
0.696502
-0.553937
0.680693
-0.538874
0.663731
-0.522236
0.646742
-0.506333
0.628424
-0.490048
0.610069
-0.473832
0.591289
-0.457121
0.571685
-0.440311
0.551419
-0.424043
0.531950
-0.407928
0.511587
-0.390684
0.491526
-0.374544
0.471466
-0.357986
0.450828
-0.342194
0.430781
-0.326024
0.410780
-0.310401
0.390930
-0.294945
0.370970
-0.279480
0.351291
-0.264696
0.332188
-0.250514
0.313811
-0.236215
0.295060
-0.222158
0.277630
-0.209785
0.260733
-0.196685
0.242407
-0.185210
0.226276
-0.172538
0.210810
-0.160818
0.195443
-0.149581
0.181122
-0.139250
0.166704
-0.129215
0.153323
-0.120148
0.139813
-0.111004
0.128205
-0.101367
0.117053
-0.093436
0.105508
-0.085395
0.094754
-0.078159
0.085688
-0.070497
0.076738
-0.064476
0.068046
-0.058137
0.060188
-0.052353
0.052781
-0.046916
0.046346
-0.041767
0.040205
-0.037122
0.034708
-0.032308
0.029111
-0.027987
0.024324
-0.025477
0.020718
-0.021458
0.016123
-0.018403
0.013875
-0.015943
0.010488
-0.013306
0.007377
-0.011222
0.005784
-0.009027
0.004289
-0.006830
0.001984
-0.005710
0.001226
-0.004589
0.001080
-0.003021
-0.000580
-0.002367
-0.001376
-0.001562
-0.002348
-0.001596
-0.001366
-0.000947
-0.002291
-0.000566
-0.001962
-0.000620
-0.002337
0.000026
-0.001594
-0.000038
-0.001280
-0.000903
-0.001319
-0.000759
-0.000901
-0.001804
-0.001054
-0.001454
-0.000956
-0.002096
-0.002373
-0.001672
-0.001355
-0.001681
-0.001464
-0.001227
-0.001458
-0.002367
-0.002728
-0.001705
-0.002172
-0.002571
-0.003201
-0.003718
-0.002655
-0.003374
-0.003346
-0.004128
-0.003337
-0.004891
-0.003377
-0.003654
-0.005173
-0.005665
-0.003924
-0.003521
-0.007432
-0.008594
-0.003608
-0.003315
-0.009590
-0.010839
-0.003060
-0.003217
-0.011881
-0.013915
-0.002962
-0.001927
-0.015960
-0.018164
-0.001454
-0.000768
-0.019660
-0.022561
-0.000384
0.001294
-0.023855
-0.027525
0.002048
0.003251
-0.030232
-0.033310
0.004516
0.006483
-0.035496
-0.039751
0.007288
0.009548
-0.042271
-0.047032
0.011388
0.014735
-0.049781
-0.055039
0.015935
0.018695
-0.057610
-0.063092
0.020898
0.024683
-0.066631
-0.072239
0.026597
0.030892
-0.076320
-0.083080
-0.091358
0.033436
0.038693
-0.088765
-0.099454
0.041231
0.045990
-0.099687
-0.111397
0.049253
0.054664
-0.112406
-0.124220
0.056880
0.063882
-0.124917
-0.137023
0.067434
0.074428
-0.138293
-0.150749
0.077806
0.086089
-0.151723
-0.166356
0.088922
0.098295
-0.166818
-0.181543
0.101600
0.111009
-0.180788
-0.197046
0.114835
0.125084
-0.196851
-0.213498
0.129134
0.140040
-0.212837
-0.230230
0.156514
0.144395
0.170817
-0.230507
-0.247915
0.163025
0.183154
-0.247497
-0.265222
0.180155
0.200168
-0.264918
-0.283338
0.198240
0.218949
-0.282651
-0.302540
0.217163
0.238348
-0.302026
-0.321619
0.236197
0.259084
-0.320157
-0.340438
0.255787
0.279595
-0.338763
-0.359841
0.275854
0.299965
-0.357736
-0.379284
0.296190
0.322217
-0.377422
-0.399395
0.317866
0.344367
-0.396145
-0.419209
0.339707
0.366877
-0.415782
-0.438820
0.361131
0.390507
-0.435178
-0.458472
0.383551
0.412817
-0.454505
-0.478263
0.407225
0.436797
-0.473724
-0.498350
0.429735
0.460598
-0.493592
-0.518096
-0.535595
0.452801
0.482884
-0.517203
-0.547158
0.475680
0.506715
-0.533130
-0.565510
0.498620
0.530471
-0.552192
-0.583399
0.521035
0.554978
-0.569323
-0.600443
0.543644
0.577959
-0.585948
-0.617209
0.566764
0.601107
-0.602277
-0.633685
0.588209
0.623399
-0.617054
-0.648802
0.610132
0.645669
-0.632686
-0.663417
0.631400
0.667791
-0.646558
-0.677919
0.651789
0.688866
-0.659380
-0.690695
0.671145
0.708077
0.730107
-0.672392
-0.702916
0.697810
0.739968
-0.684273
-0.714356
0.711751
0.759011
-0.694337
-0.725153
0.731798
0.774889
-0.704721
-0.733950
0.746984
0.790749
-0.713553
-0.741869
0.763685
0.806027
-0.719794
-0.749413
0.777228
0.820874
-0.727356
-0.755254
0.790623
0.832342
-0.733031
-0.760158
0.803153
0.844346
-0.737110
-0.764805
0.813300
0.853975
-0.740766
-0.767129
0.822285
0.863251
-0.743108
-0.769417
0.830437
0.871434
-0.744148
-0.770103
0.837069
0.877238
-0.744349
-0.769080
0.842163
0.882319
-0.743301
-0.767919
0.847518
0.885844
-0.741032
-0.765986
0.850444
0.887336
-0.737440
-0.763025
-0.762010
0.850805
0.888062
-0.734981
-0.754449
0.850929
0.887984
-0.727154
-0.748112
0.849914
0.886032
-0.720747
-0.739933
0.847249
0.882492
-0.713172
-0.730798
0.843521
0.878078
-0.704703
-0.722511
0.838436
0.872318
-0.695594
-0.711685
0.831863
0.864746
-0.685287
-0.700929
0.823093
0.855425
-0.674197
-0.688694
0.813880
0.846654
-0.662470
-0.676313
0.802209
0.835542
0.831418
-0.649992
-0.663205
0.796216
0.816263
-0.636483
-0.649839
0.776217
0.802581
-0.623428
-0.635297
0.764393
0.786919
-0.608841
-0.620153
0.748143
0.771656
-0.593660
-0.604748
0.733185
0.754861
-0.578770
-0.588821
0.716769
0.737621
-0.563228
-0.572444
0.699995
0.719109
-0.546995
-0.555363
0.681486
0.700382
-0.530397
-0.539101
0.663577
0.680952
-0.514035
-0.521597
0.644919
0.661406
-0.497429
-0.505191
0.625507
0.641302
-0.481073
-0.486697
0.606058
0.620820
-0.463420
-0.469095
0.585569
0.600207
-0.446024
-0.451775
0.564774
0.578120
-0.428745
-0.434895
0.545452
0.556851
-0.409948
-0.416747
-0.405728
0.523325
0.535399
-0.394484
-0.389807
0.502775
0.513639
-0.374151
-0.372376
0.482510
0.492686
-0.356781
-0.355255
0.461010
0.470694
-0.339458
-0.338280
0.440173
0.449296
-0.323537
-0.321802
0.419019
0.428104
-0.308909
-0.306081
0.399407
0.407254
-0.292862
-0.290983
0.378466
0.385967
-0.276922
-0.275503
0.358557
0.365887
-0.262215
-0.260179
0.339096
0.345478
-0.248049
-0.245936
0.317614
0.325636
0.312889
-0.234270
-0.231795
0.299479
0.295751
-0.220925
-0.218483
0.278142
0.277265
-0.207557
-0.205315
0.259546
0.259173
-0.194740
-0.192559
0.242677
0.241918
-0.182062
-0.179985
0.226298
0.225619
-0.170806
-0.168575
0.209784
0.209776
-0.158936
-0.156994
0.195069
0.194058
-0.148173
-0.145904
0.179925
0.178976
-0.137378
-0.135286
0.166259
0.164627
-0.127598
-0.125792
0.152118
0.151454
-0.118116
-0.116993
0.139309
0.138704
-0.108611
-0.106985
0.127043
0.126799
-0.100042
-0.098346
0.115849
0.115063
-0.091500
-0.089554
0.104489
0.103455
-0.083545
-0.083205
-0.076915
0.094230
0.094127
-0.075527
-0.071419
0.085060
0.084364
-0.068149
-0.064435
0.075660
0.075379
-0.060834
-0.058387
0.067246
0.066818
-0.055097
-0.052120
0.059463
0.058812
-0.049573
-0.047107
0.052494
0.051757
-0.044380
-0.041590
0.045191
0.045313
-0.039149
-0.036824
0.039392
0.039033
-0.035387
-0.033537
0.033250
0.033535
-0.030657
-0.029137
0.028747
0.029213
-0.027513
-0.024976
0.023251
0.024053
-0.023298
-0.021585
0.019677
0.020390
-0.020408
-0.018882
0.015008
0.017713
-0.017370
-0.016350
0.012787
0.015061
-0.014161
-0.013922
0.009918
0.011306
-0.012398
-0.011215
0.007188
0.008495
-0.010182
-0.008882
0.005493
0.006435
-0.008338
-0.006758
0.004149
0.004542
-0.007510
-0.005897
0.002107
0.003147
-0.005438
-0.004502
0.001098
0.001315
-0.003643
-0.002836
0.000173
0.000100
-0.002772
-0.002140
-0.001264
-0.000735
-0.001716
-0.001243
-0.001397
-0.000711
-0.001706
-0.001103
-0.001689
-0.002242
-0.000512
-0.000378
-0.001898
-0.001793
-0.000469
-0.000506
-0.001727
-0.001910
-0.001044
-0.000044
-0.002289
-0.001528
0.000182
-0.000080
-0.001918
-0.001984
-0.000009
0.000402
-0.001099
-0.001438
-0.000793
-0.000175
-0.001618
-0.001439
-0.000348
-0.000886
-0.001303
-0.000389
-0.000341
-0.001440
-0.000352
-0.000695
-0.000713
SCALARS stress_1 float
LOOKUP_TABLE default
5382.961944
5998.414478
3911.082418
5794.956235
-678.525026
6863.653241
5577.551661
4998.633836
3473.273811
2953.557012
5799.898021
4238.597248
4831.379968
4818.225696
8979.118344
3125.488098
6026.197561
5288.646266
5101.271398
5412.615789
8650.508677
2819.357998
9038.367192
6989.526670
5959.015769
4900.691172
8568.258422
7880.851503
8169.179564
8859.577029
7854.367146
10794.371289
8650.055817
8874.345853
9820.245579
9019.500722
10669.066587
10836.516832
10146.557509
12237.786151
19417.960073
12025.312946
12517.074028
14741.204078
13382.838256
20436.717882
13945.497962
23104.508134
19521.902906
22182.743659
19692.510884
25012.927995
24408.132988
25301.949570
23864.835044
29648.892796
24692.512559
34586.345623
24871.885138
37006.504035
31440.194506
39568.648427
29362.814048
34201.443284
44544.778799
34332.997803
47106.175547
37260.026887
53685.884413
38394.596363
54091.643589
38958.601737
59843.453073
47268.762612
68336.331451
45658.320718
69475.586277
46037.695180
78537.151725
46843.735758
83092.569999
51032.900248
84173.971256
53227.999742
91674.205257
50329.884001
98764.814208
50680.710341
98559.235820
53008.086794
108115.704743
55775.870200
113148.574278
115896.275058
51400.060556
119004.964399
54838.161402
124517.268919
55999.284309
127642.888140
52949.782577
133284.906473
52601.656205
133713.873202
52637.258492
138148.022976
46025.243216
140269.709096
49015.571709
142253.362195
44945.943493
141593.139590
48505.404312
143897.171436
41918.215977
42867.777530
146514.307495
37661.892990
146008.089972
33862.261876
147619.956577
33286.845523
145178.757073
26036.231879
142169.733187
31052.186293
141007.577364
23587.296717
134755.230852
22008.374243
130868.693653
18251.418871
122565.011509
14361.672328
122659.922612
13757.095948
113239.322465
12159.389251
112703.211069
11255.898461
100129.483928
7034.022620
93786.337027
8128.911968
87038.358314
4703.965547
77079.247313
68658.507561
1850.987376
54619.027486
1243.676975
47652.206133
1910.622294
36037.389723
3873.980650
22600.277779
1309.752042
11521.458249
4803.374181
586.892468
3244.808399
-10735.485393
4389.988870
-20499.714001
4680.876925
-34280.355646
5130.060515
9203.239162
-47373.410326
14523.759088
-60556.720727
14903.019336
-73489.698899
19631.908334
-81810.645319
23987.929622
-96619.755971
24108.782721
-104585.631812
30735.055580
-115409.122603
34934.944184
-124878.829299
42026.344037
-135275.405680
44617.255139
-144381.152222
48601.572996
-154826.107594
55755.035797
-163861.030069
57694.689285
-171837.919645
63956.533461
-176997.965230
68659.509575
-183480.578874
75722.310071
-183991.995228
-191599.626341
76470.176677
-199333.510882
84731.959154
-197967.949328
85941.095212
-198571.137663
93781.127058
-201411.676844
96416.904453
-201641.305061
97632.557552
-205466.976567
106474.243672
-202350.991843
113340.393447
-195787.389556
111369.360175
-195719.515928
114163.378508
-194033.017661
120040.997729
-192199.894754
120945.302249
-186521.793907
123285.991591
-180177.603551
124049.692371
-173729.820146
126202.561905
-172170.443692
123951.030829
-164267.617352
126017.452441
-158301.733093
126580.061392
-150282.633600
127616.295393
-144013.469110
126297.696650
-135591.428531
121317.114924
-127500.054069
123050.680371
-122774.495964
119357.935197
-116096.335088
117386.813575
-110636.329714
116674.623060
-102429.760238
113720.382235
-93998.731154
106988.091102
-83627.176636
104109.487849
-74564.547400
104957.618221
-69665.927858
100575.762613
-63961.618489
92403.921025
-55238.245911
89213.373853
-50026.568396
84792.317079
-43273.866339
79001.338654
-39102.244235
76359.522989
-37075.636258
71501.758514
-31723.231313
65881.548767
-26328.571607
64121.062570
-22998.807379
59124.953703
-19999.519503
55316.306575
-17894.250184
54091.709139
-12493.234073
42305.200061
-10620.079204
39442.021069
-7484.104640
35300.210831
-5933.310381
34527.899503
325.415145
30469.087084
-5718.424523
24118.008227
-2591.260022
24103.250880
-629.091349
20031.899456
1641.650860
13667.757972
1029.620382
18464.995251
472.778550
15364.069087
4092.040953
10875.148305
2719.669400
9774.886681
1476.709636
11110.368628
3228.992838
7559.632812
5828.714988
8350.613408
5012.791674
8171.310414
4807.184230
3975.304705
8215.900890
-19.545118
6451.802546
3586.283911
6409.203857
6985.862898
4683.647030
5143.257671
4033.170732
3104.625545
9685.709137
4361.770537
9876.150671
3808.719807
7672.691319
4718.127131
9333.303922
3687.104082
10081.334701
10204.958214
11160.979641
1000.605115
12339.061342
5183.156358
7046.926026
2298.573273
11908.311884
3975.313656
9229.453567
7894.685062
13494.939024
9889.603077
13908.310461
10658.029035
18444.652290
10112.616714
17903.702701
10819.785238
21256.350123
9679.338626
23019.182504
14085.891987
23770.434497
13304.752875
24787.347829
17885.032863
29069.268723
20452.039505
30047.019779
20642.884373
34084.796981
18403.266987
36366.338519
23018.560732
40404.036358
28406.007333
42396.974912
26250.980174
48248.892370
29651.178776
50844.376681
31527.518727
51578.970051
32598.549309
56173.064448
38548.336350
62201.744283
34607.429132
71317.597507
37024.743244
73372.820102
40341.782224
75223.542225
43007.853626
82013.110098
41516.460989
85726.307656
45772.911868
92243.526864
46403.821372
95916.505912
47021.385486
101153.636767
47528.415301
104098.657618
49309.564596
106809.267987
50278.794703
114240.094492
46733.805143
121037.294448
51331.903472
123003.494473
48717.939450
128116.394089
48165.874410
129983.077708
49721.211890
134442.094612
45457.651411
139447.679453
45504.500528
141942.381512
49907.262780
138829.285202
44786.591945
142109.436267
48437.691081
141407.226673
42136.756173
147283.702166
42137.552570
146643.254711
40277.321998
141870.668242
36838.025791
142990.596537
32748.709692
144396.477307
34262.877241
141252.506535
31406.227957
136427.272171
29431.611603
132554.473737
26668.989511
127994.503199
25291.603408
122976.210319
22848.956833
113040.183047
21033.245769
112491.467126
20123.673275
102395.762079
18304.893130
96249.459873
15925.101317
87685.606250
17795.043101
80316.397196
16595.372260
68360.577976
15463.134539
63282.802367
14996.487252
52455.004541
17488.018351
43003.341816
15806.577596
35268.402140
19337.864508
20559.689053
20274.924833
10078.248297
20295.262107
-486.220604
23579.464282
-8760.867890
24421.688673
-24229.105612
28913.869452
-31188.776452
33608.660398
-47654.834668
37588.806776
-53234.626482
38194.504569
-64045.406627
41858.799522
-72826.979120
43742.083602
-82834.690184
50094.056329
-90845.336760
53235.763449
-96606.722863
56483.792912
-104777.344955
60194.994478
-116063.961309
65065.760114
-122568.610592
71073.789341
-128414.443044
76159.670111
-135287.759142
78911.598406
-141959.055350
81115.011937
-142891.285921
87898.564483
-150634.489525
95023.039975
-152103.424433
94288.830382
-152484.325296
102272.981446
-158436.996132
106775.885136
-157490.233880
104214.587196
-158147.384762
110820.172036
-160330.945241
111695.188940
-152919.607761
114201.872559
-152991.672802
119154.772175
-150197.636824
117184.972201
-144735.538495
121422.172157
-145432.528054
121780.998661
-143503.297948
121899.609030
-137082.148653
124780.629881
-130975.118837
121633.760736
-127733.554724
121722.739785
-118334.645219
119855.958993
-117726.194341
121137.156550
-107089.586977
116630.724424
-101383.515575
115857.446547
-94322.476596
113848.669142
-91009.162484
109844.522365
-88262.069701
108353.202200
-74536.282660
106291.296597
-73753.252078
99665.889968
-67108.912127
97525.374279
-58844.713526
91473.291736
-59303.740685
89370.230290
-49436.294083
87903.928130
-42965.000339
81097.469668
-39668.617724
74287.246870
-35861.772857
69760.997926
-31374.766215
66746.918819
-26602.486227
66067.832151
-21111.625338
62371.084144
-17697.071978
52549.916526
-16693.518590
48030.563947
-14066.350065
48097.614358
-12019.762387
41529.956188
-9651.336429
39895.327625
-3976.418413
36064.813082
-6297.047008
33129.954764
-3724.306625
26599.340622
-2736.889709
25179.205307
389.661533
23957.287008
-1550.691565
20556.931947
-536.837433
13080.962727
3840.139518
13365.575329
1005.546842
14426.115978
3652.496111
14136.557512
45.641103
9709.095916
4567.008978
8834.619618
5700.403750
9733.062791
4683.982738
7066.464102
737.811767
6303.852170
5974.365758
5347.683529
2364.437588
8574.389356
3725.822012
5221.432317
6554.043352
4906.645458
3988.709312
4984.784904
6817.892096
4543.862998
-252.540648
6628.724075
4656.218914
5417.915702
3716.807624
5038.021014
2665.394627
9454.581664
6344.382504
3407.525644
5088.459348
3540.612893
4638.683964
3891.926205
6773.533447
7046.495578
6313.247938
2841.809078
1366.100449
7068.908011
3866.724897
5020.079618
5857.084855
7879.588383
8158.369886
3278.675054
5384.281158
6420.420688
7081.217752
6608.079903
5625.715017
5091.686759
4967.662277
6195.353929
3261.943080
9700.130137
7005.604036
7357.955087
7258.015362
10329.042064
8605.404392
7223.180387
6274.033235
9947.557086
10892.523368
4526.324687
8027.986335
9485.154931
12669.365718
6974.109668
5276.149166
12150.827157
11283.262937
11289.098230
9372.699378
15195.517876
14527.140622
6877.130019
12688.953867
16698.656864
12005.652773
7430.791396
12568.480150
12936.220311
12058.207997
11323.734576
13278.171149
18099.299102
12415.034593
16701.338757
11985.454585
11817.815674
16347.265426
20362.460526
18625.912757
13614.968844
19851.809080
22303.183031
14498.220662
13802.482012
22392.079774
23695.697293
19134.836095
17993.622917
20990.413928
25375.020578
17945.471584
18880.218591
30762.953317
28596.251714
20453.236851
24119.829891
34153.406385
32833.780112
22516.681880
25684.837977
32721.805618
33618.840044
22521.875145
22685.882789
32423.668709
38064.981877
25685.763761
25736.997961
38016.483192
42416.269939
26299.609603
28464.751520
44340.172435
47010.250578
29423.326538
28546.678032
32263.554804
48169.911987
49363.238428
33128.264966
29674.211796
50470.603634
55554.758894
32709.609233
37450.293006
54747.594043
54245.780387
37449.321685
36679.374510
59801.341710
61034.804658
34822.459711
42944.378230
58553.282849
63726.602768
41946.572133
43073.336398
63520.029925
69151.477354
44777.800751
43437.918287
73162.774136
72043.508530
43934.229468
45218.500656
78490.325430
79387.966331
42225.536288
46139.186853
83503.443226
87639.792004
46303.340051
48879.702061
86297.916240
87604.433048
46601.169511
48806.375767
93642.764204
90424.300525
50271.328587
49967.040296
96655.542683
101778.378271
45750.024771
52246.669570
102608.850430
105644.174544
46479.871673
53936.004839
106899.310399
107935.043983
50268.374683
50092.777151
113454.868794
114882.978614
115900.495015
48730.200232
48831.198143
119281.173890
119002.442038
48309.806115
52679.791435
121646.501621
125139.800541
53496.891853
50856.648516
125771.079352
130265.892673
50800.960985
50406.095525
129698.850507
130928.131505
51870.156672
49672.547445
133645.915513
138181.184783
49911.963806
48060.423531
134446.334238
138487.814573
49077.024782
48656.072810
141000.759758
141093.401269
45771.253628
48984.278991
143536.783306
141445.007766
45141.230357
46856.675417
143114.016709
143911.702823
46694.019230
41058.913029
147630.039340
141726.985260
43402.891547
39568.062240
40234.614241
148017.019581
150128.084725
41633.158506
37481.730438
145607.917421
146269.282473
35154.670232
37190.737232
145113.967356
144325.535755
36962.055015
33889.442426
142195.665362
140050.159140
30832.627281
31114.458109
143465.848460
144448.253619
32404.988391
26966.247049
140830.931719
135998.939270
31209.345966
23761.071851
139925.865603
133825.235604
25445.788235
27154.708797
134130.738955
129878.500352
24277.218041
22165.493113
126947.435772
123472.420600
21800.086960
22612.208636
122281.144961
116372.322556
19337.799550
19245.980835
119466.431808
116158.496909
16101.911023
18332.594763
109699.109769
106061.711146
20502.145415
10683.767888
108004.524580
100225.715982
16818.987329
13686.002184
100264.080837
91854.495670
13057.244417
12033.510561
86052.409877
85639.442331
11905.631564
9442.849890
81946.124595
75341.122409
70456.435092
11285.525946
5425.755843
72399.125211
63040.888673
10684.111050
4914.926028
60029.990111
49839.240447
16293.131059
6066.678073
49498.038749
37118.447058
12535.817117
7579.903403
41917.832383
26101.969096
11398.990549
8634.628827
32427.468131
13801.018264
10431.634269
8629.651859
18556.752174
729.912287
13513.265175
8996.898509
6145.471731
-6748.524388
15097.565632
10100.386023
-2665.217540
-18417.539927
21515.005967
12971.011473
-13550.595587
-30874.865724
21765.201554
13429.055089
14833.690687
-23344.508540
-39950.807111
24516.892068
17734.570218
-36435.241001
-52201.366380
27143.906991
21459.421349
-44854.506644
-67694.874167
25032.748512
24293.523321
-58323.507383
-76091.283735
31552.003981
27967.279929
-69091.585298
-89099.265090
35405.395430
34518.229806
-81924.076249
-95280.803059
41409.933449
36867.879172
-88035.960504
-111059.023592
39212.868149
40451.070963
-103439.837523
-117133.168063
47626.681838
43640.756566
-108136.087764
-128849.548236
49209.615957
48365.494125
-116238.566918
-138956.718464
54697.029733
53238.538375
-124108.592549
-142983.035710
63321.825750
59678.109462
-131895.747824
-153253.029366
64320.497823
66507.775381
-139465.764842
-158157.640680
70001.349076
68127.149679
-147896.516449
-162132.411288
73334.362359
73360.099204
-151257.493178
-167038.558493
78507.973948
80465.551403
-156762.235463
-171715.162959
-183394.102361
85309.070773
85028.265696
-160898.347646
-181891.050724
88245.587008
86509.091842
-165792.655722
-182926.063890
91958.568396
93434.579125
-168131.740278
-185673.772493
95684.864698
96531.811957
-168240.002440
-184166.209824
100195.756309
102262.555686
-170940.986979
-186859.602813
102537.639340
104216.730332
-168331.892722
-185708.872344
108058.556031
105603.941284
-167392.378094
-186323.531739
112560.178963
110034.720097
-168282.399492
-181719.591581
116062.818181
113416.818763
-166500.551525
-182577.489296
119445.346906
114656.069294
-164661.136171
-179205.220165
120967.155608
116339.410828
119363.178746
-163849.396656
-172092.626873
120073.976687
125534.185934
-157161.986756
-170351.055642
118696.629348
118292.901283
-158363.232612
-165680.281479
121967.787489
123702.969376
-150785.605025
-155591.971935
123755.440381
123575.181779
-143735.209986
-149597.442725
124455.000281
124047.549994
-140780.449474
-149880.440549
124810.061736
123260.215910
-132208.539554
-141780.027506
121984.427744
124266.258071
-125343.819372
-135488.083450
119538.317528
120466.682275
-121966.876878
-130711.278605
122725.822922
119697.118206
-115442.298525
-122498.263752
118218.579921
120992.286615
-114924.219407
-114610.971121
118400.448359
117436.814472
-101928.971565
-108566.055764
117571.246756
114062.537187
-95978.637498
-101284.519341
110049.573425
110853.105739
-89664.195976
-93650.317632
107932.748091
108453.703386
-87730.831175
-87445.634925
-80385.318184
107207.897313
107619.681998
-77385.503706
-73829.342637
98951.818829
100351.556778
-67212.049925
-69258.654138
96249.754364
99443.106783
-63881.254111
-64004.289170
91149.965730
97181.520569
-55812.171613
-57065.341675
90400.648910
90234.994119
-52125.625871
-50395.294949
89450.862655
86086.822334
-42538.886032
-45830.716830
82284.894788
82235.579805
-36671.913302
-39591.876458
76456.446421
76916.091336
-36969.113447
-33789.300098
69693.198112
68311.047964
-26096.855772
-30992.039399
68880.409629
67410.259961
-30041.233262
-27749.310165
63236.111507
59285.681833
-23592.663546
-20824.077366
57950.510402
55704.540991
-21100.271202
-19619.874696
52566.401685
56418.266766
-14926.421036
-14016.184048
48086.788734
49238.439462
-11993.477857
-9293.008420
44214.135256
48097.390796
-8817.245680
-8940.583960
39820.856265
41157.147672
-5535.565691
-7342.213377
38531.279531
38210.467084
-4217.695622
-4293.169961
35079.337153
36343.982345
-3131.306336
-3299.696967
28975.426170
31931.416789
-3423.548072
-4101.756078
25340.829621
27582.174531
614.323289
536.125292
21083.862138
25503.399591
791.260856
-1414.834405
18946.824199
24937.980399
-643.332093
-872.706954
16814.577073
23197.967482
1087.067973
1885.965727
14288.664113
15156.079740
2735.097329
1862.050196
12196.521883
13544.560688
1983.010645
855.307570
12808.675151
13473.168662
7881.694249
1563.978764
12553.107119
14283.495340
5303.980530
3802.080723
6213.817786
9043.196990
5141.431737
-1252.461534
5937.160453
7450.838193
2015.014788
1538.884652
6472.520008
5481.503363
2504.918064
3634.344512
5607.570314
4398.186970
5961.937699
4198.849560
5496.435352
4933.512485
2654.596921
SCALARS stress_2 float
LOOKUP_TABLE default
63932.761213
70476.723822
77506.744163
45095.860191
90550.560023
71699.544104
94600.705787
79034.869540
146736.764765
155337.457161
165405.836497
150999.950644
188281.420213
154385.685622
272470.037374
188627.525201
377112.967778
165093.661816
513172.739194
137186.815669
628627.911217
110402.570072
811619.843948
24279.452796
1010511.096979
-26097.288185
1281744.502642
-153751.652871
1508813.340733
-239406.393289
1844309.114258
-427787.286228
2141685.407576
-603278.443816
2518574.220684
-817719.866054
2944065.696489
-1058938.417094
3366584.251679
-1356875.761600
3859315.917029
4361853.109229
-1676857.483928
4867811.331285
-2051190.223977
5482251.862993
-2467005.038334
6115401.232124
-2871606.231559
6741733.998271
-3354132.443550
7444748.384643
-3905160.395557
8177052.503367
-4471375.062816
8932859.634242
-5043891.886779
9700153.280271
-5717793.314912
10505306.609126
-6428981.316437
11360330.068269
-7128071.811050
-7939305.407871
12257287.657702
-8757311.386699
13129469.824890
-9637378.661214
14087433.432940
-10525680.206652
15052386.289420
-11456723.464467
16007176.394329
-12427030.882123
16953630.002700
-13416152.428844
17993032.170073
-14456531.161217
18957123.871684
-15532335.383802
20030019.747432
-16648607.736497
21073161.940221
-17753300.940552
22108014.145490
-18878711.300528
23137699.003136
-20026506.065444
24181775.711607
-21212055.570638
25210177.855258
-22369907.674251
26247355.352739
27280782.956075
-23601438.376283
28294457.416248
-24762605.453525
29280466.652951
-25982145.018104
30275466.057063
-27185431.151371
31199428.908380
-28388463.853326
32149002.293220
-29576777.205320
33080807.795941
-30738000.679584
33949663.335190
-31867534.692804
34813315.662995
-33018195.854104
35597777.530335
-34135107.300374
36377355.080115
-35179156.839182
-36221673.688771
37106952.007774
-37227719.016810
37807994.953210
-38214397.432420
38435659.114868
-39120021.352290
39019344.188188
-40040191.273413
39583340.203946
-40862920.780147
40092538.106602
-41611106.369486
40524171.317810
-42345340.762679
40921631.837571
-43000343.959726
41279124.528992
-43615825.929850
41560481.199640
-44173619.089740
41764346.408062
-44643980.048517
41940512.154259
-45072815.333952
42061894.996778
-45424958.164288
42114804.103287
-45708304.234965
42108982.976792
-45905862.764224
42024639.008173
41911990.420638
-46053734.919736
41776637.326315
-46137665.310622
41520498.506961
-46165318.433875
41240515.434806
-46096377.538515
40928671.500728
-45984090.624542
40513302.207734
-45812354.493512
40098591.139134
-45552121.562112
39607927.270165
-45193218.855106
39082262.184137
-44834470.789184
38511715.079497
-44352981.861339
-43891168.680693
37911389.956244
-43320345.775015
37220739.565358
-42685474.362550
36570083.409847
-42024218.331170
35810476.880587
-41298391.457665
35047002.809911
-40531242.351156
34265035.979574
-39701251.508637
33434024.694139
-38858717.762440
32639311.735362
-37975172.554018
31762158.575472
-37042679.883369
30849716.605348
-36077699.191948
29963161.408301
-35114862.672188
29048063.015108
-34092637.460980
28134245.425769
-33035471.558324
27183899.919035
-31983795.542566
26233521.997912
-30914862.469246
25300762.078042
24348899.662432
-29808478.307587
23462918.334393
-28734443.362152
22499121.484804
-27636846.434493
21587807.945996
-26524852.884713
20640240.499726
-25432679.017373
19754923.338427
-24343234.689568
18831213.325206
-23252171.150319
17942117.850943
-22177773.647598
17093260.498948
-21097384.262758
16201395.796993
-20011885.411440
15363933.663726
-19016246.007329
14549258.099147
-17993116.770626
13756603.021906
-16975858.310453
12990992.319873
-15996446.707117
12238772.216260
-15042085.209636
11486118.711066
-14115699.065985
10784787.946150
-13221894.357514
10115953.586175
-12378321.499867
9463484.382119
-11465709.294599
8767692.029424
-10652967.101810
8176239.806839
-9876775.226062
7586037.074467
-9137579.524451
7048115.527746
-8428929.357078
6486128.110089
-7741291.748707
5984012.852274
-7114053.643798
5519007.306836
-6476012.787318
5052764.032321
-5867617.179268
4628998.053494
-5332587.012080
4206372.456672
-4833453.422647
3805777.962059
-4318781.963503
3443389.960534
-3863836.634649
3092688.532401
-3433054.988619
2773611.708438
-3041407.857745
2468645.041180
-2678127.739020
2190385.089172
-2339017.352649
1941330.877181
-2037548.586502
1694937.683956
-1727471.217371
1490834.869599
-1495750.685663
1259094.129550
-1279584.463607
1084776.407222
-1008727.271407
939415.062716
-854171.606056
809172.511676
-694437.050867
620971.089439
-522001.575062
525735.931850
-447704.761953
442827.038911
-313400.468636
364084.298494
-210096.695111
270861.933807
-121395.857019
184133.192826
-82482.451357
145242.075550
-24775.198325
81337.829953
-8823.265595
78902.983807
65543.906428
17993.120421
57859.677845
-5621.039999
39366.608248
28740.694978
76835.225410
-6956.811539
62462.809125
-9748.119143
52833.776082
6547.939835
96137.101518
10598.085599
55284.785431
4057.901459
33759.884410
60197.227932
95061.798635
74815.423093
96776.644805
78208.589100
120796.845641
105883.365853
135829.425910
126360.170040
172463.136591
240819.976897
190756.810015
289230.898550
172593.054258
410862.102669
135846.397091
543190.981179
165540.726386
655671.006308
88017.097684
858771.345725
39110.231189
1087113.086794
-32219.985228
1286213.701744
-127773.968254
1599744.998142
-280370.357787
1900104.560345
-404596.098288
2231211.891360
-594760.469552
2603997.631084
-792759.888268
3035331.059315
-1064559.826665
3431827.983618
-1348523.341329
3928880.516123
-1661423.599931
4431912.159834
-1992946.491387
4965512.499109
-2412046.960157
5564467.564724
-2830245.118369
6167382.828911
-3287567.910480
6809615.379030
-3824687.448620
7494882.382752
-4359380.341910
8212103.647643
-4943894.510043
8979849.509041
-5595923.922245
9696589.246742
-6287972.498209
10520074.668313
-6980312.847057
11384529.276760
-7724886.248585
12239059.711982
-8538709.616475
13102876.309315
-9355923.925964
13972496.348556
-10202762.090734
14911423.332712
-11109277.390581
15825198.429451
-12054435.602295
16805023.781678
-13003127.670335
17758272.861622
-13991407.371493
18689062.339957
-15000165.650226
19673946.552022
-16016400.395452
20640533.305382
-17091946.439504
21613664.935377
-18136740.503629
22624629.249572
-19238892.060059
23574145.638846
-20309705.525480
24521630.022894
-21395853.509016
25465799.152695
-22515858.955124
26422548.947945
-23591810.168366
27326006.799523
-24698723.565430
28216977.987223
-25794188.923106
29092141.597364
-26860622.850516
29955223.214304
-27873156.292119
30764373.924360
-28934403.024705
31523279.007327
-29942776.520504
32288351.326316
-30928651.165428
32995217.216661
-31894197.791807
33686593.541473
-32779269.984000
34287994.636087
-33683993.711228
34895441.171180
-34511737.390182
35449623.674520
-35331272.157753
35929141.344555
-36083547.790731
36357679.348952
-36777092.898238
36795797.190718
-37394795.784834
37113878.260730
-38012056.867208
37410620.894328
-38549162.114584
37621600.786949
-39039989.303752
37814801.441599
-39444981.267043
37959211.721388
-39815888.390368
38025695.017193
-40113716.145958
38020405.664351
-40340379.366144
37985292.525972
-40504441.796938
37905384.769722
-40602620.910572
37765974.649589
-40636743.843937
37539112.693344
-40618845.846052
37280155.876221
-40535343.413911
37015724.949201
-40372580.852076
36643947.415290
-40203470.769668
36227073.497698
-39889296.303579
35794380.059534
-39578239.230598
35303802.491674
-39130252.047721
34777188.489559
-38670138.003967
34172441.556194
-38177740.124100
33560982.442561
-37624303.880349
32939832.011766
-36991897.018729
32267344.791580
-36335426.371571
31541741.035990
-35629327.075766
30798993.912665
-34894708.795977
30027537.949374
-34102852.141326
29224134.760207
-33268128.248705
28405301.512831
-32388729.615108
27603592.430456
-31527800.545095
26753569.543860
-30622482.703330
25928696.436353
-29701272.698933
25034980.803375
-28706811.028898
24193430.035804
-27752116.525557
23302838.356851
-26782429.990465
22407970.629622
-25805604.895850
21533266.437429
-24774388.571039
20658727.811050
-23753922.680693
19758613.166127
-22775218.361705
18914079.670328
-21738553.278737
18050464.937741
-20744186.568682
17209963.496138
-19775376.951742
16396585.568728
-18760437.341601
15554432.211052
-17776666.153900
14761246.813988
-16837112.302323
13989551.600746
-15908394.507073
13213866.154638
-14995073.377272
12440550.171103
-14098916.993224
11696904.705681
-13245016.603950
11005377.149252
-12347844.289755
10323079.085126
-11540216.659760
9650989.041074
-10761533.906399
9027074.295848
-9995529.694335
8390156.017115
-9224100.215999
7783828.315958
-8532355.136056
7250240.247917
-7837713.783829
6698426.036203
-7174818.687090
6167462.736356
-6547443.702934
5679408.571587
-5993343.663693
5199986.262098
-5423543.066359
4763762.894207
-4914868.631138
4322165.492679
-4415214.022691
3923201.143831
-3943728.601120
3581872.567867
-3519084.863419
3195443.155666
-3087979.002021
2890096.987532
-2740933.737130
2556108.094242
-2360690.733408
2268460.556103
-2066874.183288
2032577.763991
-1773334.919102
1765291.605779
-1478891.853486
1550223.137010
-1258635.514211
1344908.245553
-1047315.870500
1136839.986952
-848631.337996
964492.472287
-706470.413693
805972.533890
-538944.985462
688869.115174
-425231.245738
555152.743910
-298283.914723
436943.003410
-209892.352520
345914.613876
-117033.056122
297336.630850
-90220.441172
185942.414433
-30198.700103
139467.547938
30437.639314
97783.919236
53573.664443
72950.248531
70702.542953
37099.591364
113229.747072
27383.835608
108008.668726
17005.509032
97924.475582
21383.219712
74113.279769
2623.799981
69148.056522
33812.000818
51677.222529
30406.846987
51023.921800
29303.417690
81205.433934
50045.870171
65197.809640
92311.052544
61920.624012
52644.166617
85345.101051
80743.032676
83921.497367
74364.061716
93124.366048
107105.790630
106116.990233
68816.859381
133784.714088
113846.307603
144711.488766
135405.583247
94657.998974
157847.575576
151078.132413
157486.397024
192420.669007
232823.442872
150509.415446
160690.890894
269548.321911
339064.960645
164003.723575
157176.005360
362059.009308
423968.146989
190994.504410
143158.142951
487928.538763
538919.444347
158286.119913
137985.986163
604123.660211
714342.374724
111731.126473
89810.236446
775504.370062
900548.184280
48656.256909
20572.797880
1000599.002016
1104629.894119
-4695.472694
-44861.760217
1224052.386698
1371955.390929
-136055.618875
-170974.524999
1457597.996613
1655718.032335
-216950.144902
-306364.127479
1747351.989165
1939636.163019
-339396.848930
-475797.664183
2095841.034440
2310829.619685
-555906.461894
-667073.575958
2459451.344212
2695863.024525
-709145.580616
-897494.638492
2851196.864249
3117354.918973
-971343.599250
-1164760.239460
3282335.528745
3562337.959448
-1241704.254328
-1450650.546861
3788521.688376
4088027.067018
4487327.403995
-1546495.318006
-1811025.808269
4343142.523062
4909460.888040
-1880861.206972
-2174026.659084
4893722.946290
5499769.931311
-2277282.033353
-2549848.506708
5494557.640419
6097927.582315
-2693696.437048
-3025653.889890
6106778.936881
6757566.170530
-3154871.311941
-3497228.359073
6800848.579245
7463111.607077
-3651543.405807
-4059892.661648
7473968.256255
8185572.133602
-4209856.174283
-4600216.812845
8174782.469264
8938037.972587
-4783955.508379
-5281206.173535
8947534.334321
9708425.030270
-5414805.075302
-5928113.064762
9705328.546149
10540252.424792
-6106858.324938
-6634794.489194
10494829.729417
11355521.786901
-7403851.696095
-6832058.834008
-8052576.756150
11375800.161115
12223858.618558
-7709076.713998
-8633826.630248
12224494.397629
13158749.582596
-8528856.210098
-9471224.961310
13084667.630746
14053518.708745
-9393686.662666
-10385378.613261
14014726.678613
14971281.942249
-10293357.733796
-11311597.125914
14921266.833051
15940321.261674
-11220283.456466
-12286173.428636
15885167.120916
16910084.608217
-12163576.856031
-13264983.542407
16828698.618660
17886174.922609
-13128656.729932
-14287744.211796
17820781.427432
18909476.021304
-14147947.397891
-15329827.172952
18811548.694059
19915621.325959
-15174110.844677
-16408730.333545
19800419.180429
20953739.923343
-16207815.865186
-17518697.840730
20812538.319178
21915046.788831
-17296272.317492
-18605893.076500
21803347.194462
22974054.737956
-18388197.225313
-19774497.829007
22788465.659857
23987657.727462
-19509440.384190
-20908014.119756
23815712.088587
25038047.926639
-20598150.935269
-22050584.945279
24853792.741477
26074244.357985
26986293.875090
-21737729.364562
-23216304.338445
26064706.291310
27587471.340661
-22872418.311970
-24373539.914387
26907597.908468
28566936.464233
-23983610.386613
-25562425.946890
27920770.614798
29558587.317818
-25098015.365281
-26706475.125380
28878447.610903
30502490.860654
-26255613.389834
-27882705.497295
29767016.797036
31406416.532280
-27363806.849774
-29010883.403862
30639157.296289
32276268.563748
-28433946.310582
-30127170.632641
31498702.178387
33124441.124103
-29513259.316360
-31241026.526622
32304549.130929
33957731.782541
-30596627.616780
-32339203.448712
33099298.080404
34729925.019394
-31645432.759150
-33447045.028407
33859004.176774
35461331.324337
-32603311.959402
-34369783.054101
-35499582.711861
34553600.260077
36170176.484617
-33964452.060102
-36012395.453209
35219205.355214
36823219.753958
-34688692.070682
-37015409.846406
35836917.698326
37406936.082501
-35661947.965658
-37800048.917038
36420995.314054
38005076.614527
-36534844.978781
-38650261.476561
36981090.228857
38468700.901003
-37350814.514654
-39449077.000617
37437431.078063
38957700.517397
-38116648.881635
-40184284.848194
37851506.736737
39373135.190449
-38806597.905246
-40869185.537721
38196659.846867
39727800.200999
-39443664.842032
-41509473.020576
38559009.158388
40049599.659608
-39995923.972052
-42051209.924389
38856555.392550
40290513.542296
-40526706.331433
-42579388.899165
39074099.164156
40481642.262090
-40976935.565040
-43021452.729485
39208730.772608
40627655.241624
-41382308.758145
-43382062.869802
39328683.937987
40695520.559318
-41725070.671593
-43696271.361210
39326487.348988
40746470.117406
-41979227.559439
-43925888.343617
39354056.658842
40741317.599440
-42197321.602684
-44100803.899279
39257941.380847
40629339.413364
40705448.916664
-42315006.459194
-44198744.589497
39238374.116896
40389766.985313
-42402468.291532
-44229714.016718
38931946.617117
40141083.372386
-42434419.665635
-44236974.865733
38688316.077727
39803994.225225
-42373577.195398
-44119815.211167
38394536.961864
39461629.028604
-42246979.686420
-43979981.173965
38064182.660105
39087258.415103
-42035777.487108
-43769637.625531
37659241.644624
38618390.998235
-41803097.929994
-43465023.164739
37211704.770688
38169774.193241
-41421664.638056
-43092485.787198
36691239.226670
37627056.623290
-41077493.672567
-42735708.362288
36156250.592430
37015090.863661
-40582192.399757
-42246880.406296
-42150193.773980
35571255.778373
36412953.548567
-40340752.075617
-41402157.391571
35015266.988506
35777718.322806
-39389506.622083
-40786673.020532
34321923.939109
35086710.155930
-38894763.083646
-40081640.771378
33633496.193698
34347625.740437
-38158934.978195
-39348561.188195
32913489.270893
33599773.006405
-37470779.851296
-38604212.187017
32179320.329474
32794283.308918
-36694936.274073
-37785720.735585
31382662.802078
31996739.853600
-35885160.935746
-36909140.938360
30565791.377083
31176753.338697
-35060736.952362
-36032392.756340
29777029.527766
30301533.360139
-34214872.664489
-35127962.378821
28928932.289870
29431488.369049
-33278128.884659
-34206998.059788
28083532.705866
28573834.900309
-32368384.607906
-33193795.836747
27181973.363963
27689252.956220
-31395917.141666
-32221781.652987
26314425.381394
26730109.115125
-30417898.792591
-31215511.661731
25408928.780047
25819843.172044
-29429770.266768
-30155603.819132
24514739.051950
24896355.629515
-28460597.914697
-29121012.867351
23510081.817852
24000261.436975
23394133.278745
-27414865.530875
-28063429.659563
22711367.329484
22520890.884325
-26399520.140066
-26971118.500329
21578052.450480
21587184.260629
-25368644.879161
-25926888.303331
20669773.661965
20681621.186995
-24330216.052722
-24860493.788773
19787221.488034
19751958.097951
-23252383.213283
-23777708.541011
18893255.961982
18892819.263694
-22242497.034657
-22721648.477650
18036987.451107
17991785.487800
-21231240.544221
-21702271.018253
17145966.359549
17148268.658732
-20171467.253278
-20627382.525274
16352178.543429
16274992.439586
-19154028.370275
-19587811.027331
15454179.140023
15452757.695490
-18162874.862992
-18567678.602843
14703851.633583
14619696.159982
-17062125.518512
-17561988.204291
-16889266.171904
13901478.086711
13847612.584039
-16179939.561202
-15995550.716107
13118015.971635
13039949.495434
-15072691.980730
-15057699.133229
12377201.977782
12282771.305558
-14120443.644878
-14122350.049302
11651421.029813
11575037.955677
-13239458.219407
-13220941.929631
10922225.779651
10839375.123911
-12340376.734546
-12371527.273374
10237467.989970
10177289.007327
-11517260.685250
-11518018.115349
9578480.331446
9505288.485310
-10722613.701430
-10717636.086898
8920341.778268
8862853.798776
-9942314.984530
-9960454.942333
8340348.827430
8272471.171912
-9203992.387079
-9171526.283261
7751769.882550
7681329.890196
-8467728.879992
-8442581.379545
7169761.361294
7115610.604573
-7765216.508161
-7757295.582469
6621517.317126
6561218.894312
-7166390.817394
-7154223.470240
6114043.463576
6060017.196806
-6521037.673673
-6522496.947528
5594985.139902
5547839.835682
-5927230.787394
-5918952.498327
5109981.973929
5072747.740723
4751455.695808
-5382000.896672
-5338883.445165
4637078.500763
4374735.489137
-4845907.167016
-4841846.408005
4180978.664620
3987518.855666
-4381827.567650
-4375651.797922
3783781.612550
3594286.271023
-3945529.906140
-3907015.622689
3421809.931132
3218303.997805
-3473137.014818
-3440412.714638
3054263.434251
2922021.630442
-3076538.315338
-3058595.004441
2750333.744567
2590772.460439
-2729770.184795
-2680585.433353
2455025.994128
2313417.202426
-2361916.335150
-2343445.549341
2160397.683779
2084088.387311
-2030030.992433
-2027679.324035
1929525.366388
1801190.516022
-1748737.672900
-1712000.560120
1671787.409112
1555395.997724
-1473910.116914
-1462735.474184
1452206.775164
1330442.335489
-1232572.756755
-1281374.938921
1248461.861434
1178700.884785
-992290.400242
-1101360.230287
1077752.940660
990301.848362
-810073.727025
-925532.058078
926688.285582
888117.412972
-642143.198113
-756475.691415
735241.063867
697602.087631
-509515.443888
-623773.952942
613939.933120
582935.265697
-360988.224024
-456627.074166
503909.334079
456989.578976
-269197.212595
-328378.050849
412524.390565
383024.457214
-192403.611704
-241917.426309
320672.798018
301995.588077
-102377.889662
-157469.956230
235383.632823
204172.324870
-39702.544507
-80906.976211
174972.854269
164861.342656
-12488.967117
-25700.374126
112831.225499
108479.715000
17444.346559
5080.804350
89022.140843
83067.173346
82683.214021
20456.653707
53870.692963
54667.390197
84619.656112
38859.482687
34802.270193
31922.799812
83837.235302
95601.618195
15425.226062
-830.415352
79179.974524
57354.467385
7995.179317
-3732.426061
66167.873779
85216.294039
22151.014584
27502.884642
87042.851715
90170.254916
-5106.168726
15654.136768
72994.797251
83453.629812
9400.707037
5172.558931
54544.399814
34524.391495
37385.207755
61919.131088
57647.597534
53663.108721
22371.375505
SCALARS stress_3 float
LOOKUP_TABLE default
-49350.476130
-42700.358177
-56146.193221
-2676.825309
-87756.132055
-30929.801878
-122431.731513
-39339.412742
-134927.626696
-210650.533590
-82177.657901
-186097.972570
-223400.220108
-195731.375609
-302524.464263
-192386.661821
-439711.674378
-225085.668826
-615026.728819
-161123.112612
-808952.195614
-94805.628279
-1051007.432754
-24630.094194
-1308875.008266
65083.895289
-1646473.401776
227072.340171
-2007323.897297
448087.646096
-2431223.055949
659246.535958
-2881033.763004
941332.773397
-3394388.018462
1227402.358412
-3919867.025449
1543135.460289
-4487324.148865
1992689.038281
-5136204.828196
-5857578.428341
2375597.977662
-6550185.510421
2928966.920438
-7375787.358447
3497225.873514
-8193360.850786
4111108.438150
-9058396.555465
4813543.256353
-10034785.749589
5551197.294283
-10980208.196799
6296890.234691
-11989097.181106
7221319.759725
-13028161.263632
8106552.673771
-14093641.964748
9069559.537342
-15236406.088840
10092438.276458
11173040.093638
-16406405.635909
12332198.272895
-17631083.410341
13503777.618009
-18795307.331248
14767861.811732
-20081351.561011
16071404.536212
-21318976.099629
17429304.595835
-22660937.913867
18768452.551113
-23975590.760460
20238174.408954
-25293098.322159
21738131.770616
-26637317.240972
23224341.278106
-27941980.720024
24732813.897585
-29286307.158056
26315531.230310
-30653705.197073
27929945.120810
-31944565.796935
29481626.609830
-33287383.842915
31074102.744417
-34615093.010859
-35878477.706414
32729645.524571
-37171414.085054
34357995.673184
-38382688.072796
35943808.953897
-39616720.467122
37579751.690863
-40792712.552044
39200287.884080
-41959903.523782
40747555.857704
-43041732.267608
42365650.733366
-44134204.459370
43841353.875967
-45081224.504714
45340964.488026
-46074204.559112
46797598.650430
-46940637.825692
48226362.525559
49561646.518452
-47817470.703192
50885068.149484
-48588911.833620
52156078.621173
-49316376.176835
53329139.298419
-49971434.131576
54471845.620103
-50567163.137331
55498420.471497
-51086985.437365
56481707.291483
-51548687.268646
57373109.046219
-51907084.631172
58177233.735705
-52219973.444058
58969835.920455
-52453819.869682
59603488.965369
-52636454.225898
60146572.072966
-52718852.512706
60590798.121613
-52728973.047959
61002141.516351
-52648209.352031
61308652.655919
-52483973.986040
61444209.945358
-52305999.747467
-51998337.913419
61555070.905040
-51658924.247535
61570606.737485
-51256216.344775
61511436.881574
-50756517.326773
61348325.181833
-50165815.991008
61091383.638263
-49612484.898600
60673309.291003
-48931118.684650
60258611.504954
-48202953.031909
59704998.597362
-47359350.575480
59061267.933127
-46555678.275220
58418822.951129
57623706.853889
-45618880.131131
56775280.519773
-44769040.298686
55839550.353821
-43772675.339004
54844916.592394
-42795902.049566
53822335.958385
-41749550.909997
52693499.654313
-40648159.515260
51537395.119060
-39539485.466612
50334100.832252
-38433714.359015
49021354.476036
-37382397.314101
47736884.050411
-36166755.129351
46454779.237526
-34948550.439865
45034877.875000
-33796796.685129
43660920.043719
-32601925.865144
42220649.743685
-31468087.013749
40813400.737930
-30289028.692065
39332998.783188
-29075008.014819
-27930717.543130
37864926.439974
-26699071.912099
36382189.309546
-25572811.919205
34945868.432045
-24420656.044076
33431115.165466
-23323317.881672
31971703.111067
-22205915.269613
30514091.065724
-21146724.127013
29083698.873962
-20053045.251350
27626062.130136
-19016753.277727
26232567.158398
-17995129.084509
24880319.073476
-16990226.347544
23512910.679150
-16050045.066831
22203204.691408
-15150782.918217
20884924.312768
-14224072.138064
19611171.617213
-13390252.003477
18396102.449269
-12539754.514456
17227108.403289
-11732380.623957
16058359.803427
-10907167.291231
14980369.764410
-10193318.671753
13886155.326378
-9521445.164262
12839795.847326
-8811887.802600
11857944.928513
-8173269.944760
10881173.366813
-7528265.989481
9996088.520221
-6923645.929859
9207214.705983
-6409351.205379
8375990.167365
-5812915.011655
7636633.937602
-5345463.666541
6934746.016695
-4837569.487284
6237556.242263
-4410407.670104
5595812.695194
-4002952.930989
5006520.571101
-3587402.067418
4488495.869985
-3244249.153372
3919575.787460
-2868299.628337
3480670.803153
-2575086.687929
3006928.355943
-2268536.650000
2633419.161819
-1997973.831796
2274495.457140
-1767707.267160
1936409.964800
-1535192.314084
1647896.116774
-1269439.371309
1407641.034695
-1108994.431928
1112507.434550
-906224.853935
924938.755219
-793243.752058
743657.631803
-656038.167043
574658.624816
-511807.929604
434552.369358
-402409.039742
283493.662303
-287121.733817
227722.503651
-203213.288936
158712.008130
-138587.299452
55609.614620
-122683.765367
4206.039108
-66862.281034
-7065.198032
-7123.724820
-48926.664827
-10766.731825
-35569.719269
33665.981963
-67540.929384
50016.578924
-68841.173538
64329.139944
-88719.735745
99198.233050
-31077.980905
65198.337867
-25407.591769
27962.738409
-15388.568337
28608.799574
-8010.917516
-9618.335833
-57291.885671
-64685.582279
-110862.755936
-74239.381527
-95607.604073
-66872.375584
-169650.747328
-119413.929350
-158580.341175
-231179.725577
-196458.865242
-347657.527905
-184869.271875
-464960.856706
-160324.439442
-638370.759633
-110136.604303
-838286.358320
-116547.523192
-1129429.173139
1148.087903
-1380954.650483
101141.992624
-1703933.911984
240935.555868
-2103361.120023
404705.419642
-2446355.159872
618241.827213
-2965608.592650
840042.062593
-3447410.060364
1152567.490682
-4015760.847027
1543113.233112
-4635975.115018
1921773.296791
-5237412.627976
2343029.202090
-5907869.947022
2878429.435544
-6709537.957428
3440868.240417
-7451718.098680
4025497.380349
-8262121.492411
4704955.098608
-9137391.585014
5428697.158832
-10047657.896861
6169742.763541
-11048602.590333
7031661.838755
-11998308.706176
7919840.944986
-13038953.528402
8876026.008255
-14083371.219391
9860308.231081
-15195294.340263
10876880.897476
-16346611.533023
11965720.811221
-17487821.838418
13120255.655069
-18657934.540462
14308910.232799
-19850538.200273
15561989.828424
-21067762.338224
16823027.164837
-22302988.157442
18180788.485305
-23546966.779559
19469750.512721
-24819992.286069
20885175.490351
-26017267.717718
22294067.904727
-27298283.236884
23712986.235477
-28593441.884316
25191381.448761
-29785753.822391
26665860.666210
-31011255.848591
28112645.252725
-32245261.888934
29583346.410826
-33420624.098894
31122826.383779
-34583568.404490
32581210.772844
-35751475.603201
34014208.942921
-36811546.979042
35476841.616902
-37870621.728231
36913711.997309
-38927914.736041
38308498.327406
-39952793.198693
39668349.330087
-40843210.400199
41042128.126986
-41724930.259672
42297106.643515
-42527331.817859
43551859.359302
-43329074.993872
44734177.159618
-44087442.828459
45830470.604978
-44701513.403112
46980417.060282
-45328631.596198
48008844.606415
-45874564.367575
48948629.966272
-46335169.237619
49852792.342371
-46696866.767447
50626241.335974
-47024141.754540
51335950.311980
-47316517.239645
52034633.830901
-47493851.621501
52535008.615632
-47608997.461228
53038721.145799
-47610310.677939
53436979.346816
-47608228.069115
53731926.340315
-47518816.675501
53994392.605923
-47328576.416210
54099921.427048
-47094036.811617
54101471.925322
-46745862.578313
54139904.181632
-46416950.594666
54002686.040504
-46002552.543430
53772260.940820
-45476224.580076
53489474.483838
-44926403.265725
53068209.872079
-44298963.877484
52643055.186430
-43619958.334466
52110311.149783
-42884495.434150
51442853.201020
-42110609.575278
50774517.184667
-41284209.318968
49972483.417970
-40456418.820694
49160623.022564
-39529897.999570
48233551.281854
-38561255.733961
47332754.675468
-37617476.740462
46316597.284293
-36640274.539446
45226004.067582
-35575410.009278
44104266.227855
-34556891.224547
42952211.845999
-33467295.705626
41780348.360894
-32396882.729620
40520209.373801
-31327753.736018
39269935.843972
-30190887.359918
37986930.973929
-29108382.000062
36673126.202551
-28039122.453928
35331128.009466
-26905815.998625
34017025.434813
-25784818.553264
32680353.600226
-24739204.752948
31346642.424213
-23632036.037161
29956336.866026
-22565857.520632
28630073.006553
-21533198.723733
27323911.805047
-20472867.721052
25928473.342395
-19454529.390955
24627596.334585
-18408571.010549
23384585.585395
-17504658.336567
22098594.209555
-16511212.166491
20822911.010843
-15616027.777426
19620798.705248
-14715011.804473
18461436.495288
-13747734.646372
17304358.454945
-12919190.059856
16163720.428745
-12146022.842407
15056784.490670
-11347819.629124
14031065.843238
-10602949.298374
12984418.324071
-9863496.883997
12081798.892423
-9169223.906367
11106501.385913
-8496197.878952
10216314.763795
-7845380.558484
9328608.944578
-7254679.222070
8556568.806626
-6662591.626445
7762429.146816
-6105489.048715
7060924.444772
-5557162.204868
6364258.139377
-5098594.291122
5751564.946616
-4621925.624727
5125273.825745
-4219275.401901
4578008.134756
-3766514.338632
4083027.312530
-3406079.232401
3555209.196687
-3061536.157187
3116568.503215
-2674026.552478
2696542.191367
-2385228.492254
2274136.098765
-2105514.773996
2018484.705033
-1871989.634063
1677200.563781
-1545198.829190
1435148.553376
-1374470.595737
1208339.234330
-1131518.690437
960437.721372
-1012826.626759
777983.453381
-822216.884328
587744.666718
-672891.456239
432343.199004
-540819.220859
315009.766225
-408306.813288
200495.726377
-316472.949514
124524.518338
-250279.386270
77257.256837
-195597.481550
2883.779493
-95565.870454
-26115.035326
-62808.789343
-87278.634013
-33228.954204
-65744.536940
19.878229
-51079.865742
-7462.528405
-106117.668069
59106.947529
-65051.464296
34081.353682
-35161.018062
-1433.789573
-66194.012119
17405.362290
-24803.811368
-69.507975
31034.964531
-59135.057813
-19621.069632
-52086.678948
-40627.995395
-85329.562983
-74329.111283
-45603.780902
-84960.182195
-87053.157884
-85605.221021
19774.209901
-48575.207345
-104732.667292
-125410.991914
-58234.522596
-85256.592025
-90280.441678
-143136.404606
-178098.038484
-75647.160195
-158875.980987
-180686.638717
-178888.784957
-186492.918622
-258220.362928
-223377.742228
-195288.895351
-251395.474330
-339594.916212
-198309.569570
-152896.843041
-462979.962158
-471783.257090
-186495.570448
-193764.057132
-550016.544485
-724771.068349
-178918.606530
-158446.734331
-790561.126612
-920369.426351
-149833.717239
-86716.395619
-973465.508527
-1166014.862458
-27401.398714
10943.477477
-1248923.680128
-1456903.450819
70010.131495
167145.967064
-1558070.292111
-1787057.826442
183975.792542
246981.125268
-1928664.638459
-2173169.440566
341493.272235
481620.100134
-2351510.073529
-2563251.542402
505334.481403
687661.269368
-2776005.143142
-3094174.682967
827220.810104
978448.455884
-3238166.415600
-3586476.559432
1083337.044031
1364319.147874
-3826356.763133
-4169409.345489
1390884.817356
1653173.349214
-4386208.262995
-4739579.026629
1878701.118847
2146409.002159
-5075092.963069
-5488262.935922
-6012438.272285
2249206.221214
2590097.236094
-5850391.814570
-6566364.035665
2744605.489354
3122254.329014
-6555167.628805
-7352955.516891
3266738.686908
3684199.686889
-7365926.157776
-8213621.735029
3891942.455882
4272708.182392
-8153362.690663
-9107185.753319
4523666.154876
5009688.510792
-9138074.735075
-9990835.367142
5232417.145759
5748300.627549
-10006271.121344
-11009969.685290
5989611.898588
6593147.570746
-11012254.301183
-11961427.098019
6802567.400240
7472635.511196
-11971800.660126
-12993991.630290
7690128.559810
8376290.732678
-13026200.768623
-14096392.167980
8640343.103910
9341588.212649
-14121588.230597
-15222839.480341
10464673.850867
9656991.538280
11423199.138431
-15230380.001427
-16392893.878319
10856208.400502
12169550.924526
-16337721.855534
-17546560.199619
11932285.750131
13338302.350575
-17512631.845334
-18764999.633553
13197622.544244
14585068.385664
-18693957.662545
-20066878.294767
14447554.909545
15884123.741202
-19916822.835657
-21238360.952237
15750340.019924
17203703.708550
-21166704.182263
-22533400.806093
17019861.728301
18592612.069233
-22397203.197535
-23829543.813413
18428676.117214
19975491.391519
-23721289.650807
-25163445.630539
19721939.782917
21447895.257767
-25013385.367100
-26447420.494437
21136809.687330
22880223.349518
-26246056.453106
-27739451.050823
22617425.963149
24419157.913674
-27543783.140098
-29085890.333629
24056591.614334
25914226.253754
-28777568.080864
-30366488.776640
25525250.707960
27446250.493366
-30100037.915351
-31696687.246394
27085659.161928
29045923.171625
-31351237.480734
-33018669.990549
28610218.100901
30586483.116134
-32683499.678195
-34260358.813864
-35459153.384248
30100404.969453
32190856.266723
-34191905.616664
-36237048.982913
31622828.409591
33718502.948152
-35279647.827593
-37485878.147818
33164715.623835
35326599.322193
-36559028.752893
-38657704.745229
34671263.335077
36871538.665349
-37692361.147019
-39805954.606996
36145696.496272
38462697.111768
-38785112.780103
-40876940.192070
37687427.232846
39937363.796822
-39882132.351532
-41937786.021349
39144272.207449
41437444.043443
-40925772.405949
-42964782.287258
40596558.571228
42993399.065464
-41854290.098304
-43988640.880075
41958725.850693
44335772.549515
-42858828.348233
-44833842.544017
43353275.255599
45813289.620408
-43705045.731275
-45716120.966758
44573286.222521
47033706.443144
48492330.488247
-44500725.884671
-46573755.372916
46407556.044117
49192831.739905
-45299617.211841
-47280866.100287
47280850.297239
50433465.508481
-45994241.398371
-47977136.092497
48635751.834610
51472222.956205
-46606250.468885
-48586459.224724
49678550.052872
52510990.220227
-47241390.041014
-49113816.949827
50668809.292905
53538512.610047
-47719059.084659
-49603317.394113
51627964.750249
54447173.190402
-48130507.720325
-50037241.153396
52510564.852354
55310519.896198
-48533281.090363
-50339665.761861
53335695.324214
56098718.991936
-48798523.100075
-50621377.975387
53996413.828635
56761490.819912
-49016772.715619
-50827070.613109
54637606.083581
57335711.778411
-49184189.839874
-50917631.531823
55170197.603124
57894740.849586
-49271056.131330
-50967527.175578
55610519.333312
58253110.167148
-49304002.013355
-50960428.512278
55995253.130666
58633494.321126
-49202991.875599
-50847472.578337
56269691.754866
58852915.115308
-49041353.233514
-50731803.614191
56487483.599730
58961621.772841
-48794218.946650
-50449232.106961
-50472201.609942
56551292.630894
58985941.955685
-48654184.831512
-49912115.470570
56527094.145487
58962908.900359
-48136022.910283
-49483749.122637
56466392.255652
58816411.433178
-47682699.775130
-48953306.589606
56273747.965276
58629914.927764
-47168226.174169
-48372379.465168
56022901.964008
58317812.598633
-46658404.615415
-47817079.905127
55683775.787246
57965109.058183
-46042739.235973
-47096605.506958
55273012.147099
57396563.666482
-45307184.711166
-46373503.655416
54671597.877122
56845118.028575
-44592908.905541
-45613056.254757
54100893.153930
56256780.299606
-43833563.605365
-44774425.625588
53295618.941522
55502440.194613
55279816.734328
-42990691.512721
-43877538.444553
52914279.574018
54230825.461332
-42127309.260212
-42953860.182640
51533948.921313
53291470.307292
-41205478.941931
-42001837.822242
50777451.154243
52288143.913884
-40261443.747797
-41001385.347291
49710114.893899
51199515.108697
-39310198.683422
-40003817.877435
48742634.343971
50140689.574648
-38277539.775216
-38932194.914074
47620180.941499
48949327.231140
-37210635.254454
-37841811.817093
46447754.568716
47760356.610168
-36177706.147463
-36749327.313868
45331563.611157
46505239.622047
-35081195.826048
-35607535.084653
44103000.360429
45219777.353880
-33990210.601763
-34460246.176935
42799663.850979
43937930.522260
-32887953.736692
-33348441.826020
41515925.210740
42585209.517204
-31756532.694914
-32159091.926517
40231770.412694
41249053.304191
-30593301.463314
-30986538.241462
38877221.558446
39864792.236889
-29454566.722413
-29881835.931166
37527978.619160
38403382.381163
-28325015.039025
-28666849.048694
36171395.630578
36986722.441611
-27110869.925187
-27552340.502933
-26770597.550669
34814292.260429
35557222.593212
-26047334.877690
-25706898.959171
33409864.825960
34187344.437227
-24710531.574973
-24630831.544404
32044701.408057
32715336.777436
-23582526.159443
-23450994.683501
30596831.607982
31283310.329826
-22464647.443671
-22349699.507368
29235804.621347
29855919.979669
-21398751.964875
-21290371.242770
27878527.280163
28494087.152641
-20362708.539631
-20199178.122098
26473687.894604
27067477.585363
-19341156.795778
-19172461.182390
25125656.984082
25656035.514967
-18310531.323105
-18136881.640143
23840647.295676
24329225.837509
-17375215.608908
-17150234.606723
22540760.674759
22995722.255886
-16400091.019299
-16211589.671562
21122423.392361
21654107.534303
20802057.776611
-15454588.683422
-15306406.990134
19943654.413352
19669156.029968
-14539955.722911
-14386975.440804
18482147.121571
18427107.623356
-13676809.414266
-13544875.094526
17286468.219345
17245556.334798
-12855660.555574
-12668004.459520
16150156.432095
16077970.734688
-12018400.033319
-11830538.396099
15015003.574308
15016956.070340
-11256165.825572
-11077491.192070
13971747.569049
13931705.430752
-10476996.013826
-10307082.054800
12967900.329661
12921554.385849
-9758018.030660
-9655321.206233
12036564.215342
11926876.177329
-9048811.314955
-8885788.130559
11037350.880873
11023071.920800
-8361598.736961
-8299608.812150
10166073.657138
10070533.156141
-7709569.868663
-7598057.930404
9280524.728447
9216017.790469
-7136579.025007
-7036862.470913
8501116.339883
8441539.500646
-6545518.955980
-6492050.142749
7730704.782283
7669885.303870
-5954041.324222
-5969173.105504
7003719.320119
6952837.452461
-5469868.072743
-5415925.439067
-5029983.588528
6304993.743477
6269323.606306
-4946866.918811
-4668035.135214
5703669.029297
5638696.876057
-4460341.990725
-4207784.107487
5098731.738094
5043641.969342
-4044977.639907
-3808962.944522
4509128.032247
4508988.086864
-3593466.779000
-3387684.419522
3989048.391383
3976157.708249
-3245729.527396
-3091506.513070
3585463.052469
3487606.753823
-2897772.090320
-2738241.390336
3083202.490042
3070204.673248
-2573660.704208
-2454025.036007
2662063.711334
2644744.255039
-2268075.386749
-2102351.078964
2332631.380643
2289147.923378
-1978025.755436
-1861780.638542
1988142.565885
1949254.070222
-1736732.540676
-1627317.199175
1642844.497234
1635846.991206
-1530117.180742
-1392201.365067
1355597.585203
1448045.822960
-1286961.595354
-1203912.044029
1097198.934488
1234686.657185
-1072013.696114
-995820.224222
861032.143956
995372.837927
-934405.394622
-872271.042911
728780.096016
802781.988795
-733034.211252
-681806.183454
540500.477069
638540.900515
-622243.732847
-557802.350084
406310.600845
490826.808482
-499443.813261
-442103.620784
286605.678147
365991.727480
-431288.038732
-325580.796544
207968.911936
273534.937281
-266466.808000
-239839.075403
88494.801949
126593.086630
-236049.573151
-156392.821736
52495.037239
101553.595068
-142709.150564
-106317.246987
4070.415287
-3455.301045
-121436.026366
-88036.416049
-12491.875200
26266.453980
-56239.111876
-1267.418007
-45123.740734
-18046.001750
-46131.147434
8967.544094
-111964.876669
-79879.270183
30963.019321
8064.246693
-97054.222751
-91678.347601
23949.306183
50689.787278
-83963.974679
-68303.319737
35883.570676
47107.011638
-53750.132452
-51380.561144
2698.871916
58042.164973
-23954.371918
-68861.640977
-8660.659279
24292.603879
-31437.179608
-70155.843248
25127.367316
22175.584714
-26287.832023
11723.879713
-29270.524089
-9308.640156
-5921.123171
-32585.309853
36590.734421
