# vtk DataFile Version 2.0
Generated volume Mesh
ASCII
DATASET UNSTRUCTURED_GRID
POINTS 994 float
-0.416146 -0.294827 0.000000
-0.409251 -0.287252 0.000000
-0.421925 -0.286495 0.000000
-0.410201 -0.303043 0.000000
-0.427538 -0.278049 0.000000
-0.404095 -0.311138 0.000000
-0.432982 -0.269494 0.000000
-0.397829 -0.319111 0.000000
-0.438254 -0.260832 0.000000
-0.391406 -0.326958 0.000000
-0.443353 -0.252067 0.000000
-0.384828 -0.334675 0.000000
-0.448277 -0.243202 0.000000
-0.378098 -0.342260 0.000000
-0.453024 -0.234242 0.000000
-0.371218 -0.349710 0.000000
-0.457592 -0.225188 0.000000
-0.364192 -0.357021 0.000000
-0.461979 -0.216046 0.000000
-0.357021 -0.364192 0.000000
-0.466183 -0.206818 0.000000
-0.349710 -0.371218 0.000000
-0.470203 -0.197508 0.000000
-0.342260 -0.378098 0.000000
-0.474037 -0.188120 0.000000
-0.334675 -0.384828 0.000000
-0.477683 -0.178658 0.000000
-0.326958 -0.391406 0.000000
-0.481141 -0.169126 0.000000
-0.319111 -0.397829 0.000000
-0.484408 -0.159526 0.000000
-0.311138 -0.404095 0.000000
-0.487484 -0.149864 0.000000
-0.303043 -0.410201 0.000000
-0.490368 -0.140141 0.000000
-0.294827 -0.416146 0.000000
-0.493057 -0.130363 0.000000
-0.286495 -0.421925 0.000000
-0.495552 -0.120532 0.000000
-0.278049 -0.427538 0.000000
-0.497851 -0.110654 0.000000
-0.269494 -0.432982 0.000000
-0.499953 -0.100732 0.000000
-0.260832 -0.438254 0.000000
-0.501857 -0.090771 0.000000
-0.252067 -0.443353 0.000000
-0.503563 -0.080774 0.000000
-0.243202 -0.448277 0.000000
-0.505069 -0.070746 0.000000
-0.234242 -0.453024 0.000000
-0.506376 -0.060691 0.000000
-0.225188 -0.457592 0.000000
-0.507482 -0.050612 0.000000
-0.216046 -0.461979 0.000000
-0.508388 -0.040514 0.000000
-0.206818 -0.466183 0.000000
-0.509093 -0.030400 0.000000
-0.197508 -0.470203 0.000000
-0.509597 -0.020274 0.000000
-0.188120 -0.474037 0.000000
-0.509899 -0.010139 0.000000
-0.178658 -0.477683 0.000000
-0.510000 0.000000 0.000000
-0.169126 -0.481141 0.000000
-0.509899 0.010139 0.000000
-0.509597 0.020274 0.000000
-0.159526 -0.484408 0.000000
-0.509093 0.030400 0.000000
-0.149864 -0.487484 0.000000
-0.508388 0.040514 0.000000
-0.140141 -0.490368 0.000000
-0.507482 0.050612 0.000000
-0.130363 -0.493057 0.000000
-0.506376 0.060691 0.000000
-0.120532 -0.495552 0.000000
-0.505069 0.070746 0.000000
-0.110654 -0.497851 0.000000
-0.503563 0.080774 0.000000
-0.100732 -0.499953 0.000000
-0.501857 0.090771 0.000000
-0.090771 -0.501857 0.000000
-0.499953 0.100732 0.000000
-0.080774 -0.503563 0.000000
-0.497851 0.110654 0.000000
-0.070746 -0.505069 0.000000
-0.495552 0.120532 0.000000
-0.060691 -0.506376 0.000000
-0.493057 0.130363 0.000000
-0.050612 -0.507482 0.000000
-0.490368 0.140141 0.000000
-0.040514 -0.508388 0.000000
-0.487484 0.149864 0.000000
-0.484408 0.159526 0.000000
-0.030400 -0.509093 0.000000
-0.020274 -0.509597 0.000000
-0.481141 0.169126 0.000000
-0.010139 -0.509899 0.000000
-0.477683 0.178658 0.000000
0.000000 -0.510000 0.000000
-0.474037 0.188120 0.000000
0.010139 -0.509899 0.000000
-0.470203 0.197508 0.000000
0.020274 -0.509597 0.000000
-0.466183 0.206818 0.000000
0.030400 -0.509093 0.000000
-0.461979 0.216046 0.000000
0.040514 -0.508388 0.000000
-0.457592 0.225188 0.000000
0.050612 -0.507482 0.000000
-0.453024 0.234242 0.000000
0.060691 -0.506376 0.000000
-0.448277 0.243202 0.000000
0.070746 -0.505069 0.000000
-0.443353 0.252067 0.000000
0.080774 -0.503563 0.000000
-0.438254 0.260832 0.000000
0.090771 -0.501857 0.000000
-0.432982 0.269494 0.000000
0.100732 -0.499953 0.000000
-0.427538 0.278049 0.000000
0.110654 -0.497851 0.000000
-0.421925 0.286495 0.000000
0.120532 -0.495552 0.000000
-0.416146 0.294827 0.000000
0.130363 -0.493057 0.000000
-0.410201 0.303043 0.000000
0.140141 -0.490368 0.000000
-0.404095 0.311138 0.000000
0.149864 -0.487484 0.000000
0.159526 -0.484408 0.000000
-0.397829 0.319111 0.000000
0.169126 -0.481141 0.000000
-0.391406 0.326958 0.000000
0.178658 -0.477683 0.000000
-0.384828 0.334675 0.000000
0.188120 -0.474037 0.000000
-0.378098 0.342260 0.000000
0.197508 -0.470203 0.000000
-0.371218 0.349710 0.000000
0.206818 -0.466183 0.000000
-0.364192 0.357021 0.000000
0.216046 -0.461979 0.000000
-0.357021 0.364192 0.000000
0.225188 -0.457592 0.000000
-0.349710 0.371218 0.000000
0.234242 -0.453024 0.000000
-0.342260 0.378098 0.000000
0.243202 -0.448277 0.000000
-0.334675 0.384828 0.000000
0.252067 -0.443353 0.000000
-0.326958 0.391406 0.000000
0.260832 -0.438254 0.000000
-0.319111 0.397829 0.000000
0.269494 -0.432982 0.000000
-0.311138 0.404095 0.000000
0.278049 -0.427538 0.000000
-0.303043 0.410201 0.000000
0.286495 -0.421925 0.000000
-0.294827 0.416146 0.000000
0.294827 -0.416146 0.000000
-0.286495 0.421925 0.000000
0.303043 -0.410201 0.000000
-0.278049 0.427538 0.000000
0.311138 -0.404095 0.000000
-0.269494 0.432982 0.000000
0.319111 -0.397829 0.000000
-0.260832 0.438254 0.000000
0.326958 -0.391406 0.000000
-0.252067 0.443353 0.000000
0.334675 -0.384828 0.000000
-0.243202 0.448277 0.000000
0.342260 -0.378098 0.000000
-0.234242 0.453024 0.000000
0.349710 -0.371218 0.000000
-0.225188 0.457592 0.000000
0.357021 -0.364192 0.000000
-0.216046 0.461979 0.000000
0.364192 -0.357021 0.000000
-0.206818 0.466183 0.000000
0.371218 -0.349710 0.000000
-0.197508 0.470203 0.000000
0.378098 -0.342260 0.000000
-0.188120 0.474037 0.000000
0.384828 -0.334675 0.000000
-0.178658 0.477683 0.000000
0.391406 -0.326958 0.000000
-0.169126 0.481141 0.000000
0.397829 -0.319111 0.000000
-0.159526 0.484408 0.000000
0.404095 -0.311138 0.000000
-0.149864 0.487484 0.000000
0.410201 -0.303043 0.000000
-0.140141 0.490368 0.000000
0.416146 -0.294827 0.000000
-0.130363 0.493057 0.000000
0.421925 -0.286495 0.000000
-0.120532 0.495552 0.000000
0.427538 -0.278049 0.000000
-0.110654 0.497851 0.000000
0.432982 -0.269494 0.000000
-0.100732 0.499953 0.000000
0.438254 -0.260832 0.000000
-0.090771 0.501857 0.000000
0.443353 -0.252067 0.000000
-0.080774 0.503563 0.000000
0.448277 -0.243202 0.000000
-0.070746 0.505069 0.000000
0.453024 -0.234242 0.000000
-0.060691 0.506376 0.000000
0.457592 -0.225188 0.000000
-0.050612 0.507482 0.000000
0.461979 -0.216046 0.000000
-0.040514 0.508388 0.000000
0.466183 -0.206818 0.000000
-0.030400 0.509093 0.000000
0.470203 -0.197508 0.000000
-0.020274 0.509597 0.000000
0.474037 -0.188120 0.000000
-0.010139 0.509899 0.000000
0.477683 -0.178658 0.000000
0.000000 0.510000 0.000000
0.481141 -0.169126 0.000000
0.010139 0.509899 0.000000
0.484408 -0.159526 0.000000
0.020274 0.509597 0.000000
0.487484 -0.149864 0.000000
0.030400 0.509093 0.000000
0.490368 -0.140141 0.000000
0.040514 0.508388 0.000000
0.493057 -0.130363 0.000000
0.050612 0.507482 0.000000
0.495552 -0.120532 0.000000
0.060691 0.506376 0.000000
0.497851 -0.110654 0.000000
0.070746 0.505069 0.000000
0.499953 -0.100732 0.000000
0.080774 0.503563 0.000000
0.501857 -0.090771 0.000000
0.090771 0.501857 0.000000
0.503563 -0.080774 0.000000
0.100732 0.499953 0.000000
0.505069 -0.070746 0.000000
0.110654 0.497851 0.000000
0.506376 -0.060691 0.000000
0.120532 0.495552 0.000000
0.507482 -0.050612 0.000000
0.130363 0.493057 0.000000
0.508388 -0.040514 0.000000
0.140141 0.490368 0.000000
0.509093 -0.030400 0.000000
0.149864 0.487484 0.000000
0.509597 -0.020274 0.000000
0.159526 0.484408 0.000000
0.509899 -0.010139 0.000000
0.169126 0.481141 0.000000
0.510000 0.000000 0.000000
0.178658 0.477683 0.000000
0.509899 0.010139 0.000000
0.188120 0.474037 0.000000
0.509597 0.020274 0.000000
0.197508 0.470203 0.000000
0.509093 0.030400 0.000000
0.206818 0.466183 0.000000
0.508388 0.040514 0.000000
0.216046 0.461979 0.000000
0.507482 0.050612 0.000000
0.225188 0.457592 0.000000
0.506376 0.060691 0.000000
0.234242 0.453024 0.000000
0.505069 0.070746 0.000000
0.243202 0.448277 0.000000
0.503563 0.080774 0.000000
0.252067 0.443353 0.000000
0.501857 0.090771 0.000000
0.260832 0.438254 0.000000
0.499953 0.100732 0.000000
0.269494 0.432982 0.000000
0.497851 0.110654 0.000000
0.278049 0.427538 0.000000
0.495552 0.120532 0.000000
0.286495 0.421925 0.000000
0.493057 0.130363 0.000000
0.294827 0.416146 0.000000
0.490368 0.140141 0.000000
0.303043 0.410201 0.000000
0.487484 0.149864 0.000000
0.311138 0.404095 0.000000
0.484408 0.159526 0.000000
0.319111 0.397829 0.000000
0.481141 0.169126 0.000000
0.326958 0.391406 0.000000
0.477683 0.178658 0.000000
0.334675 0.384828 0.000000
0.474037 0.188120 0.000000
0.342260 0.378098 0.000000
0.470203 0.197508 0.000000
0.349710 0.371218 0.000000
0.466183 0.206818 0.000000
0.357021 0.364192 0.000000
0.461979 0.216046 0.000000
0.364192 0.357021 0.000000
0.457592 0.225188 0.000000
0.371218 0.349710 0.000000
0.453024 0.234242 0.000000
0.378098 0.342260 0.000000
0.448277 0.243202 0.000000
0.384828 0.334675 0.000000
0.443353 0.252067 0.000000
0.391406 0.326958 0.000000
0.438254 0.260832 0.000000
0.397829 0.319111 0.000000
0.432982 0.269494 0.000000
0.404095 0.311138 0.000000
0.427538 0.278049 0.000000
0.410201 0.303043 0.000000
0.421925 0.286495 0.000000
0.416146 0.294827 0.000000
-0.415025 -0.278844 0.000000
-0.403306 -0.295541 0.000000
-0.420627 -0.270320 0.000000
-0.397194 -0.303706 0.000000
-0.426054 -0.261684 0.000000
-0.390916 -0.311745 0.000000
-0.431303 -0.252938 0.000000
-0.384475 -0.319654 0.000000
-0.436373 -0.244088 0.000000
-0.377875 -0.327430 0.000000
-0.441261 -0.235136 0.000000
-0.371117 -0.335070 0.000000
-0.445965 -0.226086 0.000000
-0.364205 -0.342571 0.000000
-0.450484 -0.216942 0.000000
-0.357141 -0.349929 0.000000
-0.454816 -0.207707 0.000000
-0.349929 -0.357141 0.000000
-0.458958 -0.198386 0.000000
-0.342571 -0.364205 0.000000
-0.462910 -0.188983 0.000000
-0.335070 -0.371117 0.000000
-0.466668 -0.179501 0.000000
-0.327430 -0.377875 0.000000
-0.470233 -0.169944 0.000000
-0.319654 -0.384475 0.000000
-0.473602 -0.160317 0.000000
-0.311745 -0.390916 0.000000
-0.476773 -0.150623 0.000000
-0.303706 -0.397194 0.000000
-0.479747 -0.140866 0.000000
-0.295541 -0.403306 0.000000
-0.482520 -0.131050 0.000000
-0.287252 -0.409251 0.000000
-0.485094 -0.121178 0.000000
-0.278844 -0.415025 0.000000
-0.487465 -0.111256 0.000000
-0.270320 -0.420627 0.000000
-0.489633 -0.101287 0.000000
-0.261684 -0.426054 0.000000
-0.491598 -0.091277 0.000000
-0.252938 -0.431303 0.000000
-0.493358 -0.081229 0.000000
-0.244088 -0.436373 0.000000
-0.494912 -0.071148 0.000000
-0.235136 -0.441261 0.000000
-0.496260 -0.061039 0.000000
-0.226086 -0.445965 0.000000
-0.497402 -0.050904 0.000000
-0.216942 -0.450484 0.000000
-0.498337 -0.040749 0.000000
-0.207707 -0.454816 0.000000
-0.499064 -0.030577 0.000000
-0.198386 -0.458958 0.000000
-0.499584 -0.020392 0.000000
-0.188983 -0.462910 0.000000
-0.499896 -0.010199 0.000000
-0.179501 -0.466668 0.000000
-0.500000 0.000000 0.000000
-0.169944 -0.470233 0.000000
-0.499896 0.010199 0.000000
-0.160317 -0.473602 0.000000
-0.499584 0.020392 0.000000
-0.150623 -0.476773 0.000000
-0.499064 0.030577 0.000000
-0.140866 -0.479747 0.000000
-0.498337 0.040749 0.000000
-0.131050 -0.482520 0.000000
-0.497402 0.050904 0.000000
-0.121178 -0.485094 0.000000
-0.496260 0.061039 0.000000
-0.111256 -0.487465 0.000000
-0.494912 0.071148 0.000000
-0.101287 -0.489633 0.000000
-0.493358 0.081229 0.000000
-0.091277 -0.491598 0.000000
-0.491598 0.091277 0.000000
-0.081229 -0.493358 0.000000
-0.489633 0.101287 0.000000
-0.071148 -0.494912 0.000000
-0.487465 0.111256 0.000000
-0.061039 -0.496260 0.000000
-0.485094 0.121178 0.000000
-0.050904 -0.497402 0.000000
-0.482520 0.131050 0.000000
-0.040749 -0.498337 0.000000
-0.479747 0.140866 0.000000
-0.030577 -0.499064 0.000000
-0.476773 0.150623 0.000000
-0.020392 -0.499584 0.000000
-0.473602 0.160317 0.000000
-0.010199 -0.499896 0.000000
-0.470233 0.169944 0.000000
0.000000 -0.500000 0.000000
-0.466668 0.179501 0.000000
0.010199 -0.499896 0.000000
-0.462910 0.188983 0.000000
0.020392 -0.499584 0.000000
-0.458958 0.198386 0.000000
0.030577 -0.499064 0.000000
-0.454816 0.207707 0.000000
0.040749 -0.498337 0.000000
-0.450484 0.216942 0.000000
0.050904 -0.497402 0.000000
-0.445965 0.226086 0.000000
0.061039 -0.496260 0.000000
-0.441261 0.235136 0.000000
0.071148 -0.494912 0.000000
-0.436373 0.244088 0.000000
0.081229 -0.493358 0.000000
-0.431303 0.252938 0.000000
0.091277 -0.491598 0.000000
-0.426054 0.261684 0.000000
0.101287 -0.489633 0.000000
-0.420627 0.270320 0.000000
0.111256 -0.487465 0.000000
-0.415025 0.278844 0.000000
0.121178 -0.485094 0.000000
-0.409251 0.287252 0.000000
0.131050 -0.482520 0.000000
-0.403306 0.295541 0.000000
0.140866 -0.479747 0.000000
-0.397194 0.303706 0.000000
0.150623 -0.476773 0.000000
-0.390916 0.311745 0.000000
0.160317 -0.473602 0.000000
-0.384475 0.319654 0.000000
0.169944 -0.470233 0.000000
-0.377875 0.327430 0.000000
0.179501 -0.466668 0.000000
-0.371117 0.335070 0.000000
0.188983 -0.462910 0.000000
-0.364205 0.342571 0.000000
0.198386 -0.458958 0.000000
-0.357141 0.349929 0.000000
0.207707 -0.454816 0.000000
-0.349929 0.357141 0.000000
0.216942 -0.450484 0.000000
-0.342571 0.364205 0.000000
0.226086 -0.445965 0.000000
-0.335070 0.371117 0.000000
0.235136 -0.441261 0.000000
-0.327430 0.377875 0.000000
0.244088 -0.436373 0.000000
-0.319654 0.384475 0.000000
0.252938 -0.431303 0.000000
-0.311745 0.390916 0.000000
0.261684 -0.426054 0.000000
-0.303706 0.397194 0.000000
0.270320 -0.420627 0.000000
-0.295541 0.403306 0.000000
0.278844 -0.415025 0.000000
-0.287252 0.409251 0.000000
0.287252 -0.409251 0.000000
-0.278844 0.415025 0.000000
0.295541 -0.403306 0.000000
-0.270320 0.420627 0.000000
0.303706 -0.397194 0.000000
-0.261684 0.426054 0.000000
0.311745 -0.390916 0.000000
-0.252938 0.431303 0.000000
0.319654 -0.384475 0.000000
-0.244088 0.436373 0.000000
0.327430 -0.377875 0.000000
-0.235136 0.441261 0.000000
0.335070 -0.371117 0.000000
-0.226086 0.445965 0.000000
0.342571 -0.364205 0.000000
-0.216942 0.450484 0.000000
0.349929 -0.357141 0.000000
-0.207707 0.454816 0.000000
0.357141 -0.349929 0.000000
-0.198386 0.458958 0.000000
0.364205 -0.342571 0.000000
-0.188983 0.462910 0.000000
0.371117 -0.335070 0.000000
-0.179501 0.466668 0.000000
0.377875 -0.327430 0.000000
-0.169944 0.470233 0.000000
0.384475 -0.319654 0.000000
-0.160317 0.473602 0.000000
0.390916 -0.311745 0.000000
-0.150623 0.476773 0.000000
0.397194 -0.303706 0.000000
-0.140866 0.479747 0.000000
0.403306 -0.295541 0.000000
-0.131050 0.482520 0.000000
0.409251 -0.287252 0.000000
-0.121178 0.485094 0.000000
0.415025 -0.278844 0.000000
-0.111256 0.487465 0.000000
0.420627 -0.270320 0.000000
-0.101287 0.489633 0.000000
0.426054 -0.261684 0.000000
-0.091277 0.491598 0.000000
0.431303 -0.252938 0.000000
-0.081229 0.493358 0.000000
0.436373 -0.244088 0.000000
-0.071148 0.494912 0.000000
0.441261 -0.235136 0.000000
-0.061039 0.496260 0.000000
0.445965 -0.226086 0.000000
-0.050904 0.497402 0.000000
0.450484 -0.216942 0.000000
-0.040749 0.498337 0.000000
0.454816 -0.207707 0.000000
-0.030577 0.499064 0.000000
0.458958 -0.198386 0.000000
-0.020392 0.499584 0.000000
0.462910 -0.188983 0.000000
-0.010199 0.499896 0.000000
0.466668 -0.179501 0.000000
0.000000 0.500000 0.000000
0.470233 -0.169944 0.000000
0.010199 0.499896 0.000000
0.473602 -0.160317 0.000000
0.020392 0.499584 0.000000
0.476773 -0.150623 0.000000
0.030577 0.499064 0.000000
0.479747 -0.140866 0.000000
0.040749 0.498337 0.000000
0.482520 -0.131050 0.000000
0.050904 0.497402 0.000000
0.485094 -0.121178 0.000000
0.061039 0.496260 0.000000
0.487465 -0.111256 0.000000
0.071148 0.494912 0.000000
0.489633 -0.101287 0.000000
0.081229 0.493358 0.000000
0.491598 -0.091277 0.000000
0.091277 0.491598 0.000000
0.493358 -0.081229 0.000000
0.101287 0.489633 0.000000
0.494912 -0.071148 0.000000
0.111256 0.487465 0.000000
0.496260 -0.061039 0.000000
0.121178 0.485094 0.000000
0.497402 -0.050904 0.000000
0.131050 0.482520 0.000000
0.498337 -0.040749 0.000000
0.140866 0.479747 0.000000
0.499064 -0.030577 0.000000
0.150623 0.476773 0.000000
0.499584 -0.020392 0.000000
0.160317 0.473602 0.000000
0.499896 -0.010199 0.000000
0.169944 0.470233 0.000000
0.500000 0.000000 0.000000
0.179501 0.466668 0.000000
0.499896 0.010199 0.000000
0.188983 0.462910 0.000000
0.499584 0.020392 0.000000
0.198386 0.458958 0.000000
0.499064 0.030577 0.000000
0.207707 0.454816 0.000000
0.498337 0.040749 0.000000
0.216942 0.450484 0.000000
0.497402 0.050904 0.000000
0.226086 0.445965 0.000000
0.496260 0.061039 0.000000
0.235136 0.441261 0.000000
0.494912 0.071148 0.000000
0.244088 0.436373 0.000000
0.493358 0.081229 0.000000
0.252938 0.431303 0.000000
0.491598 0.091277 0.000000
0.261684 0.426054 0.000000
0.489633 0.101287 0.000000
0.270320 0.420627 0.000000
0.487465 0.111256 0.000000
0.278844 0.415025 0.000000
0.485094 0.121178 0.000000
0.287252 0.409251 0.000000
0.482520 0.131050 0.000000
0.295541 0.403306 0.000000
0.479747 0.140866 0.000000
0.303706 0.397194 0.000000
0.476773 0.150623 0.000000
0.311745 0.390916 0.000000
0.473602 0.160317 0.000000
0.319654 0.384475 0.000000
0.470233 0.169944 0.000000
0.327430 0.377875 0.000000
0.466668 0.179501 0.000000
0.335070 0.371117 0.000000
0.462910 0.188983 0.000000
0.342571 0.364205 0.000000
0.458958 0.198386 0.000000
0.349929 0.357141 0.000000
0.454816 0.207707 0.000000
0.357141 0.349929 0.000000
0.450484 0.216942 0.000000
0.364205 0.342571 0.000000
0.445965 0.226086 0.000000
0.371117 0.335070 0.000000
0.441261 0.235136 0.000000
0.377875 0.327430 0.000000
0.436373 0.244088 0.000000
0.384475 0.319654 0.000000
0.431303 0.252938 0.000000
0.390916 0.311745 0.000000
0.426054 0.261684 0.000000
0.397194 0.303706 0.000000
0.420627 0.270320 0.000000
0.415025 0.278844 0.000000
0.403306 0.295541 0.000000
0.409251 0.287252 0.000000
-0.416651 -0.285100 0.000000
-0.409726 -0.295166 0.000000
-0.421429 -0.278105 0.000000
-0.403699 -0.303357 0.000000
-0.426806 -0.269823 0.000000
-0.397508 -0.311425 0.000000
-0.432197 -0.261278 0.000000
-0.391157 -0.319367 0.000000
-0.437327 -0.252500 0.000000
-0.384646 -0.327179 0.000000
-0.442314 -0.243721 0.000000
-0.377979 -0.334859 0.000000
-0.446941 -0.235122 0.000000
-0.450784 -0.228337 0.000000
-0.370462 -0.343155 0.000000
-0.455028 -0.219045 0.000000
-0.452668 -0.223420 0.000000
-0.364060 -0.349914 0.000000
-0.459296 -0.209724 0.000000
-0.457282 -0.214033 0.000000
-0.357103 -0.357057 0.000000
-0.461352 -0.204833 0.000000
-0.463724 -0.200363 0.000000
-0.350055 -0.363925 0.000000
-0.465669 -0.195543 0.000000
-0.467695 -0.190817 0.000000
-0.343998 -0.369738 0.000000
-0.471431 -0.181492 0.000000
-0.469405 -0.186286 0.000000
-0.334859 -0.377979 0.000000
-0.472952 -0.176626 0.000000
-0.474903 -0.171777 0.000000
-0.327179 -0.384646 0.000000
-0.478846 -0.161727 0.000000
-0.476435 -0.167155 0.000000
-0.319367 -0.391157 0.000000
-0.480787 -0.154555 0.000000
-0.311425 -0.397508 0.000000
-0.483607 -0.145275 0.000000
-0.303357 -0.403699 0.000000
-0.486452 -0.135600 0.000000
-0.293440 -0.410921 0.000000
-0.489031 -0.125774 0.000000
-0.286535 -0.415757 0.000000
-0.491508 -0.115921 0.000000
-0.278352 -0.421319 0.000000
-0.493686 -0.106038 0.000000
-0.269886 -0.426828 0.000000
-0.495651 -0.096362 0.000000
-0.261233 -0.432144 0.000000
-0.497198 -0.088074 0.000000
-0.252462 -0.437285 0.000000
-0.499250 -0.075953 0.000000
-0.243613 -0.442280 0.000000
-0.500654 -0.065906 0.000000
-0.234715 -0.447127 0.000000
-0.228640 -0.450519 0.000000
-0.501880 -0.055811 0.000000
-0.218895 -0.455215 0.000000
-0.223224 -0.452881 0.000000
-0.502902 -0.045695 0.000000
-0.209733 -0.459391 0.000000
-0.214212 -0.457190 0.000000
-0.503721 -0.035560 0.000000
-0.200365 -0.463733 0.000000
-0.204804 -0.461613 0.000000
-0.195531 -0.465664 0.000000
-0.190784 -0.467722 0.000000
-0.504503 -0.023225 0.000000
-0.186244 -0.469425 0.000000
-0.181531 -0.471460 0.000000
-0.504773 -0.013853 0.000000
-0.176954 -0.472745 0.000000
-0.171678 -0.474859 0.000000
-0.505074 -0.003656 0.000000
-0.167137 -0.476450 0.000000
-0.161673 -0.478820 0.000000
-0.504932 0.006910 0.000000
-0.154529 -0.480797 0.000000
-0.504834 0.020042 0.000000
-0.145171 -0.483695 0.000000
-0.503551 0.037586 0.000000
-0.135593 -0.486453 0.000000
-0.502892 0.045680 0.000000
-0.125775 -0.489083 0.000000
-0.502191 0.053713 0.000000
-0.115940 -0.491464 0.000000
-0.500654 0.065906 0.000000
-0.106312 -0.493603 0.000000
-0.499225 0.075974 0.000000
-0.098005 -0.495252 0.000000
-0.497594 0.086013 0.000000
-0.086013 -0.497594 0.000000
-0.495252 0.098004 0.000000
-0.075974 -0.499225 0.000000
-0.493597 0.106314 0.000000
-0.065906 -0.500654 0.000000
-0.491428 0.115952 0.000000
-0.053714 -0.502191 0.000000
-0.489011 0.125775 0.000000
-0.045680 -0.502892 0.000000
-0.486412 0.135576 0.000000
-0.037586 -0.503551 0.000000
-0.483678 0.145285 0.000000
-0.480787 0.154548 0.000000
-0.478775 0.161676 0.000000
-0.019993 -0.505013 0.000000
-0.474875 0.171814 0.000000
-0.476450 0.167142 0.000000
-0.006399 -0.504863 0.000000
-0.471460 0.181500 0.000000
-0.472984 0.176743 0.000000
0.004056 -0.505080 0.000000
-0.469459 0.186171 0.000000
-0.467574 0.190927 0.000000
0.014245 -0.504767 0.000000
-0.465619 0.195494 0.000000
-0.463733 0.200332 0.000000
0.023224 -0.504502 0.000000
-0.461448 0.204867 0.000000
-0.459421 0.209641 0.000000
0.035560 -0.503721 0.000000
-0.457230 0.214138 0.000000
-0.455198 0.218914 0.000000
0.045695 -0.502902 0.000000
-0.452908 0.223198 0.000000
-0.450716 0.228508 0.000000
0.055811 -0.501880 0.000000
-0.446914 0.235146 0.000000
0.065906 -0.500654 0.000000
-0.442240 0.243700 0.000000
0.075974 -0.499225 0.000000
-0.437272 0.252473 0.000000
0.088074 -0.497198 0.000000
-0.432109 0.261213 0.000000
0.096362 -0.495651 0.000000
-0.426787 0.269860 0.000000
0.106034 -0.493683 0.000000
-0.421297 0.278338 0.000000
0.115913 -0.491500 0.000000
-0.415757 0.286535 0.000000
0.125776 -0.489039 0.000000
-0.410932 0.293439 0.000000
0.135601 -0.486450 0.000000
-0.403699 0.303357 0.000000
0.145277 -0.483606 0.000000
-0.397508 0.311425 0.000000
0.154557 -0.480774 0.000000
0.161733 -0.478769 0.000000
-0.391157 0.319367 0.000000
0.167091 -0.476488 0.000000
0.171718 -0.474954 0.000000
-0.384646 0.327179 0.000000
0.176707 -0.473000 0.000000
0.181505 -0.471475 0.000000
-0.377979 0.334859 0.000000
0.186295 -0.469391 0.000000
0.190925 -0.467576 0.000000
-0.369765 0.344010 0.000000
0.195633 -0.465648 0.000000
0.200345 -0.463770 0.000000
-0.363926 0.350050 0.000000
0.209734 -0.459450 0.000000
0.204910 -0.461509 0.000000
-0.357034 0.357061 0.000000
0.214072 -0.457247 0.000000
0.218980 -0.455067 0.000000
-0.349993 0.364032 0.000000
0.228256 -0.450815 0.000000
0.223408 -0.452712 0.000000
-0.343912 0.369752 0.000000
0.235109 -0.446946 0.000000
-0.334859 0.377979 0.000000
0.243720 -0.442311 0.000000
-0.327179 0.384646 0.000000
0.252483 -0.437299 0.000000
-0.319367 0.391157 0.000000
0.261251 -0.432197 0.000000
-0.311425 0.397508 0.000000
0.269819 -0.426806 0.000000
-0.303357 0.403699 0.000000
0.278114 -0.421436 0.000000
-0.295166 0.409726 0.000000
0.285106 -0.416757 0.000000
-0.285453 0.416477 0.000000
0.295191 -0.409722 0.000000
-0.278168 0.421408 0.000000
0.303357 -0.403699 0.000000
-0.269849 0.426857 0.000000
0.311425 -0.397508 0.000000
-0.261220 0.432122 0.000000
0.319367 -0.391157 0.000000
-0.252526 0.437285 0.000000
0.327179 -0.384646 0.000000
-0.243742 0.442304 0.000000
0.334859 -0.377979 0.000000
-0.235192 0.446897 0.000000
-0.228742 0.450552 0.000000
0.343167 -0.370539 0.000000
-0.223460 0.452663 0.000000
-0.218979 0.455026 0.000000
0.349916 -0.364073 0.000000
-0.214046 0.457197 0.000000
-0.209660 0.459391 0.000000
0.357057 -0.357104 0.000000
-0.200375 0.463730 0.000000
-0.204910 0.461372 0.000000
0.363930 -0.350058 0.000000
-0.195557 0.465613 0.000000
-0.190944 0.467564 0.000000
0.369764 -0.344011 0.000000
-0.181545 0.471428 0.000000
-0.186254 0.469430 0.000000
0.377979 -0.334859 0.000000
-0.176635 0.472984 0.000000
-0.171918 0.474870 0.000000
0.384646 -0.327179 0.000000
-0.161683 0.478683 0.000000
-0.167009 0.476454 0.000000
0.391157 -0.319367 0.000000
-0.154877 0.480582 0.000000
0.397508 -0.311425 0.000000
-0.145423 0.483611 0.000000
0.403699 -0.303357 0.000000
-0.135605 0.486389 0.000000
0.410921 -0.293440 0.000000
-0.125786 0.489034 0.000000
0.415757 -0.286535 0.000000
-0.115924 0.491501 0.000000
0.421276 -0.278351 0.000000
-0.106038 0.493682 0.000000
0.426786 -0.269861 0.000000
-0.096362 0.495651 0.000000
0.432129 -0.261224 0.000000
-0.088074 0.497198 0.000000
0.437364 -0.252518 0.000000
-0.075974 0.499225 0.000000
0.442255 -0.243696 0.000000
-0.065906 0.500654 0.000000
0.446901 -0.235165 0.000000
0.450626 -0.228629 0.000000
-0.055811 0.501880 0.000000
0.452863 -0.223239 0.000000
0.455037 -0.219014 0.000000
-0.045695 0.502902 0.000000
0.457157 -0.214077 0.000000
0.459396 -0.209621 0.000000
-0.035560 0.503721 0.000000
0.461359 -0.204897 0.000000
0.463695 -0.200361 0.000000
-0.023304 0.504424 0.000000
0.465641 -0.195495 0.000000
0.467606 -0.190951 0.000000
-0.014879 0.504782 0.000000
0.469414 -0.186248 0.000000
0.471411 -0.181540 0.000000
-0.005033 0.504925 0.000000
0.472918 -0.176630 0.000000
0.474886 -0.171779 0.000000
0.005043 0.504929 0.000000
0.476453 -0.167022 0.000000
0.478685 -0.161862 0.000000
0.014951 0.504764 0.000000
0.480771 -0.154583 0.000000
0.023215 0.504525 0.000000
0.483673 -0.145303 0.000000
0.037586 0.503551 0.000000
0.486450 -0.135593 0.000000
0.045750 0.502896 0.000000
0.489087 -0.125805 0.000000
0.053799 0.502083 0.000000
0.491453 -0.115970 0.000000
0.065906 0.500654 0.000000
0.493600 -0.106336 0.000000
0.075974 0.499225 0.000000
0.495243 -0.098118 0.000000
0.086013 0.497594 0.000000
0.497594 -0.086013 0.000000
0.098116 0.495243 0.000000
0.499225 -0.075974 0.000000
0.106336 0.493600 0.000000
0.500654 -0.065906 0.000000
0.115972 0.491452 0.000000
0.502084 -0.053799 0.000000
0.125820 0.489079 0.000000
0.502897 -0.045748 0.000000
0.135587 0.486408 0.000000
0.503551 -0.037586 0.000000
0.145284 0.483678 0.000000
0.504412 -0.023728 0.000000
0.154553 0.480792 0.000000
0.504678 -0.016946 0.000000
0.161702 0.478804 0.000000
0.166954 0.476453 0.000000
0.504949 -0.002996 0.000000
0.171459 0.474989 0.000000
0.176706 0.472959 0.000000
0.504952 0.005359 0.000000
0.181613 0.471429 0.000000
0.186155 0.469450 0.000000
0.504776 0.014970 0.000000
0.190941 0.467614 0.000000
0.195461 0.465640 0.000000
0.504507 0.023301 0.000000
0.200321 0.463696 0.000000
0.204665 0.461639 0.000000
0.503721 0.035560 0.000000
0.209779 0.459311 0.000000
0.214128 0.457065 0.000000
0.502902 0.045695 0.000000
0.218898 0.455083 0.000000
0.223160 0.452917 0.000000
0.501880 0.055811 0.000000
0.228588 0.450696 0.000000
0.500654 0.065906 0.000000
0.235160 0.446911 0.000000
0.499225 0.075974 0.000000
0.243704 0.442242 0.000000
0.497198 0.088074 0.000000
0.252477 0.437275 0.000000
0.495651 0.096362 0.000000
0.261232 0.432125 0.000000
0.493684 0.106044 0.000000
0.269859 0.426787 0.000000
0.491464 0.115912 0.000000
0.278336 0.421300 0.000000
0.489031 0.125776 0.000000
0.286532 0.415761 0.000000
0.486389 0.135603 0.000000
0.293440 0.410921 0.000000
0.483609 0.145424 0.000000
0.303357 0.403699 0.000000
0.480578 0.154802 0.000000
0.311425 0.397508 0.000000
0.478655 0.161751 0.000000
0.476452 0.166982 0.000000
0.319367 0.391157 0.000000
0.474971 0.171610 0.000000
0.472982 0.176607 0.000000
0.327179 0.384646 0.000000
0.471433 0.181509 0.000000
0.469353 0.186363 0.000000
0.334859 0.377979 0.000000
0.467613 0.190886 0.000000
0.465645 0.195476 0.000000
0.344010 0.369764 0.000000
0.461373 0.204887 0.000000
0.463686 0.200316 0.000000
0.350057 0.363930 0.000000
0.459353 0.209725 0.000000
0.457070 0.214141 0.000000
0.357100 0.357062 0.000000
0.452708 0.223419 0.000000
0.455125 0.218877 0.000000
0.364020 0.349971 0.000000
0.450552 0.228739 0.000000
0.370222 0.343498 0.000000
0.446889 0.235184 0.000000
0.377979 0.334859 0.000000
0.442252 0.243700 0.000000
0.384646 0.327179 0.000000
0.437360 0.252522 0.000000
0.391146 0.319394 0.000000
0.432139 0.261225 0.000000
0.397501 0.311463 0.000000
0.426837 0.269829 0.000000
0.403699 0.303357 0.000000
0.421434 0.278106 0.000000
0.416650 0.285100 0.000000
0.409726 0.295166 0.000000
CELLS 1364 5456
3 624 2 0
3 624 0 1
3 624 1 317
3 317 626 624
3 626 317 319
3 319 628 626
3 4 626 628
3 628 6 4
3 6 628 630
3 630 8 6
3 8 630 632
3 632 10 8
3 10 632 634
3 634 12 10
3 12 634 636
3 636 14 12
3 14 636 637
3 637 16 14
3 640 16 637
3 637 329 640
3 640 329 331
3 639 640 331
3 639 331 643
3 643 18 639
3 639 18 16
3 643 642 18
3 642 20 18
3 645 20 642
3 642 333 645
3 645 333 335
3 646 645 335
3 646 335 648
3 648 22 646
3 646 22 20
3 648 649 22
3 649 24 22
3 652 24 649
3 649 337 652
3 652 337 339
3 651 652 339
3 651 339 654
3 654 26 651
3 651 26 24
3 654 655 26
3 655 28 26
3 658 28 655
3 655 341 658
3 658 341 343
3 657 658 343
3 657 343 660
3 30 657 660
3 660 32 30
3 32 660 662
3 662 34 32
3 34 662 664
3 664 36 34
3 36 664 666
3 666 38 36
3 38 666 668
3 668 40 38
3 40 668 670
3 670 42 40
3 42 670 672
3 672 44 42
3 44 672 674
3 674 46 44
3 674 359 46
3 676 46 359
3 676 359 361
3 676 361 48
3 678 48 361
3 678 361 363
3 678 363 50
3 681 50 363
3 681 363 365
3 681 365 52
3 684 52 365
3 684 365 367
3 684 367 54
3 687 54 367
3 687 367 369
3 687 369 56
3 692 56 369
3 692 369 371
3 371 695 692
3 58 692 695
3 695 60 58
3 60 695 698
3 698 62 60
3 62 698 701
3 701 64 62
3 64 701 703
3 65 64 703
3 65 703 67
3 67 703 381
3 705 67 381
3 705 381 383
3 383 707 705
3 69 705 707
3 707 71 69
3 71 707 709
3 709 73 71
3 709 387 73
3 711 73 387
3 711 387 389
3 711 389 75
3 713 75 389
3 713 389 391
3 713 391 77
3 715 77 391
3 715 391 393
3 715 393 79
3 717 79 393
3 717 393 395
3 395 719 717
3 81 717 719
3 719 83 81
3 83 719 721
3 721 85 83
3 85 721 723
3 723 87 85
3 87 723 725
3 725 89 87
3 89 725 727
3 727 91 89
3 91 727 728
3 728 92 91
3 92 728 729
3 729 95 92
3 732 95 729
3 729 407 732
3 732 407 409
3 731 732 409
3 731 409 735
3 735 97 731
3 731 97 95
3 735 734 97
3 734 99 97
3 737 99 734
3 734 411 737
3 737 411 413
3 738 737 413
3 738 413 740
3 740 101 738
3 738 101 99
3 740 741 101
3 741 103 101
3 743 103 741
3 741 415 743
3 743 415 417
3 744 743 417
3 744 417 746
3 746 105 744
3 744 105 103
3 746 747 105
3 747 107 105
3 749 107 747
3 747 419 749
3 749 419 421
3 750 749 421
3 750 421 752
3 109 750 752
3 752 111 109
3 111 752 754
3 754 113 111
3 113 754 756
3 756 115 113
3 115 756 758
3 758 117 115
3 117 758 760
3 760 119 117
3 119 760 762
3 762 121 119
3 121 762 764
3 764 123 121
3 123 764 766
3 766 125 123
3 766 437 125
3 768 125 437
3 768 437 439
3 768 439 127
3 770 127 439
3 770 439 441
3 770 441 130
3 773 130 441
3 773 441 443
3 773 443 132
3 776 132 443
3 776 443 445
3 776 445 134
3 779 134 445
3 779 445 447
3 779 447 136
3 782 136 447
3 782 447 449
3 449 785 782
3 138 782 785
3 785 140 138
3 140 785 788
3 788 142 140
3 142 788 791
3 791 144 142
3 144 791 794
3 794 146 144
3 794 457 146
3 796 146 457
3 796 457 459
3 796 459 148
3 798 148 459
3 798 459 461
3 798 461 150
3 800 150 461
3 800 461 463
3 800 463 152
3 802 152 463
3 802 463 465
3 802 465 154
3 804 154 465
3 804 465 467
3 804 467 156
3 806 156 467
3 806 467 469
3 806 469 158
3 808 158 469
3 808 469 471
3 471 810 808
3 160 808 810
3 810 162 160
3 162 810 812
3 812 164 162
3 164 812 814
3 814 166 164
3 166 814 816
3 816 168 166
3 168 816 818
3 818 170 168
3 170 818 820
3 820 172 170
3 172 820 821
3 821 174 172
3 823 174 821
3 821 483 823
3 823 483 485
3 824 823 485
3 824 485 826
3 826 176 824
3 824 176 174
3 826 827 176
3 827 178 176
3 830 178 827
3 827 487 830
3 830 487 489
3 829 830 489
3 829 489 832
3 832 180 829
3 829 180 178
3 832 833 180
3 833 182 180
3 836 182 833
3 833 491 836
3 836 491 493
3 835 836 493
3 835 493 838
3 838 184 835
3 835 184 182
3 838 839 184
3 839 186 184
3 842 186 839
3 839 495 842
3 842 495 497
3 841 842 497
3 841 497 844
3 188 841 844
3 844 190 188
3 190 844 846
3 846 192 190
3 192 846 848
3 848 194 192
3 194 848 850
3 850 196 194
3 196 850 852
3 852 198 196
3 198 852 854
3 854 200 198
3 200 854 856
3 856 202 200
3 202 856 858
3 858 204 202
3 858 513 204
3 860 204 513
3 860 513 515
3 860 515 206
3 862 206 515
3 862 515 517
3 862 517 208
3 865 208 517
3 865 517 519
3 865 519 210
3 868 210 519
3 868 519 521
3 868 521 212
3 871 212 521
3 871 521 523
3 871 523 214
3 874 214 523
3 874 523 525
3 525 877 874
3 216 874 877
3 877 218 216
3 218 877 880
3 880 220 218
3 220 880 883
3 883 222 220
3 222 883 886
3 886 224 222
3 224 886 888
3 888 226 224
3 888 535 226
3 890 226 535
3 890 535 537
3 537 892 890
3 228 890 892
3 892 230 228
3 230 892 894
3 894 232 230
3 894 541 232
3 896 232 541
3 896 541 543
3 896 543 234
3 898 234 543
3 898 543 545
3 898 545 236
3 900 236 545
3 900 545 547
3 900 547 238
3 902 238 547
3 902 547 549
3 549 904 902
3 902 904 240
3 904 242 240
3 242 904 906
3 906 244 242
3 244 906 908
3 908 246 244
3 246 908 910
3 910 248 246
3 248 910 912
3 912 250 248
3 250 912 914
3 914 252 250
3 252 914 916
3 916 254 252
3 917 254 916
3 916 561 917
3 917 561 563
3 919 917 563
3 919 563 920
3 920 256 919
3 919 256 254
3 920 922 256
3 922 258 256
3 923 258 922
3 922 565 923
3 923 565 567
3 925 923 567
3 925 567 926
3 926 260 925
3 925 260 258
3 926 928 260
3 928 262 260
3 929 262 928
3 928 569 929
3 929 569 571
3 931 929 571
3 931 571 932
3 932 264 931
3 931 264 262
3 932 934 264
3 934 266 264
3 935 266 934
3 934 573 935
3 935 573 575
3 937 935 575
3 937 575 939
3 268 937 939
3 939 270 268
3 270 939 941
3 941 272 270
3 272 941 943
3 943 274 272
3 274 943 945
3 945 276 274
3 276 945 947
3 947 278 276
3 278 947 949
3 949 280 278
3 280 949 951
3 951 282 280
3 282 951 953
3 953 284 282
3 953 591 284
3 955 284 591
3 955 591 593
3 955 593 286
3 957 286 593
3 957 593 595
3 957 595 288
3 960 288 595
3 960 595 597
3 960 597 290
3 963 290 597
3 963 597 599
3 963 599 292
3 966 292 599
3 966 599 601
3 966 601 294
3 969 294 601
3 969 601 603
3 603 972 969
3 296 969 972
3 972 298 296
3 298 972 975
3 975 300 298
3 300 975 978
3 978 302 300
3 302 978 980
3 980 304 302
3 980 611 304
3 982 304 611
3 982 611 613
3 982 613 306
3 984 306 613
3 984 613 615
3 984 615 308
3 986 308 615
3 986 615 617
3 986 617 310
3 988 310 617
3 988 617 619
3 988 619 312
3 990 312 619
3 990 619 622
3 990 622 314
3 993 314 622
3 993 622 623
3 993 623 316
3 992 316 623
3 992 623 621
3 621 991 992
3 315 992 991
3 991 313 315
3 313 991 989
3 989 311 313
3 311 989 987
3 987 309 311
3 309 987 985
3 985 307 309
3 307 985 983
3 983 305 307
3 305 983 981
3 981 303 305
3 303 981 979
3 979 301 303
3 976 301 979
3 979 610 976
3 976 610 608
3 977 976 608
3 977 608 974
3 974 299 977
3 977 299 301
3 974 973 299
3 973 297 299
3 970 297 973
3 973 606 970
3 970 606 604
3 971 970 604
3 971 604 968
3 968 295 971
3 971 295 297
3 968 967 295
3 967 293 295
3 965 293 967
3 967 602 965
3 965 602 600
3 964 965 600
3 964 600 962
3 962 291 964
3 964 291 293
3 962 961 291
3 961 289 291
3 959 289 961
3 961 598 959
3 959 598 596
3 958 959 596
3 958 596 956
3 287 958 956
3 956 285 287
3 285 956 954
3 954 283 285
3 283 954 952
3 952 281 283
3 281 952 950
3 950 279 281
3 279 950 948
3 948 277 279
3 277 948 946
3 946 275 277
3 275 946 944
3 944 273 275
3 273 944 942
3 942 271 273
3 942 580 271
3 940 271 580
3 940 580 578
3 940 578 269
3 938 269 578
3 938 578 576
3 938 576 267
3 936 267 576
3 936 576 574
3 936 574 265
3 933 265 574
3 933 574 572
3 933 572 263
3 930 263 572
3 930 572 570
3 930 570 261
3 927 261 570
3 927 570 568
3 568 924 927
3 259 927 924
3 924 257 259
3 257 924 921
3 921 255 257
3 255 921 918
3 918 253 255
3 918 562 253
3 915 253 562
3 915 562 560
3 560 913 915
3 251 915 913
3 913 249 251
3 913 558 249
3 911 249 558
3 911 558 556
3 556 909 911
3 247 911 909
3 909 245 247
3 245 909 907
3 907 243 245
3 907 552 243
3 905 243 552
3 905 552 550
3 905 550 241
3 903 241 550
3 903 550 548
3 903 548 239
3 901 239 548
3 901 548 546
3 901 546 237
3 899 237 546
3 899 546 544
3 544 897 899
3 899 897 235
3 897 233 235
3 233 897 895
3 895 231 233
3 231 895 893
3 893 229 231
3 229 893 891
3 891 227 229
3 227 891 889
3 889 225 227
3 225 889 887
3 887 223 225
3 223 887 885
3 885 221 223
3 884 221 885
3 885 532 884
3 884 532 530
3 882 884 530
3 882 530 881
3 881 219 882
3 882 219 221
3 881 879 219
3 879 217 219
3 878 217 879
3 879 528 878
3 878 528 526
3 876 878 526
3 876 526 875
3 875 215 876
3 876 215 217
3 875 873 215
3 873 213 215
3 872 213 873
3 873 524 872
3 872 524 522
3 870 872 522
3 870 522 869
3 869 211 870
3 870 211 213
3 869 867 211
3 867 209 211
3 866 209 867
3 867 520 866
3 866 520 518
3 864 866 518
3 864 518 863
3 207 864 863
3 863 205 207
3 205 863 861
3 861 203 205
3 203 861 859
3 859 201 203
3 201 859 857
3 857 199 201
3 199 857 855
3 855 197 199
3 197 855 853
3 853 195 197
3 195 853 851
3 851 193 195
3 193 851 849
3 849 191 193
3 849 502 191
3 847 191 502
3 847 502 500
3 847 500 189
3 845 189 500
3 845 500 498
3 845 498 187
3 843 187 498
3 843 498 496
3 843 496 185
3 840 185 496
3 840 496 494
3 840 494 183
3 837 183 494
3 837 494 492
3 837 492 181
3 834 181 492
3 834 492 490
3 490 831 834
3 179 834 831
3 831 177 179
3 177 831 828
3 828 175 177
3 175 828 825
3 825 173 175
3 173 825 822
3 822 171 173
3 822 482 171
3 819 171 482
3 819 482 480
3 819 480 169
3 817 169 480
3 817 480 478
3 817 478 167
3 815 167 478
3 815 478 476
3 815 476 165
3 813 165 476
3 813 476 474
3 813 474 163
3 811 163 474
3 811 474 472
3 811 472 161
3 809 161 472
3 809 472 470
3 809 470 159
3 807 159 470
3 807 470 468
3 468 805 807
3 157 807 805
3 805 155 157
3 155 805 803
3 803 153 155
3 153 803 801
3 801 151 153
3 151 801 799
3 799 149 151
3 149 799 797
3 797 147 149
3 147 797 795
3 795 145 147
3 145 795 792
3 792 143 145
3 793 143 792
3 792 456 793
3 793 456 454
3 790 793 454
3 790 454 789
3 789 141 790
3 790 141 143
3 789 786 141
3 786 139 141
3 787 139 786
3 786 452 787
3 787 452 450
3 784 787 450
3 784 450 783
3 783 137 784
3 784 137 139
3 783 781 137
3 781 135 137
3 780 135 781
3 781 448 780
3 780 448 446
3 778 780 446
3 778 446 777
3 777 133 778
3 778 133 135
3 777 775 133
3 775 131 133
3 774 131 775
3 775 444 774
3 774 444 442
3 772 774 442
3 772 442 771
3 129 772 771
3 771 128 129
3 128 771 769
3 769 126 128
3 126 769 767
3 767 124 126
3 124 767 765
3 765 122 124
3 122 765 763
3 763 120 122
3 120 763 761
3 761 118 120
3 118 761 759
3 759 116 118
3 116 759 757
3 757 114 116
3 757 426 114
3 755 114 426
3 755 426 424
3 755 424 112
3 753 112 424
3 753 424 422
3 753 422 110
3 751 110 422
3 751 422 420
3 751 420 108
3 748 108 420
3 748 420 418
3 748 418 106
3 745 106 418
3 745 418 416
3 745 416 104
3 742 104 416
3 742 416 414
3 414 739 742
3 102 742 739
3 739 100 102
3 100 739 736
3 736 98 100
3 98 736 733
3 733 96 98
3 96 733 730
3 94 96 730
3 94 730 93
3 93 730 404
3 726 93 404
3 726 404 402
3 402 724 726
3 90 726 724
3 724 88 90
3 88 724 722
3 722 86 88
3 722 398 86
3 720 86 398
3 720 398 396
3 720 396 84
3 718 84 396
3 718 396 394
3 718 394 82
3 716 82 394
3 716 394 392
3 716 392 80
3 714 80 392
3 714 392 390
3 390 712 714
3 78 714 712
3 712 76 78
3 76 712 710
3 710 74 76
3 74 710 708
3 708 72 74
3 72 708 706
3 706 70 72
3 70 706 704
3 704 68 70
3 68 704 702
3 702 66 68
3 66 702 700
3 700 63 66
3 699 63 700
3 700 378 699
3 699 378 376
3 697 699 376
3 697 376 696
3 696 61 697
3 697 61 63
3 696 694 61
3 694 59 61
3 693 59 694
3 694 374 693
3 693 374 372
3 691 693 372
3 691 372 690
3 690 57 691
3 691 57 59
3 690 688 57
3 688 55 57
3 689 55 688
3 688 370 689
3 689 370 368
3 685 689 368
3 685 368 686
3 686 53 685
3 685 53 55
3 686 682 53
3 682 51 53
3 683 51 682
3 682 366 683
3 683 366 364
3 680 683 364
3 680 364 679
3 49 680 679
3 679 47 49
3 47 679 677
3 677 45 47
3 45 677 675
3 675 43 45
3 43 675 673
3 673 41 43
3 41 673 671
3 671 39 41
3 39 671 669
3 669 37 39
3 37 669 667
3 667 35 37
3 35 667 665
3 665 33 35
3 665 348 33
3 663 33 348
3 663 348 346
3 663 346 31
3 661 31 346
3 661 346 344
3 661 344 29
3 659 29 344
3 659 344 342
3 659 342 27
3 656 27 342
3 656 342 340
3 656 340 25
3 653 25 340
3 653 340 338
3 653 338 23
3 650 23 338
3 650 338 336
3 336 647 650
3 21 650 647
3 647 19 21
3 19 647 644
3 644 17 19
3 17 644 641
3 641 15 17
3 15 641 638
3 638 13 15
3 638 328 13
3 635 13 328
3 635 328 326
3 635 326 11
3 633 11 326
3 633 326 324
3 633 324 9
3 631 9 324
3 631 324 322
3 631 322 7
3 629 7 322
3 629 322 320
3 629 320 5
3 627 5 320
3 627 320 318
3 627 318 3
3 625 3 318
3 625 318 1
3 625 0 3
3 627 3 5
3 629 5 7
3 631 7 9
3 633 9 11
3 635 11 13
3 638 330 328
3 330 638 641
3 641 332 330
3 332 641 644
3 644 334 332
3 334 644 647
3 647 336 334
3 650 21 23
3 653 23 25
3 656 25 27
3 659 27 29
3 661 29 31
3 663 31 33
3 665 350 348
3 350 665 667
3 667 352 350
3 352 667 669
3 669 354 352
3 354 669 671
3 671 356 354
3 356 671 673
3 673 358 356
3 358 673 675
3 675 360 358
3 360 675 677
3 677 362 360
3 362 677 679
3 680 49 51
3 679 364 362
3 683 680 51
3 682 686 366
3 686 368 366
3 689 685 55
3 688 690 370
3 690 372 370
3 693 691 59
3 694 696 374
3 696 376 374
3 699 697 63
3 700 702 378
3 702 380 378
3 380 702 704
3 704 382 380
3 382 704 706
3 706 384 382
3 384 706 708
3 708 386 384
3 386 708 710
3 710 388 386
3 388 710 712
3 712 390 388
3 714 78 80
3 716 80 82
3 718 82 84
3 720 84 86
3 722 400 398
3 400 722 724
3 724 402 400
3 726 90 93
3 406 404 730
3 406 730 408
3 408 730 733
3 733 410 408
3 410 733 736
3 736 412 410
3 412 736 739
3 739 414 412
3 742 102 104
3 745 104 106
3 748 106 108
3 751 108 110
3 753 110 112
3 755 112 114
3 757 428 426
3 428 757 759
3 759 430 428
3 430 759 761
3 761 432 430
3 432 761 763
3 763 434 432
3 434 763 765
3 765 436 434
3 436 765 767
3 767 438 436
3 438 767 769
3 769 440 438
3 440 769 771
3 772 129 131
3 771 442 440
3 774 772 131
3 775 777 444
3 777 446 444
3 780 778 135
3 781 783 448
3 783 450 448
3 787 784 139
3 786 789 452
3 789 454 452
3 793 790 143
3 792 795 456
3 795 458 456
3 458 795 797
3 797 460 458
3 460 797 799
3 799 462 460
3 462 799 801
3 801 464 462
3 464 801 803
3 803 466 464
3 466 803 805
3 805 468 466
3 807 157 159
3 809 159 161
3 811 161 163
3 813 163 165
3 815 165 167
3 817 167 169
3 819 169 171
3 822 484 482
3 484 822 825
3 825 486 484
3 486 825 828
3 828 488 486
3 488 828 831
3 831 490 488
3 834 179 181
3 837 181 183
3 840 183 185
3 843 185 187
3 845 187 189
3 847 189 191
3 849 504 502
3 504 849 851
3 851 506 504
3 506 851 853
3 853 508 506
3 508 853 855
3 855 510 508
3 510 855 857
3 857 512 510
3 512 857 859
3 859 514 512
3 514 859 861
3 861 516 514
3 516 861 863
3 864 207 209
3 863 518 516
3 866 864 209
3 867 869 520
3 869 522 520
3 872 870 213
3 873 875 524
3 875 526 524
3 878 876 217
3 879 881 528
3 881 530 528
3 884 882 221
3 885 887 532
3 887 534 532
3 534 887 889
3 889 536 534
3 536 889 891
3 891 538 536
3 538 891 893
3 893 540 538
3 540 893 895
3 895 542 540
3 542 895 897
3 897 544 542
3 899 235 237
3 901 237 239
3 903 239 241
3 905 241 243
3 907 554 552
3 554 907 909
3 909 556 554
3 911 247 249
3 913 560 558
3 915 251 253
3 918 564 562
3 564 918 921
3 921 566 564
3 566 921 924
3 924 568 566
3 927 259 261
3 930 261 263
3 933 263 265
3 936 265 267
3 938 267 269
3 940 269 271
3 942 582 580
3 582 942 944
3 944 584 582
3 584 944 946
3 946 586 584
3 586 946 948
3 948 588 586
3 588 948 950
3 950 590 588
3 590 950 952
3 952 592 590
3 592 952 954
3 954 594 592
3 594 954 956
3 958 287 289
3 956 596 594
3 959 958 289
3 961 962 598
3 962 600 598
3 965 964 293
3 967 968 602
3 968 604 602
3 970 971 297
3 973 974 606
3 974 608 606
3 976 977 301
3 979 981 610
3 981 612 610
3 612 981 983
3 983 614 612
3 614 983 985
3 985 616 614
3 616 985 987
3 987 618 616
3 618 987 989
3 989 620 618
3 620 989 991
3 991 621 620
3 992 315 316
3 993 316 314
3 990 314 312
3 988 312 310
3 986 310 308
3 984 308 306
3 982 306 304
3 980 609 611
3 609 980 978
3 978 607 609
3 607 978 975
3 975 605 607
3 605 975 972
3 972 603 605
3 969 296 294
3 966 294 292
3 963 292 290
3 960 290 288
3 957 288 286
3 955 286 284
3 953 589 591
3 589 953 951
3 951 587 589
3 587 951 949
3 949 585 587
3 585 949 947
3 947 583 585
3 583 947 945
3 945 581 583
3 581 945 943
3 943 579 581
3 579 943 941
3 941 577 579
3 577 941 939
3 937 268 266
3 939 575 577
3 935 937 266
3 934 932 573
3 932 571 573
3 929 931 262
3 928 926 569
3 926 567 569
3 923 925 258
3 922 920 565
3 920 563 565
3 917 919 254
3 916 914 561
3 914 559 561
3 559 914 912
3 912 557 559
3 557 912 910
3 910 555 557
3 555 910 908
3 908 553 555
3 553 908 906
3 906 551 553
3 551 906 904
3 904 549 551
3 902 240 238
3 900 238 236
3 898 236 234
3 896 234 232
3 894 539 541
3 539 894 892
3 892 537 539
3 890 228 226
3 888 533 535
3 533 888 886
3 886 531 533
3 531 886 883
3 883 529 531
3 529 883 880
3 880 527 529
3 527 880 877
3 877 525 527
3 874 216 214
3 871 214 212
3 868 212 210
3 865 210 208
3 862 208 206
3 860 206 204
3 858 511 513
3 511 858 856
3 856 509 511
3 509 856 854
3 854 507 509
3 507 854 852
3 852 505 507
3 505 852 850
3 850 503 505
3 503 850 848
3 848 501 503
3 501 848 846
3 846 499 501
3 499 846 844
3 841 188 186
3 844 497 499
3 842 841 186
3 839 838 495
3 838 493 495
3 836 835 182
3 833 832 491
3 832 489 491
3 830 829 178
3 827 826 487
3 826 485 487
3 823 824 174
3 821 820 483
3 820 481 483
3 481 820 818
3 818 479 481
3 479 818 816
3 816 477 479
3 477 816 814
3 814 475 477
3 475 814 812
3 812 473 475
3 473 812 810
3 810 471 473
3 808 160 158
3 806 158 156
3 804 156 154
3 802 154 152
3 800 152 150
3 798 150 148
3 796 148 146
3 794 455 457
3 455 794 791
3 791 453 455
3 453 791 788
3 788 451 453
3 451 788 785
3 785 449 451
3 782 138 136
3 779 136 134
3 776 134 132
3 773 132 130
3 770 130 127
3 768 127 125
3 766 435 437
3 435 766 764
3 764 433 435
3 433 764 762
3 762 431 433
3 431 762 760
3 760 429 431
3 429 760 758
3 758 427 429
3 427 758 756
3 756 425 427
3 425 756 754
3 754 423 425
3 423 754 752
3 750 109 107
3 752 421 423
3 749 750 107
3 747 746 419
3 746 417 419
3 743 744 103
3 741 740 415
3 740 413 415
3 737 738 99
3 734 735 411
3 735 409 411
3 732 731 95
3 729 728 407
3 728 405 407
3 405 728 727
3 727 403 405
3 403 727 725
3 725 401 403
3 401 725 723
3 723 399 401
3 399 723 721
3 721 397 399
3 397 721 719
3 719 395 397
3 717 81 79
3 715 79 77
3 713 77 75
3 711 75 73
3 709 385 387
3 385 709 707
3 707 383 385
3 705 69 67
3 379 381 703
3 379 703 377
3 377 703 701
3 701 375 377
3 375 701 698
3 698 373 375
3 373 698 695
3 695 371 373
3 692 58 56
3 687 56 54
3 684 54 52
3 681 52 50
3 678 50 48
3 676 48 46
3 674 357 359
3 357 674 672
3 672 355 357
3 355 672 670
3 670 353 355
3 353 670 668
3 668 351 353
3 351 668 666
3 666 349 351
3 349 666 664
3 664 347 349
3 347 664 662
3 662 345 347
3 345 662 660
3 657 30 28
3 660 343 345
3 658 657 28
3 655 654 341
3 654 339 341
3 652 651 24
3 649 648 337
3 648 335 337
3 645 646 20
3 642 643 333
3 643 331 333
3 640 639 16
3 637 636 329
3 636 327 329
3 327 636 634
3 634 325 327
3 325 634 632
3 632 323 325
3 323 632 630
3 630 321 323
3 321 630 628
3 626 4 2
3 628 319 321
3 625 1 0
3 2 624 626
CELL_TYPES 1364
9
9
9
9
9
9
9
9
9
9
9
9
9
9
9
9
9
9
9
9
9
9
9
9
9
9
9
9
9
9
9
9
9
9
9
9
9
9
9
9
9
9
9
9
9
9
9
9
9
9
9
9
9
9
9
9
9
9
9
9
9
9
9
9
9
9
9
9
9
9
9
9
9
9
9
9
9
9
9
9
9
9
9
9
9
9
9
9
9
9
9
9
9
9
9
9
9
9
9
9
9
9
9
9
9
9
9
9
9
9
9
9
9
9
9
9
9
9
9
9
9
9
9
9
9
9
9
9
9
9
9
9
9
9
9
9
9
9
9
9
9
9
9
9
9
9
9
9
9
9
9
9
9
9
9
9
9
9
9
9
9
9
9
9
9
9
9
9
9
9
9
9
9
9
9
9
9
9
9
9
9
9
9
9
9
9
9
9
9
9
9
9
9
9
9
9
9
9
9
9
9
9
9
9
9
9
9
9
9
9
9
9
9
9
9
9
9
9
9
9
9
9
9
9
9
9
9
9
9
9
9
9
9
9
9
9
9
9
9
9
9
9
9
9
9
9
9
9
9
9
9
9
9
9
9
9
9
9
9
9
9
9
9
9
9
9
9
9
9
9
9
9
9
9
9
9
9
9
9
9
9
9
9
9
9
9
9
9
9
9
9
9
9
9
9
9
9
9
9
9
9
9
9
9
9
9
9
9
9
9
9
9
9
9
9
9
9
9
9
9
9
9
9
9
9
9
9
9
9
9
9
9
9
9
9
9
9
9
9
9
9
9
9
9
9
9
9
9
9
9
9
9
9
9
9
9
9
9
9
9
9
9
9
9
9
9
9
9
9
9
9
9
9
9
9
9
9
9
9
9
9
9
9
9
9
9
9
9
9
9
9
9
9
9
9
9
9
9
9
9
9
9
9
9
9
9
9
9
9
9
9
9
9
9
9
9
9
9
9
9
9
9
9
9
9
9
9
9
9
9
9
9
9
9
9
9
9
9
9
9
9
9
9
9
9
9
9
9
9
9
9
9
9
9
9
9
9
9
9
9
9
9
9
9
9
9
9
9
9
9
9
9
9
9
9
9
9
9
9
9
9
9
9
9
9
9
9
9
9
9
9
9
9
9
9
9
9
9
9
9
9
9
9
9
9
9
9
9
9
9
9
9
9
9
9
9
9
9
9
9
9
9
9
9
9
9
9
9
9
9
9
9
9
9
9
9
9
9
9
9
9
9
9
9
9
9
9
9
9
9
9
9
9
9
9
9
9
9
9
9
9
9
9
9
9
9
9
9
9
9
9
9
9
9
9
9
9
9
9
9
9
9
9
9
9
9
9
9
9
9
9
9
9
9
9
9
9
9
9
9
9
9
9
9
9
9
9
9
9
9
9
9
9
9
9
9
9
9
9
9
9
9
9
9
9
9
9
9
9
9
9
9
9
9
9
9
9
9
9
9
9
9
9
9
9
9
9
9
9
9
9
9
9
9
9
9
9
9
9
9
9
9
9
9
9
9
9
9
9
9
9
9
9
9
9
9
9
9
9
9
9
9
9
9
9
9
9
9
9
9
9
9
9
9
9
9
9
9
9
9
9
9
9
9
9
9
9
9
9
9
9
9
9
9
9
9
9
9
9
9
9
9
9
9
9
9
9
9
9
9
9
9
9
9
9
9
9
9
9
9
9
9
9
9
9
9
9
9
9
9
9
9
9
9
9
9
9
9
9
9
9
9
9
9
9
9
9
9
9
9
9
9
9
9
9
9
9
9
9
9
9
9
9
9
9
9
9
9
9
9
9
9
9
9
9
9
9
9
9
9
9
9
9
9
9
9
9
9
9
9
9
9
9
9
9
9
9
9
9
9
9
9
9
9
9
9
9
9
9
9
9
9
9
9
9
9
9
9
9
9
9
9
9
9
9
9
9
9
9
9
9
9
9
9
9
9
9
9
9
9
9
9
9
9
9
9
9
9
9
9
9
9
9
9
9
9
9
9
9
9
9
9
9
9
9
9
9
9
9
9
9
9
9
9
9
9
9
9
9
9
9
9
9
9
9
9
9
9
9
9
9
9
9
9
9
9
9
9
9
9
9
9
9
9
9
9
9
9
9
9
9
9
9
9
9
9
9
9
9
9
9
9
9
9
9
9
9
9
9
9
9
9
9
9
9
9
9
9
9
9
9
9
9
9
9
9
9
9
9
9
9
9
9
9
9
9
9
9
9
9
9
9
9
9
9
9
9
9
9
9
9
9
9
9
9
9
9
9
9
9
9
9
9
9
9
9
9
9
9
9
9
9
9
9
9
9
9
9
9
9
9
9
9
9
9
9
9
9
9
9
9
9
9
9
9
9
9
9
9
9
9
9
9
9
9
9
9
9
9
9
9
9
9
9
9
9
9
9
9
9
9
9
9
9
9
9
9
9
9
9
9
9
9
9
9
9
9
9
9
9
9
9
9
9
9
9
9
9
9
9
9
9
9
9
9
9
9
9
9
9
9
9
9
9
9
9
9
9
9
9
9
9
9
9
9
9
9
9
9
9
9
9
9
9
9
9
9
9
9
9
9
9
9
9
9
9
9
9
9
9
9
9
9
9
9
9
9
9
9
9
9
9
9
9
9
9
9
9
9
9
9
9
9
9
9
9
9
9
9
9
9
9
9
9
9
9
9
9
9
9
9
9
9
9
9
9
9
9
9
9
9
9
9
9
9
9
9
9
9
9
9
9
9
9
9
9
9
9
9
9
9
9
9
9
9
9
9
9
9
9
9
9
9
9
9
9
9
9
9
9
9
9
9
9
9
9
9
9
9
9
9
9
9
9
9
9
9
9
9
9
9
9
9
9
9
9
9
9
9
9
9
9
9
9
9
9
9
9
9
9
9
9
9
9
9
9
9
9
9
9
9
9
9
9
9
9
9
9
9
9
9
9
9
9
9
9
9
9
9
9
9
9
9
9
9
9
9
9
9
9
9
9
9
9
9
9
9
9
9
9
9
9
9
9
9
9
9
9
9
9
9
9
9
9
9
9
9
9
9
9
9
9
9
9
9
9
9
9
9
9
9
9
9
9
9
9
9
9
9
9
9
9
9
9
POINT_DATA 994
SCALARS u1 float
LOOKUP_TABLE default
-0.1
-0.1
-0.1
-0.09
-0.1
-0.08
-0.1
-0.07
-0.2
-0.06
-0.2
-0.05
-0.2
-0.05
-0.2
-0.04
-0.2
-0.04
-0.2
-0.04
-0.3
-0.04
-0.3
-0.04
-0.3
-0.04
-0.4
-0.04
-0.4
-0.05
-0.4
-0.05
-0.4
-0.05
-0.5
-0.06
-0.5
-0.06
-0.5
-0.07
-0.6
-0.07
-0.6
-0.08
-0.6
-0.08
-0.7
-0.09
-0.7
-0.1
-0.7
-0.1
-0.7
-0.1
-0.7
-0.1
-0.8
-0.1
-0.8
-0.1
-0.8
-0.1
-0.8
-0.2
-0.8
-0.8
-0.2
-0.8
-0.2
-0.8
-0.2
-0.8
-0.2
-0.7
-0.2
-0.7
-0.2
-0.7
-0.2
-0.7
-0.2
-0.7
-0.2
-0.6
-0.2
-0.6
-0.2
-0.6
-0.2
-0.5
-0.2
-0.5
-0.5
-0.2
-0.2
-0.5
-0.2
-0.4
-0.2
-0.4
-0.2
-0.4
-0.2
-0.4
-0.2
-0.4
-0.2
-0.3
-0.2
-0.3
-0.2
-0.3
-0.2
-0.3
-0.2
-0.3
-0.2
-0.3
-0.2
-0.3
-0.2
-0.3
-0.2
-0.3
-0.2
-0.3
-0.2
-0.3
-0.2
-0.2
-0.2
-0.3
-0.2
-0.3
-0.2
-0.3
-0.2
-0.3
-0.2
-0.3
-0.2
-0.3
-0.2
-0.3
-0.2
-0.3
-0.2
-0.3
-0.3
-0.3
-0.3
-0.4
-0.3
-0.4
-0.3
-0.4
-0.3
-0.4
-0.3
-0.4
-0.3
-0.4
-0.3
-0.4
-0.3
-0.4
-0.3
-0.4
-0.3
-0.4
-0.3
-0.4
-0.4
-0.4
-0.4
-0.4
-0.4
-0.4
-0.4
-0.4
-0.4
-0.4
-0.4
-0.4
-0.4
-0.4
-0.4
-0.4
-0.4
-0.4
-0.5
-0.4
-0.5
-0.4
-0.5
-0.4
-0.5
-0.4
-0.5
-0.4
-0.5
-0.4
-0.5
-0.4
-0.5
-0.4
-0.5
-0.3
-0.5
-0.3
-0.5
-0.3
-0.5
-0.3
-0.5
-0.3
-0.5
-0.3
-0.5
-0.2
-0.5
-0.2
-0.5
-0.2
-0.5
-0.2
-0.5
-0.1
-0.5
-0.1
-0.5
-0.07
-0.5
-0.04
-0.5
-0.02
-0.5
0.008
-0.5
0.03
-0.5
0.05
-0.5
0.07
-0.5
0.09
-0.5
0.1
-0.5
0.1
-0.5
0.1
-0.5
0.1
-0.5
0.1
-0.5
0.1
-0.6
0.1
-0.6
0.1
-0.6
0.08
-0.6
0.06
-0.6
0.03
-0.6
0.009
-0.6
-0.02
-0.6
-0.05
-0.6
-0.08
-0.6
-0.1
-0.6
-0.1
-0.6
-0.2
-0.6
-0.2
-0.6
-0.2
-0.6
-0.3
-0.7
-0.3
-0.7
-0.3
-0.7
-0.4
-0.7
-0.4
-0.7
-0.4
-0.7
-0.4
-0.7
-0.5
-0.7
-0.5
-0.7
-0.5
-0.6
-0.5
-0.6
-0.5
-0.6
-0.6
-0.6
-0.6
-0.6
-0.6
-0.6
-0.1
-0.1
-0.1
-0.09
-0.2
-0.08
-0.2
-0.07
-0.2
-0.06
-0.2
-0.05
-0.2
-0.05
-0.2
-0.04
-0.3
-0.04
-0.3
-0.04
-0.3
-0.04
-0.3
-0.04
-0.4
-0.04
-0.4
-0.04
-0.4
-0.05
-0.5
-0.05
-0.5
-0.05
-0.5
-0.06
-0.6
-0.06
-0.6
-0.06
-0.6
-0.07
-0.7
-0.07
-0.7
-0.08
-0.7
-0.08
-0.7
-0.09
-0.7
-0.1
-0.8
-0.1
-0.8
-0.1
-0.8
-0.1
-0.8
-0.1
-0.8
-0.1
-0.8
-0.1
-0.8
-0.1
-0.8
-0.2
-0.8
-0.2
-0.7
-0.2
-0.7
-0.2
-0.7
-0.2
-0.7
-0.2
-0.6
-0.2
-0.6
-0.2
-0.6
-0.2
-0.6
-0.2
-0.5
-0.2
-0.5
-0.2
-0.5
-0.2
-0.5
-0.2
-0.4
-0.2
-0.4
-0.2
-0.4
-0.2
-0.4
-0.2
-0.4
-0.2
-0.3
-0.2
-0.3
-0.2
-0.3
-0.2
-0.3
-0.2
-0.3
-0.2
-0.3
-0.2
-0.3
-0.2
-0.3
-0.3
-0.3
-0.3
-0.3
-0.3
-0.3
-0.3
-0.2
-0.3
-0.2
-0.3
-0.2
-0.3
-0.2
-0.3
-0.2
-0.3
-0.2
-0.3
-0.2
-0.3
-0.2
-0.4
-0.2
-0.4
-0.3
-0.4
-0.3
-0.4
-0.3
-0.4
-0.3
-0.4
-0.3
-0.4
-0.3
-0.4
-0.3
-0.4
-0.3
-0.4
-0.3
-0.4
-0.3
-0.4
-0.3
-0.4
-0.3
-0.4
-0.3
-0.4
-0.4
-0.4
-0.4
-0.4
-0.4
-0.4
-0.4
-0.4
-0.4
-0.4
-0.4
-0.4
-0.4
-0.4
-0.4
-0.4
-0.4
-0.4
-0.4
-0.4
-0.5
-0.4
-0.5
-0.4
-0.5
-0.4
-0.5
-0.4
-0.5
-0.3
-0.5
-0.3
-0.5
-0.3
-0.5
-0.3
-0.5
-0.3
-0.5
-0.3
-0.5
-0.2
-0.5
-0.2
-0.5
-0.2
-0.5
-0.2
-0.5
-0.1
-0.5
-0.1
-0.5
-0.07
-0.5
-0.04
-0.5
-0.02
-0.5
0.007
-0.5
0.03
-0.5
0.05
-0.5
0.07
-0.5
0.09
-0.5
0.1
-0.5
0.1
-0.6
0.1
-0.6
0.1
-0.6
0.1
-0.6
0.1
-0.6
0.1
-0.6
0.1
-0.6
0.08
-0.6
0.06
-0.6
0.03
-0.6
0.008
-0.6
-0.02
-0.6
-0.05
-0.6
-0.08
-0.6
-0.1
-0.6
-0.1
-0.6
-0.2
-0.6
-0.2
-0.7
-0.2
-0.7
-0.3
-0.7
-0.3
-0.7
-0.3
-0.7
-0.4
-0.7
-0.4
-0.7
-0.4
-0.7
-0.4
-0.7
-0.5
-0.6
-0.5
-0.6
-0.5
-0.6
-0.5
-0.6
-0.5
-0.6
-0.6
-0.6
-0.6
-0.6
-0.1
-0.1
-0.1
-0.09
-0.1
-0.08
-0.2
-0.07
-0.2
-0.06
-0.2
-0.05
-0.2
-0.2
-0.05
-0.2
-0.2
-0.04
-0.3
-0.3
-0.04
-0.3
-0.3
-0.04
-0.3
-0.3
-0.04
-0.3
-0.3
-0.04
-0.4
-0.4
-0.04
-0.4
-0.4
-0.04
-0.4
-0.05
-0.5
-0.05
-0.5
-0.05
-0.5
-0.06
-0.6
-0.06
-0.6
-0.06
-0.6
-0.07
-0.6
-0.07
-0.7
-0.08
-0.7
-0.09
-0.09
-0.7
-0.1
-0.09
-0.7
-0.1
-0.1
-0.8
-0.1
-0.1
-0.1
-0.1
-0.8
-0.1
-0.1
-0.8
-0.1
-0.1
-0.8
-0.1
-0.1
-0.8
-0.2
-0.8
-0.2
-0.8
-0.2
-0.8
-0.2
-0.7
-0.2
-0.7
-0.2
-0.7
-0.2
-0.7
-0.2
-0.7
-0.2
-0.6
-0.2
-0.6
-0.2
-0.6
-0.2
-0.6
-0.2
-0.5
-0.5
-0.5
-0.2
-0.5
-0.5
-0.2
-0.4
-0.5
-0.2
-0.4
-0.4
-0.2
-0.4
-0.4
-0.2
-0.4
-0.4
-0.2
-0.4
-0.4
-0.2
-0.3
-0.3
-0.2
-0.3
-0.2
-0.3
-0.2
-0.3
-0.2
-0.3
-0.2
-0.3
-0.2
-0.3
-0.2
-0.3
-0.2
-0.3
-0.2
-0.3
-0.2
-0.3
-0.3
-0.3
-0.2
-0.3
-0.3
-0.2
-0.3
-0.3
-0.2
-0.3
-0.3
-0.2
-0.3
-0.3
-0.2
-0.3
-0.3
-0.2
-0.3
-0.3
-0.2
-0.3
-0.3
-0.2
-0.3
-0.2
-0.4
-0.3
-0.4
-0.3
-0.4
-0.3
-0.4
-0.3
-0.4
-0.3
-0.4
-0.3
-0.4
-0.3
-0.4
-0.3
-0.4
-0.3
-0.4
-0.3
-0.4
-0.3
-0.4
-0.3
-0.3
-0.4
-0.4
-0.4
-0.4
-0.4
-0.4
-0.4
-0.4
-0.4
-0.4
-0.4
-0.4
-0.4
-0.4
-0.4
-0.4
-0.4
-0.4
-0.4
-0.4
-0.4
-0.4
-0.4
-0.4
-0.4
-0.4
-0.4
-0.4
-0.5
-0.4
-0.5
-0.4
-0.5
-0.4
-0.5
-0.4
-0.5
-0.4
-0.5
-0.4
-0.5
-0.3
-0.3
-0.5
-0.3
-0.3
-0.5
-0.3
-0.3
-0.5
-0.3
-0.3
-0.5
-0.3
-0.3
-0.5
-0.2
-0.2
-0.5
-0.2
-0.2
-0.5
-0.2
-0.2
-0.5
-0.2
-0.5
-0.1
-0.5
-0.1
-0.5
-0.08
-0.5
-0.06
-0.5
-0.03
-0.5
-0.01
-0.5
0.02
-0.5
0.04
-0.5
0.06
-0.5
0.08
-0.5
0.1
-0.5
0.1
-0.5
0.1
-0.5
0.1
-0.5
-0.5
0.1
-0.6
-0.6
0.1
-0.6
-0.6
0.1
-0.6
-0.6
0.1
-0.6
-0.6
0.09
-0.6
-0.6
0.07
-0.6
-0.6
0.05
-0.6
0.02
-0.6
-0.006
-0.6
-0.04
-0.6
-0.07
-0.6
-0.1
-0.6
-0.1
-0.6
-0.2
-0.6
-0.2
-0.6
-0.2
-0.6
-0.3
-0.7
-0.3
-0.3
-0.7
-0.3
-0.3
-0.7
-0.3
-0.4
-0.7
-0.4
-0.4
-0.7
-0.4
-0.4
-0.7
-0.4
-0.4
-0.7
-0.5
-0.5
-0.7
-0.5
-0.7
-0.5
-0.6
-0.5
-0.6
-0.5
-0.6
-0.5
-0.6
-0.6
-0.6
-0.6
-0.6
-0.6
SCALARS u2 float
LOOKUP_TABLE default
-0.3
-0.3
-0.3
-0.3
-0.3
-0.3
-0.3
-0.3
-0.3
-0.3
-0.3
-0.3
-0.3
-0.2
-0.4
-0.2
-0.4
-0.2
-0.4
-0.2
-0.4
-0.2
-0.4
-0.2
-0.4
-0.2
-0.4
-0.2
-0.4
-0.2
-0.4
-0.3
-0.4
-0.3
-0.5
-0.3
-0.5
-0.3
-0.5
-0.3
-0.5
-0.3
-0.5
-0.3
-0.5
-0.3
-0.5
-0.3
-0.5
-0.3
-0.5
-0.3
-0.5
-0.4
-0.5
-0.4
-0.5
-0.4
-0.5
-0.4
-0.5
-0.4
-0.5
-0.5
-0.5
-0.5
-0.5
-0.5
-0.5
-0.5
-0.5
-0.5
-0.6
-0.5
-0.6
-0.5
-0.6
-0.5
-0.6
-0.5
-0.7
-0.5
-0.7
-0.5
-0.7
-0.5
-0.7
-0.5
-0.7
-0.5
-0.8
-0.5
-0.5
-0.8
-0.8
-0.5
-0.8
-0.5
-0.8
-0.5
-0.8
-0.6
-0.8
-0.6
-0.8
-0.6
-0.7
-0.6
-0.7
-0.6
-0.7
-0.6
-0.7
-0.6
-0.6
-0.6
-0.6
-0.6
-0.6
-0.6
-0.6
-0.6
-0.5
-0.6
-0.5
-0.6
-0.5
-0.6
-0.4
-0.4
-0.6
-0.4
-0.6
-0.3
-0.6
-0.3
-0.6
-0.3
-0.6
-0.3
-0.6
-0.2
-0.6
-0.2
-0.6
-0.2
-0.6
-0.2
-0.6
-0.2
-0.6
-0.1
-0.6
-0.1
-0.6
-0.1
-0.6
-0.1
-0.6
-0.09
-0.6
-0.07
-0.6
-0.06
-0.5
-0.05
-0.5
-0.04
-0.5
-0.04
-0.5
-0.03
-0.5
-0.03
-0.5
-0.02
-0.4
-0.02
-0.4
-0.02
-0.4
-0.02
-0.4
-0.02
-0.3
-0.03
-0.3
-0.03
-0.3
-0.03
-0.2
-0.04
-0.2
-0.04
-0.2
-0.05
-0.1
-0.05
-0.1
-0.06
-0.07
-0.06
-0.04
-0.07
-0.02
-0.08
0.01
-0.08
0.04
-0.09
0.06
-0.1
0.08
-0.1
0.1
-0.1
0.1
-0.1
0.1
-0.1
0.1
-0.1
0.1
-0.2
0.1
-0.2
0.1
-0.2
0.1
-0.2
0.09
-0.2
0.07
-0.2
0.05
-0.2
0.03
-0.2
0.004
-0.2
-0.02
-0.2
-0.05
-0.2
-0.07
-0.2
-0.1
-0.2
-0.1
-0.2
-0.2
-0.2
-0.2
-0.2
-0.2
-0.2
-0.2
-0.2
-0.3
-0.2
-0.3
-0.2
-0.3
-0.2
-0.3
-0.2
-0.3
-0.2
-0.3
-0.2
-0.4
-0.2
-0.4
-0.2
-0.4
-0.2
-0.4
-0.2
-0.4
-0.2
-0.4
-0.2
-0.4
-0.2
-0.4
-0.2
-0.4
-0.2
-0.4
-0.3
-0.4
-0.3
-0.4
-0.3
-0.4
-0.3
-0.4
-0.3
-0.4
-0.3
-0.4
-0.3
-0.4
-0.3
-0.4
-0.3
-0.4
-0.3
-0.4
-0.4
-0.4
-0.4
-0.4
-0.4
-0.4
-0.4
-0.4
-0.3
-0.3
-0.3
-0.3
-0.3
-0.3
-0.3
-0.3
-0.3
-0.2
-0.3
-0.2
-0.3
-0.2
-0.3
-0.2
-0.4
-0.2
-0.4
-0.2
-0.4
-0.2
-0.4
-0.2
-0.4
-0.2
-0.4
-0.3
-0.4
-0.3
-0.4
-0.3
-0.4
-0.3
-0.4
-0.3
-0.4
-0.3
-0.5
-0.3
-0.5
-0.3
-0.5
-0.3
-0.5
-0.3
-0.5
-0.3
-0.5
-0.4
-0.5
-0.4
-0.5
-0.4
-0.5
-0.4
-0.5
-0.4
-0.5
-0.5
-0.5
-0.5
-0.5
-0.5
-0.5
-0.5
-0.5
-0.6
-0.5
-0.6
-0.5
-0.6
-0.5
-0.6
-0.5
-0.7
-0.5
-0.7
-0.5
-0.7
-0.5
-0.7
-0.5
-0.7
-0.5
-0.8
-0.5
-0.8
-0.5
-0.8
-0.5
-0.8
-0.6
-0.8
-0.6
-0.8
-0.6
-0.8
-0.6
-0.8
-0.6
-0.7
-0.6
-0.7
-0.6
-0.7
-0.6
-0.7
-0.6
-0.6
-0.6
-0.6
-0.6
-0.6
-0.6
-0.6
-0.6
-0.5
-0.6
-0.5
-0.6
-0.5
-0.6
-0.4
-0.6
-0.4
-0.6
-0.4
-0.6
-0.3
-0.6
-0.3
-0.6
-0.3
-0.6
-0.2
-0.6
-0.2
-0.6
-0.2
-0.6
-0.2
-0.6
-0.2
-0.6
-0.2
-0.6
-0.1
-0.6
-0.1
-0.6
-0.1
-0.6
-0.1
-0.6
-0.08
-0.5
-0.07
-0.5
-0.06
-0.5
-0.05
-0.5
-0.04
-0.5
-0.04
-0.5
-0.03
-0.4
-0.02
-0.4
-0.02
-0.4
-0.02
-0.4
-0.02
-0.3
-0.02
-0.3
-0.02
-0.3
-0.03
-0.2
-0.03
-0.2
-0.03
-0.2
-0.04
-0.1
-0.04
-0.1
-0.05
-0.08
-0.05
-0.05
-0.06
-0.02
-0.06
0.01
-0.07
0.04
-0.07
0.06
-0.08
0.08
-0.09
0.1
-0.09
0.1
-0.1
0.1
-0.1
0.1
-0.1
0.1
-0.1
0.1
-0.1
0.1
-0.1
0.1
-0.1
0.09
-0.2
0.07
-0.2
0.05
-0.2
0.03
-0.2
0.003
-0.2
-0.02
-0.2
-0.05
-0.2
-0.07
-0.2
-0.1
-0.2
-0.1
-0.2
-0.2
-0.2
-0.2
-0.2
-0.2
-0.2
-0.2
-0.2
-0.3
-0.2
-0.3
-0.2
-0.3
-0.2
-0.3
-0.2
-0.3
-0.2
-0.4
-0.2
-0.4
-0.2
-0.4
-0.2
-0.4
-0.2
-0.4
-0.2
-0.4
-0.2
-0.4
-0.2
-0.4
-0.3
-0.4
-0.3
-0.4
-0.3
-0.4
-0.3
-0.4
-0.3
-0.4
-0.3
-0.4
-0.3
-0.4
-0.3
-0.4
-0.3
-0.4
-0.3
-0.4
-0.4
-0.4
-0.4
-0.4
-0.4
-0.4
-0.4
-0.4
-0.4
-0.4
-0.4
-0.4
-0.3
-0.3
-0.3
-0.3
-0.3
-0.3
-0.3
-0.3
-0.3
-0.3
-0.3
-0.2
-0.3
-0.3
-0.2
-0.4
-0.4
-0.2
-0.4
-0.4
-0.2
-0.4
-0.4
-0.2
-0.4
-0.4
-0.2
-0.4
-0.4
-0.2
-0.4
-0.4
-0.2
-0.4
-0.4
-0.2
-0.4
-0.3
-0.4
-0.3
-0.4
-0.3
-0.5
-0.3
-0.5
-0.3
-0.5
-0.3
-0.5
-0.3
-0.5
-0.3
-0.5
-0.3
-0.5
-0.3
-0.3
-0.5
-0.4
-0.3
-0.5
-0.4
-0.4
-0.5
-0.4
-0.4
-0.4
-0.4
-0.5
-0.4
-0.4
-0.5
-0.4
-0.5
-0.5
-0.5
-0.5
-0.5
-0.5
-0.5
-0.5
-0.5
-0.6
-0.5
-0.6
-0.5
-0.6
-0.5
-0.6
-0.5
-0.6
-0.5
-0.7
-0.5
-0.7
-0.5
-0.7
-0.5
-0.7
-0.5
-0.7
-0.5
-0.8
-0.5
-0.5
-0.5
-0.8
-0.5
-0.5
-0.8
-0.6
-0.5
-0.8
-0.6
-0.6
-0.8
-0.6
-0.6
-0.8
-0.6
-0.6
-0.7
-0.6
-0.6
-0.7
-0.6
-0.6
-0.7
-0.6
-0.7
-0.6
-0.7
-0.6
-0.6
-0.6
-0.6
-0.6
-0.6
-0.6
-0.5
-0.6
-0.5
-0.6
-0.5
-0.6
-0.4
-0.6
-0.4
-0.4
-0.6
-0.4
-0.4
-0.6
-0.3
-0.3
-0.6
-0.3
-0.3
-0.6
-0.3
-0.3
-0.6
-0.2
-0.3
-0.6
-0.2
-0.2
-0.6
-0.2
-0.2
-0.6
-0.2
-0.6
-0.2
-0.6
-0.2
-0.6
-0.1
-0.6
-0.1
-0.6
-0.1
-0.6
-0.1
-0.6
-0.08
-0.6
-0.07
-0.5
-0.06
-0.5
-0.05
-0.5
-0.04
-0.5
-0.04
-0.5
-0.5
-0.03
-0.5
-0.4
-0.03
-0.4
-0.4
-0.02
-0.4
-0.4
-0.02
-0.4
-0.4
-0.02
-0.3
-0.4
-0.02
-0.3
-0.3
-0.02
-0.3
-0.3
-0.03
-0.3
-0.03
-0.2
-0.03
-0.2
-0.04
-0.2
-0.04
-0.1
-0.05
-0.09
-0.05
-0.06
-0.06
-0.04
-0.06
-0.002
-0.07
0.02
-0.07
-0.08
0.05
-0.08
-0.09
0.07
-0.09
-0.09
0.09
-0.1
-0.1
0.1
-0.1
-0.1
0.1
-0.1
-0.1
0.1
-0.1
-0.1
0.1
-0.1
-0.1
0.1
-0.1
0.1
-0.2
0.1
-0.2
0.09
-0.2
0.08
-0.2
0.06
-0.2
0.04
-0.2
0.02
-0.2
-0.01
-0.2
-0.03
-0.2
-0.06
-0.2
-0.09
-0.2
-0.1
-0.2
-0.1
-0.2
-0.2
-0.2
-0.2
-0.2
-0.2
-0.2
-0.2
-0.2
-0.2
-0.3
-0.2
-0.3
-0.3
-0.2
-0.3
-0.3
-0.2
-0.3
-0.3
-0.2
-0.3
-0.3
-0.2
-0.3
-0.2
-0.4
-0.2
-0.4
-0.2
-0.4
-0.2
-0.4
-0.2
-0.4
-0.2
-0.4
-0.2
-0.4
-0.2
-0.4
-0.2
-0.4
-0.3
-0.4
-0.3
-0.3
-0.4
-0.3
-0.3
-0.4
-0.3
-0.3
-0.4
-0.3
-0.3
-0.4
-0.3
-0.3
-0.4
-0.3
-0.3
-0.4
-0.3
-0.3
-0.4
-0.3
-0.4
-0.3
-0.4
-0.4
-0.4
-0.4
-0.4
-0.4
-0.4
-0.4
-0.4
-0.4
-0.4
-0.4
SCALARS strain_1 float
LOOKUP_TABLE default
-0.649610
-0.425567
0.405161
-1.652519
1.481746
-2.606535
2.613355
-3.502386
3.776826
-4.394532
5.000217
-5.212169
6.267666
-5.996099
7.562074
-6.719963
8.911051
-7.426757
10.297246
-8.061559
11.708955
-8.654190
13.160322
-9.231269
14.655494
-9.747660
16.187635
-10.239038
17.761352
-10.685633
19.349086
-11.085296
20.994734
-11.447584
22.648743
-11.762983
24.336501
-12.048622
26.049188
-12.284999
27.799726
-12.501953
29.565889
-12.692655
31.344233
-12.831524
33.156463
-12.934216
34.977667
-13.027647
36.845151
-13.066162
38.706187
-13.076206
40.540944
-13.059013
42.408006
-13.034659
44.320768
-12.954116
46.200121
-12.875535
48.108507
-12.766020
49.996595
51.887773
-12.616544
53.764437
-12.454545
55.656823
-12.295410
57.513871
-12.103564
59.385591
-11.882464
61.241684
-11.643906
63.065249
-11.406971
64.858466
-11.159766
66.657153
-10.875970
68.410016
-10.586651
70.140191
-10.286752
71.858625
-9.998764
73.534233
-9.670038
75.154562
76.772252
-9.363603
-9.034352
78.346752
-8.714064
79.847739
-8.395744
81.346684
-8.049905
82.771533
-7.719098
84.167633
-7.365550
85.484382
-7.050107
86.770073
-6.708135
87.989259
-6.387539
89.163831
-6.067882
90.279590
-5.754108
91.323282
-5.429182
92.333914
-5.124693
93.251133
-4.819690
94.098317
-4.539650
94.916391
-4.256795
95.649189
-3.984908
96.307334
-3.724988
-3.457864
96.899103
-3.224821
97.444193
-2.996654
97.890781
-2.773420
98.262976
-2.573003
98.580253
-2.378879
98.821032
-2.214320
98.989686
-2.031301
99.086583
-1.873326
99.101203
-1.737575
99.064944
-1.617732
98.930137
-1.519750
98.726510
-1.392667
98.471565
-1.332744
98.139091
-1.271189
97.720276
-1.206884
97.247227
-1.167692
96.689641
-1.136152
96.087943
-1.136459
95.400817
-1.127439
94.650898
-1.163369
93.844228
-1.173749
92.977049
-1.223583
92.033462
-1.278785
91.042897
-1.355981
89.979672
-1.442838
88.880095
-1.521069
87.704292
-1.618113
86.506384
-1.736221
85.229667
-1.872528
83.924868
-2.004148
82.558447
-2.136042
81.167245
-2.307297
79.714278
-2.456507
78.238588
-2.621775
76.714184
-2.800503
75.160301
-2.989334
73.570747
-3.183435
71.944989
-3.379443
70.334935
-3.579139
68.661429
-3.785247
66.961028
-4.013960
65.236839
-4.219427
63.525914
-4.435632
61.782538
-4.642375
60.038150
-4.872434
58.266801
-5.077989
56.509193
-5.312327
54.724501
-5.527645
52.946330
-5.753019
51.170978
-5.977558
49.395700
-6.185149
47.624850
-6.403216
45.867132
-6.629358
44.100543
-6.827009
42.358704
-7.031106
40.627638
-7.224386
38.905588
-7.425666
37.188092
-7.631583
35.507580
-7.792357
33.844446
-7.965158
32.187663
-8.140739
30.564017
-8.275928
28.963005
-8.425927
27.386729
-8.560753
25.847390
-8.683842
24.329056
-8.809898
22.828996
-8.900600
21.382321
-8.982103
19.947961
-9.052708
18.556907
-9.134198
17.175634
-9.160162
15.857611
-9.184113
14.572013
-9.203864
13.298792
-9.171589
12.088185
-9.157868
10.891847
-9.115591
9.750007
-9.060645
8.620887
-8.977192
7.552788
-8.862306
6.497609
-8.745031
5.501697
-8.595143
4.524235
-8.435316
3.607698
-8.234577
2.707376
-7.984382
1.845946
-7.753093
1.034875
-7.483597
0.255082
-7.188087
-0.495392
-6.844363
-1.228053
-6.503915
-1.893102
-6.104743
-2.536224
-5.693958
-3.135690
-5.246431
-3.720320
-4.775558
-4.268396
0.613296
-1.461784
1.748058
-2.432877
2.867406
-3.330298
4.066095
-4.219006
5.318947
-5.063147
6.581803
-5.844403
7.882004
-6.590401
9.247610
-7.297475
10.637612
-7.937099
12.077407
-8.577649
13.549627
-9.136861
15.054312
-9.669227
16.610700
-10.147659
18.195115
-10.595879
19.789987
-10.999252
21.437747
-11.372708
23.118649
-11.702599
24.814573
-11.991655
26.549945
-12.229905
28.291782
-12.449857
30.062008
-12.640288
31.863315
-12.791517
33.673218
-12.898668
35.503638
-12.978877
37.336982
-13.028536
39.196164
-13.032782
41.053834
-13.023651
42.932891
-12.988999
44.810118
-12.933233
46.695263
-12.845439
48.558738
-12.721030
50.425884
-12.595438
52.326470
-12.436750
54.170351
-12.265991
56.030510
-12.076634
57.866623
-11.859950
59.704016
-11.627947
61.491648
-11.393904
63.285874
-11.125135
65.060516
-10.857111
66.787197
-10.571110
68.513233
-10.287183
70.187329
-9.985884
71.819872
-9.679458
73.441388
-9.377741
75.021507
-9.073723
76.536775
-8.737405
78.028641
-8.417953
79.478708
-8.100080
80.854242
-7.775270
82.192024
-7.462166
83.502762
-7.132745
84.727776
-6.810499
85.902655
-6.502120
87.037849
-6.180542
88.102532
-5.877823
89.092736
-5.589899
90.032078
-5.300231
90.898278
-5.005739
91.705662
-4.730884
92.458584
-4.486045
93.134969
-4.217541
93.713300
-3.967948
94.256243
-3.737563
94.705361
-3.525474
95.095527
-3.302240
95.397113
-3.103317
95.649119
-2.933178
95.810930
-2.743546
95.916923
-2.605322
95.932594
-2.438981
95.879107
-2.323694
95.745639
-2.210955
95.552155
-2.108388
95.284172
-2.028058
94.941360
-1.937305
94.520993
-1.888461
94.034925
-1.854482
93.490668
-1.831328
92.856399
-1.812690
92.145977
-1.793039
91.395923
-1.812737
90.575175
-1.839369
89.694153
-1.881070
88.752054
-1.936210
87.746130
-1.977280
86.676523
-2.072687
85.544880
-2.150251
84.393357
-2.256179
83.157205
-2.366875
81.879777
-2.487018
80.559057
-2.598628
79.207444
-2.757205
77.784559
-2.910044
76.315273
-3.060913
74.837792
-3.211802
73.302264
-3.384521
71.733255
-3.568389
70.159753
-3.762007
68.535531
-3.959332
66.885901
-4.149444
65.242816
-4.358023
63.540499
-4.563887
61.845302
-4.759796
60.115668
-4.961899
58.381295
-5.187369
56.644107
-5.398140
54.869584
-5.600401
53.122089
-5.829608
51.361306
-6.045495
49.601081
-6.261828
47.833533
-6.468347
46.067411
-6.671755
44.326069
-6.869634
42.579689
-7.080344
40.851631
-7.265854
39.131817
-7.472607
37.418263
-7.649618
35.755553
-7.819609
34.056238
-7.980202
32.406196
-8.172209
30.772403
-8.330950
29.164109
-8.467466
27.587834
-8.590564
26.040375
-8.738377
24.492136
-8.826970
23.010919
-8.950599
21.534698
-9.044101
20.096858
-9.085797
18.685383
-9.180188
17.318798
-9.207434
15.970680
-9.240305
14.658074
-9.244906
13.394889
-9.254953
12.157847
-9.225763
10.952800
-9.176426
9.805590
-9.128451
8.672965
-9.032998
7.574899
-8.924789
6.521624
-8.805992
5.513589
-8.669819
4.536866
-8.495999
3.597762
-8.305523
2.696264
-8.069386
1.849660
-7.833937
1.001296
-7.569180
0.193391
-7.248007
-0.536737
-6.931449
-1.265747
-6.574843
-1.954371
-6.177704
-2.596252
-5.776622
-3.221213
-5.334276
-4.836233
-3.790450
-4.343512
0.202281
-1.055795
1.091825
-2.041602
2.170989
-2.979918
3.347286
-3.873465
4.537831
-4.726362
5.777480
-5.531573
7.012471
8.029827
-6.378874
9.366727
8.713330
-7.015442
10.782103
10.132656
-7.694112
11.537675
12.262701
-8.308346
12.988171
13.748972
-8.786343
15.244911
14.474036
-9.450527
16.008835
16.805736
-9.969325
18.499902
17.563113
-10.412540
19.661033
-10.847798
21.232118
-11.227797
22.873647
-11.628212
24.562284
-11.877339
26.306679
-12.139849
28.027399
-12.373850
29.755363
-12.563829
31.228551
-12.733219
33.426918
-12.859929
35.244735
-12.960017
-13.022815
37.087923
-13.036253
-13.034266
38.932254
-13.064293
-13.052532
40.800645
-13.048976
-13.049214
-13.013479
-12.995013
43.095187
-12.971753
-12.915055
44.807465
-12.887339
-12.841334
46.717610
-12.779064
-12.709999
48.664001
-12.601146
51.145434
-12.435588
54.333442
-12.278172
55.850802
-12.077168
57.327060
-11.868020
59.522200
-11.651578
61.380782
-11.439474
63.182941
-11.133510
65.287629
-10.861148
66.784131
-10.585719
68.461997
-10.218842
70.147417
-10.007921
71.851110
-9.731518
73.493897
75.026616
76.238794
-9.196870
77.812115
77.029743
-8.756185
79.368128
78.558026
-8.418761
80.031866
80.787754
-8.095326
81.452375
82.212850
-7.811099
82.806166
83.519484
-7.420480
84.131294
84.862773
-7.085963
85.405788
86.206344
-6.758883
87.014374
-6.442923
88.100043
-6.120120
89.169597
-5.758451
90.185760
-5.512881
91.169947
-5.200887
92.045264
-4.930074
92.853891
-4.652126
93.528119
-4.362986
94.374580
-4.101679
95.018933
-3.863712
-3.652695
95.580033
-3.551178
-3.434612
96.060043
-3.322195
-3.197186
96.494286
-3.104873
-2.994035
96.919829
-2.894740
-2.789930
97.115247
-2.618510
-2.699919
97.291450
-2.534938
-2.435861
97.449624
-2.267481
-2.363572
97.506799
-2.149864
97.484749
-2.028257
97.415031
-1.917829
97.237455
-1.815382
97.009817
-1.714183
96.695192
-1.652065
96.312543
-1.588456
95.783148
-1.510156
95.337241
-1.503578
94.783186
-1.471524
94.108675
-1.467960
93.402362
-1.476347
92.633046
-1.507247
91.822701
91.247749
-1.508686
90.594996
90.160116
-1.581073
89.575915
89.133548
-1.653051
88.109171
88.533731
-1.724661
87.489350
86.944534
-1.770719
85.796733
86.362626
-1.890075
85.110745
84.505493
-2.001730
83.202053
83.831924
-2.108634
82.198453
-2.236499
80.879444
-2.380475
79.453701
-2.563979
78.007362
-2.697922
76.522892
-2.853594
75.004003
-3.031579
73.495022
-3.194120
72.177848
-3.368521
70.241177
-3.569785
68.586197
-3.763791
-3.898214
66.921200
-4.032589
-4.122226
65.248280
-4.245007
-4.333223
63.539584
-4.442350
-4.549162
61.431745
-4.647878
-4.743543
60.019644
-4.859887
-4.972278
58.316838
-5.091130
-5.201101
56.568870
-5.305614
-5.411661
54.857447
-5.578455
53.434823
-5.796648
50.910924
-6.004503
49.473604
-6.214143
48.072765
-6.440796
45.959462
-6.630246
44.217313
-6.814854
42.455495
-7.050897
40.355884
-7.262410
38.934361
-7.448017
37.300757
-7.654896
35.618082
-7.831537
33.945401
-7.951887
32.327550
-8.174385
30.765504
-8.275833
29.605303
28.693933
-8.479163
27.958579
27.084894
-8.587795
26.321314
25.562090
-8.703659
24.787798
24.065382
-8.805726
23.294781
22.578235
-8.925193
21.782583
21.054570
-8.999185
20.354772
19.705158
-9.085518
18.913056
-9.146871
17.858940
-9.176929
16.556310
-9.210765
15.255795
-9.222196
13.973046
-9.214186
12.735610
-9.196389
11.543950
-9.147753
10.373870
-9.093144
9.438723
-9.005816
8.092995
-8.903034
7.034529
-8.807643
-8.748616
5.998929
-8.682781
-8.582046
5.008595
-8.500638
-8.398572
4.057668
-8.314175
-8.228626
2.957358
-7.967611
-8.097450
2.238068
-7.860592
-7.730080
1.424539
-7.426132
-7.585371
0.630481
-7.289481
-0.038854
-7.037470
-0.886432
-6.713464
-1.575189
-6.343816
-2.257871
-5.948019
-2.871481
-5.524011
-3.451354
-5.069559
-4.653749
-4.019193
SCALARS strain_2 float
LOOKUP_TABLE default
0.290527
0.209737
-0.119880
0.683219
-0.584846
1.044282
-1.062847
1.400815
-1.564637
1.742557
-2.082127
2.027493
-2.644850
2.311543
-3.210293
2.582981
-3.807276
2.825936
-4.463834
3.035773
-5.129187
3.223722
-5.809405
3.404920
-6.530837
3.568140
-7.261234
3.697036
-8.049383
3.835054
-8.843538
3.923623
-9.666827
4.014759
-10.509242
4.104799
-11.402245
4.150287
-12.304302
4.218630
-13.221228
4.256139
-14.178639
4.261584
-15.162332
4.291638
-16.160800
4.281861
-17.151795
4.279650
-18.218272
4.263510
-19.303824
4.219814
-20.363709
4.194705
-21.476764
4.158189
-22.586794
4.091976
-23.716483
4.041012
-24.864790
3.982391
-26.033392
-27.206368
3.906827
-28.401740
3.825616
-29.591391
3.743886
-30.796273
3.654834
-32.005845
3.566306
-33.210300
3.489822
-34.442543
3.378041
-35.645657
3.288624
-36.868883
3.192064
-38.082894
3.097916
-39.286158
3.005258
-40.512326
2.909707
-41.713459
2.778371
-42.900289
-44.081754
2.689884
2.581548
-45.229998
2.491714
-46.391100
2.382119
-47.524968
2.276721
-48.619840
2.166298
-49.729850
2.067741
-50.779251
1.975966
-51.839521
1.881983
-52.840793
1.787058
-53.840844
1.701978
-54.797890
1.603358
-55.737494
1.514182
-56.621513
1.438433
-57.491400
1.363692
-58.289237
1.269762
-59.085495
1.205026
-59.826931
1.135637
-60.531502
1.048421
0.975704
-61.196257
0.917263
-61.791092
0.833614
-62.366477
0.802691
-62.899410
0.739822
-63.372260
0.682182
-63.779078
0.646194
-64.175265
0.598709
-64.491131
0.544164
-64.767182
0.516828
-64.993077
0.482798
-65.161439
0.446299
-65.291499
0.424232
-65.348768
0.418605
-65.352215
0.386015
-65.332578
0.367564
-65.234817
0.377436
-65.086499
0.353970
-64.893152
0.383614
-64.624203
0.358046
-64.338436
0.376697
-63.969635
0.377852
-63.575584
0.414057
-63.113283
0.422166
-62.586793
0.455422
-62.043436
0.479512
-61.438234
0.517893
-60.784062
0.553075
-60.082563
0.610502
-59.343458
0.656781
-58.555219
0.711508
-57.723883
0.766703
-56.863101
0.830687
-55.939083
0.915532
-55.008457
0.961933
-54.033051
1.046637
-52.987919
1.138447
-51.972604
1.214957
-50.890393
1.310156
-49.776122
1.408495
-48.631955
1.522457
-47.466381
1.622587
-46.307922
1.710149
-45.105752
1.842571
-43.880335
1.955707
-42.660436
2.073792
-41.400599
2.202973
-40.132265
2.323771
-38.843436
2.465794
-37.582876
2.596102
-36.286597
2.723094
-34.976039
2.875832
-33.696834
3.009482
-32.385683
3.147034
-31.121677
3.314921
-29.799780
3.439688
-28.534461
3.599779
-27.239504
3.745666
-25.974191
3.908896
-24.703344
4.049473
-23.473059
4.191121
-22.227397
4.352927
-21.002212
4.516621
-19.801164
4.639767
-18.633711
4.790288
-17.459577
4.922318
-16.327059
5.065706
-15.202199
5.189223
-14.110609
5.325383
-13.037361
5.420251
-11.997837
5.556655
-10.990039
5.648423
-9.984435
5.750297
-9.027867
5.830081
-8.087364
5.900990
-7.194630
5.977716
-6.306219
6.049536
-5.476306
6.069375
-4.666784
6.107819
-3.877651
6.123885
-3.116229
6.120503
-2.403016
6.108721
-1.711132
6.068509
-1.045959
6.020661
-0.439467
5.961292
0.138618
5.872600
0.703679
5.769021
1.250102
5.650065
1.738092
5.495999
2.213305
5.318774
2.641795
5.140639
3.055802
4.904718
3.435529
4.666951
3.779990
4.417806
4.102126
-0.236935
0.619807
-0.688692
1.005474
-1.165057
1.369414
-1.672145
1.684273
-2.222843
1.993032
-2.783960
2.286392
-3.365728
2.545568
-3.989600
2.776886
-4.629689
3.029186
-5.315270
3.210673
-6.029944
3.391894
-6.752238
3.555049
-7.512861
3.706721
-8.308618
3.829598
-9.101903
3.950770
-9.942466
4.033873
-10.791246
4.121398
-11.695552
4.182596
-12.620453
4.238243
-13.567626
4.275897
-14.530171
4.298481
-15.511496
4.310443
-16.515221
4.315436
-17.561557
4.304450
-18.599456
4.294607
-19.671835
4.249788
-20.777452
4.208344
-21.873773
4.169833
-22.999574
4.128386
-24.145801
4.073314
-25.303357
4.013918
-26.448984
3.933609
-27.645649
3.866378
-28.813699
3.773162
-30.015113
3.703822
-31.219331
3.612238
-32.401620
3.540435
-33.596138
3.415238
-34.812842
3.335780
-36.004304
3.228374
-37.201233
3.128720
-38.408201
3.023657
-39.595638
2.939120
-40.771980
2.838265
-41.948447
2.727983
-43.096632
2.634197
-44.230908
2.525925
-45.361475
2.432040
-46.475796
2.330636
-47.551866
2.240779
-48.612070
2.136899
-49.667596
2.039049
-50.678075
1.934090
-51.646870
1.857010
-52.611770
1.755586
-53.517046
1.686024
-54.412204
1.602005
-55.266651
1.503582
-56.068859
1.434767
-56.858548
1.345545
-57.591971
1.283386
-58.292959
1.210951
-58.945854
1.138090
-59.553998
1.072650
-60.121221
1.007606
-60.625752
0.975271
-61.103159
0.910980
-61.536532
0.858756
-61.897231
0.819131
-62.197174
0.781449
-62.477546
0.725990
-62.677003
0.698706
-62.862851
0.664263
-62.974988
0.638096
-63.019686
0.639081
-63.021284
0.604526
-62.974864
0.602380
-62.876669
0.574825
-62.706877
0.593003
-62.497641
0.582729
-62.220830
0.574107
-61.908837
0.583083
-61.532068
0.602133
-61.122927
0.617903
-60.640346
0.643887
-60.122842
0.658433
-59.542254
0.696251
-58.938087
0.737399
-58.260705
0.773883
-57.536687
0.834102
-56.784500
0.890997
-55.990173
0.923893
-55.146349
0.999028
-54.271496
1.064677
-53.341675
1.127772
-52.383635
1.209841
-51.398317
1.283128
-50.361243
1.377472
-49.317035
1.467557
-48.236086
1.555880
-47.101740
1.650562
-45.968418
1.775337
-44.797713
1.869469
-43.629376
1.984069
-42.419917
2.107706
-41.206624
2.225319
-39.982638
2.345973
-38.740080
2.468288
-37.483279
2.601597
-36.204401
2.726400
-34.945637
2.880137
-33.658837
2.992016
-32.371077
3.155409
-31.085721
3.301986
-29.824475
3.426198
-28.540164
3.582785
-27.266435
3.725669
-26.009624
3.895675
-24.758679
4.023488
-23.512345
4.169242
-22.265961
4.316622
-21.072451
4.458824
-19.874928
4.615931
-18.678220
4.744753
-17.538467
4.883682
-16.387776
5.025459
-15.262713
5.145935
-14.164264
5.272251
-13.084328
5.387372
-12.043877
5.517442
-11.030694
5.624183
-10.042790
5.716893
-9.063299
5.818332
-8.106633
5.877027
-7.204477
5.938399
-6.329250
6.008371
-5.486070
6.056213
-4.663925
6.078770
-3.888196
6.118823
-3.141779
6.117042
-2.406842
6.109615
-1.702436
6.076775
-1.080540
6.023671
-0.442288
5.974524
0.157412
5.883670
0.714156
5.776296
1.259194
5.665363
1.739317
5.515235
2.235559
5.333025
2.663458
5.152689
3.062301
4.914888
3.443819
4.687058
4.408884
3.806293
4.121637
-0.057432
0.455708
-0.411188
0.831360
-0.877257
1.199254
-1.354272
1.568679
-1.871559
1.872944
-2.412651
2.165537
-2.965078
-3.427259
2.473373
-4.039384
-3.747378
2.688043
-4.700626
-4.384019
2.919718
-5.054947
-5.369561
3.113038
-5.735581
-6.109473
3.265050
-6.826188
-6.446446
3.492877
-7.207387
-7.585369
3.648030
-8.428122
-7.966290
3.760516
-9.021125
3.893789
-9.801425
3.985639
-10.669150
4.082218
-11.538977
4.148554
-12.448546
4.204364
-13.385904
4.238908
-14.305587
4.272997
-15.123069
4.292446
-16.340765
4.308260
-17.364583
4.297787
4.291263
-18.403327
4.284240
4.277630
-19.480190
4.240031
4.244304
-20.566819
4.198245
4.214902
4.170822
4.156210
-21.920926
4.122769
4.085582
-22.948609
4.061933
4.041834
-24.092640
4.013050
3.947459
-25.286016
3.918715
-26.807975
3.854346
-28.839924
3.769700
-29.789304
3.680312
-30.755345
3.590527
-32.210925
3.510216
-33.419550
3.420957
-34.625946
3.303047
-36.061892
3.212549
-37.073391
3.120069
-38.252159
2.995778
-39.436121
2.912381
-40.629181
2.833734
-41.816649
-42.927127
-43.836968
2.641960
-45.018188
-44.448149
2.525012
-46.182408
-45.595670
2.416338
-46.707089
-47.277781
2.321804
-47.808903
-48.385362
2.218429
-48.862168
-49.444140
2.115727
-49.923167
-50.501066
1.998093
-50.957189
-51.617976
1.917814
-52.291623
1.817529
-53.225511
1.727100
-54.148861
1.635225
-55.050574
1.558301
-55.914967
1.479933
-56.758906
1.391377
-57.540348
1.317617
-58.173428
1.234124
-59.055836
1.154200
-59.713939
1.090737
1.047089
-60.354888
1.013486
0.992239
-60.949344
0.952272
0.905308
-61.491871
0.898380
0.860193
-62.109119
0.833370
0.808744
-62.455130
0.758269
0.787522
-62.838966
0.748715
0.706749
-63.178611
0.669476
0.687260
-63.425498
0.655938
-63.726985
0.602884
-63.922253
0.583935
-64.051398
0.542488
-64.149514
0.517018
-64.184573
0.499423
-64.157476
0.489647
-64.064550
0.463384
-63.950115
0.479813
-63.779607
0.473563
-63.548794
0.472859
-63.269761
0.474573
-62.949905
0.484628
-62.571663
-62.327498
0.500033
-61.960260
-61.737499
0.520304
-61.440290
-61.232504
0.542858
-60.677541
-60.913675
0.576828
-60.328634
-60.026529
0.599449
-59.378168
-59.701419
0.658693
-58.971377
-58.652149
0.684038
-57.852559
-58.214394
0.718488
-57.224492
0.796777
-56.442119
0.858157
-55.554645
0.918263
-54.625972
0.977190
-53.668780
1.061353
-52.699042
1.129418
-51.719359
1.218026
-50.836323
1.295860
-49.545141
1.384801
-48.425609
1.479543
1.537812
-47.301529
1.619085
1.657790
-46.132052
1.703428
1.768985
-44.963797
1.836689
1.868586
-43.511075
1.944244
2.003099
-42.509473
2.053694
2.101662
-41.288109
2.182917
2.237251
-40.056818
2.300184
2.375416
-38.830664
2.466325
-37.801888
2.605300
-35.999675
2.740346
-34.962926
2.864631
-33.925667
3.001417
-32.393188
3.162534
-31.108714
3.256150
-29.809076
3.439497
-28.246475
3.597359
-27.205443
3.751283
-25.967875
3.930367
-24.729520
4.054940
-23.478065
4.188631
-22.266714
4.357799
-21.107329
4.451134
-20.241480
-19.543214
4.650981
-19.014115
-18.343626
4.762214
-17.784081
-17.202545
4.919183
-16.635967
-16.083538
5.009991
-15.506129
-14.975533
5.170654
-14.372425
-13.854277
5.315469
-13.301349
-12.808727
5.413167
-12.246356
5.528964
-11.438020
5.641918
-10.500435
5.747411
-9.530712
5.813963
-8.566899
5.901806
-7.650453
5.969954
-6.773003
6.017545
-5.932669
6.068570
-5.217886
6.107265
-4.249725
6.109500
-3.492836
6.112666
6.122316
-2.765812
6.113814
6.102840
-2.047614
6.083628
6.069566
-1.389043
6.053809
6.003479
-0.607181
5.954361
5.981150
-0.118898
5.900500
5.857940
0.442397
5.744580
5.800919
0.969581
5.669756
1.418521
5.572488
1.971500
5.418760
2.436701
5.227724
2.844559
5.030355
3.251910
4.799289
3.620131
4.553043
4.339988
3.945734
SCALARS strain_3 float
LOOKUP_TABLE default
2.396244
1.531549
-1.619214
6.245306
-5.791781
9.930832
-10.123850
13.456835
-14.611598
16.809475
-19.256341
20.002144
-24.039127
23.019179
-28.975175
25.876781
-34.051033
28.562443
-39.259698
31.082621
-44.605661
33.438585
-50.087551
35.628125
-55.685070
37.651672
-61.400013
39.518951
-67.227726
41.225660
-73.165730
42.776752
-79.198010
44.171442
-85.321990
45.411668
-91.538225
46.501755
-97.838174
47.448761
-104.205070
48.253111
-110.635962
48.917701
-117.123863
49.448346
-123.659118
49.844029
-130.242664
50.107499
-136.854967
50.257535
-143.485617
50.285522
-150.140222
50.199245
-156.799840
50.005981
-163.455667
49.704949
-170.099625
49.305742
-176.729508
48.813933
-183.325395
-189.883740
48.226804
-196.404270
47.559917
-202.860009
46.812404
-209.253625
45.990415
-215.574744
45.099792
-221.810763
44.146201
-227.955466
43.129975
-234.008218
42.068267
-239.938260
40.950182
-245.759009
39.799097
-251.452023
38.607283
-257.003022
37.379584
-262.420669
36.127425
-267.677849
-272.778721
34.856386
33.565204
-277.711939
32.261168
-282.470890
30.945571
-287.048396
29.630453
-291.442855
28.313210
-295.638283
27.004164
-299.636394
25.705970
-303.427908
24.413827
-307.003927
23.142476
-310.362375
21.891250
-313.502660
20.664765
-316.412332
19.467978
-319.099703
18.298891
-321.541453
17.153689
-323.754086
16.053440
-325.729925
14.985908
-327.450042
13.961537
-328.934978
12.980911
12.040439
-330.168385
11.152441
-331.160409
10.303184
-331.903002
9.507792
-332.393502
8.756582
-332.639854
8.056109
-332.627558
7.411831
-332.380671
6.812114
-331.881769
6.263779
-331.136842
5.772508
-330.155683
5.326457
-328.931480
4.931317
-327.468638
4.591214
-325.777446
4.301227
-323.857080
4.057074
-321.712430
3.864449
-319.341823
3.713078
-316.756020
3.610006
-313.965562
3.554373
-310.963014
3.538943
-307.770141
3.568810
-304.373541
3.635174
-300.791936
3.742894
-297.031433
3.886693
-293.095994
4.068518
-288.997962
4.279299
-284.738596
4.526234
-280.326965
4.799162
-275.770427
5.100270
-271.078669
5.429168
-266.260856
5.779014
-261.321080
6.152842
-256.266916
6.548448
-251.112088
6.965553
-245.856255
7.391348
-240.514976
7.830701
-235.095481
8.288350
-229.604289
8.748551
-224.056691
9.220571
-218.446385
9.703920
-212.796243
10.190279
-207.103971
10.677695
-201.388180
11.172137
-195.648531
11.659815
-189.894590
12.147680
-184.140055
12.637802
-178.383884
13.118475
-172.635394
13.593337
-166.904396
14.064243
-161.191550
14.522639
-155.516666
14.977794
-149.879665
15.418984
-144.279117
15.840715
-138.733138
16.257516
-133.237250
16.656941
-127.808704
17.040713
-122.442311
17.409071
-117.147747
17.758501
-111.931049
18.087163
-106.796159
18.394596
-101.742904
18.685317
-96.785828
18.955680
-91.915117
19.198361
-87.146899
19.417538
-82.480627
19.610653
-77.912549
19.778462
-73.453328
19.914506
-69.097275
20.026250
-64.853108
20.104433
-60.723192
20.153348
-56.703160
20.167754
-52.803216
20.151591
-49.011537
20.091677
-45.336239
19.997820
-41.782366
19.871249
-38.343862
19.696858
-35.017583
19.483334
-31.811529
19.219736
-28.723402
18.914482
-25.747780
18.559692
-22.889559
18.158065
-20.140126
17.701202
-17.506245
17.192191
-14.983186
16.622748
-12.569159
15.996815
-10.260924
15.308934
-8.058984
14.562060
-5.963288
13.744626
-3.967746
12.859847
-2.066312
11.903844
-0.272080
10.876410
1.426874
9.775381
3.036251
8.594435
4.560522
7.328239
5.985390
-2.523685
5.426046
-6.741711
9.148391
-11.115890
12.706746
-15.650578
16.102163
-20.334512
19.328607
-25.164234
22.379831
-30.141540
25.268599
-35.262376
27.985842
-40.516700
30.531873
-45.908612
32.914475
-51.425648
35.127987
-57.053592
37.173581
-62.802207
39.059754
-68.666926
40.784274
-74.628917
42.344409
-80.685614
43.755364
-86.834518
45.008815
-93.065996
46.114702
-99.367409
47.065788
-105.741555
47.877036
-112.171687
48.547435
-118.653013
49.078262
-125.175006
49.481081
-131.725807
49.751936
-138.307972
49.901768
-144.906941
49.935908
-151.508411
49.849288
-158.111035
49.655049
-164.703188
49.360347
-171.269847
48.958185
-177.805375
48.466443
-184.312924
47.886548
-190.765143
47.222976
-197.160315
46.484340
-203.484621
45.667805
-209.734642
44.782694
-215.899258
43.835566
-221.967111
42.835514
-227.926095
41.782864
-233.777303
40.685006
-239.508781
39.551532
-245.103661
38.374972
-250.559126
37.175891
-255.872265
35.942412
-261.018510
34.694393
-266.005701
33.435685
-270.824659
32.158331
-275.454640
30.883265
-279.901884
29.605662
-284.153549
28.331483
-288.207590
27.063973
-292.053738
25.804919
-295.681876
24.564057
-299.102267
23.342305
-302.296719
22.142693
-305.257425
20.974323
-307.991613
19.823841
-310.490725
18.717956
-312.748683
17.638660
-314.760621
16.603987
-316.530078
15.600338
-318.053661
14.645254
-319.325390
13.730650
-320.350411
12.865024
-321.119234
12.041394
-321.639180
11.268386
-321.906865
10.541925
-321.923882
9.867731
-321.688308
9.239171
-321.202721
8.666700
-320.474462
8.141993
-319.504664
7.666110
-318.281017
7.244876
-316.827229
6.875107
-315.129157
6.548686
-313.213321
6.278542
-311.060087
6.052438
-308.682188
5.874374
-306.095886
5.741991
-303.292912
5.656494
-300.278770
5.611869
-297.066337
5.614203
-293.660262
5.653336
-290.068148
5.733279
-286.295648
5.846674
-282.347304
5.999973
-278.234877
6.187302
-273.963902
6.402527
-269.542086
6.651379
-264.977654
6.931508
-260.276141
7.231316
-255.449656
7.553702
-250.508012
7.904997
-245.452334
8.273479
-240.299507
8.660711
-235.047993
9.059370
-229.715280
9.476517
-224.308388
9.907247
-218.840283
10.346931
-213.303445
10.794325
-207.722951
11.248079
-202.108100
11.712959
-196.454923
12.168691
-190.779073
12.636745
-185.084869
13.100412
-179.384689
13.565033
-173.685268
14.018670
-167.986181
14.473638
-162.313004
14.924069
-156.653552
15.360953
-151.032295
15.791467
-145.436088
16.210880
-139.891212
16.620150
-134.392484
17.014649
-128.952745
17.395619
-123.569115
17.762684
-118.253860
18.107674
-113.011168
18.432193
-107.843057
18.747602
-102.759567
19.039507
-97.760411
19.307543
-92.857942
19.548928
-88.048433
19.772580
-83.331190
19.971549
-78.723342
20.138166
-74.216043
20.285881
-69.814823
20.390655
-65.520583
20.476929
-61.341790
20.531402
-57.273745
20.548602
-53.322348
20.527953
-49.486302
20.475564
-45.761261
20.383276
-42.154094
20.253681
-38.675122
20.085956
-35.303259
19.871823
-32.056747
19.611049
-28.921217
19.308092
-25.907234
18.949393
-23.006157
18.545019
-20.216817
18.086550
-17.542192
17.576216
-14.983415
17.005157
-12.538335
16.375573
-10.192476
15.684466
-7.963828
14.928677
-5.841068
14.105082
-3.815581
13.215056
-1.901198
12.248738
-0.076731
11.206650
1.647665
10.094081
3.280117
8.903496
7.623092
4.814230
6.259386
-0.850535
3.920600
-4.294094
7.712088
-8.447937
11.328101
-12.851796
14.787385
-17.435026
18.079182
-22.136985
21.198316
-26.821780
-30.683998
24.443451
-35.808084
-33.260694
26.988160
-41.104284
-38.617070
29.554311
-43.881190
-46.624002
31.926810
-49.427671
-52.245280
33.831580
-57.826272
-54.897818
36.413861
-60.645766
-63.645528
38.372507
-69.957083
-66.424082
40.165472
-74.230535
41.797725
-79.985876
43.278380
-86.080947
44.855013
-92.289114
45.812160
-98.590419
46.806368
-104.912718
47.676299
-111.147287
48.413465
-116.519551
49.010002
-124.431140
49.475845
-130.974737
49.811658
49.972736
-137.574733
50.106016
50.053233
-144.188639
50.098039
50.110076
-150.813407
49.989702
50.060809
49.887898
49.769650
-158.905098
49.615192
49.448160
-164.975601
49.252640
49.009944
-171.666895
48.774031
48.458093
-178.447510
48.021274
-187.037949
47.378838
-198.047228
46.648248
-203.160824
45.826465
-208.241403
44.948527
-215.736142
44.031377
-221.894990
43.200260
-227.952596
41.931787
-234.996305
40.823270
-239.889100
39.677696
-245.435635
38.235773
-250.982424
37.279021
-256.422715
36.290157
-261.726474
-266.612504
-270.528062
34.052794
-275.397480
-273.003171
32.387202
-280.266460
-277.764854
31.032405
-282.373178
-284.618887
29.748531
-286.675782
-288.983061
28.593513
-290.779268
-292.937481
27.030580
-294.766647
-296.917735
25.755993
-298.513748
-300.953313
24.489249
-303.218986
23.245336
-306.298149
22.022608
-309.305184
20.584924
-312.121314
19.613076
-314.728389
18.504418
-317.060727
17.396427
-319.112572
16.331190
-320.703484
15.290594
-322.722628
14.316820
-324.101952
13.402622
12.666595
-325.230830
12.245162
11.809709
-326.119256
11.397049
10.938535
-326.740044
10.572487
10.193894
-327.249043
9.823035
9.438853
-327.232060
8.785110
9.148753
-327.098863
8.517725
8.165755
-326.798661
7.530354
7.912314
-326.294298
7.185061
-325.299695
6.724568
-324.200478
6.300429
-322.856615
5.906897
-321.283617
5.594537
-319.476642
5.320627
-317.436807
5.114330
-314.723986
4.882166
-312.586923
4.741210
-310.014190
4.646940
-307.071535
4.592497
-304.006846
4.589069
-300.774538
4.622856
-297.435840
-295.047793
4.693038
-292.512862
-290.740626
4.812320
-288.518201
-286.710338
4.953798
-282.708147
-284.508560
5.133784
-280.402994
-278.297525
5.295465
-273.952294
-276.085217
5.603854
-271.405953
-269.213452
5.876743
-264.302183
-266.709461
6.178747
-260.685777
6.508732
-255.924298
6.858289
-250.803798
7.311689
-245.657774
7.636173
-240.435446
8.035691
-235.092184
8.450835
-229.831785
8.890284
-225.300337
9.322355
-218.645492
9.789424
-213.054133
10.221767
10.530850
-207.415233
10.853552
11.061338
-201.743867
11.342841
11.550832
-196.048483
11.811803
12.010273
-189.140784
12.273228
12.496796
-184.417848
12.740702
12.961321
-178.840835
13.238514
13.457201
-173.167616
13.705196
13.913211
-167.611520
14.284868
-163.013582
14.721279
-154.944656
15.166873
-150.409724
15.603131
-145.954040
16.024752
-139.302289
16.429415
-133.804430
16.761075
-128.365095
17.218507
-121.832068
17.582165
-117.483464
17.931008
-112.416121
18.327420
-107.301275
18.572423
-102.243198
18.808500
-97.326513
19.172683
-92.661585
19.334410
-89.221357
-86.452206
19.635129
-84.286745
-81.707425
19.797204
-79.441400
-77.203708
19.957652
-74.954318
-72.791707
20.069575
-70.553100
-68.492754
20.209200
-66.132617
-64.083486
20.289022
-62.011219
-60.068039
20.345892
-57.792620
20.359422
-54.806238
20.340874
-51.095429
20.271179
-47.376586
20.188100
-43.740513
20.062009
-40.227540
19.892640
-36.848540
19.673670
-33.644685
19.419178
-31.005241
19.107584
-27.307513
18.770671
-24.373368
18.483214
18.251233
-21.546412
18.026664
17.775956
-18.837309
17.515359
17.233818
-16.241090
16.961729
16.670503
-13.249842
16.020659
16.345372
-11.295540
15.660100
15.310517
-9.097776
14.531181
14.930374
-6.991681
14.068902
-5.170598
13.440062
-2.922518
12.556614
-1.064736
11.568636
0.684853
10.499246
2.352757
9.358074
3.933339
8.165156
7.079570
5.417088
SCALARS stress_1 float
LOOKUP_TABLE default
-26709809.700942
-17750443.352415
17356430.049153
-69007906.258934
63468934.243540
-109465571.858281
111431552.274482
-148017558.545675
161425575.655959
-184877519.087284
213082042.312948
-219373878.828682
266581548.964926
-251802617.283847
321645533.583559
-282925963.172259
378627031.636136
-311802988.680682
437452077.720419
-339277757.855808
498137631.929790
-364270366.931095
560077164.189226
-387370927.953234
623549371.844298
-409276913.108992
688783800.240579
-429358605.912349
755648563.882448
-447395195.082781
823636826.283883
-463552079.554866
893124199.201454
-478248406.889275
964045434.681852
-491386161.132700
1035950226.743434
-502852094.518599
1109198125.217794
-512802837.888165
1183428444.702694
-521232046.222665
1258870442.497013
-527746876.241579
1334638857.151822
-533299362.253389
1411781654.545406
-537095947.772073
1489602480.649430
-540064379.152806
1568042686.547677
-541336389.068374
1647020724.959624
-541291351.294548
1726535087.595148
-540314865.924710
1806724919.753129
-537974519.267343
1886835743.937947
-534771582.257023
1966924785.448481
-530240669.828327
2047662279.994608
-524989955.663644
2127860065.501305
2208352421.052351
-518405412.482449
2288344197.198818
-511505796.808325
2368022708.398392
-503300164.687964
2447084037.155453
-494397062.523229
2526026793.927686
-485149932.529222
2604342549.266163
-474848612.481711
2681669262.207973
-464469221.268582
2758047570.678092
-452891708.618915
2833557394.965799
-441190700.794499
2907927788.949379
-428729272.150509
2981206396.338707
-416296023.743238
3052884211.591471
-403375927.086665
3123442359.623044
-389881530.657679
3192053533.106214
3259517853.535756
-376731609.344168
-362797632.828517
3325089154.117169
-349145831.998612
3388667910.607021
-335533107.331343
3450383313.995711
-321256709.135191
3510259126.787617
-307277270.466451
3567662768.645923
-293261173.054200
3623518139.233815
-279611502.534135
3676300221.635075
-266100848.588644
3727105354.260697
-252575240.853422
3775472582.026056
-239200773.057548
3821228686.716053
-226266046.210623
3864691156.619968
-213527062.621131
3905186654.774890
-200863806.139865
3942869524.264601
-188466167.028617
3978057372.079501
-176869285.764276
4010157883.088271
-165419479.982538
4039277146.543100
-154472360.954795
4065935976.471478
-143766564.148336
-133805360.208458
4089117870.078903
-124007811.929662
4109779003.607962
-114884771.835531
4126680588.721839
-106020040.888975
4141516488.410935
-98013600.772379
4152491061.712339
-90409071.915944
4160592761.448042
-83364474.749867
4165648860.823542
-76898362.330441
4167696845.866327
-70774556.246670
4166531221.781897
-65299515.769946
4162362201.392240
-60637979.068678
4154606271.687757
-56293097.993659
4144351375.705537
-52102913.554492
4130997125.015382
-49216474.807469
4114393487.813190
-46701486.715500
4095375353.304455
-44569208.503285
4072612143.516670
-42910735.012019
4047356251.608639
-41614852.214212
4019596418.355662
-41190158.904367
3988356202.794829
-41368894.886586
3954682011.869848
-41907672.591070
3918449084.571116
-42865428.980726
3879769245.047840
-44194893.065157
3838068155.131611
-46029916.022372
3794063355.551037
-48461304.646872
3747704304.717114
-51623604.911169
3699054369.573550
-54829383.609765
3648012873.690145
-58007691.920669
3595175460.636702
-62266042.806791
3539958532.730833
-66672429.277732
3483253425.009628
-71556327.670308
3424270756.949506
-76502233.741930
3363812649.755965
-81707450.287100
3301343064.783708
-87421211.278330
3237344550.565446
-93496467.463431
3171838327.829787
-99345885.973720
3105519038.941035
-105700435.818798
3037663127.422301
-112413965.914883
2968359231.011794
-119381573.224886
2898628485.858718
-126064585.459527
2827371401.654592
-133226044.833904
2755642865.389814
-140499514.432645
2683162095.335306
-147665199.844753
2610107637.855371
-154970165.986446
2536411991.267622
-162801233.194541
2462491269.936362
-170209925.805851
2388130228.132513
-177680385.315999
2313867368.799782
-185214492.734586
2239045569.629687
-192666012.305043
2164792666.145338
-199994678.821874
2090165307.458850
-207473522.790300
2016201911.887835
-214873083.537537
1942196696.544408
-222269292.148209
1868646712.951680
-229671442.164629
1795649197.595670
-236310993.876922
1723234749.420085
-243310861.406803
1651376742.069752
-250107796.464993
1580032741.282881
-256235177.126516
1509692013.330392
-262792324.354282
1440500743.324400
-269108019.597222
1371735493.489134
-274888452.397648
1304255237.609496
-280109860.251181
1237877413.283619
-285510624.700134
1172405124.464814
-290419527.193438
1108482590.629498
-294944368.647311
1045560575.058193
-299224735.136776
983899256.068513
-303106486.951959
923595378.725880
-306393134.793978
864655576.095718
-309224756.158454
807274693.869545
-311863613.746506
751214587.953977
-313885231.848260
696620172.573243
-315395733.744235
643270179.054559
-316199816.350652
591744189.042750
-316633385.695843
541795375.023836
-316901851.901523
493331862.689335
-315793324.416624
446492543.319769
-314061585.942264
400497329.933871
-312091897.880681
356746071.690446
-308902118.400284
314393552.356036
-305442265.482713
273849083.883951
-300958387.081277
234652558.713519
-295435319.439409
197089137.910163
-289281595.043128
161166640.754405
-282727403.388056
126384287.732265
-274879647.128620
93470014.656978
-266024876.919249
62022125.481852
-255917654.834966
32055563.973429
-245220956.782389
3791226.085018
-233132204.163755
-23320904.370148
-220224057.511778
-48961712.111546
-206037798.854789
-73025768.653155
-190818815.473311
-96045723.340549
-174493701.442369
-117825628.939896
-156619021.247983
-137874253.497888
27505165.917471
-60399258.205498
73696282.903041
-101204083.454639
122576656.370464
-140124043.772624
173172505.833720
-177061495.925622
225409374.469973
-212386435.474304
279345673.793204
-245631799.717552
335301061.148985
-276766176.216036
392816462.462291
-306346790.315330
452170778.452600
-333686869.576104
513667570.512176
-359352238.091741
576167337.145398
-383187908.628412
640187529.912936
-404851376.120692
706169211.898573
-424974085.334750
773383752.494572
-443442619.158473
842028132.420411
-460142950.358028
911994550.759872
-475166546.494089
983087551.699720
-488227467.033942
1055559494.277047
-499802491.584951
1129214515.930807
-509810971.035001
1203634214.539284
-518237876.944765
1279005785.859047
-525386686.033718
1355092034.609572
-530588399.451537
1432588755.341930
-534687165.917701
1509963027.186595
-537340480.366785
1588492395.395754
-538615641.107272
1667193091.146574
-539332915.653142
1746515555.737935
-538158854.985662
1826155380.253618
-535513216.787221
1905727015.244695
-532396085.823988
1985688805.963353
-528006815.152256
2065310444.166161
-522863347.753292
2144861045.609687
-516442463.141077
2224176363.546120
-509540954.371904
2303361385.685337
-501398117.632538
2381850541.952312
-492941529.932582
2459724650.804732
-483141134.299994
2537039344.578570
-473317316.996566
2613278120.526014
-462457218.545879
2689111705.777537
-451561330.461912
2763309792.043017
-440001122.473745
2836583490.359542
-427844587.684362
2908489212.483681
-415191012.934956
2979231148.293717
-402288903.375205
3048715999.863832
-389639241.892992
3116108555.913502
-376310309.544611
3181938517.264719
-362763112.059141
3245836921.842458
-349326312.277775
3307810368.683809
-335814442.724096
3368257774.657456
-322328755.921683
3426163009.688374
-308837466.711731
3482195241.972457
-295425155.571130
3535616378.014087
-282142736.808361
3586997366.681944
-269000080.059121
3635697639.013120
-256016721.220896
3681969842.091396
-243226411.134880
3725541843.579957
-230549686.904058
3766600178.469201
-218513497.005318
3804430431.095099
-206595434.448263
3840046528.448050
-195076975.756474
3872364838.770643
-184057899.191741
3902178884.520563
-173099598.773267
3928740211.145897
-162891270.015032
3952326448.478238
-152903212.095045
3973074572.760173
-143694243.321788
3990654328.187598
-134619076.704862
4004933541.218201
-126467211.468968
4016147204.047878
-118691545.922587
4024735888.339814
-111310751.823133
4029566522.289906
-104490634.852992
4031399572.309148
-98111382.236865
4030339246.640129
-92551706.984353
4025989956.852650
-87215762.151749
4018324839.189301
-82851392.169251
4008005768.014383
-78845789.999770
3994375095.570487
-75505211.540791
3977757926.053507
-72593681.755225
3957972849.248345
-69999088.447175
3935164050.556395
-68345701.252337
3909690300.341961
-67038774.769316
3880942814.800940
-66341639.213213
3849944000.970422
-66166758.388130
3816002578.952919
-66254276.051480
3779223451.785523
-67121965.838958
3739850007.038035
-68313363.507977
3698174987.654162
-70142137.488735
3653508384.624303
-72143631.538644
3606912090.723758
-74909059.246708
3557720588.270138
-77646372.417031
3506685253.506032
-80963575.386428
3452788516.122958
-85084427.959002
3397911468.896215
-89100719.677068
3340340102.816203
-93817842.344727
3281301455.574438
-98410691.719393
3220284843.992912
-103912357.969472
3157813488.557645
-108834879.646880
3093670635.249434
-114645726.293928
3028248025.806489
-120511601.668030
2961272375.705228
-126770258.778786
2893446315.936050
-133398833.290226
2824619730.022066
-139981414.211950
2754323216.860291
-146511605.880774
2683841937.609531
-153228281.212916
2611968516.372300
-160133033.171287
2539913691.512901
-167384000.887203
2467053108.722853
-174572397.856286
2393883819.525266
-181962943.882639
2320167273.078946
-188957945.041287
2246531304.860311
-196452820.463548
2172899238.345781
-203580811.112331
2099007946.694162
-210817375.062661
2025543304.176375
-217919531.492547
1952044389.736127
-225091707.682510
1878739308.485532
-232287937.558371
1805666275.274915
-239115615.241847
1733537011.263082
-246124824.976367
1661726467.347049
-252506151.724844
1590633797.797736
-259022959.777400
1519831951.101165
-265340394.003562
1450546778.733752
-271262253.151141
1381859302.433709
-276986856.884166
1313996763.173074
-282613610.744950
1247325919.942247
-287708660.808517
1181583476.554462
-292740459.364991
1116980255.953426
-297316197.162183
1053613494.625159
-302010534.443524
991743489.588392
-305366515.452448
930901127.786833
-309014754.936765
871814836.454312
-311890818.345404
813638873.908442
-314569450.594584
756789185.167955
-316714898.385424
701961022.718871
-318196818.540760
648562800.252708
-319154881.808402
595962174.834888
-319786713.057877
545821749.745935
-319675045.738114
496565915.836172
-318958771.129637
448923388.386121
-317475269.475877
403179531.835112
-315487294.898550
358595795.295259
-312543541.958701
316227303.159199
-308948707.619241
274819899.959643
-304398535.693401
235322502.135920
-299287547.097402
197455920.921862
-293156617.111766
161112389.429582
-286472232.344227
125914414.892912
-278359153.711006
92646870.377274
-269217433.651430
60768423.116500
-259514829.661121
30557025.017207
-248644676.347815
1962168.518722
-236827784.992034
-25270267.724526
-223785949.668803
-51469319.273208
-209535385.032550
-75692787.426206
-194173327.569294
-98777611.744191
-177610394.101871
-159788173.116301
-120454116.993331
-140722387.846415
8845008.875042
-43456665.222923
46847985.731146
-85529156.944338
92600743.865916
-125005672.697506
142127469.449439
-162854224.043100
192984913.928694
-198656205.485497
245584002.927208
-232568823.959274
297815492.037632
341420774.631689
-268024021.251408
398765543.947129
370207887.719817
-295260422.816524
458480097.011498
430560455.935421
-322900197.530031
490331318.035424
521327229.736582
-348497821.145250
552710654.899481
585042773.846929
-368830091.101820
648640440.164458
615491675.791445
-396571162.621029
680765870.860078
715150517.342650
-417303538.264046
787616689.678009
746966967.178797
-436268152.059041
836683615.948694
-453833813.351584
903278175.707219
-469445431.824065
973512494.643437
-486135756.109347
1045382800.918133
-496276157.094234
1118947123.189154
-506706220.011604
1192959393.435802
-515757632.083075
1265903741.871176
-523162377.339197
1328891669.135407
-529441352.531450
1422442833.177450
-533981136.326964
1499801552.286557
-537532853.175239
-538940101.336197
1578183202.209365
-540267211.479210
-539953816.547977
1657087164.785948
-540062937.399416
-540169792.287127
1736242205.847898
-538799958.744955
-539329614.095125
-537538042.590908
-536123524.514769
1833926212.063718
-534541924.765781
-532557805.390113
1907191132.743564
-530504372.786602
-527710786.153416
1988227162.856828
-525385021.106432
-521756487.120805
2070850273.265583
-517206056.587624
2175936370.609221
-509928112.219797
2311567303.030590
-502333358.973907
2374731497.593887
-493464136.924882
2437928502.014027
-484232816.623276
2531521313.499437
-474472371.900126
2608982162.011502
-465892224.571823
2685536955.640881
-452185106.460450
2774724727.177893
-440571085.928064
2837308193.419235
-427992420.669487
2908213114.393683
-413204102.444927
2979957467.848648
-402836802.477292
3050385953.626326
-392734579.569821
3119641462.785289
3183894492.216173
3235583183.654467
-368624941.658640
3300288824.634784
3268745794.308880
-351182543.978925
3365647241.620395
3332408050.962976
-336913833.776065
3394204533.746662
3424622651.865647
-323380757.282134
3452857659.758301
3484144913.958122
-311025501.657879
3509479966.682773
3539062215.256811
-294384278.154752
3564802098.236951
3594583818.661784
-280905903.176942
3617183305.639174
3650814079.024968
-267502076.287685
3683613768.118042
-254353800.954270
3728520216.374255
-241128357.074183
3772583489.171222
-225996296.945844
3814417541.645702
-215440207.607362
3853795872.221888
-203495779.748650
3890371575.268343
-191733582.436733
3923162765.277236
-180414229.908678
3949154667.099739
-169169439.503418
3983750430.670259
-158691482.421226
4008471268.253927
-149213384.382260
-140978385.498849
4030861236.021020
-136529778.062677
-131822271.390122
4049862752.475917
-127195517.421248
-122389424.191775
4065727397.188418
-118300968.313983
-114370423.312232
4081774888.579064
-110321222.252619
-106042656.205887
4088305695.832569
-98838004.950691
-102667748.781143
4094388181.036684
-96143501.687949
-92018494.284812
4098332104.953518
-85358338.982627
-89617490.334736
4099018516.341753
-81408579.992421
4095727896.124627
-76570191.181407
4090224684.135636
-71990034.477348
4081273013.336197
-67487421.018823
4069174191.389495
-63941820.621024
4054016364.613141
-60788600.898185
4036231421.249725
-58891369.581675
4010592606.742230
-56789073.438011
3990001426.517775
-54950891.811971
3964436778.873462
-54232622.588324
3934055466.815595
-53773108.535027
3901981416.958178
-53951147.334466
3867866117.112108
-54621079.323457
3831492995.562688
3806013094.036608
-55488743.148770
3776966419.943507
3757669912.176459
-57271465.868427
3732404286.729371
3712248483.815614
-59390038.639716
3667050819.432937
3687321231.357280
-61542732.340254
3640728028.932465
3616538358.635197
-63581790.572396
3566384913.595519
3590673496.941934
-68488740.387248
3535977598.522907
3510539672.663867
-71727839.674746
3452791291.174003
3480719192.640009
-75541043.219850
3409557370.802602
-80373091.452757
3352920528.684779
-85217181.869089
3291217788.813973
-91578835.299039
3229013355.634352
-95760652.476066
3165253756.985244
-101312794.160477
3100112491.493527
-107249494.215220
3035193552.408532
-113271133.545554
2979074953.747015
-119200741.500880
2896132389.875354
-126365342.768510
2826249993.755441
-132611795.888833
-137160674.320064
2755274621.088855
-141846461.094983
-145104393.967246
2683350575.978112
-149136989.331126
-152471648.492455
2610944022.955922
-156190539.531885
-159231884.982888
2522910037.646681
-163053131.077905
-166545502.579105
2462381688.033466
-170410370.663064
-173771743.384686
2390662289.698759
-178152030.669895
-181654220.120360
2317151681.128487
-185233322.377276
-188911574.253411
2244941359.707935
-194720992.231240
2185383933.157125
-202032603.817400
2079657204.370991
-209170736.198866
2020097104.215866
-216607564.299276
1961374053.615053
-223643720.807888
1873341157.470658
-230492504.582192
1800690254.729235
-236353229.787305
1728172435.261621
-244794682.839710
1640589038.694099
-251511569.210332
1582321892.673906
-257772960.698267
1514096598.396682
-265175661.372583
1445176062.157290
-270339541.115297
1376474603.425755
-274649670.229419
1309881242.192023
-282303561.515077
1246183362.613593
-286101977.810179
1199345597.136799
1161192918.060090
-292659032.848700
1131717284.451567
1096257063.295494
-296651809.607654
1065228854.089161
1034274025.481464
-300272313.028320
1003263385.967870
973470218.976568
-303584437.163352
942867196.205365
913863587.154869
-307941021.046728
881218329.635614
852653876.019990
-310820667.984778
823883057.186664
797135319.891541
-313255073.408195
765452561.447578
-315335247.485387
723577303.378462
-316947231.039189
671563216.194046
-318062996.334237
619543714.902519
-318268157.070005
568379270.615568
-317773619.232394
519120730.198010
-317308239.259395
471396573.979023
-315932537.369152
426202537.129235
-313626683.218154
388922700.910517
-310759081.352956
336416952.625235
-307228376.697647
294574550.152755
-304343493.237113
-301536003.913107
254644728.860211
-299135319.383087
-296335791.545203
215863667.065217
-292937951.165702
-289597825.070600
178878363.422199
-286289004.735233
-282611658.244295
136501180.671692
-274457599.210830
-278477637.491645
108319981.657141
-269731369.862401
-265179247.919010
76993692.938938
-255261457.468677
-260002730.164161
46913287.106425
-248783715.099040
21004830.358866
-240335571.925367
-10920583.239555
-228586165.055056
-37517745.713333
-214868222.021909
-62325977.686851
-200566109.859871
-85949014.237098
-184628192.782810
-108455994.254492
-168093708.453086
-152810299.494468
-129163749.975906
SCALARS stress_2 float
LOOKUP_TABLE default
12172099.819834
8546217.188271
-4482048.881830
27691922.383659
-22531934.536513
41748961.071040
-41320997.316234
55096724.334255
-61955057.170239
67423082.937733
-83466202.773578
78128976.601211
-106238780.438398
88475873.273937
-130558099.292030
97701239.268058
-156104726.831441
105730724.392691
-182786773.591550
112957389.100114
-210644888.476914
119323111.651723
-240341368.162585
125188184.499797
-271326304.368300
129798321.453450
-303443004.813798
133522062.461931
-336968531.129441
136842057.837387
-371755327.264475
139602770.573753
-407719273.664441
141623721.072556
-445237046.781620
142634417.786074
-484094088.195619
143338594.975702
-523920813.676930
143712098.730817
-565247925.760472
143541892.497633
-607787815.713704
142663458.588300
-651661741.619268
141740826.589161
-696499963.699934
139979272.449464
-742727055.083031
138075438.207833
-789776090.354232
136299137.724135
-837949495.825685
133176344.081686
-887122347.490652
130189498.185041
-937449404.616594
127527493.620547
-988552368.833872
123953449.382138
-1040315663.409946
120516052.463750
-1093023964.338078
116872083.044137
-1146405680.293319
-1200844157.861340
113201087.435448
-1255362927.124783
109307723.905814
-1310796261.261730
105544092.907515
-1365971237.902542
101484376.931454
-1422295570.225300
97219476.659417
-1478981204.312647
93290597.174717
-1535600634.297975
89214677.019010
-1591824924.856334
85164436.823330
-1648995308.936299
81181469.721744
-1705914654.760640
77192369.752874
-1762507190.322621
73280267.687885
-1819041940.800323
69633479.476024
-1875295100.549913
66040434.933143
-1930725475.431257
-1986198584.755834
62247448.600900
58591236.658048
-2040861882.886544
55571777.646245
-2094786898.268929
51953501.381342
-2148021416.584105
48572469.449685
-2200359171.462432
45364356.622438
-2251921154.444894
42428155.530634
-2302566213.072476
39748481.900750
-2351727421.930850
37055843.911540
-2399452777.745818
34416777.289480
-2446608010.873548
32126882.665603
-2491521164.632250
29581318.358795
-2535746463.970499
27108241.955400
-2577881555.021689
25069889.863681
-2618399896.371493
23139215.217704
-2657390233.701025
21424135.833322
-2694620724.914172
19892883.437011
-2729623692.826113
18203393.481722
-2762805849.251357
16617865.464422
15236969.430473
-2794363224.552805
14167779.016973
-2823138647.226754
12838120.492054
-2849793780.814187
11691883.722322
-2874679514.996218
10713528.886532
-2897212695.906241
10207737.348257
-2917431972.995864
9373270.471072
-2934886208.627987
8391563.026141
-2950481826.617119
7624218.287661
-2963251593.326163
7220691.708583
-2974012398.206723
6518375.518415
-2982263162.939916
6526674.125419
-2987338813.659134
6116457.848481
-2990327309.000804
5223401.458766
-2990915409.008942
5536578.822879
-2988750280.046451
5239520.941493
-2984042025.927836
5233769.903985
-2976863952.563724
4981541.895847
-2967304016.953439
5261654.554177
-2955336121.230377
5043859.834958
-2939885902.623373
5345543.101766
-2922721466.813541
5291682.221205
-2903472385.392619
5784763.512162
-2881334898.131099
6204505.523030
-2856708413.576030
6633405.890906
-2829911264.453215
7000624.801284
-2800942239.991489
7503347.891260
-2769390162.827280
7824397.709229
-2736310223.597012
8694384.121796
-2700825034.121931
9565809.447848
-2663121488.535431
10178418.146399
-2623517808.569380
11296165.721155
-2582021608.586679
12444493.809214
-2538950010.541968
13413298.596068
-2493917934.938280
14907825.266536
-2447660662.322661
16070379.916732
-2399177768.968638
17828024.865541
-2349393529.060357
19453349.527292
-2298331885.463752
21185443.768590
-2246072969.770561
22961026.640861
-2192108400.394438
25247830.825892
-2137927755.016498
27466845.967518
-2081973865.005708
29840411.339937
-2025548258.635592
32534044.357474
-1968011115.727395
35377601.479147
-1910065948.554642
37979755.163972
-1851318852.486299
41365971.781586
-1792079912.751202
44611921.650876
-1732274923.763006
48047484.326300
-1672762623.705858
51779733.444955
-1612600666.038101
55582125.695366
-1552640174.580981
59635407.217663
-1492446706.792842
63811127.655683
-1432526744.857831
68397317.831341
-1372282372.826701
72585013.751377
-1312679035.928288
77554963.193017
-1253667260.123968
82604909.207690
-1194681164.279674
87260971.120343
-1136727675.764374
92819006.797584
-1079011904.036412
97740542.156772
-1022311556.012473
103116424.019825
-966199859.010772
108759702.756383
-911110822.540406
114540617.188361
-857077370.149095
119977461.233120
-803500219.568707
125776424.304988
-751526928.487096
131283401.728915
-700476716.725504
137016533.511637
-650742689.289999
142952132.385695
-601997055.186643
148133200.720727
-555132264.829093
153715699.249274
-508944405.312790
159275687.978074
-464276719.554422
164740116.594977
-421318145.694119
169840326.514311
-379642377.693258
174323776.608747
-339454315.602591
179174606.655514
-300548681.835774
183231174.571972
-263581514.080659
186936737.090661
-227692696.891031
190858319.676663
-193463440.177514
194210434.559484
-160378425.678711
196699736.159517
-129707568.942345
198924396.024483
-100443509.566889
200493397.708841
-72209304.558408
201677177.263342
-45742911.604754
202100369.057627
-20602062.756681
201911473.371957
2573643.794928
200718318.486592
24750708.502351
198948143.726483
45199265.626984
196191660.187073
64361527.621106
192393301.333441
81704392.293831
188085491.668620
97907117.957310
182589706.065281
112912260.560787
176004926.211277
126702391.824003
168217719.431556
138776966.511384
159703321.776872
149881301.075208
-8538255.759971
24715392.998002
-27143345.114184
39181850.885928
-46547321.638796
52960876.711918
-67061381.283053
65371701.240400
-89347087.537184
77053044.872899
-112396724.350439
87111090.876874
-137241439.442553
96225519.653852
-163134505.488579
104985110.923571
-190632300.800663
112537641.087556
-219455097.550824
119333359.050366
-249453973.369423
124879911.576427
-280481216.657985
130094913.659675
-313829486.002184
133707772.064538
-347719917.574036
137135969.332672
-382979225.685690
139969072.228503
-419679460.922819
141920105.153558
-458147681.094538
143415107.604804
-497489436.334241
144314404.436045
-537916363.266226
144618262.188939
-579877922.113262
144654105.265010
-622831241.320892
143528327.976407
-667349083.201264
142527973.998852
-712889153.837018
140988813.644494
-759277588.266106
138910957.907267
-806841333.303709
136491492.373517
-855119648.440057
134590476.992490
-905250332.942610
131389243.210401
-955306589.397040
128371387.206003
-1006564747.885988
125216587.743726
-1058852043.224635
121631143.594732
-1111740291.858522
118581666.205236
-1164981534.233191
114708183.524484
-1219320509.163823
110675458.323642
-1273829476.643682
106728628.411824
-1328711981.347816
102942788.107916
-1384146936.454308
98490345.310412
-1439812443.364012
94535197.153377
-1495625848.892108
90382289.904943
-1551519784.076548
86572195.514357
-1607631468.910595
82474818.612653
-1663525205.527642
79074254.423273
-1719477322.373231
74879981.035596
-1774929663.670135
70982434.125343
-1829936529.685138
67521144.234170
-1884669274.730391
63727274.133242
-1938986324.257500
60068456.453593
-1992272022.941514
56586073.284600
-2045253936.915827
53551726.894395
-2097315200.084326
50294939.551109
-2148266141.122059
47414149.344120
-2198727408.073044
44099770.089281
-2247280318.567641
41540119.372938
-2294954598.509737
38851460.921564
-2341453814.032724
36387683.595703
-2386235615.722276
34050905.484731
-2429928899.119377
31514501.812093
-2472024393.905141
29082998.393639
-2512380425.480421
27167361.548257
-2550733483.526333
25211801.544078
-2587269884.539171
23503671.515168
-2622610909.697018
21758984.099297
-2655467737.859071
20354471.245713
-2686478400.795823
18612507.502808
-2715296735.003566
17254466.456927
-2741838876.526320
16167026.426956
-2765751258.542166
15270422.413568
-2788260737.095120
14098188.003106
-2807759791.726166
13283206.699276
-2825139406.479321
12670674.680832
-2839841370.080388
11689306.948447
-2852822047.025662
10864757.821006
-2862744563.951570
10222814.069673
-2870303141.354405
9658557.058022
-2875169099.507695
9239044.652660
-2877160114.907732
9170709.714128
-2877683267.598534
8930786.109032
-2874804456.898314
8766977.793356
-2869823689.213990
8213340.493576
-2861822460.819085
8386507.802774
-2851216619.757617
8107620.402737
-2838930340.162980
8255166.249448
-2823561157.174631
8315148.846612
-2805640028.925964
8583479.920704
-2785124418.053405
9078642.975430
-2762275257.785790
9523687.374363
-2737164909.804234
9904328.621209
-2709897715.108064
10188953.990162
-2680259837.518525
11075827.437208
-2648322905.531914
11682101.421363
-2614094633.561885
12501239.898609
-2577859586.607765
13305177.690865
-2539657358.350670
14194162.754114
-2499553007.204255
15309558.592061
-2457855518.620125
16668693.434213
-2414212736.649035
18077636.421375
-2368728424.653215
19275554.375464
-2321451101.498597
20747874.800183
-2272903788.917050
22323932.014419
-2223035968.589689
24759800.617319
-2171838026.700661
26647822.927766
-2119317100.026522
28448639.404779
-2065718526.477895
31106007.462683
-2011122593.194239
33441800.968086
-1955495532.449078
36081078.017101
-1899041666.656066
38984344.979368
-1841595733.999352
42063433.810870
-1783927360.389558
45401519.836556
-1725715791.558551
48501357.152542
-1666951569.238200
52314739.625434
-1607929183.339128
55810730.580181
-1549213193.230300
59794456.565177
-1489614548.140553
63947107.268274
-1430361781.528231
68075118.422684
-1371281961.717610
72712069.805637
-1312333706.619315
77516096.971590
-1253499577.009901
82005393.787151
-1195229444.258334
86665332.259054
-1137408720.415369
92259601.349350
-1080249131.212874
96978502.242858
-1023799195.516781
102176125.538724
-967887081.428599
107993046.058866
-912748990.629442
112955959.128233
-858664073.310193
119090332.753564
-805541006.699689
124635620.119677
-753502770.848683
130601636.781031
-702393762.310961
136187766.292083
-652810786.315358
141730613.837652
-604156660.097448
147280953.335099
-556717259.478474
153012494.198751
-511025109.012224
158541101.161149
-466015348.749451
163565658.732060
-422637773.103810
168414580.096306
-380728431.081364
173499298.215934
-340443648.369967
178133307.008304
-301643261.293896
182653156.161268
-263918347.541003
186282805.229284
-228276778.709761
190252153.989580
-193940048.258515
193350141.817861
-161195287.333461
195922354.580732
-129641032.437629
198125062.469078
-100195043.169496
200115590.897226
-72325672.764633
201124569.553028
-45623054.681385
202078894.264465
-20407510.155323
201210770.445867
2829551.807487
200535685.695706
25234177.971472
198613314.383621
45462569.241190
196206712.337596
64628582.018168
192628429.245481
82534564.022144
188002600.432227
98762467.654642
182993822.178095
113229484.183124
176651922.533838
127098622.009114
168806858.009227
160261544.655014
139189399.897040
150345071.706771
-1412478.981295
18387995.745544
-15887205.364569
33324291.834657
-34279032.410589
47345301.728441
-53853854.634712
60655569.828421
-75445143.554028
71754493.764958
-97206242.456231
82739336.531988
-120320818.812610
-139527983.573745
93909876.238020
-165303966.585783
-152459054.258686
101409942.238234
-193240011.705173
-180379041.014839
109122065.921559
-207739075.301013
-222361177.370765
115821243.625556
-237512998.865959
-253096594.054863
121023899.623804
-283620365.318257
-267995457.845495
127514778.262305
-300131909.012286
-317455783.419229
131778666.648727
-354042543.929085
-333302117.073722
135539716.720337
-379338970.950587
138583892.196874
-414037258.490354
140944805.257093
-451594817.914726
142801933.462361
-490394366.680142
143543494.780378
-530642555.998861
143970191.075716
-572103533.451779
144071972.326452
-613771146.794577
143514671.885342
-649988258.552606
142786394.499278
-704494149.449145
141480229.135686
-751110180.646269
139609754.905718
138096579.875750
-798117246.233638
135582395.340630
136983869.113641
-846600471.378095
132844973.805966
134720077.072762
-896034623.850134
130174083.405444
131603494.869878
128485527.323564
126902849.365624
-957522512.276936
125405749.352803
123936503.288855
-1004580978.274465
122270166.995310
120268695.572013
-1057268332.624627
118337110.164619
116111281.996732
-1111814660.371033
113861963.934902
-1182439386.274363
109697168.541698
-1275640981.845231
105958908.379635
-1319699067.258958
101762625.663856
-1364128678.412618
98053105.678362
-1431092003.350239
94085564.580278
-1487251094.590928
90954463.235168
-1543753481.678844
85898878.752266
-1610747109.924078
81961473.343030
-1657953587.808196
78009431.971069
-1712972529.382329
73427539.660648
-1768341005.635039
70375163.911170
-1824288690.988072
67286536.599166
-1880181988.872383
-1932029144.558098
-1974175445.167831
60742673.494590
-2029390745.302865
-2002794206.180234
56442487.135553
-2084575556.994728
-2056475868.796396
52685357.468557
-2109803458.562316
-2136299607.300842
49707575.711617
-2161299451.202146
-2188456655.562954
46888066.463613
-2211687597.254405
-2238113817.002094
43392102.512401
-2261728781.981244
-2288443510.137196
40338525.409353
-2309797636.357261
-2340428292.010164
37886283.896225
-2372950524.331851
35289961.469985
-2416009354.678979
32862486.991175
-2460324627.902293
29836099.444032
-2503096093.290374
28175202.606688
-2544367885.689852
26444716.515771
-2583597947.479789
24124782.806223
-2620531901.037041
22386249.121804
-2650754297.656195
21002027.307115
-2692002407.408390
19203514.086570
-2724234140.637108
17886189.671648
16578795.204458
-2754094154.372393
16102764.476174
15489603.945324
-2781892278.244604
14834492.425117
14073854.584194
-2807725238.890169
13486811.943772
13040341.811738
-2836496519.103715
12601521.251695
12335834.133382
-2852902771.195208
11351136.341801
11936189.691395
-2870296814.573648
10971509.403900
10381714.618889
-2887191543.914312
9724321.160984
10320587.612739
-2898305063.249363
9145253.876597
-2912906358.570152
8668024.243743
-2921566965.374326
8446494.479767
-2928248545.661492
7797700.175476
-2932621530.972636
7298161.602521
-2933800341.129003
7101504.670172
-2932847836.626888
7031746.322226
-2927460259.045511
6797215.035075
-2922474122.774471
6716078.024046
-2914381733.579712
6643187.867679
-2902420691.235056
6554618.556535
-2888789382.369377
6664206.269368
-2873395766.218683
6891919.465195
-2855560181.244322
-2843155266.743511
6949480.663868
-2826071209.365812
-2815849110.479738
7332673.539177
-2800966194.050280
-2789760971.801548
7751844.914468
-2764295102.201292
-2775113845.636227
8092852.650773
-2747684897.018652
-2733194467.958695
8675297.635856
-2702179998.058351
-2717509480.984942
9517519.785212
-2682282645.269103
-2666307584.350138
10046415.139647
-2629241315.596616
-2646715197.103673
10928483.267435
-2599638036.733578
11722933.532151
-2561595245.629032
12742528.303432
-2519170924.096328
14128274.635222
-2475952584.817826
14877141.932083
-2430982323.012015
16086146.014619
-2384044504.849565
17471592.221993
-2336845385.711645
19231609.808150
-2295678506.548990
20784325.344414
-2234340350.096133
22588299.534054
-2182078032.574943
24771842.063629
25816724.608756
-2128591923.001182
27702252.552090
28668284.468079
-2073872196.514310
30015483.001568
30711082.166159
-2018385741.617359
32546330.899028
33429699.336046
-1949902275.785524
35126367.706448
36265324.983680
-1902421999.370111
37624888.083893
39491594.775901
-1846036912.089199
40846989.698597
42298753.971993
-1787920896.741732
44172710.852050
45635706.273052
-1730797007.769336
48277824.902498
-1683170393.490475
51750883.654243
-1598363887.704123
55903696.255910
-1550022994.513972
59729780.906034
-1502746789.583896
63800628.823530
-1431476031.076026
68040532.602185
-1372013800.447987
71947433.756021
-1312659813.857224
77507618.573886
-1240673380.968879
82199471.485970
-1192367136.980534
87193660.245281
-1136285707.104440
93340700.036579
-1079650439.410165
97688789.214415
-1023101824.558025
101702062.740274
-967860295.625509
109326131.650077
-915109075.150339
112837652.040484
-876534679.919106
-845037227.868782
120765502.814904
-820252700.903413
-791165629.793151
125255014.098010
-765597971.693583
-740157322.290712
130927494.313836
-714361838.506456
-689975147.082483
135483207.970089
-664393256.624943
-640741810.165764
142206040.745176
-614032369.573828
-590591220.372663
147592752.273138
-566909717.381576
-544765678.685273
153430679.128680
-518899011.513409
158893373.541311
-485114636.936638
164204008.020801
-443304102.795743
170214843.447649
-400695373.350468
174335139.689620
-359645966.689827
178532756.881740
-320442130.936019
183084222.191891
-282307088.209871
186961210.390365
-247034607.120908
190478078.847925
-217833204.567318
193674015.026978
-177178764.362050
196200587.860369
-145203771.301832
198269664.141828
199094326.695931
-114986731.825294
200028630.207858
200836567.822453
-85838673.753684
201258792.052958
201515765.448803
-58760065.367262
202059893.738108
201923066.524978
-27951010.667677
201398072.267471
201504275.807231
-7804529.781939
201091192.460552
199880407.403632
13870679.145501
198415547.958591
199226451.670851
34629596.677003
196854752.687867
52266066.185781
194175585.302062
73407632.363054
190287402.562574
90413595.130084
185447930.941332
106018734.563136
179550061.519409
119938525.967854
172722539.365825
133079061.060385
164741872.443759
156683114.921026
144820477.149498
SCALARS stress_3 float
LOOKUP_TABLE default
65115727.468023
41487216.047081
-44380505.661456
170011914.546617
-158157034.645516
270379073.344573
-276482307.150003
366216661.815941
-399035340.135217
457522922.724716
-526118302.260752
544247357.782696
-656968122.336555
626241015.950179
-792205914.976272
703469914.037112
-931249095.186151
776374251.859693
-1074243510.481687
844650383.371972
-1221114348.770977
908467630.344194
-1371459266.713618
967833642.730409
-1525424374.021404
1022533260.346815
-1682656068.406132
1072753404.153710
-1843235745.475195
1118927034.961042
-2006596662.188895
1160560726.781312
-2173065711.958321
1198037466.528867
-2342216368.737523
1231405864.157758
-2513882773.094195
1260622249.438230
-2687942193.779834
1285915176.474686
-2864311102.309932
1307339541.233674
-3042374294.442236
1325008816.525143
-3222097935.738191
1339101451.459743
-3403596320.903340
1349558606.997774
-3586228996.551330
1356509038.203936
-3770110537.237353
1360025799.934128
-3954780975.771356
1360638644.305252
-4140059843.610384
1357887735.225405
-4325626848.512180
1352426657.805240
-4511637114.084140
1343925826.057256
-4697172332.084011
1332858469.993954
-4882707393.968835
1319108257.824137
-5067528660.398207
-5251439409.927320
1303058998.357751
-5434332080.117618
1284781953.908002
-5615919968.622447
1264432230.428938
-5795719223.049200
1241785784.939310
-5973656133.051223
1217579206.641670
-6149721440.189960
1191482087.652921
-6323473205.066553
1164074696.031512
-6494296092.340600
1134945245.940297
-6662640828.416941
1104821592.535877
-6827638668.001122
1073340970.882954
-6989510550.550187
1041116268.288481
-7147633901.717478
1007932997.712758
-7301918644.809686
973789235.514940
-7452224842.682711
-7598184301.591040
939437281.753478
904375780.637175
-7739821877.384320
869160424.224481
-7876465039.473646
833576296.874552
-8008442438.506111
798047607.698039
-8135180110.089109
762204204.001896
-8256743887.725636
727043323.948977
-8372830964.918679
691834777.794033
-8483121740.223437
657027481.745869
-8587682309.339204
622726830.059238
-8686291523.572670
588865100.896991
-8778835385.721281
555842731.612035
-8864945422.189882
523379419.315021
-8944892397.579611
491768283.463255
-9018381286.445669
461163739.213338
-9085068995.435146
431514710.924428
-9145087173.900684
402664448.851276
-9198410983.645981
375364413.503391
-9244787871.919275
348679763.887021
323394859.609827
-9284193542.570215
299370156.822159
-9316776160.049593
276660533.837223
-9342413141.860401
254978842.053874
-9361203762.649736
234946029.680915
-9372804387.018742
216085579.123452
-9377306246.366007
198650060.786590
-9374881652.541183
182392201.977284
-9365450084.792507
167966802.996238
-9349028206.969627
154683532.352959
-9325895666.471138
142558625.295951
-9295824057.944130
132065425.282520
-9258969457.989748
122850705.665572
-9215619968.202888
115027641.752060
-9165563847.080296
108374620.940841
-9108801374.471613
103283197.787371
-9046063037.625082
99285606.396054
-8976833562.436302
96536095.518648
-8901753586.349813
94927889.305507
-8820553201.966763
94680921.259888
-8733602561.980192
95474321.786896
-8640910829.037201
97192974.285387
-8542963123.680478
100106244.108266
-8439628522.661525
103975443.856942
-8331154989.470831
108874021.681766
-8217854379.807693
114644930.334500
-8099793742.365156
121033937.965495
-7977302138.738115
128572405.176160
-7850651286.521464
136719231.365352
-7719867405.506400
145637285.885973
-7585188492.294067
155211583.235033
-7447034804.571261
165162886.961739
-7305562270.187632
175753061.216442
-7160699233.535517
187021666.750903
-7012864439.608668
198608517.761427
-6862715451.897579
210562188.895370
-6709974844.147495
222939053.505639
-6554947643.999262
235665497.037040
-6397987340.296276
248691938.888429
-6239546285.581232
261575844.654963
-6079355918.743478
274922731.539197
-5918039802.430110
288372116.234439
-5755788538.478273
301825135.041394
-5592832604.633218
315150829.404869
-5429370252.686137
328570085.821871
-5265410776.382279
342074414.789406
-5101349577.558792
355434964.700080
-4937458504.908721
368626188.906798
-4773886789.321416
381444073.998469
-4610898498.437718
394494548.125445
-4448789908.199181
407138189.033237
-4287529894.396999
419408437.865946
-4127422924.972722
431632939.316882
-3968528267.567195
443213659.732701
-3811109561.220119
454568635.656360
-3655348542.624538
465624532.382313
-3501550632.715754
476217343.505719
-3349733448.337162
486372580.366982
-3200071207.325911
495991510.364959
-3052450585.623551
504927743.938206
-2907316679.113179
513574479.433378
-2764948706.592243
521637329.243079
-2624948119.041992
529190003.713966
-2487847938.508378
535930465.284594
-2353576902.678195
541948939.399771
-2222185378.741497
547328281.399899
-2093797890.489481
551995007.827939
-1968522839.909646
555900770.926142
-1846411284.989493
559013327.087115
-1727718952.618369
561087720.553112
-1611939022.888177
562541987.867088
-1499623087.682014
562803904.219099
-1390616172.143984
562225839.053949
-1284822289.209384
560514357.757995
-1182718069.917915
557743581.625691
-1083715465.158927
553750737.095593
-988389130.122471
548798772.409954
-896176264.841999
542299472.053282
-807716667.213108
534736015.274080
-722226615.465553
525684437.504654
-640149019.645283
515137088.790955
-561387612.837951
503340515.721891
-485993453.031055
489878421.337163
-413754763.414650
474775906.029377
-344836879.028435
458075276.086737
-279086320.056213
439392853.797446
-216388940.543934
419221094.501910
-156616378.721353
396913914.292031
-99900248.634420
372595801.652314
-46103454.466937
346136637.576511
4895668.591043
317881963.450976
53046473.499818
287267746.465763
98470493.971186
254344073.961275
141133204.769142
219030520.977215
181304399.847736
-68991773.802908
147695501.290728
-184387832.016986
249262142.646078
-303806273.359149
346096354.969030
-427679778.789698
438540445.023580
-555769582.771923
526043511.724076
-688164302.266125
609104462.828266
-824608638.984099
687418157.250497
-964880473.585441
761188048.702567
-1109142430.880098
830117188.098823
-1257163246.533915
894532171.347363
-1408745788.154285
954611465.212186
-1563650450.655559
1009902603.705791
-1721959040.592930
1060788853.592174
-1883374757.632242
1107227890.929786
-2047904578.583444
1149430950.482625
-2215015910.001728
1187256731.165037
-2384878615.703292
1220892695.983274
-2557058948.289281
1250434569.805734
-2731538093.379589
1276036636.690867
-2908151817.679760
1297713243.553022
-3086268550.600889
1315487751.202147
-3266108260.952920
1329644282.853294
-3447080058.297299
1340189815.316411
-3629289783.143268
1347392778.603997
-3812581525.294524
1350997445.826705
-3996241383.214360
1351518417.944833
-4180260360.660522
1348887710.924931
-4364605576.188203
1343398592.975802
-4548792635.358849
1335008346.861443
-4732534555.976154
1323846531.888807
-4915756823.451212
1310271148.024445
-5097885211.195115
1294518268.228656
-5278993185.011558
1276176779.808393
-5458785588.357584
1255834338.579855
-5636729005.892788
1233473589.895947
-5812913567.270516
1209435607.677267
-5986773648.849659
1183710967.080417
-6158153340.433912
1156403698.418601
-6326920914.532520
1127831794.652120
-6492781214.602525
1097902957.943825
-6655398797.245070
1067098461.554720
-6814330507.871248
1035114379.589207
-6969772561.186604
1002505171.262338
-7121283446.393429
969171168.632565
-7268460540.301666
935332043.006841
-7411067394.309910
901272328.548018
-7549291489.077754
866770019.360500
-7682527045.206343
832109369.757488
-7810618992.048319
797599210.052189
-7933369786.263274
763083070.349004
-8050870790.347954
728739251.007087
-8162695495.909752
694828121.137091
-8268754368.301309
661348578.993768
-8368687388.123770
628339249.988474
-8462478057.932327
595946768.225612
-8550020179.229975
564316534.966184
-8631167266.663807
533405666.569346
-8705796064.592714
503377032.388003
-8773694551.663794
474539462.735359
-8834715980.327835
446506700.768016
-8889065168.238184
419473413.191785
-8936505535.695282
393692056.966964
-8976914351.450624
368956712.694963
-9010234979.955002
345626053.486432
-9036673471.705162
323371428.694278
-9055853012.354443
302625352.873957
-9068077956.399593
283222211.136121
-9073045497.343603
264890959.029978
-9071109141.683214
248121472.764331
-9061794313.117729
232551642.894638
-9045879960.097931
218418066.773804
-9022826792.218719
205784767.708783
-8992660093.930885
194298108.104680
-8955765990.979675
184350875.360353
-8912268071.815884
175662206.887156
-8861930018.936247
168280826.083944
-8805129355.138218
162246442.453977
-8742080602.768187
157516994.252005
-8672547295.571396
153918919.131640
-8597030396.044594
151631750.295434
-8515284572.788920
150424861.246644
-8427901984.393023
150559687.534478
-8334850291.458045
151437111.413690
-8236261947.578879
153597096.433486
-8132376033.448571
156898996.998974
-8023447471.714219
161022616.659361
-7909527075.820361
166000163.715351
-7791222697.558197
171805811.670201
-7668289285.378518
178504799.020919
-7541211942.170673
186128643.270761
-7410033289.379203
194341454.766382
-7274991865.651205
203043679.011040
-7136515429.876026
212390255.553943
-6994883629.452256
222594027.643594
-6850089767.419600
233015030.979552
-6702430697.072244
243907199.908474
-6552177987.253587
255228865.979566
-6399678167.650425
267101938.545734
-6244956784.909853
279092617.248087
-6088572818.672715
291290043.439529
-5930782275.678008
303669343.617069
-5771463097.821331
316460007.225512
-5611223827.691328
329088165.663714
-5450024607.033245
342020185.579034
-5288121162.736430
354748687.364078
-5125900442.441730
367264228.522102
-4963641796.044740
380280448.393513
-4801396841.232259
392821921.625669
-4639348267.691081
405314203.617426
-4477947457.316805
417676309.709188
-4317385011.946579
429661360.502365
-4157523180.273448
441450795.187008
-3998879422.238962
453002796.560830
-3841505486.628066
464284989.918284
-3685721683.336361
475085169.848279
-3531374419.102842
485583131.749671
-3379014743.764657
495795504.165418
-3228767032.361508
505264190.586276
-3080478102.580188
514374477.208548
-2934689859.264097
523003859.673343
-2790987500.492635
531111360.327317
-2650191196.912897
538460346.510874
-2511991820.708686
545403318.766972
-2376677604.573049
551522747.291914
-2243979707.545683
556917722.674608
-2114433057.660043
561613607.503963
-1988022783.609171
565618855.976281
-1864586802.629073
568664198.530119
-1744429862.510945
570946356.610283
-1627325035.288238
572318678.459027
-1513699800.000651
572757785.613058
-1403400283.537535
572141060.268679
-1296485735.886388
570682149.916647
-1192850876.237263
567849640.995519
-1092785021.375108
564087116.695347
-996100970.489975
558993955.605040
-902825336.667515
552783543.019051
-812885755.849278
545040517.317487
-726252039.166865
535993825.899203
-643228243.614027
525662020.948001
-563488726.276415
513676575.908689
-487043436.390032
500128817.971318
-413844585.896427
484996059.470045
-344049580.031604
468032653.849674
-277242532.783063
449527358.195857
-213679153.386808
429128440.901200
-153204877.934738
406444574.299859
-95748015.512507
382115949.581884
-41318104.408317
355602830.087682
10287618.292180
326775490.105457
59068348.346729
295864800.674908
104931936.669681
262634391.332745
226897341.118667
148269842.025031
188770095.268678
-23316880.889326
106530230.612650
-117161389.043309
209990469.956999
-230762090.249912
308652315.667805
-351063119.539524
402628418.659417
-476481165.322804
492139438.539229
-605060032.668940
576831213.319742
-733401825.140087
-839204486.489959
664877594.190898
-979587512.972910
-909829337.754240
733815886.407160
-1124915788.049435
-1056905893.247304
803401236.342155
-1201317737.783253
-1276844082.699898
867736858.535248
-1353445061.259248
-1431041851.364106
919394570.909533
-1584622554.604025
-1503977617.824872
989184970.712775
-1662251353.811450
-1744715879.903986
1041973865.186572
-1918547095.498122
-1821309595.588260
1090348297.458254
-2036513077.118380
1134618217.239615
-2195208284.757357
1174208540.739460
-2363599341.861120
1216692716.914250
-2534948306.671141
1242454734.128392
-2709371854.455724
1269000959.887918
-2884397357.792867
1292346967.672614
-3057202847.931426
1311787784.752550
-3206143557.655741
1327600519.496305
-3425696631.233022
1340083831.838297
-3607618137.070362
1348873286.096045
1352994126.906166
-3790988306.910701
1356180850.129032
1354882306.020621
-3975145748.461168
1355709291.746194
1356193357.522030
-4159984114.473261
1352370454.903139
1354339753.541209
1349465551.095165
1345992680.293882
-4385801739.349873
1342109675.454402
1336981417.170462
-4555282147.130644
1331739906.372268
1324961016.453277
-4742430714.268103
1318294843.568639
1309758996.962670
-4932181734.748355
1297921669.085969
-5172938370.788280
1280061609.034292
-5482320710.730072
1260028995.757257
-5625799260.567829
1237620629.388667
-5768810185.610781
1213777581.692965
-5980180366.603390
1188687246.050173
-6154100090.386583
1166012658.270360
-6325385288.867934
1131467424.149774
-6524904799.055549
1101408542.191568
-6663676986.085938
1070220983.892957
-6821073420.292569
1031146805.320343
-6979121280.602992
1005155555.743798
-7134027656.254617
978470752.912850
-7285319356.923411
-7425133957.012195
-7537037821.663283
917718399.042727
-7676937510.305084
-7608265958.525566
872699558.703267
-7816837988.265095
-7745152446.804945
835933394.243469
-7877666633.183973
-7942346987.390436
801314963.648822
-8002025829.700335
-8068666219.007414
770145930.928328
-8120775109.402709
-8183376044.788402
727755043.323851
-8236616310.547074
-8298920541.390073
693162773.883432
-8345710631.410369
-8416235693.018335
659043987.510092
-8483111115.014546
625610723.210080
-8573480526.587888
592598502.394753
-8662250502.003403
553641874.812998
-8745947088.359064
527615945.333108
-8823545021.886560
497720855.285663
-8893457776.596191
467882645.330115
-8955596281.335316
439082758.923687
-9004211231.841150
411151595.937508
-9066551365.874681
384682251.700629
-9110022583.934948
360107937.313057
340323390.927037
-9146472907.980259
328824102.352160
317155109.255118
-9176163957.618002
306079530.037821
293720132.897816
-9198621978.443073
283872836.308781
273806637.474592
-9218458036.403395
263700334.477637
253389238.179449
-9221740969.037956
235767107.052706
245515233.962780
-9222596741.944902
228454589.378385
219085567.207130
-9218487223.703701
201917433.653365
212338971.915729
-9207964499.562391
192749448.173962
-9185252333.627230
180140255.741696
-9158771117.904268
169059623.371839
-9125374885.760185
158370654.907352
-9085072126.697973
149838985.517255
-9038331428.508827
142451256.439138
-8984858587.643543
136945179.201195
-8912800031.289389
130640016.261678
-8855705585.556301
126955715.824587
-8786678832.641195
124421534.013732
-8707039379.848459
123035205.075944
-8623943779.437328
123008077.220027
-8535844347.590461
123766412.942987
-8444426509.716123
-8379438804.154230
125754637.012851
-8308994270.076113
-8260497861.919363
128982971.063125
-8198920902.512275
-8149335458.808868
132879894.280555
-8038871747.371612
-8088169242.200279
137598668.930123
-7974723810.693833
-7916198632.989202
142013243.869506
-7795533257.880911
-7854829004.961157
150218681.758832
-7724488900.910091
-7663577743.254495
157595924.933760
-7526882641.780294
-7593430395.979713
166038635.296017
-7425285214.447993
174660695.250708
-7292076890.254320
184167141.190439
-7148388731.425710
196582809.829267
-7003994597.595164
205512856.651074
-6857191969.538299
216030466.284134
-6706803040.662950
227561029.352671
-6558479658.017348
239249452.710473
-6430520563.497238
251212127.933507
-6242394951.078993
263837429.728030
-6084107587.894320
275728454.873792
284119241.908481
-5924529140.194332
292900745.099369
298737087.925291
-5763620982.567673
306170025.686251
312043756.446151
-5602014852.008092
319218915.308876
324810724.153192
-5405549669.780700
331853784.965830
337939251.391406
-5270906719.710070
344750362.406424
351048663.064746
-5112386346.714127
358618253.474843
364812161.611336
-4950828689.081307
371541730.906554
377385827.933270
-4792512795.091178
387717217.598464
-4661191886.019840
399940237.266900
-4430804161.597091
412383196.255322
-4301321202.474696
424537212.896038
-4173765332.841295
436516357.070035
-3983504408.577199
447866606.404426
-3826054782.875810
457360365.030375
-3670196224.834015
470461160.183694
-3482863495.865520
480907289.702343
-3358216926.692778
491094573.919149
-3212647050.869812
502645167.953039
-3066067629.029335
509706197.296880
-2920719418.711481
516785638.045832
-2779602927.948642
527749969.918828
-2645613263.532271
532671806.370603
-2546789558.590310
-2466908648.994600
541800562.012102
-2404801657.465240
-2330535445.115128
546817701.800508
-2265362824.092470
-2201092343.946563
552071758.654682
-2136355315.573287
-2074093379.769721
555882538.997321
-2009934374.658946
-1950683004.521485
560768145.789020
-1882568188.979557
-1823707778.552484
563846067.776927
-1763996265.013890
-1708409742.897465
566073010.226460
-1642784973.248767
567432440.386121
-1556832433.808909
567827251.792619
-1450243662.543051
566931684.971500
-1343128500.982043
565479743.247185
-1238667337.519714
562861444.624119
-1137666576.923227
558910567.951677
-1040476244.872071
553873259.790597
-948858636.048636
547558882.171071
-872869709.598491
539763172.344155
-766815613.423701
531185111.100695
-682537929.923856
523798609.428588
517669148.996800
-601789034.142495
511997365.061380
505355740.426064
-524267465.870813
498399483.146809
491133001.297410
-449802539.397016
483844835.187878
476069165.403969
-364265592.772119
458506263.702621
467404259.612401
-308578772.814647
449038312.291601
439320997.029266
-246047445.360551
418273330.080121
428930582.714634
-185962261.598001
405671644.459423
-134125669.012895
388354631.084897
-70323278.003983
364098970.282324
-17645839.223470
336798433.756608
31912928.580462
307322104.084949
79121105.283606
275621818.358540
123502425.358760
242251727.999913
211851925.257286
165244136.703109
