# vtk DataFile Version 2.0
Generated volume Mesh
ASCII
DATASET UNSTRUCTURED_GRID
POINTS 1240 float
-0.212153 -0.150304 0.000000
-0.206421 -0.141033 0.000000
-0.215099 -0.146056 0.000000
-0.209122 -0.154492 0.000000
-0.217961 -0.141751 0.000000
-0.206009 -0.158620 0.000000
-0.220736 -0.137389 0.000000
-0.202815 -0.162684 0.000000
-0.223424 -0.132973 0.000000
-0.226023 -0.128505 0.000000
-0.199540 -0.166684 0.000000
-0.228534 -0.123985 0.000000
-0.196187 -0.170619 0.000000
-0.230953 -0.119417 0.000000
-0.192756 -0.174486 0.000000
-0.233282 -0.114802 0.000000
-0.189249 -0.178283 0.000000
-0.235519 -0.110141 0.000000
-0.185666 -0.182011 0.000000
-0.237662 -0.105436 0.000000
-0.182011 -0.185666 0.000000
-0.239711 -0.100690 0.000000
-0.178283 -0.189249 0.000000
-0.241666 -0.095904 0.000000
-0.174486 -0.192756 0.000000
-0.243525 -0.091081 0.000000
-0.170619 -0.196187 0.000000
-0.245288 -0.086221 0.000000
-0.166684 -0.199540 0.000000
-0.246953 -0.081327 0.000000
-0.162684 -0.202815 0.000000
-0.248521 -0.076401 0.000000
-0.158620 -0.206009 0.000000
-0.249991 -0.071445 0.000000
-0.154492 -0.209122 0.000000
-0.251363 -0.066459 0.000000
-0.150304 -0.212153 0.000000
-0.252634 -0.061448 0.000000
-0.146056 -0.215099 0.000000
-0.253806 -0.056412 0.000000
-0.141751 -0.217961 0.000000
-0.137389 -0.220736 0.000000
-0.254878 -0.051354 0.000000
-0.132973 -0.223424 0.000000
-0.255849 -0.046275 0.000000
-0.128505 -0.226023 0.000000
-0.256718 -0.041179 0.000000
-0.123985 -0.228534 0.000000
-0.257486 -0.036067 0.000000
-0.119417 -0.230953 0.000000
-0.258152 -0.030940 0.000000
-0.114802 -0.233282 0.000000
-0.258717 -0.025802 0.000000
-0.110141 -0.235519 0.000000
-0.259178 -0.020654 0.000000
-0.105436 -0.237662 0.000000
-0.259538 -0.015498 0.000000
-0.100690 -0.239711 0.000000
-0.259794 -0.010336 0.000000
-0.095904 -0.241666 0.000000
-0.259949 -0.005169 0.000000
-0.091081 -0.243525 0.000000
-0.260000 0.000000 0.000000
-0.259949 0.005169 0.000000
-0.086221 -0.245288 0.000000
-0.259794 0.010336 0.000000
-0.081327 -0.246953 0.000000
-0.259538 0.015498 0.000000
-0.076401 -0.248521 0.000000
-0.259178 0.020654 0.000000
-0.071445 -0.249991 0.000000
-0.258717 0.025802 0.000000
-0.066459 -0.251363 0.000000
-0.258152 0.030940 0.000000
-0.061448 -0.252634 0.000000
-0.257486 0.036067 0.000000
-0.056412 -0.253806 0.000000
-0.256718 0.041179 0.000000
-0.051354 -0.254878 0.000000
-0.255849 0.046275 0.000000
-0.046275 -0.255849 0.000000
-0.254878 0.051354 0.000000
-0.041179 -0.256718 0.000000
-0.253806 0.056412 0.000000
-0.036067 -0.257486 0.000000
-0.252634 0.061448 0.000000
-0.030940 -0.258152 0.000000
-0.251363 0.066459 0.000000
-0.025802 -0.258717 0.000000
-0.249991 0.071445 0.000000
-0.020654 -0.259178 0.000000
-0.248521 0.076401 0.000000
-0.015498 -0.259538 0.000000
-0.010336 -0.259794 0.000000
-0.246953 0.081327 0.000000
-0.005169 -0.259949 0.000000
-0.245288 0.086221 0.000000
0.000000 -0.260000 0.000000
-0.243525 0.091081 0.000000
0.005169 -0.259949 0.000000
-0.241666 0.095904 0.000000
0.010336 -0.259794 0.000000
-0.239711 0.100690 0.000000
0.015498 -0.259538 0.000000
-0.237662 0.105436 0.000000
0.020654 -0.259178 0.000000
-0.235519 0.110141 0.000000
0.025802 -0.258717 0.000000
-0.233282 0.114802 0.000000
0.030940 -0.258152 0.000000
-0.230953 0.119417 0.000000
0.036067 -0.257486 0.000000
-0.228534 0.123985 0.000000
0.041179 -0.256718 0.000000
-0.226023 0.128505 0.000000
-0.223424 0.132973 0.000000
0.046275 -0.255849 0.000000
-0.220736 0.137389 0.000000
0.051354 -0.254878 0.000000
-0.217961 0.141751 0.000000
0.056412 -0.253806 0.000000
-0.215099 0.146056 0.000000
0.061448 -0.252634 0.000000
-0.212153 0.150304 0.000000
0.066459 -0.251363 0.000000
-0.209122 0.154492 0.000000
0.071445 -0.249991 0.000000
-0.206009 0.158620 0.000000
0.076401 -0.248521 0.000000
-0.202815 0.162684 0.000000
0.081327 -0.246953 0.000000
-0.199540 0.166684 0.000000
0.086221 -0.245288 0.000000
-0.196187 0.170619 0.000000
0.091081 -0.243525 0.000000
-0.192756 0.174486 0.000000
0.095904 -0.241666 0.000000
-0.189249 0.178283 0.000000
0.100690 -0.239711 0.000000
-0.185666 0.182011 0.000000
0.105436 -0.237662 0.000000
-0.182011 0.185666 0.000000
0.110141 -0.235519 0.000000
-0.178283 0.189249 0.000000
0.114802 -0.233282 0.000000
-0.174486 0.192756 0.000000
0.119417 -0.230953 0.000000
0.123985 -0.228534 0.000000
-0.170619 0.196187 0.000000
0.128505 -0.226023 0.000000
-0.166684 0.199540 0.000000
0.132973 -0.223424 0.000000
-0.162684 0.202815 0.000000
0.137389 -0.220736 0.000000
-0.158620 0.206009 0.000000
0.141751 -0.217961 0.000000
-0.154492 0.209122 0.000000
0.146056 -0.215099 0.000000
-0.150304 0.212153 0.000000
0.150304 -0.212153 0.000000
-0.146056 0.215099 0.000000
0.154492 -0.209122 0.000000
-0.141751 0.217961 0.000000
0.158620 -0.206009 0.000000
-0.137389 0.220736 0.000000
0.162684 -0.202815 0.000000
-0.132973 0.223424 0.000000
-0.128505 0.226023 0.000000
0.166684 -0.199540 0.000000
-0.123985 0.228534 0.000000
0.170619 -0.196187 0.000000
-0.119417 0.230953 0.000000
0.174486 -0.192756 0.000000
-0.114802 0.233282 0.000000
0.178283 -0.189249 0.000000
-0.110141 0.235519 0.000000
0.182011 -0.185666 0.000000
-0.105436 0.237662 0.000000
0.185666 -0.182011 0.000000
-0.100690 0.239711 0.000000
0.189249 -0.178283 0.000000
-0.095904 0.241666 0.000000
0.192756 -0.174486 0.000000
-0.091081 0.243525 0.000000
0.196187 -0.170619 0.000000
-0.086221 0.245288 0.000000
0.199540 -0.166684 0.000000
-0.081327 0.246953 0.000000
0.202815 -0.162684 0.000000
-0.076401 0.248521 0.000000
0.206009 -0.158620 0.000000
-0.071445 0.249991 0.000000
0.209122 -0.154492 0.000000
-0.066459 0.251363 0.000000
0.212153 -0.150304 0.000000
-0.061448 0.252634 0.000000
0.215099 -0.146056 0.000000
-0.056412 0.253806 0.000000
0.217961 -0.141751 0.000000
0.220736 -0.137389 0.000000
-0.051354 0.254878 0.000000
0.223424 -0.132973 0.000000
-0.046275 0.255849 0.000000
0.226023 -0.128505 0.000000
-0.041179 0.256718 0.000000
0.228534 -0.123985 0.000000
-0.036067 0.257486 0.000000
0.230953 -0.119417 0.000000
-0.030940 0.258152 0.000000
0.233282 -0.114802 0.000000
-0.025802 0.258717 0.000000
0.235519 -0.110141 0.000000
-0.020654 0.259178 0.000000
0.237662 -0.105436 0.000000
-0.015498 0.259538 0.000000
0.239711 -0.100690 0.000000
-0.010336 0.259794 0.000000
0.241666 -0.095904 0.000000
-0.005169 0.259949 0.000000
0.243525 -0.091081 0.000000
0.000000 0.260000 0.000000
0.245288 -0.086221 0.000000
0.005169 0.259949 0.000000
0.246953 -0.081327 0.000000
0.010336 0.259794 0.000000
0.248521 -0.076401 0.000000
0.015498 0.259538 0.000000
0.249991 -0.071445 0.000000
0.020654 0.259178 0.000000
0.251363 -0.066459 0.000000
0.025802 0.258717 0.000000
0.252634 -0.061448 0.000000
0.030940 0.258152 0.000000
0.253806 -0.056412 0.000000
0.036067 0.257486 0.000000
0.254878 -0.051354 0.000000
0.041179 0.256718 0.000000
0.255849 -0.046275 0.000000
0.046275 0.255849 0.000000
0.256718 -0.041179 0.000000
0.051354 0.254878 0.000000
0.257486 -0.036067 0.000000
0.056412 0.253806 0.000000
0.258152 -0.030940 0.000000
0.061448 0.252634 0.000000
0.258717 -0.025802 0.000000
0.066459 0.251363 0.000000
0.259178 -0.020654 0.000000
0.071445 0.249991 0.000000
0.259538 -0.015498 0.000000
0.076401 0.248521 0.000000
0.259794 -0.010336 0.000000
0.081327 0.246953 0.000000
0.259949 -0.005169 0.000000
0.086221 0.245288 0.000000
0.260000 0.000000 0.000000
0.091081 0.243525 0.000000
0.259949 0.005169 0.000000
0.095904 0.241666 0.000000
0.259794 0.010336 0.000000
0.100690 0.239711 0.000000
0.259538 0.015498 0.000000
0.105436 0.237662 0.000000
0.259178 0.020654 0.000000
0.110141 0.235519 0.000000
0.258717 0.025802 0.000000
0.114802 0.233282 0.000000
0.258152 0.030940 0.000000
0.119417 0.230953 0.000000
0.257486 0.036067 0.000000
0.123985 0.228534 0.000000
0.256718 0.041179 0.000000
0.128505 0.226023 0.000000
0.255849 0.046275 0.000000
0.132973 0.223424 0.000000
0.254878 0.051354 0.000000
0.137389 0.220736 0.000000
0.253806 0.056412 0.000000
0.141751 0.217961 0.000000
0.252634 0.061448 0.000000
0.146056 0.215099 0.000000
0.251363 0.066459 0.000000
0.150304 0.212153 0.000000
0.249991 0.071445 0.000000
0.154492 0.209122 0.000000
0.248521 0.076401 0.000000
0.158620 0.206009 0.000000
0.246953 0.081327 0.000000
0.162684 0.202815 0.000000
0.245288 0.086221 0.000000
0.166684 0.199540 0.000000
0.243525 0.091081 0.000000
0.170619 0.196187 0.000000
0.241666 0.095904 0.000000
0.174486 0.192756 0.000000
0.239711 0.100690 0.000000
0.178283 0.189249 0.000000
0.237662 0.105436 0.000000
0.182011 0.185666 0.000000
0.235519 0.110141 0.000000
0.185666 0.182011 0.000000
0.233282 0.114802 0.000000
0.189249 0.178283 0.000000
0.230953 0.119417 0.000000
0.192756 0.174486 0.000000
0.228534 0.123985 0.000000
0.196187 0.170619 0.000000
0.226023 0.128505 0.000000
0.199540 0.166684 0.000000
0.223424 0.132973 0.000000
0.202815 0.162684 0.000000
0.220736 0.137389 0.000000
0.206009 0.158620 0.000000
0.217961 0.141751 0.000000
0.209122 0.154492 0.000000
0.215099 0.146056 0.000000
0.212153 0.150304 0.000000
-0.203462 -0.145269 0.000000
-0.209292 -0.136737 0.000000
-0.200416 -0.149443 0.000000
-0.212073 -0.132382 0.000000
-0.197285 -0.153553 0.000000
-0.214764 -0.127971 0.000000
-0.194070 -0.157598 0.000000
-0.217362 -0.123505 0.000000
-0.190771 -0.161575 0.000000
-0.219868 -0.118987 0.000000
-0.187391 -0.165483 0.000000
-0.222281 -0.114417 0.000000
-0.183931 -0.169320 0.000000
-0.224598 -0.109799 0.000000
-0.180392 -0.173086 0.000000
-0.226819 -0.105134 0.000000
-0.176777 -0.176777 0.000000
-0.228943 -0.100424 0.000000
-0.173086 -0.180392 0.000000
-0.230970 -0.095671 0.000000
-0.169320 -0.183931 0.000000
-0.232898 -0.090877 0.000000
-0.165483 -0.187391 0.000000
-0.234726 -0.086044 0.000000
-0.161575 -0.190771 0.000000
-0.236454 -0.081175 0.000000
-0.157598 -0.194070 0.000000
-0.238081 -0.076271 0.000000
-0.153553 -0.197285 0.000000
-0.239607 -0.071334 0.000000
-0.149443 -0.200416 0.000000
-0.241030 -0.066366 0.000000
-0.145269 -0.203462 0.000000
-0.242350 -0.061370 0.000000
-0.141033 -0.206421 0.000000
-0.243567 -0.056347 0.000000
-0.136737 -0.209292 0.000000
-0.244680 -0.051301 0.000000
-0.132382 -0.212073 0.000000
-0.245688 -0.046232 0.000000
-0.127971 -0.214764 0.000000
-0.246591 -0.041144 0.000000
-0.123505 -0.217362 0.000000
-0.247389 -0.036039 0.000000
-0.118987 -0.219868 0.000000
-0.248081 -0.030919 0.000000
-0.114417 -0.222281 0.000000
-0.248667 -0.025786 0.000000
-0.109799 -0.224598 0.000000
-0.249146 -0.020642 0.000000
-0.105134 -0.226819 0.000000
-0.249520 -0.015489 0.000000
-0.100424 -0.228943 0.000000
-0.249786 -0.010330 0.000000
-0.095671 -0.230970 0.000000
-0.249947 -0.005166 0.000000
-0.090877 -0.232898 0.000000
-0.250000 0.000000 0.000000
-0.086044 -0.234726 0.000000
-0.249947 0.005166 0.000000
-0.081175 -0.236454 0.000000
-0.249786 0.010330 0.000000
-0.076271 -0.238081 0.000000
-0.249520 0.015489 0.000000
-0.071334 -0.239607 0.000000
-0.249146 0.020642 0.000000
-0.066366 -0.241030 0.000000
-0.248667 0.025786 0.000000
-0.061370 -0.242350 0.000000
-0.248081 0.030919 0.000000
-0.056347 -0.243567 0.000000
-0.247389 0.036039 0.000000
-0.051301 -0.244680 0.000000
-0.246591 0.041144 0.000000
-0.046232 -0.245688 0.000000
-0.245688 0.046232 0.000000
-0.041144 -0.246591 0.000000
-0.244680 0.051301 0.000000
-0.036039 -0.247389 0.000000
-0.243567 0.056347 0.000000
-0.030919 -0.248081 0.000000
-0.242350 0.061370 0.000000
-0.025786 -0.248667 0.000000
-0.241030 0.066366 0.000000
-0.020642 -0.249146 0.000000
-0.239607 0.071334 0.000000
-0.015489 -0.249520 0.000000
-0.238081 0.076271 0.000000
-0.010330 -0.249786 0.000000
-0.236454 0.081175 0.000000
-0.005166 -0.249947 0.000000
-0.234726 0.086044 0.000000
-0.000000 -0.250000 0.000000
-0.232898 0.090877 0.000000
0.005166 -0.249947 0.000000
-0.230970 0.095671 0.000000
0.010330 -0.249786 0.000000
-0.228943 0.100424 0.000000
0.015489 -0.249520 0.000000
-0.226819 0.105134 0.000000
0.020642 -0.249146 0.000000
-0.224598 0.109799 0.000000
0.025786 -0.248667 0.000000
-0.222281 0.114417 0.000000
0.030919 -0.248081 0.000000
-0.219868 0.118987 0.000000
0.036039 -0.247389 0.000000
-0.217362 0.123505 0.000000
0.041144 -0.246591 0.000000
-0.214764 0.127971 0.000000
0.046232 -0.245688 0.000000
-0.212073 0.132382 0.000000
0.051301 -0.244680 0.000000
-0.209292 0.136737 0.000000
0.056347 -0.243567 0.000000
-0.206421 0.141033 0.000000
0.061370 -0.242350 0.000000
-0.203462 0.145269 0.000000
0.066366 -0.241030 0.000000
-0.200416 0.149443 0.000000
0.071334 -0.239607 0.000000
-0.197285 0.153553 0.000000
0.076271 -0.238081 0.000000
-0.194070 0.157598 0.000000
0.081175 -0.236454 0.000000
-0.190771 0.161575 0.000000
0.086044 -0.234726 0.000000
-0.187391 0.165483 0.000000
0.090877 -0.232898 0.000000
-0.183931 0.169320 0.000000
0.095671 -0.230970 0.000000
-0.180392 0.173086 0.000000
0.100424 -0.228943 0.000000
-0.176777 0.176777 0.000000
0.105134 -0.226819 0.000000
-0.173086 0.180392 0.000000
0.109799 -0.224598 0.000000
-0.169320 0.183931 0.000000
0.114417 -0.222281 0.000000
-0.165483 0.187391 0.000000
0.118987 -0.219868 0.000000
-0.161575 0.190771 0.000000
0.123505 -0.217362 0.000000
-0.157598 0.194070 0.000000
0.127971 -0.214764 0.000000
-0.153553 0.197285 0.000000
0.132382 -0.212073 0.000000
-0.149443 0.200416 0.000000
0.136737 -0.209292 0.000000
-0.145269 0.203462 0.000000
0.141033 -0.206421 0.000000
-0.141033 0.206421 0.000000
0.145269 -0.203462 0.000000
-0.136737 0.209292 0.000000
0.149443 -0.200416 0.000000
-0.132382 0.212073 0.000000
0.153553 -0.197285 0.000000
-0.127971 0.214764 0.000000
0.157598 -0.194070 0.000000
-0.123505 0.217362 0.000000
0.161575 -0.190771 0.000000
-0.118987 0.219868 0.000000
0.165483 -0.187391 0.000000
-0.114417 0.222281 0.000000
0.169320 -0.183931 0.000000
-0.109799 0.224598 0.000000
0.173086 -0.180392 0.000000
-0.105134 0.226819 0.000000
0.176777 -0.176777 0.000000
-0.100424 0.228943 0.000000
0.180392 -0.173086 0.000000
-0.095671 0.230970 0.000000
0.183931 -0.169320 0.000000
-0.090877 0.232898 0.000000
0.187391 -0.165483 0.000000
-0.086044 0.234726 0.000000
0.190771 -0.161575 0.000000
-0.081175 0.236454 0.000000
0.194070 -0.157598 0.000000
-0.076271 0.238081 0.000000
0.197285 -0.153553 0.000000
-0.071334 0.239607 0.000000
0.200416 -0.149443 0.000000
-0.066366 0.241030 0.000000
0.203462 -0.145269 0.000000
-0.061370 0.242350 0.000000
0.206421 -0.141033 0.000000
-0.056347 0.243567 0.000000
0.209292 -0.136737 0.000000
-0.051301 0.244680 0.000000
0.212073 -0.132382 0.000000
-0.046232 0.245688 0.000000
0.214764 -0.127971 0.000000
-0.041144 0.246591 0.000000
0.217362 -0.123505 0.000000
-0.036039 0.247389 0.000000
0.219868 -0.118987 0.000000
-0.030919 0.248081 0.000000
0.222281 -0.114417 0.000000
-0.025786 0.248667 0.000000
0.224598 -0.109799 0.000000
-0.020642 0.249146 0.000000
0.226819 -0.105134 0.000000
-0.015489 0.249520 0.000000
0.228943 -0.100424 0.000000
-0.010330 0.249786 0.000000
0.230970 -0.095671 0.000000
-0.005166 0.249947 0.000000
0.232898 -0.090877 0.000000
0.000000 0.250000 0.000000
0.234726 -0.086044 0.000000
0.005166 0.249947 0.000000
0.236454 -0.081175 0.000000
0.010330 0.249786 0.000000
0.238081 -0.076271 0.000000
0.015489 0.249520 0.000000
0.239607 -0.071334 0.000000
0.020642 0.249146 0.000000
0.241030 -0.066366 0.000000
0.025786 0.248667 0.000000
0.242350 -0.061370 0.000000
0.030919 0.248081 0.000000
0.243567 -0.056347 0.000000
0.036039 0.247389 0.000000
0.244680 -0.051301 0.000000
0.041144 0.246591 0.000000
0.245688 -0.046232 0.000000
0.046232 0.245688 0.000000
0.246591 -0.041144 0.000000
0.051301 0.244680 0.000000
0.247389 -0.036039 0.000000
0.056347 0.243567 0.000000
0.248081 -0.030919 0.000000
0.061370 0.242350 0.000000
0.248667 -0.025786 0.000000
0.066366 0.241030 0.000000
0.249146 -0.020642 0.000000
0.071334 0.239607 0.000000
0.249520 -0.015489 0.000000
0.076271 0.238081 0.000000
0.249786 -0.010330 0.000000
0.081175 0.236454 0.000000
0.249947 -0.005166 0.000000
0.086044 0.234726 0.000000
0.250000 -0.000000 0.000000
0.090877 0.232898 0.000000
0.249947 0.005166 0.000000
0.095671 0.230970 0.000000
0.249786 0.010330 0.000000
0.100424 0.228943 0.000000
0.249520 0.015489 0.000000
0.105134 0.226819 0.000000
0.249146 0.020642 0.000000
0.109799 0.224598 0.000000
0.248667 0.025786 0.000000
0.114417 0.222281 0.000000
0.248081 0.030919 0.000000
0.118987 0.219868 0.000000
0.247389 0.036039 0.000000
0.123505 0.217362 0.000000
0.246591 0.041144 0.000000
0.127971 0.214764 0.000000
0.245688 0.046232 0.000000
0.132382 0.212073 0.000000
0.244680 0.051301 0.000000
0.136737 0.209292 0.000000
0.243567 0.056347 0.000000
0.141033 0.206421 0.000000
0.242350 0.061370 0.000000
0.145269 0.203462 0.000000
0.241030 0.066366 0.000000
0.149443 0.200416 0.000000
0.239607 0.071334 0.000000
0.153553 0.197285 0.000000
0.238081 0.076271 0.000000
0.157598 0.194070 0.000000
0.236454 0.081175 0.000000
0.161575 0.190771 0.000000
0.234726 0.086044 0.000000
0.165483 0.187391 0.000000
0.232898 0.090877 0.000000
0.169320 0.183931 0.000000
0.230970 0.095671 0.000000
0.173086 0.180392 0.000000
0.228943 0.100424 0.000000
0.176777 0.176777 0.000000
0.226819 0.105134 0.000000
0.180392 0.173086 0.000000
0.224598 0.109799 0.000000
0.183931 0.169320 0.000000
0.222281 0.114417 0.000000
0.187391 0.165483 0.000000
0.219868 0.118987 0.000000
0.190771 0.161575 0.000000
0.217362 0.123505 0.000000
0.194070 0.157598 0.000000
0.214764 0.127971 0.000000
0.197285 0.153553 0.000000
0.212073 0.132382 0.000000
0.200416 0.149443 0.000000
0.209292 0.136737 0.000000
0.206421 0.141033 0.000000
0.203462 0.145269 0.000000
-0.211239 -0.145764 0.000000
-0.207348 -0.145506 0.000000
-0.208235 -0.149997 0.000000
-0.210271 -0.141224 0.000000
-0.214114 -0.141448 0.000000
-0.204348 -0.149730 0.000000
-0.205202 -0.154186 0.000000
-0.213130 -0.136835 0.000000
-0.216922 -0.137075 0.000000
-0.201224 -0.153860 0.000000
-0.202031 -0.158271 0.000000
-0.215878 -0.132424 0.000000
-0.219710 -0.132611 0.000000
-0.198030 -0.157923 0.000000
-0.198804 -0.162319 0.000000
-0.218605 -0.127699 0.000000
-0.222365 -0.128140 0.000000
-0.224875 -0.124872 0.000000
-0.194761 -0.161929 0.000000
-0.195479 -0.166293 0.000000
-0.221918 -0.123192 0.000000
-0.226380 -0.121036 0.000000
-0.191411 -0.165867 0.000000
-0.192076 -0.170180 0.000000
-0.223993 -0.118092 0.000000
-0.228835 -0.116386 0.000000
-0.187988 -0.169741 0.000000
-0.188629 -0.174050 0.000000
-0.226621 -0.113165 0.000000
-0.231077 -0.111640 0.000000
-0.184488 -0.173541 0.000000
-0.185072 -0.177780 0.000000
-0.228918 -0.108399 0.000000
-0.233287 -0.106944 0.000000
-0.180913 -0.177266 0.000000
-0.181487 -0.181485 0.000000
-0.231106 -0.103709 0.000000
-0.235397 -0.102211 0.000000
-0.177263 -0.180925 0.000000
-0.177757 -0.185116 0.000000
-0.233157 -0.098942 0.000000
-0.237414 -0.097442 0.000000
-0.173562 -0.184499 0.000000
-0.173989 -0.188666 0.000000
-0.235110 -0.094195 0.000000
-0.239353 -0.092615 0.000000
-0.169783 -0.188037 0.000000
-0.170176 -0.192088 0.000000
-0.237036 -0.089400 0.000000
-0.241145 -0.087789 0.000000
-0.165867 -0.191421 0.000000
-0.166261 -0.195470 0.000000
-0.238795 -0.084500 0.000000
-0.242869 -0.082916 0.000000
-0.161926 -0.194766 0.000000
-0.162296 -0.198817 0.000000
-0.240480 -0.079619 0.000000
-0.244533 -0.078015 0.000000
-0.157923 -0.198067 0.000000
-0.158264 -0.202046 0.000000
-0.242098 -0.074704 0.000000
-0.246013 -0.073093 0.000000
-0.153833 -0.201229 0.000000
-0.154141 -0.205206 0.000000
-0.243529 -0.069697 0.000000
-0.247451 -0.068123 0.000000
-0.149674 -0.204349 0.000000
-0.149938 -0.208289 0.000000
-0.244899 -0.064716 0.000000
-0.248766 -0.063116 0.000000
-0.145447 -0.207383 0.000000
-0.145696 -0.211247 0.000000
-0.246147 -0.059719 0.000000
-0.249987 -0.058081 0.000000
-0.141114 -0.210324 0.000000
-0.141350 -0.214172 0.000000
-0.247314 -0.054684 0.000000
-0.251085 -0.053025 0.000000
-0.136554 -0.213213 0.000000
-0.136933 -0.217186 0.000000
-0.133850 -0.219680 0.000000
-0.248378 -0.049626 0.000000
-0.252118 -0.047967 0.000000
-0.132090 -0.216717 0.000000
-0.130020 -0.221252 0.000000
-0.249339 -0.044548 0.000000
-0.253006 -0.042863 0.000000
-0.126984 -0.218897 0.000000
-0.125536 -0.223876 0.000000
-0.250196 -0.039452 0.000000
-0.253814 -0.037756 0.000000
-0.122403 -0.221788 0.000000
-0.120909 -0.226359 0.000000
-0.250948 -0.034339 0.000000
-0.254531 -0.032639 0.000000
-0.117810 -0.224233 0.000000
-0.116302 -0.228773 0.000000
-0.251590 -0.029207 0.000000
-0.255162 -0.027498 0.000000
-0.113063 -0.226648 0.000000
-0.111626 -0.231076 0.000000
-0.252152 -0.024064 0.000000
-0.255682 -0.022349 0.000000
-0.108405 -0.228923 0.000000
-0.106956 -0.233292 0.000000
-0.252595 -0.018895 0.000000
-0.256048 -0.017181 0.000000
-0.103699 -0.231093 0.000000
-0.102209 -0.235408 0.000000
-0.252917 -0.013716 0.000000
-0.256371 -0.011977 0.000000
-0.098950 -0.233168 0.000000
-0.097430 -0.237419 0.000000
-0.253145 -0.008502 0.000000
-0.256525 -0.006784 0.000000
-0.094186 -0.235148 0.000000
-0.092626 -0.239323 0.000000
-0.253246 -0.003274 0.000000
-0.256590 -0.001533 0.000000
-0.089365 -0.237021 0.000000
-0.087789 -0.241137 0.000000
-0.256677 0.003861 0.000000
-0.253142 0.002166 0.000000
-0.257115 0.007822 0.000000
-0.084514 -0.238796 0.000000
-0.082921 -0.242867 0.000000
-0.253720 0.007776 0.000000
-0.256519 0.011763 0.000000
-0.079606 -0.240458 0.000000
-0.078018 -0.244489 0.000000
-0.252852 0.013320 0.000000
-0.256068 0.016920 0.000000
-0.074694 -0.242036 0.000000
-0.073082 -0.246010 0.000000
-0.252611 0.018669 0.000000
-0.255656 0.022234 0.000000
-0.069735 -0.243513 0.000000
-0.068114 -0.247458 0.000000
-0.252141 0.023990 0.000000
-0.255162 0.027444 0.000000
-0.064743 -0.244887 0.000000
-0.063092 -0.248749 0.000000
-0.251604 0.029164 0.000000
-0.254573 0.032595 0.000000
-0.059717 -0.246147 0.000000
-0.058069 -0.249993 0.000000
-0.250974 0.034287 0.000000
-0.253840 0.037734 0.000000
-0.054678 -0.247313 0.000000
-0.053013 -0.251111 0.000000
-0.250231 0.039411 0.000000
-0.253024 0.042842 0.000000
-0.049616 -0.248377 0.000000
-0.047935 -0.252120 0.000000
-0.249361 0.044517 0.000000
-0.252111 0.047933 0.000000
-0.044539 -0.249350 0.000000
-0.042840 -0.253023 0.000000
-0.248407 0.049594 0.000000
-0.251110 0.053004 0.000000
-0.039431 -0.250212 0.000000
-0.037704 -0.253860 0.000000
-0.247324 0.054669 0.000000
-0.249985 0.058059 0.000000
-0.034308 -0.250972 0.000000
-0.032585 -0.254550 0.000000
-0.246143 0.059708 0.000000
-0.248743 0.063082 0.000000
-0.029143 -0.251616 0.000000
-0.027438 -0.255160 0.000000
-0.244868 0.064718 0.000000
-0.247429 0.068085 0.000000
-0.023984 -0.252155 0.000000
-0.022275 -0.255652 0.000000
-0.243509 0.069698 0.000000
-0.245994 0.073043 0.000000
-0.018760 -0.252599 0.000000
-0.017016 -0.256101 0.000000
-0.242036 0.074652 0.000000
-0.244469 0.077981 0.000000
-0.013287 -0.252844 0.000000
-0.011794 -0.256461 0.000000
-0.007824 -0.257115 0.000000
-0.240463 0.079574 0.000000
-0.242849 0.082888 0.000000
-0.007799 -0.253734 0.000000
-0.003878 -0.256704 0.000000
-0.238789 0.084463 0.000000
-0.241130 0.087762 0.000000
-0.002313 -0.253282 0.000000
0.001488 -0.256626 0.000000
-0.237016 0.089317 0.000000
-0.239316 0.092601 0.000000
0.003275 -0.253251 0.000000
0.006791 -0.256518 0.000000
-0.235145 0.094134 0.000000
-0.237412 0.097406 0.000000
0.008519 -0.253134 0.000000
0.011961 -0.256352 0.000000
-0.233173 0.098919 0.000000
-0.235426 0.102191 0.000000
0.013685 -0.252913 0.000000
0.017142 -0.256059 0.000000
-0.231127 0.103687 0.000000
-0.233295 0.106912 0.000000
0.018872 -0.252578 0.000000
0.022325 -0.255665 0.000000
-0.228942 0.108390 0.000000
-0.231092 0.111624 0.000000
0.024038 -0.252148 0.000000
0.027480 -0.255157 0.000000
-0.226657 0.113049 0.000000
-0.228780 0.116278 0.000000
0.029190 -0.251600 0.000000
0.032621 -0.254550 0.000000
-0.224272 0.117709 0.000000
-0.226385 0.120864 0.000000
0.034318 -0.250961 0.000000
0.037740 -0.253831 0.000000
-0.221796 0.122264 0.000000
-0.223999 0.125456 0.000000
0.039411 -0.250224 0.000000
0.042847 -0.253042 0.000000
-0.218901 0.126938 0.000000
-0.221364 0.129767 0.000000
-0.219680 0.133847 0.000000
0.044518 -0.249355 0.000000
0.047933 -0.252121 0.000000
-0.216712 0.132054 0.000000
-0.217004 0.137072 0.000000
0.049586 -0.248413 0.000000
0.052994 -0.251107 0.000000
-0.213232 0.136466 0.000000
-0.214223 0.141523 0.000000
0.054657 -0.247336 0.000000
0.058052 -0.250005 0.000000
-0.210309 0.141140 0.000000
-0.211239 0.145727 0.000000
0.059678 -0.246219 0.000000
0.063074 -0.248801 0.000000
-0.207382 0.145398 0.000000
-0.208266 0.149943 0.000000
0.064707 -0.244891 0.000000
0.068065 -0.247437 0.000000
-0.204377 0.149636 0.000000
-0.205190 0.154130 0.000000
0.069691 -0.243505 0.000000
0.073032 -0.246030 0.000000
-0.201236 0.153821 0.000000
-0.202041 0.158266 0.000000
0.074644 -0.242033 0.000000
0.077971 -0.244510 0.000000
-0.198078 0.157909 0.000000
-0.198801 0.162297 0.000000
0.079563 -0.240462 0.000000
0.082879 -0.242869 0.000000
-0.194813 0.161942 0.000000
-0.195518 0.166295 0.000000
0.084448 -0.238801 0.000000
0.087756 -0.241183 0.000000
-0.191439 0.165882 0.000000
-0.192093 0.170171 0.000000
0.089300 -0.237046 0.000000
0.092599 -0.239343 0.000000
-0.188003 0.169744 0.000000
-0.188653 0.173995 0.000000
0.094143 -0.235202 0.000000
0.097411 -0.237436 0.000000
-0.184499 0.173533 0.000000
-0.185108 0.177774 0.000000
0.098956 -0.233189 0.000000
0.102214 -0.235430 0.000000
-0.180925 0.177258 0.000000
-0.181476 0.181471 0.000000
0.103685 -0.231103 0.000000
0.106930 -0.233289 0.000000
-0.177298 0.180905 0.000000
-0.177799 0.185107 0.000000
0.108419 -0.228930 0.000000
0.111656 -0.231091 0.000000
-0.173586 0.184506 0.000000
-0.174021 0.188619 0.000000
0.113144 -0.226627 0.000000
0.116347 -0.228895 0.000000
-0.169775 0.188019 0.000000
-0.170198 0.192078 0.000000
0.118125 -0.224048 0.000000
0.120958 -0.226462 0.000000
0.124847 -0.224898 0.000000
-0.165874 0.191414 0.000000
-0.166269 0.195460 0.000000
0.123118 -0.221704 0.000000
0.128317 -0.222427 0.000000
-0.161942 0.194765 0.000000
-0.162298 0.198777 0.000000
0.127741 -0.218738 0.000000
0.132718 -0.219773 0.000000
-0.157941 0.198061 0.000000
-0.158267 0.202017 0.000000
0.132458 -0.215906 0.000000
0.137099 -0.216943 0.000000
-0.153841 0.201233 0.000000
-0.154157 0.205176 0.000000
0.136835 -0.213143 0.000000
0.141446 -0.214140 0.000000
-0.149697 0.204336 0.000000
-0.149986 0.208241 0.000000
0.141204 -0.210307 0.000000
0.145766 -0.211267 0.000000
-0.145494 0.207364 0.000000
-0.145771 0.211274 0.000000
0.145482 -0.207382 0.000000
0.149974 -0.208247 0.000000
-0.141205 0.210328 0.000000
-0.141442 0.214144 0.000000
0.149675 -0.204345 0.000000
0.154126 -0.205199 0.000000
-0.136819 0.213112 0.000000
-0.137086 0.216926 0.000000
0.153844 -0.201265 0.000000
0.158238 -0.202080 0.000000
-0.132440 0.215878 0.000000
-0.132694 0.219723 0.000000
0.157910 -0.198046 0.000000
0.162291 -0.198796 0.000000
-0.127703 0.218560 0.000000
-0.128168 0.222340 0.000000
-0.124872 0.224869 0.000000
0.161934 -0.194783 0.000000
0.166261 -0.195477 0.000000
-0.123151 0.221907 0.000000
-0.120918 0.226405 0.000000
0.165879 -0.191440 0.000000
0.170170 -0.192099 0.000000
-0.117906 0.223946 0.000000
-0.116364 0.228838 0.000000
0.169751 -0.188007 0.000000
0.173993 -0.188654 0.000000
-0.113240 0.226633 0.000000
-0.111662 0.231084 0.000000
0.173542 -0.184492 0.000000
0.177760 -0.185096 0.000000
-0.108422 0.228922 0.000000
-0.106961 0.233288 0.000000
0.177261 -0.180914 0.000000
0.181485 -0.181471 0.000000
-0.103737 0.231113 0.000000
-0.102262 0.235399 0.000000
0.180916 -0.177255 0.000000
0.185091 -0.177759 0.000000
-0.098948 0.233164 0.000000
-0.097431 0.237399 0.000000
0.184491 -0.173524 0.000000
0.188622 -0.173999 0.000000
-0.094143 0.235127 0.000000
-0.092613 0.239321 0.000000
0.187992 -0.169728 0.000000
0.192102 -0.170181 0.000000
-0.089317 0.237012 0.000000
-0.087764 0.241132 0.000000
0.191418 -0.165860 0.000000
0.195491 -0.166265 0.000000
-0.084463 0.238789 0.000000
-0.082889 0.242851 0.000000
0.194761 -0.161927 0.000000
0.198782 -0.162297 0.000000
-0.079574 0.240463 0.000000
-0.077984 0.244481 0.000000
0.198034 -0.157937 0.000000
0.202051 -0.158287 0.000000
-0.074655 0.242028 0.000000
-0.073067 0.246024 0.000000
0.201260 -0.153870 0.000000
0.205213 -0.154172 0.000000
-0.069704 0.243501 0.000000
-0.068084 0.247440 0.000000
0.204378 -0.149650 0.000000
0.208273 -0.149949 0.000000
-0.064720 0.244869 0.000000
-0.063076 0.248748 0.000000
0.207393 -0.145398 0.000000
0.211241 -0.145689 0.000000
-0.059719 0.246146 0.000000
-0.058059 0.249953 0.000000
0.210313 -0.141108 0.000000
0.214198 -0.141341 0.000000
-0.054684 0.247314 0.000000
-0.053013 0.251069 0.000000
0.213186 -0.136480 0.000000
0.217027 -0.137061 0.000000
0.219675 -0.133904 0.000000
-0.049626 0.248378 0.000000
-0.047946 0.252085 0.000000
0.216699 -0.132106 0.000000
0.221261 -0.130034 0.000000
-0.044548 0.249339 0.000000
-0.042859 0.253000 0.000000
0.218972 -0.126947 0.000000
0.223829 -0.125513 0.000000
-0.039452 0.250196 0.000000
-0.037755 0.253811 0.000000
0.221761 -0.122278 0.000000
0.226348 -0.120860 0.000000
-0.034339 0.250948 0.000000
-0.032636 0.254520 0.000000
0.224241 -0.117692 0.000000
0.228771 -0.116275 0.000000
-0.029212 0.251597 0.000000
-0.027501 0.255124 0.000000
0.226657 -0.113049 0.000000
0.231079 -0.111599 0.000000
-0.024064 0.252125 0.000000
-0.022349 0.255632 0.000000
0.228947 -0.108402 0.000000
0.233301 -0.106928 0.000000
-0.018895 0.252587 0.000000
-0.017177 0.256059 0.000000
0.231124 -0.103682 0.000000
0.235410 -0.102221 0.000000
-0.013722 0.252906 0.000000
-0.011984 0.256358 0.000000
0.233165 -0.098925 0.000000
0.237410 -0.097418 0.000000
-0.008503 0.253124 0.000000
-0.006797 0.256513 0.000000
0.235127 -0.094138 0.000000
0.239324 -0.092617 0.000000
-0.003298 0.253224 0.000000
-0.001537 0.256626 0.000000
0.236998 -0.089320 0.000000
0.241141 -0.087778 0.000000
0.002151 0.253099 0.000000
0.003665 0.256640 0.000000
0.007850 0.257154 0.000000
0.238771 -0.084467 0.000000
0.242860 -0.082904 0.000000
0.007797 0.253617 0.000000
0.011936 0.256414 0.000000
0.240446 -0.079578 0.000000
0.244481 -0.077996 0.000000
0.013338 0.252784 0.000000
0.017146 0.256139 0.000000
0.242028 -0.074654 0.000000
0.246037 -0.073052 0.000000
0.018795 0.252575 0.000000
0.022298 0.255656 0.000000
0.243509 -0.069698 0.000000
0.247448 -0.068073 0.000000
0.023967 0.252157 0.000000
0.027442 0.255166 0.000000
0.244876 -0.064709 0.000000
0.248758 -0.063061 0.000000
0.029162 0.251616 0.000000
0.032604 0.254548 0.000000
0.246144 -0.059697 0.000000
0.249992 -0.058030 0.000000
0.034292 0.250979 0.000000
0.037736 0.253859 0.000000
0.247309 -0.054662 0.000000
0.251104 -0.052986 0.000000
0.039431 0.250218 0.000000
0.042858 0.253073 0.000000
0.248369 -0.049609 0.000000
0.252103 -0.047938 0.000000
0.044531 0.249396 0.000000
0.047946 0.252110 0.000000
0.249327 -0.044538 0.000000
0.253015 -0.042853 0.000000
0.049638 0.248392 0.000000
0.053019 0.251075 0.000000
0.250196 -0.039452 0.000000
0.253860 -0.037736 0.000000
0.054696 0.247309 0.000000
0.058069 0.249954 0.000000
0.251003 -0.034313 0.000000
0.254598 -0.032621 0.000000
0.059722 0.246136 0.000000
0.063114 0.248759 0.000000
0.251639 -0.029149 0.000000
0.255178 -0.027455 0.000000
0.064734 0.244874 0.000000
0.068093 0.247429 0.000000
0.252168 -0.023976 0.000000
0.255662 -0.022304 0.000000
0.069737 0.243542 0.000000
0.073050 0.246037 0.000000
0.252584 -0.018806 0.000000
0.256143 -0.017147 0.000000
0.074663 0.242036 0.000000
0.077996 0.244480 0.000000
0.252817 -0.013347 0.000000
0.256442 -0.011927 0.000000
0.257154 -0.007852 0.000000
0.079584 0.240452 0.000000
0.082921 0.242866 0.000000
0.253690 -0.007780 0.000000
0.256642 -0.003691 0.000000
0.084471 0.238773 0.000000
0.087778 0.241141 0.000000
0.253096 -0.002165 0.000000
0.256647 0.001559 0.000000
0.089321 0.236998 0.000000
0.092617 0.239324 0.000000
0.253243 0.003287 0.000000
0.256520 0.006794 0.000000
0.094136 0.235126 0.000000
0.097418 0.237410 0.000000
0.253129 0.008465 0.000000
0.256359 0.011971 0.000000
0.098915 0.233157 0.000000
0.102180 0.235399 0.000000
0.252942 0.013681 0.000000
0.256098 0.017161 0.000000
0.103663 0.231094 0.000000
0.106917 0.233294 0.000000
0.252587 0.018892 0.000000
0.255640 0.022345 0.000000
0.108396 0.228944 0.000000
0.111598 0.231082 0.000000
0.252126 0.024061 0.000000
0.255131 0.027498 0.000000
0.113048 0.226663 0.000000
0.116271 0.228781 0.000000
0.251586 0.029205 0.000000
0.254568 0.032637 0.000000
0.117706 0.224256 0.000000
0.120852 0.226357 0.000000
0.250942 0.034329 0.000000
0.253839 0.037736 0.000000
0.122248 0.221776 0.000000
0.125477 0.223846 0.000000
0.250188 0.039438 0.000000
0.253035 0.042843 0.000000
0.126912 0.218965 0.000000
0.130002 0.221279 0.000000
0.249333 0.044533 0.000000
0.252125 0.047929 0.000000
0.132108 0.216694 0.000000
0.133891 0.219601 0.000000
0.248369 0.049612 0.000000
0.251087 0.053006 0.000000
0.136550 0.213160 0.000000
0.137046 0.217019 0.000000
0.247301 0.054671 0.000000
0.249968 0.058053 0.000000
0.141152 0.210287 0.000000
0.141372 0.214174 0.000000
0.246134 0.059706 0.000000
0.248748 0.063076 0.000000
0.145482 0.207387 0.000000
0.145725 0.211231 0.000000
0.244867 0.064717 0.000000
0.247418 0.068075 0.000000
0.149697 0.204345 0.000000
0.149984 0.208266 0.000000
0.243509 0.069698 0.000000
0.246029 0.073052 0.000000
0.153835 0.201247 0.000000
0.154130 0.205204 0.000000
0.242036 0.074652 0.000000
0.244477 0.077982 0.000000
0.157903 0.198039 0.000000
0.158242 0.202054 0.000000
0.240463 0.079574 0.000000
0.242860 0.082888 0.000000
0.161909 0.194770 0.000000
0.162280 0.198807 0.000000
0.238789 0.084463 0.000000
0.241157 0.087764 0.000000
0.165849 0.191427 0.000000
0.166250 0.195508 0.000000
0.237021 0.089328 0.000000
0.239376 0.092639 0.000000
0.169721 0.188004 0.000000
0.170154 0.192121 0.000000
0.235172 0.094182 0.000000
0.237425 0.097450 0.000000
0.173527 0.184503 0.000000
0.173991 0.188648 0.000000
0.233173 0.098964 0.000000
0.235397 0.102209 0.000000
0.177263 0.180930 0.000000
0.177779 0.185108 0.000000
0.231102 0.103711 0.000000
0.233283 0.106944 0.000000
0.180917 0.177274 0.000000
0.181479 0.181481 0.000000
0.228922 0.108427 0.000000
0.231077 0.111631 0.000000
0.184496 0.173546 0.000000
0.185088 0.177792 0.000000
0.226606 0.113135 0.000000
0.228845 0.116324 0.000000
0.187993 0.169732 0.000000
0.188640 0.174022 0.000000
0.223969 0.118039 0.000000
0.226404 0.120897 0.000000
0.191413 0.165855 0.000000
0.192089 0.170164 0.000000
0.221863 0.123176 0.000000
0.224891 0.124847 0.000000
0.194756 0.161915 0.000000
0.195477 0.166261 0.000000
0.218540 0.127743 0.000000
0.222360 0.128216 0.000000
0.198020 0.157909 0.000000
0.198786 0.162290 0.000000
0.215874 0.132431 0.000000
0.219701 0.132630 0.000000
0.201205 0.153841 0.000000
0.202014 0.158253 0.000000
0.213147 0.136837 0.000000
0.216928 0.137078 0.000000
0.204316 0.149710 0.000000
0.210278 0.141207 0.000000
0.207360 0.145490 0.000000
0.205171 0.154172 0.000000
0.214149 0.141432 0.000000
0.208240 0.149993 0.000000
0.211214 0.145747 0.000000
CELLS 1860 7440
3 620 2 0
3 0 622 620
3 621 620 622
3 622 625 621
3 317 621 625
3 625 319 317
3 319 625 629
3 629 321 319
3 321 629 633
3 633 323 321
3 323 633 638
3 638 325 323
3 325 638 642
3 642 327 325
3 327 642 646
3 646 329 327
3 329 646 650
3 650 331 329
3 331 650 654
3 654 333 331
3 333 654 658
3 658 335 333
3 335 658 662
3 662 337 335
3 337 662 666
3 666 339 337
3 339 666 670
3 670 341 339
3 341 670 674
3 674 343 341
3 343 674 678
3 678 345 343
3 345 678 682
3 682 347 345
3 347 682 686
3 686 349 347
3 349 686 690
3 690 351 349
3 351 690 694
3 694 353 351
3 353 694 698
3 698 355 353
3 355 698 703
3 703 357 355
3 357 703 707
3 707 359 357
3 359 707 711
3 711 361 359
3 361 711 715
3 715 363 361
3 363 715 719
3 719 365 363
3 365 719 723
3 723 367 365
3 367 723 727
3 727 369 367
3 369 727 731
3 731 371 369
3 371 731 735
3 735 373 371
3 373 735 739
3 739 375 373
3 375 739 744
3 744 377 375
3 377 744 748
3 748 379 377
3 379 748 752
3 752 381 379
3 381 752 756
3 756 383 381
3 383 756 760
3 760 385 383
3 385 760 764
3 764 387 385
3 387 764 768
3 768 389 387
3 389 768 772
3 772 391 389
3 391 772 776
3 776 393 391
3 393 776 780
3 780 395 393
3 395 780 784
3 784 397 395
3 397 784 788
3 788 399 397
3 399 788 792
3 792 401 399
3 401 792 796
3 796 403 401
3 403 796 800
3 800 405 403
3 405 800 805
3 805 407 405
3 407 805 809
3 809 409 407
3 409 809 813
3 813 411 409
3 411 813 817
3 817 413 411
3 413 817 821
3 821 415 413
3 415 821 825
3 825 417 415
3 417 825 829
3 829 419 417
3 419 829 833
3 833 421 419
3 421 833 837
3 837 423 421
3 423 837 841
3 841 425 423
3 425 841 846
3 846 427 425
3 427 846 850
3 850 429 427
3 429 850 854
3 854 431 429
3 431 854 858
3 858 433 431
3 433 858 862
3 862 435 433
3 435 862 866
3 866 437 435
3 437 866 870
3 870 439 437
3 439 870 874
3 874 441 439
3 441 874 878
3 878 443 441
3 443 878 882
3 882 445 443
3 445 882 886
3 886 447 445
3 447 886 890
3 890 449 447
3 449 890 894
3 894 451 449
3 451 894 898
3 898 453 451
3 453 898 902
3 902 455 453
3 455 902 906
3 906 457 455
3 457 906 911
3 911 459 457
3 459 911 915
3 915 461 459
3 461 915 919
3 919 463 461
3 463 919 923
3 923 465 463
3 465 923 927
3 927 467 465
3 467 927 931
3 931 469 467
3 469 931 935
3 935 471 469
3 471 935 939
3 939 473 471
3 473 939 943
3 943 475 473
3 475 943 948
3 948 477 475
3 477 948 952
3 952 479 477
3 479 952 956
3 956 481 479
3 481 956 960
3 960 483 481
3 483 960 964
3 964 485 483
3 485 964 968
3 968 487 485
3 487 968 972
3 972 489 487
3 489 972 976
3 976 491 489
3 491 976 980
3 980 493 491
3 493 980 984
3 984 495 493
3 495 984 988
3 988 497 495
3 497 988 992
3 992 499 497
3 499 992 996
3 996 501 499
3 501 996 1000
3 1000 503 501
3 503 1000 1004
3 1004 505 503
3 505 1004 1008
3 1008 507 505
3 507 1008 1013
3 1013 509 507
3 509 1013 1017
3 1017 511 509
3 511 1017 1021
3 1021 513 511
3 513 1021 1025
3 1025 515 513
3 515 1025 1029
3 1029 517 515
3 517 1029 1033
3 1033 519 517
3 519 1033 1037
3 1037 521 519
3 521 1037 1041
3 1041 523 521
3 523 1041 1045
3 1045 525 523
3 525 1045 1049
3 1049 527 525
3 527 1049 1054
3 1054 529 527
3 529 1054 1058
3 1058 531 529
3 531 1058 1062
3 1062 533 531
3 533 1062 1066
3 1066 535 533
3 535 1066 1070
3 1070 537 535
3 537 1070 1074
3 1074 539 537
3 539 1074 1078
3 1078 541 539
3 541 1078 1082
3 1082 543 541
3 543 1082 1086
3 1086 545 543
3 545 1086 1090
3 1090 547 545
3 547 1090 1094
3 1094 549 547
3 549 1094 1098
3 1098 551 549
3 551 1098 1102
3 1102 553 551
3 553 1102 1106
3 1106 555 553
3 555 1106 1110
3 1110 557 555
3 557 1110 1115
3 1115 559 557
3 559 1115 1119
3 1119 561 559
3 561 1119 1123
3 1123 563 561
3 563 1123 1127
3 1127 565 563
3 565 1127 1131
3 1131 567 565
3 567 1131 1135
3 1135 569 567
3 569 1135 1139
3 1139 571 569
3 571 1139 1143
3 1143 573 571
3 573 1143 1147
3 1147 575 573
3 575 1147 1151
3 1151 577 575
3 577 1151 1155
3 1155 579 577
3 579 1155 1159
3 1159 581 579
3 581 1159 1163
3 1163 583 581
3 583 1163 1167
3 1167 585 583
3 585 1167 1171
3 1171 587 585
3 587 1171 1175
3 1175 589 587
3 589 1175 1179
3 1179 591 589
3 591 1179 1183
3 1183 593 591
3 593 1183 1187
3 1187 595 593
3 595 1187 1191
3 1191 597 595
3 597 1191 1195
3 1195 599 597
3 599 1195 1199
3 1199 601 599
3 601 1199 1203
3 1203 603 601
3 603 1203 1207
3 1207 605 603
3 605 1207 1211
3 1211 607 605
3 607 1211 1215
3 1215 609 607
3 609 1215 1219
3 1219 611 609
3 611 1219 1223
3 1223 613 611
3 613 1223 1227
3 1227 615 613
3 615 1227 1231
3 1231 617 615
3 617 1231 1234
3 1234 618 617
3 618 1234 1235
3 1235 619 618
3 619 1235 1233
3 1233 616 619
3 616 1233 1229
3 1229 614 616
3 614 1229 1225
3 1225 612 614
3 612 1225 1221
3 1221 610 612
3 610 1221 1217
3 1217 608 610
3 608 1217 1213
3 1213 606 608
3 606 1213 1209
3 1209 604 606
3 604 1209 1205
3 1205 602 604
3 602 1205 1201
3 1201 600 602
3 600 1201 1197
3 1197 598 600
3 598 1197 1193
3 1193 596 598
3 596 1193 1189
3 1189 594 596
3 594 1189 1185
3 1185 592 594
3 592 1185 1181
3 1181 590 592
3 590 1181 1177
3 1177 588 590
3 588 1177 1173
3 1173 586 588
3 586 1173 1169
3 1169 584 586
3 584 1169 1165
3 1165 582 584
3 582 1165 1161
3 1161 580 582
3 580 1161 1157
3 1157 578 580
3 578 1157 1153
3 1153 576 578
3 576 1153 1149
3 1149 574 576
3 574 1149 1145
3 1145 572 574
3 572 1145 1141
3 1141 570 572
3 570 1141 1137
3 1137 568 570
3 568 1137 1133
3 1133 566 568
3 566 1133 1129
3 1129 564 566
3 564 1129 1125
3 1125 562 564
3 562 1125 1121
3 1121 560 562
3 560 1121 1117
3 1117 558 560
3 558 1117 1113
3 1113 556 558
3 556 1113 1108
3 1108 554 556
3 554 1108 1104
3 1104 552 554
3 552 1104 1100
3 1100 550 552
3 550 1100 1096
3 1096 548 550
3 548 1096 1092
3 1092 546 548
3 546 1092 1088
3 1088 544 546
3 544 1088 1084
3 1084 542 544
3 542 1084 1080
3 1080 540 542
3 540 1080 1076
3 1076 538 540
3 538 1076 1072
3 1072 536 538
3 536 1072 1068
3 1068 534 536
3 534 1068 1064
3 1064 532 534
3 532 1064 1060
3 1060 530 532
3 530 1060 1056
3 1056 528 530
3 528 1056 1051
3 1051 526 528
3 526 1051 1047
3 1047 524 526
3 524 1047 1043
3 1043 522 524
3 522 1043 1039
3 1039 520 522
3 520 1039 1035
3 1035 518 520
3 518 1035 1031
3 1031 516 518
3 516 1031 1027
3 1027 514 516
3 514 1027 1023
3 1023 512 514
3 512 1023 1019
3 1019 510 512
3 510 1019 1015
3 1015 508 510
3 508 1015 1011
3 1011 506 508
3 506 1011 1006
3 1006 504 506
3 504 1006 1002
3 1002 502 504
3 502 1002 998
3 998 500 502
3 500 998 994
3 994 498 500
3 498 994 990
3 990 496 498
3 496 990 986
3 986 494 496
3 494 986 982
3 982 492 494
3 492 982 978
3 978 490 492
3 490 978 974
3 974 488 490
3 488 974 970
3 970 486 488
3 486 970 966
3 966 484 486
3 484 966 962
3 962 482 484
3 482 962 958
3 958 480 482
3 480 958 954
3 954 478 480
3 478 954 950
3 950 476 478
3 476 950 945
3 945 474 476
3 474 945 941
3 941 472 474
3 472 941 937
3 937 470 472
3 470 937 933
3 933 468 470
3 468 933 929
3 929 466 468
3 466 929 925
3 925 464 466
3 464 925 921
3 921 462 464
3 462 921 917
3 917 460 462
3 460 917 913
3 913 458 460
3 458 913 909
3 909 456 458
3 456 909 904
3 904 454 456
3 454 904 900
3 900 452 454
3 452 900 896
3 896 450 452
3 450 896 892
3 892 448 450
3 448 892 888
3 888 446 448
3 446 888 884
3 884 444 446
3 444 884 880
3 880 442 444
3 442 880 876
3 876 440 442
3 440 876 872
3 872 438 440
3 438 872 868
3 868 436 438
3 436 868 864
3 864 434 436
3 434 864 860
3 860 432 434
3 432 860 856
3 856 430 432
3 430 856 852
3 852 428 430
3 428 852 848
3 848 426 428
3 426 848 843
3 843 424 426
3 424 843 839
3 839 422 424
3 422 839 835
3 835 420 422
3 420 835 831
3 831 418 420
3 418 831 827
3 827 416 418
3 416 827 823
3 823 414 416
3 414 823 819
3 819 412 414
3 412 819 815
3 815 410 412
3 410 815 811
3 811 408 410
3 408 811 807
3 807 406 408
3 406 807 803
3 803 404 406
3 404 803 798
3 798 402 404
3 402 798 794
3 794 400 402
3 400 794 790
3 790 398 400
3 398 790 786
3 786 396 398
3 396 786 782
3 782 394 396
3 394 782 778
3 778 392 394
3 392 778 774
3 774 390 392
3 390 774 770
3 770 388 390
3 388 770 766
3 766 386 388
3 386 766 762
3 762 384 386
3 384 762 758
3 758 382 384
3 382 758 754
3 754 380 382
3 380 754 750
3 750 378 380
3 378 750 746
3 746 376 378
3 376 746 742
3 742 374 376
3 374 742 737
3 737 372 374
3 372 737 733
3 733 370 372
3 370 733 729
3 729 368 370
3 368 729 725
3 725 366 368
3 366 725 721
3 721 364 366
3 364 721 717
3 717 362 364
3 362 717 713
3 713 360 362
3 360 713 709
3 709 358 360
3 358 709 705
3 705 356 358
3 356 705 701
3 701 354 356
3 354 701 696
3 696 352 354
3 352 696 692
3 692 350 352
3 350 692 688
3 688 348 350
3 348 688 684
3 684 346 348
3 346 684 680
3 680 344 346
3 344 680 676
3 676 342 344
3 342 676 672
3 672 340 342
3 340 672 668
3 668 338 340
3 338 668 664
3 664 336 338
3 336 664 660
3 660 334 336
3 334 660 656
3 656 332 334
3 332 656 652
3 652 330 332
3 330 652 648
3 648 328 330
3 328 648 644
3 644 326 328
3 326 644 640
3 640 324 326
3 324 640 635
3 635 322 324
3 322 635 631
3 631 320 322
3 320 631 627
3 627 318 320
3 318 627 623
3 623 1 318
3 1 623 621
3 624 623 627
3 627 628 624
3 4 624 628
3 628 6 4
3 6 628 632
3 632 8 6
3 8 632 636
3 636 9 8
3 9 636 637
3 637 11 9
3 11 637 641
3 641 13 11
3 13 641 645
3 645 15 13
3 15 645 649
3 649 17 15
3 17 649 653
3 653 19 17
3 19 653 657
3 657 21 19
3 21 657 661
3 661 23 21
3 23 661 665
3 665 25 23
3 25 665 669
3 669 27 25
3 27 669 673
3 673 29 27
3 29 673 677
3 677 31 29
3 31 677 681
3 681 33 31
3 33 681 685
3 685 35 33
3 35 685 689
3 689 37 35
3 37 689 693
3 693 39 37
3 39 693 697
3 697 42 39
3 42 697 702
3 702 44 42
3 44 702 706
3 706 46 44
3 46 706 710
3 710 48 46
3 48 710 714
3 714 50 48
3 50 714 718
3 718 52 50
3 52 718 722
3 722 54 52
3 54 722 726
3 726 56 54
3 56 726 730
3 730 58 56
3 58 730 734
3 734 60 58
3 60 734 738
3 738 62 60
3 62 738 741
3 741 63 62
3 63 741 743
3 743 65 63
3 65 743 747
3 747 67 65
3 67 747 751
3 751 69 67
3 69 751 755
3 755 71 69
3 71 755 759
3 759 73 71
3 73 759 763
3 763 75 73
3 75 763 767
3 767 77 75
3 77 767 771
3 771 79 77
3 79 771 775
3 775 81 79
3 81 775 779
3 779 83 81
3 83 779 783
3 783 85 83
3 85 783 787
3 787 87 85
3 87 787 791
3 791 89 87
3 89 791 795
3 795 91 89
3 91 795 799
3 799 94 91
3 94 799 804
3 804 96 94
3 96 804 808
3 808 98 96
3 98 808 812
3 812 100 98
3 100 812 816
3 816 102 100
3 102 816 820
3 820 104 102
3 104 820 824
3 824 106 104
3 106 824 828
3 828 108 106
3 108 828 832
3 832 110 108
3 110 832 836
3 836 112 110
3 112 836 840
3 840 114 112
3 114 840 844
3 844 115 114
3 115 844 845
3 845 117 115
3 117 845 849
3 849 119 117
3 119 849 853
3 853 121 119
3 121 853 857
3 857 123 121
3 123 857 861
3 861 125 123
3 125 861 865
3 865 127 125
3 127 865 869
3 869 129 127
3 129 869 873
3 873 131 129
3 131 873 877
3 877 133 131
3 133 877 881
3 881 135 133
3 135 881 885
3 885 137 135
3 137 885 889
3 889 139 137
3 139 889 893
3 893 141 139
3 141 893 897
3 897 143 141
3 143 897 901
3 901 145 143
3 145 901 905
3 905 148 145
3 148 905 910
3 910 150 148
3 150 910 914
3 914 152 150
3 152 914 918
3 918 154 152
3 154 918 922
3 922 156 154
3 156 922 926
3 926 158 156
3 158 926 930
3 930 160 158
3 160 930 934
3 934 162 160
3 162 934 938
3 938 164 162
3 164 938 942
3 942 166 164
3 166 942 946
3 946 167 166
3 167 946 947
3 947 169 167
3 169 947 951
3 951 171 169
3 171 951 955
3 955 173 171
3 173 955 959
3 959 175 173
3 175 959 963
3 963 177 175
3 177 963 967
3 967 179 177
3 179 967 971
3 971 181 179
3 181 971 975
3 975 183 181
3 183 975 979
3 979 185 183
3 185 979 983
3 983 187 185
3 187 983 987
3 987 189 187
3 189 987 991
3 991 191 189
3 191 991 995
3 995 193 191
3 193 995 999
3 999 195 193
3 195 999 1003
3 1003 197 195
3 197 1003 1007
3 1007 200 197
3 200 1007 1012
3 1012 202 200
3 202 1012 1016
3 1016 204 202
3 204 1016 1020
3 1020 206 204
3 206 1020 1024
3 1024 208 206
3 208 1024 1028
3 1028 210 208
3 210 1028 1032
3 1032 212 210
3 212 1032 1036
3 1036 214 212
3 214 1036 1040
3 1040 216 214
3 216 1040 1044
3 1044 218 216
3 218 1044 1048
3 1048 220 218
3 220 1048 1052
3 1052 222 220
3 222 1052 1053
3 1053 224 222
3 224 1053 1057
3 1057 226 224
3 226 1057 1061
3 1061 228 226
3 228 1061 1065
3 1065 230 228
3 230 1065 1069
3 1069 232 230
3 232 1069 1073
3 1073 234 232
3 234 1073 1077
3 1077 236 234
3 236 1077 1081
3 1081 238 236
3 238 1081 1085
3 1085 240 238
3 240 1085 1089
3 1089 242 240
3 242 1089 1093
3 1093 244 242
3 244 1093 1097
3 1097 246 244
3 246 1097 1101
3 1101 248 246
3 248 1101 1105
3 1105 250 248
3 250 1105 1109
3 1109 252 250
3 252 1109 1114
3 1114 254 252
3 254 1114 1118
3 1118 256 254
3 256 1118 1122
3 1122 258 256
3 258 1122 1126
3 1126 260 258
3 260 1126 1130
3 1130 262 260
3 262 1130 1134
3 1134 264 262
3 264 1134 1138
3 1138 266 264
3 266 1138 1142
3 1142 268 266
3 268 1142 1146
3 1146 270 268
3 270 1146 1150
3 1150 272 270
3 272 1150 1154
3 1154 274 272
3 274 1154 1158
3 1158 276 274
3 276 1158 1162
3 1162 278 276
3 278 1162 1166
3 1166 280 278
3 280 1166 1170
3 1170 282 280
3 282 1170 1174
3 1174 284 282
3 284 1174 1178
3 1178 286 284
3 286 1178 1182
3 1182 288 286
3 288 1182 1186
3 1186 290 288
3 290 1186 1190
3 1190 292 290
3 292 1190 1194
3 1194 294 292
3 294 1194 1198
3 1198 296 294
3 296 1198 1202
3 1202 298 296
3 298 1202 1206
3 1206 300 298
3 300 1206 1210
3 1210 302 300
3 302 1210 1214
3 1214 304 302
3 304 1214 1218
3 1218 306 304
3 306 1218 1222
3 1222 308 306
3 308 1222 1226
3 1226 310 308
3 310 1226 1230
3 1230 312 310
3 312 1230 1236
3 1236 314 312
3 314 1236 1238
3 1238 316 314
3 316 1238 1239
3 1239 315 316
3 315 1239 1237
3 1237 313 315
3 313 1237 1232
3 1232 311 313
3 311 1232 1228
3 1228 309 311
3 309 1228 1224
3 1224 307 309
3 307 1224 1220
3 1220 305 307
3 305 1220 1216
3 1216 303 305
3 303 1216 1212
3 1212 301 303
3 301 1212 1208
3 1208 299 301
3 299 1208 1204
3 1204 297 299
3 297 1204 1200
3 1200 295 297
3 295 1200 1196
3 1196 293 295
3 293 1196 1192
3 1192 291 293
3 291 1192 1188
3 1188 289 291
3 289 1188 1184
3 1184 287 289
3 287 1184 1180
3 1180 285 287
3 285 1180 1176
3 1176 283 285
3 283 1176 1172
3 1172 281 283
3 281 1172 1168
3 1168 279 281
3 279 1168 1164
3 1164 277 279
3 277 1164 1160
3 1160 275 277
3 275 1160 1156
3 1156 273 275
3 273 1156 1152
3 1152 271 273
3 271 1152 1148
3 1148 269 271
3 269 1148 1144
3 1144 267 269
3 267 1144 1140
3 1140 265 267
3 265 1140 1136
3 1136 263 265
3 263 1136 1132
3 1132 261 263
3 261 1132 1128
3 1128 259 261
3 259 1128 1124
3 1124 257 259
3 257 1124 1120
3 1120 255 257
3 255 1120 1116
3 1116 253 255
3 253 1116 1112
3 1112 251 253
3 251 1112 1111
3 1111 249 251
3 249 1111 1107
3 1107 247 249
3 247 1107 1103
3 1103 245 247
3 245 1103 1099
3 1099 243 245
3 243 1099 1095
3 1095 241 243
3 241 1095 1091
3 1091 239 241
3 239 1091 1087
3 1087 237 239
3 237 1087 1083
3 1083 235 237
3 235 1083 1079
3 1079 233 235
3 233 1079 1075
3 1075 231 233
3 231 1075 1071
3 1071 229 231
3 229 1071 1067
3 1067 227 229
3 227 1067 1063
3 1063 225 227
3 225 1063 1059
3 1059 223 225
3 223 1059 1055
3 1055 221 223
3 221 1055 1050
3 1050 219 221
3 219 1050 1046
3 1046 217 219
3 217 1046 1042
3 1042 215 217
3 215 1042 1038
3 1038 213 215
3 213 1038 1034
3 1034 211 213
3 211 1034 1030
3 1030 209 211
3 209 1030 1026
3 1026 207 209
3 207 1026 1022
3 1022 205 207
3 205 1022 1018
3 1018 203 205
3 203 1018 1014
3 1014 201 203
3 201 1014 1010
3 1010 199 201
3 199 1010 1009
3 1009 198 199
3 198 1009 1005
3 1005 196 198
3 196 1005 1001
3 1001 194 196
3 194 1001 997
3 997 192 194
3 192 997 993
3 993 190 192
3 190 993 989
3 989 188 190
3 188 989 985
3 985 186 188
3 186 985 981
3 981 184 186
3 184 981 977
3 977 182 184
3 182 977 973
3 973 180 182
3 180 973 969
3 969 178 180
3 178 969 965
3 965 176 178
3 176 965 961
3 961 174 176
3 174 961 957
3 957 172 174
3 172 957 953
3 953 170 172
3 170 953 949
3 949 168 170
3 168 949 944
3 944 165 168
3 165 944 940
3 940 163 165
3 163 940 936
3 936 161 163
3 161 936 932
3 932 159 161
3 159 932 928
3 928 157 159
3 157 928 924
3 924 155 157
3 155 924 920
3 920 153 155
3 153 920 916
3 916 151 153
3 151 916 912
3 912 149 151
3 149 912 908
3 908 147 149
3 147 908 907
3 907 146 147
3 146 907 903
3 903 144 146
3 144 903 899
3 899 142 144
3 142 899 895
3 895 140 142
3 140 895 891
3 891 138 140
3 138 891 887
3 887 136 138
3 136 887 883
3 883 134 136
3 134 883 879
3 879 132 134
3 132 879 875
3 875 130 132
3 130 875 871
3 871 128 130
3 128 871 867
3 867 126 128
3 126 867 863
3 863 124 126
3 124 863 859
3 859 122 124
3 122 859 855
3 855 120 122
3 120 855 851
3 851 118 120
3 118 851 847
3 847 116 118
3 116 847 842
3 842 113 116
3 113 842 838
3 838 111 113
3 111 838 834
3 834 109 111
3 109 834 830
3 830 107 109
3 107 830 826
3 826 105 107
3 105 826 822
3 822 103 105
3 103 822 818
3 818 101 103
3 101 818 814
3 814 99 101
3 99 814 810
3 810 97 99
3 97 810 806
3 806 95 97
3 95 806 802
3 802 93 95
3 93 802 801
3 801 92 93
3 92 801 797
3 797 90 92
3 90 797 793
3 793 88 90
3 88 793 789
3 789 86 88
3 86 789 785
3 785 84 86
3 84 785 781
3 781 82 84
3 82 781 777
3 777 80 82
3 80 777 773
3 773 78 80
3 78 773 769
3 769 76 78
3 76 769 765
3 765 74 76
3 74 765 761
3 761 72 74
3 72 761 757
3 757 70 72
3 70 757 753
3 753 68 70
3 68 753 749
3 749 66 68
3 66 749 745
3 745 64 66
3 64 745 740
3 740 61 64
3 61 740 736
3 736 59 61
3 59 736 732
3 732 57 59
3 57 732 728
3 728 55 57
3 55 728 724
3 724 53 55
3 53 724 720
3 720 51 53
3 51 720 716
3 716 49 51
3 49 716 712
3 712 47 49
3 47 712 708
3 708 45 47
3 45 708 704
3 704 43 45
3 43 704 700
3 700 41 43
3 41 700 699
3 699 40 41
3 40 699 695
3 695 38 40
3 38 695 691
3 691 36 38
3 36 691 687
3 687 34 36
3 34 687 683
3 683 32 34
3 32 683 679
3 679 30 32
3 30 679 675
3 675 28 30
3 28 675 671
3 671 26 28
3 26 671 667
3 667 24 26
3 24 667 663
3 663 22 24
3 22 663 659
3 659 20 22
3 20 659 655
3 655 18 20
3 18 655 651
3 651 16 18
3 16 651 647
3 647 14 16
3 14 647 643
3 643 12 14
3 12 643 639
3 639 10 12
3 10 639 634
3 634 7 10
3 7 634 630
3 630 5 7
3 5 630 626
3 626 3 5
3 3 626 622
3 629 626 630
3 633 630 634
3 638 634 639
3 642 639 643
3 646 643 647
3 650 647 651
3 654 651 655
3 658 655 659
3 662 659 663
3 666 663 667
3 670 667 671
3 674 671 675
3 678 675 679
3 682 679 683
3 686 683 687
3 690 687 691
3 694 691 695
3 698 695 699
3 700 703 699
3 700 704 703
3 707 704 708
3 711 708 712
3 715 712 716
3 719 716 720
3 723 720 724
3 727 724 728
3 731 728 732
3 735 732 736
3 739 736 740
3 744 740 745
3 748 745 749
3 752 749 753
3 756 753 757
3 760 757 761
3 764 761 765
3 768 765 769
3 772 769 773
3 776 773 777
3 780 777 781
3 784 781 785
3 788 785 789
3 792 789 793
3 796 793 797
3 800 797 801
3 802 805 801
3 802 806 805
3 809 806 810
3 813 810 814
3 817 814 818
3 821 818 822
3 825 822 826
3 829 826 830
3 833 830 834
3 837 834 838
3 841 838 842
3 846 842 847
3 850 847 851
3 854 851 855
3 858 855 859
3 862 859 863
3 866 863 867
3 870 867 871
3 874 871 875
3 878 875 879
3 882 879 883
3 886 883 887
3 890 887 891
3 894 891 895
3 898 895 899
3 902 899 903
3 906 903 907
3 908 911 907
3 908 912 911
3 915 912 916
3 919 916 920
3 923 920 924
3 927 924 928
3 931 928 932
3 935 932 936
3 939 936 940
3 943 940 944
3 948 944 949
3 952 949 953
3 956 953 957
3 960 957 961
3 964 961 965
3 968 965 969
3 972 969 973
3 976 973 977
3 980 977 981
3 984 981 985
3 988 985 989
3 992 989 993
3 996 993 997
3 1000 997 1001
3 1004 1001 1005
3 1008 1005 1009
3 1010 1013 1009
3 1010 1014 1013
3 1017 1014 1018
3 1021 1018 1022
3 1025 1022 1026
3 1029 1026 1030
3 1033 1030 1034
3 1037 1034 1038
3 1041 1038 1042
3 1045 1042 1046
3 1049 1046 1050
3 1054 1050 1055
3 1058 1055 1059
3 1062 1059 1063
3 1066 1063 1067
3 1070 1067 1071
3 1074 1071 1075
3 1078 1075 1079
3 1082 1079 1083
3 1086 1083 1087
3 1090 1087 1091
3 1094 1091 1095
3 1098 1095 1099
3 1102 1099 1103
3 1106 1103 1107
3 1110 1107 1111
3 1112 1115 1111
3 1112 1116 1115
3 1119 1116 1120
3 1123 1120 1124
3 1127 1124 1128
3 1131 1128 1132
3 1135 1132 1136
3 1139 1136 1140
3 1143 1140 1144
3 1147 1144 1148
3 1151 1148 1152
3 1155 1152 1156
3 1159 1156 1160
3 1163 1160 1164
3 1167 1164 1168
3 1171 1168 1172
3 1175 1172 1176
3 1179 1176 1180
3 1183 1180 1184
3 1187 1184 1188
3 1191 1188 1192
3 1195 1192 1196
3 1199 1196 1200
3 1203 1200 1204
3 1207 1204 1208
3 1211 1208 1212
3 1215 1212 1216
3 1220 1219 1216
3 1220 1224 1219
3 1223 1224 1228
3 1227 1228 1232
3 1231 1232 1237
3 1234 1237 1239
3 1235 1239 1238
3 1233 1238 1236
3 1229 1236 1230
3 1225 1230 1226
3 1221 1226 1222
3 1217 1222 1218
3 1213 1218 1214
3 1209 1214 1210
3 1205 1210 1206
3 1201 1206 1202
3 1197 1202 1198
3 1193 1198 1194
3 1189 1194 1190
3 1185 1190 1186
3 1181 1186 1182
3 1177 1182 1178
3 1173 1178 1174
3 1169 1174 1170
3 1165 1170 1166
3 1161 1166 1162
3 1158 1157 1162
3 1158 1154 1157
3 1153 1154 1150
3 1149 1150 1146
3 1145 1146 1142
3 1141 1142 1138
3 1137 1138 1134
3 1133 1134 1130
3 1129 1130 1126
3 1125 1126 1122
3 1121 1122 1118
3 1117 1118 1114
3 1113 1114 1109
3 1108 1109 1105
3 1104 1105 1101
3 1100 1101 1097
3 1096 1097 1093
3 1092 1093 1089
3 1088 1089 1085
3 1084 1085 1081
3 1080 1081 1077
3 1076 1077 1073
3 1072 1073 1069
3 1068 1069 1065
3 1064 1065 1061
3 1060 1061 1057
3 1053 1056 1057
3 1053 1052 1056
3 1051 1052 1048
3 1047 1048 1044
3 1043 1044 1040
3 1039 1040 1036
3 1035 1036 1032
3 1031 1032 1028
3 1027 1028 1024
3 1023 1024 1020
3 1019 1020 1016
3 1015 1016 1012
3 1011 1012 1007
3 1006 1007 1003
3 1002 1003 999
3 998 999 995
3 994 995 991
3 990 991 987
3 986 987 983
3 982 983 979
3 978 979 975
3 974 975 971
3 970 971 967
3 966 967 963
3 962 963 959
3 958 959 955
3 954 955 951
3 947 950 951
3 947 946 950
3 945 946 942
3 941 942 938
3 937 938 934
3 933 934 930
3 929 930 926
3 925 926 922
3 921 922 918
3 917 918 914
3 913 914 910
3 909 910 905
3 904 905 901
3 900 901 897
3 896 897 893
3 892 893 889
3 888 889 885
3 884 885 881
3 880 881 877
3 876 877 873
3 872 873 869
3 868 869 865
3 864 865 861
3 860 861 857
3 856 857 853
3 852 853 849
3 845 848 849
3 845 844 848
3 844 840 843
3 839 840 836
3 835 836 832
3 831 832 828
3 827 828 824
3 823 824 820
3 819 820 816
3 815 816 812
3 811 812 808
3 807 808 804
3 803 804 799
3 798 799 795
3 794 795 791
3 790 791 787
3 786 787 783
3 782 783 779
3 778 779 775
3 774 775 771
3 770 771 767
3 766 767 763
3 762 763 759
3 758 759 755
3 754 755 751
3 750 751 747
3 743 746 747
3 743 741 746
3 742 741 738
3 737 738 734
3 733 734 730
3 729 730 726
3 725 726 722
3 721 722 718
3 717 718 714
3 713 714 710
3 709 710 706
3 705 706 702
3 701 702 697
3 696 697 693
3 692 693 689
3 688 689 685
3 684 685 681
3 680 681 677
3 676 677 673
3 672 673 669
3 668 669 665
3 664 665 661
3 660 661 657
3 656 657 653
3 652 653 649
3 648 649 645
3 644 645 641
3 637 640 641
3 637 636 640
3 635 636 632
3 631 632 628
3 624 4 2
3 623 624 620
3 628 627 631
3 632 631 635
3 636 635 640
3 641 640 644
3 645 644 648
3 649 648 652
3 653 652 656
3 657 656 660
3 661 660 664
3 665 664 668
3 669 668 672
3 673 672 676
3 677 676 680
3 681 680 684
3 685 684 688
3 689 688 692
3 693 692 696
3 697 696 701
3 702 701 705
3 706 705 709
3 710 709 713
3 714 713 717
3 718 717 721
3 722 721 725
3 726 725 729
3 730 729 733
3 734 733 737
3 738 737 742
3 741 742 746
3 747 746 750
3 751 750 754
3 755 754 758
3 759 758 762
3 763 762 766
3 767 766 770
3 771 770 774
3 775 774 778
3 779 778 782
3 783 782 786
3 787 786 790
3 791 790 794
3 795 794 798
3 799 798 803
3 804 803 807
3 808 807 811
3 812 811 815
3 816 815 819
3 820 819 823
3 824 823 827
3 828 827 831
3 832 831 835
3 836 835 839
3 840 839 843
3 844 843 848
3 849 848 852
3 853 852 856
3 857 856 860
3 861 860 864
3 865 864 868
3 869 868 872
3 873 872 876
3 877 876 880
3 881 880 884
3 885 884 888
3 889 888 892
3 893 892 896
3 897 896 900
3 901 900 904
3 905 904 909
3 910 909 913
3 914 913 917
3 918 917 921
3 922 921 925
3 926 925 929
3 930 929 933
3 934 933 937
3 938 937 941
3 942 941 945
3 946 945 950
3 951 950 954
3 955 954 958
3 959 958 962
3 963 962 966
3 967 966 970
3 971 970 974
3 975 974 978
3 979 978 982
3 983 982 986
3 987 986 990
3 991 990 994
3 995 994 998
3 999 998 1002
3 1003 1002 1006
3 1007 1006 1011
3 1012 1011 1015
3 1016 1015 1019
3 1020 1019 1023
3 1024 1023 1027
3 1028 1027 1031
3 1032 1031 1035
3 1036 1035 1039
3 1040 1039 1043
3 1044 1043 1047
3 1048 1047 1051
3 1052 1051 1056
3 1057 1056 1060
3 1061 1060 1064
3 1065 1064 1068
3 1069 1068 1072
3 1073 1072 1076
3 1077 1076 1080
3 1081 1080 1084
3 1085 1084 1088
3 1089 1088 1092
3 1093 1092 1096
3 1097 1096 1100
3 1101 1100 1104
3 1105 1104 1108
3 1109 1108 1113
3 1114 1113 1117
3 1118 1117 1121
3 1122 1121 1125
3 1126 1125 1129
3 1130 1129 1133
3 1134 1133 1137
3 1138 1137 1141
3 1142 1141 1145
3 1146 1145 1149
3 1150 1149 1153
3 1154 1153 1157
3 1162 1157 1161
3 1166 1161 1165
3 1170 1165 1169
3 1174 1169 1173
3 1178 1173 1177
3 1182 1177 1181
3 1186 1181 1185
3 1190 1185 1189
3 1194 1189 1193
3 1198 1193 1197
3 1202 1197 1201
3 1206 1201 1205
3 1210 1205 1209
3 1214 1209 1213
3 1218 1213 1217
3 1222 1217 1221
3 1226 1221 1225
3 1230 1225 1229
3 1236 1229 1233
3 1238 1233 1235
3 1239 1235 1234
3 1237 1234 1231
3 1232 1231 1227
3 1228 1227 1223
3 1224 1223 1219
3 1216 1219 1215
3 1212 1215 1211
3 1208 1211 1207
3 1204 1207 1203
3 1200 1203 1199
3 1196 1199 1195
3 1192 1195 1191
3 1188 1191 1187
3 1184 1187 1183
3 1180 1183 1179
3 1176 1179 1175
3 1172 1175 1171
3 1168 1171 1167
3 1164 1167 1163
3 1160 1163 1159
3 1156 1159 1155
3 1152 1155 1151
3 1148 1151 1147
3 1144 1147 1143
3 1140 1143 1139
3 1136 1139 1135
3 1132 1135 1131
3 1128 1131 1127
3 1124 1127 1123
3 1120 1123 1119
3 1116 1119 1115
3 1111 1115 1110
3 1107 1110 1106
3 1103 1106 1102
3 1099 1102 1098
3 1095 1098 1094
3 1091 1094 1090
3 1087 1090 1086
3 1083 1086 1082
3 1079 1082 1078
3 1075 1078 1074
3 1071 1074 1070
3 1067 1070 1066
3 1063 1066 1062
3 1059 1062 1058
3 1055 1058 1054
3 1050 1054 1049
3 1046 1049 1045
3 1042 1045 1041
3 1038 1041 1037
3 1034 1037 1033
3 1030 1033 1029
3 1026 1029 1025
3 1022 1025 1021
3 1018 1021 1017
3 1014 1017 1013
3 1009 1013 1008
3 1005 1008 1004
3 1001 1004 1000
3 997 1000 996
3 993 996 992
3 989 992 988
3 985 988 984
3 981 984 980
3 977 980 976
3 973 976 972
3 969 972 968
3 965 968 964
3 961 964 960
3 957 960 956
3 953 956 952
3 949 952 948
3 944 948 943
3 940 943 939
3 936 939 935
3 932 935 931
3 928 931 927
3 924 927 923
3 920 923 919
3 916 919 915
3 912 915 911
3 907 911 906
3 903 906 902
3 899 902 898
3 895 898 894
3 891 894 890
3 887 890 886
3 883 886 882
3 879 882 878
3 875 878 874
3 871 874 870
3 867 870 866
3 863 866 862
3 859 862 858
3 855 858 854
3 851 854 850
3 847 850 846
3 842 846 841
3 838 841 837
3 834 837 833
3 830 833 829
3 826 829 825
3 822 825 821
3 818 821 817
3 814 817 813
3 810 813 809
3 806 809 805
3 801 805 800
3 797 800 796
3 793 796 792
3 789 792 788
3 785 788 784
3 781 784 780
3 777 780 776
3 773 776 772
3 769 772 768
3 765 768 764
3 761 764 760
3 757 760 756
3 753 756 752
3 749 752 748
3 745 748 744
3 740 744 739
3 736 739 735
3 732 735 731
3 728 731 727
3 724 727 723
3 720 723 719
3 716 719 715
3 712 715 711
3 708 711 707
3 704 707 703
3 699 703 698
3 695 698 694
3 691 694 690
3 687 690 686
3 683 686 682
3 679 682 678
3 675 678 674
3 671 674 670
3 667 670 666
3 663 666 662
3 659 662 658
3 655 658 654
3 651 654 650
3 647 650 646
3 643 646 642
3 639 642 638
3 634 638 633
3 630 633 629
3 626 629 625
3 621 317 1
3 625 622 626
3 620 621 623
3 622 0 3
3 2 620 624
CELL_TYPES 1860
9
9
9
9
9
9
9
9
9
9
9
9
9
9
9
9
9
9
9
9
9
9
9
9
9
9
9
9
9
9
9
9
9
9
9
9
9
9
9
9
9
9
9
9
9
9
9
9
9
9
9
9
9
9
9
9
9
9
9
9
9
9
9
9
9
9
9
9
9
9
9
9
9
9
9
9
9
9
9
9
9
9
9
9
9
9
9
9
9
9
9
9
9
9
9
9
9
9
9
9
9
9
9
9
9
9
9
9
9
9
9
9
9
9
9
9
9
9
9
9
9
9
9
9
9
9
9
9
9
9
9
9
9
9
9
9
9
9
9
9
9
9
9
9
9
9
9
9
9
9
9
9
9
9
9
9
9
9
9
9
9
9
9
9
9
9
9
9
9
9
9
9
9
9
9
9
9
9
9
9
9
9
9
9
9
9
9
9
9
9
9
9
9
9
9
9
9
9
9
9
9
9
9
9
9
9
9
9
9
9
9
9
9
9
9
9
9
9
9
9
9
9
9
9
9
9
9
9
9
9
9
9
9
9
9
9
9
9
9
9
9
9
9
9
9
9
9
9
9
9
9
9
9
9
9
9
9
9
9
9
9
9
9
9
9
9
9
9
9
9
9
9
9
9
9
9
9
9
9
9
9
9
9
9
9
9
9
9
9
9
9
9
9
9
9
9
9
9
9
9
9
9
9
9
9
9
9
9
9
9
9
9
9
9
9
9
9
9
9
9
9
9
9
9
9
9
9
9
9
9
9
9
9
9
9
9
9
9
9
9
9
9
9
9
9
9
9
9
9
9
9
9
9
9
9
9
9
9
9
9
9
9
9
9
9
9
9
9
9
9
9
9
9
9
9
9
9
9
9
9
9
9
9
9
9
9
9
9
9
9
9
9
9
9
9
9
9
9
9
9
9
9
9
9
9
9
9
9
9
9
9
9
9
9
9
9
9
9
9
9
9
9
9
9
9
9
9
9
9
9
9
9
9
9
9
9
9
9
9
9
9
9
9
9
9
9
9
9
9
9
9
9
9
9
9
9
9
9
9
9
9
9
9
9
9
9
9
9
9
9
9
9
9
9
9
9
9
9
9
9
9
9
9
9
9
9
9
9
9
9
9
9
9
9
9
9
9
9
9
9
9
9
9
9
9
9
9
9
9
9
9
9
9
9
9
9
9
9
9
9
9
9
9
9
9
9
9
9
9
9
9
9
9
9
9
9
9
9
9
9
9
9
9
9
9
9
9
9
9
9
9
9
9
9
9
9
9
9
9
9
9
9
9
9
9
9
9
9
9
9
9
9
9
9
9
9
9
9
9
9
9
9
9
9
9
9
9
9
9
9
9
9
9
9
9
9
9
9
9
9
9
9
9
9
9
9
9
9
9
9
9
9
9
9
9
9
9
9
9
9
9
9
9
9
9
9
9
9
9
9
9
9
9
9
9
9
9
9
9
9
9
9
9
9
9
9
9
9
9
9
9
9
9
9
9
9
9
9
9
9
9
9
9
9
9
9
9
9
9
9
9
9
9
9
9
9
9
9
9
9
9
9
9
9
9
9
9
9
9
9
9
9
9
9
9
9
9
9
9
9
9
9
9
9
9
9
9
9
9
9
9
9
9
9
9
9
9
9
9
9
9
9
9
9
9
9
9
9
9
9
9
9
9
9
9
9
9
9
9
9
9
9
9
9
9
9
9
9
9
9
9
9
9
9
9
9
9
9
9
9
9
9
9
9
9
9
9
9
9
9
9
9
9
9
9
9
9
9
9
9
9
9
9
9
9
9
9
9
9
9
9
9
9
9
9
9
9
9
9
9
9
9
9
9
9
9
9
9
9
9
9
9
9
9
9
9
9
9
9
9
9
9
9
9
9
9
9
9
9
9
9
9
9
9
9
9
9
9
9
9
9
9
9
9
9
9
9
9
9
9
9
9
9
9
9
9
9
9
9
9
9
9
9
9
9
9
9
9
9
9
9
9
9
9
9
9
9
9
9
9
9
9
9
9
9
9
9
9
9
9
9
9
9
9
9
9
9
9
9
9
9
9
9
9
9
9
9
9
9
9
9
9
9
9
9
9
9
9
9
9
9
9
9
9
9
9
9
9
9
9
9
9
9
9
9
9
9
9
9
9
9
9
9
9
9
9
9
9
9
9
9
9
9
9
9
9
9
9
9
9
9
9
9
9
9
9
9
9
9
9
9
9
9
9
9
9
9
9
9
9
9
9
9
9
9
9
9
9
9
9
9
9
9
9
9
9
9
9
9
9
9
9
9
9
9
9
9
9
9
9
9
9
9
9
9
9
9
9
9
9
9
9
9
9
9
9
9
9
9
9
9
9
9
9
9
9
9
9
9
9
9
9
9
9
9
9
9
9
9
9
9
9
9
9
9
9
9
9
9
9
9
9
9
9
9
9
9
9
9
9
9
9
9
9
9
9
9
9
9
9
9
9
9
9
9
9
9
9
9
9
9
9
9
9
9
9
9
9
9
9
9
9
9
9
9
9
9
9
9
9
9
9
9
9
9
9
9
9
9
9
9
9
9
9
9
9
9
9
9
9
9
9
9
9
9
9
9
9
9
9
9
9
9
9
9
9
9
9
9
9
9
9
9
9
9
9
9
9
9
9
9
9
9
9
9
9
9
9
9
9
9
9
9
9
9
9
9
9
9
9
9
9
9
9
9
9
9
9
9
9
9
9
9
9
9
9
9
9
9
9
9
9
9
9
9
9
9
9
9
9
9
9
9
9
9
9
9
9
9
9
9
9
9
9
9
9
9
9
9
9
9
9
9
9
9
9
9
9
9
9
9
9
9
9
9
9
9
9
9
9
9
9
9
9
9
9
9
9
9
9
9
9
9
9
9
9
9
9
9
9
9
9
9
9
9
9
9
9
9
9
9
9
9
9
9
9
9
9
9
9
9
9
9
9
9
9
9
9
9
9
9
9
9
9
9
9
9
9
9
9
9
9
9
9
9
9
9
9
9
9
9
9
9
9
9
9
9
9
9
9
9
9
9
9
9
9
9
9
9
9
9
9
9
9
9
9
9
9
9
9
9
9
9
9
9
9
9
9
9
9
9
9
9
9
9
9
9
9
9
9
9
9
9
9
9
9
9
9
9
9
9
9
9
9
9
9
9
9
9
9
9
9
9
9
9
9
9
9
9
9
9
9
9
9
9
9
9
9
9
9
9
9
9
9
9
9
9
9
9
9
9
9
9
9
9
9
9
9
9
9
9
9
9
9
9
9
9
9
9
9
9
9
9
9
9
9
9
9
9
9
9
9
9
9
9
9
9
9
9
9
9
9
9
9
9
9
9
9
9
9
9
9
9
9
9
9
9
9
9
9
9
9
9
9
9
9
9
9
9
9
9
9
9
9
9
9
9
9
9
9
9
9
9
9
9
9
9
9
9
9
9
9
9
9
9
9
9
9
9
9
9
9
9
9
9
9
9
9
9
9
9
9
9
9
9
9
9
9
9
9
9
9
9
9
9
9
9
9
9
9
9
9
9
9
9
9
9
9
9
9
9
9
9
9
9
9
9
9
9
9
9
9
9
9
9
9
9
9
9
9
9
9
9
9
9
9
9
9
9
9
9
9
9
9
9
9
9
9
9
9
9
9
9
9
9
9
9
9
9
9
9
9
9
9
9
9
9
9
9
9
9
9
9
9
9
9
9
9
9
9
9
9
9
9
9
9
9
9
9
9
9
9
9
9
9
9
9
9
9
9
9
9
9
9
9
9
9
9
9
9
9
9
9
9
9
9
9
9
9
9
9
9
9
9
9
9
9
9
9
9
9
9
9
9
9
9
9
9
9
9
9
9
9
9
9
9
9
9
9
9
9
9
9
9
9
9
9
9
9
9
9
9
9
9
9
9
9
9
9
9
9
9
9
9
9
9
9
9
9
9
9
9
9
9
9
9
9
9
9
9
9
9
9
9
9
9
9
9
9
9
9
9
9
9
9
9
9
9
9
9
9
9
9
9
9
9
9
9
9
9
9
9
9
9
9
9
9
9
9
9
9
9
9
9
9
9
9
9
9
9
9
9
9
9
9
9
9
9
9
9
9
9
9
9
9
9
9
9
9
9
9
9
9
9
9
9
9
9
9
9
9
9
9
9
9
9
9
9
9
9
9
9
9
9
9
9
9
9
9
9
9
9
9
9
9
9
9
9
9
9
9
9
9
9
9
9
9
9
9
9
POINT_DATA 1240
SCALARS u1 float
LOOKUP_TABLE default
-5e-05
-5e-05
-5e-05
-6e-05
-5e-05
-6e-05
-4e-05
-7e-05
-4e-05
-4e-05
-7e-05
-4e-05
-7e-05
-4e-05
-7e-05
-5e-05
-7e-05
-5e-05
-7e-05
-5e-05
-7e-05
-5e-05
-7e-05
-6e-05
-6e-05
-6e-05
-6e-05
-7e-05
-5e-05
-7e-05
-5e-05
-8e-05
-4e-05
-9e-05
-4e-05
-0.0001
-3e-05
-0.0001
-3e-05
-0.0001
-2e-05
-2e-05
-0.0001
-2e-05
-0.0001
-2e-05
-0.0001
-2e-05
-0.0002
-2e-05
-0.0002
-2e-05
-0.0002
-2e-05
-0.0002
-2e-05
-0.0002
-2e-05
-0.0002
-2e-05
-0.0002
-2e-05
-0.0002
-0.0002
-2e-05
-0.0002
-2e-05
-0.0002
-2e-05
-0.0002
-3e-05
-0.0002
-3e-05
-0.0002
-3e-05
-0.0002
-3e-05
-0.0002
-3e-05
-0.0001
-3e-05
-0.0001
-3e-05
-0.0001
-3e-05
-0.0001
-3e-05
-0.0001
-3e-05
-9e-05
-2e-05
-8e-05
-2e-05
-2e-05
-8e-05
-2e-05
-7e-05
-1e-05
-7e-05
-1e-05
-6e-05
-9e-06
-6e-05
-7e-06
-6e-05
-4e-06
-5e-05
-2e-06
-5e-05
-5e-07
-5e-05
9e-07
-5e-05
2e-06
-5e-05
-5e-05
2e-06
-5e-05
2e-06
-5e-05
1e-06
-6e-05
-3e-07
-6e-05
-2e-06
-7e-05
-4e-06
-7e-05
-6e-06
-8e-05
-7e-06
-8e-05
-9e-06
-8e-05
-1e-05
-8e-05
-1e-05
-8e-05
-1e-05
-8e-05
-1e-05
-8e-05
-1e-05
-8e-05
-1e-05
-7e-05
-1e-05
-1e-05
-7e-05
-1e-05
-6e-05
-1e-05
-6e-05
-9e-06
-5e-05
-7e-06
-5e-05
-4e-06
-5e-05
-9e-07
-4e-05
3e-06
-4e-05
8e-06
-4e-05
1e-05
-4e-05
-3e-05
2e-05
-3e-05
2e-05
-3e-05
3e-05
-3e-05
3e-05
-3e-05
4e-05
-3e-05
4e-05
-3e-05
4e-05
-3e-05
4e-05
-4e-05
4e-05
-4e-05
3e-05
-4e-05
3e-05
-4e-05
3e-05
-4e-05
2e-05
-4e-05
2e-05
-5e-05
1e-05
-5e-05
9e-06
6e-06
-5e-05
4e-06
-5e-05
4e-06
-5e-05
4e-06
-5e-05
5e-06
-5e-05
7e-06
-4e-05
9e-06
-4e-05
1e-05
-4e-05
1e-05
-4e-05
2e-05
-3e-05
2e-05
-3e-05
3e-05
-3e-05
3e-05
-3e-05
4e-05
-2e-05
5e-05
-2e-05
5e-05
-2e-05
6e-05
-2e-05
7e-05
-2e-05
9e-05
-1e-05
0.0001
-1e-05
0.0001
-1e-05
0.0001
-2e-05
0.0001
-2e-05
0.0001
-2e-05
0.0001
-2e-05
0.0001
-2e-05
0.0001
-2e-05
0.0001
-2e-05
0.0001
-3e-05
0.0001
-3e-05
0.0001
-3e-05
0.0001
-3e-05
0.0001
-3e-05
0.0001
-3e-05
0.0001
-3e-05
0.0001
-3e-05
0.0001
-3e-05
9e-05
-2e-05
8e-05
-2e-05
7e-05
-2e-05
6e-05
-2e-05
5e-05
-1e-05
4e-05
-1e-05
3e-05
-5e-06
3e-05
4e-07
2e-05
6e-06
2e-05
1e-05
1e-05
2e-05
7e-06
2e-05
4e-06
2e-05
2e-06
3e-05
-8e-07
3e-05
-3e-06
3e-05
-4e-06
3e-05
-4e-06
2e-05
-4e-06
2e-05
-3e-06
2e-05
-2e-07
1e-05
3e-06
7e-06
-5e-05
-4e-05
-5e-05
-4e-05
-6e-05
-4e-05
-6e-05
-4e-05
-6e-05
-4e-05
-7e-05
-5e-05
-7e-05
-5e-05
-7e-05
-5e-05
-7e-05
-5e-05
-7e-05
-6e-05
-7e-05
-6e-05
-7e-05
-7e-05
-6e-05
-7e-05
-6e-05
-8e-05
-5e-05
-9e-05
-5e-05
-0.0001
-4e-05
-0.0001
-4e-05
-0.0001
-3e-05
-0.0001
-3e-05
-0.0001
-2e-05
-0.0002
-2e-05
-0.0002
-2e-05
-0.0002
-2e-05
-0.0002
-2e-05
-0.0002
-2e-05
-0.0002
-1e-05
-0.0002
-1e-05
-0.0002
-1e-05
-0.0002
-1e-05
-0.0002
-1e-05
-0.0002
-1e-05
-0.0002
-1e-05
-0.0002
-1e-05
-0.0002
-1e-05
-0.0002
-1e-05
-0.0002
-1e-05
-0.0002
-1e-05
-0.0001
-1e-05
-0.0001
-1e-05
-0.0001
-1e-05
-0.0001
-2e-05
-0.0001
-2e-05
-9e-05
-2e-05
-9e-05
-2e-05
-8e-05
-2e-05
-7e-05
-1e-05
-7e-05
-1e-05
-6e-05
-1e-05
-6e-05
-1e-05
-6e-05
-1e-05
-6e-05
-1e-05
-5e-05
-2e-05
-5e-05
-2e-05
-5e-05
-2e-05
-5e-05
-2e-05
-5e-05
-2e-05
-5e-05
-2e-05
-5e-05
-2e-05
-6e-05
-2e-05
-6e-05
-2e-05
-7e-05
-2e-05
-7e-05
-2e-05
-7e-05
-2e-05
-8e-05
-2e-05
-8e-05
-2e-05
-8e-05
-2e-05
-8e-05
-2e-05
-8e-05
-1e-05
-8e-05
-1e-05
-8e-05
-1e-05
-7e-05
-1e-05
-7e-05
-7e-06
-7e-05
-4e-06
-6e-05
-2e-07
-6e-05
4e-06
-5e-05
9e-06
-5e-05
1e-05
-4e-05
2e-05
-4e-05
2e-05
-4e-05
3e-05
-3e-05
3e-05
-3e-05
3e-05
-3e-05
4e-05
-3e-05
4e-05
-3e-05
4e-05
-3e-05
3e-05
-3e-05
3e-05
-3e-05
3e-05
-3e-05
2e-05
-3e-05
2e-05
-3e-05
2e-05
-3e-05
1e-05
-3e-05
9e-06
-3e-05
6e-06
-3e-05
4e-06
-3e-05
4e-06
-3e-05
4e-06
-3e-05
5e-06
-3e-05
7e-06
-3e-05
9e-06
-3e-05
1e-05
-3e-05
1e-05
-3e-05
2e-05
-3e-05
2e-05
-3e-05
3e-05
-3e-05
3e-05
-3e-05
4e-05
-3e-05
5e-05
-3e-05
6e-05
-3e-05
7e-05
-3e-05
8e-05
-3e-05
9e-05
-3e-05
0.0001
-3e-05
0.0001
-3e-05
0.0001
-3e-05
0.0001
-3e-05
0.0001
-4e-05
0.0001
-3e-05
0.0001
-3e-05
0.0001
-3e-05
0.0001
-3e-05
0.0001
-3e-05
0.0001
-3e-05
0.0001
-3e-05
0.0001
-3e-05
0.0001
-3e-05
0.0001
-3e-05
0.0001
-3e-05
0.0001
-2e-05
0.0001
-2e-05
9e-05
-2e-05
8e-05
-1e-05
7e-05
-9e-06
6e-05
-4e-06
5e-05
1e-06
4e-05
7e-06
3e-05
1e-05
3e-05
2e-05
2e-05
2e-05
2e-05
2e-05
1e-05
3e-05
8e-06
3e-05
5e-06
3e-05
2e-06
2e-05
-2e-07
2e-05
-2e-06
2e-05
-4e-06
1e-05
-4e-06
1e-05
-4e-06
6e-06
-3e-06
-5e-07
3e-06
-5e-05
-5e-05
-5e-05
-5e-05
-5e-05
-5e-05
-6e-05
-4e-05
-4e-05
-6e-05
-6e-05
-4e-05
-4e-05
-6e-05
-7e-05
-4e-05
-4e-05
-4e-05
-6e-05
-7e-05
-4e-05
-4e-05
-7e-05
-7e-05
-4e-05
-4e-05
-7e-05
-7e-05
-5e-05
-5e-05
-7e-05
-7e-05
-5e-05
-5e-05
-7e-05
-7e-05
-5e-05
-5e-05
-7e-05
-7e-05
-5e-05
-6e-05
-7e-05
-7e-05
-6e-05
-6e-05
-7e-05
-6e-05
-6e-05
-6e-05
-6e-05
-6e-05
-7e-05
-7e-05
-6e-05
-5e-05
-7e-05
-8e-05
-5e-05
-5e-05
-8e-05
-8e-05
-5e-05
-4e-05
-9e-05
-9e-05
-4e-05
-4e-05
-0.0001
-0.0001
-4e-05
-3e-05
-0.0001
-0.0001
-3e-05
-3e-05
-0.0001
-0.0001
-3e-05
-3e-05
-2e-05
-0.0001
-0.0001
-2e-05
-2e-05
-0.0001
-0.0001
-2e-05
-2e-05
-0.0002
-0.0002
-2e-05
-2e-05
-0.0002
-0.0002
-2e-05
-2e-05
-0.0002
-0.0002
-2e-05
-2e-05
-0.0002
-0.0002
-2e-05
-2e-05
-0.0002
-0.0002
-2e-05
-2e-05
-0.0002
-0.0002
-2e-05
-2e-05
-0.0002
-0.0002
-2e-05
-2e-05
-0.0002
-0.0002
-2e-05
-2e-05
-0.0002
-0.0002
-0.0002
-1e-05
-2e-05
-0.0002
-0.0002
-2e-05
-2e-05
-0.0002
-0.0002
-2e-05
-2e-05
-0.0002
-0.0002
-2e-05
-2e-05
-0.0002
-0.0002
-2e-05
-2e-05
-0.0002
-0.0002
-2e-05
-2e-05
-0.0002
-0.0002
-2e-05
-2e-05
-0.0002
-0.0001
-2e-05
-3e-05
-0.0001
-0.0001
-2e-05
-3e-05
-0.0001
-0.0001
-2e-05
-3e-05
-0.0001
-0.0001
-2e-05
-2e-05
-0.0001
-0.0001
-2e-05
-2e-05
-0.0001
-0.0001
-2e-05
-2e-05
-0.0001
-9e-05
-2e-05
-2e-05
-9e-05
-8e-05
-2e-05
-2e-05
-2e-05
-8e-05
-8e-05
-2e-05
-2e-05
-7e-05
-7e-05
-2e-05
-1e-05
-7e-05
-7e-05
-1e-05
-1e-05
-6e-05
-6e-05
-1e-05
-1e-05
-6e-05
-6e-05
-1e-05
-9e-06
-6e-05
-6e-05
-1e-05
-7e-06
-6e-05
-5e-05
-1e-05
-6e-06
-5e-05
-5e-05
-1e-05
-5e-06
-5e-05
-5e-05
-1e-05
-4e-06
-5e-05
-5e-05
-1e-05
-4e-06
-5e-05
-5e-05
-5e-05
-1e-05
-5e-06
-5e-05
-5e-05
-1e-05
-5e-06
-5e-05
-5e-05
-1e-05
-6e-06
-5e-05
-6e-05
-1e-05
-7e-06
-6e-05
-6e-05
-1e-05
-9e-06
-6e-05
-7e-05
-1e-05
-1e-05
-7e-05
-7e-05
-2e-05
-1e-05
-7e-05
-8e-05
-2e-05
-1e-05
-8e-05
-8e-05
-2e-05
-1e-05
-8e-05
-8e-05
-2e-05
-1e-05
-8e-05
-8e-05
-2e-05
-1e-05
-8e-05
-8e-05
-2e-05
-1e-05
-8e-05
-8e-05
-1e-05
-1e-05
-8e-05
-8e-05
-1e-05
-1e-05
-8e-05
-8e-05
-1e-05
-1e-05
-8e-05
-7e-05
-1e-05
-1e-05
-1e-05
-7e-05
-7e-05
-1e-05
-1e-05
-7e-05
-7e-05
-9e-06
-9e-06
-7e-05
-6e-05
-7e-06
-7e-06
-6e-05
-5e-05
-4e-06
-4e-06
-5e-05
-5e-05
-2e-07
-4e-07
-5e-05
-5e-05
4e-06
4e-06
-5e-05
-4e-05
9e-06
9e-06
-4e-05
-4e-05
1e-05
1e-05
-4e-05
-4e-05
2e-05
2e-05
-4e-05
-4e-05
-3e-05
2e-05
2e-05
-3e-05
-3e-05
3e-05
3e-05
-3e-05
-3e-05
3e-05
3e-05
-3e-05
-3e-05
3e-05
4e-05
-3e-05
-3e-05
4e-05
4e-05
-3e-05
-3e-05
4e-05
4e-05
-3e-05
-3e-05
4e-05
4e-05
-3e-05
-3e-05
4e-05
4e-05
-3e-05
-3e-05
3e-05
3e-05
-3e-05
-3e-05
3e-05
3e-05
-3e-05
-3e-05
3e-05
3e-05
-3e-05
-4e-05
2e-05
2e-05
-3e-05
-4e-05
2e-05
2e-05
-3e-05
-4e-05
1e-05
1e-05
-3e-05
-4e-05
9e-06
9e-06
-3e-05
-4e-05
6e-06
6e-06
5e-06
-3e-05
-4e-05
4e-06
4e-06
-4e-05
-4e-05
4e-06
4e-06
-4e-05
-4e-05
4e-06
5e-06
-4e-05
-4e-05
6e-06
6e-06
-4e-05
-4e-05
8e-06
8e-06
-4e-05
-4e-05
1e-05
1e-05
-3e-05
-4e-05
1e-05
1e-05
-3e-05
-4e-05
2e-05
2e-05
-3e-05
-3e-05
2e-05
2e-05
-3e-05
-3e-05
2e-05
2e-05
-3e-05
-3e-05
-3e-05
3e-05
3e-05
-3e-05
-3e-05
3e-05
4e-05
-3e-05
-3e-05
4e-05
4e-05
-3e-05
-2e-05
5e-05
5e-05
-3e-05
-2e-05
6e-05
6e-05
-3e-05
-2e-05
7e-05
7e-05
-3e-05
-2e-05
8e-05
8e-05
-3e-05
-2e-05
9e-05
9e-05
-3e-05
-2e-05
0.0001
0.0001
-3e-05
-2e-05
0.0001
0.0001
-3e-05
-2e-05
0.0001
0.0001
-3e-05
-2e-05
0.0001
0.0001
-3e-05
-2e-05
0.0001
0.0001
-3e-05
-3e-05
0.0001
0.0001
-3e-05
-3e-05
0.0001
0.0001
0.0001
-3e-05
-3e-05
0.0001
0.0001
-3e-05
-3e-05
0.0001
0.0001
-3e-05
-3e-05
0.0001
0.0001
-3e-05
-3e-05
0.0001
0.0001
-3e-05
-3e-05
0.0001
0.0001
-3e-05
-3e-05
0.0001
0.0001
-3e-05
-3e-05
0.0001
0.0001
-3e-05
-3e-05
0.0001
0.0001
-3e-05
-3e-05
0.0001
0.0001
-3e-05
-3e-05
0.0001
0.0001
-2e-05
-2e-05
0.0001
9e-05
-2e-05
-2e-05
9e-05
8e-05
-2e-05
-2e-05
8e-05
7e-05
-1e-05
-2e-05
6e-05
6e-05
-9e-06
-1e-05
5e-05
5e-05
-4e-06
-1e-05
4e-05
4e-05
1e-06
-5e-06
4e-05
3e-05
7e-06
7e-07
3e-05
2e-05
1e-05
6e-06
2e-05
2e-05
2e-05
1e-05
2e-05
1e-05
2e-05
2e-05
1e-05
1e-05
2e-05
2e-05
9e-06
6e-06
3e-05
2e-05
6e-06
3e-06
3e-05
3e-05
3e-06
9e-07
3e-05
3e-05
3e-07
-1e-06
2e-05
3e-05
-2e-06
-3e-06
2e-05
2e-05
-4e-06
-4e-06
2e-05
2e-05
-4e-06
-4e-06
1e-05
2e-05
-4e-06
-4e-06
1e-05
2e-05
-3e-06
-3e-06
6e-06
-4e-07
3e-06
1e-05
-4e-07
7e-06
3e-06
SCALARS u2 float
LOOKUP_TABLE default
-1e-05
-2e-05
-9e-06
-2e-05
-6e-06
-2e-05
-4e-06
-3e-05
-3e-06
-2e-06
-3e-05
-2e-06
-4e-05
-2e-06
-4e-05
-1e-06
-5e-05
-1e-06
-5e-05
-1e-06
-5e-05
-2e-06
-5e-05
-2e-06
-5e-05
-3e-06
-5e-05
-4e-06
-5e-05
-6e-06
-4e-05
-8e-06
-4e-05
-1e-05
-3e-05
-1e-05
-3e-05
-1e-05
-3e-05
-1e-05
-2e-05
-2e-05
-2e-05
-2e-05
-2e-05
-2e-05
-2e-05
-2e-05
-1e-05
-2e-05
-1e-05
-2e-05
-1e-05
-2e-05
-9e-06
-2e-05
-7e-06
-3e-05
-4e-06
-3e-05
-2e-06
-3e-05
1e-06
4e-06
-4e-05
7e-06
-4e-05
9e-06
-5e-05
1e-05
-6e-05
1e-05
-7e-05
2e-05
-8e-05
2e-05
-9e-05
2e-05
-0.0001
2e-05
-0.0001
2e-05
-0.0001
2e-05
-0.0001
2e-05
-0.0001
1e-05
-0.0001
1e-05
-0.0001
1e-05
-0.0002
-0.0002
9e-06
-0.0002
8e-06
-0.0002
7e-06
-0.0002
6e-06
-0.0002
6e-06
-0.0002
5e-06
-0.0001
5e-06
-0.0001
6e-06
-0.0001
6e-06
-0.0001
6e-06
-0.0001
7e-06
8e-06
-0.0001
9e-06
-0.0001
1e-05
-8e-05
1e-05
-7e-05
2e-05
-6e-05
2e-05
-5e-05
3e-05
-5e-05
3e-05
-4e-05
4e-05
-3e-05
4e-05
-3e-05
5e-05
-2e-05
5e-05
-2e-05
6e-05
-2e-05
6e-05
-1e-05
6e-05
-1e-05
6e-05
-1e-05
-9e-06
6e-05
-9e-06
6e-05
-9e-06
5e-05
-1e-05
5e-05
-1e-05
4e-05
-2e-05
4e-05
-2e-05
4e-05
-2e-05
3e-05
-3e-05
3e-05
-3e-05
3e-05
3e-05
-4e-05
3e-05
-4e-05
3e-05
-4e-05
3e-05
-4e-05
3e-05
-4e-05
4e-05
-4e-05
4e-05
-3e-05
4e-05
-3e-05
5e-05
-2e-05
5e-05
-2e-05
6e-05
-1e-05
7e-05
-8e-06
7e-05
-3e-06
8e-05
1e-06
9e-05
5e-06
0.0001
8e-06
1e-05
0.0001
1e-05
0.0001
1e-05
0.0001
1e-05
0.0001
1e-05
0.0002
1e-05
0.0002
1e-05
0.0002
1e-05
0.0002
1e-05
0.0002
1e-05
0.0002
1e-05
0.0002
1e-05
0.0002
1e-05
0.0002
8e-06
0.0002
6e-06
0.0002
5e-06
0.0002
3e-06
0.0002
2e-06
0.0001
1e-06
0.0001
9e-07
0.0001
1e-06
0.0001
2e-06
0.0001
4e-06
0.0001
5e-06
9e-05
8e-06
8e-05
1e-05
7e-05
1e-05
6e-05
1e-05
6e-05
2e-05
5e-05
2e-05
5e-05
2e-05
5e-05
3e-05
4e-05
3e-05
4e-05
3e-05
4e-05
3e-05
4e-05
3e-05
4e-05
3e-05
4e-05
3e-05
4e-05
3e-05
4e-05
3e-05
4e-05
3e-05
4e-05
3e-05
5e-05
3e-05
5e-05
3e-05
6e-05
3e-05
6e-05
2e-05
7e-05
2e-05
7e-05
2e-05
7e-05
2e-05
7e-05
2e-05
7e-05
2e-05
7e-05
2e-05
6e-05
2e-05
6e-05
2e-05
6e-05
2e-05
5e-05
2e-05
5e-05
2e-05
4e-05
3e-05
4e-05
3e-05
3e-05
-2e-05
-1e-05
-3e-05
-9e-06
-3e-05
-6e-06
-4e-05
-3e-06
-4e-05
-1e-06
-5e-05
2e-07
-5e-05
1e-06
-5e-05
2e-06
-5e-05
3e-06
-5e-05
4e-06
-5e-05
5e-06
-5e-05
5e-06
-4e-05
6e-06
-4e-05
6e-06
-3e-05
6e-06
-3e-05
6e-06
-3e-05
6e-06
-2e-05
5e-06
-2e-05
5e-06
-2e-05
4e-06
-2e-05
3e-06
-2e-05
2e-06
-2e-05
2e-06
-2e-05
1e-06
-2e-05
1e-06
-3e-05
1e-06
-3e-05
1e-06
-3e-05
2e-06
-4e-05
2e-06
-4e-05
2e-06
-5e-05
2e-06
-5e-05
2e-06
-6e-05
2e-06
-7e-05
2e-06
-8e-05
2e-06
-9e-05
9e-07
-0.0001
2e-07
-0.0001
-4e-07
-0.0001
-1e-06
-0.0001
-2e-06
-0.0001
-2e-06
-0.0001
-2e-06
-0.0002
-2e-06
-0.0002
-2e-06
-0.0002
-2e-06
-0.0002
-1e-06
-0.0002
-2e-07
-0.0002
6e-07
-0.0002
2e-06
-0.0002
3e-06
-0.0001
4e-06
-0.0001
5e-06
-0.0001
6e-06
-0.0001
9e-06
-0.0001
1e-05
-0.0001
1e-05
-0.0001
2e-05
-9e-05
2e-05
-7e-05
3e-05
-6e-05
3e-05
-6e-05
4e-05
-5e-05
4e-05
-4e-05
5e-05
-3e-05
5e-05
-3e-05
6e-05
-3e-05
6e-05
-2e-05
6e-05
-2e-05
6e-05
-2e-05
6e-05
-1e-05
5e-05
-1e-05
5e-05
-1e-05
5e-05
-9e-06
4e-05
-9e-06
4e-05
-1e-05
4e-05
-1e-05
3e-05
-2e-05
3e-05
-2e-05
3e-05
-2e-05
3e-05
-3e-05
3e-05
-3e-05
3e-05
-4e-05
3e-05
-4e-05
3e-05
-4e-05
4e-05
-4e-05
4e-05
-4e-05
4e-05
-4e-05
5e-05
-3e-05
5e-05
-3e-05
6e-05
-3e-05
7e-05
-2e-05
7e-05
-1e-05
8e-05
-1e-05
9e-05
-4e-06
0.0001
2e-07
0.0001
4e-06
0.0001
8e-06
0.0001
1e-05
0.0001
1e-05
0.0002
1e-05
0.0002
2e-05
0.0002
2e-05
0.0002
2e-05
0.0002
2e-05
0.0002
2e-05
0.0002
2e-05
0.0002
2e-05
0.0002
2e-05
0.0002
2e-05
0.0002
2e-05
0.0002
2e-05
0.0002
2e-05
0.0001
2e-05
0.0001
2e-05
0.0001
2e-05
0.0001
2e-05
0.0001
2e-05
0.0001
2e-05
9e-05
2e-05
8e-05
2e-05
7e-05
2e-05
6e-05
2e-05
6e-05
2e-05
5e-05
2e-05
5e-05
2e-05
5e-05
2e-05
4e-05
2e-05
4e-05
2e-05
4e-05
2e-05
4e-05
2e-05
4e-05
2e-05
4e-05
2e-05
4e-05
1e-05
4e-05
1e-05
4e-05
1e-05
4e-05
1e-05
5e-05
1e-05
5e-05
1e-05
6e-05
1e-05
6e-05
1e-05
6e-05
1e-05
7e-05
2e-05
7e-05
2e-05
7e-05
2e-05
7e-05
2e-05
7e-05
2e-05
6e-05
2e-05
6e-05
2e-05
6e-05
3e-05
5e-05
3e-05
5e-05
3e-05
4e-05
4e-05
-1e-05
-2e-05
-2e-05
-1e-05
-9e-06
-2e-05
-2e-05
-9e-06
-7e-06
-3e-05
-3e-05
-6e-06
-4e-06
-3e-05
-3e-05
-4e-06
-3e-06
-2e-06
-4e-05
-4e-05
-2e-06
-1e-06
-4e-05
-4e-05
-8e-07
-8e-07
-5e-05
-5e-05
1e-07
-3e-07
-5e-05
-5e-05
8e-07
-3e-08
-5e-05
-5e-05
1e-06
1e-07
-5e-05
-5e-05
2e-06
5e-08
-5e-05
-5e-05
2e-06
-2e-07
-5e-05
-5e-05
2e-06
-6e-07
-5e-05
-5e-05
2e-06
-1e-06
-4e-05
-4e-05
2e-06
-2e-06
-4e-05
-4e-05
2e-06
-4e-06
-3e-05
-3e-05
1e-06
-5e-06
-3e-05
-3e-05
3e-07
-6e-06
-3e-05
-3e-05
-5e-07
-7e-06
-2e-05
-2e-05
-1e-06
-8e-06
-2e-05
-2e-05
-2e-05
-2e-06
-9e-06
-2e-05
-2e-05
-3e-06
-9e-06
-2e-05
-2e-05
-3e-06
-9e-06
-2e-05
-2e-05
-3e-06
-8e-06
-2e-05
-2e-05
-3e-06
-7e-06
-2e-05
-2e-05
-3e-06
-6e-06
-2e-05
-2e-05
-2e-06
-5e-06
-3e-05
-3e-05
-1e-06
-3e-06
-3e-05
-3e-05
-2e-07
-1e-06
-3e-05
-3e-05
8e-07
8e-07
-4e-05
-4e-05
3e-06
2e-06
5e-06
-4e-05
-4e-05
3e-06
6e-06
-5e-05
-5e-05
4e-06
7e-06
-5e-05
-6e-05
5e-06
9e-06
-6e-05
-7e-05
6e-06
1e-05
-7e-05
-7e-05
6e-06
1e-05
-8e-05
-8e-05
6e-06
1e-05
-9e-05
-0.0001
6e-06
1e-05
-0.0001
-0.0001
6e-06
1e-05
-0.0001
-0.0001
5e-06
1e-05
-0.0001
-0.0001
5e-06
1e-05
-0.0001
-0.0001
4e-06
9e-06
-0.0001
-0.0001
3e-06
8e-06
-0.0001
-0.0001
3e-06
7e-06
-0.0002
-0.0002
2e-06
6e-06
-0.0002
-0.0002
-0.0002
2e-06
5e-06
-0.0002
-0.0002
2e-06
4e-06
-0.0002
-0.0002
2e-06
4e-06
-0.0002
-0.0002
2e-06
4e-06
-0.0002
-0.0002
2e-06
4e-06
-0.0002
-0.0002
3e-06
4e-06
-0.0002
-0.0001
4e-06
5e-06
-0.0001
-0.0001
5e-06
5e-06
-0.0001
-0.0001
6e-06
6e-06
-0.0001
-0.0001
7e-06
7e-06
-0.0001
-0.0001
9e-06
8e-06
1e-05
-0.0001
-0.0001
1e-05
1e-05
-0.0001
-9e-05
1e-05
1e-05
-9e-05
-8e-05
2e-05
2e-05
-8e-05
-7e-05
2e-05
2e-05
-7e-05
-6e-05
3e-05
3e-05
-6e-05
-5e-05
3e-05
3e-05
-5e-05
-4e-05
4e-05
4e-05
-4e-05
-4e-05
4e-05
4e-05
-4e-05
-3e-05
5e-05
5e-05
-3e-05
-3e-05
5e-05
5e-05
-3e-05
-2e-05
6e-05
6e-05
-2e-05
-2e-05
6e-05
6e-05
-2e-05
-2e-05
6e-05
6e-05
-2e-05
-1e-05
6e-05
6e-05
-1e-05
-1e-05
6e-05
6e-05
-1e-05
-1e-05
-9e-06
5e-05
5e-05
-1e-05
-9e-06
5e-05
5e-05
-9e-06
-9e-06
5e-05
5e-05
-9e-06
-1e-05
4e-05
4e-05
-1e-05
-1e-05
4e-05
4e-05
-1e-05
-2e-05
4e-05
4e-05
-2e-05
-2e-05
3e-05
3e-05
-2e-05
-2e-05
3e-05
3e-05
-2e-05
-3e-05
3e-05
3e-05
-3e-05
-3e-05
3e-05
3e-05
3e-05
-3e-05
-4e-05
3e-05
3e-05
-4e-05
-4e-05
3e-05
3e-05
-4e-05
-4e-05
3e-05
3e-05
-4e-05
-4e-05
4e-05
4e-05
-4e-05
-4e-05
4e-05
4e-05
-4e-05
-4e-05
4e-05
4e-05
-4e-05
-3e-05
5e-05
5e-05
-3e-05
-3e-05
5e-05
5e-05
-3e-05
-2e-05
6e-05
6e-05
-3e-05
-2e-05
6e-05
6e-05
-2e-05
-1e-05
7e-05
7e-05
-1e-05
-9e-06
8e-05
8e-05
-9e-06
-4e-06
9e-05
9e-05
-4e-06
5e-07
0.0001
0.0001
3e-07
4e-06
0.0001
0.0001
4e-06
7e-06
1e-05
0.0001
0.0001
8e-06
1e-05
0.0001
0.0001
1e-05
1e-05
0.0001
0.0001
1e-05
1e-05
0.0001
0.0002
1e-05
1e-05
0.0002
0.0002
1e-05
1e-05
0.0002
0.0002
2e-05
1e-05
0.0002
0.0002
2e-05
2e-05
0.0002
0.0002
2e-05
2e-05
0.0002
0.0002
2e-05
2e-05
0.0002
0.0002
2e-05
1e-05
0.0002
0.0002
0.0002
2e-05
1e-05
0.0002
0.0002
2e-05
1e-05
0.0002
0.0002
2e-05
1e-05
0.0002
0.0002
2e-05
1e-05
0.0002
0.0002
2e-05
1e-05
0.0002
0.0002
2e-05
9e-06
0.0002
0.0001
1e-05
8e-06
0.0001
0.0001
1e-05
7e-06
0.0001
0.0001
1e-05
7e-06
0.0001
0.0001
1e-05
7e-06
0.0001
0.0001
1e-05
8e-06
0.0001
9e-05
1e-05
9e-06
9e-05
8e-05
1e-05
1e-05
8e-05
8e-05
1e-05
1e-05
7e-05
7e-05
2e-05
1e-05
1e-05
7e-05
6e-05
2e-05
2e-05
6e-05
6e-05
2e-05
2e-05
6e-05
5e-05
2e-05
2e-05
5e-05
5e-05
2e-05
2e-05
5e-05
5e-05
2e-05
2e-05
4e-05
4e-05
2e-05
3e-05
4e-05
4e-05
2e-05
3e-05
4e-05
4e-05
2e-05
3e-05
4e-05
4e-05
2e-05
3e-05
4e-05
4e-05
2e-05
3e-05
4e-05
4e-05
2e-05
3e-05
4e-05
4e-05
2e-05
3e-05
4e-05
4e-05
2e-05
3e-05
4e-05
4e-05
2e-05
3e-05
4e-05
4e-05
2e-05
2e-05
5e-05
5e-05
2e-05
2e-05
5e-05
5e-05
2e-05
2e-05
6e-05
6e-05
2e-05
2e-05
6e-05
6e-05
2e-05
2e-05
7e-05
7e-05
2e-05
2e-05
7e-05
7e-05
2e-05
2e-05
7e-05
7e-05
2e-05
2e-05
7e-05
7e-05
2e-05
2e-05
7e-05
7e-05
2e-05
2e-05
7e-05
7e-05
2e-05
2e-05
6e-05
6e-05
2e-05
2e-05
6e-05
6e-05
2e-05
2e-05
6e-05
6e-05
2e-05
2e-05
5e-05
5e-05
3e-05
2e-05
5e-05
5e-05
3e-05
3e-05
4e-05
3e-05
4e-05
4e-05
3e-05
4e-05
3e-05
SCALARS strain_1 float
LOOKUP_TABLE default
-0.000017
-0.000063
-0.000064
-0.000067
-0.000044
-0.000061
-0.000057
-0.000069
-0.000124
-0.000086
-0.000122
-0.000149
-0.000123
-0.000156
-0.000212
-0.000135
-0.000294
-0.000130
-0.000415
-0.000095
-0.000499
-0.000082
-0.000620
-0.000009
-0.000809
0.000045
-0.001020
0.000121
-0.001223
0.000234
-0.001455
0.000387
-0.001735
0.000545
-0.001993
0.000715
-0.002324
0.000931
-0.002671
0.001174
-0.003042
-0.003457
0.001472
-0.003844
0.001798
-0.004382
0.002108
-0.004851
0.002496
-0.005355
0.002883
-0.005875
0.003376
-0.006449
0.003839
-0.007075
0.004348
-0.007675
0.004905
-0.008309
0.005508
-0.008963
0.006171
0.006800
-0.009617
0.007527
-0.010337
0.008213
-0.011075
0.008982
-0.011808
0.009792
-0.012559
0.010589
-0.013321
0.011420
-0.014135
0.012285
-0.014891
0.013201
-0.015674
0.014091
-0.016534
0.015054
-0.017327
0.015996
-0.018129
0.016925
-0.018914
0.017940
-0.019704
0.018915
-0.020563
-0.021338
0.019902
-0.022104
0.020871
-0.022915
0.021856
-0.023695
0.022827
-0.024436
0.023828
-0.025193
0.024777
-0.025888
0.025713
-0.026597
0.026630
-0.027249
0.027546
-0.027908
0.028437
-0.028577
0.029290
0.030136
-0.029156
0.030952
-0.029722
0.031714
-0.030249
0.032465
-0.030740
0.033148
-0.031261
0.033787
-0.031675
0.034391
-0.032083
0.034977
-0.032486
0.035457
-0.032776
0.035962
-0.033097
0.036394
-0.033335
0.036751
-0.033560
0.037085
-0.033719
0.037365
-0.033874
0.037597
-0.033997
0.037754
-0.034023
-0.033999
0.037888
-0.033972
0.037894
-0.033898
0.037922
-0.033795
0.037899
-0.033614
0.037779
-0.033403
0.037641
-0.033216
0.037387
-0.032908
0.037182
-0.032611
0.036854
-0.032244
0.036531
0.036158
-0.031864
0.035699
-0.031487
0.035212
-0.031041
0.034675
-0.030508
0.034147
-0.030034
0.033574
-0.029488
0.032927
-0.028964
0.032281
-0.028341
0.031602
-0.027739
0.030857
-0.027095
0.030156
-0.026481
0.029354
-0.025770
0.028603
-0.025106
0.027763
-0.024397
0.026970
-0.023676
0.026160
-0.022952
-0.022219
0.025299
-0.021503
0.024471
-0.020738
0.023617
-0.019976
0.022777
-0.019239
0.021904
-0.018503
0.021049
-0.017751
0.020176
-0.016996
0.019345
-0.016283
0.018506
-0.015526
0.017655
-0.014824
0.016790
-0.014078
0.016004
-0.013406
0.015199
-0.012694
0.014384
-0.012038
0.013645
-0.011367
0.012896
-0.010688
0.012155
-0.010058
0.011399
-0.009416
0.010725
-0.008824
0.010038
-0.008252
0.009389
-0.007705
0.008761
-0.007142
0.008126
-0.006644
0.007590
-0.006094
0.007012
-0.005640
0.006461
-0.005184
0.005933
-0.004747
0.005443
-0.004353
0.004970
-0.003912
0.004554
-0.003567
0.004089
-0.003219
0.003667
-0.002901
0.003335
-0.002556
0.002981
-0.002300
0.002686
-0.002018
0.002395
-0.001770
0.002097
-0.001540
0.001802
-0.001357
0.001578
-0.001140
0.001359
-0.001019
0.001145
-0.000849
0.000984
-0.000703
0.000833
-0.000528
0.000669
-0.000434
0.000573
-0.000355
0.000456
-0.000284
0.000370
-0.000181
0.000279
-0.000164
0.000212
-0.000108
0.000139
-0.000091
0.000077
-0.000058
0.000076
-0.000025
0.000024
-0.000018
0.000017
-0.000018
0.000032
-0.000004
-0.000030
0.000004
-0.000032
0.000007
-0.000019
0.000011
-0.000018
-0.000018
-0.000051
-0.000022
-0.000089
-0.000055
-0.000121
-0.000061
-0.000108
-0.000116
-0.000105
-0.000162
-0.000134
-0.000237
-0.000118
-0.000272
-0.000126
-0.000412
-0.000141
-0.000540
-0.000099
-0.000658
-0.000022
-0.000851
0.000018
-0.001003
0.000143
-0.001253
0.000210
-0.001477
0.000378
-0.001710
0.000522
-0.002033
0.000728
-0.002342
0.000952
-0.002703
0.001161
-0.003060
0.001453
-0.003463
0.001727
-0.003900
0.002091
-0.004376
0.002432
-0.004826
0.002826
-0.005342
0.003285
-0.005875
0.003717
-0.006432
0.004287
-0.007002
0.004811
-0.007587
0.005372
-0.008240
0.006026
-0.008858
0.006613
-0.009534
0.007267
-0.010224
0.007984
-0.010938
0.008729
-0.011629
0.009494
-0.012349
0.010273
-0.013068
0.011067
-0.013826
0.011901
-0.014571
0.012710
-0.015322
0.013586
-0.016060
0.014479
-0.016816
0.015349
-0.017581
0.016247
-0.018321
0.017137
-0.019049
0.018068
-0.019830
0.018927
-0.020536
0.019855
-0.021288
0.020731
-0.021939
0.021607
-0.022650
0.022505
-0.023319
0.023351
-0.023987
0.024194
-0.024595
0.025008
-0.025218
0.025783
-0.025771
0.026591
-0.026317
0.027311
-0.026857
0.028054
-0.027336
0.028696
-0.027821
0.029310
-0.028241
0.029918
-0.028639
0.030495
-0.029003
0.031007
-0.029330
0.031496
-0.029609
0.031888
-0.029880
0.032248
-0.030060
0.032567
-0.030230
0.032912
-0.030387
0.033126
-0.030450
0.033315
-0.030504
0.033453
-0.030516
0.033515
-0.030514
0.033552
-0.030446
0.033518
-0.030376
0.033451
-0.030193
0.033354
-0.029990
0.033194
-0.029778
0.032969
-0.029524
0.032703
-0.029217
0.032379
-0.028909
0.032042
-0.028561
0.031671
-0.028178
0.031211
-0.027745
0.030752
-0.027294
0.030280
-0.026776
0.029680
-0.026316
0.029120
-0.025761
0.028517
-0.025206
0.027876
-0.024627
0.027195
-0.023975
0.026543
-0.023392
0.025848
-0.022780
0.025065
-0.022115
0.024368
-0.021475
0.023578
-0.020780
0.022863
-0.020127
0.022078
-0.019405
0.021306
-0.018743
0.020511
-0.018033
0.019706
-0.017318
0.018930
-0.016600
0.018144
-0.015933
0.017346
-0.015240
0.016595
-0.014547
0.015813
-0.013860
0.015013
-0.013216
0.014260
-0.012488
0.013524
-0.011862
0.012831
-0.011233
0.012096
-0.010578
0.011412
-0.009969
0.010742
-0.009373
0.010055
-0.008826
0.009420
-0.008200
0.008779
-0.007668
0.008203
-0.007113
0.007584
-0.006617
0.007074
-0.006102
0.006468
-0.005631
0.006004
-0.005166
0.005485
-0.004741
0.005016
-0.004307
0.004565
-0.003944
0.004133
-0.003576
0.003777
-0.003223
0.003416
-0.002857
0.003060
-0.002583
0.002704
-0.002282
0.002385
-0.002023
0.002156
-0.001791
0.001876
-0.001575
0.001591
-0.001341
0.001367
-0.001165
0.001192
-0.000970
0.001024
-0.000844
0.000828
-0.000682
0.000725
-0.000611
0.000582
-0.000477
0.000465
-0.000351
0.000363
-0.000294
0.000272
-0.000267
0.000200
-0.000165
0.000152
-0.000147
0.000125
-0.000083
0.000074
-0.000079
0.000021
-0.000059
-0.000004
-0.000008
0.000003
-0.000031
-0.000031
-0.000022
-0.000012
-0.000005
-0.000006
-0.000030
-0.000019
-0.000017
-0.000033
-0.000043
-0.000045
-0.000084
-0.000062
-0.000050
-0.000056
-0.000084
-0.000072
-0.000060
-0.000083
-0.000092
-0.000066
-0.000086
-0.000097
-0.000127
-0.000078
-0.000143
-0.000077
-0.000121
-0.000141
-0.000151
-0.000132
-0.000164
-0.000175
-0.000167
-0.000203
-0.000221
-0.000174
-0.000143
-0.000272
-0.000342
-0.000146
-0.000160
-0.000371
-0.000440
-0.000135
-0.000116
-0.000453
-0.000574
-0.000092
-0.000055
-0.000612
-0.000706
-0.000026
0.000009
-0.000771
-0.000865
0.000015
0.000060
-0.000951
-0.001116
0.000106
0.000130
-0.001120
-0.001276
0.000206
0.000284
-0.001361
-0.001547
0.000331
0.000427
-0.001631
-0.001828
0.000482
0.000598
-0.001939
-0.002124
0.000644
0.000779
-0.002237
-0.002462
0.000863
0.001029
-0.002572
-0.002841
0.001090
0.001272
-0.002942
-0.003223
-0.003573
0.001349
0.001572
-0.003431
-0.003892
0.001642
0.001869
-0.003825
-0.004330
0.001982
0.002243
-0.004344
-0.004832
0.002327
0.002580
-0.004812
-0.005348
0.002681
0.003028
-0.005340
-0.005893
0.003164
0.003492
-0.005858
-0.006457
0.003635
0.003976
-0.006467
-0.007049
0.004126
0.004527
-0.007024
-0.007655
0.004685
0.005064
-0.007633
-0.008278
0.005254
0.005678
-0.008274
-0.008972
0.006354
0.005875
0.006936
-0.008907
-0.009639
0.006623
0.007410
-0.009572
-0.010305
0.007288
0.008129
-0.010236
-0.011029
0.008035
0.008854
-0.010961
-0.011741
0.008751
0.009662
-0.011686
-0.012475
0.009590
0.010464
-0.012423
-0.013240
0.010374
0.011312
-0.013183
-0.014004
0.011181
0.012172
-0.013907
-0.014785
0.012025
0.013038
-0.014659
-0.015552
0.012876
0.013968
-0.015447
-0.016362
0.013760
0.014858
-0.016211
-0.017156
0.014661
0.015759
-0.016998
-0.017946
0.015561
0.016697
-0.017764
-0.018743
0.016461
0.017646
-0.018532
-0.019532
0.017392
0.018605
-0.019374
-0.020349
-0.021102
0.018319
0.019553
-0.020306
-0.021527
0.019273
0.020499
-0.020970
-0.022316
0.020186
0.021465
-0.021774
-0.023072
0.021106
0.022412
-0.022515
-0.023784
0.022001
0.023375
-0.023215
-0.024543
0.022940
0.024291
-0.023904
-0.025242
0.023804
0.025207
-0.024598
-0.025889
0.024686
0.026094
-0.025251
-0.026559
0.025565
0.026968
-0.025854
-0.027200
0.026383
0.027856
-0.026461
-0.027789
0.027196
0.028618
0.029529
-0.027065
-0.028358
0.028275
0.029931
-0.027584
-0.028881
0.028819
0.030697
-0.028110
-0.029445
0.029647
0.031390
-0.028619
-0.029941
0.030316
0.032041
-0.029058
-0.030375
0.030941
0.032610
-0.029487
-0.030821
0.031547
0.033266
-0.029863
-0.031193
0.032090
0.033780
-0.030212
-0.031475
0.032626
0.034284
-0.030519
-0.031789
0.033090
0.034714
-0.030808
-0.032096
0.033459
0.035083
-0.031046
-0.032297
0.033823
0.035432
-0.031246
-0.032485
0.034169
0.035728
-0.031443
-0.032597
0.034401
0.036019
-0.031552
-0.032731
0.034652
0.036161
-0.031617
-0.032824
0.034771
0.036269
-0.031648
-0.032835
-0.033029
0.034894
0.036335
-0.031687
-0.032841
0.034969
0.036426
-0.031597
-0.032712
0.034949
0.036381
-0.031463
-0.032537
0.034895
0.036317
-0.031385
-0.032367
0.034796
0.036222
-0.031196
-0.032189
0.034673
0.036064
-0.030991
-0.031947
0.034483
0.035823
-0.030737
-0.031641
0.034196
0.035532
-0.030460
-0.031363
0.033922
0.035226
-0.030097
-0.030979
0.033514
0.034833
0.034756
-0.029789
-0.030582
0.033367
0.034160
-0.029377
-0.030189
0.032587
0.033702
-0.028949
-0.029774
0.032221
0.033176
-0.028473
-0.029268
0.031699
0.032649
-0.027995
-0.028728
0.031141
0.032040
-0.027514
-0.028241
0.030535
0.031380
-0.026961
-0.027661
0.029927
0.030754
-0.026416
-0.027060
0.029300
0.030052
-0.025814
-0.026451
0.028629
0.029361
-0.025245
-0.025848
0.027954
0.028646
-0.024622
-0.025235
0.027199
0.027891
-0.023965
-0.024558
0.026464
0.027118
-0.023310
-0.023853
0.025697
0.026320
-0.022621
-0.023111
0.024970
0.025529
-0.021930
-0.022400
0.024218
0.024726
-0.021195
-0.021730
-0.021294
0.023389
0.023932
-0.020554
-0.020605
0.022586
0.023099
-0.019642
-0.019830
0.021755
0.022260
-0.018938
-0.019052
0.020969
0.021412
-0.018202
-0.018357
0.020183
0.020567
-0.017493
-0.017629
0.019321
0.019739
-0.016772
-0.016914
0.018527
0.018945
-0.016037
-0.016179
0.017689
0.018082
-0.015324
-0.015410
0.016903
0.017280
-0.014624
-0.014706
0.016093
0.016450
-0.013940
-0.014001
0.015221
0.015637
0.015108
-0.013244
-0.013317
0.014511
0.014398
-0.012569
-0.012657
0.013573
0.013594
-0.011912
-0.011986
0.012887
0.012843
-0.011261
-0.011308
0.012105
0.012139
-0.010666
-0.010660
0.011417
0.011425
-0.009989
-0.010036
0.010727
0.010725
-0.009398
-0.009430
0.010017
0.010084
-0.008815
-0.008802
0.009410
0.009408
-0.008197
-0.008252
0.008775
0.008771
-0.007667
-0.007675
0.008168
0.008129
-0.007148
-0.007136
0.007552
0.007545
-0.006614
-0.006626
0.007045
0.007023
-0.006117
-0.006077
0.006479
0.006497
-0.005650
-0.005670
0.005950
0.005922
-0.005140
-0.005162
-0.004849
0.005449
0.005446
-0.004681
-0.004461
0.005019
0.004984
-0.004259
-0.004048
0.004570
0.004554
-0.003797
-0.003704
0.004171
0.004142
-0.003453
-0.003325
0.003730
0.003745
-0.003092
-0.002989
0.003364
0.003330
-0.002754
-0.002625
0.003031
0.002998
-0.002490
-0.002374
0.002701
0.002670
-0.002166
-0.002105
0.002349
0.002331
-0.001934
-0.001883
0.002098
0.002081
-0.001695
-0.001639
0.001800
0.001845
-0.001484
-0.001392
0.001570
0.001696
-0.001270
-0.001199
0.001341
0.001434
-0.001079
-0.001035
0.001166
0.001260
-0.000924
-0.000869
0.000941
0.001072
-0.000756
-0.000734
0.000800
0.000900
-0.000637
-0.000608
0.000646
0.000736
-0.000510
-0.000503
0.000482
0.000604
-0.000426
-0.000392
0.000399
0.000492
-0.000347
-0.000300
0.000334
0.000357
-0.000279
-0.000251
0.000251
0.000282
-0.000186
-0.000195
0.000181
0.000200
-0.000138
-0.000135
0.000151
0.000133
-0.000099
-0.000065
0.000065
0.000102
-0.000070
-0.000088
0.000051
0.000036
-0.000055
-0.000032
0.000044
0.000051
-0.000042
-0.000039
-0.000013
0.000022
-0.000019
-0.000023
0.000015
0.000006
-0.000011
-0.000015
-0.000037
-0.000007
-0.000024
-0.000035
-0.000001
-0.000010
0.000030
-0.000012
-0.000034
0.000001
-0.000035
-0.000014
-0.000045
-0.000022
-0.000028
SCALARS strain_2 float
LOOKUP_TABLE default
0.000655
0.000340
0.000686
0.000301
0.000726
0.000201
0.000879
0.000357
0.000891
0.001064
0.001261
0.001494
0.001324
0.001442
0.002399
0.001478
0.003596
0.001606
0.004594
0.001187
0.006360
0.000797
0.008289
0.000040
0.010160
-0.000428
0.012392
-0.001372
0.015324
-0.003041
0.018570
-0.004628
0.022173
-0.006484
0.025373
-0.008475
0.030113
-0.011305
0.034432
-0.014375
0.039554
0.044775
-0.017684
0.050677
-0.021349
0.056440
-0.025222
0.062426
-0.030151
0.069773
-0.035019
0.076990
-0.040591
0.084385
-0.046591
0.092051
-0.052641
0.099973
-0.059325
0.108602
-0.066689
0.117509
-0.074483
-0.082386
0.126579
-0.090520
0.135785
-0.099684
0.145439
-0.109021
0.155518
-0.118831
0.165502
-0.128701
0.175236
-0.138817
0.185529
-0.149575
0.196486
-0.161115
0.206990
-0.172688
0.217413
-0.184126
0.228313
-0.195634
0.238956
-0.207958
0.250231
-0.220063
0.260637
-0.232030
0.271819
0.282163
-0.244413
0.292566
-0.256711
0.302816
-0.269137
0.312829
-0.281605
0.322939
-0.294003
0.332839
-0.306065
0.342300
-0.318632
0.351157
-0.330052
0.359707
-0.341635
0.368445
-0.353158
0.376070
-0.364281
-0.375206
0.383809
-0.385559
0.391090
-0.395736
0.397604
-0.405186
0.403892
-0.414324
0.409628
-0.422972
0.414875
-0.431119
0.419128
-0.438543
0.423368
-0.445245
0.427015
-0.451825
0.429955
-0.457561
0.431767
-0.462055
0.434018
-0.466935
0.435142
-0.470731
0.435908
-0.473313
0.436126
-0.475842
0.434741
0.434257
-0.476956
0.432349
-0.477734
0.430121
-0.478120
0.427138
-0.477388
0.423614
-0.475893
0.419555
-0.474200
0.415315
-0.471734
0.410377
-0.468232
0.404364
-0.464303
0.398902
-0.459506
-0.454551
0.392785
-0.448496
0.385341
-0.442150
0.378241
-0.434901
0.370821
-0.427882
0.363224
-0.420014
0.354629
-0.411362
0.346428
-0.402666
0.337192
-0.393668
0.328781
-0.383747
0.319678
-0.373351
0.310385
-0.363666
0.300866
-0.352793
0.291474
-0.342542
0.281892
-0.331716
0.271912
-0.320008
0.262195
0.252551
-0.308985
0.242904
-0.297806
0.233248
-0.286823
0.223180
-0.275123
0.214095
-0.263584
0.204121
-0.252511
0.195158
-0.241039
0.185703
-0.230106
0.177092
-0.218424
0.167930
-0.207785
0.159383
-0.196825
0.150764
-0.186358
0.142359
-0.176200
0.134311
-0.166286
0.126940
-0.156037
0.118923
-0.146463
0.111954
-0.137271
0.104450
-0.128180
0.097809
-0.119330
0.090830
-0.111088
0.084743
-0.102802
0.078560
-0.095073
0.072573
-0.087827
0.067351
-0.080440
0.061827
-0.073943
0.057245
-0.067511
0.052113
-0.061514
0.047604
-0.055546
0.043316
-0.050336
0.038987
-0.044791
0.035648
-0.040437
0.031539
-0.035727
0.028334
-0.031744
0.025699
-0.028164
0.022447
-0.024482
0.019853
-0.021517
0.017278
-0.018461
0.015125
-0.015440
0.013020
-0.013215
0.010844
-0.010941
0.009407
-0.008858
0.007509
-0.007255
0.006450
-0.005738
0.005522
-0.004830
0.004268
-0.003415
0.003056
-0.002501
0.002457
-0.001757
0.001964
-0.000760
0.001191
-0.000755
0.000617
-0.000452
0.000388
-0.000088
0.000139
0.000305
-0.000041
0.000218
0.000167
0.000474
-0.000404
0.000337
-0.000402
0.000554
-0.000002
-0.000041
-0.000091
0.000499
0.000018
0.000115
0.000243
0.000639
0.000429
0.000665
0.000491
0.000961
0.000691
0.001313
0.000853
0.001216
0.001917
0.001400
0.003180
0.001755
0.003902
0.001504
0.005209
0.001255
0.006457
0.000709
0.008822
0.000275
0.010701
-0.000352
0.013531
-0.001736
0.016292
-0.002679
0.019320
-0.004600
0.022700
-0.006487
0.026974
-0.008576
0.031075
-0.011369
0.035440
-0.013864
0.040263
-0.017488
0.045734
-0.020762
0.051098
-0.024990
0.057551
-0.029339
0.063582
-0.034312
0.070135
-0.039748
0.077426
-0.045517
0.084514
-0.051493
0.092252
-0.058143
0.100453
-0.064842
0.108714
-0.072456
0.117457
-0.080219
0.125858
-0.088654
0.135369
-0.097145
0.144779
-0.106147
0.154111
-0.115408
0.163670
-0.124965
0.173334
-0.134753
0.183415
-0.144815
0.193403
-0.155183
0.203043
-0.166120
0.213576
-0.176796
0.223911
-0.188025
0.233517
-0.199313
0.243685
-0.210489
0.253503
-0.221780
0.263389
-0.233503
0.273043
-0.244289
0.282727
-0.255854
0.291633
-0.266755
0.300746
-0.278011
0.309624
-0.288950
0.318029
-0.299836
0.326116
-0.310028
0.334078
-0.320535
0.341429
-0.330303
0.348666
-0.339759
0.354887
-0.348808
0.360783
-0.357709
0.366443
-0.365740
0.371772
-0.373447
0.376298
-0.380705
0.380337
-0.387469
0.384023
-0.393693
0.386567
-0.399236
0.389231
-0.404668
0.391353
-0.408998
0.392688
-0.412388
0.393411
-0.415517
0.393610
-0.417902
0.393133
-0.419546
0.392559
-0.420385
0.390620
-0.421154
0.388685
-0.420499
0.386256
-0.420016
0.382854
-0.418359
0.379310
-0.416119
0.375402
-0.412992
0.370689
-0.409773
0.365537
-0.405264
0.359860
-0.400614
0.353724
-0.395584
0.347608
-0.389748
0.340941
-0.383342
0.333753
-0.376618
0.326407
-0.369294
0.318551
-0.361304
0.310693
-0.353365
0.302445
-0.344758
0.294033
-0.335540
0.285612
-0.326770
0.276683
-0.317186
0.268222
-0.307589
0.259317
-0.297747
0.250352
-0.287617
0.241191
-0.277371
0.232254
-0.267492
0.222684
-0.256620
0.213514
-0.246458
0.204882
-0.235768
0.195955
-0.225397
0.187086
-0.215362
0.178232
-0.204819
0.169632
-0.194571
0.161157
-0.184438
0.152814
-0.174704
0.144570
-0.164758
0.136625
-0.155565
0.129026
-0.146282
0.121179
-0.137047
0.113913
-0.128410
0.106903
-0.120041
0.099986
-0.111568
0.093149
-0.103646
0.086844
-0.095759
0.080529
-0.088618
0.074515
-0.081523
0.069348
-0.075007
0.063701
-0.068452
0.058519
-0.062409
0.053946
-0.056642
0.049530
-0.051020
0.044856
-0.045826
0.040677
-0.041248
0.037174
-0.036805
0.032888
-0.032207
0.030008
-0.028962
0.026330
-0.024990
0.023531
-0.021375
0.020902
-0.018919
0.018310
-0.015744
0.015846
-0.013304
0.013896
-0.011150
0.011430
-0.009238
0.009874
-0.007563
0.008271
-0.005619
0.006474
-0.004694
0.005770
-0.003514
0.004595
-0.002417
0.003296
-0.001746
0.002461
-0.000855
0.001926
-0.000527
0.001257
0.000020
0.000634
0.000181
0.000498
0.000420
0.000291
0.000638
-0.000073
0.000488
0.000163
0.000537
-0.000184
0.000761
-0.000380
0.000507
-0.000219
0.000363
0.000067
0.000101
0.000339
0.000446
0.000298
0.000428
0.000364
0.000529
0.000655
0.000511
0.000425
0.000673
0.000668
0.000637
0.000661
0.000950
0.000993
0.001075
0.000967
0.001205
0.001251
0.000955
0.001578
0.001659
0.001512
0.001662
0.001877
0.001235
0.001599
0.001936
0.002993
0.001432
0.001321
0.003179
0.003516
0.001268
0.001426
0.004330
0.005816
0.001376
0.000932
0.005905
0.007256
0.001014
0.000530
0.007642
0.009111
0.000235
0.000012
0.009991
0.011278
-0.000170
-0.001060
0.011813
0.013739
-0.000929
-0.001977
0.014824
0.016879
-0.002582
-0.003306
0.018070
0.019564
-0.004058
-0.005245
0.021535
0.023793
-0.005932
-0.007197
0.025447
0.027925
-0.007984
-0.009113
0.029004
0.031606
-0.010273
-0.012293
0.033722
0.036614
-0.013185
-0.015517
0.038480
0.041891
0.046488
-0.016439
-0.018332
0.044441
0.050430
-0.019697
-0.022922
0.050133
0.056574
-0.023814
-0.026689
0.056553
0.063067
-0.028277
-0.031440
0.063224
0.069835
-0.032820
-0.037156
0.070344
0.076878
-0.038512
-0.042232
0.076735
0.084056
-0.043988
-0.048081
0.084732
0.092007
-0.050075
-0.054824
0.092072
0.100095
-0.056464
-0.061283
0.100121
0.108269
-0.063371
-0.068770
0.108471
0.117354
-0.077212
-0.071085
-0.083655
0.117319
0.126375
-0.080096
-0.090017
0.126154
0.135540
-0.088271
-0.098576
0.135196
0.144866
-0.097288
-0.107521
0.144482
0.154847
-0.106992
-0.117573
0.154465
0.164572
-0.116508
-0.127384
0.164394
0.174717
-0.126098
-0.137743
0.174124
0.184803
-0.136227
-0.148599
0.184222
0.195346
-0.146818
-0.159131
0.194039
0.205770
-0.157395
-0.170295
0.204382
0.216566
-0.168435
-0.181542
0.214964
0.226957
-0.179164
-0.192887
0.225174
0.237535
-0.190679
-0.204803
0.235560
0.248090
-0.202087
-0.216639
0.246181
0.258831
-0.213401
-0.228723
0.256643
0.269616
0.278874
-0.224966
-0.240913
0.269384
0.285322
-0.236890
-0.252570
0.278327
0.295563
-0.248432
-0.264908
0.288810
0.305609
-0.260243
-0.276783
0.298338
0.315085
-0.271930
-0.288595
0.307776
0.324468
-0.283641
-0.300580
0.316923
0.334118
-0.294626
-0.312021
0.325668
0.342506
-0.305815
-0.323856
0.334034
0.350911
-0.316841
-0.335087
0.342268
0.359296
-0.327456
-0.346192
0.350306
0.367100
-0.337770
-0.356319
-0.367917
0.357724
0.373791
-0.351598
-0.373000
0.364299
0.380583
-0.359054
-0.383094
0.370794
0.387437
-0.369537
-0.391849
0.377019
0.392822
-0.378264
-0.400050
0.382266
0.398409
-0.386440
-0.408245
0.387051
0.403209
-0.394259
-0.416141
0.391855
0.407341
-0.401672
-0.422971
0.395502
0.411137
-0.408176
-0.429974
0.399069
0.414194
-0.414687
-0.435702
0.401892
0.416965
-0.419357
-0.440550
0.404204
0.419247
-0.424406
-0.445299
0.405965
0.420227
-0.428442
-0.449010
0.406738
0.420995
-0.432115
-0.452967
0.407374
0.421362
-0.435028
-0.454913
0.407088
0.421565
-0.437084
-0.456633
0.406343
0.420699
0.421612
-0.438180
-0.457871
0.406055
0.418211
-0.438831
-0.458129
0.403124
0.415589
-0.439604
-0.457961
0.400186
0.411988
-0.438693
-0.457139
0.397571
0.408339
-0.437685
-0.455616
0.394047
0.404601
-0.435236
-0.453263
0.389767
0.399767
-0.432943
-0.450345
0.385170
0.395038
-0.429166
-0.446335
0.380114
0.389521
-0.425306
-0.442622
0.374465
0.383349
-0.419867
-0.437200
-0.436401
0.368227
0.376796
-0.417580
-0.428824
0.362181
0.370341
-0.408047
-0.422747
0.355395
0.363137
-0.402622
-0.415376
0.348246
0.355615
-0.395325
-0.407748
0.340575
0.347929
-0.388315
-0.399956
0.332796
0.339837
-0.380327
-0.391312
0.324798
0.331304
-0.371727
-0.382460
0.316970
0.322932
-0.362869
-0.373052
0.308287
0.313782
-0.354146
-0.363792
0.299615
0.304621
-0.344762
-0.354073
0.290827
0.296032
-0.334950
-0.344363
0.282113
0.286770
-0.325626
-0.333521
0.272510
0.277092
-0.315304
-0.323436
0.263234
0.267459
-0.305099
-0.312324
0.253862
0.257493
-0.294730
-0.301897
0.243755
0.248567
0.242477
-0.284216
-0.290628
0.235080
0.233424
-0.273634
-0.279932
0.223485
0.223829
-0.262690
-0.268671
0.214111
0.214178
-0.251873
-0.257486
0.204908
0.204787
-0.241158
-0.246601
0.195843
0.195266
-0.230574
-0.235885
0.186941
0.186225
-0.220150
-0.225064
0.177846
0.177563
-0.209144
-0.214069
0.169235
0.168582
-0.198743
-0.203162
0.160380
0.159809
-0.188671
-0.192436
0.152277
0.151195
-0.177409
-0.182273
-0.175591
0.144097
0.143236
-0.167862
-0.165976
0.136125
0.135193
-0.156166
-0.156112
0.128221
0.127525
-0.146500
-0.146371
0.120406
0.119323
-0.137368
-0.137162
0.113324
0.112512
-0.128490
-0.128316
0.106084
0.105312
-0.119868
-0.119565
0.099150
0.098457
-0.111661
-0.111263
0.092386
0.091904
-0.103580
-0.102887
0.086312
0.085626
-0.095798
-0.095433
0.079990
0.079259
-0.088154
-0.087438
0.074181
0.073716
-0.081241
-0.080755
0.068459
0.067849
-0.074768
-0.074274
0.063180
0.062643
-0.067873
-0.067841
0.057931
0.057259
-0.061673
-0.061738
0.052616
0.052364
0.049011
-0.056160
-0.055743
0.048052
0.045368
-0.050290
-0.050327
0.042976
0.041391
-0.045755
-0.045256
0.038788
0.037324
-0.040805
-0.040777
0.035368
0.033390
-0.036139
-0.036056
0.031280
0.029899
-0.032306
-0.031967
0.028129
0.026528
-0.027813
-0.027785
0.025281
0.023598
-0.024928
-0.024575
0.022423
0.021254
-0.021505
-0.021252
0.019603
0.018319
-0.018579
-0.018460
0.017326
0.016058
-0.015439
-0.015602
0.014641
0.013842
-0.012874
-0.013376
0.012335
0.011706
-0.010764
-0.011784
0.010752
0.009731
-0.008787
-0.010121
0.009236
0.008683
-0.006726
-0.007959
0.007499
0.006998
-0.005615
-0.006183
0.006053
0.005699
-0.004185
-0.004813
0.005063
0.004420
-0.003235
-0.003546
0.004123
0.003806
-0.001867
-0.002759
0.002760
0.002589
-0.001500
-0.002024
0.002187
0.001847
-0.001330
-0.001445
0.001545
0.001300
-0.000191
-0.000639
0.000935
0.000790
-0.000006
-0.000095
0.000587
0.000470
0.000000
0.000110
0.000251
0.000275
0.000710
0.000333
0.000158
-0.000165
0.000734
0.000293
-0.000329
0.000226
0.000618
0.000611
-0.000006
-0.000267
0.000589
0.000480
-0.000513
-0.000114
0.000613
0.000321
-0.000327
0.000018
0.000322
0.000473
-0.000087
-0.000216
-0.000234
0.000046
0.000317
0.000248
-0.000228
0.000350
0.000234
SCALARS strain_3 float
LOOKUP_TABLE default
-0.000268
-0.000386
-0.000451
0.000199
-0.000499
-0.000223
-0.001020
-0.000975
-0.001705
-0.001725
-0.001115
-0.002163
-0.002223
-0.001667
-0.003292
-0.002164
-0.004200
-0.001762
-0.006880
-0.001952
-0.008929
-0.000836
-0.011394
0.000005
-0.014906
0.000962
-0.018222
0.002790
-0.022369
0.004942
-0.027049
0.007192
-0.032341
0.010362
-0.037235
0.013664
-0.043725
0.017450
-0.050681
0.022402
-0.057385
-0.065052
0.027447
-0.073206
0.032645
-0.082030
0.038991
-0.091416
0.046107
-0.100919
0.053505
-0.111227
0.061758
-0.122077
0.070941
-0.133733
0.080031
-0.145510
0.090351
-0.157249
0.101645
-0.170270
0.112597
0.124856
-0.183110
0.137620
-0.196130
0.150980
-0.210026
0.164527
-0.223714
0.179311
-0.237917
0.194413
-0.252684
0.210021
-0.267359
0.225511
-0.281501
0.242267
-0.296788
0.258811
-0.311703
0.276337
-0.326706
0.293513
-0.341963
0.311217
-0.356783
0.328996
-0.371374
0.346483
-0.386061
-0.400385
0.364948
-0.414502
0.382607
-0.428321
0.401017
-0.442149
0.418950
-0.454967
0.436854
-0.468098
0.454527
-0.480024
0.472177
-0.491884
0.489080
-0.502843
0.505452
-0.513912
0.521930
-0.524568
0.537218
0.552542
-0.532868
0.567078
-0.542436
0.581319
-0.550496
0.594405
-0.557888
0.607161
-0.564033
0.618763
-0.570102
0.629553
-0.575006
0.639629
-0.579613
0.648998
-0.583111
0.656922
-0.585370
0.664272
-0.587342
0.670329
-0.588389
0.675686
-0.588053
0.679740
-0.587306
0.683444
-0.585943
0.685123
-0.584057
-0.580352
0.686583
-0.576614
0.686310
-0.571870
0.685504
-0.566663
0.683801
-0.560881
0.680996
-0.553893
0.676798
-0.546353
0.671786
-0.538214
0.665693
-0.529476
0.659355
-0.520332
0.651131
0.642485
-0.509956
0.632829
-0.499614
0.623154
-0.488869
0.612111
-0.477525
0.600323
-0.466432
0.587478
-0.454026
0.574878
-0.441839
0.561107
-0.429648
0.547333
-0.416935
0.532930
-0.403975
0.518171
-0.390474
0.502688
-0.377846
0.486964
-0.364319
0.470617
-0.350809
0.455177
-0.337823
0.438959
-0.325050
-0.311658
0.422724
-0.298724
0.405960
-0.285786
0.389363
-0.272726
0.373133
-0.260618
0.356880
-0.248204
0.340484
-0.235760
0.324272
-0.224051
0.308397
-0.212689
0.293055
-0.200736
0.277254
-0.189826
0.262225
-0.179469
0.247771
-0.168822
0.233343
-0.159230
0.219211
-0.149636
0.205329
-0.140367
0.191843
-0.130983
0.179808
-0.122315
0.166841
-0.113783
0.154993
-0.106047
0.143663
-0.098465
0.132950
-0.091234
0.121619
-0.083900
0.112026
-0.076865
0.102868
-0.071504
0.093325
-0.065293
0.085286
-0.059446
0.077061
-0.054176
0.069754
-0.049205
0.062712
-0.044895
0.055552
-0.040435
0.050117
-0.035997
0.044062
-0.031866
0.038538
-0.028495
0.033780
-0.025336
0.029908
-0.021766
0.025312
-0.019827
0.021961
-0.017053
0.018743
-0.014506
0.015405
-0.012006
0.012718
-0.009978
0.010472
-0.008803
0.008461
-0.007240
0.006413
-0.005583
0.004812
-0.004472
0.003769
-0.003339
0.002507
-0.002553
0.002144
-0.001701
0.000869
-0.000780
0.000584
-0.000183
0.000069
0.000066
-0.000041
0.000128
-0.000527
0.000251
-0.000264
0.000369
-0.000463
0.000667
-0.000160
0.000839
-0.000523
0.000607
-0.000382
0.000218
-0.000060
0.000065
-0.000051
-0.000272
-0.000867
-0.000217
-0.000798
-0.000646
-0.001600
-0.000898
-0.001790
-0.001629
-0.001508
-0.002230
-0.001968
-0.003652
-0.002320
-0.005269
-0.001643
-0.007274
-0.001474
-0.009641
-0.000730
-0.012648
0.000215
-0.015295
0.001209
-0.018951
0.002750
-0.022943
0.004878
-0.027943
0.007368
-0.032607
0.009732
-0.038577
0.013197
-0.044508
0.017448
-0.051174
0.021949
-0.058535
0.026522
-0.066155
0.032344
-0.073917
0.038619
-0.082823
0.044707
-0.092536
0.052496
-0.101602
0.060506
-0.112101
0.068952
-0.122868
0.078509
-0.133573
0.088211
-0.144978
0.098377
-0.157093
0.110250
-0.169298
0.120986
-0.181983
0.133468
-0.194660
0.146911
-0.207841
0.159698
-0.221549
0.173264
-0.234796
0.188309
-0.248236
0.202464
-0.262927
0.217782
-0.276162
0.232662
-0.290311
0.248629
-0.304384
0.264302
-0.318661
0.280705
-0.332376
0.297272
-0.345830
0.313135
-0.359376
0.330034
-0.372473
0.346574
-0.385474
0.362761
-0.397975
0.379175
-0.410663
0.395133
-0.422837
0.411618
-0.433983
0.427169
-0.445085
0.442598
-0.455514
0.456925
-0.465278
0.471701
-0.474687
0.484965
-0.483847
0.498616
-0.491517
0.511393
-0.498781
0.523684
-0.506022
0.535236
-0.511425
0.545622
-0.516578
0.555506
-0.521107
0.564353
-0.524797
0.572152
-0.527916
0.579934
-0.529939
0.586211
-0.531123
0.591577
-0.531295
0.595707
-0.531678
0.599588
-0.529699
0.601880
-0.528367
0.603944
-0.525759
0.603929
-0.521754
0.603350
-0.517980
0.602274
-0.513267
0.599715
-0.507582
0.596171
-0.501730
0.591947
-0.494615
0.586742
-0.486765
0.580609
-0.479125
0.574027
-0.470111
0.565720
-0.461087
0.557003
-0.451193
0.548270
-0.440765
0.538077
-0.430823
0.527649
-0.420485
0.516295
-0.408882
0.504185
-0.397095
0.491998
-0.386024
0.478948
-0.374137
0.466010
-0.362455
0.452337
-0.349756
0.438085
-0.337884
0.423766
-0.324993
0.408748
-0.312957
0.394237
-0.300360
0.379114
-0.288902
0.364583
-0.275981
0.349551
-0.264251
0.334367
-0.252217
0.319378
-0.240528
0.304679
-0.228845
0.289783
-0.217584
0.275221
-0.206098
0.260396
-0.195308
0.246235
-0.184802
0.232723
-0.174629
0.219037
-0.163640
0.205675
-0.154412
0.192792
-0.145236
0.180566
-0.135761
0.168534
-0.127115
0.156458
-0.118726
0.145354
-0.110146
0.134455
-0.101760
0.123962
-0.094610
0.113720
-0.087668
0.104266
-0.081003
0.095074
-0.074772
0.086924
-0.068436
0.078678
-0.062588
0.070852
-0.056965
0.063983
-0.051661
0.057203
-0.046952
0.051185
-0.042645
0.045478
-0.038072
0.040220
-0.033748
0.034859
-0.030537
0.030204
-0.026730
0.026489
-0.023427
0.022720
-0.020213
0.018738
-0.018049
0.015684
-0.014912
0.012813
-0.012991
0.010445
-0.010798
0.008487
-0.009248
0.006782
-0.007520
0.005043
-0.005787
0.003721
-0.004782
0.002064
-0.003370
0.001644
-0.003084
0.000674
-0.001856
-0.000176
-0.000911
-0.000402
-0.000519
-0.000538
-0.000252
-0.001057
0.000238
-0.001230
0.000178
-0.000626
0.000476
-0.000645
0.000649
-0.000616
0.000465
-0.000610
0.000337
-0.000320
0.000244
0.000221
-0.000267
-0.000189
-0.000537
-0.000524
-0.000586
-0.000891
-0.000151
-0.000207
-0.000730
-0.000494
0.000106
-0.000463
-0.001007
-0.001258
-0.000257
-0.001072
-0.001647
-0.001377
-0.001872
-0.001542
-0.001505
-0.001738
-0.001983
-0.001683
-0.002421
-0.001895
-0.002393
-0.002888
-0.004124
-0.002052
-0.002390
-0.004341
-0.005834
-0.001939
-0.001969
-0.006235
-0.007808
-0.001755
-0.001349
-0.008337
-0.009702
-0.001496
-0.000758
-0.011160
-0.012863
-0.000523
0.000580
-0.014672
-0.016294
0.001024
0.001734
-0.017749
-0.019803
0.002008
0.003410
-0.022114
-0.023822
0.004104
0.005416
-0.025611
-0.028857
0.006453
0.008227
-0.030721
-0.034497
0.009130
0.011460
-0.036436
-0.040034
0.012247
0.015167
-0.042103
-0.046203
0.016095
0.019092
-0.049135
-0.053102
0.020328
0.023563
-0.055924
-0.061091
-0.067366
0.024978
0.028819
-0.064891
-0.072649
0.030943
0.034899
-0.072611
-0.082086
0.036514
0.041079
-0.082047
-0.091355
0.043069
0.048065
-0.091448
-0.100918
0.050103
0.055760
-0.101716
-0.111512
0.057702
0.064288
-0.111513
-0.122148
0.067057
0.073205
-0.122436
-0.133826
0.075927
0.083323
-0.132974
-0.145253
0.085772
0.093422
-0.145541
-0.157133
0.096080
0.103827
-0.157159
-0.169617
0.116849
0.107224
0.127268
-0.169133
-0.182473
0.121001
0.135557
-0.182192
-0.195351
0.133444
0.148782
-0.194875
-0.208922
0.147049
0.162610
-0.208659
-0.223081
0.160711
0.176936
-0.222350
-0.237058
0.175219
0.192361
-0.236272
-0.251182
0.189786
0.207159
-0.250281
-0.265494
0.205006
0.223240
-0.263932
-0.280092
0.219976
0.238906
-0.278514
-0.294556
0.235930
0.255777
-0.292765
-0.309293
0.252316
0.272304
-0.307054
-0.324022
0.268638
0.289298
-0.321479
-0.338795
0.284995
0.306577
-0.335785
-0.353089
0.301815
0.323403
-0.349799
-0.368213
0.318609
0.341504
-0.363768
-0.382364
-0.395395
0.335465
0.358745
-0.381562
-0.403755
0.353067
0.376266
-0.393395
-0.417650
0.369275
0.393568
-0.407809
-0.430971
0.386869
0.411177
-0.420608
-0.443799
0.403258
0.428529
-0.432674
-0.456219
0.420291
0.445406
-0.444798
-0.467816
0.436374
0.461861
-0.456524
-0.479851
0.452444
0.478712
-0.467498
-0.490684
0.467969
0.494284
-0.477348
-0.500729
0.482959
0.510581
-0.487246
-0.510547
0.496953
0.524246
0.541092
-0.496745
-0.519152
0.517046
0.548095
-0.505270
-0.527621
0.527373
0.562540
-0.512926
-0.535496
0.541730
0.573593
-0.520480
-0.542465
0.554098
0.585967
-0.526448
-0.548426
0.565128
0.596951
-0.532509
-0.553456
0.575789
0.607650
-0.537191
-0.558145
0.585824
0.616843
-0.541116
-0.561829
0.594676
0.625385
-0.544864
-0.565107
0.602314
0.632637
-0.547068
-0.567246
0.609297
0.639139
-0.549385
-0.568645
0.614935
0.645247
-0.549817
-0.569176
0.620256
0.649354
-0.549709
-0.568819
0.624492
0.653510
-0.549274
-0.567165
0.627497
0.655758
-0.547605
-0.566048
0.629710
0.657169
-0.544915
-0.562897
-0.563189
0.630463
0.657545
-0.543093
-0.557593
0.630287
0.657495
-0.537589
-0.552392
0.629276
0.656348
-0.532347
-0.546410
0.627146
0.653516
-0.526564
-0.540447
0.624881
0.650219
-0.521094
-0.533652
0.620741
0.645866
-0.514192
-0.525721
0.616019
0.640547
-0.506011
-0.517716
0.609694
0.634284
-0.498315
-0.508976
0.603000
0.627510
-0.489301
-0.499752
0.593851
0.618569
0.615989
-0.480132
-0.489265
0.589822
0.604129
-0.470750
-0.480072
0.574720
0.594248
-0.460018
-0.469339
0.566689
0.582488
-0.449888
-0.458265
0.554720
0.571586
-0.438509
-0.446610
0.543675
0.558703
-0.427156
-0.434784
0.530916
0.546014
-0.415983
-0.422651
0.518085
0.532566
-0.403927
-0.410510
0.505401
0.518939
-0.392269
-0.397842
0.491612
0.504701
-0.379675
-0.385006
0.477950
0.489984
-0.367368
-0.372419
0.463504
0.475273
-0.354988
-0.359653
0.448607
0.460099
-0.341543
-0.346834
0.433901
0.444573
-0.329137
-0.333207
0.418809
0.428888
-0.316478
-0.320382
0.403857
0.412686
-0.302824
-0.307961
-0.299375
0.387985
0.396459
-0.290565
-0.287128
0.372325
0.380815
-0.275906
-0.274854
0.357368
0.364831
-0.263485
-0.261896
0.341774
0.349083
-0.250935
-0.250143
0.326095
0.333420
-0.239070
-0.237596
0.310798
0.317700
-0.227454
-0.226365
0.295700
0.302593
-0.215909
-0.214602
0.280497
0.286808
-0.204841
-0.202972
0.265894
0.271502
-0.193614
-0.192195
0.251156
0.256524
-0.182839
-0.181716
0.235425
0.241838
0.231965
-0.172575
-0.170854
0.222269
0.219506
-0.162759
-0.160964
0.206358
0.205782
-0.152669
-0.150997
0.193236
0.192314
-0.143554
-0.141699
0.180723
0.179723
-0.134050
-0.132370
0.168422
0.167600
-0.125562
-0.123918
0.156541
0.155383
-0.116259
-0.115516
0.144771
0.144132
-0.108892
-0.107382
0.134287
0.132747
-0.100974
-0.099906
0.123262
0.122598
-0.093746
-0.091920
0.113309
0.112623
-0.086621
-0.085608
0.104174
0.103252
-0.079443
-0.078503
0.094490
0.094358
-0.073109
-0.072180
0.086271
0.085937
-0.067388
-0.066109
0.078072
0.077727
-0.061293
-0.060760
-0.056347
0.070423
0.070117
-0.055343
-0.051764
0.063647
0.062747
-0.049829
-0.047253
0.056896
0.056514
-0.044925
-0.042779
0.050221
0.049823
-0.039941
-0.038302
0.045212
0.044435
-0.035684
-0.034159
0.039440
0.039158
-0.031905
-0.029962
0.034678
0.034186
-0.028618
-0.026724
0.029624
0.029536
-0.025454
-0.023921
0.025880
0.025727
-0.022258
-0.020721
0.022203
0.021689
-0.019216
-0.018206
0.017941
0.018166
-0.016662
-0.015567
0.015109
0.016295
-0.014115
-0.013719
0.012273
0.013853
-0.012289
-0.011061
0.009991
0.010931
-0.009917
-0.009183
0.007424
0.008977
-0.007852
-0.008125
0.006009
0.007410
-0.007206
-0.006022
0.004533
0.005491
-0.005552
-0.004569
0.003255
0.004132
-0.003816
-0.003897
0.002115
0.002855
-0.003060
-0.002915
0.001417
0.002300
-0.002141
-0.001922
0.000446
0.001296
-0.001927
-0.001274
0.000235
0.000576
-0.000687
-0.000414
-0.000296
0.000000
-0.000421
-0.000340
-0.000643
-0.000258
-0.000150
0.000333
-0.000557
-0.000662
0.000342
0.000479
-0.000869
-0.001215
0.000293
0.000861
-0.000587
-0.001090
0.000569
0.000533
-0.000402
-0.000613
0.000283
0.000639
-0.000482
-0.000549
0.000260
0.000816
-0.000164
-0.000299
0.000193
0.000554
-0.000078
0.000567
-0.000003
-0.000655
0.000458
-0.000158
0.000049
SCALARS stress_1 float
LOOKUP_TABLE default
-2246.294594
-1752.205739
-571.631677
-1745.856799
-2401.880733
184.873388
15.766560
861.728629
-2739.766377
-169.991714
92.708925
-741.845559
1190.698146
-274.352253
-551.227128
-3839.076206
816.445272
-223.837394
132.023154
-130.147988
-1265.469140
-467.084568
1833.212305
1843.660674
319.091829
234.883374
3075.105542
498.583531
626.765612
2451.556783
2229.263719
2631.482636
3108.740333
1725.912811
1409.195454
3126.847308
1160.576846
4234.633486
2359.961086
5523.399129
6156.847661
4164.313148
6903.003765
6565.549225
6926.691310
6830.068063
8742.629099
6260.177468
7938.188832
9954.901784
11882.614423
12403.920516
10838.200994
12951.681942
15300.064672
15131.698235
17480.012752
15959.161070
18183.469168
19015.134341
20495.933405
19254.194112
21917.137208
24501.823974
23316.340381
28092.481535
25868.149212
28555.224987
27934.056199
29793.170461
32669.881317
33970.125248
33979.624569
30867.513285
37829.681994
34530.834057
41144.669207
35996.254898
42885.470078
39779.147510
45906.840693
42768.755806
48718.728815
40779.374907
52284.506144
42902.376513
54882.928764
44625.747937
58860.560053
44291.361394
59091.540483
46081.947598
64084.921259
68343.906745
47773.506548
71404.484255
47263.717751
72662.922045
47480.132928
75917.963515
49491.803286
75327.120836
48082.728825
78964.509105
46881.960751
81000.268794
50023.806870
78727.451111
45399.190605
82361.260417
46230.855354
82461.684028
47495.236709
83426.669706
42212.514693
42380.176103
83147.589150
43649.157048
85247.198446
39642.200926
87416.060972
41562.231159
81241.548426
38360.439423
78497.160294
35706.685249
74642.280961
32520.160312
73889.153310
33783.159735
71197.777343
32439.683517
67336.588650
28967.231142
63141.407211
26392.726032
57448.040316
28594.911586
54512.487966
24767.479997
46962.557452
24971.918063
39579.312667
22020.854085
34641.945288
22951.774861
28957.198714
22214.752453
23079.616498
15199.054782
20187.122395
4787.592499
19673.484231
-737.942202
21650.689318
-7482.805921
17510.737657
-18271.806983
22640.192625
-26846.021965
19889.977643
-35492.566997
20908.976581
-45088.518658
21556.112861
-51767.313571
23390.578161
23971.115878
-59656.951735
27755.418207
-68069.445838
29668.971946
-77093.604201
30176.225372
-86002.683425
33494.857993
-93401.747403
32367.613208
-103965.309337
40145.682694
-107968.740926
40426.130344
-118134.555372
42620.763449
-124821.060482
47353.582009
-130757.512857
49444.393317
-139636.989075
53089.017350
-141381.989653
56847.889699
-145896.514589
59569.010366
-153174.268764
62056.622234
-154888.060499
63450.109688
-159640.030266
-163486.986388
67538.972213
-164090.005444
70246.581510
-166690.344033
75855.500954
-165525.066049
75604.486632
-166820.684694
80200.910243
-167493.019945
83898.719549
-166069.636210
85289.901865
-161935.790091
87213.661555
-161312.558165
88163.049824
-158753.632627
88820.207144
-156629.962269
93243.248614
-154637.547091
92421.686405
-150315.335888
91018.263915
-145871.776938
97469.249401
-141969.190735
96030.630177
-136703.577277
95893.610606
-133876.205853
96655.241896
-124569.204247
93013.664516
-123470.585146
97763.441844
-117648.976850
94159.329967
-112810.084239
90284.700582
-105264.663397
92473.501453
-97441.342625
88476.488666
-93519.954588
87046.546091
-85422.999801
84132.289342
-78009.054327
80116.114461
-74250.310875
79734.021447
-73475.653315
76013.830279
-63562.966548
71531.976548
-59037.762745
68075.036318
-51701.298508
67835.009590
-49621.842092
62534.472425
-44177.894013
60298.488717
-39364.030334
56542.250144
-35864.443764
51343.268876
-31152.018172
49453.993191
-29748.458439
43620.102597
-26204.520650
43084.621435
-22564.833105
38893.857512
-18961.228469
36181.322999
-15592.462826
33178.209573
-13732.676649
27897.593814
-10827.742151
27104.975206
-10037.311976
23117.430327
-9297.386124
19916.906941
-7024.412872
17263.405048
-6248.712714
15679.065118
-5057.490014
12755.078830
-7418.744772
9480.958355
-2571.681352
9747.639799
-2445.991946
7214.147505
-846.753134
5313.725388
-4219.477087
5353.397788
-4999.983782
4107.472513
-2515.837627
1957.461735
-1786.062963
2212.442031
-1085.595900
-374.702728
-1003.948607
2036.027458
1821.802337
-1991.534746
-2856.392943
127.890501
-1360.222834
-51.924201
-50.183240
-960.726425
-551.518076
-87.400040
-275.150762
-967.957734
-1700.197429
-1807.463397
2549.790201
-779.877481
1015.876022
-2582.892177
-1135.979517
79.044235
3271.915776
-1437.452629
1868.625795
-2361.894942
943.482687
217.269020
3530.178646
-209.037324
2960.533650
880.429942
3276.688170
1434.286432
4693.833883
2383.019974
6274.726876
5169.553991
5792.879319
5720.196288
7396.111189
4031.114202
8668.870766
5865.243840
9154.349727
6431.816431
6686.688543
6735.447589
10367.386698
10215.689035
15022.136386
12597.156383
13660.269756
14407.401355
15734.850699
15349.167351
18801.699195
17642.186113
20390.943027
17299.957127
21380.094368
19822.212135
23900.973194
20783.694538
27432.771183
21258.892165
28734.244422
23689.920113
30967.520694
25755.894513
33426.112170
28282.930463
37877.210529
32729.515793
42141.879662
30705.330009
43578.067333
33918.988725
45827.465735
36508.171448
50318.330437
36693.493792
51476.789225
36436.186985
54026.662077
37653.314920
59290.076777
40559.172717
63014.853304
39416.068184
64439.735056
40690.924741
65776.990290
42246.485789
71298.606320
44111.366940
73568.851403
41376.939895
74546.468936
45518.128075
76100.971091
44320.610986
79170.472967
43855.132028
80645.115036
47238.306815
83543.012395
43471.814853
83237.677215
43825.963949
83249.545090
45965.177009
84356.743803
42398.517926
84143.708947
39451.846229
85084.568308
41394.661401
82959.577454
39381.886865
83375.044193
40485.958212
82709.531902
36620.554948
78208.104473
35296.420474
77285.953585
34068.926488
73037.822636
32556.996412
69585.839411
35014.129731
66645.375610
32602.005950
60591.622911
30901.688963
55137.016905
30361.601675
50608.300991
29884.051893
46247.602955
28634.103511
41223.358389
27770.935518
34572.631185
25732.855722
29246.600334
27672.299716
20819.573644
27893.254813
12140.434984
27154.912690
6249.171669
28644.645047
-1327.024623
27713.195283
-8930.474387
28312.998990
-18128.742030
29877.735676
-25155.084153
33918.597016
-32422.129056
34995.570326
-39330.685063
34293.539475
-45496.764858
36730.812271
-57143.932851
38154.567705
-61129.881234
42177.869669
-71415.431015
41473.153755
-77219.518303
43442.547749
-82199.835290
47548.795050
-89843.959071
51200.331249
-96410.825753
51380.348024
-101042.755829
57484.217075
-108174.249814
58802.066187
-109610.384289
61372.638758
-115443.787552
65459.126467
-117955.716205
68514.593206
-122544.490742
69493.602352
-125721.675569
73378.461712
-127340.347267
75197.426857
-128811.006350
79616.625570
-129343.793289
80780.493444
-130861.644193
84731.158265
-130436.136155
86973.055624
-130780.961368
85775.697692
-127934.440327
87917.199569
-128587.957415
90479.701724
-127198.769235
88993.319257
-124301.196280
92351.564339
-121988.315129
92641.180369
-116064.754081
90042.435604
-115285.897524
91659.317356
-113341.002057
91704.093883
-108659.144260
89575.508583
-103906.016325
90573.381434
-99667.323132
89091.840222
-94858.000788
88670.704925
-90188.818065
85528.103326
-85167.159349
85284.290997
-76871.345133
84412.960131
-75240.759804
80752.058490
-70857.723853
78650.649966
-65511.749453
76563.926238
-58648.721505
73721.399476
-57069.523878
68277.197466
-49244.041476
65646.076292
-48337.786467
67179.227632
-43096.015453
61696.471465
-38834.996691
55147.319960
-36965.230695
54773.900904
-29298.985723
48676.034274
-30709.518375
47058.783962
-24141.276929
40083.482117
-21869.645772
39359.820933
-20535.073181
36997.299894
-14572.943542
33486.059470
-15206.025628
30497.291341
-15615.383331
25551.443784
-11564.849314
24860.336776
-7112.115772
19765.482490
-9214.259282
20641.637010
-5724.792016
16807.992014
-3543.098360
14626.687973
-3491.934399
13989.544865
-5072.376711
13418.254883
-2700.873575
6050.150177
-3846.937163
5466.294637
-1201.951859
2412.380458
-2526.365943
2934.368089
-3685.871607
2741.321422
-3798.429300
2457.688735
-653.102915
1508.353900
-3337.905139
1250.393494
-221.719841
1994.376399
-37.436397
-1976.136418
-1667.156386
-1383.122206
-1803.428437
-1689.940749
-630.656868
-838.504389
-1306.724964
-1486.570881
-143.013885
-1952.715671
-1998.885315
-2022.489306
-2016.466451
16.106204
-2994.038826
-740.060084
-3555.603377
1698.744042
2477.888891
-750.649388
-3163.193052
246.848362
-356.091252
-1428.888464
-598.639796
1709.588877
1567.884614
-1391.544361
-206.245121
-1356.368054
-508.260684
-1030.791740
-524.504654
-227.202453
924.109851
625.389934
-62.542299
3905.855944
1243.438249
-1097.882809
-2754.603002
3012.492223
763.406360
-2903.260876
-1295.500130
1481.063832
2536.100004
-2260.138781
-326.481649
2852.479879
2275.964330
-861.006476
-1198.274791
1299.294138
3333.860783
1515.246118
2761.479919
1842.603551
1924.155204
177.752474
-646.985541
5780.569133
4794.396720
1512.992681
1205.090775
4184.198236
4389.825692
1831.338429
4512.919451
5237.011242
3807.286972
3318.964377
4000.123634
3934.425584
6841.945799
4932.718365
6020.005090
7674.330360
5414.463086
5878.153305
5711.811861
4650.117918
7203.670161
5631.317707
6891.168288
8407.807209
8682.454419
9684.509442
7654.339367
8845.461677
8656.633066
10516.163751
9850.569013
10015.223857
13372.763053
10821.857224
10489.922149
11446.103911
14223.819381
12853.975529
12846.778006
13488.429441
13514.469154
13775.697975
13021.027671
13047.067191
14091.732344
17540.719991
14255.468273
17816.876508
17780.006486
18721.377705
17385.129731
17184.273869
18353.080569
20836.502751
19311.367542
20223.131987
20978.577423
21904.816708
22199.379331
20662.252292
24120.140467
22161.992410
25222.294204
21866.384530
24434.992893
28111.983325
26521.292300
25636.443470
29485.816341
31751.862877
30704.093429
25099.585388
29879.805889
31052.650968
35144.380082
26739.714521
29986.568185
34568.626478
34752.890831
32511.810494
31192.421310
37849.339638
37379.870755
29566.662624
34400.767599
41567.288331
42620.958536
34834.987094
37536.352829
45253.371175
44967.089713
35229.737742
39831.973205
48473.485190
49686.507167
37654.047825
35824.127183
49772.451952
50109.989763
36405.731388
42393.283402
51944.064007
56548.310893
38520.234540
43571.814024
57219.286956
59300.218467
41509.658201
42031.900527
61286.573519
59882.782528
43670.949104
44395.107354
62961.465398
63963.977205
42426.959244
44012.719997
66480.194437
67215.141075
72452.793641
43166.429960
46040.804871
66751.500644
72550.165105
44410.605166
44727.722020
71143.857557
73253.308960
44646.228260
45514.342628
76123.284207
74654.243831
46186.978751
46619.678350
76542.218473
77362.823596
45602.125924
45419.931028
78860.124419
79814.609046
45501.777771
45689.618945
80088.598618
81875.178198
44091.556020
44819.476864
81424.172888
82206.446335
42324.488528
44971.223310
81254.320420
85200.136067
43564.723979
48179.597559
83511.990928
86958.757043
43734.464953
41163.699997
83896.732583
85232.598235
44447.805926
41931.386987
39795.939182
84705.949210
83636.150637
41708.204287
41262.285051
84044.187728
85379.674295
40719.813594
37863.550745
84459.680616
84623.302609
41147.365577
39962.874605
82668.055846
81949.834732
38338.709729
38770.207598
80960.972646
77808.098393
38189.226406
38318.886068
80115.911799
76604.659770
34837.367477
34387.598544
79053.360212
72478.227939
34851.279660
31497.816545
74290.508071
70569.532121
33814.284734
33982.444801
70316.125640
68285.965653
32227.951581
31221.552782
64771.917797
62595.169242
30435.666044
27296.708344
61327.890158
60054.730426
31527.505732
29404.006509
57929.759900
51487.393743
27548.572597
25515.986207
53760.526697
45813.061754
28489.262110
26048.866972
46849.194817
39280.545838
24705.679884
22764.462670
39475.423052
33841.881773
25863.859323
23690.496979
35720.340055
29329.378835
25234.490626
23422.609669
22757.459827
24506.825007
18972.192370
25237.922858
22677.746648
20891.494194
8145.081497
26610.756853
19147.901064
10781.403631
1653.074431
25904.433565
22632.940343
4220.275208
-7104.449499
24866.537695
23978.016043
-2904.811990
-13038.794826
24858.957696
21366.130299
-10810.479799
-22373.231831
26595.582594
23477.133361
-20136.191136
-32128.709453
27576.415190
25870.498347
-25531.604757
-37601.485676
27786.235561
27938.946096
-33306.222631
-49344.280407
31177.038208
28176.237521
27453.203752
-46937.700531
-55087.545307
33669.969271
29357.781127
-50393.755488
-62278.073381
35424.234467
33589.920062
-58503.848927
-72111.729772
36495.034446
33804.162827
-67897.007253
-82278.590382
39386.629976
36920.397381
-76858.957164
-87263.390579
40409.888302
40345.385776
-79975.750326
-98202.366783
42877.594796
43514.106945
-88309.594196
-102208.325788
43963.366032
44736.667668
-93078.717480
-110057.879084
45474.804476
45534.414307
-100042.210934
-116456.783255
52101.697092
50972.817991
-106235.408770
-124495.431927
52377.057599
53268.699728
-112785.679132
-130335.602861
55604.052300
56692.593970
-117671.647691
-135408.257039
59217.320691
59799.362804
-124319.810340
-136309.637343
61861.800371
61452.777487
-127472.241887
-140194.528399
67546.204322
63686.321266
-128551.300313
-144602.803658
70817.986897
68966.406991
-133692.394580
-146301.969796
-151304.904057
68557.311879
72346.931679
-140200.197057
-152291.450913
71805.063138
75847.267031
-140324.401371
-154085.122609
78705.676268
77429.528145
-140466.748757
-152567.294105
78926.522966
79923.227192
-142080.805371
-155478.401039
85230.179297
83414.223701
-141730.317868
-152309.170779
82918.738539
83144.683515
-142623.011138
-152624.906727
86541.271306
85236.797851
-139699.954469
-151547.503876
86085.564913
88373.969749
-141537.597281
-149667.686221
89122.007977
93361.849219
-139812.426797
-147131.758195
90813.666771
90684.992433
-134101.984114
-142432.329265
90608.992382
93710.314311
92595.711338
-134404.053212
-143553.412116
91438.811227
97596.423781
-129860.941899
-138424.698942
92034.186129
96164.190761
-128195.661830
-135985.913809
94414.856393
95425.687376
-119444.778444
-127697.637510
94221.067699
95443.849780
-117956.768945
-124874.065700
94790.669746
94050.261423
-115176.513651
-121785.486395
91294.974284
95256.444144
-110827.756990
-114177.113695
89343.871865
93621.123074
-105572.832144
-111501.752370
88687.037485
90650.456200
-99530.930789
-103923.221259
90702.776743
89017.909823
-97764.960107
-99751.259175
88512.963492
88132.304380
-91635.341863
-92408.844979
86796.897437
86498.796123
-83477.493178
-90412.033928
83905.120706
83955.058725
-76058.578258
-84298.472089
81092.465502
83785.811000
-73560.520063
-77223.565416
77519.288451
79409.054259
-65726.725781
-71512.422151
-68726.227403
77319.439812
74946.184263
-65191.065867
-63516.299634
74227.005191
74599.825541
-55905.450384
-57849.606184
70383.484070
69228.935134
-53048.006697
-54651.861817
65689.056472
65814.329928
-47036.547930
-48676.092296
64764.786289
63953.073815
-45015.121678
-45155.935015
60006.430639
59571.348879
-41311.422450
-40640.344068
57416.812590
57316.137279
-35638.022720
-34590.952584
53751.692560
52254.831647
-33126.880305
-32867.801606
50642.972865
49811.264396
-27146.936927
-29955.732189
49094.134617
44621.665088
-24515.348268
-23954.333290
43735.385621
39763.692227
-20923.997167
-22707.697838
39716.429996
41926.714520
-20287.756870
-19092.113881
37178.409645
38564.891500
-19046.715610
-17797.120419
35340.706022
35724.203612
-17496.961623
-13799.286444
29514.691952
32316.955718
-10697.431016
-11477.036923
26966.734124
26756.485475
-11975.851978
-10277.245990
23521.933214
25764.092371
-8221.614511
-7787.573646
21157.463557
22154.958634
-7791.137968
-8281.360919
19923.731466
19164.410228
-7257.050648
-8006.419225
15330.994004
19150.212479
-5999.570063
-5074.186108
11747.225797
14217.318658
-6190.528307
-5277.391612
11085.683446
12126.177042
-3471.740567
-5826.671427
9296.775680
10089.789232
-4231.579319
-3405.069116
9710.655086
7927.803177
-2683.911768
-4950.813955
7078.488538
8385.715379
-909.092380
-4114.744432
5612.032584
5859.201826
-1841.093682
-1567.384527
2444.888197
4385.356222
-2107.740951
-4205.553067
1113.055379
1784.259380
-2672.181012
-1207.843131
1661.585335
564.140926
-2166.843105
-281.613336
321.246837
370.513031
-1101.806163
-32.565235
-182.971771
-1890.615431
509.485249
1349.965015
-1352.199916
-1374.795368
-2851.862890
SCALARS stress_2 float
LOOKUP_TABLE default
27531.985933
33883.697511
36577.792402
42034.786264
55113.369480
40346.444950
53310.465613
46036.717009
90132.827425
99073.451630
88545.602443
117701.755411
131817.437263
114315.732197
203224.474845
113778.131897
280697.718477
112018.035683
352489.083699
95264.440270
464380.577086
64369.092280
593166.696993
14303.907256
750325.449995
-25986.202548
929327.418906
-95733.237131
1129991.607014
-191464.284240
1360322.265873
-326946.095606
1569997.066043
-455532.257331
1860712.007525
-612486.769416
2157308.843516
-795498.305707
2474935.827392
-1013716.031835
2829625.126249
3209196.993462
-1239601.618360
3600919.680587
-1517928.566927
4058372.190910
-1816778.632552
4506318.439973
-2132986.482512
4967244.434348
-2491677.618448
5508407.422304
-2905282.961010
6054680.989943
-3311954.846212
6600380.140552
-3768849.191415
7188197.125684
-4255626.417092
7794261.362526
-4778078.356146
8408089.271548
-5304125.513508
-5901613.223725
9063984.852751
-6484472.490084
9721640.526606
-7118919.314405
10409695.043024
-7801922.032703
11131643.320835
-8494124.562339
11837949.360036
-9197395.323785
12553624.499930
-9958934.149945
13299076.571598
-10714694.795839
14074857.911053
-11520327.928739
14816110.019939
-12335359.050290
15600122.651454
-13155323.081140
16353069.138325
-13986846.688563
17126570.982194
-14847124.708750
17913109.767343
-15703007.976071
18672027.164331
-16584816.661264
19430289.754154
20192680.624556
-17510278.764329
20976436.939347
-18380201.036998
21668327.203456
-19242977.065373
22413626.082337
-20153880.268460
23132152.579276
-21048334.646259
23807290.692452
-21899245.617776
24501678.092426
-22758553.267469
25132521.360192
-23618813.848715
25754907.583494
-24460576.696060
26369753.926143
-25266851.059593
26926158.141336
-26090347.858143
-26862405.760804
27472981.561800
-27602866.184761
27982741.689178
-28316086.464562
28464304.107750
-29010814.853582
28917186.150243
-29637703.100266
29314155.983754
-30258620.875176
29690037.777199
-30819611.926756
30017274.363126
-31368947.175656
30275897.741537
-31845826.621876
30570258.662341
-32298602.098320
30758956.044368
-32706709.858363
30913537.970254
-33057931.236553
31053012.440000
-33385894.148432
31141023.536243
-33642545.263093
31179556.676169
-33856073.913264
31179496.111331
-33998074.768039
31151012.507182
31050771.111990
-34136581.244603
30920317.511857
-34194606.677504
30757145.037688
-34219762.815186
30554121.773942
-34150588.493841
30285834.386072
-34080651.713468
30011487.125631
-33939262.889788
29696603.739244
-33721538.276174
29348648.562925
-33496749.536615
28960281.343298
-33200684.924486
28501391.664643
-32878332.188232
-32530592.662400
28062347.526961
-32109366.262533
27560482.094060
-31622087.657725
27051287.617496
-31131979.261874
26530534.762721
-30619783.826712
25951310.112550
-30041538.686787
25359426.997889
-29430071.590543
24786600.086010
-28802149.120797
24152306.707820
-28137551.194911
23489094.947777
-27431029.812884
22843103.471333
-26736924.892080
22198224.025113
-26011101.513669
21513272.776213
-25251224.927742
20816409.724633
-24476687.134297
20155555.949723
-23705125.300786
19430235.703038
-22898131.258293
18750803.314019
18028047.034218
-22096568.839721
17365026.610260
-21286456.712343
16676616.707599
-20488881.291880
15961023.909050
-19688125.076686
15280381.545516
-18855102.734038
14617306.698172
-18049420.510735
13936886.116926
-17220177.242969
13294602.467233
-16435997.842996
12625131.495716
-15630747.729819
12015733.117917
-14849949.232880
11390397.914830
-14089674.353999
10779909.886455
-13361496.089890
10173219.613786
-12598731.775099
9583501.510721
-11853364.904697
9069500.825528
-11165758.314875
8502065.558207
-10446264.917886
7962875.538020
-9815182.132737
7469399.930596
-9154768.288868
6970075.899746
-8520797.801998
6515364.778196
-7910609.170482
6042531.645296
-7351693.061596
5608562.999402
-6795239.722141
5227440.173242
-6256251.650473
4812809.411796
-5773536.510580
4414046.882160
-5266590.471378
4038500.163862
-4805570.193568
3731797.339541
-4391499.677149
3400714.073182
-3960020.003294
3090522.362965
-3566396.422091
2808763.205603
-3208760.513069
2540647.266549
-2857608.276228
2298734.040872
-2572319.291095
2020719.695669
-2263100.140486
1819103.810467
-1971482.572847
1620538.467905
-1729647.584891
1433303.331968
-1511793.590516
1251111.482009
-1309927.341453
1107589.416383
-1109818.831131
929870.467817
-930768.144006
797552.881292
-774812.276792
667399.155164
-644250.977935
559523.618873
-512415.994059
474761.106788
-415243.158068
378942.945063
-341296.216586
298565.133697
-250469.416416
231314.086588
-151274.757557
176927.052004
-124178.569450
131068.942201
-65880.600538
95339.757177
-40945.847536
50364.409187
6560.272371
11018.813773
42419.765758
19562.717560
27171.130980
-1262.882740
39492.374612
-5992.905955
45939.412194
-15460.602173
56443.247014
11272.022032
36424.132447
14558.383844
38850.404507
723.479977
38634.063193
9595.057055
7504.863524
13220.481142
73547.269126
33199.206120
67212.277159
43334.875732
48114.468233
57360.991622
95381.506335
102841.807165
113290.555276
153769.658375
119184.197869
216362.131353
108049.844726
262588.643284
97323.411389
383221.783557
75219.311756
481593.636631
70977.376910
631689.619690
7850.603563
793175.654849
-65018.594386
963271.826567
-100442.470312
1186049.053673
-226778.525860
1375665.006726
-308098.929946
1630107.937281
-456862.685857
1919847.346982
-610906.046968
2229086.239115
-783705.097739
2542567.532509
-1007789.593188
2906316.813265
-1224088.950500
3285202.332938
-1500267.507509
3690661.762090
-1783853.433133
4112679.267814
-2099112.313472
4544890.934571
-2429732.317445
5040722.684476
-2853675.031154
5551279.934712
-3250369.789145
6093689.604108
-3699545.096349
6633650.527035
-4160848.785670
7189605.706778
-4652761.362038
7803770.062167
-5167224.160000
8416179.844755
-5733240.182843
9030904.556186
-6348801.432389
9675659.030830
-6947964.244650
10370038.271974
-7585808.621448
11033214.531171
-8250953.566068
11683557.225607
-8916269.830245
12426452.108481
-9647621.582893
13139695.264250
-10391063.575747
13846012.361653
-11126251.977723
14570110.235061
-11890131.126654
15290715.803302
-12667915.605357
16022103.900746
-13452516.334480
16723033.446220
-14241601.398482
17456347.105178
-15040719.050740
18163469.382549
-15873938.625799
18852613.442143
-16683476.292577
19556723.788890
-17483254.718348
20214483.088242
-18291430.156488
20912430.343487
-19081705.358728
21546973.552803
-19923077.659616
22171342.386751
-20660803.228070
22783448.843510
-21434664.815821
23351751.926366
-22186778.507328
23916026.385231
-22950180.388871
24432243.054475
-23639109.043264
24935760.684008
-24300970.141068
25406614.108200
-24940979.515188
25838152.995791
-25569229.418999
26233285.262322
-26176793.102589
26606316.492074
-26723101.317691
26929792.102231
-27240159.398852
27217092.344350
-27729218.013347
27473011.883881
-28158513.414550
27680465.555195
-28584909.435365
27872634.691018
-28936668.827525
27997619.542904
-29219230.173846
28101850.860766
-29488477.560605
28163563.310055
-29706239.072263
28143015.725140
-29886593.291635
28130286.855935
-30017354.803355
28074114.119622
-30087487.691884
27948474.931566
-30114881.207310
27828533.207308
-30105594.185823
27630745.282862
-30035622.375869
27388156.322037
-29896232.444722
27125346.576386
-29749125.726930
26847429.294179
-29534943.472580
26484355.225326
-29314748.433405
26122455.035280
-28998296.357851
25744158.056767
-28666846.082109
25301596.541341
-28268709.270165
24859815.652812
-27884818.006478
24377630.141091
-27424266.875684
23883099.921720
-26935246.460598
23354042.410062
-26391486.011309
22823035.023302
-25838102.693448
22235513.676982
-25278941.841561
21659242.284822
-24642420.705738
21040398.264006
-24013207.034424
20459614.862803
-23375079.494893
19802556.248309
-22687459.252775
19168506.167148
-21989007.642617
18544245.952046
-21283752.412865
17890538.268456
-20551340.146334
17221520.364645
-19847545.258743
16591174.990525
-19096563.834551
15946209.892721
-18357334.205018
15269377.238327
-17612189.535775
14652535.356785
-16864043.076910
14014405.665278
-16137339.994053
13375072.077527
-15377841.537295
12731874.509073
-14636224.703347
12134982.208185
-13945745.494030
11510723.005944
-13186934.238785
10926931.567805
-12479830.939433
10339697.142034
-11796136.592686
9760239.475255
-11142064.533092
9208427.900196
-10436478.255721
8659422.247939
-9794620.596763
8145025.183937
-9175099.051289
7642920.454814
-8569598.953846
7142127.976111
-7979489.385605
6663752.827179
-7402399.512196
6219508.425204
-6881938.414793
5777250.432350
-6308151.259024
5350090.679701
-5826248.376151
4952166.415525
-5334177.681714
4555181.470904
-4885849.422517
4205785.094107
-4426542.181373
3844254.281846
-4011739.706729
3521877.032300
-3600662.995298
3187861.009457
-3272477.212710
2884918.211494
-2907592.857322
2644141.635127
-2606357.677578
2361909.945806
-2297308.754652
2130014.638602
-2040467.085255
1889799.880611
-1774389.835019
1651457.166902
-1510430.085115
1462597.162929
-1327946.418358
1288010.282589
-1133128.912633
1120392.356966
-958389.483482
982709.799957
-798511.963808
813450.442645
-666378.683052
697525.947196
-501505.389658
591222.896425
-410698.497525
493563.535313
-307903.087824
417247.779403
-244436.157269
315767.375317
-160740.204216
257463.319769
-105834.977110
200535.443843
-53434.805392
152434.245894
-4652.770233
106587.472547
9955.212826
47433.537701
42343.065900
32945.438067
33056.206173
16395.004730
61298.718104
21772.651588
46259.191082
2066.294181
58531.042291
-18424.656878
39627.857835
106.381224
27477.973725
13584.572298
29357.643337
9553.580330
21889.151945
20600.368315
50156.120764
51007.644806
48033.384452
37311.727613
34995.050290
57407.337360
39905.265955
66810.147655
64227.842567
30991.238095
39942.359637
68977.118265
68939.976874
38957.594613
70867.215933
93772.847977
110708.216806
95229.361307
93418.476404
98755.438045
100332.636049
104070.207483
123594.309403
178824.467633
103240.033190
124430.128523
206728.093255
232692.576882
113616.522227
111664.297210
265735.003805
286400.619993
107730.325252
128216.893055
338349.959881
401899.093392
107907.236278
99690.895380
457720.201358
522614.324920
75916.496288
56780.140022
570805.345383
651318.544565
28665.183011
2539.742840
726614.989498
811137.801586
-13756.340247
-82345.064973
879659.485903
990751.884093
-77585.665228
-132926.271805
1070491.846570
1218790.063406
-167229.466601
-244982.144888
1279336.057952
1451247.257443
-271101.347768
-361469.006356
1543120.713989
1693489.315297
-409806.472317
-487547.335577
1816643.131531
1988444.501671
-553760.241064
-687408.853568
2106420.443937
2290926.975154
-737629.555027
-900601.222097
2444843.389393
2643860.848544
-934578.451537
-1098874.130734
2762293.025732
3007050.584998
3318958.764490
-1174299.375542
-1354254.987468
3183894.769812
3611814.177673
-1417028.580415
-1614197.450913
3613002.504329
4061109.901574
-1715895.652259
-1900193.035771
4073070.210869
4516506.876697
-1981018.092717
-2231588.739865
4530782.579701
5003030.023156
-2374826.818797
-2601792.294852
4997231.235822
5529748.758758
-2724703.990621
-3015000.481689
5534841.845591
6060383.345363
-3108051.611521
-3458525.310280
6069581.298634
6614549.254588
-3558537.867202
-3907532.037313
6609863.836289
7188586.682045
-4049110.382211
-4372663.197630
7195153.139734
7775281.716945
-4537629.697276
-4912755.588804
7807902.700707
8403833.586014
-5501672.724339
-5080165.630025
-5979689.457083
8390098.023070
9053676.616870
-5741808.684752
-6429365.248136
9040034.109713
9704807.167778
-6317450.563040
-7038988.845796
9686723.622134
10397103.481900
-6974376.335841
-7688779.913256
10353759.057180
11093908.611580
-7635709.008812
-8398055.973563
11048016.424356
11806990.473269
-8320425.048575
-9097627.649484
11764067.235520
12527782.887325
-9023689.193915
-9857292.413527
12471203.562385
13251731.176057
-9735077.396684
-10596369.422128
13196067.908769
13970301.492703
-10482239.102184
-11365445.333454
13891874.683108
14720768.669813
-11226534.300509
-12189831.646219
14651354.899615
15501783.316607
-12019724.484597
-12983931.041242
15404702.473120
16236670.470950
-12819536.593309
-13797654.949566
16147008.322053
17018500.700801
-13616112.366694
-14634794.584370
16868663.542242
17753814.221802
-14420929.717363
-15495681.499176
17631414.668977
18535087.324774
-15308254.823028
-16334761.649790
18368545.723933
19313928.380397
19982686.920643
-16099468.349851
-17213175.051179
19286797.045357
20432181.421675
-16964527.799476
-18078647.541001
19914276.544515
21166847.395520
-17762510.506451
-18927085.619433
20703379.933772
21861789.185768
-18614639.222508
-19798766.116092
21372810.098053
22566052.360196
-19464545.776908
-20664116.511080
22048727.586440
23245890.671826
-20282338.638782
-21497933.803219
22709592.942220
23903514.679400
-21074513.979156
-22332113.892793
23327836.082444
24539115.996423
-21885890.754192
-23145565.354113
23924821.029363
25133637.515430
-22681181.163254
-23949492.184956
24526659.674446
25702663.671860
-23431813.404285
-24786149.754384
25049396.197937
26275000.746607
-24152377.395203
-25445843.935691
-26299021.884126
25594988.029367
26763938.730763
-25170551.522938
-26707145.891990
26079333.296480
27278987.999186
-25703894.695133
-27414923.158090
26548961.713942
27710432.951514
-26448626.367226
-28025788.973975
26977800.368989
28138633.537269
-27046198.842813
-28637358.187324
27352545.507309
28511147.569121
-27672891.547990
-29209095.820010
27694823.317543
28849663.245127
-28207801.466609
-29773945.214577
28035768.323942
29163432.146124
-28753851.669849
-30270776.441112
28300781.876022
29410059.199336
-29215318.157089
-30736027.393728
28533763.213656
29657265.985912
-29653030.972122
-31125305.890535
28754183.257493
29828541.963389
-30013518.240382
-31528834.036960
28913891.572804
29958311.532319
-30350688.042686
-31848310.788428
29030780.677155
30071442.217308
-30674842.453276
-32114357.760579
29111190.990507
30143487.599283
-30872542.562430
-32351501.658020
29141805.565828
30181671.623547
-31121943.017390
-32531759.163990
29149411.875423
30162553.080363
-31272003.206001
-32673416.919581
29071574.696254
30094435.928642
30153104.589910
-31343568.907358
-32744467.400075
29043032.663109
29908839.655531
-31421822.257621
-32793794.892137
28842515.521573
29717346.777968
-31456718.038859
-32771873.918599
28636581.847217
29468937.108805
-31374436.594256
-32711067.743806
28428832.188071
29202833.343546
-31302259.333427
-32580843.956392
28166128.031877
28941021.754376
-31152744.020894
-32435325.227786
27892940.356316
28590529.305316
-30974747.991606
-32192681.824994
27528042.600823
28242662.583447
-30711096.631786
-31972836.118546
27170874.489485
27882502.545528
-30436500.871926
-31655092.163875
26786036.087924
27425788.057176
-30047491.558761
-31294561.314511
-31207462.760130
26362460.924303
26991510.151215
-29898223.901467
-30676104.580716
25901564.474968
26491607.676584
-29184464.825051
-30212620.952900
25404787.081397
25974596.738573
-28805158.469469
-29680766.862190
24898475.405400
25439918.706730
-28257261.140485
-29160090.901555
24384683.087600
24864837.855372
-27763719.602852
-28610895.961193
23828912.310772
24286024.996905
-27194289.276641
-27994661.464131
23248140.989748
23716602.481313
-26587481.057738
-27352679.131432
22672444.030209
23100449.140743
-25986909.187484
-26689658.106362
22028475.440548
22452825.040932
-25340546.119929
-26016489.698284
21412569.967036
21775984.217081
-24685789.353073
-25325455.322562
20804196.510600
21160850.118556
-23986176.307745
-24623625.300952
20170956.165160
20493144.526957
-23267144.382517
-23869639.539777
19479837.797842
19796840.609735
-22532876.092537
-23114082.329745
18834308.103237
19137202.198486
-21810747.580426
-22360526.573608
18140492.250617
18424178.808623
-21091832.458582
-21573551.432641
17403387.552673
17753939.075239
17303209.005370
-20305598.715678
-20807686.498411
16800146.403954
16673504.204756
-19537894.015701
-20001910.438191
15979052.864408
16021162.711128
-18788047.608740
-19219047.253802
15306714.672792
15317333.808086
-18012190.162069
-18427405.941957
14651659.381237
14626867.211609
-17253701.255215
-17637720.173216
14000607.603649
13966599.277117
-16486808.328727
-16851266.604638
13354486.729186
13320800.798230
-15738966.737385
-16070516.220900
12710776.162086
12679661.501738
-14945986.892354
-15299726.408737
12095025.457092
12032156.786416
-14204908.768139
-14525228.255495
11492373.243458
11426941.780074
-13455396.769444
-13762781.104006
10877400.611860
10834691.450088
-12661101.567026
-13012656.117191
-12531431.624109
10287125.820426
10245378.960266
-11988779.243180
-11857812.740740
9735088.953616
9668056.226150
-11158402.218417
-11162287.499924
9160446.841046
9080156.649557
-10457197.447995
-10466889.629762
8613214.566820
8552669.520817
-9821498.431725
-9798805.013332
8090438.638799
8027092.314879
-9177342.399108
-9155588.716923
7563896.954625
7504740.419702
-8564782.357496
-8542987.901524
7095227.183037
7024758.519039
-7959717.543407
-7963953.106756
6623323.736112
6553081.098097
-7394558.611079
-7376281.076865
6168662.362296
6101422.097204
-6823432.970501
-6809681.870217
5730988.384811
5688260.750370
-6288496.560089
-6281225.331751
5300370.749089
5263082.873398
-5786970.401031
-5764519.957293
4896689.563440
4834017.219018
-5318331.918196
-5286832.450539
4529388.776698
4457858.347506
-4849646.592795
-4827159.002147
4124059.878468
4116800.234300
-4392442.839947
-4370607.900382
3786378.733585
3762913.369625
3495828.502574
-3993598.588941
-3960371.851872
3450535.711920
3252589.533218
-3647734.177212
-3613244.809690
3072807.754443
2940137.854646
-3254081.437663
-3250340.028366
2776083.896248
2662595.977597
-2914695.289123
-2911361.586497
2517074.781659
2403745.386237
-2591622.314407
-2571412.066897
2278164.330989
2154913.611324
-2298009.346063
-2274435.056780
2012879.545081
1911136.515075
-1998298.467841
-2005495.721374
1810101.433509
1681033.077039
-1767967.861714
-1758764.565300
1578565.168076
1521604.984566
-1515824.400473
-1530997.416620
1419606.600698
1335432.766436
-1332838.711262
-1289727.971968
1215462.656775
1158487.512839
-1096497.874382
-1101665.538508
1080396.666102
998854.707206
-941777.372230
-972398.691837
920267.797242
850022.541108
-741706.983839
-836247.982007
778060.626436
716542.633227
-602363.517927
-685839.008236
652983.729925
600131.834011
-461368.858116
-551996.575394
536782.524895
501698.898124
-384087.215160
-439998.785264
441963.749930
410875.718055
-295213.178649
-352781.045724
353181.670842
305915.569565
-212577.229637
-245074.554251
298650.607566
259381.511086
-129558.567136
-192155.383577
228991.892828
202158.796748
-60700.620367
-115224.236178
179784.366461
154226.538370
-23753.061712
-84830.986930
117622.703024
111649.796070
-1494.556622
-29414.049732
78419.536299
62505.785160
14169.070392
-13273.329198
24231.450835
26761.625141
46345.896504
26284.755709
29239.220305
-3352.207880
54142.930466
53110.568008
5671.051246
963.312655
20680.910151
37606.318702
11966.352400
-2339.110200
52638.692181
50944.607084
5052.807238
-5885.298271
36480.276557
44441.543108
3167.834672
7910.137424
26500.244273
26892.693554
4077.991141
6987.231959
56826.933162
16421.061709
4690.778577
15132.757157
36217.172842
-1810.234246
35914.847096
32046.333813
18230.846361
24100.041246
15406.722519
SCALARS stress_3 float
LOOKUP_TABLE default
-35861.870731
-55777.191006
-33768.984877
-61595.604649
-71952.837505
-44008.156334
-85791.458914
-69661.648328
-138262.749622
-151726.663505
-124604.080633
-140129.190465
-167259.456109
-166942.238255
-241145.874241
-139439.753517
-338655.381150
-194295.723289
-477281.943677
-144430.101447
-648209.654065
-82516.788511
-786122.489256
-20801.751318
-1004572.541493
75901.089414
-1233037.820877
168423.733685
-1486950.373530
301936.260780
-1829908.169155
489200.747117
-2129039.297134
643639.248920
-2515287.757467
864323.766187
-2892799.542919
1133014.434426
-3343236.752971
1445627.273834
-3840555.324166
-4329457.355984
1772970.373793
-4886084.818129
2140167.757366
-5466477.756723
2605237.547095
-6098498.138606
3046499.786241
-6746194.056024
3534390.497864
-7437891.432556
4064987.824706
-8141284.324424
4673771.769631
-8907772.777752
5289676.429257
-9648890.762241
5980991.839608
-10469208.267793
6734722.064141
-11316439.330432
7464319.172042
8266135.249829
-12168823.950156
9103506.343627
-13035260.162992
10001792.583213
-13973933.915578
10955001.971451
-14886443.220878
11895140.604959
-15833460.078891
12900354.519763
-16805992.538604
13922319.779318
-17760052.533696
14987822.506170
-18753264.067029
16094990.743577
-19709887.161665
17193556.514601
-20731699.810368
18326189.961983
-21706397.969878
19485387.128984
-22730657.663257
20627120.125184
-23692796.816948
21820880.930385
-24656295.520333
23027857.740688
-25650839.653732
-26587839.296428
24243186.556092
-27552282.338842
25402445.453017
-28456852.850156
26641264.487687
-29367630.743851
27842405.779780
-30227728.066051
29006893.329297
-31096136.686976
30175057.255919
-31909744.696009
31318139.592805
-32692733.973470
32450986.439437
-33452258.598642
33561149.882335
-34128666.461944
34630379.974859
-34810039.556140
35696210.729969
36719410.320706
-35449737.837971
37674372.736969
-35995061.330498
38612778.065279
-36540919.960163
39469856.405118
-37050529.683708
40337273.786782
-37484534.437673
41099182.299655
-37870666.288380
41804751.974033
-38198017.085853
42492428.952659
-38501402.830089
43098341.235533
-38713825.467732
43602836.886112
-38900339.011742
44116634.003878
-38969193.365502
44534996.675351
-39069892.529011
44872986.867371
-39049886.405650
45181868.752975
-39014384.985322
45351386.288905
-38915882.237727
45501027.648200
-38760298.076347
-38536150.424761
45610434.820759
-38284477.339191
45603671.893104
-37978462.646599
45538100.895531
-37623268.380144
45419357.937621
-37215982.453308
45198675.019375
-36739050.835793
44947030.214349
-36253019.428117
44628325.622025
-35708120.233143
44200937.239540
-35119075.151389
43748831.166376
-34544186.109299
43250649.432831
42672952.125423
-33880541.106872
42040529.210993
-33179720.034527
41343588.862579
-32461032.861968
40638245.023959
-31743455.502673
39839467.771554
-30957745.966743
39027865.191882
-30141088.081139
38163647.315243
-29340633.889119
37277668.151734
-28516895.217646
36333421.797974
-27693466.099880
35352412.253964
-26807018.449301
34379029.616321
-25962386.166427
33355259.872085
-25060437.187801
32299333.074612
-24177331.513423
31245297.223905
-23318143.000550
30177436.469940
-22444069.618886
29128050.746395
-21563439.279047
-20692105.950737
28049712.116730
-19831735.534474
26947972.624203
-18960983.943737
25854898.342372
-18113905.188627
24754709.248176
-17307971.096103
23667421.384874
-16498863.653205
22594424.759702
-15683456.806573
21545323.482241
-14911318.469687
20472387.473208
-14115122.543065
19412746.852283
-13321066.993548
18399561.530083
-12676213.701455
17391503.636388
-11909842.666785
16428053.125073
-11238647.769860
15472186.082660
-10553366.954456
14506130.439964
-9945558.144153
13614626.306565
-9331125.338952
12729975.603180
-8705744.342752
11912860.449489
-8123059.175751
11063448.756110
-7574233.728369
10308782.596600
-7040019.957345
9502649.947897
-6543667.719938
8793322.853261
-6041748.993086
8075055.319928
-5603847.733531
7422819.324836
-5175273.818727
6814958.865123
-4697855.185219
6205094.007110
-4335621.796981
5645480.701810
-3938327.557395
5131510.949224
-3638172.463597
4579826.736388
-3290500.385810
4107986.116664
-2953095.277909
3692115.054025
-2674885.053376
3251957.548473
-2418513.643025
2880247.563984
-2162160.983399
2552671.110656
-1925985.038474
2258878.218788
-1706811.711632
1952588.842256
-1502569.000009
1666364.924838
-1286202.760863
1429864.542955
-1120780.971134
1166783.604361
-976559.587561
1007852.142216
-852736.487602
824614.110398
-707163.648194
636799.539203
-591816.979955
508666.329151
-513724.462688
429906.543699
-412789.960885
323466.083366
-301429.474548
220942.955387
-246636.947453
149089.159762
-161922.303182
84616.607109
-113603.462450
28951.327725
-67376.425257
-4410.724512
-23127.112321
8844.440297
-19725.490479
-39331.270091
-1621.460251
-42405.832618
2329.024487
-79115.339527
11483.976697
-26793.757659
-5846.550263
-56521.133136
30737.535854
-36967.565440
18202.245146
-41373.057434
-14324.376263
-33897.609119
-9116.228891
-23663.343037
-45012.606076
-44504.654297
-57088.955730
-77212.982986
-69806.286090
-133808.077593
-51840.620218
-127993.935255
-85622.057596
-147958.446389
-186918.601086
-177323.621095
-248416.306911
-187011.357029
-361501.164972
-161875.621030
-494963.277613
-125902.356875
-654732.677996
-94623.498244
-845923.356020
17025.000987
-1027933.370772
42209.197039
-1299492.755412
150015.189395
-1581655.522902
299263.001116
-1877741.762624
441140.698522
-2209877.444282
636904.327737
-2581426.590937
864151.988243
-2974413.248711
1140205.713201
-3434563.430568
1439499.625153
-3922787.192729
1740139.714000
-4436122.504896
2136374.112385
-4957153.456452
2517950.886629
-5542907.983940
3024468.092954
-6134932.120520
3466569.797682
-6785807.925276
3984494.057034
-7449449.388111
4567200.957530
-8179390.521986
5170254.568354
-8921091.306703
5822002.952964
-9664383.788384
6531130.180545
-10453585.979993
7258948.337616
-11244775.851231
8051353.470300
-12105701.425161
8869961.708376
-12940862.681583
9729005.054708
-13829307.666621
10587027.639074
-14724554.349977
11533829.507598
-15602276.721552
12472220.736701
-16518172.774111
13447085.392702
-17466268.540813
14434961.552022
-18394955.981263
15464605.280984
-19317151.075261
16471288.712229
-20234163.835770
17571241.855856
-21160958.242593
18628190.854606
-22096156.308690
19722305.741642
-22973101.947543
20813008.616443
-23888031.228336
21939819.565530
-24793452.041488
22992102.655225
-25649664.456184
24070257.928786
-26454140.385903
25196939.485695
-27288615.876769
26258829.402373
-28075122.799003
27323991.765340
-28834901.241987
28350910.640917
-29561791.075942
29387804.105523
-30296952.346990
30340250.192320
-30930251.001774
31311091.064247
-31546667.020094
32232108.731404
-32125666.348593
33146687.283173
-32699236.967070
33966310.783013
-33138586.835130
34800929.330404
-33579225.919613
35528228.978707
-33998432.146961
36213835.804341
-34335655.507074
36871669.893826
-34608797.969656
37486163.290421
-34852195.448187
38032866.093609
-35059051.922469
38491614.366847
-35187975.349241
38912930.186556
-35239715.698207
39305907.562835
-35326090.916008
39575884.658624
-35280860.916123
39798167.507083
-35222797.678356
39973146.118312
-35072743.149346
40068714.632189
-34930787.318994
40084147.081874
-34700268.047423
40083113.520727
-34385239.301472
39990482.058329
-34066621.084004
39803966.724976
-33695897.285437
39605535.563929
-33286617.875475
39306196.661707
-32835620.777697
38963220.071669
-32320067.938744
38555447.870236
-31820503.272097
38091090.087704
-31235246.734495
37588198.833655
-30651832.295642
36998494.105226
-29990255.845957
36394977.935578
-29324063.332080
35736840.464588
-28611484.720851
35006935.702355
-27891793.872392
34281861.702240
-27164984.776603
33476126.484439
-26395559.400324
32659714.135473
-25618019.580615
31803238.708701
-24812007.307377
30917470.234419
-24051928.504189
29991704.755888
-23237371.107594
29054114.293306
-22418257.018109
28117594.933193
-21591594.192475
27136468.705845
-20771366.544172
26174741.621362
-19951851.996781
25178463.753302
-19174212.496941
24203869.134825
-18311601.945172
23213861.806326
-17554168.278015
22192069.788006
-16729631.406088
21190515.133222
-15975457.319291
20165561.862174
-15198915.854685
19238480.028219
-14432092.979108
18294253.585235
-13713170.616142
17290658.663001
-12987792.699463
16354679.172135
-12278391.142554
15424891.242416
-11563883.868993
14532326.827720
-10908528.779298
13663258.014568
-10254677.830211
12789288.733775
-9647174.955410
11946775.094922
-9015908.068374
11174137.028825
-8438319.069624
10397614.622002
-7864957.925997
9620249.861493
-7351714.494752
8884038.767495
-6835478.765790
8223383.327045
-6325554.606470
7570583.560343
-5848737.950469
6889183.507784
-5392138.721366
6326213.136209
-4957080.852842
5748278.452853
-4531826.268476
5221305.467815
-4159566.922144
4696032.211393
-3836318.684068
4262242.637463
-3447497.551384
3759052.766225
-3142335.394313
3363578.574616
-2832056.166732
2975870.092935
-2533843.782122
2607033.308218
-2297254.171298
2303588.174343
-2003187.270802
1968778.711508
-1763023.011450
1686926.906752
-1584345.306722
1483382.770172
-1395012.100397
1237468.242684
-1200955.326153
1040533.291128
-1025008.927768
836573.978961
-892176.838921
685502.216800
-737650.926969
523976.034943
-601757.202011
419373.377169
-525293.541505
329552.230514
-428601.912290
224232.548856
-345092.214884
143314.309134
-269316.403163
87583.541644
-178790.410807
30808.157004
-154886.214755
11998.142252
-85221.715524
-36088.535772
-68790.856893
-43025.936155
-42673.592738
-82408.048796
22782.143261
-56996.906857
-10969.592673
-97118.612682
-11022.767379
-85647.156172
-14603.278513
-53252.593550
8106.863825
-66902.927678
16023.769218
-27908.258038
-32044.559471
-27300.022762
-52272.607692
-35065.650491
-31151.501718
-26745.619505
-74785.975604
-58017.736597
-40081.728781
-46433.340461
-74022.644021
-95160.389500
-35020.325235
-61849.903802
-71011.162976
-118200.262002
-70059.850390
-107318.259638
-99116.306443
-150653.709815
-137252.729799
-107818.023135
-111686.059075
-131944.302797
-159654.734651
-148921.268833
-188147.531219
-176658.466136
-170754.138041
-231425.374047
-295412.011455
-177625.307860
-164256.875969
-313662.710781
-408966.245082
-178550.153546
-153162.279038
-439695.291995
-532443.590500
-133671.579834
-107743.918966
-596600.819246
-695230.854180
-100532.943072
-60429.691895
-741897.680205
-907091.187636
-29382.632814
-8726.175874
-957016.522679
-1075194.220111
28195.813058
77847.888733
-1166247.855469
-1328791.609124
135781.090509
191605.708050
-1415540.734002
-1620768.663715
249096.250674
324817.992921
-1758191.697748
-1951388.307900
388227.606735
515305.723175
-2066120.149445
-2276495.159189
574336.023480
708643.437557
-2427684.690728
-2651527.371777
780754.686353
996070.682800
-2807096.770565
-3104240.123307
1037095.586560
1216476.050227
-3266319.004848
-3541429.019449
1350488.408632
1535867.479086
-3746755.255989
-4046727.681336
-4476266.114471
1671639.427799
1895104.185178
-4325692.143841
-4872248.665747
1999266.743540
2286479.901507
-4866091.419985
-5470630.936913
2392072.412080
2687872.710421
-5464585.816887
-6082455.327902
2859820.456478
3194154.268707
-6099563.124608
-6751587.804989
3323932.759919
3666654.162611
-6764502.982416
-7423240.659745
3849821.890661
4274598.670225
-7416104.583884
-8142290.338878
4410382.957428
4841010.992519
-8130904.151975
-8889686.111707
5034820.470593
5480147.686767
-8904867.304586
-9676503.689571
5695109.873816
6187979.039026
-9644129.758941
-10479105.068098
6378111.530198
6887077.569146
-10460552.337133
-11296567.764352
7747337.579480
7149018.086208
8396148.653760
-11297146.468038
-12153715.559170
8037453.892534
8986209.948731
-12122704.921743
-13035965.288803
8847525.284090
9875854.384786
-12986506.201336
-13918690.700929
9769913.474131
10755806.008493
-13849715.304809
-14839236.856952
10704390.279963
11758548.252772
-14785292.157096
-15779762.764544
11659363.283761
12730943.494108
-15713833.133063
-16696414.240783
12576241.039528
13744193.679094
-16641795.357415
-17651200.228530
13617197.620931
14789864.053828
-17581863.196430
-18665484.052964
14607203.516633
15852562.012676
-18497558.204546
-19577829.564108
15668067.525664
16929779.746010
-19466873.206563
-20589835.677916
16741296.298226
18056716.757619
-20432245.742449
-21516398.494647
17819801.274852
19193255.648768
-21375738.549129
-22523292.247003
18910736.263816
20331866.475989
-22343832.777078
-23485578.073897
20025083.399270
21494425.573441
-23250006.811728
-24460616.296214
21148926.245596
22655364.425181
-24247449.960027
-25438405.096157
-26317463.502747
22260841.143147
23821003.345480
-25389391.871224
-26853814.983000
23410016.114983
24958634.360264
-26159954.263752
-27752575.761564
24533059.247624
26150285.576249
-27083929.725779
-28633146.898700
25674476.617492
27297257.010772
-27931372.565511
-29490012.615964
26788088.028484
28436896.280376
-28771710.066212
-30325274.655716
27910417.255870
29554162.207882
-29553477.559303
-31090554.064886
28954771.234912
30697485.706695
-30334759.990570
-31875944.971589
30034165.663107
31770016.028015
-31093142.193399
-32572229.019804
31039701.048226
32789737.766027
-31731813.171464
-33270656.559825
32072526.996185
33910765.395968
-32412409.045798
-33913714.299898
33015400.766489
34827195.829350
35911755.527122
-33011981.438719
-34485522.205088
34365315.009807
36368371.558854
-33593139.858498
-35047648.941736
35031013.560186
37339863.875275
-34108182.785256
-35549584.566220
35973079.047714
38107782.332238
-34566750.533480
-36024871.209516
36796670.289656
38907518.502365
-34985851.359384
-36416712.845434
37557657.407077
39613902.593936
-35352719.654142
-36770025.664879
38234806.908525
40336327.639461
-35694344.487638
-37090159.948695
38929499.454866
40959835.247826
-35950710.260662
-37310233.931871
39488900.744431
41512535.516227
-36174942.674770
-37511533.094201
39995748.017124
42035078.396143
-36332911.872702
-37681213.019892
40443805.250198
42448996.848923
-36489319.931036
-37763410.854270
40848698.217253
42847279.733519
-36520299.290537
-37791603.880655
41191092.599647
43161574.458659
-36551026.222433
-37761972.505096
41434559.033312
43400210.752133
-36484448.089798
-37700365.120683
41650264.133938
43542076.137509
-36393840.177148
-37595711.316478
41808145.152881
43627530.825934
-36189780.002208
-37375738.563404
-37423635.702180
41830157.175851
43683456.997216
-36086506.155715
-37028674.686079
41865864.344815
43694246.899773
-35691889.198432
-36684121.140676
41807212.640770
43575944.749748
-35369388.746949
-36289373.229557
41662042.048824
43393628.487898
-34959000.573672
-35857190.079731
41454611.300597
43184432.727097
-34577872.740327
-35393610.978469
41218362.443565
42899901.583073
-34102402.939253
-34879857.620712
40873694.840286
42521184.692924
-33602073.993738
-34401632.625899
40498890.226297
42105428.448231
-33067824.231750
-33793799.581523
40036692.279893
41630585.342559
-32500526.038873
-33188195.412796
39435201.503484
41092358.852510
40933991.702548
-31880936.880899
-32528139.566461
39188182.543617
40118624.835824
-31255275.577939
-31834485.060553
38186857.959107
39459836.164550
-30578430.522196
-31124441.907879
37605551.733935
38704850.199634
-29855521.367592
-30395515.936801
36837821.171612
37929875.637562
-29135723.574966
-29643553.763319
36089857.202215
37126438.179625
-28383105.822004
-28872773.273011
35236560.824990
36253017.069427
-27603337.648674
-28046215.616975
34400947.204313
35352104.677046
-26809088.883445
-27282461.369197
33529701.958080
34436343.652417
-26025991.748344
-26408103.452136
32642476.010416
33506885.415986
-25191239.930452
-25576558.269710
31724937.124824
32543867.827874
-24407999.295774
-24746006.257847
30762263.550763
31541171.003545
-23553856.739803
-23879800.647239
29760128.704305
30569271.724068
-22717016.166695
-22990385.587863
28787041.006438
29472609.773458
-21864517.614515
-22149332.826307
27782988.154501
28438207.147497
-21019701.363018
-21259816.871794
26787152.573698
27400075.179955
-20099849.845145
-20442065.369669
-19845334.800240
25779294.209317
26318788.316391
-19319728.367934
-19076479.149024
24702173.058496
25280282.600065
-18318110.398852
-18220313.002726
23710851.174592
24214558.160756
-17503925.392235
-17403192.738769
22666752.600866
23155078.952341
-16657514.512650
-16577005.250373
21676819.301294
22096973.064203
-15896058.876875
-15784159.618189
20632837.802073
21046896.187798
-15111614.101249
-15030650.951675
19619920.279370
20018535.795418
-14367190.605143
-14225496.337739
18604413.458236
19027685.435513
-13590224.962495
-13457257.806414
17659819.521763
17968555.911330
-12833757.516833
-12773154.340241
16656909.639628
17019425.042655
-12163038.180126
-12053329.154553
15657638.754437
16050996.042629
15400590.733138
-11461969.014324
-11349746.139769
14738188.557445
14550818.006858
-10788448.052587
-10707163.262729
13653692.220839
13655288.509454
-10153983.312250
-10056102.923027
12752624.040345
12750418.495206
-9511808.613038
-9407178.279568
11979173.668674
11911810.793875
-8910271.856823
-8818809.710396
11118595.143478
11090763.155317
-8323954.863486
-8227967.003739
10317866.458143
10307056.174136
-7755649.592631
-7673033.496074
9584503.793832
9539262.510525
-7225101.858255
-7136916.979848
8862259.546184
8786025.059711
-6762281.690657
-6619752.811937
8172071.263071
8126784.147949
-6236325.121644
-6146155.028523
7513914.094505
7451328.320279
-5735007.683996
-5692310.098179
6854484.233566
6822020.996989
-5319985.348408
-5209451.263360
6266975.465308
6242432.816924
-4873978.230657
-4788488.961614
5721503.109185
5660974.914998
-4497309.872219
-4397200.828533
5161535.300641
5145270.595662
-4080873.249052
-4019242.946526
-3752311.266577
4662348.129120
4650392.378563
-3696886.670685
-3496102.077080
4202302.451228
4158540.529032
-3324788.868575
-3134790.220741
3750226.330422
3726343.912062
-2995349.144757
-2794070.533904
3338661.779664
3316116.895438
-2697751.699055
-2547604.580382
2945214.809055
2942457.489259
-2388256.776218
-2258844.048032
2620417.268615
2582371.452656
-2143333.990921
-2047239.327187
2275174.764636
2247087.529790
-1891400.742369
-1782825.063306
1969973.422726
1980104.639010
-1696693.866969
-1587385.789822
1691152.198458
1674428.756106
-1497193.278045
-1399891.513456
1442976.566415
1433841.313813
-1326225.080806
-1260922.744938
1185964.678435
1203632.738427
-1113101.399304
-1065522.209538
956049.510982
1053287.106326
-952666.086426
-887918.083001
795785.840129
895046.864185
-801261.060023
-768214.143614
636472.634254
734167.517178
-670780.237951
-618990.388360
533433.070684
587229.147233
-574785.610109
-524544.726344
376637.377322
424116.456142
-470839.068426
-424851.738945
275906.318588
337440.122833
-405258.470005
-321691.546837
198011.614460
235723.051028
-292163.800529
-270507.902429
127405.559277
164383.943139
-203059.016740
-207946.394676
50706.624522
103575.246343
-177020.487776
-142058.066029
41523.029358
48142.134225
-98704.776014
-114697.898248
-21073.312735
30774.550561
-78797.161816
-51153.228481
-39390.560325
-48506.316485
-59289.659859
-31394.894333
-66270.227454
-52689.409832
-25280.029115
-20714.039354
-89800.749584
-54743.528200
-19684.759602
5486.879239
-75047.591771
-82490.384907
13777.252259
8931.887827
-16095.567206
-66495.283269
10574.175052
19674.183459
-74096.675889
-84338.073355
13428.290054
-15587.973663
-54992.798138
-71967.810688
-11952.242519
16842.509075
-70824.066598
-21136.541390
5351.192246
14865.015656
-50794.498603
7613.254872
6146.697329
-26781.095985
-10517.300072
-8705.512117
-4522.747068
