# vtk DataFile Version 2.0
Generated volume Mesh
ASCII
DATASET UNSTRUCTURED_GRID
POINTS 994 float
-0.416146 -0.294827 0.000000
-0.409251 -0.287252 0.000000
-0.421925 -0.286495 0.000000
-0.410201 -0.303043 0.000000
-0.427538 -0.278049 0.000000
-0.404095 -0.311138 0.000000
-0.432982 -0.269494 0.000000
-0.397829 -0.319111 0.000000
-0.438254 -0.260832 0.000000
-0.391406 -0.326958 0.000000
-0.443353 -0.252067 0.000000
-0.384828 -0.334675 0.000000
-0.448277 -0.243202 0.000000
-0.378098 -0.342260 0.000000
-0.453024 -0.234242 0.000000
-0.371218 -0.349710 0.000000
-0.457592 -0.225188 0.000000
-0.364192 -0.357021 0.000000
-0.461979 -0.216046 0.000000
-0.357021 -0.364192 0.000000
-0.466183 -0.206818 0.000000
-0.349710 -0.371218 0.000000
-0.470203 -0.197508 0.000000
-0.342260 -0.378098 0.000000
-0.474037 -0.188120 0.000000
-0.334675 -0.384828 0.000000
-0.477683 -0.178658 0.000000
-0.326958 -0.391406 0.000000
-0.481141 -0.169126 0.000000
-0.319111 -0.397829 0.000000
-0.484408 -0.159526 0.000000
-0.311138 -0.404095 0.000000
-0.487484 -0.149864 0.000000
-0.303043 -0.410201 0.000000
-0.490368 -0.140141 0.000000
-0.294827 -0.416146 0.000000
-0.493057 -0.130363 0.000000
-0.286495 -0.421925 0.000000
-0.495552 -0.120532 0.000000
-0.278049 -0.427538 0.000000
-0.497851 -0.110654 0.000000
-0.269494 -0.432982 0.000000
-0.499953 -0.100732 0.000000
-0.260832 -0.438254 0.000000
-0.501857 -0.090771 0.000000
-0.252067 -0.443353 0.000000
-0.503563 -0.080774 0.000000
-0.243202 -0.448277 0.000000
-0.505069 -0.070746 0.000000
-0.234242 -0.453024 0.000000
-0.506376 -0.060691 0.000000
-0.225188 -0.457592 0.000000
-0.507482 -0.050612 0.000000
-0.216046 -0.461979 0.000000
-0.508388 -0.040514 0.000000
-0.206818 -0.466183 0.000000
-0.509093 -0.030400 0.000000
-0.197508 -0.470203 0.000000
-0.509597 -0.020274 0.000000
-0.188120 -0.474037 0.000000
-0.509899 -0.010139 0.000000
-0.178658 -0.477683 0.000000
-0.510000 0.000000 0.000000
-0.169126 -0.481141 0.000000
-0.509899 0.010139 0.000000
-0.509597 0.020274 0.000000
-0.159526 -0.484408 0.000000
-0.509093 0.030400 0.000000
-0.149864 -0.487484 0.000000
-0.508388 0.040514 0.000000
-0.140141 -0.490368 0.000000
-0.507482 0.050612 0.000000
-0.130363 -0.493057 0.000000
-0.506376 0.060691 0.000000
-0.120532 -0.495552 0.000000
-0.505069 0.070746 0.000000
-0.110654 -0.497851 0.000000
-0.503563 0.080774 0.000000
-0.100732 -0.499953 0.000000
-0.501857 0.090771 0.000000
-0.090771 -0.501857 0.000000
-0.499953 0.100732 0.000000
-0.080774 -0.503563 0.000000
-0.497851 0.110654 0.000000
-0.070746 -0.505069 0.000000
-0.495552 0.120532 0.000000
-0.060691 -0.506376 0.000000
-0.493057 0.130363 0.000000
-0.050612 -0.507482 0.000000
-0.490368 0.140141 0.000000
-0.040514 -0.508388 0.000000
-0.487484 0.149864 0.000000
-0.484408 0.159526 0.000000
-0.030400 -0.509093 0.000000
-0.020274 -0.509597 0.000000
-0.481141 0.169126 0.000000
-0.010139 -0.509899 0.000000
-0.477683 0.178658 0.000000
0.000000 -0.510000 0.000000
-0.474037 0.188120 0.000000
0.010139 -0.509899 0.000000
-0.470203 0.197508 0.000000
0.020274 -0.509597 0.000000
-0.466183 0.206818 0.000000
0.030400 -0.509093 0.000000
-0.461979 0.216046 0.000000
0.040514 -0.508388 0.000000
-0.457592 0.225188 0.000000
0.050612 -0.507482 0.000000
-0.453024 0.234242 0.000000
0.060691 -0.506376 0.000000
-0.448277 0.243202 0.000000
0.070746 -0.505069 0.000000
-0.443353 0.252067 0.000000
0.080774 -0.503563 0.000000
-0.438254 0.260832 0.000000
0.090771 -0.501857 0.000000
-0.432982 0.269494 0.000000
0.100732 -0.499953 0.000000
-0.427538 0.278049 0.000000
0.110654 -0.497851 0.000000
-0.421925 0.286495 0.000000
0.120532 -0.495552 0.000000
-0.416146 0.294827 0.000000
0.130363 -0.493057 0.000000
-0.410201 0.303043 0.000000
0.140141 -0.490368 0.000000
-0.404095 0.311138 0.000000
0.149864 -0.487484 0.000000
0.159526 -0.484408 0.000000
-0.397829 0.319111 0.000000
0.169126 -0.481141 0.000000
-0.391406 0.326958 0.000000
0.178658 -0.477683 0.000000
-0.384828 0.334675 0.000000
0.188120 -0.474037 0.000000
-0.378098 0.342260 0.000000
0.197508 -0.470203 0.000000
-0.371218 0.349710 0.000000
0.206818 -0.466183 0.000000
-0.364192 0.357021 0.000000
0.216046 -0.461979 0.000000
-0.357021 0.364192 0.000000
0.225188 -0.457592 0.000000
-0.349710 0.371218 0.000000
0.234242 -0.453024 0.000000
-0.342260 0.378098 0.000000
0.243202 -0.448277 0.000000
-0.334675 0.384828 0.000000
0.252067 -0.443353 0.000000
-0.326958 0.391406 0.000000
0.260832 -0.438254 0.000000
-0.319111 0.397829 0.000000
0.269494 -0.432982 0.000000
-0.311138 0.404095 0.000000
0.278049 -0.427538 0.000000
-0.303043 0.410201 0.000000
0.286495 -0.421925 0.000000
-0.294827 0.416146 0.000000
0.294827 -0.416146 0.000000
-0.286495 0.421925 0.000000
0.303043 -0.410201 0.000000
-0.278049 0.427538 0.000000
0.311138 -0.404095 0.000000
-0.269494 0.432982 0.000000
0.319111 -0.397829 0.000000
-0.260832 0.438254 0.000000
0.326958 -0.391406 0.000000
-0.252067 0.443353 0.000000
0.334675 -0.384828 0.000000
-0.243202 0.448277 0.000000
0.342260 -0.378098 0.000000
-0.234242 0.453024 0.000000
0.349710 -0.371218 0.000000
-0.225188 0.457592 0.000000
0.357021 -0.364192 0.000000
-0.216046 0.461979 0.000000
0.364192 -0.357021 0.000000
-0.206818 0.466183 0.000000
0.371218 -0.349710 0.000000
-0.197508 0.470203 0.000000
0.378098 -0.342260 0.000000
-0.188120 0.474037 0.000000
0.384828 -0.334675 0.000000
-0.178658 0.477683 0.000000
0.391406 -0.326958 0.000000
-0.169126 0.481141 0.000000
0.397829 -0.319111 0.000000
-0.159526 0.484408 0.000000
0.404095 -0.311138 0.000000
-0.149864 0.487484 0.000000
0.410201 -0.303043 0.000000
-0.140141 0.490368 0.000000
0.416146 -0.294827 0.000000
-0.130363 0.493057 0.000000
0.421925 -0.286495 0.000000
-0.120532 0.495552 0.000000
0.427538 -0.278049 0.000000
-0.110654 0.497851 0.000000
0.432982 -0.269494 0.000000
-0.100732 0.499953 0.000000
0.438254 -0.260832 0.000000
-0.090771 0.501857 0.000000
0.443353 -0.252067 0.000000
-0.080774 0.503563 0.000000
0.448277 -0.243202 0.000000
-0.070746 0.505069 0.000000
0.453024 -0.234242 0.000000
-0.060691 0.506376 0.000000
0.457592 -0.225188 0.000000
-0.050612 0.507482 0.000000
0.461979 -0.216046 0.000000
-0.040514 0.508388 0.000000
0.466183 -0.206818 0.000000
-0.030400 0.509093 0.000000
0.470203 -0.197508 0.000000
-0.020274 0.509597 0.000000
0.474037 -0.188120 0.000000
-0.010139 0.509899 0.000000
0.477683 -0.178658 0.000000
0.000000 0.510000 0.000000
0.481141 -0.169126 0.000000
0.010139 0.509899 0.000000
0.484408 -0.159526 0.000000
0.020274 0.509597 0.000000
0.487484 -0.149864 0.000000
0.030400 0.509093 0.000000
0.490368 -0.140141 0.000000
0.040514 0.508388 0.000000
0.493057 -0.130363 0.000000
0.050612 0.507482 0.000000
0.495552 -0.120532 0.000000
0.060691 0.506376 0.000000
0.497851 -0.110654 0.000000
0.070746 0.505069 0.000000
0.499953 -0.100732 0.000000
0.080774 0.503563 0.000000
0.501857 -0.090771 0.000000
0.090771 0.501857 0.000000
0.503563 -0.080774 0.000000
0.100732 0.499953 0.000000
0.505069 -0.070746 0.000000
0.110654 0.497851 0.000000
0.506376 -0.060691 0.000000
0.120532 0.495552 0.000000
0.507482 -0.050612 0.000000
0.130363 0.493057 0.000000
0.508388 -0.040514 0.000000
0.140141 0.490368 0.000000
0.509093 -0.030400 0.000000
0.149864 0.487484 0.000000
0.509597 -0.020274 0.000000
0.159526 0.484408 0.000000
0.509899 -0.010139 0.000000
0.169126 0.481141 0.000000
0.510000 0.000000 0.000000
0.178658 0.477683 0.000000
0.509899 0.010139 0.000000
0.188120 0.474037 0.000000
0.509597 0.020274 0.000000
0.197508 0.470203 0.000000
0.509093 0.030400 0.000000
0.206818 0.466183 0.000000
0.508388 0.040514 0.000000
0.216046 0.461979 0.000000
0.507482 0.050612 0.000000
0.225188 0.457592 0.000000
0.506376 0.060691 0.000000
0.234242 0.453024 0.000000
0.505069 0.070746 0.000000
0.243202 0.448277 0.000000
0.503563 0.080774 0.000000
0.252067 0.443353 0.000000
0.501857 0.090771 0.000000
0.260832 0.438254 0.000000
0.499953 0.100732 0.000000
0.269494 0.432982 0.000000
0.497851 0.110654 0.000000
0.278049 0.427538 0.000000
0.495552 0.120532 0.000000
0.286495 0.421925 0.000000
0.493057 0.130363 0.000000
0.294827 0.416146 0.000000
0.490368 0.140141 0.000000
0.303043 0.410201 0.000000
0.487484 0.149864 0.000000
0.311138 0.404095 0.000000
0.484408 0.159526 0.000000
0.319111 0.397829 0.000000
0.481141 0.169126 0.000000
0.326958 0.391406 0.000000
0.477683 0.178658 0.000000
0.334675 0.384828 0.000000
0.474037 0.188120 0.000000
0.342260 0.378098 0.000000
0.470203 0.197508 0.000000
0.349710 0.371218 0.000000
0.466183 0.206818 0.000000
0.357021 0.364192 0.000000
0.461979 0.216046 0.000000
0.364192 0.357021 0.000000
0.457592 0.225188 0.000000
0.371218 0.349710 0.000000
0.453024 0.234242 0.000000
0.378098 0.342260 0.000000
0.448277 0.243202 0.000000
0.384828 0.334675 0.000000
0.443353 0.252067 0.000000
0.391406 0.326958 0.000000
0.438254 0.260832 0.000000
0.397829 0.319111 0.000000
0.432982 0.269494 0.000000
0.404095 0.311138 0.000000
0.427538 0.278049 0.000000
0.410201 0.303043 0.000000
0.421925 0.286495 0.000000
0.416146 0.294827 0.000000
-0.415025 -0.278844 0.000000
-0.403306 -0.295541 0.000000
-0.420627 -0.270320 0.000000
-0.397194 -0.303706 0.000000
-0.426054 -0.261684 0.000000
-0.390916 -0.311745 0.000000
-0.431303 -0.252938 0.000000
-0.384475 -0.319654 0.000000
-0.436373 -0.244088 0.000000
-0.377875 -0.327430 0.000000
-0.441261 -0.235136 0.000000
-0.371117 -0.335070 0.000000
-0.445965 -0.226086 0.000000
-0.364205 -0.342571 0.000000
-0.450484 -0.216942 0.000000
-0.357141 -0.349929 0.000000
-0.454816 -0.207707 0.000000
-0.349929 -0.357141 0.000000
-0.458958 -0.198386 0.000000
-0.342571 -0.364205 0.000000
-0.462910 -0.188983 0.000000
-0.335070 -0.371117 0.000000
-0.466668 -0.179501 0.000000
-0.327430 -0.377875 0.000000
-0.470233 -0.169944 0.000000
-0.319654 -0.384475 0.000000
-0.473602 -0.160317 0.000000
-0.311745 -0.390916 0.000000
-0.476773 -0.150623 0.000000
-0.303706 -0.397194 0.000000
-0.479747 -0.140866 0.000000
-0.295541 -0.403306 0.000000
-0.482520 -0.131050 0.000000
-0.287252 -0.409251 0.000000
-0.485094 -0.121178 0.000000
-0.278844 -0.415025 0.000000
-0.487465 -0.111256 0.000000
-0.270320 -0.420627 0.000000
-0.489633 -0.101287 0.000000
-0.261684 -0.426054 0.000000
-0.491598 -0.091277 0.000000
-0.252938 -0.431303 0.000000
-0.493358 -0.081229 0.000000
-0.244088 -0.436373 0.000000
-0.494912 -0.071148 0.000000
-0.235136 -0.441261 0.000000
-0.496260 -0.061039 0.000000
-0.226086 -0.445965 0.000000
-0.497402 -0.050904 0.000000
-0.216942 -0.450484 0.000000
-0.498337 -0.040749 0.000000
-0.207707 -0.454816 0.000000
-0.499064 -0.030577 0.000000
-0.198386 -0.458958 0.000000
-0.499584 -0.020392 0.000000
-0.188983 -0.462910 0.000000
-0.499896 -0.010199 0.000000
-0.179501 -0.466668 0.000000
-0.500000 0.000000 0.000000
-0.169944 -0.470233 0.000000
-0.499896 0.010199 0.000000
-0.160317 -0.473602 0.000000
-0.499584 0.020392 0.000000
-0.150623 -0.476773 0.000000
-0.499064 0.030577 0.000000
-0.140866 -0.479747 0.000000
-0.498337 0.040749 0.000000
-0.131050 -0.482520 0.000000
-0.497402 0.050904 0.000000
-0.121178 -0.485094 0.000000
-0.496260 0.061039 0.000000
-0.111256 -0.487465 0.000000
-0.494912 0.071148 0.000000
-0.101287 -0.489633 0.000000
-0.493358 0.081229 0.000000
-0.091277 -0.491598 0.000000
-0.491598 0.091277 0.000000
-0.081229 -0.493358 0.000000
-0.489633 0.101287 0.000000
-0.071148 -0.494912 0.000000
-0.487465 0.111256 0.000000
-0.061039 -0.496260 0.000000
-0.485094 0.121178 0.000000
-0.050904 -0.497402 0.000000
-0.482520 0.131050 0.000000
-0.040749 -0.498337 0.000000
-0.479747 0.140866 0.000000
-0.030577 -0.499064 0.000000
-0.476773 0.150623 0.000000
-0.020392 -0.499584 0.000000
-0.473602 0.160317 0.000000
-0.010199 -0.499896 0.000000
-0.470233 0.169944 0.000000
0.000000 -0.500000 0.000000
-0.466668 0.179501 0.000000
0.010199 -0.499896 0.000000
-0.462910 0.188983 0.000000
0.020392 -0.499584 0.000000
-0.458958 0.198386 0.000000
0.030577 -0.499064 0.000000
-0.454816 0.207707 0.000000
0.040749 -0.498337 0.000000
-0.450484 0.216942 0.000000
0.050904 -0.497402 0.000000
-0.445965 0.226086 0.000000
0.061039 -0.496260 0.000000
-0.441261 0.235136 0.000000
0.071148 -0.494912 0.000000
-0.436373 0.244088 0.000000
0.081229 -0.493358 0.000000
-0.431303 0.252938 0.000000
0.091277 -0.491598 0.000000
-0.426054 0.261684 0.000000
0.101287 -0.489633 0.000000
-0.420627 0.270320 0.000000
0.111256 -0.487465 0.000000
-0.415025 0.278844 0.000000
0.121178 -0.485094 0.000000
-0.409251 0.287252 0.000000
0.131050 -0.482520 0.000000
-0.403306 0.295541 0.000000
0.140866 -0.479747 0.000000
-0.397194 0.303706 0.000000
0.150623 -0.476773 0.000000
-0.390916 0.311745 0.000000
0.160317 -0.473602 0.000000
-0.384475 0.319654 0.000000
0.169944 -0.470233 0.000000
-0.377875 0.327430 0.000000
0.179501 -0.466668 0.000000
-0.371117 0.335070 0.000000
0.188983 -0.462910 0.000000
-0.364205 0.342571 0.000000
0.198386 -0.458958 0.000000
-0.357141 0.349929 0.000000
0.207707 -0.454816 0.000000
-0.349929 0.357141 0.000000
0.216942 -0.450484 0.000000
-0.342571 0.364205 0.000000
0.226086 -0.445965 0.000000
-0.335070 0.371117 0.000000
0.235136 -0.441261 0.000000
-0.327430 0.377875 0.000000
0.244088 -0.436373 0.000000
-0.319654 0.384475 0.000000
0.252938 -0.431303 0.000000
-0.311745 0.390916 0.000000
0.261684 -0.426054 0.000000
-0.303706 0.397194 0.000000
0.270320 -0.420627 0.000000
-0.295541 0.403306 0.000000
0.278844 -0.415025 0.000000
-0.287252 0.409251 0.000000
0.287252 -0.409251 0.000000
-0.278844 0.415025 0.000000
0.295541 -0.403306 0.000000
-0.270320 0.420627 0.000000
0.303706 -0.397194 0.000000
-0.261684 0.426054 0.000000
0.311745 -0.390916 0.000000
-0.252938 0.431303 0.000000
0.319654 -0.384475 0.000000
-0.244088 0.436373 0.000000
0.327430 -0.377875 0.000000
-0.235136 0.441261 0.000000
0.335070 -0.371117 0.000000
-0.226086 0.445965 0.000000
0.342571 -0.364205 0.000000
-0.216942 0.450484 0.000000
0.349929 -0.357141 0.000000
-0.207707 0.454816 0.000000
0.357141 -0.349929 0.000000
-0.198386 0.458958 0.000000
0.364205 -0.342571 0.000000
-0.188983 0.462910 0.000000
0.371117 -0.335070 0.000000
-0.179501 0.466668 0.000000
0.377875 -0.327430 0.000000
-0.169944 0.470233 0.000000
0.384475 -0.319654 0.000000
-0.160317 0.473602 0.000000
0.390916 -0.311745 0.000000
-0.150623 0.476773 0.000000
0.397194 -0.303706 0.000000
-0.140866 0.479747 0.000000
0.403306 -0.295541 0.000000
-0.131050 0.482520 0.000000
0.409251 -0.287252 0.000000
-0.121178 0.485094 0.000000
0.415025 -0.278844 0.000000
-0.111256 0.487465 0.000000
0.420627 -0.270320 0.000000
-0.101287 0.489633 0.000000
0.426054 -0.261684 0.000000
-0.091277 0.491598 0.000000
0.431303 -0.252938 0.000000
-0.081229 0.493358 0.000000
0.436373 -0.244088 0.000000
-0.071148 0.494912 0.000000
0.441261 -0.235136 0.000000
-0.061039 0.496260 0.000000
0.445965 -0.226086 0.000000
-0.050904 0.497402 0.000000
0.450484 -0.216942 0.000000
-0.040749 0.498337 0.000000
0.454816 -0.207707 0.000000
-0.030577 0.499064 0.000000
0.458958 -0.198386 0.000000
-0.020392 0.499584 0.000000
0.462910 -0.188983 0.000000
-0.010199 0.499896 0.000000
0.466668 -0.179501 0.000000
0.000000 0.500000 0.000000
0.470233 -0.169944 0.000000
0.010199 0.499896 0.000000
0.473602 -0.160317 0.000000
0.020392 0.499584 0.000000
0.476773 -0.150623 0.000000
0.030577 0.499064 0.000000
0.479747 -0.140866 0.000000
0.040749 0.498337 0.000000
0.482520 -0.131050 0.000000
0.050904 0.497402 0.000000
0.485094 -0.121178 0.000000
0.061039 0.496260 0.000000
0.487465 -0.111256 0.000000
0.071148 0.494912 0.000000
0.489633 -0.101287 0.000000
0.081229 0.493358 0.000000
0.491598 -0.091277 0.000000
0.091277 0.491598 0.000000
0.493358 -0.081229 0.000000
0.101287 0.489633 0.000000
0.494912 -0.071148 0.000000
0.111256 0.487465 0.000000
0.496260 -0.061039 0.000000
0.121178 0.485094 0.000000
0.497402 -0.050904 0.000000
0.131050 0.482520 0.000000
0.498337 -0.040749 0.000000
0.140866 0.479747 0.000000
0.499064 -0.030577 0.000000
0.150623 0.476773 0.000000
0.499584 -0.020392 0.000000
0.160317 0.473602 0.000000
0.499896 -0.010199 0.000000
0.169944 0.470233 0.000000
0.500000 0.000000 0.000000
0.179501 0.466668 0.000000
0.499896 0.010199 0.000000
0.188983 0.462910 0.000000
0.499584 0.020392 0.000000
0.198386 0.458958 0.000000
0.499064 0.030577 0.000000
0.207707 0.454816 0.000000
0.498337 0.040749 0.000000
0.216942 0.450484 0.000000
0.497402 0.050904 0.000000
0.226086 0.445965 0.000000
0.496260 0.061039 0.000000
0.235136 0.441261 0.000000
0.494912 0.071148 0.000000
0.244088 0.436373 0.000000
0.493358 0.081229 0.000000
0.252938 0.431303 0.000000
0.491598 0.091277 0.000000
0.261684 0.426054 0.000000
0.489633 0.101287 0.000000
0.270320 0.420627 0.000000
0.487465 0.111256 0.000000
0.278844 0.415025 0.000000
0.485094 0.121178 0.000000
0.287252 0.409251 0.000000
0.482520 0.131050 0.000000
0.295541 0.403306 0.000000
0.479747 0.140866 0.000000
0.303706 0.397194 0.000000
0.476773 0.150623 0.000000
0.311745 0.390916 0.000000
0.473602 0.160317 0.000000
0.319654 0.384475 0.000000
0.470233 0.169944 0.000000
0.327430 0.377875 0.000000
0.466668 0.179501 0.000000
0.335070 0.371117 0.000000
0.462910 0.188983 0.000000
0.342571 0.364205 0.000000
0.458958 0.198386 0.000000
0.349929 0.357141 0.000000
0.454816 0.207707 0.000000
0.357141 0.349929 0.000000
0.450484 0.216942 0.000000
0.364205 0.342571 0.000000
0.445965 0.226086 0.000000
0.371117 0.335070 0.000000
0.441261 0.235136 0.000000
0.377875 0.327430 0.000000
0.436373 0.244088 0.000000
0.384475 0.319654 0.000000
0.431303 0.252938 0.000000
0.390916 0.311745 0.000000
0.426054 0.261684 0.000000
0.397194 0.303706 0.000000
0.420627 0.270320 0.000000
0.415025 0.278844 0.000000
0.403306 0.295541 0.000000
0.409251 0.287252 0.000000
-0.416651 -0.285100 0.000000
-0.409726 -0.295166 0.000000
-0.421429 -0.278105 0.000000
-0.403699 -0.303357 0.000000
-0.426806 -0.269823 0.000000
-0.397508 -0.311425 0.000000
-0.432197 -0.261278 0.000000
-0.391157 -0.319367 0.000000
-0.437327 -0.252500 0.000000
-0.384646 -0.327179 0.000000
-0.442314 -0.243721 0.000000
-0.377979 -0.334859 0.000000
-0.446941 -0.235122 0.000000
-0.450784 -0.228337 0.000000
-0.370462 -0.343155 0.000000
-0.455028 -0.219045 0.000000
-0.452668 -0.223420 0.000000
-0.364060 -0.349914 0.000000
-0.459296 -0.209724 0.000000
-0.457282 -0.214033 0.000000
-0.357103 -0.357057 0.000000
-0.461352 -0.204833 0.000000
-0.463724 -0.200363 0.000000
-0.350055 -0.363925 0.000000
-0.465669 -0.195543 0.000000
-0.467695 -0.190817 0.000000
-0.343998 -0.369738 0.000000
-0.471431 -0.181492 0.000000
-0.469405 -0.186286 0.000000
-0.334859 -0.377979 0.000000
-0.472952 -0.176626 0.000000
-0.474903 -0.171777 0.000000
-0.327179 -0.384646 0.000000
-0.478846 -0.161727 0.000000
-0.476435 -0.167155 0.000000
-0.319367 -0.391157 0.000000
-0.480787 -0.154555 0.000000
-0.311425 -0.397508 0.000000
-0.483607 -0.145275 0.000000
-0.303357 -0.403699 0.000000
-0.486452 -0.135600 0.000000
-0.293440 -0.410921 0.000000
-0.489031 -0.125774 0.000000
-0.286535 -0.415757 0.000000
-0.491508 -0.115921 0.000000
-0.278352 -0.421319 0.000000
-0.493686 -0.106038 0.000000
-0.269886 -0.426828 0.000000
-0.495651 -0.096362 0.000000
-0.261233 -0.432144 0.000000
-0.497198 -0.088074 0.000000
-0.252462 -0.437285 0.000000
-0.499250 -0.075953 0.000000
-0.243613 -0.442280 0.000000
-0.500654 -0.065906 0.000000
-0.234715 -0.447127 0.000000
-0.228640 -0.450519 0.000000
-0.501880 -0.055811 0.000000
-0.218895 -0.455215 0.000000
-0.223224 -0.452881 0.000000
-0.502902 -0.045695 0.000000
-0.209733 -0.459391 0.000000
-0.214212 -0.457190 0.000000
-0.503721 -0.035560 0.000000
-0.200365 -0.463733 0.000000
-0.204804 -0.461613 0.000000
-0.195531 -0.465664 0.000000
-0.190784 -0.467722 0.000000
-0.504503 -0.023225 0.000000
-0.186244 -0.469425 0.000000
-0.181531 -0.471460 0.000000
-0.504773 -0.013853 0.000000
-0.176954 -0.472745 0.000000
-0.171678 -0.474859 0.000000
-0.505074 -0.003656 0.000000
-0.167137 -0.476450 0.000000
-0.161673 -0.478820 0.000000
-0.504932 0.006910 0.000000
-0.154529 -0.480797 0.000000
-0.504834 0.020042 0.000000
-0.145171 -0.483695 0.000000
-0.503551 0.037586 0.000000
-0.135593 -0.486453 0.000000
-0.502892 0.045680 0.000000
-0.125775 -0.489083 0.000000
-0.502191 0.053713 0.000000
-0.115940 -0.491464 0.000000
-0.500654 0.065906 0.000000
-0.106312 -0.493603 0.000000
-0.499225 0.075974 0.000000
-0.098005 -0.495252 0.000000
-0.497594 0.086013 0.000000
-0.086013 -0.497594 0.000000
-0.495252 0.098004 0.000000
-0.075974 -0.499225 0.000000
-0.493597 0.106314 0.000000
-0.065906 -0.500654 0.000000
-0.491428 0.115952 0.000000
-0.053714 -0.502191 0.000000
-0.489011 0.125775 0.000000
-0.045680 -0.502892 0.000000
-0.486412 0.135576 0.000000
-0.037586 -0.503551 0.000000
-0.483678 0.145285 0.000000
-0.480787 0.154548 0.000000
-0.478775 0.161676 0.000000
-0.019993 -0.505013 0.000000
-0.474875 0.171814 0.000000
-0.476450 0.167142 0.000000
-0.006399 -0.504863 0.000000
-0.471460 0.181500 0.000000
-0.472984 0.176743 0.000000
0.004056 -0.505080 0.000000
-0.469459 0.186171 0.000000
-0.467574 0.190927 0.000000
0.014245 -0.504767 0.000000
-0.465619 0.195494 0.000000
-0.463733 0.200332 0.000000
0.023224 -0.504502 0.000000
-0.461448 0.204867 0.000000
-0.459421 0.209641 0.000000
0.035560 -0.503721 0.000000
-0.457230 0.214138 0.000000
-0.455198 0.218914 0.000000
0.045695 -0.502902 0.000000
-0.452908 0.223198 0.000000
-0.450716 0.228508 0.000000
0.055811 -0.501880 0.000000
-0.446914 0.235146 0.000000
0.065906 -0.500654 0.000000
-0.442240 0.243700 0.000000
0.075974 -0.499225 0.000000
-0.437272 0.252473 0.000000
0.088074 -0.497198 0.000000
-0.432109 0.261213 0.000000
0.096362 -0.495651 0.000000
-0.426787 0.269860 0.000000
0.106034 -0.493683 0.000000
-0.421297 0.278338 0.000000
0.115913 -0.491500 0.000000
-0.415757 0.286535 0.000000
0.125776 -0.489039 0.000000
-0.410932 0.293439 0.000000
0.135601 -0.486450 0.000000
-0.403699 0.303357 0.000000
0.145277 -0.483606 0.000000
-0.397508 0.311425 0.000000
0.154557 -0.480774 0.000000
0.161733 -0.478769 0.000000
-0.391157 0.319367 0.000000
0.167091 -0.476488 0.000000
0.171718 -0.474954 0.000000
-0.384646 0.327179 0.000000
0.176707 -0.473000 0.000000
0.181505 -0.471475 0.000000
-0.377979 0.334859 0.000000
0.186295 -0.469391 0.000000
0.190925 -0.467576 0.000000
-0.369765 0.344010 0.000000
0.195633 -0.465648 0.000000
0.200345 -0.463770 0.000000
-0.363926 0.350050 0.000000
0.209734 -0.459450 0.000000
0.204910 -0.461509 0.000000
-0.357034 0.357061 0.000000
0.214072 -0.457247 0.000000
0.218980 -0.455067 0.000000
-0.349993 0.364032 0.000000
0.228256 -0.450815 0.000000
0.223408 -0.452712 0.000000
-0.343912 0.369752 0.000000
0.235109 -0.446946 0.000000
-0.334859 0.377979 0.000000
0.243720 -0.442311 0.000000
-0.327179 0.384646 0.000000
0.252483 -0.437299 0.000000
-0.319367 0.391157 0.000000
0.261251 -0.432197 0.000000
-0.311425 0.397508 0.000000
0.269819 -0.426806 0.000000
-0.303357 0.403699 0.000000
0.278114 -0.421436 0.000000
-0.295166 0.409726 0.000000
0.285106 -0.416757 0.000000
-0.285453 0.416477 0.000000
0.295191 -0.409722 0.000000
-0.278168 0.421408 0.000000
0.303357 -0.403699 0.000000
-0.269849 0.426857 0.000000
0.311425 -0.397508 0.000000
-0.261220 0.432122 0.000000
0.319367 -0.391157 0.000000
-0.252526 0.437285 0.000000
0.327179 -0.384646 0.000000
-0.243742 0.442304 0.000000
0.334859 -0.377979 0.000000
-0.235192 0.446897 0.000000
-0.228742 0.450552 0.000000
0.343167 -0.370539 0.000000
-0.223460 0.452663 0.000000
-0.218979 0.455026 0.000000
0.349916 -0.364073 0.000000
-0.214046 0.457197 0.000000
-0.209660 0.459391 0.000000
0.357057 -0.357104 0.000000
-0.200375 0.463730 0.000000
-0.204910 0.461372 0.000000
0.363930 -0.350058 0.000000
-0.195557 0.465613 0.000000
-0.190944 0.467564 0.000000
0.369764 -0.344011 0.000000
-0.181545 0.471428 0.000000
-0.186254 0.469430 0.000000
0.377979 -0.334859 0.000000
-0.176635 0.472984 0.000000
-0.171918 0.474870 0.000000
0.384646 -0.327179 0.000000
-0.161683 0.478683 0.000000
-0.167009 0.476454 0.000000
0.391157 -0.319367 0.000000
-0.154877 0.480582 0.000000
0.397508 -0.311425 0.000000
-0.145423 0.483611 0.000000
0.403699 -0.303357 0.000000
-0.135605 0.486389 0.000000
0.410921 -0.293440 0.000000
-0.125786 0.489034 0.000000
0.415757 -0.286535 0.000000
-0.115924 0.491501 0.000000
0.421276 -0.278351 0.000000
-0.106038 0.493682 0.000000
0.426786 -0.269861 0.000000
-0.096362 0.495651 0.000000
0.432129 -0.261224 0.000000
-0.088074 0.497198 0.000000
0.437364 -0.252518 0.000000
-0.075974 0.499225 0.000000
0.442255 -0.243696 0.000000
-0.065906 0.500654 0.000000
0.446901 -0.235165 0.000000
0.450626 -0.228629 0.000000
-0.055811 0.501880 0.000000
0.452863 -0.223239 0.000000
0.455037 -0.219014 0.000000
-0.045695 0.502902 0.000000
0.457157 -0.214077 0.000000
0.459396 -0.209621 0.000000
-0.035560 0.503721 0.000000
0.461359 -0.204897 0.000000
0.463695 -0.200361 0.000000
-0.023304 0.504424 0.000000
0.465641 -0.195495 0.000000
0.467606 -0.190951 0.000000
-0.014879 0.504782 0.000000
0.469414 -0.186248 0.000000
0.471411 -0.181540 0.000000
-0.005033 0.504925 0.000000
0.472918 -0.176630 0.000000
0.474886 -0.171779 0.000000
0.005043 0.504929 0.000000
0.476453 -0.167022 0.000000
0.478685 -0.161862 0.000000
0.014951 0.504764 0.000000
0.480771 -0.154583 0.000000
0.023215 0.504525 0.000000
0.483673 -0.145303 0.000000
0.037586 0.503551 0.000000
0.486450 -0.135593 0.000000
0.045750 0.502896 0.000000
0.489087 -0.125805 0.000000
0.053799 0.502083 0.000000
0.491453 -0.115970 0.000000
0.065906 0.500654 0.000000
0.493600 -0.106336 0.000000
0.075974 0.499225 0.000000
0.495243 -0.098118 0.000000
0.086013 0.497594 0.000000
0.497594 -0.086013 0.000000
0.098116 0.495243 0.000000
0.499225 -0.075974 0.000000
0.106336 0.493600 0.000000
0.500654 -0.065906 0.000000
0.115972 0.491452 0.000000
0.502084 -0.053799 0.000000
0.125820 0.489079 0.000000
0.502897 -0.045748 0.000000
0.135587 0.486408 0.000000
0.503551 -0.037586 0.000000
0.145284 0.483678 0.000000
0.504412 -0.023728 0.000000
0.154553 0.480792 0.000000
0.504678 -0.016946 0.000000
0.161702 0.478804 0.000000
0.166954 0.476453 0.000000
0.504949 -0.002996 0.000000
0.171459 0.474989 0.000000
0.176706 0.472959 0.000000
0.504952 0.005359 0.000000
0.181613 0.471429 0.000000
0.186155 0.469450 0.000000
0.504776 0.014970 0.000000
0.190941 0.467614 0.000000
0.195461 0.465640 0.000000
0.504507 0.023301 0.000000
0.200321 0.463696 0.000000
0.204665 0.461639 0.000000
0.503721 0.035560 0.000000
0.209779 0.459311 0.000000
0.214128 0.457065 0.000000
0.502902 0.045695 0.000000
0.218898 0.455083 0.000000
0.223160 0.452917 0.000000
0.501880 0.055811 0.000000
0.228588 0.450696 0.000000
0.500654 0.065906 0.000000
0.235160 0.446911 0.000000
0.499225 0.075974 0.000000
0.243704 0.442242 0.000000
0.497198 0.088074 0.000000
0.252477 0.437275 0.000000
0.495651 0.096362 0.000000
0.261232 0.432125 0.000000
0.493684 0.106044 0.000000
0.269859 0.426787 0.000000
0.491464 0.115912 0.000000
0.278336 0.421300 0.000000
0.489031 0.125776 0.000000
0.286532 0.415761 0.000000
0.486389 0.135603 0.000000
0.293440 0.410921 0.000000
0.483609 0.145424 0.000000
0.303357 0.403699 0.000000
0.480578 0.154802 0.000000
0.311425 0.397508 0.000000
0.478655 0.161751 0.000000
0.476452 0.166982 0.000000
0.319367 0.391157 0.000000
0.474971 0.171610 0.000000
0.472982 0.176607 0.000000
0.327179 0.384646 0.000000
0.471433 0.181509 0.000000
0.469353 0.186363 0.000000
0.334859 0.377979 0.000000
0.467613 0.190886 0.000000
0.465645 0.195476 0.000000
0.344010 0.369764 0.000000
0.461373 0.204887 0.000000
0.463686 0.200316 0.000000
0.350057 0.363930 0.000000
0.459353 0.209725 0.000000
0.457070 0.214141 0.000000
0.357100 0.357062 0.000000
0.452708 0.223419 0.000000
0.455125 0.218877 0.000000
0.364020 0.349971 0.000000
0.450552 0.228739 0.000000
0.370222 0.343498 0.000000
0.446889 0.235184 0.000000
0.377979 0.334859 0.000000
0.442252 0.243700 0.000000
0.384646 0.327179 0.000000
0.437360 0.252522 0.000000
0.391146 0.319394 0.000000
0.432139 0.261225 0.000000
0.397501 0.311463 0.000000
0.426837 0.269829 0.000000
0.403699 0.303357 0.000000
0.421434 0.278106 0.000000
0.416650 0.285100 0.000000
0.409726 0.295166 0.000000
CELLS 1364 5456
3 624 2 0
3 624 0 1
3 624 1 317
3 317 626 624
3 626 317 319
3 319 628 626
3 4 626 628
3 628 6 4
3 6 628 630
3 630 8 6
3 8 630 632
3 632 10 8
3 10 632 634
3 634 12 10
3 12 634 636
3 636 14 12
3 14 636 637
3 637 16 14
3 640 16 637
3 637 329 640
3 640 329 331
3 639 640 331
3 639 331 643
3 643 18 639
3 639 18 16
3 643 642 18
3 642 20 18
3 645 20 642
3 642 333 645
3 645 333 335
3 646 645 335
3 646 335 648
3 648 22 646
3 646 22 20
3 648 649 22
3 649 24 22
3 652 24 649
3 649 337 652
3 652 337 339
3 651 652 339
3 651 339 654
3 654 26 651
3 651 26 24
3 654 655 26
3 655 28 26
3 658 28 655
3 655 341 658
3 658 341 343
3 657 658 343
3 657 343 660
3 30 657 660
3 660 32 30
3 32 660 662
3 662 34 32
3 34 662 664
3 664 36 34
3 36 664 666
3 666 38 36
3 38 666 668
3 668 40 38
3 40 668 670
3 670 42 40
3 42 670 672
3 672 44 42
3 44 672 674
3 674 46 44
3 674 359 46
3 676 46 359
3 676 359 361
3 676 361 48
3 678 48 361
3 678 361 363
3 678 363 50
3 681 50 363
3 681 363 365
3 681 365 52
3 684 52 365
3 684 365 367
3 684 367 54
3 687 54 367
3 687 367 369
3 687 369 56
3 692 56 369
3 692 369 371
3 371 695 692
3 58 692 695
3 695 60 58
3 60 695 698
3 698 62 60
3 62 698 701
3 701 64 62
3 64 701 703
3 65 64 703
3 65 703 67
3 67 703 381
3 705 67 381
3 705 381 383
3 383 707 705
3 69 705 707
3 707 71 69
3 71 707 709
3 709 73 71
3 709 387 73
3 711 73 387
3 711 387 389
3 711 389 75
3 713 75 389
3 713 389 391
3 713 391 77
3 715 77 391
3 715 391 393
3 715 393 79
3 717 79 393
3 717 393 395
3 395 719 717
3 81 717 719
3 719 83 81
3 83 719 721
3 721 85 83
3 85 721 723
3 723 87 85
3 87 723 725
3 725 89 87
3 89 725 727
3 727 91 89
3 91 727 728
3 728 92 91
3 92 728 729
3 729 95 92
3 732 95 729
3 729 407 732
3 732 407 409
3 731 732 409
3 731 409 735
3 735 97 731
3 731 97 95
3 735 734 97
3 734 99 97
3 737 99 734
3 734 411 737
3 737 411 413
3 738 737 413
3 738 413 740
3 740 101 738
3 738 101 99
3 740 741 101
3 741 103 101
3 743 103 741
3 741 415 743
3 743 415 417
3 744 743 417
3 744 417 746
3 746 105 744
3 744 105 103
3 746 747 105
3 747 107 105
3 749 107 747
3 747 419 749
3 749 419 421
3 750 749 421
3 750 421 752
3 109 750 752
3 752 111 109
3 111 752 754
3 754 113 111
3 113 754 756
3 756 115 113
3 115 756 758
3 758 117 115
3 117 758 760
3 760 119 117
3 119 760 762
3 762 121 119
3 121 762 764
3 764 123 121
3 123 764 766
3 766 125 123
3 766 437 125
3 768 125 437
3 768 437 439
3 768 439 127
3 770 127 439
3 770 439 441
3 770 441 130
3 773 130 441
3 773 441 443
3 773 443 132
3 776 132 443
3 776 443 445
3 776 445 134
3 779 134 445
3 779 445 447
3 779 447 136
3 782 136 447
3 782 447 449
3 449 785 782
3 138 782 785
3 785 140 138
3 140 785 788
3 788 142 140
3 142 788 791
3 791 144 142
3 144 791 794
3 794 146 144
3 794 457 146
3 796 146 457
3 796 457 459
3 796 459 148
3 798 148 459
3 798 459 461
3 798 461 150
3 800 150 461
3 800 461 463
3 800 463 152
3 802 152 463
3 802 463 465
3 802 465 154
3 804 154 465
3 804 465 467
3 804 467 156
3 806 156 467
3 806 467 469
3 806 469 158
3 808 158 469
3 808 469 471
3 471 810 808
3 160 808 810
3 810 162 160
3 162 810 812
3 812 164 162
3 164 812 814
3 814 166 164
3 166 814 816
3 816 168 166
3 168 816 818
3 818 170 168
3 170 818 820
3 820 172 170
3 172 820 821
3 821 174 172
3 823 174 821
3 821 483 823
3 823 483 485
3 824 823 485
3 824 485 826
3 826 176 824
3 824 176 174
3 826 827 176
3 827 178 176
3 830 178 827
3 827 487 830
3 830 487 489
3 829 830 489
3 829 489 832
3 832 180 829
3 829 180 178
3 832 833 180
3 833 182 180
3 836 182 833
3 833 491 836
3 836 491 493
3 835 836 493
3 835 493 838
3 838 184 835
3 835 184 182
3 838 839 184
3 839 186 184
3 842 186 839
3 839 495 842
3 842 495 497
3 841 842 497
3 841 497 844
3 188 841 844
3 844 190 188
3 190 844 846
3 846 192 190
3 192 846 848
3 848 194 192
3 194 848 850
3 850 196 194
3 196 850 852
3 852 198 196
3 198 852 854
3 854 200 198
3 200 854 856
3 856 202 200
3 202 856 858
3 858 204 202
3 858 513 204
3 860 204 513
3 860 513 515
3 860 515 206
3 862 206 515
3 862 515 517
3 862 517 208
3 865 208 517
3 865 517 519
3 865 519 210
3 868 210 519
3 868 519 521
3 868 521 212
3 871 212 521
3 871 521 523
3 871 523 214
3 874 214 523
3 874 523 525
3 525 877 874
3 216 874 877
3 877 218 216
3 218 877 880
3 880 220 218
3 220 880 883
3 883 222 220
3 222 883 886
3 886 224 222
3 224 886 888
3 888 226 224
3 888 535 226
3 890 226 535
3 890 535 537
3 537 892 890
3 228 890 892
3 892 230 228
3 230 892 894
3 894 232 230
3 894 541 232
3 896 232 541
3 896 541 543
3 896 543 234
3 898 234 543
3 898 543 545
3 898 545 236
3 900 236 545
3 900 545 547
3 900 547 238
3 902 238 547
3 902 547 549
3 549 904 902
3 902 904 240
3 904 242 240
3 242 904 906
3 906 244 242
3 244 906 908
3 908 246 244
3 246 908 910
3 910 248 246
3 248 910 912
3 912 250 248
3 250 912 914
3 914 252 250
3 252 914 916
3 916 254 252
3 917 254 916
3 916 561 917
3 917 561 563
3 919 917 563
3 919 563 920
3 920 256 919
3 919 256 254
3 920 922 256
3 922 258 256
3 923 258 922
3 922 565 923
3 923 565 567
3 925 923 567
3 925 567 926
3 926 260 925
3 925 260 258
3 926 928 260
3 928 262 260
3 929 262 928
3 928 569 929
3 929 569 571
3 931 929 571
3 931 571 932
3 932 264 931
3 931 264 262
3 932 934 264
3 934 266 264
3 935 266 934
3 934 573 935
3 935 573 575
3 937 935 575
3 937 575 939
3 268 937 939
3 939 270 268
3 270 939 941
3 941 272 270
3 272 941 943
3 943 274 272
3 274 943 945
3 945 276 274
3 276 945 947
3 947 278 276
3 278 947 949
3 949 280 278
3 280 949 951
3 951 282 280
3 282 951 953
3 953 284 282
3 953 591 284
3 955 284 591
3 955 591 593
3 955 593 286
3 957 286 593
3 957 593 595
3 957 595 288
3 960 288 595
3 960 595 597
3 960 597 290
3 963 290 597
3 963 597 599
3 963 599 292
3 966 292 599
3 966 599 601
3 966 601 294
3 969 294 601
3 969 601 603
3 603 972 969
3 296 969 972
3 972 298 296
3 298 972 975
3 975 300 298
3 300 975 978
3 978 302 300
3 302 978 980
3 980 304 302
3 980 611 304
3 982 304 611
3 982 611 613
3 982 613 306
3 984 306 613
3 984 613 615
3 984 615 308
3 986 308 615
3 986 615 617
3 986 617 310
3 988 310 617
3 988 617 619
3 988 619 312
3 990 312 619
3 990 619 622
3 990 622 314
3 993 314 622
3 993 622 623
3 993 623 316
3 992 316 623
3 992 623 621
3 621 991 992
3 315 992 991
3 991 313 315
3 313 991 989
3 989 311 313
3 311 989 987
3 987 309 311
3 309 987 985
3 985 307 309
3 307 985 983
3 983 305 307
3 305 983 981
3 981 303 305
3 303 981 979
3 979 301 303
3 976 301 979
3 979 610 976
3 976 610 608
3 977 976 608
3 977 608 974
3 974 299 977
3 977 299 301
3 974 973 299
3 973 297 299
3 970 297 973
3 973 606 970
3 970 606 604
3 971 970 604
3 971 604 968
3 968 295 971
3 971 295 297
3 968 967 295
3 967 293 295
3 965 293 967
3 967 602 965
3 965 602 600
3 964 965 600
3 964 600 962
3 962 291 964
3 964 291 293
3 962 961 291
3 961 289 291
3 959 289 961
3 961 598 959
3 959 598 596
3 958 959 596
3 958 596 956
3 287 958 956
3 956 285 287
3 285 956 954
3 954 283 285
3 283 954 952
3 952 281 283
3 281 952 950
3 950 279 281
3 279 950 948
3 948 277 279
3 277 948 946
3 946 275 277
3 275 946 944
3 944 273 275
3 273 944 942
3 942 271 273
3 942 580 271
3 940 271 580
3 940 580 578
3 940 578 269
3 938 269 578
3 938 578 576
3 938 576 267
3 936 267 576
3 936 576 574
3 936 574 265
3 933 265 574
3 933 574 572
3 933 572 263
3 930 263 572
3 930 572 570
3 930 570 261
3 927 261 570
3 927 570 568
3 568 924 927
3 259 927 924
3 924 257 259
3 257 924 921
3 921 255 257
3 255 921 918
3 918 253 255
3 918 562 253
3 915 253 562
3 915 562 560
3 560 913 915
3 251 915 913
3 913 249 251
3 913 558 249
3 911 249 558
3 911 558 556
3 556 909 911
3 247 911 909
3 909 245 247
3 245 909 907
3 907 243 245
3 907 552 243
3 905 243 552
3 905 552 550
3 905 550 241
3 903 241 550
3 903 550 548
3 903 548 239
3 901 239 548
3 901 548 546
3 901 546 237
3 899 237 546
3 899 546 544
3 544 897 899
3 899 897 235
3 897 233 235
3 233 897 895
3 895 231 233
3 231 895 893
3 893 229 231
3 229 893 891
3 891 227 229
3 227 891 889
3 889 225 227
3 225 889 887
3 887 223 225
3 223 887 885
3 885 221 223
3 884 221 885
3 885 532 884
3 884 532 530
3 882 884 530
3 882 530 881
3 881 219 882
3 882 219 221
3 881 879 219
3 879 217 219
3 878 217 879
3 879 528 878
3 878 528 526
3 876 878 526
3 876 526 875
3 875 215 876
3 876 215 217
3 875 873 215
3 873 213 215
3 872 213 873
3 873 524 872
3 872 524 522
3 870 872 522
3 870 522 869
3 869 211 870
3 870 211 213
3 869 867 211
3 867 209 211
3 866 209 867
3 867 520 866
3 866 520 518
3 864 866 518
3 864 518 863
3 207 864 863
3 863 205 207
3 205 863 861
3 861 203 205
3 203 861 859
3 859 201 203
3 201 859 857
3 857 199 201
3 199 857 855
3 855 197 199
3 197 855 853
3 853 195 197
3 195 853 851
3 851 193 195
3 193 851 849
3 849 191 193
3 849 502 191
3 847 191 502
3 847 502 500
3 847 500 189
3 845 189 500
3 845 500 498
3 845 498 187
3 843 187 498
3 843 498 496
3 843 496 185
3 840 185 496
3 840 496 494
3 840 494 183
3 837 183 494
3 837 494 492
3 837 492 181
3 834 181 492
3 834 492 490
3 490 831 834
3 179 834 831
3 831 177 179
3 177 831 828
3 828 175 177
3 175 828 825
3 825 173 175
3 173 825 822
3 822 171 173
3 822 482 171
3 819 171 482
3 819 482 480
3 819 480 169
3 817 169 480
3 817 480 478
3 817 478 167
3 815 167 478
3 815 478 476
3 815 476 165
3 813 165 476
3 813 476 474
3 813 474 163
3 811 163 474
3 811 474 472
3 811 472 161
3 809 161 472
3 809 472 470
3 809 470 159
3 807 159 470
3 807 470 468
3 468 805 807
3 157 807 805
3 805 155 157
3 155 805 803
3 803 153 155
3 153 803 801
3 801 151 153
3 151 801 799
3 799 149 151
3 149 799 797
3 797 147 149
3 147 797 795
3 795 145 147
3 145 795 792
3 792 143 145
3 793 143 792
3 792 456 793
3 793 456 454
3 790 793 454
3 790 454 789
3 789 141 790
3 790 141 143
3 789 786 141
3 786 139 141
3 787 139 786
3 786 452 787
3 787 452 450
3 784 787 450
3 784 450 783
3 783 137 784
3 784 137 139
3 783 781 137
3 781 135 137
3 780 135 781
3 781 448 780
3 780 448 446
3 778 780 446
3 778 446 777
3 777 133 778
3 778 133 135
3 777 775 133
3 775 131 133
3 774 131 775
3 775 444 774
3 774 444 442
3 772 774 442
3 772 442 771
3 129 772 771
3 771 128 129
3 128 771 769
3 769 126 128
3 126 769 767
3 767 124 126
3 124 767 765
3 765 122 124
3 122 765 763
3 763 120 122
3 120 763 761
3 761 118 120
3 118 761 759
3 759 116 118
3 116 759 757
3 757 114 116
3 757 426 114
3 755 114 426
3 755 426 424
3 755 424 112
3 753 112 424
3 753 424 422
3 753 422 110
3 751 110 422
3 751 422 420
3 751 420 108
3 748 108 420
3 748 420 418
3 748 418 106
3 745 106 418
3 745 418 416
3 745 416 104
3 742 104 416
3 742 416 414
3 414 739 742
3 102 742 739
3 739 100 102
3 100 739 736
3 736 98 100
3 98 736 733
3 733 96 98
3 96 733 730
3 94 96 730
3 94 730 93
3 93 730 404
3 726 93 404
3 726 404 402
3 402 724 726
3 90 726 724
3 724 88 90
3 88 724 722
3 722 86 88
3 722 398 86
3 720 86 398
3 720 398 396
3 720 396 84
3 718 84 396
3 718 396 394
3 718 394 82
3 716 82 394
3 716 394 392
3 716 392 80
3 714 80 392
3 714 392 390
3 390 712 714
3 78 714 712
3 712 76 78
3 76 712 710
3 710 74 76
3 74 710 708
3 708 72 74
3 72 708 706
3 706 70 72
3 70 706 704
3 704 68 70
3 68 704 702
3 702 66 68
3 66 702 700
3 700 63 66
3 699 63 700
3 700 378 699
3 699 378 376
3 697 699 376
3 697 376 696
3 696 61 697
3 697 61 63
3 696 694 61
3 694 59 61
3 693 59 694
3 694 374 693
3 693 374 372
3 691 693 372
3 691 372 690
3 690 57 691
3 691 57 59
3 690 688 57
3 688 55 57
3 689 55 688
3 688 370 689
3 689 370 368
3 685 689 368
3 685 368 686
3 686 53 685
3 685 53 55
3 686 682 53
3 682 51 53
3 683 51 682
3 682 366 683
3 683 366 364
3 680 683 364
3 680 364 679
3 49 680 679
3 679 47 49
3 47 679 677
3 677 45 47
3 45 677 675
3 675 43 45
3 43 675 673
3 673 41 43
3 41 673 671
3 671 39 41
3 39 671 669
3 669 37 39
3 37 669 667
3 667 35 37
3 35 667 665
3 665 33 35
3 665 348 33
3 663 33 348
3 663 348 346
3 663 346 31
3 661 31 346
3 661 346 344
3 661 344 29
3 659 29 344
3 659 344 342
3 659 342 27
3 656 27 342
3 656 342 340
3 656 340 25
3 653 25 340
3 653 340 338
3 653 338 23
3 650 23 338
3 650 338 336
3 336 647 650
3 21 650 647
3 647 19 21
3 19 647 644
3 644 17 19
3 17 644 641
3 641 15 17
3 15 641 638
3 638 13 15
3 638 328 13
3 635 13 328
3 635 328 326
3 635 326 11
3 633 11 326
3 633 326 324
3 633 324 9
3 631 9 324
3 631 324 322
3 631 322 7
3 629 7 322
3 629 322 320
3 629 320 5
3 627 5 320
3 627 320 318
3 627 318 3
3 625 3 318
3 625 318 1
3 625 0 3
3 627 3 5
3 629 5 7
3 631 7 9
3 633 9 11
3 635 11 13
3 638 330 328
3 330 638 641
3 641 332 330
3 332 641 644
3 644 334 332
3 334 644 647
3 647 336 334
3 650 21 23
3 653 23 25
3 656 25 27
3 659 27 29
3 661 29 31
3 663 31 33
3 665 350 348
3 350 665 667
3 667 352 350
3 352 667 669
3 669 354 352
3 354 669 671
3 671 356 354
3 356 671 673
3 673 358 356
3 358 673 675
3 675 360 358
3 360 675 677
3 677 362 360
3 362 677 679
3 680 49 51
3 679 364 362
3 683 680 51
3 682 686 366
3 686 368 366
3 689 685 55
3 688 690 370
3 690 372 370
3 693 691 59
3 694 696 374
3 696 376 374
3 699 697 63
3 700 702 378
3 702 380 378
3 380 702 704
3 704 382 380
3 382 704 706
3 706 384 382
3 384 706 708
3 708 386 384
3 386 708 710
3 710 388 386
3 388 710 712
3 712 390 388
3 714 78 80
3 716 80 82
3 718 82 84
3 720 84 86
3 722 400 398
3 400 722 724
3 724 402 400
3 726 90 93
3 406 404 730
3 406 730 408
3 408 730 733
3 733 410 408
3 410 733 736
3 736 412 410
3 412 736 739
3 739 414 412
3 742 102 104
3 745 104 106
3 748 106 108
3 751 108 110
3 753 110 112
3 755 112 114
3 757 428 426
3 428 757 759
3 759 430 428
3 430 759 761
3 761 432 430
3 432 761 763
3 763 434 432
3 434 763 765
3 765 436 434
3 436 765 767
3 767 438 436
3 438 767 769
3 769 440 438
3 440 769 771
3 772 129 131
3 771 442 440
3 774 772 131
3 775 777 444
3 777 446 444
3 780 778 135
3 781 783 448
3 783 450 448
3 787 784 139
3 786 789 452
3 789 454 452
3 793 790 143
3 792 795 456
3 795 458 456
3 458 795 797
3 797 460 458
3 460 797 799
3 799 462 460
3 462 799 801
3 801 464 462
3 464 801 803
3 803 466 464
3 466 803 805
3 805 468 466
3 807 157 159
3 809 159 161
3 811 161 163
3 813 163 165
3 815 165 167
3 817 167 169
3 819 169 171
3 822 484 482
3 484 822 825
3 825 486 484
3 486 825 828
3 828 488 486
3 488 828 831
3 831 490 488
3 834 179 181
3 837 181 183
3 840 183 185
3 843 185 187
3 845 187 189
3 847 189 191
3 849 504 502
3 504 849 851
3 851 506 504
3 506 851 853
3 853 508 506
3 508 853 855
3 855 510 508
3 510 855 857
3 857 512 510
3 512 857 859
3 859 514 512
3 514 859 861
3 861 516 514
3 516 861 863
3 864 207 209
3 863 518 516
3 866 864 209
3 867 869 520
3 869 522 520
3 872 870 213
3 873 875 524
3 875 526 524
3 878 876 217
3 879 881 528
3 881 530 528
3 884 882 221
3 885 887 532
3 887 534 532
3 534 887 889
3 889 536 534
3 536 889 891
3 891 538 536
3 538 891 893
3 893 540 538
3 540 893 895
3 895 542 540
3 542 895 897
3 897 544 542
3 899 235 237
3 901 237 239
3 903 239 241
3 905 241 243
3 907 554 552
3 554 907 909
3 909 556 554
3 911 247 249
3 913 560 558
3 915 251 253
3 918 564 562
3 564 918 921
3 921 566 564
3 566 921 924
3 924 568 566
3 927 259 261
3 930 261 263
3 933 263 265
3 936 265 267
3 938 267 269
3 940 269 271
3 942 582 580
3 582 942 944
3 944 584 582
3 584 944 946
3 946 586 584
3 586 946 948
3 948 588 586
3 588 948 950
3 950 590 588
3 590 950 952
3 952 592 590
3 592 952 954
3 954 594 592
3 594 954 956
3 958 287 289
3 956 596 594
3 959 958 289
3 961 962 598
3 962 600 598
3 965 964 293
3 967 968 602
3 968 604 602
3 970 971 297
3 973 974 606
3 974 608 606
3 976 977 301
3 979 981 610
3 981 612 610
3 612 981 983
3 983 614 612
3 614 983 985
3 985 616 614
3 616 985 987
3 987 618 616
3 618 987 989
3 989 620 618
3 620 989 991
3 991 621 620
3 992 315 316
3 993 316 314
3 990 314 312
3 988 312 310
3 986 310 308
3 984 308 306
3 982 306 304
3 980 609 611
3 609 980 978
3 978 607 609
3 607 978 975
3 975 605 607
3 605 975 972
3 972 603 605
3 969 296 294
3 966 294 292
3 963 292 290
3 960 290 288
3 957 288 286
3 955 286 284
3 953 589 591
3 589 953 951
3 951 587 589
3 587 951 949
3 949 585 587
3 585 949 947
3 947 583 585
3 583 947 945
3 945 581 583
3 581 945 943
3 943 579 581
3 579 943 941
3 941 577 579
3 577 941 939
3 937 268 266
3 939 575 577
3 935 937 266
3 934 932 573
3 932 571 573
3 929 931 262
3 928 926 569
3 926 567 569
3 923 925 258
3 922 920 565
3 920 563 565
3 917 919 254
3 916 914 561
3 914 559 561
3 559 914 912
3 912 557 559
3 557 912 910
3 910 555 557
3 555 910 908
3 908 553 555
3 553 908 906
3 906 551 553
3 551 906 904
3 904 549 551
3 902 240 238
3 900 238 236
3 898 236 234
3 896 234 232
3 894 539 541
3 539 894 892
3 892 537 539
3 890 228 226
3 888 533 535
3 533 888 886
3 886 531 533
3 531 886 883
3 883 529 531
3 529 883 880
3 880 527 529
3 527 880 877
3 877 525 527
3 874 216 214
3 871 214 212
3 868 212 210
3 865 210 208
3 862 208 206
3 860 206 204
3 858 511 513
3 511 858 856
3 856 509 511
3 509 856 854
3 854 507 509
3 507 854 852
3 852 505 507
3 505 852 850
3 850 503 505
3 503 850 848
3 848 501 503
3 501 848 846
3 846 499 501
3 499 846 844
3 841 188 186
3 844 497 499
3 842 841 186
3 839 838 495
3 838 493 495
3 836 835 182
3 833 832 491
3 832 489 491
3 830 829 178
3 827 826 487
3 826 485 487
3 823 824 174
3 821 820 483
3 820 481 483
3 481 820 818
3 818 479 481
3 479 818 816
3 816 477 479
3 477 816 814
3 814 475 477
3 475 814 812
3 812 473 475
3 473 812 810
3 810 471 473
3 808 160 158
3 806 158 156
3 804 156 154
3 802 154 152
3 800 152 150
3 798 150 148
3 796 148 146
3 794 455 457
3 455 794 791
3 791 453 455
3 453 791 788
3 788 451 453
3 451 788 785
3 785 449 451
3 782 138 136
3 779 136 134
3 776 134 132
3 773 132 130
3 770 130 127
3 768 127 125
3 766 435 437
3 435 766 764
3 764 433 435
3 433 764 762
3 762 431 433
3 431 762 760
3 760 429 431
3 429 760 758
3 758 427 429
3 427 758 756
3 756 425 427
3 425 756 754
3 754 423 425
3 423 754 752
3 750 109 107
3 752 421 423
3 749 750 107
3 747 746 419
3 746 417 419
3 743 744 103
3 741 740 415
3 740 413 415
3 737 738 99
3 734 735 411
3 735 409 411
3 732 731 95
3 729 728 407
3 728 405 407
3 405 728 727
3 727 403 405
3 403 727 725
3 725 401 403
3 401 725 723
3 723 399 401
3 399 723 721
3 721 397 399
3 397 721 719
3 719 395 397
3 717 81 79
3 715 79 77
3 713 77 75
3 711 75 73
3 709 385 387
3 385 709 707
3 707 383 385
3 705 69 67
3 379 381 703
3 379 703 377
3 377 703 701
3 701 375 377
3 375 701 698
3 698 373 375
3 373 698 695
3 695 371 373
3 692 58 56
3 687 56 54
3 684 54 52
3 681 52 50
3 678 50 48
3 676 48 46
3 674 357 359
3 357 674 672
3 672 355 357
3 355 672 670
3 670 353 355
3 353 670 668
3 668 351 353
3 351 668 666
3 666 349 351
3 349 666 664
3 664 347 349
3 347 664 662
3 662 345 347
3 345 662 660
3 657 30 28
3 660 343 345
3 658 657 28
3 655 654 341
3 654 339 341
3 652 651 24
3 649 648 337
3 648 335 337
3 645 646 20
3 642 643 333
3 643 331 333
3 640 639 16
3 637 636 329
3 636 327 329
3 327 636 634
3 634 325 327
3 325 634 632
3 632 323 325
3 323 632 630
3 630 321 323
3 321 630 628
3 626 4 2
3 628 319 321
3 625 1 0
3 2 624 626
CELL_TYPES 1364
9
9
9
9
9
9
9
9
9
9
9
9
9
9
9
9
9
9
9
9
9
9
9
9
9
9
9
9
9
9
9
9
9
9
9
9
9
9
9
9
9
9
9
9
9
9
9
9
9
9
9
9
9
9
9
9
9
9
9
9
9
9
9
9
9
9
9
9
9
9
9
9
9
9
9
9
9
9
9
9
9
9
9
9
9
9
9
9
9
9
9
9
9
9
9
9
9
9
9
9
9
9
9
9
9
9
9
9
9
9
9
9
9
9
9
9
9
9
9
9
9
9
9
9
9
9
9
9
9
9
9
9
9
9
9
9
9
9
9
9
9
9
9
9
9
9
9
9
9
9
9
9
9
9
9
9
9
9
9
9
9
9
9
9
9
9
9
9
9
9
9
9
9
9
9
9
9
9
9
9
9
9
9
9
9
9
9
9
9
9
9
9
9
9
9
9
9
9
9
9
9
9
9
9
9
9
9
9
9
9
9
9
9
9
9
9
9
9
9
9
9
9
9
9
9
9
9
9
9
9
9
9
9
9
9
9
9
9
9
9
9
9
9
9
9
9
9
9
9
9
9
9
9
9
9
9
9
9
9
9
9
9
9
9
9
9
9
9
9
9
9
9
9
9
9
9
9
9
9
9
9
9
9
9
9
9
9
9
9
9
9
9
9
9
9
9
9
9
9
9
9
9
9
9
9
9
9
9
9
9
9
9
9
9
9
9
9
9
9
9
9
9
9
9
9
9
9
9
9
9
9
9
9
9
9
9
9
9
9
9
9
9
9
9
9
9
9
9
9
9
9
9
9
9
9
9
9
9
9
9
9
9
9
9
9
9
9
9
9
9
9
9
9
9
9
9
9
9
9
9
9
9
9
9
9
9
9
9
9
9
9
9
9
9
9
9
9
9
9
9
9
9
9
9
9
9
9
9
9
9
9
9
9
9
9
9
9
9
9
9
9
9
9
9
9
9
9
9
9
9
9
9
9
9
9
9
9
9
9
9
9
9
9
9
9
9
9
9
9
9
9
9
9
9
9
9
9
9
9
9
9
9
9
9
9
9
9
9
9
9
9
9
9
9
9
9
9
9
9
9
9
9
9
9
9
9
9
9
9
9
9
9
9
9
9
9
9
9
9
9
9
9
9
9
9
9
9
9
9
9
9
9
9
9
9
9
9
9
9
9
9
9
9
9
9
9
9
9
9
9
9
9
9
9
9
9
9
9
9
9
9
9
9
9
9
9
9
9
9
9
9
9
9
9
9
9
9
9
9
9
9
9
9
9
9
9
9
9
9
9
9
9
9
9
9
9
9
9
9
9
9
9
9
9
9
9
9
9
9
9
9
9
9
9
9
9
9
9
9
9
9
9
9
9
9
9
9
9
9
9
9
9
9
9
9
9
9
9
9
9
9
9
9
9
9
9
9
9
9
9
9
9
9
9
9
9
9
9
9
9
9
9
9
9
9
9
9
9
9
9
9
9
9
9
9
9
9
9
9
9
9
9
9
9
9
9
9
9
9
9
9
9
9
9
9
9
9
9
9
9
9
9
9
9
9
9
9
9
9
9
9
9
9
9
9
9
9
9
9
9
9
9
9
9
9
9
9
9
9
9
9
9
9
9
9
9
9
9
9
9
9
9
9
9
9
9
9
9
9
9
9
9
9
9
9
9
9
9
9
9
9
9
9
9
9
9
9
9
9
9
9
9
9
9
9
9
9
9
9
9
9
9
9
9
9
9
9
9
9
9
9
9
9
9
9
9
9
9
9
9
9
9
9
9
9
9
9
9
9
9
9
9
9
9
9
9
9
9
9
9
9
9
9
9
9
9
9
9
9
9
9
9
9
9
9
9
9
9
9
9
9
9
9
9
9
9
9
9
9
9
9
9
9
9
9
9
9
9
9
9
9
9
9
9
9
9
9
9
9
9
9
9
9
9
9
9
9
9
9
9
9
9
9
9
9
9
9
9
9
9
9
9
9
9
9
9
9
9
9
9
9
9
9
9
9
9
9
9
9
9
9
9
9
9
9
9
9
9
9
9
9
9
9
9
9
9
9
9
9
9
9
9
9
9
9
9
9
9
9
9
9
9
9
9
9
9
9
9
9
9
9
9
9
9
9
9
9
9
9
9
9
9
9
9
9
9
9
9
9
9
9
9
9
9
9
9
9
9
9
9
9
9
9
9
9
9
9
9
9
9
9
9
9
9
9
9
9
9
9
9
9
9
9
9
9
9
9
9
9
9
9
9
9
9
9
9
9
9
9
9
9
9
9
9
9
9
9
9
9
9
9
9
9
9
9
9
9
9
9
9
9
9
9
9
9
9
9
9
9
9
9
9
9
9
9
9
9
9
9
9
9
9
9
9
9
9
9
9
9
9
9
9
9
9
9
9
9
9
9
9
9
9
9
9
9
9
9
9
9
9
9
9
9
9
9
9
9
9
9
9
9
9
9
9
9
9
9
9
9
9
9
9
9
9
9
9
9
9
9
9
9
9
9
9
9
9
9
9
9
9
9
9
9
9
9
9
9
9
9
9
9
9
9
9
9
9
9
9
9
9
9
9
9
9
9
9
9
9
9
9
9
9
9
9
9
9
9
9
9
9
9
9
9
9
9
9
9
9
9
9
9
9
9
9
9
9
9
9
9
9
9
9
9
9
9
9
9
9
9
9
9
9
9
9
9
9
9
9
9
9
9
9
9
9
9
9
9
9
9
9
9
9
9
9
9
9
9
9
9
9
9
9
9
9
9
9
9
9
9
9
9
9
9
9
9
9
9
9
9
9
9
9
9
9
9
9
9
9
9
9
9
9
9
9
9
9
9
9
9
9
9
9
9
9
9
9
9
9
9
9
9
9
9
9
9
9
9
9
9
9
9
9
9
9
9
9
9
9
9
9
9
9
9
9
9
9
9
9
9
9
9
9
9
9
9
9
9
9
9
9
9
9
9
9
9
9
9
9
9
9
9
9
9
9
9
9
9
9
9
9
9
9
9
9
9
9
9
9
9
9
9
9
9
9
9
9
9
9
9
9
9
9
9
9
9
9
9
9
9
9
9
9
9
9
9
9
9
9
9
9
9
9
9
9
POINT_DATA 994
SCALARS u1 float
LOOKUP_TABLE default
-8e-05
-9e-05
-9e-05
-7e-05
-0.0001
-6e-05
-0.0001
-6e-05
-0.0001
-5e-05
-0.0001
-4e-05
-0.0001
-4e-05
-0.0002
-3e-05
-0.0002
-3e-05
-0.0002
-3e-05
-0.0002
-3e-05
-0.0002
-3e-05
-0.0003
-3e-05
-0.0003
-3e-05
-0.0003
-4e-05
-0.0003
-4e-05
-0.0003
-4e-05
-0.0004
-5e-05
-0.0004
-5e-05
-0.0004
-5e-05
-0.0005
-6e-05
-0.0005
-6e-05
-0.0005
-7e-05
-0.0005
-7e-05
-0.0005
-8e-05
-0.0006
-8e-05
-0.0006
-9e-05
-0.0006
-9e-05
-0.0006
-0.0001
-0.0006
-0.0001
-0.0006
-0.0001
-0.0006
-0.0001
-0.0006
-0.0006
-0.0001
-0.0006
-0.0001
-0.0006
-0.0001
-0.0006
-0.0001
-0.0006
-0.0001
-0.0006
-0.0002
-0.0006
-0.0002
-0.0005
-0.0002
-0.0005
-0.0002
-0.0005
-0.0002
-0.0005
-0.0002
-0.0005
-0.0002
-0.0004
-0.0002
-0.0004
-0.0004
-0.0002
-0.0002
-0.0004
-0.0002
-0.0004
-0.0002
-0.0003
-0.0002
-0.0003
-0.0002
-0.0003
-0.0001
-0.0003
-0.0001
-0.0003
-0.0001
-0.0003
-0.0001
-0.0003
-0.0001
-0.0002
-0.0002
-0.0002
-0.0002
-0.0002
-0.0002
-0.0002
-0.0002
-0.0002
-0.0002
-0.0002
-0.0002
-0.0002
-0.0002
-0.0002
-0.0002
-0.0002
-0.0002
-0.0002
-0.0002
-0.0002
-0.0002
-0.0002
-0.0002
-0.0002
-0.0002
-0.0002
-0.0002
-0.0002
-0.0002
-0.0003
-0.0002
-0.0003
-0.0002
-0.0003
-0.0002
-0.0003
-0.0002
-0.0003
-0.0002
-0.0003
-0.0002
-0.0003
-0.0002
-0.0003
-0.0002
-0.0003
-0.0002
-0.0003
-0.0002
-0.0003
-0.0002
-0.0003
-0.0003
-0.0003
-0.0003
-0.0003
-0.0003
-0.0003
-0.0003
-0.0003
-0.0003
-0.0003
-0.0003
-0.0003
-0.0003
-0.0004
-0.0003
-0.0003
-0.0003
-0.0003
-0.0003
-0.0003
-0.0003
-0.0003
-0.0003
-0.0003
-0.0004
-0.0003
-0.0004
-0.0003
-0.0004
-0.0003
-0.0004
-0.0003
-0.0004
-0.0003
-0.0004
-0.0003
-0.0004
-0.0003
-0.0004
-0.0003
-0.0004
-0.0003
-0.0004
-0.0003
-0.0004
-0.0002
-0.0004
-0.0002
-0.0004
-0.0002
-0.0004
-0.0002
-0.0004
-0.0002
-0.0004
-0.0002
-0.0004
-0.0001
-0.0004
-0.0001
-0.0004
-0.0001
-0.0004
-7e-05
-0.0004
-5e-05
-0.0004
-3e-05
-0.0004
-1e-05
-0.0004
7e-06
-0.0004
3e-05
-0.0004
4e-05
-0.0004
6e-05
-0.0004
7e-05
-0.0004
8e-05
-0.0004
9e-05
-0.0004
0.0001
-0.0004
0.0001
-0.0004
0.0001
-0.0004
9e-05
-0.0004
9e-05
-0.0004
8e-05
-0.0005
6e-05
-0.0005
5e-05
-0.0005
3e-05
-0.0005
8e-06
-0.0005
-1e-05
-0.0005
-4e-05
-0.0005
-6e-05
-0.0005
-9e-05
-0.0005
-0.0001
-0.0005
-0.0001
-0.0005
-0.0002
-0.0005
-0.0002
-0.0005
-0.0002
-0.0005
-0.0002
-0.0005
-0.0003
-0.0005
-0.0003
-0.0005
-0.0003
-0.0005
-0.0003
-0.0005
-0.0004
-0.0005
-0.0004
-0.0005
-0.0004
-0.0005
-0.0004
-0.0005
-0.0004
-0.0005
-0.0004
-0.0005
-0.0004
-0.0005
-0.0004
-0.0005
-0.0005
-0.0005
-0.0001
-8e-05
-0.0001
-7e-05
-0.0001
-6e-05
-0.0001
-6e-05
-0.0001
-5e-05
-0.0002
-4e-05
-0.0002
-4e-05
-0.0002
-3e-05
-0.0002
-3e-05
-0.0002
-3e-05
-0.0003
-3e-05
-0.0003
-3e-05
-0.0003
-3e-05
-0.0003
-3e-05
-0.0003
-4e-05
-0.0004
-4e-05
-0.0004
-4e-05
-0.0004
-4e-05
-0.0004
-5e-05
-0.0005
-5e-05
-0.0005
-5e-05
-0.0005
-6e-05
-0.0005
-6e-05
-0.0006
-7e-05
-0.0006
-7e-05
-0.0006
-8e-05
-0.0006
-8e-05
-0.0006
-9e-05
-0.0006
-9e-05
-0.0006
-0.0001
-0.0006
-0.0001
-0.0006
-0.0001
-0.0006
-0.0001
-0.0006
-0.0001
-0.0006
-0.0001
-0.0006
-0.0001
-0.0006
-0.0001
-0.0005
-0.0001
-0.0005
-0.0001
-0.0005
-0.0001
-0.0005
-0.0001
-0.0005
-0.0002
-0.0005
-0.0002
-0.0004
-0.0002
-0.0004
-0.0002
-0.0004
-0.0002
-0.0004
-0.0002
-0.0004
-0.0002
-0.0003
-0.0002
-0.0003
-0.0002
-0.0003
-0.0002
-0.0003
-0.0002
-0.0003
-0.0002
-0.0003
-0.0002
-0.0003
-0.0002
-0.0002
-0.0002
-0.0002
-0.0002
-0.0002
-0.0002
-0.0002
-0.0002
-0.0002
-0.0002
-0.0002
-0.0002
-0.0002
-0.0002
-0.0002
-0.0002
-0.0002
-0.0002
-0.0002
-0.0002
-0.0002
-0.0002
-0.0002
-0.0003
-0.0002
-0.0003
-0.0002
-0.0003
-0.0002
-0.0003
-0.0002
-0.0003
-0.0002
-0.0003
-0.0002
-0.0003
-0.0002
-0.0003
-0.0002
-0.0003
-0.0002
-0.0003
-0.0002
-0.0003
-0.0002
-0.0003
-0.0002
-0.0003
-0.0002
-0.0003
-0.0002
-0.0003
-0.0003
-0.0003
-0.0003
-0.0003
-0.0003
-0.0003
-0.0003
-0.0004
-0.0003
-0.0004
-0.0003
-0.0004
-0.0003
-0.0003
-0.0003
-0.0003
-0.0003
-0.0003
-0.0003
-0.0003
-0.0003
-0.0003
-0.0003
-0.0003
-0.0003
-0.0003
-0.0003
-0.0003
-0.0004
-0.0003
-0.0004
-0.0003
-0.0004
-0.0003
-0.0004
-0.0003
-0.0004
-0.0003
-0.0004
-0.0003
-0.0004
-0.0002
-0.0004
-0.0002
-0.0004
-0.0002
-0.0004
-0.0002
-0.0004
-0.0002
-0.0004
-0.0002
-0.0004
-0.0001
-0.0004
-0.0001
-0.0004
-0.0001
-0.0004
-8e-05
-0.0004
-5e-05
-0.0004
-3e-05
-0.0004
-1e-05
-0.0004
7e-06
-0.0004
2e-05
-0.0004
4e-05
-0.0004
6e-05
-0.0004
7e-05
-0.0004
8e-05
-0.0004
9e-05
-0.0004
0.0001
-0.0004
0.0001
-0.0004
0.0001
-0.0005
9e-05
-0.0005
9e-05
-0.0005
8e-05
-0.0005
6e-05
-0.0005
5e-05
-0.0005
3e-05
-0.0005
7e-06
-0.0005
-1e-05
-0.0005
-4e-05
-0.0005
-6e-05
-0.0005
-9e-05
-0.0005
-0.0001
-0.0005
-0.0001
-0.0005
-0.0002
-0.0005
-0.0002
-0.0005
-0.0002
-0.0005
-0.0002
-0.0005
-0.0003
-0.0005
-0.0003
-0.0005
-0.0003
-0.0005
-0.0003
-0.0005
-0.0004
-0.0005
-0.0004
-0.0005
-0.0004
-0.0005
-0.0004
-0.0005
-0.0004
-0.0005
-0.0004
-0.0005
-0.0004
-0.0004
-0.0005
-0.0005
-9e-05
-8e-05
-0.0001
-7e-05
-0.0001
-6e-05
-0.0001
-6e-05
-0.0001
-5e-05
-0.0001
-4e-05
-0.0002
-0.0002
-4e-05
-0.0002
-0.0002
-3e-05
-0.0002
-0.0002
-3e-05
-0.0002
-0.0002
-3e-05
-0.0002
-0.0002
-3e-05
-0.0003
-0.0003
-3e-05
-0.0003
-0.0003
-3e-05
-0.0003
-0.0003
-3e-05
-0.0003
-4e-05
-0.0004
-4e-05
-0.0004
-4e-05
-0.0004
-5e-05
-0.0004
-5e-05
-0.0005
-5e-05
-0.0005
-6e-05
-0.0005
-6e-05
-0.0005
-6e-05
-0.0005
-7e-05
-7e-05
-0.0006
-8e-05
-8e-05
-0.0006
-8e-05
-8e-05
-0.0006
-9e-05
-9e-05
-9e-05
-0.0001
-0.0006
-0.0001
-0.0001
-0.0006
-0.0001
-0.0001
-0.0006
-0.0001
-0.0001
-0.0006
-0.0001
-0.0006
-0.0001
-0.0006
-0.0001
-0.0006
-0.0001
-0.0006
-0.0001
-0.0006
-0.0001
-0.0006
-0.0001
-0.0005
-0.0002
-0.0005
-0.0002
-0.0005
-0.0002
-0.0005
-0.0002
-0.0005
-0.0002
-0.0004
-0.0002
-0.0004
-0.0004
-0.0004
-0.0002
-0.0004
-0.0004
-0.0002
-0.0003
-0.0004
-0.0002
-0.0003
-0.0003
-0.0002
-0.0003
-0.0003
-0.0002
-0.0003
-0.0003
-0.0002
-0.0003
-0.0003
-0.0002
-0.0003
-0.0003
-0.0002
-0.0003
-0.0002
-0.0003
-0.0002
-0.0002
-0.0002
-0.0002
-0.0002
-0.0002
-0.0002
-0.0002
-0.0002
-0.0002
-0.0002
-0.0002
-0.0002
-0.0002
-0.0002
-0.0002
-0.0002
-0.0002
-0.0002
-0.0002
-0.0002
-0.0002
-0.0002
-0.0002
-0.0002
-0.0002
-0.0002
-0.0002
-0.0002
-0.0002
-0.0002
-0.0002
-0.0002
-0.0002
-0.0003
-0.0003
-0.0002
-0.0003
-0.0003
-0.0002
-0.0003
-0.0002
-0.0003
-0.0002
-0.0003
-0.0002
-0.0003
-0.0002
-0.0003
-0.0002
-0.0003
-0.0002
-0.0003
-0.0002
-0.0003
-0.0002
-0.0003
-0.0002
-0.0003
-0.0002
-0.0003
-0.0003
-0.0003
-0.0003
-0.0003
-0.0003
-0.0003
-0.0003
-0.0003
-0.0003
-0.0003
-0.0003
-0.0003
-0.0003
-0.0003
-0.0003
-0.0004
-0.0003
-0.0003
-0.0004
-0.0003
-0.0003
-0.0003
-0.0003
-0.0003
-0.0003
-0.0003
-0.0003
-0.0003
-0.0003
-0.0003
-0.0003
-0.0003
-0.0004
-0.0003
-0.0004
-0.0003
-0.0004
-0.0003
-0.0004
-0.0003
-0.0004
-0.0003
-0.0004
-0.0003
-0.0004
-0.0003
-0.0004
-0.0003
-0.0003
-0.0004
-0.0003
-0.0003
-0.0004
-0.0002
-0.0002
-0.0004
-0.0002
-0.0002
-0.0004
-0.0002
-0.0002
-0.0004
-0.0002
-0.0002
-0.0004
-0.0002
-0.0002
-0.0004
-0.0002
-0.0001
-0.0004
-0.0001
-0.0004
-0.0001
-0.0004
-9e-05
-0.0004
-6e-05
-0.0004
-4e-05
-0.0004
-2e-05
-0.0004
-7e-06
-0.0004
2e-05
-0.0004
3e-05
-0.0004
5e-05
-0.0004
7e-05
-0.0004
8e-05
-0.0004
8e-05
-0.0004
9e-05
-0.0004
0.0001
-0.0004
-0.0004
0.0001
-0.0004
-0.0004
0.0001
-0.0004
-0.0004
9e-05
-0.0004
-0.0005
8e-05
-0.0005
-0.0005
7e-05
-0.0005
-0.0005
5e-05
-0.0005
-0.0005
4e-05
-0.0005
2e-05
-0.0005
-3e-06
-0.0005
-3e-05
-0.0005
-5e-05
-0.0005
-7e-05
-0.0005
-0.0001
-0.0005
-0.0001
-0.0005
-0.0002
-0.0005
-0.0002
-0.0005
-0.0002
-0.0005
-0.0002
-0.0002
-0.0005
-0.0002
-0.0003
-0.0005
-0.0003
-0.0003
-0.0005
-0.0003
-0.0003
-0.0005
-0.0003
-0.0003
-0.0005
-0.0003
-0.0003
-0.0005
-0.0004
-0.0004
-0.0005
-0.0004
-0.0005
-0.0004
-0.0005
-0.0004
-0.0005
-0.0004
-0.0005
-0.0004
-0.0005
-0.0004
-0.0005
-0.0004
-0.0005
-0.0005
SCALARS u2 float
LOOKUP_TABLE default
-0.0002
-0.0002
-0.0002
-0.0002
-0.0002
-0.0002
-0.0002
-0.0002
-0.0003
-0.0002
-0.0003
-0.0002
-0.0003
-0.0002
-0.0003
-0.0002
-0.0003
-0.0002
-0.0003
-0.0002
-0.0003
-0.0002
-0.0003
-0.0002
-0.0003
-0.0002
-0.0003
-0.0002
-0.0003
-0.0002
-0.0003
-0.0002
-0.0004
-0.0002
-0.0004
-0.0002
-0.0004
-0.0002
-0.0004
-0.0002
-0.0004
-0.0002
-0.0004
-0.0002
-0.0004
-0.0002
-0.0004
-0.0002
-0.0004
-0.0003
-0.0004
-0.0003
-0.0004
-0.0003
-0.0004
-0.0003
-0.0004
-0.0003
-0.0004
-0.0003
-0.0004
-0.0003
-0.0004
-0.0004
-0.0004
-0.0004
-0.0004
-0.0004
-0.0004
-0.0004
-0.0004
-0.0004
-0.0004
-0.0004
-0.0005
-0.0004
-0.0005
-0.0004
-0.0005
-0.0004
-0.0005
-0.0004
-0.0005
-0.0004
-0.0006
-0.0004
-0.0006
-0.0004
-0.0006
-0.0004
-0.0006
-0.0004
-0.0004
-0.0006
-0.0006
-0.0004
-0.0006
-0.0004
-0.0006
-0.0004
-0.0006
-0.0004
-0.0006
-0.0004
-0.0006
-0.0004
-0.0006
-0.0005
-0.0006
-0.0005
-0.0005
-0.0005
-0.0005
-0.0005
-0.0005
-0.0005
-0.0005
-0.0005
-0.0005
-0.0005
-0.0004
-0.0005
-0.0004
-0.0005
-0.0004
-0.0005
-0.0004
-0.0005
-0.0003
-0.0003
-0.0005
-0.0003
-0.0005
-0.0003
-0.0005
-0.0002
-0.0005
-0.0002
-0.0005
-0.0002
-0.0005
-0.0002
-0.0005
-0.0002
-0.0005
-0.0001
-0.0005
-0.0001
-0.0005
-0.0001
-0.0005
-0.0001
-0.0005
-0.0001
-0.0005
-9e-05
-0.0005
-8e-05
-0.0005
-7e-05
-0.0004
-6e-05
-0.0004
-5e-05
-0.0004
-4e-05
-0.0004
-3e-05
-0.0004
-3e-05
-0.0004
-2e-05
-0.0004
-2e-05
-0.0004
-2e-05
-0.0003
-2e-05
-0.0003
-2e-05
-0.0003
-2e-05
-0.0003
-2e-05
-0.0003
-2e-05
-0.0002
-2e-05
-0.0002
-3e-05
-0.0002
-3e-05
-0.0002
-3e-05
-0.0001
-4e-05
-0.0001
-4e-05
-8e-05
-5e-05
-6e-05
-5e-05
-3e-05
-6e-05
-1e-05
-6e-05
1e-05
-7e-05
3e-05
-7e-05
5e-05
-8e-05
6e-05
-9e-05
8e-05
-9e-05
9e-05
-0.0001
9e-05
-0.0001
0.0001
-0.0001
0.0001
-0.0001
9e-05
-0.0001
9e-05
-0.0001
8e-05
-0.0001
7e-05
-0.0001
5e-05
-0.0001
4e-05
-0.0002
2e-05
-0.0002
5e-06
-0.0002
-1e-05
-0.0002
-3e-05
-0.0002
-6e-05
-0.0002
-8e-05
-0.0002
-0.0001
-0.0002
-0.0001
-0.0002
-0.0001
-0.0002
-0.0002
-0.0001
-0.0002
-0.0001
-0.0002
-0.0001
-0.0002
-0.0001
-0.0002
-0.0001
-0.0002
-0.0001
-0.0003
-0.0001
-0.0003
-0.0001
-0.0003
-0.0001
-0.0003
-0.0001
-0.0003
-0.0002
-0.0003
-0.0002
-0.0003
-0.0002
-0.0003
-0.0002
-0.0003
-0.0002
-0.0003
-0.0002
-0.0003
-0.0002
-0.0003
-0.0002
-0.0003
-0.0002
-0.0004
-0.0002
-0.0004
-0.0002
-0.0004
-0.0002
-0.0004
-0.0002
-0.0004
-0.0003
-0.0003
-0.0003
-0.0003
-0.0003
-0.0003
-0.0003
-0.0003
-0.0003
-0.0003
-0.0003
-0.0003
-0.0003
-0.0003
-0.0003
-0.0003
-0.0002
-0.0002
-0.0002
-0.0002
-0.0002
-0.0002
-0.0002
-0.0002
-0.0003
-0.0002
-0.0003
-0.0002
-0.0003
-0.0002
-0.0003
-0.0002
-0.0003
-0.0002
-0.0003
-0.0002
-0.0003
-0.0002
-0.0003
-0.0002
-0.0003
-0.0002
-0.0003
-0.0002
-0.0003
-0.0002
-0.0003
-0.0002
-0.0003
-0.0002
-0.0003
-0.0002
-0.0004
-0.0002
-0.0004
-0.0002
-0.0004
-0.0002
-0.0004
-0.0002
-0.0004
-0.0003
-0.0004
-0.0003
-0.0004
-0.0003
-0.0004
-0.0003
-0.0004
-0.0003
-0.0004
-0.0003
-0.0004
-0.0003
-0.0004
-0.0004
-0.0004
-0.0004
-0.0004
-0.0004
-0.0004
-0.0004
-0.0004
-0.0004
-0.0004
-0.0005
-0.0004
-0.0005
-0.0004
-0.0005
-0.0004
-0.0005
-0.0004
-0.0005
-0.0004
-0.0006
-0.0004
-0.0006
-0.0004
-0.0006
-0.0004
-0.0006
-0.0004
-0.0006
-0.0004
-0.0006
-0.0004
-0.0006
-0.0004
-0.0006
-0.0004
-0.0006
-0.0004
-0.0006
-0.0005
-0.0006
-0.0005
-0.0006
-0.0005
-0.0006
-0.0005
-0.0005
-0.0005
-0.0005
-0.0005
-0.0005
-0.0005
-0.0005
-0.0005
-0.0005
-0.0005
-0.0004
-0.0005
-0.0004
-0.0005
-0.0004
-0.0005
-0.0004
-0.0005
-0.0003
-0.0005
-0.0003
-0.0005
-0.0003
-0.0005
-0.0003
-0.0005
-0.0002
-0.0005
-0.0002
-0.0005
-0.0002
-0.0005
-0.0002
-0.0005
-0.0002
-0.0005
-0.0001
-0.0005
-0.0001
-0.0005
-0.0001
-0.0005
-0.0001
-0.0005
-0.0001
-0.0005
-8e-05
-0.0004
-8e-05
-0.0004
-7e-05
-0.0004
-6e-05
-0.0004
-5e-05
-0.0004
-4e-05
-0.0004
-3e-05
-0.0004
-3e-05
-0.0004
-2e-05
-0.0003
-2e-05
-0.0003
-2e-05
-0.0003
-2e-05
-0.0003
-2e-05
-0.0003
-2e-05
-0.0002
-2e-05
-0.0002
-2e-05
-0.0002
-2e-05
-0.0002
-3e-05
-0.0001
-3e-05
-0.0001
-3e-05
-8e-05
-4e-05
-6e-05
-4e-05
-3e-05
-4e-05
-1e-05
-5e-05
1e-05
-5e-05
3e-05
-6e-05
5e-05
-6e-05
6e-05
-7e-05
8e-05
-7e-05
9e-05
-8e-05
9e-05
-9e-05
0.0001
-9e-05
0.0001
-0.0001
9e-05
-0.0001
9e-05
-0.0001
8e-05
-0.0001
7e-05
-0.0001
5e-05
-0.0001
4e-05
-0.0001
2e-05
-0.0001
4e-06
-0.0001
-2e-05
-0.0001
-4e-05
-0.0001
-6e-05
-0.0001
-8e-05
-0.0001
-0.0001
-0.0001
-0.0001
-0.0001
-0.0001
-0.0002
-0.0002
-0.0002
-0.0002
-0.0002
-0.0002
-0.0002
-0.0002
-0.0002
-0.0002
-0.0002
-0.0003
-0.0002
-0.0003
-0.0002
-0.0003
-0.0002
-0.0003
-0.0002
-0.0003
-0.0002
-0.0003
-0.0002
-0.0003
-0.0002
-0.0003
-0.0002
-0.0003
-0.0002
-0.0003
-0.0002
-0.0003
-0.0002
-0.0003
-0.0002
-0.0003
-0.0002
-0.0003
-0.0002
-0.0004
-0.0002
-0.0004
-0.0002
-0.0004
-0.0003
-0.0004
-0.0003
-0.0004
-0.0003
-0.0003
-0.0003
-0.0003
-0.0003
-0.0003
-0.0003
-0.0003
-0.0003
-0.0003
-0.0003
-0.0003
-0.0003
-0.0003
-0.0002
-0.0002
-0.0002
-0.0002
-0.0002
-0.0002
-0.0002
-0.0002
-0.0003
-0.0002
-0.0003
-0.0002
-0.0003
-0.0003
-0.0002
-0.0003
-0.0003
-0.0002
-0.0003
-0.0003
-0.0002
-0.0003
-0.0003
-0.0002
-0.0003
-0.0003
-0.0002
-0.0003
-0.0003
-0.0002
-0.0003
-0.0003
-0.0002
-0.0003
-0.0003
-0.0002
-0.0003
-0.0002
-0.0003
-0.0002
-0.0003
-0.0002
-0.0004
-0.0002
-0.0004
-0.0002
-0.0004
-0.0002
-0.0004
-0.0002
-0.0004
-0.0002
-0.0004
-0.0002
-0.0004
-0.0003
-0.0003
-0.0004
-0.0003
-0.0003
-0.0004
-0.0003
-0.0003
-0.0004
-0.0003
-0.0003
-0.0003
-0.0003
-0.0004
-0.0003
-0.0003
-0.0004
-0.0004
-0.0004
-0.0004
-0.0004
-0.0004
-0.0004
-0.0004
-0.0004
-0.0004
-0.0004
-0.0004
-0.0004
-0.0005
-0.0004
-0.0005
-0.0004
-0.0005
-0.0004
-0.0005
-0.0004
-0.0005
-0.0004
-0.0006
-0.0004
-0.0006
-0.0004
-0.0006
-0.0004
-0.0006
-0.0004
-0.0006
-0.0004
-0.0004
-0.0004
-0.0006
-0.0004
-0.0004
-0.0006
-0.0004
-0.0004
-0.0006
-0.0004
-0.0004
-0.0006
-0.0004
-0.0004
-0.0006
-0.0005
-0.0005
-0.0006
-0.0005
-0.0005
-0.0006
-0.0005
-0.0005
-0.0006
-0.0005
-0.0005
-0.0005
-0.0005
-0.0005
-0.0005
-0.0005
-0.0005
-0.0005
-0.0004
-0.0005
-0.0004
-0.0005
-0.0004
-0.0005
-0.0004
-0.0005
-0.0003
-0.0005
-0.0003
-0.0003
-0.0005
-0.0003
-0.0003
-0.0005
-0.0003
-0.0003
-0.0005
-0.0002
-0.0002
-0.0005
-0.0002
-0.0002
-0.0005
-0.0002
-0.0002
-0.0005
-0.0002
-0.0002
-0.0005
-0.0002
-0.0002
-0.0005
-0.0001
-0.0005
-0.0001
-0.0005
-0.0001
-0.0005
-0.0001
-0.0005
-0.0001
-0.0005
-9e-05
-0.0005
-8e-05
-0.0004
-7e-05
-0.0004
-6e-05
-0.0004
-5e-05
-0.0004
-4e-05
-0.0004
-3e-05
-0.0004
-3e-05
-0.0004
-0.0004
-2e-05
-0.0004
-0.0003
-2e-05
-0.0003
-0.0003
-2e-05
-0.0003
-0.0003
-2e-05
-0.0003
-0.0003
-2e-05
-0.0003
-0.0003
-2e-05
-0.0003
-0.0002
-2e-05
-0.0002
-0.0002
-2e-05
-0.0002
-2e-05
-0.0002
-3e-05
-0.0001
-3e-05
-0.0001
-3e-05
-9e-05
-4e-05
-7e-05
-4e-05
-5e-05
-4e-05
-3e-05
-5e-05
-1e-07
-5e-05
2e-05
-6e-05
-6e-05
4e-05
-7e-05
-7e-05
6e-05
-7e-05
-7e-05
7e-05
-8e-05
-8e-05
8e-05
-8e-05
-9e-05
9e-05
-9e-05
-9e-05
0.0001
-0.0001
-0.0001
0.0001
-0.0001
-0.0001
0.0001
-0.0001
9e-05
-0.0001
8e-05
-0.0001
7e-05
-0.0001
6e-05
-0.0001
5e-05
-0.0001
3e-05
-0.0001
1e-05
-0.0001
-9e-06
-0.0001
-3e-05
-0.0001
-5e-05
-0.0002
-7e-05
-0.0002
-9e-05
-0.0002
-0.0001
-0.0002
-0.0001
-0.0002
-0.0001
-0.0002
-0.0002
-0.0002
-0.0002
-0.0001
-0.0002
-0.0002
-0.0001
-0.0002
-0.0002
-0.0001
-0.0002
-0.0002
-0.0001
-0.0002
-0.0002
-0.0002
-0.0003
-0.0003
-0.0002
-0.0003
-0.0002
-0.0003
-0.0002
-0.0003
-0.0002
-0.0003
-0.0002
-0.0003
-0.0002
-0.0003
-0.0002
-0.0003
-0.0002
-0.0003
-0.0002
-0.0003
-0.0002
-0.0003
-0.0002
-0.0003
-0.0002
-0.0002
-0.0003
-0.0002
-0.0002
-0.0003
-0.0002
-0.0002
-0.0004
-0.0002
-0.0002
-0.0004
-0.0002
-0.0002
-0.0004
-0.0002
-0.0003
-0.0004
-0.0003
-0.0003
-0.0004
-0.0003
-0.0003
-0.0003
-0.0003
-0.0003
-0.0003
-0.0003
-0.0003
-0.0003
-0.0003
-0.0003
-0.0003
-0.0003
-0.0003
-0.0003
SCALARS strain_1 float
LOOKUP_TABLE default
-0.000536
-0.000352
0.000334
-0.001378
0.001240
-0.002190
0.002193
-0.002958
0.003205
-0.003673
0.004228
-0.004373
0.005289
-0.005008
0.006398
-0.005625
0.007524
-0.006202
0.008708
-0.006756
0.009930
-0.007236
0.011169
-0.007698
0.012424
-0.008133
0.013743
-0.008548
0.015080
-0.008893
0.016434
-0.009215
0.017851
-0.009515
0.019241
-0.009769
0.020710
-0.009997
0.022191
-0.010199
0.023692
-0.010373
0.025192
-0.010510
0.026730
-0.010620
0.028295
-0.010722
0.029863
-0.010747
0.031470
-0.010796
0.033065
-0.010798
0.034685
-0.010771
0.036299
-0.010728
0.037949
-0.010675
0.039572
-0.010588
0.041224
-0.010504
0.042872
0.044527
-0.010376
0.046157
-0.010228
0.047795
-0.010087
0.049431
-0.009913
0.051048
-0.009730
0.052659
-0.009522
0.054253
-0.009319
0.055845
-0.009101
0.057418
-0.008877
0.058962
-0.008630
0.060483
-0.008405
0.061982
-0.008126
0.063446
-0.007873
0.064900
0.066320
-0.007603
-0.007348
0.067692
-0.007081
0.069039
-0.006789
0.070335
-0.006531
0.071598
-0.006250
0.072842
-0.005978
0.074024
-0.005716
0.075156
-0.005433
0.076254
-0.005148
0.077291
-0.004894
0.078288
-0.004644
0.079257
-0.004380
0.080121
-0.004132
0.080953
-0.003898
0.081740
-0.003643
0.082459
-0.003415
0.083141
-0.003196
0.083741
-0.002981
-0.002782
0.084286
-0.002587
0.084753
-0.002402
0.085182
-0.002212
0.085547
-0.002072
0.085842
-0.001895
0.086076
-0.001754
0.086244
-0.001616
0.086346
-0.001510
0.086401
-0.001376
0.086367
-0.001276
0.086287
-0.001198
0.086145
-0.001130
0.085925
-0.001051
0.085663
-0.001003
0.085320
-0.000954
0.084917
-0.000938
0.084442
-0.000911
0.083939
-0.000896
0.083345
-0.000893
0.082698
-0.000906
0.082010
-0.000944
0.081251
-0.000964
0.080443
-0.001012
0.079589
-0.001084
0.078679
-0.001132
0.077713
-0.001202
0.076716
-0.001287
0.075645
-0.001381
0.074548
-0.001479
0.073406
-0.001597
0.072214
-0.001700
0.071006
-0.001810
0.069735
-0.001931
0.068437
-0.002094
0.067099
-0.002222
0.065732
-0.002376
0.064336
-0.002540
0.062923
-0.002689
0.061488
-0.002852
0.060028
-0.003005
0.058535
-0.003184
0.057035
-0.003350
0.055517
-0.003531
0.053991
-0.003700
0.052450
-0.003885
0.050894
-0.004044
0.049330
-0.004241
0.047780
-0.004422
0.046206
-0.004602
0.044655
-0.004794
0.043072
-0.004951
0.041522
-0.005149
0.039968
-0.005303
0.038415
-0.005480
0.036874
-0.005653
0.035346
-0.005808
0.033831
-0.005977
0.032325
-0.006128
0.030846
-0.006300
0.029375
-0.006443
0.027918
-0.006597
0.026509
-0.006702
0.025104
-0.006847
0.023723
-0.006975
0.022361
-0.007061
0.021030
-0.007168
0.019720
-0.007266
0.018439
-0.007348
0.017204
-0.007409
0.015967
-0.007467
0.014786
-0.007509
0.013614
-0.007545
0.012494
-0.007574
0.011403
-0.007580
0.010332
-0.007568
0.009307
-0.007536
0.008305
-0.007494
0.007342
-0.007449
0.006416
-0.007370
0.005499
-0.007284
0.004640
-0.007165
0.003799
-0.007026
0.003014
-0.006895
0.002242
-0.006722
0.001521
-0.006526
0.000816
-0.006304
0.000142
-0.006045
-0.000487
-0.005774
-0.001108
-0.005488
-0.001675
-0.005192
-0.002218
-0.004851
-0.002723
-0.004471
-0.003200
-0.004085
-0.003661
0.000532
-0.001228
0.001474
-0.002023
0.002425
-0.002790
0.003442
-0.003540
0.004483
-0.004247
0.005552
-0.004902
0.006685
-0.005515
0.007831
-0.006102
0.009022
-0.006662
0.010228
-0.007163
0.011491
-0.007626
0.012786
-0.008071
0.014099
-0.008468
0.015444
-0.008820
0.016828
-0.009160
0.018221
-0.009456
0.019658
-0.009725
0.021121
-0.009962
0.022608
-0.010160
0.024102
-0.010311
0.025643
-0.010482
0.027174
-0.010579
0.028742
-0.010670
0.030306
-0.010719
0.031916
-0.010759
0.033516
-0.010762
0.035135
-0.010740
0.036751
-0.010713
0.038374
-0.010649
0.039999
-0.010560
0.041634
-0.010470
0.043267
-0.010348
0.044890
-0.010202
0.046514
-0.010052
0.048124
-0.009893
0.049732
-0.009708
0.051333
-0.009522
0.052919
-0.009323
0.054482
-0.009084
0.056016
-0.008851
0.057540
-0.008631
0.059040
-0.008389
0.060517
-0.008141
0.061958
-0.007882
0.063388
-0.007635
0.064766
-0.007359
0.066123
-0.007089
0.067429
-0.006834
0.068716
-0.006570
0.069950
-0.006293
0.071136
-0.006029
0.072279
-0.005762
0.073385
-0.005502
0.074446
-0.005256
0.075431
-0.005000
0.076392
-0.004741
0.077306
-0.004511
0.078121
-0.004254
0.078917
-0.004033
0.079653
-0.003802
0.080308
-0.003586
0.080913
-0.003374
0.081470
-0.003180
0.081967
-0.003013
0.082383
-0.002817
0.082746
-0.002630
0.083022
-0.002482
0.083277
-0.002332
0.083443
-0.002213
0.083547
-0.002081
0.083582
-0.001964
0.083570
-0.001862
0.083456
-0.001766
0.083311
-0.001677
0.083096
-0.001601
0.082813
-0.001557
0.082475
-0.001499
0.082058
-0.001474
0.081589
-0.001452
0.081056
-0.001432
0.080470
-0.001427
0.079821
-0.001445
0.079110
-0.001456
0.078353
-0.001479
0.077524
-0.001541
0.076664
-0.001581
0.075746
-0.001657
0.074769
-0.001700
0.073749
-0.001785
0.072685
-0.001871
0.071563
-0.001969
0.070413
-0.002080
0.069228
-0.002178
0.067967
-0.002302
0.066717
-0.002435
0.065402
-0.002569
0.064070
-0.002695
0.062710
-0.002844
0.061296
-0.002994
0.059889
-0.003153
0.058441
-0.003303
0.056974
-0.003458
0.055495
-0.003615
0.053995
-0.003789
0.052470
-0.003976
0.050963
-0.004134
0.049415
-0.004311
0.047871
-0.004490
0.046331
-0.004662
0.044785
-0.004827
0.043226
-0.005005
0.041669
-0.005179
0.040135
-0.005357
0.038595
-0.005537
0.037069
-0.005685
0.035530
-0.005849
0.034031
-0.006019
0.032531
-0.006173
0.031039
-0.006325
0.029567
-0.006470
0.028115
-0.006604
0.026679
-0.006739
0.025251
-0.006884
0.023880
-0.006984
0.022508
-0.007103
0.021175
-0.007210
0.019869
-0.007296
0.018591
-0.007372
0.017322
-0.007438
0.016096
-0.007506
0.014887
-0.007561
0.013724
-0.007591
0.012571
-0.007625
0.011485
-0.007617
0.010408
-0.007619
0.009353
-0.007593
0.008341
-0.007567
0.007381
-0.007491
0.006447
-0.007435
0.005539
-0.007329
0.004648
-0.007222
0.003814
-0.007101
0.003013
-0.006947
0.002240
-0.006770
0.001486
-0.006576
0.000776
-0.006350
0.000114
-0.006127
-0.000532
-0.005853
-0.001132
-0.005561
-0.001715
-0.005251
-0.002277
-0.004904
-0.002779
-0.004527
-0.004138
-0.003243
-0.003702
0.000172
-0.000879
0.000921
-0.001700
0.001840
-0.002493
0.002798
-0.003249
0.003827
-0.003965
0.004889
-0.004636
0.005928
0.006784
-0.005338
0.007936
0.007364
-0.005877
0.009125
0.008573
-0.006434
0.009771
0.010388
-0.006925
0.011036
0.011657
-0.007343
0.012935
0.012273
-0.007887
0.013577
0.014263
-0.008318
0.015722
0.014913
-0.008682
0.016705
-0.009024
0.018057
-0.009345
0.019453
-0.009666
0.020912
-0.009872
0.022387
-0.010081
0.023884
-0.010263
0.025367
-0.010411
0.026632
-0.010540
0.028523
-0.010655
0.030098
-0.010714
-0.010738
0.031688
-0.010772
-0.010771
0.033287
-0.010768
-0.010776
0.034893
-0.010759
-0.010758
-0.010731
-0.010708
0.036878
-0.010675
-0.010632
0.038381
-0.010600
-0.010560
0.040034
-0.010508
-0.010435
0.041715
-0.010353
0.043870
-0.010224
0.046657
-0.010069
0.047989
-0.009900
0.049266
-0.009715
0.051193
-0.009537
0.052785
-0.009365
0.054371
-0.009091
0.056217
-0.008861
0.057526
-0.008635
0.058990
-0.008339
0.060501
-0.008127
0.061972
-0.007933
0.063432
0.064775
0.065848
-0.007457
0.067239
0.066551
-0.007128
0.068607
0.067903
-0.006851
0.069231
0.069852
-0.006572
0.070474
0.071113
-0.006327
0.071657
0.072283
-0.006007
0.072852
0.073474
-0.005723
0.073961
0.074676
-0.005475
0.075389
-0.005208
0.076367
-0.004941
0.077318
-0.004653
0.078234
-0.004456
0.079101
-0.004187
0.079917
-0.003951
0.080637
-0.003737
0.081219
-0.003503
0.082020
-0.003294
0.082593
-0.003100
-0.002937
0.083116
-0.002835
-0.002733
0.083561
-0.002660
-0.002558
0.083965
-0.002460
-0.002376
0.084365
-0.002295
-0.002222
0.084547
-0.002094
-0.002157
0.084733
-0.002028
-0.001944
0.084893
-0.001814
-0.001896
0.084966
-0.001720
0.084986
-0.001626
0.084916
-0.001538
0.084798
-0.001453
0.084617
-0.001377
0.084376
-0.001319
0.084055
-0.001265
0.083598
-0.001208
0.083232
-0.001187
0.082761
-0.001176
0.082190
-0.001174
0.081581
-0.001178
0.080918
-0.001197
0.080213
0.079739
-0.001221
0.079161
0.078789
-0.001258
0.078292
0.077909
-0.001295
0.077003
0.077406
-0.001355
0.076481
0.076007
-0.001409
0.075004
0.075492
-0.001493
0.074406
0.073883
-0.001597
0.072767
0.073282
-0.001695
0.071855
-0.001770
0.070722
-0.001888
0.069478
-0.002026
0.068204
-0.002147
0.066928
-0.002267
0.065586
-0.002382
0.064242
-0.002551
0.063098
-0.002685
0.061401
-0.002837
0.059956
-0.002981
-0.003080
0.058503
-0.003213
-0.003270
0.057013
-0.003375
-0.003451
0.055511
-0.003544
-0.003613
0.053671
-0.003705
-0.003786
0.052396
-0.003882
-0.003958
0.050909
-0.004057
-0.004150
0.049386
-0.004235
-0.004317
0.047868
-0.004464
0.046620
-0.004627
0.044393
-0.004809
0.043158
-0.004978
0.041912
-0.005158
0.040049
-0.005332
0.038496
-0.005458
0.036959
-0.005677
0.035107
-0.005849
0.033862
-0.006007
0.032411
-0.006192
0.030944
-0.006298
0.029472
-0.006435
0.028037
-0.006617
0.026660
-0.006704
0.025658
0.024841
-0.006877
0.024199
0.023445
-0.006974
0.022781
0.022103
-0.007076
0.021441
0.020783
-0.007161
0.020136
0.019516
-0.007283
0.018810
0.018183
-0.007354
0.017542
0.016965
-0.007431
0.016276
-0.007472
0.015361
-0.007534
0.014231
-0.007580
0.013095
-0.007591
0.011996
-0.007596
0.010899
-0.007590
0.009868
-0.007569
0.008850
-0.007522
0.008016
-0.007469
0.006883
-0.007404
0.005965
-0.007343
-0.007276
0.005087
-0.007221
-0.007160
0.004228
-0.007103
-0.007016
0.003393
-0.006959
-0.006872
0.002447
-0.006681
-0.006783
0.001844
-0.006592
-0.006484
0.001157
-0.006263
-0.006379
0.000475
-0.006126
-0.000102
-0.005951
-0.000818
-0.005690
-0.001398
-0.005368
-0.001961
-0.005052
-0.002506
-0.004708
-0.003000
-0.004333
-0.003990
-0.003467
SCALARS strain_2 float
LOOKUP_TABLE default
0.000240
0.000180
-0.000124
0.000601
-0.000513
0.000914
-0.000914
0.001231
-0.001339
0.001519
-0.001810
0.001767
-0.002295
0.002008
-0.002794
0.002230
-0.003323
0.002433
-0.003888
0.002641
-0.004473
0.002794
-0.005047
0.002954
-0.005689
0.003091
-0.006332
0.003214
-0.006999
0.003307
-0.007684
0.003414
-0.008409
0.003495
-0.009167
0.003565
-0.009917
0.003599
-0.010715
0.003655
-0.011513
0.003688
-0.012336
0.003709
-0.013177
0.003710
-0.014055
0.003702
-0.014919
0.003686
-0.015847
0.003674
-0.016769
0.003657
-0.017698
0.003602
-0.018657
0.003559
-0.019630
0.003529
-0.020611
0.003469
-0.021623
0.003419
-0.022621
-0.023635
0.003358
-0.024661
0.003292
-0.025691
0.003231
-0.026734
0.003139
-0.027790
0.003049
-0.028829
0.002986
-0.029901
0.002897
-0.030943
0.002814
-0.032002
0.002722
-0.033052
0.002642
-0.034096
0.002553
-0.035135
0.002466
-0.036192
0.002370
-0.037210
-0.038227
0.002285
0.002192
-0.039221
0.002096
-0.040204
0.002012
-0.041194
0.001920
-0.042142
0.001843
-0.043091
0.001752
-0.044014
0.001670
-0.044910
0.001587
-0.045782
0.001506
-0.046632
0.001427
-0.047448
0.001351
-0.048256
0.001270
-0.049039
0.001194
-0.049762
0.001131
-0.050456
0.001068
-0.051137
0.001000
-0.051763
0.000934
-0.052369
0.000885
0.000809
-0.052942
0.000745
-0.053455
0.000691
-0.053950
0.000659
-0.054399
0.000602
-0.054798
0.000572
-0.055152
0.000527
-0.055475
0.000492
-0.055750
0.000445
-0.055978
0.000422
-0.056180
0.000398
-0.056313
0.000375
-0.056401
0.000350
-0.056466
0.000334
-0.056481
0.000332
-0.056417
0.000302
-0.056341
0.000299
-0.056213
0.000284
-0.056031
0.000276
-0.055796
0.000287
-0.055521
0.000299
-0.055209
0.000307
-0.054864
0.000321
-0.054444
0.000353
-0.054005
0.000370
-0.053526
0.000387
-0.052985
0.000431
-0.052440
0.000445
-0.051806
0.000475
-0.051168
0.000520
-0.050499
0.000575
-0.049759
0.000620
-0.048991
0.000676
-0.048216
0.000725
-0.047386
0.000798
-0.046530
0.000837
-0.045654
0.000910
-0.044739
0.000980
-0.043797
0.001060
-0.042863
0.001122
-0.041869
0.001223
-0.040851
0.001305
-0.039842
0.001399
-0.038806
0.001503
-0.037746
0.001588
-0.036678
0.001674
-0.035593
0.001787
-0.034497
0.001885
-0.033393
0.002013
-0.032281
0.002098
-0.031163
0.002229
-0.030057
0.002339
-0.028944
0.002458
-0.027807
0.002576
-0.026696
0.002701
-0.025582
0.002817
-0.024470
0.002945
-0.023367
0.003078
-0.022265
0.003201
-0.021186
0.003326
-0.020111
0.003461
-0.019064
0.003580
-0.018012
0.003707
-0.016986
0.003817
-0.015957
0.003932
-0.014955
0.004053
-0.013967
0.004173
-0.013023
0.004286
-0.012078
0.004393
-0.011160
0.004484
-0.010265
0.004597
-0.009399
0.004669
-0.008540
0.004758
-0.007709
0.004849
-0.006929
0.004899
-0.006136
0.004963
-0.005393
0.005007
-0.004677
0.005059
-0.003972
0.005073
-0.003309
0.005108
-0.002681
0.005099
-0.002056
0.005098
-0.001472
0.005063
-0.000928
0.005044
-0.000390
0.004994
0.000110
0.004921
0.000587
0.004827
0.001034
0.004737
0.001459
0.004601
0.001844
0.004465
0.002212
0.004302
0.002564
0.004118
0.002884
0.003924
0.003186
0.003694
0.003448
-0.000197
0.000533
-0.000602
0.000864
-0.001025
0.001183
-0.001459
0.001456
-0.001938
0.001735
-0.002418
0.001982
-0.002931
0.002216
-0.003478
0.002418
-0.004046
0.002610
-0.004623
0.002792
-0.005252
0.002962
-0.005854
0.003088
-0.006521
0.003216
-0.007214
0.003317
-0.007925
0.003426
-0.008638
0.003503
-0.009395
0.003584
-0.010188
0.003623
-0.010978
0.003666
-0.011792
0.003702
-0.012625
0.003727
-0.013499
0.003722
-0.014367
0.003724
-0.015263
0.003732
-0.016163
0.003690
-0.017100
0.003677
-0.018047
0.003641
-0.019013
0.003598
-0.019979
0.003541
-0.020973
0.003513
-0.021976
0.003457
-0.022982
0.003382
-0.023987
0.003311
-0.025043
0.003234
-0.026049
0.003181
-0.027071
0.003085
-0.028116
0.002999
-0.029165
0.002920
-0.030193
0.002830
-0.031249
0.002760
-0.032277
0.002673
-0.033300
0.002589
-0.034332
0.002492
-0.035362
0.002415
-0.036359
0.002323
-0.037370
0.002238
-0.038339
0.002140
-0.039315
0.002054
-0.040269
0.001971
-0.041209
0.001894
-0.042116
0.001790
-0.043019
0.001722
-0.043879
0.001634
-0.044741
0.001565
-0.045543
0.001491
-0.046339
0.001400
-0.047109
0.001328
-0.047837
0.001253
-0.048541
0.001194
-0.049208
0.001123
-0.049848
0.001056
-0.050440
0.001015
-0.051001
0.000950
-0.051523
0.000899
-0.051992
0.000828
-0.052444
0.000791
-0.052845
0.000751
-0.053199
0.000711
-0.053507
0.000666
-0.053769
0.000638
-0.053996
0.000605
-0.054179
0.000570
-0.054312
0.000553
-0.054400
0.000518
-0.054425
0.000490
-0.054431
0.000492
-0.054376
0.000479
-0.054281
0.000481
-0.054134
0.000459
-0.053939
0.000467
-0.053716
0.000466
-0.053433
0.000480
-0.053115
0.000483
-0.052728
0.000509
-0.052286
0.000515
-0.051866
0.000541
-0.051355
0.000570
-0.050816
0.000593
-0.050231
0.000635
-0.049613
0.000683
-0.048955
0.000716
-0.048244
0.000765
-0.047521
0.000805
-0.046756
0.000862
-0.045954
0.000926
-0.045131
0.000969
-0.044252
0.001046
-0.043356
0.001117
-0.042454
0.001184
-0.041533
0.001248
-0.040549
0.001343
-0.039566
0.001426
-0.038548
0.001502
-0.037537
0.001607
-0.036481
0.001704
-0.035439
0.001810
-0.034351
0.001915
-0.033291
0.002015
-0.032206
0.002113
-0.031108
0.002238
-0.030000
0.002335
-0.028898
0.002450
-0.027798
0.002582
-0.026686
0.002678
-0.025586
0.002800
-0.024487
0.002926
-0.023395
0.003056
-0.022304
0.003190
-0.021217
0.003314
-0.020149
0.003421
-0.019085
0.003548
-0.018043
0.003656
-0.017026
0.003795
-0.016010
0.003918
-0.015004
0.004034
-0.014028
0.004154
-0.013061
0.004248
-0.012105
0.004362
-0.011214
0.004477
-0.010291
0.004559
-0.009426
0.004652
-0.008571
0.004739
-0.007742
0.004825
-0.006947
0.004878
-0.006154
0.004950
-0.005405
0.005000
-0.004688
0.005033
-0.003995
0.005082
-0.003305
0.005092
-0.002685
0.005086
-0.002056
0.005098
-0.001477
0.005074
-0.000928
0.005046
-0.000391
0.004987
0.000124
0.004927
0.000597
0.004837
0.001053
0.004741
0.001467
0.004618
0.001864
0.004459
0.002235
0.004324
0.002586
0.004135
0.002907
0.003940
0.003712
0.003201
0.003454
-0.000040
0.000387
-0.000358
0.000737
-0.000753
0.001039
-0.001166
0.001352
-0.001632
0.001622
-0.002111
0.001880
-0.002590
-0.002974
0.002141
-0.003522
-0.003247
0.002333
-0.004089
-0.003819
0.002520
-0.004392
-0.004701
0.002707
-0.005017
-0.005307
0.002842
-0.005945
-0.005615
0.003018
-0.006259
-0.006609
0.003157
-0.007340
-0.006932
0.003286
-0.007837
0.003371
-0.008526
0.003455
-0.009277
0.003542
-0.010045
0.003590
-0.010829
0.003635
-0.011638
0.003685
-0.012445
0.003695
-0.013162
0.003718
-0.014199
0.003714
-0.015098
0.003712
0.003704
-0.016002
0.003674
0.003716
-0.016945
0.003647
0.003672
-0.017870
0.003613
0.003648
0.003605
0.003582
-0.019042
0.003550
0.003542
-0.019936
0.003509
0.003477
-0.020941
0.003458
0.003416
-0.021955
0.003364
-0.023287
0.003293
-0.025050
0.003232
-0.025886
0.003156
-0.026703
0.003080
-0.027959
0.002998
-0.028996
0.002926
-0.030027
0.002836
-0.031301
0.002737
-0.032167
0.002667
-0.033177
0.002536
-0.034210
0.002479
-0.035248
0.002422
-0.036256
-0.037230
-0.038010
0.002245
-0.039016
-0.038531
0.002142
-0.040030
-0.039524
0.002047
-0.040481
-0.040988
0.001943
-0.041436
-0.041924
0.001884
-0.042361
-0.042851
0.001776
-0.043269
-0.043753
0.001700
-0.044161
-0.044701
0.001605
-0.045300
0.001531
-0.046088
0.001449
-0.046892
0.001366
-0.047667
0.001315
-0.048414
0.001228
-0.049147
0.001150
-0.049799
0.001092
-0.050351
0.001027
-0.051108
0.000963
-0.051682
0.000904
0.000867
-0.052218
0.000838
0.000810
-0.052722
0.000784
0.000753
-0.053178
0.000744
0.000702
-0.053710
0.000690
0.000663
-0.054002
0.000617
0.000648
-0.054324
0.000608
0.000587
-0.054629
0.000540
0.000571
-0.054829
0.000524
-0.055069
0.000499
-0.055232
0.000470
-0.055353
0.000438
-0.055409
0.000426
-0.055460
0.000406
-0.055420
0.000404
-0.055320
0.000399
-0.055237
0.000381
-0.055085
0.000379
-0.054864
0.000376
-0.054617
0.000385
-0.054325
0.000398
-0.054003
-0.053786
0.000409
-0.053465
-0.053282
0.000425
-0.052997
-0.052800
0.000444
-0.052332
-0.052524
0.000469
-0.052033
-0.051765
0.000484
-0.051212
-0.051486
0.000530
-0.050844
-0.050550
0.000556
-0.049883
-0.050192
0.000584
-0.049327
0.000644
-0.048632
0.000693
-0.047856
0.000754
-0.047056
0.000807
-0.046235
0.000848
-0.045386
0.000908
-0.044529
0.000982
-0.043769
0.001052
-0.042648
0.001129
-0.041692
0.001199
0.001254
-0.040703
0.001312
0.001357
-0.039696
0.001406
0.001435
-0.038676
0.001475
0.001504
-0.037417
0.001579
0.001619
-0.036546
0.001668
0.001707
-0.035489
0.001762
0.001824
-0.034431
0.001870
0.001925
-0.033385
0.002006
-0.032490
0.002118
-0.030910
0.002217
-0.030016
0.002342
-0.029139
0.002448
-0.027797
0.002577
-0.026684
0.002666
-0.025580
0.002822
-0.024240
0.002953
-0.023344
0.003067
-0.022273
0.003205
-0.021198
0.003314
-0.020141
0.003401
-0.019094
0.003586
-0.018080
0.003659
-0.017344
-0.016737
0.003834
-0.016284
-0.015721
0.003922
-0.015236
-0.014746
0.004038
-0.014245
-0.013776
0.004123
-0.013289
-0.012816
0.004269
-0.012312
-0.011848
0.004386
-0.011397
-0.010966
0.004483
-0.010451
0.004575
-0.009795
0.004666
-0.008975
0.004762
-0.008136
0.004831
-0.007322
0.004886
-0.006551
0.004957
-0.005776
0.005013
-0.005048
0.005049
-0.004457
0.005072
-0.003643
0.005101
-0.002997
0.005107
0.005106
-0.002369
0.005101
0.005104
-0.001761
0.005095
0.005061
-0.001200
0.005049
0.005035
-0.000528
0.004968
0.005000
-0.000109
0.004936
0.004903
0.000369
0.004812
0.004857
0.000826
0.004760
0.001208
0.004682
0.001663
0.004543
0.002033
0.004390
0.002406
0.004228
0.002737
0.004032
0.003049
0.003834
0.003636
0.003331
SCALARS strain_3 float
LOOKUP_TABLE default
0.001914
0.001221
-0.001304
0.005000
-0.004647
0.007961
-0.008125
0.010777
-0.011725
0.013468
-0.015447
0.016023
-0.019288
0.018440
-0.023250
0.020731
-0.027323
0.022876
-0.031511
0.024897
-0.035804
0.026783
-0.040201
0.028532
-0.044700
0.030154
-0.049293
0.031643
-0.053980
0.033009
-0.058747
0.034240
-0.063595
0.035358
-0.068520
0.036344
-0.073521
0.037219
-0.078580
0.037970
-0.083705
0.038612
-0.088879
0.039138
-0.094095
0.039557
-0.099356
0.039869
-0.104654
0.040084
-0.109978
0.040197
-0.115319
0.040215
-0.120672
0.040141
-0.126036
0.039984
-0.131399
0.039738
-0.136747
0.039415
-0.142089
0.039017
-0.147406
-0.152699
0.038543
-0.157948
0.038010
-0.163157
0.037402
-0.168309
0.036743
-0.173411
0.036029
-0.178444
0.035263
-0.183399
0.034454
-0.188278
0.033595
-0.193070
0.032707
-0.197769
0.031777
-0.202368
0.030819
-0.206852
0.029843
-0.211227
0.028839
-0.215477
-0.219599
0.027816
0.026786
-0.223587
0.025735
-0.227436
0.024693
-0.231141
0.023639
-0.234698
0.022585
-0.238093
0.021537
-0.241332
0.020497
-0.244399
0.019468
-0.247299
0.018450
-0.250024
0.017452
-0.252569
0.016474
-0.254937
0.015513
-0.257117
0.014576
-0.259104
0.013669
-0.260907
0.012787
-0.262516
0.011941
-0.263926
0.011125
-0.265133
0.010337
0.009587
-0.266152
0.008880
-0.266963
0.008203
-0.267581
0.007565
-0.267998
0.006967
-0.268211
0.006410
-0.268223
0.005892
-0.268039
0.005415
-0.267649
0.004979
-0.267065
0.004594
-0.266291
0.004233
-0.265322
0.003920
-0.264156
0.003648
-0.262812
0.003415
-0.261271
0.003219
-0.259550
0.003066
-0.257657
0.002945
-0.255580
0.002869
-0.253342
0.002822
-0.250936
0.002808
-0.248364
0.002835
-0.245636
0.002887
-0.242759
0.002973
-0.239733
0.003088
-0.236571
0.003227
-0.233273
0.003395
-0.229840
0.003590
-0.226282
0.003806
-0.222613
0.004054
-0.218837
0.004311
-0.214949
0.004590
-0.210968
0.004890
-0.206892
0.005198
-0.202730
0.005526
-0.198493
0.005865
-0.194185
0.006218
-0.189812
0.006579
-0.185377
0.006946
-0.180900
0.007326
-0.176372
0.007709
-0.171813
0.008089
-0.167218
0.008484
-0.162599
0.008870
-0.157970
0.009267
-0.153320
0.009650
-0.148671
0.010040
-0.144018
0.010427
-0.139371
0.010804
-0.134743
0.011173
-0.130129
0.011541
-0.125544
0.011906
-0.120983
0.012257
-0.116463
0.012597
-0.111979
0.012928
-0.107538
0.013254
-0.103147
0.013555
-0.098808
0.013853
-0.094531
0.014134
-0.090315
0.014399
-0.086162
0.014650
-0.082079
0.014885
-0.078070
0.015103
-0.074135
0.015300
-0.070279
0.015477
-0.066503
0.015634
-0.062814
0.015773
-0.059209
0.015887
-0.055691
0.015979
-0.052264
0.016051
-0.048923
0.016091
-0.045675
0.016108
-0.042522
0.016095
-0.039463
0.016054
-0.036496
0.015991
-0.033623
0.015889
-0.030848
0.015761
-0.028164
0.015592
-0.025577
0.015384
-0.023083
0.015149
-0.020681
0.014873
-0.018376
0.014555
-0.016161
0.014195
-0.014043
0.013788
-0.012002
0.013342
-0.010061
0.012845
-0.008207
0.012300
-0.006432
0.011704
-0.004747
0.011053
-0.003142
0.010351
-0.001616
0.009587
-0.000170
0.008767
0.001194
0.007888
0.002487
0.006941
0.003706
0.005932
0.004854
-0.002022
0.004342
-0.005411
0.007331
-0.008917
0.010183
-0.012554
0.012902
-0.016315
0.015483
-0.020192
0.017932
-0.024190
0.020244
-0.028300
0.022418
-0.032519
0.024455
-0.036849
0.026359
-0.041274
0.028133
-0.045802
0.029772
-0.050424
0.031276
-0.055135
0.032653
-0.059925
0.033901
-0.064796
0.035024
-0.069738
0.036026
-0.074747
0.036903
-0.079819
0.037668
-0.084944
0.038311
-0.090115
0.038846
-0.095330
0.039266
-0.100579
0.039582
-0.105857
0.039797
-0.111154
0.039916
-0.116463
0.039934
-0.121779
0.039860
-0.127095
0.039702
-0.132409
0.039459
-0.137701
0.039142
-0.142967
0.038742
-0.148209
0.038274
-0.153406
0.037740
-0.158561
0.037141
-0.163665
0.036486
-0.168706
0.035776
-0.173677
0.035019
-0.178571
0.034217
-0.183388
0.033370
-0.188110
0.032494
-0.192736
0.031578
-0.197253
0.030635
-0.201660
0.029675
-0.205951
0.028692
-0.210116
0.027693
-0.214143
0.026684
-0.218039
0.025661
-0.221778
0.024639
-0.225380
0.023614
-0.228821
0.022597
-0.232105
0.021586
-0.235221
0.020578
-0.238160
0.019585
-0.240932
0.018615
-0.243521
0.017654
-0.245928
0.016719
-0.248147
0.015801
-0.250174
0.014914
-0.252018
0.014056
-0.253657
0.013228
-0.255099
0.012431
-0.256344
0.011663
-0.257388
0.010933
-0.258225
0.010244
-0.258870
0.009587
-0.259304
0.008970
-0.259537
0.008392
-0.259566
0.007854
-0.259392
0.007350
-0.259016
0.006894
-0.258444
0.006477
-0.257672
0.006096
-0.256709
0.005760
-0.255549
0.005466
-0.254199
0.005208
-0.252662
0.004990
-0.250939
0.004809
-0.249036
0.004669
-0.246957
0.004562
-0.244707
0.004491
-0.242288
0.004461
-0.239708
0.004460
-0.236975
0.004489
-0.234086
0.004551
-0.231046
0.004643
-0.227874
0.004766
-0.224561
0.004913
-0.221120
0.005085
-0.217560
0.005285
-0.213879
0.005506
-0.210089
0.005744
-0.206202
0.006000
-0.202217
0.006279
-0.198139
0.006570
-0.193980
0.006877
-0.189745
0.007202
-0.185446
0.007530
-0.181080
0.007872
-0.176666
0.008225
-0.172203
0.008578
-0.167697
0.008939
-0.163156
0.009305
-0.158594
0.009673
-0.154014
0.010044
-0.149413
0.010411
-0.144804
0.010775
-0.140203
0.011148
-0.135603
0.011508
-0.131013
0.011864
-0.126447
0.012214
-0.121903
0.012558
-0.117380
0.012894
-0.112898
0.013220
-0.108456
0.013539
-0.104061
0.013847
-0.099712
0.014136
-0.095413
0.014412
-0.091176
0.014674
-0.086998
0.014926
-0.082889
0.015165
-0.078853
0.015381
-0.074888
0.015579
-0.071000
0.015761
-0.067193
0.015923
-0.063462
0.016061
-0.059821
0.016178
-0.056267
0.016273
-0.052799
0.016341
-0.049418
0.016389
-0.046134
0.016403
-0.042939
0.016400
-0.039841
0.016364
-0.036836
0.016299
-0.033925
0.016197
-0.031111
0.016069
-0.028393
0.015902
-0.025771
0.015697
-0.023244
0.015461
-0.020811
0.015180
-0.018471
0.014865
-0.016222
0.014504
-0.014069
0.014098
-0.012010
0.013646
-0.010036
0.013145
-0.008156
0.012600
-0.006358
0.011999
-0.004647
0.011341
-0.003023
0.010626
-0.001477
0.009863
-0.000015
0.009033
0.001372
0.008143
0.002681
0.007187
0.006161
0.003913
0.005075
-0.000685
0.003137
-0.003448
0.006176
-0.006780
0.009081
-0.010314
0.011850
-0.013989
0.014484
-0.017762
0.016985
-0.021521
-0.024621
0.019582
-0.028737
-0.026691
0.021619
-0.032986
-0.030993
0.023670
-0.035221
-0.037425
0.025569
-0.039671
-0.041938
0.027096
-0.046421
-0.044072
0.029161
-0.048687
-0.051098
0.030723
-0.056168
-0.053331
0.032158
-0.059604
0.033468
-0.064232
0.034641
-0.069133
0.035908
-0.074120
0.036663
-0.079189
0.037459
-0.084275
0.038155
-0.089291
0.038740
-0.093614
0.039212
-0.099980
0.039584
-0.105245
0.039843
0.039972
-0.110557
0.040073
0.040030
-0.115885
0.040065
0.040077
-0.121219
0.039975
0.040033
0.039890
0.039784
-0.127736
0.039670
0.039529
-0.132624
0.039376
0.039173
-0.138017
0.038988
0.038732
-0.143476
0.038378
-0.150398
0.037859
-0.159279
0.037275
-0.163398
0.036614
-0.167494
0.035909
-0.173548
0.035168
-0.178510
0.034506
-0.183400
0.033488
-0.189087
0.032600
-0.193038
0.031682
-0.197517
0.030524
-0.202000
0.029760
-0.206391
0.028973
-0.210679
-0.214624
-0.217790
0.027178
-0.221722
-0.219786
0.025840
-0.225667
-0.223644
0.024757
-0.227366
-0.229186
0.023735
-0.230852
-0.232721
0.022808
-0.234173
-0.235918
0.021561
-0.237402
-0.239146
0.020542
-0.240438
-0.242410
0.019530
-0.244253
0.018535
-0.246748
0.017558
-0.249187
0.016403
-0.251477
0.015634
-0.253595
0.014748
-0.255491
0.013863
-0.257164
0.013011
-0.258459
0.012179
-0.260111
0.011402
-0.261240
0.010675
0.010082
-0.262166
0.009750
0.009406
-0.262897
0.009069
0.008704
-0.263421
0.008419
0.008112
-0.263849
0.007814
0.007513
-0.263852
0.006987
0.007280
-0.263763
0.006779
0.006498
-0.263532
0.005991
0.006295
-0.263137
0.005713
-0.262352
0.005342
-0.261483
0.005012
-0.260416
0.004695
-0.259160
0.004445
-0.257719
0.004223
-0.256091
0.004068
-0.253916
0.003874
-0.252203
0.003766
-0.250137
0.003691
-0.247773
0.003648
-0.245313
0.003640
-0.242716
0.003672
-0.240032
-0.238114
0.003729
-0.236068
-0.234646
0.003819
-0.232857
-0.231401
0.003936
-0.228182
-0.229634
0.004079
-0.226324
-0.224630
0.004201
-0.221128
-0.222847
0.004450
-0.219078
-0.217310
0.004664
-0.213360
-0.215290
0.004905
-0.210433
0.005168
-0.206600
0.005443
-0.202470
0.005808
-0.198320
0.006067
-0.194107
0.006385
-0.189799
0.006708
-0.185554
0.007058
-0.181898
0.007406
-0.176523
0.007770
-0.172007
0.008119
0.008363
-0.167459
0.008621
0.008787
-0.162882
0.009007
0.009177
-0.158279
0.009389
0.009540
-0.152703
0.009750
0.009927
-0.148880
0.010119
0.010301
-0.144377
0.010521
0.010695
-0.139797
0.010894
0.011058
-0.135305
0.011356
-0.131593
0.011700
-0.125070
0.012057
-0.121410
0.012406
-0.117808
0.012746
-0.112430
0.013067
-0.107989
0.013335
-0.103595
0.013697
-0.098312
0.013994
-0.094795
0.014274
-0.090698
0.014596
-0.086564
0.014789
-0.082475
0.014978
-0.078505
0.015276
-0.074735
0.015405
-0.071950
-0.069714
0.015651
-0.067967
-0.065878
0.015784
-0.064046
-0.062235
0.015912
-0.060422
-0.058676
0.016007
-0.056865
-0.055202
0.016125
-0.053290
-0.051635
0.016197
-0.049958
-0.048393
0.016241
-0.046554
0.016257
-0.044141
0.016248
-0.041142
0.016200
-0.038139
0.016143
-0.035205
0.016045
-0.032370
0.015912
-0.029639
0.015741
-0.027057
0.015541
-0.024926
0.015299
-0.021945
0.015035
-0.019573
0.014812
0.014628
-0.017295
0.014452
0.014255
-0.015111
0.014048
0.013829
-0.013018
0.013612
0.013381
-0.010609
0.012860
0.013126
-0.009034
0.012581
0.012302
-0.007268
0.011686
0.011998
-0.005573
0.011311
-0.004109
0.010811
-0.002301
0.010109
-0.000808
0.009319
0.000605
0.008465
0.001941
0.007551
0.003205
0.006600
0.005732
0.004392
SCALARS stress_1 float
LOOKUP_TABLE default
-37534.028145
-24638.815638
23696.082008
-95939.427360
87534.044838
-152978.034188
154252.153214
-205954.232338
223651.987396
-256972.743811
294700.643702
-303913.477765
369614.460421
-350346.014461
445408.917579
-394094.692191
525389.211730
-433857.045794
607218.393768
-471209.458981
690865.231114
-506729.850304
776792.820084
-539058.603473
866769.069837
-569733.253330
956441.889530
-596851.380137
1049033.562639
-623685.322182
1143665.669426
-646805.472571
1240279.635103
-667237.795275
1339411.843380
-685014.674006
1439254.157995
-701554.027314
1540884.907843
-715737.480883
1644863.143820
-727071.811527
1749444.391373
-737605.357536
1856755.317688
-745300.941145
1963714.635371
-751888.142616
2073001.824449
-755402.167894
2182510.355555
-758034.971560
2292832.566978
-758430.572399
2405005.500220
-756997.737832
2516732.680729
-754299.290095
2629124.391980
-750257.622292
2741652.159421
-744227.127527
2855041.024553
-738307.057165
2967010.083694
3080516.807475
-728193.749497
3194031.863083
-720172.081572
3305393.150282
-708610.437101
3418350.952546
-697592.405739
3529423.169641
-684640.042301
3639552.468751
-670565.365574
3749783.936800
-656146.384952
3857460.670103
-640866.735511
3965890.897322
-624472.855777
4071865.331062
-607735.951695
4174869.012825
-590779.703762
4277963.842375
-572277.692241
4378497.619243
-555722.410472
4477014.298006
4572780.865352
-536187.867847
-518013.315735
4667652.079308
-498848.763527
4758529.365087
-479922.704564
4847617.425901
-460421.961080
4932914.545225
-440630.213574
5017881.380851
-420919.097122
5097650.590570
-401315.479381
5175803.645014
-383214.611716
5248250.060240
-363803.361785
5319041.635775
-345117.364663
5386968.316805
-327367.917139
5449874.331990
-309309.841448
5510212.768253
-292012.060060
5566549.096228
-274301.011500
5618712.019127
-257293.189107
5666832.952768
-240983.460539
5711759.038889
-225153.561106
5751580.067626
-210876.687361
-195567.003748
5787366.797006
-182409.752240
5820515.071978
-168849.809886
5848629.550334
-155930.089763
5872474.935287
-144989.843238
5890504.313759
-133793.179940
5904976.717860
-124288.209498
5916202.905615
-114054.612410
5921640.667161
-105638.872622
5924848.760524
-97198.725445
5922942.217814
-91471.841985
5914989.742242
-84551.144711
5902948.420731
-78599.930412
5887126.143652
-74885.879585
5867494.372246
-70651.905307
5843683.864538
-67919.359180
5815056.410665
-64977.866888
5781986.384943
-63457.638294
5746188.435770
-63023.915373
5704803.650069
-63209.236884
5660444.347342
-64337.712456
5612227.230803
-66180.255167
5559155.377979
-68844.161803
5504427.117768
-71118.400257
5444084.714856
-74796.212502
5380677.685298
-79995.808401
5314522.348596
-84062.429929
5244846.595121
-91145.044976
5172022.315244
-97054.566620
5096006.257598
-103514.291648
5017515.509106
-111767.562268
4934649.192719
-119874.533532
4851798.066464
-127076.447410
4764827.965896
-136323.513769
4674905.694465
-146600.590870
4584337.516858
-155960.262895
4490144.565418
-166653.826632
4395162.346806
-176699.811447
4298020.422497
-187013.130417
4199561.870021
-198301.554882
4098351.867142
-211559.139657
3996803.117074
-222350.085212
3894551.984738
-234580.875493
3791603.602480
-247150.039868
3686618.718932
-258516.920544
3580754.466438
-270364.859730
3475471.209921
-283231.573951
3368253.268885
-294688.359994
3261777.821092
-308001.792648
3154368.373205
-320733.113885
3048102.915830
-333567.337017
2942466.197599
-344568.507467
2835432.209120
-357452.825704
2729324.457052
-368582.391964
2624221.361135
-380384.164746
2518591.240869
-392971.431442
2414406.890310
-404283.963394
2310505.870932
-413986.664283
2208292.547659
-425170.447189
2107652.911097
-435668.644924
2008054.942459
-444427.357725
1910040.586930
-455304.302117
1812438.254855
-463749.578336
1716823.562523
-471340.519196
1623047.632885
-479727.654063
1530126.127650
-486791.886623
1440087.795453
-494168.175372
1350218.243190
-499496.994862
1264419.077756
-505476.061620
1178783.476917
-509313.850197
1095318.673252
-513301.319091
1014652.647974
-516134.130014
934961.446503
-517830.812330
858913.862894
-519399.886015
784292.316885
-519114.638462
711701.986241
-518048.402485
640654.532672
-515441.652637
573259.179364
-513439.338022
508154.300633
-508091.129745
444177.977929
-503421.164068
382929.827540
-496077.057282
323007.885494
-488413.384173
266681.758688
-479036.564479
212791.108831
-469212.314726
160462.355662
-457236.725756
109893.964339
-442973.888410
61061.551152
-428616.706372
15835.197549
-410588.412222
-27649.480181
-391681.955063
-68346.016878
-371704.138344
-108542.750831
-349823.482038
-145881.262304
-327735.647856
-180065.460455
-300777.539481
-213808.067282
-273987.576650
-245445.466497
37195.972702
-84659.541436
101100.349031
-141131.310404
169747.035348
-196014.077120
239649.611916
-247476.563584
313110.316788
-296288.733768
387410.730228
-342234.113120
465382.761392
-385562.665613
545505.506599
-426426.300405
628195.304136
-465586.981469
712132.446872
-501189.476224
799371.218283
-533898.506672
889305.582340
-564660.465915
980885.009677
-592228.075954
1074717.793163
-618331.346183
1169740.271087
-641994.998600
1267197.914082
-662268.997178
1367340.256989
-682098.538470
1468204.386732
-698045.970158
1570422.979888
-712105.301637
1674610.749065
-723670.496878
1779381.119474
-734157.894170
1886958.429406
-743011.941434
1994533.346044
-747512.976957
2103487.723732
-753135.393844
2213028.704209
-755058.014330
2322778.525528
-755834.418677
2434984.713136
-754443.383700
2545932.737667
-751552.160764
2657389.266306
-748609.471870
2770193.440791
-742018.997516
2881878.686334
-735415.514516
2993994.428146
-727296.603132
3106187.807966
-718185.943861
3218111.867295
-707621.071546
3329653.702450
-695957.282973
3438523.213196
-682229.738667
3547717.011902
-670048.877154
3656122.240307
-654195.575482
3763176.752754
-640175.413914
3869357.590744
-623920.027528
3973501.841202
-607705.480530
4076726.929339
-590101.398605
4177831.567760
-572976.229671
4276873.930313
-555499.983120
4372710.355286
-537588.339452
4466807.874788
-518724.933743
4558397.585135
-500047.391676
4648332.573250
-482144.590302
4735440.254951
-462253.406668
4818639.726556
-444167.466460
4900134.449304
-426699.263016
4978194.706669
-405963.618572
5052431.914471
-386995.400783
5124155.159632
-368791.915831
5191137.912786
-351770.789399
5255408.831724
-333824.085695
5314980.619658
-318132.298059
5371873.888959
-299386.723278
5425941.342841
-283864.238401
5473778.826252
-268103.281954
5519872.238957
-253302.447511
5559504.183934
-238567.315336
5596248.990078
-224806.853318
5628878.502339
-211359.883695
5655396.181957
-198317.703252
5680815.928696
-187733.663592
5698997.203797
-174722.586951
5714736.665049
-165248.628378
5723949.773694
-155187.039240
5731122.045785
-146767.171138
5731985.326273
-137360.320861
5728807.505528
-131546.168906
5722048.428500
-124368.824901
5710417.227533
-117767.201925
5695181.747577
-113642.606159
5673857.449871
-109373.950678
5650298.279602
-105989.774244
5620610.456036
-102836.944514
5587623.111516
-101961.242219
5549723.707283
-102004.722175
5509309.330259
-100219.923142
5463510.674263
-101291.000170
5414820.826219
-101916.820915
5361731.676496
-104829.540428
5305095.544597
-107337.268336
5244653.133736
-111628.159692
5180447.092309
-114376.698439
5112986.168950
-120211.423339
5041898.208610
-125463.676599
4970428.389052
-132209.996982
4892723.358676
-138732.484720
4812987.820693
-144707.678576
4731034.952869
-152843.733600
4646947.787312
-161326.320894
4560204.743759
-170760.837483
4469519.228635
-179525.383602
4377704.803417
-187824.114300
4284060.591053
-198428.326366
4188039.294757
-209805.407428
4091708.421189
-219446.654275
3992983.906141
-230115.409114
3891640.123929
-242646.201312
3790647.768374
-252849.943946
3688331.971818
-264675.221199
3584297.912026
-277075.749594
3480405.095659
-288448.067892
3375011.897034
-300313.079777
3270345.439101
-312163.369430
3164032.844810
-323953.849928
3059096.488478
-337005.424955
2953332.735028
-347491.062402
2846113.903963
-360490.423981
2741941.985888
-371705.335844
2637532.532886
-384633.085387
2532011.919272
-395348.247396
2426424.080840
-406741.734949
2325661.382512
-416736.506544
2223066.244025
-427790.707838
2121625.788331
-437593.197092
2020385.576903
-447091.361937
1922310.449219
-457143.302608
1824613.108489
-465533.922788
1729260.019874
-474234.180976
1634399.502874
-482196.935433
1541077.977228
-489664.760949
1449756.666122
-496072.232309
1361967.889057
-502172.207778
1274014.924035
-507718.020170
1188318.519688
-512960.198851
1104155.899202
-516099.218375
1022349.482315
-519224.840686
943056.446792
-521953.924048
864626.399528
-522648.614117
789155.002235
-522742.243707
716789.806994
-522602.474531
644834.475516
-519831.881374
576175.043828
-516399.751631
510129.502536
-512577.408724
445911.503957
-506943.765729
382903.851540
-501705.287806
324312.581312
-492936.504320
267208.971273
-484493.076982
211487.012030
-472334.712925
158937.981582
-460127.941514
108511.486826
-447430.798778
59918.805763
-432333.001241
13103.170971
-415906.256035
-30273.381522
-397534.224870
-71914.760874
-377305.811431
-111374.931059
-354509.106558
-148685.417522
-331406.529990
-184376.184238
-305215.843673
-278215.467344
-217831.953206
-248260.679005
11797.646880
-61149.060428
64963.662966
-118629.078347
128699.078888
-173259.007092
196559.976556
-226960.810634
267901.013479
-275772.772449
340878.715884
-323681.285641
412951.797643
472987.703077
-372955.228326
553373.491160
514654.348004
-411323.914631
636584.215852
597396.152159
-449718.260249
679331.894606
722626.051135
-485384.626176
766921.486989
811510.744329
-513755.784642
900819.617290
853825.179022
-552375.695993
945735.438031
993070.441642
-581074.090624
1093490.176571
1037576.613091
-608278.245680
1162414.180582
-632412.070318
1254640.305562
-655110.815906
1352895.616361
-677877.051690
1453327.941856
-691867.659190
1555558.763742
-707331.004411
1658413.499211
-720933.571493
1759560.539770
-731701.314853
1849867.713899
-740218.044927
1979089.263238
-746960.720185
2088643.515655
-752112.054773
-753717.655240
2197483.052184
-756483.714148
-756248.913109
2307897.420161
-756420.511453
-756844.711119
2418564.948483
-755461.099177
-756591.544812
-754280.475286
-752417.068290
2555270.640779
-750241.577903
-747883.937502
2658440.991978
-745066.995096
-742069.626234
2772852.178401
-739885.260300
-734388.934822
2889181.803108
-728214.386820
3037480.813670
-719083.437379
3227636.368803
-708073.584401
3316773.420083
-697269.720628
3405966.433704
-683785.184857
3539216.169083
-669277.057529
3649666.213578
-658600.419656
3756332.007274
-640105.848382
3884189.395640
-624829.644452
3973044.729536
-607835.183596
4073935.750379
-587120.593309
4175979.745232
-573987.044737
4277002.236373
-558978.702154
4375310.981055
4468619.949316
4541066.234489
-526713.769411
4636026.849827
4588717.722889
-501999.630684
4728079.269635
4680687.121460
-481378.492997
4769478.237973
4814595.392843
-462818.131599
4854608.340813
4898529.497291
-446821.906868
4935356.950795
4979221.253539
-423619.541060
5016675.992942
5058569.218156
-403709.932678
5091717.023916
5140745.459898
-385656.654635
5189596.457246
-366180.903483
5255074.468039
-348375.985403
5320117.434022
-327414.752633
5382160.742789
-312222.055152
5440341.384164
-295603.720590
5493890.059744
-278844.864586
5543558.791514
-262403.715549
5582699.474766
-246874.525689
5635282.882352
-232221.020752
5673105.416082
-218038.550674
-205841.190948
5707603.933929
-200939.137058
-193855.831468
5738120.719369
-187714.042069
-179887.602743
5763579.662772
-174667.781759
-169397.451752
5789943.324293
-162895.228263
-157099.209971
5802889.459518
-146525.592798
-152842.322115
5814116.203454
-142950.109605
-136401.176706
5823278.895541
-126724.591565
-132735.309811
5825668.416426
-121245.878961
5826173.534759
-114049.476215
5821845.176731
-107543.739047
5811949.169317
-102523.315855
5798778.170307
-96445.442045
5780280.928336
-92318.485755
5758501.288354
-89131.191822
5725917.484376
-85434.745430
5699027.081990
-83204.422979
5665847.447850
-82093.664950
5626328.834457
-82072.663959
5583811.284377
-82952.671373
5539265.095139
-83025.029401
5490257.891031
5455517.194364
-85471.204403
5415956.519972
5389972.900523
-88010.573371
5356034.292281
5328172.929690
-91503.455384
5266630.164829
5294148.036486
-95557.135844
5230242.489989
5197197.363543
-98100.060908
5128431.425265
5162146.349744
-105535.157414
5086946.205923
5052373.721473
-112212.214011
4972449.433096
5010539.704965
-117151.428572
4911116.553505
-124788.910724
4833172.996889
-132822.376994
4746937.602672
-142488.339797
4661245.946834
-149330.286156
4572112.857817
-158396.202767
4480420.545450
-168370.120779
4389554.560509
-177200.701043
4310627.257991
-187473.458143
4193916.490761
-198616.053532
4095633.408841
-209578.672324
-216058.035172
3995101.159992
-223206.690814
-229738.493429
3893354.438036
-235152.648014
-240940.486596
3790768.046418
-247349.662281
-251256.324722
3665431.912655
-257810.382071
-263495.175705
3578897.732337
-270583.353598
-276371.758768
3476602.336739
-283031.771813
-288806.383616
3372026.245465
-294611.283251
-301542.703297
3268849.073611
-311619.469020
3183391.834412
-321790.264268
3031391.207512
-334390.138266
2946890.165534
-346782.337850
2861539.844026
-359270.648344
2735335.688954
-370015.226542
2629586.149810
-379737.126823
2525486.353739
-393743.501916
2398323.288252
-405741.708220
2314627.783692
-415555.663725
2215538.551571
-428845.807691
2114797.087334
-436794.031445
2014317.901801
-444807.863445
1916996.498608
-457017.105408
1824276.254720
-463202.521136
1754986.146486
1700862.303035
-475131.859578
1656879.906343
1605225.749827
-481264.029136
1558629.792803
1513240.468638
-488834.708446
1467190.843603
1423913.782579
-493646.270077
1377853.961645
1336366.222598
-501088.443125
1287412.077022
1245583.296369
-505668.914804
1202722.012700
1163104.845330
-510790.546826
1116603.849071
-514831.010298
1053921.582295
-517712.067163
978470.887141
-520575.208541
899926.451596
-520700.034412
823264.853875
-520480.044749
749738.535744
-520193.885597
678802.350808
-518850.578236
611487.442548
-514989.032632
554497.557048
-510426.233959
476627.321264
-505857.563695
413800.575676
-500542.624813
-496872.529139
352594.751037
-492362.327979
-488922.700919
294318.595982
-484078.191017
-479141.898319
238420.201350
-474207.281926
-468357.241626
174677.201513
-455031.146485
-462664.602930
131752.902873
-448356.949390
-440485.623046
83322.472739
-425289.758113
-433546.234221
38704.366807
-416247.266197
-1016.156274
-402730.953910
-49426.209002
-384077.618464
-90590.722193
-363956.243459
-127800.038721
-341113.359971
-166021.870453
-316482.800652
-199422.416295
-291642.664269
-267153.954364
-231046.434214
SCALARS stress_2 float
LOOKUP_TABLE default
14835.002501
11914.587475
-7040.386631
35569.485482
-28703.530485
54826.898279
-53761.179208
71687.208088
-80133.810100
88053.740774
-107523.663205
103965.279293
-136514.097197
116638.300944
-165567.319313
130088.164397
-198755.839660
142546.738429
-232165.289759
152517.990235
-266155.603999
161609.755783
-303165.022426
171062.002268
-340768.327996
178106.598467
-380764.303663
184872.021677
-421462.646564
190405.630569
-463655.833997
195796.445353
-507796.411665
199436.910521
-554172.346762
203294.993266
-600421.813722
205338.529559
-648975.118202
207408.605219
-699373.891725
208066.207649
-750048.950054
209302.695521
-803741.957518
209135.664760
-856915.186969
208309.592663
-912726.845646
207298.042349
-968566.087774
205204.405295
-1026688.272026
203966.787531
-1084801.976910
201441.123444
-1145642.018189
198517.008958
-1206726.092998
195507.464283
-1268493.017098
192229.509626
-1331259.369000
188645.316627
-1394887.388747
-1459910.230567
184682.243959
-1525461.558788
180903.549082
-1589963.103352
176949.199191
-1656356.561394
171556.724598
-1722151.662856
167655.786838
-1788866.072067
162048.491942
-1857192.976059
157695.892922
-1924794.614877
152976.128614
-1991835.024120
147634.827748
-2059184.476641
141793.553442
-2125375.550947
138207.053053
-2193237.976982
132787.803879
-2260023.214627
127811.096186
-2326282.655360
-2391307.216155
122613.982990
117006.635931
-2455815.778385
112206.108022
-2519796.887753
107039.689532
-2582927.764097
103548.976383
-2645406.104552
97600.715933
-2706820.520433
92933.047016
-2766951.623056
89612.174079
-2824380.566646
84656.268763
-2881809.113951
80235.535513
-2936840.724853
75872.113165
-2991889.737816
71312.781880
-3044776.188439
67559.137584
-3094145.263753
63495.046260
-3141834.117985
59602.136637
-3189735.970970
57459.698982
-3234118.315399
52557.937743
-3276667.999838
49229.261812
-3316739.431158
45946.181293
43345.680795
-3354019.490730
40636.878945
-3388696.246961
38095.033203
-3421766.311166
34818.956538
-3451738.903181
31954.820591
-3479795.210039
30689.948435
-3504386.757234
29003.663141
-3526248.426141
25610.712067
-3546430.623627
24641.332466
-3561948.231066
22883.933230
-3576732.773955
21732.208702
-3585869.472128
20534.024864
-3594195.512619
19796.161880
-3599531.572355
18121.367105
-3600737.752546
17096.453510
-3599548.934566
17709.862792
-3596063.525284
16506.680772
-3587936.438880
16332.500581
-3578211.233654
16660.440845
-3565749.096638
17086.400354
-3549843.280476
17389.702180
-3530827.005004
17493.159292
-3508920.404240
18887.551853
-3484889.783842
18969.354367
-3457370.734915
20435.685460
-3426529.020209
21524.138265
-3393129.892365
23707.831407
-3357946.028313
24975.239391
-3320990.104977
27057.175187
-3279315.950719
30028.418956
-3235944.752569
33220.359383
-3190985.253067
36308.928064
-3142988.333586
37567.243625
-3092901.009517
42624.899196
-3041754.770757
46115.046210
-2987625.208411
48978.191979
-2931350.118034
52985.116664
-2872446.209359
57370.666041
-2813255.853655
62049.653079
-2752359.184939
66850.042177
-2689170.607287
72069.494872
-2624327.340537
77360.551282
-2559483.245854
82405.448659
-2492772.118791
88215.032778
-2424551.787707
93664.692323
-2356060.048157
99957.815979
-2286638.761306
107648.706610
-2216389.179797
113732.144381
-2145197.707705
119979.583586
-2074005.054765
127376.142852
-2002330.167961
134646.905207
-1930042.875653
141720.479173
-1858846.124827
148769.404867
-1785776.625216
156931.952346
-1714017.899522
164203.543103
-1641831.200388
172809.904285
-1569214.964696
180643.000293
-1498879.563716
188216.591082
-1428878.858613
196485.489620
-1358395.796372
205236.031578
-1289316.270965
212822.487014
-1219286.620857
222063.158793
-1152769.315733
230184.316973
-1085036.388401
237500.297225
-1020236.581400
247125.945324
-954682.536057
253839.021224
-892292.080733
261338.946415
-829488.195218
269434.905136
-768365.859305
276577.200252
-709051.477069
283175.016000
-651993.114123
289879.773871
-595276.664437
295748.115195
-540222.736534
301486.885744
-487869.767296
307593.878280
-435785.279423
311838.819951
-385583.676993
316784.046427
-336985.601333
320286.741948
-291590.065040
323085.274988
-246043.982295
325973.339891
-202755.517128
327096.762223
-162188.702344
327647.574790
-121775.093451
328461.231889
-85289.670241
326673.256221
-50045.074043
326637.950652
-15256.827557
323084.532225
15794.937991
319118.217985
47790.189797
314404.767885
75392.763829
308088.247539
102714.627282
300331.025422
127427.648932
292100.591431
151403.187452
282102.738326
173041.720138
270842.107434
193318.029947
258704.458710
211855.442744
245313.314857
228637.925724
-10527.270634
32395.097733
-34721.292357
51361.553199
-60370.803559
69197.345350
-85740.281538
85237.800054
-114130.814908
101979.361802
-143390.880967
115876.846356
-174895.262671
128666.698207
-207114.200066
141027.700313
-241359.051822
151872.297164
-277564.568090
161696.423149
-314144.446006
170747.404134
-352091.130062
178114.260327
-394217.774482
185748.317594
-434931.129417
190506.628948
-478206.553539
196204.520257
-523497.201072
199770.436013
-569818.940794
203540.886318
-617352.959734
206588.282860
-667265.975238
208057.678653
-717212.260156
210157.518188
-769524.360193
211759.160138
-823233.634019
211473.286248
-878145.745964
210395.255189
-933841.817448
208862.087169
-990544.697038
207883.378114
-1048611.473348
206275.605320
-1108432.962140
202839.756191
-1168926.317638
200370.002367
-1229857.204173
197521.669713
-1291584.470311
194433.505587
-1354392.661757
190970.497391
-1418174.324213
186581.122422
-1482128.306248
182796.128038
-1546891.186370
178487.383014
-1613597.204625
173761.667514
-1679124.090955
169059.936133
-1745467.848153
165367.817601
-1810995.324786
159688.569380
-1877655.642273
155286.668768
-1944189.379125
150652.254600
-2011625.722372
145532.041425
-2077665.217718
139303.115064
-2142938.138014
135280.157262
-2208398.857323
130360.221033
-2273630.734316
125858.053734
-2338045.294489
120719.794199
-2400968.777888
115370.528249
-2464622.371544
109741.513344
-2525657.568145
106260.006945
-2586904.607737
100951.094873
-2646487.591532
96802.067393
-2704668.216665
92342.520432
-2761169.975824
87422.658434
-2816630.056042
83366.314577
-2869925.611544
78758.574682
-2922165.253644
76154.153298
-2971906.202180
72292.340693
-3020552.459946
67639.917030
-3066445.246778
63896.139768
-3110724.631081
59830.637639
-3153572.342798
57040.970968
-3192487.331707
53215.617053
-3230467.903466
50447.050399
-3265006.126479
48344.866930
-3297202.101958
45911.846809
-3325965.559845
42216.431736
-3353580.601349
40452.217634
-3378131.837788
38903.136098
-3399471.370370
36275.358769
-3418460.961846
34669.327346
-3434088.680618
32959.821992
-3446871.203615
30381.590063
-3457492.599241
28993.954632
-3464542.663051
27999.728667
-3469041.463448
27706.745347
-3469681.101645
26909.817638
-3468667.916105
26900.844331
-3463380.889412
26114.029871
-3454769.817121
26626.391674
-3445134.800442
26167.591277
-3431089.026406
26213.527467
-3413708.661837
26792.131841
-3394934.893766
27057.608844
-3371876.399120
28285.890071
-3347178.430543
28920.298596
-3318094.207872
31348.766013
-3287611.289408
32965.529575
-3253375.503510
33950.488070
-3216574.918584
36459.030184
-3178383.938704
38191.054705
-3136174.122173
40604.831692
-3092550.688827
44304.259933
-3045640.042742
46341.271024
-2997357.709414
49789.559307
-2947871.211542
53222.175003
-2893486.988804
56665.388171
-2839667.412467
60219.130406
-2782249.225072
64886.181870
-2724717.646456
69806.539769
-2664045.386351
74766.984268
-2601653.730208
78578.904050
-2538533.592206
84061.144891
-2474433.139168
89616.519758
-2409886.166647
94817.535963
-2342739.078719
100874.496371
-2275076.585118
107447.299769
-2206489.600023
113369.706114
-2137558.865973
120774.222715
-2067041.125508
126791.662542
-1996071.292807
133879.785548
-1925783.229036
141219.066239
-1854222.186838
147858.145944
-1784059.113199
155666.650598
-1712387.326374
163854.307351
-1640829.740543
170240.570499
-1569727.641155
179156.253011
-1499342.889375
187492.776378
-1429531.007907
194949.019181
-1359048.739288
203678.132851
-1290822.454788
211356.114596
-1222243.199812
219233.234474
-1154564.194196
227871.252439
-1088193.569165
234889.589983
-1022272.577361
243601.398537
-957672.741488
251594.132398
-894297.074141
259103.245864
-832502.827965
267161.890365
-770490.677095
273692.401574
-711666.449888
281473.625264
-653845.158944
287290.745674
-596802.326963
292738.674190
-541888.358022
299930.562245
-488310.231913
305861.288419
-437292.589962
310453.188382
-386488.750427
314978.903464
-338803.354634
318273.887960
-290371.958092
322499.869019
-246529.507787
324490.129298
-204051.592032
327247.481764
-162401.700723
328084.057643
-123547.389368
327474.702708
-85153.332101
326828.058287
-49018.475908
324601.374232
-14543.494923
323725.496316
17112.631062
317567.980048
47821.227913
314147.128291
76462.230018
307448.190897
103252.081870
300615.809193
128085.566424
292435.743134
152651.128172
282997.209764
173443.582875
271515.731784
194463.375027
258850.220582
245648.198860
212853.830493
230798.340750
-1722.818662
24128.687227
-21531.928373
42876.258673
-43956.781572
61071.979774
-70869.447371
79140.295022
-96409.954572
94798.901552
-125516.673638
109688.819573
-154571.211448
-177519.041745
125303.905117
-210748.485412
-193318.995260
136151.459768
-244861.595004
-227514.255211
146382.774290
-261417.199358
-279694.867620
156406.362055
-300037.859153
-318434.757649
164896.593244
-357078.998296
-336786.951102
174439.414168
-377142.666666
-398019.096506
181460.163788
-441992.348948
-418120.318130
187535.437555
-472731.596456
193672.018424
-515879.235556
198328.078036
-561800.709774
202037.860144
-608473.531222
205745.228885
-658249.273839
206576.728387
-708548.618069
209544.071367
-758492.428919
209378.776940
-802360.082217
210000.668795
-867480.285819
209752.159105
-922582.259935
208983.840832
208238.490893
-979304.506430
205979.394603
206609.931117
-1037565.596629
204329.442533
205741.985812
-1096987.836192
202399.219853
202820.679733
199918.500123
199654.129522
-1169840.738911
197017.762093
196086.608966
-1227121.764730
195493.504521
192054.174564
-1290228.926141
191096.784019
188310.770286
-1354781.035991
184562.411095
-1438042.545380
181598.283427
-1549623.462833
177178.115273
-1601521.086951
173313.957022
-1654126.394612
167713.215984
-1734636.554235
163869.534039
-1801272.682792
159556.935475
-1867193.783428
153922.684355
-1947080.691049
148627.402554
-2003035.408342
143624.081701
-2068089.732461
137049.797071
-2133833.205776
133219.634083
-2200494.822980
129996.716410
-2266544.767168
-2328055.178853
-2378619.218599
121222.995452
-2443773.178219
-2411788.349011
113628.317710
-2509531.602736
-2475357.526074
108005.122689
-2539267.135943
-2570980.627446
104661.212214
-2600071.312311
-2632680.555447
99609.857373
-2659283.977738
-2691324.925370
94774.883698
-2721319.436896
-2750924.250512
90944.978010
-2777217.882605
-2813480.994254
86328.517240
-2851958.742232
81838.011493
-2903852.979946
76997.293945
-2957216.915071
72717.104766
-3007995.719040
68990.832749
-3056063.304119
65630.796620
-3103876.802074
62002.599126
-3147771.669304
59295.039111
-3183989.954837
55318.418017
-3234666.776375
51531.882919
-3273264.810720
49575.248826
46685.014888
-3308813.170454
44166.893917
43275.700199
-3342469.552712
42330.172240
40743.322335
-3374318.634421
39502.990396
37616.391716
-3409942.476529
37358.390123
36559.002696
-3428501.854199
34070.525800
35690.923781
-3451375.936598
33351.079021
31911.414938
-3472003.883962
29707.435584
31031.597395
-3486214.416723
28695.426755
-3504233.798728
26463.983361
-3517089.647962
25716.972647
-3525519.349618
24627.432930
-3530847.515010
22672.093279
-3534567.972499
22789.058132
-3534412.790488
22059.254731
-3530524.736174
21101.843096
-3525110.692708
20824.900724
-3516604.239272
20680.443236
-3504496.156209
21288.277844
-3489788.639259
22210.576188
-3473207.081099
22666.726954
-3452157.226898
-3439659.239692
23040.901590
-3419518.227752
-3408319.425261
23654.220629
-3392487.480652
-3380171.805673
24973.133685
-3349886.758521
-3361899.122446
25857.216513
-3331650.573003
-3314798.239604
28264.523381
-3280301.619046
-3296674.774414
29239.562647
-3257055.122086
-3238829.829792
31870.480938
-3196357.720582
-3215854.909973
33782.098680
-3162562.051862
36825.738946
-3119542.568394
39803.704601
-3069432.199466
42549.430790
-3020165.803203
46412.597530
-2966956.274605
49392.615722
-2912091.121038
52673.350971
-2858029.904523
57112.121940
-2809540.176541
60577.802791
-2738564.365720
65075.461656
-2676453.083267
69889.666896
73624.446043
-2613463.589015
75826.846148
78974.158881
-2548856.049784
82292.878878
84391.912027
-2483965.955473
87870.496449
89598.810025
-2402280.590478
93468.872230
95433.999735
-2346692.714707
98272.825267
102006.162203
-2280768.535265
105065.230445
108531.984369
-2211521.200611
111926.562571
115448.091937
-2143317.361029
119212.943706
-2087490.374198
127134.772835
-1984635.788184
134572.907795
-1926979.012431
141434.144315
-1870192.838864
148463.450824
-1784143.153475
156279.373592
-1713746.474328
162736.137105
-1641425.756129
171810.711654
-1554187.088829
180601.611018
-1496839.908508
188269.482461
-1428306.752289
197298.925808
-1358839.156888
204222.449323
-1290012.022360
211120.391058
-1220584.916872
222274.671330
-1157243.634131
227089.750453
-1109204.374996
-1070150.230387
238919.381818
-1040393.192116
-1003977.137834
244739.644836
-972632.352171
-941094.907769
252765.989310
-909260.260845
-879057.751001
258115.741071
-846153.102085
-817647.255619
267428.764418
-783395.430883
-753767.488619
274614.524855
-724904.100578
-697114.982424
281873.434655
-663407.233095
289351.188161
-621356.152931
295506.696759
-568498.758489
302009.010443
-515474.127060
306837.357145
-462286.367198
311139.177819
-411368.880207
316071.271556
-362236.174992
320297.308016
-315696.974793
322490.114190
-278116.931918
325073.296259
-224199.149810
326263.791015
-182711.090198
328179.155822
327851.615774
-142006.509329
328639.251437
327378.246195
-104003.235563
326949.053527
327531.780513
-67734.485943
325304.480093
324466.390202
-24917.148559
322151.637800
323591.485089
1966.601770
320423.001636
317448.103043
32864.904085
312378.782797
316185.471665
61822.369043
309206.487237
85901.850908
303812.676601
115440.108653
296507.352331
140706.026674
287364.301009
162659.060880
276660.377339
182982.871610
265617.425287
204316.669553
252921.566332
239828.289798
221072.240999
SCALARS stress_3 float
LOOKUP_TABLE default
127974.912570
81715.949080
-86193.342901
333156.452229
-309307.907364
530107.461444
-540630.085222
717867.177291
-780045.791106
896641.107580
-1027937.651860
1067011.319639
-1283783.938223
1227943.728101
-1547574.514112
1380244.603702
-1818948.057085
1523174.894739
-2097334.227650
1657501.838284
-2383499.499956
1782941.619708
-2675954.500847
1899581.476084
-2975737.297651
2007458.355707
-3281133.957696
2106818.173209
-3592943.667342
2197491.199327
-3910700.341222
2279642.789176
-4233554.758877
2353878.094462
-4561298.157379
2419804.352259
-4893935.637723
2477761.747934
-5230971.352604
2527965.162457
-5572090.962531
2570243.188015
-5916605.297758
2605818.095346
-6263864.781720
2633495.442975
-6614284.804188
2654401.145533
-6966935.229080
2668507.998619
-7320983.802273
2676087.035897
-7676876.794506
2677374.493448
-8033117.748246
2672528.845421
-8390145.493746
2661675.650340
-8747127.217369
2645700.263320
-9103589.749367
2623888.039476
-9459108.632210
2597708.740743
-9813034.492741
-10164951.076837
2566376.637857
-10514792.807934
2530240.373722
-10861319.635319
2490507.185410
-11204474.745351
2446493.105594
-11543930.087319
2398605.218651
-11879220.084658
2347455.760663
-12209153.246170
2293666.849671
-12534080.198700
2236835.484684
-12853289.044232
2177271.987152
-13165691.172537
2115629.152673
-13471806.126082
2052104.946592
-13770513.854155
1986769.283541
-14061638.255329
1920051.569346
-14344618.363268
-14618934.636064
1852141.922049
1783238.103585
-14884819.429823
1713762.231994
-15140815.524085
1643671.713105
-15387340.190582
1573844.105441
-15624288.615673
1503757.374347
-15850485.104752
1434016.518832
-16065881.963214
1364644.063756
-16270318.936934
1296309.771053
-16463540.738128
1228364.165584
-16644891.265368
1162196.246357
-16814595.434278
1096836.741642
-16971845.346841
1032915.209965
-17117145.511862
970741.260563
-17249703.675217
909993.214886
-17369329.108637
851420.478763
-17476534.473620
795253.577053
-17570343.363349
740481.559479
-17651245.558356
688239.103597
638475.462539
-17718577.414747
590982.280198
-17773027.797433
546308.199476
-17813749.011807
503868.711568
-17841494.329599
463997.578410
-17855864.259613
426740.968756
-17856628.226275
392113.051359
-17844306.585691
360759.791563
-17818597.118395
331872.477156
-17779852.180494
305632.157859
-17728081.196413
281918.680974
-17663405.437883
261145.655740
-17586025.413706
243007.810427
-17496190.955130
227647.110378
-17394087.689990
214535.046790
-17279595.974393
204213.432312
-17153485.588871
196217.147909
-17015477.652459
190928.413049
-16866286.352507
187898.871626
-16705944.197821
187326.895802
-16535005.223055
188714.654332
-16352870.699940
192109.638413
-16161831.019237
198102.576314
-15960694.333644
205772.043610
-15749415.593440
215173.684194
-15529979.510837
226337.717532
-15301508.120491
238975.787518
-15065003.253649
253774.469726
-14820970.741556
269877.255352
-14568924.822279
286986.872666
-14310578.004620
305767.016275
-14045221.645678
325576.821268
-13774016.101560
346175.931540
-13497140.119134
368098.566556
-13214843.020843
390849.133137
-12928063.756967
414234.969781
-12636987.802644
438070.804761
-12341825.752046
462788.892197
-12043651.283723
487772.723287
-11742178.788437
513190.196047
-11438538.707664
538960.394854
-11132572.313133
564755.421133
-10825650.605836
590622.562671
-10516767.060913
616738.073592
-10207139.916428
642605.648501
-9897794.647522
668568.982005
-9587934.255185
694004.887742
-9278848.774075
719240.093983
-8970452.645666
744163.821188
-8663588.464130
768687.713248
-8358034.111427
792715.312074
-8054631.825622
816167.584001
-7753615.488673
838668.630456
-7454923.694754
860810.502151
-7159270.529232
882313.656619
-6866898.026765
902834.704089
-6578289.391752
922573.542577
-6293326.302744
941115.545239
-6012627.760732
958620.203271
-5736299.647675
975569.093238
-5464433.727491
990922.265853
-5197470.915803
1005288.534757
-4935535.179938
1018219.950660
-4679011.282824
1030390.090129
-4427662.581557
1040743.207287
-4182026.805401
1049960.675288
-3942042.192421
1057890.951665
-3707455.387502
1063839.206165
-3479389.035529
1068814.252425
-3257053.577977
1071065.260193
-3040874.540700
1072376.686999
-2830831.687614
1071878.262107
-2627013.985056
1069378.239639
-2429472.637427
1064678.755677
-2238473.730095
1057996.420450
-2053635.704538
1049276.810523
-1875080.290015
1038193.095642
-1702818.894339
1024603.615299
-1536604.636543
1008892.216796
-1376905.331257
990141.799141
-1223297.741408
969073.125261
-1075984.715289
945239.415615
-934360.897788
918250.755570
-798844.018165
888395.958766
-669588.161789
855348.957876
-545588.380365
819039.685570
-427949.436820
779365.515004
-315683.145783
736071.972031
-208534.270182
689321.396142
-107297.861720
638491.109779
-11215.649660
583991.249025
79718.280629
525151.543141
165765.996475
462013.365283
247005.005691
394930.800820
323210.545349
-134640.967951
289352.337653
-359997.243696
488240.942651
-593470.385967
678268.797739
-835810.309395
859113.410729
-1085855.234004
1031123.933326
-1344059.074427
1193995.195784
-1610171.897990
1347548.349808
-1883864.331540
1492461.462727
-2164334.645813
1628307.686246
-2452732.145211
1755189.494511
-2747496.016096
1872888.395336
-3048663.410172
1981841.743834
-3356394.073317
2082383.047818
-3670053.309933
2174062.425329
-3989279.390758
2256997.384178
-4313192.061669
2331833.076070
-4642148.270961
2398704.178563
-4975796.527437
2457351.080436
-5313373.372575
2507611.899730
-5654462.196143
2550771.788149
-5998741.777684
2585853.016433
-6346122.387936
2613900.024072
-6695354.450333
2635279.081804
-7046572.947826
2649571.544746
-7399441.473596
2657166.971420
-7753110.247668
2658511.276459
-8106754.100296
2653745.052050
-8460740.777358
2643362.060130
-8814292.702287
2627047.808508
-9166673.468265
2605560.262530
-9517553.854834
2579112.014384
-9866292.641533
2547988.978701
-10212721.421544
2512509.120827
-10555879.737335
2472877.389055
-10895150.215749
2429300.511656
-11230716.806074
2381758.317893
-11561858.847368
2331361.129217
-11887983.932811
2277889.588529
-12208171.045354
2221717.610460
-12522819.727465
2162962.194020
-12830666.487947
2102220.541625
-13131430.106342
2039643.534243
-13424837.972420
1975507.611367
-13710715.103789
1910186.891036
-13987555.771185
1843655.338595
-14255753.399036
1776373.953053
-14515018.614186
1708509.615376
-14764743.925439
1640482.968467
-15004161.994295
1572314.655226
-15233071.447598
1504587.556622
-15451489.913185
1437051.078482
-15659232.577416
1369702.779330
-15855060.101792
1304077.184027
-16039444.995117
1239139.138885
-16211915.003267
1175351.524870
-16372078.431637
1113103.544401
-16520120.551956
1052192.603306
-16655296.703281
993081.429855
-16777504.157343
935862.666949
-16886711.779051
880582.636040
-16982703.517693
827686.793668
-17065688.594286
776693.054464
-17135403.161525
728207.994002
-17191552.084322
681933.170807
-17233632.990512
638587.313148
-17262749.829383
597104.233674
-17278352.228770
558857.490909
-17280384.494069
522806.219943
-17268784.253113
489684.182710
-17243872.218118
459097.191857
-17205937.253993
431491.975655
-17154453.191985
406090.499449
-17090172.897002
383706.931991
-17013057.844185
363876.764480
-16922996.898444
346732.843225
-16820879.687615
332250.659424
-16706235.127321
320516.585240
-16579457.201505
311081.145534
-16441355.385306
303870.356363
-16291371.306560
299267.302104
-16130609.474072
296918.354921
-15958433.041530
297134.649904
-15776474.517736
299130.711913
-15584271.733938
303073.676038
-15381834.724790
309513.711033
-15170628.762023
317329.951988
-14950136.032990
327457.686690
-14721270.775755
338791.287302
-14484049.855229
351850.448431
-14239019.712888
366481.542241
-13986894.536083
382452.619444
-13727819.596545
399994.052205
-13462517.335749
417976.975613
-13191445.178121
437393.236971
-12914621.209030
458001.615262
-12632519.971936
479242.161200
-12346087.145387
501410.009875
-12055710.086482
524143.889556
-11761622.066951
547476.461186
-11464345.680965
571278.453036
-11164619.726108
595021.559711
-10862365.321410
619498.035335
-10558537.620562
644131.371104
-10253498.098703
668608.905517
-9947441.197307
693251.452214
-9640689.510548
717553.383358
-9334484.157457
742188.072105
-9027972.495134
766010.856955
-8722517.880676
790029.229104
-8418449.433117
813340.561708
-8115394.153447
836167.430339
-7814770.076324
858687.564261
-7516419.083706
880379.945867
-7220496.736101
901229.185384
-6927772.152541
921940.503273
-6638432.130610
940993.390730
-6352103.671298
959940.305287
-6069844.859974
977054.263993
-5792019.053737
994063.673668
-5518267.931135
1009561.195254
-5249339.662907
1024186.879463
-4985299.520782
1037382.099452
-4726670.556465
1049291.312753
-4473118.804611
1059874.926185
-4224934.350589
1069150.160206
-3982624.602210
1077182.235277
-3745551.594131
1083499.558215
-3514885.818539
1088383.705587
-3290101.513501
1091226.931516
-3071322.086826
1092486.405745
-2858549.623885
1091915.908252
-2652522.566153
1089323.845855
-2452387.558513
1085255.235604
-2258834.330230
1078615.654062
-2071266.441810
1069718.830494
-1890157.622517
1058533.985357
-1715838.720644
1045285.728880
-1547271.618151
1029201.519588
-1385131.926258
1010832.848677
-1229516.967410
989966.767853
-1079949.589899
965651.531237
-936640.285915
938584.868091
-799190.937417
908657.474015
-668108.036592
875317.603130
-542474.228326
838888.103732
-422996.004808
798889.789459
-309106.891889
755229.355910
-200745.737865
707884.532346
-98186.475406
656512.691924
-775.952810
601531.767314
91748.660180
542063.843886
178552.515269
478582.701616
410522.425870
260737.120267
337805.508839
-45446.210070
209115.963735
-229246.430763
411418.298494
-451035.590155
604651.374539
-686174.079546
789132.343576
-931125.929636
964556.391966
-1182277.972290
1131096.874823
-1432783.975284
-1638858.332097
1303606.247036
-1912827.003284
-1777040.626837
1439003.117647
-2195759.001748
-2063091.643018
1576172.629211
-2344472.244654
-2491364.659226
1702585.119079
-2640577.353718
-2791400.248520
1803948.530889
-3090067.397901
-2933710.671235
1941346.251156
-3240996.214292
-3401458.164766
2045647.470021
-3738900.606126
-3550095.503852
2140974.813126
-3967485.482339
2228206.347797
-4275670.961263
2306659.835972
-4602014.774957
2390357.585435
-4934096.472166
2441092.735800
-5271670.590767
2493882.623612
-5609947.516259
2540396.073846
-5944095.158936
2578958.895560
-6231598.590996
2610424.143497
-6655444.248494
2634863.335887
-7005937.467499
2652827.839934
2661516.867980
-7359468.856255
2667764.567537
2665459.662655
-7714338.375272
2667372.295954
2667954.517113
-8069618.177247
2661361.050771
2664630.128778
2655922.537293
2648861.178930
-8503244.778616
2641075.790204
2631622.729859
-8828630.204433
2621357.017954
2608091.034711
-9187952.788321
2595531.423607
2578678.702348
-9551430.564653
2554966.028591
-10012358.909183
2520599.464532
-10603257.670704
2481535.516711
-10877351.348101
2437723.816374
-11150489.117814
2390662.978783
-11553293.316476
2341405.096133
-11883661.697141
2297292.421537
-12209175.156611
2229326.527827
-12587591.855801
2170475.274250
-12850972.191381
2109279.157875
-13148751.063712
2032677.422577
-13447108.806785
1981155.167541
-13739696.242859
1928633.940278
-14024869.430521
-14288320.053351
-14498620.211226
1809310.897293
-14760764.265564
-14631631.173427
1720566.451694
-15022815.744137
-14888516.826833
1648524.335518
-15136230.278881
-15257455.007357
1579817.580802
-15368658.125238
-15492642.973799
1518699.574918
-15589198.942158
-15706091.880682
1435538.906128
-15804548.714010
-15920583.261771
1367651.012182
-16006477.376695
-16138155.022652
1300167.195240
-16260873.975392
1233862.132860
-16426798.762962
1168900.671354
-16589187.599451
1092242.508118
-16741692.617721
1040909.105076
-16882561.755775
982152.437210
-17008822.518824
923123.856137
-17120278.147907
866869.774885
-17206374.822375
811192.395558
-17316297.258421
759259.778797
-17391394.402470
710524.034461
671691.287513
-17453552.394265
649241.198663
626326.050428
-17501930.420166
604208.015024
579702.374781
-17537162.311419
560494.552344
540259.924512
-17565219.846587
520293.953655
500156.391353
-17565621.425387
465394.960562
484786.674197
-17559575.344314
451262.030951
432676.704110
-17544221.758907
398881.879831
419299.212690
-17517942.843613
380673.253271
-17466014.993895
355972.444647
-17408050.040941
333711.997030
-17337123.499899
312892.040115
-17253555.676162
296349.394498
-17157532.807795
281610.272510
-17049007.759709
270834.656812
-16904218.396346
258358.391899
-16790345.333002
250982.265714
-16652935.095969
245981.134081
-16495945.981455
243252.957818
-16331691.750579
242707.498861
-16158901.872220
244808.451815
-15980068.268134
-15852402.850109
248375.545310
-15716612.882544
-15621642.346874
254492.473865
-15502475.855117
-15405884.097253
261862.417731
-15191235.582534
-15287621.349139
271506.748650
-15067562.853148
-14954834.656487
280156.948399
-14721857.737258
-14835982.087234
296195.769339
-14585243.017368
-14467403.409367
310635.878085
-14204276.360534
-14332906.944467
326857.852184
-14009958.567112
344467.860389
-13754365.027320
362570.716340
-13479748.767709
386538.329024
-13203392.895081
403975.605826
-12922920.756308
424894.871226
-12635801.013947
447210.857588
-12353603.647157
470195.503476
-12109889.050198
492985.686318
-11752163.213435
517991.799988
-11451740.674941
540864.024384
557098.736678
-11148653.737321
574021.996177
585186.978528
-10844065.554262
599760.919236
610899.282496
-10537705.448209
624964.705411
635437.068979
-10166295.012348
649120.095928
661015.251635
-9911901.907424
674238.221115
685965.922144
-9612277.996602
700586.371366
712196.758822
-9306953.123050
725113.900723
736257.146887
-9008271.872002
756023.678350
-8760959.413582
778911.752234
-8326512.482359
802850.420368
-8082859.357113
826038.890243
-7843094.437509
848618.170917
-7485381.699956
869947.802864
-7189457.816331
887779.466787
-6896469.069908
912072.614530
-6545163.026610
931831.155060
-6311093.599591
950470.774395
-6038249.175422
971672.200719
-5763072.366578
984641.435467
-5491048.262451
997379.128623
-5226323.323294
1017018.019607
-4975126.125229
1025755.325888
-4790233.763897
-4641368.967417
1042221.388500
-4524878.554153
-4385809.849792
1050771.578397
-4263969.085892
-4143473.214488
1059446.132185
-4022517.908681
-3906059.363687
1065873.015458
-3785880.685412
-3674935.732291
1073795.635166
-3548128.827499
-3437630.632350
1078419.833192
-3326006.580978
-3221885.336537
1081342.314175
-3099268.508443
1082562.925418
-2938429.460708
1081891.446898
-2739075.232405
1078704.048915
-2538596.258735
1074920.616855
-2343570.132371
1068338.634687
-2154817.383069
1059353.260653
-1973062.253170
1048665.523266
-1801365.770069
1034940.373114
-1659484.127516
1018963.230159
-1460770.378052
1000983.759117
-1303076.889878
986158.314579
974197.663441
-1151501.355206
962531.639232
948882.322489
-1005942.012102
935362.516887
920803.371749
-866512.793237
906125.790820
890787.011699
-705929.647428
856714.468290
873850.415782
-601399.559176
837840.148692
819088.515207
-483965.866890
778056.668822
799140.907135
-370699.634741
753096.211484
-273184.842603
719887.726945
-153359.416904
673137.011798
-53858.934047
620589.376581
40281.467599
563593.866232
129194.437194
503101.172624
213487.159425
439458.482855
381615.108472
292909.494184
