# vtk DataFile Version 2.0
Generated volume Mesh
ASCII
DATASET UNSTRUCTURED_GRID
POINTS 994 float
-0.416146 -0.294827 0.000000
-0.409251 -0.287252 0.000000
-0.421925 -0.286495 0.000000
-0.410201 -0.303043 0.000000
-0.427538 -0.278049 0.000000
-0.404095 -0.311138 0.000000
-0.432982 -0.269494 0.000000
-0.397829 -0.319111 0.000000
-0.438254 -0.260832 0.000000
-0.391406 -0.326958 0.000000
-0.443353 -0.252067 0.000000
-0.384828 -0.334675 0.000000
-0.448277 -0.243202 0.000000
-0.378098 -0.342260 0.000000
-0.453024 -0.234242 0.000000
-0.371218 -0.349710 0.000000
-0.457592 -0.225188 0.000000
-0.364192 -0.357021 0.000000
-0.461979 -0.216046 0.000000
-0.357021 -0.364192 0.000000
-0.466183 -0.206818 0.000000
-0.349710 -0.371218 0.000000
-0.470203 -0.197508 0.000000
-0.342260 -0.378098 0.000000
-0.474037 -0.188120 0.000000
-0.334675 -0.384828 0.000000
-0.477683 -0.178658 0.000000
-0.326958 -0.391406 0.000000
-0.481141 -0.169126 0.000000
-0.319111 -0.397829 0.000000
-0.484408 -0.159526 0.000000
-0.311138 -0.404095 0.000000
-0.487484 -0.149864 0.000000
-0.303043 -0.410201 0.000000
-0.490368 -0.140141 0.000000
-0.294827 -0.416146 0.000000
-0.493057 -0.130363 0.000000
-0.286495 -0.421925 0.000000
-0.495552 -0.120532 0.000000
-0.278049 -0.427538 0.000000
-0.497851 -0.110654 0.000000
-0.269494 -0.432982 0.000000
-0.499953 -0.100732 0.000000
-0.260832 -0.438254 0.000000
-0.501857 -0.090771 0.000000
-0.252067 -0.443353 0.000000
-0.503563 -0.080774 0.000000
-0.243202 -0.448277 0.000000
-0.505069 -0.070746 0.000000
-0.234242 -0.453024 0.000000
-0.506376 -0.060691 0.000000
-0.225188 -0.457592 0.000000
-0.507482 -0.050612 0.000000
-0.216046 -0.461979 0.000000
-0.508388 -0.040514 0.000000
-0.206818 -0.466183 0.000000
-0.509093 -0.030400 0.000000
-0.197508 -0.470203 0.000000
-0.509597 -0.020274 0.000000
-0.188120 -0.474037 0.000000
-0.509899 -0.010139 0.000000
-0.178658 -0.477683 0.000000
-0.510000 0.000000 0.000000
-0.169126 -0.481141 0.000000
-0.509899 0.010139 0.000000
-0.509597 0.020274 0.000000
-0.159526 -0.484408 0.000000
-0.509093 0.030400 0.000000
-0.149864 -0.487484 0.000000
-0.508388 0.040514 0.000000
-0.140141 -0.490368 0.000000
-0.507482 0.050612 0.000000
-0.130363 -0.493057 0.000000
-0.506376 0.060691 0.000000
-0.120532 -0.495552 0.000000
-0.505069 0.070746 0.000000
-0.110654 -0.497851 0.000000
-0.503563 0.080774 0.000000
-0.100732 -0.499953 0.000000
-0.501857 0.090771 0.000000
-0.090771 -0.501857 0.000000
-0.499953 0.100732 0.000000
-0.080774 -0.503563 0.000000
-0.497851 0.110654 0.000000
-0.070746 -0.505069 0.000000
-0.495552 0.120532 0.000000
-0.060691 -0.506376 0.000000
-0.493057 0.130363 0.000000
-0.050612 -0.507482 0.000000
-0.490368 0.140141 0.000000
-0.040514 -0.508388 0.000000
-0.487484 0.149864 0.000000
-0.484408 0.159526 0.000000
-0.030400 -0.509093 0.000000
-0.020274 -0.509597 0.000000
-0.481141 0.169126 0.000000
-0.010139 -0.509899 0.000000
-0.477683 0.178658 0.000000
0.000000 -0.510000 0.000000
-0.474037 0.188120 0.000000
0.010139 -0.509899 0.000000
-0.470203 0.197508 0.000000
0.020274 -0.509597 0.000000
-0.466183 0.206818 0.000000
0.030400 -0.509093 0.000000
-0.461979 0.216046 0.000000
0.040514 -0.508388 0.000000
-0.457592 0.225188 0.000000
0.050612 -0.507482 0.000000
-0.453024 0.234242 0.000000
0.060691 -0.506376 0.000000
-0.448277 0.243202 0.000000
0.070746 -0.505069 0.000000
-0.443353 0.252067 0.000000
0.080774 -0.503563 0.000000
-0.438254 0.260832 0.000000
0.090771 -0.501857 0.000000
-0.432982 0.269494 0.000000
0.100732 -0.499953 0.000000
-0.427538 0.278049 0.000000
0.110654 -0.497851 0.000000
-0.421925 0.286495 0.000000
0.120532 -0.495552 0.000000
-0.416146 0.294827 0.000000
0.130363 -0.493057 0.000000
-0.410201 0.303043 0.000000
0.140141 -0.490368 0.000000
-0.404095 0.311138 0.000000
0.149864 -0.487484 0.000000
0.159526 -0.484408 0.000000
-0.397829 0.319111 0.000000
0.169126 -0.481141 0.000000
-0.391406 0.326958 0.000000
0.178658 -0.477683 0.000000
-0.384828 0.334675 0.000000
0.188120 -0.474037 0.000000
-0.378098 0.342260 0.000000
0.197508 -0.470203 0.000000
-0.371218 0.349710 0.000000
0.206818 -0.466183 0.000000
-0.364192 0.357021 0.000000
0.216046 -0.461979 0.000000
-0.357021 0.364192 0.000000
0.225188 -0.457592 0.000000
-0.349710 0.371218 0.000000
0.234242 -0.453024 0.000000
-0.342260 0.378098 0.000000
0.243202 -0.448277 0.000000
-0.334675 0.384828 0.000000
0.252067 -0.443353 0.000000
-0.326958 0.391406 0.000000
0.260832 -0.438254 0.000000
-0.319111 0.397829 0.000000
0.269494 -0.432982 0.000000
-0.311138 0.404095 0.000000
0.278049 -0.427538 0.000000
-0.303043 0.410201 0.000000
0.286495 -0.421925 0.000000
-0.294827 0.416146 0.000000
0.294827 -0.416146 0.000000
-0.286495 0.421925 0.000000
0.303043 -0.410201 0.000000
-0.278049 0.427538 0.000000
0.311138 -0.404095 0.000000
-0.269494 0.432982 0.000000
0.319111 -0.397829 0.000000
-0.260832 0.438254 0.000000
0.326958 -0.391406 0.000000
-0.252067 0.443353 0.000000
0.334675 -0.384828 0.000000
-0.243202 0.448277 0.000000
0.342260 -0.378098 0.000000
-0.234242 0.453024 0.000000
0.349710 -0.371218 0.000000
-0.225188 0.457592 0.000000
0.357021 -0.364192 0.000000
-0.216046 0.461979 0.000000
0.364192 -0.357021 0.000000
-0.206818 0.466183 0.000000
0.371218 -0.349710 0.000000
-0.197508 0.470203 0.000000
0.378098 -0.342260 0.000000
-0.188120 0.474037 0.000000
0.384828 -0.334675 0.000000
-0.178658 0.477683 0.000000
0.391406 -0.326958 0.000000
-0.169126 0.481141 0.000000
0.397829 -0.319111 0.000000
-0.159526 0.484408 0.000000
0.404095 -0.311138 0.000000
-0.149864 0.487484 0.000000
0.410201 -0.303043 0.000000
-0.140141 0.490368 0.000000
0.416146 -0.294827 0.000000
-0.130363 0.493057 0.000000
0.421925 -0.286495 0.000000
-0.120532 0.495552 0.000000
0.427538 -0.278049 0.000000
-0.110654 0.497851 0.000000
0.432982 -0.269494 0.000000
-0.100732 0.499953 0.000000
0.438254 -0.260832 0.000000
-0.090771 0.501857 0.000000
0.443353 -0.252067 0.000000
-0.080774 0.503563 0.000000
0.448277 -0.243202 0.000000
-0.070746 0.505069 0.000000
0.453024 -0.234242 0.000000
-0.060691 0.506376 0.000000
0.457592 -0.225188 0.000000
-0.050612 0.507482 0.000000
0.461979 -0.216046 0.000000
-0.040514 0.508388 0.000000
0.466183 -0.206818 0.000000
-0.030400 0.509093 0.000000
0.470203 -0.197508 0.000000
-0.020274 0.509597 0.000000
0.474037 -0.188120 0.000000
-0.010139 0.509899 0.000000
0.477683 -0.178658 0.000000
0.000000 0.510000 0.000000
0.481141 -0.169126 0.000000
0.010139 0.509899 0.000000
0.484408 -0.159526 0.000000
0.020274 0.509597 0.000000
0.487484 -0.149864 0.000000
0.030400 0.509093 0.000000
0.490368 -0.140141 0.000000
0.040514 0.508388 0.000000
0.493057 -0.130363 0.000000
0.050612 0.507482 0.000000
0.495552 -0.120532 0.000000
0.060691 0.506376 0.000000
0.497851 -0.110654 0.000000
0.070746 0.505069 0.000000
0.499953 -0.100732 0.000000
0.080774 0.503563 0.000000
0.501857 -0.090771 0.000000
0.090771 0.501857 0.000000
0.503563 -0.080774 0.000000
0.100732 0.499953 0.000000
0.505069 -0.070746 0.000000
0.110654 0.497851 0.000000
0.506376 -0.060691 0.000000
0.120532 0.495552 0.000000
0.507482 -0.050612 0.000000
0.130363 0.493057 0.000000
0.508388 -0.040514 0.000000
0.140141 0.490368 0.000000
0.509093 -0.030400 0.000000
0.149864 0.487484 0.000000
0.509597 -0.020274 0.000000
0.159526 0.484408 0.000000
0.509899 -0.010139 0.000000
0.169126 0.481141 0.000000
0.510000 0.000000 0.000000
0.178658 0.477683 0.000000
0.509899 0.010139 0.000000
0.188120 0.474037 0.000000
0.509597 0.020274 0.000000
0.197508 0.470203 0.000000
0.509093 0.030400 0.000000
0.206818 0.466183 0.000000
0.508388 0.040514 0.000000
0.216046 0.461979 0.000000
0.507482 0.050612 0.000000
0.225188 0.457592 0.000000
0.506376 0.060691 0.000000
0.234242 0.453024 0.000000
0.505069 0.070746 0.000000
0.243202 0.448277 0.000000
0.503563 0.080774 0.000000
0.252067 0.443353 0.000000
0.501857 0.090771 0.000000
0.260832 0.438254 0.000000
0.499953 0.100732 0.000000
0.269494 0.432982 0.000000
0.497851 0.110654 0.000000
0.278049 0.427538 0.000000
0.495552 0.120532 0.000000
0.286495 0.421925 0.000000
0.493057 0.130363 0.000000
0.294827 0.416146 0.000000
0.490368 0.140141 0.000000
0.303043 0.410201 0.000000
0.487484 0.149864 0.000000
0.311138 0.404095 0.000000
0.484408 0.159526 0.000000
0.319111 0.397829 0.000000
0.481141 0.169126 0.000000
0.326958 0.391406 0.000000
0.477683 0.178658 0.000000
0.334675 0.384828 0.000000
0.474037 0.188120 0.000000
0.342260 0.378098 0.000000
0.470203 0.197508 0.000000
0.349710 0.371218 0.000000
0.466183 0.206818 0.000000
0.357021 0.364192 0.000000
0.461979 0.216046 0.000000
0.364192 0.357021 0.000000
0.457592 0.225188 0.000000
0.371218 0.349710 0.000000
0.453024 0.234242 0.000000
0.378098 0.342260 0.000000
0.448277 0.243202 0.000000
0.384828 0.334675 0.000000
0.443353 0.252067 0.000000
0.391406 0.326958 0.000000
0.438254 0.260832 0.000000
0.397829 0.319111 0.000000
0.432982 0.269494 0.000000
0.404095 0.311138 0.000000
0.427538 0.278049 0.000000
0.410201 0.303043 0.000000
0.421925 0.286495 0.000000
0.416146 0.294827 0.000000
-0.415025 -0.278844 0.000000
-0.403306 -0.295541 0.000000
-0.420627 -0.270320 0.000000
-0.397194 -0.303706 0.000000
-0.426054 -0.261684 0.000000
-0.390916 -0.311745 0.000000
-0.431303 -0.252938 0.000000
-0.384475 -0.319654 0.000000
-0.436373 -0.244088 0.000000
-0.377875 -0.327430 0.000000
-0.441261 -0.235136 0.000000
-0.371117 -0.335070 0.000000
-0.445965 -0.226086 0.000000
-0.364205 -0.342571 0.000000
-0.450484 -0.216942 0.000000
-0.357141 -0.349929 0.000000
-0.454816 -0.207707 0.000000
-0.349929 -0.357141 0.000000
-0.458958 -0.198386 0.000000
-0.342571 -0.364205 0.000000
-0.462910 -0.188983 0.000000
-0.335070 -0.371117 0.000000
-0.466668 -0.179501 0.000000
-0.327430 -0.377875 0.000000
-0.470233 -0.169944 0.000000
-0.319654 -0.384475 0.000000
-0.473602 -0.160317 0.000000
-0.311745 -0.390916 0.000000
-0.476773 -0.150623 0.000000
-0.303706 -0.397194 0.000000
-0.479747 -0.140866 0.000000
-0.295541 -0.403306 0.000000
-0.482520 -0.131050 0.000000
-0.287252 -0.409251 0.000000
-0.485094 -0.121178 0.000000
-0.278844 -0.415025 0.000000
-0.487465 -0.111256 0.000000
-0.270320 -0.420627 0.000000
-0.489633 -0.101287 0.000000
-0.261684 -0.426054 0.000000
-0.491598 -0.091277 0.000000
-0.252938 -0.431303 0.000000
-0.493358 -0.081229 0.000000
-0.244088 -0.436373 0.000000
-0.494912 -0.071148 0.000000
-0.235136 -0.441261 0.000000
-0.496260 -0.061039 0.000000
-0.226086 -0.445965 0.000000
-0.497402 -0.050904 0.000000
-0.216942 -0.450484 0.000000
-0.498337 -0.040749 0.000000
-0.207707 -0.454816 0.000000
-0.499064 -0.030577 0.000000
-0.198386 -0.458958 0.000000
-0.499584 -0.020392 0.000000
-0.188983 -0.462910 0.000000
-0.499896 -0.010199 0.000000
-0.179501 -0.466668 0.000000
-0.500000 0.000000 0.000000
-0.169944 -0.470233 0.000000
-0.499896 0.010199 0.000000
-0.160317 -0.473602 0.000000
-0.499584 0.020392 0.000000
-0.150623 -0.476773 0.000000
-0.499064 0.030577 0.000000
-0.140866 -0.479747 0.000000
-0.498337 0.040749 0.000000
-0.131050 -0.482520 0.000000
-0.497402 0.050904 0.000000
-0.121178 -0.485094 0.000000
-0.496260 0.061039 0.000000
-0.111256 -0.487465 0.000000
-0.494912 0.071148 0.000000
-0.101287 -0.489633 0.000000
-0.493358 0.081229 0.000000
-0.091277 -0.491598 0.000000
-0.491598 0.091277 0.000000
-0.081229 -0.493358 0.000000
-0.489633 0.101287 0.000000
-0.071148 -0.494912 0.000000
-0.487465 0.111256 0.000000
-0.061039 -0.496260 0.000000
-0.485094 0.121178 0.000000
-0.050904 -0.497402 0.000000
-0.482520 0.131050 0.000000
-0.040749 -0.498337 0.000000
-0.479747 0.140866 0.000000
-0.030577 -0.499064 0.000000
-0.476773 0.150623 0.000000
-0.020392 -0.499584 0.000000
-0.473602 0.160317 0.000000
-0.010199 -0.499896 0.000000
-0.470233 0.169944 0.000000
0.000000 -0.500000 0.000000
-0.466668 0.179501 0.000000
0.010199 -0.499896 0.000000
-0.462910 0.188983 0.000000
0.020392 -0.499584 0.000000
-0.458958 0.198386 0.000000
0.030577 -0.499064 0.000000
-0.454816 0.207707 0.000000
0.040749 -0.498337 0.000000
-0.450484 0.216942 0.000000
0.050904 -0.497402 0.000000
-0.445965 0.226086 0.000000
0.061039 -0.496260 0.000000
-0.441261 0.235136 0.000000
0.071148 -0.494912 0.000000
-0.436373 0.244088 0.000000
0.081229 -0.493358 0.000000
-0.431303 0.252938 0.000000
0.091277 -0.491598 0.000000
-0.426054 0.261684 0.000000
0.101287 -0.489633 0.000000
-0.420627 0.270320 0.000000
0.111256 -0.487465 0.000000
-0.415025 0.278844 0.000000
0.121178 -0.485094 0.000000
-0.409251 0.287252 0.000000
0.131050 -0.482520 0.000000
-0.403306 0.295541 0.000000
0.140866 -0.479747 0.000000
-0.397194 0.303706 0.000000
0.150623 -0.476773 0.000000
-0.390916 0.311745 0.000000
0.160317 -0.473602 0.000000
-0.384475 0.319654 0.000000
0.169944 -0.470233 0.000000
-0.377875 0.327430 0.000000
0.179501 -0.466668 0.000000
-0.371117 0.335070 0.000000
0.188983 -0.462910 0.000000
-0.364205 0.342571 0.000000
0.198386 -0.458958 0.000000
-0.357141 0.349929 0.000000
0.207707 -0.454816 0.000000
-0.349929 0.357141 0.000000
0.216942 -0.450484 0.000000
-0.342571 0.364205 0.000000
0.226086 -0.445965 0.000000
-0.335070 0.371117 0.000000
0.235136 -0.441261 0.000000
-0.327430 0.377875 0.000000
0.244088 -0.436373 0.000000
-0.319654 0.384475 0.000000
0.252938 -0.431303 0.000000
-0.311745 0.390916 0.000000
0.261684 -0.426054 0.000000
-0.303706 0.397194 0.000000
0.270320 -0.420627 0.000000
-0.295541 0.403306 0.000000
0.278844 -0.415025 0.000000
-0.287252 0.409251 0.000000
0.287252 -0.409251 0.000000
-0.278844 0.415025 0.000000
0.295541 -0.403306 0.000000
-0.270320 0.420627 0.000000
0.303706 -0.397194 0.000000
-0.261684 0.426054 0.000000
0.311745 -0.390916 0.000000
-0.252938 0.431303 0.000000
0.319654 -0.384475 0.000000
-0.244088 0.436373 0.000000
0.327430 -0.377875 0.000000
-0.235136 0.441261 0.000000
0.335070 -0.371117 0.000000
-0.226086 0.445965 0.000000
0.342571 -0.364205 0.000000
-0.216942 0.450484 0.000000
0.349929 -0.357141 0.000000
-0.207707 0.454816 0.000000
0.357141 -0.349929 0.000000
-0.198386 0.458958 0.000000
0.364205 -0.342571 0.000000
-0.188983 0.462910 0.000000
0.371117 -0.335070 0.000000
-0.179501 0.466668 0.000000
0.377875 -0.327430 0.000000
-0.169944 0.470233 0.000000
0.384475 -0.319654 0.000000
-0.160317 0.473602 0.000000
0.390916 -0.311745 0.000000
-0.150623 0.476773 0.000000
0.397194 -0.303706 0.000000
-0.140866 0.479747 0.000000
0.403306 -0.295541 0.000000
-0.131050 0.482520 0.000000
0.409251 -0.287252 0.000000
-0.121178 0.485094 0.000000
0.415025 -0.278844 0.000000
-0.111256 0.487465 0.000000
0.420627 -0.270320 0.000000
-0.101287 0.489633 0.000000
0.426054 -0.261684 0.000000
-0.091277 0.491598 0.000000
0.431303 -0.252938 0.000000
-0.081229 0.493358 0.000000
0.436373 -0.244088 0.000000
-0.071148 0.494912 0.000000
0.441261 -0.235136 0.000000
-0.061039 0.496260 0.000000
0.445965 -0.226086 0.000000
-0.050904 0.497402 0.000000
0.450484 -0.216942 0.000000
-0.040749 0.498337 0.000000
0.454816 -0.207707 0.000000
-0.030577 0.499064 0.000000
0.458958 -0.198386 0.000000
-0.020392 0.499584 0.000000
0.462910 -0.188983 0.000000
-0.010199 0.499896 0.000000
0.466668 -0.179501 0.000000
0.000000 0.500000 0.000000
0.470233 -0.169944 0.000000
0.010199 0.499896 0.000000
0.473602 -0.160317 0.000000
0.020392 0.499584 0.000000
0.476773 -0.150623 0.000000
0.030577 0.499064 0.000000
0.479747 -0.140866 0.000000
0.040749 0.498337 0.000000
0.482520 -0.131050 0.000000
0.050904 0.497402 0.000000
0.485094 -0.121178 0.000000
0.061039 0.496260 0.000000
0.487465 -0.111256 0.000000
0.071148 0.494912 0.000000
0.489633 -0.101287 0.000000
0.081229 0.493358 0.000000
0.491598 -0.091277 0.000000
0.091277 0.491598 0.000000
0.493358 -0.081229 0.000000
0.101287 0.489633 0.000000
0.494912 -0.071148 0.000000
0.111256 0.487465 0.000000
0.496260 -0.061039 0.000000
0.121178 0.485094 0.000000
0.497402 -0.050904 0.000000
0.131050 0.482520 0.000000
0.498337 -0.040749 0.000000
0.140866 0.479747 0.000000
0.499064 -0.030577 0.000000
0.150623 0.476773 0.000000
0.499584 -0.020392 0.000000
0.160317 0.473602 0.000000
0.499896 -0.010199 0.000000
0.169944 0.470233 0.000000
0.500000 0.000000 0.000000
0.179501 0.466668 0.000000
0.499896 0.010199 0.000000
0.188983 0.462910 0.000000
0.499584 0.020392 0.000000
0.198386 0.458958 0.000000
0.499064 0.030577 0.000000
0.207707 0.454816 0.000000
0.498337 0.040749 0.000000
0.216942 0.450484 0.000000
0.497402 0.050904 0.000000
0.226086 0.445965 0.000000
0.496260 0.061039 0.000000
0.235136 0.441261 0.000000
0.494912 0.071148 0.000000
0.244088 0.436373 0.000000
0.493358 0.081229 0.000000
0.252938 0.431303 0.000000
0.491598 0.091277 0.000000
0.261684 0.426054 0.000000
0.489633 0.101287 0.000000
0.270320 0.420627 0.000000
0.487465 0.111256 0.000000
0.278844 0.415025 0.000000
0.485094 0.121178 0.000000
0.287252 0.409251 0.000000
0.482520 0.131050 0.000000
0.295541 0.403306 0.000000
0.479747 0.140866 0.000000
0.303706 0.397194 0.000000
0.476773 0.150623 0.000000
0.311745 0.390916 0.000000
0.473602 0.160317 0.000000
0.319654 0.384475 0.000000
0.470233 0.169944 0.000000
0.327430 0.377875 0.000000
0.466668 0.179501 0.000000
0.335070 0.371117 0.000000
0.462910 0.188983 0.000000
0.342571 0.364205 0.000000
0.458958 0.198386 0.000000
0.349929 0.357141 0.000000
0.454816 0.207707 0.000000
0.357141 0.349929 0.000000
0.450484 0.216942 0.000000
0.364205 0.342571 0.000000
0.445965 0.226086 0.000000
0.371117 0.335070 0.000000
0.441261 0.235136 0.000000
0.377875 0.327430 0.000000
0.436373 0.244088 0.000000
0.384475 0.319654 0.000000
0.431303 0.252938 0.000000
0.390916 0.311745 0.000000
0.426054 0.261684 0.000000
0.397194 0.303706 0.000000
0.420627 0.270320 0.000000
0.415025 0.278844 0.000000
0.403306 0.295541 0.000000
0.409251 0.287252 0.000000
-0.416651 -0.285100 0.000000
-0.409726 -0.295166 0.000000
-0.421429 -0.278105 0.000000
-0.403699 -0.303357 0.000000
-0.426806 -0.269823 0.000000
-0.397508 -0.311425 0.000000
-0.432197 -0.261278 0.000000
-0.391157 -0.319367 0.000000
-0.437327 -0.252500 0.000000
-0.384646 -0.327179 0.000000
-0.442314 -0.243721 0.000000
-0.377979 -0.334859 0.000000
-0.446941 -0.235122 0.000000
-0.450784 -0.228337 0.000000
-0.370462 -0.343155 0.000000
-0.455028 -0.219045 0.000000
-0.452668 -0.223420 0.000000
-0.364060 -0.349914 0.000000
-0.459296 -0.209724 0.000000
-0.457282 -0.214033 0.000000
-0.357103 -0.357057 0.000000
-0.461352 -0.204833 0.000000
-0.463724 -0.200363 0.000000
-0.350055 -0.363925 0.000000
-0.465669 -0.195543 0.000000
-0.467695 -0.190817 0.000000
-0.343998 -0.369738 0.000000
-0.471431 -0.181492 0.000000
-0.469405 -0.186286 0.000000
-0.334859 -0.377979 0.000000
-0.472952 -0.176626 0.000000
-0.474903 -0.171777 0.000000
-0.327179 -0.384646 0.000000
-0.478846 -0.161727 0.000000
-0.476435 -0.167155 0.000000
-0.319367 -0.391157 0.000000
-0.480787 -0.154555 0.000000
-0.311425 -0.397508 0.000000
-0.483607 -0.145275 0.000000
-0.303357 -0.403699 0.000000
-0.486452 -0.135600 0.000000
-0.293440 -0.410921 0.000000
-0.489031 -0.125774 0.000000
-0.286535 -0.415757 0.000000
-0.491508 -0.115921 0.000000
-0.278352 -0.421319 0.000000
-0.493686 -0.106038 0.000000
-0.269886 -0.426828 0.000000
-0.495651 -0.096362 0.000000
-0.261233 -0.432144 0.000000
-0.497198 -0.088074 0.000000
-0.252462 -0.437285 0.000000
-0.499250 -0.075953 0.000000
-0.243613 -0.442280 0.000000
-0.500654 -0.065906 0.000000
-0.234715 -0.447127 0.000000
-0.228640 -0.450519 0.000000
-0.501880 -0.055811 0.000000
-0.218895 -0.455215 0.000000
-0.223224 -0.452881 0.000000
-0.502902 -0.045695 0.000000
-0.209733 -0.459391 0.000000
-0.214212 -0.457190 0.000000
-0.503721 -0.035560 0.000000
-0.200365 -0.463733 0.000000
-0.204804 -0.461613 0.000000
-0.195531 -0.465664 0.000000
-0.190784 -0.467722 0.000000
-0.504503 -0.023225 0.000000
-0.186244 -0.469425 0.000000
-0.181531 -0.471460 0.000000
-0.504773 -0.013853 0.000000
-0.176954 -0.472745 0.000000
-0.171678 -0.474859 0.000000
-0.505074 -0.003656 0.000000
-0.167137 -0.476450 0.000000
-0.161673 -0.478820 0.000000
-0.504932 0.006910 0.000000
-0.154529 -0.480797 0.000000
-0.504834 0.020042 0.000000
-0.145171 -0.483695 0.000000
-0.503551 0.037586 0.000000
-0.135593 -0.486453 0.000000
-0.502892 0.045680 0.000000
-0.125775 -0.489083 0.000000
-0.502191 0.053713 0.000000
-0.115940 -0.491464 0.000000
-0.500654 0.065906 0.000000
-0.106312 -0.493603 0.000000
-0.499225 0.075974 0.000000
-0.098005 -0.495252 0.000000
-0.497594 0.086013 0.000000
-0.086013 -0.497594 0.000000
-0.495252 0.098004 0.000000
-0.075974 -0.499225 0.000000
-0.493597 0.106314 0.000000
-0.065906 -0.500654 0.000000
-0.491428 0.115952 0.000000
-0.053714 -0.502191 0.000000
-0.489011 0.125775 0.000000
-0.045680 -0.502892 0.000000
-0.486412 0.135576 0.000000
-0.037586 -0.503551 0.000000
-0.483678 0.145285 0.000000
-0.480787 0.154548 0.000000
-0.478775 0.161676 0.000000
-0.019993 -0.505013 0.000000
-0.474875 0.171814 0.000000
-0.476450 0.167142 0.000000
-0.006399 -0.504863 0.000000
-0.471460 0.181500 0.000000
-0.472984 0.176743 0.000000
0.004056 -0.505080 0.000000
-0.469459 0.186171 0.000000
-0.467574 0.190927 0.000000
0.014245 -0.504767 0.000000
-0.465619 0.195494 0.000000
-0.463733 0.200332 0.000000
0.023224 -0.504502 0.000000
-0.461448 0.204867 0.000000
-0.459421 0.209641 0.000000
0.035560 -0.503721 0.000000
-0.457230 0.214138 0.000000
-0.455198 0.218914 0.000000
0.045695 -0.502902 0.000000
-0.452908 0.223198 0.000000
-0.450716 0.228508 0.000000
0.055811 -0.501880 0.000000
-0.446914 0.235146 0.000000
0.065906 -0.500654 0.000000
-0.442240 0.243700 0.000000
0.075974 -0.499225 0.000000
-0.437272 0.252473 0.000000
0.088074 -0.497198 0.000000
-0.432109 0.261213 0.000000
0.096362 -0.495651 0.000000
-0.426787 0.269860 0.000000
0.106034 -0.493683 0.000000
-0.421297 0.278338 0.000000
0.115913 -0.491500 0.000000
-0.415757 0.286535 0.000000
0.125776 -0.489039 0.000000
-0.410932 0.293439 0.000000
0.135601 -0.486450 0.000000
-0.403699 0.303357 0.000000
0.145277 -0.483606 0.000000
-0.397508 0.311425 0.000000
0.154557 -0.480774 0.000000
0.161733 -0.478769 0.000000
-0.391157 0.319367 0.000000
0.167091 -0.476488 0.000000
0.171718 -0.474954 0.000000
-0.384646 0.327179 0.000000
0.176707 -0.473000 0.000000
0.181505 -0.471475 0.000000
-0.377979 0.334859 0.000000
0.186295 -0.469391 0.000000
0.190925 -0.467576 0.000000
-0.369765 0.344010 0.000000
0.195633 -0.465648 0.000000
0.200345 -0.463770 0.000000
-0.363926 0.350050 0.000000
0.209734 -0.459450 0.000000
0.204910 -0.461509 0.000000
-0.357034 0.357061 0.000000
0.214072 -0.457247 0.000000
0.218980 -0.455067 0.000000
-0.349993 0.364032 0.000000
0.228256 -0.450815 0.000000
0.223408 -0.452712 0.000000
-0.343912 0.369752 0.000000
0.235109 -0.446946 0.000000
-0.334859 0.377979 0.000000
0.243720 -0.442311 0.000000
-0.327179 0.384646 0.000000
0.252483 -0.437299 0.000000
-0.319367 0.391157 0.000000
0.261251 -0.432197 0.000000
-0.311425 0.397508 0.000000
0.269819 -0.426806 0.000000
-0.303357 0.403699 0.000000
0.278114 -0.421436 0.000000
-0.295166 0.409726 0.000000
0.285106 -0.416757 0.000000
-0.285453 0.416477 0.000000
0.295191 -0.409722 0.000000
-0.278168 0.421408 0.000000
0.303357 -0.403699 0.000000
-0.269849 0.426857 0.000000
0.311425 -0.397508 0.000000
-0.261220 0.432122 0.000000
0.319367 -0.391157 0.000000
-0.252526 0.437285 0.000000
0.327179 -0.384646 0.000000
-0.243742 0.442304 0.000000
0.334859 -0.377979 0.000000
-0.235192 0.446897 0.000000
-0.228742 0.450552 0.000000
0.343167 -0.370539 0.000000
-0.223460 0.452663 0.000000
-0.218979 0.455026 0.000000
0.349916 -0.364073 0.000000
-0.214046 0.457197 0.000000
-0.209660 0.459391 0.000000
0.357057 -0.357104 0.000000
-0.200375 0.463730 0.000000
-0.204910 0.461372 0.000000
0.363930 -0.350058 0.000000
-0.195557 0.465613 0.000000
-0.190944 0.467564 0.000000
0.369764 -0.344011 0.000000
-0.181545 0.471428 0.000000
-0.186254 0.469430 0.000000
0.377979 -0.334859 0.000000
-0.176635 0.472984 0.000000
-0.171918 0.474870 0.000000
0.384646 -0.327179 0.000000
-0.161683 0.478683 0.000000
-0.167009 0.476454 0.000000
0.391157 -0.319367 0.000000
-0.154877 0.480582 0.000000
0.397508 -0.311425 0.000000
-0.145423 0.483611 0.000000
0.403699 -0.303357 0.000000
-0.135605 0.486389 0.000000
0.410921 -0.293440 0.000000
-0.125786 0.489034 0.000000
0.415757 -0.286535 0.000000
-0.115924 0.491501 0.000000
0.421276 -0.278351 0.000000
-0.106038 0.493682 0.000000
0.426786 -0.269861 0.000000
-0.096362 0.495651 0.000000
0.432129 -0.261224 0.000000
-0.088074 0.497198 0.000000
0.437364 -0.252518 0.000000
-0.075974 0.499225 0.000000
0.442255 -0.243696 0.000000
-0.065906 0.500654 0.000000
0.446901 -0.235165 0.000000
0.450626 -0.228629 0.000000
-0.055811 0.501880 0.000000
0.452863 -0.223239 0.000000
0.455037 -0.219014 0.000000
-0.045695 0.502902 0.000000
0.457157 -0.214077 0.000000
0.459396 -0.209621 0.000000
-0.035560 0.503721 0.000000
0.461359 -0.204897 0.000000
0.463695 -0.200361 0.000000
-0.023304 0.504424 0.000000
0.465641 -0.195495 0.000000
0.467606 -0.190951 0.000000
-0.014879 0.504782 0.000000
0.469414 -0.186248 0.000000
0.471411 -0.181540 0.000000
-0.005033 0.504925 0.000000
0.472918 -0.176630 0.000000
0.474886 -0.171779 0.000000
0.005043 0.504929 0.000000
0.476453 -0.167022 0.000000
0.478685 -0.161862 0.000000
0.014951 0.504764 0.000000
0.480771 -0.154583 0.000000
0.023215 0.504525 0.000000
0.483673 -0.145303 0.000000
0.037586 0.503551 0.000000
0.486450 -0.135593 0.000000
0.045750 0.502896 0.000000
0.489087 -0.125805 0.000000
0.053799 0.502083 0.000000
0.491453 -0.115970 0.000000
0.065906 0.500654 0.000000
0.493600 -0.106336 0.000000
0.075974 0.499225 0.000000
0.495243 -0.098118 0.000000
0.086013 0.497594 0.000000
0.497594 -0.086013 0.000000
0.098116 0.495243 0.000000
0.499225 -0.075974 0.000000
0.106336 0.493600 0.000000
0.500654 -0.065906 0.000000
0.115972 0.491452 0.000000
0.502084 -0.053799 0.000000
0.125820 0.489079 0.000000
0.502897 -0.045748 0.000000
0.135587 0.486408 0.000000
0.503551 -0.037586 0.000000
0.145284 0.483678 0.000000
0.504412 -0.023728 0.000000
0.154553 0.480792 0.000000
0.504678 -0.016946 0.000000
0.161702 0.478804 0.000000
0.166954 0.476453 0.000000
0.504949 -0.002996 0.000000
0.171459 0.474989 0.000000
0.176706 0.472959 0.000000
0.504952 0.005359 0.000000
0.181613 0.471429 0.000000
0.186155 0.469450 0.000000
0.504776 0.014970 0.000000
0.190941 0.467614 0.000000
0.195461 0.465640 0.000000
0.504507 0.023301 0.000000
0.200321 0.463696 0.000000
0.204665 0.461639 0.000000
0.503721 0.035560 0.000000
0.209779 0.459311 0.000000
0.214128 0.457065 0.000000
0.502902 0.045695 0.000000
0.218898 0.455083 0.000000
0.223160 0.452917 0.000000
0.501880 0.055811 0.000000
0.228588 0.450696 0.000000
0.500654 0.065906 0.000000
0.235160 0.446911 0.000000
0.499225 0.075974 0.000000
0.243704 0.442242 0.000000
0.497198 0.088074 0.000000
0.252477 0.437275 0.000000
0.495651 0.096362 0.000000
0.261232 0.432125 0.000000
0.493684 0.106044 0.000000
0.269859 0.426787 0.000000
0.491464 0.115912 0.000000
0.278336 0.421300 0.000000
0.489031 0.125776 0.000000
0.286532 0.415761 0.000000
0.486389 0.135603 0.000000
0.293440 0.410921 0.000000
0.483609 0.145424 0.000000
0.303357 0.403699 0.000000
0.480578 0.154802 0.000000
0.311425 0.397508 0.000000
0.478655 0.161751 0.000000
0.476452 0.166982 0.000000
0.319367 0.391157 0.000000
0.474971 0.171610 0.000000
0.472982 0.176607 0.000000
0.327179 0.384646 0.000000
0.471433 0.181509 0.000000
0.469353 0.186363 0.000000
0.334859 0.377979 0.000000
0.467613 0.190886 0.000000
0.465645 0.195476 0.000000
0.344010 0.369764 0.000000
0.461373 0.204887 0.000000
0.463686 0.200316 0.000000
0.350057 0.363930 0.000000
0.459353 0.209725 0.000000
0.457070 0.214141 0.000000
0.357100 0.357062 0.000000
0.452708 0.223419 0.000000
0.455125 0.218877 0.000000
0.364020 0.349971 0.000000
0.450552 0.228739 0.000000
0.370222 0.343498 0.000000
0.446889 0.235184 0.000000
0.377979 0.334859 0.000000
0.442252 0.243700 0.000000
0.384646 0.327179 0.000000
0.437360 0.252522 0.000000
0.391146 0.319394 0.000000
0.432139 0.261225 0.000000
0.397501 0.311463 0.000000
0.426837 0.269829 0.000000
0.403699 0.303357 0.000000
0.421434 0.278106 0.000000
0.416650 0.285100 0.000000
0.409726 0.295166 0.000000
CELLS 1364 5456
3 624 2 0
3 624 0 1
3 624 1 317
3 317 626 624
3 626 317 319
3 319 628 626
3 4 626 628
3 628 6 4
3 6 628 630
3 630 8 6
3 8 630 632
3 632 10 8
3 10 632 634
3 634 12 10
3 12 634 636
3 636 14 12
3 14 636 637
3 637 16 14
3 640 16 637
3 637 329 640
3 640 329 331
3 639 640 331
3 639 331 643
3 643 18 639
3 639 18 16
3 643 642 18
3 642 20 18
3 645 20 642
3 642 333 645
3 645 333 335
3 646 645 335
3 646 335 648
3 648 22 646
3 646 22 20
3 648 649 22
3 649 24 22
3 652 24 649
3 649 337 652
3 652 337 339
3 651 652 339
3 651 339 654
3 654 26 651
3 651 26 24
3 654 655 26
3 655 28 26
3 658 28 655
3 655 341 658
3 658 341 343
3 657 658 343
3 657 343 660
3 30 657 660
3 660 32 30
3 32 660 662
3 662 34 32
3 34 662 664
3 664 36 34
3 36 664 666
3 666 38 36
3 38 666 668
3 668 40 38
3 40 668 670
3 670 42 40
3 42 670 672
3 672 44 42
3 44 672 674
3 674 46 44
3 674 359 46
3 676 46 359
3 676 359 361
3 676 361 48
3 678 48 361
3 678 361 363
3 678 363 50
3 681 50 363
3 681 363 365
3 681 365 52
3 684 52 365
3 684 365 367
3 684 367 54
3 687 54 367
3 687 367 369
3 687 369 56
3 692 56 369
3 692 369 371
3 371 695 692
3 58 692 695
3 695 60 58
3 60 695 698
3 698 62 60
3 62 698 701
3 701 64 62
3 64 701 703
3 65 64 703
3 65 703 67
3 67 703 381
3 705 67 381
3 705 381 383
3 383 707 705
3 69 705 707
3 707 71 69
3 71 707 709
3 709 73 71
3 709 387 73
3 711 73 387
3 711 387 389
3 711 389 75
3 713 75 389
3 713 389 391
3 713 391 77
3 715 77 391
3 715 391 393
3 715 393 79
3 717 79 393
3 717 393 395
3 395 719 717
3 81 717 719
3 719 83 81
3 83 719 721
3 721 85 83
3 85 721 723
3 723 87 85
3 87 723 725
3 725 89 87
3 89 725 727
3 727 91 89
3 91 727 728
3 728 92 91
3 92 728 729
3 729 95 92
3 732 95 729
3 729 407 732
3 732 407 409
3 731 732 409
3 731 409 735
3 735 97 731
3 731 97 95
3 735 734 97
3 734 99 97
3 737 99 734
3 734 411 737
3 737 411 413
3 738 737 413
3 738 413 740
3 740 101 738
3 738 101 99
3 740 741 101
3 741 103 101
3 743 103 741
3 741 415 743
3 743 415 417
3 744 743 417
3 744 417 746
3 746 105 744
3 744 105 103
3 746 747 105
3 747 107 105
3 749 107 747
3 747 419 749
3 749 419 421
3 750 749 421
3 750 421 752
3 109 750 752
3 752 111 109
3 111 752 754
3 754 113 111
3 113 754 756
3 756 115 113
3 115 756 758
3 758 117 115
3 117 758 760
3 760 119 117
3 119 760 762
3 762 121 119
3 121 762 764
3 764 123 121
3 123 764 766
3 766 125 123
3 766 437 125
3 768 125 437
3 768 437 439
3 768 439 127
3 770 127 439
3 770 439 441
3 770 441 130
3 773 130 441
3 773 441 443
3 773 443 132
3 776 132 443
3 776 443 445
3 776 445 134
3 779 134 445
3 779 445 447
3 779 447 136
3 782 136 447
3 782 447 449
3 449 785 782
3 138 782 785
3 785 140 138
3 140 785 788
3 788 142 140
3 142 788 791
3 791 144 142
3 144 791 794
3 794 146 144
3 794 457 146
3 796 146 457
3 796 457 459
3 796 459 148
3 798 148 459
3 798 459 461
3 798 461 150
3 800 150 461
3 800 461 463
3 800 463 152
3 802 152 463
3 802 463 465
3 802 465 154
3 804 154 465
3 804 465 467
3 804 467 156
3 806 156 467
3 806 467 469
3 806 469 158
3 808 158 469
3 808 469 471
3 471 810 808
3 160 808 810
3 810 162 160
3 162 810 812
3 812 164 162
3 164 812 814
3 814 166 164
3 166 814 816
3 816 168 166
3 168 816 818
3 818 170 168
3 170 818 820
3 820 172 170
3 172 820 821
3 821 174 172
3 823 174 821
3 821 483 823
3 823 483 485
3 824 823 485
3 824 485 826
3 826 176 824
3 824 176 174
3 826 827 176
3 827 178 176
3 830 178 827
3 827 487 830
3 830 487 489
3 829 830 489
3 829 489 832
3 832 180 829
3 829 180 178
3 832 833 180
3 833 182 180
3 836 182 833
3 833 491 836
3 836 491 493
3 835 836 493
3 835 493 838
3 838 184 835
3 835 184 182
3 838 839 184
3 839 186 184
3 842 186 839
3 839 495 842
3 842 495 497
3 841 842 497
3 841 497 844
3 188 841 844
3 844 190 188
3 190 844 846
3 846 192 190
3 192 846 848
3 848 194 192
3 194 848 850
3 850 196 194
3 196 850 852
3 852 198 196
3 198 852 854
3 854 200 198
3 200 854 856
3 856 202 200
3 202 856 858
3 858 204 202
3 858 513 204
3 860 204 513
3 860 513 515
3 860 515 206
3 862 206 515
3 862 515 517
3 862 517 208
3 865 208 517
3 865 517 519
3 865 519 210
3 868 210 519
3 868 519 521
3 868 521 212
3 871 212 521
3 871 521 523
3 871 523 214
3 874 214 523
3 874 523 525
3 525 877 874
3 216 874 877
3 877 218 216
3 218 877 880
3 880 220 218
3 220 880 883
3 883 222 220
3 222 883 886
3 886 224 222
3 224 886 888
3 888 226 224
3 888 535 226
3 890 226 535
3 890 535 537
3 537 892 890
3 228 890 892
3 892 230 228
3 230 892 894
3 894 232 230
3 894 541 232
3 896 232 541
3 896 541 543
3 896 543 234
3 898 234 543
3 898 543 545
3 898 545 236
3 900 236 545
3 900 545 547
3 900 547 238
3 902 238 547
3 902 547 549
3 549 904 902
3 902 904 240
3 904 242 240
3 242 904 906
3 906 244 242
3 244 906 908
3 908 246 244
3 246 908 910
3 910 248 246
3 248 910 912
3 912 250 248
3 250 912 914
3 914 252 250
3 252 914 916
3 916 254 252
3 917 254 916
3 916 561 917
3 917 561 563
3 919 917 563
3 919 563 920
3 920 256 919
3 919 256 254
3 920 922 256
3 922 258 256
3 923 258 922
3 922 565 923
3 923 565 567
3 925 923 567
3 925 567 926
3 926 260 925
3 925 260 258
3 926 928 260
3 928 262 260
3 929 262 928
3 928 569 929
3 929 569 571
3 931 929 571
3 931 571 932
3 932 264 931
3 931 264 262
3 932 934 264
3 934 266 264
3 935 266 934
3 934 573 935
3 935 573 575
3 937 935 575
3 937 575 939
3 268 937 939
3 939 270 268
3 270 939 941
3 941 272 270
3 272 941 943
3 943 274 272
3 274 943 945
3 945 276 274
3 276 945 947
3 947 278 276
3 278 947 949
3 949 280 278
3 280 949 951
3 951 282 280
3 282 951 953
3 953 284 282
3 953 591 284
3 955 284 591
3 955 591 593
3 955 593 286
3 957 286 593
3 957 593 595
3 957 595 288
3 960 288 595
3 960 595 597
3 960 597 290
3 963 290 597
3 963 597 599
3 963 599 292
3 966 292 599
3 966 599 601
3 966 601 294
3 969 294 601
3 969 601 603
3 603 972 969
3 296 969 972
3 972 298 296
3 298 972 975
3 975 300 298
3 300 975 978
3 978 302 300
3 302 978 980
3 980 304 302
3 980 611 304
3 982 304 611
3 982 611 613
3 982 613 306
3 984 306 613
3 984 613 615
3 984 615 308
3 986 308 615
3 986 615 617
3 986 617 310
3 988 310 617
3 988 617 619
3 988 619 312
3 990 312 619
3 990 619 622
3 990 622 314
3 993 314 622
3 993 622 623
3 993 623 316
3 992 316 623
3 992 623 621
3 621 991 992
3 315 992 991
3 991 313 315
3 313 991 989
3 989 311 313
3 311 989 987
3 987 309 311
3 309 987 985
3 985 307 309
3 307 985 983
3 983 305 307
3 305 983 981
3 981 303 305
3 303 981 979
3 979 301 303
3 976 301 979
3 979 610 976
3 976 610 608
3 977 976 608
3 977 608 974
3 974 299 977
3 977 299 301
3 974 973 299
3 973 297 299
3 970 297 973
3 973 606 970
3 970 606 604
3 971 970 604
3 971 604 968
3 968 295 971
3 971 295 297
3 968 967 295
3 967 293 295
3 965 293 967
3 967 602 965
3 965 602 600
3 964 965 600
3 964 600 962
3 962 291 964
3 964 291 293
3 962 961 291
3 961 289 291
3 959 289 961
3 961 598 959
3 959 598 596
3 958 959 596
3 958 596 956
3 287 958 956
3 956 285 287
3 285 956 954
3 954 283 285
3 283 954 952
3 952 281 283
3 281 952 950
3 950 279 281
3 279 950 948
3 948 277 279
3 277 948 946
3 946 275 277
3 275 946 944
3 944 273 275
3 273 944 942
3 942 271 273
3 942 580 271
3 940 271 580
3 940 580 578
3 940 578 269
3 938 269 578
3 938 578 576
3 938 576 267
3 936 267 576
3 936 576 574
3 936 574 265
3 933 265 574
3 933 574 572
3 933 572 263
3 930 263 572
3 930 572 570
3 930 570 261
3 927 261 570
3 927 570 568
3 568 924 927
3 259 927 924
3 924 257 259
3 257 924 921
3 921 255 257
3 255 921 918
3 918 253 255
3 918 562 253
3 915 253 562
3 915 562 560
3 560 913 915
3 251 915 913
3 913 249 251
3 913 558 249
3 911 249 558
3 911 558 556
3 556 909 911
3 247 911 909
3 909 245 247
3 245 909 907
3 907 243 245
3 907 552 243
3 905 243 552
3 905 552 550
3 905 550 241
3 903 241 550
3 903 550 548
3 903 548 239
3 901 239 548
3 901 548 546
3 901 546 237
3 899 237 546
3 899 546 544
3 544 897 899
3 899 897 235
3 897 233 235
3 233 897 895
3 895 231 233
3 231 895 893
3 893 229 231
3 229 893 891
3 891 227 229
3 227 891 889
3 889 225 227
3 225 889 887
3 887 223 225
3 223 887 885
3 885 221 223
3 884 221 885
3 885 532 884
3 884 532 530
3 882 884 530
3 882 530 881
3 881 219 882
3 882 219 221
3 881 879 219
3 879 217 219
3 878 217 879
3 879 528 878
3 878 528 526
3 876 878 526
3 876 526 875
3 875 215 876
3 876 215 217
3 875 873 215
3 873 213 215
3 872 213 873
3 873 524 872
3 872 524 522
3 870 872 522
3 870 522 869
3 869 211 870
3 870 211 213
3 869 867 211
3 867 209 211
3 866 209 867
3 867 520 866
3 866 520 518
3 864 866 518
3 864 518 863
3 207 864 863
3 863 205 207
3 205 863 861
3 861 203 205
3 203 861 859
3 859 201 203
3 201 859 857
3 857 199 201
3 199 857 855
3 855 197 199
3 197 855 853
3 853 195 197
3 195 853 851
3 851 193 195
3 193 851 849
3 849 191 193
3 849 502 191
3 847 191 502
3 847 502 500
3 847 500 189
3 845 189 500
3 845 500 498
3 845 498 187
3 843 187 498
3 843 498 496
3 843 496 185
3 840 185 496
3 840 496 494
3 840 494 183
3 837 183 494
3 837 494 492
3 837 492 181
3 834 181 492
3 834 492 490
3 490 831 834
3 179 834 831
3 831 177 179
3 177 831 828
3 828 175 177
3 175 828 825
3 825 173 175
3 173 825 822
3 822 171 173
3 822 482 171
3 819 171 482
3 819 482 480
3 819 480 169
3 817 169 480
3 817 480 478
3 817 478 167
3 815 167 478
3 815 478 476
3 815 476 165
3 813 165 476
3 813 476 474
3 813 474 163
3 811 163 474
3 811 474 472
3 811 472 161
3 809 161 472
3 809 472 470
3 809 470 159
3 807 159 470
3 807 470 468
3 468 805 807
3 157 807 805
3 805 155 157
3 155 805 803
3 803 153 155
3 153 803 801
3 801 151 153
3 151 801 799
3 799 149 151
3 149 799 797
3 797 147 149
3 147 797 795
3 795 145 147
3 145 795 792
3 792 143 145
3 793 143 792
3 792 456 793
3 793 456 454
3 790 793 454
3 790 454 789
3 789 141 790
3 790 141 143
3 789 786 141
3 786 139 141
3 787 139 786
3 786 452 787
3 787 452 450
3 784 787 450
3 784 450 783
3 783 137 784
3 784 137 139
3 783 781 137
3 781 135 137
3 780 135 781
3 781 448 780
3 780 448 446
3 778 780 446
3 778 446 777
3 777 133 778
3 778 133 135
3 777 775 133
3 775 131 133
3 774 131 775
3 775 444 774
3 774 444 442
3 772 774 442
3 772 442 771
3 129 772 771
3 771 128 129
3 128 771 769
3 769 126 128
3 126 769 767
3 767 124 126
3 124 767 765
3 765 122 124
3 122 765 763
3 763 120 122
3 120 763 761
3 761 118 120
3 118 761 759
3 759 116 118
3 116 759 757
3 757 114 116
3 757 426 114
3 755 114 426
3 755 426 424
3 755 424 112
3 753 112 424
3 753 424 422
3 753 422 110
3 751 110 422
3 751 422 420
3 751 420 108
3 748 108 420
3 748 420 418
3 748 418 106
3 745 106 418
3 745 418 416
3 745 416 104
3 742 104 416
3 742 416 414
3 414 739 742
3 102 742 739
3 739 100 102
3 100 739 736
3 736 98 100
3 98 736 733
3 733 96 98
3 96 733 730
3 94 96 730
3 94 730 93
3 93 730 404
3 726 93 404
3 726 404 402
3 402 724 726
3 90 726 724
3 724 88 90
3 88 724 722
3 722 86 88
3 722 398 86
3 720 86 398
3 720 398 396
3 720 396 84
3 718 84 396
3 718 396 394
3 718 394 82
3 716 82 394
3 716 394 392
3 716 392 80
3 714 80 392
3 714 392 390
3 390 712 714
3 78 714 712
3 712 76 78
3 76 712 710
3 710 74 76
3 74 710 708
3 708 72 74
3 72 708 706
3 706 70 72
3 70 706 704
3 704 68 70
3 68 704 702
3 702 66 68
3 66 702 700
3 700 63 66
3 699 63 700
3 700 378 699
3 699 378 376
3 697 699 376
3 697 376 696
3 696 61 697
3 697 61 63
3 696 694 61
3 694 59 61
3 693 59 694
3 694 374 693
3 693 374 372
3 691 693 372
3 691 372 690
3 690 57 691
3 691 57 59
3 690 688 57
3 688 55 57
3 689 55 688
3 688 370 689
3 689 370 368
3 685 689 368
3 685 368 686
3 686 53 685
3 685 53 55
3 686 682 53
3 682 51 53
3 683 51 682
3 682 366 683
3 683 366 364
3 680 683 364
3 680 364 679
3 49 680 679
3 679 47 49
3 47 679 677
3 677 45 47
3 45 677 675
3 675 43 45
3 43 675 673
3 673 41 43
3 41 673 671
3 671 39 41
3 39 671 669
3 669 37 39
3 37 669 667
3 667 35 37
3 35 667 665
3 665 33 35
3 665 348 33
3 663 33 348
3 663 348 346
3 663 346 31
3 661 31 346
3 661 346 344
3 661 344 29
3 659 29 344
3 659 344 342
3 659 342 27
3 656 27 342
3 656 342 340
3 656 340 25
3 653 25 340
3 653 340 338
3 653 338 23
3 650 23 338
3 650 338 336
3 336 647 650
3 21 650 647
3 647 19 21
3 19 647 644
3 644 17 19
3 17 644 641
3 641 15 17
3 15 641 638
3 638 13 15
3 638 328 13
3 635 13 328
3 635 328 326
3 635 326 11
3 633 11 326
3 633 326 324
3 633 324 9
3 631 9 324
3 631 324 322
3 631 322 7
3 629 7 322
3 629 322 320
3 629 320 5
3 627 5 320
3 627 320 318
3 627 318 3
3 625 3 318
3 625 318 1
3 625 0 3
3 627 3 5
3 629 5 7
3 631 7 9
3 633 9 11
3 635 11 13
3 638 330 328
3 330 638 641
3 641 332 330
3 332 641 644
3 644 334 332
3 334 644 647
3 647 336 334
3 650 21 23
3 653 23 25
3 656 25 27
3 659 27 29
3 661 29 31
3 663 31 33
3 665 350 348
3 350 665 667
3 667 352 350
3 352 667 669
3 669 354 352
3 354 669 671
3 671 356 354
3 356 671 673
3 673 358 356
3 358 673 675
3 675 360 358
3 360 675 677
3 677 362 360
3 362 677 679
3 680 49 51
3 679 364 362
3 683 680 51
3 682 686 366
3 686 368 366
3 689 685 55
3 688 690 370
3 690 372 370
3 693 691 59
3 694 696 374
3 696 376 374
3 699 697 63
3 700 702 378
3 702 380 378
3 380 702 704
3 704 382 380
3 382 704 706
3 706 384 382
3 384 706 708
3 708 386 384
3 386 708 710
3 710 388 386
3 388 710 712
3 712 390 388
3 714 78 80
3 716 80 82
3 718 82 84
3 720 84 86
3 722 400 398
3 400 722 724
3 724 402 400
3 726 90 93
3 406 404 730
3 406 730 408
3 408 730 733
3 733 410 408
3 410 733 736
3 736 412 410
3 412 736 739
3 739 414 412
3 742 102 104
3 745 104 106
3 748 106 108
3 751 108 110
3 753 110 112
3 755 112 114
3 757 428 426
3 428 757 759
3 759 430 428
3 430 759 761
3 761 432 430
3 432 761 763
3 763 434 432
3 434 763 765
3 765 436 434
3 436 765 767
3 767 438 436
3 438 767 769
3 769 440 438
3 440 769 771
3 772 129 131
3 771 442 440
3 774 772 131
3 775 777 444
3 777 446 444
3 780 778 135
3 781 783 448
3 783 450 448
3 787 784 139
3 786 789 452
3 789 454 452
3 793 790 143
3 792 795 456
3 795 458 456
3 458 795 797
3 797 460 458
3 460 797 799
3 799 462 460
3 462 799 801
3 801 464 462
3 464 801 803
3 803 466 464
3 466 803 805
3 805 468 466
3 807 157 159
3 809 159 161
3 811 161 163
3 813 163 165
3 815 165 167
3 817 167 169
3 819 169 171
3 822 484 482
3 484 822 825
3 825 486 484
3 486 825 828
3 828 488 486
3 488 828 831
3 831 490 488
3 834 179 181
3 837 181 183
3 840 183 185
3 843 185 187
3 845 187 189
3 847 189 191
3 849 504 502
3 504 849 851
3 851 506 504
3 506 851 853
3 853 508 506
3 508 853 855
3 855 510 508
3 510 855 857
3 857 512 510
3 512 857 859
3 859 514 512
3 514 859 861
3 861 516 514
3 516 861 863
3 864 207 209
3 863 518 516
3 866 864 209
3 867 869 520
3 869 522 520
3 872 870 213
3 873 875 524
3 875 526 524
3 878 876 217
3 879 881 528
3 881 530 528
3 884 882 221
3 885 887 532
3 887 534 532
3 534 887 889
3 889 536 534
3 536 889 891
3 891 538 536
3 538 891 893
3 893 540 538
3 540 893 895
3 895 542 540
3 542 895 897
3 897 544 542
3 899 235 237
3 901 237 239
3 903 239 241
3 905 241 243
3 907 554 552
3 554 907 909
3 909 556 554
3 911 247 249
3 913 560 558
3 915 251 253
3 918 564 562
3 564 918 921
3 921 566 564
3 566 921 924
3 924 568 566
3 927 259 261
3 930 261 263
3 933 263 265
3 936 265 267
3 938 267 269
3 940 269 271
3 942 582 580
3 582 942 944
3 944 584 582
3 584 944 946
3 946 586 584
3 586 946 948
3 948 588 586
3 588 948 950
3 950 590 588
3 590 950 952
3 952 592 590
3 592 952 954
3 954 594 592
3 594 954 956
3 958 287 289
3 956 596 594
3 959 958 289
3 961 962 598
3 962 600 598
3 965 964 293
3 967 968 602
3 968 604 602
3 970 971 297
3 973 974 606
3 974 608 606
3 976 977 301
3 979 981 610
3 981 612 610
3 612 981 983
3 983 614 612
3 614 983 985
3 985 616 614
3 616 985 987
3 987 618 616
3 618 987 989
3 989 620 618
3 620 989 991
3 991 621 620
3 992 315 316
3 993 316 314
3 990 314 312
3 988 312 310
3 986 310 308
3 984 308 306
3 982 306 304
3 980 609 611
3 609 980 978
3 978 607 609
3 607 978 975
3 975 605 607
3 605 975 972
3 972 603 605
3 969 296 294
3 966 294 292
3 963 292 290
3 960 290 288
3 957 288 286
3 955 286 284
3 953 589 591
3 589 953 951
3 951 587 589
3 587 951 949
3 949 585 587
3 585 949 947
3 947 583 585
3 583 947 945
3 945 581 583
3 581 945 943
3 943 579 581
3 579 943 941
3 941 577 579
3 577 941 939
3 937 268 266
3 939 575 577
3 935 937 266
3 934 932 573
3 932 571 573
3 929 931 262
3 928 926 569
3 926 567 569
3 923 925 258
3 922 920 565
3 920 563 565
3 917 919 254
3 916 914 561
3 914 559 561
3 559 914 912
3 912 557 559
3 557 912 910
3 910 555 557
3 555 910 908
3 908 553 555
3 553 908 906
3 906 551 553
3 551 906 904
3 904 549 551
3 902 240 238
3 900 238 236
3 898 236 234
3 896 234 232
3 894 539 541
3 539 894 892
3 892 537 539
3 890 228 226
3 888 533 535
3 533 888 886
3 886 531 533
3 531 886 883
3 883 529 531
3 529 883 880
3 880 527 529
3 527 880 877
3 877 525 527
3 874 216 214
3 871 214 212
3 868 212 210
3 865 210 208
3 862 208 206
3 860 206 204
3 858 511 513
3 511 858 856
3 856 509 511
3 509 856 854
3 854 507 509
3 507 854 852
3 852 505 507
3 505 852 850
3 850 503 505
3 503 850 848
3 848 501 503
3 501 848 846
3 846 499 501
3 499 846 844
3 841 188 186
3 844 497 499
3 842 841 186
3 839 838 495
3 838 493 495
3 836 835 182
3 833 832 491
3 832 489 491
3 830 829 178
3 827 826 487
3 826 485 487
3 823 824 174
3 821 820 483
3 820 481 483
3 481 820 818
3 818 479 481
3 479 818 816
3 816 477 479
3 477 816 814
3 814 475 477
3 475 814 812
3 812 473 475
3 473 812 810
3 810 471 473
3 808 160 158
3 806 158 156
3 804 156 154
3 802 154 152
3 800 152 150
3 798 150 148
3 796 148 146
3 794 455 457
3 455 794 791
3 791 453 455
3 453 791 788
3 788 451 453
3 451 788 785
3 785 449 451
3 782 138 136
3 779 136 134
3 776 134 132
3 773 132 130
3 770 130 127
3 768 127 125
3 766 435 437
3 435 766 764
3 764 433 435
3 433 764 762
3 762 431 433
3 431 762 760
3 760 429 431
3 429 760 758
3 758 427 429
3 427 758 756
3 756 425 427
3 425 756 754
3 754 423 425
3 423 754 752
3 750 109 107
3 752 421 423
3 749 750 107
3 747 746 419
3 746 417 419
3 743 744 103
3 741 740 415
3 740 413 415
3 737 738 99
3 734 735 411
3 735 409 411
3 732 731 95
3 729 728 407
3 728 405 407
3 405 728 727
3 727 403 405
3 403 727 725
3 725 401 403
3 401 725 723
3 723 399 401
3 399 723 721
3 721 397 399
3 397 721 719
3 719 395 397
3 717 81 79
3 715 79 77
3 713 77 75
3 711 75 73
3 709 385 387
3 385 709 707
3 707 383 385
3 705 69 67
3 379 381 703
3 379 703 377
3 377 703 701
3 701 375 377
3 375 701 698
3 698 373 375
3 373 698 695
3 695 371 373
3 692 58 56
3 687 56 54
3 684 54 52
3 681 52 50
3 678 50 48
3 676 48 46
3 674 357 359
3 357 674 672
3 672 355 357
3 355 672 670
3 670 353 355
3 353 670 668
3 668 351 353
3 351 668 666
3 666 349 351
3 349 666 664
3 664 347 349
3 347 664 662
3 662 345 347
3 345 662 660
3 657 30 28
3 660 343 345
3 658 657 28
3 655 654 341
3 654 339 341
3 652 651 24
3 649 648 337
3 648 335 337
3 645 646 20
3 642 643 333
3 643 331 333
3 640 639 16
3 637 636 329
3 636 327 329
3 327 636 634
3 634 325 327
3 325 634 632
3 632 323 325
3 323 632 630
3 630 321 323
3 321 630 628
3 626 4 2
3 628 319 321
3 625 1 0
3 2 624 626
CELL_TYPES 1364
9
9
9
9
9
9
9
9
9
9
9
9
9
9
9
9
9
9
9
9
9
9
9
9
9
9
9
9
9
9
9
9
9
9
9
9
9
9
9
9
9
9
9
9
9
9
9
9
9
9
9
9
9
9
9
9
9
9
9
9
9
9
9
9
9
9
9
9
9
9
9
9
9
9
9
9
9
9
9
9
9
9
9
9
9
9
9
9
9
9
9
9
9
9
9
9
9
9
9
9
9
9
9
9
9
9
9
9
9
9
9
9
9
9
9
9
9
9
9
9
9
9
9
9
9
9
9
9
9
9
9
9
9
9
9
9
9
9
9
9
9
9
9
9
9
9
9
9
9
9
9
9
9
9
9
9
9
9
9
9
9
9
9
9
9
9
9
9
9
9
9
9
9
9
9
9
9
9
9
9
9
9
9
9
9
9
9
9
9
9
9
9
9
9
9
9
9
9
9
9
9
9
9
9
9
9
9
9
9
9
9
9
9
9
9
9
9
9
9
9
9
9
9
9
9
9
9
9
9
9
9
9
9
9
9
9
9
9
9
9
9
9
9
9
9
9
9
9
9
9
9
9
9
9
9
9
9
9
9
9
9
9
9
9
9
9
9
9
9
9
9
9
9
9
9
9
9
9
9
9
9
9
9
9
9
9
9
9
9
9
9
9
9
9
9
9
9
9
9
9
9
9
9
9
9
9
9
9
9
9
9
9
9
9
9
9
9
9
9
9
9
9
9
9
9
9
9
9
9
9
9
9
9
9
9
9
9
9
9
9
9
9
9
9
9
9
9
9
9
9
9
9
9
9
9
9
9
9
9
9
9
9
9
9
9
9
9
9
9
9
9
9
9
9
9
9
9
9
9
9
9
9
9
9
9
9
9
9
9
9
9
9
9
9
9
9
9
9
9
9
9
9
9
9
9
9
9
9
9
9
9
9
9
9
9
9
9
9
9
9
9
9
9
9
9
9
9
9
9
9
9
9
9
9
9
9
9
9
9
9
9
9
9
9
9
9
9
9
9
9
9
9
9
9
9
9
9
9
9
9
9
9
9
9
9
9
9
9
9
9
9
9
9
9
9
9
9
9
9
9
9
9
9
9
9
9
9
9
9
9
9
9
9
9
9
9
9
9
9
9
9
9
9
9
9
9
9
9
9
9
9
9
9
9
9
9
9
9
9
9
9
9
9
9
9
9
9
9
9
9
9
9
9
9
9
9
9
9
9
9
9
9
9
9
9
9
9
9
9
9
9
9
9
9
9
9
9
9
9
9
9
9
9
9
9
9
9
9
9
9
9
9
9
9
9
9
9
9
9
9
9
9
9
9
9
9
9
9
9
9
9
9
9
9
9
9
9
9
9
9
9
9
9
9
9
9
9
9
9
9
9
9
9
9
9
9
9
9
9
9
9
9
9
9
9
9
9
9
9
9
9
9
9
9
9
9
9
9
9
9
9
9
9
9
9
9
9
9
9
9
9
9
9
9
9
9
9
9
9
9
9
9
9
9
9
9
9
9
9
9
9
9
9
9
9
9
9
9
9
9
9
9
9
9
9
9
9
9
9
9
9
9
9
9
9
9
9
9
9
9
9
9
9
9
9
9
9
9
9
9
9
9
9
9
9
9
9
9
9
9
9
9
9
9
9
9
9
9
9
9
9
9
9
9
9
9
9
9
9
9
9
9
9
9
9
9
9
9
9
9
9
9
9
9
9
9
9
9
9
9
9
9
9
9
9
9
9
9
9
9
9
9
9
9
9
9
9
9
9
9
9
9
9
9
9
9
9
9
9
9
9
9
9
9
9
9
9
9
9
9
9
9
9
9
9
9
9
9
9
9
9
9
9
9
9
9
9
9
9
9
9
9
9
9
9
9
9
9
9
9
9
9
9
9
9
9
9
9
9
9
9
9
9
9
9
9
9
9
9
9
9
9
9
9
9
9
9
9
9
9
9
9
9
9
9
9
9
9
9
9
9
9
9
9
9
9
9
9
9
9
9
9
9
9
9
9
9
9
9
9
9
9
9
9
9
9
9
9
9
9
9
9
9
9
9
9
9
9
9
9
9
9
9
9
9
9
9
9
9
9
9
9
9
9
9
9
9
9
9
9
9
9
9
9
9
9
9
9
9
9
9
9
9
9
9
9
9
9
9
9
9
9
9
9
9
9
9
9
9
9
9
9
9
9
9
9
9
9
9
9
9
9
9
9
9
9
9
9
9
9
9
9
9
9
9
9
9
9
9
9
9
9
9
9
9
9
9
9
9
9
9
9
9
9
9
9
9
9
9
9
9
9
9
9
9
9
9
9
9
9
9
9
9
9
9
9
9
9
9
9
9
9
9
9
9
9
9
9
9
9
9
9
9
9
9
9
9
9
9
9
9
9
9
9
9
9
9
9
9
9
9
9
9
9
9
9
9
9
9
9
9
9
9
9
9
9
9
9
9
9
9
9
9
9
9
9
9
9
9
9
9
9
9
9
9
9
9
9
9
9
9
9
9
9
9
9
9
9
9
9
9
9
9
9
9
9
9
9
9
9
9
9
9
9
9
9
9
9
9
9
9
9
9
9
9
9
9
9
9
9
9
9
9
9
9
9
9
9
9
9
9
9
9
9
9
9
9
9
9
9
9
9
9
9
9
9
9
9
9
9
9
9
9
9
9
9
9
9
9
9
9
9
9
9
9
9
9
9
9
9
9
9
9
9
9
9
9
9
9
9
9
9
9
9
9
9
9
9
9
9
9
9
9
9
9
9
9
9
9
9
9
9
9
9
9
9
9
9
9
9
9
9
9
9
9
9
9
9
9
9
9
9
9
9
9
9
9
9
9
9
9
9
9
9
9
9
9
9
9
9
9
9
9
9
9
9
9
9
9
9
9
9
9
9
9
9
9
9
9
9
9
9
9
9
9
9
9
9
9
9
9
9
9
9
9
9
9
9
9
9
9
9
9
9
9
9
9
9
9
9
9
9
9
9
9
9
9
9
9
9
9
9
9
9
9
9
9
9
9
9
9
9
9
9
9
9
9
9
9
9
9
9
9
9
9
9
9
9
9
9
9
9
9
9
9
9
9
9
9
9
9
9
9
9
POINT_DATA 994
SCALARS u1 float
LOOKUP_TABLE default
-0.005
-0.005
-0.005
-0.004
-0.006
-0.004
-0.006
-0.003
-0.007
-0.003
-0.008
-0.002
-0.009
-0.002
-0.009
-0.002
-0.01
-0.002
-0.01
-0.002
-0.01
-0.002
-0.01
-0.002
-0.01
-0.002
-0.02
-0.002
-0.02
-0.002
-0.02
-0.002
-0.02
-0.002
-0.02
-0.003
-0.02
-0.003
-0.02
-0.003
-0.03
-0.003
-0.03
-0.004
-0.03
-0.004
-0.03
-0.004
-0.03
-0.004
-0.03
-0.005
-0.03
-0.005
-0.03
-0.005
-0.04
-0.006
-0.04
-0.006
-0.04
-0.007
-0.04
-0.007
-0.04
-0.04
-0.007
-0.04
-0.008
-0.04
-0.008
-0.03
-0.008
-0.03
-0.009
-0.03
-0.009
-0.03
-0.009
-0.03
-0.009
-0.03
-0.009
-0.03
-0.009
-0.03
-0.009
-0.03
-0.009
-0.03
-0.009
-0.02
-0.02
-0.009
-0.009
-0.02
-0.009
-0.02
-0.009
-0.02
-0.009
-0.02
-0.009
-0.02
-0.009
-0.02
-0.009
-0.02
-0.009
-0.02
-0.009
-0.01
-0.009
-0.01
-0.009
-0.01
-0.009
-0.01
-0.009
-0.01
-0.009
-0.01
-0.01
-0.01
-0.01
-0.01
-0.01
-0.01
-0.01
-0.01
-0.01
-0.01
-0.01
-0.01
-0.01
-0.01
-0.01
-0.01
-0.01
-0.01
-0.01
-0.01
-0.01
-0.01
-0.01
-0.02
-0.01
-0.02
-0.01
-0.02
-0.01
-0.02
-0.01
-0.02
-0.01
-0.02
-0.01
-0.02
-0.01
-0.02
-0.01
-0.02
-0.01
-0.02
-0.01
-0.02
-0.02
-0.02
-0.02
-0.02
-0.02
-0.02
-0.02
-0.02
-0.02
-0.02
-0.02
-0.02
-0.02
-0.02
-0.02
-0.02
-0.02
-0.02
-0.02
-0.02
-0.02
-0.02
-0.02
-0.02
-0.02
-0.02
-0.02
-0.02
-0.02
-0.02
-0.02
-0.02
-0.02
-0.02
-0.02
-0.02
-0.02
-0.02
-0.02
-0.02
-0.02
-0.02
-0.02
-0.02
-0.02
-0.01
-0.02
-0.01
-0.02
-0.01
-0.02
-0.01
-0.02
-0.01
-0.02
-0.009
-0.02
-0.008
-0.02
-0.007
-0.02
-0.006
-0.02
-0.004
-0.02
-0.003
-0.02
-0.002
-0.02
-0.0007
-0.02
0.0004
-0.02
0.001
-0.02
0.002
-0.02
0.003
-0.02
0.004
-0.02
0.005
-0.02
0.005
-0.02
0.006
-0.02
0.006
-0.02
0.006
-0.03
0.006
-0.03
0.005
-0.03
0.004
-0.03
0.004
-0.03
0.003
-0.03
0.002
-0.03
0.0005
-0.03
-0.0008
-0.03
-0.002
-0.03
-0.004
-0.03
-0.005
-0.03
-0.007
-0.03
-0.008
-0.03
-0.01
-0.03
-0.01
-0.03
-0.01
-0.03
-0.01
-0.03
-0.02
-0.03
-0.02
-0.03
-0.02
-0.03
-0.02
-0.03
-0.02
-0.03
-0.02
-0.03
-0.02
-0.03
-0.02
-0.03
-0.02
-0.03
-0.02
-0.03
-0.03
-0.03
-0.03
-0.03
-0.03
-0.03
-0.006
-0.005
-0.006
-0.004
-0.007
-0.004
-0.008
-0.003
-0.009
-0.003
-0.009
-0.002
-0.01
-0.002
-0.01
-0.002
-0.01
-0.002
-0.01
-0.002
-0.01
-0.002
-0.02
-0.002
-0.02
-0.002
-0.02
-0.002
-0.02
-0.002
-0.02
-0.002
-0.02
-0.002
-0.02
-0.003
-0.03
-0.003
-0.03
-0.003
-0.03
-0.003
-0.03
-0.003
-0.03
-0.004
-0.03
-0.004
-0.03
-0.004
-0.03
-0.004
-0.04
-0.005
-0.04
-0.005
-0.04
-0.005
-0.04
-0.006
-0.04
-0.006
-0.04
-0.007
-0.04
-0.007
-0.04
-0.007
-0.03
-0.007
-0.03
-0.008
-0.03
-0.008
-0.03
-0.008
-0.03
-0.008
-0.03
-0.009
-0.03
-0.009
-0.03
-0.009
-0.03
-0.009
-0.03
-0.009
-0.02
-0.009
-0.02
-0.009
-0.02
-0.009
-0.02
-0.009
-0.02
-0.009
-0.02
-0.009
-0.02
-0.009
-0.02
-0.01
-0.02
-0.01
-0.02
-0.01
-0.01
-0.01
-0.01
-0.01
-0.01
-0.01
-0.01
-0.01
-0.01
-0.01
-0.01
-0.01
-0.01
-0.01
-0.01
-0.01
-0.01
-0.01
-0.01
-0.01
-0.01
-0.01
-0.01
-0.01
-0.01
-0.01
-0.01
-0.02
-0.01
-0.02
-0.01
-0.02
-0.01
-0.02
-0.01
-0.02
-0.01
-0.02
-0.01
-0.02
-0.01
-0.02
-0.01
-0.02
-0.01
-0.02
-0.01
-0.02
-0.01
-0.02
-0.01
-0.02
-0.01
-0.02
-0.01
-0.02
-0.02
-0.02
-0.02
-0.02
-0.02
-0.02
-0.02
-0.02
-0.02
-0.02
-0.02
-0.02
-0.02
-0.02
-0.02
-0.02
-0.02
-0.02
-0.02
-0.02
-0.02
-0.02
-0.02
-0.02
-0.02
-0.02
-0.02
-0.02
-0.02
-0.02
-0.02
-0.02
-0.02
-0.02
-0.02
-0.02
-0.02
-0.02
-0.02
-0.01
-0.02
-0.01
-0.02
-0.01
-0.02
-0.01
-0.02
-0.01
-0.02
-0.009
-0.02
-0.008
-0.02
-0.007
-0.02
-0.006
-0.02
-0.004
-0.02
-0.003
-0.02
-0.002
-0.02
-0.0007
-0.02
0.0004
-0.02
0.001
-0.02
0.002
-0.02
0.003
-0.02
0.004
-0.02
0.005
-0.02
0.005
-0.03
0.006
-0.03
0.006
-0.03
0.006
-0.03
0.006
-0.03
0.005
-0.03
0.004
-0.03
0.004
-0.03
0.003
-0.03
0.002
-0.03
0.0004
-0.03
-0.0008
-0.03
-0.002
-0.03
-0.004
-0.03
-0.005
-0.03
-0.007
-0.03
-0.008
-0.03
-0.01
-0.03
-0.01
-0.03
-0.01
-0.03
-0.01
-0.03
-0.02
-0.03
-0.02
-0.03
-0.02
-0.03
-0.02
-0.03
-0.02
-0.03
-0.02
-0.03
-0.02
-0.03
-0.02
-0.03
-0.02
-0.03
-0.02
-0.03
-0.03
-0.03
-0.03
-0.03
-0.005
-0.005
-0.006
-0.004
-0.006
-0.004
-0.007
-0.003
-0.008
-0.003
-0.009
-0.002
-0.009
-0.01
-0.002
-0.01
-0.01
-0.002
-0.01
-0.01
-0.002
-0.01
-0.01
-0.002
-0.01
-0.01
-0.002
-0.02
-0.02
-0.002
-0.02
-0.02
-0.002
-0.02
-0.02
-0.002
-0.02
-0.002
-0.02
-0.002
-0.02
-0.002
-0.02
-0.003
-0.03
-0.003
-0.03
-0.003
-0.03
-0.003
-0.03
-0.003
-0.03
-0.004
-0.03
-0.004
-0.004
-0.03
-0.005
-0.004
-0.03
-0.005
-0.005
-0.03
-0.005
-0.005
-0.005
-0.006
-0.04
-0.006
-0.006
-0.04
-0.006
-0.006
-0.04
-0.007
-0.007
-0.04
-0.007
-0.04
-0.007
-0.04
-0.008
-0.03
-0.008
-0.03
-0.008
-0.03
-0.008
-0.03
-0.009
-0.03
-0.009
-0.03
-0.009
-0.03
-0.009
-0.03
-0.009
-0.03
-0.009
-0.03
-0.009
-0.02
-0.02
-0.02
-0.009
-0.02
-0.02
-0.009
-0.02
-0.02
-0.009
-0.02
-0.02
-0.009
-0.02
-0.02
-0.009
-0.02
-0.02
-0.009
-0.02
-0.02
-0.009
-0.02
-0.02
-0.009
-0.02
-0.009
-0.01
-0.009
-0.01
-0.01
-0.01
-0.01
-0.01
-0.01
-0.01
-0.01
-0.01
-0.01
-0.01
-0.01
-0.01
-0.01
-0.01
-0.01
-0.01
-0.01
-0.01
-0.01
-0.01
-0.01
-0.01
-0.01
-0.01
-0.01
-0.01
-0.01
-0.01
-0.01
-0.01
-0.01
-0.01
-0.01
-0.01
-0.01
-0.02
-0.02
-0.01
-0.02
-0.01
-0.02
-0.01
-0.02
-0.01
-0.02
-0.01
-0.02
-0.01
-0.02
-0.01
-0.02
-0.01
-0.02
-0.01
-0.02
-0.01
-0.02
-0.01
-0.02
-0.01
-0.02
-0.02
-0.02
-0.02
-0.02
-0.02
-0.02
-0.02
-0.02
-0.02
-0.02
-0.02
-0.02
-0.02
-0.02
-0.02
-0.02
-0.02
-0.02
-0.02
-0.02
-0.02
-0.02
-0.02
-0.02
-0.02
-0.02
-0.02
-0.02
-0.02
-0.02
-0.02
-0.02
-0.02
-0.02
-0.02
-0.02
-0.02
-0.02
-0.02
-0.02
-0.02
-0.02
-0.02
-0.02
-0.02
-0.02
-0.02
-0.02
-0.02
-0.01
-0.02
-0.01
-0.01
-0.02
-0.01
-0.01
-0.02
-0.01
-0.01
-0.02
-0.01
-0.01
-0.02
-0.01
-0.01
-0.02
-0.009
-0.008
-0.02
-0.007
-0.02
-0.006
-0.02
-0.005
-0.02
-0.004
-0.02
-0.003
-0.02
-0.001
-0.02
-0.0004
-0.02
0.001
-0.02
0.002
-0.02
0.003
-0.02
0.004
-0.02
0.004
-0.02
0.005
-0.02
0.006
-0.02
0.006
-0.03
-0.03
0.006
-0.03
-0.03
0.006
-0.03
-0.03
0.005
-0.03
-0.03
0.005
-0.03
-0.03
0.004
-0.03
-0.03
0.003
-0.03
-0.03
0.002
-0.03
0.001
-0.03
-0.0002
-0.03
-0.002
-0.03
-0.003
-0.03
-0.004
-0.03
-0.006
-0.03
-0.007
-0.03
-0.009
-0.03
-0.01
-0.03
-0.01
-0.03
-0.01
-0.01
-0.03
-0.01
-0.02
-0.03
-0.02
-0.02
-0.03
-0.02
-0.02
-0.03
-0.02
-0.02
-0.03
-0.02
-0.02
-0.03
-0.02
-0.02
-0.03
-0.02
-0.03
-0.02
-0.03
-0.02
-0.03
-0.02
-0.03
-0.02
-0.03
-0.03
-0.03
-0.03
-0.03
-0.03
SCALARS u2 float
LOOKUP_TABLE default
-0.01
-0.01
-0.01
-0.01
-0.01
-0.01
-0.01
-0.01
-0.01
-0.01
-0.02
-0.01
-0.02
-0.01
-0.02
-0.01
-0.02
-0.01
-0.02
-0.01
-0.02
-0.01
-0.02
-0.01
-0.02
-0.01
-0.02
-0.01
-0.02
-0.01
-0.02
-0.01
-0.02
-0.01
-0.02
-0.01
-0.02
-0.01
-0.02
-0.01
-0.02
-0.01
-0.02
-0.01
-0.02
-0.01
-0.02
-0.01
-0.02
-0.02
-0.02
-0.02
-0.02
-0.02
-0.02
-0.02
-0.02
-0.02
-0.02
-0.02
-0.02
-0.02
-0.02
-0.02
-0.02
-0.02
-0.02
-0.02
-0.02
-0.02
-0.03
-0.02
-0.03
-0.02
-0.03
-0.02
-0.03
-0.02
-0.03
-0.02
-0.03
-0.02
-0.03
-0.02
-0.03
-0.02
-0.03
-0.02
-0.03
-0.02
-0.03
-0.02
-0.02
-0.04
-0.04
-0.02
-0.04
-0.02
-0.04
-0.03
-0.04
-0.03
-0.04
-0.03
-0.03
-0.03
-0.03
-0.03
-0.03
-0.03
-0.03
-0.03
-0.03
-0.03
-0.03
-0.03
-0.03
-0.03
-0.03
-0.03
-0.03
-0.03
-0.02
-0.03
-0.02
-0.03
-0.02
-0.03
-0.02
-0.02
-0.03
-0.02
-0.03
-0.02
-0.03
-0.01
-0.03
-0.01
-0.03
-0.01
-0.03
-0.01
-0.03
-0.01
-0.03
-0.009
-0.03
-0.008
-0.03
-0.007
-0.03
-0.006
-0.03
-0.006
-0.03
-0.005
-0.03
-0.004
-0.03
-0.004
-0.03
-0.003
-0.03
-0.003
-0.03
-0.002
-0.02
-0.002
-0.02
-0.002
-0.02
-0.001
-0.02
-0.001
-0.02
-0.001
-0.02
-0.0009
-0.02
-0.0009
-0.02
-0.001
-0.02
-0.001
-0.02
-0.001
-0.01
-0.001
-0.01
-0.002
-0.01
-0.002
-0.009
-0.002
-0.008
-0.002
-0.006
-0.002
-0.005
-0.003
-0.003
-0.003
-0.002
-0.003
-0.0006
-0.004
0.0006
-0.004
0.002
-0.004
0.003
-0.005
0.004
-0.005
0.004
-0.005
0.005
-0.006
0.005
-0.006
0.006
-0.007
0.006
-0.007
0.006
-0.007
0.005
-0.008
0.005
-0.008
0.004
-0.008
0.003
-0.009
0.002
-0.009
0.001
-0.009
0.0003
-0.009
-0.0009
-0.009
-0.002
-0.009
-0.003
-0.009
-0.005
-0.009
-0.006
-0.009
-0.007
-0.009
-0.008
-0.009
-0.009
-0.009
-0.01
-0.009
-0.01
-0.008
-0.01
-0.008
-0.01
-0.008
-0.01
-0.008
-0.02
-0.008
-0.02
-0.008
-0.02
-0.009
-0.02
-0.009
-0.02
-0.009
-0.02
-0.009
-0.02
-0.009
-0.02
-0.01
-0.02
-0.01
-0.02
-0.01
-0.02
-0.01
-0.02
-0.01
-0.02
-0.01
-0.02
-0.01
-0.02
-0.01
-0.02
-0.01
-0.02
-0.01
-0.02
-0.01
-0.02
-0.02
-0.02
-0.02
-0.02
-0.02
-0.02
-0.02
-0.02
-0.02
-0.02
-0.02
-0.02
-0.02
-0.02
-0.01
-0.01
-0.01
-0.01
-0.01
-0.01
-0.01
-0.01
-0.01
-0.01
-0.02
-0.01
-0.02
-0.01
-0.02
-0.01
-0.02
-0.01
-0.02
-0.01
-0.02
-0.01
-0.02
-0.01
-0.02
-0.01
-0.02
-0.01
-0.02
-0.01
-0.02
-0.01
-0.02
-0.01
-0.02
-0.01
-0.02
-0.01
-0.02
-0.01
-0.02
-0.01
-0.02
-0.01
-0.02
-0.02
-0.02
-0.02
-0.02
-0.02
-0.02
-0.02
-0.02
-0.02
-0.02
-0.02
-0.02
-0.02
-0.02
-0.02
-0.02
-0.02
-0.02
-0.02
-0.02
-0.02
-0.02
-0.03
-0.02
-0.03
-0.02
-0.03
-0.02
-0.03
-0.02
-0.03
-0.02
-0.03
-0.02
-0.03
-0.02
-0.03
-0.02
-0.03
-0.02
-0.03
-0.02
-0.04
-0.02
-0.04
-0.03
-0.04
-0.03
-0.04
-0.03
-0.04
-0.03
-0.04
-0.03
-0.03
-0.03
-0.03
-0.03
-0.03
-0.03
-0.03
-0.03
-0.03
-0.03
-0.03
-0.03
-0.03
-0.03
-0.03
-0.03
-0.03
-0.03
-0.02
-0.03
-0.02
-0.03
-0.02
-0.03
-0.02
-0.03
-0.02
-0.03
-0.02
-0.03
-0.02
-0.03
-0.01
-0.03
-0.01
-0.03
-0.01
-0.03
-0.01
-0.03
-0.009
-0.03
-0.009
-0.03
-0.008
-0.03
-0.007
-0.03
-0.006
-0.03
-0.006
-0.03
-0.005
-0.03
-0.004
-0.03
-0.004
-0.03
-0.003
-0.02
-0.003
-0.02
-0.002
-0.02
-0.002
-0.02
-0.002
-0.02
-0.001
-0.02
-0.001
-0.02
-0.001
-0.02
-0.0009
-0.02
-0.0009
-0.02
-0.001
-0.01
-0.001
-0.01
-0.001
-0.01
-0.001
-0.009
-0.002
-0.008
-0.002
-0.006
-0.002
-0.005
-0.002
-0.003
-0.002
-0.002
-0.003
-0.0007
-0.003
0.0006
-0.003
0.002
-0.003
0.003
-0.004
0.004
-0.004
0.004
-0.004
0.005
-0.005
0.005
-0.005
0.006
-0.005
0.006
-0.006
0.006
-0.006
0.005
-0.006
0.005
-0.007
0.004
-0.007
0.003
-0.007
0.002
-0.008
0.001
-0.008
0.0002
-0.008
-0.0009
-0.008
-0.002
-0.008
-0.003
-0.008
-0.005
-0.009
-0.006
-0.009
-0.007
-0.009
-0.008
-0.009
-0.01
-0.009
-0.01
-0.009
-0.01
-0.009
-0.01
-0.009
-0.01
-0.009
-0.01
-0.009
-0.02
-0.009
-0.02
-0.01
-0.02
-0.01
-0.02
-0.01
-0.02
-0.01
-0.02
-0.01
-0.02
-0.01
-0.02
-0.01
-0.02
-0.01
-0.02
-0.01
-0.02
-0.01
-0.02
-0.01
-0.02
-0.01
-0.02
-0.01
-0.02
-0.01
-0.02
-0.02
-0.02
-0.02
-0.02
-0.02
-0.02
-0.02
-0.02
-0.02
-0.02
-0.02
-0.02
-0.02
-0.02
-0.02
-0.02
-0.02
-0.02
-0.01
-0.01
-0.01
-0.01
-0.01
-0.01
-0.01
-0.01
-0.01
-0.01
-0.02
-0.01
-0.02
-0.02
-0.01
-0.02
-0.02
-0.01
-0.02
-0.02
-0.01
-0.02
-0.02
-0.01
-0.02
-0.02
-0.01
-0.02
-0.02
-0.01
-0.02
-0.02
-0.01
-0.02
-0.02
-0.01
-0.02
-0.01
-0.02
-0.01
-0.02
-0.01
-0.02
-0.01
-0.02
-0.01
-0.02
-0.01
-0.02
-0.01
-0.02
-0.01
-0.02
-0.01
-0.02
-0.02
-0.02
-0.02
-0.02
-0.02
-0.02
-0.02
-0.02
-0.02
-0.02
-0.02
-0.02
-0.02
-0.02
-0.02
-0.02
-0.02
-0.02
-0.02
-0.02
-0.02
-0.02
-0.02
-0.02
-0.02
-0.02
-0.02
-0.03
-0.02
-0.03
-0.02
-0.03
-0.02
-0.03
-0.02
-0.03
-0.02
-0.03
-0.02
-0.03
-0.02
-0.03
-0.02
-0.03
-0.02
-0.03
-0.02
-0.03
-0.02
-0.02
-0.02
-0.04
-0.03
-0.02
-0.04
-0.03
-0.03
-0.04
-0.03
-0.03
-0.04
-0.03
-0.03
-0.04
-0.03
-0.03
-0.03
-0.03
-0.03
-0.03
-0.03
-0.03
-0.03
-0.03
-0.03
-0.03
-0.03
-0.03
-0.03
-0.03
-0.03
-0.03
-0.03
-0.03
-0.02
-0.03
-0.02
-0.03
-0.02
-0.03
-0.02
-0.03
-0.02
-0.02
-0.03
-0.02
-0.02
-0.03
-0.02
-0.01
-0.03
-0.01
-0.01
-0.03
-0.01
-0.01
-0.03
-0.01
-0.01
-0.03
-0.01
-0.01
-0.03
-0.009
-0.01
-0.03
-0.009
-0.03
-0.008
-0.03
-0.007
-0.03
-0.006
-0.03
-0.006
-0.03
-0.005
-0.03
-0.005
-0.03
-0.004
-0.03
-0.003
-0.03
-0.003
-0.02
-0.002
-0.02
-0.002
-0.02
-0.002
-0.02
-0.02
-0.001
-0.02
-0.02
-0.001
-0.02
-0.02
-0.001
-0.02
-0.02
-0.0009
-0.02
-0.02
-0.0009
-0.02
-0.02
-0.001
-0.01
-0.01
-0.001
-0.01
-0.01
-0.001
-0.01
-0.001
-0.01
-0.002
-0.009
-0.002
-0.007
-0.002
-0.006
-0.002
-0.004
-0.002
-0.003
-0.003
-0.002
-0.003
-4e-05
-0.003
0.001
-0.003
-0.004
0.002
-0.004
-0.004
0.003
-0.004
-0.004
0.004
-0.005
-0.005
0.005
-0.005
-0.005
0.005
-0.005
-0.006
0.006
-0.006
-0.006
0.006
-0.006
-0.006
0.006
-0.007
0.005
-0.007
0.005
-0.007
0.004
-0.008
0.004
-0.008
0.003
-0.008
0.002
-0.008
0.0008
-0.008
-0.0005
-0.009
-0.002
-0.009
-0.003
-0.009
-0.004
-0.009
-0.005
-0.009
-0.006
-0.009
-0.008
-0.009
-0.009
-0.009
-0.009
-0.01
-0.01
-0.009
-0.01
-0.01
-0.009
-0.01
-0.01
-0.009
-0.01
-0.01
-0.009
-0.01
-0.01
-0.009
-0.01
-0.02
-0.009
-0.02
-0.009
-0.02
-0.009
-0.02
-0.009
-0.02
-0.01
-0.02
-0.01
-0.02
-0.01
-0.02
-0.01
-0.02
-0.01
-0.02
-0.01
-0.02
-0.01
-0.02
-0.01
-0.01
-0.02
-0.01
-0.01
-0.02
-0.01
-0.01
-0.02
-0.01
-0.01
-0.02
-0.01
-0.01
-0.02
-0.01
-0.01
-0.02
-0.02
-0.01
-0.02
-0.02
-0.02
-0.02
-0.02
-0.02
-0.02
-0.02
-0.02
-0.02
-0.02
-0.02
-0.02
-0.02
-0.02
-0.02
SCALARS strain_1 float
LOOKUP_TABLE default
-0.031673
-0.020780
0.019768
-0.079802
0.071864
-0.125766
0.126721
-0.170290
0.183731
-0.211452
0.242915
-0.251845
0.304121
-0.289344
0.366448
-0.324168
0.432248
-0.357776
0.500260
-0.388499
0.568792
-0.417375
0.640062
-0.443275
0.713110
-0.468688
0.787798
-0.492348
0.864299
-0.512319
0.942318
-0.532234
1.021746
-0.548378
1.103261
-0.564194
1.186544
-0.577599
1.270914
-0.588718
1.355706
-0.598666
1.443345
-0.606498
1.531009
-0.613010
1.619618
-0.617814
1.709989
-0.621682
1.800647
-0.623556
1.892340
-0.623010
1.983463
-0.622526
2.076625
-0.620709
2.170009
-0.617615
2.263851
-0.612764
2.357117
-0.607786
2.451044
2.544172
-0.599034
2.638155
-0.591958
2.731283
-0.583760
2.823310
-0.573092
2.916537
-0.564434
3.007935
-0.552251
3.098235
-0.539504
3.187892
-0.527609
3.276881
-0.514637
3.364910
-0.500492
3.451664
-0.486435
3.536334
-0.472308
3.619242
-0.457276
3.700556
3.781884
-0.442156
-0.425937
3.859430
-0.411070
3.935810
-0.394071
4.010129
-0.378681
4.081072
-0.362768
4.150865
-0.347006
4.217857
-0.331352
4.281434
-0.316243
4.344160
-0.300476
4.402549
-0.284635
4.458898
-0.269515
4.512189
-0.254494
4.562563
-0.240194
4.609157
-0.226830
4.653280
-0.213170
4.693600
-0.198805
4.731139
-0.185457
4.764930
-0.174514
-0.161696
4.794720
-0.150610
4.822452
-0.140057
4.845582
-0.129062
4.865357
-0.119581
4.882402
-0.110145
4.894133
-0.102269
4.904204
-0.095245
4.909038
-0.087940
4.911793
-0.080854
4.909413
-0.075568
4.904573
-0.070064
4.895355
-0.065590
4.883420
-0.062079
4.866482
-0.059236
4.847401
-0.056532
4.824302
-0.054816
4.797512
-0.053466
4.767606
-0.052111
4.733453
-0.051967
4.697339
-0.053305
4.657184
-0.054739
4.614595
-0.056829
4.567800
-0.059342
4.518755
-0.062234
4.467847
-0.065769
4.412166
-0.070552
4.355470
-0.075542
4.294420
-0.080786
4.231968
-0.086478
4.167011
-0.092813
4.099309
-0.099419
4.029266
-0.106390
3.958195
-0.114250
3.883929
-0.121672
3.809019
-0.129750
3.731303
-0.138168
3.652128
-0.146858
3.571523
-0.156023
3.489711
-0.165298
3.406309
-0.176044
3.322558
-0.185411
3.237523
-0.195942
3.150883
-0.204549
3.064022
-0.215484
2.977197
-0.225272
2.889201
-0.236126
2.800411
-0.246920
2.711930
-0.256688
2.623352
-0.268292
2.534956
-0.277241
2.444985
-0.287680
2.357801
-0.298811
2.269868
-0.307873
2.181612
-0.318174
2.094158
-0.327599
2.007626
-0.337108
1.922144
-0.347089
1.837152
-0.356316
1.753052
-0.364761
1.669810
-0.372357
1.587500
-0.380470
1.507341
-0.387898
1.427402
-0.395396
1.348266
-0.401685
1.271078
-0.409147
1.195360
-0.413786
1.121944
-0.418959
1.049621
-0.422867
0.978725
-0.427328
0.909545
-0.430557
0.842871
-0.433837
0.775834
-0.434835
0.712072
-0.435199
0.649682
-0.436053
0.589173
-0.434254
0.531279
-0.433907
0.473585
-0.430259
0.419050
-0.426457
0.366598
-0.423178
0.314846
-0.417654
0.265563
-0.411396
0.217709
-0.403481
0.172124
-0.393902
0.128562
-0.384148
0.087258
-0.374164
0.047357
-0.360374
0.009453
-0.346362
-0.027584
-0.331627
-0.061496
-0.315030
-0.094169
-0.296167
-0.125755
-0.276305
-0.154578
-0.255307
-0.182018
-0.232851
-0.207946
0.030624
-0.069014
0.083978
-0.116671
0.139656
-0.161158
0.196935
-0.203590
0.256255
-0.243624
0.318130
-0.281459
0.383306
-0.317371
0.449495
-0.351497
0.516681
-0.383542
0.587542
-0.411636
0.658735
-0.440076
0.733108
-0.465042
0.808323
-0.487754
0.885716
-0.508932
0.964189
-0.528148
1.044441
-0.545589
1.125666
-0.560819
1.209614
-0.573910
1.294639
-0.586084
1.380282
-0.595488
1.467219
-0.603771
1.555894
-0.610815
1.645054
-0.615575
1.735322
-0.619486
1.825958
-0.621515
1.916655
-0.621677
2.009008
-0.621065
2.102196
-0.618494
2.194039
-0.615343
2.286807
-0.611013
2.380424
-0.605279
2.473542
-0.598842
2.565514
-0.591196
2.657848
-0.582196
2.750458
-0.572678
2.841130
-0.562444
2.931525
-0.550697
3.021291
-0.539218
3.110479
-0.526581
3.197179
-0.514057
3.284669
-0.500375
3.369210
-0.486383
3.453683
-0.471993
3.535527
-0.456696
3.615224
-0.442151
3.694395
-0.427071
3.770527
-0.411397
3.844848
-0.396651
3.916049
-0.380518
3.987210
-0.365075
4.053766
-0.350165
4.119187
-0.335493
4.181042
-0.320231
4.240054
-0.304839
4.297243
-0.289703
4.350202
-0.275480
4.401133
-0.261549
4.448166
-0.247280
4.492631
-0.234371
4.533800
-0.220230
4.571618
-0.208494
4.605517
-0.197204
4.635783
-0.185273
4.663391
-0.174343
4.687161
-0.164007
4.706695
-0.154183
4.723186
-0.145616
4.735976
-0.136378
4.745541
-0.129226
4.750926
-0.120984
4.752043
-0.114263
4.750376
-0.108465
4.744945
-0.102676
4.735198
-0.098365
4.722383
-0.094033
4.706411
-0.091086
4.686138
-0.087393
4.662503
-0.085968
4.635664
-0.084079
4.605672
-0.083047
4.571119
-0.083761
4.533710
-0.083852
4.494296
-0.085664
4.450640
-0.086607
4.403478
-0.088615
4.353928
-0.091477
4.299895
-0.095297
4.245543
-0.099893
4.187320
-0.104231
4.126718
-0.109262
4.063185
-0.114560
3.996709
-0.121502
3.929454
-0.127201
3.859449
-0.133816
3.787966
-0.141650
3.713678
-0.148767
3.637531
-0.157033
3.559467
-0.165427
3.480298
-0.174236
3.399366
-0.183805
3.316978
-0.192557
3.233585
-0.202037
3.150875
-0.211300
3.065420
-0.220565
2.979637
-0.231031
2.893383
-0.240503
2.806178
-0.250388
2.717352
-0.260712
2.630457
-0.270492
2.543234
-0.280166
2.454535
-0.290462
2.367889
-0.300753
2.279357
-0.310726
2.192652
-0.320998
2.104811
-0.330680
2.019043
-0.339591
1.933095
-0.348535
1.847140
-0.358169
1.763868
-0.366106
1.680056
-0.374052
1.598427
-0.382869
1.516382
-0.389781
1.437575
-0.396569
1.358341
-0.404012
1.281150
-0.408976
1.204101
-0.416026
1.130653
-0.421348
1.057115
-0.424844
0.985908
-0.429705
0.916100
-0.433246
0.847521
-0.435667
0.781315
-0.437152
0.716722
-0.438649
0.654041
-0.439313
0.593184
-0.438196
0.534151
-0.437231
0.476306
-0.434300
0.420854
-0.430819
0.368089
-0.427219
0.315951
-0.421927
0.266865
-0.415526
0.218778
-0.407007
0.172465
-0.398148
0.128454
-0.388013
0.086626
-0.376569
0.046106
-0.364346
0.007379
-0.350098
-0.028770
-0.334741
-0.064240
-0.317308
-0.097133
-0.299903
-0.128441
-0.279901
-0.157715
-0.259601
-0.235818
-0.185337
-0.210965
0.008992
-0.051496
0.052372
-0.098177
0.106212
-0.143767
0.161354
-0.186770
0.219926
-0.228230
0.279980
-0.267319
0.340485
0.389659
-0.306969
0.455554
0.422132
-0.338853
0.524008
0.492161
-0.370241
0.560707
0.595744
-0.399409
0.632166
0.669465
-0.422585
0.743122
0.703844
-0.454806
0.778814
0.818997
-0.479228
0.901267
0.855656
-0.499989
0.957215
-0.520706
1.034488
-0.538747
1.115036
-0.557769
1.197827
-0.569414
1.282355
-0.582132
1.367805
-0.592533
1.451846
-0.601945
1.524836
-0.608888
1.632921
-0.614668
1.722326
-0.619450
-0.621576
1.813002
-0.622823
-0.622217
1.904097
-0.622466
-0.622595
1.997088
-0.621570
-0.622678
-0.620876
-0.619291
2.109700
-0.617718
-0.615874
2.194737
-0.612880
-0.611060
2.289373
-0.607818
-0.603958
2.384750
-0.599473
2.507268
-0.591849
2.666080
-0.582667
2.739275
-0.574085
2.814170
-0.563298
2.923325
-0.551832
3.014882
-0.542601
3.104327
-0.527534
3.208614
-0.513192
3.283214
-0.500492
3.367215
-0.482897
3.452079
-0.472888
3.535436
-0.459662
3.618036
3.694459
3.755289
-0.433127
3.833086
3.795322
-0.413032
3.911623
3.871734
-0.396283
3.945726
3.982183
-0.380763
4.015794
4.053611
-0.367574
4.084092
4.119831
-0.349159
4.150331
4.186144
-0.333492
4.213985
4.254171
-0.317983
4.294561
-0.302251
4.350602
-0.287858
4.403392
-0.269662
4.455543
-0.256891
4.504276
-0.244119
4.549949
-0.230495
4.590508
-0.217425
4.623393
-0.204349
4.668072
-0.191349
4.699792
-0.180073
-0.170523
4.728966
-0.165767
-0.159861
4.753847
-0.154220
-0.148571
4.775995
-0.144044
-0.139234
4.798365
-0.134182
-0.129642
4.808806
-0.120564
-0.125640
4.818712
-0.117749
-0.113377
4.826990
-0.104732
-0.110045
4.830154
-0.100309
4.831148
-0.095204
4.827048
-0.089743
4.819328
-0.084175
4.808166
-0.079477
4.794048
-0.076573
4.776034
-0.073440
4.749197
-0.071038
4.728606
-0.069220
4.701391
-0.068643
4.668456
-0.068864
4.633307
-0.068567
4.596496
-0.068936
4.556476
4.528545
-0.071562
4.495196
4.474925
-0.073781
4.446016
4.423585
-0.075870
4.372783
4.394995
-0.078889
4.343120
4.315567
-0.081694
4.258631
4.286991
-0.087505
4.223423
4.194789
-0.092556
4.130088
4.161842
-0.097888
4.079309
-0.103389
4.014191
-0.110182
3.944181
-0.118284
3.872161
-0.124095
3.797982
-0.131644
3.722026
-0.139365
3.646636
-0.147880
3.581725
-0.156093
3.484564
-0.165022
3.403354
-0.174180
-0.179552
3.319827
-0.186088
-0.190836
3.236124
-0.196741
-0.201211
3.150670
-0.205986
-0.210251
3.046487
-0.215458
-0.220430
2.975186
-0.226024
-0.230782
2.890052
-0.235631
-0.241308
2.803829
-0.246074
-0.250191
2.718484
-0.259244
2.646745
-0.270454
2.520855
-0.279307
2.450124
-0.289434
2.380000
-0.299885
2.274370
-0.308407
2.187140
-0.317224
2.099279
-0.328946
1.994440
-0.338523
1.923611
-0.348193
1.842160
-0.358446
1.758156
-0.365199
1.674952
-0.371755
1.593629
-0.382293
1.516860
-0.388163
1.459729
1.412422
-0.397828
1.376579
1.333358
-0.403409
1.294811
1.257197
-0.408524
1.219593
1.182949
-0.414228
1.144762
1.109756
-0.419598
1.069274
1.033810
-0.424103
0.998933
0.966109
-0.428102
0.926437
-0.431091
0.875583
-0.434340
0.811462
-0.436474
0.745512
-0.437048
0.683310
-0.437600
0.622251
-0.435940
0.562092
-0.434690
0.506270
-0.432556
0.459150
-0.429070
0.393100
-0.424945
0.341420
-0.421231
-0.418265
0.290141
-0.415152
-0.411432
0.241792
-0.408079
-0.403210
0.194748
-0.399265
-0.393556
0.141252
-0.383985
-0.388660
0.105038
-0.377775
-0.372169
0.067008
-0.358790
-0.365449
0.027641
-0.350852
-0.004434
-0.339874
-0.045305
-0.324719
-0.080480
-0.307261
-0.111280
-0.288286
-0.141535
-0.268131
-0.170677
-0.246554
-0.227272
-0.196370
SCALARS strain_2 float
LOOKUP_TABLE default
0.014167
0.009475
-0.006034
0.033886
-0.027785
0.051963
-0.050596
0.068375
-0.075849
0.084312
-0.101856
0.099536
-0.128044
0.113591
-0.156975
0.125475
-0.186133
0.137570
-0.217719
0.147655
-0.250591
0.156005
-0.283898
0.165168
-0.319815
0.172734
-0.356457
0.179686
-0.394111
0.185812
-0.433525
0.190775
-0.473430
0.194989
-0.514741
0.198630
-0.558625
0.201544
-0.602242
0.204243
-0.648663
0.204959
-0.695585
0.207018
-0.742914
0.206705
-0.792357
0.206554
-0.842799
0.206254
-0.893887
0.204309
-0.946421
0.203490
-0.999825
0.200341
-1.053336
0.198839
-1.108448
0.197076
-1.164366
0.193583
-1.221178
0.189825
-1.278014
-1.335946
0.187061
-1.394721
0.182440
-1.453887
0.178816
-1.511916
0.174474
-1.571651
0.169704
-1.631336
0.165182
-1.691259
0.161402
-1.751257
0.156323
-1.811503
0.151648
-1.871126
0.147141
-1.931029
0.141897
-1.990419
0.136397
-2.049269
0.131384
-2.107401
-2.165873
0.126784
0.121589
-2.222310
0.116818
-2.280310
0.111075
-2.335073
0.106690
-2.389404
0.101842
-2.443552
0.096968
-2.496827
0.092366
-2.547258
0.087681
-2.597430
0.083616
-2.645904
0.078648
-2.693580
0.075365
-2.739667
0.070068
-2.783004
0.066523
-2.824878
0.062494
-2.864913
0.058841
-2.903378
0.055366
-2.939762
0.051531
-2.974152
0.047941
0.045056
-3.007730
0.042695
-3.037522
0.038908
-3.065329
0.036032
-3.090696
0.034259
-3.114377
0.031250
-3.135292
0.029405
-3.153592
0.027213
-3.170105
0.025266
-3.182052
0.023461
-3.193382
0.021889
-3.201664
0.020265
-3.208104
0.019934
-3.210675
0.018603
-3.211145
0.017898
-3.209604
0.017335
-3.203957
0.017418
-3.197361
0.016285
-3.187035
0.016376
-3.174647
0.016933
-3.159425
0.017217
-3.142404
0.017950
-3.121871
0.018134
-3.099198
0.019886
-3.074389
0.020628
-3.046358
0.022197
-3.015866
0.023655
-2.984664
0.026021
-2.949485
0.028190
-2.912753
0.030861
-2.874350
0.032249
-2.833068
0.035502
-2.790623
0.037921
-2.745377
0.040799
-2.698315
0.044375
-2.650707
0.047720
-2.600185
0.052021
-2.548410
0.055616
-2.495639
0.060484
-2.441229
0.064500
-2.384437
0.069558
-2.327963
0.074318
-2.269171
0.079400
-2.210060
0.084235
-2.150222
0.089795
-2.089114
0.095800
-2.027588
0.101733
-1.965368
0.108140
-1.902795
0.113167
-1.840149
0.120274
-1.776131
0.126702
-1.712212
0.132566
-1.648589
0.140594
-1.585329
0.147027
-1.521347
0.153798
-1.457358
0.161060
-1.393665
0.168024
-1.331252
0.175463
-1.269201
0.182164
-1.207106
0.189580
-1.145858
0.197218
-1.085243
0.204498
-1.025654
0.210851
-0.965736
0.217996
-0.908565
0.225156
-0.851237
0.231852
-0.795726
0.237890
-0.740946
0.244186
-0.687363
0.250573
-0.634723
0.256709
-0.583743
0.262621
-0.533948
0.267187
-0.485347
0.271600
-0.439380
0.276151
-0.393506
0.280818
-0.348936
0.283240
-0.306090
0.286117
-0.265159
0.288856
-0.226462
0.290910
-0.187198
0.292143
-0.150581
0.292844
-0.115090
0.292208
-0.082319
0.291364
-0.050988
0.289100
-0.020546
0.285524
0.008502
0.282034
0.035029
0.277257
0.060460
0.270995
0.084116
0.265112
0.107036
0.256113
0.128386
0.246860
0.148222
0.236867
0.166610
0.225835
0.183466
0.212240
0.198913
-0.011247
0.030062
-0.032858
0.048590
-0.056549
0.066196
-0.081893
0.081743
-0.108528
0.097474
-0.136165
0.111015
-0.164918
0.123893
-0.195838
0.135275
-0.226780
0.146313
-0.260437
0.156437
-0.294366
0.165148
-0.330070
0.171731
-0.367576
0.179436
-0.406503
0.185212
-0.446110
0.190675
-0.487089
0.195270
-0.529432
0.198683
-0.573563
0.202557
-0.618636
0.204640
-0.665404
0.206658
-0.712353
0.207039
-0.760604
0.207967
-0.810591
0.206985
-0.860983
0.207100
-0.912146
0.205766
-0.965129
0.204248
-1.019002
0.203052
-1.073623
0.200242
-1.128657
0.197633
-1.184803
0.194831
-1.241639
0.192065
-1.298613
0.187514
-1.356593
0.184482
-1.414547
0.180307
-1.473183
0.177060
-1.532170
0.172246
-1.591116
0.167438
-1.650417
0.162327
-1.708972
0.158691
-1.768372
0.153647
-1.827913
0.148664
-1.886242
0.143276
-1.944829
0.138265
-2.004012
0.133654
-2.060207
0.128713
-2.116742
0.123323
-2.173640
0.118628
-2.228570
0.113998
-2.282864
0.109453
-2.336650
0.104884
-2.388025
0.100007
-2.439620
0.095775
-2.489537
0.091108
-2.537165
0.086566
-2.584560
0.081402
-2.630408
0.078251
-2.673562
0.074125
-2.715589
0.070178
-2.755847
0.066162
-2.794516
0.062186
-2.829761
0.059702
-2.864799
0.055684
-2.896538
0.053103
-2.926545
0.049786
-2.953682
0.046506
-2.979464
0.044168
-3.002324
0.042268
-3.022716
0.039987
-3.040973
0.037221
-3.056796
0.035314
-3.069501
0.033821
-3.079765
0.032499
-3.087538
0.030375
-3.093086
0.030014
-3.095872
0.028368
-3.095708
0.027599
-3.093180
0.027490
-3.087926
0.026668
-3.080196
0.027213
-3.069543
0.026702
-3.055683
0.026456
-3.039916
0.027082
-3.021745
0.027202
-3.000846
0.028291
-2.977819
0.029169
-2.951648
0.030169
-2.922625
0.031589
-2.892619
0.033815
-2.859221
0.035224
-2.824186
0.037727
-2.787396
0.040465
-2.748129
0.042677
-2.706554
0.045473
-2.662208
0.048367
-2.616800
0.052424
-2.569691
0.055317
-2.521399
0.059081
-2.470113
0.063016
-2.418142
0.067217
-2.364178
0.071809
-2.309394
0.075511
-2.253369
0.080930
-2.196268
0.086343
-2.138127
0.091097
-2.079600
0.096820
-2.018838
0.102455
-1.956886
0.107919
-1.896174
0.113636
-1.834830
0.120112
-1.772396
0.126333
-1.709845
0.133105
-1.646757
0.139284
-1.583853
0.146157
-1.520447
0.153228
-1.458169
0.159914
-1.395040
0.167201
-1.332570
0.174153
-1.270300
0.181804
-1.208372
0.188659
-1.147617
0.195933
-1.087651
0.202242
-1.027809
0.209668
-0.968770
0.216469
-0.910851
0.222659
-0.854273
0.229890
-0.798174
0.236967
-0.744016
0.242732
-0.689555
0.249246
-0.636767
0.255070
-0.585893
0.260465
-0.536302
0.265203
-0.487914
0.270872
-0.440126
0.274821
-0.394724
0.279271
-0.349783
0.281995
-0.306860
0.285201
-0.265930
0.288433
-0.226102
0.290440
-0.187831
0.291110
-0.150957
0.291611
-0.116075
0.290785
-0.082156
0.290784
-0.050777
0.289398
-0.020383
0.285956
0.009126
0.281581
0.035661
0.277166
0.061500
0.271736
0.085487
0.264116
0.108175
0.256560
0.129025
0.247564
0.149279
0.237670
0.166626
0.226026
0.212875
0.183773
0.199233
-0.002387
0.022079
-0.019966
0.040601
-0.042165
0.058775
-0.065958
0.074955
-0.091773
0.091220
-0.118162
0.105230
-0.145754
-0.167643
0.119445
-0.197886
-0.183107
0.131522
-0.229353
-0.215114
0.141401
-0.247031
-0.263545
0.151238
-0.281395
-0.297977
0.158586
-0.333980
-0.316152
0.168495
-0.352146
-0.371076
0.177013
-0.413179
-0.390017
0.183229
-0.441369
0.188639
-0.480998
0.193526
-0.522809
0.198361
-0.566114
0.200507
-0.610857
0.202571
-0.656326
0.204843
-0.701508
0.206813
-0.742184
0.207083
-0.801865
0.207128
-0.852084
0.206816
0.206492
-0.902743
0.204483
0.205406
-0.955649
0.203115
0.203468
-1.009275
0.200568
0.202276
0.200906
0.199351
-1.075867
0.197563
0.196388
-1.125893
0.195276
0.194006
-1.183223
0.191171
0.189729
-1.240450
0.187296
-1.317131
0.183279
-1.416147
0.179550
-1.463011
0.175647
-1.510750
0.171132
-1.581612
0.166631
-1.641379
0.163386
-1.699782
0.157362
-1.771102
0.152644
-1.821950
0.147782
-1.878872
0.141628
-1.938372
0.137852
-1.996860
0.133271
-2.055148
-2.110173
-2.153787
0.124326
-2.211290
-2.183239
0.118267
-2.269887
-2.240431
0.113547
-2.295461
-2.322386
0.108057
-2.349259
-2.378026
0.104156
-2.401819
-2.430036
0.098017
-2.453978
-2.482411
0.093654
-2.504092
-2.536019
0.089872
-2.570065
0.084824
-2.615229
0.081132
-2.661607
0.075800
-2.705707
0.071958
-2.747970
0.068104
-2.790012
0.063882
-2.827149
0.060698
-2.858260
0.057072
-2.902313
0.053731
-2.934603
0.051193
0.047734
-2.966536
0.046494
0.044830
-2.994929
0.044253
0.042616
-3.021876
0.040730
0.039704
-3.051638
0.038759
0.037456
-3.068823
0.035207
0.036593
-3.087594
0.033409
0.032325
-3.104382
0.030440
0.031484
-3.115936
0.029503
-3.130894
0.028397
-3.140438
0.026734
-3.147576
0.025229
-3.151875
0.023253
-3.153442
0.023597
-3.152249
0.022436
-3.147586
0.021885
-3.141623
0.021383
-3.133220
0.021228
-3.120851
0.021827
-3.107433
0.021586
-3.091647
0.021884
-3.072828
-3.060040
0.022765
-3.042246
-3.031483
0.023559
-3.016278
-3.005522
0.025415
-2.978684
-2.990232
0.026046
-2.962380
-2.947290
0.027132
-2.914202
-2.930213
0.030122
-2.894227
-2.877707
0.031197
-2.839504
-2.857455
0.034208
-2.809181
0.036058
-2.769620
0.038886
-2.725743
0.042469
-2.680122
0.044638
-2.633588
0.048099
-2.584697
0.051795
-2.536285
0.055059
-2.493053
0.059562
-2.429705
0.063857
-2.374231
0.068142
0.071095
-2.318701
0.074232
0.076769
-2.261143
0.079257
0.081808
-2.203288
0.084196
0.085996
-2.132148
0.089413
0.092194
-2.081188
0.094401
0.097543
-2.022102
0.099423
0.104195
-1.961070
0.106777
0.109313
-1.900726
0.114370
-1.850636
0.119894
-1.761278
0.126716
-1.710232
0.132898
-1.660035
0.140143
-1.583322
0.145857
-1.520779
0.151982
-1.457542
0.160833
-1.380212
0.167509
-1.329690
0.174636
-1.269227
0.183215
-1.207735
0.189199
-1.146742
0.194688
-1.086854
0.204599
-1.029775
0.209143
-0.988130
-0.953794
0.219018
-0.927004
-0.894235
0.224450
-0.867122
-0.839180
0.230534
-0.810865
-0.783549
0.235327
-0.755743
-0.730282
0.243283
-0.700666
-0.674359
0.249616
-0.648512
-0.624079
0.255548
-0.595158
0.261072
-0.556867
0.267358
-0.510591
0.272357
-0.462488
0.276145
-0.416247
0.279637
-0.370781
0.283024
-0.327868
0.286068
-0.287194
0.288592
-0.253317
0.290966
-0.206337
0.291378
-0.169002
0.291373
0.291673
-0.134105
0.292274
0.292096
-0.098744
0.290894
0.290236
-0.065896
0.289040
0.288801
-0.029654
0.284796
0.286870
-0.005025
0.282927
0.280762
0.022323
0.276585
0.278784
0.048102
0.272073
0.069605
0.267215
0.096497
0.260513
0.118534
0.251733
0.139239
0.242693
0.157318
0.231652
0.175386
0.219753
0.209349
0.191444
SCALARS strain_3 float
LOOKUP_TABLE default
0.111668
0.071397
-0.075861
0.291354
-0.270837
0.463781
-0.473272
0.628063
-0.682806
0.784624
-0.899941
0.933274
-1.123989
1.074085
-1.354605
1.207469
-1.592016
1.332882
-1.835801
1.450162
-2.086157
1.560099
-2.342473
1.662143
-2.604601
1.756415
-2.872159
1.843255
-3.145061
1.922837
-3.422956
1.994931
-3.705720
2.059250
-3.992810
2.117161
-4.284118
2.167920
-4.579017
2.211732
-4.877666
2.249022
-5.179172
2.279855
-5.483242
2.304086
-5.790007
2.322567
-6.098572
2.334875
-6.408676
2.341293
-6.719899
2.342441
-7.032172
2.338251
-7.344915
2.328758
-7.657331
2.314670
-7.969247
2.295618
-8.280652
2.272599
-8.590684
-8.898634
2.245009
-9.204789
2.213823
-9.508448
2.178771
-9.809053
2.140278
-10.106162
2.098679
-10.399544
2.053841
-10.688597
2.006327
-10.973129
1.956676
-11.252393
1.904535
-11.526464
1.850641
-11.794693
1.795383
-12.056211
1.738132
-12.311093
1.679718
-12.559187
-12.799173
1.620017
1.559866
-13.031920
1.499020
-13.256566
1.437851
-13.472479
1.376546
-13.679932
1.315287
-13.877866
1.254224
-14.066761
1.193692
-14.245747
1.133703
-14.415046
1.074440
-14.573964
1.016358
-14.722586
0.959097
-14.860659
0.903212
-14.987749
0.848624
-15.103888
0.795973
-15.209014
0.744775
-15.302777
0.695245
-15.385078
0.647591
-15.455941
0.601859
0.558116
-15.515078
0.516719
-15.562792
0.477520
-15.598742
0.440367
-15.623235
0.405540
-15.635346
0.373236
-15.636550
0.343223
-15.625725
0.315242
-15.603546
0.289863
-15.569339
0.267206
-15.524267
0.246333
-15.468056
0.228126
-15.400249
0.212500
-15.321678
0.198805
-15.232117
0.187392
-15.131969
0.178472
-15.021527
0.171289
-14.901028
0.166597
-14.770535
0.164266
-14.630063
0.163333
-14.480233
0.164604
-14.321495
0.168134
-14.153562
0.172945
-13.977181
0.179408
-13.792867
0.187814
-13.600674
0.197901
-13.400632
0.208938
-13.193516
0.221509
-12.979632
0.235715
-12.759133
0.250744
-12.532883
0.267093
-12.300649
0.284525
-12.063063
0.302703
-11.820632
0.321847
-11.573471
0.341393
-11.322338
0.362034
-11.067578
0.382885
-10.809284
0.404488
-10.547794
0.426528
-10.283797
0.448419
-10.017927
0.471190
-9.750187
0.493773
-9.480646
0.516311
-9.210567
0.539065
-8.939835
0.561799
-8.668452
0.584571
-8.397344
0.606980
-8.126605
0.628894
-7.856297
0.650719
-7.587430
0.672233
-7.319776
0.692970
-7.054391
0.713366
-6.790597
0.733352
-6.529053
0.752731
-6.270019
0.771639
-6.014230
0.789277
-5.761094
0.806445
-5.511786
0.822908
-5.265616
0.838360
-5.023775
0.853116
-4.785527
0.866725
-4.551833
0.879212
-4.322537
0.890857
-4.097739
0.901343
-3.877563
0.910525
-3.662492
0.918648
-3.452360
0.925422
-3.246788
0.930604
-3.047052
0.934814
-2.852285
0.937128
-2.663128
0.938135
-2.479113
0.937417
-2.300727
0.935530
-2.127769
0.931524
-1.960430
0.925550
-1.798309
0.918016
-1.642085
0.908181
-1.491168
0.896460
-1.345709
0.882403
-1.205721
0.866401
-1.071326
0.847838
-0.942290
0.826842
-0.818188
0.803135
-0.699785
0.777412
-0.586273
0.748467
-0.478251
0.716892
-0.374643
0.681801
-0.276521
0.643997
-0.183001
0.603132
-0.094038
0.558695
-0.010002
0.510925
0.069335
0.459633
0.145291
0.404346
0.216026
0.345555
0.282583
-0.118341
0.253179
-0.315171
0.426987
-0.519680
0.593453
-0.731560
0.751850
-0.950458
0.902078
-1.176579
1.044774
-1.409395
1.179160
-1.648873
1.305850
-1.894846
1.424554
-2.147141
1.535558
-2.404889
1.638931
-2.668950
1.734378
-2.937904
1.821984
-3.212482
1.902050
-3.491513
1.974727
-3.775251
2.040333
-4.063540
2.098494
-4.355609
2.149670
-4.651196
2.194060
-4.949652
2.231585
-5.251007
2.262539
-5.555191
2.287157
-5.861102
2.305675
-6.168444
2.318096
-6.477383
2.324663
-6.786652
2.326015
-7.096913
2.321905
-7.406922
2.312568
-7.716274
2.298375
-8.024670
2.279652
-8.331858
2.256336
-8.637364
2.229446
-8.940432
2.198151
-9.241276
2.163407
-9.538497
2.124818
-9.832226
2.083806
-10.121905
2.039531
-10.407450
1.992486
-10.688172
1.943606
-10.963646
1.892303
-11.233069
1.839131
-11.496686
1.784355
-11.753694
1.728164
-12.003590
1.671021
-12.246237
1.612832
-12.481352
1.553962
-12.708600
1.494706
-12.927186
1.435139
-13.136875
1.375395
-13.337438
1.315876
-13.529004
1.256978
-13.710483
1.198325
-13.882248
1.140655
-14.043965
1.083621
-14.195038
1.027942
-14.335139
0.973414
-14.464835
0.920259
-14.583155
0.868435
-14.690467
0.818262
-14.786223
0.770125
-14.870742
0.723765
-14.943285
0.679125
-15.004205
0.636646
-15.053455
0.596381
-15.090779
0.558274
-15.116053
0.522164
-15.129882
0.488361
-15.131785
0.457116
-15.121825
0.427900
-15.100003
0.401453
-15.067059
0.377184
-15.022156
0.355040
-14.965805
0.335224
-14.898039
0.317927
-14.819736
0.303138
-14.730324
0.290438
-14.629798
0.279954
-14.518868
0.271724
-14.397962
0.265402
-14.266839
0.261353
-14.125856
0.259463
-13.975453
0.259432
-13.816139
0.261237
-13.647766
0.264937
-13.470775
0.270333
-13.285719
0.277333
-13.092653
0.285851
-12.892157
0.295948
-12.684592
0.307417
-12.470204
0.320280
-12.249300
0.334148
-12.022651
0.349331
-11.790169
0.365472
-11.552579
0.382508
-11.310218
0.400567
-11.063463
0.419026
-10.812629
0.438218
-10.557984
0.458143
-10.300774
0.478586
-10.040483
0.499259
-9.777715
0.520479
-9.513134
0.541486
-9.247302
0.563148
-8.979860
0.584785
-8.711757
0.606047
-8.443202
0.627376
-8.174827
0.648764
-7.906583
0.669884
-7.639083
0.690796
-7.372610
0.711082
-7.107915
0.730976
-6.844183
0.750548
-6.582690
0.769555
-6.323949
0.788172
-6.067193
0.806033
-5.813643
0.822727
-5.563340
0.839276
-5.316043
0.854651
-5.072524
0.869188
-4.832862
0.882910
-4.597387
0.895451
-4.366011
0.907310
-4.139512
0.917714
-3.917422
0.927130
-3.700022
0.935224
-3.487431
0.942172
-3.280346
0.947783
-3.078348
0.951808
-2.881172
0.954574
-2.689698
0.955655
-2.503617
0.955205
-2.322701
0.952898
-2.147593
0.949290
-1.977890
0.943780
-1.813763
0.935904
-1.655192
0.926259
-1.502369
0.914646
-1.354769
0.900612
-1.213105
0.884467
-1.076684
0.865934
-0.945906
0.844980
-0.820131
0.821372
-0.699926
0.794853
-0.585033
0.766070
-0.475264
0.733822
-0.370462
0.698886
-0.270947
0.660854
-0.176043
0.619307
-0.086089
0.574484
-0.000986
0.526407
0.079858
0.474455
0.156206
0.418605
0.358905
0.227856
0.295762
-0.039927
0.182630
-0.200909
0.359598
-0.394924
0.528666
-0.600497
0.690344
-0.815231
0.843677
-1.035007
0.989518
-1.254117
-1.434624
1.140730
-1.674307
-1.555480
1.259238
-1.922041
-1.806028
1.379047
-2.052086
-2.180655
1.489453
-2.311496
-2.443466
1.578281
-2.704910
-2.567816
1.698897
-2.836886
-2.977272
1.789786
-3.272866
-3.107364
1.873426
-3.472881
1.949365
-3.742519
2.018195
-4.028140
2.091663
-4.318959
2.136169
-4.614525
2.181910
-4.910698
2.222524
-5.203021
2.256345
-5.455303
2.284240
-5.826001
2.305572
-6.132932
2.320904
2.328544
-6.442485
2.334148
2.331878
-6.753056
2.333552
2.334414
-7.064004
2.328547
2.331541
2.323348
2.317602
-7.443952
2.310479
2.302469
-7.728738
2.293382
2.281810
-8.043342
2.270944
2.256167
-8.361716
2.235598
-8.764851
2.205245
-9.282397
2.170985
-9.522547
2.132769
-9.761399
2.091312
-10.114391
2.048253
-10.403893
2.009632
-10.688637
1.950289
-11.020249
1.898758
-11.250657
1.845168
-11.511765
1.778027
-11.772916
1.733046
-12.029220
1.686957
-12.279063
-12.509417
-12.693701
1.582464
-12.923526
-12.810602
1.505157
-13.153332
-13.035264
1.442073
-13.252527
-13.358394
1.381960
-13.455679
-13.564588
1.328328
-13.649109
-13.751430
1.255565
-13.837745
-13.939523
1.196136
-14.014895
-14.130041
1.137189
-14.237364
1.079392
-14.382962
1.022012
-14.525442
0.955220
-14.658902
0.910344
-14.782578
0.858769
-14.893286
0.807235
-14.990698
0.757619
-15.066317
0.709144
-15.162779
0.663961
-15.228714
0.621455
0.587343
-15.283225
0.567748
0.547616
-15.325511
0.528273
0.506982
-15.356414
0.490128
0.472487
-15.381412
0.454728
0.437506
-15.381407
0.406811
0.423897
-15.376260
0.394582
0.378408
-15.363267
0.348571
0.366760
-15.340335
0.332714
-15.294757
0.311218
-15.243890
0.292042
-15.182074
0.273355
-15.109058
0.258707
-15.024774
0.246088
-14.930177
0.236502
-14.803477
0.225471
-14.703658
0.219035
-14.583375
0.214971
-14.445802
0.212518
-14.302228
0.212147
-14.150909
0.213766
-13.994342
-13.882742
0.216806
-13.763725
-13.680767
0.222217
-13.576267
-13.491815
0.228973
-13.304103
-13.388081
0.237171
-13.195497
-13.097111
0.244703
-12.892902
-12.993149
0.258745
-12.773335
-12.670218
0.271680
-12.439932
-12.552579
0.285661
-12.269548
0.300798
-12.045814
0.316666
-11.805111
0.338081
-11.563110
0.352959
-11.317630
0.371636
-11.066396
0.390772
-10.819026
0.410884
-10.605647
0.430977
-10.292510
0.452734
-10.029441
0.472837
0.486931
-9.764231
0.501805
0.511615
-9.497037
0.524629
0.534322
-9.228844
0.546305
0.555391
-8.903607
0.567584
0.578013
-8.680619
0.589336
0.599683
-8.418245
0.612347
0.622746
-8.151065
0.633811
0.643956
-7.889414
0.661021
-7.672715
0.681196
-7.292340
0.701874
-7.079057
0.722309
-6.869265
0.741947
-6.555615
0.760582
-6.296644
0.776179
-6.040344
0.797495
-5.731872
0.814807
-5.527212
0.831228
-5.288473
0.849605
-5.047325
0.861018
-4.808872
0.872365
-4.577499
0.889243
-4.357142
0.897029
-4.195029
-4.064657
0.911550
-3.962717
-3.840834
0.919048
-3.734314
-3.628449
0.926761
-3.522765
-3.420857
0.932254
-3.315491
-3.218491
0.939166
-3.107149
-3.010433
0.943274
-2.912932
-2.821415
0.945791
-2.714120
0.946937
-2.573491
0.946486
-2.398750
0.943632
-2.223476
0.940007
-2.052299
0.934372
-1.886995
0.927023
-1.728040
0.917251
-1.577491
0.905376
-1.452898
0.891414
-1.279271
0.876141
-1.141097
0.862530
0.852019
-1.008571
0.842045
0.830330
-0.881062
0.818405
0.805656
-0.759091
0.792850
0.779325
-0.618660
0.749370
0.764723
-0.526637
0.732968
0.716826
-0.423901
0.680517
0.698953
-0.324947
0.659187
-0.239219
0.629708
-0.134200
0.589083
-0.047411
0.542892
0.035081
0.493288
0.113103
0.440114
0.186661
0.384691
0.333912
0.255894
SCALARS stress_1 float
LOOKUP_TABLE default
-2063177.773091
-1342009.652498
1340544.052208
-5288978.966392
4831516.998159
-8351814.983491
8476320.026893
-11305979.315545
12250464.367559
-14078297.680358
16185135.244299
-16712799.548904
20263968.883757
-19192164.150330
24466972.001234
-21572731.711282
28802402.334720
-23810044.196396
33267139.843842
-25866235.096829
37875051.510918
-27786979.868376
42585130.560089
-29616844.002195
47474174.462328
-31253513.462921
52440804.688608
-32774387.479704
57513090.216237
-34153374.279189
62711086.274366
-35379341.337355
67984480.328960
-36542509.374510
73417261.871176
-37569683.881812
78903443.107474
-38461484.315057
84499766.279679
-39228239.167905
90172903.347416
-39868565.407497
95898254.290501
-40393235.260476
101701861.577401
-40852066.958497
107614376.941100
-41136091.730706
113563583.096898
-41466157.299917
119561120.775273
-41502806.401614
125598818.202871
-41501235.005441
131669861.354497
-41481966.093716
137879186.209966
-41324321.898090
144005517.746588
-41093457.894544
150143551.944176
-40708609.559058
156331530.777538
-40387553.878956
162472639.470813
168675286.754481
-39946503.080885
174836491.097011
-39403642.645831
180920811.984554
-38857810.064953
187098654.394420
-38138194.552222
193153841.812761
-37440491.356972
199186144.708044
-36662008.448846
205189774.319591
-35889895.812665
211084811.871543
-34992767.926914
216949903.091874
-34225221.532085
222739923.713568
-33243368.350990
228392251.711430
-32321840.126627
233986134.571612
-31311732.088144
239397955.266416
-30311080.225371
244783360.531329
250026369.091822
-29336890.523128
-28300251.968741
255172481.945392
-27221242.547031
260140666.558002
-26171274.247826
264985528.677815
-25082405.302779
269633249.282141
-24032147.454888
274191168.854628
-22982299.182637
278559267.878922
-21926871.982191
282760451.085502
-20889082.840876
286787416.469362
-19815327.254859
290576963.002803
-18823051.702622
294229331.436491
-17821298.436004
297680831.498401
-16883437.686659
300929770.427852
-15845384.200087
303944268.955324
-14934598.716782
306734900.828978
-14001821.226574
309365419.529958
-13104551.225627
311756419.546918
-12266139.706276
313939309.867340
-11461052.406509
-10668631.074331
315884327.488720
-9876142.712248
317682384.647875
-9199052.801245
319076789.828452
-8490574.102003
320325924.778612
-7848675.601848
321341056.737676
-7259243.799448
322137789.695628
-6685637.193475
322618264.649964
-6179255.526925
322931138.588166
-5699784.804806
323042552.507731
-5270576.019450
322836526.398643
-4899398.929035
322448050.009063
-4522008.279060
321748454.578312
-4243542.321366
320862445.607719
-4002760.798948
319753425.842942
-3787532.472488
318416208.281478
-3649858.843159
316870425.910807
-3495108.404624
314983382.237267
-3446496.169401
312982115.759684
-3378137.139993
310714917.717379
-3423396.570745
308271700.367353
-3468832.960325
305591869.457769
-3572971.069413
302676182.243124
-3674549.149848
299635652.965243
-3839371.211646
296399314.631793
-4012208.257309
292891769.237766
-4239475.299357
289215217.040166
-4580631.340294
285371995.540321
-4843944.390134
281403354.239563
-5184195.209557
277223100.150566
-5560090.050402
272923748.512650
-5999456.429022
268447689.844827
-6424182.108599
263855785.144594
-6844062.091639
259123124.663946
-7391015.390660
254269610.664892
-7884351.517006
249282644.155101
-8384732.989534
244117525.638405
-8987570.060082
238924539.124977
-9486149.998173
233612927.874322
-10109493.564485
228216217.140940
-10683211.031043
222733740.693177
-11324149.647184
217185800.279195
-11970070.440603
211638757.420509
-12518195.416309
205989032.620955
-13269715.843823
200225184.893207
-13842347.239497
194508850.741097
-14525549.119684
188747671.686144
-15184756.507073
182993159.985349
-15855987.653504
177164265.407059
-16508659.093011
171291463.961446
-17188917.828098
165446837.663689
-17874505.133294
159743361.526463
-18492718.273112
153932093.564945
-19148742.275250
148179189.789308
-19826305.653556
142374482.970403
-20475390.433225
136705165.365232
-21036672.881273
131011317.250984
-21679827.269726
125415685.887164
-22222116.374442
119879672.795290
-22812176.956102
114399071.990540
-23348702.546236
108924511.503271
-23903997.658693
103614088.084149
-24367561.316163
98356500.519203
-24833202.032494
93128175.317274
-25314813.339219
88054286.997376
-25720370.505858
83051871.332862
-26092928.308270
78148399.336408
-26473092.771648
73315067.532034
-26792279.916179
68586560.443760
-27041364.764553
64025187.839933
-27293075.336955
59505466.738235
-27500465.658580
55064041.169025
-27645595.502782
50816624.396815
-27731160.139083
46667808.698795
-27768960.852182
42559138.845815
-27774937.909098
38667100.606223
-27740456.841360
34904121.753375
-27657861.669156
31183009.320130
-27435040.432858
27609146.812828
-27281490.890641
24150170.775673
-26923808.836048
20879787.717507
-26557556.777919
17683712.918023
-26153687.250289
14616086.901240
-25628657.024010
11628761.440513
-25083421.121771
8810737.306694
-24421726.072600
6112264.535147
-23706550.405524
3529225.634714
-22845268.896402
1110153.149601
-21927950.562916
-1241230.411352
-20941331.445439
-3508627.012778
-19787041.805981
-5632152.881324
-18697042.929241
-7628279.246137
-17408146.588575
-9558955.578191
-16102671.559840
-11294175.595290
-14610546.613890
-12994728.788591
2068270.838066
-4599680.009891
5639329.441614
-7694563.443075
9327175.875951
-10689122.687538
13148793.370225
-13563431.461083
17140953.637232
-16216222.484018
21252031.906122
-18755503.736155
25526057.647867
-21125575.937804
29888232.086608
-23406820.559936
34460943.448990
-25492338.322860
39102898.697145
-27421084.208892
43884662.808383
-29246347.935836
48717768.503011
-30930372.979673
53744416.511508
-32520305.058207
58885777.796006
-33884670.156258
64103472.583149
-35142805.991631
69464949.603417
-36306597.284632
74897590.821444
-37336685.773253
80392535.476551
-38193265.668959
86006144.022027
-39017758.956572
91728620.190855
-39695074.356400
97506579.449001
-40251856.095087
103348746.023109
-40642266.897948
109190538.381648
-41031702.991629
115190562.746255
-41210887.852109
121226405.605587
-41347399.711042
127245750.672438
-41370157.797575
133325885.926624
-41340755.078849
139427764.098622
-41169256.542187
145539539.656902
-40957079.905394
151646831.090118
-40653224.911467
157776125.864236
-40259892.527545
163875575.445221
-39792017.982777
170023982.321728
-39244681.020160
176122884.468563
-38693743.604329
182130251.109867
-38114295.987124
188162705.731792
-37357008.626842
194190371.553471
-36612478.263976
200019155.063560
-35826698.379514
205892142.483697
-34944460.202605
211653527.788687
-34157962.211733
217296498.217850
-33198625.641054
222944821.237152
-32293866.984230
228401820.579575
-31284696.966577
233850990.723759
-30368857.572916
239055807.896350
-29394996.546244
244182404.087332
-28347440.365046
249218956.520847
-27323045.522983
254071612.436214
-26264221.501043
258757021.314578
-25241377.780215
263387264.380080
-24204426.854159
267749104.378377
-23174092.712706
271937170.286779
-22165889.587507
276003439.586431
-21138500.974730
279865323.516651
-20158775.111033
283530366.807920
-19181744.490080
286982517.943885
-18191758.346026
290299422.672706
-17291972.668701
293345732.213518
-16355589.709943
296224692.314482
-15404890.950740
298835727.212414
-14608969.131586
301263204.393465
-13786932.756158
303410577.091949
-12969077.053604
305414971.549688
-12189462.033941
307114372.003500
-11500977.928820
308619637.199041
-10772218.990080
309857438.622463
-10132498.718895
310880267.019423
-9541011.346917
311658758.873570
-8932444.637331
312205468.930560
-8412447.577460
312524871.185386
-7943933.668480
312538405.874864
-7492265.162228
312347738.500324
-7059177.801703
311932165.298583
-6699166.085573
311245962.773475
-6362722.774520
310398475.161815
-6108504.105203
309201553.209261
-5925914.838302
307810733.666478
-5690784.228160
306191400.276621
-5576323.770943
304382309.543522
-5490173.723497
302290544.212839
-5432445.335157
300073643.523892
-5447927.860265
297545975.240021
-5461581.062006
294808758.600547
-5553944.436546
291861771.106798
-5631545.747067
288759085.015779
-5785231.492241
285473898.075649
-5987065.435251
281984416.785235
-6209533.581105
278283296.157213
-6441617.184145
274412296.428398
-6733159.760722
270403519.367138
-7066486.565181
266172707.472259
-7389486.111370
261863554.491923
-7831427.653630
257336642.194476
-8227158.955147
252724822.569904
-8699137.774095
247954280.389059
-9143206.876163
243031315.148262
-9632694.775199
238004946.107019
-10173457.234388
232921499.784344
-10647912.505566
227690173.928398
-11217521.369602
222370628.549351
-11850206.078333
216968274.413048
-12402786.148112
211556751.025826
-13022340.848461
205967322.151024
-13621986.940058
200357016.292478
-14175858.941761
194725679.218533
-14804879.876260
189007018.939362
-15479598.997896
183358130.961301
-16112511.082529
177610301.803364
-16830838.649014
171868737.984563
-17420210.458032
166091879.011234
-18049121.285441
160276454.404895
-18696847.141257
154614776.422548
-19346983.798834
148800559.079372
-19953764.779532
143119255.650051
-20594570.350368
137453017.640923
-21167137.045378
131751447.817832
-21776069.625242
126184331.702294
-22366742.115153
120625630.065160
-22903940.293474
115189765.425442
-23502397.671549
109671805.042648
-23979511.030244
104285590.458478
-24497696.883410
99032479.421095
-24981226.006903
93796673.965863
-25445104.425918
88725942.349785
-25855073.651800
83621029.343712
-26280390.218584
78700917.980505
-26576806.660304
73861984.517167
-26944560.488306
69091899.235894
-27205545.234120
64446293.149360
-27441816.167269
59931669.290428
-27620629.307937
55472676.429947
-27822460.943329
51172584.336266
-27948028.584790
46938077.533405
-28009734.010682
42902255.794718
-28027614.752537
38924588.394891
-27968882.583709
35050111.107278
-27815242.038232
31386747.211571
-27725481.383126
27793586.722951
-27468648.165099
24313507.429949
-27188259.144831
20925963.594576
-26832516.357688
17725566.496525
-26397971.073190
14655954.417992
-25836475.064693
11613081.374155
-25312873.370065
8804777.647210
-24668069.258827
6058367.761178
-23956738.010672
3436785.998255
-23118554.648290
937429.376122
-22234396.209549
-1414210.825526
-21206962.467804
-3684692.077664
-20128460.198914
-5769675.100599
-18924139.931907
-7813519.874143
-17673786.437633
-9778447.118606
-16217748.003296
-14792481.399748
-11500658.551791
-13212600.909184
638478.003379
-3322827.289386
3525634.572655
-6472751.350712
7088853.840495
-9533259.983997
10738846.394561
-12367757.909547
14678073.443274
-15145626.104673
18647202.544530
-17670388.045354
22710084.483991
25990697.149272
-20414757.673717
30335127.306137
28154777.760787
-22554479.050324
34916723.453553
32781446.378972
-24635373.613817
37262041.962607
39686198.334868
-26612799.905732
42101372.589445
44530791.817477
-28148755.572953
49404818.301813
46823835.688052
-30267145.279028
51820855.973778
54411016.661870
-31874625.683419
59952349.914686
56872727.234605
-33353419.621176
63724774.498271
-34670244.563272
68826211.074778
-35878013.497032
74136233.971134
-37136999.138127
79641686.631150
-37875921.200424
85273610.871111
-38732000.430597
90884631.583793
-39429967.756882
96457358.447329
-40040005.080932
101295075.612923
-40577863.036209
108438182.621363
-40954835.410465
114375950.311726
-41218239.850462
-41337923.591636
120373374.210333
-41440606.859012
-41386015.651950
126427406.331638
-41499909.079320
-41461125.401387
132480612.917466
-41369041.894021
-41455259.552309
-41267189.915287
-41223277.381277
139959215.115516
-41096477.677606
-40981354.155392
145619478.633599
-40811661.447866
-40602768.657780
151786103.929712
-40418080.071960
-40156006.329754
158168119.415220
-39809630.931747
166245491.095747
-39305867.023694
176691117.298315
-38778943.018615
181601036.373202
-38098711.047957
186437697.718980
-37392092.718719
193679293.013225
-36671206.610810
199627177.845664
-36065716.287476
205564908.623516
-35015474.071987
212434581.971081
-34117898.634809
217313102.115158
-33245675.393683
222800616.663560
-32057673.495593
228408786.225524
-31343362.179677
233879100.085982
-30514336.315641
239249869.746792
244264157.130181
248276536.188140
-28733394.606490
253381491.837692
250856944.576614
-27429097.831495
258465966.210122
255835757.305277
-26285867.191620
260695995.865643
263052363.120900
-25290313.702444
265326118.832245
267743788.299477
-24324815.151370
269760057.283618
272063725.191018
-23089470.060760
274096986.257466
276430104.910367
-22065847.530194
278188979.454871
280879761.129880
-21033326.287909
283535807.736274
-19947940.071893
287025653.448005
-19039353.118806
290562163.220400
-17853680.712458
293927862.187698
-17036015.949658
297058352.123625
-16116301.434280
300002477.818554
-15217351.355249
302659285.511077
-14303567.148566
304785017.634729
-13402375.595394
307557945.724918
-12622806.123595
309623662.622840
-11846695.465045
-11242403.080606
311501079.799030
-10881742.869788
-10542777.579966
313083610.230799
-10184381.554785
-9798630.857871
314478551.419476
-9468097.714687
-9105197.340403
315880184.050333
-8823314.322291
-8468664.100477
316515601.559854
-7936494.096663
-8276666.740297
317121914.740672
-7702612.596182
-7412289.782352
317560854.472448
-6864139.056199
-7223703.204841
317692305.899939
-6568105.824745
317671827.380846
-6179927.818817
317388187.113361
-5832253.406012
316848789.542695
-5477701.748526
316043727.152494
-5182255.067944
315034774.955434
-5039141.641418
313800205.188332
-4844478.005707
311973614.205283
-4595026.556542
310517856.592018
-4537993.517116
308707989.640621
-4436929.714176
306471428.163177
-4458632.104376
304128925.651171
-4441485.675043
301614072.537141
-4532613.942528
298939395.748118
297065399.792662
-4593725.065153
294894156.779982
293405398.484930
-4762365.022709
291581038.668489
290072967.215818
-4925254.119152
286663687.906958
288174234.651485
-5080841.179591
284660262.071248
282841825.020858
-5299501.614519
279108316.906332
280906076.744314
-5674441.981157
276814800.674195
274890942.175544
-5946572.792480
270533807.872653
272609794.855405
-6312714.360712
267248084.828243
-6759777.184522
262874905.302912
-7155244.286600
258227959.950365
-7654505.667227
253497136.340210
-8102600.072759
248639748.834095
-8484713.387434
243614611.129601
-9011301.687811
238653693.387976
-9512750.125152
234321662.150776
-10085503.078868
227994246.557124
-10623221.284528
222578609.510211
-11198881.864540
-11606739.342746
217081211.726227
-12011794.106531
-12299714.779130
211537604.968513
-12685950.741808
-12945258.810031
205992779.499078
-13279288.483456
-13589828.155248
199099417.900733
-13911138.719312
-14193367.920121
194453015.984832
-14511181.721513
-14870183.093434
188793492.346564
-15163324.766831
-15516259.235693
183110774.441011
-15835315.717104
-16166465.519717
177523273.359156
-16686256.089700
172877666.566949
-17307191.144735
164648621.753959
-17947936.114509
159995267.918873
-18612044.698205
155399278.301940
-19192866.656565
148483576.832001
-19839664.561141
142755096.073127
-20391992.900908
137035071.510305
-21113823.185198
130194980.323011
-21755292.407346
125584597.706061
-22295983.574907
120227680.987568
-22980183.679440
114749072.570992
-23420973.086456
109330242.970684
-23849375.859997
104004765.507512
-24513275.228997
99039264.515653
-24875048.601093
95271690.835419
92219856.607176
-25469264.078667
89869906.277476
87062211.385944
-25814559.694567
84637410.408027
82086402.039755
-26160186.368622
79625731.959475
77278151.939277
-26457647.258764
74810106.511882
72464114.328567
-26879575.479148
69819369.418077
67590129.646819
-27155712.893320
65336885.289056
63166544.497277
-27369584.772015
60587279.948758
-27542272.873408
57247875.903434
-27717389.484704
53106234.594873
-27836374.174604
48927496.620271
-27828865.009011
44736629.914642
-27920858.105103
40727821.548184
-27838053.094421
36941945.561837
-27769371.681487
33259700.920938
-27563835.816167
30234740.576445
-27364030.547597
25921162.935350
-27053315.996582
22583474.001590
-26835889.484998
-26551674.331495
19299545.059494
-26387474.636331
-26178987.488299
16154191.121737
-25916329.523400
-25568178.898178
13116182.717346
-25342564.477921
-25005705.705134
9630339.620731
-24333918.534518
-24720103.792744
7326999.616075
-24014197.190181
-23606659.656252
4748776.090004
-22737593.204891
-23172276.878164
2308003.688723
-22211705.195467
181813.068195
-21525169.029204
-2490622.516328
-20561194.278872
-4666712.457009
-19444355.234730
-6690788.964122
-18147661.323098
-8696955.589950
-16851684.216373
-10566595.210970
-15505665.144508
-14256172.811892
-12232743.272296
SCALARS stress_2 float
LOOKUP_TABLE default
825987.272557
588367.408777
-333592.087940
1946462.105972
-1652021.237049
2961258.508773
-2968461.094179
3933861.700252
-4363830.686447
4857063.969056
-5901009.125440
5676525.015300
-7484727.480509
6396363.866100
-9167622.082537
7111775.590809
-10987606.739344
7796125.066600
-12778662.412577
8320897.512767
-14758383.540824
8812031.025777
-16774097.235671
9322258.824924
-18853383.197235
9712305.787382
-21070413.125632
10043634.940267
-23289381.543922
10337713.352931
-25702823.479220
10606368.641018
-28196374.716113
10735957.050937
-30632304.473897
10988619.801983
-33323342.302745
11041270.990622
-36041300.875657
11170959.793913
-38781185.154281
11182663.046794
-41674769.619438
11230455.818616
-44577542.013480
11193077.094260
-47651456.228703
11183189.900840
-50711836.595987
11082090.442532
-53851713.049861
10977296.569393
-57075656.659679
10854581.074125
-60429817.990733
10710354.395315
-63803027.523848
10586171.517844
-67203351.782081
10389924.057357
-70616133.246257
10186175.629497
-74153058.481669
9929984.588380
-77721870.599904
-81323951.535494
9715010.003358
-84989893.030790
9545519.405604
-88679380.389558
9309382.014412
-92363104.134855
9049171.253248
-96118765.570448
8754223.668406
-99816188.438689
8502984.052587
-103670261.454814
8215122.802144
-107403639.730410
7952191.490484
-111211437.242244
7709667.883195
-115007031.882610
7424144.184449
-118714206.216801
7103446.117598
-122485925.548584
6859212.709758
-126261784.485489
6560546.272807
-129979028.877574
-133643016.743841
6323213.203098
5981439.854745
-137285944.126525
5799472.624099
-140869990.810215
5514829.823041
-144442112.290853
5290922.436450
-147864711.091499
4978904.187676
-151354436.558153
4759110.650129
-154750082.036817
4462186.958630
-157958821.462020
4293559.467295
-161191222.918234
4032673.310945
-164347201.012990
3846552.062990
-167369579.199994
3622704.227486
-170302175.456013
3401660.789314
-173177606.496282
3173899.429588
-175886662.255332
2951793.913895
-178473994.229106
2792350.554114
-181007967.805841
2663430.485067
-183371016.247065
2463379.976397
-185547735.763959
2299232.835928
2108278.702537
-187734162.398757
2030865.533990
-189697380.908933
1888988.861458
-191535512.640488
1754479.969707
-193216409.089363
1615165.212850
-194716622.970797
1522933.683474
-196077642.453731
1381706.474165
-197405135.580403
1279693.308274
-198475570.561990
1226742.101328
-199402551.440730
1133999.122972
-200134126.385566
1010771.700204
-200731586.892439
988849.514141
-201176349.676588
919901.068838
-201426253.645426
905448.087646
-201555842.337131
899561.855330
-201457535.793940
779599.422238
-201234970.227031
820049.965430
-200794904.459347
826141.273724
-200263053.440539
790253.304887
-199505633.885842
814482.520738
-198583428.071906
860094.013864
-197528031.494673
897543.069029
-196284966.473029
909570.190289
-194879741.679975
990623.208701
-193382778.845866
1066010.082030
-191668006.055175
1119134.599095
-189811053.584551
1206888.717662
-187761568.341408
1259368.268786
-185625357.233160
1382708.537232
-183307585.905691
1505378.027056
-180873639.074239
1641383.392257
-178331025.207629
1747927.875364
-175638212.348098
1882927.434139
-172844086.856768
2100441.857405
-169964494.925815
2258709.883631
-166839458.285596
2491094.124581
-163716155.801289
2657967.084311
-160440301.161015
2894138.828293
-157077344.599188
3109136.641288
-153608648.434691
3360518.546533
-150091473.682647
3607413.090318
-146453479.838996
3851089.665115
-142802587.330331
4126996.186452
-139061367.021830
4423510.719798
-135200008.559377
4765903.919152
-131441114.808151
5024310.438514
-127512190.194742
5409287.754824
-123530848.995801
5722840.372140
-119556400.226446
6085988.505873
-115551293.574799
6480872.113788
-111536466.644509
6886773.176883
-107484669.081459
7227437.845100
-103452678.489300
7691527.510909
-99423936.556150
8111228.870543
-95379476.254896
8461127.358709
-91349871.862185
8940485.083112
-87343235.173845
9329868.066988
-83358968.424288
9802429.198747
-79404128.040107
10230831.763154
-75491459.624949
10643364.017856
-71613174.386113
11106196.659089
-67775839.777306
11539583.163793
-63949682.375059
11984094.228203
-60212528.960081
12443954.109967
-56579056.001198
12880404.874556
-52973012.429058
13302247.410380
-49433707.889546
13771619.152147
-45968258.767017
14176969.619032
-42588389.445826
14558360.287977
-39283264.941094
14942480.678160
-36043162.814233
15279852.224286
-32878726.272542
15658063.857002
-29878565.465961
16013269.641779
-26969384.190317
16294369.247736
-24096375.418495
16607952.782580
-21331136.165615
16852772.503956
-18614823.362324
17080093.931043
-16066684.173684
17283904.102196
-13576069.422638
17427430.344412
-11212113.012719
17541495.107518
-8977377.724632
17560565.172221
-6762787.311969
17625116.753931
-4693730.159084
17617878.825534
-2721091.196626
17500064.863970
-846383.397479
17392063.169123
900686.115532
17244278.040876
2555442.561698
16990758.367643
4124528.037490
16678101.710835
5601795.762198
16248071.108808
7000546.612999
15797920.753739
8290535.659243
15305734.314746
9386793.928047
14703452.722478
10516581.119526
14056196.865348
11528305.522326
13315303.716239
12507468.355741
-595754.956248
1710108.196370
-1872913.379528
2823184.914470
-3278908.149709
3782155.413134
-4757954.293906
4744163.981007
-6321668.185236
5562286.864501
-7859480.850816
6326058.544436
-9608891.990761
7088235.267223
-11415180.716659
7754540.732978
-13296742.097862
8320899.188111
-15314945.053780
8873321.071208
-17373920.107472
9234614.670914
-19500311.505346
9714079.602875
-21749773.181934
10074620.155736
-24026490.056644
10363906.725848
-26497849.198829
10643339.601855
-29000880.543018
10833067.030168
-31589844.966386
11009402.818609
-34273807.184168
11163148.432881
-36984853.335070
11237526.269335
-39810697.311383
11329836.574380
-42695342.897698
11315626.417368
-45677921.163364
11282587.960237
-48755999.850735
11243484.272338
-51917390.113635
11176862.969316
-55068333.213591
11081271.036052
-58287773.523723
10971579.499660
-61656541.524851
10835037.195080
-65019859.151507
10629262.476427
-68475134.146042
10449959.632345
-71969567.769986
10297274.386186
-75487355.807927
10064759.572887
-79062102.044453
9889654.219566
-82636399.741094
9623624.049571
-86305295.463143
9356769.940078
-89966804.322190
9144024.395143
-93654851.621998
8882009.468998
-97368708.558628
8627130.927230
-101066584.393608
8374440.301012
-104790306.280763
8047672.617459
-108525096.785386
7791835.449980
-112267220.622714
7523103.741220
-115999337.577335
7263550.668236
-119700873.541543
7009220.392967
-123362565.945812
6694119.311762
-126998969.859492
6492473.147972
-130596789.451528
6180649.475008
-134201239.833506
5911281.469925
-137680073.720664
5656892.663898
-141161816.501238
5423286.588099
-144574691.286815
5142424.419586
-147913113.615575
4890256.470238
-151228926.010577
4636145.724936
-154395677.860056
4425777.318500
-157485921.879250
4289562.151340
-160491056.002688
4027877.400514
-163405777.576373
3787298.008664
-166226098.096245
3619198.287671
-168959480.758366
3409038.741592
-171560465.058677
3183614.901600
-174014247.754650
3040292.533281
-176353218.150053
2873896.644750
-178585041.044591
2714146.263122
-180652281.111266
2507521.219455
-182627687.107550
2357016.498627
-184439626.571622
2252028.604697
-186158376.807247
2118042.588013
-187676721.352604
1994053.433457
-189013677.553694
1892048.383556
-190240204.948695
1819309.792426
-191251735.622080
1727946.710415
-192178618.331320
1568955.641583
-192869635.983830
1580050.309278
-193437217.337082
1456255.806088
-193865885.256254
1460379.416775
-194067876.498818
1410864.041749
-194147430.602953
1350356.965772
-194003083.022367
1358426.650665
-193756421.337473
1327158.231252
-193283424.413450
1274740.127117
-192679627.788476
1296492.884553
-191878320.177789
1321968.965381
-190963778.680979
1291475.612129
-189837036.013284
1383305.959619
-188518395.082117
1365735.250379
-187076318.164127
1488796.576994
-185493248.755257
1547901.181993
-183804789.805158
1574400.980903
-181906378.959715
1706232.435546
-179832620.976398
1852442.199921
-177581896.870328
1923638.735849
-175299377.591156
2036168.739565
-172791378.634824
2140576.672890
-170209881.016451
2314897.778351
-167486548.904983
2495735.382949
-164614703.273301
2648544.686975
-161604799.113293
2844616.386664
-158576046.659372
3047809.724544
-155369554.380365
3233697.204671
-152098325.772215
3459327.630987
-148738634.523042
3765809.507549
-145225825.690202
3985901.488355
-141675042.096637
4266701.638875
-138067648.841939
4505449.243874
-134403016.791287
4800178.915114
-130622182.959800
5143848.129537
-126884717.035599
5427097.348963
-123006241.841627
5784167.461805
-119115609.846709
6122117.079827
-115147113.519674
6431369.487791
-111224599.683463
6875349.574111
-107272180.764668
7221337.169842
-103265647.039938
7650105.205634
-99261264.112921
7999652.251012
-95256843.821681
8400120.413684
-91267176.989160
8803057.909061
-87281880.672713
9274664.021907
-83369963.298931
9677396.186927
-79462281.840699
10138387.250297
-75539208.766844
10613667.950489
-71681042.311779
10974431.091442
-67865208.421272
11437887.369392
-64097190.591267
11905317.672752
-60367783.944589
12313931.436226
-56735210.757887
12757487.398285
-53073496.004046
13214157.774341
-49550014.848128
13609890.779805
-46147213.566781
14022573.153150
-42679787.871362
14419053.152021
-39362663.407753
14846588.841890
-36199375.341017
15232541.741933
-33011724.644039
15602671.479034
-29920972.331938
15880752.791663
-26970586.789069
16265598.525996
-24174428.946081
16499800.939682
-21328582.641036
16770788.963368
-18717244.804582
17002462.812467
-16083883.190311
17224100.594684
-13598427.401870
17345152.171317
-11197883.973557
17473800.827127
-8904243.097549
17517897.684943
-6837804.527437
17546716.810232
-4678607.974577
17570535.133645
-2696423.042616
17524399.735770
-851865.442909
17396176.682079
940620.440188
17220661.726161
2620578.895321
16976476.344958
4172644.361076
16703115.619060
5628581.083863
16305896.479114
7029792.763798
15816147.813535
8305131.647291
15311761.922205
9516484.215165
14734347.778007
10573758.713829
14092769.007827
13297402.584546
11586995.431928
12482944.219521
-94464.072258
1336603.088228
-1125519.882504
2394045.431396
-2458351.369827
3441916.839893
-3844600.726632
4329197.560127
-5315252.721290
5285650.115157
-6895496.244806
6055838.120629
-8492673.176346
-9775295.721634
6822585.325545
-11628904.939787
-10683613.463342
7464450.225435
-13486321.741073
-12596185.003182
8021598.278183
-14527146.655703
-15529347.147157
8572126.235097
-16575726.172781
-17598408.819450
8976066.880829
-19754296.195015
-18575368.440345
9537534.184039
-20845983.741688
-21961196.943963
9883464.974433
-24516373.189661
-23100723.923403
10183864.478313
-26239271.010853
10491912.395795
-28612957.863239
10711467.080995
-31129904.850352
10980135.257990
-33755449.140666
11067041.088374
-36496628.430274
11156056.843747
-39280832.767063
11191799.475989
-42100985.028783
11266829.790924
-44522954.796943
11304837.043278
-48192741.636991
11244898.482027
-51287610.049687
11168676.436037
11103965.569561
-54523728.943809
11042824.285119
11071352.231214
-57732290.651755
10933398.110624
10949906.444340
-61054259.846524
10728569.992251
10790507.692874
10616643.037265
10553683.177172
-65117275.134546
10457857.064011
10390539.721486
-68308636.705101
10308191.492399
10182712.977731
-71833471.650395
10110992.921687
9919050.287839
-75479570.561791
9813694.816076
-80169257.035727
9532623.407202
-86355765.982524
9315110.829041
-89361308.413636
9061121.741840
-92245562.039605
8857715.710057
-96743923.694573
8551260.148796
-100489274.163390
8392127.108820
-104272001.807208
8025480.220169
-108694112.642352
7795787.202021
-111857273.003008
7416592.531003
-115534258.211977
7088607.702161
-119217480.684628
6923925.295480
-122910336.146350
6735218.069186
-126608773.089816
-130085995.753360
-132856203.782670
6201833.903475
-136598360.352702
-134839544.352417
5896560.057240
-140230296.591890
-138363264.221574
5625466.112367
-141941867.936223
-143705781.396212
5368391.021448
-145316775.267746
-147222809.593560
5155093.773710
-148733177.864078
-150490451.541398
4843462.309263
-152074764.459264
-153871155.817698
4572058.165834
-155332833.352798
-157317206.047501
4309677.249684
-159505232.618117
4114713.368635
-162409331.840732
3916713.423097
-165327169.953356
3628038.784257
-168230091.644337
3448040.850272
-171008689.572519
3304869.944319
-173633444.972776
3079404.827305
-176127423.044353
2960876.479336
-178163343.896557
2706299.233343
-180970140.801417
2561134.523141
-183090587.373908
2425107.301180
2299908.701484
-185146375.587362
2215466.138258
2196858.608385
-187031651.964840
2079462.952245
2076729.107060
-188804607.413753
1996784.567567
1918588.516986
-190824605.461913
1833593.837565
1743397.265795
-191902412.063043
1687624.472048
1779532.790639
-193153677.912521
1595877.008585
1561259.576099
-194270988.683382
1486274.394112
1554843.021274
-195139339.553190
1396829.634607
-196106274.203612
1365705.407168
-196796604.796861
1303561.521634
-197282039.475208
1241011.462278
-197612059.584654
1157705.399683
-197822902.771082
1137646.759401
-197767925.791965
1064387.113787
-197496547.880096
1010045.230102
-197214377.011957
1065350.399381
-196804447.946520
1072107.212953
-196057129.385725
1047751.103507
-195211189.417301
1085580.425160
-194259369.246588
1087473.831910
-193173832.065885
-192384370.631914
1163901.223658
-191261179.696945
-190634994.397682
1199739.767049
-189684956.220270
-188949889.609999
1235216.881775
-187336725.212219
-188050611.577102
1331236.291109
-186288349.014222
-185392405.275815
1389481.047976
-183368751.583549
-184314748.469128
1504975.042052
-182113067.790257
-181046538.258554
1581875.593138
-178666304.745390
-179844440.215323
1690839.215661
-176730112.450475
1847915.002206
-174301933.815809
1973356.429716
-171522495.727574
2193081.367908
-168704098.119572
2295950.672652
-165742082.094424
2430308.760240
-162656580.592669
2684861.158582
-159553305.221974
2904248.563648
-156884023.155958
3103055.052591
-152854489.794798
3275801.164157
-149371209.740337
3544551.912762
3726598.320867
-145832669.621385
3821245.603541
4009023.122670
-142266314.537535
4066953.526814
4272762.498211
-138552822.680965
4441702.948503
4540853.293778
-134022344.262750
4732961.317646
4864995.053236
-130884992.804399
5032369.479438
5183431.827514
-127128209.259926
5326805.969185
5548963.583948
-123279432.753376
5669309.906891
5839923.056331
-119434375.973214
6076750.721356
-116222494.328240
6463000.306995
-110580130.440887
6847014.687554
-107343636.341141
7241800.661795
-104159314.221399
7631083.773290
-99299648.902704
8028324.988897
-95280251.573722
8351785.660236
-91305912.591871
8860753.435506
-86474554.484104
9299977.791689
-83173340.537484
9729219.322872
-79360702.483857
10293638.394726
-75481531.120397
10597426.207292
-71645480.053980
10965253.610823
-67835785.005661
11580100.024552
-64284928.466293
11856389.321999
-61552577.819111
-59396655.700318
12470880.998090
-57670626.462209
-55686422.925307
12845121.271475
-53888919.906257
-52136017.287529
13270583.131970
-50367952.070486
-48636593.350300
13631336.346846
-46930231.806977
-45287493.859186
14119171.474823
-43383324.015826
-41772176.225206
14539922.280054
-40127585.683346
-38543596.229542
14909216.572108
-36792559.692413
15262473.677986
-34382606.948241
15628013.224569
-31396116.378910
16002714.425241
-28409384.550558
16290760.657082
-25531597.558625
16559885.357008
-22746653.818764
16809928.276960
-19994219.783516
17070282.030494
-17431289.171430
17250731.448261
-15317335.629692
17379506.298418
-12370907.452696
17534473.440556
-10023992.767496
17546056.365319
17592400.424421
-7820520.850014
17637019.214599
17559145.729593
-5712761.346134
17625785.369256
17572919.241024
-3714094.555740
17565260.229877
17472417.664538
-1388409.914995
17371523.986190
17469267.493611
92699.369967
17271364.453993
17145369.522180
1782058.269525
16898644.919723
16985337.512322
3350344.897604
16720181.456027
4712411.901961
16436870.515555
6346801.507670
16072407.115834
7675581.513142
15591970.804960
8902349.572636
15021761.059074
9987826.877166
14376076.538320
11078674.196902
13709233.198924
13036268.289086
12008116.540071
SCALARS stress_3 float
LOOKUP_TABLE default
6897350.210432
4413875.730715
-4640408.074707
17990499.097220
-16688289.049677
28620392.594603
-29198525.611326
38751659.904372
-42133112.719282
48422049.277634
-55528325.512554
57596124.409448
-69354371.040462
66305512.259441
-83592697.643803
74509155.876934
-98258079.080417
82227876.069082
-113314032.336843
89480574.037675
-128766615.816658
96250651.791660
-144588104.658872
102534994.532827
-160781974.558544
108346231.068333
-177306133.210733
113710356.357805
-194180503.198399
118595529.450563
-211334823.481169
123050753.862284
-228796161.933484
127028765.754385
-246537339.757134
130598130.328656
-264536178.494705
133718697.594043
-282771694.881629
136412420.662645
-301198701.904445
138706756.251928
-319840174.056421
140595975.411213
-338666327.122308
142099909.010435
-357615687.039324
143225096.009223
-376700934.148270
143980060.479304
-395875974.476055
144380620.268206
-415126887.071999
144452164.003707
-434418830.608751
144167470.089384
-453749691.579582
143606785.395176
-473088704.567451
142723369.436759
-492404060.065627
141545745.729811
-511656308.746762
140112188.498529
-530840765.749865
-549908777.101846
138418504.792232
-568851038.587454
136488057.947216
-587653211.587861
134322341.165270
-606263026.686026
131948267.719911
-624672289.263120
129370906.077497
-642837903.103893
126633564.865805
-660754777.033465
123687498.398721
-678360370.190846
120644154.102234
-695669024.692638
117408717.644490
-712644354.476060
114088529.097217
-729259198.213763
110672210.038873
-745482833.286917
107135579.429084
-761294774.457865
103528667.402358
-776681655.574135
-791575918.842019
99877992.272584
96172164.263957
-806024688.351209
92423365.690367
-819931127.976143
88657050.686320
-833349581.340154
84857722.121753
-846220099.026202
81084657.575124
-858530410.505149
77317720.472420
-870249301.247855
73579867.836048
-881389045.281232
69879677.890206
-891905650.784660
66236523.657302
-901782216.520480
62652796.563323
-911024426.022336
59129448.984937
-919635869.406826
55682727.792080
-927550015.499074
52315570.473521
-934795522.325989
49058602.697406
-941345325.510904
45912190.598243
-947195366.614370
42846555.198440
-952354326.927867
39940378.542812
-956802338.899850
37105522.389198
34413512.136675
-960514334.620007
31873031.695552
-963514939.003152
29444468.402125
-965798537.520146
27153905.431272
-967347281.794321
25012993.007191
-968178608.650797
22998076.062599
-968282358.448339
21150011.530215
-967682103.276635
19445132.988494
-966344663.584140
17888520.258055
-964295659.460544
16466695.383716
-961544899.264611
15208321.630045
-958104742.619671
14069744.485808
-953971122.350846
13095948.327675
-949137485.525419
12257122.734101
-943655635.856412
11566038.879967
-937498457.433516
11007213.608298
-930704450.705185
10575976.031194
-923265998.559319
10310625.700201
-915213944.152893
10146630.525628
-906572892.311026
10091578.794453
-897330157.455263
10175063.439393
-887533939.208934
10371967.635326
-877177204.083274
10677099.758922
-866284536.813712
11087307.451417
-854885799.355433
11602058.623121
-843003559.887818
12191556.825579
-830677868.832409
12902373.969103
-817845341.256490
13686813.694928
-804621792.227343
14547407.177934
-790996595.520770
15482546.794789
-776990771.961893
16481463.074631
-762630110.214417
17556907.102649
-747928454.368030
18666874.789152
-732920263.023658
19847617.685685
-717605610.423461
21075094.500771
-702064534.522624
22339027.673856
-686280222.298739
23636273.581608
-670272275.617298
24973502.197117
-654091988.810155
26325596.695262
-637759976.388541
27678214.959441
-621268695.482520
29079433.456013
-604674537.715424
30480105.422637
-588001735.661266
31857150.679931
-571246276.297638
33288919.200984
-554447197.400342
34688353.514936
-537647589.946971
36094860.150925
-520835846.511538
37467012.525990
-504047409.515585
38831363.016801
-487306992.089175
40174155.748917
-470623444.097802
41490762.632647
-454017351.227576
42812901.461699
-437539527.254302
44079186.388545
-421197245.864091
45285526.650842
-404954812.922435
46481588.867420
-388910137.469708
47651014.365628
-373035685.927452
48769773.208247
-357323958.223939
49826595.278675
-341853384.691023
50851765.437902
-326605701.902715
51817094.860808
-311565143.545129
52726767.762643
-296792848.990488
53560306.762236
-282285285.772434
54357693.276628
-268060084.617450
55083089.924647
-254100904.323747
55737608.921544
-240440189.555029
56322288.240409
-227083157.261977
56824404.742233
-214052973.220394
57260367.754364
-201312409.914602
57583650.783533
-188908719.828925
57851131.246781
-176806200.093424
58014746.650837
-165059720.304522
58092442.323052
-153642867.834441
58066395.214106
-142567472.835653
57939179.297089
-131832691.236431
57703746.231203
-121454000.077147
57345282.079227
-111392112.487863
56883331.056411
-101686549.419261
56283654.669487
-92318046.153874
55560719.931916
-83299465.579603
54719126.108266
-74625901.687502
53723707.655951
-66274869.275781
52597035.373181
-58261888.183023
51309481.385515
-50572770.893551
49864746.733326
-43226046.358045
48245468.833654
-36185479.616879
46468651.991440
-29479913.862893
44512900.511624
-23067407.894300
42373171.255199
-16974799.702152
40042893.818585
-11181652.084659
37499671.215244
-5671240.234666
34769689.687336
-464141.102852
31804940.894064
4494824.270410
28615761.786108
9145643.580178
25215541.224459
13552689.077562
21570604.249489
17691341.964350
-7282284.258430
15633805.478483
-19447952.982223
26368106.437771
-32065070.691770
36615188.456107
-45136080.346701
46373887.784601
-58642450.377504
55673740.584669
-72598911.743808
64460921.349580
-86971052.140671
72775206.240753
-101751626.707103
80577574.953246
-116950266.492422
87917531.648477
-132520740.393476
94737646.730023
-148475290.993226
101112020.448993
-164754878.453088
106988280.321064
-181376384.799974
112397518.597345
-198336074.930731
117343725.591724
-215592891.894678
121805769.555308
-233121733.718726
125848514.649515
-250921917.210033
129438094.632183
-268960191.193718
132598882.866520
-287237897.768421
135342549.666413
-305697658.871360
137645895.193280
-324334286.376977
139536982.496440
-343121059.334589
141062715.557927
-362026657.528946
142200469.427063
-381044880.188748
142950607.619522
-400118872.605475
143373921.005244
-419276183.209616
143441620.543856
-438442506.494441
143188330.952824
-457619876.486861
142606758.456347
-476769292.971623
141730555.305531
-495862061.240210
140559095.078836
-514854081.167061
139140314.493726
-533749892.626615
137461808.509831
-552532576.910353
135538822.705608
-571135548.690925
133376305.888213
-589547467.107341
131019754.434316
-607755529.540772
128461766.263172
-625677779.309607
125750887.042929
-643373585.705328
122858256.109884
-660759435.956634
119824204.423663
-677826600.736175
116665971.410255
-694524932.869074
113373671.849906
-710853852.229769
109993322.854714
-726790284.755482
106538036.406715
-742296400.096455
103001562.819799
-757345989.302006
99413995.672421
-771940156.730898
95797182.390569
-786015849.522140
92128532.086341
-799577192.500854
88471856.096033
-812605791.227592
84779349.755943
-825058560.841363
81112902.178167
-836949417.055189
77484143.497213
-848232746.452032
73877576.583019
-858902954.592442
70329982.457992
-868945222.301540
66812511.812688
-878360047.606239
63358893.759206
-887092151.977399
60011467.077793
-895155431.038351
56744997.902956
-902543704.107487
53551734.611362
-909209938.808139
50455040.539308
-915212040.055118
47471205.354942
-920491637.229595
44609813.811599
-925029855.336074
41878940.868908
-928843599.109983
39244202.168106
-931952885.466137
36768948.579131
-934317358.117556
34423924.478650
-935952374.445412
32196206.709691
-936854442.162728
30123034.142190
-937009754.740364
28191045.861336
-936446563.891343
26389876.091326
-935148013.795048
24756265.675186
-933137705.366288
23254302.989586
-930424445.672348
21904353.612981
-926963739.628040
20681738.478091
-922844758.210954
19619196.759792
-918032734.335904
18704775.148642
-912521615.715911
17926156.819519
-906362141.884618
17271986.059400
-899519608.644737
16765731.890693
-892072946.973860
16399090.510686
-884017640.585010
16144874.385736
-875309174.303309
16010159.802821
-866024013.438200
15989265.847130
-856183690.814804
16123581.541070
-845818005.500404
16351105.969829
-834872799.916544
16692216.066125
-823428017.686554
17105902.915146
-811511941.967408
17654078.337509
-799100634.534909
18263434.620194
-786271968.303869
18966722.292338
-773022496.404349
19771529.640919
-759357461.993324
20631779.284765
-745330184.694126
21563763.510856
-730940289.636817
22540297.404377
-716238033.180160
23605404.229900
-701253740.364526
24707814.982921
-685973218.436580
25869036.282269
-670435473.728174
27055227.213133
-654677558.903011
28274508.152180
-638733337.584424
29530499.781021
-622617291.637906
30800090.476322
-606344426.283210
32103742.767223
-589952180.408237
33431742.626813
-573467355.322431
34755901.229971
-556897714.003385
36078229.016145
-540282305.581161
37416691.402374
-523634587.921252
38738428.675636
-506999167.911559
40059901.696922
-490370602.215787
41361616.905679
-473780823.497639
42659929.476787
-457240646.645017
43916516.271236
-440810656.231934
45166112.930264
-424484310.679932
46370416.404551
-408271955.675124
47545241.043856
-392208607.235473
48680380.910957
-376290232.248881
49788704.131415
-360558459.935102
50841509.880110
-345030866.868147
51853159.484389
-329687090.088390
52819613.715553
-314569814.259534
53734239.282123
-299717533.713431
54585808.865707
-285089010.530826
55364597.085135
-270760092.335049
56106008.801397
-256690502.318944
56758869.341843
-242893666.904054
57341633.414992
-229411687.130749
57854881.146405
-216242706.281565
58292024.661642
-203374550.778042
58634654.669223
-190812992.369074
58904875.384398
-178596044.830462
59079660.780257
-166708539.444740
59166244.363530
-155172609.252281
59159093.703728
-143933607.383145
59026487.509371
-133065922.321658
58799714.551759
-122526643.018498
58460943.046142
-112354369.491631
57989277.943203
-102505166.691738
57404243.368500
-93031418.457401
56676689.384814
-83883566.474733
55839065.893508
-75076149.380526
54850896.069460
-66601561.416942
53720031.105513
-58490170.422563
52427028.974756
-50709348.146282
50960722.627870
-43238720.274211
49345839.168008
-36112730.555241
47562424.568258
-29304391.473695
45593742.667204
-22803090.778464
43424478.881885
-16634514.065972
41073728.315453
-10757861.174799
38501651.918590
-5173240.409887
35732390.552286
108436.390181
32761956.521483
5124479.718675
29542850.866552
9845033.737011
26105381.157005
22412288.433212
14306822.696299
18472416.444067
-2453675.871649
11280477.467778
-12390858.116564
22221808.902019
-24357776.220540
32647732.570189
-37065400.710204
42608776.633703
-50294311.871327
52080831.675523
-63865361.901766
61049413.211325
-77392840.343170
-88559294.099623
70402948.329343
-103323174.010105
-95992379.399067
77713315.944763
-118625225.848941
-111465292.225991
85084406.988636
-126654272.297138
-134599898.890283
91906885.010520
-142673800.907497
-150824446.584275
97380623.333006
-166974583.658403
-158521597.891946
104803608.054687
-175129371.736499
-183814607.690957
110403100.447125
-202059229.501370
-191828219.213071
115562092.176489
-214423134.962296
120247194.937840
-231087190.435925
124476714.955373
-248731364.941018
128996753.079725
-266696057.848497
131726894.760349
-284969658.038030
134579193.002669
-303288469.114116
137076780.107245
-321348888.296893
139154119.858413
-336915124.195419
140864543.000259
-359877208.167598
142184593.048296
-378842727.724517
143119479.419436
143596311.069579
-397977787.262699
143947347.973664
143809302.268443
-417179886.674408
143915748.839319
143947040.658078
-436417802.695073
143575071.965967
143776477.237813
143267717.099491
142901212.600326
-459909678.661559
142483208.441078
141961773.699611
-477527812.652937
141404506.885857
140696872.075150
-496970304.671282
140033915.682732
139105211.025307
-516675952.741427
137826021.980803
-541663191.376555
135956699.116509
-573698655.925268
133873568.324958
-588559979.742209
131477554.736286
-603332250.303363
128945616.484035
-625201819.443360
126311749.603078
-643111840.727533
123900605.675908
-660777613.060133
120228753.209080
-681304248.259333
117059833.827764
-695582210.421582
113753340.760498
-711748880.850470
109595820.904503
-727954909.717696
106841744.940325
-743841621.992183
104014838.734267
-759350308.741411
-773637090.790427
-785065702.726974
97552312.086261
-799320452.807277
-792309185.926849
92778186.012468
-813572009.078130
-806265821.444118
88881812.390988
-819734285.481319
-826304630.494884
85213232.920834
-832345828.476763
-839120337.095697
81886543.274868
-844374091.237541
-850718479.586792
77402080.173092
-856075109.998118
-862399907.836136
73742441.474044
-867084382.838967
-874238116.819719
70103452.425154
-880919568.497194
66533678.784261
-889979739.811854
63018095.241921
-898843201.187961
58892991.959833
-907167676.303109
56127522.382647
-914849167.883924
52927191.089708
-921768770.011089
49746799.528655
-927840345.393662
46705596.380113
-932578794.142776
43731377.016165
-938573155.598346
40930825.167271
-942743244.269503
38316101.765037
36212418.263643
-946151671.271795
35000243.884199
33756157.609043
-948855223.188183
32578077.254826
31246286.083573
-950791027.085949
30209464.329376
29131241.839013
-952419433.308507
28077740.945422
26975269.540633
-952459547.811019
25105862.390144
26135699.193519
-952200584.819949
24334564.813311
23338251.436331
-951438818.509831
21483983.209098
22610041.967538
-950070954.213084
20521970.971006
-947296663.624806
19189771.835008
-944211448.935180
17994263.623490
-940411704.379508
16868546.748325
-935950183.428650
15978507.701891
-930768643.858411
15169210.896387
-924949054.583602
14604804.416838
-917153444.100134
13928119.440110
-911019146.775660
13532312.033193
-903619177.912888
13267195.603432
-895125516.241573
13105868.554289
-886269228.578946
13087117.109962
-876947675.947320
13183275.799587
-867282532.285389
-860375618.623955
13400484.447247
-853027612.519450
-847883142.292939
13728723.025072
-841453543.382812
-836233853.461674
14121432.438776
-824634490.513971
-829831915.485118
14636936.595684
-817940533.631291
-811816994.848174
15095785.393599
-799219982.016598
-805399765.768757
15975687.260730
-791815931.447437
-785438016.466553
16748875.362965
-771192633.424969
-778142859.260623
17616523.446577
-760646523.636545
18571360.444285
-746820252.580585
19545847.773128
-731916774.007326
20870703.788361
-716937001.873537
21766125.568444
-701753664.591591
22917333.468287
-686185909.336469
24097039.969015
-670878862.207865
25355842.253764
-657647403.785051
26594081.147903
-638237403.067139
27937946.228856
-621947290.609479
29171939.631558
30043784.904402
-605514760.250372
30982717.560629
31575520.960862
-588976853.299262
32357198.154642
32982190.577608
-572352075.998310
33702981.528514
34294787.673894
-552186904.983859
35037495.772719
35677449.378326
-538381606.524668
36381828.956341
37025022.669729
-522108961.045696
37822035.286777
38447333.466417
-505525937.215934
39141473.922283
39749036.838557
-489324133.099943
40822029.261099
-475886270.623589
42067432.073119
-452306530.559485
43348566.059509
-439057553.106037
44613660.260528
-426039773.733835
45841027.500699
-406599528.585716
47006446.721936
-390531429.652982
47968831.824199
-374639101.034298
49272353.234915
-355519265.034263
50348340.902315
-342806684.710701
51370031.618142
-327982021.851712
52504282.441785
-313025770.166684
53221281.226424
-298238665.872180
53914100.100050
-283869860.752883
54997266.006513
-270205990.379906
55490801.506082
-260155873.307796
-252060291.813700
56376706.889738
-245723198.179361
-238164410.622477
56843600.379308
-231549223.138816
-224990078.634404
57309036.451153
-218407477.465212
-212100985.499015
57669857.688384
-205554767.217394
-199528322.982932
58133150.869855
-192636957.902007
-186630738.492652
58369154.849190
-180552326.704711
-174886135.259863
58555983.437481
-168220095.684251
58623995.899299
-159497382.166453
58610155.804154
-148654112.012125
58436680.370201
-137782849.623617
58245804.471675
-127164027.396642
57886118.275437
-116900375.394470
57429836.867323
-107036548.200158
56851191.314759
-97707814.334459
56124570.084129
-89958396.904943
55272333.713868
-79176086.780591
54310738.849172
-70620166.763058
53521643.379337
52857938.221994
-62375128.001707
52239142.215804
51519798.960741
-54467720.272343
50791817.698666
49987780.703274
-46888835.879905
49216624.911163
48404259.162883
-38186793.041576
46546691.664844
47478745.845160
-32479146.719137
45500498.974651
44508684.023154
-26102777.917006
42285764.686136
43430167.763780
-19965312.720827
40952318.865334
-14660769.213897
39157817.468398
-8142001.036543
36614902.991067
-2765611.500741
33776847.902761
2352255.092602
30702470.911628
7153876.035059
27425455.032232
11733411.272763
23976944.156840
20842016.602480
16044342.707004
