# vtk DataFile Version 2.0
Generated volume Mesh
ASCII
DATASET UNSTRUCTURED_GRID
POINTS 1240 float
-0.212153 -0.150304 0.000000
-0.206421 -0.141033 0.000000
-0.215099 -0.146056 0.000000
-0.209122 -0.154492 0.000000
-0.217961 -0.141751 0.000000
-0.206009 -0.158620 0.000000
-0.220736 -0.137389 0.000000
-0.202815 -0.162684 0.000000
-0.223424 -0.132973 0.000000
-0.226023 -0.128505 0.000000
-0.199540 -0.166684 0.000000
-0.228534 -0.123985 0.000000
-0.196187 -0.170619 0.000000
-0.230953 -0.119417 0.000000
-0.192756 -0.174486 0.000000
-0.233282 -0.114802 0.000000
-0.189249 -0.178283 0.000000
-0.235519 -0.110141 0.000000
-0.185666 -0.182011 0.000000
-0.237662 -0.105436 0.000000
-0.182011 -0.185666 0.000000
-0.239711 -0.100690 0.000000
-0.178283 -0.189249 0.000000
-0.241666 -0.095904 0.000000
-0.174486 -0.192756 0.000000
-0.243525 -0.091081 0.000000
-0.170619 -0.196187 0.000000
-0.245288 -0.086221 0.000000
-0.166684 -0.199540 0.000000
-0.246953 -0.081327 0.000000
-0.162684 -0.202815 0.000000
-0.248521 -0.076401 0.000000
-0.158620 -0.206009 0.000000
-0.249991 -0.071445 0.000000
-0.154492 -0.209122 0.000000
-0.251363 -0.066459 0.000000
-0.150304 -0.212153 0.000000
-0.252634 -0.061448 0.000000
-0.146056 -0.215099 0.000000
-0.253806 -0.056412 0.000000
-0.141751 -0.217961 0.000000
-0.137389 -0.220736 0.000000
-0.254878 -0.051354 0.000000
-0.132973 -0.223424 0.000000
-0.255849 -0.046275 0.000000
-0.128505 -0.226023 0.000000
-0.256718 -0.041179 0.000000
-0.123985 -0.228534 0.000000
-0.257486 -0.036067 0.000000
-0.119417 -0.230953 0.000000
-0.258152 -0.030940 0.000000
-0.114802 -0.233282 0.000000
-0.258717 -0.025802 0.000000
-0.110141 -0.235519 0.000000
-0.259178 -0.020654 0.000000
-0.105436 -0.237662 0.000000
-0.259538 -0.015498 0.000000
-0.100690 -0.239711 0.000000
-0.259794 -0.010336 0.000000
-0.095904 -0.241666 0.000000
-0.259949 -0.005169 0.000000
-0.091081 -0.243525 0.000000
-0.260000 0.000000 0.000000
-0.259949 0.005169 0.000000
-0.086221 -0.245288 0.000000
-0.259794 0.010336 0.000000
-0.081327 -0.246953 0.000000
-0.259538 0.015498 0.000000
-0.076401 -0.248521 0.000000
-0.259178 0.020654 0.000000
-0.071445 -0.249991 0.000000
-0.258717 0.025802 0.000000
-0.066459 -0.251363 0.000000
-0.258152 0.030940 0.000000
-0.061448 -0.252634 0.000000
-0.257486 0.036067 0.000000
-0.056412 -0.253806 0.000000
-0.256718 0.041179 0.000000
-0.051354 -0.254878 0.000000
-0.255849 0.046275 0.000000
-0.046275 -0.255849 0.000000
-0.254878 0.051354 0.000000
-0.041179 -0.256718 0.000000
-0.253806 0.056412 0.000000
-0.036067 -0.257486 0.000000
-0.252634 0.061448 0.000000
-0.030940 -0.258152 0.000000
-0.251363 0.066459 0.000000
-0.025802 -0.258717 0.000000
-0.249991 0.071445 0.000000
-0.020654 -0.259178 0.000000
-0.248521 0.076401 0.000000
-0.015498 -0.259538 0.000000
-0.010336 -0.259794 0.000000
-0.246953 0.081327 0.000000
-0.005169 -0.259949 0.000000
-0.245288 0.086221 0.000000
0.000000 -0.260000 0.000000
-0.243525 0.091081 0.000000
0.005169 -0.259949 0.000000
-0.241666 0.095904 0.000000
0.010336 -0.259794 0.000000
-0.239711 0.100690 0.000000
0.015498 -0.259538 0.000000
-0.237662 0.105436 0.000000
0.020654 -0.259178 0.000000
-0.235519 0.110141 0.000000
0.025802 -0.258717 0.000000
-0.233282 0.114802 0.000000
0.030940 -0.258152 0.000000
-0.230953 0.119417 0.000000
0.036067 -0.257486 0.000000
-0.228534 0.123985 0.000000
0.041179 -0.256718 0.000000
-0.226023 0.128505 0.000000
-0.223424 0.132973 0.000000
0.046275 -0.255849 0.000000
-0.220736 0.137389 0.000000
0.051354 -0.254878 0.000000
-0.217961 0.141751 0.000000
0.056412 -0.253806 0.000000
-0.215099 0.146056 0.000000
0.061448 -0.252634 0.000000
-0.212153 0.150304 0.000000
0.066459 -0.251363 0.000000
-0.209122 0.154492 0.000000
0.071445 -0.249991 0.000000
-0.206009 0.158620 0.000000
0.076401 -0.248521 0.000000
-0.202815 0.162684 0.000000
0.081327 -0.246953 0.000000
-0.199540 0.166684 0.000000
0.086221 -0.245288 0.000000
-0.196187 0.170619 0.000000
0.091081 -0.243525 0.000000
-0.192756 0.174486 0.000000
0.095904 -0.241666 0.000000
-0.189249 0.178283 0.000000
0.100690 -0.239711 0.000000
-0.185666 0.182011 0.000000
0.105436 -0.237662 0.000000
-0.182011 0.185666 0.000000
0.110141 -0.235519 0.000000
-0.178283 0.189249 0.000000
0.114802 -0.233282 0.000000
-0.174486 0.192756 0.000000
0.119417 -0.230953 0.000000
0.123985 -0.228534 0.000000
-0.170619 0.196187 0.000000
0.128505 -0.226023 0.000000
-0.166684 0.199540 0.000000
0.132973 -0.223424 0.000000
-0.162684 0.202815 0.000000
0.137389 -0.220736 0.000000
-0.158620 0.206009 0.000000
0.141751 -0.217961 0.000000
-0.154492 0.209122 0.000000
0.146056 -0.215099 0.000000
-0.150304 0.212153 0.000000
0.150304 -0.212153 0.000000
-0.146056 0.215099 0.000000
0.154492 -0.209122 0.000000
-0.141751 0.217961 0.000000
0.158620 -0.206009 0.000000
-0.137389 0.220736 0.000000
0.162684 -0.202815 0.000000
-0.132973 0.223424 0.000000
-0.128505 0.226023 0.000000
0.166684 -0.199540 0.000000
-0.123985 0.228534 0.000000
0.170619 -0.196187 0.000000
-0.119417 0.230953 0.000000
0.174486 -0.192756 0.000000
-0.114802 0.233282 0.000000
0.178283 -0.189249 0.000000
-0.110141 0.235519 0.000000
0.182011 -0.185666 0.000000
-0.105436 0.237662 0.000000
0.185666 -0.182011 0.000000
-0.100690 0.239711 0.000000
0.189249 -0.178283 0.000000
-0.095904 0.241666 0.000000
0.192756 -0.174486 0.000000
-0.091081 0.243525 0.000000
0.196187 -0.170619 0.000000
-0.086221 0.245288 0.000000
0.199540 -0.166684 0.000000
-0.081327 0.246953 0.000000
0.202815 -0.162684 0.000000
-0.076401 0.248521 0.000000
0.206009 -0.158620 0.000000
-0.071445 0.249991 0.000000
0.209122 -0.154492 0.000000
-0.066459 0.251363 0.000000
0.212153 -0.150304 0.000000
-0.061448 0.252634 0.000000
0.215099 -0.146056 0.000000
-0.056412 0.253806 0.000000
0.217961 -0.141751 0.000000
0.220736 -0.137389 0.000000
-0.051354 0.254878 0.000000
0.223424 -0.132973 0.000000
-0.046275 0.255849 0.000000
0.226023 -0.128505 0.000000
-0.041179 0.256718 0.000000
0.228534 -0.123985 0.000000
-0.036067 0.257486 0.000000
0.230953 -0.119417 0.000000
-0.030940 0.258152 0.000000
0.233282 -0.114802 0.000000
-0.025802 0.258717 0.000000
0.235519 -0.110141 0.000000
-0.020654 0.259178 0.000000
0.237662 -0.105436 0.000000
-0.015498 0.259538 0.000000
0.239711 -0.100690 0.000000
-0.010336 0.259794 0.000000
0.241666 -0.095904 0.000000
-0.005169 0.259949 0.000000
0.243525 -0.091081 0.000000
0.000000 0.260000 0.000000
0.245288 -0.086221 0.000000
0.005169 0.259949 0.000000
0.246953 -0.081327 0.000000
0.010336 0.259794 0.000000
0.248521 -0.076401 0.000000
0.015498 0.259538 0.000000
0.249991 -0.071445 0.000000
0.020654 0.259178 0.000000
0.251363 -0.066459 0.000000
0.025802 0.258717 0.000000
0.252634 -0.061448 0.000000
0.030940 0.258152 0.000000
0.253806 -0.056412 0.000000
0.036067 0.257486 0.000000
0.254878 -0.051354 0.000000
0.041179 0.256718 0.000000
0.255849 -0.046275 0.000000
0.046275 0.255849 0.000000
0.256718 -0.041179 0.000000
0.051354 0.254878 0.000000
0.257486 -0.036067 0.000000
0.056412 0.253806 0.000000
0.258152 -0.030940 0.000000
0.061448 0.252634 0.000000
0.258717 -0.025802 0.000000
0.066459 0.251363 0.000000
0.259178 -0.020654 0.000000
0.071445 0.249991 0.000000
0.259538 -0.015498 0.000000
0.076401 0.248521 0.000000
0.259794 -0.010336 0.000000
0.081327 0.246953 0.000000
0.259949 -0.005169 0.000000
0.086221 0.245288 0.000000
0.260000 0.000000 0.000000
0.091081 0.243525 0.000000
0.259949 0.005169 0.000000
0.095904 0.241666 0.000000
0.259794 0.010336 0.000000
0.100690 0.239711 0.000000
0.259538 0.015498 0.000000
0.105436 0.237662 0.000000
0.259178 0.020654 0.000000
0.110141 0.235519 0.000000
0.258717 0.025802 0.000000
0.114802 0.233282 0.000000
0.258152 0.030940 0.000000
0.119417 0.230953 0.000000
0.257486 0.036067 0.000000
0.123985 0.228534 0.000000
0.256718 0.041179 0.000000
0.128505 0.226023 0.000000
0.255849 0.046275 0.000000
0.132973 0.223424 0.000000
0.254878 0.051354 0.000000
0.137389 0.220736 0.000000
0.253806 0.056412 0.000000
0.141751 0.217961 0.000000
0.252634 0.061448 0.000000
0.146056 0.215099 0.000000
0.251363 0.066459 0.000000
0.150304 0.212153 0.000000
0.249991 0.071445 0.000000
0.154492 0.209122 0.000000
0.248521 0.076401 0.000000
0.158620 0.206009 0.000000
0.246953 0.081327 0.000000
0.162684 0.202815 0.000000
0.245288 0.086221 0.000000
0.166684 0.199540 0.000000
0.243525 0.091081 0.000000
0.170619 0.196187 0.000000
0.241666 0.095904 0.000000
0.174486 0.192756 0.000000
0.239711 0.100690 0.000000
0.178283 0.189249 0.000000
0.237662 0.105436 0.000000
0.182011 0.185666 0.000000
0.235519 0.110141 0.000000
0.185666 0.182011 0.000000
0.233282 0.114802 0.000000
0.189249 0.178283 0.000000
0.230953 0.119417 0.000000
0.192756 0.174486 0.000000
0.228534 0.123985 0.000000
0.196187 0.170619 0.000000
0.226023 0.128505 0.000000
0.199540 0.166684 0.000000
0.223424 0.132973 0.000000
0.202815 0.162684 0.000000
0.220736 0.137389 0.000000
0.206009 0.158620 0.000000
0.217961 0.141751 0.000000
0.209122 0.154492 0.000000
0.215099 0.146056 0.000000
0.212153 0.150304 0.000000
-0.203462 -0.145269 0.000000
-0.209292 -0.136737 0.000000
-0.200416 -0.149443 0.000000
-0.212073 -0.132382 0.000000
-0.197285 -0.153553 0.000000
-0.214764 -0.127971 0.000000
-0.194070 -0.157598 0.000000
-0.217362 -0.123505 0.000000
-0.190771 -0.161575 0.000000
-0.219868 -0.118987 0.000000
-0.187391 -0.165483 0.000000
-0.222281 -0.114417 0.000000
-0.183931 -0.169320 0.000000
-0.224598 -0.109799 0.000000
-0.180392 -0.173086 0.000000
-0.226819 -0.105134 0.000000
-0.176777 -0.176777 0.000000
-0.228943 -0.100424 0.000000
-0.173086 -0.180392 0.000000
-0.230970 -0.095671 0.000000
-0.169320 -0.183931 0.000000
-0.232898 -0.090877 0.000000
-0.165483 -0.187391 0.000000
-0.234726 -0.086044 0.000000
-0.161575 -0.190771 0.000000
-0.236454 -0.081175 0.000000
-0.157598 -0.194070 0.000000
-0.238081 -0.076271 0.000000
-0.153553 -0.197285 0.000000
-0.239607 -0.071334 0.000000
-0.149443 -0.200416 0.000000
-0.241030 -0.066366 0.000000
-0.145269 -0.203462 0.000000
-0.242350 -0.061370 0.000000
-0.141033 -0.206421 0.000000
-0.243567 -0.056347 0.000000
-0.136737 -0.209292 0.000000
-0.244680 -0.051301 0.000000
-0.132382 -0.212073 0.000000
-0.245688 -0.046232 0.000000
-0.127971 -0.214764 0.000000
-0.246591 -0.041144 0.000000
-0.123505 -0.217362 0.000000
-0.247389 -0.036039 0.000000
-0.118987 -0.219868 0.000000
-0.248081 -0.030919 0.000000
-0.114417 -0.222281 0.000000
-0.248667 -0.025786 0.000000
-0.109799 -0.224598 0.000000
-0.249146 -0.020642 0.000000
-0.105134 -0.226819 0.000000
-0.249520 -0.015489 0.000000
-0.100424 -0.228943 0.000000
-0.249786 -0.010330 0.000000
-0.095671 -0.230970 0.000000
-0.249947 -0.005166 0.000000
-0.090877 -0.232898 0.000000
-0.250000 0.000000 0.000000
-0.086044 -0.234726 0.000000
-0.249947 0.005166 0.000000
-0.081175 -0.236454 0.000000
-0.249786 0.010330 0.000000
-0.076271 -0.238081 0.000000
-0.249520 0.015489 0.000000
-0.071334 -0.239607 0.000000
-0.249146 0.020642 0.000000
-0.066366 -0.241030 0.000000
-0.248667 0.025786 0.000000
-0.061370 -0.242350 0.000000
-0.248081 0.030919 0.000000
-0.056347 -0.243567 0.000000
-0.247389 0.036039 0.000000
-0.051301 -0.244680 0.000000
-0.246591 0.041144 0.000000
-0.046232 -0.245688 0.000000
-0.245688 0.046232 0.000000
-0.041144 -0.246591 0.000000
-0.244680 0.051301 0.000000
-0.036039 -0.247389 0.000000
-0.243567 0.056347 0.000000
-0.030919 -0.248081 0.000000
-0.242350 0.061370 0.000000
-0.025786 -0.248667 0.000000
-0.241030 0.066366 0.000000
-0.020642 -0.249146 0.000000
-0.239607 0.071334 0.000000
-0.015489 -0.249520 0.000000
-0.238081 0.076271 0.000000
-0.010330 -0.249786 0.000000
-0.236454 0.081175 0.000000
-0.005166 -0.249947 0.000000
-0.234726 0.086044 0.000000
-0.000000 -0.250000 0.000000
-0.232898 0.090877 0.000000
0.005166 -0.249947 0.000000
-0.230970 0.095671 0.000000
0.010330 -0.249786 0.000000
-0.228943 0.100424 0.000000
0.015489 -0.249520 0.000000
-0.226819 0.105134 0.000000
0.020642 -0.249146 0.000000
-0.224598 0.109799 0.000000
0.025786 -0.248667 0.000000
-0.222281 0.114417 0.000000
0.030919 -0.248081 0.000000
-0.219868 0.118987 0.000000
0.036039 -0.247389 0.000000
-0.217362 0.123505 0.000000
0.041144 -0.246591 0.000000
-0.214764 0.127971 0.000000
0.046232 -0.245688 0.000000
-0.212073 0.132382 0.000000
0.051301 -0.244680 0.000000
-0.209292 0.136737 0.000000
0.056347 -0.243567 0.000000
-0.206421 0.141033 0.000000
0.061370 -0.242350 0.000000
-0.203462 0.145269 0.000000
0.066366 -0.241030 0.000000
-0.200416 0.149443 0.000000
0.071334 -0.239607 0.000000
-0.197285 0.153553 0.000000
0.076271 -0.238081 0.000000
-0.194070 0.157598 0.000000
0.081175 -0.236454 0.000000
-0.190771 0.161575 0.000000
0.086044 -0.234726 0.000000
-0.187391 0.165483 0.000000
0.090877 -0.232898 0.000000
-0.183931 0.169320 0.000000
0.095671 -0.230970 0.000000
-0.180392 0.173086 0.000000
0.100424 -0.228943 0.000000
-0.176777 0.176777 0.000000
0.105134 -0.226819 0.000000
-0.173086 0.180392 0.000000
0.109799 -0.224598 0.000000
-0.169320 0.183931 0.000000
0.114417 -0.222281 0.000000
-0.165483 0.187391 0.000000
0.118987 -0.219868 0.000000
-0.161575 0.190771 0.000000
0.123505 -0.217362 0.000000
-0.157598 0.194070 0.000000
0.127971 -0.214764 0.000000
-0.153553 0.197285 0.000000
0.132382 -0.212073 0.000000
-0.149443 0.200416 0.000000
0.136737 -0.209292 0.000000
-0.145269 0.203462 0.000000
0.141033 -0.206421 0.000000
-0.141033 0.206421 0.000000
0.145269 -0.203462 0.000000
-0.136737 0.209292 0.000000
0.149443 -0.200416 0.000000
-0.132382 0.212073 0.000000
0.153553 -0.197285 0.000000
-0.127971 0.214764 0.000000
0.157598 -0.194070 0.000000
-0.123505 0.217362 0.000000
0.161575 -0.190771 0.000000
-0.118987 0.219868 0.000000
0.165483 -0.187391 0.000000
-0.114417 0.222281 0.000000
0.169320 -0.183931 0.000000
-0.109799 0.224598 0.000000
0.173086 -0.180392 0.000000
-0.105134 0.226819 0.000000
0.176777 -0.176777 0.000000
-0.100424 0.228943 0.000000
0.180392 -0.173086 0.000000
-0.095671 0.230970 0.000000
0.183931 -0.169320 0.000000
-0.090877 0.232898 0.000000
0.187391 -0.165483 0.000000
-0.086044 0.234726 0.000000
0.190771 -0.161575 0.000000
-0.081175 0.236454 0.000000
0.194070 -0.157598 0.000000
-0.076271 0.238081 0.000000
0.197285 -0.153553 0.000000
-0.071334 0.239607 0.000000
0.200416 -0.149443 0.000000
-0.066366 0.241030 0.000000
0.203462 -0.145269 0.000000
-0.061370 0.242350 0.000000
0.206421 -0.141033 0.000000
-0.056347 0.243567 0.000000
0.209292 -0.136737 0.000000
-0.051301 0.244680 0.000000
0.212073 -0.132382 0.000000
-0.046232 0.245688 0.000000
0.214764 -0.127971 0.000000
-0.041144 0.246591 0.000000
0.217362 -0.123505 0.000000
-0.036039 0.247389 0.000000
0.219868 -0.118987 0.000000
-0.030919 0.248081 0.000000
0.222281 -0.114417 0.000000
-0.025786 0.248667 0.000000
0.224598 -0.109799 0.000000
-0.020642 0.249146 0.000000
0.226819 -0.105134 0.000000
-0.015489 0.249520 0.000000
0.228943 -0.100424 0.000000
-0.010330 0.249786 0.000000
0.230970 -0.095671 0.000000
-0.005166 0.249947 0.000000
0.232898 -0.090877 0.000000
0.000000 0.250000 0.000000
0.234726 -0.086044 0.000000
0.005166 0.249947 0.000000
0.236454 -0.081175 0.000000
0.010330 0.249786 0.000000
0.238081 -0.076271 0.000000
0.015489 0.249520 0.000000
0.239607 -0.071334 0.000000
0.020642 0.249146 0.000000
0.241030 -0.066366 0.000000
0.025786 0.248667 0.000000
0.242350 -0.061370 0.000000
0.030919 0.248081 0.000000
0.243567 -0.056347 0.000000
0.036039 0.247389 0.000000
0.244680 -0.051301 0.000000
0.041144 0.246591 0.000000
0.245688 -0.046232 0.000000
0.046232 0.245688 0.000000
0.246591 -0.041144 0.000000
0.051301 0.244680 0.000000
0.247389 -0.036039 0.000000
0.056347 0.243567 0.000000
0.248081 -0.030919 0.000000
0.061370 0.242350 0.000000
0.248667 -0.025786 0.000000
0.066366 0.241030 0.000000
0.249146 -0.020642 0.000000
0.071334 0.239607 0.000000
0.249520 -0.015489 0.000000
0.076271 0.238081 0.000000
0.249786 -0.010330 0.000000
0.081175 0.236454 0.000000
0.249947 -0.005166 0.000000
0.086044 0.234726 0.000000
0.250000 -0.000000 0.000000
0.090877 0.232898 0.000000
0.249947 0.005166 0.000000
0.095671 0.230970 0.000000
0.249786 0.010330 0.000000
0.100424 0.228943 0.000000
0.249520 0.015489 0.000000
0.105134 0.226819 0.000000
0.249146 0.020642 0.000000
0.109799 0.224598 0.000000
0.248667 0.025786 0.000000
0.114417 0.222281 0.000000
0.248081 0.030919 0.000000
0.118987 0.219868 0.000000
0.247389 0.036039 0.000000
0.123505 0.217362 0.000000
0.246591 0.041144 0.000000
0.127971 0.214764 0.000000
0.245688 0.046232 0.000000
0.132382 0.212073 0.000000
0.244680 0.051301 0.000000
0.136737 0.209292 0.000000
0.243567 0.056347 0.000000
0.141033 0.206421 0.000000
0.242350 0.061370 0.000000
0.145269 0.203462 0.000000
0.241030 0.066366 0.000000
0.149443 0.200416 0.000000
0.239607 0.071334 0.000000
0.153553 0.197285 0.000000
0.238081 0.076271 0.000000
0.157598 0.194070 0.000000
0.236454 0.081175 0.000000
0.161575 0.190771 0.000000
0.234726 0.086044 0.000000
0.165483 0.187391 0.000000
0.232898 0.090877 0.000000
0.169320 0.183931 0.000000
0.230970 0.095671 0.000000
0.173086 0.180392 0.000000
0.228943 0.100424 0.000000
0.176777 0.176777 0.000000
0.226819 0.105134 0.000000
0.180392 0.173086 0.000000
0.224598 0.109799 0.000000
0.183931 0.169320 0.000000
0.222281 0.114417 0.000000
0.187391 0.165483 0.000000
0.219868 0.118987 0.000000
0.190771 0.161575 0.000000
0.217362 0.123505 0.000000
0.194070 0.157598 0.000000
0.214764 0.127971 0.000000
0.197285 0.153553 0.000000
0.212073 0.132382 0.000000
0.200416 0.149443 0.000000
0.209292 0.136737 0.000000
0.206421 0.141033 0.000000
0.203462 0.145269 0.000000
-0.211239 -0.145764 0.000000
-0.207348 -0.145506 0.000000
-0.208235 -0.149997 0.000000
-0.210271 -0.141224 0.000000
-0.214114 -0.141448 0.000000
-0.204348 -0.149730 0.000000
-0.205202 -0.154186 0.000000
-0.213130 -0.136835 0.000000
-0.216922 -0.137075 0.000000
-0.201224 -0.153860 0.000000
-0.202031 -0.158271 0.000000
-0.215878 -0.132424 0.000000
-0.219710 -0.132611 0.000000
-0.198030 -0.157923 0.000000
-0.198804 -0.162319 0.000000
-0.218605 -0.127699 0.000000
-0.222365 -0.128140 0.000000
-0.224875 -0.124872 0.000000
-0.194761 -0.161929 0.000000
-0.195479 -0.166293 0.000000
-0.221918 -0.123192 0.000000
-0.226380 -0.121036 0.000000
-0.191411 -0.165867 0.000000
-0.192076 -0.170180 0.000000
-0.223993 -0.118092 0.000000
-0.228835 -0.116386 0.000000
-0.187988 -0.169741 0.000000
-0.188629 -0.174050 0.000000
-0.226621 -0.113165 0.000000
-0.231077 -0.111640 0.000000
-0.184488 -0.173541 0.000000
-0.185072 -0.177780 0.000000
-0.228918 -0.108399 0.000000
-0.233287 -0.106944 0.000000
-0.180913 -0.177266 0.000000
-0.181487 -0.181485 0.000000
-0.231106 -0.103709 0.000000
-0.235397 -0.102211 0.000000
-0.177263 -0.180925 0.000000
-0.177757 -0.185116 0.000000
-0.233157 -0.098942 0.000000
-0.237414 -0.097442 0.000000
-0.173562 -0.184499 0.000000
-0.173989 -0.188666 0.000000
-0.235110 -0.094195 0.000000
-0.239353 -0.092615 0.000000
-0.169783 -0.188037 0.000000
-0.170176 -0.192088 0.000000
-0.237036 -0.089400 0.000000
-0.241145 -0.087789 0.000000
-0.165867 -0.191421 0.000000
-0.166261 -0.195470 0.000000
-0.238795 -0.084500 0.000000
-0.242869 -0.082916 0.000000
-0.161926 -0.194766 0.000000
-0.162296 -0.198817 0.000000
-0.240480 -0.079619 0.000000
-0.244533 -0.078015 0.000000
-0.157923 -0.198067 0.000000
-0.158264 -0.202046 0.000000
-0.242098 -0.074704 0.000000
-0.246013 -0.073093 0.000000
-0.153833 -0.201229 0.000000
-0.154141 -0.205206 0.000000
-0.243529 -0.069697 0.000000
-0.247451 -0.068123 0.000000
-0.149674 -0.204349 0.000000
-0.149938 -0.208289 0.000000
-0.244899 -0.064716 0.000000
-0.248766 -0.063116 0.000000
-0.145447 -0.207383 0.000000
-0.145696 -0.211247 0.000000
-0.246147 -0.059719 0.000000
-0.249987 -0.058081 0.000000
-0.141114 -0.210324 0.000000
-0.141350 -0.214172 0.000000
-0.247314 -0.054684 0.000000
-0.251085 -0.053025 0.000000
-0.136554 -0.213213 0.000000
-0.136933 -0.217186 0.000000
-0.133850 -0.219680 0.000000
-0.248378 -0.049626 0.000000
-0.252118 -0.047967 0.000000
-0.132090 -0.216717 0.000000
-0.130020 -0.221252 0.000000
-0.249339 -0.044548 0.000000
-0.253006 -0.042863 0.000000
-0.126984 -0.218897 0.000000
-0.125536 -0.223876 0.000000
-0.250196 -0.039452 0.000000
-0.253814 -0.037756 0.000000
-0.122403 -0.221788 0.000000
-0.120909 -0.226359 0.000000
-0.250948 -0.034339 0.000000
-0.254531 -0.032639 0.000000
-0.117810 -0.224233 0.000000
-0.116302 -0.228773 0.000000
-0.251590 -0.029207 0.000000
-0.255162 -0.027498 0.000000
-0.113063 -0.226648 0.000000
-0.111626 -0.231076 0.000000
-0.252152 -0.024064 0.000000
-0.255682 -0.022349 0.000000
-0.108405 -0.228923 0.000000
-0.106956 -0.233292 0.000000
-0.252595 -0.018895 0.000000
-0.256048 -0.017181 0.000000
-0.103699 -0.231093 0.000000
-0.102209 -0.235408 0.000000
-0.252917 -0.013716 0.000000
-0.256371 -0.011977 0.000000
-0.098950 -0.233168 0.000000
-0.097430 -0.237419 0.000000
-0.253145 -0.008502 0.000000
-0.256525 -0.006784 0.000000
-0.094186 -0.235148 0.000000
-0.092626 -0.239323 0.000000
-0.253246 -0.003274 0.000000
-0.256590 -0.001533 0.000000
-0.089365 -0.237021 0.000000
-0.087789 -0.241137 0.000000
-0.256677 0.003861 0.000000
-0.253142 0.002166 0.000000
-0.257115 0.007822 0.000000
-0.084514 -0.238796 0.000000
-0.082921 -0.242867 0.000000
-0.253720 0.007776 0.000000
-0.256519 0.011763 0.000000
-0.079606 -0.240458 0.000000
-0.078018 -0.244489 0.000000
-0.252852 0.013320 0.000000
-0.256068 0.016920 0.000000
-0.074694 -0.242036 0.000000
-0.073082 -0.246010 0.000000
-0.252611 0.018669 0.000000
-0.255656 0.022234 0.000000
-0.069735 -0.243513 0.000000
-0.068114 -0.247458 0.000000
-0.252141 0.023990 0.000000
-0.255162 0.027444 0.000000
-0.064743 -0.244887 0.000000
-0.063092 -0.248749 0.000000
-0.251604 0.029164 0.000000
-0.254573 0.032595 0.000000
-0.059717 -0.246147 0.000000
-0.058069 -0.249993 0.000000
-0.250974 0.034287 0.000000
-0.253840 0.037734 0.000000
-0.054678 -0.247313 0.000000
-0.053013 -0.251111 0.000000
-0.250231 0.039411 0.000000
-0.253024 0.042842 0.000000
-0.049616 -0.248377 0.000000
-0.047935 -0.252120 0.000000
-0.249361 0.044517 0.000000
-0.252111 0.047933 0.000000
-0.044539 -0.249350 0.000000
-0.042840 -0.253023 0.000000
-0.248407 0.049594 0.000000
-0.251110 0.053004 0.000000
-0.039431 -0.250212 0.000000
-0.037704 -0.253860 0.000000
-0.247324 0.054669 0.000000
-0.249985 0.058059 0.000000
-0.034308 -0.250972 0.000000
-0.032585 -0.254550 0.000000
-0.246143 0.059708 0.000000
-0.248743 0.063082 0.000000
-0.029143 -0.251616 0.000000
-0.027438 -0.255160 0.000000
-0.244868 0.064718 0.000000
-0.247429 0.068085 0.000000
-0.023984 -0.252155 0.000000
-0.022275 -0.255652 0.000000
-0.243509 0.069698 0.000000
-0.245994 0.073043 0.000000
-0.018760 -0.252599 0.000000
-0.017016 -0.256101 0.000000
-0.242036 0.074652 0.000000
-0.244469 0.077981 0.000000
-0.013287 -0.252844 0.000000
-0.011794 -0.256461 0.000000
-0.007824 -0.257115 0.000000
-0.240463 0.079574 0.000000
-0.242849 0.082888 0.000000
-0.007799 -0.253734 0.000000
-0.003878 -0.256704 0.000000
-0.238789 0.084463 0.000000
-0.241130 0.087762 0.000000
-0.002313 -0.253282 0.000000
0.001488 -0.256626 0.000000
-0.237016 0.089317 0.000000
-0.239316 0.092601 0.000000
0.003275 -0.253251 0.000000
0.006791 -0.256518 0.000000
-0.235145 0.094134 0.000000
-0.237412 0.097406 0.000000
0.008519 -0.253134 0.000000
0.011961 -0.256352 0.000000
-0.233173 0.098919 0.000000
-0.235426 0.102191 0.000000
0.013685 -0.252913 0.000000
0.017142 -0.256059 0.000000
-0.231127 0.103687 0.000000
-0.233295 0.106912 0.000000
0.018872 -0.252578 0.000000
0.022325 -0.255665 0.000000
-0.228942 0.108390 0.000000
-0.231092 0.111624 0.000000
0.024038 -0.252148 0.000000
0.027480 -0.255157 0.000000
-0.226657 0.113049 0.000000
-0.228780 0.116278 0.000000
0.029190 -0.251600 0.000000
0.032621 -0.254550 0.000000
-0.224272 0.117709 0.000000
-0.226385 0.120864 0.000000
0.034318 -0.250961 0.000000
0.037740 -0.253831 0.000000
-0.221796 0.122264 0.000000
-0.223999 0.125456 0.000000
0.039411 -0.250224 0.000000
0.042847 -0.253042 0.000000
-0.218901 0.126938 0.000000
-0.221364 0.129767 0.000000
-0.219680 0.133847 0.000000
0.044518 -0.249355 0.000000
0.047933 -0.252121 0.000000
-0.216712 0.132054 0.000000
-0.217004 0.137072 0.000000
0.049586 -0.248413 0.000000
0.052994 -0.251107 0.000000
-0.213232 0.136466 0.000000
-0.214223 0.141523 0.000000
0.054657 -0.247336 0.000000
0.058052 -0.250005 0.000000
-0.210309 0.141140 0.000000
-0.211239 0.145727 0.000000
0.059678 -0.246219 0.000000
0.063074 -0.248801 0.000000
-0.207382 0.145398 0.000000
-0.208266 0.149943 0.000000
0.064707 -0.244891 0.000000
0.068065 -0.247437 0.000000
-0.204377 0.149636 0.000000
-0.205190 0.154130 0.000000
0.069691 -0.243505 0.000000
0.073032 -0.246030 0.000000
-0.201236 0.153821 0.000000
-0.202041 0.158266 0.000000
0.074644 -0.242033 0.000000
0.077971 -0.244510 0.000000
-0.198078 0.157909 0.000000
-0.198801 0.162297 0.000000
0.079563 -0.240462 0.000000
0.082879 -0.242869 0.000000
-0.194813 0.161942 0.000000
-0.195518 0.166295 0.000000
0.084448 -0.238801 0.000000
0.087756 -0.241183 0.000000
-0.191439 0.165882 0.000000
-0.192093 0.170171 0.000000
0.089300 -0.237046 0.000000
0.092599 -0.239343 0.000000
-0.188003 0.169744 0.000000
-0.188653 0.173995 0.000000
0.094143 -0.235202 0.000000
0.097411 -0.237436 0.000000
-0.184499 0.173533 0.000000
-0.185108 0.177774 0.000000
0.098956 -0.233189 0.000000
0.102214 -0.235430 0.000000
-0.180925 0.177258 0.000000
-0.181476 0.181471 0.000000
0.103685 -0.231103 0.000000
0.106930 -0.233289 0.000000
-0.177298 0.180905 0.000000
-0.177799 0.185107 0.000000
0.108419 -0.228930 0.000000
0.111656 -0.231091 0.000000
-0.173586 0.184506 0.000000
-0.174021 0.188619 0.000000
0.113144 -0.226627 0.000000
0.116347 -0.228895 0.000000
-0.169775 0.188019 0.000000
-0.170198 0.192078 0.000000
0.118125 -0.224048 0.000000
0.120958 -0.226462 0.000000
0.124847 -0.224898 0.000000
-0.165874 0.191414 0.000000
-0.166269 0.195460 0.000000
0.123118 -0.221704 0.000000
0.128317 -0.222427 0.000000
-0.161942 0.194765 0.000000
-0.162298 0.198777 0.000000
0.127741 -0.218738 0.000000
0.132718 -0.219773 0.000000
-0.157941 0.198061 0.000000
-0.158267 0.202017 0.000000
0.132458 -0.215906 0.000000
0.137099 -0.216943 0.000000
-0.153841 0.201233 0.000000
-0.154157 0.205176 0.000000
0.136835 -0.213143 0.000000
0.141446 -0.214140 0.000000
-0.149697 0.204336 0.000000
-0.149986 0.208241 0.000000
0.141204 -0.210307 0.000000
0.145766 -0.211267 0.000000
-0.145494 0.207364 0.000000
-0.145771 0.211274 0.000000
0.145482 -0.207382 0.000000
0.149974 -0.208247 0.000000
-0.141205 0.210328 0.000000
-0.141442 0.214144 0.000000
0.149675 -0.204345 0.000000
0.154126 -0.205199 0.000000
-0.136819 0.213112 0.000000
-0.137086 0.216926 0.000000
0.153844 -0.201265 0.000000
0.158238 -0.202080 0.000000
-0.132440 0.215878 0.000000
-0.132694 0.219723 0.000000
0.157910 -0.198046 0.000000
0.162291 -0.198796 0.000000
-0.127703 0.218560 0.000000
-0.128168 0.222340 0.000000
-0.124872 0.224869 0.000000
0.161934 -0.194783 0.000000
0.166261 -0.195477 0.000000
-0.123151 0.221907 0.000000
-0.120918 0.226405 0.000000
0.165879 -0.191440 0.000000
0.170170 -0.192099 0.000000
-0.117906 0.223946 0.000000
-0.116364 0.228838 0.000000
0.169751 -0.188007 0.000000
0.173993 -0.188654 0.000000
-0.113240 0.226633 0.000000
-0.111662 0.231084 0.000000
0.173542 -0.184492 0.000000
0.177760 -0.185096 0.000000
-0.108422 0.228922 0.000000
-0.106961 0.233288 0.000000
0.177261 -0.180914 0.000000
0.181485 -0.181471 0.000000
-0.103737 0.231113 0.000000
-0.102262 0.235399 0.000000
0.180916 -0.177255 0.000000
0.185091 -0.177759 0.000000
-0.098948 0.233164 0.000000
-0.097431 0.237399 0.000000
0.184491 -0.173524 0.000000
0.188622 -0.173999 0.000000
-0.094143 0.235127 0.000000
-0.092613 0.239321 0.000000
0.187992 -0.169728 0.000000
0.192102 -0.170181 0.000000
-0.089317 0.237012 0.000000
-0.087764 0.241132 0.000000
0.191418 -0.165860 0.000000
0.195491 -0.166265 0.000000
-0.084463 0.238789 0.000000
-0.082889 0.242851 0.000000
0.194761 -0.161927 0.000000
0.198782 -0.162297 0.000000
-0.079574 0.240463 0.000000
-0.077984 0.244481 0.000000
0.198034 -0.157937 0.000000
0.202051 -0.158287 0.000000
-0.074655 0.242028 0.000000
-0.073067 0.246024 0.000000
0.201260 -0.153870 0.000000
0.205213 -0.154172 0.000000
-0.069704 0.243501 0.000000
-0.068084 0.247440 0.000000
0.204378 -0.149650 0.000000
0.208273 -0.149949 0.000000
-0.064720 0.244869 0.000000
-0.063076 0.248748 0.000000
0.207393 -0.145398 0.000000
0.211241 -0.145689 0.000000
-0.059719 0.246146 0.000000
-0.058059 0.249953 0.000000
0.210313 -0.141108 0.000000
0.214198 -0.141341 0.000000
-0.054684 0.247314 0.000000
-0.053013 0.251069 0.000000
0.213186 -0.136480 0.000000
0.217027 -0.137061 0.000000
0.219675 -0.133904 0.000000
-0.049626 0.248378 0.000000
-0.047946 0.252085 0.000000
0.216699 -0.132106 0.000000
0.221261 -0.130034 0.000000
-0.044548 0.249339 0.000000
-0.042859 0.253000 0.000000
0.218972 -0.126947 0.000000
0.223829 -0.125513 0.000000
-0.039452 0.250196 0.000000
-0.037755 0.253811 0.000000
0.221761 -0.122278 0.000000
0.226348 -0.120860 0.000000
-0.034339 0.250948 0.000000
-0.032636 0.254520 0.000000
0.224241 -0.117692 0.000000
0.228771 -0.116275 0.000000
-0.029212 0.251597 0.000000
-0.027501 0.255124 0.000000
0.226657 -0.113049 0.000000
0.231079 -0.111599 0.000000
-0.024064 0.252125 0.000000
-0.022349 0.255632 0.000000
0.228947 -0.108402 0.000000
0.233301 -0.106928 0.000000
-0.018895 0.252587 0.000000
-0.017177 0.256059 0.000000
0.231124 -0.103682 0.000000
0.235410 -0.102221 0.000000
-0.013722 0.252906 0.000000
-0.011984 0.256358 0.000000
0.233165 -0.098925 0.000000
0.237410 -0.097418 0.000000
-0.008503 0.253124 0.000000
-0.006797 0.256513 0.000000
0.235127 -0.094138 0.000000
0.239324 -0.092617 0.000000
-0.003298 0.253224 0.000000
-0.001537 0.256626 0.000000
0.236998 -0.089320 0.000000
0.241141 -0.087778 0.000000
0.002151 0.253099 0.000000
0.003665 0.256640 0.000000
0.007850 0.257154 0.000000
0.238771 -0.084467 0.000000
0.242860 -0.082904 0.000000
0.007797 0.253617 0.000000
0.011936 0.256414 0.000000
0.240446 -0.079578 0.000000
0.244481 -0.077996 0.000000
0.013338 0.252784 0.000000
0.017146 0.256139 0.000000
0.242028 -0.074654 0.000000
0.246037 -0.073052 0.000000
0.018795 0.252575 0.000000
0.022298 0.255656 0.000000
0.243509 -0.069698 0.000000
0.247448 -0.068073 0.000000
0.023967 0.252157 0.000000
0.027442 0.255166 0.000000
0.244876 -0.064709 0.000000
0.248758 -0.063061 0.000000
0.029162 0.251616 0.000000
0.032604 0.254548 0.000000
0.246144 -0.059697 0.000000
0.249992 -0.058030 0.000000
0.034292 0.250979 0.000000
0.037736 0.253859 0.000000
0.247309 -0.054662 0.000000
0.251104 -0.052986 0.000000
0.039431 0.250218 0.000000
0.042858 0.253073 0.000000
0.248369 -0.049609 0.000000
0.252103 -0.047938 0.000000
0.044531 0.249396 0.000000
0.047946 0.252110 0.000000
0.249327 -0.044538 0.000000
0.253015 -0.042853 0.000000
0.049638 0.248392 0.000000
0.053019 0.251075 0.000000
0.250196 -0.039452 0.000000
0.253860 -0.037736 0.000000
0.054696 0.247309 0.000000
0.058069 0.249954 0.000000
0.251003 -0.034313 0.000000
0.254598 -0.032621 0.000000
0.059722 0.246136 0.000000
0.063114 0.248759 0.000000
0.251639 -0.029149 0.000000
0.255178 -0.027455 0.000000
0.064734 0.244874 0.000000
0.068093 0.247429 0.000000
0.252168 -0.023976 0.000000
0.255662 -0.022304 0.000000
0.069737 0.243542 0.000000
0.073050 0.246037 0.000000
0.252584 -0.018806 0.000000
0.256143 -0.017147 0.000000
0.074663 0.242036 0.000000
0.077996 0.244480 0.000000
0.252817 -0.013347 0.000000
0.256442 -0.011927 0.000000
0.257154 -0.007852 0.000000
0.079584 0.240452 0.000000
0.082921 0.242866 0.000000
0.253690 -0.007780 0.000000
0.256642 -0.003691 0.000000
0.084471 0.238773 0.000000
0.087778 0.241141 0.000000
0.253096 -0.002165 0.000000
0.256647 0.001559 0.000000
0.089321 0.236998 0.000000
0.092617 0.239324 0.000000
0.253243 0.003287 0.000000
0.256520 0.006794 0.000000
0.094136 0.235126 0.000000
0.097418 0.237410 0.000000
0.253129 0.008465 0.000000
0.256359 0.011971 0.000000
0.098915 0.233157 0.000000
0.102180 0.235399 0.000000
0.252942 0.013681 0.000000
0.256098 0.017161 0.000000
0.103663 0.231094 0.000000
0.106917 0.233294 0.000000
0.252587 0.018892 0.000000
0.255640 0.022345 0.000000
0.108396 0.228944 0.000000
0.111598 0.231082 0.000000
0.252126 0.024061 0.000000
0.255131 0.027498 0.000000
0.113048 0.226663 0.000000
0.116271 0.228781 0.000000
0.251586 0.029205 0.000000
0.254568 0.032637 0.000000
0.117706 0.224256 0.000000
0.120852 0.226357 0.000000
0.250942 0.034329 0.000000
0.253839 0.037736 0.000000
0.122248 0.221776 0.000000
0.125477 0.223846 0.000000
0.250188 0.039438 0.000000
0.253035 0.042843 0.000000
0.126912 0.218965 0.000000
0.130002 0.221279 0.000000
0.249333 0.044533 0.000000
0.252125 0.047929 0.000000
0.132108 0.216694 0.000000
0.133891 0.219601 0.000000
0.248369 0.049612 0.000000
0.251087 0.053006 0.000000
0.136550 0.213160 0.000000
0.137046 0.217019 0.000000
0.247301 0.054671 0.000000
0.249968 0.058053 0.000000
0.141152 0.210287 0.000000
0.141372 0.214174 0.000000
0.246134 0.059706 0.000000
0.248748 0.063076 0.000000
0.145482 0.207387 0.000000
0.145725 0.211231 0.000000
0.244867 0.064717 0.000000
0.247418 0.068075 0.000000
0.149697 0.204345 0.000000
0.149984 0.208266 0.000000
0.243509 0.069698 0.000000
0.246029 0.073052 0.000000
0.153835 0.201247 0.000000
0.154130 0.205204 0.000000
0.242036 0.074652 0.000000
0.244477 0.077982 0.000000
0.157903 0.198039 0.000000
0.158242 0.202054 0.000000
0.240463 0.079574 0.000000
0.242860 0.082888 0.000000
0.161909 0.194770 0.000000
0.162280 0.198807 0.000000
0.238789 0.084463 0.000000
0.241157 0.087764 0.000000
0.165849 0.191427 0.000000
0.166250 0.195508 0.000000
0.237021 0.089328 0.000000
0.239376 0.092639 0.000000
0.169721 0.188004 0.000000
0.170154 0.192121 0.000000
0.235172 0.094182 0.000000
0.237425 0.097450 0.000000
0.173527 0.184503 0.000000
0.173991 0.188648 0.000000
0.233173 0.098964 0.000000
0.235397 0.102209 0.000000
0.177263 0.180930 0.000000
0.177779 0.185108 0.000000
0.231102 0.103711 0.000000
0.233283 0.106944 0.000000
0.180917 0.177274 0.000000
0.181479 0.181481 0.000000
0.228922 0.108427 0.000000
0.231077 0.111631 0.000000
0.184496 0.173546 0.000000
0.185088 0.177792 0.000000
0.226606 0.113135 0.000000
0.228845 0.116324 0.000000
0.187993 0.169732 0.000000
0.188640 0.174022 0.000000
0.223969 0.118039 0.000000
0.226404 0.120897 0.000000
0.191413 0.165855 0.000000
0.192089 0.170164 0.000000
0.221863 0.123176 0.000000
0.224891 0.124847 0.000000
0.194756 0.161915 0.000000
0.195477 0.166261 0.000000
0.218540 0.127743 0.000000
0.222360 0.128216 0.000000
0.198020 0.157909 0.000000
0.198786 0.162290 0.000000
0.215874 0.132431 0.000000
0.219701 0.132630 0.000000
0.201205 0.153841 0.000000
0.202014 0.158253 0.000000
0.213147 0.136837 0.000000
0.216928 0.137078 0.000000
0.204316 0.149710 0.000000
0.210278 0.141207 0.000000
0.207360 0.145490 0.000000
0.205171 0.154172 0.000000
0.214149 0.141432 0.000000
0.208240 0.149993 0.000000
0.211214 0.145747 0.000000
CELLS 1860 7440
3 620 2 0
3 0 622 620
3 621 620 622
3 622 625 621
3 317 621 625
3 625 319 317
3 319 625 629
3 629 321 319
3 321 629 633
3 633 323 321
3 323 633 638
3 638 325 323
3 325 638 642
3 642 327 325
3 327 642 646
3 646 329 327
3 329 646 650
3 650 331 329
3 331 650 654
3 654 333 331
3 333 654 658
3 658 335 333
3 335 658 662
3 662 337 335
3 337 662 666
3 666 339 337
3 339 666 670
3 670 341 339
3 341 670 674
3 674 343 341
3 343 674 678
3 678 345 343
3 345 678 682
3 682 347 345
3 347 682 686
3 686 349 347
3 349 686 690
3 690 351 349
3 351 690 694
3 694 353 351
3 353 694 698
3 698 355 353
3 355 698 703
3 703 357 355
3 357 703 707
3 707 359 357
3 359 707 711
3 711 361 359
3 361 711 715
3 715 363 361
3 363 715 719
3 719 365 363
3 365 719 723
3 723 367 365
3 367 723 727
3 727 369 367
3 369 727 731
3 731 371 369
3 371 731 735
3 735 373 371
3 373 735 739
3 739 375 373
3 375 739 744
3 744 377 375
3 377 744 748
3 748 379 377
3 379 748 752
3 752 381 379
3 381 752 756
3 756 383 381
3 383 756 760
3 760 385 383
3 385 760 764
3 764 387 385
3 387 764 768
3 768 389 387
3 389 768 772
3 772 391 389
3 391 772 776
3 776 393 391
3 393 776 780
3 780 395 393
3 395 780 784
3 784 397 395
3 397 784 788
3 788 399 397
3 399 788 792
3 792 401 399
3 401 792 796
3 796 403 401
3 403 796 800
3 800 405 403
3 405 800 805
3 805 407 405
3 407 805 809
3 809 409 407
3 409 809 813
3 813 411 409
3 411 813 817
3 817 413 411
3 413 817 821
3 821 415 413
3 415 821 825
3 825 417 415
3 417 825 829
3 829 419 417
3 419 829 833
3 833 421 419
3 421 833 837
3 837 423 421
3 423 837 841
3 841 425 423
3 425 841 846
3 846 427 425
3 427 846 850
3 850 429 427
3 429 850 854
3 854 431 429
3 431 854 858
3 858 433 431
3 433 858 862
3 862 435 433
3 435 862 866
3 866 437 435
3 437 866 870
3 870 439 437
3 439 870 874
3 874 441 439
3 441 874 878
3 878 443 441
3 443 878 882
3 882 445 443
3 445 882 886
3 886 447 445
3 447 886 890
3 890 449 447
3 449 890 894
3 894 451 449
3 451 894 898
3 898 453 451
3 453 898 902
3 902 455 453
3 455 902 906
3 906 457 455
3 457 906 911
3 911 459 457
3 459 911 915
3 915 461 459
3 461 915 919
3 919 463 461
3 463 919 923
3 923 465 463
3 465 923 927
3 927 467 465
3 467 927 931
3 931 469 467
3 469 931 935
3 935 471 469
3 471 935 939
3 939 473 471
3 473 939 943
3 943 475 473
3 475 943 948
3 948 477 475
3 477 948 952
3 952 479 477
3 479 952 956
3 956 481 479
3 481 956 960
3 960 483 481
3 483 960 964
3 964 485 483
3 485 964 968
3 968 487 485
3 487 968 972
3 972 489 487
3 489 972 976
3 976 491 489
3 491 976 980
3 980 493 491
3 493 980 984
3 984 495 493
3 495 984 988
3 988 497 495
3 497 988 992
3 992 499 497
3 499 992 996
3 996 501 499
3 501 996 1000
3 1000 503 501
3 503 1000 1004
3 1004 505 503
3 505 1004 1008
3 1008 507 505
3 507 1008 1013
3 1013 509 507
3 509 1013 1017
3 1017 511 509
3 511 1017 1021
3 1021 513 511
3 513 1021 1025
3 1025 515 513
3 515 1025 1029
3 1029 517 515
3 517 1029 1033
3 1033 519 517
3 519 1033 1037
3 1037 521 519
3 521 1037 1041
3 1041 523 521
3 523 1041 1045
3 1045 525 523
3 525 1045 1049
3 1049 527 525
3 527 1049 1054
3 1054 529 527
3 529 1054 1058
3 1058 531 529
3 531 1058 1062
3 1062 533 531
3 533 1062 1066
3 1066 535 533
3 535 1066 1070
3 1070 537 535
3 537 1070 1074
3 1074 539 537
3 539 1074 1078
3 1078 541 539
3 541 1078 1082
3 1082 543 541
3 543 1082 1086
3 1086 545 543
3 545 1086 1090
3 1090 547 545
3 547 1090 1094
3 1094 549 547
3 549 1094 1098
3 1098 551 549
3 551 1098 1102
3 1102 553 551
3 553 1102 1106
3 1106 555 553
3 555 1106 1110
3 1110 557 555
3 557 1110 1115
3 1115 559 557
3 559 1115 1119
3 1119 561 559
3 561 1119 1123
3 1123 563 561
3 563 1123 1127
3 1127 565 563
3 565 1127 1131
3 1131 567 565
3 567 1131 1135
3 1135 569 567
3 569 1135 1139
3 1139 571 569
3 571 1139 1143
3 1143 573 571
3 573 1143 1147
3 1147 575 573
3 575 1147 1151
3 1151 577 575
3 577 1151 1155
3 1155 579 577
3 579 1155 1159
3 1159 581 579
3 581 1159 1163
3 1163 583 581
3 583 1163 1167
3 1167 585 583
3 585 1167 1171
3 1171 587 585
3 587 1171 1175
3 1175 589 587
3 589 1175 1179
3 1179 591 589
3 591 1179 1183
3 1183 593 591
3 593 1183 1187
3 1187 595 593
3 595 1187 1191
3 1191 597 595
3 597 1191 1195
3 1195 599 597
3 599 1195 1199
3 1199 601 599
3 601 1199 1203
3 1203 603 601
3 603 1203 1207
3 1207 605 603
3 605 1207 1211
3 1211 607 605
3 607 1211 1215
3 1215 609 607
3 609 1215 1219
3 1219 611 609
3 611 1219 1223
3 1223 613 611
3 613 1223 1227
3 1227 615 613
3 615 1227 1231
3 1231 617 615
3 617 1231 1234
3 1234 618 617
3 618 1234 1235
3 1235 619 618
3 619 1235 1233
3 1233 616 619
3 616 1233 1229
3 1229 614 616
3 614 1229 1225
3 1225 612 614
3 612 1225 1221
3 1221 610 612
3 610 1221 1217
3 1217 608 610
3 608 1217 1213
3 1213 606 608
3 606 1213 1209
3 1209 604 606
3 604 1209 1205
3 1205 602 604
3 602 1205 1201
3 1201 600 602
3 600 1201 1197
3 1197 598 600
3 598 1197 1193
3 1193 596 598
3 596 1193 1189
3 1189 594 596
3 594 1189 1185
3 1185 592 594
3 592 1185 1181
3 1181 590 592
3 590 1181 1177
3 1177 588 590
3 588 1177 1173
3 1173 586 588
3 586 1173 1169
3 1169 584 586
3 584 1169 1165
3 1165 582 584
3 582 1165 1161
3 1161 580 582
3 580 1161 1157
3 1157 578 580
3 578 1157 1153
3 1153 576 578
3 576 1153 1149
3 1149 574 576
3 574 1149 1145
3 1145 572 574
3 572 1145 1141
3 1141 570 572
3 570 1141 1137
3 1137 568 570
3 568 1137 1133
3 1133 566 568
3 566 1133 1129
3 1129 564 566
3 564 1129 1125
3 1125 562 564
3 562 1125 1121
3 1121 560 562
3 560 1121 1117
3 1117 558 560
3 558 1117 1113
3 1113 556 558
3 556 1113 1108
3 1108 554 556
3 554 1108 1104
3 1104 552 554
3 552 1104 1100
3 1100 550 552
3 550 1100 1096
3 1096 548 550
3 548 1096 1092
3 1092 546 548
3 546 1092 1088
3 1088 544 546
3 544 1088 1084
3 1084 542 544
3 542 1084 1080
3 1080 540 542
3 540 1080 1076
3 1076 538 540
3 538 1076 1072
3 1072 536 538
3 536 1072 1068
3 1068 534 536
3 534 1068 1064
3 1064 532 534
3 532 1064 1060
3 1060 530 532
3 530 1060 1056
3 1056 528 530
3 528 1056 1051
3 1051 526 528
3 526 1051 1047
3 1047 524 526
3 524 1047 1043
3 1043 522 524
3 522 1043 1039
3 1039 520 522
3 520 1039 1035
3 1035 518 520
3 518 1035 1031
3 1031 516 518
3 516 1031 1027
3 1027 514 516
3 514 1027 1023
3 1023 512 514
3 512 1023 1019
3 1019 510 512
3 510 1019 1015
3 1015 508 510
3 508 1015 1011
3 1011 506 508
3 506 1011 1006
3 1006 504 506
3 504 1006 1002
3 1002 502 504
3 502 1002 998
3 998 500 502
3 500 998 994
3 994 498 500
3 498 994 990
3 990 496 498
3 496 990 986
3 986 494 496
3 494 986 982
3 982 492 494
3 492 982 978
3 978 490 492
3 490 978 974
3 974 488 490
3 488 974 970
3 970 486 488
3 486 970 966
3 966 484 486
3 484 966 962
3 962 482 484
3 482 962 958
3 958 480 482
3 480 958 954
3 954 478 480
3 478 954 950
3 950 476 478
3 476 950 945
3 945 474 476
3 474 945 941
3 941 472 474
3 472 941 937
3 937 470 472
3 470 937 933
3 933 468 470
3 468 933 929
3 929 466 468
3 466 929 925
3 925 464 466
3 464 925 921
3 921 462 464
3 462 921 917
3 917 460 462
3 460 917 913
3 913 458 460
3 458 913 909
3 909 456 458
3 456 909 904
3 904 454 456
3 454 904 900
3 900 452 454
3 452 900 896
3 896 450 452
3 450 896 892
3 892 448 450
3 448 892 888
3 888 446 448
3 446 888 884
3 884 444 446
3 444 884 880
3 880 442 444
3 442 880 876
3 876 440 442
3 440 876 872
3 872 438 440
3 438 872 868
3 868 436 438
3 436 868 864
3 864 434 436
3 434 864 860
3 860 432 434
3 432 860 856
3 856 430 432
3 430 856 852
3 852 428 430
3 428 852 848
3 848 426 428
3 426 848 843
3 843 424 426
3 424 843 839
3 839 422 424
3 422 839 835
3 835 420 422
3 420 835 831
3 831 418 420
3 418 831 827
3 827 416 418
3 416 827 823
3 823 414 416
3 414 823 819
3 819 412 414
3 412 819 815
3 815 410 412
3 410 815 811
3 811 408 410
3 408 811 807
3 807 406 408
3 406 807 803
3 803 404 406
3 404 803 798
3 798 402 404
3 402 798 794
3 794 400 402
3 400 794 790
3 790 398 400
3 398 790 786
3 786 396 398
3 396 786 782
3 782 394 396
3 394 782 778
3 778 392 394
3 392 778 774
3 774 390 392
3 390 774 770
3 770 388 390
3 388 770 766
3 766 386 388
3 386 766 762
3 762 384 386
3 384 762 758
3 758 382 384
3 382 758 754
3 754 380 382
3 380 754 750
3 750 378 380
3 378 750 746
3 746 376 378
3 376 746 742
3 742 374 376
3 374 742 737
3 737 372 374
3 372 737 733
3 733 370 372
3 370 733 729
3 729 368 370
3 368 729 725
3 725 366 368
3 366 725 721
3 721 364 366
3 364 721 717
3 717 362 364
3 362 717 713
3 713 360 362
3 360 713 709
3 709 358 360
3 358 709 705
3 705 356 358
3 356 705 701
3 701 354 356
3 354 701 696
3 696 352 354
3 352 696 692
3 692 350 352
3 350 692 688
3 688 348 350
3 348 688 684
3 684 346 348
3 346 684 680
3 680 344 346
3 344 680 676
3 676 342 344
3 342 676 672
3 672 340 342
3 340 672 668
3 668 338 340
3 338 668 664
3 664 336 338
3 336 664 660
3 660 334 336
3 334 660 656
3 656 332 334
3 332 656 652
3 652 330 332
3 330 652 648
3 648 328 330
3 328 648 644
3 644 326 328
3 326 644 640
3 640 324 326
3 324 640 635
3 635 322 324
3 322 635 631
3 631 320 322
3 320 631 627
3 627 318 320
3 318 627 623
3 623 1 318
3 1 623 621
3 624 623 627
3 627 628 624
3 4 624 628
3 628 6 4
3 6 628 632
3 632 8 6
3 8 632 636
3 636 9 8
3 9 636 637
3 637 11 9
3 11 637 641
3 641 13 11
3 13 641 645
3 645 15 13
3 15 645 649
3 649 17 15
3 17 649 653
3 653 19 17
3 19 653 657
3 657 21 19
3 21 657 661
3 661 23 21
3 23 661 665
3 665 25 23
3 25 665 669
3 669 27 25
3 27 669 673
3 673 29 27
3 29 673 677
3 677 31 29
3 31 677 681
3 681 33 31
3 33 681 685
3 685 35 33
3 35 685 689
3 689 37 35
3 37 689 693
3 693 39 37
3 39 693 697
3 697 42 39
3 42 697 702
3 702 44 42
3 44 702 706
3 706 46 44
3 46 706 710
3 710 48 46
3 48 710 714
3 714 50 48
3 50 714 718
3 718 52 50
3 52 718 722
3 722 54 52
3 54 722 726
3 726 56 54
3 56 726 730
3 730 58 56
3 58 730 734
3 734 60 58
3 60 734 738
3 738 62 60
3 62 738 741
3 741 63 62
3 63 741 743
3 743 65 63
3 65 743 747
3 747 67 65
3 67 747 751
3 751 69 67
3 69 751 755
3 755 71 69
3 71 755 759
3 759 73 71
3 73 759 763
3 763 75 73
3 75 763 767
3 767 77 75
3 77 767 771
3 771 79 77
3 79 771 775
3 775 81 79
3 81 775 779
3 779 83 81
3 83 779 783
3 783 85 83
3 85 783 787
3 787 87 85
3 87 787 791
3 791 89 87
3 89 791 795
3 795 91 89
3 91 795 799
3 799 94 91
3 94 799 804
3 804 96 94
3 96 804 808
3 808 98 96
3 98 808 812
3 812 100 98
3 100 812 816
3 816 102 100
3 102 816 820
3 820 104 102
3 104 820 824
3 824 106 104
3 106 824 828
3 828 108 106
3 108 828 832
3 832 110 108
3 110 832 836
3 836 112 110
3 112 836 840
3 840 114 112
3 114 840 844
3 844 115 114
3 115 844 845
3 845 117 115
3 117 845 849
3 849 119 117
3 119 849 853
3 853 121 119
3 121 853 857
3 857 123 121
3 123 857 861
3 861 125 123
3 125 861 865
3 865 127 125
3 127 865 869
3 869 129 127
3 129 869 873
3 873 131 129
3 131 873 877
3 877 133 131
3 133 877 881
3 881 135 133
3 135 881 885
3 885 137 135
3 137 885 889
3 889 139 137
3 139 889 893
3 893 141 139
3 141 893 897
3 897 143 141
3 143 897 901
3 901 145 143
3 145 901 905
3 905 148 145
3 148 905 910
3 910 150 148
3 150 910 914
3 914 152 150
3 152 914 918
3 918 154 152
3 154 918 922
3 922 156 154
3 156 922 926
3 926 158 156
3 158 926 930
3 930 160 158
3 160 930 934
3 934 162 160
3 162 934 938
3 938 164 162
3 164 938 942
3 942 166 164
3 166 942 946
3 946 167 166
3 167 946 947
3 947 169 167
3 169 947 951
3 951 171 169
3 171 951 955
3 955 173 171
3 173 955 959
3 959 175 173
3 175 959 963
3 963 177 175
3 177 963 967
3 967 179 177
3 179 967 971
3 971 181 179
3 181 971 975
3 975 183 181
3 183 975 979
3 979 185 183
3 185 979 983
3 983 187 185
3 187 983 987
3 987 189 187
3 189 987 991
3 991 191 189
3 191 991 995
3 995 193 191
3 193 995 999
3 999 195 193
3 195 999 1003
3 1003 197 195
3 197 1003 1007
3 1007 200 197
3 200 1007 1012
3 1012 202 200
3 202 1012 1016
3 1016 204 202
3 204 1016 1020
3 1020 206 204
3 206 1020 1024
3 1024 208 206
3 208 1024 1028
3 1028 210 208
3 210 1028 1032
3 1032 212 210
3 212 1032 1036
3 1036 214 212
3 214 1036 1040
3 1040 216 214
3 216 1040 1044
3 1044 218 216
3 218 1044 1048
3 1048 220 218
3 220 1048 1052
3 1052 222 220
3 222 1052 1053
3 1053 224 222
3 224 1053 1057
3 1057 226 224
3 226 1057 1061
3 1061 228 226
3 228 1061 1065
3 1065 230 228
3 230 1065 1069
3 1069 232 230
3 232 1069 1073
3 1073 234 232
3 234 1073 1077
3 1077 236 234
3 236 1077 1081
3 1081 238 236
3 238 1081 1085
3 1085 240 238
3 240 1085 1089
3 1089 242 240
3 242 1089 1093
3 1093 244 242
3 244 1093 1097
3 1097 246 244
3 246 1097 1101
3 1101 248 246
3 248 1101 1105
3 1105 250 248
3 250 1105 1109
3 1109 252 250
3 252 1109 1114
3 1114 254 252
3 254 1114 1118
3 1118 256 254
3 256 1118 1122
3 1122 258 256
3 258 1122 1126
3 1126 260 258
3 260 1126 1130
3 1130 262 260
3 262 1130 1134
3 1134 264 262
3 264 1134 1138
3 1138 266 264
3 266 1138 1142
3 1142 268 266
3 268 1142 1146
3 1146 270 268
3 270 1146 1150
3 1150 272 270
3 272 1150 1154
3 1154 274 272
3 274 1154 1158
3 1158 276 274
3 276 1158 1162
3 1162 278 276
3 278 1162 1166
3 1166 280 278
3 280 1166 1170
3 1170 282 280
3 282 1170 1174
3 1174 284 282
3 284 1174 1178
3 1178 286 284
3 286 1178 1182
3 1182 288 286
3 288 1182 1186
3 1186 290 288
3 290 1186 1190
3 1190 292 290
3 292 1190 1194
3 1194 294 292
3 294 1194 1198
3 1198 296 294
3 296 1198 1202
3 1202 298 296
3 298 1202 1206
3 1206 300 298
3 300 1206 1210
3 1210 302 300
3 302 1210 1214
3 1214 304 302
3 304 1214 1218
3 1218 306 304
3 306 1218 1222
3 1222 308 306
3 308 1222 1226
3 1226 310 308
3 310 1226 1230
3 1230 312 310
3 312 1230 1236
3 1236 314 312
3 314 1236 1238
3 1238 316 314
3 316 1238 1239
3 1239 315 316
3 315 1239 1237
3 1237 313 315
3 313 1237 1232
3 1232 311 313
3 311 1232 1228
3 1228 309 311
3 309 1228 1224
3 1224 307 309
3 307 1224 1220
3 1220 305 307
3 305 1220 1216
3 1216 303 305
3 303 1216 1212
3 1212 301 303
3 301 1212 1208
3 1208 299 301
3 299 1208 1204
3 1204 297 299
3 297 1204 1200
3 1200 295 297
3 295 1200 1196
3 1196 293 295
3 293 1196 1192
3 1192 291 293
3 291 1192 1188
3 1188 289 291
3 289 1188 1184
3 1184 287 289
3 287 1184 1180
3 1180 285 287
3 285 1180 1176
3 1176 283 285
3 283 1176 1172
3 1172 281 283
3 281 1172 1168
3 1168 279 281
3 279 1168 1164
3 1164 277 279
3 277 1164 1160
3 1160 275 277
3 275 1160 1156
3 1156 273 275
3 273 1156 1152
3 1152 271 273
3 271 1152 1148
3 1148 269 271
3 269 1148 1144
3 1144 267 269
3 267 1144 1140
3 1140 265 267
3 265 1140 1136
3 1136 263 265
3 263 1136 1132
3 1132 261 263
3 261 1132 1128
3 1128 259 261
3 259 1128 1124
3 1124 257 259
3 257 1124 1120
3 1120 255 257
3 255 1120 1116
3 1116 253 255
3 253 1116 1112
3 1112 251 253
3 251 1112 1111
3 1111 249 251
3 249 1111 1107
3 1107 247 249
3 247 1107 1103
3 1103 245 247
3 245 1103 1099
3 1099 243 245
3 243 1099 1095
3 1095 241 243
3 241 1095 1091
3 1091 239 241
3 239 1091 1087
3 1087 237 239
3 237 1087 1083
3 1083 235 237
3 235 1083 1079
3 1079 233 235
3 233 1079 1075
3 1075 231 233
3 231 1075 1071
3 1071 229 231
3 229 1071 1067
3 1067 227 229
3 227 1067 1063
3 1063 225 227
3 225 1063 1059
3 1059 223 225
3 223 1059 1055
3 1055 221 223
3 221 1055 1050
3 1050 219 221
3 219 1050 1046
3 1046 217 219
3 217 1046 1042
3 1042 215 217
3 215 1042 1038
3 1038 213 215
3 213 1038 1034
3 1034 211 213
3 211 1034 1030
3 1030 209 211
3 209 1030 1026
3 1026 207 209
3 207 1026 1022
3 1022 205 207
3 205 1022 1018
3 1018 203 205
3 203 1018 1014
3 1014 201 203
3 201 1014 1010
3 1010 199 201
3 199 1010 1009
3 1009 198 199
3 198 1009 1005
3 1005 196 198
3 196 1005 1001
3 1001 194 196
3 194 1001 997
3 997 192 194
3 192 997 993
3 993 190 192
3 190 993 989
3 989 188 190
3 188 989 985
3 985 186 188
3 186 985 981
3 981 184 186
3 184 981 977
3 977 182 184
3 182 977 973
3 973 180 182
3 180 973 969
3 969 178 180
3 178 969 965
3 965 176 178
3 176 965 961
3 961 174 176
3 174 961 957
3 957 172 174
3 172 957 953
3 953 170 172
3 170 953 949
3 949 168 170
3 168 949 944
3 944 165 168
3 165 944 940
3 940 163 165
3 163 940 936
3 936 161 163
3 161 936 932
3 932 159 161
3 159 932 928
3 928 157 159
3 157 928 924
3 924 155 157
3 155 924 920
3 920 153 155
3 153 920 916
3 916 151 153
3 151 916 912
3 912 149 151
3 149 912 908
3 908 147 149
3 147 908 907
3 907 146 147
3 146 907 903
3 903 144 146
3 144 903 899
3 899 142 144
3 142 899 895
3 895 140 142
3 140 895 891
3 891 138 140
3 138 891 887
3 887 136 138
3 136 887 883
3 883 134 136
3 134 883 879
3 879 132 134
3 132 879 875
3 875 130 132
3 130 875 871
3 871 128 130
3 128 871 867
3 867 126 128
3 126 867 863
3 863 124 126
3 124 863 859
3 859 122 124
3 122 859 855
3 855 120 122
3 120 855 851
3 851 118 120
3 118 851 847
3 847 116 118
3 116 847 842
3 842 113 116
3 113 842 838
3 838 111 113
3 111 838 834
3 834 109 111
3 109 834 830
3 830 107 109
3 107 830 826
3 826 105 107
3 105 826 822
3 822 103 105
3 103 822 818
3 818 101 103
3 101 818 814
3 814 99 101
3 99 814 810
3 810 97 99
3 97 810 806
3 806 95 97
3 95 806 802
3 802 93 95
3 93 802 801
3 801 92 93
3 92 801 797
3 797 90 92
3 90 797 793
3 793 88 90
3 88 793 789
3 789 86 88
3 86 789 785
3 785 84 86
3 84 785 781
3 781 82 84
3 82 781 777
3 777 80 82
3 80 777 773
3 773 78 80
3 78 773 769
3 769 76 78
3 76 769 765
3 765 74 76
3 74 765 761
3 761 72 74
3 72 761 757
3 757 70 72
3 70 757 753
3 753 68 70
3 68 753 749
3 749 66 68
3 66 749 745
3 745 64 66
3 64 745 740
3 740 61 64
3 61 740 736
3 736 59 61
3 59 736 732
3 732 57 59
3 57 732 728
3 728 55 57
3 55 728 724
3 724 53 55
3 53 724 720
3 720 51 53
3 51 720 716
3 716 49 51
3 49 716 712
3 712 47 49
3 47 712 708
3 708 45 47
3 45 708 704
3 704 43 45
3 43 704 700
3 700 41 43
3 41 700 699
3 699 40 41
3 40 699 695
3 695 38 40
3 38 695 691
3 691 36 38
3 36 691 687
3 687 34 36
3 34 687 683
3 683 32 34
3 32 683 679
3 679 30 32
3 30 679 675
3 675 28 30
3 28 675 671
3 671 26 28
3 26 671 667
3 667 24 26
3 24 667 663
3 663 22 24
3 22 663 659
3 659 20 22
3 20 659 655
3 655 18 20
3 18 655 651
3 651 16 18
3 16 651 647
3 647 14 16
3 14 647 643
3 643 12 14
3 12 643 639
3 639 10 12
3 10 639 634
3 634 7 10
3 7 634 630
3 630 5 7
3 5 630 626
3 626 3 5
3 3 626 622
3 629 626 630
3 633 630 634
3 638 634 639
3 642 639 643
3 646 643 647
3 650 647 651
3 654 651 655
3 658 655 659
3 662 659 663
3 666 663 667
3 670 667 671
3 674 671 675
3 678 675 679
3 682 679 683
3 686 683 687
3 690 687 691
3 694 691 695
3 698 695 699
3 700 703 699
3 700 704 703
3 707 704 708
3 711 708 712
3 715 712 716
3 719 716 720
3 723 720 724
3 727 724 728
3 731 728 732
3 735 732 736
3 739 736 740
3 744 740 745
3 748 745 749
3 752 749 753
3 756 753 757
3 760 757 761
3 764 761 765
3 768 765 769
3 772 769 773
3 776 773 777
3 780 777 781
3 784 781 785
3 788 785 789
3 792 789 793
3 796 793 797
3 800 797 801
3 802 805 801
3 802 806 805
3 809 806 810
3 813 810 814
3 817 814 818
3 821 818 822
3 825 822 826
3 829 826 830
3 833 830 834
3 837 834 838
3 841 838 842
3 846 842 847
3 850 847 851
3 854 851 855
3 858 855 859
3 862 859 863
3 866 863 867
3 870 867 871
3 874 871 875
3 878 875 879
3 882 879 883
3 886 883 887
3 890 887 891
3 894 891 895
3 898 895 899
3 902 899 903
3 906 903 907
3 908 911 907
3 908 912 911
3 915 912 916
3 919 916 920
3 923 920 924
3 927 924 928
3 931 928 932
3 935 932 936
3 939 936 940
3 943 940 944
3 948 944 949
3 952 949 953
3 956 953 957
3 960 957 961
3 964 961 965
3 968 965 969
3 972 969 973
3 976 973 977
3 980 977 981
3 984 981 985
3 988 985 989
3 992 989 993
3 996 993 997
3 1000 997 1001
3 1004 1001 1005
3 1008 1005 1009
3 1010 1013 1009
3 1010 1014 1013
3 1017 1014 1018
3 1021 1018 1022
3 1025 1022 1026
3 1029 1026 1030
3 1033 1030 1034
3 1037 1034 1038
3 1041 1038 1042
3 1045 1042 1046
3 1049 1046 1050
3 1054 1050 1055
3 1058 1055 1059
3 1062 1059 1063
3 1066 1063 1067
3 1070 1067 1071
3 1074 1071 1075
3 1078 1075 1079
3 1082 1079 1083
3 1086 1083 1087
3 1090 1087 1091
3 1094 1091 1095
3 1098 1095 1099
3 1102 1099 1103
3 1106 1103 1107
3 1110 1107 1111
3 1112 1115 1111
3 1112 1116 1115
3 1119 1116 1120
3 1123 1120 1124
3 1127 1124 1128
3 1131 1128 1132
3 1135 1132 1136
3 1139 1136 1140
3 1143 1140 1144
3 1147 1144 1148
3 1151 1148 1152
3 1155 1152 1156
3 1159 1156 1160
3 1163 1160 1164
3 1167 1164 1168
3 1171 1168 1172
3 1175 1172 1176
3 1179 1176 1180
3 1183 1180 1184
3 1187 1184 1188
3 1191 1188 1192
3 1195 1192 1196
3 1199 1196 1200
3 1203 1200 1204
3 1207 1204 1208
3 1211 1208 1212
3 1215 1212 1216
3 1220 1219 1216
3 1220 1224 1219
3 1223 1224 1228
3 1227 1228 1232
3 1231 1232 1237
3 1234 1237 1239
3 1235 1239 1238
3 1233 1238 1236
3 1229 1236 1230
3 1225 1230 1226
3 1221 1226 1222
3 1217 1222 1218
3 1213 1218 1214
3 1209 1214 1210
3 1205 1210 1206
3 1201 1206 1202
3 1197 1202 1198
3 1193 1198 1194
3 1189 1194 1190
3 1185 1190 1186
3 1181 1186 1182
3 1177 1182 1178
3 1173 1178 1174
3 1169 1174 1170
3 1165 1170 1166
3 1161 1166 1162
3 1158 1157 1162
3 1158 1154 1157
3 1153 1154 1150
3 1149 1150 1146
3 1145 1146 1142
3 1141 1142 1138
3 1137 1138 1134
3 1133 1134 1130
3 1129 1130 1126
3 1125 1126 1122
3 1121 1122 1118
3 1117 1118 1114
3 1113 1114 1109
3 1108 1109 1105
3 1104 1105 1101
3 1100 1101 1097
3 1096 1097 1093
3 1092 1093 1089
3 1088 1089 1085
3 1084 1085 1081
3 1080 1081 1077
3 1076 1077 1073
3 1072 1073 1069
3 1068 1069 1065
3 1064 1065 1061
3 1060 1061 1057
3 1053 1056 1057
3 1053 1052 1056
3 1051 1052 1048
3 1047 1048 1044
3 1043 1044 1040
3 1039 1040 1036
3 1035 1036 1032
3 1031 1032 1028
3 1027 1028 1024
3 1023 1024 1020
3 1019 1020 1016
3 1015 1016 1012
3 1011 1012 1007
3 1006 1007 1003
3 1002 1003 999
3 998 999 995
3 994 995 991
3 990 991 987
3 986 987 983
3 982 983 979
3 978 979 975
3 974 975 971
3 970 971 967
3 966 967 963
3 962 963 959
3 958 959 955
3 954 955 951
3 947 950 951
3 947 946 950
3 945 946 942
3 941 942 938
3 937 938 934
3 933 934 930
3 929 930 926
3 925 926 922
3 921 922 918
3 917 918 914
3 913 914 910
3 909 910 905
3 904 905 901
3 900 901 897
3 896 897 893
3 892 893 889
3 888 889 885
3 884 885 881
3 880 881 877
3 876 877 873
3 872 873 869
3 868 869 865
3 864 865 861
3 860 861 857
3 856 857 853
3 852 853 849
3 845 848 849
3 845 844 848
3 844 840 843
3 839 840 836
3 835 836 832
3 831 832 828
3 827 828 824
3 823 824 820
3 819 820 816
3 815 816 812
3 811 812 808
3 807 808 804
3 803 804 799
3 798 799 795
3 794 795 791
3 790 791 787
3 786 787 783
3 782 783 779
3 778 779 775
3 774 775 771
3 770 771 767
3 766 767 763
3 762 763 759
3 758 759 755
3 754 755 751
3 750 751 747
3 743 746 747
3 743 741 746
3 742 741 738
3 737 738 734
3 733 734 730
3 729 730 726
3 725 726 722
3 721 722 718
3 717 718 714
3 713 714 710
3 709 710 706
3 705 706 702
3 701 702 697
3 696 697 693
3 692 693 689
3 688 689 685
3 684 685 681
3 680 681 677
3 676 677 673
3 672 673 669
3 668 669 665
3 664 665 661
3 660 661 657
3 656 657 653
3 652 653 649
3 648 649 645
3 644 645 641
3 637 640 641
3 637 636 640
3 635 636 632
3 631 632 628
3 624 4 2
3 623 624 620
3 628 627 631
3 632 631 635
3 636 635 640
3 641 640 644
3 645 644 648
3 649 648 652
3 653 652 656
3 657 656 660
3 661 660 664
3 665 664 668
3 669 668 672
3 673 672 676
3 677 676 680
3 681 680 684
3 685 684 688
3 689 688 692
3 693 692 696
3 697 696 701
3 702 701 705
3 706 705 709
3 710 709 713
3 714 713 717
3 718 717 721
3 722 721 725
3 726 725 729
3 730 729 733
3 734 733 737
3 738 737 742
3 741 742 746
3 747 746 750
3 751 750 754
3 755 754 758
3 759 758 762
3 763 762 766
3 767 766 770
3 771 770 774
3 775 774 778
3 779 778 782
3 783 782 786
3 787 786 790
3 791 790 794
3 795 794 798
3 799 798 803
3 804 803 807
3 808 807 811
3 812 811 815
3 816 815 819
3 820 819 823
3 824 823 827
3 828 827 831
3 832 831 835
3 836 835 839
3 840 839 843
3 844 843 848
3 849 848 852
3 853 852 856
3 857 856 860
3 861 860 864
3 865 864 868
3 869 868 872
3 873 872 876
3 877 876 880
3 881 880 884
3 885 884 888
3 889 888 892
3 893 892 896
3 897 896 900
3 901 900 904
3 905 904 909
3 910 909 913
3 914 913 917
3 918 917 921
3 922 921 925
3 926 925 929
3 930 929 933
3 934 933 937
3 938 937 941
3 942 941 945
3 946 945 950
3 951 950 954
3 955 954 958
3 959 958 962
3 963 962 966
3 967 966 970
3 971 970 974
3 975 974 978
3 979 978 982
3 983 982 986
3 987 986 990
3 991 990 994
3 995 994 998
3 999 998 1002
3 1003 1002 1006
3 1007 1006 1011
3 1012 1011 1015
3 1016 1015 1019
3 1020 1019 1023
3 1024 1023 1027
3 1028 1027 1031
3 1032 1031 1035
3 1036 1035 1039
3 1040 1039 1043
3 1044 1043 1047
3 1048 1047 1051
3 1052 1051 1056
3 1057 1056 1060
3 1061 1060 1064
3 1065 1064 1068
3 1069 1068 1072
3 1073 1072 1076
3 1077 1076 1080
3 1081 1080 1084
3 1085 1084 1088
3 1089 1088 1092
3 1093 1092 1096
3 1097 1096 1100
3 1101 1100 1104
3 1105 1104 1108
3 1109 1108 1113
3 1114 1113 1117
3 1118 1117 1121
3 1122 1121 1125
3 1126 1125 1129
3 1130 1129 1133
3 1134 1133 1137
3 1138 1137 1141
3 1142 1141 1145
3 1146 1145 1149
3 1150 1149 1153
3 1154 1153 1157
3 1162 1157 1161
3 1166 1161 1165
3 1170 1165 1169
3 1174 1169 1173
3 1178 1173 1177
3 1182 1177 1181
3 1186 1181 1185
3 1190 1185 1189
3 1194 1189 1193
3 1198 1193 1197
3 1202 1197 1201
3 1206 1201 1205
3 1210 1205 1209
3 1214 1209 1213
3 1218 1213 1217
3 1222 1217 1221
3 1226 1221 1225
3 1230 1225 1229
3 1236 1229 1233
3 1238 1233 1235
3 1239 1235 1234
3 1237 1234 1231
3 1232 1231 1227
3 1228 1227 1223
3 1224 1223 1219
3 1216 1219 1215
3 1212 1215 1211
3 1208 1211 1207
3 1204 1207 1203
3 1200 1203 1199
3 1196 1199 1195
3 1192 1195 1191
3 1188 1191 1187
3 1184 1187 1183
3 1180 1183 1179
3 1176 1179 1175
3 1172 1175 1171
3 1168 1171 1167
3 1164 1167 1163
3 1160 1163 1159
3 1156 1159 1155
3 1152 1155 1151
3 1148 1151 1147
3 1144 1147 1143
3 1140 1143 1139
3 1136 1139 1135
3 1132 1135 1131
3 1128 1131 1127
3 1124 1127 1123
3 1120 1123 1119
3 1116 1119 1115
3 1111 1115 1110
3 1107 1110 1106
3 1103 1106 1102
3 1099 1102 1098
3 1095 1098 1094
3 1091 1094 1090
3 1087 1090 1086
3 1083 1086 1082
3 1079 1082 1078
3 1075 1078 1074
3 1071 1074 1070
3 1067 1070 1066
3 1063 1066 1062
3 1059 1062 1058
3 1055 1058 1054
3 1050 1054 1049
3 1046 1049 1045
3 1042 1045 1041
3 1038 1041 1037
3 1034 1037 1033
3 1030 1033 1029
3 1026 1029 1025
3 1022 1025 1021
3 1018 1021 1017
3 1014 1017 1013
3 1009 1013 1008
3 1005 1008 1004
3 1001 1004 1000
3 997 1000 996
3 993 996 992
3 989 992 988
3 985 988 984
3 981 984 980
3 977 980 976
3 973 976 972
3 969 972 968
3 965 968 964
3 961 964 960
3 957 960 956
3 953 956 952
3 949 952 948
3 944 948 943
3 940 943 939
3 936 939 935
3 932 935 931
3 928 931 927
3 924 927 923
3 920 923 919
3 916 919 915
3 912 915 911
3 907 911 906
3 903 906 902
3 899 902 898
3 895 898 894
3 891 894 890
3 887 890 886
3 883 886 882
3 879 882 878
3 875 878 874
3 871 874 870
3 867 870 866
3 863 866 862
3 859 862 858
3 855 858 854
3 851 854 850
3 847 850 846
3 842 846 841
3 838 841 837
3 834 837 833
3 830 833 829
3 826 829 825
3 822 825 821
3 818 821 817
3 814 817 813
3 810 813 809
3 806 809 805
3 801 805 800
3 797 800 796
3 793 796 792
3 789 792 788
3 785 788 784
3 781 784 780
3 777 780 776
3 773 776 772
3 769 772 768
3 765 768 764
3 761 764 760
3 757 760 756
3 753 756 752
3 749 752 748
3 745 748 744
3 740 744 739
3 736 739 735
3 732 735 731
3 728 731 727
3 724 727 723
3 720 723 719
3 716 719 715
3 712 715 711
3 708 711 707
3 704 707 703
3 699 703 698
3 695 698 694
3 691 694 690
3 687 690 686
3 683 686 682
3 679 682 678
3 675 678 674
3 671 674 670
3 667 670 666
3 663 666 662
3 659 662 658
3 655 658 654
3 651 654 650
3 647 650 646
3 643 646 642
3 639 642 638
3 634 638 633
3 630 633 629
3 626 629 625
3 621 317 1
3 625 622 626
3 620 621 623
3 622 0 3
3 2 620 624
CELL_TYPES 1860
9
9
9
9
9
9
9
9
9
9
9
9
9
9
9
9
9
9
9
9
9
9
9
9
9
9
9
9
9
9
9
9
9
9
9
9
9
9
9
9
9
9
9
9
9
9
9
9
9
9
9
9
9
9
9
9
9
9
9
9
9
9
9
9
9
9
9
9
9
9
9
9
9
9
9
9
9
9
9
9
9
9
9
9
9
9
9
9
9
9
9
9
9
9
9
9
9
9
9
9
9
9
9
9
9
9
9
9
9
9
9
9
9
9
9
9
9
9
9
9
9
9
9
9
9
9
9
9
9
9
9
9
9
9
9
9
9
9
9
9
9
9
9
9
9
9
9
9
9
9
9
9
9
9
9
9
9
9
9
9
9
9
9
9
9
9
9
9
9
9
9
9
9
9
9
9
9
9
9
9
9
9
9
9
9
9
9
9
9
9
9
9
9
9
9
9
9
9
9
9
9
9
9
9
9
9
9
9
9
9
9
9
9
9
9
9
9
9
9
9
9
9
9
9
9
9
9
9
9
9
9
9
9
9
9
9
9
9
9
9
9
9
9
9
9
9
9
9
9
9
9
9
9
9
9
9
9
9
9
9
9
9
9
9
9
9
9
9
9
9
9
9
9
9
9
9
9
9
9
9
9
9
9
9
9
9
9
9
9
9
9
9
9
9
9
9
9
9
9
9
9
9
9
9
9
9
9
9
9
9
9
9
9
9
9
9
9
9
9
9
9
9
9
9
9
9
9
9
9
9
9
9
9
9
9
9
9
9
9
9
9
9
9
9
9
9
9
9
9
9
9
9
9
9
9
9
9
9
9
9
9
9
9
9
9
9
9
9
9
9
9
9
9
9
9
9
9
9
9
9
9
9
9
9
9
9
9
9
9
9
9
9
9
9
9
9
9
9
9
9
9
9
9
9
9
9
9
9
9
9
9
9
9
9
9
9
9
9
9
9
9
9
9
9
9
9
9
9
9
9
9
9
9
9
9
9
9
9
9
9
9
9
9
9
9
9
9
9
9
9
9
9
9
9
9
9
9
9
9
9
9
9
9
9
9
9
9
9
9
9
9
9
9
9
9
9
9
9
9
9
9
9
9
9
9
9
9
9
9
9
9
9
9
9
9
9
9
9
9
9
9
9
9
9
9
9
9
9
9
9
9
9
9
9
9
9
9
9
9
9
9
9
9
9
9
9
9
9
9
9
9
9
9
9
9
9
9
9
9
9
9
9
9
9
9
9
9
9
9
9
9
9
9
9
9
9
9
9
9
9
9
9
9
9
9
9
9
9
9
9
9
9
9
9
9
9
9
9
9
9
9
9
9
9
9
9
9
9
9
9
9
9
9
9
9
9
9
9
9
9
9
9
9
9
9
9
9
9
9
9
9
9
9
9
9
9
9
9
9
9
9
9
9
9
9
9
9
9
9
9
9
9
9
9
9
9
9
9
9
9
9
9
9
9
9
9
9
9
9
9
9
9
9
9
9
9
9
9
9
9
9
9
9
9
9
9
9
9
9
9
9
9
9
9
9
9
9
9
9
9
9
9
9
9
9
9
9
9
9
9
9
9
9
9
9
9
9
9
9
9
9
9
9
9
9
9
9
9
9
9
9
9
9
9
9
9
9
9
9
9
9
9
9
9
9
9
9
9
9
9
9
9
9
9
9
9
9
9
9
9
9
9
9
9
9
9
9
9
9
9
9
9
9
9
9
9
9
9
9
9
9
9
9
9
9
9
9
9
9
9
9
9
9
9
9
9
9
9
9
9
9
9
9
9
9
9
9
9
9
9
9
9
9
9
9
9
9
9
9
9
9
9
9
9
9
9
9
9
9
9
9
9
9
9
9
9
9
9
9
9
9
9
9
9
9
9
9
9
9
9
9
9
9
9
9
9
9
9
9
9
9
9
9
9
9
9
9
9
9
9
9
9
9
9
9
9
9
9
9
9
9
9
9
9
9
9
9
9
9
9
9
9
9
9
9
9
9
9
9
9
9
9
9
9
9
9
9
9
9
9
9
9
9
9
9
9
9
9
9
9
9
9
9
9
9
9
9
9
9
9
9
9
9
9
9
9
9
9
9
9
9
9
9
9
9
9
9
9
9
9
9
9
9
9
9
9
9
9
9
9
9
9
9
9
9
9
9
9
9
9
9
9
9
9
9
9
9
9
9
9
9
9
9
9
9
9
9
9
9
9
9
9
9
9
9
9
9
9
9
9
9
9
9
9
9
9
9
9
9
9
9
9
9
9
9
9
9
9
9
9
9
9
9
9
9
9
9
9
9
9
9
9
9
9
9
9
9
9
9
9
9
9
9
9
9
9
9
9
9
9
9
9
9
9
9
9
9
9
9
9
9
9
9
9
9
9
9
9
9
9
9
9
9
9
9
9
9
9
9
9
9
9
9
9
9
9
9
9
9
9
9
9
9
9
9
9
9
9
9
9
9
9
9
9
9
9
9
9
9
9
9
9
9
9
9
9
9
9
9
9
9
9
9
9
9
9
9
9
9
9
9
9
9
9
9
9
9
9
9
9
9
9
9
9
9
9
9
9
9
9
9
9
9
9
9
9
9
9
9
9
9
9
9
9
9
9
9
9
9
9
9
9
9
9
9
9
9
9
9
9
9
9
9
9
9
9
9
9
9
9
9
9
9
9
9
9
9
9
9
9
9
9
9
9
9
9
9
9
9
9
9
9
9
9
9
9
9
9
9
9
9
9
9
9
9
9
9
9
9
9
9
9
9
9
9
9
9
9
9
9
9
9
9
9
9
9
9
9
9
9
9
9
9
9
9
9
9
9
9
9
9
9
9
9
9
9
9
9
9
9
9
9
9
9
9
9
9
9
9
9
9
9
9
9
9
9
9
9
9
9
9
9
9
9
9
9
9
9
9
9
9
9
9
9
9
9
9
9
9
9
9
9
9
9
9
9
9
9
9
9
9
9
9
9
9
9
9
9
9
9
9
9
9
9
9
9
9
9
9
9
9
9
9
9
9
9
9
9
9
9
9
9
9
9
9
9
9
9
9
9
9
9
9
9
9
9
9
9
9
9
9
9
9
9
9
9
9
9
9
9
9
9
9
9
9
9
9
9
9
9
9
9
9
9
9
9
9
9
9
9
9
9
9
9
9
9
9
9
9
9
9
9
9
9
9
9
9
9
9
9
9
9
9
9
9
9
9
9
9
9
9
9
9
9
9
9
9
9
9
9
9
9
9
9
9
9
9
9
9
9
9
9
9
9
9
9
9
9
9
9
9
9
9
9
9
9
9
9
9
9
9
9
9
9
9
9
9
9
9
9
9
9
9
9
9
9
9
9
9
9
9
9
9
9
9
9
9
9
9
9
9
9
9
9
9
9
9
9
9
9
9
9
9
9
9
9
9
9
9
9
9
9
9
9
9
9
9
9
9
9
9
9
9
9
9
9
9
9
9
9
9
9
9
9
9
9
9
9
9
9
9
9
9
9
9
9
9
9
9
9
9
9
9
9
9
9
9
9
9
9
9
9
9
9
9
9
9
9
9
9
9
9
9
9
9
9
9
9
9
9
9
9
9
9
9
9
9
9
9
9
9
9
9
9
9
9
9
9
9
9
9
9
9
9
9
9
9
9
9
9
9
9
9
9
9
9
9
9
9
9
9
9
9
9
9
9
9
9
9
9
9
9
9
9
9
9
9
9
9
9
9
9
9
9
9
9
9
9
9
9
9
9
9
9
9
9
9
9
9
9
9
9
9
9
9
9
9
9
9
9
9
9
9
9
9
9
9
9
9
9
9
9
9
9
9
9
9
9
9
9
9
9
9
9
9
9
9
9
9
9
9
9
9
9
9
9
9
9
9
9
9
9
9
9
9
9
9
9
9
9
9
9
9
9
9
9
9
9
9
9
9
9
9
9
9
9
9
9
9
9
9
9
9
9
9
9
9
9
9
9
9
9
9
9
9
9
9
9
9
9
9
9
9
9
9
9
9
9
9
9
9
9
9
9
9
9
9
9
9
9
9
9
9
9
9
9
9
9
9
9
9
9
9
9
9
9
9
9
9
9
9
9
9
9
9
9
9
9
9
9
9
9
9
9
9
9
9
9
9
9
9
9
9
9
9
9
9
9
9
9
9
9
9
9
9
9
9
9
9
9
9
9
9
9
9
9
9
9
9
9
9
9
9
9
9
9
9
9
9
9
9
9
9
9
9
9
9
9
9
9
POINT_DATA 1240
SCALARS u1 float
LOOKUP_TABLE default
-2e-06
-2e-06
-2e-06
-2e-06
-2e-06
-2e-06
-2e-06
-2e-06
-1e-06
-1e-06
-2e-06
-1e-06
-2e-06
-2e-06
-3e-06
-2e-06
-3e-06
-2e-06
-3e-06
-2e-06
-2e-06
-2e-06
-2e-06
-2e-06
-2e-06
-2e-06
-2e-06
-2e-06
-2e-06
-3e-06
-2e-06
-3e-06
-1e-06
-3e-06
-1e-06
-3e-06
-1e-06
-4e-06
-1e-06
-4e-06
-9e-07
-8e-07
-4e-06
-7e-07
-5e-06
-7e-07
-5e-06
-7e-07
-6e-06
-7e-07
-6e-06
-7e-07
-6e-06
-7e-07
-6e-06
-7e-07
-6e-06
-7e-07
-7e-06
-7e-07
-7e-06
-7e-07
-7e-06
-7e-06
-7e-07
-7e-06
-8e-07
-7e-06
-9e-07
-6e-06
-9e-07
-6e-06
-1e-06
-6e-06
-1e-06
-6e-06
-1e-06
-5e-06
-1e-06
-5e-06
-1e-06
-5e-06
-1e-06
-4e-06
-1e-06
-4e-06
-1e-06
-4e-06
-9e-07
-3e-06
-9e-07
-3e-06
-8e-07
-7e-07
-3e-06
-6e-07
-2e-06
-5e-07
-2e-06
-4e-07
-2e-06
-3e-07
-2e-06
-2e-07
-2e-06
-2e-07
-2e-06
-8e-08
-2e-06
-2e-08
-2e-06
3e-08
-2e-06
6e-08
-2e-06
-2e-06
7e-08
-2e-06
6e-08
-2e-06
3e-08
-2e-06
-1e-08
-2e-06
-7e-08
-2e-06
-1e-07
-2e-06
-2e-07
-3e-06
-3e-07
-3e-06
-3e-07
-3e-06
-4e-07
-3e-06
-4e-07
-3e-06
-4e-07
-3e-06
-4e-07
-3e-06
-4e-07
-3e-06
-4e-07
-3e-06
-4e-07
-4e-07
-2e-06
-4e-07
-2e-06
-4e-07
-2e-06
-3e-07
-2e-06
-2e-07
-2e-06
-2e-07
-2e-06
-3e-08
-1e-06
1e-07
-1e-06
3e-07
-1e-06
5e-07
-1e-06
-1e-06
7e-07
-1e-06
8e-07
-1e-06
1e-06
-1e-06
1e-06
-1e-06
1e-06
-1e-06
1e-06
-1e-06
1e-06
-1e-06
1e-06
-1e-06
1e-06
-1e-06
1e-06
-1e-06
1e-06
-1e-06
9e-07
-1e-06
7e-07
-2e-06
6e-07
-2e-06
4e-07
-2e-06
3e-07
2e-07
-2e-06
2e-07
-2e-06
1e-07
-2e-06
1e-07
-2e-06
2e-07
-2e-06
2e-07
-2e-06
3e-07
-1e-06
4e-07
-1e-06
5e-07
-1e-06
6e-07
-1e-06
7e-07
-1e-06
9e-07
-1e-06
1e-06
-9e-07
1e-06
-8e-07
2e-06
-7e-07
2e-06
-7e-07
2e-06
-6e-07
3e-06
-5e-07
3e-06
-5e-07
3e-06
-5e-07
4e-06
-5e-07
4e-06
-5e-07
4e-06
-6e-07
5e-06
-6e-07
5e-06
-7e-07
5e-06
-7e-07
5e-06
-8e-07
5e-06
-9e-07
5e-06
-9e-07
5e-06
-9e-07
5e-06
-9e-07
5e-06
-9e-07
5e-06
-9e-07
4e-06
-9e-07
4e-06
-9e-07
4e-06
-9e-07
4e-06
-9e-07
3e-06
-9e-07
3e-06
-8e-07
2e-06
-7e-07
2e-06
-6e-07
2e-06
-5e-07
1e-06
-3e-07
1e-06
-2e-07
9e-07
2e-08
7e-07
2e-07
5e-07
4e-07
4e-07
6e-07
3e-07
7e-07
1e-07
8e-07
6e-08
9e-07
-2e-08
9e-07
-9e-08
9e-07
-1e-07
9e-07
-2e-07
8e-07
-1e-07
7e-07
-9e-08
5e-07
-4e-09
4e-07
1e-07
2e-07
-2e-06
-2e-06
-2e-06
-1e-06
-2e-06
-1e-06
-2e-06
-1e-06
-2e-06
-2e-06
-2e-06
-2e-06
-2e-06
-2e-06
-2e-06
-2e-06
-3e-06
-2e-06
-2e-06
-2e-06
-2e-06
-2e-06
-2e-06
-2e-06
-2e-06
-3e-06
-2e-06
-3e-06
-2e-06
-3e-06
-2e-06
-3e-06
-1e-06
-4e-06
-1e-06
-4e-06
-1e-06
-5e-06
-1e-06
-5e-06
-9e-07
-5e-06
-8e-07
-6e-06
-7e-07
-6e-06
-6e-07
-6e-06
-6e-07
-6e-06
-6e-07
-7e-06
-5e-07
-7e-06
-5e-07
-7e-06
-5e-07
-7e-06
-4e-07
-7e-06
-4e-07
-7e-06
-4e-07
-7e-06
-4e-07
-6e-06
-4e-07
-6e-06
-4e-07
-6e-06
-4e-07
-6e-06
-4e-07
-5e-06
-5e-07
-5e-06
-5e-07
-5e-06
-5e-07
-4e-06
-5e-07
-4e-06
-5e-07
-4e-06
-5e-07
-3e-06
-5e-07
-3e-06
-5e-07
-3e-06
-5e-07
-3e-06
-5e-07
-2e-06
-5e-07
-2e-06
-5e-07
-2e-06
-5e-07
-2e-06
-5e-07
-2e-06
-5e-07
-2e-06
-5e-07
-2e-06
-6e-07
-2e-06
-6e-07
-2e-06
-6e-07
-2e-06
-6e-07
-2e-06
-7e-07
-2e-06
-7e-07
-2e-06
-7e-07
-2e-06
-7e-07
-2e-06
-7e-07
-2e-06
-7e-07
-3e-06
-6e-07
-3e-06
-6e-07
-3e-06
-6e-07
-3e-06
-6e-07
-3e-06
-5e-07
-3e-06
-5e-07
-3e-06
-5e-07
-3e-06
-4e-07
-3e-06
-4e-07
-2e-06
-3e-07
-2e-06
-1e-07
-2e-06
-9e-09
-2e-06
1e-07
-2e-06
3e-07
-2e-06
5e-07
-1e-06
7e-07
-1e-06
9e-07
-1e-06
1e-06
-1e-06
1e-06
-1e-06
1e-06
-1e-06
1e-06
-1e-06
1e-06
-1e-06
1e-06
-1e-06
1e-06
-1e-06
1e-06
-1e-06
1e-06
-9e-07
9e-07
-9e-07
7e-07
-9e-07
5e-07
-9e-07
4e-07
-9e-07
3e-07
-9e-07
2e-07
-1e-06
2e-07
-1e-06
1e-07
-1e-06
1e-07
-1e-06
2e-07
-1e-06
3e-07
-1e-06
3e-07
-1e-06
4e-07
-1e-06
5e-07
-1e-06
6e-07
-1e-06
8e-07
-1e-06
9e-07
-1e-06
1e-06
-1e-06
1e-06
-1e-06
2e-06
-1e-06
2e-06
-1e-06
2e-06
-1e-06
3e-06
-1e-06
3e-06
-1e-06
3e-06
-1e-06
4e-06
-1e-06
4e-06
-1e-06
4e-06
-1e-06
5e-06
-1e-06
5e-06
-1e-06
5e-06
-1e-06
5e-06
-1e-06
5e-06
-1e-06
5e-06
-1e-06
5e-06
-1e-06
5e-06
-1e-06
5e-06
-1e-06
5e-06
-1e-06
5e-06
-1e-06
4e-06
-9e-07
4e-06
-8e-07
4e-06
-7e-07
3e-06
-6e-07
3e-06
-5e-07
3e-06
-3e-07
2e-06
-1e-07
2e-06
6e-08
1e-06
2e-07
1e-06
4e-07
9e-07
6e-07
7e-07
7e-07
6e-07
8e-07
4e-07
9e-07
3e-07
9e-07
2e-07
9e-07
9e-08
8e-07
-3e-09
8e-07
-8e-08
7e-07
-1e-07
5e-07
-2e-07
4e-07
-1e-07
2e-07
-9e-08
-2e-08
9e-08
-2e-06
-2e-06
-2e-06
-2e-06
-2e-06
-2e-06
-2e-06
-2e-06
-2e-06
-2e-06
-2e-06
-1e-06
-1e-06
-2e-06
-2e-06
-1e-06
-1e-06
-1e-06
-2e-06
-2e-06
-1e-06
-1e-06
-2e-06
-2e-06
-2e-06
-2e-06
-2e-06
-3e-06
-2e-06
-2e-06
-3e-06
-3e-06
-2e-06
-2e-06
-3e-06
-2e-06
-2e-06
-2e-06
-2e-06
-2e-06
-2e-06
-2e-06
-2e-06
-2e-06
-2e-06
-2e-06
-2e-06
-2e-06
-2e-06
-2e-06
-2e-06
-2e-06
-2e-06
-2e-06
-2e-06
-2e-06
-3e-06
-3e-06
-2e-06
-2e-06
-3e-06
-3e-06
-2e-06
-1e-06
-3e-06
-3e-06
-1e-06
-1e-06
-3e-06
-4e-06
-1e-06
-1e-06
-4e-06
-4e-06
-1e-06
-1e-06
-4e-06
-4e-06
-1e-06
-9e-07
-8e-07
-5e-06
-5e-06
-9e-07
-8e-07
-5e-06
-5e-06
-8e-07
-7e-07
-5e-06
-5e-06
-7e-07
-7e-07
-6e-06
-6e-06
-7e-07
-7e-07
-6e-06
-6e-06
-6e-07
-6e-07
-6e-06
-6e-06
-6e-07
-6e-07
-6e-06
-6e-06
-6e-07
-6e-07
-7e-06
-7e-06
-6e-07
-6e-07
-7e-06
-7e-06
-5e-07
-6e-07
-7e-06
-7e-06
-5e-07
-6e-07
-7e-06
-7e-06
-7e-06
-5e-07
-6e-07
-7e-06
-7e-06
-5e-07
-7e-07
-7e-06
-6e-06
-5e-07
-7e-07
-6e-06
-6e-06
-6e-07
-8e-07
-6e-06
-6e-06
-6e-07
-8e-07
-6e-06
-6e-06
-6e-07
-8e-07
-6e-06
-6e-06
-6e-07
-9e-07
-5e-06
-5e-06
-7e-07
-9e-07
-5e-06
-5e-06
-7e-07
-9e-07
-5e-06
-4e-06
-7e-07
-9e-07
-4e-06
-4e-06
-7e-07
-9e-07
-4e-06
-4e-06
-7e-07
-8e-07
-4e-06
-3e-06
-7e-07
-8e-07
-3e-06
-3e-06
-6e-07
-7e-07
-3e-06
-3e-06
-6e-07
-7e-07
-6e-07
-3e-06
-3e-06
-6e-07
-6e-07
-3e-06
-2e-06
-5e-07
-5e-07
-2e-06
-2e-06
-5e-07
-4e-07
-2e-06
-2e-06
-5e-07
-4e-07
-2e-06
-2e-06
-4e-07
-3e-07
-2e-06
-2e-06
-4e-07
-3e-07
-2e-06
-2e-06
-4e-07
-2e-07
-2e-06
-2e-06
-4e-07
-2e-07
-2e-06
-2e-06
-4e-07
-2e-07
-2e-06
-2e-06
-4e-07
-2e-07
-2e-06
-2e-06
-2e-06
-4e-07
-2e-07
-2e-06
-2e-06
-4e-07
-2e-07
-2e-06
-2e-06
-4e-07
-2e-07
-2e-06
-2e-06
-4e-07
-3e-07
-2e-06
-2e-06
-5e-07
-3e-07
-2e-06
-2e-06
-5e-07
-3e-07
-2e-06
-2e-06
-5e-07
-4e-07
-2e-06
-3e-06
-5e-07
-4e-07
-3e-06
-3e-06
-6e-07
-4e-07
-3e-06
-3e-06
-5e-07
-5e-07
-3e-06
-3e-06
-5e-07
-5e-07
-3e-06
-3e-06
-5e-07
-5e-07
-3e-06
-3e-06
-5e-07
-5e-07
-3e-06
-3e-06
-5e-07
-5e-07
-3e-06
-3e-06
-5e-07
-4e-07
-3e-06
-3e-06
-4e-07
-4e-07
-4e-07
-3e-06
-2e-06
-4e-07
-4e-07
-2e-06
-2e-06
-3e-07
-3e-07
-2e-06
-2e-06
-2e-07
-2e-07
-2e-06
-2e-06
-1e-07
-1e-07
-2e-06
-2e-06
-8e-09
-2e-08
-2e-06
-2e-06
1e-07
1e-07
-2e-06
-1e-06
3e-07
3e-07
-1e-06
-1e-06
5e-07
5e-07
-1e-06
-1e-06
7e-07
7e-07
-1e-06
-1e-06
-1e-06
8e-07
8e-07
-1e-06
-1e-06
1e-06
1e-06
-1e-06
-1e-06
1e-06
1e-06
-1e-06
-1e-06
1e-06
1e-06
-1e-06
-1e-06
1e-06
1e-06
-1e-06
-1e-06
1e-06
1e-06
-1e-06
-1e-06
1e-06
1e-06
-1e-06
-1e-06
1e-06
1e-06
-1e-06
-1e-06
1e-06
1e-06
-1e-06
-1e-06
1e-06
1e-06
-1e-06
-1e-06
9e-07
9e-07
-1e-06
-1e-06
7e-07
7e-07
-1e-06
-1e-06
6e-07
6e-07
-1e-06
-1e-06
4e-07
4e-07
-1e-06
-1e-06
3e-07
3e-07
-1e-06
-1e-06
2e-07
2e-07
2e-07
-1e-06
-1e-06
1e-07
1e-07
-1e-06
-1e-06
1e-07
1e-07
-1e-06
-1e-06
1e-07
2e-07
-1e-06
-1e-06
2e-07
2e-07
-1e-06
-1e-06
3e-07
3e-07
-1e-06
-1e-06
3e-07
4e-07
-1e-06
-1e-06
4e-07
5e-07
-1e-06
-1e-06
5e-07
6e-07
-1e-06
-1e-06
7e-07
7e-07
-1e-06
-1e-06
8e-07
8e-07
-1e-06
-1e-06
-1e-06
1e-06
1e-06
-1e-06
-9e-07
1e-06
1e-06
-1e-06
-9e-07
1e-06
2e-06
-1e-06
-8e-07
2e-06
2e-06
-9e-07
-8e-07
2e-06
2e-06
-9e-07
-7e-07
2e-06
2e-06
-9e-07
-7e-07
3e-06
3e-06
-9e-07
-7e-07
3e-06
3e-06
-9e-07
-7e-07
3e-06
4e-06
-9e-07
-7e-07
4e-06
4e-06
-1e-06
-8e-07
4e-06
4e-06
-1e-06
-8e-07
4e-06
4e-06
-1e-06
-8e-07
5e-06
5e-06
-1e-06
-9e-07
5e-06
5e-06
-1e-06
-9e-07
5e-06
5e-06
5e-06
-1e-06
-1e-06
5e-06
5e-06
-1e-06
-1e-06
5e-06
5e-06
-1e-06
-1e-06
5e-06
5e-06
-1e-06
-1e-06
5e-06
5e-06
-1e-06
-1e-06
5e-06
5e-06
-1e-06
-1e-06
5e-06
5e-06
-1e-06
-1e-06
5e-06
4e-06
-1e-06
-9e-07
4e-06
4e-06
-9e-07
-9e-07
4e-06
4e-06
-9e-07
-9e-07
4e-06
3e-06
-8e-07
-8e-07
3e-06
3e-06
-7e-07
-8e-07
3e-06
3e-06
-6e-07
-7e-07
3e-06
2e-06
-5e-07
-6e-07
2e-06
2e-06
-3e-07
-5e-07
2e-06
2e-06
-1e-07
-3e-07
2e-06
1e-06
4e-08
-2e-07
1e-06
1e-06
2e-07
3e-08
1e-06
8e-07
4e-07
2e-07
8e-07
6e-07
6e-07
4e-07
6e-07
5e-07
7e-07
6e-07
4e-07
3e-07
8e-07
7e-07
3e-07
2e-07
9e-07
8e-07
2e-07
1e-07
9e-07
9e-07
1e-07
3e-08
9e-07
9e-07
1e-08
-5e-08
8e-07
9e-07
-7e-08
-1e-07
8e-07
9e-07
-1e-07
-1e-07
7e-07
8e-07
-2e-07
-2e-07
5e-07
7e-07
-1e-07
-1e-07
4e-07
5e-07
-9e-08
-9e-08
2e-07
-1e-08
1e-07
4e-07
-1e-08
2e-07
1e-07
SCALARS u2 float
LOOKUP_TABLE default
-4e-07
-6e-07
-3e-07
-6e-07
-2e-07
-7e-07
-1e-07
-9e-07
-1e-07
-7e-08
-1e-06
-6e-08
-1e-06
-5e-08
-1e-06
-5e-08
-2e-06
-4e-08
-2e-06
-5e-08
-2e-06
-6e-08
-2e-06
-8e-08
-2e-06
-1e-07
-2e-06
-2e-07
-2e-06
-2e-07
-2e-06
-3e-07
-1e-06
-3e-07
-1e-06
-4e-07
-1e-06
-5e-07
-9e-07
-5e-07
-8e-07
-7e-07
-5e-07
-6e-07
-5e-07
-6e-07
-5e-07
-6e-07
-5e-07
-6e-07
-4e-07
-7e-07
-4e-07
-8e-07
-3e-07
-8e-07
-2e-07
-9e-07
-1e-07
-1e-06
-5e-08
-1e-06
5e-08
1e-07
-1e-06
2e-07
-2e-06
3e-07
-2e-06
4e-07
-2e-06
5e-07
-2e-06
5e-07
-3e-06
6e-07
-3e-06
6e-07
-3e-06
6e-07
-4e-06
6e-07
-4e-06
6e-07
-4e-06
6e-07
-5e-06
5e-07
-5e-06
5e-07
-5e-06
4e-07
-5e-06
-5e-06
3e-07
-6e-06
3e-07
-6e-06
2e-07
-6e-06
2e-07
-5e-06
2e-07
-5e-06
2e-07
-5e-06
2e-07
-5e-06
2e-07
-5e-06
2e-07
-4e-06
2e-07
-4e-06
2e-07
3e-07
-4e-06
3e-07
-3e-06
4e-07
-3e-06
5e-07
-3e-06
6e-07
-2e-06
8e-07
-2e-06
1e-06
-2e-06
1e-06
-1e-06
1e-06
-1e-06
2e-06
-1e-06
2e-06
-8e-07
2e-06
-7e-07
2e-06
-6e-07
2e-06
-5e-07
2e-06
-4e-07
2e-06
-4e-07
-3e-07
2e-06
-3e-07
2e-06
-3e-07
2e-06
-4e-07
2e-06
-5e-07
2e-06
-6e-07
1e-06
-7e-07
1e-06
-9e-07
1e-06
-1e-06
1e-06
-1e-06
1e-06
1e-06
-1e-06
1e-06
-1e-06
1e-06
-1e-06
1e-06
-1e-06
1e-06
-1e-06
1e-06
-1e-06
1e-06
-1e-06
2e-06
-1e-06
2e-06
-9e-07
2e-06
-7e-07
2e-06
-5e-07
2e-06
-3e-07
3e-06
-1e-07
3e-06
3e-08
3e-06
2e-07
4e-06
3e-07
3e-07
4e-06
4e-07
4e-06
4e-07
5e-06
4e-07
5e-06
5e-07
5e-06
5e-07
6e-06
5e-07
6e-06
5e-07
6e-06
5e-07
6e-06
5e-07
6e-06
4e-07
6e-06
4e-07
6e-06
3e-07
6e-06
3e-07
6e-06
2e-07
6e-06
2e-07
6e-06
1e-07
5e-06
6e-08
5e-06
3e-08
5e-06
3e-08
4e-06
4e-08
4e-06
7e-08
4e-06
1e-07
3e-06
2e-07
3e-06
3e-07
3e-06
3e-07
2e-06
4e-07
2e-06
5e-07
2e-06
6e-07
2e-06
7e-07
2e-06
8e-07
2e-06
9e-07
2e-06
1e-06
1e-06
1e-06
1e-06
1e-06
1e-06
1e-06
1e-06
1e-06
1e-06
1e-06
1e-06
1e-06
1e-06
1e-06
1e-06
1e-06
2e-06
1e-06
2e-06
1e-06
2e-06
9e-07
2e-06
9e-07
2e-06
8e-07
2e-06
8e-07
2e-06
7e-07
2e-06
7e-07
2e-06
7e-07
2e-06
7e-07
2e-06
7e-07
2e-06
7e-07
2e-06
7e-07
2e-06
7e-07
2e-06
8e-07
2e-06
8e-07
1e-06
9e-07
1e-06
1e-06
1e-06
-8e-07
-5e-07
-1e-06
-3e-07
-1e-06
-2e-07
-1e-06
-1e-07
-1e-06
-4e-08
-2e-06
9e-09
-2e-06
4e-08
-2e-06
8e-08
-2e-06
1e-07
-2e-06
1e-07
-2e-06
2e-07
-2e-06
2e-07
-1e-06
2e-07
-1e-06
2e-07
-1e-06
2e-07
-1e-06
2e-07
-9e-07
2e-07
-8e-07
2e-07
-7e-07
2e-07
-6e-07
1e-07
-6e-07
1e-07
-6e-07
9e-08
-6e-07
7e-08
-7e-07
5e-08
-8e-07
5e-08
-9e-07
5e-08
-1e-06
5e-08
-1e-06
6e-08
-1e-06
6e-08
-1e-06
6e-08
-2e-06
7e-08
-2e-06
7e-08
-2e-06
7e-08
-2e-06
7e-08
-3e-06
6e-08
-3e-06
4e-08
-3e-06
1e-08
-4e-06
-1e-08
-4e-06
-4e-08
-5e-06
-6e-08
-5e-06
-7e-08
-5e-06
-8e-08
-5e-06
-8e-08
-5e-06
-7e-08
-6e-06
-5e-08
-6e-06
-3e-08
-6e-06
-4e-09
-6e-06
2e-08
-6e-06
6e-08
-5e-06
9e-08
-5e-06
1e-07
-5e-06
2e-07
-5e-06
2e-07
-4e-06
3e-07
-4e-06
4e-07
-4e-06
5e-07
-3e-06
7e-07
-3e-06
8e-07
-3e-06
1e-06
-2e-06
1e-06
-2e-06
1e-06
-2e-06
2e-06
-1e-06
2e-06
-1e-06
2e-06
-1e-06
2e-06
-9e-07
2e-06
-8e-07
2e-06
-6e-07
2e-06
-6e-07
2e-06
-5e-07
2e-06
-4e-07
2e-06
-3e-07
2e-06
-3e-07
1e-06
-3e-07
1e-06
-4e-07
1e-06
-5e-07
1e-06
-6e-07
1e-06
-7e-07
1e-06
-8e-07
1e-06
-1e-06
1e-06
-1e-06
1e-06
-1e-06
1e-06
-1e-06
1e-06
-1e-06
1e-06
-1e-06
1e-06
-1e-06
2e-06
-1e-06
2e-06
-1e-06
2e-06
-1e-06
2e-06
-9e-07
2e-06
-7e-07
3e-06
-5e-07
3e-06
-3e-07
3e-06
-2e-07
4e-06
4e-09
4e-06
1e-07
4e-06
3e-07
5e-06
4e-07
5e-06
4e-07
5e-06
5e-07
6e-06
5e-07
6e-06
6e-07
6e-06
6e-07
6e-06
6e-07
6e-06
7e-07
6e-06
7e-07
6e-06
7e-07
6e-06
7e-07
6e-06
7e-07
6e-06
7e-07
6e-06
7e-07
5e-06
7e-07
5e-06
7e-07
5e-06
7e-07
5e-06
7e-07
4e-06
6e-07
4e-06
6e-07
3e-06
6e-07
3e-06
6e-07
3e-06
6e-07
2e-06
6e-07
2e-06
6e-07
2e-06
6e-07
2e-06
6e-07
2e-06
6e-07
2e-06
6e-07
2e-06
6e-07
1e-06
6e-07
1e-06
6e-07
1e-06
6e-07
1e-06
6e-07
1e-06
5e-07
1e-06
5e-07
1e-06
5e-07
1e-06
5e-07
2e-06
4e-07
2e-06
4e-07
2e-06
5e-07
2e-06
5e-07
2e-06
5e-07
2e-06
5e-07
2e-06
5e-07
2e-06
6e-07
2e-06
6e-07
2e-06
6e-07
2e-06
7e-07
2e-06
7e-07
2e-06
8e-07
2e-06
9e-07
2e-06
1e-06
2e-06
1e-06
1e-06
1e-06
-5e-07
-6e-07
-6e-07
-5e-07
-3e-07
-8e-07
-8e-07
-3e-07
-2e-07
-1e-06
-9e-07
-2e-07
-1e-07
-1e-06
-1e-06
-1e-07
-9e-08
-6e-08
-1e-06
-1e-06
-7e-08
-4e-08
-1e-06
-1e-06
-2e-08
-2e-08
-2e-06
-2e-06
6e-09
-1e-08
-2e-06
-2e-06
3e-08
1e-09
-2e-06
-2e-06
5e-08
6e-09
-2e-06
-2e-06
7e-08
4e-09
-2e-06
-2e-06
8e-08
-4e-09
-2e-06
-2e-06
8e-08
-2e-08
-2e-06
-2e-06
8e-08
-5e-08
-1e-06
-1e-06
8e-08
-8e-08
-1e-06
-1e-06
6e-08
-1e-07
-1e-06
-1e-06
4e-08
-2e-07
-1e-06
-1e-06
1e-08
-2e-07
-9e-07
-9e-07
-2e-08
-3e-07
-8e-07
-8e-07
-5e-08
-3e-07
-7e-07
-7e-07
-6e-07
-7e-08
-3e-07
-6e-07
-6e-07
-9e-08
-3e-07
-6e-07
-6e-07
-1e-07
-3e-07
-6e-07
-6e-07
-1e-07
-3e-07
-7e-07
-7e-07
-1e-07
-3e-07
-7e-07
-7e-07
-9e-08
-2e-07
-8e-07
-8e-07
-7e-08
-2e-07
-9e-07
-9e-07
-4e-08
-1e-07
-1e-06
-1e-06
-4e-09
-4e-08
-1e-06
-1e-06
3e-08
3e-08
-1e-06
-1e-06
1e-07
7e-08
2e-07
-1e-06
-1e-06
1e-07
2e-07
-2e-06
-2e-06
1e-07
3e-07
-2e-06
-2e-06
2e-07
3e-07
-2e-06
-2e-06
2e-07
4e-07
-3e-06
-3e-06
2e-07
4e-07
-3e-06
-3e-06
2e-07
4e-07
-3e-06
-3e-06
2e-07
4e-07
-4e-06
-4e-06
2e-07
4e-07
-4e-06
-4e-06
2e-07
4e-07
-4e-06
-4e-06
2e-07
4e-07
-5e-06
-5e-06
1e-07
3e-07
-5e-06
-5e-06
1e-07
3e-07
-5e-06
-5e-06
9e-08
2e-07
-5e-06
-5e-06
7e-08
2e-07
-5e-06
-5e-06
-6e-06
6e-08
2e-07
-6e-06
-6e-06
6e-08
2e-07
-6e-06
-6e-06
6e-08
1e-07
-6e-06
-6e-06
7e-08
1e-07
-6e-06
-5e-06
9e-08
1e-07
-5e-06
-5e-06
1e-07
2e-07
-5e-06
-5e-06
1e-07
2e-07
-5e-06
-5e-06
2e-07
2e-07
-5e-06
-5e-06
2e-07
2e-07
-5e-06
-4e-06
2e-07
2e-07
-4e-06
-4e-06
3e-07
3e-07
3e-07
-4e-06
-4e-06
4e-07
4e-07
-3e-06
-3e-06
5e-07
5e-07
-3e-06
-3e-06
7e-07
7e-07
-3e-06
-2e-06
8e-07
8e-07
-2e-06
-2e-06
1e-06
1e-06
-2e-06
-2e-06
1e-06
1e-06
-2e-06
-2e-06
1e-06
1e-06
-1e-06
-1e-06
2e-06
2e-06
-1e-06
-1e-06
2e-06
2e-06
-1e-06
-1e-06
2e-06
2e-06
-9e-07
-8e-07
2e-06
2e-06
-8e-07
-7e-07
2e-06
2e-06
-7e-07
-6e-07
2e-06
2e-06
-6e-07
-5e-07
2e-06
2e-06
-5e-07
-4e-07
2e-06
2e-06
-4e-07
-4e-07
-3e-07
2e-06
2e-06
-3e-07
-3e-07
2e-06
2e-06
-3e-07
-3e-07
2e-06
2e-06
-3e-07
-4e-07
2e-06
2e-06
-4e-07
-5e-07
1e-06
1e-06
-5e-07
-6e-07
1e-06
1e-06
-6e-07
-7e-07
1e-06
1e-06
-7e-07
-8e-07
1e-06
1e-06
-8e-07
-1e-06
1e-06
1e-06
-1e-06
-1e-06
1e-06
1e-06
1e-06
-1e-06
-1e-06
1e-06
1e-06
-1e-06
-1e-06
1e-06
1e-06
-1e-06
-1e-06
1e-06
1e-06
-1e-06
-1e-06
1e-06
1e-06
-1e-06
-1e-06
1e-06
1e-06
-1e-06
-1e-06
1e-06
1e-06
-1e-06
-1e-06
2e-06
2e-06
-1e-06
-1e-06
2e-06
2e-06
-1e-06
-9e-07
2e-06
2e-06
-9e-07
-7e-07
2e-06
2e-06
-7e-07
-5e-07
2e-06
2e-06
-5e-07
-3e-07
3e-06
3e-06
-3e-07
-1e-07
3e-06
3e-06
-1e-07
1e-08
3e-06
4e-06
7e-09
1e-07
4e-06
4e-06
1e-07
3e-07
3e-07
4e-06
4e-06
3e-07
4e-07
5e-06
5e-06
4e-07
4e-07
5e-06
5e-06
4e-07
5e-07
5e-06
5e-06
5e-07
5e-07
5e-06
6e-06
5e-07
5e-07
6e-06
6e-06
5e-07
5e-07
6e-06
6e-06
6e-07
5e-07
6e-06
6e-06
6e-07
5e-07
6e-06
6e-06
6e-07
5e-07
6e-06
6e-06
6e-07
5e-07
6e-06
6e-06
6e-06
6e-07
5e-07
6e-06
6e-06
6e-07
5e-07
6e-06
6e-06
6e-07
4e-07
6e-06
6e-06
6e-07
4e-07
6e-06
6e-06
6e-07
3e-07
6e-06
5e-06
5e-07
3e-07
5e-06
5e-06
5e-07
3e-07
5e-06
5e-06
5e-07
3e-07
5e-06
4e-06
5e-07
2e-07
4e-06
4e-06
4e-07
3e-07
4e-06
4e-06
4e-07
3e-07
4e-06
3e-06
4e-07
3e-07
3e-06
3e-06
5e-07
4e-07
3e-06
3e-06
5e-07
4e-07
3e-06
2e-06
5e-07
5e-07
5e-07
2e-06
2e-06
6e-07
6e-07
2e-06
2e-06
6e-07
6e-07
2e-06
2e-06
6e-07
7e-07
2e-06
2e-06
7e-07
8e-07
2e-06
2e-06
7e-07
8e-07
2e-06
1e-06
7e-07
9e-07
1e-06
1e-06
8e-07
9e-07
1e-06
1e-06
8e-07
1e-06
1e-06
1e-06
8e-07
1e-06
1e-06
1e-06
8e-07
1e-06
1e-06
1e-06
8e-07
1e-06
1e-06
1e-06
7e-07
1e-06
1e-06
1e-06
7e-07
9e-07
1e-06
1e-06
7e-07
9e-07
2e-06
2e-06
7e-07
8e-07
2e-06
2e-06
6e-07
8e-07
2e-06
2e-06
6e-07
7e-07
2e-06
2e-06
6e-07
7e-07
2e-06
2e-06
6e-07
7e-07
2e-06
2e-06
6e-07
7e-07
2e-06
2e-06
6e-07
7e-07
2e-06
2e-06
6e-07
7e-07
2e-06
2e-06
6e-07
7e-07
2e-06
2e-06
6e-07
7e-07
2e-06
2e-06
7e-07
7e-07
2e-06
2e-06
7e-07
7e-07
2e-06
2e-06
7e-07
7e-07
2e-06
2e-06
8e-07
8e-07
2e-06
2e-06
9e-07
8e-07
2e-06
2e-06
1e-06
9e-07
1e-06
1e-06
1e-06
1e-06
1e-06
1e-06
1e-06
SCALARS strain_1 float
LOOKUP_TABLE default
-0.000002
-0.000003
-0.000001
-0.000001
-0.000005
-0.000003
-0.000002
-0.000002
-0.000004
-0.000005
-0.000002
-0.000005
-0.000005
-0.000004
-0.000007
-0.000006
-0.000010
-0.000005
-0.000014
-0.000003
-0.000019
-0.000003
-0.000023
-0.000001
-0.000029
0.000002
-0.000035
0.000004
-0.000043
0.000008
-0.000052
0.000012
-0.000060
0.000017
-0.000071
0.000026
-0.000081
0.000032
-0.000093
0.000041
-0.000107
-0.000120
0.000050
-0.000136
0.000063
-0.000153
0.000074
-0.000169
0.000087
-0.000188
0.000101
-0.000206
0.000117
-0.000225
0.000134
-0.000247
0.000151
-0.000268
0.000172
-0.000290
0.000191
-0.000313
0.000216
0.000237
-0.000337
0.000261
-0.000362
0.000287
-0.000386
0.000314
-0.000412
0.000341
-0.000438
0.000369
-0.000466
0.000398
-0.000493
0.000429
-0.000521
0.000461
-0.000549
0.000493
-0.000575
0.000524
-0.000605
0.000557
-0.000633
0.000592
-0.000662
0.000625
-0.000689
0.000659
-0.000716
-0.000745
0.000693
-0.000772
0.000729
-0.000800
0.000762
-0.000828
0.000797
-0.000854
0.000830
-0.000878
0.000864
-0.000904
0.000896
-0.000930
0.000929
-0.000951
0.000962
-0.000975
0.000992
-0.000997
0.001021
0.001051
-0.001017
0.001079
-0.001039
0.001108
-0.001055
0.001132
-0.001074
0.001156
-0.001092
0.001180
-0.001107
0.001201
-0.001121
0.001220
-0.001134
0.001238
-0.001145
0.001255
-0.001155
0.001270
-0.001165
0.001283
-0.001171
0.001296
-0.001177
0.001304
-0.001182
0.001311
-0.001187
0.001315
-0.001186
-0.001188
0.001321
-0.001187
0.001323
-0.001183
0.001322
-0.001179
0.001321
-0.001174
0.001319
-0.001166
0.001314
-0.001159
0.001307
-0.001150
0.001297
-0.001139
0.001287
-0.001127
0.001275
0.001261
-0.001113
0.001246
-0.001099
0.001229
-0.001084
0.001211
-0.001067
0.001193
-0.001049
0.001171
-0.001030
0.001149
-0.001011
0.001127
-0.000990
0.001103
-0.000968
0.001077
-0.000946
0.001051
-0.000924
0.001025
-0.000901
0.000998
-0.000877
0.000969
-0.000853
0.000941
-0.000827
0.000912
-0.000803
-0.000776
0.000883
-0.000750
0.000854
-0.000725
0.000824
-0.000699
0.000792
-0.000672
0.000764
-0.000647
0.000733
-0.000622
0.000704
-0.000595
0.000673
-0.000569
0.000644
-0.000543
0.000615
-0.000517
0.000587
-0.000492
0.000559
-0.000468
0.000530
-0.000443
0.000503
-0.000420
0.000475
-0.000396
0.000449
-0.000373
0.000423
-0.000351
0.000398
-0.000331
0.000374
-0.000309
0.000350
-0.000288
0.000326
-0.000269
0.000306
-0.000251
0.000283
-0.000233
0.000263
-0.000214
0.000245
-0.000197
0.000226
-0.000180
0.000206
-0.000166
0.000189
-0.000152
0.000172
-0.000138
0.000158
-0.000126
0.000142
-0.000112
0.000130
-0.000102
0.000117
-0.000091
0.000104
-0.000081
0.000093
-0.000070
0.000082
-0.000061
0.000072
-0.000055
0.000063
-0.000047
0.000054
-0.000040
0.000047
-0.000035
0.000040
-0.000029
0.000033
-0.000025
0.000029
-0.000020
0.000023
-0.000017
0.000018
-0.000014
0.000015
-0.000011
0.000013
-0.000008
0.000009
-0.000006
0.000006
-0.000005
0.000003
-0.000004
0.000003
-0.000002
0.000001
-0.000002
0.000001
-0.000001
0.000001
-0.000000
-0.000001
-0.000001
-0.000001
-0.000001
-0.000002
-0.000000
-0.000001
-0.000001
-0.000002
-0.000002
-0.000003
-0.000002
-0.000003
-0.000002
-0.000004
-0.000003
-0.000006
-0.000005
-0.000006
-0.000006
-0.000006
-0.000007
-0.000005
-0.000010
-0.000004
-0.000013
-0.000005
-0.000018
-0.000003
-0.000023
-0.000001
-0.000030
0.000002
-0.000036
0.000003
-0.000043
0.000008
-0.000052
0.000013
-0.000060
0.000018
-0.000072
0.000023
-0.000083
0.000032
-0.000095
0.000040
-0.000108
0.000049
-0.000122
0.000059
-0.000138
0.000073
-0.000152
0.000085
-0.000168
0.000099
-0.000187
0.000115
-0.000206
0.000130
-0.000226
0.000150
-0.000245
0.000169
-0.000266
0.000187
-0.000287
0.000208
-0.000311
0.000232
-0.000334
0.000255
-0.000358
0.000278
-0.000381
0.000303
-0.000407
0.000331
-0.000431
0.000358
-0.000457
0.000386
-0.000481
0.000415
-0.000508
0.000445
-0.000535
0.000474
-0.000561
0.000505
-0.000587
0.000535
-0.000614
0.000566
-0.000639
0.000598
-0.000666
0.000629
-0.000692
0.000660
-0.000717
0.000693
-0.000742
0.000724
-0.000768
0.000755
-0.000791
0.000784
-0.000815
0.000815
-0.000836
0.000843
-0.000859
0.000872
-0.000880
0.000899
-0.000900
0.000927
-0.000919
0.000952
-0.000937
0.000978
-0.000955
0.001001
-0.000971
0.001023
-0.000986
0.001044
-0.001001
0.001064
-0.001012
0.001083
-0.001025
0.001098
-0.001034
0.001113
-0.001043
0.001127
-0.001050
0.001137
-0.001056
0.001147
-0.001060
0.001155
-0.001063
0.001162
-0.001066
0.001166
-0.001067
0.001169
-0.001066
0.001170
-0.001063
0.001169
-0.001059
0.001168
-0.001055
0.001163
-0.001047
0.001157
-0.001040
0.001151
-0.001031
0.001140
-0.001020
0.001129
-0.001009
0.001118
-0.000997
0.001104
-0.000984
0.001089
-0.000969
0.001073
-0.000951
0.001054
-0.000937
0.001037
-0.000919
0.001016
-0.000900
0.000994
-0.000880
0.000973
-0.000859
0.000948
-0.000839
0.000926
-0.000818
0.000902
-0.000794
0.000875
-0.000772
0.000850
-0.000749
0.000824
-0.000726
0.000798
-0.000702
0.000771
-0.000676
0.000744
-0.000654
0.000715
-0.000630
0.000688
-0.000605
0.000660
-0.000581
0.000633
-0.000556
0.000607
-0.000531
0.000578
-0.000508
0.000551
-0.000485
0.000523
-0.000461
0.000498
-0.000437
0.000472
-0.000415
0.000446
-0.000393
0.000421
-0.000370
0.000398
-0.000349
0.000375
-0.000327
0.000350
-0.000307
0.000328
-0.000287
0.000307
-0.000267
0.000287
-0.000248
0.000264
-0.000232
0.000244
-0.000215
0.000225
-0.000197
0.000209
-0.000181
0.000191
-0.000165
0.000175
-0.000151
0.000159
-0.000139
0.000144
-0.000125
0.000131
-0.000113
0.000117
-0.000102
0.000105
-0.000090
0.000094
-0.000081
0.000085
-0.000071
0.000073
-0.000064
0.000064
-0.000054
0.000055
-0.000048
0.000048
-0.000043
0.000041
-0.000036
0.000034
-0.000029
0.000028
-0.000025
0.000023
-0.000020
0.000020
-0.000016
0.000015
-0.000013
0.000013
-0.000010
0.000008
-0.000008
0.000007
-0.000007
0.000004
-0.000004
0.000002
-0.000004
0.000002
-0.000002
0.000000
-0.000003
-0.000002
-0.000001
-0.000001
-0.000001
-0.000002
-0.000000
-0.000002
-0.000002
-0.000001
-0.000002
-0.000001
-0.000003
-0.000002
-0.000002
-0.000002
-0.000003
-0.000002
-0.000002
-0.000002
-0.000004
-0.000002
-0.000002
-0.000002
-0.000004
-0.000004
-0.000003
-0.000003
-0.000004
-0.000004
-0.000003
-0.000004
-0.000004
-0.000004
-0.000006
-0.000005
-0.000006
-0.000005
-0.000005
-0.000007
-0.000007
-0.000005
-0.000004
-0.000009
-0.000011
-0.000005
-0.000005
-0.000014
-0.000017
-0.000004
-0.000004
-0.000017
-0.000019
-0.000003
-0.000003
-0.000023
-0.000025
-0.000002
-0.000001
-0.000027
-0.000031
0.000001
0.000001
-0.000033
-0.000037
0.000003
0.000006
-0.000040
-0.000046
0.000006
0.000010
-0.000049
-0.000055
0.000011
0.000014
-0.000057
-0.000064
0.000016
0.000021
-0.000067
-0.000074
0.000022
0.000027
-0.000078
-0.000087
0.000030
0.000035
-0.000092
-0.000099
0.000038
0.000043
-0.000104
-0.000112
-0.000124
0.000048
0.000053
-0.000119
-0.000136
0.000058
0.000065
-0.000135
-0.000153
0.000069
0.000077
-0.000151
-0.000170
0.000081
0.000092
-0.000169
-0.000187
0.000095
0.000105
-0.000188
-0.000207
0.000109
0.000123
-0.000206
-0.000226
0.000126
0.000138
-0.000225
-0.000246
0.000144
0.000158
-0.000246
-0.000268
0.000161
0.000178
-0.000266
-0.000288
0.000183
0.000198
-0.000288
-0.000313
0.000221
0.000203
0.000241
-0.000311
-0.000337
0.000230
0.000258
-0.000334
-0.000361
0.000254
0.000283
-0.000359
-0.000386
0.000280
0.000309
-0.000382
-0.000411
0.000307
0.000337
-0.000409
-0.000436
0.000334
0.000365
-0.000433
-0.000463
0.000362
0.000394
-0.000459
-0.000488
0.000391
0.000423
-0.000486
-0.000516
0.000419
0.000454
-0.000513
-0.000545
0.000449
0.000486
-0.000539
-0.000572
0.000479
0.000518
-0.000566
-0.000599
0.000511
0.000550
-0.000594
-0.000627
0.000542
0.000584
-0.000622
-0.000654
0.000575
0.000616
-0.000649
-0.000683
0.000606
0.000650
-0.000675
-0.000711
-0.000736
0.000639
0.000683
-0.000709
-0.000753
0.000671
0.000715
-0.000732
-0.000779
0.000704
0.000749
-0.000760
-0.000805
0.000737
0.000782
-0.000785
-0.000832
0.000770
0.000814
-0.000810
-0.000857
0.000800
0.000847
-0.000836
-0.000881
0.000830
0.000879
-0.000858
-0.000904
0.000861
0.000911
-0.000882
-0.000929
0.000892
0.000941
-0.000904
-0.000950
0.000921
0.000972
-0.000925
-0.000971
0.000948
0.000999
0.001030
-0.000945
-0.000990
0.000986
0.001044
-0.000964
-0.001010
0.001006
0.001071
-0.000982
-0.001028
0.001034
0.001094
-0.001000
-0.001044
0.001058
0.001117
-0.001016
-0.001061
0.001080
0.001139
-0.001029
-0.001075
0.001100
0.001160
-0.001043
-0.001087
0.001121
0.001178
-0.001055
-0.001100
0.001138
0.001195
-0.001066
-0.001110
0.001153
0.001212
-0.001075
-0.001120
0.001168
0.001224
-0.001085
-0.001127
0.001180
0.001237
-0.001092
-0.001135
0.001190
0.001247
-0.001097
-0.001138
0.001202
0.001256
-0.001101
-0.001143
0.001209
0.001261
-0.001104
-0.001148
0.001213
0.001266
-0.001105
-0.001147
-0.001154
0.001217
0.001270
-0.001108
-0.001146
0.001218
0.001270
-0.001103
-0.001143
0.001220
0.001270
-0.001099
-0.001136
0.001217
0.001267
-0.001094
-0.001132
0.001214
0.001264
-0.001090
-0.001125
0.001210
0.001257
-0.001080
-0.001116
0.001203
0.001250
-0.001073
-0.001106
0.001192
0.001239
-0.001064
-0.001095
0.001182
0.001229
-0.001051
-0.001083
0.001169
0.001215
0.001212
-0.001039
-0.001069
0.001163
0.001193
-0.001026
-0.001055
0.001139
0.001177
-0.001011
-0.001039
0.001125
0.001159
-0.000995
-0.001021
0.001105
0.001137
-0.000979
-0.001004
0.001088
0.001117
-0.000960
-0.000986
0.001065
0.001095
-0.000942
-0.000966
0.001043
0.001073
-0.000922
-0.000945
0.001022
0.001049
-0.000902
-0.000925
0.000997
0.001023
-0.000881
-0.000902
0.000974
0.001000
-0.000859
-0.000881
0.000948
0.000973
-0.000836
-0.000857
0.000923
0.000947
-0.000813
-0.000832
0.000897
0.000919
-0.000790
-0.000808
0.000870
0.000890
-0.000766
-0.000783
0.000842
0.000863
-0.000740
-0.000759
-0.000744
0.000815
0.000834
-0.000719
-0.000717
0.000788
0.000805
-0.000687
-0.000693
0.000759
0.000777
-0.000660
-0.000667
0.000732
0.000747
-0.000636
-0.000642
0.000703
0.000718
-0.000611
-0.000614
0.000675
0.000689
-0.000586
-0.000591
0.000647
0.000659
-0.000561
-0.000564
0.000617
0.000631
-0.000536
-0.000539
0.000589
0.000603
-0.000511
-0.000513
0.000561
0.000573
-0.000487
-0.000489
0.000531
0.000546
0.000526
-0.000462
-0.000466
0.000506
0.000503
-0.000439
-0.000441
0.000475
0.000475
-0.000416
-0.000418
0.000449
0.000449
-0.000394
-0.000395
0.000421
0.000424
-0.000371
-0.000372
0.000398
0.000398
-0.000350
-0.000352
0.000376
0.000376
-0.000329
-0.000329
0.000350
0.000351
-0.000307
-0.000307
0.000328
0.000327
-0.000287
-0.000288
0.000305
0.000306
-0.000268
-0.000270
0.000285
0.000284
-0.000250
-0.000250
0.000264
0.000263
-0.000231
-0.000232
0.000246
0.000243
-0.000215
-0.000214
0.000225
0.000225
-0.000197
-0.000197
0.000208
0.000207
-0.000180
-0.000181
-0.000169
0.000191
0.000189
-0.000165
-0.000158
0.000175
0.000173
-0.000148
-0.000143
0.000160
0.000158
-0.000135
-0.000130
0.000144
0.000144
-0.000121
-0.000116
0.000131
0.000129
-0.000108
-0.000105
0.000117
0.000117
-0.000098
-0.000095
0.000104
0.000106
-0.000087
-0.000084
0.000094
0.000093
-0.000077
-0.000076
0.000081
0.000083
-0.000068
-0.000066
0.000073
0.000072
-0.000060
-0.000056
0.000063
0.000064
-0.000052
-0.000050
0.000055
0.000056
-0.000045
-0.000043
0.000046
0.000050
-0.000038
-0.000037
0.000038
0.000044
-0.000032
-0.000031
0.000032
0.000035
-0.000028
-0.000026
0.000027
0.000030
-0.000024
-0.000022
0.000023
0.000024
-0.000019
-0.000019
0.000018
0.000020
-0.000015
-0.000015
0.000015
0.000017
-0.000012
-0.000011
0.000011
0.000012
-0.000009
-0.000009
0.000008
0.000010
-0.000008
-0.000006
0.000006
0.000007
-0.000006
-0.000005
0.000004
0.000006
-0.000003
-0.000003
0.000003
0.000003
-0.000004
-0.000002
0.000000
0.000001
-0.000003
-0.000002
-0.000002
0.000001
-0.000001
-0.000001
0.000000
0.000000
-0.000002
-0.000001
-0.000000
-0.000001
-0.000002
-0.000001
-0.000001
-0.000001
-0.000001
-0.000001
-0.000001
0.000000
-0.000002
-0.000001
-0.000001
-0.000001
-0.000001
-0.000002
-0.000001
-0.000001
-0.000001
SCALARS strain_2 float
LOOKUP_TABLE default
0.000011
0.000014
0.000016
0.000010
0.000031
0.000013
0.000025
0.000030
0.000047
0.000057
0.000037
0.000045
0.000049
0.000065
0.000093
0.000053
0.000118
0.000063
0.000181
0.000047
0.000225
0.000040
0.000282
0.000014
0.000372
-0.000016
0.000447
-0.000044
0.000542
-0.000092
0.000656
-0.000163
0.000768
-0.000223
0.000910
-0.000309
0.001055
-0.000398
0.001217
-0.000497
0.001387
0.001569
-0.000603
0.001763
-0.000737
0.001981
-0.000884
0.002203
-0.001050
0.002426
-0.001214
0.002685
-0.001415
0.002951
-0.001610
0.003220
-0.001825
0.003503
-0.002071
0.003794
-0.002331
0.004098
-0.002597
-0.002863
0.004421
-0.003166
0.004738
-0.003484
0.005068
-0.003805
0.005408
-0.004138
0.005763
-0.004493
0.006115
-0.004850
0.006482
-0.005239
0.006852
-0.005610
0.007220
-0.006011
0.007593
-0.006419
0.007971
-0.006830
0.008346
-0.007252
0.008731
-0.007687
0.009105
-0.008095
0.009474
0.009849
-0.008530
0.010210
-0.008958
0.010573
-0.009393
0.010927
-0.009828
0.011273
-0.010263
0.011611
-0.010687
0.011945
-0.011111
0.012248
-0.011522
0.012551
-0.011931
0.012851
-0.012327
0.013128
-0.012723
-0.013095
0.013399
-0.013462
0.013643
-0.013815
0.013873
-0.014144
0.014101
-0.014458
0.014289
-0.014769
0.014473
-0.015040
0.014645
-0.015303
0.014785
-0.015532
0.014902
-0.015770
0.015006
-0.015962
0.015078
-0.016127
0.015148
-0.016287
0.015182
-0.016413
0.015212
-0.016518
0.015202
-0.016589
0.015189
0.015145
-0.016641
0.015088
-0.016684
0.015012
-0.016679
0.014914
-0.016669
0.014782
-0.016616
0.014645
-0.016543
0.014490
-0.016456
0.014306
-0.016349
0.014131
-0.016213
0.013917
-0.016037
-0.015866
0.013699
-0.015651
0.013458
-0.015429
0.013216
-0.015183
0.012947
-0.014914
0.012682
-0.014655
0.012388
-0.014358
0.012094
-0.014045
0.011780
-0.013723
0.011478
-0.013387
0.011160
-0.013038
0.010834
-0.012695
0.010507
-0.012325
0.010170
-0.011946
0.009840
-0.011553
0.009486
-0.011170
0.009148
0.008813
-0.010791
0.008480
-0.010394
0.008133
-0.009998
0.007805
-0.009599
0.007466
-0.009202
0.007126
-0.008807
0.006802
-0.008414
0.006497
-0.008027
0.006176
-0.007632
0.005858
-0.007261
0.005563
-0.006872
0.005254
-0.006520
0.004988
-0.006139
0.004688
-0.005789
0.004425
-0.005449
0.004155
-0.005110
0.003902
-0.004793
0.003655
-0.004472
0.003416
-0.004165
0.003180
-0.003871
0.002961
-0.003602
0.002744
-0.003317
0.002537
-0.003067
0.002347
-0.002818
0.002167
-0.002567
0.001987
-0.002354
0.001816
-0.002129
0.001659
-0.001944
0.001516
-0.001749
0.001364
-0.001575
0.001236
-0.001405
0.001117
-0.001243
0.000996
-0.001109
0.000886
-0.000980
0.000783
-0.000848
0.000701
-0.000738
0.000607
-0.000632
0.000534
-0.000549
0.000452
-0.000454
0.000389
-0.000386
0.000325
-0.000307
0.000277
-0.000258
0.000238
-0.000204
0.000178
-0.000158
0.000146
-0.000125
0.000111
-0.000089
0.000081
-0.000059
0.000058
-0.000034
0.000036
-0.000028
0.000017
-0.000009
0.000019
0.000002
0.000004
0.000008
-0.000007
0.000017
-0.000005
0.000018
-0.000019
0.000024
-0.000005
0.000010
-0.000005
0.000010
-0.000004
-0.000010
0.000008
0.000004
0.000005
0.000029
0.000008
0.000033
0.000020
0.000036
0.000026
0.000047
0.000054
0.000049
0.000065
0.000058
0.000090
0.000060
0.000140
0.000051
0.000184
0.000038
0.000240
0.000034
0.000306
0.000004
0.000385
-0.000024
0.000479
-0.000052
0.000569
-0.000108
0.000672
-0.000163
0.000802
-0.000214
0.000938
-0.000294
0.001083
-0.000397
0.001238
-0.000491
0.001421
-0.000603
0.001591
-0.000744
0.001792
-0.000869
0.001999
-0.001033
0.002219
-0.001208
0.002455
-0.001386
0.002710
-0.001584
0.002968
-0.001796
0.003232
-0.002034
0.003506
-0.002263
0.003791
-0.002525
0.004102
-0.002807
0.004408
-0.003073
0.004725
-0.003393
0.005051
-0.003699
0.005380
-0.004023
0.005710
-0.004350
0.006062
-0.004720
0.006394
-0.005065
0.006734
-0.005419
0.007106
-0.005801
0.007454
-0.006176
0.007807
-0.006567
0.008156
-0.006955
0.008510
-0.007350
0.008846
-0.007730
0.009194
-0.008139
0.009533
-0.008533
0.009863
-0.008925
0.010196
-0.009320
0.010498
-0.009702
0.010790
-0.010083
0.011101
-0.010452
0.011393
-0.010814
0.011659
-0.011171
0.011916
-0.011523
0.012157
-0.011850
0.012392
-0.012172
0.012591
-0.012473
0.012796
-0.012760
0.012982
-0.013038
0.013136
-0.013290
0.013288
-0.013524
0.013401
-0.013744
0.013508
-0.013931
0.013593
-0.014110
0.013654
-0.014267
0.013705
-0.014397
0.013732
-0.014498
0.013736
-0.014576
0.013731
-0.014635
0.013693
-0.014674
0.013635
-0.014684
0.013566
-0.014690
0.013483
-0.014642
0.013374
-0.014597
0.013248
-0.014512
0.013087
-0.014417
0.012938
-0.014297
0.012755
-0.014147
0.012560
-0.013975
0.012356
-0.013791
0.012124
-0.013600
0.011901
-0.013377
0.011652
-0.013143
0.011404
-0.012878
0.011127
-0.012616
0.010850
-0.012326
0.010567
-0.012032
0.010272
-0.011726
0.009975
-0.011394
0.009673
-0.011072
0.009358
-0.010728
0.009050
-0.010393
0.008733
-0.010043
0.008410
-0.009683
0.008098
-0.009308
0.007776
-0.008965
0.007466
-0.008593
0.007148
-0.008240
0.006828
-0.007870
0.006530
-0.007514
0.006228
-0.007160
0.005922
-0.006786
0.005619
-0.006445
0.005327
-0.006096
0.005055
-0.005769
0.004770
-0.005436
0.004507
-0.005106
0.004235
-0.004791
0.003978
-0.004481
0.003735
-0.004184
0.003488
-0.003893
0.003265
-0.003627
0.003042
-0.003344
0.002829
-0.003089
0.002598
-0.002839
0.002420
-0.002610
0.002223
-0.002382
0.002046
-0.002165
0.001881
-0.001957
0.001718
-0.001781
0.001558
-0.001590
0.001424
-0.001434
0.001283
-0.001276
0.001156
-0.001141
0.001037
-0.000996
0.000917
-0.000880
0.000818
-0.000752
0.000715
-0.000655
0.000629
-0.000548
0.000544
-0.000475
0.000479
-0.000389
0.000408
-0.000317
0.000344
-0.000264
0.000286
-0.000213
0.000237
-0.000150
0.000194
-0.000128
0.000156
-0.000083
0.000116
-0.000062
0.000093
-0.000034
0.000067
-0.000003
0.000046
0.000008
0.000027
0.000009
0.000023
0.000021
0.000018
0.000027
-0.000003
0.000020
-0.000007
0.000014
-0.000008
0.000012
-0.000013
0.000015
0.000001
0.000021
0.000002
0.000012
0.000004
0.000019
0.000016
0.000010
0.000031
0.000013
0.000018
0.000024
0.000028
0.000031
0.000021
0.000024
0.000040
0.000034
0.000026
0.000042
0.000039
0.000042
0.000049
0.000034
0.000055
0.000048
0.000055
0.000067
0.000074
0.000048
0.000055
0.000093
0.000109
0.000065
0.000058
0.000118
0.000141
0.000059
0.000039
0.000165
0.000189
0.000044
0.000033
0.000221
0.000248
0.000037
0.000034
0.000278
0.000317
0.000028
-0.000001
0.000348
0.000395
-0.000008
-0.000026
0.000424
0.000478
-0.000048
-0.000059
0.000527
0.000582
-0.000088
-0.000112
0.000633
0.000694
-0.000144
-0.000168
0.000744
0.000833
-0.000199
-0.000244
0.000880
0.000968
-0.000268
-0.000330
0.001025
0.001105
-0.000355
-0.000423
0.001180
0.001278
-0.000462
-0.000539
0.001354
0.001468
0.001610
-0.000571
-0.000652
0.001558
0.001765
-0.000691
-0.000793
0.001762
0.001978
-0.000822
-0.000938
0.001978
0.002200
-0.000985
-0.001090
0.002203
0.002434
-0.001145
-0.001274
0.002449
0.002692
-0.001335
-0.001470
0.002686
0.002941
-0.001523
-0.001674
0.002954
0.003214
-0.001732
-0.001902
0.003232
0.003495
-0.001978
-0.002141
0.003497
0.003792
-0.002216
-0.002394
0.003797
0.004098
-0.002686
-0.002488
-0.002924
0.004090
0.004407
-0.002805
-0.003131
0.004401
0.004733
-0.003084
-0.003429
0.004726
0.005058
-0.003404
-0.003766
0.005060
0.005406
-0.003727
-0.004104
0.005389
0.005762
-0.004068
-0.004443
0.005739
0.006105
-0.004404
-0.004801
0.006078
0.006458
-0.004759
-0.005173
0.006437
0.006818
-0.005119
-0.005552
0.006777
0.007185
-0.005498
-0.005943
0.007149
0.007557
-0.005865
-0.006321
0.007504
0.007930
-0.006245
-0.006735
0.007865
0.008303
-0.006647
-0.007146
0.008234
0.008661
-0.007058
-0.007553
0.008598
0.009040
-0.007450
-0.007970
0.008958
0.009416
0.009749
-0.007863
-0.008396
0.009404
0.009964
-0.008269
-0.008806
0.009725
0.010316
-0.008679
-0.009245
0.010086
0.010660
-0.009077
-0.009657
0.010415
0.011000
-0.009488
-0.010084
0.010751
0.011341
-0.009896
-0.010484
0.011053
0.011643
-0.010286
-0.010891
0.011380
0.011969
-0.010675
-0.011307
0.011666
0.012253
-0.011061
-0.011690
0.011950
0.012546
-0.011437
-0.012086
0.012216
0.012800
-0.011783
-0.012424
-0.012829
0.012477
0.013060
-0.012274
-0.013024
0.012716
0.013302
-0.012537
-0.013376
0.012939
0.013514
-0.012895
-0.013671
0.013161
0.013718
-0.013208
-0.013974
0.013340
0.013898
-0.013496
-0.014254
0.013513
0.014073
-0.013766
-0.014522
0.013675
0.014213
-0.014022
-0.014768
0.013810
0.014354
-0.014255
-0.015004
0.013923
0.014458
-0.014465
-0.015190
0.014032
0.014544
-0.014632
-0.015372
0.014104
0.014614
-0.014807
-0.015539
0.014165
0.014666
-0.014959
-0.015683
0.014195
0.014698
-0.015071
-0.015776
0.014217
0.014710
-0.015178
-0.015871
0.014219
0.014725
-0.015254
-0.015932
0.014191
0.014689
0.014704
-0.015294
-0.015974
0.014182
0.014586
-0.015313
-0.015990
0.014071
0.014494
-0.015342
-0.015990
0.013965
0.014380
-0.015310
-0.015941
0.013867
0.014252
-0.015271
-0.015902
0.013743
0.014119
-0.015194
-0.015821
0.013607
0.013953
-0.015120
-0.015711
0.013428
0.013779
-0.014981
-0.015583
0.013259
0.013602
-0.014844
-0.015444
0.013063
0.013388
-0.014659
-0.015266
-0.015216
0.012862
0.013156
-0.014573
-0.014952
0.012644
0.012922
-0.014239
-0.014742
0.012411
0.012679
-0.014060
-0.014493
0.012158
0.012410
-0.013789
-0.014233
0.011893
0.012148
-0.013551
-0.013955
0.011638
0.011843
-0.013259
-0.013657
0.011344
0.011578
-0.012981
-0.013351
0.011063
0.011275
-0.012671
-0.013025
0.010769
0.010958
-0.012361
-0.012704
0.010463
0.010643
-0.012037
-0.012355
0.010157
0.010343
-0.011703
-0.012010
0.009837
0.009997
-0.011357
-0.011656
0.009521
0.009674
-0.011010
-0.011286
0.009192
0.009333
-0.010641
-0.010907
0.008859
0.008995
-0.010280
-0.010522
0.008504
0.008674
0.008463
-0.009911
-0.010161
0.008209
0.008150
-0.009544
-0.009770
0.007813
0.007812
-0.009171
-0.009380
0.007485
0.007476
-0.008791
-0.008995
0.007153
0.007141
-0.008426
-0.008604
0.006827
0.006826
-0.008040
-0.008225
0.006521
0.006507
-0.007673
-0.007851
0.006205
0.006185
-0.007302
-0.007464
0.005908
0.005881
-0.006936
-0.007090
0.005610
0.005580
-0.006570
-0.006709
0.005321
0.005296
-0.006180
-0.006349
-0.006117
0.005024
0.005000
-0.005859
-0.005793
0.004740
0.004714
-0.005452
-0.005457
0.004476
0.004441
-0.005115
-0.005110
0.004207
0.004176
-0.004797
-0.004783
0.003940
0.003922
-0.004479
-0.004483
0.003694
0.003671
-0.004185
-0.004174
0.003462
0.003443
-0.003885
-0.003878
0.003225
0.003212
-0.003615
-0.003607
0.003010
0.002990
-0.003334
-0.003314
0.002791
0.002772
-0.003080
-0.003064
0.002594
0.002566
-0.002840
-0.002811
0.002393
0.002365
-0.002594
-0.002591
0.002202
0.002182
-0.002372
-0.002360
0.002037
0.002008
-0.002163
-0.002138
0.001847
0.001838
0.001724
-0.001949
-0.001941
0.001680
0.001588
-0.001760
-0.001750
0.001507
0.001440
-0.001580
-0.001591
0.001367
0.001301
-0.001425
-0.001416
0.001220
0.001161
-0.001264
-0.001257
0.001106
0.001049
-0.001108
-0.001121
0.000988
0.000945
-0.000981
-0.000974
0.000880
0.000832
-0.000867
-0.000849
0.000777
0.000730
-0.000758
-0.000744
0.000681
0.000639
-0.000644
-0.000644
0.000600
0.000566
-0.000543
-0.000537
0.000521
0.000485
-0.000453
-0.000481
0.000447
0.000426
-0.000356
-0.000406
0.000372
0.000362
-0.000300
-0.000336
0.000319
0.000306
-0.000239
-0.000267
0.000264
0.000249
-0.000194
-0.000212
0.000218
0.000202
-0.000133
-0.000172
0.000176
0.000163
-0.000117
-0.000129
0.000148
0.000140
-0.000062
-0.000098
0.000109
0.000103
-0.000038
-0.000066
0.000084
0.000071
-0.000029
-0.000043
0.000053
0.000046
-0.000006
-0.000015
0.000042
0.000044
-0.000005
-0.000008
0.000022
0.000022
0.000016
0.000006
0.000012
0.000011
0.000012
0.000009
0.000004
0.000011
0.000025
0.000025
-0.000015
-0.000002
0.000019
0.000022
-0.000008
-0.000004
0.000020
0.000020
-0.000008
-0.000010
0.000015
0.000014
-0.000004
-0.000001
0.000016
0.000016
-0.000003
-0.000005
0.000016
0.000005
0.000003
0.000010
0.000000
0.000013
0.000009
SCALARS strain_3 float
LOOKUP_TABLE default
-0.000035
-0.000052
-0.000027
-0.000026
-0.000035
-0.000031
-0.000055
-0.000047
-0.000076
-0.000076
-0.000070
-0.000086
-0.000096
-0.000102
-0.000153
-0.000090
-0.000188
-0.000096
-0.000262
-0.000079
-0.000333
-0.000058
-0.000435
-0.000028
-0.000529
0.000003
-0.000660
0.000088
-0.000806
0.000149
-0.000956
0.000226
-0.001119
0.000341
-0.001318
0.000458
-0.001526
0.000586
-0.001762
0.000742
-0.002020
-0.002282
0.000932
-0.002580
0.001140
-0.002881
0.001359
-0.003204
0.001592
-0.003542
0.001853
-0.003906
0.002143
-0.004294
0.002449
-0.004679
0.002775
-0.005075
0.003122
-0.005512
0.003512
-0.005964
0.003926
0.004340
-0.006407
0.004778
-0.006857
0.005240
-0.007351
0.005724
-0.007829
0.006239
-0.008330
0.006772
-0.008841
0.007294
-0.009344
0.007868
-0.009870
0.008418
-0.010367
0.009025
-0.010888
0.009622
-0.011425
0.010222
-0.011951
0.010826
-0.012468
0.011459
-0.012979
0.012103
-0.013502
-0.013982
0.012724
-0.014518
0.013347
-0.014974
0.013980
-0.015455
0.014608
-0.015901
0.015219
-0.016338
0.015849
-0.016788
0.016433
-0.017184
0.017051
-0.017588
0.017638
-0.017948
0.018176
-0.018307
0.018750
0.019267
-0.018648
0.019770
-0.018939
0.020269
-0.019236
0.020743
-0.019489
0.021175
-0.019704
0.021586
-0.019933
0.021972
-0.020096
0.022300
-0.020239
0.022627
-0.020355
0.022921
-0.020451
0.023174
-0.020524
0.023377
-0.020559
0.023565
-0.020562
0.023701
-0.020515
0.023827
-0.020467
0.023895
-0.020391
-0.020286
0.023928
-0.020127
0.023935
-0.019981
0.023906
-0.019792
0.023857
-0.019591
0.023729
-0.019328
0.023601
-0.019075
0.023424
-0.018784
0.023206
-0.018517
0.022961
-0.018153
0.022716
0.022417
-0.017828
0.022075
-0.017458
0.021715
-0.017063
0.021334
-0.016697
0.020931
-0.016284
0.020505
-0.015869
0.020045
-0.015449
0.019585
-0.015016
0.019066
-0.014573
0.018581
-0.014112
0.018077
-0.013664
0.017513
-0.013196
0.016981
-0.012735
0.016433
-0.012289
0.015869
-0.011805
0.015276
-0.011373
-0.010887
0.014736
-0.010447
0.014148
-0.009994
0.013595
-0.009555
0.012999
-0.009117
0.012439
-0.008674
0.011867
-0.008256
0.011306
-0.007843
0.010748
-0.007448
0.010181
-0.007049
0.009652
-0.006681
0.009145
-0.006277
0.008620
-0.005922
0.008122
-0.005574
0.007626
-0.005245
0.007157
-0.004911
0.006687
-0.004596
0.006250
-0.004285
0.005822
-0.004013
0.005388
-0.003714
0.005003
-0.003450
0.004632
-0.003188
0.004236
-0.002953
0.003902
-0.002729
0.003559
-0.002500
0.003240
-0.002299
0.002929
-0.002100
0.002679
-0.001920
0.002413
-0.001734
0.002155
-0.001573
0.001943
-0.001429
0.001723
-0.001277
0.001510
-0.001144
0.001347
-0.001012
0.001157
-0.000897
0.001008
-0.000808
0.000861
-0.000723
0.000754
-0.000626
0.000617
-0.000514
0.000534
-0.000459
0.000425
-0.000359
0.000337
-0.000314
0.000279
-0.000263
0.000206
-0.000234
0.000163
-0.000172
0.000090
-0.000118
0.000083
-0.000111
0.000032
-0.000082
0.000010
-0.000072
-0.000018
-0.000040
-0.000007
-0.000019
-0.000022
0.000001
-0.000027
0.000009
-0.000044
-0.000007
-0.000032
-0.000009
-0.000034
0.000003
-0.000033
-0.000014
-0.000033
0.000006
-0.000018
-0.000016
-0.000011
-0.000013
-0.000033
-0.000018
-0.000055
-0.000038
-0.000072
-0.000046
-0.000068
-0.000058
-0.000104
-0.000108
-0.000080
-0.000142
-0.000099
-0.000187
-0.000072
-0.000267
-0.000084
-0.000350
-0.000053
-0.000449
-0.000012
-0.000572
0.000028
-0.000679
0.000086
-0.000827
0.000134
-0.000976
0.000237
-0.001164
0.000328
-0.001374
0.000453
-0.001554
0.000592
-0.001804
0.000733
-0.002042
0.000927
-0.002323
0.001113
-0.002604
0.001319
-0.002924
0.001574
-0.003224
0.001816
-0.003577
0.002096
-0.003940
0.002392
-0.004306
0.002727
-0.004692
0.003060
-0.005077
0.003425
-0.005488
0.003821
-0.005920
0.004215
-0.006367
0.004646
-0.006818
0.005115
-0.007273
0.005547
-0.007736
0.006036
-0.008207
0.006538
-0.008708
0.007053
-0.009188
0.007582
-0.009664
0.008117
-0.010155
0.008655
-0.010641
0.009223
-0.011140
0.009789
-0.011634
0.010357
-0.012108
0.010926
-0.012571
0.011505
-0.013031
0.012079
-0.013467
0.012663
-0.013910
0.013213
-0.014353
0.013787
-0.014764
0.014353
-0.015182
0.014873
-0.015577
0.015409
-0.015912
0.015948
-0.016257
0.016442
-0.016598
0.016927
-0.016902
0.017385
-0.017173
0.017824
-0.017432
0.018244
-0.017668
0.018649
-0.017885
0.019015
-0.018045
0.019368
-0.018220
0.019679
-0.018340
0.019966
-0.018453
0.020192
-0.018511
0.020431
-0.018568
0.020618
-0.018584
0.020792
-0.018544
0.020899
-0.018527
0.020986
-0.018455
0.021044
-0.018354
0.021060
-0.018257
0.021031
-0.018111
0.020977
-0.017946
0.020897
-0.017743
0.020787
-0.017514
0.020657
-0.017284
0.020456
-0.017024
0.020261
-0.016727
0.020005
-0.016433
0.019758
-0.016137
0.019448
-0.015789
0.019104
-0.015413
0.018757
-0.015058
0.018388
-0.014691
0.017996
-0.014307
0.017589
-0.013886
0.017156
-0.013490
0.016708
-0.013073
0.016225
-0.012667
0.015762
-0.012241
0.015269
-0.011796
0.014763
-0.011385
0.014263
-0.010954
0.013744
-0.010523
0.013216
-0.010087
0.012698
-0.009651
0.012171
-0.009242
0.011642
-0.008826
0.011123
-0.008410
0.010601
-0.008001
0.010086
-0.007617
0.009609
-0.007201
0.009068
-0.006827
0.008579
-0.006458
0.008104
-0.006110
0.007632
-0.005753
0.007167
-0.005400
0.006708
-0.005070
0.006264
-0.004767
0.005849
-0.004457
0.005456
-0.004136
0.005047
-0.003851
0.004681
-0.003596
0.004308
-0.003325
0.003968
-0.003078
0.003626
-0.002852
0.003320
-0.002624
0.003007
-0.002409
0.002728
-0.002208
0.002452
-0.002002
0.002202
-0.001821
0.001975
-0.001658
0.001763
-0.001509
0.001572
-0.001328
0.001359
-0.001201
0.001188
-0.001092
0.001025
-0.000951
0.000888
-0.000833
0.000765
-0.000736
0.000644
-0.000662
0.000528
-0.000534
0.000434
-0.000484
0.000349
-0.000389
0.000266
-0.000339
0.000202
-0.000305
0.000164
-0.000241
0.000119
-0.000193
0.000080
-0.000167
0.000027
-0.000109
0.000007
-0.000078
-0.000024
-0.000075
-0.000011
-0.000060
-0.000032
-0.000041
-0.000050
-0.000009
-0.000038
-0.000013
-0.000055
-0.000016
-0.000040
0.000001
-0.000038
-0.000011
-0.000034
-0.000024
-0.000035
-0.000020
-0.000018
-0.000025
-0.000020
-0.000026
-0.000034
-0.000050
-0.000025
-0.000028
-0.000031
-0.000063
-0.000057
-0.000037
-0.000037
-0.000051
-0.000055
-0.000032
-0.000058
-0.000069
-0.000062
-0.000079
-0.000066
-0.000075
-0.000081
-0.000078
-0.000080
-0.000119
-0.000086
-0.000097
-0.000133
-0.000146
-0.000109
-0.000095
-0.000184
-0.000233
-0.000099
-0.000079
-0.000241
-0.000285
-0.000076
-0.000076
-0.000321
-0.000368
-0.000049
-0.000059
-0.000397
-0.000472
-0.000044
-0.000000
-0.000515
-0.000592
-0.000005
0.000035
-0.000640
-0.000713
0.000054
0.000109
-0.000758
-0.000845
0.000129
0.000162
-0.000918
-0.001032
0.000213
0.000259
-0.001086
-0.001190
0.000292
0.000362
-0.001282
-0.001410
0.000396
0.000508
-0.001497
-0.001640
0.000545
0.000635
-0.001710
-0.001885
0.000675
0.000811
-0.001973
-0.002142
-0.002358
0.000844
0.000985
-0.002270
-0.002573
0.001046
0.001197
-0.002553
-0.002877
0.001246
0.001408
-0.002888
-0.003210
0.001486
0.001649
-0.003210
-0.003555
0.001735
0.001946
-0.003561
-0.003904
0.002008
0.002225
-0.003918
-0.004283
0.002305
0.002545
-0.004289
-0.004687
0.002634
0.002885
-0.004681
-0.005097
0.002978
0.003231
-0.005084
-0.005514
0.003338
0.003622
-0.005506
-0.005950
0.004057
0.003731
0.004408
-0.005939
-0.006389
0.004225
0.004716
-0.006376
-0.006836
0.004657
0.005178
-0.006826
-0.007323
0.005119
0.005654
-0.007294
-0.007795
0.005608
0.006165
-0.007780
-0.008283
0.006089
0.006685
-0.008267
-0.008775
0.006595
0.007227
-0.008751
-0.009280
0.007131
0.007766
-0.009227
-0.009804
0.007673
0.008314
-0.009738
-0.010315
0.008213
0.008896
-0.010232
-0.010814
0.008774
0.009466
-0.010737
-0.011337
0.009339
0.010051
-0.011227
-0.011848
0.009932
0.010667
-0.011731
-0.012333
0.010503
0.011261
-0.012222
-0.012848
0.011091
0.011899
-0.012742
-0.013374
-0.013816
0.011684
0.012490
-0.013335
-0.014133
0.012281
0.013109
-0.013757
-0.014589
0.012902
0.013715
-0.014248
-0.015061
0.013473
0.014323
-0.014683
-0.015524
0.014062
0.014927
-0.015132
-0.015948
0.014644
0.015514
-0.015547
-0.016352
0.015194
0.016109
-0.015955
-0.016738
0.015762
0.016686
-0.016324
-0.017136
0.016299
0.017242
-0.016698
-0.017490
0.016839
0.017816
-0.017049
-0.017820
0.017331
0.018293
0.018847
-0.017355
-0.018146
0.018033
0.019107
-0.017671
-0.018428
0.018383
0.019593
-0.017933
-0.018692
0.018897
0.020005
-0.018201
-0.018946
0.019307
0.020413
-0.018390
-0.019149
0.019692
0.020814
-0.018601
-0.019334
0.020067
0.021209
-0.018768
-0.019492
0.020403
0.021502
-0.018928
-0.019624
0.020727
0.021803
-0.019030
-0.019748
0.021000
0.022062
-0.019116
-0.019814
0.021232
0.022297
-0.019192
-0.019866
0.021450
0.022492
-0.019207
-0.019872
0.021619
0.022652
-0.019203
-0.019850
0.021755
0.022788
-0.019188
-0.019823
0.021885
0.022867
-0.019152
-0.019786
0.021940
0.022919
-0.019031
-0.019659
-0.019682
0.021977
0.022951
-0.018988
-0.019483
0.021958
0.022934
-0.018779
-0.019291
0.021951
0.022878
-0.018600
-0.019096
0.021873
0.022779
-0.018415
-0.018871
0.021775
0.022670
-0.018207
-0.018640
0.021646
0.022524
-0.017956
-0.018360
0.021477
0.022342
-0.017678
-0.018101
0.021234
0.022098
-0.017404
-0.017809
0.021018
0.021880
-0.017096
-0.017475
0.020704
0.021583
0.021497
-0.016765
-0.017132
0.020561
0.021061
-0.016428
-0.016780
0.020055
0.020734
-0.016081
-0.016390
0.019747
0.020318
-0.015715
-0.015995
0.019348
0.019929
-0.015330
-0.015601
0.018951
0.019494
-0.014958
-0.015178
0.018524
0.019031
-0.014518
-0.014778
0.018063
0.018562
-0.014116
-0.014334
0.017621
0.018096
-0.013697
-0.013911
0.017126
0.017586
-0.013273
-0.013469
0.016652
0.017055
-0.012845
-0.013034
0.016165
0.016577
-0.012397
-0.012583
0.015644
0.016031
-0.011965
-0.012117
0.015115
0.015500
-0.011524
-0.011659
0.014593
0.014939
-0.011062
-0.011199
0.014062
0.014397
-0.010601
-0.010754
-0.010470
0.013513
0.013817
-0.010178
-0.010052
0.012991
0.013268
-0.009652
-0.009604
0.012440
0.012714
-0.009213
-0.009161
0.011905
0.012149
-0.008782
-0.008734
0.011349
0.011604
-0.008353
-0.008326
0.010841
0.011060
-0.007958
-0.007935
0.010306
0.010525
-0.007568
-0.007505
0.009776
0.009980
-0.007176
-0.007089
0.009261
0.009464
-0.006787
-0.006723
0.008746
0.008937
-0.006415
-0.006365
0.008204
0.008424
0.008083
-0.006046
-0.005981
0.007738
0.007636
-0.005677
-0.005644
0.007168
0.007141
-0.005346
-0.005287
0.006691
0.006693
-0.005017
-0.004957
0.006278
0.006253
-0.004696
-0.004643
0.005835
0.005826
-0.004409
-0.004334
0.005427
0.005403
-0.004094
-0.004052
0.005052
0.005011
-0.003813
-0.003764
0.004650
0.004635
-0.003549
-0.003500
0.004268
0.004264
-0.003296
-0.003245
0.003923
0.003927
-0.003024
-0.003016
0.003608
0.003601
-0.002800
-0.002762
0.003275
0.003267
-0.002567
-0.002537
0.003002
0.002974
-0.002350
-0.002325
0.002714
0.002669
-0.002152
-0.002120
-0.001988
0.002445
0.002421
-0.001959
-0.001843
0.002202
0.002174
-0.001749
-0.001666
0.001983
0.001951
-0.001587
-0.001507
0.001739
0.001724
-0.001428
-0.001366
0.001534
0.001532
-0.001267
-0.001216
0.001369
0.001346
-0.001146
-0.001094
0.001190
0.001167
-0.001032
-0.000956
0.001015
0.001010
-0.000902
-0.000832
0.000883
0.000866
-0.000789
-0.000729
0.000735
0.000752
-0.000690
-0.000628
0.000622
0.000622
-0.000606
-0.000569
0.000519
0.000542
-0.000526
-0.000466
0.000399
0.000455
-0.000445
-0.000410
0.000314
0.000368
-0.000369
-0.000342
0.000269
0.000299
-0.000304
-0.000284
0.000207
0.000233
-0.000275
-0.000246
0.000140
0.000171
-0.000211
-0.000189
0.000096
0.000113
-0.000177
-0.000142
0.000048
0.000091
-0.000143
-0.000137
0.000025
0.000047
-0.000099
-0.000073
-0.000005
0.000000
-0.000065
-0.000057
-0.000026
0.000004
-0.000047
-0.000045
-0.000023
-0.000026
-0.000040
-0.000022
-0.000048
-0.000025
-0.000023
-0.000030
-0.000039
-0.000027
-0.000007
-0.000016
-0.000049
-0.000040
-0.000012
0.000012
-0.000053
-0.000035
0.000004
-0.000004
-0.000047
-0.000023
-0.000013
0.000005
-0.000022
-0.000051
0.000009
-0.000007
-0.000036
-0.000000
-0.000009
-0.000005
-0.000026
-0.000017
-0.000026
-0.000029
-0.000001
-0.000025
-0.000029
SCALARS stress_1 float
LOOKUP_TABLE default
-94.192165
-57.253703
-33.205375
-61.134733
-94.655404
-4.375698
-135.199634
-110.873485
-131.204899
-68.020677
-73.628095
-107.761175
-41.193202
-137.125346
-65.201971
-185.130550
8.695077
-92.337317
-130.291005
-102.095126
-89.461260
-71.770812
-9.490428
-35.153320
-60.679553
-10.381071
-68.914430
-59.454067
-67.845580
-41.510730
-102.815623
-12.243155
-89.571930
27.884973
-104.114499
78.873655
-102.111213
66.120784
-106.195234
152.397948
-52.498128
-121.653059
245.452519
6.997355
267.609756
-55.197409
345.828088
-43.026296
399.204362
-31.790351
480.063840
47.818330
621.136536
1.263431
651.976123
-44.105571
712.662093
-3.631293
890.959175
60.572057
877.735805
107.739751
1023.967767
1124.848758
186.871789
1197.029302
215.203443
1322.799943
281.717355
1373.714357
359.974057
1611.852035
339.973551
1693.977705
470.511639
1808.959804
398.010433
1904.756758
473.916257
1961.465416
499.903852
2160.411040
531.305338
2193.323643
681.217562
2332.300073
698.315265
2353.859291
806.352676
2530.229709
768.582424
2508.123983
860.409262
996.971613
2688.542112
997.788435
2622.792002
1036.883944
2798.409969
1029.451839
2850.800764
1034.841598
2866.964388
1142.343766
2933.305595
1131.210972
2981.035438
1124.847969
3142.787084
1076.393180
3044.754229
991.365564
3136.919517
961.097241
3196.722415
3089.550318
974.685059
3112.517433
935.803758
3111.817457
869.207568
3135.083556
731.993338
3107.973110
654.029504
3038.233492
474.893957
3076.522083
418.648829
3117.568896
306.294123
2961.373932
82.812479
2986.805628
-83.235568
2783.497148
-241.770528
2914.642190
-360.792401
2940.029699
-594.221695
2883.047070
-839.172616
2802.597456
-1018.987783
2845.068250
-1291.473498
-1576.321856
2729.573660
-1801.069175
2797.307384
-2111.328059
2789.926801
-2304.309563
2769.950873
-2558.819989
2708.379598
-2915.201956
2812.967206
-3127.822298
2745.346864
-3430.234689
2830.964898
-3689.805964
2789.454472
-3960.781893
2831.472968
2903.214084
-4313.162475
2976.466765
-4608.428752
3001.618406
-4832.923342
2939.132692
-5062.452547
2978.317525
-5403.902162
3102.366604
-5643.884790
3112.937310
-5812.497281
3094.915437
-5902.352239
3262.380477
-6161.660719
3385.332429
-6296.229024
3341.850786
-6485.423988
3503.496079
-6794.377174
3526.250952
-6792.088584
3545.115405
-6902.828202
3663.151571
-6979.938647
3705.937340
-7151.672548
-7184.372524
3684.341150
-7170.405409
3744.459849
-7187.577506
3879.047668
-7134.774608
3919.779345
-7094.609320
3950.751728
-7030.642175
3981.296939
-7016.890530
4040.933937
-6820.160686
4116.801143
-6792.819480
4148.303311
-6627.655855
4205.693069
-6457.265060
4067.260965
-6276.647094
4119.356474
-6169.397204
4117.173296
-5908.979074
4052.735647
-5746.084800
4025.562485
-5589.714383
3958.792233
-5399.155165
3863.829644
-5099.178734
3887.927347
-4929.266131
3861.839571
-4651.320508
3774.241056
-4397.611849
3602.228651
-4201.814895
3609.134476
-3902.832796
3421.633269
-3827.707126
3313.171358
-3486.569449
3181.170851
-3224.655035
3105.427554
-2984.884393
2991.941466
-2736.703850
2907.273120
-2600.822858
2790.405158
-2427.590896
2654.572852
-2137.814266
2405.776202
-1999.517184
2375.250479
-1686.831214
2256.881478
-1632.991627
2115.326579
-1379.918931
1897.935260
-1286.059453
1785.171205
-1153.683179
1638.342318
-1021.464848
1521.147554
-898.307610
1370.797967
-776.253040
1287.643037
-662.975876
1260.340143
-601.728747
958.256121
-621.740065
902.259408
-442.611936
812.716838
-345.344362
670.960532
-355.401024
562.990489
-328.474020
554.059339
-289.701771
435.824462
-247.084279
342.635336
-194.759965
280.606169
-160.517774
146.435913
-239.724542
68.449832
-122.729745
4.346879
-195.093916
25.338111
-172.834414
-41.226996
-173.650192
49.018394
-119.655457
-38.479394
-111.199687
-65.720358
-125.649716
9.337074
-138.288473
-67.832092
-61.472719
-44.584173
-109.456963
-151.876782
-45.566467
-76.156244
-84.434395
-167.903600
-59.614421
-170.004645
23.357138
-191.272539
-107.633924
-36.496228
-52.774444
-124.139395
19.724521
-94.779931
11.748766
-112.767312
-3.791700
-119.565223
42.892069
-107.540498
17.360606
-62.367876
-30.133462
63.374752
13.067248
25.337910
-37.362526
84.154763
6.926693
178.036364
33.495440
108.941142
-6.192604
268.983302
26.519944
211.007064
63.885713
314.434538
106.773138
463.802041
89.971165
515.531682
149.389804
532.159779
197.914849
546.880028
168.106832
696.668213
184.737342
783.392771
248.155855
899.029486
283.922905
834.772054
301.695872
1134.271000
378.149496
1259.816869
378.055364
1261.963334
527.762953
1412.000943
447.929646
1449.580218
525.441236
1611.009063
675.629844
1692.709587
717.284414
1757.989696
714.948121
1824.271498
858.392554
2018.399214
885.178244
2057.258638
844.076780
2211.579785
941.648695
2186.573708
1041.087685
2355.873573
1099.417967
2433.673078
1148.158501
2524.394332
1207.333502
2549.134186
1171.136669
2558.525804
1208.917478
2628.877089
1250.966477
2717.381740
1232.536294
2700.461866
1214.917476
2736.425373
1286.459501
2758.483313
1210.145010
2813.137290
1159.745592
2898.273098
1217.243890
2916.638106
1148.411491
2829.100753
1168.791570
2812.294202
1007.595182
2969.201098
960.576559
2941.129343
910.621493
2916.272635
691.387366
2909.727824
526.067876
2928.128074
439.434610
2846.341823
215.584418
2883.676973
157.174681
2845.019319
-113.811959
2936.870462
-244.181803
2801.441457
-541.163265
2863.618099
-654.773700
2840.576728
-880.127316
2767.528398
-1157.047773
2795.455753
-1355.324014
2793.877751
-1658.509714
2776.451774
-1842.085913
2822.274671
-2049.395230
2889.540139
-2328.129762
2850.230822
-2520.306865
2875.654622
-2794.732842
2968.468923
-3181.310844
2928.192681
-3277.383489
2889.272225
-3531.431819
2955.918609
-3782.473191
3076.308173
-3942.296549
3072.326712
-4225.725553
3080.956868
-4429.874410
3240.970228
-4605.532064
3196.560491
-4817.196914
3314.710299
-4965.983166
3416.077033
-5208.582915
3366.757543
-5270.127727
3580.523416
-5331.984434
3510.568350
-5466.056189
3531.549727
-5560.149294
3732.353339
-5707.955844
3635.733418
-5683.493197
3682.901019
-5757.128189
3767.399316
-5714.992382
3887.999899
-5732.338405
3876.685408
-5720.280464
3913.227432
-5656.316958
3889.608614
-5602.236831
3921.178431
-5543.732180
3911.227430
-5449.380895
3882.008240
-5340.989277
3934.811406
-5273.249424
3886.986408
-5064.528169
3842.726941
-4990.728664
3779.057224
-4819.428799
3779.496214
-4654.434876
3769.068128
-4440.113730
3686.966664
-4270.254306
3646.752355
-4080.126589
3608.196788
-3920.844787
3451.860495
-3657.564679
3435.515065
-3475.864154
3250.703672
-3256.435309
3146.215262
-3109.856034
3059.381955
-2863.818425
3031.089545
-2635.671960
2846.995413
-2529.126091
2675.449037
-2267.627146
2627.222004
-2145.884577
2481.989054
-1969.247862
2330.407567
-1707.523304
2187.038076
-1595.735119
2059.230060
-1448.014870
1948.755105
-1340.386774
1879.173744
-1109.657132
1685.371771
-1010.289629
1555.259196
-952.862155
1339.624965
-827.838393
1302.337513
-743.796233
1125.649469
-614.891456
1073.218215
-532.009854
930.507435
-500.193001
768.077661
-386.229844
713.278371
-314.487215
682.784303
-336.314593
514.252840
-283.289869
431.936609
-320.087779
430.396143
-199.075161
268.420388
-206.715696
208.919353
-268.358863
173.778832
-199.582552
169.787771
-140.850446
85.759330
-152.951491
-16.420696
-169.698847
-33.288624
-103.978309
31.601872
-110.270918
-12.382372
-87.022999
-119.601389
-43.566618
-87.997625
-115.073611
-76.526282
-112.635951
-121.253940
-49.958589
-158.029383
-158.471985
-161.888578
-117.521176
-76.721756
-174.274346
-75.445103
-113.230018
-44.827621
-71.949660
-65.289592
-154.674968
-37.403535
-11.359354
-58.539792
-118.162406
-72.678095
-54.344794
-106.898324
-98.944513
-115.123128
-68.893099
-131.900346
-97.661990
-66.392358
-80.426430
-78.120264
-133.172118
-46.925254
-18.038366
-103.851525
-102.070665
-68.822320
-88.708479
-84.187779
-108.946019
-58.834550
-46.134216
-158.110727
-118.154485
-135.536680
-75.435722
-103.080751
-32.363588
-53.095042
-70.530400
-68.139124
-50.726259
-82.029396
-98.301695
-39.736195
-7.146100
-99.169389
-16.325672
-8.857323
15.015838
-67.710096
-114.519686
66.961039
67.843793
-20.234889
-43.828445
88.233408
72.910071
-37.144397
-102.065043
57.062050
110.802188
16.423831
-138.389016
138.121300
259.309507
-100.058003
32.179549
-57.351543
160.089519
163.818118
66.295224
-64.163375
226.599874
151.178092
51.531933
-53.254465
301.188679
349.041395
49.870540
51.227167
330.181197
407.186908
33.449070
-28.138122
516.726348
478.088832
79.283700
69.949704
543.086387
630.979200
66.406274
51.990505
566.549530
566.447272
122.849965
140.719676
636.721068
738.228229
132.154291
136.942666
811.241061
894.631634
136.121482
85.437919
819.310466
928.958196
237.015534
227.707023
1013.591350
1017.048468
1113.580017
310.652377
197.787894
1050.018503
1181.878966
289.949752
205.072036
1197.060295
1261.975087
383.975328
286.808423
1250.650551
1465.481525
345.052035
395.792389
1351.303562
1619.302594
473.158876
379.807846
1478.633477
1552.425496
487.088451
479.017922
1593.348374
1798.526748
584.663533
417.403867
1681.757513
1831.649819
573.337742
581.297347
1925.469827
1988.438824
643.519034
645.760498
1861.896056
2013.499073
745.813608
751.976469
2014.476991
2172.097767
759.293661
759.225843
2208.848112
2201.812346
794.087987
799.788586
2272.075210
2299.970870
858.036296
844.274134
2240.227277
2412.445817
976.357778
925.648106
2380.886279
2585.420421
1056.116642
1042.012552
1075.441053
2560.719660
2543.787318
1064.719103
998.354984
2507.052681
2716.425442
1100.857282
1045.723009
2590.079039
2663.300079
1171.498664
1090.564394
2623.106639
2839.629143
1132.702389
1180.975165
2683.422823
2800.544214
1088.048308
1190.838213
2704.778200
2855.526702
1176.732282
1159.613115
2766.726813
2922.631531
1268.967697
1128.129968
2835.382465
2902.426024
1276.699730
1093.153486
2934.247679
2970.051373
1106.484806
1100.026303
2986.666434
2953.382536
1162.589272
1092.754793
2910.822025
2983.457504
3018.676117
1168.433358
1031.225688
2877.061729
3019.639315
1163.416386
883.213309
2946.324352
3020.840678
1012.249601
1000.285467
2947.677716
3011.356489
940.930305
829.718589
2909.286803
3038.083371
900.992045
723.842513
2960.025072
3043.694086
738.673314
651.150121
2918.481298
2975.405659
623.663459
452.410737
2943.351368
2919.670772
533.876144
352.593301
2951.049526
2931.811568
387.210865
182.737997
2904.824276
2896.918355
271.937608
-42.502794
2939.142102
2927.713098
94.852597
-186.424664
2983.632966
2973.996965
-109.326902
-329.268840
2846.625785
2785.523283
-251.506737
-527.541383
2811.133824
2783.063236
-556.477330
-778.702001
2805.057920
2827.308838
-709.912935
-1006.437726
2853.861270
2833.879635
-906.362952
-1265.329990
-1496.272277
2778.847672
2838.807525
-1229.844559
-1676.493875
2837.660887
2761.250652
-1419.858688
-1922.012600
2883.962355
2816.797388
-1672.856060
-2193.961136
2793.741059
2898.461870
-1950.120733
-2419.094195
2862.107633
2749.932102
-2132.706073
-2702.084675
2796.041500
2874.181167
-2556.468074
-3019.891337
2896.304620
2801.851709
-2759.575765
-3277.003086
2869.635647
2855.178660
-3022.499770
-3426.667990
2839.966221
2825.451209
-3256.523663
-3759.895141
2865.911229
2909.017292
2978.682628
-3513.630636
-4010.988330
3021.376490
3001.073283
-3768.644301
-4283.500343
2998.046627
2979.671268
-4042.989970
-4588.974776
3068.827721
2940.639058
-4252.892853
-4806.693973
3094.968061
3076.356955
-4403.315048
-5023.350518
3018.602374
3155.474558
-4690.141897
-5252.959387
3213.661836
3186.094486
-4949.301202
-5459.264360
3172.121440
3257.692027
-5008.630342
-5654.635041
3282.441667
3202.257070
-5263.720908
-5850.081877
3299.753612
3346.208537
-5554.009164
-6031.695781
3299.801442
3472.370088
-5656.321990
-6074.686532
3411.280457
3458.263902
-5830.253744
-6227.058124
3489.831134
3557.499314
-5828.811187
-6426.872689
3491.311394
3573.383825
-5906.885627
-6512.003259
3569.939169
3633.034861
-6038.829744
-6461.962941
3644.454952
3697.781775
-6044.478157
-6582.189270
-6738.072102
3653.547203
3823.032523
-6251.426639
-6672.724134
3768.662246
3817.883953
-6118.668983
-6640.622539
3838.782725
3865.626614
-6155.563971
-6609.976313
3871.005489
3948.609981
-6296.231097
-6575.942136
3828.565808
3949.581427
-6075.237556
-6544.247678
3947.062118
4040.755662
-6022.478213
-6431.319676
3954.886390
3978.309479
-5997.031185
-6375.894952
3986.348358
4075.276672
-5822.925234
-6240.179986
3980.380369
4065.950553
-5845.173221
-6209.864640
4054.717989
4091.825797
-5697.356676
-5995.647384
3937.409300
3995.971533
4035.442069
-5504.119263
-5811.009260
3907.890834
4010.269220
-5403.672036
-5723.739213
3938.516084
4006.323513
-5277.232910
-5485.490548
3896.849668
3923.653297
-5101.082368
-5250.188704
3852.744997
3984.546817
-4813.916147
-5022.386501
3822.226839
3896.511093
-4635.910603
-4963.274012
3784.546564
3802.034093
-4422.522560
-4602.838392
3611.064970
3695.887370
-4341.925156
-4559.152289
3677.003693
3682.214380
-4074.775772
-4235.211160
3596.153877
3592.024261
-3842.956564
-3995.675606
3455.381307
3419.358133
-3641.404055
-3812.938002
3310.949094
3336.739048
-3424.657178
-3553.008781
3312.701893
3236.074787
-3210.029857
-3391.877526
3153.200690
3094.983402
-3086.674668
-3108.355220
2973.629189
3026.459832
-2787.214116
-2914.914906
-2782.649416
2900.948951
2897.568070
-2628.455559
-2470.323015
2722.435932
2696.337398
-2327.368098
-2319.790966
2653.958569
2656.468079
-2120.251892
-2131.168307
2483.956329
2393.731265
-1931.114414
-1893.187464
2276.315007
2321.012749
-1734.334079
-1716.370954
2230.972467
2122.278253
-1561.685105
-1663.786730
2033.278623
2119.731101
-1453.277674
-1449.484314
1933.982291
1889.054199
-1230.616154
-1338.394261
1785.964131
1730.830100
-1252.610975
-1179.820231
1645.105073
1684.992861
-949.002649
-1069.500104
1538.038388
1476.554087
-974.974377
-933.853675
1466.759662
1367.852253
-683.017696
-748.926141
1240.932004
1320.116850
-732.717356
-731.917655
1048.869949
1164.624350
-531.658106
-596.378672
958.442301
976.898811
-533.954152
-606.337046
963.850760
916.081103
-502.311309
-476.390374
657.284426
722.830437
-304.103689
-347.139720
685.939715
721.269605
-349.562925
-372.247147
550.388579
635.729856
-312.592167
-213.844653
430.917909
550.398949
-270.291469
-390.139186
409.565623
494.103278
-242.919866
-274.341245
290.138023
393.306528
-156.483224
-219.362317
271.911954
309.054364
-226.882501
-267.139798
134.838547
215.113845
-218.187544
-96.293605
138.395641
185.865977
-150.336186
-173.683103
92.738563
95.203817
-245.511798
-187.615086
14.584077
148.351264
-150.219758
-197.076449
50.932184
13.029612
-75.615254
-214.176714
-26.812364
49.037415
-147.514956
-125.447890
-18.493787
-35.275849
-124.863711
-222.914441
-81.329999
-110.831761
-168.034125
-73.411329
-59.227055
-81.913558
-113.124685
SCALARS stress_2 float
LOOKUP_TABLE default
2335.403357
1710.505651
1930.412383
1061.527481
2355.696237
1629.093987
2874.945686
2531.043377
3594.532663
4331.832303
3857.375649
4295.614347
5270.942725
4426.629066
6943.372672
4647.873256
9583.290355
4307.264741
12820.153087
4312.178655
16849.210599
2490.986931
21149.150457
1275.146878
26855.222394
-788.509059
33278.656665
-3637.980878
39634.078138
-6166.436137
47443.796042
-10616.190469
55854.208190
-15473.098998
65597.314581
-20927.161722
75264.736879
-27695.401320
87442.103153
-35116.278305
99369.179943
112655.595318
-43386.190488
126875.658509
-52398.450301
141835.994382
-62815.998246
158328.060247
-74786.607269
175149.105836
-87895.589803
193178.815515
-100084.346861
211257.044404
-115557.730363
231716.417371
-130882.516458
251453.243647
-148272.099755
272086.292974
-165946.713712
294624.959963
-185402.295628
-204888.391394
316925.244613
-226613.625877
340950.541535
-248883.317914
364909.847525
-272528.319425
389905.244761
-296409.406557
414674.733242
-322303.973920
440151.789755
-348076.254973
465883.328922
-375477.190216
492638.202661
-402084.552596
519665.723407
-430947.654545
546503.512823
-459967.897077
573141.797963
-488675.053137
600311.891261
-520209.981051
626508.329001
-549442.220305
654439.508996
-581216.175114
680693.342664
707670.997561
-611429.845480
733771.615362
-642995.547037
759373.133367
-673337.134907
784866.005683
-704752.697671
809956.857177
-735916.235330
834496.369012
-766489.836463
857760.939000
-796164.043760
880244.478559
-826244.485289
902350.155245
-855330.706942
923707.110733
-884245.711921
943356.966688
-913019.582402
-938923.410167
962717.950163
-965255.964962
980331.373592
-991006.792676
997005.773260
-1014755.521378
1012461.376222
-1037207.841838
1026979.949018
-1058132.151866
1040510.577027
-1079094.142232
1050489.480900
-1097949.213950
1062368.660636
-1114911.367019
1070487.113034
-1130694.834898
1077520.920270
-1145107.245655
1084275.306196
-1157274.145182
1088140.270813
-1168106.990788
1091241.037972
-1177768.874258
1092520.377417
-1185586.022644
1092926.598380
-1189375.527731
1091150.154968
1088380.731547
-1194342.159261
1083426.183239
-1196743.463126
1077575.418261
-1197125.130095
1070214.979302
-1195172.018492
1061363.320472
-1192468.128318
1051464.751000
-1187236.923288
1040549.642820
-1181106.031468
1027756.847851
-1172140.600940
1014324.738025
-1162184.259770
999125.849627
-1151184.698729
-1137393.463707
983140.182658
-1122604.012015
966460.878793
-1107039.435436
948800.247263
-1090195.878848
929674.742176
-1070999.657885
910127.593790
-1051296.318440
889715.710320
-1028633.551281
867788.864714
-1007426.586664
845851.965187
-984080.200738
824407.554430
-960230.393502
800678.086551
-935815.941104
777263.933482
-909836.761367
754372.861764
-883491.857495
729754.871398
-856387.229485
706018.561370
-829404.656689
681664.240910
-800845.053728
656943.512208
632162.684494
-773500.654060
608222.129699
-745153.230631
584756.301934
-717864.247156
559756.431453
-688250.391201
536869.426474
-659711.435712
512199.204822
-631015.759027
488372.763292
-603036.219468
465476.555995
-574317.649480
443894.954862
-546704.137645
421205.417204
-519591.286151
399611.854439
-493120.413835
377998.266569
-466612.895830
357366.565012
-440752.278029
337464.894647
-414990.623132
317976.939837
-389462.789464
298262.700583
-365981.609469
279801.772670
-342847.171729
262158.616609
-320177.078431
244768.374077
-298112.793291
228277.272128
-277023.003875
213257.909749
-256653.483129
197006.974505
-237034.609389
182654.693452
-218699.070223
168804.126089
-200638.013710
154681.038957
-184514.525229
142784.037446
-167789.127993
131696.345409
-152801.822002
120141.110926
-138260.525081
108555.015160
-124766.240431
98673.433244
-112373.573442
89070.819287
-100604.524115
79675.235990
-88785.697839
72430.449896
-78612.324872
64447.066393
-68618.095982
57390.309335
-60058.386304
50563.326802
-52757.340715
44112.717779
-45265.274850
38273.169833
-38594.938977
32298.910020
-32178.875786
27720.997837
-26152.460411
23658.120853
-21639.383621
20743.881254
-17748.017347
17467.818530
-13622.595049
13170.910002
-10349.488658
11555.155669
-8075.076510
8606.700411
-5627.358606
6997.228591
-3703.937133
5391.572654
-1886.502861
3199.732601
-576.430925
2584.540877
-144.491067
2153.454791
1364.566445
316.846276
683.429177
606.090466
1799.346861
-338.894815
1659.776807
476.887229
2041.343883
-61.813131
1795.676155
83.773846
2271.625545
-50.976705
1427.192051
590.307149
1081.316176
1596.002229
2607.832994
1630.177850
3063.902080
2615.657379
3571.084841
2519.753249
2844.529358
4116.093529
4229.377306
5915.530139
4542.858941
7483.918200
4216.494276
10758.027457
3627.740620
13614.337898
3086.742852
17917.392212
2576.415593
22385.960143
984.133976
27428.748733
-1481.957119
34274.300671
-3015.485762
41596.698135
-6863.764386
48238.338936
-10393.878368
58003.532304
-15096.452575
67331.590674
-21589.115075
78323.138909
-26952.408558
89458.259189
-34081.273523
101936.806633
-43102.479716
115149.090474
-52140.197892
129163.508524
-61645.513432
143971.827323
-72946.281456
160734.589560
-85959.587344
177560.502280
-98229.286219
194640.335224
-112898.923971
214048.170571
-129116.437899
232319.547806
-144626.061462
251561.091796
-162317.731959
273892.884718
-181340.995280
294723.235802
-200248.476293
316241.457482
-220921.493834
339723.089244
-242746.899824
362888.755955
-264632.013099
386380.766845
-287721.458525
410391.891659
-312897.551738
435197.752059
-336039.378115
460132.890736
-362809.253293
485466.386664
-389062.262650
510223.779330
-415460.576943
535131.150910
-442747.426428
561006.040893
-470592.212120
586352.531454
-498313.476707
611475.076702
-526142.848257
636681.613937
-554909.872663
661063.284833
-583185.635302
685542.026690
-611991.909120
708652.293616
-639122.322185
732536.710477
-668279.190133
755083.958436
-696198.058855
776012.435305
-722262.013729
796822.822247
-749729.370390
817645.744127
-775862.671528
837542.197743
-802459.778669
856185.722583
-826281.922070
873385.315445
-849957.499542
889582.515816
-872818.744543
904814.402670
-894959.285142
919456.433318
-915392.124541
932387.144046
-935557.578375
943843.304597
-953605.192534
954285.224201
-970094.739965
962997.356968
-985655.848736
969777.242385
-999710.752306
976053.107505
-1012351.766308
980893.261561
-1023286.121000
984292.701350
-1032197.677908
986551.880979
-1039534.979722
987122.339938
-1046739.256697
985715.075023
-1050011.057927
983554.855979
-1052994.926102
980155.133711
-1053997.864424
974025.365531
-1053420.731216
967170.403359
-1050959.217249
960789.388870
-1046547.095467
951040.631295
-1041383.911763
939961.815000
-1033498.669338
928647.936781
-1025019.683827
916409.450749
-1015014.645999
902264.583956
-1002952.414179
886867.645634
-989696.136447
871611.777460
-974792.355491
854441.976229
-959837.620406
836769.699254
-942139.161447
818592.397440
-924287.981817
799382.840532
-904728.542029
778808.485840
-883972.387973
759015.471838
-862578.522853
737364.568268
-841002.637436
716183.459497
-817542.504669
694513.912066
-794496.585065
672362.297907
-769712.424514
649502.844073
-744741.713786
627488.004675
-719991.683138
604149.464076
-694203.796284
581082.219074
-668402.595913
558760.641602
-642631.003051
535834.498201
-615813.478211
514007.391060
-590889.024594
490908.089922
-563880.102714
468928.733261
-537923.715773
446946.778387
-512373.238904
425323.909665
-487345.990945
404043.041718
-461801.574084
382946.628652
-436337.307158
362894.354834
-412622.565301
342744.592195
-388740.894405
323685.567789
-366106.357170
304674.196239
-342561.811922
286304.931652
-320401.321361
267992.145960
-299744.431378
251133.296475
-278397.059798
234198.982182
-258613.667132
217935.972825
-238692.171204
203170.097648
-221179.032527
187402.271270
-203705.172127
173858.178057
-187266.047313
160788.732631
-169734.036423
147347.619356
-154470.369712
135690.213367
-140732.737950
123447.195825
-127084.516270
113021.714813
-113836.165186
102710.451491
-101888.372264
92712.780994
-91260.828274
83349.157431
-80415.451039
74913.643503
-71211.615692
67588.005751
-61511.782748
59524.306876
-53519.870028
52379.000988
-46273.107790
45940.232964
-39130.788992
39998.917424
-33218.370942
33749.199248
-27888.087101
29233.993055
-23479.539656
25071.128090
-17970.419377
21719.834607
-14224.871141
17873.172107
-10312.812772
14382.597900
-8145.619404
12342.483918
-5309.978603
9474.205295
-3769.581139
7288.676652
-1608.029200
6150.585556
-325.240610
3808.303940
397.327320
3429.976680
1636.381634
2186.978912
2010.692075
936.225257
2452.801332
749.860591
2827.189393
825.342226
2064.626003
298.190174
1904.966283
273.634691
1781.062153
664.817453
1670.541682
590.886538
336.213881
1606.717303
1585.667245
2252.608616
1882.153427
2272.364976
1750.927348
1539.057977
1522.195375
2116.925503
2703.547920
2393.071925
2864.452392
2453.983652
3244.158348
2057.564003
3071.683271
3103.281634
3684.191699
3841.756956
3149.258602
4709.638284
3759.343111
4317.977403
4459.506840
5494.767266
4160.276745
4543.203417
7012.295911
8007.253247
3748.993353
5214.572214
10115.973732
10853.043934
4791.551836
4464.174747
12630.622481
14024.849033
4392.963874
2958.882423
16093.357953
18787.200316
3296.708112
1613.540757
20486.965093
22650.259177
1174.163688
927.635068
25684.069046
28966.143809
-317.114726
-1853.965623
31151.292278
34719.222163
-1653.957947
-4486.402484
38018.436804
43084.807463
-5398.073295
-7629.828661
46305.735555
51236.857280
-9781.310028
-11879.491190
53873.500426
59516.305991
-13730.561402
-17223.433864
63526.945940
69689.962289
-19212.877060
-23001.975500
73918.720168
80353.434753
-25304.418413
-29987.677735
85379.371680
92424.762626
-32547.686805
-37308.661962
98057.511232
106115.139351
116524.552536
-40067.756936
-46424.594146
112673.792233
127203.326791
-49242.256876
-56729.175448
126450.418498
142081.779532
-58629.041745
-66235.708172
142955.308055
158904.678129
-70115.423976
-78470.860674
159449.000131
174912.417164
-81698.166911
-90483.186584
176278.432367
193365.282403
-95402.519753
-104902.612523
193546.348293
211699.980076
-109352.362165
-120198.267884
212458.298905
231079.676422
-124545.916663
-135651.485405
231980.706026
251425.723353
-140550.832936
-152606.759183
252233.122480
273346.594450
-157913.908999
-171411.064163
273285.731306
294750.906048
-192474.830208
-176931.732370
-208938.090052
294968.431377
317714.941497
-200170.333395
-224120.118598
317396.579955
339836.646367
-220715.801211
-245314.624090
339963.235463
363603.761320
-244068.464188
-269113.907355
363542.524643
388373.860798
-266714.593758
-293318.749289
387574.309284
413789.596344
-290906.071484
-318804.735538
411725.789225
438574.068546
-315360.812523
-344516.077142
436880.275296
464133.518063
-340131.991904
-371192.130837
461828.411576
490191.186358
-366240.697134
-398024.075384
487816.386430
515875.294080
-392919.798820
-425698.611156
513514.737748
542613.659809
-420485.282813
-454509.278169
539246.897223
569438.886512
-448311.738498
-483223.371245
565957.679428
596493.975540
-476680.288076
-511713.739649
591218.062475
622242.786011
-505409.776798
-541493.668053
617913.967672
649757.036734
-534215.126217
-571919.727171
644064.201882
676362.067323
700001.266276
-563792.816059
-602085.735303
675156.855317
715978.903215
-592378.158755
-631307.856802
698557.337324
740568.788648
-621518.700197
-663120.098074
724102.833272
766285.448609
-650752.756021
-692372.067710
748035.792312
790829.960455
-680049.922010
-722840.010110
772047.231046
815344.926667
-709715.274747
-751834.297454
795046.371747
837323.165013
-737278.896656
-781276.890544
817151.232551
858526.822765
-765691.371258
-810194.861671
837996.907108
880812.983172
-793720.277535
-837879.624395
857746.440241
900602.859144
-819626.212862
-866654.203289
878420.097955
919441.960293
-845348.090740
-891404.944051
-919787.019853
896644.614251
938192.861050
-880604.660929
-933342.680719
913562.766869
954285.475506
-899131.023438
-959449.827544
929413.873317
971216.155854
-925228.454138
-980235.276592
945497.174519
985931.901285
-946392.722576
-1001937.746189
958298.825221
998192.339061
-968711.884803
-1021793.237370
970100.590369
1010976.586326
-987400.494699
-1042010.596992
982466.888851
1021221.710308
-1005454.831101
-1059594.985665
991601.084861
1031396.361751
-1022369.377986
-1075888.382061
1000750.294194
1038859.296266
-1036756.297035
-1090359.290153
1007431.917864
1044579.976223
-1050403.269957
-1103051.964244
1013798.768578
1050242.878417
-1062330.201767
-1114951.882437
1016608.426098
1053968.434548
-1072861.747749
-1123945.268850
1019420.358404
1055322.221434
-1081348.419912
-1132088.397777
1020867.655964
1056211.244177
-1088929.483992
-1138118.564288
1021156.430830
1056694.122568
-1094176.509353
-1143252.131797
1018635.933582
1053595.197821
1056576.430947
-1097466.848983
-1145511.079209
1018332.667416
1047322.405881
-1099506.928996
-1147945.630661
1010093.759160
1041613.061639
-1099423.969233
-1146808.153810
1004129.774632
1032076.625593
-1098354.507566
-1143941.444541
995884.057375
1024113.708219
-1094542.360184
-1140210.702431
987812.114388
1013929.562175
-1089386.329375
-1134983.195100
977346.517423
1002227.402751
-1084113.228637
-1127479.896904
965235.129872
990111.544271
-1074314.477110
-1117445.138447
953299.551809
975515.006479
-1064890.105787
-1107729.950421
937830.691157
961193.427301
-1051320.888587
-1095339.592122
-1092332.205815
924472.038069
944590.730972
-1046348.380410
-1072812.201326
907647.609874
927171.007675
-1021153.142217
-1056981.250686
890860.215005
910567.842515
-1007936.559773
-1038881.705008
873559.669895
891301.106894
-989302.968716
-1020374.182539
854174.735754
871367.060690
-971638.185310
-1000633.590690
834833.023042
851547.827950
-950923.431748
-979218.843517
814613.963453
830538.375071
-930618.750746
-957134.419445
793833.139699
808711.655099
-908730.564128
-933754.095941
772237.120349
786814.165352
-885856.540779
-910527.713190
751574.264527
764146.330326
-862817.355459
-886356.722099
728496.224052
741188.222612
-838904.415586
-861428.181903
706848.148606
718337.459846
-814386.034927
-835767.366332
682386.236941
694221.821379
-788056.038187
-809354.404800
659408.974928
669929.078832
-763004.511819
-781248.267962
635637.460755
645368.560126
-736508.309872
-754830.753040
610517.553527
622845.665730
607846.654811
-710298.251718
-727421.671667
589231.167283
585422.049125
-683723.485439
-700004.796790
560653.274270
561230.845947
-656957.014235
-672461.447244
536752.275770
536346.995198
-630320.611054
-644020.998166
514426.084838
512604.136964
-603196.881284
-616543.847365
490856.090790
489667.183977
-576818.981539
-589501.880382
467747.255198
467605.715495
-549927.063907
-561537.266107
446025.016957
444938.764860
-523163.829825
-535052.280684
423657.543356
422157.814457
-496842.815571
-507746.824062
402467.160181
400751.976628
-471301.062248
-482180.351678
381963.647047
379311.426125
-443083.231472
-455534.960406
-437901.395194
361284.562915
358863.304626
-419322.090950
-415190.157785
340738.450475
338583.069439
-391183.300635
-390865.761680
321048.918320
319502.404405
-366983.213711
-366345.599825
302294.496330
300010.346324
-343383.171922
-343255.078846
284355.733863
282479.941098
-320857.585025
-319449.877488
266211.657869
263972.347486
-299412.062968
-299388.114763
248621.347325
247447.717558
-278064.762080
-277663.295467
232317.628270
229990.239418
-257768.545240
-256100.360899
216492.191474
214957.808480
-238620.486064
-237298.953809
200113.402200
199198.316423
-220121.581907
-220108.513897
186173.099567
185090.101557
-202812.887994
-201840.384279
171439.990329
169791.183340
-185461.717020
-184688.714640
158682.127863
157144.020172
-169285.606607
-168691.757380
145475.618359
143652.422372
-154186.653878
-153579.876679
132866.809158
132525.107340
123814.508902
-140082.182199
-139198.764655
121097.974479
114142.747954
-125955.094723
-124861.548579
108860.402798
103398.018231
-112977.624908
-112798.404536
97675.992724
93670.754327
-101751.854932
-100212.651101
88925.788861
84676.185725
-90303.015050
-90001.518529
79606.398477
75983.646448
-79541.325912
-78894.155163
70947.611578
67923.490530
-70001.304592
-69407.753913
63529.624551
60505.768169
-61126.026340
-60255.494064
56342.880039
53180.014313
-52891.745406
-52915.168589
49175.335077
46214.330327
-46143.790532
-45291.925805
43738.321575
40942.718628
-38237.374550
-38480.099261
37637.454530
35933.303278
-31329.409941
-34078.264950
32585.806511
29975.530910
-26106.475260
-29234.029968
27751.358043
26115.827095
-20975.981911
-23547.892076
23658.089651
21432.842844
-16838.770906
-19477.720815
19634.771078
18135.505848
-12962.101268
-14855.132819
16375.218496
15069.644561
-9630.551974
-12024.204657
13559.533820
11947.745088
-6800.816451
-8686.861874
10363.457448
9764.854407
-4856.460873
-6483.198926
8447.216436
7391.880999
-2261.461225
-3421.413257
5968.306781
4862.404904
-143.534157
-2496.581169
4261.776778
4331.053110
512.866223
-568.847540
3569.634687
2840.751730
778.075026
16.243341
2307.920012
2025.623759
1867.359591
1023.857691
1873.284023
679.263114
1255.301298
2033.871972
1210.991654
766.171940
2051.690699
1791.803804
280.154100
114.834465
2329.160933
1973.262570
197.029291
-462.920555
2471.711998
2165.254677
81.349565
415.620940
1973.255314
1495.153656
853.613680
213.799974
1825.961639
1541.584374
393.793766
1102.181218
1553.439565
925.740632
564.190963
1372.788559
224.168128
1380.546629
1019.070160
SCALARS stress_3 float
LOOKUP_TABLE default
-2115.726804
-1500.352376
-2419.881037
-2330.123488
-2949.813400
-3577.328233
-3235.266748
-2712.126978
-4478.715913
-6681.639353
-4122.519724
-6772.789450
-6935.272005
-7123.123120
-8323.908988
-7157.636737
-12634.952216
-6074.317148
-17051.893299
-5718.642811
-21347.775321
-5041.088559
-27777.337512
-2161.146001
-36161.622955
1680.214792
-43667.879268
4614.993823
-52582.627995
9010.221020
-63920.126278
14826.160782
-76350.651669
21780.582270
-87942.204167
28541.485482
-102922.301689
38957.669510
-118780.469402
49307.629592
-133950.456061
-152729.786836
62525.643276
-171616.718870
74576.971334
-191381.773706
88988.399705
-214804.442955
106531.684396
-236629.769700
122984.086179
-261341.489545
142218.886228
-285553.371650
162818.850078
-312411.937556
184410.737364
-339407.444410
207957.822008
-368332.644592
234202.355255
-396862.812027
260976.119417
288122.626511
-427189.946713
318712.398077
-457821.322576
350292.702140
-490533.935988
381622.304233
-521633.800103
414167.963990
-556460.914921
450364.955334
-589328.567517
485331.529510
-623359.741114
524090.472457
-656985.201246
561493.540183
-692134.208683
601201.993457
-726842.281342
640165.113457
-761941.663215
680638.656190
-795849.615073
721735.394441
-831152.638054
763232.832975
-864845.009706
806307.256592
-899714.709626
-932972.767745
846610.665293
-965734.411276
889459.323475
-997863.422532
931119.000298
-1030752.289499
972557.716167
-1059083.533718
1013395.471082
-1089197.887166
1056012.285446
-1119365.627393
1096176.667651
-1144594.733995
1134586.142862
-1171844.236902
1175280.223097
-1197117.363328
1212169.911980
-1221741.631189
1249197.222665
1283749.179182
-1242925.284479
1318422.533912
-1262929.583967
1348396.798871
-1282017.030791
1381265.499228
-1299423.868943
1411406.377836
-1314395.847180
1437337.712245
-1328285.982279
1464221.245311
-1340108.510982
1487070.258209
-1348883.433288
1507060.750939
-1358615.745571
1525822.974745
-1363567.460984
1543978.454796
-1368359.819894
1558646.703106
-1369864.822300
1570075.211287
-1370807.708568
1580335.003368
-1370201.231081
1588790.323342
-1365023.646984
1592872.195240
-1360727.444260
-1352928.358514
1595677.371443
-1344348.158905
1596245.363967
-1331971.821404
1594445.915667
-1320335.854398
1588823.799328
-1304788.745874
1581691.014952
-1289648.752975
1572313.061399
-1271958.350535
1561567.463840
-1253432.304087
1548063.456738
-1234001.088464
1531718.565263
-1212159.204802
1512954.532268
1492634.869770
-1187894.653103
1471351.069378
-1164782.660579
1448294.155125
-1139521.484376
1421974.357848
-1112799.612478
1394199.941946
-1086164.292503
1365906.419433
-1058392.500422
1335807.533164
-1030159.992242
1303530.530758
-1000319.743932
1271342.171849
-971988.263881
1237086.456436
-941118.040075
1202946.144152
-910287.547345
1166935.221846
-880878.534447
1131412.693144
-848915.001381
1094838.558044
-819151.666971
1056710.579808
-789026.788363
1019103.741655
-757294.088007
-726071.823048
980476.294831
-696646.468317
942227.995343
-666650.511801
904596.342054
-635775.201116
867356.074192
-607745.512233
827722.947766
-579123.431998
790145.444859
-551441.956786
754072.338258
-523461.574582
715772.598030
-496836.760217
679990.244582
-469163.005303
644071.000363
-443072.289434
609342.133397
-419420.612611
574585.122140
-395567.954429
541099.478609
-372492.545728
508605.420490
-350714.122110
476451.720570
-327392.683577
445487.348918
-306223.945325
415660.325937
-286334.402593
385892.374079
-266747.282593
359884.992206
-248314.829318
332648.919548
-230227.761593
308063.912110
-213292.818646
282854.451979
-197614.244470
260267.278382
-182001.253125
236855.625785
-167063.593369
216984.510967
-154141.991276
196860.646852
-140753.687213
177940.033440
-128347.915647
160852.657577
-116929.408553
143765.522891
-105915.644390
129071.355456
-94367.111144
113086.155274
-85124.026500
100662.648421
-76912.139214
88240.082514
-68812.175364
77828.200409
-61305.375314
67572.480564
-53820.973532
57483.153819
-46773.688841
49396.484570
-41238.260470
41567.429734
-35170.932412
34004.497700
-29328.918727
27709.166925
-25834.958646
21235.180266
-20302.774617
18073.012553
-17861.871405
13124.915032
-14559.449918
9333.362534
-12675.510156
7262.837143
-9968.282958
4241.338859
-6513.503928
2634.590133
-5452.143134
1800.333819
-5056.200577
-1119.951624
-3114.646325
-973.513815
-1218.971988
-3217.395837
172.347601
-2742.336920
101.833984
-3213.380148
71.500314
-3350.017131
224.350217
-3414.769412
261.426777
-2949.162157
-702.022388
-2167.960903
-1135.475736
-1023.165648
-1853.408099
-1725.562332
-2256.517853
-2756.480670
-2590.746262
-4766.889583
-3077.559145
-4858.053946
-4022.217272
-5051.208226
-5714.245812
-5853.579636
-7232.410298
-6452.415795
-9470.479892
-7551.425999
-14565.206975
-6462.101861
-18168.882249
-5602.674219
-23458.014104
-3820.126295
-30025.354921
-879.936547
-36539.439395
1447.664186
-45648.775915
4940.201071
-55571.377633
10434.934879
-66537.522101
15464.882389
-77409.466461
20944.565143
-90992.471486
29339.508309
-106077.058718
39094.220277
-120217.241309
48603.486984
-137030.788419
60504.060813
-154487.957194
74061.975322
-174311.025183
87754.247288
-194697.741142
103326.645872
-216232.613459
120372.187852
-238912.176831
138848.642390
-262169.183638
159223.521500
-287149.647033
180960.607495
-311771.071780
203502.151620
-338795.979420
227743.936187
-367498.383107
253445.473212
-395624.539984
280129.284237
-425175.710824
309826.637284
-454961.400389
339528.297888
-484404.130222
369797.534072
-516986.157468
401600.867379
-548500.234507
435122.562204
-580393.879257
470043.635326
-612363.600106
504940.351143
-644224.406582
540093.726433
-677337.803447
576901.794753
-710473.803855
613079.803722
-741913.912568
650957.034516
-774068.142739
690521.995522
-806172.982354
728164.211911
-837116.213724
766767.195696
-869357.064064
804063.963656
-898635.315687
842566.271800
-927347.456578
881747.645295
-957068.008278
919112.348537
-984309.702764
955563.893543
-1011578.817587
991615.297091
-1037216.084722
1026906.823577
-1062860.025713
1062010.981392
-1085195.636934
1095691.546947
-1106364.423146
1128015.767861
-1127407.380726
1158713.921682
-1146122.014435
1189056.259657
-1163415.333801
1216012.306952
-1178294.830435
1243405.067194
-1192327.005473
1267446.804779
-1203824.611298
1289465.031723
-1213517.905054
1311151.504033
-1221715.374727
1330423.746878
-1228726.525079
1346996.011501
-1235163.600103
1362280.562299
-1237168.856943
1375100.646892
-1237503.291975
1384736.041691
-1237903.393183
1393403.255085
-1235150.665330
1398641.534693
-1230138.104789
1403861.396155
-1223862.463944
1403715.347863
-1216089.227152
1403254.393440
-1206401.886024
1399215.305674
-1195747.206095
1393951.827420
-1182764.414578
1386555.714684
-1168823.768619
1375278.479483
-1151629.003820
1364483.125443
-1135013.116555
1349385.916960
-1115304.594810
1334328.596889
-1094775.682576
1314607.938016
-1074804.636998
1296149.174808
-1052926.685291
1274776.815654
-1029278.823828
1250349.376194
-1005192.544220
1224902.104047
-978797.330826
1200094.002840
-953437.936028
1171615.567808
-926577.851435
1143454.310967
-898709.300636
1112621.235943
-872329.036013
1081846.085591
-843668.793169
1050444.615918
-814986.320858
1016479.322162
-788144.093915
984177.716338
-758814.356330
950477.541299
-729797.596088
916630.044666
-701081.548793
881676.725300
-672367.210818
847130.091590
-644041.056996
810755.134011
-615060.836083
776302.347798
-588928.270528
740594.736578
-560844.112713
706270.795587
-533452.586226
672545.528451
-508117.182679
637384.413628
-480961.637673
605146.719142
-456272.934430
572006.167442
-430399.560936
539830.026552
-407029.252792
507259.774929
-383496.484832
476642.924589
-361469.501047
448231.693218
-339527.284658
416882.853603
-318098.323651
390344.623432
-296737.092858
362644.514719
-277903.083889
336732.514311
-257815.015569
311167.117446
-240313.640279
286730.310970
-221484.924462
262832.590121
-206323.851339
242730.945371
-189650.156514
220092.868332
-174678.823208
200222.841086
-162017.587024
180532.111254
-147867.926420
163958.421688
-134698.573372
146763.250849
-122890.762348
131993.093971
-111057.225323
116310.690285
-99431.440756
104601.782645
-91009.896631
91380.357898
-80704.810636
78943.894503
-71717.931526
68654.887695
-63109.476988
58195.324324
-56859.935007
50292.452006
-49443.536423
42213.736047
-42799.264457
35174.668058
-37537.349949
28253.499284
-31268.776120
24167.952173
-28247.509412
18843.769582
-22276.797445
13783.182351
-20689.854279
8912.177326
-14706.171525
6408.232965
-12004.224015
3914.088498
-8337.490207
2031.486779
-7672.953322
-153.849741
-6261.352589
-1839.934215
-4425.162841
-1395.275032
-2518.614917
-2468.406886
-3079.187275
-2872.082160
-1693.863136
-3610.809243
-1604.873341
-5192.878837
-1071.709499
-2951.043324
-902.080909
-2287.071864
-1235.235189
-2451.729991
-1534.399553
-3318.542874
-1324.808466
-1428.936760
-2912.771283
-1388.137444
-2411.784782
-1379.970914
-2771.919473
-3485.443051
-2823.203282
-1980.354445
-3958.299393
-2973.317277
-1825.115050
-2565.781793
-3708.349512
-4324.407297
-3416.422185
-3723.886172
-3622.233861
-4562.989279
-6632.883571
-4104.278885
-5073.877956
-5610.185002
-6283.399409
-6101.763143
-7953.413840
-6904.162491
-6406.506743
-8912.860454
-10584.487548
-6898.255696
-7178.162155
-12871.645186
-14015.973777
-5961.459886
-5624.321886
-16240.130490
-18663.103051
-6120.016885
-3726.053855
-21069.740864
-24482.757791
-4446.643571
-3492.116343
-27832.192864
-30931.001562
-2717.369067
-1364.979641
-34846.261108
-39194.461990
-152.182945
3201.265557
-41743.545017
-47385.515059
3065.270039
6506.778411
-50777.846568
-58356.742671
7044.058664
10931.199265
-61435.869584
-69121.550650
13071.971625
17291.382173
-73683.101510
-80316.970758
18601.808143
24178.762423
-85555.771451
-94307.346310
26510.758065
32771.875215
-99781.000919
-108243.927641
35439.364322
42457.476984
-114769.758136
-124387.038125
45369.594701
53264.945523
-131574.160956
-143439.482861
-158067.967198
57485.627439
65676.302093
-152474.132988
-171807.157371
69452.987703
80189.368097
-170564.183438
-192595.464368
83033.444654
93345.099468
-192495.769464
-213431.863678
98924.259063
110228.213678
-214665.068546
-236562.389484
115224.176059
128423.831369
-238861.752528
-260081.432169
135474.691307
147222.896311
-260456.572984
-286457.219014
153321.521852
169304.168635
-286372.659997
-311277.911402
175306.306687
191651.491355
-313048.691584
-339183.908454
198336.021773
215927.558861
-339313.734430
-367161.493621
222882.171883
240641.101756
-367846.289177
-397104.005231
269561.392583
248182.781701
293862.119329
-396246.094627
-426785.897712
280963.841031
314086.976516
-425628.462314
-456696.362880
309506.397962
344404.536952
-455470.525177
-488209.346773
341228.347497
377084.937381
-486592.573421
-520875.366873
373576.827337
410495.905595
-517602.157170
-553176.575485
406142.449979
444448.345039
-550548.116324
-585532.926013
440311.971972
479987.228116
-582852.083112
-619764.505000
474746.004706
517076.318940
-615714.600832
-653542.946025
510804.740920
554679.033406
-648908.096254
-687042.485828
546413.420484
592630.125246
-681986.699058
-720740.731678
585248.174064
631162.646642
-716193.871847
-755174.501246
622682.963064
669903.465153
-749476.417766
-789151.875272
661091.219231
711856.622931
-782592.858853
-822709.201131
698465.927139
751779.696411
-816516.692117
-857416.159089
738651.624680
792936.652029
-850122.351816
-891368.201818
-920920.759948
779180.828847
832404.843974
-889868.814682
-941680.809860
819162.800411
873316.298553
-916275.040773
-972019.184147
857613.051387
914853.023017
-949190.492031
-1004212.210161
897099.846171
954518.747069
-980648.484066
-1034150.789517
936030.899964
994424.334205
-1009414.034362
-1063193.658118
974766.272618
1033563.553600
-1036285.741024
-1090266.369276
1012799.271632
1073633.519980
-1063049.544686
-1117890.103504
1049349.877942
1111506.982542
-1089543.871632
-1142098.701617
1087111.214032
1149965.463258
-1113302.519165
-1167324.791730
1122250.397732
1187186.122202
-1137253.322209
-1188807.497676
1154812.331026
1218456.981582
1256821.763918
-1156868.699300
-1210305.111027
1202578.374778
1274363.581744
-1176686.531696
-1229660.814125
1225225.649354
1305165.114344
-1195662.739505
-1247367.512629
1259172.649335
1334112.952585
-1212296.901971
-1264469.152583
1287286.148798
1360510.413957
-1227140.315528
-1276507.458659
1312136.501819
1386700.113931
-1241207.072841
-1290609.682637
1338676.123380
1411738.665623
-1251948.875468
-1299594.421294
1362241.849195
1433099.064926
-1261842.589613
-1309083.998890
1381484.041260
1454204.593488
-1268767.639774
-1317087.777837
1398899.523135
1469010.983744
-1274937.307126
-1321383.429716
1414353.307041
1485971.095971
-1280174.992563
-1322028.467511
1428007.365321
1499365.085792
-1279993.167243
-1325474.607284
1441010.627234
1511198.220743
-1280503.654405
-1324154.836820
1450193.419742
1520256.224618
-1278850.609529
-1321184.520730
1457895.550602
1524613.259318
-1276898.426699
-1318327.521220
1463840.905508
1528059.095827
-1269617.949611
-1312219.200512
-1312216.309060
1464881.964703
1528307.830770
-1265788.972453
-1298013.774639
1464544.716861
1527309.211050
-1251882.594670
-1286803.808122
1462823.344767
1524102.880208
-1240653.368841
-1272978.365758
1457703.498733
1518917.167052
-1227436.873920
-1258884.777860
1450171.836357
1510465.137775
-1214175.510472
-1242679.091519
1444010.693698
1501918.481750
-1198255.860406
-1223392.405155
1431722.792779
1489420.464694
-1179853.102386
-1206522.087066
1416855.382960
1473659.500203
-1160318.262266
-1185821.959885
1402415.857477
1458205.995613
-1141111.583574
-1163694.107461
1380672.389336
1438864.820244
1432366.953672
-1118118.874042
-1141042.496341
1371283.651691
1404692.984834
-1095234.273809
-1117930.775474
1335377.287772
1382122.419787
-1071994.352475
-1093609.821515
1315781.858586
1354238.276029
-1048025.061982
-1066160.448922
1287303.130363
1327138.732241
-1021269.971496
-1041608.738444
1263378.157529
1300092.963896
-996724.212972
-1012526.791256
1233002.606894
1268710.941147
-970107.249013
-986765.675381
1204107.832626
1237226.791802
-941931.006604
-956320.417552
1174876.512739
1206702.397503
-914191.796851
-926425.448608
1143169.165585
1173156.336945
-886188.080083
-896906.649313
1110044.515890
1138566.094486
-856594.008223
-868233.754766
1075741.852080
1104001.110478
-827434.444279
-839202.745937
1041866.036301
1067726.349104
-797681.921122
-808447.386085
1008340.429996
1030949.303318
-768611.161736
-778388.055752
971613.877606
995367.393066
-737975.197402
-747453.739877
937200.320629
958348.548532
-705970.430597
-718333.158383
-698797.836772
900568.940920
921628.342944
-678651.008632
-670824.026083
865240.972943
884726.532312
-644083.625559
-640422.338032
829755.420326
846302.384656
-614822.902776
-611276.624073
793624.039075
809561.378436
-585184.469618
-583608.568281
756779.555267
774481.791200
-559607.167078
-554229.299810
720572.386581
736891.799828
-530286.698187
-527984.194217
687534.571606
700366.035624
-506072.360846
-501022.409768
651356.465829
664905.145267
-477939.157817
-475151.440296
615708.316931
629024.948681
-452592.644620
-448532.158871
582921.624628
594357.028310
-426706.358224
-424021.177261
547124.901050
560791.800343
537311.205553
-401551.598859
-398333.722682
516117.502333
509029.645178
-378972.874914
-376089.286745
478717.937505
478017.360777
-357305.916091
-353244.057631
447697.937683
445735.183216
-334143.216275
-331357.717487
417089.762450
415834.545327
-315667.064817
-310720.144739
388225.423882
387244.524141
-293013.092100
-289397.412396
362240.985879
360040.027146
-273512.307650
-270269.079679
334654.359586
334613.320097
-254263.674284
-252683.799649
309821.402156
307771.016981
-235932.934857
-234650.787229
285858.238253
284418.032169
-217932.783238
-216916.452839
262466.370404
260267.464061
-203382.223917
-200225.606510
239572.181380
238822.754853
-188673.031596
-184071.564342
218912.705661
218461.021013
-171952.919618
-170310.124974
198478.045759
198026.254913
-156572.301602
-155661.993088
180209.912209
179963.096851
-143356.293944
-142166.823193
-133134.813900
162157.671117
161809.116966
-131497.668060
-122755.441261
146764.146033
145156.406340
-116927.188783
-111172.723259
132083.588202
130192.924661
-106156.327224
-100281.693798
115710.010775
114674.166242
-94842.538611
-90786.758735
103234.661372
100975.378702
-85714.992655
-81801.670900
90491.776732
89137.570215
-76067.304873
-71289.751920
79237.836237
78264.026010
-67758.017198
-64980.444336
68577.551827
68105.709402
-61459.457943
-56952.647913
59085.838761
57084.705565
-53368.978596
-49517.411275
49347.961841
48693.036392
-46505.635393
-43566.670378
40470.152348
41766.598854
-40363.165289
-38909.005763
33366.079677
35805.688467
-34070.570560
-32023.070498
26500.806927
30616.113870
-30102.055738
-28854.826470
21595.869908
24221.284608
-25811.825358
-23518.371648
15788.011585
19120.591803
-21584.631803
-20060.477467
12249.820651
13592.359686
-17682.653301
-16851.789239
8482.166130
10660.422203
-13753.472181
-14453.844928
5429.767716
6555.642003
-9903.260769
-10092.604081
2985.733386
5556.499322
-10032.263060
-7644.816380
1561.662675
1880.630931
-7415.787885
-6823.206060
-24.898844
2563.843610
-5842.663343
-4552.963708
-1069.463188
-883.631803
-4337.792023
-2574.218502
-2114.090219
-2157.911833
-1997.298556
-2119.976776
-3138.216233
-2666.171581
-1555.054624
-1522.551477
-4006.166843
-2215.377924
-635.067486
20.261562
-4348.091269
-1874.290488
491.760829
-477.166451
-3115.920558
-2581.960105
-612.350897
-643.657725
-3237.654708
-3200.647485
309.670787
423.300647
-4113.273317
-3756.202544
-847.507875
-205.312671
-2168.809940
-1699.146824
-1247.216032
-952.982737
-2067.994281
-843.460373
-1196.341544
-1297.141073
-613.378497
-3207.522756
-1047.318615
